<VTKFile type="UnstructuredGrid" version="1,0" byte_order="LittleEndian">
<UnstructuredGrid>
<Piece NumberOfPoints="5802" NumberOfCells="5680">
<Points>
<DataArray type="Float64" NumberOfComponents="3" format="ascii">
-0.1100000000000E+01 -0.4731587125634E+01  0.0000000000000E+00
 0.0000000000000E+00 -0.4731587125634E+01  0.0000000000000E+00
 0.1100000000000E+01 -0.4731587125634E+01  0.0000000000000E+00
-0.1191315091097E+01 -0.1825930012610E+01  0.0000000000000E+00
-0.5956575398395E+00 -0.1755172846926E+01  0.0000000000000E+00
 0.5956575512579E+00 -0.1755172847830E+01  0.0000000000000E+00
 0.1191315091097E+01 -0.1825930012610E+01  0.0000000000000E+00
-0.1487255332335E+01  0.3711246317436E+00  0.0000000000000E+00
 0.1487255329206E+01  0.3711246337271E+00  0.0000000000000E+00
-0.6187500000000E+00 -0.4973806884503E+00  0.0000000000000E+00
 0.6187500000000E+00 -0.4973806884503E+00  0.0000000000000E+00
-0.1072500000000E+01 -0.4731587125634E+01  0.0000000000000E+00
-0.1045000000000E+01 -0.4731587125634E+01  0.0000000000000E+00
-0.1017500000000E+01 -0.4731587125634E+01  0.0000000000000E+00
-0.9900000000000E+00 -0.4731587125634E+01  0.0000000000000E+00
-0.9625000000000E+00 -0.4731587125634E+01  0.0000000000000E+00
-0.9350000000000E+00 -0.4731587125634E+01  0.0000000000000E+00
-0.9075000000000E+00 -0.4731587125634E+01  0.0000000000000E+00
-0.8800000000000E+00 -0.4731587125634E+01  0.0000000000000E+00
-0.8525000000000E+00 -0.4731587125634E+01  0.0000000000000E+00
-0.8250000000000E+00 -0.4731587125634E+01  0.0000000000000E+00
-0.7975000000000E+00 -0.4731587125634E+01  0.0000000000000E+00
-0.7700000000000E+00 -0.4731587125634E+01  0.0000000000000E+00
-0.7425000000000E+00 -0.4731587125634E+01  0.0000000000000E+00
-0.7150000000000E+00 -0.4731587125634E+01  0.0000000000000E+00
-0.6875000000000E+00 -0.4731587125634E+01  0.0000000000000E+00
-0.6600000000000E+00 -0.4731587125634E+01  0.0000000000000E+00
-0.6325000000000E+00 -0.4731587125634E+01  0.0000000000000E+00
-0.6050000000000E+00 -0.4731587125634E+01  0.0000000000000E+00
-0.5775000000000E+00 -0.4731587125634E+01  0.0000000000000E+00
-0.5500000000000E+00 -0.4731587125634E+01  0.0000000000000E+00
-0.5225000000000E+00 -0.4731587125634E+01  0.0000000000000E+00
-0.4950000000000E+00 -0.4731587125634E+01  0.0000000000000E+00
-0.4675000000000E+00 -0.4731587125634E+01  0.0000000000000E+00
-0.4400000000000E+00 -0.4731587125634E+01  0.0000000000000E+00
-0.4125000000000E+00 -0.4731587125634E+01  0.0000000000000E+00
-0.3850000000000E+00 -0.4731587125634E+01  0.0000000000000E+00
-0.3575000000000E+00 -0.4731587125634E+01  0.0000000000000E+00
-0.3300000000000E+00 -0.4731587125634E+01  0.0000000000000E+00
-0.3025000000000E+00 -0.4731587125634E+01  0.0000000000000E+00
-0.2750000000000E+00 -0.4731587125634E+01  0.0000000000000E+00
-0.2475000000000E+00 -0.4731587125634E+01  0.0000000000000E+00
-0.2200000000000E+00 -0.4731587125634E+01  0.0000000000000E+00
-0.1925000000000E+00 -0.4731587125634E+01  0.0000000000000E+00
-0.1650000000000E+00 -0.4731587125634E+01  0.0000000000000E+00
-0.1375000000000E+00 -0.4731587125634E+01  0.0000000000000E+00
-0.1100000000000E+00 -0.4731587125634E+01  0.0000000000000E+00
-0.8250000000000E-01 -0.4731587125634E+01  0.0000000000000E+00
-0.5500000000000E-01 -0.4731587125634E+01  0.0000000000000E+00
-0.2750000000000E-01 -0.4731587125634E+01  0.0000000000000E+00
 0.2750000000000E-01 -0.4731587125634E+01  0.0000000000000E+00
 0.5500000000000E-01 -0.4731587125634E+01  0.0000000000000E+00
 0.8250000000000E-01 -0.4731587125634E+01  0.0000000000000E+00
 0.1100000000000E+00 -0.4731587125634E+01  0.0000000000000E+00
 0.1375000000000E+00 -0.4731587125634E+01  0.0000000000000E+00
 0.1650000000000E+00 -0.4731587125634E+01  0.0000000000000E+00
 0.1925000000000E+00 -0.4731587125634E+01  0.0000000000000E+00
 0.2200000000000E+00 -0.4731587125634E+01  0.0000000000000E+00
 0.2475000000000E+00 -0.4731587125634E+01  0.0000000000000E+00
 0.2750000000000E+00 -0.4731587125634E+01  0.0000000000000E+00
 0.3025000000000E+00 -0.4731587125634E+01  0.0000000000000E+00
 0.3300000000000E+00 -0.4731587125634E+01  0.0000000000000E+00
 0.3575000000000E+00 -0.4731587125634E+01  0.0000000000000E+00
 0.3850000000000E+00 -0.4731587125634E+01  0.0000000000000E+00
 0.4125000000000E+00 -0.4731587125634E+01  0.0000000000000E+00
 0.4400000000000E+00 -0.4731587125634E+01  0.0000000000000E+00
 0.4675000000000E+00 -0.4731587125634E+01  0.0000000000000E+00
 0.4950000000000E+00 -0.4731587125634E+01  0.0000000000000E+00
 0.5225000000000E+00 -0.4731587125634E+01  0.0000000000000E+00
 0.5500000000000E+00 -0.4731587125634E+01  0.0000000000000E+00
 0.5775000000000E+00 -0.4731587125634E+01  0.0000000000000E+00
 0.6050000000000E+00 -0.4731587125634E+01  0.0000000000000E+00
 0.6325000000000E+00 -0.4731587125634E+01  0.0000000000000E+00
 0.6600000000000E+00 -0.4731587125634E+01  0.0000000000000E+00
 0.6875000000000E+00 -0.4731587125634E+01  0.0000000000000E+00
 0.7150000000000E+00 -0.4731587125634E+01  0.0000000000000E+00
 0.7425000000000E+00 -0.4731587125634E+01  0.0000000000000E+00
 0.7700000000000E+00 -0.4731587125634E+01  0.0000000000000E+00
 0.7975000000000E+00 -0.4731587125634E+01  0.0000000000000E+00
 0.8250000000000E+00 -0.4731587125634E+01  0.0000000000000E+00
 0.8525000000000E+00 -0.4731587125634E+01  0.0000000000000E+00
 0.8800000000000E+00 -0.4731587125634E+01  0.0000000000000E+00
 0.9075000000000E+00 -0.4731587125634E+01  0.0000000000000E+00
 0.9350000000000E+00 -0.4731587125634E+01  0.0000000000000E+00
 0.9625000000000E+00 -0.4731587125634E+01  0.0000000000000E+00
 0.9900000000000E+00 -0.4731587125634E+01  0.0000000000000E+00
 0.1017500000000E+01 -0.4731587125634E+01  0.0000000000000E+00
 0.1045000000000E+01 -0.4731587125634E+01  0.0000000000000E+00
 0.1072500000000E+01 -0.4731587125634E+01  0.0000000000000E+00
-0.1161675590434E+01 -0.1821293974842E+01  0.0000000000000E+00
-0.1132018469080E+01 -0.1816772081031E+01  0.0000000000000E+00
-0.1102344135527E+01 -0.1812364599475E+01  0.0000000000000E+00
-0.1072653001422E+01 -0.1808071792594E+01  0.0000000000000E+00
-0.1042945459471E+01 -0.1803893913795E+01  0.0000000000000E+00
-0.1013221952450E+01 -0.1799831217138E+01  0.0000000000000E+00
-0.9834829017084E+00 -0.1795883946982E+01  0.0000000000000E+00
-0.9537287316532E+00 -0.1792052341512E+01  0.0000000000000E+00
-0.9239598612408E+00 -0.1788336631619E+01  0.0000000000000E+00
-0.8941767210493E+00 -0.1784737043031E+01  0.0000000000000E+00
-0.8643797539566E+00 -0.1781253796152E+01  0.0000000000000E+00
-0.8345693957871E+00 -0.1777887103664E+01  0.0000000000000E+00
-0.8047460850418E+00 -0.1774637171701E+01  0.0000000000000E+00
-0.7749102599775E+00 -0.1771504199483E+01  0.0000000000000E+00
-0.7450623578572E+00 -0.1768488379244E+01  0.0000000000000E+00
-0.7152028352234E+00 -0.1765589898169E+01  0.0000000000000E+00
-0.6853321404180E+00 -0.1762808935500E+01  0.0000000000000E+00
-0.6554507240472E+00 -0.1760145663610E+01  0.0000000000000E+00
-0.6255590388957E+00 -0.1757600247935E+01  0.0000000000000E+00
-0.5659320403842E+00 -0.1752877555980E+01  0.0000000000000E+00
-0.5361977827764E+00 -0.1750699115345E+01  0.0000000000000E+00
-0.5064551822954E+00 -0.1748637656849E+01  0.0000000000000E+00
-0.4767046834532E+00 -0.1746693307634E+01  0.0000000000000E+00
-0.4469467825907E+00 -0.1744866190914E+01  0.0000000000000E+00
-0.4171818756954E+00 -0.1743156416506E+01  0.0000000000000E+00
-0.3874104734057E+00 -0.1741564093885E+01  0.0000000000000E+00
-0.3576330176963E+00 -0.1740089321191E+01  0.0000000000000E+00
-0.3278499563594E+00 -0.1738732189839E+01  0.0000000000000E+00
-0.2980617833702E+00 -0.1737492785992E+01  0.0000000000000E+00
-0.2682689204519E+00 -0.1736371185422E+01  0.0000000000000E+00
-0.2384718656336E+00 -0.1735367459648E+01  0.0000000000000E+00
-0.2086710716336E+00 -0.1734481671049E+01  0.0000000000000E+00
-0.1788669979735E+00 -0.1733713874997E+01  0.0000000000000E+00
-0.1490601279746E+00 -0.1733064120054E+01  0.0000000000000E+00
-0.1192509059245E+00 -0.1732532446511E+01  0.0000000000000E+00
-0.8943981808141E-01 -0.1732118888112E+01  0.0000000000000E+00
-0.5962732433722E-01 -0.1731823470688E+01  0.0000000000000E+00
-0.2981389296327E-01 -0.1731646212812E+01  0.0000000000000E+00
 0.5727055524263E-08 -0.1731587125634E+01  0.0000000000000E+00
 0.2981390441730E-01 -0.1731646212857E+01  0.0000000000000E+00
 0.5962733579097E-01 -0.1731823470779E+01  0.0000000000000E+00
 0.8943982953471E-01 -0.1732118888248E+01  0.0000000000000E+00
 0.1192509173772E+00 -0.1732532446692E+01  0.0000000000000E+00
 0.1490601394265E+00 -0.1733064120281E+01  0.0000000000000E+00
 0.1788670094244E+00 -0.1733713875269E+01  0.0000000000000E+00
 0.2086710830833E+00 -0.1734481671367E+01  0.0000000000000E+00
 0.2384718770819E+00 -0.1735367460011E+01  0.0000000000000E+00
 0.2682689318987E+00 -0.1736371185830E+01  0.0000000000000E+00
 0.2980617948153E+00 -0.1737492786445E+01  0.0000000000000E+00
 0.3278499678026E+00 -0.1738732190338E+01  0.0000000000000E+00
 0.3576330291375E+00 -0.1740089321735E+01  0.0000000000000E+00
 0.3874104848446E+00 -0.1741564094474E+01  0.0000000000000E+00
 0.4171818871319E+00 -0.1743156417141E+01  0.0000000000000E+00
 0.4469467940246E+00 -0.1744866191594E+01  0.0000000000000E+00
 0.4767046948843E+00 -0.1746693308359E+01  0.0000000000000E+00
 0.5064551937236E+00 -0.1748637657619E+01  0.0000000000000E+00
 0.5361977942015E+00 -0.1750699116160E+01  0.0000000000000E+00
 0.5659320518060E+00 -0.1752877556840E+01  0.0000000000000E+00
 0.6255590497397E+00 -0.1757600248837E+01  0.0000000000000E+00
 0.6554507343169E+00 -0.1760145664505E+01  0.0000000000000E+00
 0.6853321501138E+00 -0.1762808936384E+01  0.0000000000000E+00
 0.7152028443456E+00 -0.1765589899036E+01  0.0000000000000E+00
 0.7450623664059E+00 -0.1768488380091E+01  0.0000000000000E+00
 0.7749102679531E+00 -0.1771504200305E+01  0.0000000000000E+00
 0.8047460924447E+00 -0.1774637172493E+01  0.0000000000000E+00
 0.8345694026177E+00 -0.1777887104422E+01  0.0000000000000E+00
 0.8643797602152E+00 -0.1781253796871E+01  0.0000000000000E+00
 0.8941767267363E+00 -0.1784737043707E+01  0.0000000000000E+00
 0.9239598663567E+00 -0.1788336632248E+01  0.0000000000000E+00
 0.9537287361985E+00 -0.1792052342089E+01  0.0000000000000E+00
 0.9834829056835E+00 -0.1795883947502E+01  0.0000000000000E+00
 0.1013221955855E+01 -0.1799831217596E+01  0.0000000000000E+00
 0.1042945462307E+01 -0.1803893914188E+01  0.0000000000000E+00
 0.1072653003690E+01 -0.1808071792917E+01  0.0000000000000E+00
 0.1102344137227E+01 -0.1812364599724E+01  0.0000000000000E+00
 0.1132018470213E+01 -0.1816772081202E+01  0.0000000000000E+00
 0.1161675591000E+01 -0.1821293974929E+01  0.0000000000000E+00
-0.1213355268613E+01 -0.1711966308233E+01  0.0000000000000E+00
-0.1238854526170E+01 -0.1598727811073E+01  0.0000000000000E+00
-0.1268466688037E+01 -0.1486497481512E+01  0.0000000000000E+00
-0.1303342965295E+01 -0.1375796643044E+01  0.0000000000000E+00
-0.1345040310075E+01 -0.1267489592785E+01  0.0000000000000E+00
-0.1392581470401E+01 -0.1161597043208E+01  0.0000000000000E+00
-0.1439083524730E+01 -0.1055246799568E+01  0.0000000000000E+00
-0.1480944100518E+01 -0.9469891138312E+00  0.0000000000000E+00
-0.1518131836329E+01 -0.8370360644333E+00  0.0000000000000E+00
-0.1551041415331E+01 -0.7257267337723E+00  0.0000000000000E+00
-0.1579720048034E+01 -0.6132533876738E+00  0.0000000000000E+00
-0.1603836412081E+01 -0.4997150980206E+00  0.0000000000000E+00
-0.1623384157755E+01 -0.3853015140723E+00  0.0000000000000E+00
-0.1638101487121E+01 -0.2701686503839E+00  0.0000000000000E+00
-0.1647164985397E+01 -0.1544579176162E+00  0.0000000000000E+00
-0.1649971232607E+01 -0.3842453929912E-01  0.0000000000000E+00
-0.1647980696334E+01  0.7761284988695E-01  0.0000000000000E+00
-0.1626874369891E+01  0.1914362508587E+00  0.0000000000000E+00
-0.1572796829836E+01  0.2935193328390E+00  0.0000000000000E+00
-0.1418305908641E+01  0.4022416062919E+00  0.0000000000000E+00
-0.1345676864211E+01  0.4236315892164E+00  0.0000000000000E+00
-0.1271121572232E+01  0.4368480112286E+00  0.0000000000000E+00
-0.1195563418735E+01  0.4416990799735E+00  0.0000000000000E+00
-0.1119906317278E+01  0.4384406277265E+00  0.0000000000000E+00
-0.1044756289719E+01  0.4290110284082E+00  0.0000000000000E+00
-0.9703274447726E+00  0.4149459401020E+00  0.0000000000000E+00
-0.8965853652262E+00  0.3976148229097E+00  0.0000000000000E+00
-0.8232882160705E+00  0.3784769972153E+00  0.0000000000000E+00
-0.7500778072402E+00  0.3590082550316E+00  0.0000000000000E+00
-0.6765282087393E+00  0.3408715871599E+00  0.0000000000000E+00
-0.6024721689929E+00  0.3249314759684E+00  0.0000000000000E+00
-0.5279626734789E+00  0.3112660660816E+00  0.0000000000000E+00
-0.4530942500529E+00  0.2997252351383E+00  0.0000000000000E+00
-0.3779502175627E+00  0.2901382908398E+00  0.0000000000000E+00
-0.3025960047097E+00  0.2823699994777E+00  0.0000000000000E+00
-0.2270833670538E+00  0.2763314545000E+00  0.0000000000000E+00
-0.1514548639988E+00  0.2719804032214E+00  0.0000000000000E+00
-0.7574795049362E-01  0.2693218404769E+00  0.0000000000000E+00
-0.1822076423075E-08  0.2684128743665E+00  0.0000000000000E+00
 0.7574794685078E-01  0.2693218403904E+00  0.0000000000000E+00
 0.1514548603582E+00  0.2719804030525E+00  0.0000000000000E+00
 0.2270833634172E+00  0.2763314542500E+00  0.0000000000000E+00
 0.3025960010827E+00  0.2823699991460E+00  0.0000000000000E+00
 0.3779502139414E+00  0.2901382904224E+00  0.0000000000000E+00
 0.4530942464462E+00  0.2997252346305E+00  0.0000000000000E+00
 0.5279626698826E+00  0.3112660654745E+00  0.0000000000000E+00
 0.6024721654224E+00  0.3249314752557E+00  0.0000000000000E+00
 0.6765282051910E+00  0.3408715863362E+00  0.0000000000000E+00
 0.7500778037128E+00  0.3590082541141E+00  0.0000000000000E+00
 0.8232882125500E+00  0.3784769962749E+00  0.0000000000000E+00
 0.8965853616918E+00  0.3976148220208E+00  0.0000000000000E+00
 0.9703274412081E+00  0.4149459393403E+00  0.0000000000000E+00
 0.1044756286115E+01  0.4290110278460E+00  0.0000000000000E+00
 0.1119906313643E+01  0.4384406274322E+00  0.0000000000000E+00
 0.1195563415086E+01  0.4416990800252E+00  0.0000000000000E+00
 0.1271121568610E+01  0.4368480116963E+00  0.0000000000000E+00
 0.1345676860666E+01  0.4236315901228E+00  0.0000000000000E+00
 0.1418305905243E+01  0.4022416076848E+00  0.0000000000000E+00
 0.1572796827692E+01  0.2935193356292E+00  0.0000000000000E+00
 0.1626874368892E+01  0.1914362540528E+00  0.0000000000000E+00
 0.1647980696148E+01  0.7761285305478E-01  0.0000000000000E+00
 0.1649971232614E+01 -0.3842453631130E-01  0.0000000000000E+00
 0.1647164985510E+01 -0.1544579148168E+00  0.0000000000000E+00
 0.1638101487343E+01 -0.2701686477783E+00  0.0000000000000E+00
 0.1623384158054E+01 -0.3853015116666E+00  0.0000000000000E+00
 0.1603836412438E+01 -0.4997150958130E+00  0.0000000000000E+00
 0.1579720048441E+01 -0.6132533856674E+00  0.0000000000000E+00
 0.1551041415774E+01 -0.7257267319674E+00  0.0000000000000E+00
 0.1518131836796E+01 -0.8370360628288E+00  0.0000000000000E+00
 0.1480944100999E+01 -0.9469891124298E+00  0.0000000000000E+00
 0.1439083525216E+01 -0.1055246798366E+01  0.0000000000000E+00
 0.1392581470861E+01 -0.1161597042198E+01  0.0000000000000E+00
 0.1345040310428E+01 -0.1267489591933E+01  0.0000000000000E+00
 0.1303342965506E+01 -0.1375796642335E+01  0.0000000000000E+00
 0.1268466688140E+01 -0.1486497480965E+01  0.0000000000000E+00
 0.1238854526204E+01 -0.1598727810699E+01  0.0000000000000E+00
 0.1213355268613E+01 -0.1711966308043E+01  0.0000000000000E+00
-0.1100000000000E+01 -0.4660595750534E+01  0.0000000000000E+00
-0.1100000000000E+01 -0.4589604523337E+01  0.0000000000000E+00
-0.1100000000000E+01 -0.4518612860194E+01  0.0000000000000E+00
-0.1100000000000E+01 -0.4447621396074E+01  0.0000000000000E+00
-0.1100000000000E+01 -0.4376629946073E+01  0.0000000000000E+00
-0.1100000000000E+01 -0.4305638469395E+01  0.0000000000000E+00
-0.1100000000000E+01 -0.4234647034675E+01  0.0000000000000E+00
-0.1100000000000E+01 -0.4163655573930E+01  0.0000000000000E+00
-0.1100000000000E+01 -0.4092664118400E+01  0.0000000000000E+00
-0.1100000000000E+01 -0.4021672670707E+01  0.0000000000000E+00
-0.1100000000000E+01 -0.3950681208157E+01  0.0000000000000E+00
-0.1100000000000E+01 -0.3879689768887E+01  0.0000000000000E+00
-0.1100000000000E+01 -0.3808698298634E+01  0.0000000000000E+00
-0.1100000000000E+01 -0.3737706770464E+01  0.0000000000000E+00
-0.1100000000000E+01 -0.3666715262498E+01  0.0000000000000E+00
-0.1100000000000E+01 -0.3595723839456E+01  0.0000000000000E+00
-0.1100000000000E+01 -0.3524731789668E+01  0.0000000000000E+00
-0.1100000000000E+01 -0.3453740926047E+01  0.0000000000000E+00
-0.1100000000000E+01 -0.3382749460249E+01  0.0000000000000E+00
-0.1100000000000E+01 -0.3311758072240E+01  0.0000000000000E+00
-0.1100000000000E+01 -0.3240766774652E+01  0.0000000000000E+00
-0.1100000000000E+01 -0.3169775441240E+01  0.0000000000000E+00
-0.1100000000000E+01 -0.3098784076079E+01  0.0000000000000E+00
-0.1100019380481E+01 -0.3027792649889E+01  0.0000000000000E+00
-0.1100182969515E+01 -0.2956801452749E+01  0.0000000000000E+00
-0.1100664097718E+01 -0.2885811820573E+01  0.0000000000000E+00
-0.1101620767933E+01 -0.2814827030427E+01  0.0000000000000E+00
-0.1103169283693E+01 -0.2743852764288E+01  0.0000000000000E+00
-0.1105384238767E+01 -0.2672896168192E+01  0.0000000000000E+00
-0.1108313328915E+01 -0.2601965572023E+01  0.0000000000000E+00
-0.1111994457710E+01 -0.2531069964563E+01  0.0000000000000E+00
-0.1116470504631E+01 -0.2460220060781E+01  0.0000000000000E+00
-0.1121800458045E+01 -0.2389429442476E+01  0.0000000000000E+00
-0.1127980999498E+01 -0.2318707927775E+01  0.0000000000000E+00
-0.1134925652832E+01 -0.2248057274554E+01  0.0000000000000E+00
-0.1142572685777E+01 -0.2177479159635E+01  0.0000000000000E+00
-0.1150886195216E+01 -0.2106976362838E+01  0.0000000000000E+00
-0.1159854464778E+01 -0.2036553785977E+01  0.0000000000000E+00
-0.1169495475345E+01 -0.1966220321347E+01  0.0000000000000E+00
-0.1179881536539E+01 -0.1895993177716E+01  0.0000000000000E+00
 0.1179881536541E+01 -0.1895993177715E+01  0.0000000000000E+00
 0.1169495475345E+01 -0.1966220321347E+01  0.0000000000000E+00
 0.1159854464777E+01 -0.2036553785977E+01  0.0000000000000E+00
 0.1150886195214E+01 -0.2106976362838E+01  0.0000000000000E+00
 0.1142572685775E+01 -0.2177479159635E+01  0.0000000000000E+00
 0.1134925652830E+01 -0.2248057274554E+01  0.0000000000000E+00
 0.1127980999496E+01 -0.2318707927775E+01  0.0000000000000E+00
 0.1121800458043E+01 -0.2389429442476E+01  0.0000000000000E+00
 0.1116470504629E+01 -0.2460220060781E+01  0.0000000000000E+00
 0.1111994457707E+01 -0.2531069964563E+01  0.0000000000000E+00
 0.1108313328912E+01 -0.2601965572023E+01  0.0000000000000E+00
 0.1105384238765E+01 -0.2672896168191E+01  0.0000000000000E+00
 0.1103169283691E+01 -0.2743852764287E+01  0.0000000000000E+00
 0.1101620767933E+01 -0.2814827030427E+01  0.0000000000000E+00
 0.1100664097717E+01 -0.2885811820573E+01  0.0000000000000E+00
 0.1100182969515E+01 -0.2956801452748E+01  0.0000000000000E+00
 0.1100019380481E+01 -0.3027792649889E+01  0.0000000000000E+00
 0.1100000000000E+01 -0.3098784076079E+01  0.0000000000000E+00
 0.1100000000000E+01 -0.3169775441240E+01  0.0000000000000E+00
 0.1100000000000E+01 -0.3240766774652E+01  0.0000000000000E+00
 0.1100000000000E+01 -0.3311758072240E+01  0.0000000000000E+00
 0.1100000000000E+01 -0.3382749460249E+01  0.0000000000000E+00
 0.1100000000000E+01 -0.3453740926047E+01  0.0000000000000E+00
 0.1100000000000E+01 -0.3524731789668E+01  0.0000000000000E+00
 0.1100000000000E+01 -0.3595723839456E+01  0.0000000000000E+00
 0.1100000000000E+01 -0.3666715262498E+01  0.0000000000000E+00
 0.1100000000000E+01 -0.3737706770464E+01  0.0000000000000E+00
 0.1100000000000E+01 -0.3808698298633E+01  0.0000000000000E+00
 0.1100000000000E+01 -0.3879689768887E+01  0.0000000000000E+00
 0.1100000000000E+01 -0.3950681208157E+01  0.0000000000000E+00
 0.1100000000000E+01 -0.4021672670707E+01  0.0000000000000E+00
 0.1100000000000E+01 -0.4092664118399E+01  0.0000000000000E+00
 0.1100000000000E+01 -0.4163655573930E+01  0.0000000000000E+00
 0.1100000000000E+01 -0.4234647034675E+01  0.0000000000000E+00
 0.1100000000000E+01 -0.4305638469395E+01  0.0000000000000E+00
 0.1100000000000E+01 -0.4376629946073E+01  0.0000000000000E+00
 0.1100000000000E+01 -0.4447621396074E+01  0.0000000000000E+00
 0.1100000000000E+01 -0.4518612860194E+01  0.0000000000000E+00
 0.1100000000000E+01 -0.4589604523337E+01  0.0000000000000E+00
 0.1100000000000E+01 -0.4660595750534E+01  0.0000000000000E+00
-0.5884638695905E+00 -0.4894641513885E+00  0.0000000000000E+00
-0.5580825246164E+00 -0.4819218154218E+00  0.0000000000000E+00
-0.5276095633171E+00 -0.4747582607812E+00  0.0000000000000E+00
-0.4970490688930E+00 -0.4679779933456E+00  0.0000000000000E+00
-0.4664052113280E+00 -0.4615853306416E+00  0.0000000000000E+00
-0.4356821841498E+00 -0.4555843826271E+00  0.0000000000000E+00
-0.4048845338533E+00 -0.4499791064130E+00  0.0000000000000E+00
-0.3740168397343E+00 -0.4447732294152E+00  0.0000000000000E+00
-0.3430839130773E+00 -0.4399702753278E+00  0.0000000000000E+00
-0.3120906320172E+00 -0.4355735248917E+00  0.0000000000000E+00
-0.2810420500145E+00 -0.4315860232937E+00  0.0000000000000E+00
-0.2499433335888E+00 -0.4280105603977E+00  0.0000000000000E+00
-0.2187997508610E+00 -0.4248496608797E+00  0.0000000000000E+00
-0.1876166729319E+00 -0.4221055764161E+00  0.0000000000000E+00
-0.1563995773423E+00 -0.4197802779940E+00  0.0000000000000E+00
-0.1251540094126E+00 -0.4178754457584E+00  0.0000000000000E+00
-0.9388558172344E-01 -0.4163924636598E+00  0.0000000000000E+00
-0.6259996113275E-01 -0.4153324139295E+00  0.0000000000000E+00
-0.3130285547239E-01 -0.4146960727333E+00  0.0000000000000E+00
-0.2220446049250E-15 -0.4144839070419E+00  0.0000000000000E+00
 0.3130285547239E-01 -0.4146960727333E+00  0.0000000000000E+00
 0.6259996113275E-01 -0.4153324139295E+00  0.0000000000000E+00
 0.9388558172344E-01 -0.4163924636598E+00  0.0000000000000E+00
 0.1251540094126E+00 -0.4178754457584E+00  0.0000000000000E+00
 0.1563995773423E+00 -0.4197802779940E+00  0.0000000000000E+00
 0.1876166729319E+00 -0.4221055764161E+00  0.0000000000000E+00
 0.2187997508610E+00 -0.4248496608797E+00  0.0000000000000E+00
 0.2499433335888E+00 -0.4280105603977E+00  0.0000000000000E+00
 0.2810420500145E+00 -0.4315860232937E+00  0.0000000000000E+00
 0.3120906320172E+00 -0.4355735248917E+00  0.0000000000000E+00
 0.3430839130773E+00 -0.4399702753278E+00  0.0000000000000E+00
 0.3740168397343E+00 -0.4447732294152E+00  0.0000000000000E+00
 0.4048845338533E+00 -0.4499791064130E+00  0.0000000000000E+00
 0.4356821841498E+00 -0.4555843826271E+00  0.0000000000000E+00
 0.4664052113280E+00 -0.4615853306416E+00  0.0000000000000E+00
 0.4970490688930E+00 -0.4679779933456E+00  0.0000000000000E+00
 0.5276095633171E+00 -0.4747582607812E+00  0.0000000000000E+00
 0.5580825246164E+00 -0.4819218154218E+00  0.0000000000000E+00
 0.5884638695905E+00 -0.4894641513885E+00  0.0000000000000E+00
-0.6186694182519E+00 -0.5602854202626E+00  0.0000000000000E+00
-0.6184121778050E+00 -0.6231895804302E+00  0.0000000000000E+00
-0.6179522181120E+00 -0.6860925653381E+00  0.0000000000000E+00
-0.6172599449830E+00 -0.7489933811583E+00  0.0000000000000E+00
-0.6163035973388E+00 -0.8118907743073E+00  0.0000000000000E+00
-0.6150531470475E+00 -0.8747829429232E+00  0.0000000000000E+00
-0.6134887983150E+00 -0.9376681601377E+00  0.0000000000000E+00
-0.6116160329111E+00 -0.1000544889820E+01  0.0000000000000E+00
-0.6094851916442E+00 -0.1063413466424E+01  0.0000000000000E+00
-0.6072037720657E+00 -0.1126276767718E+01  0.0000000000000E+00
-0.6049223524117E+00 -0.1189140069010E+01  0.0000000000000E+00
-0.6027915109277E+00 -0.1252008645607E+01  0.0000000000000E+00
-0.6009187451903E+00 -0.1314885375279E+01  0.0000000000000E+00
-0.5993543960372E+00 -0.1377770592483E+01  0.0000000000000E+00
-0.5981039452651E+00 -0.1440662761090E+01  0.0000000000000E+00
-0.5971475971003E+00 -0.1503560154231E+01  0.0000000000000E+00
-0.5964553234260E+00 -0.1566460970045E+01  0.0000000000000E+00
-0.5959953631729E+00 -0.1629363954949E+01  0.0000000000000E+00
-0.5957381221583E+00 -0.1692268115114E+01  0.0000000000000E+00
 0.6186694182523E+00 -0.5602854202973E+00  0.0000000000000E+00
 0.6184121778088E+00 -0.6231895804997E+00  0.0000000000000E+00
 0.6179522181269E+00 -0.6860925654424E+00  0.0000000000000E+00
 0.6172599450237E+00 -0.7489933812976E+00  0.0000000000000E+00
 0.6163035974300E+00 -0.8118907744820E+00  0.0000000000000E+00
 0.6150531472289E+00 -0.8747829431345E+00  0.0000000000000E+00
 0.6134887986468E+00 -0.9376681603875E+00  0.0000000000000E+00
 0.6116160334801E+00 -0.1000544890112E+01  0.0000000000000E+00
 0.6094851925666E+00 -0.1063413466762E+01  0.0000000000000E+00
 0.6072037734828E+00 -0.1126276768110E+01  0.0000000000000E+00
 0.6049223544747E+00 -0.1189140069460E+01  0.0000000000000E+00
 0.6027915137782E+00 -0.1252008646118E+01  0.0000000000000E+00
 0.6009187489451E+00 -0.1314885375852E+01  0.0000000000000E+00
 0.5993544007835E+00 -0.1377770593115E+01  0.0000000000000E+00
 0.5981039510633E+00 -0.1440662761777E+01  0.0000000000000E+00
 0.5971476039902E+00 -0.1503560154969E+01  0.0000000000000E+00
 0.5964553314325E+00 -0.1566460970831E+01  0.0000000000000E+00
 0.5959953723106E+00 -0.1629363955777E+01  0.0000000000000E+00
 0.5957381324349E+00 -0.1692268115982E+01  0.0000000000000E+00
-0.6621752666167E+00 -0.4539554224406E+00  0.0000000000000E+00
-0.7056005332335E+00 -0.4105301564309E+00  0.0000000000000E+00
-0.7490257998502E+00 -0.3671048904212E+00  0.0000000000000E+00
-0.7924510664670E+00 -0.3236796244115E+00  0.0000000000000E+00
-0.8358763330837E+00 -0.2802543584018E+00  0.0000000000000E+00
-0.8793015997004E+00 -0.2368290923921E+00  0.0000000000000E+00
-0.9227268663172E+00 -0.1934038263824E+00  0.0000000000000E+00
-0.9661521329339E+00 -0.1499785603727E+00  0.0000000000000E+00
-0.1009577399551E+01 -0.1065532943630E+00  0.0000000000000E+00
-0.1053002666167E+01 -0.6312802835334E-01  0.0000000000000E+00
-0.1096427932784E+01 -0.1970276234365E-01  0.0000000000000E+00
-0.1139853199401E+01  0.2372250366604E-01  0.0000000000000E+00
-0.1183278466018E+01  0.6714776967573E-01  0.0000000000000E+00
-0.1226703732634E+01  0.1105730356854E+00  0.0000000000000E+00
-0.1270128999251E+01  0.1539983016951E+00  0.0000000000000E+00
-0.1313554265868E+01  0.1974235677048E+00  0.0000000000000E+00
-0.1356979532485E+01  0.2408488337145E+00  0.0000000000000E+00
-0.1400404799101E+01  0.2842740997242E+00  0.0000000000000E+00
-0.1443830065718E+01  0.3276993657339E+00  0.0000000000000E+00
 0.6621752664603E+00 -0.4539554223414E+00  0.0000000000000E+00
 0.7056005329206E+00 -0.4105301562325E+00  0.0000000000000E+00
 0.7490257993809E+00 -0.3671048901237E+00  0.0000000000000E+00
 0.7924510658412E+00 -0.3236796240148E+00  0.0000000000000E+00
 0.8358763323015E+00 -0.2802543579059E+00  0.0000000000000E+00
 0.8793015987618E+00 -0.2368290917971E+00  0.0000000000000E+00
 0.9227268652221E+00 -0.1934038256882E+00  0.0000000000000E+00
 0.9661521316824E+00 -0.1499785595793E+00  0.0000000000000E+00
 0.1009577398143E+01 -0.1065532934705E+00  0.0000000000000E+00
 0.1053002664603E+01 -0.6312802736160E-01  0.0000000000000E+00
 0.1096427931063E+01 -0.1970276125273E-01  0.0000000000000E+00
 0.1139853197524E+01  0.2372250485614E-01  0.0000000000000E+00
 0.1183278463984E+01  0.6714777096501E-01  0.0000000000000E+00
 0.1226703730444E+01  0.1105730370739E+00  0.0000000000000E+00
 0.1270128996905E+01  0.1539983031827E+00  0.0000000000000E+00
 0.1313554263365E+01  0.1974235692916E+00  0.0000000000000E+00
 0.1356979529825E+01  0.2408488354005E+00  0.0000000000000E+00
 0.1400404796285E+01  0.2842741015093E+00  0.0000000000000E+00
 0.1443830062746E+01  0.3276993676182E+00  0.0000000000000E+00
-0.1072503587165E+01 -0.4660482676314E+01  0.0000000000000E+00
-0.1072507174322E+01 -0.4589378375132E+01  0.0000000000000E+00
-0.1072510761501E+01 -0.4518273637310E+01  0.0000000000000E+00
-0.1072514348670E+01 -0.4447169098828E+01  0.0000000000000E+00
-0.1072517935839E+01 -0.4376064574487E+01  0.0000000000000E+00
-0.1072521523008E+01 -0.4304960023427E+01  0.0000000000000E+00
-0.1072525110176E+01 -0.4233855514392E+01  0.0000000000000E+00
-0.1072528697345E+01 -0.4162750979291E+01  0.0000000000000E+00
-0.1072532284514E+01 -0.4091646449412E+01  0.0000000000000E+00
-0.1072535871682E+01 -0.4020541927384E+01  0.0000000000000E+00
-0.1072539458851E+01 -0.3949437390474E+01  0.0000000000000E+00
-0.1072543046019E+01 -0.3878332876881E+01  0.0000000000000E+00
-0.1072546633189E+01 -0.3807228332256E+01  0.0000000000000E+00
-0.1072550220361E+01 -0.3736123729622E+01  0.0000000000000E+00
-0.1072553807532E+01 -0.3665019147225E+01  0.0000000000000E+00
-0.1072557394699E+01 -0.3593914649887E+01  0.0000000000000E+00
-0.1072560981898E+01 -0.3522809524803E+01  0.0000000000000E+00
-0.1072564569037E+01 -0.3451705587777E+01  0.0000000000000E+00
-0.1072568156206E+01 -0.3380601047615E+01  0.0000000000000E+00
-0.1072571743371E+01 -0.3309496585365E+01  0.0000000000000E+00
-0.1072575330532E+01 -0.3238392213680E+01  0.0000000000000E+00
-0.1072578917695E+01 -0.3167287806114E+01  0.0000000000000E+00
-0.1072582504859E+01 -0.3096183366749E+01  0.0000000000000E+00
-0.1072604987210E+01 -0.3025078866253E+01  0.0000000000000E+00
-0.1072768067061E+01 -0.2953974594875E+01  0.0000000000000E+00
-0.1073240734738E+01 -0.2882871888659E+01  0.0000000000000E+00
-0.1074177036625E+01 -0.2811774024513E+01  0.0000000000000E+00
-0.1075690363951E+01 -0.2740686684501E+01  0.0000000000000E+00
-0.1077853442627E+01 -0.2669617014531E+01  0.0000000000000E+00
-0.1080712774083E+01 -0.2598573344661E+01  0.0000000000000E+00
-0.1084305312776E+01 -0.2527564663401E+01  0.0000000000000E+00
-0.1088672864462E+01 -0.2456601685752E+01  0.0000000000000E+00
-0.1093872940397E+01 -0.2385697993847E+01  0.0000000000000E+00
-0.1099902305238E+01 -0.2314863405415E+01  0.0000000000000E+00
-0.1106676648231E+01 -0.2244099678337E+01  0.0000000000000E+00
-0.1114135782912E+01 -0.2173408489510E+01  0.0000000000000E+00
-0.1122244705194E+01 -0.2102792618679E+01  0.0000000000000E+00
-0.1130991992091E+01 -0.2032256967667E+01  0.0000000000000E+00
-0.1140395174223E+01 -0.1961810429153E+01  0.0000000000000E+00
-0.1150524750544E+01 -0.1891470211900E+01  0.0000000000000E+00
-0.1045006744548E+01 -0.4660372386096E+01  0.0000000000000E+00
-0.1045013489082E+01 -0.4589157794926E+01  0.0000000000000E+00
-0.1045020233658E+01 -0.4517942766438E+01  0.0000000000000E+00
-0.1045026978215E+01 -0.4446727937600E+01  0.0000000000000E+00
-0.1045033722770E+01 -0.4375513122924E+01  0.0000000000000E+00
-0.1045040467328E+01 -0.4304298281489E+01  0.0000000000000E+00
-0.1045047211882E+01 -0.4233083482143E+01  0.0000000000000E+00
-0.1045053956438E+01 -0.4161868656690E+01  0.0000000000000E+00
-0.1045060700994E+01 -0.4090653836468E+01  0.0000000000000E+00
-0.1045067445549E+01 -0.4019439024110E+01  0.0000000000000E+00
-0.1045074190105E+01 -0.3948224196846E+01  0.0000000000000E+00
-0.1045080934660E+01 -0.3877009392935E+01  0.0000000000000E+00
-0.1045087679217E+01 -0.3805794557944E+01  0.0000000000000E+00
-0.1045094423780E+01 -0.3734579664855E+01  0.0000000000000E+00
-0.1045101168341E+01 -0.3663364792032E+01  0.0000000000000E+00
-0.1045107912893E+01 -0.3592150004402E+01  0.0000000000000E+00
-0.1045114657506E+01 -0.3520934588052E+01  0.0000000000000E+00
-0.1045121402005E+01 -0.3449720361602E+01  0.0000000000000E+00
-0.1045128146562E+01 -0.3378505531081E+01  0.0000000000000E+00
-0.1045134891112E+01 -0.3307290778593E+01  0.0000000000000E+00
-0.1045141635652E+01 -0.3236076116811E+01  0.0000000000000E+00
-0.1045148380197E+01 -0.3164861419091E+01  0.0000000000000E+00
-0.1045155124744E+01 -0.3093646689524E+01  0.0000000000000E+00
-0.1045180279185E+01 -0.3022431898726E+01  0.0000000000000E+00
-0.1045342420071E+01 -0.2951217337114E+01  0.0000000000000E+00
-0.1045806197445E+01 -0.2880004340854E+01  0.0000000000000E+00
-0.1046721701225E+01 -0.2808796186706E+01  0.0000000000000E+00
-0.1048199410343E+01 -0.2737598556815E+01  0.0000000000000E+00
-0.1050310182850E+01 -0.2666418596963E+01  0.0000000000000E+00
-0.1053099325844E+01 -0.2595264637382E+01  0.0000000000000E+00
-0.1056602844668E+01 -0.2524145666314E+01  0.0000000000000E+00
-0.1060861471353E+01 -0.2453072398792E+01  0.0000000000000E+00
-0.1065931240050E+01 -0.2382058417274E+01  0.0000000000000E+00
-0.1071808998522E+01 -0.2311113539101E+01  0.0000000000000E+00
-0.1078412601419E+01 -0.2240239522158E+01  0.0000000000000E+00
-0.1085683408080E+01 -0.2169438043419E+01  0.0000000000000E+00
-0.1093587313453E+01 -0.2098711882551E+01  0.0000000000000E+00
-0.1102113187936E+01 -0.2028065941388E+01  0.0000000000000E+00
-0.1111278111887E+01 -0.1957509112984E+01  0.0000000000000E+00
-0.1121150773592E+01 -0.1887058606097E+01  0.0000000000000E+00
-0.1017509482115E+01 -0.4660264886424E+01  0.0000000000000E+00
-0.1017518964210E+01 -0.4588942795806E+01  0.0000000000000E+00
-0.1017528446364E+01 -0.4517620267209E+01  0.0000000000000E+00
-0.1017537928491E+01 -0.4446297938565E+01  0.0000000000000E+00
-0.1017547410616E+01 -0.4374975624103E+01  0.0000000000000E+00
-0.1017556892744E+01 -0.4303653282842E+01  0.0000000000000E+00
-0.1017566374867E+01 -0.4232330983734E+01  0.0000000000000E+00
-0.1017575856993E+01 -0.4161008658479E+01  0.0000000000000E+00
-0.1017585339119E+01 -0.4089686338463E+01  0.0000000000000E+00
-0.1017594821244E+01 -0.4018364026323E+01  0.0000000000000E+00
-0.1017604303371E+01 -0.3947041699254E+01  0.0000000000000E+00
-0.1017613785494E+01 -0.3875719395574E+01  0.0000000000000E+00
-0.1017623267622E+01 -0.3804397060767E+01  0.0000000000000E+00
-0.1017632749757E+01 -0.3733074667774E+01  0.0000000000000E+00
-0.1017642231890E+01 -0.3661752295078E+01  0.0000000000000E+00
-0.1017651714011E+01 -0.3590430007703E+01  0.0000000000000E+00
-0.1017661196216E+01 -0.3519107090659E+01  0.0000000000000E+00
-0.1017670678263E+01 -0.3447785365312E+01  0.0000000000000E+00
-0.1017680160390E+01 -0.3376463034981E+01  0.0000000000000E+00
-0.1017689642507E+01 -0.3305140782802E+01  0.0000000000000E+00
-0.1017699124612E+01 -0.3233818621464E+01  0.0000000000000E+00
-0.1017708606721E+01 -0.3162496424136E+01  0.0000000000000E+00
-0.1017718088835E+01 -0.3091174194911E+01  0.0000000000000E+00
-0.1017745495548E+01 -0.3019851904360E+01  0.0000000000000E+00
-0.1017906277653E+01 -0.2948529843060E+01  0.0000000000000E+00
-0.1018360744909E+01 -0.2877209347299E+01  0.0000000000000E+00
-0.1019255030769E+01 -0.2805893693688E+01  0.0000000000000E+00
-0.1020696701869E+01 -0.2734588564456E+01  0.0000000000000E+00
-0.1022754748397E+01 -0.2663301105260E+01  0.0000000000000E+00
-0.1025473283124E+01 -0.2592039646501E+01  0.0000000000000E+00
-0.1028887362274E+01 -0.2520813176160E+01  0.0000000000000E+00
-0.1033036644157E+01 -0.2449632409301E+01  0.0000000000000E+00
-0.1037975685816E+01 -0.2378510928701E+01  0.0000000000000E+00
-0.1043701418122E+01 -0.2307458551321E+01  0.0000000000000E+00
-0.1050133861127E+01 -0.2236477035050E+01  0.0000000000000E+00
-0.1057215919976E+01 -0.2165568056937E+01  0.0000000000000E+00
-0.1064914388649E+01 -0.2094734396573E+01  0.0000000000000E+00
-0.1073218430927E+01 -0.2023980955804E+01  0.0000000000000E+00
-0.1082144676909E+01 -0.1953316628048E+01  0.0000000000000E+00
-0.1091760004215E+01 -0.1882758622058E+01  0.0000000000000E+00
-0.9900118099064E+00 -0.4660160183698E+01  0.0000000000000E+00
-0.9900236197882E+00 -0.4588733390572E+01  0.0000000000000E+00
-0.9900354297426E+00 -0.4517306158826E+01  0.0000000000000E+00
-0.9900472396638E+00 -0.4445879127324E+01  0.0000000000000E+00
-0.9900590495827E+00 -0.4374452110027E+01  0.0000000000000E+00
-0.9900708595060E+00 -0.4303025065890E+01  0.0000000000000E+00
-0.9900826694223E+00 -0.4231598063968E+01  0.0000000000000E+00
-0.9900944793430E+00 -0.4160171035861E+01  0.0000000000000E+00
-0.9901062892628E+00 -0.4088744013001E+01  0.0000000000000E+00
-0.9901180991813E+00 -0.4017316998028E+01  0.0000000000000E+00
-0.9901299091023E+00 -0.3945889968104E+01  0.0000000000000E+00
-0.9901417190194E+00 -0.3874462961605E+01  0.0000000000000E+00
-0.9901535289416E+00 -0.3803035923932E+01  0.0000000000000E+00
-0.9901653388735E+00 -0.3731608827986E+01  0.0000000000000E+00
-0.9901771488020E+00 -0.3660181752369E+01  0.0000000000000E+00
-0.9901889587164E+00 -0.3588754762198E+01  0.0000000000000E+00
-0.9902007687351E+00 -0.3517327141434E+01  0.0000000000000E+00
-0.9902125785564E+00 -0.3445900714115E+01  0.0000000000000E+00
-0.9902243884779E+00 -0.3374473680925E+01  0.0000000000000E+00
-0.9902361983865E+00 -0.3303046726000E+01  0.0000000000000E+00
-0.9902480082800E+00 -0.3231619862052E+01  0.0000000000000E+00
-0.9902598181795E+00 -0.3160192962059E+01  0.0000000000000E+00
-0.9902716280843E+00 -0.3088766030123E+01  0.0000000000000E+00
-0.9903008772941E+00 -0.3017339036768E+01  0.0000000000000E+00
-0.9904598908441E+00 -0.2945912272726E+01  0.0000000000000E+00
-0.9909046382074E+00 -0.2874487074405E+01  0.0000000000000E+00
-0.9917772963762E+00 -0.2803066718274E+01  0.0000000000000E+00
-0.9931825196868E+00 -0.2731656886637E+01  0.0000000000000E+00
-0.9951874304676E+00 -0.2660264725035E+01  0.0000000000000E+00
-0.9978349471605E+00 -0.2588898564031E+01  0.0000000000000E+00
-0.1001159176873E+01 -0.2517567391354E+01  0.0000000000000E+00
-0.1005198704189E+01 -0.2446281922097E+01  0.0000000000000E+00
-0.1010006609051E+01 -0.2375055739345E+01  0.0000000000000E+00
-0.1015579905431E+01 -0.2303898659692E+01  0.0000000000000E+00
-0.1021840778788E+01 -0.2232812441032E+01  0.0000000000000E+00
-0.1028733680069E+01 -0.2161798760483E+01  0.0000000000000E+00
-0.1036226302287E+01 -0.2090860397566E+01  0.0000000000000E+00
-0.1044308102607E+01 -0.2020002254134E+01  0.0000000000000E+00
-0.1052995260869E+01 -0.1949233223964E+01  0.0000000000000E+00
-0.1062352844026E+01 -0.1878570515803E+01  0.0000000000000E+00
-0.9625137375235E+00 -0.4660058284100E+01  0.0000000000000E+00
-0.9625274750185E+00 -0.4588529591588E+01  0.0000000000000E+00
-0.9625412125977E+00 -0.4517000459829E+01  0.0000000000000E+00
-0.9625549501385E+00 -0.4445471528601E+01  0.0000000000000E+00
-0.9625686876766E+00 -0.4373942611598E+01  0.0000000000000E+00
-0.9625824252198E+00 -0.4302413667716E+01  0.0000000000000E+00
-0.9625961627548E+00 -0.4230884766111E+01  0.0000000000000E+00
-0.9626099002950E+00 -0.4159355838283E+01  0.0000000000000E+00
-0.9626236378341E+00 -0.4087826915708E+01  0.0000000000000E+00
-0.9626373753717E+00 -0.4016298001032E+01  0.0000000000000E+00
-0.9626511129121E+00 -0.3944769071385E+01  0.0000000000000E+00
-0.9626648504481E+00 -0.3873240165195E+01  0.0000000000000E+00
-0.9626785879900E+00 -0.3801711227786E+01  0.0000000000000E+00
-0.9626923255432E+00 -0.3730182232023E+01  0.0000000000000E+00
-0.9627060630925E+00 -0.3658653256616E+01  0.0000000000000E+00
-0.9627198006253E+00 -0.3587124366778E+01  0.0000000000000E+00
-0.9627335382794E+00 -0.3515594845447E+01  0.0000000000000E+00
-0.9627472757039E+00 -0.3444066519263E+01  0.0000000000000E+00
-0.9627610132450E+00 -0.3372537586345E+01  0.0000000000000E+00
-0.9627747507711E+00 -0.3301008731803E+01  0.0000000000000E+00
-0.9627884882796E+00 -0.3229479968367E+01  0.0000000000000E+00
-0.9628022257951E+00 -0.3157951168836E+01  0.0000000000000E+00
-0.9628159633167E+00 -0.3086422337316E+01  0.0000000000000E+00
-0.9628466548485E+00 -0.3014893444285E+01  0.0000000000000E+00
-0.9630034996671E+00 -0.2943364780630E+01  0.0000000000000E+00
-0.9634381269610E+00 -0.2871837682872E+01  0.0000000000000E+00
-0.9642887572571E+00 -0.2800315427341E+01  0.0000000000000E+00
-0.9656571325932E+00 -0.2728803696419E+01  0.0000000000000E+00
-0.9676085074361E+00 -0.2657309635530E+01  0.0000000000000E+00
-0.9701846058996E+00 -0.2585841575395E+01  0.0000000000000E+00
-0.9734185859714E+00 -0.2514408503499E+01  0.0000000000000E+00
-0.9773479585130E+00 -0.2443021134961E+01  0.0000000000000E+00
-0.9820243263633E+00 -0.2371693053170E+01  0.0000000000000E+00
-0.9874447865971E+00 -0.2300434074359E+01  0.0000000000000E+00
-0.9935336900779E+00 -0.2229245956427E+01  0.0000000000000E+00
-0.1000237033557E+01 -0.2158130376562E+01  0.0000000000000E+00
-0.1007523409081E+01 -0.2087090114213E+01  0.0000000000000E+00
-0.1015382567198E+01 -0.2016130071245E+01  0.0000000000000E+00
-0.1023830237492E+01 -0.1945259141781E+01  0.0000000000000E+00
-0.1032929676247E+01 -0.1874494534560E+01  0.0000000000000E+00
-0.9350152757427E+00 -0.4659959193825E+01  0.0000000000000E+00
-0.9350305514535E+00 -0.4588331411245E+01  0.0000000000000E+00
-0.9350458272582E+00 -0.4516703188809E+01  0.0000000000000E+00
-0.9350611030201E+00 -0.4445075167182E+01  0.0000000000000E+00
-0.9350763787789E+00 -0.4373447159799E+01  0.0000000000000E+00
-0.9350916545434E+00 -0.4301819125501E+01  0.0000000000000E+00
-0.9351069302989E+00 -0.4230191133537E+01  0.0000000000000E+00
-0.9351222060600E+00 -0.4158563115315E+01  0.0000000000000E+00
-0.9351374818200E+00 -0.4086935102354E+01  0.0000000000000E+00
-0.9351527575783E+00 -0.4015307097302E+01  0.0000000000000E+00
-0.9351680333398E+00 -0.3943679077257E+01  0.0000000000000E+00
-0.9351833090963E+00 -0.3872051080703E+01  0.0000000000000E+00
-0.9351985848595E+00 -0.3800423052887E+01  0.0000000000000E+00
-0.9352138606351E+00 -0.3728794966635E+01  0.0000000000000E+00
-0.9352291364064E+00 -0.3657166900768E+01  0.0000000000000E+00
-0.9352444121594E+00 -0.3585538920588E+01  0.0000000000000E+00
-0.9352596880473E+00 -0.3513910308040E+01  0.0000000000000E+00
-0.9352749636799E+00 -0.3442282892296E+01  0.0000000000000E+00
-0.9352902394421E+00 -0.3370654868976E+01  0.0000000000000E+00
-0.9353055151876E+00 -0.3299026924142E+01  0.0000000000000E+00
-0.9353207909136E+00 -0.3227399070539E+01  0.0000000000000E+00
-0.9353360666473E+00 -0.3155771180791E+01  0.0000000000000E+00
-0.9353513423878E+00 -0.3084143259010E+01  0.0000000000000E+00
-0.9353830868434E+00 -0.3012515275629E+01  0.0000000000000E+00
-0.9355373735330E+00 -0.2940887521685E+01  0.0000000000000E+00
-0.9359614913613E+00 -0.2869261333809E+01  0.0000000000000E+00
-0.9367897043898E+00 -0.2797639988196E+01  0.0000000000000E+00
-0.9381208423587E+00 -0.2726029167304E+01  0.0000000000000E+00
-0.9400182918724E+00 -0.2654436016443E+01  0.0000000000000E+00
-0.9425225827175E+00 -0.2582868866489E+01  0.0000000000000E+00
-0.9456659237619E+00 -0.2511336704686E+01  0.0000000000000E+00
-0.9494847521435E+00 -0.2439850246183E+01  0.0000000000000E+00
-0.9540291935997E+00 -0.2368423074660E+01  0.0000000000000E+00
-0.9592964283062E+00 -0.2297065006004E+01  0.0000000000000E+00
-0.9652129725315E+00 -0.2225777798115E+01  0.0000000000000E+00
-0.9717263688312E+00 -0.2154563128249E+01  0.0000000000000E+00
-0.9788061082853E+00 -0.2083423775788E+01  0.0000000000000E+00
-0.9864422348236E+00 -0.2012364642606E+01  0.0000000000000E+00
-0.9946500277763E+00 -0.1941394623162E+01  0.0000000000000E+00
-0.1003490932759E+01 -0.1870530926191E+01  0.0000000000000E+00
-0.9075164348415E+00 -0.4659862918834E+01  0.0000000000000E+00
-0.9075328696488E+00 -0.4588138861463E+01  0.0000000000000E+00
-0.9075493045571E+00 -0.4516414363646E+01  0.0000000000000E+00
-0.9075657394192E+00 -0.4444690066907E+01  0.0000000000000E+00
-0.9075821742781E+00 -0.4372965784431E+01  0.0000000000000E+00
-0.9075986091431E+00 -0.4301241475005E+01  0.0000000000000E+00
-0.9076150439985E+00 -0.4229517207969E+01  0.0000000000000E+00
-0.9076314788598E+00 -0.4157792914640E+01  0.0000000000000E+00
-0.9076479137200E+00 -0.4086068626578E+01  0.0000000000000E+00
-0.9076643485783E+00 -0.4014344346436E+01  0.0000000000000E+00
-0.9076807834401E+00 -0.3942620051282E+01  0.0000000000000E+00
-0.9076972182965E+00 -0.3870895779649E+01  0.0000000000000E+00
-0.9077136531601E+00 -0.3799171476713E+01  0.0000000000000E+00
-0.9077300880371E+00 -0.3727447115263E+01  0.0000000000000E+00
-0.9077465229094E+00 -0.3655722774225E+01  0.0000000000000E+00
-0.9077629577620E+00 -0.3583998518988E+01  0.0000000000000E+00
-0.9077793927597E+00 -0.3512273630535E+01  0.0000000000000E+00
-0.9077958274829E+00 -0.3440549940493E+01  0.0000000000000E+00
-0.9078122623454E+00 -0.3368825642059E+01  0.0000000000000E+00
-0.9078286971899E+00 -0.3297101422216E+01  0.0000000000000E+00
-0.9078451320135E+00 -0.3225377293728E+01  0.0000000000000E+00
-0.9078615668454E+00 -0.3153653129045E+01  0.0000000000000E+00
-0.9078780016846E+00 -0.3081928932287E+01  0.0000000000000E+00
-0.9079104199434E+00 -0.3010204673842E+01  0.0000000000000E+00
-0.9080617693840E+00 -0.2938480644892E+01  0.0000000000000E+00
-0.9084749986280E+00 -0.2866758182177E+01  0.0000000000000E+00
-0.9092804152714E+00 -0.2795040561762E+01  0.0000000000000E+00
-0.9105739367573E+00 -0.2723333466175E+01  0.0000000000000E+00
-0.9124170818274E+00 -0.2651644040617E+01  0.0000000000000E+00
-0.9148491859419E+00 -0.2579980616114E+01  0.0000000000000E+00
-0.9179015088477E+00 -0.2508352179677E+01  0.0000000000000E+00
-0.9216094139598E+00 -0.2436769446484E+01  0.0000000000000E+00
-0.9260215499149E+00 -0.2365246000499E+01  0.0000000000000E+00
-0.9311351799888E+00 -0.2293791657267E+01  0.0000000000000E+00
-0.9368789858541E+00 -0.2222408174696E+01  0.0000000000000E+00
-0.9432020558717E+00 -0.2151097230106E+01  0.0000000000000E+00
-0.9500747801533E+00 -0.2079861602812E+01  0.0000000000000E+00
-0.9574874960124E+00 -0.2008706194698E+01  0.0000000000000E+00
-0.9654550325253E+00 -0.1937639900549E+01  0.0000000000000E+00
-0.9740370246404E+00 -0.1866679929097E+01  0.0000000000000E+00
-0.8800172251723E+00 -0.4659769464936E+01  0.0000000000000E+00
-0.8800344503086E+00 -0.4587951953862E+01  0.0000000000000E+00
-0.8800516755508E+00 -0.4516134001767E+01  0.0000000000000E+00
-0.8800689007447E+00 -0.4444316251013E+01  0.0000000000000E+00
-0.8800861259351E+00 -0.4372498514541E+01  0.0000000000000E+00
-0.8801033511320E+00 -0.4300680751083E+01  0.0000000000000E+00
-0.8801205763187E+00 -0.4228863030071E+01  0.0000000000000E+00
-0.8801378015118E+00 -0.4157045282730E+01  0.0000000000000E+00
-0.8801550267036E+00 -0.4085227540665E+01  0.0000000000000E+00
-0.8801722518934E+00 -0.4013409806530E+01  0.0000000000000E+00
-0.8801894770869E+00 -0.3941592057363E+01  0.0000000000000E+00
-0.8802067022748E+00 -0.3869774331747E+01  0.0000000000000E+00
-0.8802239274701E+00 -0.3797956574788E+01  0.0000000000000E+00
-0.8802411526795E+00 -0.3726138759238E+01  0.0000000000000E+00
-0.8802583778840E+00 -0.3654320964127E+01  0.0000000000000E+00
-0.8802756030679E+00 -0.3582503254930E+01  0.0000000000000E+00
-0.8802928284039E+00 -0.3510684911690E+01  0.0000000000000E+00
-0.8803100534520E+00 -0.3438867768424E+01  0.0000000000000E+00
-0.8803272786463E+00 -0.3367050015972E+01  0.0000000000000E+00
-0.8803445038217E+00 -0.3295232342214E+01  0.0000000000000E+00
-0.8803617289752E+00 -0.3223414759930E+01  0.0000000000000E+00
-0.8803789541373E+00 -0.3151597141404E+01  0.0000000000000E+00
-0.8803961793072E+00 -0.3079779490761E+01  0.0000000000000E+00
-0.8804289026007E+00 -0.3007961778347E+01  0.0000000000000E+00
-0.8805769460245E+00 -0.2936144295485E+01  0.0000000000000E+00
-0.8809789179176E+00 -0.2864328379021E+01  0.0000000000000E+00
-0.8817611694101E+00 -0.2792517304890E+01  0.0000000000000E+00
-0.8830167056487E+00 -0.2720716755693E+01  0.0000000000000E+00
-0.8848051775121E+00 -0.2648933876522E+01  0.0000000000000E+00
-0.8871647261348E+00 -0.2577176998550E+01  0.0000000000000E+00
-0.8901256621418E+00 -0.2505455108563E+01  0.0000000000000E+00
-0.8937222752253E+00 -0.2433778921763E+01  0.0000000000000E+00
-0.8980017369228E+00 -0.2362162022393E+01  0.0000000000000E+00
-0.9029613936084E+00 -0.2290614225668E+01  0.0000000000000E+00
-0.9085320923593E+00 -0.2219137289498E+01  0.0000000000000E+00
-0.9146644673410E+00 -0.2147732891269E+01  0.0000000000000E+00
-0.9213298076975E+00 -0.2076403810231E+01  0.0000000000000E+00
-0.9285187441254E+00 -0.2005154948275E+01  0.0000000000000E+00
-0.9362456554485E+00 -0.1933995200506E+01  0.0000000000000E+00
-0.9445683659478E+00 -0.1862941775651E+01  0.0000000000000E+00
-0.8525176569623E+00 -0.4659678837762E+01  0.0000000000000E+00
-0.8525353138878E+00 -0.4587770699704E+01  0.0000000000000E+00
-0.8525529709217E+00 -0.4515862120068E+01  0.0000000000000E+00
-0.8525706279061E+00 -0.4443953742027E+01  0.0000000000000E+00
-0.8525882848871E+00 -0.4372045378286E+01  0.0000000000000E+00
-0.8526059418746E+00 -0.4300136987525E+01  0.0000000000000E+00
-0.8526235988517E+00 -0.4228228639263E+01  0.0000000000000E+00
-0.8526412558353E+00 -0.4156320264640E+01  0.0000000000000E+00
-0.8526589128176E+00 -0.4084411895299E+01  0.0000000000000E+00
-0.8526765697980E+00 -0.4012503533897E+01  0.0000000000000E+00
-0.8526942267820E+00 -0.3940595157445E+01  0.0000000000000E+00
-0.8527118837602E+00 -0.3868686804574E+01  0.0000000000000E+00
-0.8527295407462E+00 -0.3796778420320E+01  0.0000000000000E+00
-0.8527471977466E+00 -0.3724869977402E+01  0.0000000000000E+00
-0.8527648547419E+00 -0.3652961554948E+01  0.0000000000000E+00
-0.8527825117161E+00 -0.3581053218515E+01  0.0000000000000E+00
-0.8528001688462E+00 -0.3509144247241E+01  0.0000000000000E+00
-0.8528178256813E+00 -0.3437236477454E+01  0.0000000000000E+00
-0.8528354826661E+00 -0.3365328097713E+01  0.0000000000000E+00
-0.8528531396316E+00 -0.3293419796766E+01  0.0000000000000E+00
-0.8528707965746E+00 -0.3221511587407E+01  0.0000000000000E+00
-0.8528884535265E+00 -0.3149603341761E+01  0.0000000000000E+00
-0.8529061104864E+00 -0.3077695063957E+01  0.0000000000000E+00
-0.8529387802737E+00 -0.3005786724301E+01  0.0000000000000E+00
-0.8530831591395E+00 -0.2933878614253E+01  0.0000000000000E+00
-0.8534735151404E+00 -0.2861972070759E+01  0.0000000000000E+00
-0.8542322429400E+00 -0.2790070369632E+01  0.0000000000000E+00
-0.8554494353881E+00 -0.2718179193539E+01  0.0000000000000E+00
-0.8571828755004E+00 -0.2646305687471E+01  0.0000000000000E+00
-0.8594695100855E+00 -0.2574458182743E+01  0.0000000000000E+00
-0.8623387006461E+00 -0.2502645665919E+01  0.0000000000000E+00
-0.8658236631514E+00 -0.2430878852229E+01  0.0000000000000E+00
-0.8699700920406E+00 -0.2359171326182E+01  0.0000000000000E+00
-0.8747754167849E+00 -0.2287532902676E+01  0.0000000000000E+00
-0.8801726498660E+00 -0.2215965339624E+01  0.0000000000000E+00
-0.8861139712552E+00 -0.2144470314473E+01  0.0000000000000E+00
-0.8925715691276E+00 -0.2073050606409E+01  0.0000000000000E+00
-0.8995363675637E+00 -0.2001711117336E+01  0.0000000000000E+00
-0.9070222951358E+00 -0.1930460742663E+01  0.0000000000000E+00
-0.9150853654571E+00 -0.1859316691115E+01  0.0000000000000E+00
-0.8250177407139E+00 -0.4659591042819E+01  0.0000000000000E+00
-0.8250354813908E+00 -0.4587595110000E+01  0.0000000000000E+00
-0.8250532221767E+00 -0.4515598735065E+01  0.0000000000000E+00
-0.8250709629128E+00 -0.4443602561971E+01  0.0000000000000E+00
-0.8250887036454E+00 -0.4371606403194E+01  0.0000000000000E+00
-0.8251064443847E+00 -0.4299610217364E+01  0.0000000000000E+00
-0.8251241851135E+00 -0.4227614074085E+01  0.0000000000000E+00
-0.8251419258488E+00 -0.4155617904413E+01  0.0000000000000E+00
-0.8251596665828E+00 -0.4083621740029E+01  0.0000000000000E+00
-0.8251774073148E+00 -0.4011625583594E+01  0.0000000000000E+00
-0.8251951480505E+00 -0.3939629412091E+01  0.0000000000000E+00
-0.8252128887805E+00 -0.3867633264198E+01  0.0000000000000E+00
-0.8252306295181E+00 -0.3795637084882E+01  0.0000000000000E+00
-0.8252483702703E+00 -0.3723640846831E+01  0.0000000000000E+00
-0.8252661110174E+00 -0.3651644629270E+01  0.0000000000000E+00
-0.8252838517432E+00 -0.3579648497835E+01  0.0000000000000E+00
-0.8253015926257E+00 -0.3507651730783E+01  0.0000000000000E+00
-0.8253193332118E+00 -0.3435656166686E+01  0.0000000000000E+00
-0.8253370739484E+00 -0.3363659991889E+01  0.0000000000000E+00
-0.8253548146655E+00 -0.3291663895982E+01  0.0000000000000E+00
-0.8253725553600E+00 -0.3219667891776E+01  0.0000000000000E+00
-0.8253902960635E+00 -0.3147671851239E+01  0.0000000000000E+00
-0.8254080367749E+00 -0.3075675778504E+01  0.0000000000000E+00
-0.8254403050173E+00 -0.3003679643838E+01  0.0000000000000E+00
-0.8255806712862E+00 -0.2931683738833E+01  0.0000000000000E+00
-0.8259590633559E+00 -0.2859689400535E+01  0.0000000000000E+00
-0.8266939194225E+00 -0.2787699904637E+01  0.0000000000000E+00
-0.8278724200392E+00 -0.2715720933871E+01  0.0000000000000E+00
-0.8295504803575E+00 -0.2643759633128E+01  0.0000000000000E+00
-0.8317638528612E+00 -0.2571824333859E+01  0.0000000000000E+00
-0.8345409499295E+00 -0.2499924022419E+01  0.0000000000000E+00
-0.8379139138084E+00 -0.2428069414060E+01  0.0000000000000E+00
-0.8419269618398E+00 -0.2356274093551E+01  0.0000000000000E+00
-0.8465776065910E+00 -0.2284547875482E+01  0.0000000000000E+00
-0.8518010259485E+00 -0.2212892517768E+01  0.0000000000000E+00
-0.8575509456891E+00 -0.2141309697916E+01  0.0000000000000E+00
-0.8638004530197E+00 -0.2069802195054E+01  0.0000000000000E+00
-0.8705407654042E+00 -0.1998374911091E+01  0.0000000000000E+00
-0.8777853611645E+00 -0.1927036741736E+01  0.0000000000000E+00
-0.8855884432463E+00 -0.1855804895709E+01  0.0000000000000E+00
-0.7975174872200E+00 -0.4659506085482E+01  0.0000000000000E+00
-0.7975349744037E+00 -0.4587425195502E+01  0.0000000000000E+00
-0.7975524616947E+00 -0.4515343862885E+01  0.0000000000000E+00
-0.7975699489366E+00 -0.4443262732347E+01  0.0000000000000E+00
-0.7975874361751E+00 -0.4371181616143E+01  0.0000000000000E+00
-0.7976049234202E+00 -0.4299100472854E+01  0.0000000000000E+00
-0.7976224106549E+00 -0.4227019372167E+01  0.0000000000000E+00
-0.7976398978961E+00 -0.4154938245055E+01  0.0000000000000E+00
-0.7976573851359E+00 -0.4082857123237E+01  0.0000000000000E+00
-0.7976748723739E+00 -0.4010776009378E+01  0.0000000000000E+00
-0.7976923596155E+00 -0.3938694880433E+01  0.0000000000000E+00
-0.7977098468513E+00 -0.3866613775126E+01  0.0000000000000E+00
-0.7977273340948E+00 -0.3794532638359E+01  0.0000000000000E+00
-0.7977448213526E+00 -0.3722451442787E+01  0.0000000000000E+00
-0.7977623086053E+00 -0.3650370267730E+01  0.0000000000000E+00
-0.7977797958372E+00 -0.3578289178900E+01  0.0000000000000E+00
-0.7977972832234E+00 -0.3506207453703E+01  0.0000000000000E+00
-0.7978147703175E+00 -0.3434126932881E+01  0.0000000000000E+00
-0.7978322575599E+00 -0.3362045800638E+01  0.0000000000000E+00
-0.7978497447831E+00 -0.3289964747379E+01  0.0000000000000E+00
-0.7978672319841E+00 -0.3217883785928E+01  0.0000000000000E+00
-0.7978847191938E+00 -0.3145802788103E+01  0.0000000000000E+00
-0.7979022064114E+00 -0.3073721758043E+01  0.0000000000000E+00
-0.7979337358632E+00 -0.3001640665976E+01  0.0000000000000E+00
-0.7980697522901E+00 -0.2929559803621E+01  0.0000000000000E+00
-0.7984358431845E+00 -0.2857480508120E+01  0.0000000000000E+00
-0.7991464902748E+00 -0.2785406055050E+01  0.0000000000000E+00
-0.8002859618180E+00 -0.2713342127208E+01  0.0000000000000E+00
-0.8019083051015E+00 -0.2641295869387E+01  0.0000000000000E+00
-0.8040480782847E+00 -0.2569275613171E+01  0.0000000000000E+00
-0.8067327446223E+00 -0.2497290344709E+01  0.0000000000000E+00
-0.8099933726376E+00 -0.2425350779278E+01  0.0000000000000E+00
-0.8138727025763E+00 -0.2353470501899E+01  0.0000000000000E+00
-0.8183683301003E+00 -0.2281659326859E+01  0.0000000000000E+00
-0.8234175985009E+00 -0.2209919012080E+01  0.0000000000000E+00
-0.8289757793607E+00 -0.2138251235127E+01  0.0000000000000E+00
-0.8350168589179E+00 -0.2066658775066E+01  0.0000000000000E+00
-0.8415323480198E+00 -0.1995146533818E+01  0.0000000000000E+00
-0.8485352747396E+00 -0.1923723407379E+01  0.0000000000000E+00
-0.8560780313548E+00 -0.1852406604464E+01  0.0000000000000E+00
-0.7700169071112E+00 -0.4659423970938E+01  0.0000000000000E+00
-0.7700338141872E+00 -0.4587260966585E+01  0.0000000000000E+00
-0.7700507213671E+00 -0.4515097519091E+01  0.0000000000000E+00
-0.7700676284995E+00 -0.4442934273906E+01  0.0000000000000E+00
-0.7700845356285E+00 -0.4370771043071E+01  0.0000000000000E+00
-0.7701014427640E+00 -0.4298607785120E+01  0.0000000000000E+00
-0.7701183498894E+00 -0.4226444569820E+01  0.0000000000000E+00
-0.7701352570210E+00 -0.4154281328065E+01  0.0000000000000E+00
-0.7701521641514E+00 -0.4082118091610E+01  0.0000000000000E+00
-0.7701690712799E+00 -0.4009954863123E+01  0.0000000000000E+00
-0.7701859784119E+00 -0.3937791619533E+01  0.0000000000000E+00
-0.7702028855385E+00 -0.3865628399607E+01  0.0000000000000E+00
-0.7702197926723E+00 -0.3793465148187E+01  0.0000000000000E+00
-0.7702366998200E+00 -0.3721301837894E+01  0.0000000000000E+00
-0.7702536069629E+00 -0.3649138548138E+01  0.0000000000000E+00
-0.7702705140855E+00 -0.3576975344709E+01  0.0000000000000E+00
-0.7702874213574E+00 -0.3504811504187E+01  0.0000000000000E+00
-0.7703043283468E+00 -0.3432648869413E+01  0.0000000000000E+00
-0.7703212354797E+00 -0.3360485622521E+01  0.0000000000000E+00
-0.7703381425940E+00 -0.3288322454703E+01  0.0000000000000E+00
-0.7703550496867E+00 -0.3216159378797E+01  0.0000000000000E+00
-0.7703719567880E+00 -0.3143996266477E+01  0.0000000000000E+00
-0.7703888638969E+00 -0.3071833121884E+01  0.0000000000000E+00
-0.7704193279429E+00 -0.2999669915210E+01  0.0000000000000E+00
-0.7705506679129E+00 -0.2927506938299E+01  0.0000000000000E+00
-0.7709041310181E+00 -0.2855345528385E+01  0.0000000000000E+00
-0.7715902425191E+00 -0.2783188960931E+01  0.0000000000000E+00
-0.7726903583770E+00 -0.2711042918797E+01  0.0000000000000E+00
-0.7742566580147E+00 -0.2638914546683E+01  0.0000000000000E+00
-0.7763225052677E+00 -0.2566812176300E+01  0.0000000000000E+00
-0.7789144142657E+00 -0.2494744793600E+01  0.0000000000000E+00
-0.7820623798096E+00 -0.2422723113881E+01  0.0000000000000E+00
-0.7858076650495E+00 -0.2350760722408E+01  0.0000000000000E+00
-0.7901479487410E+00 -0.2278867433179E+01  0.0000000000000E+00
-0.7950227395800E+00 -0.2207045004120E+01  0.0000000000000E+00
-0.8003888549551E+00 -0.2135295112850E+01  0.0000000000000E+00
-0.8062211801355E+00 -0.2063620538380E+01  0.0000000000000E+00
-0.8125115193522E+00 -0.1992026182637E+01  0.0000000000000E+00
-0.8192724504302E+00 -0.1920520941899E+01  0.0000000000000E+00
-0.8265545549795E+00 -0.1849122024875E+01  0.0000000000000E+00
-0.7425160110831E+00 -0.4659344704214E+01  0.0000000000000E+00
-0.7425320221329E+00 -0.4587102433304E+01  0.0000000000000E+00
-0.7425480332810E+00 -0.4514859718765E+01  0.0000000000000E+00
-0.7425640443842E+00 -0.4442617206757E+01  0.0000000000000E+00
-0.7425800554842E+00 -0.4370374709116E+01  0.0000000000000E+00
-0.7425960665902E+00 -0.4298132184328E+01  0.0000000000000E+00
-0.7426120776868E+00 -0.4225889702238E+01  0.0000000000000E+00
-0.7426280887892E+00 -0.4153647193664E+01  0.0000000000000E+00
-0.7426440998905E+00 -0.4081404690396E+01  0.0000000000000E+00
-0.7426601109900E+00 -0.4009162195105E+01  0.0000000000000E+00
-0.7426761220928E+00 -0.3936919684694E+01  0.0000000000000E+00
-0.7426921331904E+00 -0.3864677197973E+01  0.0000000000000E+00
-0.7427081442950E+00 -0.3792434679724E+01  0.0000000000000E+00
-0.7427241554126E+00 -0.3720192102536E+01  0.0000000000000E+00
-0.7427401665257E+00 -0.3647949545909E+01  0.0000000000000E+00
-0.7427561776197E+00 -0.3575707075704E+01  0.0000000000000E+00
-0.7427721888549E+00 -0.3503463967706E+01  0.0000000000000E+00
-0.7427881998227E+00 -0.3431222066779E+01  0.0000000000000E+00
-0.7428042109263E+00 -0.3358979553063E+01  0.0000000000000E+00
-0.7428202220123E+00 -0.3286737118507E+01  0.0000000000000E+00
-0.7428362330780E+00 -0.3214494775965E+01  0.0000000000000E+00
-0.7428522441517E+00 -0.3142252396968E+01  0.0000000000000E+00
-0.7428682552326E+00 -0.3070009985662E+01  0.0000000000000E+00
-0.7428973379532E+00 -0.2997767512206E+01  0.0000000000000E+00
-0.7430236855472E+00 -0.2925525268560E+01  0.0000000000000E+00
-0.7433642049450E+00 -0.2853284592048E+01  0.0000000000000E+00
-0.7440254649391E+00 -0.2781048758026E+01  0.0000000000000E+00
-0.7450859091951E+00 -0.2708823449412E+01  0.0000000000000E+00
-0.7465958492710E+00 -0.2636615810817E+01  0.0000000000000E+00
-0.7485874546793E+00 -0.2564434174075E+01  0.0000000000000E+00
-0.7510862904237E+00 -0.2492287524946E+01  0.0000000000000E+00
-0.7541212775826E+00 -0.2420186578752E+01  0.0000000000000E+00
-0.7577322022120E+00 -0.2348144920990E+01  0.0000000000000E+00
-0.7619168261599E+00 -0.2276172365381E+01  0.0000000000000E+00
-0.7666168235266E+00 -0.2204270669853E+01  0.0000000000000E+00
-0.7717905575071E+00 -0.2132441512079E+01  0.0000000000000E+00
-0.7774138124011E+00 -0.2060687671016E+01  0.0000000000000E+00
-0.7834786858233E+00 -0.1989014048599E+01  0.0000000000000E+00
-0.7899973053517E+00 -0.1917429541373E+01  0.0000000000000E+00
-0.7970184419288E+00 -0.1845951358046E+01  0.0000000000000E+00
-0.7150148098282E+00 -0.4659268290171E+01  0.0000000000000E+00
-0.7150296196255E+00 -0.4586949605377E+01  0.0000000000000E+00
-0.7150444295138E+00 -0.4514630476484E+01  0.0000000000000E+00
-0.7150592393606E+00 -0.4442311550338E+01  0.0000000000000E+00
-0.7150740492044E+00 -0.4369992638572E+01  0.0000000000000E+00
-0.7150888590538E+00 -0.4297673699632E+01  0.0000000000000E+00
-0.7151036688944E+00 -0.4225354803435E+01  0.0000000000000E+00
-0.7151184787405E+00 -0.4153035880725E+01  0.0000000000000E+00
-0.7151332885855E+00 -0.4080716963328E+01  0.0000000000000E+00
-0.7151480984288E+00 -0.4008398053915E+01  0.0000000000000E+00
-0.7151629082753E+00 -0.3936079129367E+01  0.0000000000000E+00
-0.7151777181168E+00 -0.3863760228534E+01  0.0000000000000E+00
-0.7151925279649E+00 -0.3791441296138E+01  0.0000000000000E+00
-0.7152073378250E+00 -0.3719122304743E+01  0.0000000000000E+00
-0.7152221476809E+00 -0.3646803333930E+01  0.0000000000000E+00
-0.7152369575191E+00 -0.3574484449629E+01  0.0000000000000E+00
-0.7152517674881E+00 -0.3502164926862E+01  0.0000000000000E+00
-0.7152665772096E+00 -0.3429846612442E+01  0.0000000000000E+00
-0.7152813870567E+00 -0.3357527684586E+01  0.0000000000000E+00
-0.7152961968876E+00 -0.3285208835972E+01  0.0000000000000E+00
-0.7153110066996E+00 -0.3212890079470E+01  0.0000000000000E+00
-0.7153258165191E+00 -0.3140571286475E+01  0.0000000000000E+00
-0.7153406263452E+00 -0.3068252461137E+01  0.0000000000000E+00
-0.7153680225135E+00 -0.2995933573580E+01  0.0000000000000E+00
-0.7154890725045E+00 -0.2923614915879E+01  0.0000000000000E+00
-0.7158163429684E+00 -0.2851297825445E+01  0.0000000000000E+00
-0.7164524462290E+00 -0.2778985577529E+01  0.0000000000000E+00
-0.7174729136566E+00 -0.2706683855107E+01  0.0000000000000E+00
-0.7189261889441E+00 -0.2634399802702E+01  0.0000000000000E+00
-0.7208432472812E+00 -0.2562141752268E+01  0.0000000000000E+00
-0.7232487045449E+00 -0.2489918689380E+01  0.0000000000000E+00
-0.7261704080913E+00 -0.2417741329381E+01  0.0000000000000E+00
-0.7296466668831E+00 -0.2345623257995E+01  0.0000000000000E+00
-0.7336753258596E+00 -0.2273574288674E+01  0.0000000000000E+00
-0.7382002245257E+00 -0.2201596179347E+01  0.0000000000000E+00
-0.7431812718828E+00 -0.2129690607742E+01  0.0000000000000E+00
-0.7485951512610E+00 -0.2057860352761E+01  0.0000000000000E+00
-0.7544342536587E+00 -0.1986110316347E+01  0.0000000000000E+00
-0.7607102564081E+00 -0.1914449395305E+01  0.0000000000000E+00
-0.7674701197840E+00 -0.1842894798340E+01  0.0000000000000E+00
-0.6875133140180E+00 -0.4659194733497E+01  0.0000000000000E+00
-0.6875266280083E+00 -0.4586802492181E+01  0.0000000000000E+00
-0.6875399420804E+00 -0.4514409806315E+01  0.0000000000000E+00
-0.6875532561151E+00 -0.4442017323401E+01  0.0000000000000E+00
-0.6875665701472E+00 -0.4369624854884E+01  0.0000000000000E+00
-0.6875798841843E+00 -0.4297232359164E+01  0.0000000000000E+00
-0.6875931982135E+00 -0.4224839906230E+01  0.0000000000000E+00
-0.6876065122476E+00 -0.4152447426757E+01  0.0000000000000E+00
-0.6876198262808E+00 -0.4080054952602E+01  0.0000000000000E+00
-0.6876331403124E+00 -0.4007662486439E+01  0.0000000000000E+00
-0.6876464543469E+00 -0.3935270005125E+01  0.0000000000000E+00
-0.6876597683769E+00 -0.3862877547551E+01  0.0000000000000E+00
-0.6876730824128E+00 -0.3790485058383E+01  0.0000000000000E+00
-0.6876863964596E+00 -0.3718092510154E+01  0.0000000000000E+00
-0.6876997105025E+00 -0.3645699982529E+01  0.0000000000000E+00
-0.6877130245296E+00 -0.3573307541504E+01  0.0000000000000E+00
-0.6877263386741E+00 -0.3500914461363E+01  0.0000000000000E+00
-0.6877396525963E+00 -0.3428522590798E+01  0.0000000000000E+00
-0.6877529666313E+00 -0.3356130106173E+01  0.0000000000000E+00
-0.6877662806518E+00 -0.3283737700872E+01  0.0000000000000E+00
-0.6877795946553E+00 -0.3211345387775E+01  0.0000000000000E+00
-0.6877929086655E+00 -0.3138953038149E+01  0.0000000000000E+00
-0.6878062226817E+00 -0.3066560656146E+01  0.0000000000000E+00
-0.6878316377421E+00 -0.2994168211858E+01  0.0000000000000E+00
-0.6879470955743E+00 -0.2921775997472E+01  0.0000000000000E+00
-0.6882608225479E+00 -0.2849385350480E+01  0.0000000000000E+00
-0.6888714745171E+00 -0.2776999546033E+01  0.0000000000000E+00
-0.6898516705568E+00 -0.2704624267162E+01  0.0000000000000E+00
-0.6912479864942E+00 -0.2632266658308E+01  0.0000000000000E+00
-0.6930902031963E+00 -0.2559935051537E+01  0.0000000000000E+00
-0.6954019874130E+00 -0.2487638432247E+01  0.0000000000000E+00
-0.6982101127777E+00 -0.2415387515803E+01  0.0000000000000E+00
-0.7015514111604E+00 -0.2343195888146E+01  0.0000000000000E+00
-0.7054238105909E+00 -0.2271073362469E+01  0.0000000000000E+00
-0.7097733159789E+00 -0.2199021696703E+01  0.0000000000000E+00
-0.7145613821325E+00 -0.2127042568627E+01  0.0000000000000E+00
-0.7197655914124E+00 -0.2055138757093E+01  0.0000000000000E+00
-0.7253786282006E+00 -0.1983315164049E+01  0.0000000000000E+00
-0.7314117195845E+00 -0.1911580686551E+01  0.0000000000000E+00
-0.7379100151708E+00 -0.1839952533300E+01  0.0000000000000E+00
-0.6600115347780E+00 -0.4659124038756E+01  0.0000000000000E+00
-0.6600230695320E+00 -0.4586661102847E+01  0.0000000000000E+00
-0.6600346043568E+00 -0.4514197721954E+01  0.0000000000000E+00
-0.6600461391493E+00 -0.4441734544211E+01  0.0000000000000E+00
-0.6600576739395E+00 -0.4369271380878E+01  0.0000000000000E+00
-0.6600692087340E+00 -0.4296808190316E+01  0.0000000000000E+00
-0.6600807435217E+00 -0.4224345042582E+01  0.0000000000000E+00
-0.6600922783136E+00 -0.4151881868284E+01  0.0000000000000E+00
-0.6601038131047E+00 -0.4079418699308E+01  0.0000000000000E+00
-0.6601153478945E+00 -0.4006955538333E+01  0.0000000000000E+00
-0.6601268826867E+00 -0.3934492362191E+01  0.0000000000000E+00
-0.6601384174751E+00 -0.3862029209812E+01  0.0000000000000E+00
-0.6601499522686E+00 -0.3789566025808E+01  0.0000000000000E+00
-0.6601614870715E+00 -0.3717102782687E+01  0.0000000000000E+00
-0.6601730218711E+00 -0.3644639560188E+01  0.0000000000000E+00
-0.6601845566569E+00 -0.3572176424375E+01  0.0000000000000E+00
-0.6601960915445E+00 -0.3499712648821E+01  0.0000000000000E+00
-0.6602076262394E+00 -0.3427250084026E+01  0.0000000000000E+00
-0.6602191610322E+00 -0.3354786904570E+01  0.0000000000000E+00
-0.6602306958123E+00 -0.3282323804515E+01  0.0000000000000E+00
-0.6602422305777E+00 -0.3209860796755E+01  0.0000000000000E+00
-0.6602537653490E+00 -0.3137397752429E+01  0.0000000000000E+00
-0.6602653001253E+00 -0.3064934675696E+01  0.0000000000000E+00
-0.6602884506478E+00 -0.2992471536614E+01  0.0000000000000E+00
-0.6603980328915E+00 -0.2920008627477E+01  0.0000000000000E+00
-0.6606979329459E+00 -0.2847547285856E+01  0.0000000000000E+00
-0.6612828501955E+00 -0.2775090786807E+01  0.0000000000000E+00
-0.6622224914199E+00 -0.2702644813413E+01  0.0000000000000E+00
-0.6635615645806E+00 -0.2630216510033E+01  0.0000000000000E+00
-0.6653286562223E+00 -0.2557814208847E+01  0.0000000000000E+00
-0.6675464839670E+00 -0.2485446895079E+01  0.0000000000000E+00
-0.6702407477259E+00 -0.2413125284116E+01  0.0000000000000E+00
-0.6734468022770E+00 -0.2340862962106E+01  0.0000000000000E+00
-0.6771626587394E+00 -0.2268669741993E+01  0.0000000000000E+00
-0.6813364874278E+00 -0.2196547381714E+01  0.0000000000000E+00
-0.6859312889571E+00 -0.2124497559093E+01  0.0000000000000E+00
-0.6909255447183E+00 -0.2052523052934E+01  0.0000000000000E+00
-0.6963122324769E+00 -0.1980628765193E+01  0.0000000000000E+00
-0.7021021290765E+00 -0.1908823593166E+01  0.0000000000000E+00
-0.7083385734561E+00 -0.1837124745548E+01  0.0000000000000E+00
-0.6325094830437E+00 -0.4659056210321E+01  0.0000000000000E+00
-0.6325189660676E+00 -0.4586525446119E+01  0.0000000000000E+00
-0.6325284491498E+00 -0.4513994236516E+01  0.0000000000000E+00
-0.6325379322054E+00 -0.4441463230253E+01  0.0000000000000E+00
-0.6325474152591E+00 -0.4368932238414E+01  0.0000000000000E+00
-0.6325568983163E+00 -0.4296401219321E+01  0.0000000000000E+00
-0.6325663813680E+00 -0.4223870243095E+01  0.0000000000000E+00
-0.6325758644231E+00 -0.4151339240280E+01  0.0000000000000E+00
-0.6325853474776E+00 -0.4078808242792E+01  0.0000000000000E+00
-0.6325948305309E+00 -0.4006277253313E+01  0.0000000000000E+00
-0.6326043135863E+00 -0.3933746248653E+01  0.0000000000000E+00
-0.6326137966386E+00 -0.3861215267778E+01  0.0000000000000E+00
-0.6326232796950E+00 -0.3788684255248E+01  0.0000000000000E+00
-0.6326327627591E+00 -0.3716153183546E+01  0.0000000000000E+00
-0.6326422458206E+00 -0.3643622132486E+01  0.0000000000000E+00
-0.6326517288707E+00 -0.3571091168192E+01  0.0000000000000E+00
-0.6326612120045E+00 -0.3498559563559E+01  0.0000000000000E+00
-0.6326706949798E+00 -0.3426029170817E+01  0.0000000000000E+00
-0.6326801780356E+00 -0.3353498162840E+01  0.0000000000000E+00
-0.6326896610811E+00 -0.3280967234338E+01  0.0000000000000E+00
-0.6326991441144E+00 -0.3208436398218E+01  0.0000000000000E+00
-0.6327086271525E+00 -0.3135905525497E+01  0.0000000000000E+00
-0.6327181101949E+00 -0.3063374620339E+01  0.0000000000000E+00
-0.6327387236849E+00 -0.2990843652771E+01  0.0000000000000E+00
-0.6328421578459E+00 -0.2918312915189E+01  0.0000000000000E+00
-0.6331279584877E+00 -0.2845783745241E+01  0.0000000000000E+00
-0.6336868685247E+00 -0.2773259417889E+01  0.0000000000000E+00
-0.6345856824418E+00 -0.2700745616269E+01  0.0000000000000E+00
-0.6358672403342E+00 -0.2628249484662E+01  0.0000000000000E+00
-0.6375589344252E+00 -0.2555779355352E+01  0.0000000000000E+00
-0.6396825332080E+00 -0.2483344213402E+01  0.0000000000000E+00
-0.6422626628715E+00 -0.2410954774215E+01  0.0000000000000E+00
-0.6453332011029E+00 -0.2338624624143E+01  0.0000000000000E+00
-0.6488922421098E+00 -0.2266363575889E+01  0.0000000000000E+00
-0.6528901216113E+00 -0.2194173387393E+01  0.0000000000000E+00
-0.6572913860296E+00 -0.2122055736525E+01  0.0000000000000E+00
-0.6620754157856E+00 -0.2050013402043E+01  0.0000000000000E+00
-0.6672354820285E+00 -0.1978051285908E+01  0.0000000000000E+00
-0.6727819113590E+00 -0.1906178285648E+01  0.0000000000000E+00
-0.6787562320482E+00 -0.1834411609955E+01  0.0000000000000E+00
-0.6050071698059E+00 -0.4658991252397E+01  0.0000000000000E+00
-0.6050143395968E+00 -0.4586395530405E+01  0.0000000000000E+00
-0.6050215094317E+00 -0.4513799362613E+01  0.0000000000000E+00
-0.6050286792466E+00 -0.4441203398345E+01  0.0000000000000E+00
-0.6050358490600E+00 -0.4368607448512E+01  0.0000000000000E+00
-0.6050430188761E+00 -0.4296011471401E+01  0.0000000000000E+00
-0.6050501886880E+00 -0.4223415537196E+01  0.0000000000000E+00
-0.6050573585025E+00 -0.4150819576378E+01  0.0000000000000E+00
-0.6050645283165E+00 -0.4078223620892E+01  0.0000000000000E+00
-0.6050716981297E+00 -0.4005627673422E+01  0.0000000000000E+00
-0.6050788679444E+00 -0.3933031710757E+01  0.0000000000000E+00
-0.6050860377568E+00 -0.3860435771899E+01  0.0000000000000E+00
-0.6050932075722E+00 -0.3787839801358E+01  0.0000000000000E+00
-0.6051003773936E+00 -0.3715243771590E+01  0.0000000000000E+00
-0.6051075472128E+00 -0.3642647762484E+01  0.0000000000000E+00
-0.6051147170235E+00 -0.3570051840222E+01  0.0000000000000E+00
-0.6051218868976E+00 -0.3497455277047E+01  0.0000000000000E+00
-0.6051290566518E+00 -0.3424859926848E+01  0.0000000000000E+00
-0.6051362264668E+00 -0.3352263960863E+01  0.0000000000000E+00
-0.6051433962740E+00 -0.3279668074425E+01  0.0000000000000E+00
-0.6051505660720E+00 -0.3207072280451E+01  0.0000000000000E+00
-0.6051577358736E+00 -0.3134476449843E+01  0.0000000000000E+00
-0.6051649056785E+00 -0.3061880586770E+01  0.0000000000000E+00
-0.6051827206324E+00 -0.2989284661228E+01  0.0000000000000E+00
-0.6052797452072E+00 -0.2916688965711E+01  0.0000000000000E+00
-0.6055511849337E+00 -0.2844094837942E+01  0.0000000000000E+00
-0.6060838262558E+00 -0.2771505552792E+01  0.0000000000000E+00
-0.6069415513641E+00 -0.2698926793447E+01  0.0000000000000E+00
-0.6081653324871E+00 -0.2626365704114E+01  0.0000000000000E+00
-0.6097813675272E+00 -0.2553830617177E+01  0.0000000000000E+00
-0.6118104758481E+00 -0.2481330517544E+01  0.0000000000000E+00
-0.6142762099169E+00 -0.2408876120636E+01  0.0000000000000E+00
-0.6172109703304E+00 -0.2336481012995E+01  0.0000000000000E+00
-0.6206129343837E+00 -0.2264155007098E+01  0.0000000000000E+00
-0.6244346032008E+00 -0.2191899860885E+01  0.0000000000000E+00
-0.6286420690109E+00 -0.2119717252272E+01  0.0000000000000E+00
-0.6332156112646E+00 -0.2047609959972E+01  0.0000000000000E+00
-0.6381487944950E+00 -0.1975582885952E+01  0.0000000000000E+00
-0.6434514950607E+00 -0.1903644927961E+01  0.0000000000000E+00
-0.6491634305650E+00 -0.1831813294687E+01  0.0000000000000E+00
-0.5775046061084E+00 -0.4658929169017E+01  0.0000000000000E+00
-0.5775092122072E+00 -0.4586271363775E+01  0.0000000000000E+00
-0.5775138183343E+00 -0.4513613112352E+01  0.0000000000000E+00
-0.5775184244485E+00 -0.4440955064626E+01  0.0000000000000E+00
-0.5775230305618E+00 -0.4368297031349E+01  0.0000000000000E+00
-0.5775276366768E+00 -0.4295638970769E+01  0.0000000000000E+00
-0.5775322427890E+00 -0.4222980953132E+01  0.0000000000000E+00
-0.5775368489030E+00 -0.4150322908860E+01  0.0000000000000E+00
-0.5775414550166E+00 -0.4077664869924E+01  0.0000000000000E+00
-0.5775460611297E+00 -0.4005006839010E+01  0.0000000000000E+00
-0.5775506672438E+00 -0.3932348792890E+01  0.0000000000000E+00
-0.5775552733564E+00 -0.3859690770596E+01  0.0000000000000E+00
-0.5775598794710E+00 -0.3787032716592E+01  0.0000000000000E+00
-0.5775644855893E+00 -0.3714374603311E+01  0.0000000000000E+00
-0.5775690917063E+00 -0.3641716510709E+01  0.0000000000000E+00
-0.5775736978178E+00 -0.3569058505025E+01  0.0000000000000E+00
-0.5775783039700E+00 -0.3496399857880E+01  0.0000000000000E+00
-0.5775829100452E+00 -0.3423742424750E+01  0.0000000000000E+00
-0.5775875161595E+00 -0.3351084375306E+01  0.0000000000000E+00
-0.5775921222688E+00 -0.3278426405476E+01  0.0000000000000E+00
-0.5775967283721E+00 -0.3205768528191E+01  0.0000000000000E+00
-0.5776013344778E+00 -0.3133110614240E+01  0.0000000000000E+00
-0.5776059405856E+00 -0.3060452667796E+01  0.0000000000000E+00
-0.5776207065436E+00 -0.2987794658827E+01  0.0000000000000E+00
-0.5777110710727E+00 -0.2915136879922E+01  0.0000000000000E+00
-0.5779678994248E+00 -0.2842480668871E+01  0.0000000000000E+00
-0.5784740215735E+00 -0.2769829300463E+01  0.0000000000000E+00
-0.5792904074149E+00 -0.2697188457929E+01  0.0000000000000E+00
-0.5804561613110E+00 -0.2624565285406E+01  0.0000000000000E+00
-0.5819962868433E+00 -0.2551968115375E+01  0.0000000000000E+00
-0.5839306542459E+00 -0.2479405932593E+01  0.0000000000000E+00
-0.5862817422636E+00 -0.2406889452499E+01  0.0000000000000E+00
-0.5890804744040E+00 -0.2334432261820E+01  0.0000000000000E+00
-0.5923251110489E+00 -0.2262044172811E+01  0.0000000000000E+00
-0.5959703187267E+00 -0.2189726943418E+01  0.0000000000000E+00
-0.5999837354740E+00 -0.2117482251598E+01  0.0000000000000E+00
-0.6043465397710E+00 -0.2045312876019E+01  0.0000000000000E+00
-0.6090525895346E+00 -0.1973223718658E+01  0.0000000000000E+00
-0.6141113108821E+00 -0.1901223677472E+01  0.0000000000000E+00
-0.6195606107491E+00 -0.1829329961147E+01  0.0000000000000E+00
-0.5500018030462E+00 -0.4658869964047E+01  0.0000000000000E+00
-0.5500036060886E+00 -0.4586152953959E+01  0.0000000000000E+00
-0.5500054091420E+00 -0.4513435497326E+01  0.0000000000000E+00
-0.5500072121905E+00 -0.4440718244555E+01  0.0000000000000E+00
-0.5500090152385E+00 -0.4368001006246E+01  0.0000000000000E+00
-0.5500108182873E+00 -0.4295283740612E+01  0.0000000000000E+00
-0.5500126213350E+00 -0.4222566517955E+01  0.0000000000000E+00
-0.5500144243833E+00 -0.4149849268642E+01  0.0000000000000E+00
-0.5500162274315E+00 -0.4077132024669E+01  0.0000000000000E+00
-0.5500180304795E+00 -0.4004414788725E+01  0.0000000000000E+00
-0.5500198335279E+00 -0.3931697537561E+01  0.0000000000000E+00
-0.5500216365757E+00 -0.3858980310244E+01  0.0000000000000E+00
-0.5500234396243E+00 -0.3786263051191E+01  0.0000000000000E+00
-0.5500252426743E+00 -0.3713545732813E+01  0.0000000000000E+00
-0.5500270457239E+00 -0.3640828435130E+01  0.0000000000000E+00
-0.5500288487712E+00 -0.3568111224436E+01  0.0000000000000E+00
-0.5500306518345E+00 -0.3495393371759E+01  0.0000000000000E+00
-0.5500324548677E+00 -0.3422676734085E+01  0.0000000000000E+00
-0.5500342579162E+00 -0.3349959479596E+01  0.0000000000000E+00
-0.5500360609627E+00 -0.3277242304786E+01  0.0000000000000E+00
-0.5500378640069E+00 -0.3204525222595E+01  0.0000000000000E+00
-0.5500396670520E+00 -0.3131808103709E+01  0.0000000000000E+00
-0.5500414700979E+00 -0.3059090952303E+01  0.0000000000000E+00
-0.5500529476950E+00 -0.2986373738320E+01  0.0000000000000E+00
-0.5501364128136E+00 -0.2913656754436E+01  0.0000000000000E+00
-0.5503783904272E+00 -0.2840941338509E+01  0.0000000000000E+00
-0.5508577540385E+00 -0.2768230765247E+01  0.0000000000000E+00
-0.5516325612498E+00 -0.2695530717925E+01  0.0000000000000E+00
-0.5527400485558E+00 -0.2622848340613E+01  0.0000000000000E+00
-0.5542040252180E+00 -0.2550191965884E+01  0.0000000000000E+00
-0.5560434123399E+00 -0.2477570578353E+01  0.0000000000000E+00
-0.5582796149445E+00 -0.2404994893474E+01  0.0000000000000E+00
-0.5609420794508E+00 -0.2332478498149E+01  0.0000000000000E+00
-0.5640291493261E+00 -0.2260031204427E+01  0.0000000000000E+00
-0.5674976565036E+00 -0.2187654770253E+01  0.0000000000000E+00
-0.5713167848275E+00 -0.2115350873628E+01  0.0000000000000E+00
-0.5754686118071E+00 -0.2043122293177E+01  0.0000000000000E+00
-0.5799472887431E+00 -0.1970973930881E+01  0.0000000000000E+00
-0.5847617915126E+00 -0.1898914684902E+01  0.0000000000000E+00
-0.5899482163835E+00 -0.1826961763921E+01  0.0000000000000E+00
-0.5225031123729E+00 -0.4658813981278E+01  0.0000000000000E+00
-0.5225062247393E+00 -0.4586040988536E+01  0.0000000000000E+00
-0.5225093371249E+00 -0.4513267548907E+01  0.0000000000000E+00
-0.5225124495017E+00 -0.4440494313297E+01  0.0000000000000E+00
-0.5225155618779E+00 -0.4367721092158E+01  0.0000000000000E+00
-0.5225186742552E+00 -0.4294947843675E+01  0.0000000000000E+00
-0.5225217866308E+00 -0.4222174638202E+01  0.0000000000000E+00
-0.5225248990074E+00 -0.4149401406051E+01  0.0000000000000E+00
-0.5225280113839E+00 -0.4076628179245E+01  0.0000000000000E+00
-0.5225311237600E+00 -0.4003854960475E+01  0.0000000000000E+00
-0.5225342361367E+00 -0.3931081726473E+01  0.0000000000000E+00
-0.5225373485124E+00 -0.3858308516336E+01  0.0000000000000E+00
-0.5225404608895E+00 -0.3785535274437E+01  0.0000000000000E+00
-0.5225435732691E+00 -0.3712761973169E+01  0.0000000000000E+00
-0.5225466856479E+00 -0.3639988692612E+01  0.0000000000000E+00
-0.5225497980229E+00 -0.3567215499111E+01  0.0000000000000E+00
-0.5225529104254E+00 -0.3494441663132E+01  0.0000000000000E+00
-0.5225560227759E+00 -0.3421669043092E+01  0.0000000000000E+00
-0.5225591351527E+00 -0.3348895805762E+01  0.0000000000000E+00
-0.5225622475262E+00 -0.3276122648172E+01  0.0000000000000E+00
-0.5225653598957E+00 -0.3203349583273E+01  0.0000000000000E+00
-0.5225684722668E+00 -0.3130576481651E+01  0.0000000000000E+00
-0.5225715846393E+00 -0.3057803347483E+01  0.0000000000000E+00
-0.5225838878364E+00 -0.2985030150688E+01  0.0000000000000E+00
-0.5226645791765E+00 -0.2912257184026E+01  0.0000000000000E+00
-0.5228958573808E+00 -0.2839485785418E+01  0.0000000000000E+00
-0.5233526522770E+00 -0.2766719229496E+01  0.0000000000000E+00
-0.5240901185848E+00 -0.2693963199577E+01  0.0000000000000E+00
-0.5251436309752E+00 -0.2621224839666E+01  0.0000000000000E+00
-0.5265358082435E+00 -0.2548512482425E+01  0.0000000000000E+00
-0.5282846254413E+00 -0.2475835112332E+01  0.0000000000000E+00
-0.5304104173394E+00 -0.2403203444858E+01  0.0000000000000E+00
-0.5329411580310E+00 -0.2330631067071E+01  0.0000000000000E+00
-0.5358752738152E+00 -0.2258127790822E+01  0.0000000000000E+00
-0.5391717550294E+00 -0.2185695374059E+01  0.0000000000000E+00
-0.5428013263252E+00 -0.2113335494818E+01  0.0000000000000E+00
-0.5467469613379E+00 -0.2041050931690E+01  0.0000000000000E+00
-0.5510031038032E+00 -0.1968846586659E+01  0.0000000000000E+00
-0.5555782807994E+00 -0.1896731358076E+01  0.0000000000000E+00
-0.5605067837800E+00 -0.1824722454622E+01  0.0000000000000E+00
-0.4950042080534E+00 -0.4658760848519E+01  0.0000000000000E+00
-0.4950084160981E+00 -0.4585934723130E+01  0.0000000000000E+00
-0.4950126241686E+00 -0.4513108150526E+01  0.0000000000000E+00
-0.4950168322273E+00 -0.4440281782090E+01  0.0000000000000E+00
-0.4950210402851E+00 -0.4367455428137E+01  0.0000000000000E+00
-0.4950252483446E+00 -0.4294629046819E+01  0.0000000000000E+00
-0.4950294564015E+00 -0.4221802708543E+01  0.0000000000000E+00
-0.4950336644600E+00 -0.4148976343569E+01  0.0000000000000E+00
-0.4950378725182E+00 -0.4076149983944E+01  0.0000000000000E+00
-0.4950420805759E+00 -0.4003323632361E+01  0.0000000000000E+00
-0.4950462886345E+00 -0.3930497265535E+01  0.0000000000000E+00
-0.4950504966917E+00 -0.3857670922591E+01  0.0000000000000E+00
-0.4950547047508E+00 -0.3784844547863E+01  0.0000000000000E+00
-0.4950589128133E+00 -0.3712018113721E+01  0.0000000000000E+00
-0.4950631208746E+00 -0.3639191700306E+01  0.0000000000000E+00
-0.4950673289308E+00 -0.3566365374010E+01  0.0000000000000E+00
-0.4950715370242E+00 -0.3493538404768E+01  0.0000000000000E+00
-0.4950757450473E+00 -0.3420712652352E+01  0.0000000000000E+00
-0.4950799531061E+00 -0.3347886282195E+01  0.0000000000000E+00
-0.4950841611603E+00 -0.3275059991837E+01  0.0000000000000E+00
-0.4950883692091E+00 -0.3202233794237E+01  0.0000000000000E+00
-0.4950925772601E+00 -0.3129407559887E+01  0.0000000000000E+00
-0.4950967853129E+00 -0.3056581292968E+01  0.0000000000000E+00
-0.4951097004640E+00 -0.2983754963374E+01  0.0000000000000E+00
-0.4951874043817E+00 -0.2910928863946E+01  0.0000000000000E+00
-0.4954077695377E+00 -0.2838104332664E+01  0.0000000000000E+00
-0.4958417820870E+00 -0.2765284644087E+01  0.0000000000000E+00
-0.4965416938684E+00 -0.2692475481572E+01  0.0000000000000E+00
-0.4975410177298E+00 -0.2619683989065E+01  0.0000000000000E+00
-0.4988611820019E+00 -0.2546918499309E+01  0.0000000000000E+00
-0.5005192156838E+00 -0.2474187996655E+01  0.0000000000000E+00
-0.5025343832951E+00 -0.2401503196589E+01  0.0000000000000E+00
-0.5049331866049E+00 -0.2328877686334E+01  0.0000000000000E+00
-0.5077141347430E+00 -0.2256321277556E+01  0.0000000000000E+00
-0.5108383764496E+00 -0.2183835728204E+01  0.0000000000000E+00
-0.5142781771833E+00 -0.2111422716353E+01  0.0000000000000E+00
-0.5180174067047E+00 -0.2039085020552E+01  0.0000000000000E+00
-0.5220508011842E+00 -0.1966827542795E+01  0.0000000000000E+00
-0.5263864389021E+00 -0.1894659181612E+01  0.0000000000000E+00
-0.5310568064991E+00 -0.1822597145681E+01  0.0000000000000E+00
-0.4675051002525E+00 -0.4658710568986E+01  0.0000000000000E+00
-0.4675102004944E+00 -0.4585834164169E+01  0.0000000000000E+00
-0.4675153007675E+00 -0.4512957311829E+01  0.0000000000000E+00
-0.4675204010264E+00 -0.4440080663798E+01  0.0000000000000E+00
-0.4675255012843E+00 -0.4367204030259E+01  0.0000000000000E+00
-0.4675306015441E+00 -0.4294327369336E+01  0.0000000000000E+00
-0.4675357018008E+00 -0.4221450751485E+01  0.0000000000000E+00
-0.4675408020595E+00 -0.4148574106919E+01  0.0000000000000E+00
-0.4675459023178E+00 -0.4075697467704E+01  0.0000000000000E+00
-0.4675510025755E+00 -0.4002820836537E+01  0.0000000000000E+00
-0.4675561028342E+00 -0.3929944190116E+01  0.0000000000000E+00
-0.4675612030913E+00 -0.3857067567594E+01  0.0000000000000E+00
-0.4675663033506E+00 -0.3784190913266E+01  0.0000000000000E+00
-0.4675714036141E+00 -0.3711314199484E+01  0.0000000000000E+00
-0.4675765038762E+00 -0.3638437506442E+01  0.0000000000000E+00
-0.4675816041321E+00 -0.3565560900580E+01  0.0000000000000E+00
-0.4675867044331E+00 -0.3492683651327E+01  0.0000000000000E+00
-0.4675918046488E+00 -0.3419807619741E+01  0.0000000000000E+00
-0.4675969049078E+00 -0.3346930969987E+01  0.0000000000000E+00
-0.4676020051612E+00 -0.3274054400087E+01  0.0000000000000E+00
-0.4676071054081E+00 -0.3201177923009E+01  0.0000000000000E+00
-0.4676122056576E+00 -0.3128301409157E+01  0.0000000000000E+00
-0.4676173059094E+00 -0.3055424862712E+01  0.0000000000000E+00
-0.4676306295327E+00 -0.2982548253547E+01  0.0000000000000E+00
-0.4677051425463E+00 -0.2909671874579E+01  0.0000000000000E+00
-0.4679143911723E+00 -0.2836797063844E+01  0.0000000000000E+00
-0.4683254178920E+00 -0.2763927095833E+01  0.0000000000000E+00
-0.4689875716638E+00 -0.2691067653940E+01  0.0000000000000E+00
-0.4699325035119E+00 -0.2618225882054E+01  0.0000000000000E+00
-0.4711804513026E+00 -0.2545410112997E+01  0.0000000000000E+00
-0.4727474979822E+00 -0.2472629330997E+01  0.0000000000000E+00
-0.4746518378190E+00 -0.2399894251555E+01  0.0000000000000E+00
-0.4769185002582E+00 -0.2327218462044E+01  0.0000000000000E+00
-0.4795460772598E+00 -0.2254611773950E+01  0.0000000000000E+00
-0.4824978759672E+00 -0.2182075945228E+01  0.0000000000000E+00
-0.4857477026460E+00 -0.2109612653982E+01  0.0000000000000E+00
-0.4892803231818E+00 -0.2037224678732E+01  0.0000000000000E+00
-0.4930907661800E+00 -0.1964916921473E+01  0.0000000000000E+00
-0.4971866611237E+00 -0.1892698280907E+01  0.0000000000000E+00
-0.5015986898404E+00 -0.1820585965710E+01  0.0000000000000E+00
-0.4400057998211E+00 -0.4658663145781E+01  0.0000000000000E+00
-0.4400115996301E+00 -0.4585739317857E+01  0.0000000000000E+00
-0.4400173994747E+00 -0.4512815042119E+01  0.0000000000000E+00
-0.4400231993031E+00 -0.4439890970823E+01  0.0000000000000E+00
-0.4400289991303E+00 -0.4366966914029E+01  0.0000000000000E+00
-0.4400347989596E+00 -0.4294042829833E+01  0.0000000000000E+00
-0.4400405987856E+00 -0.4221118788737E+01  0.0000000000000E+00
-0.4400463986137E+00 -0.4148194720907E+01  0.0000000000000E+00
-0.4400521984413E+00 -0.4075270658434E+01  0.0000000000000E+00
-0.4400579982683E+00 -0.4002346604013E+01  0.0000000000000E+00
-0.4400637980966E+00 -0.3929422534328E+01  0.0000000000000E+00
-0.4400695979229E+00 -0.3856498488558E+01  0.0000000000000E+00
-0.4400753977517E+00 -0.3783574410961E+01  0.0000000000000E+00
-0.4400811975853E+00 -0.3710650273871E+01  0.0000000000000E+00
-0.4400869974173E+00 -0.3637726157535E+01  0.0000000000000E+00
-0.4400927972423E+00 -0.3564802128435E+01  0.0000000000000E+00
-0.4400985971185E+00 -0.3491877455526E+01  0.0000000000000E+00
-0.4401043968978E+00 -0.3418954001076E+01  0.0000000000000E+00
-0.4401101967263E+00 -0.3346029928056E+01  0.0000000000000E+00
-0.4401159965484E+00 -0.3273105934943E+01  0.0000000000000E+00
-0.4401217963631E+00 -0.3200182034711E+01  0.0000000000000E+00
-0.4401275961808E+00 -0.3127258097681E+01  0.0000000000000E+00
-0.4401333960011E+00 -0.3054334128038E+01  0.0000000000000E+00
-0.4401469354660E+00 -0.2981410095632E+01  0.0000000000000E+00
-0.4402180649440E+00 -0.2908486293451E+01  0.0000000000000E+00
-0.4404160044070E+00 -0.2835564059586E+01  0.0000000000000E+00
-0.4408038526617E+00 -0.2762646668462E+01  0.0000000000000E+00
-0.4414280557851E+00 -0.2689739803510E+01  0.0000000000000E+00
-0.4423184029774E+00 -0.2616850608563E+01  0.0000000000000E+00
-0.4434939416404E+00 -0.2543987416518E+01  0.0000000000000E+00
-0.4449698086669E+00 -0.2471159211489E+01  0.0000000000000E+00
-0.4467631280738E+00 -0.2398376708990E+01  0.0000000000000E+00
-0.4488974569826E+00 -0.2325653496533E+01  0.0000000000000E+00
-0.4513714701828E+00 -0.2252999385440E+01  0.0000000000000E+00
-0.4541506332215E+00 -0.2180416133664E+01  0.0000000000000E+00
-0.4572102931718E+00 -0.2107905419345E+01  0.0000000000000E+00
-0.4605361120445E+00 -0.2035470020967E+01  0.0000000000000E+00
-0.4641234108799E+00 -0.1963114840532E+01  0.0000000000000E+00
-0.4679793703646E+00 -0.1890848776901E+01  0.0000000000000E+00
-0.4721328675123E+00 -0.1818689038749E+01  0.0000000000000E+00
-0.4125063188255E+00 -0.4658618581908E+01  0.0000000000000E+00
-0.4125126376377E+00 -0.4585650190204E+01  0.0000000000000E+00
-0.4125189564888E+00 -0.4512681350412E+01  0.0000000000000E+00
-0.4125252753222E+00 -0.4439712715187E+01  0.0000000000000E+00
-0.4125315941543E+00 -0.4366744094473E+01  0.0000000000000E+00
-0.4125379129888E+00 -0.4293775446340E+01  0.0000000000000E+00
-0.4125442318196E+00 -0.4220806841334E+01  0.0000000000000E+00
-0.4125505506527E+00 -0.4147838209578E+01  0.0000000000000E+00
-0.4125568694853E+00 -0.4074869583181E+01  0.0000000000000E+00
-0.4125631883172E+00 -0.4001900964841E+01  0.0000000000000E+00
-0.4125695071504E+00 -0.3928932331228E+01  0.0000000000000E+00
-0.4125758259816E+00 -0.3855963721545E+01  0.0000000000000E+00
-0.4125821448155E+00 -0.3782995080015E+01  0.0000000000000E+00
-0.4125884636546E+00 -0.3710026378956E+01  0.0000000000000E+00
-0.4125947824919E+00 -0.3637057698663E+01  0.0000000000000E+00
-0.4126011013216E+00 -0.3564089105661E+01  0.0000000000000E+00
-0.4126074202071E+00 -0.3491119868455E+01  0.0000000000000E+00
-0.4126137389871E+00 -0.3418151850454E+01  0.0000000000000E+00
-0.4126200578206E+00 -0.3345183213504E+01  0.0000000000000E+00
-0.4126263766472E+00 -0.3272214656509E+01  0.0000000000000E+00
-0.4126326954657E+00 -0.3199246192453E+01  0.0000000000000E+00
-0.4126390142875E+00 -0.3126277691576E+01  0.0000000000000E+00
-0.4126453331121E+00 -0.3053309158066E+01  0.0000000000000E+00
-0.4126589078544E+00 -0.2980340561753E+01  0.0000000000000E+00
-0.4127264732346E+00 -0.2907372195693E+01  0.0000000000000E+00
-0.4129129229765E+00 -0.2834405398026E+01  0.0000000000000E+00
-0.4132774122137E+00 -0.2761443443115E+01  0.0000000000000E+00
-0.4138634841439E+00 -0.2688492014427E+01  0.0000000000000E+00
-0.4146990661436E+00 -0.2615558255743E+01  0.0000000000000E+00
-0.4158020151508E+00 -0.2542650500030E+01  0.0000000000000E+00
-0.4171865220053E+00 -0.2469777731294E+01  0.0000000000000E+00
-0.4188686404727E+00 -0.2396950665061E+01  0.0000000000000E+00
-0.4208704553524E+00 -0.2324182888976E+01  0.0000000000000E+00
-0.4231907242625E+00 -0.2251484214202E+01  0.0000000000000E+00
-0.4257970711529E+00 -0.2178856398696E+01  0.0000000000000E+00
-0.4286663839034E+00 -0.2106301120627E+01  0.0000000000000E+00
-0.4317852206497E+00 -0.2033821158450E+01  0.0000000000000E+00
-0.4351491948666E+00 -0.1961421414169E+01  0.0000000000000E+00
-0.4387650384451E+00 -0.1889110786798E+01  0.0000000000000E+00
-0.4426598235861E+00 -0.1816906485009E+01  0.0000000000000E+00
-0.3850066669832E+00 -0.4658576880046E+01  0.0000000000000E+00
-0.3850133339525E+00 -0.4585566786567E+01  0.0000000000000E+00
-0.3850200009627E+00 -0.4512556244743E+01  0.0000000000000E+00
-0.3850266679543E+00 -0.4439545907604E+01  0.0000000000000E+00
-0.3850333349445E+00 -0.4366535584984E+01  0.0000000000000E+00
-0.3850400019372E+00 -0.4293525234929E+01  0.0000000000000E+00
-0.3850466689260E+00 -0.4220514928026E+01  0.0000000000000E+00
-0.3850533359172E+00 -0.4147504594357E+01  0.0000000000000E+00
-0.3850600029079E+00 -0.4074494266050E+01  0.0000000000000E+00
-0.3850666698979E+00 -0.4001483945806E+01  0.0000000000000E+00
-0.3850733368893E+00 -0.3928473610280E+01  0.0000000000000E+00
-0.3850800038785E+00 -0.3855463298697E+01  0.0000000000000E+00
-0.3850866708707E+00 -0.3782452955249E+01  0.0000000000000E+00
-0.3850933378682E+00 -0.3709442552238E+01  0.0000000000000E+00
-0.3851000048639E+00 -0.3636432170005E+01  0.0000000000000E+00
-0.3851066718516E+00 -0.3563421875112E+01  0.0000000000000E+00
-0.3851133388981E+00 -0.3490410935648E+01  0.0000000000000E+00
-0.3851200058333E+00 -0.3417401216084E+01  0.0000000000000E+00
-0.3851266728250E+00 -0.3344390877219E+01  0.0000000000000E+00
-0.3851333398094E+00 -0.3271380618355E+01  0.0000000000000E+00
-0.3851400067853E+00 -0.3198370452482E+01  0.0000000000000E+00
-0.3851466737645E+00 -0.3125360249768E+01  0.0000000000000E+00
-0.3851533407468E+00 -0.3052350014401E+01  0.0000000000000E+00
-0.3851667799195E+00 -0.2979339716195E+01  0.0000000000000E+00
-0.3852306103528E+00 -0.2906329648266E+01  0.0000000000000E+00
-0.3854053995203E+00 -0.2833321148803E+01  0.0000000000000E+00
-0.3857463588799E+00 -0.2760317492112E+01  0.0000000000000E+00
-0.3862941287481E+00 -0.2687324361690E+01  0.0000000000000E+00
-0.3870747746768E+00 -0.2614348901271E+01  0.0000000000000E+00
-0.3881049631399E+00 -0.2541399443887E+01  0.0000000000000E+00
-0.3893979389227E+00 -0.2468484973444E+01  0.0000000000000E+00
-0.3909686855394E+00 -0.2395616205479E+01  0.0000000000000E+00
-0.3928378154667E+00 -0.2322806727761E+01  0.0000000000000E+00
-0.3950041691510E+00 -0.2250066351305E+01  0.0000000000000E+00
-0.3974375289459E+00 -0.2177396834071E+01  0.0000000000000E+00
-0.4001163235393E+00 -0.2104799854255E+01  0.0000000000000E+00
-0.4030280071917E+00 -0.2032278190284E+01  0.0000000000000E+00
-0.4061684858133E+00 -0.1959836744166E+01  0.0000000000000E+00
-0.4095440424992E+00 -0.1887484415058E+01  0.0000000000000E+00
-0.4131799446368E+00 -0.1815238411627E+01  0.0000000000000E+00
-0.3575068566982E+00 -0.4658538042865E+01  0.0000000000000E+00
-0.3575137133821E+00 -0.4585489112285E+01  0.0000000000000E+00
-0.3575205701081E+00 -0.4512439733123E+01  0.0000000000000E+00
-0.3575274268148E+00 -0.4439390558754E+01  0.0000000000000E+00
-0.3575342835202E+00 -0.4366341398912E+01  0.0000000000000E+00
-0.3575411402282E+00 -0.4293292211620E+01  0.0000000000000E+00
-0.3575479969321E+00 -0.4220243067503E+01  0.0000000000000E+00
-0.3575548536386E+00 -0.4147193896606E+01  0.0000000000000E+00
-0.3575617103445E+00 -0.4074144731074E+01  0.0000000000000E+00
-0.3575685670497E+00 -0.4001095573609E+01  0.0000000000000E+00
-0.3575754237563E+00 -0.3928046400854E+01  0.0000000000000E+00
-0.3575822804607E+00 -0.3854997252054E+01  0.0000000000000E+00
-0.3575891371681E+00 -0.3781948071373E+01  0.0000000000000E+00
-0.3575959938810E+00 -0.3708898831097E+01  0.0000000000000E+00
-0.3576028505920E+00 -0.3635849611611E+01  0.0000000000000E+00
-0.3576097072948E+00 -0.3562800479510E+01  0.0000000000000E+00
-0.3576165640582E+00 -0.3489750702496E+01  0.0000000000000E+00
-0.3576234207069E+00 -0.3416702146031E+01  0.0000000000000E+00
-0.3576302774139E+00 -0.3343652969935E+01  0.0000000000000E+00
-0.3576371341133E+00 -0.3270603873882E+01  0.0000000000000E+00
-0.3576439908040E+00 -0.3197554870871E+01  0.0000000000000E+00
-0.3576508474981E+00 -0.3124505830998E+01  0.0000000000000E+00
-0.3576577041953E+00 -0.3051456758456E+01  0.0000000000000E+00
-0.3576708493558E+00 -0.2978407623039E+01  0.0000000000000E+00
-0.3577307864007E+00 -0.2905358717923E+01  0.0000000000000E+00
-0.3578937565552E+00 -0.2832311381340E+01  0.0000000000000E+00
-0.3582110276026E+00 -0.2759268887544E+01  0.0000000000000E+00
-0.3587203369794E+00 -0.2686236920060E+01  0.0000000000000E+00
-0.3594458884130E+00 -0.2613222622579E+01  0.0000000000000E+00
-0.3604031579141E+00 -0.2540234328192E+01  0.0000000000000E+00
-0.3616044442134E+00 -0.2467281020712E+01  0.0000000000000E+00
-0.3630636605739E+00 -0.2394373415687E+01  0.0000000000000E+00
-0.3647999471507E+00 -0.2321525101001E+01  0.0000000000000E+00
-0.3668122272178E+00 -0.2248745887532E+01  0.0000000000000E+00
-0.3690724415322E+00 -0.2176037533241E+01  0.0000000000000E+00
-0.3715605595890E+00 -0.2103401716352E+01  0.0000000000000E+00
-0.3742649317735E+00 -0.2030841215263E+01  0.0000000000000E+00
-0.3771817564307E+00 -0.1958360931988E+01  0.0000000000000E+00
-0.3803168678611E+00 -0.1885969765814E+01  0.0000000000000E+00
-0.3836937286386E+00 -0.1813684925408E+01  0.0000000000000E+00
-0.3300068987676E+00 -0.4658502072758E+01  0.0000000000000E+00
-0.3300137975208E+00 -0.4585417172147E+01  0.0000000000000E+00
-0.3300206963164E+00 -0.4512331822732E+01  0.0000000000000E+00
-0.3300275950926E+00 -0.4439246678212E+01  0.0000000000000E+00
-0.3300344938675E+00 -0.4366161548225E+01  0.0000000000000E+00
-0.3300413926450E+00 -0.4293076390776E+01  0.0000000000000E+00
-0.3300482914184E+00 -0.4219991276521E+01  0.0000000000000E+00
-0.3300551901943E+00 -0.4146906135475E+01  0.0000000000000E+00
-0.3300620889697E+00 -0.4073820999796E+01  0.0000000000000E+00
-0.3300689877443E+00 -0.4000735872187E+01  0.0000000000000E+00
-0.3300758865204E+00 -0.3927650729281E+01  0.0000000000000E+00
-0.3300827852943E+00 -0.3854565610343E+01  0.0000000000000E+00
-0.3300896840711E+00 -0.3781480459507E+01  0.0000000000000E+00
-0.3300965828536E+00 -0.3708395249047E+01  0.0000000000000E+00
-0.3301034816341E+00 -0.3635310059386E+01  0.0000000000000E+00
-0.3301103804063E+00 -0.3562224957155E+01  0.0000000000000E+00
-0.3301172792395E+00 -0.3489139209693E+01  0.0000000000000E+00
-0.3301241779574E+00 -0.3416054683381E+01  0.0000000000000E+00
-0.3301310767338E+00 -0.3342969537132E+01  0.0000000000000E+00
-0.3301379755026E+00 -0.3269884470966E+01  0.0000000000000E+00
-0.3301448742627E+00 -0.3196799497888E+01  0.0000000000000E+00
-0.3301517730262E+00 -0.3123714487929E+01  0.0000000000000E+00
-0.3301586717929E+00 -0.3050629445286E+01  0.0000000000000E+00
-0.3301713752953E+00 -0.2977544339735E+01  0.0000000000000E+00
-0.3302272713064E+00 -0.2904459464508E+01  0.0000000000000E+00
-0.3303782748028E+00 -0.2831376157875E+01  0.0000000000000E+00
-0.3306717098932E+00 -0.2758297694042E+01  0.0000000000000E+00
-0.3311424111341E+00 -0.2685229756563E+01  0.0000000000000E+00
-0.3318127204285E+00 -0.2612179489085E+01  0.0000000000000E+00
-0.3326969233240E+00 -0.2539155224757E+01  0.0000000000000E+00
-0.3338063724964E+00 -0.2466165947304E+01  0.0000000000000E+00
-0.3351539109577E+00 -0.2393222372285E+01  0.0000000000000E+00
-0.3367572065418E+00 -0.2320338087689E+01  0.0000000000000E+00
-0.3386152653497E+00 -0.2247522904270E+01  0.0000000000000E+00
-0.3407021865415E+00 -0.2174778579988E+01  0.0000000000000E+00
-0.3429994804201E+00 -0.2102106793092E+01  0.0000000000000E+00
-0.3454963934951E+00 -0.2029510321956E+01  0.0000000000000E+00
-0.3481894165466E+00 -0.1956994068596E+01  0.0000000000000E+00
-0.3510839350807E+00 -0.1884566932422E+01  0.0000000000000E+00
-0.3542016068581E+00 -0.1812246122100E+01  0.0000000000000E+00
-0.3025068041260E+00 -0.4658468971956E+01  0.0000000000000E+00
-0.3025136082379E+00 -0.4585350970612E+01  0.0000000000000E+00
-0.3025204123915E+00 -0.4512232520260E+01  0.0000000000000E+00
-0.3025272165261E+00 -0.4439114274896E+01  0.0000000000000E+00
-0.3025340206593E+00 -0.4365996044072E+01  0.0000000000000E+00
-0.3025408247951E+00 -0.4292877785773E+01  0.0000000000000E+00
-0.3025476289268E+00 -0.4219759570689E+01  0.0000000000000E+00
-0.3025544330610E+00 -0.4146641328800E+01  0.0000000000000E+00
-0.3025612371948E+00 -0.4073523092281E+01  0.0000000000000E+00
-0.3025680413278E+00 -0.4000404863836E+01  0.0000000000000E+00
-0.3025748454622E+00 -0.3927286620088E+01  0.0000000000000E+00
-0.3025816495944E+00 -0.3854168400317E+01  0.0000000000000E+00
-0.3025884537295E+00 -0.3781050148635E+01  0.0000000000000E+00
-0.3025952578702E+00 -0.3707931837301E+01  0.0000000000000E+00
-0.3026020620090E+00 -0.3634813546776E+01  0.0000000000000E+00
-0.3026088661396E+00 -0.3561695343720E+01  0.0000000000000E+00
-0.3026156703303E+00 -0.3488576495141E+01  0.0000000000000E+00
-0.3026224744073E+00 -0.3415458868265E+01  0.0000000000000E+00
-0.3026292785420E+00 -0.3342340621172E+01  0.0000000000000E+00
-0.3026360826693E+00 -0.3269222454198E+01  0.0000000000000E+00
-0.3026428867879E+00 -0.3196104380354E+01  0.0000000000000E+00
-0.3026496909099E+00 -0.3122986269612E+01  0.0000000000000E+00
-0.3026564950350E+00 -0.3049868126171E+01  0.0000000000000E+00
-0.3026686201683E+00 -0.2976749919793E+01  0.0000000000000E+00
-0.3027203384337E+00 -0.2903631943759E+01  0.0000000000000E+00
-0.3028592385586E+00 -0.2830515536376E+01  0.0000000000000E+00
-0.3031287009763E+00 -0.2757403971806E+01  0.0000000000000E+00
-0.3035606573625E+00 -0.2684302933626E+01  0.0000000000000E+00
-0.3041755877955E+00 -0.2611219565447E+01  0.0000000000000E+00
-0.3049865873595E+00 -0.2538162200469E+01  0.0000000000000E+00
-0.3060040626750E+00 -0.2465139822337E+01  0.0000000000000E+00
-0.3072397865029E+00 -0.2392163146619E+01  0.0000000000000E+00
-0.3087099543557E+00 -0.2319245761402E+01  0.0000000000000E+00
-0.3104136551612E+00 -0.2246397477324E+01  0.0000000000000E+00
-0.3123271464832E+00 -0.2173620052345E+01  0.0000000000000E+00
-0.3144334794324E+00 -0.2100915164739E+01  0.0000000000000E+00
-0.3167227966432E+00 -0.2028285592855E+01  0.0000000000000E+00
-0.3191918813306E+00 -0.1955736238713E+01  0.0000000000000E+00
-0.3218456702067E+00 -0.1883276001836E+01  0.0000000000000E+00
-0.3247040162189E+00 -0.1810922090887E+01  0.0000000000000E+00
-0.2750065847907E+00 -0.4658438742560E+01  0.0000000000000E+00
-0.2750131695678E+00 -0.4585290511882E+01  0.0000000000000E+00
-0.2750197543852E+00 -0.4512141832011E+01  0.0000000000000E+00
-0.2750263391843E+00 -0.4438993357213E+01  0.0000000000000E+00
-0.2750329239819E+00 -0.4365844896960E+01  0.0000000000000E+00
-0.2750395087821E+00 -0.4292696409222E+01  0.0000000000000E+00
-0.2750460935784E+00 -0.4219547964716E+01  0.0000000000000E+00
-0.2750526783771E+00 -0.4146399493394E+01  0.0000000000000E+00
-0.2750592631753E+00 -0.4073251027445E+01  0.0000000000000E+00
-0.2750658479728E+00 -0.4000102569572E+01  0.0000000000000E+00
-0.2750724327716E+00 -0.3926954096390E+01  0.0000000000000E+00
-0.2750790175683E+00 -0.3853805647195E+01  0.0000000000000E+00
-0.2750856023679E+00 -0.3780657166076E+01  0.0000000000000E+00
-0.2750921871729E+00 -0.3707508625281E+01  0.0000000000000E+00
-0.2750987719759E+00 -0.3634360105303E+01  0.0000000000000E+00
-0.2751053567711E+00 -0.3561211672831E+01  0.0000000000000E+00
-0.2751119416245E+00 -0.3488062594568E+01  0.0000000000000E+00
-0.2751185263678E+00 -0.3414914738513E+01  0.0000000000000E+00
-0.2751251111669E+00 -0.3341766261985E+01  0.0000000000000E+00
-0.2751316959589E+00 -0.3268617865609E+01  0.0000000000000E+00
-0.2751382807424E+00 -0.3195469562401E+01  0.0000000000000E+00
-0.2751448655293E+00 -0.3122321222281E+01  0.0000000000000E+00
-0.2751514503191E+00 -0.3049172849447E+01  0.0000000000000E+00
-0.2751628723896E+00 -0.2976024413650E+01  0.0000000000000E+00
-0.2752102882170E+00 -0.2902876208215E+01  0.0000000000000E+00
-0.2753369602811E+00 -0.2829729571484E+01  0.0000000000000E+00
-0.2755823253407E+00 -0.2756587777576E+01  0.0000000000000E+00
-0.2759754121923E+00 -0.2683456510093E+01  0.0000000000000E+00
-0.2765348390895E+00 -0.2610342912610E+01  0.0000000000000E+00
-0.2772725106540E+00 -0.2537255318374E+01  0.0000000000000E+00
-0.2781978874511E+00 -0.2464202710958E+01  0.0000000000000E+00
-0.2793216719906E+00 -0.2391195805938E+01  0.0000000000000E+00
-0.2806585874648E+00 -0.2318248191491E+01  0.0000000000000E+00
-0.2822078056280E+00 -0.2245369678147E+01  0.0000000000000E+00
-0.2839477424465E+00 -0.2172562023869E+01  0.0000000000000E+00
-0.2858629898386E+00 -0.2099826906950E+01  0.0000000000000E+00
-0.2879445865631E+00 -0.2027167105719E+01  0.0000000000000E+00
-0.2901896082697E+00 -0.1954587522199E+01  0.0000000000000E+00
-0.2926025428774E+00 -0.1882097056015E+01  0.0000000000000E+00
-0.2952014385204E+00 -0.1809712915830E+01  0.0000000000000E+00
-0.2475062510879E+00 -0.4658411386417E+01  0.0000000000000E+00
-0.2475125021628E+00 -0.4585235799654E+01  0.0000000000000E+00
-0.2475187532761E+00 -0.4512059763530E+01  0.0000000000000E+00
-0.2475250043718E+00 -0.4438883932554E+01  0.0000000000000E+00
-0.2475312554664E+00 -0.4365708116131E+01  0.0000000000000E+00
-0.2475375065632E+00 -0.4292532272210E+01  0.0000000000000E+00
-0.2475437576564E+00 -0.4219356471539E+01  0.0000000000000E+00
-0.2475500087518E+00 -0.4146180644042E+01  0.0000000000000E+00
-0.2475562598468E+00 -0.4073004821919E+01  0.0000000000000E+00
-0.2475625109411E+00 -0.3999829007876E+01  0.0000000000000E+00
-0.2475687620368E+00 -0.3926653178517E+01  0.0000000000000E+00
-0.2475750131303E+00 -0.3853477373156E+01  0.0000000000000E+00
-0.2475812642266E+00 -0.3780301535857E+01  0.0000000000000E+00
-0.2475875153280E+00 -0.3707125638860E+01  0.0000000000000E+00
-0.2475937664276E+00 -0.3633949762689E+01  0.0000000000000E+00
-0.2476000175198E+00 -0.3560773974055E+01  0.0000000000000E+00
-0.2476062686671E+00 -0.3487597539390E+01  0.0000000000000E+00
-0.2476125197100E+00 -0.3414422327390E+01  0.0000000000000E+00
-0.2476187708059E+00 -0.3341246494684E+01  0.0000000000000E+00
-0.2476250218949E+00 -0.3268070742161E+01  0.0000000000000E+00
-0.2476312729760E+00 -0.3194895082840E+01  0.0000000000000E+00
-0.2476375240603E+00 -0.3121719386594E+01  0.0000000000000E+00
-0.2476437751473E+00 -0.3048543657622E+01  0.0000000000000E+00
-0.2476543797871E+00 -0.2975367865661E+01  0.0000000000000E+00
-0.2476973788073E+00 -0.2902192304079E+01  0.0000000000000E+00
-0.2478117084387E+00 -0.2829018311249E+01  0.0000000000000E+00
-0.2480328617639E+00 -0.2755849161253E+01  0.0000000000000E+00
-0.2483869646989E+00 -0.2682690537711E+01  0.0000000000000E+00
-0.2488907736722E+00 -0.2609549584168E+01  0.0000000000000E+00
-0.2495550028424E+00 -0.2536434633916E+01  0.0000000000000E+00
-0.2503881667191E+00 -0.2463354670459E+01  0.0000000000000E+00
-0.2513998975606E+00 -0.2390320409382E+01  0.0000000000000E+00
-0.2526034462390E+00 -0.2317345438943E+01  0.0000000000000E+00
-0.2539980673341E+00 -0.2244439569574E+01  0.0000000000000E+00
-0.2555643352162E+00 -0.2171604559242E+01  0.0000000000000E+00
-0.2572883826116E+00 -0.2098842086256E+01  0.0000000000000E+00
-0.2591621444036E+00 -0.2026154928927E+01  0.0000000000000E+00
-0.2611829886770E+00 -0.1953547989281E+01  0.0000000000000E+00
-0.2633549545578E+00 -0.1881030167037E+01  0.0000000000000E+00
-0.2656942853663E+00 -0.1808618670854E+01  0.0000000000000E+00
-0.2200058151317E+00 -0.4658386905273E+01  0.0000000000000E+00
-0.2200116302512E+00 -0.4585186837416E+01  0.0000000000000E+00
-0.2200174454065E+00 -0.4511986320049E+01  0.0000000000000E+00
-0.2200232605455E+00 -0.4438786007899E+01  0.0000000000000E+00
-0.2200290756833E+00 -0.4365585710305E+01  0.0000000000000E+00
-0.2200348908233E+00 -0.4292385385205E+01  0.0000000000000E+00
-0.2200407059598E+00 -0.4219185103369E+01  0.0000000000000E+00
-0.2200465210985E+00 -0.4145984794698E+01  0.0000000000000E+00
-0.2200523362367E+00 -0.4072784491403E+01  0.0000000000000E+00
-0.2200581513744E+00 -0.3999584196191E+01  0.0000000000000E+00
-0.2200639665132E+00 -0.3926383885658E+01  0.0000000000000E+00
-0.2200697816501E+00 -0.3853183599130E+01  0.0000000000000E+00
-0.2200755967896E+00 -0.3779983280655E+01  0.0000000000000E+00
-0.2200814119338E+00 -0.3706782902461E+01  0.0000000000000E+00
-0.2200872270764E+00 -0.3633582545100E+01  0.0000000000000E+00
-0.2200930422120E+00 -0.3560382275305E+01  0.0000000000000E+00
-0.2200988573989E+00 -0.3487181359263E+01  0.0000000000000E+00
-0.2201046724887E+00 -0.3413981666295E+01  0.0000000000000E+00
-0.2201104876278E+00 -0.3340781352414E+01  0.0000000000000E+00
-0.2201163027605E+00 -0.3267581118742E+01  0.0000000000000E+00
-0.2201221178858E+00 -0.3194380978304E+01  0.0000000000000E+00
-0.2201279330141E+00 -0.3121180800927E+01  0.0000000000000E+00
-0.2201337481449E+00 -0.3047980590815E+01  0.0000000000000E+00
-0.2201434331007E+00 -0.2974780317691E+01  0.0000000000000E+00
-0.2201819130612E+00 -0.2901580274962E+01  0.0000000000000E+00
-0.2202837980092E+00 -0.2828381801026E+01  0.0000000000000E+00
-0.2204806373518E+00 -0.2755188169933E+01  0.0000000000000E+00
-0.2207956541254E+00 -0.2682005065322E+01  0.0000000000000E+00
-0.2212437429334E+00 -0.2608839630710E+01  0.0000000000000E+00
-0.2218344274720E+00 -0.2535700199426E+01  0.0000000000000E+00
-0.2225752761947E+00 -0.2462595754916E+01  0.0000000000000E+00
-0.2234748511090E+00 -0.2389537012771E+01  0.0000000000000E+00
-0.2245449307669E+00 -0.2316537561322E+01  0.0000000000000E+00
-0.2257848525739E+00 -0.2243607210915E+01  0.0000000000000E+00
-0.2271773493033E+00 -0.2170747719517E+01  0.0000000000000E+00
-0.2287100944895E+00 -0.2097960765455E+01  0.0000000000000E+00
-0.2303759191400E+00 -0.2025249127022E+01  0.0000000000000E+00
-0.2321724837746E+00 -0.1952617706247E+01  0.0000000000000E+00
-0.2341033787265E+00 -0.1880075402931E+01  0.0000000000000E+00
-0.2361830425028E+00 -0.1807639425734E+01  0.0000000000000E+00
-0.1925052879758E+00 -0.4658365300648E+01  0.0000000000000E+00
-0.1925105759406E+00 -0.4585143628212E+01  0.0000000000000E+00
-0.1925158639379E+00 -0.4511921506133E+01  0.0000000000000E+00
-0.1925211519204E+00 -0.4438699589331E+01  0.0000000000000E+00
-0.1925264399018E+00 -0.4365477687090E+01  0.0000000000000E+00
-0.1925317278851E+00 -0.4292255757335E+01  0.0000000000000E+00
-0.1925370158654E+00 -0.4219033870856E+01  0.0000000000000E+00
-0.1925423038476E+00 -0.4145811957534E+01  0.0000000000000E+00
-0.1925475918294E+00 -0.4072590049591E+01  0.0000000000000E+00
-0.1925528798106E+00 -0.3999368149732E+01  0.0000000000000E+00
-0.1925581677930E+00 -0.3926146234548E+01  0.0000000000000E+00
-0.1925634557736E+00 -0.3852924343376E+01  0.0000000000000E+00
-0.1925687437565E+00 -0.3779702420247E+01  0.0000000000000E+00
-0.1925740317437E+00 -0.3706480437382E+01  0.0000000000000E+00
-0.1925793197294E+00 -0.3633258475356E+01  0.0000000000000E+00
-0.1925846077088E+00 -0.3560036600922E+01  0.0000000000000E+00
-0.1925898957349E+00 -0.3486814080050E+01  0.0000000000000E+00
-0.1925951836726E+00 -0.3413592782614E+01  0.0000000000000E+00
-0.1926004716552E+00 -0.3340370864080E+01  0.0000000000000E+00
-0.1926057596320E+00 -0.3267149025780E+01  0.0000000000000E+00
-0.1926110476020E+00 -0.3193927280741E+01  0.0000000000000E+00
-0.1926163355748E+00 -0.3120705498753E+01  0.0000000000000E+00
-0.1926216235498E+00 -0.3047483684019E+01  0.0000000000000E+00
-0.1926302976219E+00 -0.2974261806254E+01  0.0000000000000E+00
-0.1926641673231E+00 -0.2901040158897E+01  0.0000000000000E+00
-0.1927535163882E+00 -0.2827820080371E+01  0.0000000000000E+00
-0.1929259505487E+00 -0.2754604844696E+01  0.0000000000000E+00
-0.1932017899616E+00 -0.2681400135527E+01  0.0000000000000E+00
-0.1935940674049E+00 -0.2608213096357E+01  0.0000000000000E+00
-0.1941111161126E+00 -0.2535052060547E+01  0.0000000000000E+00
-0.1947595584820E+00 -0.2461926011493E+01  0.0000000000000E+00
-0.1955468862697E+00 -0.2388845664791E+01  0.0000000000000E+00
-0.1964834057080E+00 -0.2315824608836E+01  0.0000000000000E+00
-0.1975685370274E+00 -0.2242872653898E+01  0.0000000000000E+00
-0.1987871714047E+00 -0.2169991557945E+01  0.0000000000000E+00
-0.2001285231822E+00 -0.2097182999318E+01  0.0000000000000E+00
-0.2015863194915E+00 -0.2024449756296E+01  0.0000000000000E+00
-0.2031585132875E+00 -0.1951796730910E+01  0.0000000000000E+00
-0.2048482461110E+00 -0.1879232823034E+01  0.0000000000000E+00
-0.2066681516558E+00 -0.1806775241326E+01  0.0000000000000E+00
-0.1650046808342E+00 -0.4658346573894E+01  0.0000000000000E+00
-0.1650093616587E+00 -0.4585106174743E+01  0.0000000000000E+00
-0.1650140425120E+00 -0.4511865325833E+01  0.0000000000000E+00
-0.1650187233521E+00 -0.4438624682253E+01  0.0000000000000E+00
-0.1650234041912E+00 -0.4365384053239E+01  0.0000000000000E+00
-0.1650280850322E+00 -0.4292143396702E+01  0.0000000000000E+00
-0.1650327658704E+00 -0.4218902783454E+01  0.0000000000000E+00
-0.1650374467102E+00 -0.4145662143355E+01  0.0000000000000E+00
-0.1650421275498E+00 -0.4072421508636E+01  0.0000000000000E+00
-0.1650468083888E+00 -0.3999180882004E+01  0.0000000000000E+00
-0.1650514892288E+00 -0.3925940240043E+01  0.0000000000000E+00
-0.1650561700673E+00 -0.3852699622099E+01  0.0000000000000E+00
-0.1650608509078E+00 -0.3779458972191E+01  0.0000000000000E+00
-0.1650655317521E+00 -0.3706218262532E+01  0.0000000000000E+00
-0.1650702125951E+00 -0.3632977573716E+01  0.0000000000000E+00
-0.1650748934325E+00 -0.3559736972516E+01  0.0000000000000E+00
-0.1650795743113E+00 -0.3486495724711E+01  0.0000000000000E+00
-0.1650842551118E+00 -0.3413255700655E+01  0.0000000000000E+00
-0.1650889359520E+00 -0.3340015055344E+01  0.0000000000000E+00
-0.1650936167871E+00 -0.3266774490286E+01  0.0000000000000E+00
-0.1650982976162E+00 -0.3193534018513E+01  0.0000000000000E+00
-0.1651029784477E+00 -0.3120293509782E+01  0.0000000000000E+00
-0.1651076592813E+00 -0.3047052968296E+01  0.0000000000000E+00
-0.1651152424838E+00 -0.2973812363763E+01  0.0000000000000E+00
-0.1651444219395E+00 -0.2900571989649E+01  0.0000000000000E+00
-0.1652211551347E+00 -0.2827333184399E+01  0.0000000000000E+00
-0.1653691041251E+00 -0.2754099222006E+01  0.0000000000000E+00
-0.1656056861875E+00 -0.2680875786140E+01  0.0000000000000E+00
-0.1659420722746E+00 -0.2607670020273E+01  0.0000000000000E+00
-0.1663854051581E+00 -0.2534490257795E+01  0.0000000000000E+00
-0.1669413611788E+00 -0.2461345482056E+01  0.0000000000000E+00
-0.1676163618420E+00 -0.2388246408658E+01  0.0000000000000E+00
-0.1684192410609E+00 -0.2315206626052E+01  0.0000000000000E+00
-0.1693495018906E+00 -0.2242235944441E+01  0.0000000000000E+00
-0.1703941939114E+00 -0.2169336121793E+01  0.0000000000000E+00
-0.1715440722738E+00 -0.2096508836464E+01  0.0000000000000E+00
-0.1727937602337E+00 -0.2023756866719E+01  0.0000000000000E+00
-0.1741415031809E+00 -0.1951085114590E+01  0.0000000000000E+00
-0.1755899938642E+00 -0.1878502480015E+01  0.0000000000000E+00
-0.1771500611639E+00 -0.1806026171652E+01  0.0000000000000E+00
-0.1375040054788E+00 -0.4658330726195E+01  0.0000000000000E+00
-0.1375080109493E+00 -0.4585074479377E+01  0.0000000000000E+00
-0.1375120164444E+00 -0.4511817782703E+01  0.0000000000000E+00
-0.1375160219283E+00 -0.4438561291404E+01  0.0000000000000E+00
-0.1375200274113E+00 -0.4365304814673E+01  0.0000000000000E+00
-0.1375240328959E+00 -0.4292048310415E+01  0.0000000000000E+00
-0.1375280383781E+00 -0.4218791849453E+01  0.0000000000000E+00
-0.1375320438618E+00 -0.4145535361636E+01  0.0000000000000E+00
-0.1375360493451E+00 -0.4072278879200E+01  0.0000000000000E+00
-0.1375400548281E+00 -0.3999022404852E+01  0.0000000000000E+00
-0.1375440603118E+00 -0.3925765915171E+01  0.0000000000000E+00
-0.1375480657943E+00 -0.3852509449514E+01  0.0000000000000E+00
-0.1375520712785E+00 -0.3779252951886E+01  0.0000000000000E+00
-0.1375560767660E+00 -0.3705996394492E+01  0.0000000000000E+00
-0.1375600822523E+00 -0.3632739857948E+01  0.0000000000000E+00
-0.1375640877338E+00 -0.3559483409037E+01  0.0000000000000E+00
-0.1375680932507E+00 -0.3486226313383E+01  0.0000000000000E+00
-0.1375720987007E+00 -0.3412970441741E+01  0.0000000000000E+00
-0.1375761041846E+00 -0.3339713948710E+01  0.0000000000000E+00
-0.1375801096642E+00 -0.3266457535950E+01  0.0000000000000E+00
-0.1375841151387E+00 -0.3193201216495E+01  0.0000000000000E+00
-0.1375881206152E+00 -0.3119944860073E+01  0.0000000000000E+00
-0.1375921260934E+00 -0.3046688470890E+01  0.0000000000000E+00
-0.1375985502126E+00 -0.2973432018646E+01  0.0000000000000E+00
-0.1376229712097E+00 -0.2900175796830E+01  0.0000000000000E+00
-0.1376870203236E+00 -0.2826921143905E+01  0.0000000000000E+00
-0.1378104159346E+00 -0.2753671333843E+01  0.0000000000000E+00
-0.1380076724401E+00 -0.2680432050327E+01  0.0000000000000E+00
-0.1382880989677E+00 -0.2607210436809E+01  0.0000000000000E+00
-0.1386576478271E+00 -0.2534014826704E+01  0.0000000000000E+00
-0.1391210493026E+00 -0.2460854203325E+01  0.0000000000000E+00
-0.1396836546487E+00 -0.2387739282277E+01  0.0000000000000E+00
-0.1403528254594E+00 -0.2314683652058E+01  0.0000000000000E+00
-0.1411281476146E+00 -0.2241697122816E+01  0.0000000000000E+00
-0.1419988290975E+00 -0.2168781452520E+01  0.0000000000000E+00
-0.1429571658668E+00 -0.2095938319535E+01  0.0000000000000E+00
-0.1439986773022E+00 -0.2023170502116E+01  0.0000000000000E+00
-0.1451219012286E+00 -0.1950482902297E+01  0.0000000000000E+00
-0.1463290816030E+00 -0.1877884420070E+01  0.0000000000000E+00
-0.1476292424924E+00 -0.1805392264092E+01  0.0000000000000E+00
-0.1100032727679E+00 -0.4658317758532E+01  0.0000000000000E+00
-0.1100065455290E+00 -0.4585048544080E+01  0.0000000000000E+00
-0.1100098183102E+00 -0.4511778879691E+01  0.0000000000000E+00
-0.1100130910822E+00 -0.4438509420714E+01  0.0000000000000E+00
-0.1100163638535E+00 -0.4365239976307E+01  0.0000000000000E+00
-0.1100196366261E+00 -0.4291970504368E+01  0.0000000000000E+00
-0.1100229093967E+00 -0.4218701075733E+01  0.0000000000000E+00
-0.1100261821686E+00 -0.4145431620239E+01  0.0000000000000E+00
-0.1100294549402E+00 -0.4072162170125E+01  0.0000000000000E+00
-0.1100327277114E+00 -0.3998892728102E+01  0.0000000000000E+00
-0.1100360004834E+00 -0.3925623270744E+01  0.0000000000000E+00
-0.1100392732542E+00 -0.3852353837413E+01  0.0000000000000E+00
-0.1100425460265E+00 -0.3779084372104E+01  0.0000000000000E+00
-0.1100458188015E+00 -0.3705814847021E+01  0.0000000000000E+00
-0.1100490915755E+00 -0.3632545342790E+01  0.0000000000000E+00
-0.1100523643456E+00 -0.3559275926208E+01  0.0000000000000E+00
-0.1100556371446E+00 -0.3486005862769E+01  0.0000000000000E+00
-0.1100589098889E+00 -0.3412737023558E+01  0.0000000000000E+00
-0.1100621826610E+00 -0.3339467562849E+01  0.0000000000000E+00
-0.1100654554295E+00 -0.3266198182424E+01  0.0000000000000E+00
-0.1100687281938E+00 -0.3192928895321E+01  0.0000000000000E+00
-0.1100720009598E+00 -0.3119659571245E+01  0.0000000000000E+00
-0.1100752737272E+00 -0.3046390214401E+01  0.0000000000000E+00
-0.1100804814074E+00 -0.2973120794485E+01  0.0000000000000E+00
-0.1101000865895E+00 -0.2899851605005E+01  0.0000000000000E+00
-0.1101513942642E+00 -0.2826583984439E+01  0.0000000000000E+00
-0.1102501791352E+00 -0.2753321206740E+01  0.0000000000000E+00
-0.1104080527204E+00 -0.2680068955602E+01  0.0000000000000E+00
-0.1106324623216E+00 -0.2606834374461E+01  0.0000000000000E+00
-0.1109281697863E+00 -0.2533625796754E+01  0.0000000000000E+00
-0.1112989593421E+00 -0.2460452205761E+01  0.0000000000000E+00
-0.1117491119923E+00 -0.2387324317091E+01  0.0000000000000E+00
-0.1122845170118E+00 -0.2314255719281E+01  0.0000000000000E+00
-0.1129048431049E+00 -0.2241256222433E+01  0.0000000000000E+00
-0.1136014566584E+00 -0.2168327584516E+01  0.0000000000000E+00
-0.1143681944392E+00 -0.2095471483905E+01  0.0000000000000E+00
-0.1152014719513E+00 -0.2022690698846E+01  0.0000000000000E+00
-0.1161001194546E+00 -0.1949990131373E+01  0.0000000000000E+00
-0.1170659321143E+00 -0.1877378681522E+01  0.0000000000000E+00
-0.1181061291839E+00 -0.1804873557950E+01  0.0000000000000E+00
-0.8250249454314E-01 -0.4658307671731E+01  0.0000000000000E+00
-0.8250498908109E-01 -0.4585028370497E+01  0.0000000000000E+00
-0.8250748363435E-01 -0.4511748619267E+01  0.0000000000000E+00
-0.8250997818062E-01 -0.4438469073475E+01  0.0000000000000E+00
-0.8251247272640E-01 -0.4365189542255E+01  0.0000000000000E+00
-0.8251496727311E-01 -0.4291909983500E+01  0.0000000000000E+00
-0.8251746181835E-01 -0.4218630468056E+01  0.0000000000000E+00
-0.8251995636450E-01 -0.4145350925747E+01  0.0000000000000E+00
-0.8252245091047E-01 -0.4072071388821E+01  0.0000000000000E+00
-0.8252494545616E-01 -0.3998791859985E+01  0.0000000000000E+00
-0.8252744000238E-01 -0.3925512315813E+01  0.0000000000000E+00
-0.8252993454778E-01 -0.3852232795671E+01  0.0000000000000E+00
-0.8253242909426E-01 -0.3778953243548E+01  0.0000000000000E+00
-0.8253492364278E-01 -0.3705673631641E+01  0.0000000000000E+00
-0.8253741819059E-01 -0.3632394040589E+01  0.0000000000000E+00
-0.8253991273542E-01 -0.3559114537199E+01  0.0000000000000E+00
-0.8254240730227E-01 -0.3485834386862E+01  0.0000000000000E+00
-0.8254490182744E-01 -0.3412555460923E+01  0.0000000000000E+00
-0.8254739637377E-01 -0.3339275913399E+01  0.0000000000000E+00
-0.8254989091737E-01 -0.3265996446170E+01  0.0000000000000E+00
-0.8255238545779E-01 -0.3192717072277E+01  0.0000000000000E+00
-0.8255487999946E-01 -0.3119437661405E+01  0.0000000000000E+00
-0.8255737454226E-01 -0.3046158217761E+01  0.0000000000000E+00
-0.8256132026964E-01 -0.2972878711036E+01  0.0000000000000E+00
-0.8257606412342E-01 -0.2899599434752E+01  0.0000000000000E+00
-0.8261458484651E-01 -0.2826321727400E+01  0.0000000000000E+00
-0.8268871346684E-01 -0.2753048862920E+01  0.0000000000000E+00
-0.8280715862262E-01 -0.2679786525011E+01  0.0000000000000E+00
-0.8297550579031E-01 -0.2606541857099E+01  0.0000000000000E+00
-0.8319732635544E-01 -0.2533323192637E+01  0.0000000000000E+00
-0.8347545848869E-01 -0.2460139514879E+01  0.0000000000000E+00
-0.8381311294265E-01 -0.2387001539440E+01  0.0000000000000E+00
-0.8421470667327E-01 -0.2313922854883E+01  0.0000000000000E+00
-0.8467999120903E-01 -0.2240913271277E+01  0.0000000000000E+00
-0.8520249134003E-01 -0.2167974546591E+01  0.0000000000000E+00
-0.8577758464144E-01 -0.2095108359206E+01  0.0000000000000E+00
-0.8640258274117E-01 -0.2022317487362E+01  0.0000000000000E+00
-0.8707660833415E-01 -0.1949606833093E+01  0.0000000000000E+00
-0.8780100779414E-01 -0.1876985296471E+01  0.0000000000000E+00
-0.8858119556126E-01 -0.1804470086151E+01  0.0000000000000E+00
-0.5500168202915E-01 -0.4658300466420E+01  0.0000000000000E+00
-0.5500336405479E-01 -0.4585013959890E+01  0.0000000000000E+00
-0.5500504609076E-01 -0.4511727003319E+01  0.0000000000000E+00
-0.5500672812202E-01 -0.4438440252207E+01  0.0000000000000E+00
-0.5500841015294E-01 -0.4365153515669E+01  0.0000000000000E+00
-0.5501009218450E-01 -0.4291866751592E+01  0.0000000000000E+00
-0.5501177421506E-01 -0.4218580030830E+01  0.0000000000000E+00
-0.5501345624623E-01 -0.4145293283201E+01  0.0000000000000E+00
-0.5501513827729E-01 -0.4072006540956E+01  0.0000000000000E+00
-0.5501682030815E-01 -0.3998719806802E+01  0.0000000000000E+00
-0.5501850233937E-01 -0.3925433057309E+01  0.0000000000000E+00
-0.5502018437004E-01 -0.3852146331850E+01  0.0000000000000E+00
-0.5502186640144E-01 -0.3778859574406E+01  0.0000000000000E+00
-0.5502354843422E-01 -0.3705572757172E+01  0.0000000000000E+00
-0.5502523046651E-01 -0.3632285960796E+01  0.0000000000000E+00
-0.5502691249680E-01 -0.3558999252090E+01  0.0000000000000E+00
-0.5502859454193E-01 -0.3485711896373E+01  0.0000000000000E+00
-0.5503027655896E-01 -0.3412425765174E+01  0.0000000000000E+00
-0.5503195859026E-01 -0.3339139012330E+01  0.0000000000000E+00
-0.5503364061971E-01 -0.3265852339789E+01  0.0000000000000E+00
-0.5503532264702E-01 -0.3192565760592E+01  0.0000000000000E+00
-0.5503700467518E-01 -0.3119279144413E+01  0.0000000000000E+00
-0.5503868670409E-01 -0.3045992495459E+01  0.0000000000000E+00
-0.5504133618940E-01 -0.2972705783417E+01  0.0000000000000E+00
-0.5505118442552E-01 -0.2899419301821E+01  0.0000000000000E+00
-0.5507688390763E-01 -0.2826134389170E+01  0.0000000000000E+00
-0.5512632198758E-01 -0.2752854319392E+01  0.0000000000000E+00
-0.5520530442408E-01 -0.2679584776194E+01  0.0000000000000E+00
-0.5531755486806E-01 -0.2606332902993E+01  0.0000000000000E+00
-0.5546545424311E-01 -0.2533107033253E+01  0.0000000000000E+00
-0.5565089466302E-01 -0.2459916150211E+01  0.0000000000000E+00
-0.5587601662944E-01 -0.2386770969482E+01  0.0000000000000E+00
-0.5614376477954E-01 -0.2313685079654E+01  0.0000000000000E+00
-0.5645397346590E-01 -0.2240668290768E+01  0.0000000000000E+00
-0.5680232588196E-01 -0.2167722360794E+01  0.0000000000000E+00
-0.5718574041112E-01 -0.2094848968118E+01  0.0000000000000E+00
-0.5760242480531E-01 -0.2022050890974E+01  0.0000000000000E+00
-0.5805179419448E-01 -0.1949333031399E+01  0.0000000000000E+00
-0.5853474616100E-01 -0.1876704289487E+01  0.0000000000000E+00
-0.5905489033159E-01 -0.1804181873893E+01  0.0000000000000E+00
-0.2750084664702E-01 -0.4658296143052E+01  0.0000000000000E+00
-0.2750169329227E-01 -0.4585005313163E+01  0.0000000000000E+00
-0.2750253994273E-01 -0.4511714033207E+01  0.0000000000000E+00
-0.2750338659081E-01 -0.4438422958722E+01  0.0000000000000E+00
-0.2750423323872E-01 -0.4365131898811E+01  0.0000000000000E+00
-0.2750507988695E-01 -0.4291840811361E+01  0.0000000000000E+00
-0.2750592653468E-01 -0.4218549767228E+01  0.0000000000000E+00
-0.2750677318272E-01 -0.4145258696226E+01  0.0000000000000E+00
-0.2750761983069E-01 -0.4071967630608E+01  0.0000000000000E+00
-0.2750846647858E-01 -0.3998676573082E+01  0.0000000000000E+00
-0.2750931312664E-01 -0.3925385500216E+01  0.0000000000000E+00
-0.2751015977442E-01 -0.3852094451385E+01  0.0000000000000E+00
-0.2751100642257E-01 -0.3778803370567E+01  0.0000000000000E+00
-0.2751185307142E-01 -0.3705512229957E+01  0.0000000000000E+00
-0.2751269972002E-01 -0.3632221110204E+01  0.0000000000000E+00
-0.2751354636761E-01 -0.3558930078128E+01  0.0000000000000E+00
-0.2751439302267E-01 -0.3485638399002E+01  0.0000000000000E+00
-0.2751523966359E-01 -0.3412347944467E+01  0.0000000000000E+00
-0.2751608631169E-01 -0.3339056868249E+01  0.0000000000000E+00
-0.2751693295887E-01 -0.3265765872339E+01  0.0000000000000E+00
-0.2751777960496E-01 -0.3192474969780E+01  0.0000000000000E+00
-0.2751862625148E-01 -0.3119184030236E+01  0.0000000000000E+00
-0.2751947289838E-01 -0.3045893057915E+01  0.0000000000000E+00
-0.2752080327345E-01 -0.2972602022502E+01  0.0000000000000E+00
-0.2752573302372E-01 -0.2899311217538E+01  0.0000000000000E+00
-0.2753858839655E-01 -0.2826021981525E+01  0.0000000000000E+00
-0.2756331306764E-01 -0.2752737588388E+01  0.0000000000000E+00
-0.2760280991616E-01 -0.2679463721835E+01  0.0000000000000E+00
-0.2765894076745E-01 -0.2606207525280E+01  0.0000000000000E+00
-0.2773289608320E-01 -0.2532977332192E+01  0.0000000000000E+00
-0.2782562192022E-01 -0.2459782125798E+01  0.0000000000000E+00
-0.2793818852921E-01 -0.2386632621716E+01  0.0000000000000E+00
-0.2807206822860E-01 -0.2313542408544E+01  0.0000000000000E+00
-0.2822717819500E-01 -0.2240521296308E+01  0.0000000000000E+00
-0.2840136002521E-01 -0.2167571042980E+01  0.0000000000000E+00
-0.2859307291094E-01 -0.2094693326949E+01  0.0000000000000E+00
-0.2880142072809E-01 -0.2021890926444E+01  0.0000000000000E+00
-0.2902611104167E-01 -0.1949168743503E+01  0.0000000000000E+00
-0.2926759264271E-01 -0.1876535678237E+01  0.0000000000000E+00
-0.2952767034453E-01 -0.1804008939299E+01  0.0000000000000E+00
 0.1341298349319E-09 -0.4658294701900E+01  0.0000000000000E+00
 0.2682591914974E-09 -0.4585002430862E+01  0.0000000000000E+00
 0.4023890727755E-09 -0.4511709709747E+01  0.0000000000000E+00
 0.5365191106208E-09 -0.4438417194108E+01  0.0000000000000E+00
 0.6706488917047E-09 -0.4365124693044E+01  0.0000000000000E+00
 0.8047786975213E-09 -0.4291832164439E+01  0.0000000000000E+00
 0.9389087816031E-09 -0.4218539679152E+01  0.0000000000000E+00
 0.1073038417292E-08 -0.4145247166996E+01  0.0000000000000E+00
 0.1207168223132E-08 -0.4071954660224E+01  0.0000000000000E+00
 0.1341298166205E-08 -0.3998662161544E+01  0.0000000000000E+00
 0.1475427971981E-08 -0.3925369647524E+01  0.0000000000000E+00
 0.1609557676437E-08 -0.3852077157540E+01  0.0000000000000E+00
 0.1743687719413E-08 -0.3778784635568E+01  0.0000000000000E+00
 0.1877817404503E-08 -0.3705492053802E+01  0.0000000000000E+00
 0.2011947688216E-08 -0.3632199492894E+01  0.0000000000000E+00
 0.2146077332986E-08 -0.3558907019664E+01  0.0000000000000E+00
 0.2280208460759E-08 -0.3485613899373E+01  0.0000000000000E+00
 0.2414336866020E-08 -0.3412322003696E+01  0.0000000000000E+00
 0.2548466983496E-08 -0.3339029486324E+01  0.0000000000000E+00
 0.2682596670357E-08 -0.3265737049261E+01  0.0000000000000E+00
 0.2816726179303E-08 -0.3192444705551E+01  0.0000000000000E+00
 0.2950855647716E-08 -0.3119152324855E+01  0.0000000000000E+00
 0.3084985400642E-08 -0.3045859911382E+01  0.0000000000000E+00
 0.3219175563967E-08 -0.2972567434816E+01  0.0000000000000E+00
 0.3353698875709E-08 -0.2899275188699E+01  0.0000000000000E+00
 0.3488929101874E-08 -0.2825984511537E+01  0.0000000000000E+00
 0.3625244852689E-08 -0.2752698677250E+01  0.0000000000000E+00
 0.3762956718963E-08 -0.2679423369550E+01  0.0000000000000E+00
 0.3902297562747E-08 -0.2606165731846E+01  0.0000000000000E+00
 0.4043435531594E-08 -0.2532934097612E+01  0.0000000000000E+00
 0.4186557924346E-08 -0.2459737450072E+01  0.0000000000000E+00
 0.4331879640973E-08 -0.2386586504841E+01  0.0000000000000E+00
 0.4479654786937E-08 -0.2313494850525E+01  0.0000000000000E+00
 0.4629287886613E-08 -0.2240472297144E+01  0.0000000000000E+00
 0.4780639212689E-08 -0.2167520602668E+01  0.0000000000000E+00
 0.4933757186728E-08 -0.2094641445488E+01  0.0000000000000E+00
 0.5088733054618E-08 -0.2021837603833E+01  0.0000000000000E+00
 0.5245556699726E-08 -0.1949113979741E+01  0.0000000000000E+00
 0.5404454798979E-08 -0.1876479473326E+01  0.0000000000000E+00
 0.5565504075676E-08 -0.1803951293244E+01  0.0000000000000E+00
 0.2750084691528E-01 -0.4658296143053E+01  0.0000000000000E+00
 0.2750169382879E-01 -0.4585005313166E+01  0.0000000000000E+00
 0.2750254074750E-01 -0.4511714033210E+01  0.0000000000000E+00
 0.2750338766384E-01 -0.4438422958726E+01  0.0000000000000E+00
 0.2750423458000E-01 -0.4365131898817E+01  0.0000000000000E+00
 0.2750508149649E-01 -0.4291840811368E+01  0.0000000000000E+00
 0.2750592841248E-01 -0.4218549767235E+01  0.0000000000000E+00
 0.2750677532877E-01 -0.4145258696235E+01  0.0000000000000E+00
 0.2750762224501E-01 -0.4071967630618E+01  0.0000000000000E+00
 0.2750846916115E-01 -0.3998676573093E+01  0.0000000000000E+00
 0.2750931607747E-01 -0.3925385500228E+01  0.0000000000000E+00
 0.2751016299351E-01 -0.3852094451398E+01  0.0000000000000E+00
 0.2751100990992E-01 -0.3778803370582E+01  0.0000000000000E+00
 0.2751185682702E-01 -0.3705512229972E+01  0.0000000000000E+00
 0.2751270374388E-01 -0.3632221110221E+01  0.0000000000000E+00
 0.2751355065973E-01 -0.3558930078145E+01  0.0000000000000E+00
 0.2751439758305E-01 -0.3485638399021E+01  0.0000000000000E+00
 0.2751524449223E-01 -0.3412347944487E+01  0.0000000000000E+00
 0.2751609140859E-01 -0.3339056868270E+01  0.0000000000000E+00
 0.2751693832401E-01 -0.3265765872362E+01  0.0000000000000E+00
 0.2751778523836E-01 -0.3192474969803E+01  0.0000000000000E+00
 0.2751863215314E-01 -0.3119184030260E+01  0.0000000000000E+00
 0.2751947906830E-01 -0.3045893057940E+01  0.0000000000000E+00
 0.2752080971174E-01 -0.2972602022528E+01  0.0000000000000E+00
 0.2752573973106E-01 -0.2899311217565E+01  0.0000000000000E+00
 0.2753859537435E-01 -0.2826021981554E+01  0.0000000000000E+00
 0.2756332031807E-01 -0.2752737588418E+01  0.0000000000000E+00
 0.2760281744201E-01 -0.2679463721866E+01  0.0000000000000E+00
 0.2765894857198E-01 -0.2606207525312E+01  0.0000000000000E+00
 0.2773290417001E-01 -0.2532977332225E+01  0.0000000000000E+00
 0.2782563029327E-01 -0.2459782125833E+01  0.0000000000000E+00
 0.2793819719290E-01 -0.2386632621751E+01  0.0000000000000E+00
 0.2807207718784E-01 -0.2313542408580E+01  0.0000000000000E+00
 0.2822718745350E-01 -0.2240521296346E+01  0.0000000000000E+00
 0.2840136958642E-01 -0.2167571043019E+01  0.0000000000000E+00
 0.2859308277837E-01 -0.2094693326988E+01  0.0000000000000E+00
 0.2880143090548E-01 -0.2021890926485E+01  0.0000000000000E+00
 0.2902612153270E-01 -0.1949168743545E+01  0.0000000000000E+00
 0.2926760345153E-01 -0.1876535678280E+01  0.0000000000000E+00
 0.2952768147545E-01 -0.1804008939343E+01  0.0000000000000E+00
 0.5500168229740E-01 -0.4658300466422E+01  0.0000000000000E+00
 0.5500336459129E-01 -0.4585013959894E+01  0.0000000000000E+00
 0.5500504689552E-01 -0.4511727003325E+01  0.0000000000000E+00
 0.5500672919502E-01 -0.4438440252216E+01  0.0000000000000E+00
 0.5500841149420E-01 -0.4365153515680E+01  0.0000000000000E+00
 0.5501009379400E-01 -0.4291866751605E+01  0.0000000000000E+00
 0.5501177609281E-01 -0.4218580030846E+01  0.0000000000000E+00
 0.5501345839224E-01 -0.4145293283219E+01  0.0000000000000E+00
 0.5501514069154E-01 -0.4072006540976E+01  0.0000000000000E+00
 0.5501682299066E-01 -0.3998719806824E+01  0.0000000000000E+00
 0.5501850529013E-01 -0.3925433057334E+01  0.0000000000000E+00
 0.5502018758905E-01 -0.3852146331877E+01  0.0000000000000E+00
 0.5502186988871E-01 -0.3778859574434E+01  0.0000000000000E+00
 0.5502355218973E-01 -0.3705572757203E+01  0.0000000000000E+00
 0.5502523449028E-01 -0.3632285960829E+01  0.0000000000000E+00
 0.5502691678881E-01 -0.3558999252125E+01  0.0000000000000E+00
 0.5502859910220E-01 -0.3485711896410E+01  0.0000000000000E+00
 0.5503028138748E-01 -0.3412425765214E+01  0.0000000000000E+00
 0.5503196368702E-01 -0.3339139012372E+01  0.0000000000000E+00
 0.5503364598473E-01 -0.3265852339833E+01  0.0000000000000E+00
 0.5503532828029E-01 -0.3192565760638E+01  0.0000000000000E+00
 0.5503701057670E-01 -0.3119279144462E+01  0.0000000000000E+00
 0.5503869287386E-01 -0.3045992495510E+01  0.0000000000000E+00
 0.5504134262754E-01 -0.2972705783470E+01  0.0000000000000E+00
 0.5505119113270E-01 -0.2899419301877E+01  0.0000000000000E+00
 0.5507689088526E-01 -0.2826134389227E+01  0.0000000000000E+00
 0.5512632923783E-01 -0.2752854319452E+01  0.0000000000000E+00
 0.5520531194975E-01 -0.2679584776256E+01  0.0000000000000E+00
 0.5531756267240E-01 -0.2606332903057E+01  0.0000000000000E+00
 0.5546546232972E-01 -0.2533107033319E+01  0.0000000000000E+00
 0.5565090303586E-01 -0.2459916150279E+01  0.0000000000000E+00
 0.5587602529292E-01 -0.2386770969553E+01  0.0000000000000E+00
 0.5614377373856E-01 -0.2313685079727E+01  0.0000000000000E+00
 0.5645398272418E-01 -0.2240668290843E+01  0.0000000000000E+00
 0.5680233544293E-01 -0.2167722360871E+01  0.0000000000000E+00
 0.5718575027832E-01 -0.2094848968198E+01  0.0000000000000E+00
 0.5760243498245E-01 -0.2022050891056E+01  0.0000000000000E+00
 0.5805180468526E-01 -0.1949333031483E+01  0.0000000000000E+00
 0.5853475696956E-01 -0.1876704289573E+01  0.0000000000000E+00
 0.5905490146225E-01 -0.1804181873982E+01  0.0000000000000E+00
 0.8250249481138E-01 -0.4658307671734E+01  0.0000000000000E+00
 0.8250498961757E-01 -0.4585028370504E+01  0.0000000000000E+00
 0.8250748443907E-01 -0.4511748619277E+01  0.0000000000000E+00
 0.8250997925358E-01 -0.4438469073488E+01  0.0000000000000E+00
 0.8251247406760E-01 -0.4365189542272E+01  0.0000000000000E+00
 0.8251496888255E-01 -0.4291909983520E+01  0.0000000000000E+00
 0.8251746369603E-01 -0.4218630468079E+01  0.0000000000000E+00
 0.8251995851042E-01 -0.4145350925774E+01  0.0000000000000E+00
 0.8252245332463E-01 -0.4072071388851E+01  0.0000000000000E+00
 0.8252494813856E-01 -0.3998791860019E+01  0.0000000000000E+00
 0.8252744295302E-01 -0.3925512315849E+01  0.0000000000000E+00
 0.8252993776665E-01 -0.3852232795711E+01  0.0000000000000E+00
 0.8253243258138E-01 -0.3778953243591E+01  0.0000000000000E+00
 0.8253492739814E-01 -0.3705673631687E+01  0.0000000000000E+00
 0.8253742221419E-01 -0.3632394040639E+01  0.0000000000000E+00
 0.8253991702726E-01 -0.3559114537252E+01  0.0000000000000E+00
 0.8254241186235E-01 -0.3485834386918E+01  0.0000000000000E+00
 0.8254490665576E-01 -0.3412555460983E+01  0.0000000000000E+00
 0.8254740147033E-01 -0.3339275913462E+01  0.0000000000000E+00
 0.8254989628217E-01 -0.3265996446236E+01  0.0000000000000E+00
 0.8255239109082E-01 -0.3192717072346E+01  0.0000000000000E+00
 0.8255488590074E-01 -0.3119437661478E+01  0.0000000000000E+00
 0.8255738071177E-01 -0.3046158217837E+01  0.0000000000000E+00
 0.8256132670752E-01 -0.2972878711115E+01  0.0000000000000E+00
 0.8257607083032E-01 -0.2899599434835E+01  0.0000000000000E+00
 0.8261459182386E-01 -0.2826321727487E+01  0.0000000000000E+00
 0.8268872071680E-01 -0.2753048863010E+01  0.0000000000000E+00
 0.8280716614798E-01 -0.2679786525104E+01  0.0000000000000E+00
 0.8297551359434E-01 -0.2606541857195E+01  0.0000000000000E+00
 0.8319733444172E-01 -0.2533323192736E+01  0.0000000000000E+00
 0.8347546686119E-01 -0.2460139514982E+01  0.0000000000000E+00
 0.8381312160577E-01 -0.2387001539546E+01  0.0000000000000E+00
 0.8421471563193E-01 -0.2313922854993E+01  0.0000000000000E+00
 0.8468000046694E-01 -0.2240913271390E+01  0.0000000000000E+00
 0.8520250090062E-01 -0.2167974546707E+01  0.0000000000000E+00
 0.8577759450824E-01 -0.2095108359326E+01  0.0000000000000E+00
 0.8640259291791E-01 -0.2022317487484E+01  0.0000000000000E+00
 0.8707661882451E-01 -0.1949606833219E+01  0.0000000000000E+00
 0.8780101860228E-01 -0.1876985296600E+01  0.0000000000000E+00
 0.8858120669148E-01 -0.1804470086283E+01  0.0000000000000E+00
 0.1100032730361E+00 -0.4658317758537E+01  0.0000000000000E+00
 0.1100065460654E+00 -0.4585048544088E+01  0.0000000000000E+00
 0.1100098191148E+00 -0.4511778879705E+01  0.0000000000000E+00
 0.1100130921551E+00 -0.4438509420732E+01  0.0000000000000E+00
 0.1100163651946E+00 -0.4365239976329E+01  0.0000000000000E+00
 0.1100196382354E+00 -0.4291970504395E+01  0.0000000000000E+00
 0.1100229112743E+00 -0.4218701075764E+01  0.0000000000000E+00
 0.1100261843144E+00 -0.4145431620274E+01  0.0000000000000E+00
 0.1100294573542E+00 -0.4072162170165E+01  0.0000000000000E+00
 0.1100327303937E+00 -0.3998892728146E+01  0.0000000000000E+00
 0.1100360034338E+00 -0.3925623270792E+01  0.0000000000000E+00
 0.1100392764729E+00 -0.3852353837466E+01  0.0000000000000E+00
 0.1100425495134E+00 -0.3779084372162E+01  0.0000000000000E+00
 0.1100458225566E+00 -0.3705814847083E+01  0.0000000000000E+00
 0.1100490955988E+00 -0.3632545342856E+01  0.0000000000000E+00
 0.1100523686372E+00 -0.3559275926279E+01  0.0000000000000E+00
 0.1100556417044E+00 -0.3486005862844E+01  0.0000000000000E+00
 0.1100589147169E+00 -0.3412737023638E+01  0.0000000000000E+00
 0.1100621877573E+00 -0.3339467562933E+01  0.0000000000000E+00
 0.1100654607940E+00 -0.3266198182512E+01  0.0000000000000E+00
 0.1100687338265E+00 -0.3192928895414E+01  0.0000000000000E+00
 0.1100720068607E+00 -0.3119659571342E+01  0.0000000000000E+00
 0.1100752798964E+00 -0.3046390214503E+01  0.0000000000000E+00
 0.1100804878449E+00 -0.2973120794592E+01  0.0000000000000E+00
 0.1101000932960E+00 -0.2899851605116E+01  0.0000000000000E+00
 0.1101514012411E+00 -0.2826583984554E+01  0.0000000000000E+00
 0.1102501863848E+00 -0.2753321206860E+01  0.0000000000000E+00
 0.1104080602454E+00 -0.2680068955726E+01  0.0000000000000E+00
 0.1106324701252E+00 -0.2606834374589E+01  0.0000000000000E+00
 0.1109281778722E+00 -0.2533625796887E+01  0.0000000000000E+00
 0.1112989677141E+00 -0.2460452205898E+01  0.0000000000000E+00
 0.1117491206549E+00 -0.2387324317233E+01  0.0000000000000E+00
 0.1122845259700E+00 -0.2314255719427E+01  0.0000000000000E+00
 0.1129048523623E+00 -0.2241256222584E+01  0.0000000000000E+00
 0.1136014662184E+00 -0.2168327584671E+01  0.0000000000000E+00
 0.1143682043055E+00 -0.2095471484065E+01  0.0000000000000E+00
 0.1152014821275E+00 -0.2022690699009E+01  0.0000000000000E+00
 0.1161001299444E+00 -0.1949990131541E+01  0.0000000000000E+00
 0.1170659429218E+00 -0.1877378681695E+01  0.0000000000000E+00
 0.1181061403135E+00 -0.1804873558127E+01  0.0000000000000E+00
 0.1375040057470E+00 -0.4658330726200E+01  0.0000000000000E+00
 0.1375080114857E+00 -0.4585074479388E+01  0.0000000000000E+00
 0.1375120172490E+00 -0.4511817782720E+01  0.0000000000000E+00
 0.1375160230011E+00 -0.4438561291426E+01  0.0000000000000E+00
 0.1375200287523E+00 -0.4365304814701E+01  0.0000000000000E+00
 0.1375240345051E+00 -0.4292048310448E+01  0.0000000000000E+00
 0.1375280402555E+00 -0.4218791849492E+01  0.0000000000000E+00
 0.1375320460074E+00 -0.4145535361680E+01  0.0000000000000E+00
 0.1375360517590E+00 -0.4072278879250E+01  0.0000000000000E+00
 0.1375400575101E+00 -0.3999022404907E+01  0.0000000000000E+00
 0.1375440632621E+00 -0.3925765915232E+01  0.0000000000000E+00
 0.1375480690127E+00 -0.3852509449581E+01  0.0000000000000E+00
 0.1375520747651E+00 -0.3779252951958E+01  0.0000000000000E+00
 0.1375560805208E+00 -0.3705996394570E+01  0.0000000000000E+00
 0.1375600862754E+00 -0.3632739858031E+01  0.0000000000000E+00
 0.1375640920251E+00 -0.3559483409126E+01  0.0000000000000E+00
 0.1375680978102E+00 -0.3486226313477E+01  0.0000000000000E+00
 0.1375721035284E+00 -0.3412970441841E+01  0.0000000000000E+00
 0.1375761092805E+00 -0.3339713948815E+01  0.0000000000000E+00
 0.1375801150283E+00 -0.3266457536060E+01  0.0000000000000E+00
 0.1375841207710E+00 -0.3193201216611E+01  0.0000000000000E+00
 0.1375881265157E+00 -0.3119944860195E+01  0.0000000000000E+00
 0.1375921322621E+00 -0.3046688471017E+01  0.0000000000000E+00
 0.1375985566497E+00 -0.2973432018779E+01  0.0000000000000E+00
 0.1376229779157E+00 -0.2900175796968E+01  0.0000000000000E+00
 0.1376870273001E+00 -0.2826921144049E+01  0.0000000000000E+00
 0.1378104231836E+00 -0.2753671333993E+01  0.0000000000000E+00
 0.1380076799644E+00 -0.2680432050482E+01  0.0000000000000E+00
 0.1382881067707E+00 -0.2607210436969E+01  0.0000000000000E+00
 0.1386576559123E+00 -0.2534014826870E+01  0.0000000000000E+00
 0.1391210576740E+00 -0.2460854203496E+01  0.0000000000000E+00
 0.1396836633107E+00 -0.2387739282454E+01  0.0000000000000E+00
 0.1403528344169E+00 -0.2314683652241E+01  0.0000000000000E+00
 0.1411281568713E+00 -0.2241697123004E+01  0.0000000000000E+00
 0.1419988386569E+00 -0.2168781452713E+01  0.0000000000000E+00
 0.1429571757323E+00 -0.2095938319734E+01  0.0000000000000E+00
 0.1439986874777E+00 -0.2023170502321E+01  0.0000000000000E+00
 0.1451219117177E+00 -0.1950482902508E+01  0.0000000000000E+00
 0.1463290924098E+00 -0.1877884420286E+01  0.0000000000000E+00
 0.1476292536212E+00 -0.1805392264313E+01  0.0000000000000E+00
 0.1650046811024E+00 -0.4658346573901E+01  0.0000000000000E+00
 0.1650093621951E+00 -0.4585106174756E+01  0.0000000000000E+00
 0.1650140433165E+00 -0.4511865325853E+01  0.0000000000000E+00
 0.1650187244248E+00 -0.4438624682280E+01  0.0000000000000E+00
 0.1650234055322E+00 -0.4365384053272E+01  0.0000000000000E+00
 0.1650280866413E+00 -0.4292143396742E+01  0.0000000000000E+00
 0.1650327677476E+00 -0.4218902783500E+01  0.0000000000000E+00
 0.1650374488557E+00 -0.4145662143408E+01  0.0000000000000E+00
 0.1650421299634E+00 -0.4072421508696E+01  0.0000000000000E+00
 0.1650468110706E+00 -0.3999180882070E+01  0.0000000000000E+00
 0.1650514921788E+00 -0.3925940240116E+01  0.0000000000000E+00
 0.1650561732855E+00 -0.3852699622179E+01  0.0000000000000E+00
 0.1650608543942E+00 -0.3779458972278E+01  0.0000000000000E+00
 0.1650655355067E+00 -0.3706218262625E+01  0.0000000000000E+00
 0.1650702166179E+00 -0.3632977573816E+01  0.0000000000000E+00
 0.1650748977234E+00 -0.3559736972622E+01  0.0000000000000E+00
 0.1650795788703E+00 -0.3486495724824E+01  0.0000000000000E+00
 0.1650842599390E+00 -0.3413255700775E+01  0.0000000000000E+00
 0.1650889410474E+00 -0.3340015055470E+01  0.0000000000000E+00
 0.1650936221507E+00 -0.3266774490419E+01  0.0000000000000E+00
 0.1650983032480E+00 -0.3193534018653E+01  0.0000000000000E+00
 0.1651029843477E+00 -0.3120293509928E+01  0.0000000000000E+00
 0.1651076654495E+00 -0.3047052968449E+01  0.0000000000000E+00
 0.1651152489203E+00 -0.2973812363923E+01  0.0000000000000E+00
 0.1651444286449E+00 -0.2900571989815E+01  0.0000000000000E+00
 0.1652211621105E+00 -0.2827333184571E+01  0.0000000000000E+00
 0.1653691113735E+00 -0.2754099222185E+01  0.0000000000000E+00
 0.1656056937112E+00 -0.2680875786326E+01  0.0000000000000E+00
 0.1659420800769E+00 -0.2607670020465E+01  0.0000000000000E+00
 0.1663854132426E+00 -0.2534490257994E+01  0.0000000000000E+00
 0.1669413695495E+00 -0.2461345482262E+01  0.0000000000000E+00
 0.1676163705033E+00 -0.2388246408871E+01  0.0000000000000E+00
 0.1684192500176E+00 -0.2315206626271E+01  0.0000000000000E+00
 0.1693495111465E+00 -0.2242235944667E+01  0.0000000000000E+00
 0.1703942034699E+00 -0.2169336122026E+01  0.0000000000000E+00
 0.1715440821385E+00 -0.2096508836703E+01  0.0000000000000E+00
 0.1727937704082E+00 -0.2023756866964E+01  0.0000000000000E+00
 0.1741415136690E+00 -0.1951085114842E+01  0.0000000000000E+00
 0.1755900046701E+00 -0.1878502480274E+01  0.0000000000000E+00
 0.1771500722917E+00 -0.1806026171918E+01  0.0000000000000E+00
 0.1925052882440E+00 -0.4658365300656E+01  0.0000000000000E+00
 0.1925105764769E+00 -0.4585143628228E+01  0.0000000000000E+00
 0.1925158647424E+00 -0.4511921506156E+01  0.0000000000000E+00
 0.1925211529930E+00 -0.4438699589362E+01  0.0000000000000E+00
 0.1925264412425E+00 -0.4365477687129E+01  0.0000000000000E+00
 0.1925317294941E+00 -0.4292255757381E+01  0.0000000000000E+00
 0.1925370177425E+00 -0.4219033870910E+01  0.0000000000000E+00
 0.1925423059928E+00 -0.4145811957596E+01  0.0000000000000E+00
 0.1925475942428E+00 -0.4072590049661E+01  0.0000000000000E+00
 0.1925528824922E+00 -0.3999368149810E+01  0.0000000000000E+00
 0.1925581707427E+00 -0.3926146234633E+01  0.0000000000000E+00
 0.1925634589914E+00 -0.3852924343469E+01  0.0000000000000E+00
 0.1925687472425E+00 -0.3779702420348E+01  0.0000000000000E+00
 0.1925740354978E+00 -0.3706480437491E+01  0.0000000000000E+00
 0.1925793237517E+00 -0.3633258475472E+01  0.0000000000000E+00
 0.1925846119993E+00 -0.3560036601046E+01  0.0000000000000E+00
 0.1925899002935E+00 -0.3486814080182E+01  0.0000000000000E+00
 0.1925951884994E+00 -0.3413592782753E+01  0.0000000000000E+00
 0.1926004767501E+00 -0.3340370864228E+01  0.0000000000000E+00
 0.1926057649950E+00 -0.3267149025935E+01  0.0000000000000E+00
 0.1926110532332E+00 -0.3193927280904E+01  0.0000000000000E+00
 0.1926163414741E+00 -0.3120705498923E+01  0.0000000000000E+00
 0.1926216297173E+00 -0.3047483684197E+01  0.0000000000000E+00
 0.1926303040577E+00 -0.2974261806440E+01  0.0000000000000E+00
 0.1926641740278E+00 -0.2901040159091E+01  0.0000000000000E+00
 0.1927535233632E+00 -0.2827820080573E+01  0.0000000000000E+00
 0.1929259577963E+00 -0.2754604844905E+01  0.0000000000000E+00
 0.1932017974845E+00 -0.2681400135744E+01  0.0000000000000E+00
 0.1935940752064E+00 -0.2608213096582E+01  0.0000000000000E+00
 0.1941111241963E+00 -0.2535052060780E+01  0.0000000000000E+00
 0.1947595668518E+00 -0.2461926011733E+01  0.0000000000000E+00
 0.1955468949300E+00 -0.2388845665039E+01  0.0000000000000E+00
 0.1964834146637E+00 -0.2315824609092E+01  0.0000000000000E+00
 0.1975685462823E+00 -0.2242872654162E+01  0.0000000000000E+00
 0.1987871809622E+00 -0.2169991558216E+01  0.0000000000000E+00
 0.2001285330459E+00 -0.2097182999597E+01  0.0000000000000E+00
 0.2015863296650E+00 -0.2024449756583E+01  0.0000000000000E+00
 0.2031585237745E+00 -0.1951796731204E+01  0.0000000000000E+00
 0.2048482569157E+00 -0.1879232823336E+01  0.0000000000000E+00
 0.2066681627825E+00 -0.1806775241636E+01  0.0000000000000E+00
 0.2200058153998E+00 -0.4658386905282E+01  0.0000000000000E+00
 0.2200116307875E+00 -0.4585186837434E+01  0.0000000000000E+00
 0.2200174462108E+00 -0.4511986320076E+01  0.0000000000000E+00
 0.2200232616179E+00 -0.4438786007934E+01  0.0000000000000E+00
 0.2200290770239E+00 -0.4365585710349E+01  0.0000000000000E+00
 0.2200348924320E+00 -0.4292385385258E+01  0.0000000000000E+00
 0.2200407078366E+00 -0.4219185103431E+01  0.0000000000000E+00
 0.2200465232434E+00 -0.4145984794769E+01  0.0000000000000E+00
 0.2200523386498E+00 -0.4072784491483E+01  0.0000000000000E+00
 0.2200581540556E+00 -0.3999584196280E+01  0.0000000000000E+00
 0.2200639694625E+00 -0.3926383885756E+01  0.0000000000000E+00
 0.2200697848676E+00 -0.3853183599236E+01  0.0000000000000E+00
 0.2200756002751E+00 -0.3779983280770E+01  0.0000000000000E+00
 0.2200814156875E+00 -0.3706782902585E+01  0.0000000000000E+00
 0.2200872310981E+00 -0.3633582545232E+01  0.0000000000000E+00
 0.2200930465019E+00 -0.3560382275447E+01  0.0000000000000E+00
 0.2200988619569E+00 -0.3487181359413E+01  0.0000000000000E+00
 0.2201046773148E+00 -0.3413981666454E+01  0.0000000000000E+00
 0.2201104927220E+00 -0.3340781352582E+01  0.0000000000000E+00
 0.2201163081229E+00 -0.3267581118919E+01  0.0000000000000E+00
 0.2201221235163E+00 -0.3194380978490E+01  0.0000000000000E+00
 0.2201279389127E+00 -0.3121180801122E+01  0.0000000000000E+00
 0.2201337543117E+00 -0.3047980591018E+01  0.0000000000000E+00
 0.2201434395357E+00 -0.2974780317904E+01  0.0000000000000E+00
 0.2201819197651E+00 -0.2901580275183E+01  0.0000000000000E+00
 0.2202838049834E+00 -0.2828381801256E+01  0.0000000000000E+00
 0.2204806445985E+00 -0.2755188170172E+01  0.0000000000000E+00
 0.2207956616474E+00 -0.2682005065570E+01  0.0000000000000E+00
 0.2212437507339E+00 -0.2608839630967E+01  0.0000000000000E+00
 0.2218344355546E+00 -0.2535700199692E+01  0.0000000000000E+00
 0.2225752845634E+00 -0.2462595755191E+01  0.0000000000000E+00
 0.2234748597682E+00 -0.2389537013054E+01  0.0000000000000E+00
 0.2245449397216E+00 -0.2316537561614E+01  0.0000000000000E+00
 0.2257848618277E+00 -0.2243607211216E+01  0.0000000000000E+00
 0.2271773588597E+00 -0.2170747719827E+01  0.0000000000000E+00
 0.2287101043520E+00 -0.2097960765773E+01  0.0000000000000E+00
 0.2303759293123E+00 -0.2025249127350E+01  0.0000000000000E+00
 0.2321724942604E+00 -0.1952617706584E+01  0.0000000000000E+00
 0.2341033895299E+00 -0.1880075403276E+01  0.0000000000000E+00
 0.2361830536282E+00 -0.1807639426087E+01  0.0000000000000E+00
 0.2475062513560E+00 -0.4658411386427E+01  0.0000000000000E+00
 0.2475125026990E+00 -0.4585235799674E+01  0.0000000000000E+00
 0.2475187540803E+00 -0.4512059763560E+01  0.0000000000000E+00
 0.2475250054442E+00 -0.4438883932594E+01  0.0000000000000E+00
 0.2475312568068E+00 -0.4365708116181E+01  0.0000000000000E+00
 0.2475375081717E+00 -0.4292532272270E+01  0.0000000000000E+00
 0.2475437595330E+00 -0.4219356471609E+01  0.0000000000000E+00
 0.2475500108965E+00 -0.4146180644121E+01  0.0000000000000E+00
 0.2475562622596E+00 -0.4073004822009E+01  0.0000000000000E+00
 0.2475625136220E+00 -0.3999829007976E+01  0.0000000000000E+00
 0.2475687649857E+00 -0.3926653178627E+01  0.0000000000000E+00
 0.2475750163473E+00 -0.3853477373275E+01  0.0000000000000E+00
 0.2475812677117E+00 -0.3780301535987E+01  0.0000000000000E+00
 0.2475875190812E+00 -0.3707125639000E+01  0.0000000000000E+00
 0.2475937704489E+00 -0.3633949762838E+01  0.0000000000000E+00
 0.2476000218091E+00 -0.3560773974215E+01  0.0000000000000E+00
 0.2476062732245E+00 -0.3487597539559E+01  0.0000000000000E+00
 0.2476125245354E+00 -0.3414422327569E+01  0.0000000000000E+00
 0.2476187758994E+00 -0.3341246494873E+01  0.0000000000000E+00
 0.2476250272566E+00 -0.3268070742360E+01  0.0000000000000E+00
 0.2476312786057E+00 -0.3194895083049E+01  0.0000000000000E+00
 0.2476375299581E+00 -0.3121719386813E+01  0.0000000000000E+00
 0.2476437813132E+00 -0.3048543657851E+01  0.0000000000000E+00
 0.2476543862212E+00 -0.2975367865900E+01  0.0000000000000E+00
 0.2476973855103E+00 -0.2902192304328E+01  0.0000000000000E+00
 0.2478117154120E+00 -0.2829018311508E+01  0.0000000000000E+00
 0.2480328690096E+00 -0.2755849161521E+01  0.0000000000000E+00
 0.2483869722199E+00 -0.2682690537989E+01  0.0000000000000E+00
 0.2488907814716E+00 -0.2609549584457E+01  0.0000000000000E+00
 0.2495550109240E+00 -0.2536434634215E+01  0.0000000000000E+00
 0.2503881750867E+00 -0.2463354670768E+01  0.0000000000000E+00
 0.2513999062187E+00 -0.2390320409700E+01  0.0000000000000E+00
 0.2526034551925E+00 -0.2317345439271E+01  0.0000000000000E+00
 0.2539980765867E+00 -0.2244439569913E+01  0.0000000000000E+00
 0.2555643447712E+00 -0.2171604559590E+01  0.0000000000000E+00
 0.2572883924727E+00 -0.2098842086614E+01  0.0000000000000E+00
 0.2591621545745E+00 -0.2026154929295E+01  0.0000000000000E+00
 0.2611829991614E+00 -0.1953547989660E+01  0.0000000000000E+00
 0.2633549653598E+00 -0.1881030167425E+01  0.0000000000000E+00
 0.2656942964902E+00 -0.1808618671252E+01  0.0000000000000E+00
 0.2750065850588E+00 -0.4658438742571E+01  0.0000000000000E+00
 0.2750131701039E+00 -0.4585290511904E+01  0.0000000000000E+00
 0.2750197551894E+00 -0.4512141832045E+01  0.0000000000000E+00
 0.2750263402564E+00 -0.4438993357257E+01  0.0000000000000E+00
 0.2750329253222E+00 -0.4365844897016E+01  0.0000000000000E+00
 0.2750395103904E+00 -0.4292696409288E+01  0.0000000000000E+00
 0.2750460954547E+00 -0.4219547964793E+01  0.0000000000000E+00
 0.2750526805214E+00 -0.4146399493482E+01  0.0000000000000E+00
 0.2750592655877E+00 -0.4073251027544E+01  0.0000000000000E+00
 0.2750658506532E+00 -0.4000102569683E+01  0.0000000000000E+00
 0.2750724357201E+00 -0.3926954096512E+01  0.0000000000000E+00
 0.2750790207848E+00 -0.3853805647328E+01  0.0000000000000E+00
 0.2750856058524E+00 -0.3780657166220E+01  0.0000000000000E+00
 0.2750921909254E+00 -0.3707508625436E+01  0.0000000000000E+00
 0.2750987759965E+00 -0.3634360105469E+01  0.0000000000000E+00
 0.2751053610598E+00 -0.3561211673007E+01  0.0000000000000E+00
 0.2751119461812E+00 -0.3488062594756E+01  0.0000000000000E+00
 0.2751185311925E+00 -0.3414914738712E+01  0.0000000000000E+00
 0.2751251162597E+00 -0.3341766262195E+01  0.0000000000000E+00
 0.2751317013197E+00 -0.3268617865830E+01  0.0000000000000E+00
 0.2751382863713E+00 -0.3195469562633E+01  0.0000000000000E+00
 0.2751448714262E+00 -0.3122321222524E+01  0.0000000000000E+00
 0.2751514564841E+00 -0.3049172849702E+01  0.0000000000000E+00
 0.2751628788227E+00 -0.2976024413916E+01  0.0000000000000E+00
 0.2752102949189E+00 -0.2902876208491E+01  0.0000000000000E+00
 0.2753369672533E+00 -0.2829729571771E+01  0.0000000000000E+00
 0.2755823325853E+00 -0.2756587777875E+01  0.0000000000000E+00
 0.2759754197121E+00 -0.2683456510402E+01  0.0000000000000E+00
 0.2765348468877E+00 -0.2610342912930E+01  0.0000000000000E+00
 0.2772725187343E+00 -0.2537255318706E+01  0.0000000000000E+00
 0.2781978958174E+00 -0.2464202711301E+01  0.0000000000000E+00
 0.2793216806473E+00 -0.2391195806292E+01  0.0000000000000E+00
 0.2806585964169E+00 -0.2318248191856E+01  0.0000000000000E+00
 0.2822078148791E+00 -0.2245369678523E+01  0.0000000000000E+00
 0.2839477520001E+00 -0.2172562024256E+01  0.0000000000000E+00
 0.2858629996983E+00 -0.2099826907348E+01  0.0000000000000E+00
 0.2879445967325E+00 -0.2027167106128E+01  0.0000000000000E+00
 0.2901896187525E+00 -0.1954587522619E+01  0.0000000000000E+00
 0.2926025536778E+00 -0.1882097056446E+01  0.0000000000000E+00
 0.2952014496426E+00 -0.1809712916272E+01  0.0000000000000E+00
 0.3025068043940E+00 -0.4658468971968E+01  0.0000000000000E+00
 0.3025136087739E+00 -0.4585350970636E+01  0.0000000000000E+00
 0.3025204131955E+00 -0.4512232520297E+01  0.0000000000000E+00
 0.3025272175981E+00 -0.4439114274945E+01  0.0000000000000E+00
 0.3025340219993E+00 -0.4365996044133E+01  0.0000000000000E+00
 0.3025408264030E+00 -0.4292877785846E+01  0.0000000000000E+00
 0.3025476308028E+00 -0.4219759570774E+01  0.0000000000000E+00
 0.3025544352050E+00 -0.4146641328897E+01  0.0000000000000E+00
 0.3025612396067E+00 -0.4073523092391E+01  0.0000000000000E+00
 0.3025680440077E+00 -0.4000404863958E+01  0.0000000000000E+00
 0.3025748484101E+00 -0.3927286620221E+01  0.0000000000000E+00
 0.3025816528103E+00 -0.3854168400463E+01  0.0000000000000E+00
 0.3025884572134E+00 -0.3781050148793E+01  0.0000000000000E+00
 0.3025952616221E+00 -0.3707931837471E+01  0.0000000000000E+00
 0.3026020660289E+00 -0.3634813546959E+01  0.0000000000000E+00
 0.3026088704275E+00 -0.3561695343915E+01  0.0000000000000E+00
 0.3026156748862E+00 -0.3488576495348E+01  0.0000000000000E+00
 0.3026224792312E+00 -0.3415458868484E+01  0.0000000000000E+00
 0.3026292836339E+00 -0.3342340621403E+01  0.0000000000000E+00
 0.3026360880292E+00 -0.3269222454441E+01  0.0000000000000E+00
 0.3026428924158E+00 -0.3196104380609E+01  0.0000000000000E+00
 0.3026496968058E+00 -0.3122986269880E+01  0.0000000000000E+00
 0.3026565011989E+00 -0.3049868126451E+01  0.0000000000000E+00
 0.3026686266003E+00 -0.2976749920085E+01  0.0000000000000E+00
 0.3027203451345E+00 -0.2903631944063E+01  0.0000000000000E+00
 0.3028592455296E+00 -0.2830515536692E+01  0.0000000000000E+00
 0.3031287082196E+00 -0.2757403972134E+01  0.0000000000000E+00
 0.3035606648810E+00 -0.2684302933966E+01  0.0000000000000E+00
 0.3041755955924E+00 -0.2611219565799E+01  0.0000000000000E+00
 0.3049865954384E+00 -0.2538162200834E+01  0.0000000000000E+00
 0.3060040710399E+00 -0.2465139822714E+01  0.0000000000000E+00
 0.3072397951582E+00 -0.2392163147008E+01  0.0000000000000E+00
 0.3087099633062E+00 -0.2319245761804E+01  0.0000000000000E+00
 0.3104136644108E+00 -0.2246397477737E+01  0.0000000000000E+00
 0.3123271560352E+00 -0.2173620052771E+01  0.0000000000000E+00
 0.3144334892904E+00 -0.2100915165177E+01  0.0000000000000E+00
 0.3167228068109E+00 -0.2028285593305E+01  0.0000000000000E+00
 0.3191918918116E+00 -0.1955736239175E+01  0.0000000000000E+00
 0.3218456810053E+00 -0.1883276002310E+01  0.0000000000000E+00
 0.3247040273393E+00 -0.1810922091373E+01  0.0000000000000E+00
 0.3300068990355E+00 -0.4658502072771E+01  0.0000000000000E+00
 0.3300137980567E+00 -0.4585417172174E+01  0.0000000000000E+00
 0.3300206971202E+00 -0.4512331822772E+01  0.0000000000000E+00
 0.3300275961644E+00 -0.4439246678265E+01  0.0000000000000E+00
 0.3300344952072E+00 -0.4366161548291E+01  0.0000000000000E+00
 0.3300413942526E+00 -0.4293076390855E+01  0.0000000000000E+00
 0.3300482932940E+00 -0.4219991276614E+01  0.0000000000000E+00
 0.3300551923378E+00 -0.4146906135581E+01  0.0000000000000E+00
 0.3300620913812E+00 -0.4073820999915E+01  0.0000000000000E+00
 0.3300689904238E+00 -0.4000735872320E+01  0.0000000000000E+00
 0.3300758894678E+00 -0.3927650729427E+01  0.0000000000000E+00
 0.3300827885096E+00 -0.3854565610502E+01  0.0000000000000E+00
 0.3300896875544E+00 -0.3781480459680E+01  0.0000000000000E+00
 0.3300965866048E+00 -0.3708395249233E+01  0.0000000000000E+00
 0.3301034856532E+00 -0.3635310059585E+01  0.0000000000000E+00
 0.3301103846934E+00 -0.3562224957367E+01  0.0000000000000E+00
 0.3301172837945E+00 -0.3489139209918E+01  0.0000000000000E+00
 0.3301241827804E+00 -0.3416054683619E+01  0.0000000000000E+00
 0.3301310818247E+00 -0.3342969537384E+01  0.0000000000000E+00
 0.3301379808615E+00 -0.3269884471232E+01  0.0000000000000E+00
 0.3301448798895E+00 -0.3196799498167E+01  0.0000000000000E+00
 0.3301517789210E+00 -0.3123714488221E+01  0.0000000000000E+00
 0.3301586779556E+00 -0.3050629445591E+01  0.0000000000000E+00
 0.3301713817261E+00 -0.2977544340053E+01  0.0000000000000E+00
 0.3302272780059E+00 -0.2904459464839E+01  0.0000000000000E+00
 0.3303782817725E+00 -0.2831376158220E+01  0.0000000000000E+00
 0.3306717171352E+00 -0.2758297694401E+01  0.0000000000000E+00
 0.3311424186512E+00 -0.2685229756934E+01  0.0000000000000E+00
 0.3318127282240E+00 -0.2612179489470E+01  0.0000000000000E+00
 0.3326969314014E+00 -0.2539155225155E+01  0.0000000000000E+00
 0.3338063808598E+00 -0.2466165947716E+01  0.0000000000000E+00
 0.3351539196114E+00 -0.2393222372710E+01  0.0000000000000E+00
 0.3367572154907E+00 -0.2320338088127E+01  0.0000000000000E+00
 0.3386152745975E+00 -0.2247522904721E+01  0.0000000000000E+00
 0.3407021960918E+00 -0.2174778580452E+01  0.0000000000000E+00
 0.3429994902762E+00 -0.2102106793569E+01  0.0000000000000E+00
 0.3454964036609E+00 -0.2029510322446E+01  0.0000000000000E+00
 0.3481894270257E+00 -0.1956994069100E+01  0.0000000000000E+00
 0.3510839458773E+00 -0.1884566932939E+01  0.0000000000000E+00
 0.3542016179765E+00 -0.1812246122631E+01  0.0000000000000E+00
 0.3575068569661E+00 -0.4658538042879E+01  0.0000000000000E+00
 0.3575137139178E+00 -0.4585489112314E+01  0.0000000000000E+00
 0.3575205709117E+00 -0.4512439733166E+01  0.0000000000000E+00
 0.3575274278864E+00 -0.4439390558811E+01  0.0000000000000E+00
 0.3575342848597E+00 -0.4366341398983E+01  0.0000000000000E+00
 0.3575411418356E+00 -0.4293292211706E+01  0.0000000000000E+00
 0.3575479988074E+00 -0.4220243067603E+01  0.0000000000000E+00
 0.3575548557817E+00 -0.4147193896721E+01  0.0000000000000E+00
 0.3575617127555E+00 -0.4074144731204E+01  0.0000000000000E+00
 0.3575685697286E+00 -0.4001095573752E+01  0.0000000000000E+00
 0.3575754267031E+00 -0.3928046401012E+01  0.0000000000000E+00
 0.3575822836754E+00 -0.3854997252227E+01  0.0000000000000E+00
 0.3575891406506E+00 -0.3781948071560E+01  0.0000000000000E+00
 0.3575959976315E+00 -0.3708898831298E+01  0.0000000000000E+00
 0.3576028546104E+00 -0.3635849611826E+01  0.0000000000000E+00
 0.3576097115811E+00 -0.3562800479740E+01  0.0000000000000E+00
 0.3576165686123E+00 -0.3489750702740E+01  0.0000000000000E+00
 0.3576234255290E+00 -0.3416702146290E+01  0.0000000000000E+00
 0.3576302825038E+00 -0.3343652970208E+01  0.0000000000000E+00
 0.3576371394711E+00 -0.3270603874170E+01  0.0000000000000E+00
 0.3576439964297E+00 -0.3197554871173E+01  0.0000000000000E+00
 0.3576508533917E+00 -0.3124505831314E+01  0.0000000000000E+00
 0.3576577103568E+00 -0.3051456758786E+01  0.0000000000000E+00
 0.3576708557852E+00 -0.2978407623384E+01  0.0000000000000E+00
 0.3577307930988E+00 -0.2905358718283E+01  0.0000000000000E+00
 0.3578937635234E+00 -0.2832311381714E+01  0.0000000000000E+00
 0.3582110348432E+00 -0.2759268887932E+01  0.0000000000000E+00
 0.3587203444949E+00 -0.2686236920463E+01  0.0000000000000E+00
 0.3594458962068E+00 -0.2613222622996E+01  0.0000000000000E+00
 0.3604031659898E+00 -0.2540234328623E+01  0.0000000000000E+00
 0.3616044525750E+00 -0.2467281021158E+01  0.0000000000000E+00
 0.3630636692258E+00 -0.2394373416147E+01  0.0000000000000E+00
 0.3647999560978E+00 -0.2321525101475E+01  0.0000000000000E+00
 0.3668122364638E+00 -0.2248745888021E+01  0.0000000000000E+00
 0.3690724510805E+00 -0.2176037533744E+01  0.0000000000000E+00
 0.3715605694432E+00 -0.2103401716869E+01  0.0000000000000E+00
 0.3742649419373E+00 -0.2030841215795E+01  0.0000000000000E+00
 0.3771817669077E+00 -0.1958360932534E+01  0.0000000000000E+00
 0.3803168786556E+00 -0.1885969766374E+01  0.0000000000000E+00
 0.3836937397548E+00 -0.1813684925983E+01  0.0000000000000E+00
 0.3850066672510E+00 -0.4658576880061E+01  0.0000000000000E+00
 0.3850133344881E+00 -0.4585566786598E+01  0.0000000000000E+00
 0.3850200017662E+00 -0.4512556244790E+01  0.0000000000000E+00
 0.3850266690256E+00 -0.4439545907666E+01  0.0000000000000E+00
 0.3850333362836E+00 -0.4366535585061E+01  0.0000000000000E+00
 0.3850400035442E+00 -0.4293525235022E+01  0.0000000000000E+00
 0.3850466708008E+00 -0.4220514928134E+01  0.0000000000000E+00
 0.3850533380599E+00 -0.4147504594480E+01  0.0000000000000E+00
 0.3850600053184E+00 -0.4074494266190E+01  0.0000000000000E+00
 0.3850666725763E+00 -0.4001483945960E+01  0.0000000000000E+00
 0.3850733398355E+00 -0.3928473610450E+01  0.0000000000000E+00
 0.3850800070925E+00 -0.3855463298882E+01  0.0000000000000E+00
 0.3850866743525E+00 -0.3782452955450E+01  0.0000000000000E+00
 0.3850933416179E+00 -0.3709442552454E+01  0.0000000000000E+00
 0.3851000088814E+00 -0.3636432170237E+01  0.0000000000000E+00
 0.3851066761369E+00 -0.3563421875359E+01  0.0000000000000E+00
 0.3851133434512E+00 -0.3490410935911E+01  0.0000000000000E+00
 0.3851200106542E+00 -0.3417401216363E+01  0.0000000000000E+00
 0.3851266779138E+00 -0.3344390877513E+01  0.0000000000000E+00
 0.3851333451660E+00 -0.3271380618664E+01  0.0000000000000E+00
 0.3851400124097E+00 -0.3198370452807E+01  0.0000000000000E+00
 0.3851466796568E+00 -0.3125360250108E+01  0.0000000000000E+00
 0.3851533469069E+00 -0.3052350014757E+01  0.0000000000000E+00
 0.3851667863476E+00 -0.2979339716566E+01  0.0000000000000E+00
 0.3852306170495E+00 -0.2906329648653E+01  0.0000000000000E+00
 0.3854054064870E+00 -0.2833321149205E+01  0.0000000000000E+00
 0.3857463661188E+00 -0.2760317492529E+01  0.0000000000000E+00
 0.3862941362620E+00 -0.2687324362123E+01  0.0000000000000E+00
 0.3870747824689E+00 -0.2614348901720E+01  0.0000000000000E+00
 0.3881049712139E+00 -0.2541399444351E+01  0.0000000000000E+00
 0.3893979472826E+00 -0.2468484973924E+01  0.0000000000000E+00
 0.3909686941895E+00 -0.2395616205974E+01  0.0000000000000E+00
 0.3928378244118E+00 -0.2322806728271E+01  0.0000000000000E+00
 0.3950041783950E+00 -0.2250066351831E+01  0.0000000000000E+00
 0.3974375384922E+00 -0.2177396834612E+01  0.0000000000000E+00
 0.4001163333914E+00 -0.2104799854812E+01  0.0000000000000E+00
 0.4030280173533E+00 -0.2032278190856E+01  0.0000000000000E+00
 0.4061684962881E+00 -0.1959836744754E+01  0.0000000000000E+00
 0.4095440532914E+00 -0.1887484415661E+01  0.0000000000000E+00
 0.4131799557506E+00 -0.1815238412246E+01  0.0000000000000E+00
 0.4125063190932E+00 -0.4658618581925E+01  0.0000000000000E+00
 0.4125126381733E+00 -0.4585650190237E+01  0.0000000000000E+00
 0.4125189572921E+00 -0.4512681350462E+01  0.0000000000000E+00
 0.4125252763933E+00 -0.4439712715254E+01  0.0000000000000E+00
 0.4125315954932E+00 -0.4366744094556E+01  0.0000000000000E+00
 0.4125379145954E+00 -0.4293775446440E+01  0.0000000000000E+00
 0.4125442336940E+00 -0.4220806841450E+01  0.0000000000000E+00
 0.4125505527948E+00 -0.4147838209710E+01  0.0000000000000E+00
 0.4125568718952E+00 -0.4074869583330E+01  0.0000000000000E+00
 0.4125631909949E+00 -0.4001900965006E+01  0.0000000000000E+00
 0.4125695100959E+00 -0.3928932331410E+01  0.0000000000000E+00
 0.4125758291948E+00 -0.3855963721744E+01  0.0000000000000E+00
 0.4125821482965E+00 -0.3782995080231E+01  0.0000000000000E+00
 0.4125884674034E+00 -0.3710026379188E+01  0.0000000000000E+00
 0.4125947865084E+00 -0.3637057698912E+01  0.0000000000000E+00
 0.4126011056059E+00 -0.3564089105926E+01  0.0000000000000E+00
 0.4126074247592E+00 -0.3491119868737E+01  0.0000000000000E+00
 0.4126137438069E+00 -0.3418151850752E+01  0.0000000000000E+00
 0.4126200629082E+00 -0.3345183213819E+01  0.0000000000000E+00
 0.4126263820025E+00 -0.3272214656840E+01  0.0000000000000E+00
 0.4126327010889E+00 -0.3199246192801E+01  0.0000000000000E+00
 0.4126390201784E+00 -0.3126277691941E+01  0.0000000000000E+00
 0.4126453392707E+00 -0.3053309158447E+01  0.0000000000000E+00
 0.4126589142810E+00 -0.2980340562151E+01  0.0000000000000E+00
 0.4127264799297E+00 -0.2907372196107E+01  0.0000000000000E+00
 0.4129129299416E+00 -0.2834405398456E+01  0.0000000000000E+00
 0.4132774194510E+00 -0.2761443443563E+01  0.0000000000000E+00
 0.4138634916560E+00 -0.2688492014891E+01  0.0000000000000E+00
 0.4146990739339E+00 -0.2615558256224E+01  0.0000000000000E+00
 0.4158020232230E+00 -0.2542650500527E+01  0.0000000000000E+00
 0.4171865303632E+00 -0.2469777731808E+01  0.0000000000000E+00
 0.4188686491207E+00 -0.2396950665591E+01  0.0000000000000E+00
 0.4208704642954E+00 -0.2324182889523E+01  0.0000000000000E+00
 0.4231907335043E+00 -0.2251484214766E+01  0.0000000000000E+00
 0.4257970806970E+00 -0.2178856399276E+01  0.0000000000000E+00
 0.4286663937532E+00 -0.2106301121224E+01  0.0000000000000E+00
 0.4317852308089E+00 -0.2033821159063E+01  0.0000000000000E+00
 0.4351492053391E+00 -0.1961421414798E+01  0.0000000000000E+00
 0.4387650492349E+00 -0.1889110787444E+01  0.0000000000000E+00
 0.4426598346975E+00 -0.1816906485672E+01  0.0000000000000E+00
 0.4400058000888E+00 -0.4658663145799E+01  0.0000000000000E+00
 0.4400116001655E+00 -0.4585739317892E+01  0.0000000000000E+00
 0.4400174002778E+00 -0.4512815042172E+01  0.0000000000000E+00
 0.4400232003739E+00 -0.4439890970894E+01  0.0000000000000E+00
 0.4400290004688E+00 -0.4366966914117E+01  0.0000000000000E+00
 0.4400348005658E+00 -0.4294042829939E+01  0.0000000000000E+00
 0.4400406006595E+00 -0.4221118788861E+01  0.0000000000000E+00
 0.4400464007553E+00 -0.4148194721049E+01  0.0000000000000E+00
 0.4400522008506E+00 -0.4075270658593E+01  0.0000000000000E+00
 0.4400580009453E+00 -0.4002346604189E+01  0.0000000000000E+00
 0.4400638010413E+00 -0.3929422534522E+01  0.0000000000000E+00
 0.4400696011353E+00 -0.3856498488770E+01  0.0000000000000E+00
 0.4400754012318E+00 -0.3783574411191E+01  0.0000000000000E+00
 0.4400812013331E+00 -0.3710650274118E+01  0.0000000000000E+00
 0.4400870014328E+00 -0.3637726157800E+01  0.0000000000000E+00
 0.4400928015255E+00 -0.3564802128718E+01  0.0000000000000E+00
 0.4400986016694E+00 -0.3491877455827E+01  0.0000000000000E+00
 0.4401044017164E+00 -0.3418954001394E+01  0.0000000000000E+00
 0.4401102018126E+00 -0.3346029928392E+01  0.0000000000000E+00
 0.4401160019024E+00 -0.3273105935296E+01  0.0000000000000E+00
 0.4401218019848E+00 -0.3200182035083E+01  0.0000000000000E+00
 0.4401276020702E+00 -0.3127258098070E+01  0.0000000000000E+00
 0.4401334021582E+00 -0.3054334128444E+01  0.0000000000000E+00
 0.4401469418909E+00 -0.2981410096056E+01  0.0000000000000E+00
 0.4402180716374E+00 -0.2908486293893E+01  0.0000000000000E+00
 0.4404160113703E+00 -0.2835564060045E+01  0.0000000000000E+00
 0.4408038598970E+00 -0.2762646668939E+01  0.0000000000000E+00
 0.4414280632953E+00 -0.2689739804004E+01  0.0000000000000E+00
 0.4423184107658E+00 -0.2616850609075E+01  0.0000000000000E+00
 0.4434939497105E+00 -0.2543987417048E+01  0.0000000000000E+00
 0.4449698170227E+00 -0.2471159212037E+01  0.0000000000000E+00
 0.4467631367197E+00 -0.2398376709555E+01  0.0000000000000E+00
 0.4488974659235E+00 -0.2325653497116E+01  0.0000000000000E+00
 0.4513714794224E+00 -0.2252999386040E+01  0.0000000000000E+00
 0.4541506427632E+00 -0.2180416134282E+01  0.0000000000000E+00
 0.4572103030192E+00 -0.2107905419981E+01  0.0000000000000E+00
 0.4605361222013E+00 -0.2035470021620E+01  0.0000000000000E+00
 0.4641234213498E+00 -0.1963114841203E+01  0.0000000000000E+00
 0.4679793811517E+00 -0.1890848777590E+01  0.0000000000000E+00
 0.4721328786209E+00 -0.1818689039456E+01  0.0000000000000E+00
 0.4675051005201E+00 -0.4658710569005E+01  0.0000000000000E+00
 0.4675102010296E+00 -0.4585834164207E+01  0.0000000000000E+00
 0.4675153015704E+00 -0.4512957311885E+01  0.0000000000000E+00
 0.4675204020969E+00 -0.4440080663873E+01  0.0000000000000E+00
 0.4675255026224E+00 -0.4367204030353E+01  0.0000000000000E+00
 0.4675306031498E+00 -0.4294327369449E+01  0.0000000000000E+00
 0.4675357036742E+00 -0.4221450751617E+01  0.0000000000000E+00
 0.4675408042005E+00 -0.4148574107069E+01  0.0000000000000E+00
 0.4675459047264E+00 -0.4075697467873E+01  0.0000000000000E+00
 0.4675510052517E+00 -0.4002820836724E+01  0.0000000000000E+00
 0.4675561057781E+00 -0.3929944190322E+01  0.0000000000000E+00
 0.4675612063029E+00 -0.3857067567819E+01  0.0000000000000E+00
 0.4675663068298E+00 -0.3784190913510E+01  0.0000000000000E+00
 0.4675714073609E+00 -0.3711314199746E+01  0.0000000000000E+00
 0.4675765078906E+00 -0.3638437506723E+01  0.0000000000000E+00
 0.4675816084142E+00 -0.3565560900880E+01  0.0000000000000E+00
 0.4675867089827E+00 -0.3492683651646E+01  0.0000000000000E+00
 0.4675918094661E+00 -0.3419807620078E+01  0.0000000000000E+00
 0.4675969099927E+00 -0.3346930970343E+01  0.0000000000000E+00
 0.4676020105138E+00 -0.3274054400462E+01  0.0000000000000E+00
 0.4676071110283E+00 -0.3201177923403E+01  0.0000000000000E+00
 0.4676122115455E+00 -0.3128301409569E+01  0.0000000000000E+00
 0.4676173120649E+00 -0.3055424863144E+01  0.0000000000000E+00
 0.4676306359560E+00 -0.2982548253998E+01  0.0000000000000E+00
 0.4677051492379E+00 -0.2909671875048E+01  0.0000000000000E+00
 0.4679143981338E+00 -0.2836797064332E+01  0.0000000000000E+00
 0.4683254251255E+00 -0.2763927096339E+01  0.0000000000000E+00
 0.4689875791721E+00 -0.2691067654466E+01  0.0000000000000E+00
 0.4699325112982E+00 -0.2618225882598E+01  0.0000000000000E+00
 0.4711804593705E+00 -0.2545410113560E+01  0.0000000000000E+00
 0.4727475063358E+00 -0.2472629331579E+01  0.0000000000000E+00
 0.4746518464626E+00 -0.2399894252155E+01  0.0000000000000E+00
 0.4769185091967E+00 -0.2327218462663E+01  0.0000000000000E+00
 0.4795460864969E+00 -0.2254611774588E+01  0.0000000000000E+00
 0.4824978855064E+00 -0.2182075945884E+01  0.0000000000000E+00
 0.4857477124908E+00 -0.2109612654658E+01  0.0000000000000E+00
 0.4892803333359E+00 -0.2037224679426E+01  0.0000000000000E+00
 0.4930907766471E+00 -0.1964916922187E+01  0.0000000000000E+00
 0.4971866719080E+00 -0.1892698281639E+01  0.0000000000000E+00
 0.5015987009462E+00 -0.1820585966460E+01  0.0000000000000E+00
 0.4950042083210E+00 -0.4658760848539E+01  0.0000000000000E+00
 0.4950084166332E+00 -0.4585934723169E+01  0.0000000000000E+00
 0.4950126249712E+00 -0.4513108150585E+01  0.0000000000000E+00
 0.4950168332975E+00 -0.4440281782170E+01  0.0000000000000E+00
 0.4950210416229E+00 -0.4367455428237E+01  0.0000000000000E+00
 0.4950252499499E+00 -0.4294629046938E+01  0.0000000000000E+00
 0.4950294582744E+00 -0.4221802708682E+01  0.0000000000000E+00
 0.4950336666004E+00 -0.4148976343728E+01  0.0000000000000E+00
 0.4950378749262E+00 -0.4076149984123E+01  0.0000000000000E+00
 0.4950420832514E+00 -0.4003323632559E+01  0.0000000000000E+00
 0.4950462915776E+00 -0.3930497265753E+01  0.0000000000000E+00
 0.4950504999024E+00 -0.3857670922829E+01  0.0000000000000E+00
 0.4950547082290E+00 -0.3784844548121E+01  0.0000000000000E+00
 0.4950589165590E+00 -0.3712018113999E+01  0.0000000000000E+00
 0.4950631248879E+00 -0.3639191700604E+01  0.0000000000000E+00
 0.4950673332117E+00 -0.3566365374328E+01  0.0000000000000E+00
 0.4950715415726E+00 -0.3493538405106E+01  0.0000000000000E+00
 0.4950757498633E+00 -0.3420712652710E+01  0.0000000000000E+00
 0.4950799581896E+00 -0.3347886282572E+01  0.0000000000000E+00
 0.4950841665114E+00 -0.3275059992234E+01  0.0000000000000E+00
 0.4950883748277E+00 -0.3202233794654E+01  0.0000000000000E+00
 0.4950925831462E+00 -0.3129407560324E+01  0.0000000000000E+00
 0.4950967914666E+00 -0.3056581293425E+01  0.0000000000000E+00
 0.4951097068853E+00 -0.2983754963851E+01  0.0000000000000E+00
 0.4951874110714E+00 -0.2910928864443E+01  0.0000000000000E+00
 0.4954077764972E+00 -0.2838104333180E+01  0.0000000000000E+00
 0.4958417893184E+00 -0.2765284644623E+01  0.0000000000000E+00
 0.4965417013745E+00 -0.2692475482128E+01  0.0000000000000E+00
 0.4975410255139E+00 -0.2619683989641E+01  0.0000000000000E+00
 0.4988611900675E+00 -0.2546918499905E+01  0.0000000000000E+00
 0.5005192240350E+00 -0.2474187997271E+01  0.0000000000000E+00
 0.5025343919363E+00 -0.2401503197224E+01  0.0000000000000E+00
 0.5049331955409E+00 -0.2328877686990E+01  0.0000000000000E+00
 0.5077141439775E+00 -0.2256321278231E+01  0.0000000000000E+00
 0.5108383859861E+00 -0.2183835728900E+01  0.0000000000000E+00
 0.5142781870254E+00 -0.2111422717068E+01  0.0000000000000E+00
 0.5180174168560E+00 -0.2039085021287E+01  0.0000000000000E+00
 0.5220508116484E+00 -0.1966827543550E+01  0.0000000000000E+00
 0.5263864496834E+00 -0.1894659182387E+01  0.0000000000000E+00
 0.5310568176018E+00 -0.1822597146475E+01  0.0000000000000E+00
 0.5225031126404E+00 -0.4658813981299E+01  0.0000000000000E+00
 0.5225062252743E+00 -0.4586040988578E+01  0.0000000000000E+00
 0.5225093379273E+00 -0.4513267548970E+01  0.0000000000000E+00
 0.5225124505716E+00 -0.4440494313380E+01  0.0000000000000E+00
 0.5225155632152E+00 -0.4367721092263E+01  0.0000000000000E+00
 0.5225186758601E+00 -0.4294947843801E+01  0.0000000000000E+00
 0.5225217885031E+00 -0.4222174638349E+01  0.0000000000000E+00
 0.5225249011472E+00 -0.4149401406219E+01  0.0000000000000E+00
 0.5225280137911E+00 -0.4076628179434E+01  0.0000000000000E+00
 0.5225311264347E+00 -0.4003854960684E+01  0.0000000000000E+00
 0.5225342390789E+00 -0.3931081726703E+01  0.0000000000000E+00
 0.5225373517221E+00 -0.3858308516587E+01  0.0000000000000E+00
 0.5225404643666E+00 -0.3785535274710E+01  0.0000000000000E+00
 0.5225435770137E+00 -0.3712761973463E+01  0.0000000000000E+00
 0.5225466896599E+00 -0.3639988692926E+01  0.0000000000000E+00
 0.5225498023024E+00 -0.3567215499446E+01  0.0000000000000E+00
 0.5225529149724E+00 -0.3494441663489E+01  0.0000000000000E+00
 0.5225560275903E+00 -0.3421669043470E+01  0.0000000000000E+00
 0.5225591402347E+00 -0.3348895806160E+01  0.0000000000000E+00
 0.5225622528757E+00 -0.3276122648591E+01  0.0000000000000E+00
 0.5225653655126E+00 -0.3203349583713E+01  0.0000000000000E+00
 0.5225684781512E+00 -0.3130576482112E+01  0.0000000000000E+00
 0.5225715907911E+00 -0.3057803347965E+01  0.0000000000000E+00
 0.5225838942559E+00 -0.2985030151191E+01  0.0000000000000E+00
 0.5226645858642E+00 -0.2912257184550E+01  0.0000000000000E+00
 0.5228958643382E+00 -0.2839485785963E+01  0.0000000000000E+00
 0.5233526595062E+00 -0.2766719230062E+01  0.0000000000000E+00
 0.5240901260887E+00 -0.2693963200164E+01  0.0000000000000E+00
 0.5251436387569E+00 -0.2621224840274E+01  0.0000000000000E+00
 0.5265358163068E+00 -0.2548512483054E+01  0.0000000000000E+00
 0.5282846337900E+00 -0.2475835112982E+01  0.0000000000000E+00
 0.5304104259779E+00 -0.2403203445529E+01  0.0000000000000E+00
 0.5329411669643E+00 -0.2330631067763E+01  0.0000000000000E+00
 0.5358752830470E+00 -0.2258127791534E+01  0.0000000000000E+00
 0.5391717645631E+00 -0.2185695374792E+01  0.0000000000000E+00
 0.5428013361643E+00 -0.2113335495573E+01  0.0000000000000E+00
 0.5467469714862E+00 -0.2041050932465E+01  0.0000000000000E+00
 0.5510031142644E+00 -0.1968846587455E+01  0.0000000000000E+00
 0.5555782915776E+00 -0.1896731358894E+01  0.0000000000000E+00
 0.5605067948795E+00 -0.1824722455461E+01  0.0000000000000E+00
 0.5500018033136E+00 -0.4658869964069E+01  0.0000000000000E+00
 0.5500036066233E+00 -0.4586152954003E+01  0.0000000000000E+00
 0.5500054099442E+00 -0.4513435497392E+01  0.0000000000000E+00
 0.5500072132600E+00 -0.4440718244644E+01  0.0000000000000E+00
 0.5500090165755E+00 -0.4368001006356E+01  0.0000000000000E+00
 0.5500108198916E+00 -0.4295283740744E+01  0.0000000000000E+00
 0.5500126232067E+00 -0.4222566518110E+01  0.0000000000000E+00
 0.5500144265224E+00 -0.4149849268818E+01  0.0000000000000E+00
 0.5500162298380E+00 -0.4077132024867E+01  0.0000000000000E+00
 0.5500180331534E+00 -0.4004414788945E+01  0.0000000000000E+00
 0.5500198364692E+00 -0.3931697537804E+01  0.0000000000000E+00
 0.5500216397843E+00 -0.3858980310509E+01  0.0000000000000E+00
 0.5500234431003E+00 -0.3786263051477E+01  0.0000000000000E+00
 0.5500252464177E+00 -0.3713545733121E+01  0.0000000000000E+00
 0.5500270497347E+00 -0.3640828435461E+01  0.0000000000000E+00
 0.5500288530494E+00 -0.3568111224789E+01  0.0000000000000E+00
 0.5500306563801E+00 -0.3495393372134E+01  0.0000000000000E+00
 0.5500324596807E+00 -0.3422676734482E+01  0.0000000000000E+00
 0.5500342629965E+00 -0.3349959480015E+01  0.0000000000000E+00
 0.5500360663104E+00 -0.3277242305227E+01  0.0000000000000E+00
 0.5500378696220E+00 -0.3204525223058E+01  0.0000000000000E+00
 0.5500396729345E+00 -0.3131808104194E+01  0.0000000000000E+00
 0.5500414762478E+00 -0.3059090952810E+01  0.0000000000000E+00
 0.5500529541124E+00 -0.2986373738849E+01  0.0000000000000E+00
 0.5501364194992E+00 -0.2913656754987E+01  0.0000000000000E+00
 0.5503783973824E+00 -0.2840941339082E+01  0.0000000000000E+00
 0.5508577612655E+00 -0.2768230765842E+01  0.0000000000000E+00
 0.5516325687513E+00 -0.2695530718543E+01  0.0000000000000E+00
 0.5527400563351E+00 -0.2622848341252E+01  0.0000000000000E+00
 0.5542040332787E+00 -0.2550191966546E+01  0.0000000000000E+00
 0.5560434206860E+00 -0.2477570579036E+01  0.0000000000000E+00
 0.5582796235804E+00 -0.2404994894179E+01  0.0000000000000E+00
 0.5609420883813E+00 -0.2332478498877E+01  0.0000000000000E+00
 0.5640291585551E+00 -0.2260031205176E+01  0.0000000000000E+00
 0.5674976660344E+00 -0.2187654771025E+01  0.0000000000000E+00
 0.5713167946636E+00 -0.2115350874421E+01  0.0000000000000E+00
 0.5754686219523E+00 -0.2043122293992E+01  0.0000000000000E+00
 0.5799472992011E+00 -0.1970973931719E+01  0.0000000000000E+00
 0.5847618022875E+00 -0.1898914685761E+01  0.0000000000000E+00
 0.5899482274796E+00 -0.1826961764802E+01  0.0000000000000E+00
 0.5775046063623E+00 -0.4658929169039E+01  0.0000000000000E+00
 0.5775092127151E+00 -0.4586271363819E+01  0.0000000000000E+00
 0.5775138190961E+00 -0.4513613112418E+01  0.0000000000000E+00
 0.5775184254642E+00 -0.4440955064714E+01  0.0000000000000E+00
 0.5775230318314E+00 -0.4368297031459E+01  0.0000000000000E+00
 0.5775276382004E+00 -0.4295638970901E+01  0.0000000000000E+00
 0.5775322445666E+00 -0.4222980953286E+01  0.0000000000000E+00
 0.5775368509345E+00 -0.4150322909036E+01  0.0000000000000E+00
 0.5775414573020E+00 -0.4077664870122E+01  0.0000000000000E+00
 0.5775460636691E+00 -0.4005006839230E+01  0.0000000000000E+00
 0.5775506700371E+00 -0.3932348793131E+01  0.0000000000000E+00
 0.5775552764036E+00 -0.3859690770860E+01  0.0000000000000E+00
 0.5775598827721E+00 -0.3787032716878E+01  0.0000000000000E+00
 0.5775644891444E+00 -0.3714374603619E+01  0.0000000000000E+00
 0.5775690955153E+00 -0.3641716511039E+01  0.0000000000000E+00
 0.5775737018808E+00 -0.3569058505377E+01  0.0000000000000E+00
 0.5775783082869E+00 -0.3496399858254E+01  0.0000000000000E+00
 0.5775829146160E+00 -0.3423742425146E+01  0.0000000000000E+00
 0.5775875209843E+00 -0.3351084375724E+01  0.0000000000000E+00
 0.5775921273474E+00 -0.3278426405916E+01  0.0000000000000E+00
 0.5775967337047E+00 -0.3205768528653E+01  0.0000000000000E+00
 0.5776013400644E+00 -0.3133110614724E+01  0.0000000000000E+00
 0.5776059464261E+00 -0.3060452668301E+01  0.0000000000000E+00
 0.5776207126381E+00 -0.2987794659355E+01  0.0000000000000E+00
 0.5777110774219E+00 -0.2915136880472E+01  0.0000000000000E+00
 0.5779679060300E+00 -0.2842480669443E+01  0.0000000000000E+00
 0.5784740284367E+00 -0.2769829301057E+01  0.0000000000000E+00
 0.5792904145389E+00 -0.2697188458545E+01  0.0000000000000E+00
 0.5804561686988E+00 -0.2624565286044E+01  0.0000000000000E+00
 0.5819962944983E+00 -0.2551968116035E+01  0.0000000000000E+00
 0.5839306621719E+00 -0.2479405933275E+01  0.0000000000000E+00
 0.5862817504648E+00 -0.2406889453203E+01  0.0000000000000E+00
 0.5890804828851E+00 -0.2334432262545E+01  0.0000000000000E+00
 0.5923251198134E+00 -0.2262044173559E+01  0.0000000000000E+00
 0.5959703277778E+00 -0.2189726944188E+01  0.0000000000000E+00
 0.5999837448152E+00 -0.2117482252390E+01  0.0000000000000E+00
 0.6043465494057E+00 -0.2045312876833E+01  0.0000000000000E+00
 0.6090525994664E+00 -0.1973223719494E+01  0.0000000000000E+00
 0.6141113211150E+00 -0.1901223678329E+01  0.0000000000000E+00
 0.6195606212872E+00 -0.1829329962027E+01  0.0000000000000E+00
 0.6050071700463E+00 -0.4658991252418E+01  0.0000000000000E+00
 0.6050143400778E+00 -0.4586395530448E+01  0.0000000000000E+00
 0.6050215101532E+00 -0.4513799362679E+01  0.0000000000000E+00
 0.6050286802085E+00 -0.4441203398432E+01  0.0000000000000E+00
 0.6050358502624E+00 -0.4368607448621E+01  0.0000000000000E+00
 0.6050430203191E+00 -0.4296011471532E+01  0.0000000000000E+00
 0.6050501903714E+00 -0.4223415537349E+01  0.0000000000000E+00
 0.6050573604264E+00 -0.4150819576553E+01  0.0000000000000E+00
 0.6050645304809E+00 -0.4078223621089E+01  0.0000000000000E+00
 0.6050717005346E+00 -0.4005627673640E+01  0.0000000000000E+00
 0.6050788705898E+00 -0.3933031710997E+01  0.0000000000000E+00
 0.6050860406426E+00 -0.3860435772161E+01  0.0000000000000E+00
 0.6050932106985E+00 -0.3787839801641E+01  0.0000000000000E+00
 0.6051003807603E+00 -0.3715243771896E+01  0.0000000000000E+00
 0.6051075508201E+00 -0.3642647762811E+01  0.0000000000000E+00
 0.6051147208713E+00 -0.3570051840571E+01  0.0000000000000E+00
 0.6051218909858E+00 -0.3497455277418E+01  0.0000000000000E+00
 0.6051290609805E+00 -0.3424859927241E+01  0.0000000000000E+00
 0.6051362310360E+00 -0.3352263961278E+01  0.0000000000000E+00
 0.6051434010836E+00 -0.3279668074861E+01  0.0000000000000E+00
 0.6051505711222E+00 -0.3207072280909E+01  0.0000000000000E+00
 0.6051577411643E+00 -0.3134476450324E+01  0.0000000000000E+00
 0.6051649112096E+00 -0.3061880587272E+01  0.0000000000000E+00
 0.6051827264041E+00 -0.2989284661751E+01  0.0000000000000E+00
 0.6052797512201E+00 -0.2916688966257E+01  0.0000000000000E+00
 0.6055511911890E+00 -0.2844094838509E+01  0.0000000000000E+00
 0.6060838327555E+00 -0.2771505553381E+01  0.0000000000000E+00
 0.6069415581107E+00 -0.2698926794058E+01  0.0000000000000E+00
 0.6081653394835E+00 -0.2626365704746E+01  0.0000000000000E+00
 0.6097813747766E+00 -0.2553830617832E+01  0.0000000000000E+00
 0.6118104833542E+00 -0.2481330518221E+01  0.0000000000000E+00
 0.6142762176836E+00 -0.2408876121334E+01  0.0000000000000E+00
 0.6172109783622E+00 -0.2336481013715E+01  0.0000000000000E+00
 0.6206129426840E+00 -0.2264155007840E+01  0.0000000000000E+00
 0.6244346117725E+00 -0.2191899861649E+01  0.0000000000000E+00
 0.6286420778573E+00 -0.2119717253058E+01  0.0000000000000E+00
 0.6332156203890E+00 -0.2047609960779E+01  0.0000000000000E+00
 0.6381488039008E+00 -0.1975582886781E+01  0.0000000000000E+00
 0.6434515047517E+00 -0.1903644928812E+01  0.0000000000000E+00
 0.6491634405451E+00 -0.1831813295560E+01  0.0000000000000E+00
 0.6325094832707E+00 -0.4659056210343E+01  0.0000000000000E+00
 0.6325189665217E+00 -0.4586525446162E+01  0.0000000000000E+00
 0.6325284498309E+00 -0.4513994236580E+01  0.0000000000000E+00
 0.6325379331135E+00 -0.4441463230339E+01  0.0000000000000E+00
 0.6325474163943E+00 -0.4368932238522E+01  0.0000000000000E+00
 0.6325568996786E+00 -0.4296401219450E+01  0.0000000000000E+00
 0.6325663829573E+00 -0.4223870243246E+01  0.0000000000000E+00
 0.6325758662394E+00 -0.4151339240452E+01  0.0000000000000E+00
 0.6325853495209E+00 -0.4078808242986E+01  0.0000000000000E+00
 0.6325948328014E+00 -0.4006277253528E+01  0.0000000000000E+00
 0.6326043160838E+00 -0.3933746248890E+01  0.0000000000000E+00
 0.6326137993631E+00 -0.3861215268037E+01  0.0000000000000E+00
 0.6326232826465E+00 -0.3788684255529E+01  0.0000000000000E+00
 0.6326327659377E+00 -0.3716153183848E+01  0.0000000000000E+00
 0.6326422492262E+00 -0.3643622132809E+01  0.0000000000000E+00
 0.6326517325033E+00 -0.3571091168537E+01  0.0000000000000E+00
 0.6326612158642E+00 -0.3498559563925E+01  0.0000000000000E+00
 0.6326706990666E+00 -0.3426029171205E+01  0.0000000000000E+00
 0.6326801823494E+00 -0.3353498163249E+01  0.0000000000000E+00
 0.6326896656219E+00 -0.3280967234769E+01  0.0000000000000E+00
 0.6326991488823E+00 -0.3208436398670E+01  0.0000000000000E+00
 0.6327086321474E+00 -0.3135905525971E+01  0.0000000000000E+00
 0.6327181154168E+00 -0.3063374620834E+01  0.0000000000000E+00
 0.6327387291340E+00 -0.2990843653288E+01  0.0000000000000E+00
 0.6328421635227E+00 -0.2918312915727E+01  0.0000000000000E+00
 0.6331279643934E+00 -0.2845783745801E+01  0.0000000000000E+00
 0.6336868746610E+00 -0.2773259418471E+01  0.0000000000000E+00
 0.6345856888113E+00 -0.2700745616872E+01  0.0000000000000E+00
 0.6358672469395E+00 -0.2628249485287E+01  0.0000000000000E+00
 0.6375589412693E+00 -0.2555779355998E+01  0.0000000000000E+00
 0.6396825402943E+00 -0.2483344214070E+01  0.0000000000000E+00
 0.6422626702039E+00 -0.2410954774905E+01  0.0000000000000E+00
 0.6453332086857E+00 -0.2338624624854E+01  0.0000000000000E+00
 0.6488922499460E+00 -0.2266363576622E+01  0.0000000000000E+00
 0.6528901297038E+00 -0.2194173388147E+01  0.0000000000000E+00
 0.6572913943814E+00 -0.2122055737301E+01  0.0000000000000E+00
 0.6620754243999E+00 -0.2050013402840E+01  0.0000000000000E+00
 0.6672354909085E+00 -0.1978051286727E+01  0.0000000000000E+00
 0.6727819205084E+00 -0.1906178286488E+01  0.0000000000000E+00
 0.6787562414707E+00 -0.1834411610816E+01  0.0000000000000E+00
 0.6600115349916E+00 -0.4659124038777E+01  0.0000000000000E+00
 0.6600230699592E+00 -0.4586661102889E+01  0.0000000000000E+00
 0.6600346049976E+00 -0.4514197722017E+01  0.0000000000000E+00
 0.6600461400037E+00 -0.4441734544296E+01  0.0000000000000E+00
 0.6600576750075E+00 -0.4369271380984E+01  0.0000000000000E+00
 0.6600692100156E+00 -0.4296808190443E+01  0.0000000000000E+00
 0.6600807450169E+00 -0.4224345042731E+01  0.0000000000000E+00
 0.6600922800224E+00 -0.4151881868453E+01  0.0000000000000E+00
 0.6601038150271E+00 -0.4079418699498E+01  0.0000000000000E+00
 0.6601153500305E+00 -0.4006955538544E+01  0.0000000000000E+00
 0.6601268850364E+00 -0.3934492362423E+01  0.0000000000000E+00
 0.6601384200384E+00 -0.3862029210066E+01  0.0000000000000E+00
 0.6601499550455E+00 -0.3789566026083E+01  0.0000000000000E+00
 0.6601614900620E+00 -0.3717102782983E+01  0.0000000000000E+00
 0.6601730250752E+00 -0.3644639560506E+01  0.0000000000000E+00
 0.6601845600746E+00 -0.3572176424713E+01  0.0000000000000E+00
 0.6601960951758E+00 -0.3499712649181E+01  0.0000000000000E+00
 0.6602076300843E+00 -0.3427250084407E+01  0.0000000000000E+00
 0.6602191650907E+00 -0.3354786904972E+01  0.0000000000000E+00
 0.6602307000844E+00 -0.3282323804938E+01  0.0000000000000E+00
 0.6602422350634E+00 -0.3209860797199E+01  0.0000000000000E+00
 0.6602537700482E+00 -0.3137397752895E+01  0.0000000000000E+00
 0.6602653050382E+00 -0.3064934676183E+01  0.0000000000000E+00
 0.6602884557744E+00 -0.2992471537122E+01  0.0000000000000E+00
 0.6603980382323E+00 -0.2920008628006E+01  0.0000000000000E+00
 0.6606979385021E+00 -0.2847547286406E+01  0.0000000000000E+00
 0.6612828559686E+00 -0.2775090787378E+01  0.0000000000000E+00
 0.6622224974123E+00 -0.2702644814005E+01  0.0000000000000E+00
 0.6635615707948E+00 -0.2630216510647E+01  0.0000000000000E+00
 0.6653286626613E+00 -0.2557814209481E+01  0.0000000000000E+00
 0.6675464906339E+00 -0.2485446895735E+01  0.0000000000000E+00
 0.6702407546242E+00 -0.2413125284793E+01  0.0000000000000E+00
 0.6734468094109E+00 -0.2340862962804E+01  0.0000000000000E+00
 0.6771626661118E+00 -0.2268669742713E+01  0.0000000000000E+00
 0.6813364950413E+00 -0.2196547382455E+01  0.0000000000000E+00
 0.6859312968146E+00 -0.2124497559855E+01  0.0000000000000E+00
 0.6909255528227E+00 -0.2052523053717E+01  0.0000000000000E+00
 0.6963122408314E+00 -0.1980628765997E+01  0.0000000000000E+00
 0.7021021376845E+00 -0.1908823593990E+01  0.0000000000000E+00
 0.7083385823212E+00 -0.1837124746394E+01  0.0000000000000E+00
 0.6875133142182E+00 -0.4659194733517E+01  0.0000000000000E+00
 0.6875266284087E+00 -0.4586802492222E+01  0.0000000000000E+00
 0.6875399426809E+00 -0.4514409806377E+01  0.0000000000000E+00
 0.6875532569158E+00 -0.4442017323484E+01  0.0000000000000E+00
 0.6875665711481E+00 -0.4369624854987E+01  0.0000000000000E+00
 0.6875798853854E+00 -0.4297232359288E+01  0.0000000000000E+00
 0.6875931996148E+00 -0.4224839906374E+01  0.0000000000000E+00
 0.6876065138490E+00 -0.4152447426922E+01  0.0000000000000E+00
 0.6876198280823E+00 -0.4080054952788E+01  0.0000000000000E+00
 0.6876331423142E+00 -0.4007662486646E+01  0.0000000000000E+00
 0.6876464565488E+00 -0.3935270005352E+01  0.0000000000000E+00
 0.6876597707790E+00 -0.3862877547799E+01  0.0000000000000E+00
 0.6876730850151E+00 -0.3790485058651E+01  0.0000000000000E+00
 0.6876863992620E+00 -0.3718092510443E+01  0.0000000000000E+00
 0.6876997135052E+00 -0.3645699982838E+01  0.0000000000000E+00
 0.6877130277324E+00 -0.3573307541834E+01  0.0000000000000E+00
 0.6877263420771E+00 -0.3500914461714E+01  0.0000000000000E+00
 0.6877396561994E+00 -0.3428522591170E+01  0.0000000000000E+00
 0.6877529704346E+00 -0.3356130106565E+01  0.0000000000000E+00
 0.6877662846553E+00 -0.3283737701285E+01  0.0000000000000E+00
 0.6877795988589E+00 -0.3211345388209E+01  0.0000000000000E+00
 0.6877929130693E+00 -0.3138953038603E+01  0.0000000000000E+00
 0.6878062272857E+00 -0.3066560656621E+01  0.0000000000000E+00
 0.6878316425464E+00 -0.2994168212354E+01  0.0000000000000E+00
 0.6879471005793E+00 -0.2921775997988E+01  0.0000000000000E+00
 0.6882608277547E+00 -0.2849385351017E+01  0.0000000000000E+00
 0.6888714799273E+00 -0.2776999546590E+01  0.0000000000000E+00
 0.6898516761724E+00 -0.2704624267741E+01  0.0000000000000E+00
 0.6912479923176E+00 -0.2632266658906E+01  0.0000000000000E+00
 0.6930902092303E+00 -0.2559935052156E+01  0.0000000000000E+00
 0.6954019936605E+00 -0.2487638432887E+01  0.0000000000000E+00
 0.6982101192422E+00 -0.2415387516464E+01  0.0000000000000E+00
 0.7015514178457E+00 -0.2343195888828E+01  0.0000000000000E+00
 0.7054238174997E+00 -0.2271073363171E+01  0.0000000000000E+00
 0.7097733231136E+00 -0.2199021697426E+01  0.0000000000000E+00
 0.7145613894959E+00 -0.2127042569371E+01  0.0000000000000E+00
 0.7197655990073E+00 -0.2055138757856E+01  0.0000000000000E+00
 0.7253786360298E+00 -0.1983315164833E+01  0.0000000000000E+00
 0.7314117276514E+00 -0.1911580687357E+01  0.0000000000000E+00
 0.7379100234788E+00 -0.1839952534126E+01  0.0000000000000E+00
 0.7150148100149E+00 -0.4659268290191E+01  0.0000000000000E+00
 0.7150296199990E+00 -0.4586949605417E+01  0.0000000000000E+00
 0.7150444300741E+00 -0.4514630476544E+01  0.0000000000000E+00
 0.7150592401076E+00 -0.4442311550418E+01  0.0000000000000E+00
 0.7150740501382E+00 -0.4369992638672E+01  0.0000000000000E+00
 0.7150888601743E+00 -0.4297673699752E+01  0.0000000000000E+00
 0.7151036702017E+00 -0.4225354803575E+01  0.0000000000000E+00
 0.7151184802345E+00 -0.4153035880886E+01  0.0000000000000E+00
 0.7151332902662E+00 -0.4080716963508E+01  0.0000000000000E+00
 0.7151481002963E+00 -0.4008398054116E+01  0.0000000000000E+00
 0.7151629103295E+00 -0.3936079129587E+01  0.0000000000000E+00
 0.7151777203579E+00 -0.3863760228774E+01  0.0000000000000E+00
 0.7151925303927E+00 -0.3791441296399E+01  0.0000000000000E+00
 0.7152073404395E+00 -0.3719122305024E+01  0.0000000000000E+00
 0.7152221504822E+00 -0.3646803334230E+01  0.0000000000000E+00
 0.7152369605072E+00 -0.3574484449950E+01  0.0000000000000E+00
 0.7152517706629E+00 -0.3502164927202E+01  0.0000000000000E+00
 0.7152665805711E+00 -0.3429846612803E+01  0.0000000000000E+00
 0.7152813906050E+00 -0.3357527684966E+01  0.0000000000000E+00
 0.7152962006226E+00 -0.3285208836373E+01  0.0000000000000E+00
 0.7153110106214E+00 -0.3212890079891E+01  0.0000000000000E+00
 0.7153258206276E+00 -0.3140571286916E+01  0.0000000000000E+00
 0.7153406306405E+00 -0.3068252461598E+01  0.0000000000000E+00
 0.7153680269957E+00 -0.2995933574060E+01  0.0000000000000E+00
 0.7154890771739E+00 -0.2923614916380E+01  0.0000000000000E+00
 0.7158163478261E+00 -0.2851297825966E+01  0.0000000000000E+00
 0.7164524512764E+00 -0.2778985578070E+01  0.0000000000000E+00
 0.7174729188955E+00 -0.2706683855668E+01  0.0000000000000E+00
 0.7189261943769E+00 -0.2634399803283E+01  0.0000000000000E+00
 0.7208432529104E+00 -0.2562141752869E+01  0.0000000000000E+00
 0.7232487103733E+00 -0.2489918690001E+01  0.0000000000000E+00
 0.7261704141222E+00 -0.2417741330022E+01  0.0000000000000E+00
 0.7296466731201E+00 -0.2345623258656E+01  0.0000000000000E+00
 0.7336753323051E+00 -0.2273574289355E+01  0.0000000000000E+00
 0.7382002311820E+00 -0.2201596180048E+01  0.0000000000000E+00
 0.7431812787523E+00 -0.2129690608463E+01  0.0000000000000E+00
 0.7485951583465E+00 -0.2057860353502E+01  0.0000000000000E+00
 0.7544342609629E+00 -0.1986110317108E+01  0.0000000000000E+00
 0.7607102639342E+00 -0.1914449396087E+01  0.0000000000000E+00
 0.7674701275352E+00 -0.1842894799141E+01  0.0000000000000E+00
 0.7425160112565E+00 -0.4659344704234E+01  0.0000000000000E+00
 0.7425320224796E+00 -0.4587102433343E+01  0.0000000000000E+00
 0.7425480338010E+00 -0.4514859718823E+01  0.0000000000000E+00
 0.7425640450775E+00 -0.4442617206834E+01  0.0000000000000E+00
 0.7425800563509E+00 -0.4370374709212E+01  0.0000000000000E+00
 0.7425960676302E+00 -0.4298132184444E+01  0.0000000000000E+00
 0.7426120789002E+00 -0.4225889702373E+01  0.0000000000000E+00
 0.7426280901759E+00 -0.4153647193819E+01  0.0000000000000E+00
 0.7426441014505E+00 -0.4081404690570E+01  0.0000000000000E+00
 0.7426601127234E+00 -0.4009162195299E+01  0.0000000000000E+00
 0.7426761239995E+00 -0.3936919684906E+01  0.0000000000000E+00
 0.7426921352705E+00 -0.3864677198205E+01  0.0000000000000E+00
 0.7427081465484E+00 -0.3792434679975E+01  0.0000000000000E+00
 0.7427241578394E+00 -0.3720192102807E+01  0.0000000000000E+00
 0.7427401691258E+00 -0.3647949546199E+01  0.0000000000000E+00
 0.7427561803931E+00 -0.3575707076013E+01  0.0000000000000E+00
 0.7427721918017E+00 -0.3503463968034E+01  0.0000000000000E+00
 0.7427882029428E+00 -0.3431222067126E+01  0.0000000000000E+00
 0.7428042142197E+00 -0.3358979553430E+01  0.0000000000000E+00
 0.7428202254791E+00 -0.3286737118893E+01  0.0000000000000E+00
 0.7428362367181E+00 -0.3214494776370E+01  0.0000000000000E+00
 0.7428522479651E+00 -0.3142252397393E+01  0.0000000000000E+00
 0.7428682592193E+00 -0.3070009986107E+01  0.0000000000000E+00
 0.7428973421134E+00 -0.2997767512669E+01  0.0000000000000E+00
 0.7430236898812E+00 -0.2925525269043E+01  0.0000000000000E+00
 0.7433642094537E+00 -0.2853284592550E+01  0.0000000000000E+00
 0.7440254696239E+00 -0.2781048758547E+01  0.0000000000000E+00
 0.7450859140576E+00 -0.2708823449953E+01  0.0000000000000E+00
 0.7465958543135E+00 -0.2636615811377E+01  0.0000000000000E+00
 0.7485874599040E+00 -0.2564434174655E+01  0.0000000000000E+00
 0.7510862958333E+00 -0.2492287525545E+01  0.0000000000000E+00
 0.7541212831801E+00 -0.2420186579370E+01  0.0000000000000E+00
 0.7577322080008E+00 -0.2348144921627E+01  0.0000000000000E+00
 0.7619168321423E+00 -0.2276172366038E+01  0.0000000000000E+00
 0.7666168297047E+00 -0.2204270670529E+01  0.0000000000000E+00
 0.7717905638831E+00 -0.2132441512775E+01  0.0000000000000E+00
 0.7774138189777E+00 -0.2060687671731E+01  0.0000000000000E+00
 0.7834786926029E+00 -0.1989014049333E+01  0.0000000000000E+00
 0.7899973123374E+00 -0.1917429542126E+01  0.0000000000000E+00
 0.7970184491235E+00 -0.1845951358818E+01  0.0000000000000E+00
 0.7700169072712E+00 -0.4659423970956E+01  0.0000000000000E+00
 0.7700338145071E+00 -0.4587260966622E+01  0.0000000000000E+00
 0.7700507218468E+00 -0.4515097519146E+01  0.0000000000000E+00
 0.7700676291392E+00 -0.4442934273980E+01  0.0000000000000E+00
 0.7700845364282E+00 -0.4370771043164E+01  0.0000000000000E+00
 0.7701014437236E+00 -0.4298607785231E+01  0.0000000000000E+00
 0.7701183510089E+00 -0.4226444569949E+01  0.0000000000000E+00
 0.7701352583005E+00 -0.4154281328213E+01  0.0000000000000E+00
 0.7701521655908E+00 -0.4082118091776E+01  0.0000000000000E+00
 0.7701690728792E+00 -0.4009954863308E+01  0.0000000000000E+00
 0.7701859801712E+00 -0.3937791619736E+01  0.0000000000000E+00
 0.7702028874577E+00 -0.3865628399829E+01  0.0000000000000E+00
 0.7702197947515E+00 -0.3793465148427E+01  0.0000000000000E+00
 0.7702367020591E+00 -0.3721301838152E+01  0.0000000000000E+00
 0.7702536093619E+00 -0.3649138548415E+01  0.0000000000000E+00
 0.7702705166445E+00 -0.3576975345005E+01  0.0000000000000E+00
 0.7702874240763E+00 -0.3504811504502E+01  0.0000000000000E+00
 0.7703043312257E+00 -0.3432648869745E+01  0.0000000000000E+00
 0.7703212385184E+00 -0.3360485622873E+01  0.0000000000000E+00
 0.7703381457926E+00 -0.3288322455072E+01  0.0000000000000E+00
 0.7703550530453E+00 -0.3216159379186E+01  0.0000000000000E+00
 0.7703719603066E+00 -0.3143996266884E+01  0.0000000000000E+00
 0.7703888675754E+00 -0.3071833122309E+01  0.0000000000000E+00
 0.7704193317813E+00 -0.2999669915654E+01  0.0000000000000E+00
 0.7705506719117E+00 -0.2927506938761E+01  0.0000000000000E+00
 0.7709041351781E+00 -0.2855345528865E+01  0.0000000000000E+00
 0.7715902468416E+00 -0.2783188961430E+01  0.0000000000000E+00
 0.7726903628635E+00 -0.2711042919314E+01  0.0000000000000E+00
 0.7742566626671E+00 -0.2638914547219E+01  0.0000000000000E+00
 0.7763225100882E+00 -0.2566812176855E+01  0.0000000000000E+00
 0.7789144192568E+00 -0.2494744794173E+01  0.0000000000000E+00
 0.7820623849740E+00 -0.2422723114472E+01  0.0000000000000E+00
 0.7858076703905E+00 -0.2350760723017E+01  0.0000000000000E+00
 0.7901479542606E+00 -0.2278867433808E+01  0.0000000000000E+00
 0.7950227452801E+00 -0.2207045004767E+01  0.0000000000000E+00
 0.8003888608380E+00 -0.2135295113515E+01  0.0000000000000E+00
 0.8062211862034E+00 -0.2063620539063E+01  0.0000000000000E+00
 0.8125115256075E+00 -0.1992026183340E+01  0.0000000000000E+00
 0.8192724568757E+00 -0.1920520942619E+01  0.0000000000000E+00
 0.8265545616180E+00 -0.1849122025614E+01  0.0000000000000E+00
 0.7975174873666E+00 -0.4659506085499E+01  0.0000000000000E+00
 0.7975349746967E+00 -0.4587425195538E+01  0.0000000000000E+00
 0.7975524621343E+00 -0.4515343862938E+01  0.0000000000000E+00
 0.7975699495228E+00 -0.4443262732417E+01  0.0000000000000E+00
 0.7975874369078E+00 -0.4371181616231E+01  0.0000000000000E+00
 0.7976049242994E+00 -0.4299100472959E+01  0.0000000000000E+00
 0.7976224116807E+00 -0.4227019372289E+01  0.0000000000000E+00
 0.7976398990684E+00 -0.4154938245195E+01  0.0000000000000E+00
 0.7976573864548E+00 -0.4082857123395E+01  0.0000000000000E+00
 0.7976748738393E+00 -0.4010776009554E+01  0.0000000000000E+00
 0.7976923612274E+00 -0.3938694880626E+01  0.0000000000000E+00
 0.7977098486098E+00 -0.3866613775336E+01  0.0000000000000E+00
 0.7977273359998E+00 -0.3794532638587E+01  0.0000000000000E+00
 0.7977448234041E+00 -0.3722451443033E+01  0.0000000000000E+00
 0.7977623108034E+00 -0.3650370267993E+01  0.0000000000000E+00
 0.7977797981818E+00 -0.3578289179181E+01  0.0000000000000E+00
 0.7977972857146E+00 -0.3506207454001E+01  0.0000000000000E+00
 0.7978147729552E+00 -0.3434126933196E+01  0.0000000000000E+00
 0.7978322603441E+00 -0.3362045800972E+01  0.0000000000000E+00
 0.7978497477139E+00 -0.3289964747730E+01  0.0000000000000E+00
 0.7978672350614E+00 -0.3217883786296E+01  0.0000000000000E+00
 0.7978847224177E+00 -0.3145802788489E+01  0.0000000000000E+00
 0.7979022097818E+00 -0.3073721758446E+01  0.0000000000000E+00
 0.7979337393802E+00 -0.3001640666396E+01  0.0000000000000E+00
 0.7980697559540E+00 -0.2929559804059E+01  0.0000000000000E+00
 0.7984358469961E+00 -0.2857480508576E+01  0.0000000000000E+00
 0.7991464942352E+00 -0.2785406055523E+01  0.0000000000000E+00
 0.8002859659286E+00 -0.2713342127699E+01  0.0000000000000E+00
 0.8019083093641E+00 -0.2641295869896E+01  0.0000000000000E+00
 0.8040480827013E+00 -0.2569275613697E+01  0.0000000000000E+00
 0.8067327491951E+00 -0.2497290345253E+01  0.0000000000000E+00
 0.8099933773693E+00 -0.2425350779840E+01  0.0000000000000E+00
 0.8138727074699E+00 -0.2353470502477E+01  0.0000000000000E+00
 0.8183683351576E+00 -0.2281659327455E+01  0.0000000000000E+00
 0.8234176037235E+00 -0.2209919012694E+01  0.0000000000000E+00
 0.8289757847507E+00 -0.2138251235758E+01  0.0000000000000E+00
 0.8350168644774E+00 -0.2066658775715E+01  0.0000000000000E+00
 0.8415323537512E+00 -0.1995146534484E+01  0.0000000000000E+00
 0.8485352806454E+00 -0.1923723408063E+01  0.0000000000000E+00
 0.8560780374376E+00 -0.1852406605166E+01  0.0000000000000E+00
 0.8250177408470E+00 -0.4659591042836E+01  0.0000000000000E+00
 0.8250354816571E+00 -0.4587595110033E+01  0.0000000000000E+00
 0.8250532225761E+00 -0.4515598735114E+01  0.0000000000000E+00
 0.8250709634454E+00 -0.4443602562037E+01  0.0000000000000E+00
 0.8250887043112E+00 -0.4371606403276E+01  0.0000000000000E+00
 0.8251064451836E+00 -0.4299610217462E+01  0.0000000000000E+00
 0.8251241860456E+00 -0.4227614074200E+01  0.0000000000000E+00
 0.8251419269140E+00 -0.4155617904545E+01  0.0000000000000E+00
 0.8251596677812E+00 -0.4083621740177E+01  0.0000000000000E+00
 0.8251774086463E+00 -0.4011625583759E+01  0.0000000000000E+00
 0.8251951495152E+00 -0.3939629412272E+01  0.0000000000000E+00
 0.8252128903783E+00 -0.3867633264395E+01  0.0000000000000E+00
 0.8252306312491E+00 -0.3795637085097E+01  0.0000000000000E+00
 0.8252483721344E+00 -0.3723640847062E+01  0.0000000000000E+00
 0.8252661130147E+00 -0.3651644629517E+01  0.0000000000000E+00
 0.8252838538737E+00 -0.3579648498099E+01  0.0000000000000E+00
 0.8253015948893E+00 -0.3507651731063E+01  0.0000000000000E+00
 0.8253193356086E+00 -0.3435656166982E+01  0.0000000000000E+00
 0.8253370764783E+00 -0.3363659992202E+01  0.0000000000000E+00
 0.8253548173285E+00 -0.3291663896312E+01  0.0000000000000E+00
 0.8253725581562E+00 -0.3219667892122E+01  0.0000000000000E+00
 0.8253902989928E+00 -0.3147671851602E+01  0.0000000000000E+00
 0.8254080398374E+00 -0.3075675778883E+01  0.0000000000000E+00
 0.8254403082130E+00 -0.3003679644234E+01  0.0000000000000E+00
 0.8255806746155E+00 -0.2931683739246E+01  0.0000000000000E+00
 0.8259590668194E+00 -0.2859689400964E+01  0.0000000000000E+00
 0.8266939230211E+00 -0.2787699905082E+01  0.0000000000000E+00
 0.8278724237742E+00 -0.2715720934332E+01  0.0000000000000E+00
 0.8295504842306E+00 -0.2643759633606E+01  0.0000000000000E+00
 0.8317638568742E+00 -0.2571824334354E+01  0.0000000000000E+00
 0.8345409540844E+00 -0.2499924022930E+01  0.0000000000000E+00
 0.8379139181077E+00 -0.2428069414587E+01  0.0000000000000E+00
 0.8419269662863E+00 -0.2356274094095E+01  0.0000000000000E+00
 0.8465776111862E+00 -0.2284547876042E+01  0.0000000000000E+00
 0.8518010306940E+00 -0.2212892518345E+01  0.0000000000000E+00
 0.8575509505866E+00 -0.2141309698510E+01  0.0000000000000E+00
 0.8638004580713E+00 -0.2069802195663E+01  0.0000000000000E+00
 0.8705407706120E+00 -0.1998374911717E+01  0.0000000000000E+00
 0.8777853665310E+00 -0.1927036742379E+01  0.0000000000000E+00
 0.8855884487738E+00 -0.1855804896368E+01  0.0000000000000E+00
 0.8525176570821E+00 -0.4659678837778E+01  0.0000000000000E+00
 0.8525353141273E+00 -0.4587770699734E+01  0.0000000000000E+00
 0.8525529712811E+00 -0.4515862120114E+01  0.0000000000000E+00
 0.8525706283853E+00 -0.4443953742088E+01  0.0000000000000E+00
 0.8525882854860E+00 -0.4372045378363E+01  0.0000000000000E+00
 0.8526059425933E+00 -0.4300136987617E+01  0.0000000000000E+00
 0.8526235996902E+00 -0.4228228639370E+01  0.0000000000000E+00
 0.8526412567936E+00 -0.4156320264763E+01  0.0000000000000E+00
 0.8526589138956E+00 -0.4084411895437E+01  0.0000000000000E+00
 0.8526765709957E+00 -0.4012503534050E+01  0.0000000000000E+00
 0.8526942280996E+00 -0.3940595157614E+01  0.0000000000000E+00
 0.8527118851976E+00 -0.3868686804758E+01  0.0000000000000E+00
 0.8527295423033E+00 -0.3796778420520E+01  0.0000000000000E+00
 0.8527471994235E+00 -0.3724869977616E+01  0.0000000000000E+00
 0.8527648565386E+00 -0.3652961555178E+01  0.0000000000000E+00
 0.8527825136326E+00 -0.3581053218760E+01  0.0000000000000E+00
 0.8528001708824E+00 -0.3509144247501E+01  0.0000000000000E+00
 0.8528178278373E+00 -0.3437236477730E+01  0.0000000000000E+00
 0.8528354849419E+00 -0.3365328098005E+01  0.0000000000000E+00
 0.8528531420272E+00 -0.3293419797072E+01  0.0000000000000E+00
 0.8528707990900E+00 -0.3221511587729E+01  0.0000000000000E+00
 0.8528884561617E+00 -0.3149603342098E+01  0.0000000000000E+00
 0.8529061132413E+00 -0.3077695064310E+01  0.0000000000000E+00
 0.8529387831484E+00 -0.3005786724669E+01  0.0000000000000E+00
 0.8530831621344E+00 -0.2933878614636E+01  0.0000000000000E+00
 0.8534735182559E+00 -0.2861972071157E+01  0.0000000000000E+00
 0.8542322461771E+00 -0.2790070370046E+01  0.0000000000000E+00
 0.8554494387479E+00 -0.2718179193968E+01  0.0000000000000E+00
 0.8571828789842E+00 -0.2646305687916E+01  0.0000000000000E+00
 0.8594695136951E+00 -0.2574458183202E+01  0.0000000000000E+00
 0.8623387043834E+00 -0.2502645666394E+01  0.0000000000000E+00
 0.8658236670186E+00 -0.2430878852720E+01  0.0000000000000E+00
 0.8699700960402E+00 -0.2359171326688E+01  0.0000000000000E+00
 0.8747754209183E+00 -0.2287532903197E+01  0.0000000000000E+00
 0.8801726541347E+00 -0.2215965340160E+01  0.0000000000000E+00
 0.8861139756606E+00 -0.2144470315024E+01  0.0000000000000E+00
 0.8925715736717E+00 -0.2073050606976E+01  0.0000000000000E+00
 0.8995363722484E+00 -0.2001711117918E+01  0.0000000000000E+00
 0.9070222999633E+00 -0.1930460743261E+01  0.0000000000000E+00
 0.9150853704297E+00 -0.1859316691727E+01  0.0000000000000E+00
 0.8800172252787E+00 -0.4659769464950E+01  0.0000000000000E+00
 0.8800344505215E+00 -0.4587951953890E+01  0.0000000000000E+00
 0.8800516758700E+00 -0.4516134001809E+01  0.0000000000000E+00
 0.8800689011703E+00 -0.4444316251069E+01  0.0000000000000E+00
 0.8800861264672E+00 -0.4372498514612E+01  0.0000000000000E+00
 0.8801033517705E+00 -0.4300680751167E+01  0.0000000000000E+00
 0.8801205770637E+00 -0.4228863030169E+01  0.0000000000000E+00
 0.8801378023631E+00 -0.4157045282843E+01  0.0000000000000E+00
 0.8801550276613E+00 -0.4085227540792E+01  0.0000000000000E+00
 0.8801722529576E+00 -0.4013409806670E+01  0.0000000000000E+00
 0.8801894782575E+00 -0.3941592057517E+01  0.0000000000000E+00
 0.8802067035518E+00 -0.3869774331916E+01  0.0000000000000E+00
 0.8802239288535E+00 -0.3797956574971E+01  0.0000000000000E+00
 0.8802411541693E+00 -0.3726138759435E+01  0.0000000000000E+00
 0.8802583794803E+00 -0.3654320964338E+01  0.0000000000000E+00
 0.8802756047706E+00 -0.3582503255154E+01  0.0000000000000E+00
 0.8802928302130E+00 -0.3510684911929E+01  0.0000000000000E+00
 0.8803100553675E+00 -0.3438867768677E+01  0.0000000000000E+00
 0.8803272806682E+00 -0.3367050016239E+01  0.0000000000000E+00
 0.8803445059500E+00 -0.3295232342495E+01  0.0000000000000E+00
 0.8803617312099E+00 -0.3223414760225E+01  0.0000000000000E+00
 0.8803789564785E+00 -0.3151597141714E+01  0.0000000000000E+00
 0.8803961817547E+00 -0.3079779491084E+01  0.0000000000000E+00
 0.8804289051548E+00 -0.3007961778684E+01  0.0000000000000E+00
 0.8805769486853E+00 -0.2936144295837E+01  0.0000000000000E+00
 0.8809789206855E+00 -0.2864328379386E+01  0.0000000000000E+00
 0.8817611722860E+00 -0.2792517305270E+01  0.0000000000000E+00
 0.8830167086335E+00 -0.2720716756086E+01  0.0000000000000E+00
 0.8848051806072E+00 -0.2648933876929E+01  0.0000000000000E+00
 0.8871647293415E+00 -0.2577176998972E+01  0.0000000000000E+00
 0.8901256654619E+00 -0.2505455108999E+01  0.0000000000000E+00
 0.8937222786608E+00 -0.2433778922213E+01  0.0000000000000E+00
 0.8980017404761E+00 -0.2362162022856E+01  0.0000000000000E+00
 0.9029613972806E+00 -0.2290614226146E+01  0.0000000000000E+00
 0.9085320961515E+00 -0.2219137289990E+01  0.0000000000000E+00
 0.9146644712548E+00 -0.2147732891775E+01  0.0000000000000E+00
 0.9213298117345E+00 -0.2076403810750E+01  0.0000000000000E+00
 0.9285187482873E+00 -0.2005154948809E+01  0.0000000000000E+00
 0.9362456597375E+00 -0.1933995201054E+01  0.0000000000000E+00
 0.9445683703660E+00 -0.1862941776213E+01  0.0000000000000E+00
 0.9075164349346E+00 -0.4659862918846E+01  0.0000000000000E+00
 0.9075328698350E+00 -0.4588138861488E+01  0.0000000000000E+00
 0.9075493048363E+00 -0.4516414363684E+01  0.0000000000000E+00
 0.9075657397915E+00 -0.4444690066958E+01  0.0000000000000E+00
 0.9075821747434E+00 -0.4372965784495E+01  0.0000000000000E+00
 0.9075986097015E+00 -0.4301241475081E+01  0.0000000000000E+00
 0.9076150446499E+00 -0.4229517208058E+01  0.0000000000000E+00
 0.9076314796044E+00 -0.4157792914741E+01  0.0000000000000E+00
 0.9076479145576E+00 -0.4086068626692E+01  0.0000000000000E+00
 0.9076643495090E+00 -0.4014344346563E+01  0.0000000000000E+00
 0.9076807844639E+00 -0.3942620051422E+01  0.0000000000000E+00
 0.9076972194133E+00 -0.3870895779802E+01  0.0000000000000E+00
 0.9077136543699E+00 -0.3799171476878E+01  0.0000000000000E+00
 0.9077300893400E+00 -0.3727447115440E+01  0.0000000000000E+00
 0.9077465243053E+00 -0.3655722774415E+01  0.0000000000000E+00
 0.9077629592511E+00 -0.3583998519191E+01  0.0000000000000E+00
 0.9077793943419E+00 -0.3512273630750E+01  0.0000000000000E+00
 0.9077958291580E+00 -0.3440549940721E+01  0.0000000000000E+00
 0.9078122641136E+00 -0.3368825642300E+01  0.0000000000000E+00
 0.9078286990512E+00 -0.3297101422470E+01  0.0000000000000E+00
 0.9078451339679E+00 -0.3225377293994E+01  0.0000000000000E+00
 0.9078615688929E+00 -0.3153653129324E+01  0.0000000000000E+00
 0.9078780038252E+00 -0.3081928932578E+01  0.0000000000000E+00
 0.9079104221770E+00 -0.3010204674146E+01  0.0000000000000E+00
 0.9080617717110E+00 -0.2938480645209E+01  0.0000000000000E+00
 0.9084750010487E+00 -0.2866758182507E+01  0.0000000000000E+00
 0.9092804177864E+00 -0.2795040562104E+01  0.0000000000000E+00
 0.9105739393675E+00 -0.2723333466530E+01  0.0000000000000E+00
 0.9124170845339E+00 -0.2651644040984E+01  0.0000000000000E+00
 0.9148491887460E+00 -0.2579980616494E+01  0.0000000000000E+00
 0.9179015117509E+00 -0.2508352180070E+01  0.0000000000000E+00
 0.9216094169639E+00 -0.2436769446890E+01  0.0000000000000E+00
 0.9260215530222E+00 -0.2365246000917E+01  0.0000000000000E+00
 0.9311351832001E+00 -0.2293791657698E+01  0.0000000000000E+00
 0.9368789891704E+00 -0.2222408175140E+01  0.0000000000000E+00
 0.9432020592942E+00 -0.2151097230562E+01  0.0000000000000E+00
 0.9500747836836E+00 -0.2079861603281E+01  0.0000000000000E+00
 0.9574874996521E+00 -0.2008706195179E+01  0.0000000000000E+00
 0.9654550362763E+00 -0.1937639901043E+01  0.0000000000000E+00
 0.9740370285046E+00 -0.1866679929603E+01  0.0000000000000E+00
 0.9350152758224E+00 -0.4659959193836E+01  0.0000000000000E+00
 0.9350305516130E+00 -0.4588331411267E+01  0.0000000000000E+00
 0.9350458274974E+00 -0.4516703188842E+01  0.0000000000000E+00
 0.9350611033390E+00 -0.4445075167227E+01  0.0000000000000E+00
 0.9350763791775E+00 -0.4373447159855E+01  0.0000000000000E+00
 0.9350916550218E+00 -0.4301819125568E+01  0.0000000000000E+00
 0.9351069308570E+00 -0.4230191133616E+01  0.0000000000000E+00
 0.9351222066979E+00 -0.4158563115405E+01  0.0000000000000E+00
 0.9351374825376E+00 -0.4086935102455E+01  0.0000000000000E+00
 0.9351527583756E+00 -0.4015307097413E+01  0.0000000000000E+00
 0.9351680342168E+00 -0.3943679077380E+01  0.0000000000000E+00
 0.9351833100531E+00 -0.3872051080837E+01  0.0000000000000E+00
 0.9351985858960E+00 -0.3800423053032E+01  0.0000000000000E+00
 0.9352138617513E+00 -0.3728794966791E+01  0.0000000000000E+00
 0.9352291376023E+00 -0.3657166900936E+01  0.0000000000000E+00
 0.9352444134350E+00 -0.3585538920767E+01  0.0000000000000E+00
 0.9352596894026E+00 -0.3513910308230E+01  0.0000000000000E+00
 0.9352749651150E+00 -0.3442282892497E+01  0.0000000000000E+00
 0.9352902409569E+00 -0.3370654869188E+01  0.0000000000000E+00
 0.9353055167821E+00 -0.3299026924365E+01  0.0000000000000E+00
 0.9353207925879E+00 -0.3227399070774E+01  0.0000000000000E+00
 0.9353360684013E+00 -0.3155771181037E+01  0.0000000000000E+00
 0.9353513442216E+00 -0.3084143259268E+01  0.0000000000000E+00
 0.9353830887569E+00 -0.3012515275898E+01  0.0000000000000E+00
 0.9355373755264E+00 -0.2940887521964E+01  0.0000000000000E+00
 0.9359614934350E+00 -0.2869261334099E+01  0.0000000000000E+00
 0.9367897065442E+00 -0.2797639988499E+01  0.0000000000000E+00
 0.9381208445946E+00 -0.2726029167618E+01  0.0000000000000E+00
 0.9400182941908E+00 -0.2654436016767E+01  0.0000000000000E+00
 0.9425225851194E+00 -0.2582868866825E+01  0.0000000000000E+00
 0.9456659262486E+00 -0.2511336705033E+01  0.0000000000000E+00
 0.9494847547168E+00 -0.2439850246541E+01  0.0000000000000E+00
 0.9540291962613E+00 -0.2368423075029E+01  0.0000000000000E+00
 0.9592964310570E+00 -0.2297065006384E+01  0.0000000000000E+00
 0.9652129753722E+00 -0.2225777798506E+01  0.0000000000000E+00
 0.9717263717630E+00 -0.2154563128652E+01  0.0000000000000E+00
 0.9788061113094E+00 -0.2083423776202E+01  0.0000000000000E+00
 0.9864422379415E+00 -0.2012364643031E+01  0.0000000000000E+00
 0.9946500309898E+00 -0.1941394623598E+01  0.0000000000000E+00
 0.1003490936070E+01 -0.1870530926638E+01  0.0000000000000E+00
 0.9625137375899E+00 -0.4660058284109E+01  0.0000000000000E+00
 0.9625274751513E+00 -0.4588529591607E+01  0.0000000000000E+00
 0.9625412127970E+00 -0.4517000459858E+01  0.0000000000000E+00
 0.9625549504041E+00 -0.4445471528639E+01  0.0000000000000E+00
 0.9625686880086E+00 -0.4373942611646E+01  0.0000000000000E+00
 0.9625824256182E+00 -0.4302413667774E+01  0.0000000000000E+00
 0.9625961632197E+00 -0.4230884766178E+01  0.0000000000000E+00
 0.9626099008262E+00 -0.4159355838359E+01  0.0000000000000E+00
 0.9626236384317E+00 -0.4087826915795E+01  0.0000000000000E+00
 0.9626373760357E+00 -0.4016298001128E+01  0.0000000000000E+00
 0.9626511136426E+00 -0.3944769071490E+01  0.0000000000000E+00
 0.9626648512449E+00 -0.3873240165310E+01  0.0000000000000E+00
 0.9626785888533E+00 -0.3801711227911E+01  0.0000000000000E+00
 0.9626923264728E+00 -0.3730182232157E+01  0.0000000000000E+00
 0.9627060640885E+00 -0.3658653256760E+01  0.0000000000000E+00
 0.9627198016877E+00 -0.3587124366931E+01  0.0000000000000E+00
 0.9627335394082E+00 -0.3515594845610E+01  0.0000000000000E+00
 0.9627472768992E+00 -0.3444066519436E+01  0.0000000000000E+00
 0.9627610145067E+00 -0.3372537586527E+01  0.0000000000000E+00
 0.9627747520991E+00 -0.3301008731995E+01  0.0000000000000E+00
 0.9627884896741E+00 -0.3229479968569E+01  0.0000000000000E+00
 0.9628022272560E+00 -0.3157951169047E+01  0.0000000000000E+00
 0.9628159648440E+00 -0.3086422337537E+01  0.0000000000000E+00
 0.9628466564423E+00 -0.3014893444515E+01  0.0000000000000E+00
 0.9630035013274E+00 -0.2943364780869E+01  0.0000000000000E+00
 0.9634381286881E+00 -0.2871837683121E+01  0.0000000000000E+00
 0.9642887590514E+00 -0.2800315427600E+01  0.0000000000000E+00
 0.9656571344553E+00 -0.2728803696687E+01  0.0000000000000E+00
 0.9676085093668E+00 -0.2657309635808E+01  0.0000000000000E+00
 0.9701846078996E+00 -0.2585841575683E+01  0.0000000000000E+00
 0.9734185880421E+00 -0.2514408503796E+01  0.0000000000000E+00
 0.9773479606558E+00 -0.2443021135268E+01  0.0000000000000E+00
 0.9820243285798E+00 -0.2371693053486E+01  0.0000000000000E+00
 0.9874447888878E+00 -0.2300434074685E+01  0.0000000000000E+00
 0.9935336924435E+00 -0.2229245956763E+01  0.0000000000000E+00
 0.1000237035998E+01 -0.2158130376907E+01  0.0000000000000E+00
 0.1007523411600E+01 -0.2087090114568E+01  0.0000000000000E+00
 0.1015382569795E+01 -0.2016130071610E+01  0.0000000000000E+00
 0.1023830240168E+01 -0.1945259142154E+01  0.0000000000000E+00
 0.1032929679005E+01 -0.1874494534943E+01  0.0000000000000E+00
 0.9900118099595E+00 -0.4660160183706E+01  0.0000000000000E+00
 0.9900236198944E+00 -0.4588733390588E+01  0.0000000000000E+00
 0.9900354299019E+00 -0.4517306158849E+01  0.0000000000000E+00
 0.9900472398762E+00 -0.4445879127356E+01  0.0000000000000E+00
 0.9900590498481E+00 -0.4374452110066E+01  0.0000000000000E+00
 0.9900708598246E+00 -0.4303025065937E+01  0.0000000000000E+00
 0.9900826697940E+00 -0.4231598064023E+01  0.0000000000000E+00
 0.9900944797677E+00 -0.4160171035925E+01  0.0000000000000E+00
 0.9901062897406E+00 -0.4088744013072E+01  0.0000000000000E+00
 0.9901180997122E+00 -0.4017316998107E+01  0.0000000000000E+00
 0.9901299096863E+00 -0.3945889968191E+01  0.0000000000000E+00
 0.9901417196565E+00 -0.3874462961699E+01  0.0000000000000E+00
 0.9901535296318E+00 -0.3803035924034E+01  0.0000000000000E+00
 0.9901653396168E+00 -0.3731608828097E+01  0.0000000000000E+00
 0.9901771495984E+00 -0.3660181752487E+01  0.0000000000000E+00
 0.9901889595659E+00 -0.3588754762324E+01  0.0000000000000E+00
 0.9902007696377E+00 -0.3517327141568E+01  0.0000000000000E+00
 0.9902125795121E+00 -0.3445900714257E+01  0.0000000000000E+00
 0.9902243894867E+00 -0.3374473681074E+01  0.0000000000000E+00
 0.9902361994483E+00 -0.3303046726158E+01  0.0000000000000E+00
 0.9902480093950E+00 -0.3231619862217E+01  0.0000000000000E+00
 0.9902598193475E+00 -0.3160192962233E+01  0.0000000000000E+00
 0.9902716293054E+00 -0.3088766030305E+01  0.0000000000000E+00
 0.9903008785684E+00 -0.3017339036957E+01  0.0000000000000E+00
 0.9904598921716E+00 -0.2945912272923E+01  0.0000000000000E+00
 0.9909046395882E+00 -0.2874487074610E+01  0.0000000000000E+00
 0.9917772978107E+00 -0.2803066718486E+01  0.0000000000000E+00
 0.9931825211753E+00 -0.2731656886858E+01  0.0000000000000E+00
 0.9951874320109E+00 -0.2660264725264E+01  0.0000000000000E+00
 0.9978349487592E+00 -0.2588898564268E+01  0.0000000000000E+00
 0.1001159178528E+01 -0.2517567391599E+01  0.0000000000000E+00
 0.1005198705901E+01 -0.2446281922349E+01  0.0000000000000E+00
 0.1010006610822E+01 -0.2375055739605E+01  0.0000000000000E+00
 0.1015579907262E+01 -0.2303898659960E+01  0.0000000000000E+00
 0.1021840780679E+01 -0.2232812441308E+01  0.0000000000000E+00
 0.1028733682020E+01 -0.2161798760767E+01  0.0000000000000E+00
 0.1036226304300E+01 -0.2090860397857E+01  0.0000000000000E+00
 0.1044308104682E+01 -0.2020002254434E+01  0.0000000000000E+00
 0.1052995263009E+01 -0.1949233224272E+01  0.0000000000000E+00
 0.1062352846232E+01 -0.1878570516118E+01  0.0000000000000E+00
 0.1017509482155E+01 -0.4660264886430E+01  0.0000000000000E+00
 0.1017518964290E+01 -0.4588942795818E+01  0.0000000000000E+00
 0.1017528446483E+01 -0.4517620267227E+01  0.0000000000000E+00
 0.1017537928650E+01 -0.4446297938589E+01  0.0000000000000E+00
 0.1017547410815E+01 -0.4374975624134E+01  0.0000000000000E+00
 0.1017556892983E+01 -0.4303653282878E+01  0.0000000000000E+00
 0.1017566375146E+01 -0.4232330983776E+01  0.0000000000000E+00
 0.1017575857312E+01 -0.4161008658528E+01  0.0000000000000E+00
 0.1017585339477E+01 -0.4089686338518E+01  0.0000000000000E+00
 0.1017594821642E+01 -0.4018364026383E+01  0.0000000000000E+00
 0.1017604303808E+01 -0.3947041699321E+01  0.0000000000000E+00
 0.1017613785972E+01 -0.3875719395647E+01  0.0000000000000E+00
 0.1017623268139E+01 -0.3804397060846E+01  0.0000000000000E+00
 0.1017632750314E+01 -0.3733074667859E+01  0.0000000000000E+00
 0.1017642232487E+01 -0.3661752295169E+01  0.0000000000000E+00
 0.1017651714648E+01 -0.3590430007800E+01  0.0000000000000E+00
 0.1017661196893E+01 -0.3519107090763E+01  0.0000000000000E+00
 0.1017670678979E+01 -0.3447785365421E+01  0.0000000000000E+00
 0.1017680161146E+01 -0.3376463035097E+01  0.0000000000000E+00
 0.1017689643303E+01 -0.3305140782923E+01  0.0000000000000E+00
 0.1017699125447E+01 -0.3233818621592E+01  0.0000000000000E+00
 0.1017708607596E+01 -0.3162496424270E+01  0.0000000000000E+00
 0.1017718089750E+01 -0.3091174195051E+01  0.0000000000000E+00
 0.1017745496503E+01 -0.3019851904506E+01  0.0000000000000E+00
 0.1017906278648E+01 -0.2948529843212E+01  0.0000000000000E+00
 0.1018360745944E+01 -0.2877209347457E+01  0.0000000000000E+00
 0.1019255031844E+01 -0.2805893693852E+01  0.0000000000000E+00
 0.1020696702984E+01 -0.2734588564626E+01  0.0000000000000E+00
 0.1022754749553E+01 -0.2663301105436E+01  0.0000000000000E+00
 0.1025473284322E+01 -0.2592039646683E+01  0.0000000000000E+00
 0.1028887363514E+01 -0.2520813176348E+01  0.0000000000000E+00
 0.1033036645440E+01 -0.2449632409496E+01  0.0000000000000E+00
 0.1037975687144E+01 -0.2378510928901E+01  0.0000000000000E+00
 0.1043701419494E+01 -0.2307458551527E+01  0.0000000000000E+00
 0.1050133862544E+01 -0.2236477035263E+01  0.0000000000000E+00
 0.1057215921438E+01 -0.2165568057156E+01  0.0000000000000E+00
 0.1064914390158E+01 -0.2094734396797E+01  0.0000000000000E+00
 0.1073218432483E+01 -0.2023980956034E+01  0.0000000000000E+00
 0.1082144678514E+01 -0.1953316628284E+01  0.0000000000000E+00
 0.1091760005868E+01 -0.1882758622300E+01  0.0000000000000E+00
 0.1045006744575E+01 -0.4660372386100E+01  0.0000000000000E+00
 0.1045013489135E+01 -0.4589157794934E+01  0.0000000000000E+00
 0.1045020233737E+01 -0.4517942766450E+01  0.0000000000000E+00
 0.1045026978321E+01 -0.4446727937617E+01  0.0000000000000E+00
 0.1045033722903E+01 -0.4375513122945E+01  0.0000000000000E+00
 0.1045040467487E+01 -0.4304298281514E+01  0.0000000000000E+00
 0.1045047212067E+01 -0.4233083482172E+01  0.0000000000000E+00
 0.1045053956650E+01 -0.4161868656724E+01  0.0000000000000E+00
 0.1045060701232E+01 -0.4090653836506E+01  0.0000000000000E+00
 0.1045067445814E+01 -0.4019439024151E+01  0.0000000000000E+00
 0.1045074190397E+01 -0.3948224196891E+01  0.0000000000000E+00
 0.1045080934978E+01 -0.3877009392985E+01  0.0000000000000E+00
 0.1045087679562E+01 -0.3805794557998E+01  0.0000000000000E+00
 0.1045094424151E+01 -0.3734579664913E+01  0.0000000000000E+00
 0.1045101168738E+01 -0.3663364792095E+01  0.0000000000000E+00
 0.1045107913318E+01 -0.3592150004468E+01  0.0000000000000E+00
 0.1045114657956E+01 -0.3520934588123E+01  0.0000000000000E+00
 0.1045121402483E+01 -0.3449720361677E+01  0.0000000000000E+00
 0.1045128147066E+01 -0.3378505531160E+01  0.0000000000000E+00
 0.1045134891642E+01 -0.3307290778676E+01  0.0000000000000E+00
 0.1045141636209E+01 -0.3236076116898E+01  0.0000000000000E+00
 0.1045148380780E+01 -0.3164861419183E+01  0.0000000000000E+00
 0.1045155125354E+01 -0.3093646689619E+01  0.0000000000000E+00
 0.1045180279821E+01 -0.3022431898826E+01  0.0000000000000E+00
 0.1045342420734E+01 -0.2951217337218E+01  0.0000000000000E+00
 0.1045806198134E+01 -0.2880004340962E+01  0.0000000000000E+00
 0.1046721701941E+01 -0.2808796186818E+01  0.0000000000000E+00
 0.1048199411086E+01 -0.2737598556931E+01  0.0000000000000E+00
 0.1050310183620E+01 -0.2666418597083E+01  0.0000000000000E+00
 0.1053099326642E+01 -0.2595264637507E+01  0.0000000000000E+00
 0.1056602845493E+01 -0.2524145666443E+01  0.0000000000000E+00
 0.1060861472207E+01 -0.2453072398925E+01  0.0000000000000E+00
 0.1065931240934E+01 -0.2382058417411E+01  0.0000000000000E+00
 0.1071808999436E+01 -0.2311113539242E+01  0.0000000000000E+00
 0.1078412602362E+01 -0.2240239522303E+01  0.0000000000000E+00
 0.1085683409054E+01 -0.2169438043568E+01  0.0000000000000E+00
 0.1093587314458E+01 -0.2098711882704E+01  0.0000000000000E+00
 0.1102113188972E+01 -0.2028065941545E+01  0.0000000000000E+00
 0.1111278112956E+01 -0.1957509113146E+01  0.0000000000000E+00
 0.1121150774694E+01 -0.1887058606262E+01  0.0000000000000E+00
 0.1072503587178E+01 -0.4660482676316E+01  0.0000000000000E+00
 0.1072507174348E+01 -0.4589378375137E+01  0.0000000000000E+00
 0.1072510761541E+01 -0.4518273637316E+01  0.0000000000000E+00
 0.1072514348723E+01 -0.4447169098837E+01  0.0000000000000E+00
 0.1072517935905E+01 -0.4376064574498E+01  0.0000000000000E+00
 0.1072521523088E+01 -0.4304960023440E+01  0.0000000000000E+00
 0.1072525110269E+01 -0.4233855514407E+01  0.0000000000000E+00
 0.1072528697451E+01 -0.4162750979308E+01  0.0000000000000E+00
 0.1072532284633E+01 -0.4091646449431E+01  0.0000000000000E+00
 0.1072535871815E+01 -0.4020541927405E+01  0.0000000000000E+00
 0.1072539458997E+01 -0.3949437390497E+01  0.0000000000000E+00
 0.1072543046178E+01 -0.3878332876907E+01  0.0000000000000E+00
 0.1072546633361E+01 -0.3807228332284E+01  0.0000000000000E+00
 0.1072550220546E+01 -0.3736123729652E+01  0.0000000000000E+00
 0.1072553807731E+01 -0.3665019147257E+01  0.0000000000000E+00
 0.1072557394911E+01 -0.3593914649921E+01  0.0000000000000E+00
 0.1072560982123E+01 -0.3522809524840E+01  0.0000000000000E+00
 0.1072564569275E+01 -0.3451705587815E+01  0.0000000000000E+00
 0.1072568156458E+01 -0.3380601047655E+01  0.0000000000000E+00
 0.1072571743636E+01 -0.3309496585407E+01  0.0000000000000E+00
 0.1072575330810E+01 -0.3238392213725E+01  0.0000000000000E+00
 0.1072578917986E+01 -0.3167287806161E+01  0.0000000000000E+00
 0.1072582505164E+01 -0.3096183366798E+01  0.0000000000000E+00
 0.1072604987528E+01 -0.3025078866304E+01  0.0000000000000E+00
 0.1072768067392E+01 -0.2953974594929E+01  0.0000000000000E+00
 0.1073240735083E+01 -0.2882871888714E+01  0.0000000000000E+00
 0.1074177036982E+01 -0.2811774024571E+01  0.0000000000000E+00
 0.1075690364322E+01 -0.2740686684561E+01  0.0000000000000E+00
 0.1077853443011E+01 -0.2669617014592E+01  0.0000000000000E+00
 0.1080712774480E+01 -0.2598573344725E+01  0.0000000000000E+00
 0.1084305313187E+01 -0.2527564663467E+01  0.0000000000000E+00
 0.1088672864887E+01 -0.2456601685821E+01  0.0000000000000E+00
 0.1093872940837E+01 -0.2385697993918E+01  0.0000000000000E+00
 0.1099902305694E+01 -0.2314863405488E+01  0.0000000000000E+00
 0.1106676648702E+01 -0.2244099678411E+01  0.0000000000000E+00
 0.1114135783397E+01 -0.2173408489587E+01  0.0000000000000E+00
 0.1122244705695E+01 -0.2102792618758E+01  0.0000000000000E+00
 0.1130991992608E+01 -0.2032256967748E+01  0.0000000000000E+00
 0.1140395174757E+01 -0.1961810429236E+01  0.0000000000000E+00
 0.1150524751096E+01 -0.1891470211985E+01  0.0000000000000E+00
-0.5660382933727E+00 -0.1689691761343E+01  0.0000000000000E+00
-0.5663123720575E+00 -0.1626506538788E+01  0.0000000000000E+00
-0.5667790339879E+00 -0.1563322491581E+01  0.0000000000000E+00
-0.5674663936241E+00 -0.1500140613648E+01  0.0000000000000E+00
-0.5684046240156E+00 -0.1436962158218E+01  0.0000000000000E+00
-0.5696222518212E+00 -0.1373788927613E+01  0.0000000000000E+00
-0.5711380830886E+00 -0.1310622648082E+01  0.0000000000000E+00
-0.5729469100487E+00 -0.1247464856343E+01  0.0000000000000E+00
-0.5750009089678E+00 -0.1184315217396E+01  0.0000000000000E+00
-0.5771979571333E+00 -0.1121170853713E+01  0.0000000000000E+00
-0.5793950052231E+00 -0.1058026490028E+01  0.0000000000000E+00
-0.5814490039253E+00 -0.9948768510738E+00  0.0000000000000E+00
-0.5832578305519E+00 -0.9317190593259E+00  0.0000000000000E+00
-0.5847736613987E+00 -0.8685527797851E+00  0.0000000000000E+00
-0.5859912887235E+00 -0.8053795491707E+00  0.0000000000000E+00
-0.5869295185944E+00 -0.7422010937332E+00  0.0000000000000E+00
-0.5876168776851E+00 -0.6790192157949E+00  0.0000000000000E+00
-0.5880835390555E+00 -0.6158351685841E+00  0.0000000000000E+00
-0.5883576171726E+00 -0.5526499460259E+00  0.0000000000000E+00
-0.5363253834601E+00 -0.1687245125446E+01  0.0000000000000E+00
-0.5366119768712E+00 -0.1623791708043E+01  0.0000000000000E+00
-0.5370810175640E+00 -0.1560339466072E+01  0.0000000000000E+00
-0.5377591402814E+00 -0.1496889393551E+01  0.0000000000000E+00
-0.5386749300523E+00 -0.1433442743371E+01  0.0000000000000E+00
-0.5398554120886E+00 -0.1370001318292E+01  0.0000000000000E+00
-0.5413184027050E+00 -0.1306566843974E+01  0.0000000000000E+00
-0.5430589681685E+00 -0.1243140857698E+01  0.0000000000000E+00
-0.5450318018343E+00 -0.1179723023941E+01  0.0000000000000E+00
-0.5471401558424E+00 -0.1116310465411E+01  0.0000000000000E+00
-0.5492485097748E+00 -0.1052897906879E+01  0.0000000000000E+00
-0.5512213432236E+00 -0.9894800731148E+00  0.0000000000000E+00
-0.5529619083535E+00 -0.9260540868295E+00  0.0000000000000E+00
-0.5544248985495E+00 -0.8626196125025E+00  0.0000000000000E+00
-0.5556053801049E+00 -0.7991781874149E+00  0.0000000000000E+00
-0.5565211693552E+00 -0.7357315372274E+00  0.0000000000000E+00
-0.5571992915272E+00 -0.6722814647015E+00  0.0000000000000E+00
-0.5576683316600E+00 -0.6088292227269E+00  0.0000000000000E+00
-0.5579549245034E+00 -0.5453758053214E+00  0.0000000000000E+00
-0.5065999670663E+00 -0.1684928561672E+01  0.0000000000000E+00
-0.5068949115904E+00 -0.1621220039384E+01  0.0000000000000E+00
-0.5073621674199E+00 -0.1557512692609E+01  0.0000000000000E+00
-0.5080268895799E+00 -0.1493807515451E+01  0.0000000000000E+00
-0.5089160750712E+00 -0.1430105760479E+01  0.0000000000000E+00
-0.5100552476636E+00 -0.1366409230871E+01  0.0000000000000E+00
-0.5114612339286E+00 -0.1302719651727E+01  0.0000000000000E+00
-0.5131293741780E+00 -0.1239038560861E+01  0.0000000000000E+00
-0.5150168788513E+00 -0.1175365622255E+01  0.0000000000000E+00
-0.5170323749522E+00 -0.1111697958841E+01  0.0000000000000E+00
-0.5190478709775E+00 -0.1048030295425E+01  0.0000000000000E+00
-0.5209353754338E+00 -0.9843573568131E+00  0.0000000000000E+00
-0.5226035153497E+00 -0.9206762659386E+00  0.0000000000000E+00
-0.5240095011942E+00 -0.8569866867857E+00  0.0000000000000E+00
-0.5251486733057E+00 -0.7932901571698E+00  0.0000000000000E+00
-0.5260378582764E+00 -0.7295884021909E+00  0.0000000000000E+00
-0.5267025798910E+00 -0.6658832250280E+00  0.0000000000000E+00
-0.5271698351604E+00 -0.6021758782489E+00  0.0000000000000E+00
-0.5274647791169E+00 -0.5384673559593E+00  0.0000000000000E+00
-0.4768626705487E+00 -0.1682742416099E+01  0.0000000000000E+00
-0.4771619844321E+00 -0.1618792097827E+01  0.0000000000000E+00
-0.4776234736490E+00 -0.1554842955143E+01  0.0000000000000E+00
-0.4782708135087E+00 -0.1490895982235E+01  0.0000000000000E+00
-0.4791294129793E+00 -0.1426952431367E+01  0.0000000000000E+00
-0.4802232943955E+00 -0.1363014106112E+01  0.0000000000000E+00
-0.4815682945772E+00 -0.1299082731039E+01  0.0000000000000E+00
-0.4831600278892E+00 -0.1235159844468E+01  0.0000000000000E+00
-0.4849582218467E+00 -0.1171245109912E+01  0.0000000000000E+00
-0.4868768783191E+00 -0.1107335650514E+01  0.0000000000000E+00
-0.4887955347158E+00 -0.1043426191114E+01  0.0000000000000E+00
-0.4905937284563E+00 -0.9795114565527E+00  0.0000000000000E+00
-0.4921854614348E+00 -0.9155885699739E+00  0.0000000000000E+00
-0.4935304611959E+00 -0.8516571948924E+00  0.0000000000000E+00
-0.4946243421312E+00 -0.7877188696299E+00  0.0000000000000E+00
-0.4954829410813E+00 -0.7237753187550E+00  0.0000000000000E+00
-0.4961302803955E+00 -0.6598283458425E+00  0.0000000000000E+00
-0.4965917690524E+00 -0.5958792031548E+00  0.0000000000000E+00
-0.4968910823681E+00 -0.5319288848814E+00  0.0000000000000E+00
-0.4471141738714E+00 -0.1680687021658E+01  0.0000000000000E+00
-0.4474140589931E+00 -0.1616508426019E+01  0.0000000000000E+00
-0.4478659834921E+00 -0.1552331006037E+01  0.0000000000000E+00
-0.4484921429651E+00 -0.1488155755982E+01  0.0000000000000E+00
-0.4493163583450E+00 -0.1423983927828E+01  0.0000000000000E+00
-0.4503611505400E+00 -0.1359817325524E+01  0.0000000000000E+00
-0.4516413666112E+00 -0.1295657673134E+01  0.0000000000000E+00
-0.4531528949840E+00 -0.1231506509458E+01  0.0000000000000E+00
-0.4548579802386E+00 -0.1167363497567E+01  0.0000000000000E+00
-0.4566759991053E+00 -0.1103225760801E+01  0.0000000000000E+00
-0.4584940178964E+00 -0.1039088024033E+01  0.0000000000000E+00
-0.4601991029340E+00 -0.9749450121357E+00  0.0000000000000E+00
-0.4617106309733E+00 -0.9107938484529E+00  0.0000000000000E+00
-0.4629908466239E+00 -0.8466341960555E+00  0.0000000000000E+00
-0.4640356383381E+00 -0.7824675937435E+00  0.0000000000000E+00
-0.4648598531975E+00 -0.7182957655835E+00  0.0000000000000E+00
-0.4654860121251E+00 -0.6541205155242E+00  0.0000000000000E+00
-0.4659379360640E+00 -0.5899430955397E+00  0.0000000000000E+00
-0.4662378206180E+00 -0.5257644998984E+00  0.0000000000000E+00
-0.4173550630559E+00 -0.1678762688173E+01  0.0000000000000E+00
-0.4176519113029E+00 -0.1614369533789E+01  0.0000000000000E+00
-0.4180906629569E+00 -0.1549977555129E+01  0.0000000000000E+00
-0.4186920339012E+00 -0.1485587746537E+01  0.0000000000000E+00
-0.4194782570266E+00 -0.1421201359716E+01  0.0000000000000E+00
-0.4204703518181E+00 -0.1356820198965E+01  0.0000000000000E+00
-0.4216821755688E+00 -0.1292445987879E+01  0.0000000000000E+00
-0.4231098907729E+00 -0.1228080265706E+01  0.0000000000000E+00
-0.4247182590719E+00 -0.1163722695099E+01  0.0000000000000E+00
-0.4264320320686E+00 -0.1099370399588E+01  0.0000000000000E+00
-0.4281458049896E+00 -0.1035018104075E+01  0.0000000000000E+00
-0.4297541730716E+00 -0.9706605334635E+00  0.0000000000000E+00
-0.4311818879422E+00 -0.9062948112837E+00  0.0000000000000E+00
-0.4323937112723E+00 -0.8419206001903E+00  0.0000000000000E+00
-0.4333858055829E+00 -0.7775394394327E+00  0.0000000000000E+00
-0.4341720281878E+00 -0.7131530526057E+00  0.0000000000000E+00
-0.4347733985867E+00 -0.6487632440093E+00  0.0000000000000E+00
-0.4352121496806E+00 -0.5843712653468E+00  0.0000000000000E+00
-0.4355089973599E+00 -0.5199781109607E+00  0.0000000000000E+00
-0.3875860504174E+00 -0.1676969717501E+01  0.0000000000000E+00
-0.3878764553724E+00 -0.1612375915377E+01  0.0000000000000E+00
-0.3882986277719E+00 -0.1547783289039E+01  0.0000000000000E+00
-0.3888718037880E+00 -0.1483192832901E+01  0.0000000000000E+00
-0.3896166282662E+00 -0.1418605798412E+01  0.0000000000000E+00
-0.3905526192750E+00 -0.1354023990201E+01  0.0000000000000E+00
-0.3916926443324E+00 -0.1289449131420E+01  0.0000000000000E+00
-0.3930331400086E+00 -0.1224882761738E+01  0.0000000000000E+00
-0.3945413849981E+00 -0.1160324543420E+01  0.0000000000000E+00
-0.3961475057755E+00 -0.1095771600169E+01  0.0000000000000E+00
-0.3977536264772E+00 -0.1031218656915E+01  0.0000000000000E+00
-0.3992618712497E+00 -0.9666604385923E+00  0.0000000000000E+00
-0.4006023665923E+00 -0.9020940689044E+00  0.0000000000000E+00
-0.4017423912293E+00 -0.8375192101168E+00  0.0000000000000E+00
-0.4026783817572E+00 -0.7729374018990E+00  0.0000000000000E+00
-0.4034232057148E+00 -0.7083503674049E+00  0.0000000000000E+00
-0.4039963811855E+00 -0.6437599112629E+00  0.0000000000000E+00
-0.4044185530250E+00 -0.5791672849229E+00  0.0000000000000E+00
-0.4047089574122E+00 -0.5145734827967E+00  0.0000000000000E+00
-0.3578077848507E+00 -0.1675308389248E+01  0.0000000000000E+00
-0.3580885470070E+00 -0.1610528031852E+01  0.0000000000000E+00
-0.3584909406433E+00 -0.1545748850301E+01  0.0000000000000E+00
-0.3590327222207E+00 -0.1480971839072E+01  0.0000000000000E+00
-0.3597329485350E+00 -0.1416198249379E+01  0.0000000000000E+00
-0.3606096362428E+00 -0.1351429886156E+01  0.0000000000000E+00
-0.3616746630801E+00 -0.1286668472146E+01  0.0000000000000E+00
-0.3629247396993E+00 -0.1221915547408E+01  0.0000000000000E+00
-0.3643296618428E+00 -0.1157170773845E+01  0.0000000000000E+00
-0.3658249308613E+00 -0.1092431275322E+01  0.0000000000000E+00
-0.3673201998042E+00 -0.1027691776797E+01  0.0000000000000E+00
-0.3687251217307E+00 -0.9629470032288E+00  0.0000000000000E+00
-0.3699751980164E+00 -0.8981940784852E+00  0.0000000000000E+00
-0.3710402244331E+00 -0.8334326644688E+00  0.0000000000000E+00
-0.3719169116601E+00 -0.7686643012399E+00  0.0000000000000E+00
-0.3726171374538E+00 -0.7038907115421E+00  0.0000000000000E+00
-0.3731589184858E+00 -0.6391137003095E+00  0.0000000000000E+00
-0.3735613115620E+00 -0.5743345187563E+00  0.0000000000000E+00
-0.3738420731506E+00 -0.5095541613588E+00  0.0000000000000E+00
-0.3280209322967E+00 -0.1673778966441E+01  0.0000000000000E+00
-0.3282890703009E+00 -0.1608826317856E+01  0.0000000000000E+00
-0.3286687038227E+00 -0.1543874845170E+01  0.0000000000000E+00
-0.3291761096142E+00 -0.1478925542919E+01  0.0000000000000E+00
-0.3298287564176E+00 -0.1413979662100E+01  0.0000000000000E+00
-0.3306431594830E+00 -0.1349039007928E+01  0.0000000000000E+00
-0.3316302067577E+00 -0.1284105302768E+01  0.0000000000000E+00
-0.3327868829826E+00 -0.1219180087040E+01  0.0000000000000E+00
-0.3340855009420E+00 -0.1154263022312E+01  0.0000000000000E+00
-0.3354669368643E+00 -0.1089351232600E+01  0.0000000000000E+00
-0.3368483727111E+00 -0.1024439442887E+01  0.0000000000000E+00
-0.3381469904534E+00 -0.9595223781546E+00  0.0000000000000E+00
-0.3393036663448E+00 -0.8945971624215E+00  0.0000000000000E+00
-0.3402907131989E+00 -0.8296634572558E+00  0.0000000000000E+00
-0.3411051157835E+00 -0.7647228030786E+00  0.0000000000000E+00
-0.3417577620663E+00 -0.6997769222548E+00  0.0000000000000E+00
-0.3422651673124E+00 -0.6348276200005E+00  0.0000000000000E+00
-0.3426448002742E+00 -0.5698761473125E+00  0.0000000000000E+00
-0.3429129377106E+00 -0.5049234987264E+00  0.0000000000000E+00
-0.2982262059385E+00 -0.1672381694973E+01  0.0000000000000E+00
-0.2984789576442E+00 -0.1607271179011E+01  0.0000000000000E+00
-0.2988330689080E+00 -0.1542161838997E+01  0.0000000000000E+00
-0.2993033367739E+00 -0.1477054669522E+01  0.0000000000000E+00
-0.2999056419273E+00 -0.1411950921383E+01  0.0000000000000E+00
-0.3006549982166E+00 -0.1346852400053E+01  0.0000000000000E+00
-0.3015613037944E+00 -0.1281760827552E+01  0.0000000000000E+00
-0.3026218174963E+00 -0.1216677744629E+01  0.0000000000000E+00
-0.3038113691420E+00 -0.1151602812546E+01  0.0000000000000E+00
-0.3050762098397E+00 -0.1086533155457E+01  0.0000000000000E+00
-0.3063410504618E+00 -0.1021463498367E+01  0.0000000000000E+00
-0.3075306018905E+00 -0.9563885662797E+00  0.0000000000000E+00
-0.3085911152588E+00 -0.8913054833521E+00  0.0000000000000E+00
-0.3094974204161E+00 -0.8262139108455E+00  0.0000000000000E+00
-0.3102467762245E+00 -0.7611153895116E+00  0.0000000000000E+00
-0.3108490808573E+00 -0.6960116413682E+00  0.0000000000000E+00
-0.3113193481778E+00 -0.6309044718900E+00  0.0000000000000E+00
-0.3116734588816E+00 -0.5657951318742E+00  0.0000000000000E+00
-0.3119262100196E+00 -0.5006846159113E+00  0.0000000000000E+00
-0.2684242591111E+00 -0.1671116799086E+01  0.0000000000000E+00
-0.2686590939796E+00 -0.1605862988030E+01  0.0000000000000E+00
-0.2689851524448E+00 -0.1540610352966E+01  0.0000000000000E+00
-0.2694157518426E+00 -0.1475359888535E+01  0.0000000000000E+00
-0.2699651847983E+00 -0.1410112845353E+01  0.0000000000000E+00
-0.2706469637623E+00 -0.1344871029129E+01  0.0000000000000E+00
-0.2714699970866E+00 -0.1279636161565E+01  0.0000000000000E+00
-0.2724318177065E+00 -0.1214409783713E+01  0.0000000000000E+00
-0.2735097724737E+00 -0.1149191556555E+01  0.0000000000000E+00
-0.2746554873792E+00 -0.1083978604371E+01  0.0000000000000E+00
-0.2758012022091E+00 -0.1018765652186E+01  0.0000000000000E+00
-0.2768791567593E+00 -0.9535474250252E+00  0.0000000000000E+00
-0.2778409770457E+00 -0.8883210471688E+00  0.0000000000000E+00
-0.2786640099495E+00 -0.8230861796004E+00  0.0000000000000E+00
-0.2793457884325E+00 -0.7578443633719E+00  0.0000000000000E+00
-0.2798952208677E+00 -0.6925973201861E+00  0.0000000000000E+00
-0.2803258197201E+00 -0.6273468557523E+00  0.0000000000000E+00
-0.2806518776252E+00 -0.5620942206867E+00  0.0000000000000E+00
-0.2808867119260E+00 -0.4968404096294E+00  0.0000000000000E+00
-0.2386158232353E+00 -0.1669984486219E+01  0.0000000000000E+00
-0.2388304441249E+00 -0.1604602088268E+01  0.0000000000000E+00
-0.2391261526536E+00 -0.1539220866350E+01  0.0000000000000E+00
-0.2395147864510E+00 -0.1473841815148E+01  0.0000000000000E+00
-0.2400090500797E+00 -0.1408466185117E+01  0.0000000000000E+00
-0.2406209545962E+00 -0.1343095782177E+01  0.0000000000000E+00
-0.2413584185475E+00 -0.1277732327748E+01  0.0000000000000E+00
-0.2422192489735E+00 -0.1212377363149E+01  0.0000000000000E+00
-0.2431833097518E+00 -0.1147030549114E+01  0.0000000000000E+00
-0.2442076017572E+00 -0.1081689010035E+01  0.0000000000000E+00
-0.2452318936869E+00 -0.1016347470955E+01  0.0000000000000E+00
-0.2461959542483E+00 -0.9510006569173E+00  0.0000000000000E+00
-0.2470567843406E+00 -0.8856456923147E+00  0.0000000000000E+00
-0.2477942478714E+00 -0.8202822378808E+00  0.0000000000000E+00
-0.2484061519071E+00 -0.7549118349370E+00  0.0000000000000E+00
-0.2489004150152E+00 -0.6895362049032E+00  0.0000000000000E+00
-0.2492890482672E+00 -0.6241571536992E+00  0.0000000000000E+00
-0.2495847562358E+00 -0.5587759317790E+00  0.0000000000000E+00
-0.2497993765577E+00 -0.4933935338269E+00  0.0000000000000E+00
-0.2088015918171E+00 -0.1668984941864E+01  0.0000000000000E+00
-0.2089939423704E+00 -0.1603488788333E+01  0.0000000000000E+00
-0.2092572446060E+00 -0.1537993810870E+01  0.0000000000000E+00
-0.2096018564480E+00 -0.1472501004198E+01  0.0000000000000E+00
-0.2100388943936E+00 -0.1407011618628E+01  0.0000000000000E+00
-0.2105788681090E+00 -0.1341527460266E+01  0.0000000000000E+00
-0.2112287063315E+00 -0.1276050250282E+01  0.0000000000000E+00
-0.2119864902098E+00 -0.1210581530234E+01  0.0000000000000E+00
-0.2128346006438E+00 -0.1145120960635E+01  0.0000000000000E+00
-0.2137354133933E+00 -0.1079665665975E+01  0.0000000000000E+00
-0.2146362260672E+00 -0.1014210371315E+01  0.0000000000000E+00
-0.2154843362842E+00 -0.9487498017129E+00  0.0000000000000E+00
-0.2162421198289E+00 -0.8832810816616E+00  0.0000000000000E+00
-0.2168919576308E+00 -0.8178038716736E+00  0.0000000000000E+00
-0.2174319308654E+00 -0.7523197133084E+00  0.0000000000000E+00
-0.2178689682905E+00 -0.6868303277357E+00  0.0000000000000E+00
-0.2182135795869E+00 -0.6213375210618E+00  0.0000000000000E+00
-0.2184768812625E+00 -0.5558425435970E+00  0.0000000000000E+00
-0.2186692312481E+00 -0.4903463900649E+00  0.0000000000000E+00
-0.1789822699684E+00 -0.1668118331209E+01  0.0000000000000E+00
-0.1791505394161E+00 -0.1602523363227E+01  0.0000000000000E+00
-0.1793796245881E+00 -0.1536929571344E+01  0.0000000000000E+00
-0.1796784037030E+00 -0.1471337950318E+01  0.0000000000000E+00
-0.1800564051905E+00 -0.1405749750333E+01  0.0000000000000E+00
-0.1805226373288E+00 -0.1340166777658E+01  0.0000000000000E+00
-0.1810830390415E+00 -0.1274590753246E+01  0.0000000000000E+00
-0.1817359655899E+00 -0.1209023218861E+01  0.0000000000000E+00
-0.1824663148931E+00 -0.1143463834825E+01  0.0000000000000E+00
-0.1832418375987E+00 -0.1077909725716E+01  0.0000000000000E+00
-0.1840173602287E+00 -0.1012355616605E+01  0.0000000000000E+00
-0.1847477093150E+00 -0.9467962325665E+00  0.0000000000000E+00
-0.1854006355298E+00 -0.8812286981792E+00  0.0000000000000E+00
-0.1859610368220E+00 -0.8156526737635E+00  0.0000000000000E+00
-0.1864272684794E+00 -0.7500697010859E+00  0.0000000000000E+00
-0.1868052694463E+00 -0.6844815010990E+00  0.0000000000000E+00
-0.1871040480158E+00 -0.6188898800707E+00  0.0000000000000E+00
-0.1873331326277E+00 -0.5532960881865E+00  0.0000000000000E+00
-0.1875014015077E+00 -0.4877011202043E+00  0.0000000000000E+00
-0.1491585906986E+00 -0.1667384798938E+01  0.0000000000000E+00
-0.1493012179629E+00 -0.1601706053757E+01  0.0000000000000E+00
-0.1494945249966E+00 -0.1536028484701E+01  0.0000000000000E+00
-0.1497459103137E+00 -0.1470353086556E+01  0.0000000000000E+00
-0.1500633142746E+00 -0.1404681109403E+01  0.0000000000000E+00
-0.1504542437727E+00 -0.1339014359645E+01  0.0000000000000E+00
-0.1509236479144E+00 -0.1273354558052E+01  0.0000000000000E+00
-0.1514701560771E+00 -0.1207703246565E+01  0.0000000000000E+00
-0.1520811831954E+00 -0.1142060085341E+01  0.0000000000000E+00
-0.1527298548045E+00 -0.1076422199032E+01  0.0000000000000E+00
-0.1533785263379E+00 -0.1010784312722E+01  0.0000000000000E+00
-0.1539895532392E+00 -0.9451411514961E+00  0.0000000000000E+00
-0.1545360610683E+00 -0.8794898400065E+00  0.0000000000000E+00
-0.1550054647896E+00 -0.8138300384108E+00  0.0000000000000E+00
-0.1553963938067E+00 -0.7481632886510E+00  0.0000000000000E+00
-0.1557137972470E+00 -0.6824913114955E+00  0.0000000000000E+00
-0.1559651820187E+00 -0.6168159133492E+00  0.0000000000000E+00
-0.1561584884923E+00 -0.5511383442921E+00  0.0000000000000E+00
-0.1563011151890E+00 -0.4854595991108E+00  0.0000000000000E+00
-0.1193312533689E+00 -0.1666784467333E+01  0.0000000000000E+00
-0.1194469324420E+00 -0.1601037064197E+01  0.0000000000000E+00
-0.1196031553282E+00 -0.1535290837207E+01  0.0000000000000E+00
-0.1198058408375E+00 -0.1469546781173E+01  0.0000000000000E+00
-0.1200613412589E+00 -0.1403806146089E+01  0.0000000000000E+00
-0.1203756621029E+00 -0.1338070738472E+01  0.0000000000000E+00
-0.1207527626561E+00 -0.1272342278939E+01  0.0000000000000E+00
-0.1211915464142E+00 -0.1206622309575E+01  0.0000000000000E+00
-0.1216819453254E+00 -0.1140910490406E+01  0.0000000000000E+00
-0.1222024598146E+00 -0.1075203946141E+01  0.0000000000000E+00
-0.1227229742282E+00 -0.1009497401875E+01  0.0000000000000E+00
-0.1232133729224E+00 -0.9437855827039E+00  0.0000000000000E+00
-0.1236521563469E+00 -0.8780656133384E+00  0.0000000000000E+00
-0.1240292564796E+00 -0.8123371538032E+00  0.0000000000000E+00
-0.1243435768427E+00 -0.7466017461841E+00  0.0000000000000E+00
-0.1245990767436E+00 -0.6808611110984E+00  0.0000000000000E+00
-0.1248017617074E+00 -0.6151170550636E+00  0.0000000000000E+00
-0.1249579840336E+00 -0.5493708280728E+00  0.0000000000000E+00
-0.1250736625389E+00 -0.4836234249364E+00  0.0000000000000E+00
-0.8950100053862E-01 -0.1666317437650E+01  0.0000000000000E+00
-0.8958868171560E-01 -0.1600516563313E+01  0.0000000000000E+00
-0.8970677075129E-01 -0.1534716865139E+01  0.0000000000000E+00
-0.8985970675196E-01 -0.1468919337956E+01  0.0000000000000E+00
-0.9005225393426E-01 -0.1403125231690E+01  0.0000000000000E+00
-0.9028891642774E-01 -0.1337336352946E+01  0.0000000000000E+00
-0.9057266369673E-01 -0.1271554422224E+01  0.0000000000000E+00
-0.9090267335780E-01 -0.1205780981720E+01  0.0000000000000E+00
-0.9127139437015E-01 -0.1140015691357E+01  0.0000000000000E+00
-0.9166270204846E-01 -0.1074255675890E+01  0.0000000000000E+00
-0.9205400965113E-01 -0.1008495660424E+01  0.0000000000000E+00
-0.9242273044648E-01 -0.9427303700588E+00  0.0000000000000E+00
-0.9275273977399E-01 -0.8769569295541E+00  0.0000000000000E+00
-0.9303648662245E-01 -0.8111749988302E+00  0.0000000000000E+00
-0.9327314863504E-01 -0.7453861200848E+00  0.0000000000000E+00
-0.9346569529677E-01 -0.6795920138176E+00  0.0000000000000E+00
-0.9361863075200E-01 -0.6137944866337E+00  0.0000000000000E+00
-0.9373671922766E-01 -0.5479947884587E+00  0.0000000000000E+00
-0.9382439983693E-01 -0.4821939141214E+00  0.0000000000000E+00
-0.5966855245610E-01 -0.1665983788540E+01  0.0000000000000E+00
-0.5972744638703E-01 -0.1600144682577E+01  0.0000000000000E+00
-0.5980661222241E-01 -0.1534306752788E+01  0.0000000000000E+00
-0.5990900936510E-01 -0.1468470994015E+01  0.0000000000000E+00
-0.6003781395841E-01 -0.1402638656136E+01  0.0000000000000E+00
-0.6019602875215E-01 -0.1336811545818E+01  0.0000000000000E+00
-0.6038563338675E-01 -0.1270991383477E+01  0.0000000000000E+00
-0.6060607960119E-01 -0.1205179711391E+01  0.0000000000000E+00
-0.6085233336420E-01 -0.1139376189405E+01  0.0000000000000E+00
-0.6111364488103E-01 -0.1073577942312E+01  0.0000000000000E+00
-0.6137495632221E-01 -0.1007779695218E+01  0.0000000000000E+00
-0.6162120986821E-01 -0.9419761732318E+00  0.0000000000000E+00
-0.6184165574910E-01 -0.8761645011445E+00  0.0000000000000E+00
-0.6203125996316E-01 -0.8103443388026E+00  0.0000000000000E+00
-0.6218947427602E-01 -0.7445172284838E+00  0.0000000000000E+00
-0.6231827834875E-01 -0.6786848906039E+00  0.0000000000000E+00
-0.6242067494601E-01 -0.6128491318304E+00  0.0000000000000E+00
-0.6249984022135E-01 -0.5470112020407E+00  0.0000000000000E+00
-0.6255873358457E-01 -0.4811720960768E+00  0.0000000000000E+00
-0.2983463937156E-01 -0.1665783576456E+01  0.0000000000000E+00
-0.2986421868488E-01 -0.1599921516320E+01  0.0000000000000E+00
-0.2990393394841E-01 -0.1534060632365E+01  0.0000000000000E+00
-0.2995526486180E-01 -0.1468201919441E+01  0.0000000000000E+00
-0.3001979949427E-01 -0.1402346627397E+01  0.0000000000000E+00
-0.3009903921680E-01 -0.1336496562938E+01  0.0000000000000E+00
-0.3019397384468E-01 -0.1270653446429E+01  0.0000000000000E+00
-0.3030432924049E-01 -0.1204818820196E+01  0.0000000000000E+00
-0.3042758838143E-01 -0.1138992344041E+01  0.0000000000000E+00
-0.3055837636388E-01 -0.1073171142774E+01  0.0000000000000E+00
-0.3068916427068E-01 -0.1007349941507E+01  0.0000000000000E+00
-0.3081242319462E-01 -0.9415234653514E+00  0.0000000000000E+00
-0.3092277825687E-01 -0.8756888391178E+00  0.0000000000000E+00
-0.3101771246422E-01 -0.8098457226084E+00  0.0000000000000E+00
-0.3109695170586E-01 -0.7439956581489E+00  0.0000000000000E+00
-0.3116148581776E-01 -0.6781403661046E+00  0.0000000000000E+00
-0.3121281618571E-01 -0.6122816531806E+00  0.0000000000000E+00
-0.3125253088920E-01 -0.5464207692254E+00  0.0000000000000E+00
-0.3128210963481E-01 -0.4805587090888E+00  0.0000000000000E+00
 0.5155270009526E-08 -0.1665716835338E+01  0.0000000000000E+00
 0.4584959176113E-08 -0.1599847121274E+01  0.0000000000000E+00
 0.4018463728957E-08 -0.1533978583394E+01  0.0000000000000E+00
 0.3459266843676E-08 -0.1468112216549E+01  0.0000000000000E+00
 0.2912509056810E-08 -0.1402249270580E+01  0.0000000000000E+00
 0.2385636992076E-08 -0.1336391552204E+01  0.0000000000000E+00
 0.1889014992709E-08 -0.1270540781768E+01  0.0000000000000E+00
 0.1435985985768E-08 -0.1204698501615E+01  0.0000000000000E+00
 0.1041351324883E-08 -0.1138864371533E+01  0.0000000000000E+00
 0.7174784089279E-09 -0.1073035516338E+01  0.0000000000000E+00
 0.4692479852428E-09 -0.1007206661143E+01  0.0000000000000E+00
 0.2916178775732E-09 -0.9413725310599E+00  0.0000000000000E+00
 0.1721481202976E-09 -0.8755302509073E+00  0.0000000000000E+00
 0.9605798026668E-10 -0.8096794804718E+00  0.0000000000000E+00
 0.5007317610023E-10 -0.7438217620953E+00  0.0000000000000E+00
 0.2389664789049E-10 -0.6779588161260E+00  0.0000000000000E+00
 0.1013572289531E-10 -0.6120924492818E+00  0.0000000000000E+00
 0.3684762219914E-11 -0.5462239114012E+00  0.0000000000000E+00
 0.1082633505902E-11 -0.4803541973369E+00  0.0000000000000E+00
 0.2983464968201E-01 -0.1665783576500E+01  0.0000000000000E+00
 0.2986422785471E-01 -0.1599921516362E+01  0.0000000000000E+00
 0.2990394198526E-01 -0.1534060632404E+01  0.0000000000000E+00
 0.2995527178026E-01 -0.1468201919478E+01  0.0000000000000E+00
 0.3001980531922E-01 -0.1402346627432E+01  0.0000000000000E+00
 0.3009904398801E-01 -0.1336496562970E+01  0.0000000000000E+00
 0.3019397762265E-01 -0.1270653446458E+01  0.0000000000000E+00
 0.3030433211240E-01 -0.1204818820222E+01  0.0000000000000E+00
 0.3042759046408E-01 -0.1138992344063E+01  0.0000000000000E+00
 0.3055837779879E-01 -0.1073171142794E+01  0.0000000000000E+00
 0.3068916520914E-01 -0.1007349941524E+01  0.0000000000000E+00
 0.3081242377782E-01 -0.9415234653661E+00  0.0000000000000E+00
 0.3092277860113E-01 -0.8756888391304E+00  0.0000000000000E+00
 0.3101771265631E-01 -0.8098457226190E+00  0.0000000000000E+00
 0.3109695180599E-01 -0.7439956581577E+00  0.0000000000000E+00
 0.3116148586553E-01 -0.6781403661116E+00  0.0000000000000E+00
 0.3121281620596E-01 -0.6122816531859E+00  0.0000000000000E+00
 0.3125253089656E-01 -0.5464207692289E+00  0.0000000000000E+00
 0.3128210963697E-01 -0.4805587090906E+00  0.0000000000000E+00
 0.5966856276630E-01 -0.1665983788628E+01  0.0000000000000E+00
 0.5972745555662E-01 -0.1600144682660E+01  0.0000000000000E+00
 0.5980662025903E-01 -0.1534306752866E+01  0.0000000000000E+00
 0.5990901628335E-01 -0.1468470994089E+01  0.0000000000000E+00
 0.6003781978316E-01 -0.1402638656205E+01  0.0000000000000E+00
 0.6019603352318E-01 -0.1336811545881E+01  0.0000000000000E+00
 0.6038563716454E-01 -0.1270991383534E+01  0.0000000000000E+00
 0.6060608247295E-01 -0.1205179711442E+01  0.0000000000000E+00
 0.6085233544670E-01 -0.1139376189450E+01  0.0000000000000E+00
 0.6111364631580E-01 -0.1073577942351E+01  0.0000000000000E+00
 0.6137495726055E-01 -0.1007779695252E+01  0.0000000000000E+00
 0.6162121045131E-01 -0.9419761732611E+00  0.0000000000000E+00
 0.6184165609327E-01 -0.8761645011696E+00  0.0000000000000E+00
 0.6203126015517E-01 -0.8103443388238E+00  0.0000000000000E+00
 0.6218947437608E-01 -0.7445172285014E+00  0.0000000000000E+00
 0.6231827839647E-01 -0.6786848906179E+00  0.0000000000000E+00
 0.6242067496623E-01 -0.6128491318409E+00  0.0000000000000E+00
 0.6249984022868E-01 -0.5470112020477E+00  0.0000000000000E+00
 0.6255873358672E-01 -0.4811720960803E+00  0.0000000000000E+00
 0.8950101084839E-01 -0.1666317437781E+01  0.0000000000000E+00
 0.8958869088479E-01 -0.1600516563438E+01  0.0000000000000E+00
 0.8970677878753E-01 -0.1534716865257E+01  0.0000000000000E+00
 0.8985971366985E-01 -0.1468919338067E+01  0.0000000000000E+00
 0.9005225975868E-01 -0.1403125231793E+01  0.0000000000000E+00
 0.9028892119845E-01 -0.1337336353041E+01  0.0000000000000E+00
 0.9057266747424E-01 -0.1271554422310E+01  0.0000000000000E+00
 0.9090267622929E-01 -0.1205780981797E+01  0.0000000000000E+00
 0.9127139645241E-01 -0.1140015691424E+01  0.0000000000000E+00
 0.9166270348301E-01 -0.1074255675949E+01  0.0000000000000E+00
 0.9205401058927E-01 -0.1008495660475E+01  0.0000000000000E+00
 0.9242273102939E-01 -0.9427303701028E+00  0.0000000000000E+00
 0.9275274011800E-01 -0.8769569295918E+00  0.0000000000000E+00
 0.9303648681432E-01 -0.8111749988621E+00  0.0000000000000E+00
 0.9327314873499E-01 -0.7453861201111E+00  0.0000000000000E+00
 0.9346569534440E-01 -0.6795920138386E+00  0.0000000000000E+00
 0.9361863077215E-01 -0.6137944866494E+00  0.0000000000000E+00
 0.9373671923494E-01 -0.5479947884691E+00  0.0000000000000E+00
 0.9382439983905E-01 -0.4821939141266E+00  0.0000000000000E+00
 0.1193312636781E+00 -0.1666784467507E+01  0.0000000000000E+00
 0.1194469416106E+00 -0.1601037064363E+01  0.0000000000000E+00
 0.1196031633639E+00 -0.1535290837365E+01  0.0000000000000E+00
 0.1198058477548E+00 -0.1469546781322E+01  0.0000000000000E+00
 0.1200613470828E+00 -0.1403806146227E+01  0.0000000000000E+00
 0.1203756668731E+00 -0.1338070738599E+01  0.0000000000000E+00
 0.1207527664332E+00 -0.1272342279054E+01  0.0000000000000E+00
 0.1211915492853E+00 -0.1206622309678E+01  0.0000000000000E+00
 0.1216819474073E+00 -0.1140910490496E+01  0.0000000000000E+00
 0.1222024612488E+00 -0.1075203946219E+01  0.0000000000000E+00
 0.1227229751660E+00 -0.1009497401943E+01  0.0000000000000E+00
 0.1232133735050E+00 -0.9437855827625E+00  0.0000000000000E+00
 0.1236521566907E+00 -0.8780656133886E+00  0.0000000000000E+00
 0.1240292566713E+00 -0.8123371538457E+00  0.0000000000000E+00
 0.1243435769425E+00 -0.7466017462192E+00  0.0000000000000E+00
 0.1245990767911E+00 -0.6808611111264E+00  0.0000000000000E+00
 0.1248017617275E+00 -0.6151170550845E+00  0.0000000000000E+00
 0.1249579840408E+00 -0.5493708280868E+00  0.0000000000000E+00
 0.1250736625410E+00 -0.4836234249434E+00  0.0000000000000E+00
 0.1491586010070E+00 -0.1667384799156E+01  0.0000000000000E+00
 0.1493012271308E+00 -0.1601706053965E+01  0.0000000000000E+00
 0.1494945330316E+00 -0.1536028484898E+01  0.0000000000000E+00
 0.1497459172305E+00 -0.1470353086742E+01  0.0000000000000E+00
 0.1500633200979E+00 -0.1404681109575E+01  0.0000000000000E+00
 0.1504542485424E+00 -0.1339014359804E+01  0.0000000000000E+00
 0.1509236516910E+00 -0.1273354558196E+01  0.0000000000000E+00
 0.1514701589477E+00 -0.1207703246693E+01  0.0000000000000E+00
 0.1520811852768E+00 -0.1142060085454E+01  0.0000000000000E+00
 0.1527298562383E+00 -0.1076422199130E+01  0.0000000000000E+00
 0.1533785272754E+00 -0.1010784312807E+01  0.0000000000000E+00
 0.1539895538216E+00 -0.9451411515694E+00  0.0000000000000E+00
 0.1545360614118E+00 -0.8794898400693E+00  0.0000000000000E+00
 0.1550054649810E+00 -0.8138300384639E+00  0.0000000000000E+00
 0.1553963939063E+00 -0.7481632886949E+00  0.0000000000000E+00
 0.1557137972944E+00 -0.6824913115305E+00  0.0000000000000E+00
 0.1559651820386E+00 -0.6168159133754E+00  0.0000000000000E+00
 0.1561584884995E+00 -0.5511383443096E+00  0.0000000000000E+00
 0.1563011151911E+00 -0.4854595991195E+00  0.0000000000000E+00
 0.1789822802759E+00 -0.1668118331470E+01  0.0000000000000E+00
 0.1791505485831E+00 -0.1602523363477E+01  0.0000000000000E+00
 0.1793796326223E+00 -0.1536929571581E+01  0.0000000000000E+00
 0.1796784106189E+00 -0.1471337950540E+01  0.0000000000000E+00
 0.1800564110131E+00 -0.1405749750540E+01  0.0000000000000E+00
 0.1805226420978E+00 -0.1340166777849E+01  0.0000000000000E+00
 0.1810830428174E+00 -0.1274590753418E+01  0.0000000000000E+00
 0.1817359684599E+00 -0.1209023219015E+01  0.0000000000000E+00
 0.1824663169740E+00 -0.1143463834961E+01  0.0000000000000E+00
 0.1832418390321E+00 -0.1077909725833E+01  0.0000000000000E+00
 0.1840173611658E+00 -0.1012355616707E+01  0.0000000000000E+00
 0.1847477098969E+00 -0.9467962326544E+00  0.0000000000000E+00
 0.1854006358730E+00 -0.8812286982545E+00  0.0000000000000E+00
 0.1859610370131E+00 -0.8156526738272E+00  0.0000000000000E+00
 0.1864272685787E+00 -0.7500697011386E+00  0.0000000000000E+00
 0.1868052694934E+00 -0.6844815011410E+00  0.0000000000000E+00
 0.1871040480356E+00 -0.6188898801021E+00  0.0000000000000E+00
 0.1873331326348E+00 -0.5532960882075E+00  0.0000000000000E+00
 0.1875014015097E+00 -0.4877011202147E+00  0.0000000000000E+00
 0.2088016021235E+00 -0.1668984942169E+01  0.0000000000000E+00
 0.2089939515364E+00 -0.1603488788624E+01  0.0000000000000E+00
 0.2092572526392E+00 -0.1537993811146E+01  0.0000000000000E+00
 0.2096018633630E+00 -0.1472501004457E+01  0.0000000000000E+00
 0.2100389002153E+00 -0.1407011618869E+01  0.0000000000000E+00
 0.2105788728772E+00 -0.1341527460488E+01  0.0000000000000E+00
 0.2112287101067E+00 -0.1276050250483E+01  0.0000000000000E+00
 0.2119864930791E+00 -0.1210581530413E+01  0.0000000000000E+00
 0.2128346027241E+00 -0.1145120960792E+01  0.0000000000000E+00
 0.2137354148261E+00 -0.1079665666113E+01  0.0000000000000E+00
 0.2146362270037E+00 -0.1014210371434E+01  0.0000000000000E+00
 0.2154843368657E+00 -0.9487498018155E+00  0.0000000000000E+00
 0.2162421201716E+00 -0.8832810817495E+00  0.0000000000000E+00
 0.2168919578216E+00 -0.8178038717479E+00  0.0000000000000E+00
 0.2174319309644E+00 -0.7523197133698E+00  0.0000000000000E+00
 0.2178689683374E+00 -0.6868303277847E+00  0.0000000000000E+00
 0.2182135796066E+00 -0.6213375210985E+00  0.0000000000000E+00
 0.2184768812695E+00 -0.5558425436214E+00  0.0000000000000E+00
 0.2186692312501E+00 -0.4903463900771E+00  0.0000000000000E+00
 0.2386158335404E+00 -0.1669984486568E+01  0.0000000000000E+00
 0.2388304532896E+00 -0.1604602088601E+01  0.0000000000000E+00
 0.2391261606856E+00 -0.1539220866665E+01  0.0000000000000E+00
 0.2395147933649E+00 -0.1473841815444E+01  0.0000000000000E+00
 0.2400090559004E+00 -0.1408466185393E+01  0.0000000000000E+00
 0.2406209593635E+00 -0.1343095782431E+01  0.0000000000000E+00
 0.2413584223218E+00 -0.1277732327977E+01  0.0000000000000E+00
 0.2422192518420E+00 -0.1212377363354E+01  0.0000000000000E+00
 0.2431833118313E+00 -0.1147030549294E+01  0.0000000000000E+00
 0.2442076031893E+00 -0.1081689010192E+01  0.0000000000000E+00
 0.2452318946228E+00 -0.1016347471091E+01  0.0000000000000E+00
 0.2461959548292E+00 -0.9510006570345E+00  0.0000000000000E+00
 0.2470567846829E+00 -0.8856456924151E+00  0.0000000000000E+00
 0.2477942480618E+00 -0.8202822379657E+00  0.0000000000000E+00
 0.2484061520058E+00 -0.7549118350073E+00  0.0000000000000E+00
 0.2489004150619E+00 -0.6895362049592E+00  0.0000000000000E+00
 0.2492890482866E+00 -0.6241571537411E+00  0.0000000000000E+00
 0.2495847562426E+00 -0.5587759318069E+00  0.0000000000000E+00
 0.2497993765596E+00 -0.4933935338409E+00  0.0000000000000E+00
 0.2684242694147E+00 -0.1671116799478E+01  0.0000000000000E+00
 0.2686591031430E+00 -0.1605862988404E+01  0.0000000000000E+00
 0.2689851604755E+00 -0.1540610353321E+01  0.0000000000000E+00
 0.2694157587553E+00 -0.1475359888869E+01  0.0000000000000E+00
 0.2699651906179E+00 -0.1410112845663E+01  0.0000000000000E+00
 0.2706469685284E+00 -0.1344871029414E+01  0.0000000000000E+00
 0.2714700008599E+00 -0.1279636161824E+01  0.0000000000000E+00
 0.2724318205741E+00 -0.1214409783944E+01  0.0000000000000E+00
 0.2735097745524E+00 -0.1149191556758E+01  0.0000000000000E+00
 0.2746554888105E+00 -0.1083978604548E+01  0.0000000000000E+00
 0.2758012031444E+00 -0.1018765652339E+01  0.0000000000000E+00
 0.2768791573396E+00 -0.9535474251570E+00  0.0000000000000E+00
 0.2778409773874E+00 -0.8883210472817E+00  0.0000000000000E+00
 0.2786640101394E+00 -0.8230861796958E+00  0.0000000000000E+00
 0.2793457885309E+00 -0.7578443634509E+00  0.0000000000000E+00
 0.2798952209140E+00 -0.6925973202491E+00  0.0000000000000E+00
 0.2803258197392E+00 -0.6273468557994E+00  0.0000000000000E+00
 0.2806518776318E+00 -0.5620942207181E+00  0.0000000000000E+00
 0.2808867119278E+00 -0.4968404096451E+00  0.0000000000000E+00
 0.2982262162405E+00 -0.1672381695408E+01  0.0000000000000E+00
 0.2984789668060E+00 -0.1607271179427E+01  0.0000000000000E+00
 0.2988330769373E+00 -0.1542161839391E+01  0.0000000000000E+00
 0.2993033436852E+00 -0.1477054669892E+01  0.0000000000000E+00
 0.2999056477456E+00 -0.1411950921727E+01  0.0000000000000E+00
 0.3006550029816E+00 -0.1346852400370E+01  0.0000000000000E+00
 0.3015613075666E+00 -0.1281760827839E+01  0.0000000000000E+00
 0.3026218203629E+00 -0.1216677744886E+01  0.0000000000000E+00
 0.3038113712198E+00 -0.1151602812772E+01  0.0000000000000E+00
 0.3050762112702E+00 -0.1086533155653E+01  0.0000000000000E+00
 0.3063410513962E+00 -0.1021463498536E+01  0.0000000000000E+00
 0.3075306024701E+00 -0.9563885664261E+00  0.0000000000000E+00
 0.3085911155999E+00 -0.8913054834775E+00  0.0000000000000E+00
 0.3094974206055E+00 -0.8262139109515E+00  0.0000000000000E+00
 0.3102467763224E+00 -0.7611153895993E+00  0.0000000000000E+00
 0.3108490809033E+00 -0.6960116414382E+00  0.0000000000000E+00
 0.3113193481967E+00 -0.6309044719423E+00  0.0000000000000E+00
 0.3116734588881E+00 -0.5657951319091E+00  0.0000000000000E+00
 0.3119262100213E+00 -0.5006846159287E+00  0.0000000000000E+00
 0.3280209425970E+00 -0.1673778966920E+01  0.0000000000000E+00
 0.3282890794610E+00 -0.1608826318313E+01  0.0000000000000E+00
 0.3286687118504E+00 -0.1543874845604E+01  0.0000000000000E+00
 0.3291761165241E+00 -0.1478925543327E+01  0.0000000000000E+00
 0.3298287622345E+00 -0.1413979662479E+01  0.0000000000000E+00
 0.3306431642467E+00 -0.1349039008277E+01  0.0000000000000E+00
 0.3316302105286E+00 -0.1284105303084E+01  0.0000000000000E+00
 0.3327868858481E+00 -0.1219180087322E+01  0.0000000000000E+00
 0.3340855030187E+00 -0.1154263022560E+01  0.0000000000000E+00
 0.3354669382939E+00 -0.1089351232816E+01  0.0000000000000E+00
 0.3368483736447E+00 -0.1024439443074E+01  0.0000000000000E+00
 0.3381469910323E+00 -0.9595223783156E+00  0.0000000000000E+00
 0.3393036666853E+00 -0.8945971625594E+00  0.0000000000000E+00
 0.3402907133878E+00 -0.8296634573724E+00  0.0000000000000E+00
 0.3411051158809E+00 -0.7647228031751E+00  0.0000000000000E+00
 0.3417577621119E+00 -0.6997769223317E+00  0.0000000000000E+00
 0.3422651673310E+00 -0.6348276200581E+00  0.0000000000000E+00
 0.3426448002805E+00 -0.5698761473508E+00  0.0000000000000E+00
 0.3429129377122E+00 -0.5049234987456E+00  0.0000000000000E+00
 0.3578077951490E+00 -0.1675308389770E+01  0.0000000000000E+00
 0.3580885561653E+00 -0.1610528032351E+01  0.0000000000000E+00
 0.3584909486692E+00 -0.1545748850774E+01  0.0000000000000E+00
 0.3590327291289E+00 -0.1480971839517E+01  0.0000000000000E+00
 0.3597329543503E+00 -0.1416198249793E+01  0.0000000000000E+00
 0.3606096410050E+00 -0.1351429886536E+01  0.0000000000000E+00
 0.3616746668497E+00 -0.1286668472490E+01  0.0000000000000E+00
 0.3629247425635E+00 -0.1221915547716E+01  0.0000000000000E+00
 0.3643296639184E+00 -0.1157170774115E+01  0.0000000000000E+00
 0.3658249322898E+00 -0.1092431275557E+01  0.0000000000000E+00
 0.3673202007369E+00 -0.1027691777001E+01  0.0000000000000E+00
 0.3687251223088E+00 -0.9629470034044E+00  0.0000000000000E+00
 0.3699751983561E+00 -0.8981940786356E+00  0.0000000000000E+00
 0.3710402246213E+00 -0.8334326645960E+00  0.0000000000000E+00
 0.3719169117570E+00 -0.7686643013451E+00  0.0000000000000E+00
 0.3726171374990E+00 -0.7038907116260E+00  0.0000000000000E+00
 0.3731589185041E+00 -0.6391137003723E+00  0.0000000000000E+00
 0.3735613115680E+00 -0.5743345187982E+00  0.0000000000000E+00
 0.3738420731521E+00 -0.5095541613797E+00  0.0000000000000E+00
 0.3875860607136E+00 -0.1676969718067E+01  0.0000000000000E+00
 0.3878764645286E+00 -0.1612375915917E+01  0.0000000000000E+00
 0.3882986357959E+00 -0.1547783289551E+01  0.0000000000000E+00
 0.3888718106944E+00 -0.1483192833383E+01  0.0000000000000E+00
 0.3896166340798E+00 -0.1418605798860E+01  0.0000000000000E+00
 0.3905526240356E+00 -0.1354023990612E+01  0.0000000000000E+00
 0.3916926481006E+00 -0.1289449131793E+01  0.0000000000000E+00
 0.3930331428715E+00 -0.1224882762071E+01  0.0000000000000E+00
 0.3945413870725E+00 -0.1160324543713E+01  0.0000000000000E+00
 0.3961475072028E+00 -0.1095771600424E+01  0.0000000000000E+00
 0.3977536274088E+00 -0.1031218657136E+01  0.0000000000000E+00
 0.3992618718269E+00 -0.9666604387825E+00  0.0000000000000E+00
 0.4006023669313E+00 -0.9020940690673E+00  0.0000000000000E+00
 0.4017423914168E+00 -0.8375192102545E+00  0.0000000000000E+00
 0.4026783818535E+00 -0.7729374020130E+00  0.0000000000000E+00
 0.4034232057596E+00 -0.7083503674957E+00  0.0000000000000E+00
 0.4039963812035E+00 -0.6437599113309E+00  0.0000000000000E+00
 0.4044185530308E+00 -0.5791672849682E+00  0.0000000000000E+00
 0.4047089574136E+00 -0.5145734828194E+00  0.0000000000000E+00
 0.4173550733497E+00 -0.1678762688782E+01  0.0000000000000E+00
 0.4176519204570E+00 -0.1614369534370E+01  0.0000000000000E+00
 0.4180906709789E+00 -0.1549977555680E+01  0.0000000000000E+00
 0.4186920408057E+00 -0.1485587747055E+01  0.0000000000000E+00
 0.4194782628384E+00 -0.1421201360198E+01  0.0000000000000E+00
 0.4204703565771E+00 -0.1356820199408E+01  0.0000000000000E+00
 0.4216821793354E+00 -0.1292445988280E+01  0.0000000000000E+00
 0.4231098936343E+00 -0.1228080266064E+01  0.0000000000000E+00
 0.4247182611449E+00 -0.1163722695415E+01  0.0000000000000E+00
 0.4264320334947E+00 -0.1099370399863E+01  0.0000000000000E+00
 0.4281458059202E+00 -0.1035018104312E+01  0.0000000000000E+00
 0.4297541736479E+00 -0.9706605336683E+00  0.0000000000000E+00
 0.4311818882803E+00 -0.9062948114591E+00  0.0000000000000E+00
 0.4323937114591E+00 -0.8419206003386E+00  0.0000000000000E+00
 0.4333858056787E+00 -0.7775394395554E+00  0.0000000000000E+00
 0.4341720282321E+00 -0.7131530527035E+00  0.0000000000000E+00
 0.4347733986043E+00 -0.6487632440825E+00  0.0000000000000E+00
 0.4352121496862E+00 -0.5843712653956E+00  0.0000000000000E+00
 0.4355089973612E+00 -0.5199781109850E+00  0.0000000000000E+00
 0.4471141841628E+00 -0.1680687022310E+01  0.0000000000000E+00
 0.4474140681449E+00 -0.1616508426641E+01  0.0000000000000E+00
 0.4478659915118E+00 -0.1552331006628E+01  0.0000000000000E+00
 0.4484921498675E+00 -0.1488155756537E+01  0.0000000000000E+00
 0.4493163641549E+00 -0.1423983928345E+01  0.0000000000000E+00
 0.4503611552972E+00 -0.1359817325998E+01  0.0000000000000E+00
 0.4516413703761E+00 -0.1295657673564E+01  0.0000000000000E+00
 0.4531528978439E+00 -0.1231506509842E+01  0.0000000000000E+00
 0.4548579823102E+00 -0.1167363497905E+01  0.0000000000000E+00
 0.4566760005302E+00 -0.1103225761095E+01  0.0000000000000E+00
 0.4584940188258E+00 -0.1039088024287E+01  0.0000000000000E+00
 0.4601991035092E+00 -0.9749450123550E+00  0.0000000000000E+00
 0.4617106313106E+00 -0.9107938486407E+00  0.0000000000000E+00
 0.4629908468100E+00 -0.8466341962143E+00  0.0000000000000E+00
 0.4640356384332E+00 -0.7824675938748E+00  0.0000000000000E+00
 0.4648598532412E+00 -0.7182957656882E+00  0.0000000000000E+00
 0.4654860121423E+00 -0.6541205156026E+00  0.0000000000000E+00
 0.4659379360693E+00 -0.5899430955919E+00  0.0000000000000E+00
 0.4662378206191E+00 -0.5257644999245E+00  0.0000000000000E+00
 0.4768626808375E+00 -0.1682742416794E+01  0.0000000000000E+00
 0.4771619935814E+00 -0.1618792098491E+01  0.0000000000000E+00
 0.4776234816665E+00 -0.1554842955773E+01  0.0000000000000E+00
 0.4782708204089E+00 -0.1490895982827E+01  0.0000000000000E+00
 0.4791294187871E+00 -0.1426952431917E+01  0.0000000000000E+00
 0.4802232991507E+00 -0.1363014106618E+01  0.0000000000000E+00
 0.4815682983403E+00 -0.1299082731497E+01  0.0000000000000E+00
 0.4831600307474E+00 -0.1235159844877E+01  0.0000000000000E+00
 0.4849582239168E+00 -0.1171245110272E+01  0.0000000000000E+00
 0.4868768797426E+00 -0.1107335650828E+01  0.0000000000000E+00
 0.4887955356439E+00 -0.1043426191385E+01  0.0000000000000E+00
 0.4905937290304E+00 -0.9795114567866E+00  0.0000000000000E+00
 0.4921854617710E+00 -0.9155885701742E+00  0.0000000000000E+00
 0.4935304613811E+00 -0.8516571950617E+00  0.0000000000000E+00
 0.4946243422257E+00 -0.7877188697700E+00  0.0000000000000E+00
 0.4954829411245E+00 -0.7237753188667E+00  0.0000000000000E+00
 0.4961302804124E+00 -0.6598283459261E+00  0.0000000000000E+00
 0.4965917690575E+00 -0.5958792032105E+00  0.0000000000000E+00
 0.4968910823691E+00 -0.5319288849093E+00  0.0000000000000E+00
 0.5065999773523E+00 -0.1684928562411E+01  0.0000000000000E+00
 0.5068949207371E+00 -0.1621220040089E+01  0.0000000000000E+00
 0.5073621754349E+00 -0.1557512693277E+01  0.0000000000000E+00
 0.5080268964777E+00 -0.1493807516079E+01  0.0000000000000E+00
 0.5089160808768E+00 -0.1430105761064E+01  0.0000000000000E+00
 0.5100552524167E+00 -0.1366409231408E+01  0.0000000000000E+00
 0.5114612376898E+00 -0.1302719652214E+01  0.0000000000000E+00
 0.5131293770345E+00 -0.1239038561295E+01  0.0000000000000E+00
 0.5150168809198E+00 -0.1175365622638E+01  0.0000000000000E+00
 0.5170323763743E+00 -0.1111697959174E+01  0.0000000000000E+00
 0.5190478719044E+00 -0.1048030295713E+01  0.0000000000000E+00
 0.5209353760067E+00 -0.9843573570614E+00  0.0000000000000E+00
 0.5226035156849E+00 -0.9206762661513E+00  0.0000000000000E+00
 0.5240095013785E+00 -0.8569866869656E+00  0.0000000000000E+00
 0.5251486733994E+00 -0.7932901573186E+00  0.0000000000000E+00
 0.5260378583190E+00 -0.7295884023095E+00  0.0000000000000E+00
 0.5267025799074E+00 -0.6658832251168E+00  0.0000000000000E+00
 0.5271698351652E+00 -0.6021758783080E+00  0.0000000000000E+00
 0.5274647791177E+00 -0.5384673559889E+00  0.0000000000000E+00
 0.5363253937430E+00 -0.1687245126228E+01  0.0000000000000E+00
 0.5366119860150E+00 -0.1623791708789E+01  0.0000000000000E+00
 0.5370810255763E+00 -0.1560339466780E+01  0.0000000000000E+00
 0.5377591471768E+00 -0.1496889394217E+01  0.0000000000000E+00
 0.5386749358556E+00 -0.1433442743990E+01  0.0000000000000E+00
 0.5398554168395E+00 -0.1370001318861E+01  0.0000000000000E+00
 0.5413184064642E+00 -0.1306566844490E+01  0.0000000000000E+00
 0.5430589710231E+00 -0.1243140858158E+01  0.0000000000000E+00
 0.5450318039010E+00 -0.1179723024346E+01  0.0000000000000E+00
 0.5471401572628E+00 -0.1116310465763E+01  0.0000000000000E+00
 0.5492485107003E+00 -0.1052897907183E+01  0.0000000000000E+00
 0.5512213437952E+00 -0.9894800733776E+00  0.0000000000000E+00
 0.5529619086877E+00 -0.9260540870546E+00  0.0000000000000E+00
 0.5544248987329E+00 -0.8626196126929E+00  0.0000000000000E+00
 0.5556053801978E+00 -0.7991781875723E+00  0.0000000000000E+00
 0.5565211693972E+00 -0.7357315373529E+00  0.0000000000000E+00
 0.5571992915431E+00 -0.6722814647954E+00  0.0000000000000E+00
 0.5576683316644E+00 -0.6088292227895E+00  0.0000000000000E+00
 0.5579549245041E+00 -0.5453758053527E+00  0.0000000000000E+00
 0.5660383036526E+00 -0.1689691762168E+01  0.0000000000000E+00
 0.5663123811983E+00 -0.1626506539575E+01  0.0000000000000E+00
 0.5667790419974E+00 -0.1563322492327E+01  0.0000000000000E+00
 0.5674664005168E+00 -0.1500140614350E+01  0.0000000000000E+00
 0.5684046298164E+00 -0.1436962158871E+01  0.0000000000000E+00
 0.5696222565698E+00 -0.1373788928213E+01  0.0000000000000E+00
 0.5711380868456E+00 -0.1310622648626E+01  0.0000000000000E+00
 0.5729469129013E+00 -0.1247464856829E+01  0.0000000000000E+00
 0.5750009110328E+00 -0.1184315217823E+01  0.0000000000000E+00
 0.5771979585521E+00 -0.1121170854085E+01  0.0000000000000E+00
 0.5793950061471E+00 -0.1058026490350E+01  0.0000000000000E+00
 0.5814490044956E+00 -0.9948768513511E+00  0.0000000000000E+00
 0.5832578308849E+00 -0.9317190595634E+00  0.0000000000000E+00
 0.5847736615812E+00 -0.8685527799859E+00  0.0000000000000E+00
 0.5859912888156E+00 -0.8053795493368E+00  0.0000000000000E+00
 0.5869295186357E+00 -0.7422010938657E+00  0.0000000000000E+00
 0.5876168777006E+00 -0.6790192158940E+00  0.0000000000000E+00
 0.5880835390597E+00 -0.6158351686501E+00  0.0000000000000E+00
 0.5883576171732E+00 -0.5526499460589E+00  0.0000000000000E+00
-0.1182610616184E+01 -0.1709938151910E+01  0.0000000000000E+00
-0.1206840600949E+01 -0.1599271303952E+01  0.0000000000000E+00
-0.1234987980858E+01 -0.1489562273115E+01  0.0000000000000E+00
-0.1268147886288E+01 -0.1381306365269E+01  0.0000000000000E+00
-0.1307801009883E+01 -0.1275324724782E+01  0.0000000000000E+00
-0.1353020462603E+01 -0.1171637126831E+01  0.0000000000000E+00
-0.1397268459649E+01 -0.1067515066351E+01  0.0000000000000E+00
-0.1437122473078E+01 -0.9615813592161E+00  0.0000000000000E+00
-0.1472550192246E+01 -0.8540374650362E+00  0.0000000000000E+00
-0.1503921191345E+01 -0.7452053677059E+00  0.0000000000000E+00
-0.1531272791497E+01 -0.6352674555980E+00  0.0000000000000E+00
-0.1554282707568E+01 -0.5243175831196E+00  0.0000000000000E+00
-0.1572939532414E+01 -0.4125357734460E+00  0.0000000000000E+00
-0.1586992041029E+01 -0.3000702231276E+00  0.0000000000000E+00
-0.1595657715404E+01 -0.1870553481994E+00  0.0000000000000E+00
-0.1598364296081E+01 -0.7373369945448E-01  0.0000000000000E+00
-0.1596500729268E+01  0.3959193470411E-01  0.0000000000000E+00
-0.1576465557885E+01  0.1508144777421E+00  0.0000000000000E+00
-0.1525097607493E+01  0.2508838507572E+00  0.0000000000000E+00
-0.1151849224518E+01 -0.1708018429854E+01  0.0000000000000E+00
-0.1174810817950E+01 -0.1599917521458E+01  0.0000000000000E+00
-0.1201494297363E+01 -0.1492724079797E+01  0.0000000000000E+00
-0.1232938712419E+01 -0.1386907393241E+01  0.0000000000000E+00
-0.1270548496269E+01 -0.1283245453469E+01  0.0000000000000E+00
-0.1313447122937E+01 -0.1181757097507E+01  0.0000000000000E+00
-0.1355441944237E+01 -0.1079857510625E+01  0.0000000000000E+00
-0.1393290276807E+01 -0.9762420726324E+00  0.0000000000000E+00
-0.1426958860821E+01 -0.8711016241228E+00  0.0000000000000E+00
-0.1456792161492E+01 -0.7647410505408E+00  0.0000000000000E+00
-0.1482817610549E+01 -0.6573328628486E+00  0.0000000000000E+00
-0.1504721960076E+01 -0.5489656979899E+00  0.0000000000000E+00
-0.1522488745507E+01 -0.4398099530286E+00  0.0000000000000E+00
-0.1535877314757E+01 -0.3300060065687E+00  0.0000000000000E+00
-0.1544146046571E+01 -0.2196812801132E+00  0.0000000000000E+00
-0.1546753842042E+01 -0.1090656515018E+00  0.0000000000000E+00
-0.1545018125930E+01  0.1553936656996E-02  0.0000000000000E+00
-0.1526054989336E+01  0.1101813215066E+00  0.0000000000000E+00
-0.1477397507004E+01  0.2082426775406E+00  0.0000000000000E+00
-0.1121071481666E+01 -0.1706207396943E+01  0.0000000000000E+00
-0.1142765544784E+01 -0.1600666705050E+01  0.0000000000000E+00
-0.1167985984722E+01 -0.1495983129601E+01  0.0000000000000E+00
-0.1197715770410E+01 -0.1392599941581E+01  0.0000000000000E+00
-0.1233283075506E+01 -0.1291251980047E+01  0.0000000000000E+00
-0.1273861737223E+01 -0.1191957143015E+01  0.0000000000000E+00
-0.1313604243862E+01 -0.1092274306747E+01  0.0000000000000E+00
-0.1349447756621E+01 -0.9909714150146E+00  0.0000000000000E+00
-0.1381358066526E+01 -0.8882286892072E+00  0.0000000000000E+00
-0.1409654529800E+01 -0.7843339163719E+00  0.0000000000000E+00
-0.1434354688775E+01 -0.6794497301018E+00  0.0000000000000E+00
-0.1455154332752E+01 -0.5736595498896E+00  0.0000000000000E+00
-0.1472031939748E+01 -0.4671241466607E+00  0.0000000000000E+00
-0.1484757430585E+01 -0.3599760811308E+00  0.0000000000000E+00
-0.1492630080751E+01 -0.2523357803654E+00  0.0000000000000E+00
-0.1495139951914E+01 -0.1444204490327E+00  0.0000000000000E+00
-0.1493532947327E+01 -0.3650118443096E-01  0.0000000000000E+00
-0.1475642704875E+01  0.6953675537040E-01  0.0000000000000E+00
-0.1429696548673E+01  0.1655957997913E+00  0.0000000000000E+00
-0.1090277778680E+01 -0.1704505302474E+01  0.0000000000000E+00
-0.1110705151904E+01 -0.1601519090901E+01  0.0000000000000E+00
-0.1134463392784E+01 -0.1499339645572E+01  0.0000000000000E+00
-0.1162479389508E+01 -0.1398384220211E+01  0.0000000000000E+00
-0.1196005056235E+01 -0.1299344501311E+01  0.0000000000000E+00
-0.1234264593488E+01 -0.1202237447020E+01  0.0000000000000E+00
-0.1271755625938E+01 -0.1104765625254E+01  0.0000000000000E+00
-0.1305595159327E+01 -0.1005769543773E+01  0.0000000000000E+00
-0.1335748035559E+01 -0.9054188045732E+00  0.0000000000000E+00
-0.1362508501866E+01 -0.8039840963573E+00  0.0000000000000E+00
-0.1385884211173E+01 -0.7016181753908E+00  0.0000000000000E+00
-0.1405579989997E+01 -0.5983992437282E+00  0.0000000000000E+00
-0.1421569258942E+01 -0.4944784461285E+00  0.0000000000000E+00
-0.1433632511731E+01 -0.3899805254777E+00  0.0000000000000E+00
-0.1441109920573E+01 -0.2850189144976E+00  0.0000000000000E+00
-0.1443522707747E+01 -0.1797981444669E+00  0.0000000000000E+00
-0.1442045254927E+01 -0.7457346785855E-01  0.0000000000000E+00
-0.1425228745440E+01  0.2888075313570E-01  0.0000000000000E+00
-0.1381994752957E+01  0.1229432044031E+00  0.0000000000000E+00
-0.1059468488513E+01 -0.1702912387231E+01  0.0000000000000E+00
-0.1078629992469E+01 -0.1602474907163E+01  0.0000000000000E+00
-0.1100926854868E+01 -0.1502793843219E+01  0.0000000000000E+00
-0.1127229883123E+01 -0.1404260431974E+01  0.0000000000000E+00
-0.1158714731872E+01 -0.1307523207410E+01  0.0000000000000E+00
-0.1194655965084E+01 -0.1212598186943E+01  0.0000000000000E+00
-0.1229896343770E+01 -0.1117331630845E+01  0.0000000000000E+00
-0.1261732718247E+01 -0.1020636610909E+01  0.0000000000000E+00
-0.1290128981326E+01 -0.9226721095494E+00  0.0000000000000E+00
-0.1315354271230E+01 -0.8236917171689E+00  0.0000000000000E+00
-0.1337406351476E+01 -0.7238383127460E+00  0.0000000000000E+00
-0.1355999085795E+01 -0.6231848809079E+00  0.0000000000000E+00
-0.1371100837377E+01 -0.5218729402175E+00  0.0000000000000E+00
-0.1382502672845E+01 -0.4200194157871E+00  0.0000000000000E+00
-0.1389585661121E+01 -0.3177307460877E+00  0.0000000000000E+00
-0.1391902185134E+01 -0.2151987887865E+00  0.0000000000000E+00
-0.1390555104895E+01 -0.1126629520127E+00  0.0000000000000E+00
-0.1374813148038E+01 -0.1178671098245E-01  0.0000000000000E+00
-0.1334292138156E+01  0.8028487832643E-01  0.0000000000000E+00
-0.1028644031902E+01 -0.1701428892511E+01  0.0000000000000E+00
-0.1046540465220E+01 -0.1603534382381E+01  0.0000000000000E+00
-0.1067376747767E+01 -0.1506345938346E+01  0.0000000000000E+00
-0.1091967606169E+01 -0.1410228779957E+01  0.0000000000000E+00
-0.1121412435542E+01 -0.1315788288743E+01  0.0000000000000E+00
-0.1155036163413E+01 -0.1223039540529E+01  0.0000000000000E+00
-0.1188026687019E+01 -0.1129972488601E+01  0.0000000000000E+00
-0.1217860701239E+01 -0.1035572768820E+01  0.0000000000000E+00
-0.1244501149814E+01 -0.9399887438216E+00  0.0000000000000E+00
-0.1268192061956E+01 -0.8434569057652E+00  0.0000000000000E+00
-0.1288921311765E+01 -0.7461102563833E+00  0.0000000000000E+00
-0.1306411800184E+01 -0.6480165628883E+00  0.0000000000000E+00
-0.1320626833000E+01 -0.5493077176197E+00  0.0000000000000E+00
-0.1331368049718E+01 -0.4500928279743E+00  0.0000000000000E+00
-0.1338057415963E+01 -0.3504713382674E+00  0.0000000000000E+00
-0.1340278475341E+01 -0.2506224323349E+00  0.0000000000000E+00
-0.1339062566136E+01 -0.1507696744498E+00  0.0000000000000E+00
-0.1324395959008E+01 -0.5246566180157E-01  0.0000000000000E+00
-0.1286588727643E+01  0.3762080931293E-01  0.0000000000000E+00
-0.9978048091164E+00 -0.1700055050454E+01  0.0000000000000E+00
-0.1014436949344E+01 -0.1604697736472E+01  0.0000000000000E+00
-0.1033813429585E+01 -0.1509996138651E+01  0.0000000000000E+00
-0.1056692895666E+01 -0.1416289459633E+01  0.0000000000000E+00
-0.1084098483174E+01 -0.1324139928563E+01  0.0000000000000E+00
-0.1115405483312E+01 -0.1233561678802E+01  0.0000000000000E+00
-0.1146146929431E+01 -0.1142688357325E+01  0.0000000000000E+00
-0.1173979360959E+01 -0.1050578164083E+01  0.0000000000000E+00
-0.1198864772593E+01 -0.9573688417442E+00  0.0000000000000E+00
-0.1221022084529E+01 -0.8632797842780E+00  0.0000000000000E+00
-0.1240429281443E+01 -0.7684341162128E+00  0.0000000000000E+00
-0.1256818301491E+01 -0.6728943873585E+00  0.0000000000000E+00
-0.1270147393055E+01 -0.5767828638030E+00  0.0000000000000E+00
-0.1280228768520E+01 -0.4802008352871E+00  0.0000000000000E+00
-0.1286525290197E+01 -0.3832407520642E+00  0.0000000000000E+00
-0.1288651662395E+01 -0.2860691239199E+00  0.0000000000000E+00
-0.1287567701612E+01 -0.1888936717586E+00  0.0000000000000E+00
-0.1273977220288E+01 -0.9315612371048E-01  0.0000000000000E+00
-0.1238884542376E+01 -0.5049014836915E-02  0.0000000000000E+00
-0.9669512233292E+00 -0.1698791087330E+01  0.0000000000000E+00
-0.9823198267800E+00 -0.1605965183794E+01  0.0000000000000E+00
-0.1000237261024E+01 -0.1513744646577E+01  0.0000000000000E+00
-0.1021406091078E+01 -0.1422442661535E+01  0.0000000000000E+00
-0.1046773192995E+01 -0.1332578305487E+01  0.0000000000000E+00
-0.1075764221763E+01 -0.1244164768467E+01  0.0000000000000E+00
-0.1104257346747E+01 -0.1155479391803E+01  0.0000000000000E+00
-0.1130088951907E+01 -0.1065652939568E+01  0.0000000000000E+00
-0.1153220082925E+01 -0.9748125342746E+00  0.0000000000000E+00
-0.1173844550973E+01 -0.8831604717515E+00  0.0000000000000E+00
-0.1191930451300E+01 -0.7908099993657E+00  0.0000000000000E+00
-0.1207218759270E+01 -0.6978184495369E+00  0.0000000000000E+00
-0.1219662665868E+01 -0.6042984620743E+00  0.0000000000000E+00
-0.1229084956349E+01 -0.5103435091204E+00  0.0000000000000E+00
-0.1234989389694E+01 -0.4160390469624E+00  0.0000000000000E+00
-0.1237021830944E+01 -0.3215389111147E+00  0.0000000000000E+00
-0.1236070574753E+01 -0.2270349796020E+00  0.0000000000000E+00
-0.1223556974129E+01 -0.1338581204802E+00  0.0000000000000E+00
-0.1191179603475E+01 -0.4772460601326E-01  0.0000000000000E+00
-0.9360836724979E+00 -0.1697637222502E+01  0.0000000000000E+00
-0.9501894744693E+00 -0.1607336932178E+01  0.0000000000000E+00
-0.9666485979921E+00 -0.1517591658418E+01  0.0000000000000E+00
-0.9861075272542E+00 -0.1428688570411E+01  0.0000000000000E+00
-0.1009436878761E+01 -0.1341103592706E+01  0.0000000000000E+00
-0.1036112671401E+01 -0.1254848971143E+01  0.0000000000000E+00
-0.1062358210486E+01 -0.1168345742088E+01  0.0000000000000E+00
-0.1086189724515E+01 -0.1080797233774E+01  0.0000000000000E+00
-0.1107567310176E+01 -0.9923199483614E+00  0.0000000000000E+00
-0.1126659669612E+01 -0.9030990835921E+00  0.0000000000000E+00
-0.1143425008638E+01 -0.8132380097123E+00  0.0000000000000E+00
-0.1157613339827E+01 -0.7227888417635E+00  0.0000000000000E+00
-0.1169172796767E+01 -0.6318545932468E+00  0.0000000000000E+00
-0.1177936737578E+01 -0.5405209187650E+00  0.0000000000000E+00
-0.1183449817901E+01 -0.4488662807332E+00  0.0000000000000E+00
-0.1185389063541E+01 -0.3570318401726E+00  0.0000000000000E+00
-0.1184571247236E+01 -0.2651936327164E+00  0.0000000000000E+00
-0.1173135261469E+01 -0.1745716753379E+00  0.0000000000000E+00
-0.1143473931327E+01 -0.9040597589074E-01  0.0000000000000E+00
-0.9052025656608E+00 -0.1696593670407E+01  0.0000000000000E+00
-0.9180462799102E+00 -0.1608813184770E+01  0.0000000000000E+00
-0.9330478064465E+00 -0.1521537366029E+01  0.0000000000000E+00
-0.9507975486092E+00 -0.1435027366826E+01  0.0000000000000E+00
-0.9720898633460E+00 -0.1349715959497E+01  0.0000000000000E+00
-0.9964511335561E+00 -0.1265614444814E+01  0.0000000000000E+00
-0.1020449800433E+01 -0.1181287554874E+01  0.0000000000000E+00
-0.1042281937024E+01 -0.1096011182100E+01  0.0000000000000E+00
-0.1061906691047E+01 -0.1009891208114E+01  0.0000000000000E+00
-0.1079467655605E+01 -0.9230957326186E+00  0.0000000000000E+00
-0.1094913147077E+01 -0.8357182487808E+00  0.0000000000000E+00
-0.1108002215241E+01 -0.7478056542760E+00  0.0000000000000E+00
-0.1118677936293E+01 -0.6594513362685E+00  0.0000000000000E+00
-0.1126784241210E+01 -0.5707331318790E+00  0.0000000000000E+00
-0.1131906682287E+01 -0.4817225097452E+00  0.0000000000000E+00
-0.1133753446117E+01 -0.3925479561725E+00  0.0000000000000E+00
-0.1133069783463E+01 -0.3033696648919E+00  0.0000000000000E+00
-0.1122712125213E+01 -0.2152968108032E+00  0.0000000000000E+00
-0.1095767547380E+01 -0.1330931357309E+00  0.0000000000000E+00
-0.8743083235843E+00 -0.1695660640404E+01  0.0000000000000E+00
-0.8858906417741E+00 -0.1610394139888E+01  0.0000000000000E+00
-0.8994352629835E+00 -0.1525581956693E+01  0.0000000000000E+00
-0.9154765096915E+00 -0.1441459227032E+01  0.0000000000000E+00
-0.9347324792844E+00 -0.1358415571095E+01  0.0000000000000E+00
-0.9567799187723E+00 -0.1276461343713E+01  0.0000000000000E+00
-0.9785324051374E+00 -0.1194304973383E+01  0.0000000000000E+00
-0.9983658559628E+00 -0.1111294916756E+01  0.0000000000000E+00
-0.1016238470020E+01 -0.1027526434715E+01  0.0000000000000E+00
-0.1032268731369E+01 -0.9431505289813E+00  0.0000000000000E+00
-0.1046395066944E+01 -0.8582508156835E+00  0.0000000000000E+00
-0.1058385563728E+01 -0.7728689751435E+00  0.0000000000000E+00
-0.1068178240529E+01 -0.6870887681605E+00  0.0000000000000E+00
-0.1075627601174E+01 -0.6009802144323E+00  0.0000000000000E+00
-0.1080360094597E+01 -0.5146077889146E+00  0.0000000000000E+00
-0.1082115068208E+01 -0.4280873029753E+00  0.0000000000000E+00
-0.1081566250735E+01 -0.3415631089346E+00  0.0000000000000E+00
-0.1072287610372E+01 -0.2560335486556E+00  0.0000000000000E+00
-0.1048060474216E+01 -0.1757860963612E+00  0.0000000000000E+00
-0.8434013602891E+00 -0.1694838334539E+01  0.0000000000000E+00
-0.8537229522776E+00 -0.1612079988939E+01  0.0000000000000E+00
-0.8658113380143E+00 -0.1529725611177E+01  0.0000000000000E+00
-0.8801447591061E+00 -0.1447984321162E+01  0.0000000000000E+00
-0.8973650533733E+00 -0.1367202586994E+01  0.0000000000000E+00
-0.9170993320358E+00 -0.1287389816692E+01  0.0000000000000E+00
-0.9366063077746E+00 -0.1207398135830E+01  0.0000000000000E+00
-0.9544417426990E+00 -0.1126648565315E+01  0.0000000000000E+00
-0.9705628866563E+00 -0.1045225745102E+01  0.0000000000000E+00
-0.9850631146560E+00 -0.9632635789787E+00  0.0000000000000E+00
-0.9978709641868E+00 -0.8808358060813E+00  0.0000000000000E+00
-0.1008763559434E+01 -0.7979788893896E+00  0.0000000000000E+00
-0.1017673861820E+01 -0.7147669633096E+00  0.0000000000000E+00
-0.1024466948015E+01 -0.6312622301750E+00  0.0000000000000E+00
-0.1028810163580E+01 -0.5475221713554E+00  0.0000000000000E+00
-0.1030474016764E+01 -0.4636499230587E+00  0.0000000000000E+00
-0.1030060714210E+01 -0.3797739966868E+00  0.0000000000000E+00
-0.1021861760353E+01 -0.2967819101190E+00  0.0000000000000E+00
-0.1000352733534E+01 -0.2184848683968E+00  0.0000000000000E+00
-0.8124820923393E+00 -0.1694126948634E+01  0.0000000000000E+00
-0.8215436060466E+00 -0.1613870917436E+01  0.0000000000000E+00
-0.8321764042262E+00 -0.1533968504685E+01  0.0000000000000E+00
-0.8448026476007E+00 -0.1454602814107E+01  0.0000000000000E+00
-0.8599879144201E+00 -0.1376077161776E+01  0.0000000000000E+00
-0.8774096802096E+00 -0.1298400008021E+01  0.0000000000000E+00
-0.8946717932639E+00 -0.1220567176174E+01  0.0000000000000E+00
-0.9105098602098E+00 -0.1142072251424E+01  0.0000000000000E+00
-0.9248801819917E+00 -0.1062989252608E+01  0.0000000000000E+00
-0.9378510245649E+00 -0.9834349856361E+00  0.0000000000000E+00
-0.9493410359662E+00 -0.9034733126893E+00  0.0000000000000E+00
-0.9591363775820E+00 -0.8231354794195E+00  0.0000000000000E+00
-0.9671649534541E+00 -0.7424859938115E+00  0.0000000000000E+00
-0.9733024130866E+00 -0.6615792408938E+00  0.0000000000000E+00
-0.9772569986568E+00 -0.5804657085455E+00  0.0000000000000E+00
-0.9788303792791E+00 -0.4992358575917E+00  0.0000000000000E+00
-0.9785532394554E+00 -0.4180023590096E+00  0.0000000000000E+00
-0.9714346188367E+00 -0.3375419157624E+00  0.0000000000000E+00
-0.9526443471667E+00 -0.2611894621254E+00  0.0000000000000E+00
-0.7815509360540E+00 -0.1693526671952E+01  0.0000000000000E+00
-0.7893529974569E+00 -0.1615767104683E+01  0.0000000000000E+00
-0.7985308340446E+00 -0.1538310806561E+01  0.0000000000000E+00
-0.8094505256421E+00 -0.1461314865248E+01  0.0000000000000E+00
-0.8226013909215E+00 -0.1385039444855E+01  0.0000000000000E+00
-0.8377112698082E+00 -0.1309492057141E+01  0.0000000000000E+00
-0.8527291461403E+00 -0.1233812223881E+01  0.0000000000000E+00
-0.8665704710604E+00 -0.1157566094584E+01  0.0000000000000E+00
-0.8791905966306E+00 -0.1080817066771E+01  0.0000000000000E+00
-0.8906326797461E+00 -0.1003664848526E+01  0.0000000000000E+00
-0.9008054789872E+00 -0.9261634251201E+00  0.0000000000000E+00
-0.9095041929406E+00 -0.8483388248877E+00  0.0000000000000E+00
-0.9166516682694E+00 -0.7702459293638E+00  0.0000000000000E+00
-0.9221341273071E+00 -0.6919313063309E+00  0.0000000000000E+00
-0.9257007088365E+00 -0.6134384502728E+00  0.0000000000000E+00
-0.9271842428608E+00 -0.5348451464090E+00  0.0000000000000E+00
-0.9270438916883E+00 -0.4562482257846E+00  0.0000000000000E+00
-0.9210062292211E+00 -0.3783135855268E+00  0.0000000000000E+00
-0.9049353367833E+00 -0.3038998875393E+00  0.0000000000000E+00
-0.7506083067926E+00 -0.1693037687126E+01  0.0000000000000E+00
-0.7571515199521E+00 -0.1617768723708E+01  0.0000000000000E+00
-0.7648749989831E+00 -0.1542752680226E+01  0.0000000000000E+00
-0.7740887427956E+00 -0.1468120628396E+01  0.0000000000000E+00
-0.7852058104717E+00 -0.1394089580419E+01  0.0000000000000E+00
-0.7980044064311E+00 -0.1320666098610E+01  0.0000000000000E+00
-0.8107786500141E+00 -0.1247133403882E+01  0.0000000000000E+00
-0.8226238368907E+00 -0.1173130210103E+01  0.0000000000000E+00
-0.8334943702607E+00 -0.1098709293284E+01  0.0000000000000E+00
-0.8434082979516E+00 -0.1023953263733E+01  0.0000000000000E+00
-0.8522644890822E+00 -0.9489062298512E+00  0.0000000000000E+00
-0.8598671794387E+00 -0.8735890026696E+00  0.0000000000000E+00
-0.8661341583082E+00 -0.7980468372435E+00  0.0000000000000E+00
-0.8709622208482E+00 -0.7223184841673E+00  0.0000000000000E+00
-0.8741414024410E+00 -0.6464404446253E+00  0.0000000000000E+00
-0.8755356940038E+00 -0.5704778280057E+00  0.0000000000000E+00
-0.8755327355947E+00 -0.4945116259155E+00  0.0000000000000E+00
-0.8705766344891E+00 -0.4190969387318E+00  0.0000000000000E+00
-0.8572257238154E+00 -0.3466161543434E+00  0.0000000000000E+00
-0.7196546383067E+00 -0.1692660171955E+01  0.0000000000000E+00
-0.7249395845113E+00 -0.1619875942931E+01  0.0000000000000E+00
-0.7312092872703E+00 -0.1547294284722E+01  0.0000000000000E+00
-0.7387176645684E+00 -0.1475020253223E+01  0.0000000000000E+00
-0.7478015158933E+00 -0.1403227708788E+01  0.0000000000000E+00
-0.7582894102453E+00 -0.1331922263408E+01  0.0000000000000E+00
-0.7688206023893E+00 -0.1260530837814E+01  0.0000000000000E+00
-0.7786702325147E+00 -0.1188764710264E+01  0.0000000000000E+00
-0.7877917549782E+00 -0.1116666035064E+01  0.0000000000000E+00
-0.7961781085352E+00 -0.1044300324802E+01  0.0000000000000E+00
-0.8037182728390E+00 -0.9717018110512E+00  0.0000000000000E+00
-0.8102255208740E+00 -0.8988860875506E+00  0.0000000000000E+00
-0.8156125845540E+00 -0.8258887828474E+00  0.0000000000000E+00
-0.8197868318547E+00 -0.7527408304077E+00  0.0000000000000E+00
-0.8225791947468E+00 -0.6794717382122E+00  0.0000000000000E+00
-0.8238848250832E+00 -0.6061339395944E+00  0.0000000000000E+00
-0.8240198406246E+00 -0.5327925872182E+00  0.0000000000000E+00
-0.8201458810983E+00 -0.4598919938240E+00  0.0000000000000E+00
-0.8095155315770E+00 -0.3893382716925E+00  0.0000000000000E+00
-0.6886903565093E+00 -0.1692394296717E+01  0.0000000000000E+00
-0.6927175946182E+00 -0.1622088923663E+01  0.0000000000000E+00
-0.6975340799601E+00 -0.1551935772397E+01  0.0000000000000E+00
-0.7033376495840E+00 -0.1482013883113E+01  0.0000000000000E+00
-0.7103888433793E+00 -0.1412453964381E+01  0.0000000000000E+00
-0.7185665950094E+00 -0.1343260676984E+01  0.0000000000000E+00
-0.7268552945909E+00 -0.1274004642159E+01  0.0000000000000E+00
-0.7347099268254E+00 -0.1204469702582E+01  0.0000000000000E+00
-0.7420829972449E+00 -0.1134687390663E+01  0.0000000000000E+00
-0.7489423355285E+00 -0.1064706121319E+01  0.0000000000000E+00
-0.7551670318599E+00 -0.9945502493410E+00  0.0000000000000E+00
-0.7605793964204E+00 -0.9242301511863E+00  0.0000000000000E+00
-0.7650871037535E+00 -0.8537718288664E+00  0.0000000000000E+00
-0.7686080946470E+00 -0.7831983987784E+00  0.0000000000000E+00
-0.7710141976503E+00 -0.7125323757957E+00  0.0000000000000E+00
-0.7722317255725E+00 -0.6418135169728E+00  0.0000000000000E+00
-0.7725052738312E+00 -0.5710911365270E+00  0.0000000000000E+00
-0.7697140137222E+00 -0.5006987686882E+00  0.0000000000000E+00
-0.7618047823999E+00 -0.4320662485312E+00  0.0000000000000E+00
-0.6577158894649E+00 -0.1692240225162E+01  0.0000000000000E+00
-0.6604859557950E+00 -0.1624407821033E+01  0.0000000000000E+00
-0.6638497600319E+00 -0.1556677289756E+01  0.0000000000000E+00
-0.6679490582789E+00 -0.1489101655950E+01  0.0000000000000E+00
-0.6729681308228E+00 -0.1421768476460E+01  0.0000000000000E+00
-0.6788362760697E+00 -0.1354681459979E+01  0.0000000000000E+00
-0.6848830194189E+00 -0.1287554928934E+01  0.0000000000000E+00
-0.6907431900779E+00 -0.1220245290453E+01  0.0000000000000E+00
-0.6963683447720E+00 -0.1152773454854E+01  0.0000000000000E+00
-0.7017012040992E+00 -0.1085170739436E+01  0.0000000000000E+00
-0.7066109687703E+00 -0.1017451622250E+01  0.0000000000000E+00
-0.7109289861621E+00 -0.9496212624844E+00  0.0000000000000E+00
-0.7145578734505E+00 -0.8816960355872E+00  0.0000000000000E+00
-0.7174261442299E+00 -0.8136912409452E+00  0.0000000000000E+00
-0.7194465236187E+00 -0.7456224004210E+00  0.0000000000000E+00
-0.7205764854021E+00 -0.6775165945656E+00  0.0000000000000E+00
-0.7209891026108E+00 -0.6094072996466E+00  0.0000000000000E+00
-0.7192810772636E+00 -0.5415172805228E+00  0.0000000000000E+00
-0.7140934987308E+00 -0.4748000934607E+00  0.0000000000000E+00
-0.6267316673077E+00 -0.1692198114453E+01  0.0000000000000E+00
-0.6282450755248E+00 -0.1626832783928E+01  0.0000000000000E+00
-0.6301567123173E+00 -0.1561518977415E+01  0.0000000000000E+00
-0.6325522528331E+00 -0.1496283704073E+01  0.0000000000000E+00
-0.6355397177521E+00 -0.1431171369089E+01  0.0000000000000E+00
-0.6390987702994E+00 -0.1366184728180E+01  0.0000000000000E+00
-0.6429040710920E+00 -0.1301181805651E+01  0.0000000000000E+00
-0.6467702938377E+00 -0.1236091573113E+01  0.0000000000000E+00
-0.6506480464722E+00 -0.1170924318597E+01  0.0000000000000E+00
-0.6544549405083E+00 -0.1105694261838E+01  0.0000000000000E+00
-0.6580502871802E+00 -0.1040406004188E+01  0.0000000000000E+00
-0.6612744710591E+00 -0.9750594875815E+00  0.0000000000000E+00
-0.6640250519556E+00 -0.9096614608717E+00  0.0000000000000E+00
-0.6662411162656E+00 -0.8442194064959E+00  0.0000000000000E+00
-0.6678762856675E+00 -0.7787418534021E+00  0.0000000000000E+00
-0.6689191949418E+00 -0.7132432054128E+00  0.0000000000000E+00
-0.6694713946900E+00 -0.6477411013437E+00  0.0000000000000E+00
-0.6688471168461E+00 -0.5823475458340E+00  0.0000000000000E+00
-0.6663817031269E+00 -0.5175398147359E+00  0.0000000000000E+00
 0.6267316770671E+00 -0.1692198115309E+01  0.0000000000000E+00
 0.6282450842043E+00 -0.1626832784735E+01  0.0000000000000E+00
 0.6301567199257E+00 -0.1561518978170E+01  0.0000000000000E+00
 0.6325522593862E+00 -0.1496283704774E+01  0.0000000000000E+00
 0.6355397232755E+00 -0.1431171369731E+01  0.0000000000000E+00
 0.6390987748289E+00 -0.1366184728759E+01  0.0000000000000E+00
 0.6429040746811E+00 -0.1301181806162E+01  0.0000000000000E+00
 0.6467702965677E+00 -0.1236091573554E+01  0.0000000000000E+00
 0.6506480484535E+00 -0.1170924318967E+01  0.0000000000000E+00
 0.6544549418750E+00 -0.1105694262141E+01  0.0000000000000E+00
 0.6580502880753E+00 -0.1040406004428E+01  0.0000000000000E+00
 0.6612744716160E+00 -0.9750594877654E+00  0.0000000000000E+00
 0.6640250522846E+00 -0.9096614610038E+00  0.0000000000000E+00
 0.6662411164480E+00 -0.8442194065791E+00  0.0000000000000E+00
 0.6678762857589E+00 -0.7787418534389E+00  0.0000000000000E+00
 0.6689191949800E+00 -0.7132432054044E+00  0.0000000000000E+00
 0.6694713946944E+00 -0.6477411012908E+00  0.0000000000000E+00
 0.6688471167994E+00 -0.5823475457445E+00  0.0000000000000E+00
 0.6663817030200E+00 -0.5175398146315E+00  0.0000000000000E+00
 0.6577158987074E+00 -0.1692240226002E+01  0.0000000000000E+00
 0.6604859640163E+00 -0.1624407821814E+01  0.0000000000000E+00
 0.6638497672423E+00 -0.1556677290478E+01  0.0000000000000E+00
 0.6679490644955E+00 -0.1489101656609E+01  0.0000000000000E+00
 0.6729681360715E+00 -0.1421768477054E+01  0.0000000000000E+00
 0.6788362803826E+00 -0.1354681460503E+01  0.0000000000000E+00
 0.6848830228425E+00 -0.1287554929381E+01  0.0000000000000E+00
 0.6907431926874E+00 -0.1220245290822E+01  0.0000000000000E+00
 0.6963683466717E+00 -0.1152773455142E+01  0.0000000000000E+00
 0.7017012054155E+00 -0.1085170739648E+01  0.0000000000000E+00
 0.7066109696382E+00 -0.1017451622390E+01  0.0000000000000E+00
 0.7109289867072E+00 -0.9496212625587E+00  0.0000000000000E+00
 0.7145578737767E+00 -0.8816960355999E+00  0.0000000000000E+00
 0.7174261444133E+00 -0.8136912408991E+00  0.0000000000000E+00
 0.7194465237104E+00 -0.7456224003186E+00  0.0000000000000E+00
 0.7205764854380E+00 -0.6775165944084E+00  0.0000000000000E+00
 0.7209891026047E+00 -0.6094072994359E+00  0.0000000000000E+00
 0.7192810771664E+00 -0.5415172802740E+00  0.0000000000000E+00
 0.7140934985165E+00 -0.4748000932170E+00  0.0000000000000E+00
 0.6886903652351E+00 -0.1692394297536E+01  0.0000000000000E+00
 0.6927176023816E+00 -0.1622088924415E+01  0.0000000000000E+00
 0.6975340867727E+00 -0.1551935773080E+01  0.0000000000000E+00
 0.7033376554643E+00 -0.1482013883727E+01  0.0000000000000E+00
 0.7103888483534E+00 -0.1412453964924E+01  0.0000000000000E+00
 0.7185665991058E+00 -0.1343260677450E+01  0.0000000000000E+00
 0.7268552978490E+00 -0.1274004642540E+01  0.0000000000000E+00
 0.7347099293146E+00 -0.1204469702875E+01  0.0000000000000E+00
 0.7420829990631E+00 -0.1134687390868E+01  0.0000000000000E+00
 0.7489423367946E+00 -0.1064706121439E+01  0.0000000000000E+00
 0.7551670327006E+00 -0.9945502493794E+00  0.0000000000000E+00
 0.7605793969537E+00 -0.9242301511490E+00  0.0000000000000E+00
 0.7650871040769E+00 -0.8537718287581E+00  0.0000000000000E+00
 0.7686080948315E+00 -0.7831983986016E+00  0.0000000000000E+00
 0.7710141977424E+00 -0.7125323755530E+00  0.0000000000000E+00
 0.7722317256061E+00 -0.6418135166660E+00  0.0000000000000E+00
 0.7725052738146E+00 -0.5710911361576E+00  0.0000000000000E+00
 0.7697140135745E+00 -0.5006987682796E+00  0.0000000000000E+00
 0.7618047820783E+00 -0.4320662481480E+00  0.0000000000000E+00
 0.7196546465161E+00 -0.1692660172748E+01  0.0000000000000E+00
 0.7249395918170E+00 -0.1619875943648E+01  0.0000000000000E+00
 0.7312092936854E+00 -0.1547294285363E+01  0.0000000000000E+00
 0.7387176701125E+00 -0.1475020253788E+01  0.0000000000000E+00
 0.7478015205931E+00 -0.1403227709276E+01  0.0000000000000E+00
 0.7582894141255E+00 -0.1331922263812E+01  0.0000000000000E+00
 0.7688206054822E+00 -0.1260530838125E+01  0.0000000000000E+00
 0.7786702348837E+00 -0.1188764710478E+01  0.0000000000000E+00
 0.7877917567151E+00 -0.1116666035182E+01  0.0000000000000E+00
 0.7961781097513E+00 -0.1044300324826E+01  0.0000000000000E+00
 0.8037182736528E+00 -0.9717018109855E+00  0.0000000000000E+00
 0.8102255213957E+00 -0.8988860874001E+00  0.0000000000000E+00
 0.8156125848748E+00 -0.8258887826165E+00  0.0000000000000E+00
 0.8197868320404E+00 -0.7527408300988E+00  0.0000000000000E+00
 0.8225791948393E+00 -0.6794717378281E+00  0.0000000000000E+00
 0.8238848251146E+00 -0.6061339391370E+00  0.0000000000000E+00
 0.8240198405976E+00 -0.5327925866896E+00  0.0000000000000E+00
 0.8201458809002E+00 -0.4598919932551E+00  0.0000000000000E+00
 0.8095155311481E+00 -0.3893382711694E+00  0.0000000000000E+00
 0.7506083144858E+00 -0.1693037687890E+01  0.0000000000000E+00
 0.7571515268004E+00 -0.1617768724388E+01  0.0000000000000E+00
 0.7648750050008E+00 -0.1542752680822E+01  0.0000000000000E+00
 0.7740887480037E+00 -0.1468120628908E+01  0.0000000000000E+00
 0.7852058148974E+00 -0.1394089580847E+01  0.0000000000000E+00
 0.7980044100952E+00 -0.1320666098949E+01  0.0000000000000E+00
 0.8107786529419E+00 -0.1247133404121E+01  0.0000000000000E+00
 0.8226238391398E+00 -0.1173130210237E+01  0.0000000000000E+00
 0.8334943719163E+00 -0.1098709293313E+01  0.0000000000000E+00
 0.8434082991177E+00 -0.1023953263659E+01  0.0000000000000E+00
 0.8522644898690E+00 -0.9489062296793E+00  0.0000000000000E+00
 0.8598671799488E+00 -0.8735890024040E+00  0.0000000000000E+00
 0.8661341586265E+00 -0.7980468368884E+00  0.0000000000000E+00
 0.8709622210352E+00 -0.7223184837249E+00  0.0000000000000E+00
 0.8741414025340E+00 -0.6464404440986E+00  0.0000000000000E+00
 0.8755356940330E+00 -0.5704778273969E+00  0.0000000000000E+00
 0.8755327355573E+00 -0.4945116252270E+00  0.0000000000000E+00
 0.8705766342406E+00 -0.4190969380022E+00  0.0000000000000E+00
 0.8572257232791E+00 -0.3466161536803E+00  0.0000000000000E+00
 0.7815509432313E+00 -0.1693526672682E+01  0.0000000000000E+00
 0.7893530038481E+00 -0.1615767105320E+01  0.0000000000000E+00
 0.7985308396653E+00 -0.1538310807107E+01  0.0000000000000E+00
 0.8094505305145E+00 -0.1461314865704E+01  0.0000000000000E+00
 0.8226013950733E+00 -0.1385039445222E+01  0.0000000000000E+00
 0.8377112732565E+00 -0.1309492057412E+01  0.0000000000000E+00
 0.8527291489033E+00 -0.1233812224044E+01  0.0000000000000E+00
 0.8665704731897E+00 -0.1157566094634E+01  0.0000000000000E+00
 0.8791905982052E+00 -0.1080817066708E+01  0.0000000000000E+00
 0.8906326808624E+00 -0.1003664848353E+01  0.0000000000000E+00
 0.9008054797473E+00 -0.9261634248400E+00  0.0000000000000E+00
 0.9095041934393E+00 -0.8483388245051E+00  0.0000000000000E+00
 0.9166516685853E+00 -0.7702459288830E+00  0.0000000000000E+00
 0.9221341274954E+00 -0.6919313057536E+00  0.0000000000000E+00
 0.9257007089301E+00 -0.6134384496025E+00  0.0000000000000E+00
 0.9271842428878E+00 -0.5348451456479E+00  0.0000000000000E+00
 0.9270438916406E+00 -0.4562482249355E+00  0.0000000000000E+00
 0.9210062289222E+00 -0.3783135846360E+00  0.0000000000000E+00
 0.9049353361397E+00 -0.3038998867360E+00  0.0000000000000E+00
 0.8124820990011E+00 -0.1694126949326E+01  0.0000000000000E+00
 0.8215436119809E+00 -0.1613870918028E+01  0.0000000000000E+00
 0.8321764094502E+00 -0.1533968505178E+01  0.0000000000000E+00
 0.8448026521377E+00 -0.1454602814503E+01  0.0000000000000E+00
 0.8599879182983E+00 -0.1376077162078E+01  0.0000000000000E+00
 0.8774096834423E+00 -0.1298400008221E+01  0.0000000000000E+00
 0.8946717958622E+00 -0.1220567176258E+01  0.0000000000000E+00
 0.9105098622195E+00 -0.1142072251388E+01  0.0000000000000E+00
 0.9248801834856E+00 -0.1062989252451E+01  0.0000000000000E+00
 0.9378510256317E+00 -0.9834349853607E+00  0.0000000000000E+00
 0.9493410366997E+00 -0.9034733122990E+00  0.0000000000000E+00
 0.9591363780693E+00 -0.8231354789182E+00  0.0000000000000E+00
 0.9671649537677E+00 -0.7424859932034E+00  0.0000000000000E+00
 0.9733024132764E+00 -0.6615792401804E+00  0.0000000000000E+00
 0.9772569987510E+00 -0.5804657077303E+00  0.0000000000000E+00
 0.9788303793041E+00 -0.4992358566774E+00  0.0000000000000E+00
 0.9785532393974E+00 -0.4180023579992E+00  0.0000000000000E+00
 0.9714346184875E+00 -0.3375419147100E+00  0.0000000000000E+00
 0.9526443464158E+00 -0.2611894611816E+00  0.0000000000000E+00
 0.8434013664357E+00 -0.1694838335189E+01  0.0000000000000E+00
 0.8537229577554E+00 -0.1612079989481E+01  0.0000000000000E+00
 0.8658113428418E+00 -0.1529725611613E+01  0.0000000000000E+00
 0.8801447633080E+00 -0.1447984321494E+01  0.0000000000000E+00
 0.8973650569782E+00 -0.1367202587227E+01  0.0000000000000E+00
 0.9170993350532E+00 -0.1287389816818E+01  0.0000000000000E+00
 0.9366063102086E+00 -0.1207398135833E+01  0.0000000000000E+00
 0.9544417445893E+00 -0.1126648565190E+01  0.0000000000000E+00
 0.9705628880695E+00 -0.1045225744848E+01  0.0000000000000E+00
 0.9850631156734E+00 -0.9632635785991E+00  0.0000000000000E+00
 0.9978709648940E+00 -0.8808358055787E+00  0.0000000000000E+00
 0.1008763559910E+01 -0.7979788887677E+00  0.0000000000000E+00
 0.1017673862132E+01 -0.7147669625726E+00  0.0000000000000E+00
 0.1024466948207E+01 -0.6312622293241E+00  0.0000000000000E+00
 0.1028810163675E+01 -0.5475221703943E+00  0.0000000000000E+00
 0.1030474016787E+01 -0.4636499219902E+00  0.0000000000000E+00
 0.1030060714142E+01 -0.3797739955145E+00  0.0000000000000E+00
 0.1021861759954E+01 -0.2967819089046E+00  0.0000000000000E+00
 0.1000352732676E+01 -0.2184848673123E+00  0.0000000000000E+00
 0.8743083292160E+00 -0.1695660641007E+01  0.0000000000000E+00
 0.8858906467958E+00 -0.1610394140375E+01  0.0000000000000E+00
 0.8994352674149E+00 -0.1525581957067E+01  0.0000000000000E+00
 0.9154765135586E+00 -0.1441459227297E+01  0.0000000000000E+00
 0.9347324826162E+00 -0.1358415571256E+01  0.0000000000000E+00
 0.9567799215746E+00 -0.1276461343761E+01  0.0000000000000E+00
 0.9785324074072E+00 -0.1194304973301E+01  0.0000000000000E+00
 0.9983658577340E+00 -0.1111294916539E+01  0.0000000000000E+00
 0.1016238471353E+01 -0.1027526434362E+01  0.0000000000000E+00
 0.1032268732337E+01 -0.9431505284951E+00  0.0000000000000E+00
 0.1046395067625E+01 -0.8582508150666E+00  0.0000000000000E+00
 0.1058385564193E+01 -0.7728689743992E+00  0.0000000000000E+00
 0.1068178240839E+01 -0.6870887672930E+00  0.0000000000000E+00
 0.1075627601367E+01 -0.6009802134425E+00  0.0000000000000E+00
 0.1080360094693E+01 -0.5146077878065E+00  0.0000000000000E+00
 0.1082115068229E+01 -0.4280873017517E+00  0.0000000000000E+00
 0.1081566250656E+01 -0.3415631075997E+00  0.0000000000000E+00
 0.1072287609923E+01 -0.2560335472787E+00  0.0000000000000E+00
 0.1048060473251E+01 -0.1757860951357E+00  0.0000000000000E+00
 0.9052025707781E+00 -0.1696593670959E+01  0.0000000000000E+00
 0.9180462844761E+00 -0.1608813185199E+01  0.0000000000000E+00
 0.9330478104822E+00 -0.1521537366339E+01  0.0000000000000E+00
 0.9507975521418E+00 -0.1435027367020E+01  0.0000000000000E+00
 0.9720898664051E+00 -0.1349715959582E+01  0.0000000000000E+00
 0.9964511361435E+00 -0.1265614444782E+01  0.0000000000000E+00
 0.1020449802539E+01 -0.1181287554705E+01  0.0000000000000E+00
 0.1042281938676E+01 -0.1096011181789E+01  0.0000000000000E+00
 0.1061906692299E+01 -0.1009891207660E+01  0.0000000000000E+00
 0.1079467656524E+01 -0.9230957320237E+00  0.0000000000000E+00
 0.1094913147732E+01 -0.8357182480476E+00  0.0000000000000E+00
 0.1108002215695E+01 -0.7478056534076E+00  0.0000000000000E+00
 0.1118677936601E+01 -0.6594513352690E+00  0.0000000000000E+00
 0.1126784241405E+01 -0.5707331307489E+00  0.0000000000000E+00
 0.1131906682383E+01 -0.4817225084889E+00  0.0000000000000E+00
 0.1133753446136E+01 -0.3925479547930E+00  0.0000000000000E+00
 0.1133069783374E+01 -0.3033696633937E+00  0.0000000000000E+00
 0.1122712124713E+01 -0.2152968092632E+00  0.0000000000000E+00
 0.1095767546307E+01 -0.1330931343643E+00  0.0000000000000E+00
 0.9360836771012E+00 -0.1697637222998E+01  0.0000000000000E+00
 0.9501894785799E+00 -0.1607336932545E+01  0.0000000000000E+00
 0.9666486016325E+00 -0.1517591658659E+01  0.0000000000000E+00
 0.9861075304526E+00 -0.1428688570531E+01  0.0000000000000E+00
 0.1009436881547E+01 -0.1341103592713E+01  0.0000000000000E+00
 0.1036112673774E+01 -0.1254848971027E+01  0.0000000000000E+00
 0.1062358212428E+01 -0.1168345741829E+01  0.0000000000000E+00
 0.1086189726049E+01 -0.1080797233366E+01  0.0000000000000E+00
 0.1107567311349E+01 -0.9923199478029E+00  0.0000000000000E+00
 0.1126659670482E+01 -0.9030990828862E+00  0.0000000000000E+00
 0.1143425009267E+01 -0.8132380088607E+00  0.0000000000000E+00
 0.1157613340271E+01 -0.7227888407692E+00  0.0000000000000E+00
 0.1169172797073E+01 -0.6318545921137E+00  0.0000000000000E+00
 0.1177936737775E+01 -0.5405209174934E+00  0.0000000000000E+00
 0.1183449817999E+01 -0.4488662793275E+00  0.0000000000000E+00
 0.1185389063559E+01 -0.3570318386362E+00  0.0000000000000E+00
 0.1184571247138E+01 -0.2651936310542E+00  0.0000000000000E+00
 0.1173135260919E+01 -0.1745716736346E+00  0.0000000000000E+00
 0.1143473930147E+01 -0.9040597438278E-01  0.0000000000000E+00
 0.9669512274189E+00 -0.1698791087767E+01  0.0000000000000E+00
 0.9823198304356E+00 -0.1605965184095E+01  0.0000000000000E+00
 0.1000237264269E+01 -0.1513744646745E+01  0.0000000000000E+00
 0.1021406093943E+01 -0.1422442661578E+01  0.0000000000000E+00
 0.1046773195509E+01 -0.1332578305411E+01  0.0000000000000E+00
 0.1075764223922E+01 -0.1244164768264E+01  0.0000000000000E+00
 0.1104257348526E+01 -0.1155479391450E+01  0.0000000000000E+00
 0.1130088953323E+01 -0.1065652939060E+01  0.0000000000000E+00
 0.1153220084018E+01 -0.9748125336096E+00  0.0000000000000E+00
 0.1173844551794E+01 -0.8831604709323E+00  0.0000000000000E+00
 0.1191930451903E+01 -0.7908099983938E+00  0.0000000000000E+00
 0.1207218759703E+01 -0.6978184484149E+00  0.0000000000000E+00
 0.1219662666172E+01 -0.6042984608059E+00  0.0000000000000E+00
 0.1229084956548E+01 -0.5103435077058E+00  0.0000000000000E+00
 0.1234989389793E+01 -0.4160390454063E+00  0.0000000000000E+00
 0.1237021830960E+01 -0.3215389094206E+00  0.0000000000000E+00
 0.1236070574644E+01 -0.2270349777752E+00  0.0000000000000E+00
 0.1223556973529E+01 -0.1338581186130E+00  0.0000000000000E+00
 0.1191179602188E+01 -0.4772460436371E-01  0.0000000000000E+00
 0.9978048126931E+00 -0.1700055050828E+01  0.0000000000000E+00
 0.1014436952546E+01 -0.1604697736702E+01  0.0000000000000E+00
 0.1033813432435E+01 -0.1509996138743E+01  0.0000000000000E+00
 0.1056692898198E+01 -0.1416289459594E+01  0.0000000000000E+00
 0.1084098485417E+01 -0.1324139928402E+01  0.0000000000000E+00
 0.1115405485257E+01 -0.1233561678510E+01  0.0000000000000E+00
 0.1146146931048E+01 -0.1142688356877E+01  0.0000000000000E+00
 0.1173979362256E+01 -0.1050578163472E+01  0.0000000000000E+00
 0.1198864773607E+01 -0.9573688409702E+00  0.0000000000000E+00
 0.1221022085302E+01 -0.8632797833433E+00  0.0000000000000E+00
 0.1240429282021E+01 -0.7684341151186E+00  0.0000000000000E+00
 0.1256818301914E+01 -0.6728943861069E+00  0.0000000000000E+00
 0.1270147393358E+01 -0.5767828623979E+00  0.0000000000000E+00
 0.1280228768722E+01 -0.4802008337283E+00  0.0000000000000E+00
 0.1286525290297E+01 -0.3832407503566E+00  0.0000000000000E+00
 0.1288651662409E+01 -0.2860691220672E+00  0.0000000000000E+00
 0.1287567701494E+01 -0.1888936697665E+00  0.0000000000000E+00
 0.1273977219637E+01 -0.9315612167893E-01  0.0000000000000E+00
 0.1238884540982E+01 -0.5049013045556E-02  0.0000000000000E+00
 0.1028644034966E+01 -0.1701428892817E+01  0.0000000000000E+00
 0.1046540467967E+01 -0.1603534382536E+01  0.0000000000000E+00
 0.1067376750223E+01 -0.1506345938358E+01  0.0000000000000E+00
 0.1091967608368E+01 -0.1410228779832E+01  0.0000000000000E+00
 0.1121412437513E+01 -0.1315788288493E+01  0.0000000000000E+00
 0.1155036165145E+01 -0.1223039540143E+01  0.0000000000000E+00
 0.1188026688472E+01 -0.1129972488054E+01  0.0000000000000E+00
 0.1217860702418E+01 -0.1035572768105E+01  0.0000000000000E+00
 0.1244501150748E+01 -0.9399887429363E+00  0.0000000000000E+00
 0.1268192062681E+01 -0.8434569047128E+00  0.0000000000000E+00
 0.1288921312318E+01 -0.7461102551647E+00  0.0000000000000E+00
 0.1306411800597E+01 -0.6480165615055E+00  0.0000000000000E+00
 0.1320626833301E+01 -0.5493077160762E+00  0.0000000000000E+00
 0.1331368049922E+01 -0.4500928262700E+00  0.0000000000000E+00
 0.1338057416065E+01 -0.3504713364071E+00  0.0000000000000E+00
 0.1340278475353E+01 -0.2506224303227E+00  0.0000000000000E+00
 0.1339062566007E+01 -0.1507696722917E+00  0.0000000000000E+00
 0.1324395958307E+01 -0.5246565960526E-01  0.0000000000000E+00
 0.1286588726141E+01  0.3762081124632E-01  0.0000000000000E+00
 0.1059468491065E+01 -0.1702912387465E+01  0.0000000000000E+00
 0.1078629994763E+01 -0.1602474907241E+01  0.0000000000000E+00
 0.1100926856931E+01 -0.1502793843147E+01  0.0000000000000E+00
 0.1127229884989E+01 -0.1404260431761E+01  0.0000000000000E+00
 0.1158714733573E+01 -0.1307523207068E+01  0.0000000000000E+00
 0.1194655966603E+01 -0.1212598186461E+01  0.0000000000000E+00
 0.1229896345061E+01 -0.1117331630195E+01  0.0000000000000E+00
 0.1261732719309E+01 -0.1020636610086E+01  0.0000000000000E+00
 0.1290128982182E+01 -0.9226721085503E+00  0.0000000000000E+00
 0.1315354271908E+01 -0.8236917159966E+00  0.0000000000000E+00
 0.1337406352004E+01 -0.7238383114011E+00  0.0000000000000E+00
 0.1355999086198E+01 -0.6231848793920E+00  0.0000000000000E+00
 0.1371100837678E+01 -0.5218729385342E+00  0.0000000000000E+00
 0.1382502673051E+01 -0.4200194139358E+00  0.0000000000000E+00
 0.1389585661224E+01 -0.3177307440737E+00  0.0000000000000E+00
 0.1391902185146E+01 -0.2151987866139E+00  0.0000000000000E+00
 0.1390555104757E+01 -0.1126629496880E+00  0.0000000000000E+00
 0.1374813147288E+01 -0.1178670862095E-01  0.0000000000000E+00
 0.1334292136548E+01  0.8028488040208E-01  0.0000000000000E+00
 0.1090277780720E+01 -0.1704505302632E+01  0.0000000000000E+00
 0.1110705153744E+01 -0.1601519090897E+01  0.0000000000000E+00
 0.1134463394454E+01 -0.1499339645413E+01  0.0000000000000E+00
 0.1162479391042E+01 -0.1398384219907E+01  0.0000000000000E+00
 0.1196005057665E+01 -0.1299344500874E+01  0.0000000000000E+00
 0.1234264594794E+01 -0.1202237446439E+01  0.0000000000000E+00
 0.1271755627067E+01 -0.1104765624500E+01  0.0000000000000E+00
 0.1305595160272E+01 -0.1005769542839E+01  0.0000000000000E+00
 0.1335748036337E+01 -0.9054188034578E+00  0.0000000000000E+00
 0.1362508502496E+01 -0.8039840950629E+00  0.0000000000000E+00
 0.1385884211676E+01 -0.7016181739175E+00  0.0000000000000E+00
 0.1405579990391E+01 -0.5983992420775E+00  0.0000000000000E+00
 0.1421569259242E+01 -0.4944784443039E+00  0.0000000000000E+00
 0.1433632511940E+01 -0.3899805234782E+00  0.0000000000000E+00
 0.1441109920678E+01 -0.2850189123287E+00  0.0000000000000E+00
 0.1443522707758E+01 -0.1797981421330E+00  0.0000000000000E+00
 0.1442045254780E+01 -0.7457346536650E-01  0.0000000000000E+00
 0.1425228744639E+01  0.2888075566284E-01  0.0000000000000E+00
 0.1381994751242E+01  0.1229432066213E+00  0.0000000000000E+00
 0.1121071483195E+01 -0.1706207397020E+01  0.0000000000000E+00
 0.1142765546172E+01 -0.1600666704959E+01  0.0000000000000E+00
 0.1167985985999E+01 -0.1495983129350E+01  0.0000000000000E+00
 0.1197715771612E+01 -0.1392599941181E+01  0.0000000000000E+00
 0.1233283076667E+01 -0.1291251979511E+01  0.0000000000000E+00
 0.1273861738317E+01 -0.1191957142331E+01  0.0000000000000E+00
 0.1313604244830E+01 -0.1092274305885E+01  0.0000000000000E+00
 0.1349447757450E+01 -0.9909714139681E+00  0.0000000000000E+00
 0.1381358067225E+01 -0.8882286879731E+00  0.0000000000000E+00
 0.1409654530383E+01 -0.7843339149532E+00  0.0000000000000E+00
 0.1434354689253E+01 -0.6794497284982E+00  0.0000000000000E+00
 0.1455154333136E+01 -0.5736595481023E+00  0.0000000000000E+00
 0.1472031940047E+01 -0.4671241446931E+00  0.0000000000000E+00
 0.1484757430797E+01 -0.3599760789818E+00  0.0000000000000E+00
 0.1492630080857E+01 -0.2523357780405E+00  0.0000000000000E+00
 0.1495139951924E+01 -0.1444204465366E+00  0.0000000000000E+00
 0.1493532947170E+01 -0.3650118177095E-01  0.0000000000000E+00
 0.1475642704025E+01  0.6953675806361E-01  0.0000000000000E+00
 0.1429696546851E+01  0.1655958021522E+00  0.0000000000000E+00
 0.1151849225537E+01 -0.1708018429846E+01  0.0000000000000E+00
 0.1174810818886E+01 -0.1599917521276E+01  0.0000000000000E+00
 0.1201494298248E+01 -0.1492724079452E+01  0.0000000000000E+00
 0.1232938713290E+01 -0.1386907392741E+01  0.0000000000000E+00
 0.1270548497160E+01 -0.1283245452831E+01  0.0000000000000E+00
 0.1313447123819E+01 -0.1181757096718E+01  0.0000000000000E+00
 0.1355441945044E+01 -0.1079857509653E+01  0.0000000000000E+00
 0.1393290277519E+01 -0.9762420714703E+00  0.0000000000000E+00
 0.1426958861442E+01 -0.8711016227676E+00  0.0000000000000E+00
 0.1456792162028E+01 -0.7647410489956E+00  0.0000000000000E+00
 0.1482817611003E+01 -0.6573328611127E+00  0.0000000000000E+00
 0.1504721960451E+01 -0.5489656960643E+00  0.0000000000000E+00
 0.1522488745806E+01 -0.4398099509165E+00  0.0000000000000E+00
 0.1535877314972E+01 -0.3300060042687E+00  0.0000000000000E+00
 0.1544146046680E+01 -0.2196812776312E+00  0.0000000000000E+00
 0.1546753842050E+01 -0.1090656488427E+00  0.0000000000000E+00
 0.1545018125764E+01  0.1553939485621E-02  0.0000000000000E+00
 0.1526054988436E+01  0.1101813243664E+00  0.0000000000000E+00
 0.1477397505075E+01  0.2082426800443E+00  0.0000000000000E+00
 0.1182610616693E+01 -0.1709938151813E+01  0.0000000000000E+00
 0.1206840601434E+01 -0.1599271303676E+01  0.0000000000000E+00
 0.1234987981351E+01 -0.1489562272670E+01  0.0000000000000E+00
 0.1268147886829E+01 -0.1381306364667E+01  0.0000000000000E+00
 0.1307801010505E+01 -0.1275324724039E+01  0.0000000000000E+00
 0.1353020463274E+01 -0.1171637125933E+01  0.0000000000000E+00
 0.1397268460295E+01 -0.1067515065265E+01  0.0000000000000E+00
 0.1437122473674E+01 -0.9615813579356E+00  0.0000000000000E+00
 0.1472550192790E+01 -0.8540374635575E+00  0.0000000000000E+00
 0.1503921191834E+01 -0.7452053660319E+00  0.0000000000000E+00
 0.1531272791928E+01 -0.6352674537278E+00  0.0000000000000E+00
 0.1554282707934E+01 -0.5243175810539E+00  0.0000000000000E+00
 0.1572939532713E+01 -0.4125357711880E+00  0.0000000000000E+00
 0.1586992041247E+01 -0.3000702206755E+00  0.0000000000000E+00
 0.1595657715515E+01 -0.1870553455593E+00  0.0000000000000E+00
 0.1598364296089E+01 -0.7373369663145E-01  0.0000000000000E+00
 0.1596500729092E+01  0.3959193770200E-01  0.0000000000000E+00
 0.1576465556935E+01  0.1508144807688E+00  0.0000000000000E+00
 0.1525097605457E+01  0.2508838534040E+00  0.0000000000000E+00
-0.6299559715430E+00 -0.4448788635045E+00  0.0000000000000E+00
-0.6714480734955E+00 -0.4002935756204E+00  0.0000000000000E+00
-0.7129401754481E+00 -0.3557082877364E+00  0.0000000000000E+00
-0.7544322774006E+00 -0.3111229998524E+00  0.0000000000000E+00
-0.7959243793531E+00 -0.2665377119684E+00  0.0000000000000E+00
-0.8374164813057E+00 -0.2219524240844E+00  0.0000000000000E+00
-0.8789085832582E+00 -0.1773671362004E+00  0.0000000000000E+00
-0.9204006852108E+00 -0.1327818483163E+00  0.0000000000000E+00
-0.9618927871633E+00 -0.8819656043232E-01  0.0000000000000E+00
-0.1003384889116E+01 -0.4361127254831E-01  0.0000000000000E+00
-0.1044876991068E+01  0.9740153357094E-03  0.0000000000000E+00
-0.1086369093021E+01  0.4555930321973E-01  0.0000000000000E+00
-0.1127861194973E+01  0.9014459110374E-01  0.0000000000000E+00
-0.1169353296926E+01  0.1347298789878E+00  0.0000000000000E+00
-0.1210845398879E+01  0.1793151668718E+00  0.0000000000000E+00
-0.1252337500831E+01  0.2239004547558E+00  0.0000000000000E+00
-0.1293829602784E+01  0.2684857426398E+00  0.0000000000000E+00
-0.1335321704736E+01  0.3130710305238E+00  0.0000000000000E+00
-0.1376813806689E+01  0.3576563184078E+00  0.0000000000000E+00
-0.5974622415961E+00 -0.4366441451899E+00  0.0000000000000E+00
-0.6368419585758E+00 -0.3913664749580E+00  0.0000000000000E+00
-0.6762216755556E+00 -0.3460888047261E+00  0.0000000000000E+00
-0.7156013925353E+00 -0.3008111344942E+00  0.0000000000000E+00
-0.7549811095150E+00 -0.2555334642623E+00  0.0000000000000E+00
-0.7943608264947E+00 -0.2102557940303E+00  0.0000000000000E+00
-0.8337405434744E+00 -0.1649781237984E+00  0.0000000000000E+00
-0.8731202604541E+00 -0.1197004535665E+00  0.0000000000000E+00
-0.9124999774338E+00 -0.7442278333461E-01  0.0000000000000E+00
-0.9518796944135E+00 -0.2914511310269E-01  0.0000000000000E+00
-0.9912594113932E+00  0.1613255712922E-01  0.0000000000000E+00
-0.1030639128373E+01  0.6141022736114E-01  0.0000000000000E+00
-0.1070018845353E+01  0.1066878975930E+00  0.0000000000000E+00
-0.1109398562332E+01  0.1519655678250E+00  0.0000000000000E+00
-0.1148778279312E+01  0.1972432380569E+00  0.0000000000000E+00
-0.1188157996292E+01  0.2425209082888E+00  0.0000000000000E+00
-0.1227537713272E+01  0.2877985785207E+00  0.0000000000000E+00
-0.1266917430251E+01  0.3330762487526E+00  0.0000000000000E+00
-0.1306297147231E+01  0.3783539189845E+00  0.0000000000000E+00
-0.5647851637629E+00 -0.4291779471807E+00  0.0000000000000E+00
-0.6019607642087E+00 -0.3835976335802E+00  0.0000000000000E+00
-0.6391363646544E+00 -0.3380173199797E+00  0.0000000000000E+00
-0.6763119651002E+00 -0.2924370063792E+00  0.0000000000000E+00
-0.7134875655459E+00 -0.2468566927788E+00  0.0000000000000E+00
-0.7506631659917E+00 -0.2012763791783E+00  0.0000000000000E+00
-0.7878387664375E+00 -0.1556960655778E+00  0.0000000000000E+00
-0.8250143668832E+00 -0.1101157519773E+00  0.0000000000000E+00
-0.8621899673290E+00 -0.6453543837680E-01  0.0000000000000E+00
-0.8993655677748E+00 -0.1895512477632E-01  0.0000000000000E+00
-0.9365411682205E+00  0.2662518882417E-01  0.0000000000000E+00
-0.9737167686663E+00  0.7220550242466E-01  0.0000000000000E+00
-0.1010892369112E+01  0.1177858160251E+00  0.0000000000000E+00
-0.1048067969558E+01  0.1633661296256E+00  0.0000000000000E+00
-0.1085243570004E+01  0.2089464432261E+00  0.0000000000000E+00
-0.1122419170449E+01  0.2545267568266E+00  0.0000000000000E+00
-0.1159594770895E+01  0.3001070704271E+00  0.0000000000000E+00
-0.1196770371341E+01  0.3456873840276E+00  0.0000000000000E+00
-0.1233945971787E+01  0.3912676976281E+00  0.0000000000000E+00
-0.5319747863850E+00 -0.4224941396796E+00  0.0000000000000E+00
-0.5669005038771E+00 -0.3770102860137E+00  0.0000000000000E+00
-0.6018262213692E+00 -0.3315264323477E+00  0.0000000000000E+00
-0.6367519388613E+00 -0.2860425786818E+00  0.0000000000000E+00
-0.6716776563534E+00 -0.2405587250158E+00  0.0000000000000E+00
-0.7066033738455E+00 -0.1950748713499E+00  0.0000000000000E+00
-0.7415290913375E+00 -0.1495910176839E+00  0.0000000000000E+00
-0.7764548088296E+00 -0.1041071640180E+00  0.0000000000000E+00
-0.8113805263217E+00 -0.5862331035200E-01  0.0000000000000E+00
-0.8463062438138E+00 -0.1313945668605E-01  0.0000000000000E+00
-0.8812319613059E+00  0.3234439697990E-01  0.0000000000000E+00
-0.9161576787979E+00  0.7782825064585E-01  0.0000000000000E+00
-0.9510833962900E+00  0.1233121043118E+00  0.0000000000000E+00
-0.9860091137821E+00  0.1687959579778E+00  0.0000000000000E+00
-0.1020934831274E+01  0.2142798116437E+00  0.0000000000000E+00
-0.1055860548766E+01  0.2597636653097E+00  0.0000000000000E+00
-0.1090786266258E+01  0.3052475189756E+00  0.0000000000000E+00
-0.1125711983750E+01  0.3507313726416E+00  0.0000000000000E+00
-0.1160637701243E+01  0.3962152263075E+00  0.0000000000000E+00
-0.4990802666255E+00 -0.4165840327232E+00  0.0000000000000E+00
-0.5317553219230E+00 -0.3715827348048E+00  0.0000000000000E+00
-0.5644303772205E+00 -0.3265814368864E+00  0.0000000000000E+00
-0.5971054325179E+00 -0.2815801389680E+00  0.0000000000000E+00
-0.6297804878154E+00 -0.2365788410496E+00  0.0000000000000E+00
-0.6624555431129E+00 -0.1915775431312E+00  0.0000000000000E+00
-0.6951305984104E+00 -0.1465762452128E+00  0.0000000000000E+00
-0.7278056537078E+00 -0.1015749472944E+00  0.0000000000000E+00
-0.7604807090053E+00 -0.5657364937598E-01  0.0000000000000E+00
-0.7931557643028E+00 -0.1157235145757E-01  0.0000000000000E+00
-0.8258308196003E+00  0.3342894646083E-01  0.0000000000000E+00
-0.8585058748978E+00  0.7843024437923E-01  0.0000000000000E+00
-0.8911809301952E+00  0.1234315422976E+00  0.0000000000000E+00
-0.9238559854927E+00  0.1684328402160E+00  0.0000000000000E+00
-0.9565310407902E+00  0.2134341381344E+00  0.0000000000000E+00
-0.9892060960877E+00  0.2584354360528E+00  0.0000000000000E+00
-0.1021881151385E+01  0.3034367339713E+00  0.0000000000000E+00
-0.1054556206683E+01  0.3484380318897E+00  0.0000000000000E+00
-0.1087231261980E+01  0.3934393298081E+00  0.0000000000000E+00
-0.4661358894282E+00 -0.4113546120754E+00  0.0000000000000E+00
-0.4965895947067E+00 -0.3671248415236E+00  0.0000000000000E+00
-0.5270432999851E+00 -0.3228950709718E+00  0.0000000000000E+00
-0.5574970052636E+00 -0.2786653004201E+00  0.0000000000000E+00
-0.5879507105420E+00 -0.2344355298683E+00  0.0000000000000E+00
-0.6184044158205E+00 -0.1902057593165E+00  0.0000000000000E+00
-0.6488581210989E+00 -0.1459759887648E+00  0.0000000000000E+00
-0.6793118263774E+00 -0.1017462182130E+00  0.0000000000000E+00
-0.7097655316558E+00 -0.5751644766124E-01  0.0000000000000E+00
-0.7402192369343E+00 -0.1328667710947E-01  0.0000000000000E+00
-0.7706729422127E+00  0.3094309344230E-01  0.0000000000000E+00
-0.8011266474912E+00  0.7517286399407E-01  0.0000000000000E+00
-0.8315803527696E+00  0.1194026345458E+00  0.0000000000000E+00
-0.8620340580481E+00  0.1636324050976E+00  0.0000000000000E+00
-0.8924877633265E+00  0.2078621756494E+00  0.0000000000000E+00
-0.9229414686050E+00  0.2520919462011E+00  0.0000000000000E+00
-0.9533951738834E+00  0.2963217167529E+00  0.0000000000000E+00
-0.9838488791619E+00  0.3405514873047E+00  0.0000000000000E+00
-0.1014302584440E+01  0.3847812578564E+00  0.0000000000000E+00
-0.4331566793992E+00 -0.4067328540872E+00  0.0000000000000E+00
-0.4614288249452E+00 -0.3634866017615E+00  0.0000000000000E+00
-0.4897009704912E+00 -0.3202403494357E+00  0.0000000000000E+00
-0.5179731160371E+00 -0.2769940971100E+00  0.0000000000000E+00
-0.5462452615831E+00 -0.2337478447842E+00  0.0000000000000E+00
-0.5745174071291E+00 -0.1905015924585E+00  0.0000000000000E+00
-0.6027895526750E+00 -0.1472553401327E+00  0.0000000000000E+00
-0.6310616982210E+00 -0.1040090878070E+00  0.0000000000000E+00
-0.6593338437670E+00 -0.6076283548125E-01  0.0000000000000E+00
-0.6876059893129E+00 -0.1751658315551E-01  0.0000000000000E+00
-0.7158781348589E+00  0.2572966917024E-01  0.0000000000000E+00
-0.7441502804048E+00  0.6897592149599E-01  0.0000000000000E+00
-0.7724224259508E+00  0.1122221738217E+00  0.0000000000000E+00
-0.8006945714968E+00  0.1554684261475E+00  0.0000000000000E+00
-0.8289667170427E+00  0.1987146784732E+00  0.0000000000000E+00
-0.8572388625887E+00  0.2419609307990E+00  0.0000000000000E+00
-0.8855110081347E+00  0.2852071831247E+00  0.0000000000000E+00
-0.9137831536806E+00  0.3284534354505E+00  0.0000000000000E+00
-0.9420552992266E+00  0.3716996877762E+00  0.0000000000000E+00
-0.4001452660089E+00 -0.4026538267990E+00  0.0000000000000E+00
-0.4262736922835E+00 -0.3605344241827E+00  0.0000000000000E+00
-0.4524021185581E+00 -0.3184150215665E+00  0.0000000000000E+00
-0.4785305448327E+00 -0.2762956189502E+00  0.0000000000000E+00
-0.5046589711073E+00 -0.2341762163340E+00  0.0000000000000E+00
-0.5307873973819E+00 -0.1920568137177E+00  0.0000000000000E+00
-0.5569158236565E+00 -0.1499374111015E+00  0.0000000000000E+00
-0.5830442499311E+00 -0.1078180084852E+00  0.0000000000000E+00
-0.6091726762057E+00 -0.6569860586900E-01  0.0000000000000E+00
-0.6353011024803E+00 -0.2357920325275E-01  0.0000000000000E+00
-0.6614295287548E+00  0.1854019936350E-01  0.0000000000000E+00
-0.6875579550294E+00  0.6065960197974E-01  0.0000000000000E+00
-0.7136863813040E+00  0.1027790045960E+00  0.0000000000000E+00
-0.7398148075786E+00  0.1448984072122E+00  0.0000000000000E+00
-0.7659432338532E+00  0.1870178098285E+00  0.0000000000000E+00
-0.7920716601278E+00  0.2291372124447E+00  0.0000000000000E+00
-0.8182000864024E+00  0.2712566150610E+00  0.0000000000000E+00
-0.8443285126770E+00  0.3133760176772E+00  0.0000000000000E+00
-0.8704569389516E+00  0.3554954202935E+00  0.0000000000000E+00
-0.3670941282270E+00 -0.3990479117006E+00  0.0000000000000E+00
-0.3911043433766E+00 -0.3581255480735E+00  0.0000000000000E+00
-0.4151145585263E+00 -0.3172031844463E+00  0.0000000000000E+00
-0.4391247736759E+00 -0.2762808208192E+00  0.0000000000000E+00
-0.4631349888256E+00 -0.2353584571920E+00  0.0000000000000E+00
-0.4871452039753E+00 -0.1944360935648E+00  0.0000000000000E+00
-0.5111554191249E+00 -0.1535137299377E+00  0.0000000000000E+00
-0.5351656342746E+00 -0.1125913663105E+00  0.0000000000000E+00
-0.5591758494243E+00 -0.7166900268338E-01  0.0000000000000E+00
-0.5831860645739E+00 -0.3074663905622E-01  0.0000000000000E+00
-0.6071962797236E+00  0.1017572457094E-01  0.0000000000000E+00
-0.6312064948732E+00  0.5109808819809E-01  0.0000000000000E+00
-0.6552167100229E+00  0.9202045182525E-01  0.0000000000000E+00
-0.6792269251726E+00  0.1329428154524E+00  0.0000000000000E+00
-0.7032371403222E+00  0.1738651790796E+00  0.0000000000000E+00
-0.7272473554719E+00  0.2147875427067E+00  0.0000000000000E+00
-0.7512575706216E+00  0.2557099063339E+00  0.0000000000000E+00
-0.7752677857712E+00  0.2966322699610E+00  0.0000000000000E+00
-0.7992780009209E+00  0.3375546335882E+00  0.0000000000000E+00
-0.3339899907783E+00 -0.3958444358955E+00  0.0000000000000E+00
-0.3558893495395E+00 -0.3561153468993E+00  0.0000000000000E+00
-0.3777887083006E+00 -0.3163862579032E+00  0.0000000000000E+00
-0.3996880670618E+00 -0.2766571689070E+00  0.0000000000000E+00
-0.4215874258230E+00 -0.2369280799109E+00  0.0000000000000E+00
-0.4434867845841E+00 -0.1971989909147E+00  0.0000000000000E+00
-0.4653861433453E+00 -0.1574699019185E+00  0.0000000000000E+00
-0.4872855021064E+00 -0.1177408129224E+00  0.0000000000000E+00
-0.5091848608676E+00 -0.7801172392620E-01  0.0000000000000E+00
-0.5310842196287E+00 -0.3828263493003E-01  0.0000000000000E+00
-0.5529835783899E+00  0.1446454066132E-02  0.0000000000000E+00
-0.5748829371510E+00  0.4117554306230E-01  0.0000000000000E+00
-0.5967822959122E+00  0.8090463205846E-01  0.0000000000000E+00
-0.6186816546733E+00  0.1206337210546E+00  0.0000000000000E+00
-0.6405810134345E+00  0.1603628100508E+00  0.0000000000000E+00
-0.6624803721956E+00  0.2000918990470E+00  0.0000000000000E+00
-0.6843797309568E+00  0.2398209880431E+00  0.0000000000000E+00
-0.7062790897179E+00  0.2795500770393E+00  0.0000000000000E+00
-0.7281784484791E+00  0.3192791660354E+00  0.0000000000000E+00
-0.3008163579508E+00 -0.3929631427710E+00  0.0000000000000E+00
-0.3205906658870E+00 -0.3543402622484E+00  0.0000000000000E+00
-0.3403649738232E+00 -0.3157173817257E+00  0.0000000000000E+00
-0.3601392817595E+00 -0.2770945012030E+00  0.0000000000000E+00
-0.3799135896957E+00 -0.2384716206803E+00  0.0000000000000E+00
-0.3996878976320E+00 -0.1998487401576E+00  0.0000000000000E+00
-0.4194622055682E+00 -0.1612258596350E+00  0.0000000000000E+00
-0.4392365135044E+00 -0.1226029791123E+00  0.0000000000000E+00
-0.4590108214407E+00 -0.8398009858960E-01  0.0000000000000E+00
-0.4787851293769E+00 -0.4535721806692E-01  0.0000000000000E+00
-0.4985594373131E+00 -0.6734337544235E-02  0.0000000000000E+00
-0.5183337452494E+00  0.3188854297845E-01  0.0000000000000E+00
-0.5381080531856E+00  0.7051142350113E-01  0.0000000000000E+00
-0.5578823611218E+00  0.1091343040238E+00  0.0000000000000E+00
-0.5776566690581E+00  0.1477571845465E+00  0.0000000000000E+00
-0.5974309769943E+00  0.1863800650692E+00  0.0000000000000E+00
-0.6172052849306E+00  0.2250029455919E+00  0.0000000000000E+00
-0.6369795928668E+00  0.2636258261145E+00  0.0000000000000E+00
-0.6567539008030E+00  0.3022487066372E+00  0.0000000000000E+00
-0.2675697753590E+00 -0.3903634585794E+00  0.0000000000000E+00
-0.2851962171292E+00 -0.3527163567611E+00  0.0000000000000E+00
-0.3028226588994E+00 -0.3150692549428E+00  0.0000000000000E+00
-0.3204491006696E+00 -0.2774221531245E+00  0.0000000000000E+00
-0.3380755424398E+00 -0.2397750513062E+00  0.0000000000000E+00
-0.3557019842100E+00 -0.2021279494878E+00  0.0000000000000E+00
-0.3733284259802E+00 -0.1644808476695E+00  0.0000000000000E+00
-0.3909548677504E+00 -0.1268337458512E+00  0.0000000000000E+00
-0.4085813095206E+00 -0.8918664403293E-01  0.0000000000000E+00
-0.4262077512908E+00 -0.5153954221463E-01  0.0000000000000E+00
-0.4438341930610E+00 -0.1389244039632E-01  0.0000000000000E+00
-0.4614606348312E+00  0.2375466142199E-01  0.0000000000000E+00
-0.4790870766014E+00  0.6140176324029E-01  0.0000000000000E+00
-0.4967135183717E+00  0.9904886505860E-01  0.0000000000000E+00
-0.5143399601419E+00  0.1366959668769E+00  0.0000000000000E+00
-0.5319664019121E+00  0.1743430686952E+00  0.0000000000000E+00
-0.5495928436823E+00  0.2119901705135E+00  0.0000000000000E+00
-0.5672192854525E+00  0.2496372723318E+00  0.0000000000000E+00
-0.5848457272227E+00  0.2872843741501E+00  0.0000000000000E+00
-0.2342578969919E+00 -0.3880438745316E+00  0.0000000000000E+00
-0.2497160431228E+00 -0.3512380881835E+00  0.0000000000000E+00
-0.2651741892537E+00 -0.3144323018355E+00  0.0000000000000E+00
-0.2806323353846E+00 -0.2776265154874E+00  0.0000000000000E+00
-0.2960904815155E+00 -0.2408207291393E+00  0.0000000000000E+00
-0.3115486276463E+00 -0.2040149427913E+00  0.0000000000000E+00
-0.3270067737772E+00 -0.1672091564432E+00  0.0000000000000E+00
-0.3424649199081E+00 -0.1304033700952E+00  0.0000000000000E+00
-0.3579230660390E+00 -0.9359758374711E-01  0.0000000000000E+00
-0.3733812121699E+00 -0.5679179739905E-01  0.0000000000000E+00
-0.3888393583008E+00 -0.1998601105098E-01  0.0000000000000E+00
-0.4042975044317E+00  0.1681977529708E-01  0.0000000000000E+00
-0.4197556505626E+00  0.5362556164514E-01  0.0000000000000E+00
-0.4352137966935E+00  0.9043134799320E-01  0.0000000000000E+00
-0.4506719428244E+00  0.1272371343413E+00  0.0000000000000E+00
-0.4661300889553E+00  0.1640429206893E+00  0.0000000000000E+00
-0.4815882350862E+00  0.2008487070374E+00  0.0000000000000E+00
-0.4970463812171E+00  0.2376544933854E+00  0.0000000000000E+00
-0.5125045273480E+00  0.2744602797335E+00  0.0000000000000E+00
-0.2008905517879E+00 -0.3860140358384E+00  0.0000000000000E+00
-0.2141644306440E+00 -0.3499224952607E+00  0.0000000000000E+00
-0.2274383095000E+00 -0.3138309546829E+00  0.0000000000000E+00
-0.2407121883561E+00 -0.2777394141052E+00  0.0000000000000E+00
-0.2539860672121E+00 -0.2416478735275E+00  0.0000000000000E+00
-0.2672599460682E+00 -0.2055563329498E+00  0.0000000000000E+00
-0.2805338249242E+00 -0.1694647923721E+00  0.0000000000000E+00
-0.2938077037803E+00 -0.1333732517943E+00  0.0000000000000E+00
-0.3070815826363E+00 -0.9728171121661E-01  0.0000000000000E+00
-0.3203554614924E+00 -0.6119017063889E-01  0.0000000000000E+00
-0.3336293403484E+00 -0.2509863006116E-01  0.0000000000000E+00
-0.3469032192045E+00  0.1099291051656E-01  0.0000000000000E+00
-0.3601770980605E+00  0.4708445109428E-01  0.0000000000000E+00
-0.3734509769166E+00  0.8317599167200E-01  0.0000000000000E+00
-0.3867248557726E+00  0.1192675322497E+00  0.0000000000000E+00
-0.3999987346287E+00  0.1553590728274E+00  0.0000000000000E+00
-0.4132726134847E+00  0.1914506134052E+00  0.0000000000000E+00
-0.4265464923408E+00  0.2275421539829E+00  0.0000000000000E+00
-0.4398203711968E+00  0.2636336945606E+00  0.0000000000000E+00
-0.1674771093533E+00 -0.3842843495524E+00  0.0000000000000E+00
-0.1785546413643E+00 -0.3487884211107E+00  0.0000000000000E+00
-0.1896321733754E+00 -0.3132924926690E+00  0.0000000000000E+00
-0.2007097053864E+00 -0.2777965642273E+00  0.0000000000000E+00
-0.2117872373974E+00 -0.2423006357856E+00  0.0000000000000E+00
-0.2228647694084E+00 -0.2068047073439E+00  0.0000000000000E+00
-0.2339423014194E+00 -0.1713087789022E+00  0.0000000000000E+00
-0.2450198334305E+00 -0.1358128504605E+00  0.0000000000000E+00
-0.2560973654415E+00 -0.1003169220188E+00  0.0000000000000E+00
-0.2671748974525E+00 -0.6482099357711E-01  0.0000000000000E+00
-0.2782524294635E+00 -0.2932506513542E-01  0.0000000000000E+00
-0.2893299614745E+00  0.6170863306275E-02  0.0000000000000E+00
-0.3004074934856E+00  0.4166679174797E-01  0.0000000000000E+00
-0.3114850254966E+00  0.7716272018966E-01  0.0000000000000E+00
-0.3225625575076E+00  0.1126586486314E+00  0.0000000000000E+00
-0.3336400895186E+00  0.1481545770730E+00  0.0000000000000E+00
-0.3447176215296E+00  0.1836505055147E+00  0.0000000000000E+00
-0.3557951535407E+00  0.2191464339564E+00  0.0000000000000E+00
-0.3668726855517E+00  0.2546423623981E+00  0.0000000000000E+00
-0.1340261091775E+00 -0.3828631734966E+00  0.0000000000000E+00
-0.1428982089424E+00 -0.3478509012348E+00  0.0000000000000E+00
-0.1517703087072E+00 -0.3128386289729E+00  0.0000000000000E+00
-0.1606424084721E+00 -0.2778263567111E+00  0.0000000000000E+00
-0.1695145082369E+00 -0.2428140844493E+00  0.0000000000000E+00
-0.1783866080018E+00 -0.2078018121875E+00  0.0000000000000E+00
-0.1872587077666E+00 -0.1727895399257E+00  0.0000000000000E+00
-0.1961308075315E+00 -0.1377772676639E+00  0.0000000000000E+00
-0.2050029072963E+00 -0.1027649954021E+00  0.0000000000000E+00
-0.2138750070612E+00 -0.6775272314032E-01  0.0000000000000E+00
-0.2227471068260E+00 -0.3274045087851E-01  0.0000000000000E+00
-0.2316192065909E+00  0.2271821383293E-02  0.0000000000000E+00
-0.2404913063557E+00  0.3728409364510E-01  0.0000000000000E+00
-0.2493634061206E+00  0.7229636590690E-01  0.0000000000000E+00
-0.2582355058855E+00  0.1073086381687E+00  0.0000000000000E+00
-0.2671076056503E+00  0.1423209104305E+00  0.0000000000000E+00
-0.2759797054152E+00  0.1773331826923E+00  0.0000000000000E+00
-0.2848518051800E+00  0.2123454549541E+00  0.0000000000000E+00
-0.2937239049449E+00  0.2473577272159E+00  0.0000000000000E+00
-0.1005454709900E+00 -0.3817562677518E+00  0.0000000000000E+00
-0.1072053602565E+00 -0.3471200718438E+00  0.0000000000000E+00
-0.1138652495230E+00 -0.3124838759358E+00  0.0000000000000E+00
-0.1205251387895E+00 -0.2778476800278E+00  0.0000000000000E+00
-0.1271850280560E+00 -0.2432114841198E+00  0.0000000000000E+00
-0.1338449173226E+00 -0.2085752882118E+00  0.0000000000000E+00
-0.1405048065891E+00 -0.1739390923039E+00  0.0000000000000E+00
-0.1471646958556E+00 -0.1393028963959E+00  0.0000000000000E+00
-0.1538245851221E+00 -0.1046667004879E+00  0.0000000000000E+00
-0.1604844743886E+00 -0.7003050457989E-01  0.0000000000000E+00
-0.1671443636552E+00 -0.3539430867190E-01  0.0000000000000E+00
-0.1738042529217E+00 -0.7581127639062E-03  0.0000000000000E+00
-0.1804641421882E+00  0.3387808314408E-01  0.0000000000000E+00
-0.1871240314547E+00  0.6851427905207E-01  0.0000000000000E+00
-0.1937839207212E+00  0.1031504749601E+00  0.0000000000000E+00
-0.2004438099878E+00  0.1377866708681E+00  0.0000000000000E+00
-0.2071036992543E+00  0.1724228667760E+00  0.0000000000000E+00
-0.2137635885208E+00  0.2070590626840E+00  0.0000000000000E+00
-0.2204234777873E+00  0.2416952585920E+00  0.0000000000000E+00
-0.6704270627605E-01 -0.3809667730720E+00  0.0000000000000E+00
-0.7148545141935E-01 -0.3466011322144E+00  0.0000000000000E+00
-0.7592819656265E-01 -0.3122354913569E+00  0.0000000000000E+00
-0.8037094170595E-01 -0.2778698504993E+00  0.0000000000000E+00
-0.8481368684925E-01 -0.2435042096418E+00  0.0000000000000E+00
-0.8925643199255E-01 -0.2091385687842E+00  0.0000000000000E+00
-0.9369917713585E-01 -0.1747729279267E+00  0.0000000000000E+00
-0.9814192227916E-01 -0.1404072870692E+00  0.0000000000000E+00
-0.1025846674225E+00 -0.1060416462116E+00  0.0000000000000E+00
-0.1070274125658E+00 -0.7167600535407E-01  0.0000000000000E+00
-0.1114701577091E+00 -0.3731036449652E-01  0.0000000000000E+00
-0.1159129028524E+00 -0.2944723638973E-02  0.0000000000000E+00
-0.1203556479957E+00  0.3142091721857E-01  0.0000000000000E+00
-0.1247983931390E+00  0.6578655807612E-01  0.0000000000000E+00
-0.1292411382823E+00  0.1001521989337E+00  0.0000000000000E+00
-0.1336838834256E+00  0.1345178397912E+00  0.0000000000000E+00
-0.1381266285689E+00  0.1688834806488E+00  0.0000000000000E+00
-0.1425693737122E+00  0.2032491215063E+00  0.0000000000000E+00
-0.1470121188555E+00  0.2376147623638E+00  0.0000000000000E+00
-0.3352511022345E-01 -0.3804951770728E+00  0.0000000000000E+00
-0.3574736497451E-01 -0.3462942814123E+00  0.0000000000000E+00
-0.3796961972557E-01 -0.3120933857518E+00  0.0000000000000E+00
-0.4019187447663E-01 -0.2778924900913E+00  0.0000000000000E+00
-0.4241412922770E-01 -0.2436915944307E+00  0.0000000000000E+00
-0.4463638397876E-01 -0.2094906987702E+00  0.0000000000000E+00
-0.4685863872982E-01 -0.1752898031097E+00  0.0000000000000E+00
-0.4908089348088E-01 -0.1410889074492E+00  0.0000000000000E+00
-0.5130314823194E-01 -0.1068880117887E+00  0.0000000000000E+00
-0.5352540298300E-01 -0.7268711612818E-01  0.0000000000000E+00
-0.5574765773406E-01 -0.3848622046767E-01  0.0000000000000E+00
-0.5796991248513E-01 -0.4285324807157E-02  0.0000000000000E+00
-0.6019216723619E-01  0.2991557085336E-01  0.0000000000000E+00
-0.6241442198725E-01  0.6411646651387E-01  0.0000000000000E+00
-0.6463667673831E-01  0.9831736217438E-01  0.0000000000000E+00
-0.6685893148937E-01  0.1325182578349E+00  0.0000000000000E+00
-0.6908118624043E-01  0.1667191534954E+00  0.0000000000000E+00
-0.7130344099149E-01  0.2009200491559E+00  0.0000000000000E+00
-0.7352569574256E-01  0.2351209448164E+00  0.0000000000000E+00
-0.9110398056435E-10 -0.3803390679715E+00  0.0000000000000E+00
-0.1822079030259E-09 -0.3461942289011E+00  0.0000000000000E+00
-0.2733118393653E-09 -0.3120493898306E+00  0.0000000000000E+00
-0.3644157479491E-09 -0.2779045507602E+00  0.0000000000000E+00
-0.4555194483661E-09 -0.2437597116898E+00  0.0000000000000E+00
-0.5466233153165E-09 -0.2096148726194E+00  0.0000000000000E+00
-0.6377270712447E-09 -0.1754700335490E+00  0.0000000000000E+00
-0.7288309381951E-09 -0.1413251944785E+00  0.0000000000000E+00
-0.8199346941232E-09 -0.1071803554081E+00  0.0000000000000E+00
-0.9110384500514E-09 -0.7303551633770E-01  0.0000000000000E+00
-0.1002142205980E-08 -0.3889067726728E-01  0.0000000000000E+00
-0.1093246128441E-08 -0.4745838196866E-02  0.0000000000000E+00
-0.1184349828858E-08  0.2939900087355E-01  0.0000000000000E+00
-0.1275453529275E-08  0.6354383994397E-01  0.0000000000000E+00
-0.1366557229692E-08  0.9768867901439E-01  0.0000000000000E+00
-0.1457661263176E-08  0.1318335180848E+00  0.0000000000000E+00
-0.1548765074615E-08  0.1659783571552E+00  0.0000000000000E+00
-0.1639868886055E-08  0.2001231962256E+00  0.0000000000000E+00
-0.1730972586471E-08  0.2342680352961E+00  0.0000000000000E+00
 0.3352511004131E-01 -0.3804951770771E+00  0.0000000000000E+00
 0.3574736461023E-01 -0.3462942814209E+00  0.0000000000000E+00
 0.3796961917915E-01 -0.3120933857647E+00  0.0000000000000E+00
 0.4019187374807E-01 -0.2778924901086E+00  0.0000000000000E+00
 0.4241412831699E-01 -0.2436915944524E+00  0.0000000000000E+00
 0.4463638288591E-01 -0.2094906987962E+00  0.0000000000000E+00
 0.4685863745483E-01 -0.1752898031400E+00  0.0000000000000E+00
 0.4908089202375E-01 -0.1410889074838E+00  0.0000000000000E+00
 0.5130314659267E-01 -0.1068880118276E+00  0.0000000000000E+00
 0.5352540116158E-01 -0.7268711617143E-01  0.0000000000000E+00
 0.5574765573050E-01 -0.3848622051524E-01  0.0000000000000E+00
 0.5796991029942E-01 -0.4285324859053E-02  0.0000000000000E+00
 0.6019216486834E-01  0.2991557079713E-01  0.0000000000000E+00
 0.6241441943726E-01  0.6411646645332E-01  0.0000000000000E+00
 0.6463667400618E-01  0.9831736210951E-01  0.0000000000000E+00
 0.6685892857510E-01  0.1325182577657E+00  0.0000000000000E+00
 0.6908118314402E-01  0.1667191534219E+00  0.0000000000000E+00
 0.7130343771294E-01  0.2009200490781E+00  0.0000000000000E+00
 0.7352569228186E-01  0.2351209447343E+00  0.0000000000000E+00
 0.6704270609402E-01 -0.3809667730804E+00  0.0000000000000E+00
 0.7148545105530E-01 -0.3466011322313E+00  0.0000000000000E+00
 0.7592819601657E-01 -0.3122354913822E+00  0.0000000000000E+00
 0.8037094097785E-01 -0.2778698505331E+00  0.0000000000000E+00
 0.8481368593912E-01 -0.2435042096840E+00  0.0000000000000E+00
 0.8925643090040E-01 -0.2091385688349E+00  0.0000000000000E+00
 0.9369917586167E-01 -0.1747729279858E+00  0.0000000000000E+00
 0.9814192082294E-01 -0.1404072871367E+00  0.0000000000000E+00
 0.1025846657842E+00 -0.1060416462876E+00  0.0000000000000E+00
 0.1070274107455E+00 -0.7167600543851E-01  0.0000000000000E+00
 0.1114701557068E+00 -0.3731036458941E-01  0.0000000000000E+00
 0.1159129006680E+00 -0.2944723740310E-02  0.0000000000000E+00
 0.1203556456293E+00  0.3142091710879E-01  0.0000000000000E+00
 0.1247983905906E+00  0.6578655795789E-01  0.0000000000000E+00
 0.1292411355519E+00  0.1001521988070E+00  0.0000000000000E+00
 0.1336838805131E+00  0.1345178396561E+00  0.0000000000000E+00
 0.1381266254744E+00  0.1688834805052E+00  0.0000000000000E+00
 0.1425693704357E+00  0.2032491213543E+00  0.0000000000000E+00
 0.1470121153970E+00  0.2376147622034E+00  0.0000000000000E+00
 0.1005454708081E+00 -0.3817562677643E+00  0.0000000000000E+00
 0.1072053598928E+00 -0.3471200718688E+00  0.0000000000000E+00
 0.1138652489775E+00 -0.3124838759733E+00  0.0000000000000E+00
 0.1205251380622E+00 -0.2778476800778E+00  0.0000000000000E+00
 0.1271850271469E+00 -0.2432114841823E+00  0.0000000000000E+00
 0.1338449162316E+00 -0.2085752882868E+00  0.0000000000000E+00
 0.1405048053163E+00 -0.1739390923913E+00  0.0000000000000E+00
 0.1471646944009E+00 -0.1393028964959E+00  0.0000000000000E+00
 0.1538245834856E+00 -0.1046667006004E+00  0.0000000000000E+00
 0.1604844725703E+00 -0.7003050470487E-01  0.0000000000000E+00
 0.1671443616550E+00 -0.3539430880938E-01  0.0000000000000E+00
 0.1738042507397E+00 -0.7581129138917E-03  0.0000000000000E+00
 0.1804641398244E+00  0.3387808298160E-01  0.0000000000000E+00
 0.1871240289091E+00  0.6851427887709E-01  0.0000000000000E+00
 0.1937839179937E+00  0.1031504747726E+00  0.0000000000000E+00
 0.2004438070784E+00  0.1377866706681E+00  0.0000000000000E+00
 0.2071036961631E+00  0.1724228665636E+00  0.0000000000000E+00
 0.2137635852478E+00  0.2070590624591E+00  0.0000000000000E+00
 0.2204234743325E+00  0.2416952583545E+00  0.0000000000000E+00
 0.1340261089962E+00 -0.3828631735131E+00  0.0000000000000E+00
 0.1428982085797E+00 -0.3478509012679E+00  0.0000000000000E+00
 0.1517703081632E+00 -0.3128386290227E+00  0.0000000000000E+00
 0.1606424077467E+00 -0.2778263567775E+00  0.0000000000000E+00
 0.1695145073302E+00 -0.2428140845323E+00  0.0000000000000E+00
 0.1783866069137E+00 -0.2078018122871E+00  0.0000000000000E+00
 0.1872587064972E+00 -0.1727895400418E+00  0.0000000000000E+00
 0.1961308060807E+00 -0.1377772677966E+00  0.0000000000000E+00
 0.2050029056642E+00 -0.1027649955514E+00  0.0000000000000E+00
 0.2138750052477E+00 -0.6775272330619E-01  0.0000000000000E+00
 0.2227471048312E+00 -0.3274045106098E-01  0.0000000000000E+00
 0.2316192044147E+00  0.2271821184241E-02  0.0000000000000E+00
 0.2404913039982E+00  0.3728409342946E-01  0.0000000000000E+00
 0.2493634035817E+00  0.7229636567468E-01  0.0000000000000E+00
 0.2582355031652E+00  0.1073086379199E+00  0.0000000000000E+00
 0.2671076027487E+00  0.1423209101651E+00  0.0000000000000E+00
 0.2759797023322E+00  0.1773331824103E+00  0.0000000000000E+00
 0.2848518019157E+00  0.2123454546555E+00  0.0000000000000E+00
 0.2937239014992E+00  0.2473577269008E+00  0.0000000000000E+00
 0.1674771091722E+00 -0.3842843495732E+00  0.0000000000000E+00
 0.1785546410022E+00 -0.3487884211524E+00  0.0000000000000E+00
 0.1896321728322E+00 -0.3132924927316E+00  0.0000000000000E+00
 0.2007097046621E+00 -0.2777965643107E+00  0.0000000000000E+00
 0.2117872364921E+00 -0.2423006358899E+00  0.0000000000000E+00
 0.2228647683220E+00 -0.2068047074691E+00  0.0000000000000E+00
 0.2339423001520E+00 -0.1713087790483E+00  0.0000000000000E+00
 0.2450198319819E+00 -0.1358128506275E+00  0.0000000000000E+00
 0.2560973638119E+00 -0.1003169222066E+00  0.0000000000000E+00
 0.2671748956418E+00 -0.6482099378580E-01  0.0000000000000E+00
 0.2782524274718E+00 -0.2932506536498E-01  0.0000000000000E+00
 0.2893299593017E+00  0.6170863055847E-02  0.0000000000000E+00
 0.3004074911317E+00  0.4166679147667E-01  0.0000000000000E+00
 0.3114850229616E+00  0.7716271989750E-01  0.0000000000000E+00
 0.3225625547916E+00  0.1126586483183E+00  0.0000000000000E+00
 0.3336400866215E+00  0.1481545767391E+00  0.0000000000000E+00
 0.3447176184515E+00  0.1836505051600E+00  0.0000000000000E+00
 0.3557951502814E+00  0.2191464335808E+00  0.0000000000000E+00
 0.3668726821114E+00  0.2546423620016E+00  0.0000000000000E+00
 0.2008905516076E+00 -0.3860140358638E+00  0.0000000000000E+00
 0.2141644302833E+00 -0.3499224953114E+00  0.0000000000000E+00
 0.2274383089590E+00 -0.3138309547591E+00  0.0000000000000E+00
 0.2407121876348E+00 -0.2777394142068E+00  0.0000000000000E+00
 0.2539860663105E+00 -0.2416478736544E+00  0.0000000000000E+00
 0.2672599449862E+00 -0.2055563331021E+00  0.0000000000000E+00
 0.2805338236619E+00 -0.1694647925498E+00  0.0000000000000E+00
 0.2938077023376E+00 -0.1333732519975E+00  0.0000000000000E+00
 0.3070815810133E+00 -0.9728171144512E-01  0.0000000000000E+00
 0.3203554596891E+00 -0.6119017089279E-01  0.0000000000000E+00
 0.3336293383648E+00 -0.2509863034046E-01  0.0000000000000E+00
 0.3469032170405E+00  0.1099291021187E-01  0.0000000000000E+00
 0.3601770957162E+00  0.4708445076420E-01  0.0000000000000E+00
 0.3734509743919E+00  0.8317599131653E-01  0.0000000000000E+00
 0.3867248530677E+00  0.1192675318689E+00  0.0000000000000E+00
 0.3999987317434E+00  0.1553590724212E+00  0.0000000000000E+00
 0.4132726104191E+00  0.1914506129735E+00  0.0000000000000E+00
 0.4265464890948E+00  0.2275421535259E+00  0.0000000000000E+00
 0.4398203677705E+00  0.2636336940782E+00  0.0000000000000E+00
 0.2342578968120E+00 -0.3880438745619E+00  0.0000000000000E+00
 0.2497160427631E+00 -0.3512380882442E+00  0.0000000000000E+00
 0.2651741887142E+00 -0.3144323019265E+00  0.0000000000000E+00
 0.2806323346653E+00 -0.2776265156088E+00  0.0000000000000E+00
 0.2960904806164E+00 -0.2408207292911E+00  0.0000000000000E+00
 0.3115486265674E+00 -0.2040149429734E+00  0.0000000000000E+00
 0.3270067725185E+00 -0.1672091566557E+00  0.0000000000000E+00
 0.3424649184696E+00 -0.1304033703380E+00  0.0000000000000E+00
 0.3579230644207E+00 -0.9359758402027E-01  0.0000000000000E+00
 0.3733812103718E+00 -0.5679179770256E-01  0.0000000000000E+00
 0.3888393563228E+00 -0.1998601138485E-01  0.0000000000000E+00
 0.4042975022739E+00  0.1681977493285E-01  0.0000000000000E+00
 0.4197556482250E+00  0.5362556125056E-01  0.0000000000000E+00
 0.4352137941761E+00  0.9043134756827E-01  0.0000000000000E+00
 0.4506719401272E+00  0.1272371338860E+00  0.0000000000000E+00
 0.4661300860782E+00  0.1640429202037E+00  0.0000000000000E+00
 0.4815882320293E+00  0.2008487065214E+00  0.0000000000000E+00
 0.4970463779804E+00  0.2376544928391E+00  0.0000000000000E+00
 0.5125045239315E+00  0.2744602791568E+00  0.0000000000000E+00
 0.2675697751805E+00 -0.3903634586150E+00  0.0000000000000E+00
 0.2851962167721E+00 -0.3527163568323E+00  0.0000000000000E+00
 0.3028226583638E+00 -0.3150692550497E+00  0.0000000000000E+00
 0.3204490999555E+00 -0.2774221532670E+00  0.0000000000000E+00
 0.3380755415472E+00 -0.2397750514843E+00  0.0000000000000E+00
 0.3557019831389E+00 -0.2021279497017E+00  0.0000000000000E+00
 0.3733284247305E+00 -0.1644808479190E+00  0.0000000000000E+00
 0.3909548663222E+00 -0.1268337461363E+00  0.0000000000000E+00
 0.4085813079139E+00 -0.8918664435365E-01  0.0000000000000E+00
 0.4262077495056E+00 -0.5153954257098E-01  0.0000000000000E+00
 0.4438341910973E+00 -0.1389244078831E-01  0.0000000000000E+00
 0.4614606326889E+00  0.2375466099436E-01  0.0000000000000E+00
 0.4790870742806E+00  0.6140176277703E-01  0.0000000000000E+00
 0.4967135158723E+00  0.9904886455970E-01  0.0000000000000E+00
 0.5143399574640E+00  0.1366959663424E+00  0.0000000000000E+00
 0.5319663990557E+00  0.1743430681250E+00  0.0000000000000E+00
 0.5495928406473E+00  0.2119901699077E+00  0.0000000000000E+00
 0.5672192822390E+00  0.2496372716904E+00  0.0000000000000E+00
 0.5848457238307E+00  0.2872843734730E+00  0.0000000000000E+00
 0.3008163577734E+00 -0.3929631428122E+00  0.0000000000000E+00
 0.3205906655322E+00 -0.3543402623307E+00  0.0000000000000E+00
 0.3403649732910E+00 -0.3157173818492E+00  0.0000000000000E+00
 0.3601392810498E+00 -0.2770945013677E+00  0.0000000000000E+00
 0.3799135888087E+00 -0.2384716208863E+00  0.0000000000000E+00
 0.3996878965675E+00 -0.1998487404048E+00  0.0000000000000E+00
 0.4194622043263E+00 -0.1612258599233E+00  0.0000000000000E+00
 0.4392365120851E+00 -0.1226029794418E+00  0.0000000000000E+00
 0.4590108198439E+00 -0.8398009896027E-01  0.0000000000000E+00
 0.4787851276028E+00 -0.4535721847878E-01  0.0000000000000E+00
 0.4985594353616E+00 -0.6734337997284E-02  0.0000000000000E+00
 0.5183337431204E+00  0.3188854248421E-01  0.0000000000000E+00
 0.5381080508792E+00  0.7051142296571E-01  0.0000000000000E+00
 0.5578823586381E+00  0.1091343034472E+00  0.0000000000000E+00
 0.5776566663969E+00  0.1477571839287E+00  0.0000000000000E+00
 0.5974309741557E+00  0.1863800644102E+00  0.0000000000000E+00
 0.6172052819145E+00  0.2250029448917E+00  0.0000000000000E+00
 0.6369795896734E+00  0.2636258253732E+00  0.0000000000000E+00
 0.6567538974322E+00  0.3022487058547E+00  0.0000000000000E+00
 0.3339899906020E+00 -0.3958444359414E+00  0.0000000000000E+00
 0.3558893491867E+00 -0.3561153469911E+00  0.0000000000000E+00
 0.3777887077715E+00 -0.3163862580408E+00  0.0000000000000E+00
 0.3996880663563E+00 -0.2766571690905E+00  0.0000000000000E+00
 0.4215874249411E+00 -0.2369280801402E+00  0.0000000000000E+00
 0.4434867835259E+00 -0.1971989911899E+00  0.0000000000000E+00
 0.4653861421107E+00 -0.1574699022396E+00  0.0000000000000E+00
 0.4872855006954E+00 -0.1177408132894E+00  0.0000000000000E+00
 0.5091848592802E+00 -0.7801172433906E-01  0.0000000000000E+00
 0.5310842178650E+00 -0.3828263538877E-01  0.0000000000000E+00
 0.5529835764498E+00  0.1446453561517E-02  0.0000000000000E+00
 0.5748829350346E+00  0.4117554251181E-01  0.0000000000000E+00
 0.5967822936193E+00  0.8090463146210E-01  0.0000000000000E+00
 0.6186816522041E+00  0.1206337204124E+00  0.0000000000000E+00
 0.6405810107889E+00  0.1603628093627E+00  0.0000000000000E+00
 0.6624803693737E+00  0.2000918983130E+00  0.0000000000000E+00
 0.6843797279585E+00  0.2398209872633E+00  0.0000000000000E+00
 0.7062790865433E+00  0.2795500762135E+00  0.0000000000000E+00
 0.7281784451280E+00  0.3192791651638E+00  0.0000000000000E+00
 0.3670941280509E+00 -0.3990479117477E+00  0.0000000000000E+00
 0.3911043430246E+00 -0.3581255481675E+00  0.0000000000000E+00
 0.4151145579982E+00 -0.3172031845874E+00  0.0000000000000E+00
 0.4391247729718E+00 -0.2762808210073E+00  0.0000000000000E+00
 0.4631349879455E+00 -0.2353584574271E+00  0.0000000000000E+00
 0.4871452029191E+00 -0.1944360938470E+00  0.0000000000000E+00
 0.5111554178927E+00 -0.1535137302669E+00  0.0000000000000E+00
 0.5351656328664E+00 -0.1125913666867E+00  0.0000000000000E+00
 0.5591758478400E+00 -0.7166900310660E-01  0.0000000000000E+00
 0.5831860628136E+00 -0.3074663952647E-01  0.0000000000000E+00
 0.6071962777873E+00  0.1017572405366E-01  0.0000000000000E+00
 0.6312064927609E+00  0.5109808763380E-01  0.0000000000000E+00
 0.6552167077345E+00  0.9202045121393E-01  0.0000000000000E+00
 0.6792269227082E+00  0.1329428147941E+00  0.0000000000000E+00
 0.7032371376818E+00  0.1738651783742E+00  0.0000000000000E+00
 0.7272473526555E+00  0.2147875419543E+00  0.0000000000000E+00
 0.7512575676291E+00  0.2557099055345E+00  0.0000000000000E+00
 0.7752677826027E+00  0.2966322691146E+00  0.0000000000000E+00
 0.7992779975764E+00  0.3375546326947E+00  0.0000000000000E+00
 0.4001452658322E+00 -0.4026538268434E+00  0.0000000000000E+00
 0.4262736919301E+00 -0.3605344242716E+00  0.0000000000000E+00
 0.4524021180279E+00 -0.3184150216998E+00  0.0000000000000E+00
 0.4785305441258E+00 -0.2762956191280E+00  0.0000000000000E+00
 0.5046589702237E+00 -0.2341762165562E+00  0.0000000000000E+00
 0.5307873963216E+00 -0.1920568139844E+00  0.0000000000000E+00
 0.5569158224194E+00 -0.1499374114126E+00  0.0000000000000E+00
 0.5830442485173E+00 -0.1078180088408E+00  0.0000000000000E+00
 0.6091726746152E+00 -0.6569860626900E-01  0.0000000000000E+00
 0.6353011007131E+00 -0.2357920369720E-01  0.0000000000000E+00
 0.6614295268109E+00  0.1854019887460E-01  0.0000000000000E+00
 0.6875579529088E+00  0.6065960144641E-01  0.0000000000000E+00
 0.7136863790067E+00  0.1027790040182E+00  0.0000000000000E+00
 0.7398148051046E+00  0.1448984065900E+00  0.0000000000000E+00
 0.7659432312024E+00  0.1870178091618E+00  0.0000000000000E+00
 0.7920716573003E+00  0.2291372117336E+00  0.0000000000000E+00
 0.8182000833982E+00  0.2712566143054E+00  0.0000000000000E+00
 0.8443285094961E+00  0.3133760168772E+00  0.0000000000000E+00
 0.8704569355939E+00  0.3554954194490E+00  0.0000000000000E+00
 0.4331566792210E+00 -0.4067328541253E+00  0.0000000000000E+00
 0.4614288245888E+00 -0.3634866018376E+00  0.0000000000000E+00
 0.4897009699565E+00 -0.3202403495500E+00  0.0000000000000E+00
 0.5179731153242E+00 -0.2769940972623E+00  0.0000000000000E+00
 0.5462452606920E+00 -0.2337478449747E+00  0.0000000000000E+00
 0.5745174060597E+00 -0.1905015926870E+00  0.0000000000000E+00
 0.6027895514275E+00 -0.1472553403993E+00  0.0000000000000E+00
 0.6310616967952E+00 -0.1040090881117E+00  0.0000000000000E+00
 0.6593338421629E+00 -0.6076283582400E-01  0.0000000000000E+00
 0.6876059875307E+00 -0.1751658353633E-01  0.0000000000000E+00
 0.7158781328984E+00  0.2572966875133E-01  0.0000000000000E+00
 0.7441502782662E+00  0.6897592103899E-01  0.0000000000000E+00
 0.7724224236339E+00  0.1122221733267E+00  0.0000000000000E+00
 0.8006945690017E+00  0.1554684256143E+00  0.0000000000000E+00
 0.8289667143694E+00  0.1987146779020E+00  0.0000000000000E+00
 0.8572388597371E+00  0.2419609301896E+00  0.0000000000000E+00
 0.8855110051049E+00  0.2852071824773E+00  0.0000000000000E+00
 0.9137831504726E+00  0.3284534347650E+00  0.0000000000000E+00
 0.9420552958404E+00  0.3716996870526E+00  0.0000000000000E+00
 0.4661358892480E+00 -0.4113546121035E+00  0.0000000000000E+00
 0.4965895943463E+00 -0.3671248415798E+00  0.0000000000000E+00
 0.5270432994446E+00 -0.3228950710562E+00  0.0000000000000E+00
 0.5574970045428E+00 -0.2786653005325E+00  0.0000000000000E+00
 0.5879507096411E+00 -0.2344355300089E+00  0.0000000000000E+00
 0.6184044147394E+00 -0.1902057594852E+00  0.0000000000000E+00
 0.6488581198376E+00 -0.1459759889615E+00  0.0000000000000E+00
 0.6793118249359E+00 -0.1017462184379E+00  0.0000000000000E+00
 0.7097655300342E+00 -0.5751644791423E-01  0.0000000000000E+00
 0.7402192351324E+00 -0.1328667739058E-01  0.0000000000000E+00
 0.7706729402307E+00  0.3094309313308E-01  0.0000000000000E+00
 0.8011266453290E+00  0.7517286365674E-01  0.0000000000000E+00
 0.8315803504272E+00  0.1194026341804E+00  0.0000000000000E+00
 0.8620340555255E+00  0.1636324047041E+00  0.0000000000000E+00
 0.8924877606238E+00  0.2078621752277E+00  0.0000000000000E+00
 0.9229414657220E+00  0.2520919457514E+00  0.0000000000000E+00
 0.9533951708203E+00  0.2963217162750E+00  0.0000000000000E+00
 0.9838488759186E+00  0.3405514867987E+00  0.0000000000000E+00
 0.1014302581017E+01  0.3847812573223E+00  0.0000000000000E+00
 0.4990802664438E+00 -0.4165840327379E+00  0.0000000000000E+00
 0.5317553215595E+00 -0.3715827348342E+00  0.0000000000000E+00
 0.5644303766752E+00 -0.3265814369305E+00  0.0000000000000E+00
 0.5971054317909E+00 -0.2815801390268E+00  0.0000000000000E+00
 0.6297804869067E+00 -0.2365788411232E+00  0.0000000000000E+00
 0.6624555420224E+00 -0.1915775432195E+00  0.0000000000000E+00
 0.6951305971381E+00 -0.1465762453158E+00  0.0000000000000E+00
 0.7278056522539E+00 -0.1015749474121E+00  0.0000000000000E+00
 0.7604807073696E+00 -0.5657364950839E-01  0.0000000000000E+00
 0.7931557624853E+00 -0.1157235160470E-01  0.0000000000000E+00
 0.8258308176011E+00  0.3342894629900E-01  0.0000000000000E+00
 0.8585058727168E+00  0.7843024420269E-01  0.0000000000000E+00
 0.8911809278325E+00  0.1234315421064E+00  0.0000000000000E+00
 0.9238559829483E+00  0.1684328400101E+00  0.0000000000000E+00
 0.9565310380640E+00  0.2134341379138E+00  0.0000000000000E+00
 0.9892060931797E+00  0.2584354358175E+00  0.0000000000000E+00
 0.1021881148295E+01  0.3034367337211E+00  0.0000000000000E+00
 0.1054556203411E+01  0.3484380316248E+00  0.0000000000000E+00
 0.1087231258527E+01  0.3934393295285E+00  0.0000000000000E+00
 0.5319747862026E+00 -0.4224941396770E+00  0.0000000000000E+00
 0.5669005035122E+00 -0.3770102860085E+00  0.0000000000000E+00
 0.6018262208219E+00 -0.3315264323400E+00  0.0000000000000E+00
 0.6367519381315E+00 -0.2860425786714E+00  0.0000000000000E+00
 0.6716776554412E+00 -0.2405587250029E+00  0.0000000000000E+00
 0.7066033727508E+00 -0.1950748713344E+00  0.0000000000000E+00
 0.7415290900604E+00 -0.1495910176658E+00  0.0000000000000E+00
 0.7764548073701E+00 -0.1041071639973E+00  0.0000000000000E+00
 0.8113805246797E+00 -0.5862331032874E-01  0.0000000000000E+00
 0.8463062419894E+00 -0.1313945666021E-01  0.0000000000000E+00
 0.8812319592990E+00  0.3234439700833E-01  0.0000000000000E+00
 0.9161576766086E+00  0.7782825067687E-01  0.0000000000000E+00
 0.9510833939183E+00  0.1233121043454E+00  0.0000000000000E+00
 0.9860091112279E+00  0.1687959580139E+00  0.0000000000000E+00
 0.1020934828538E+01  0.2142798116825E+00  0.0000000000000E+00
 0.1055860545847E+01  0.2597636653510E+00  0.0000000000000E+00
 0.1090786263157E+01  0.3052475190195E+00  0.0000000000000E+00
 0.1125711980466E+01  0.3507313726881E+00  0.0000000000000E+00
 0.1160637697776E+01  0.3962152263566E+00  0.0000000000000E+00
 0.5647851635818E+00 -0.4291779471573E+00  0.0000000000000E+00
 0.6019607638464E+00 -0.3835976335334E+00  0.0000000000000E+00
 0.6391363641111E+00 -0.3380173199096E+00  0.0000000000000E+00
 0.6763119643757E+00 -0.2924370062857E+00  0.0000000000000E+00
 0.7134875646404E+00 -0.2468566926618E+00  0.0000000000000E+00
 0.7506631649050E+00 -0.2012763790380E+00  0.0000000000000E+00
 0.7878387651697E+00 -0.1556960654141E+00  0.0000000000000E+00
 0.8250143654344E+00 -0.1101157517902E+00  0.0000000000000E+00
 0.8621899656990E+00 -0.6453543816633E-01  0.0000000000000E+00
 0.8993655659637E+00 -0.1895512454246E-01  0.0000000000000E+00
 0.9365411662283E+00  0.2662518908141E-01  0.0000000000000E+00
 0.9737167664930E+00  0.7220550270529E-01  0.0000000000000E+00
 0.1010892366758E+01  0.1177858163292E+00  0.0000000000000E+00
 0.1048067967022E+01  0.1633661299530E+00  0.0000000000000E+00
 0.1085243567287E+01  0.2089464435769E+00  0.0000000000000E+00
 0.1122419167552E+01  0.2545267572008E+00  0.0000000000000E+00
 0.1159594767816E+01  0.3001070708247E+00  0.0000000000000E+00
 0.1196770368081E+01  0.3456873844485E+00  0.0000000000000E+00
 0.1233945968346E+01  0.3912676980724E+00  0.0000000000000E+00
 0.5974622414189E+00 -0.4366441451446E+00  0.0000000000000E+00
 0.6368419582214E+00 -0.3913664748674E+00  0.0000000000000E+00
 0.6762216750239E+00 -0.3460888045901E+00  0.0000000000000E+00
 0.7156013918264E+00 -0.3008111343129E+00  0.0000000000000E+00
 0.7549811086289E+00 -0.2555334640357E+00  0.0000000000000E+00
 0.7943608254314E+00 -0.2102557937584E+00  0.0000000000000E+00
 0.8337405422339E+00 -0.1649781234812E+00  0.0000000000000E+00
 0.8731202590364E+00 -0.1197004532040E+00  0.0000000000000E+00
 0.9124999758389E+00 -0.7442278292673E-01  0.0000000000000E+00
 0.9518796926414E+00 -0.2914511264950E-01  0.0000000000000E+00
 0.9912594094439E+00  0.1613255762773E-01  0.0000000000000E+00
 0.1030639126246E+01  0.6141022790496E-01  0.0000000000000E+00
 0.1070018843049E+01  0.1066878981822E+00  0.0000000000000E+00
 0.1109398559851E+01  0.1519655684594E+00  0.0000000000000E+00
 0.1148778276654E+01  0.1972432387367E+00  0.0000000000000E+00
 0.1188157993456E+01  0.2425209090139E+00  0.0000000000000E+00
 0.1227537710259E+01  0.2877985792911E+00  0.0000000000000E+00
 0.1266917427061E+01  0.3330762495684E+00  0.0000000000000E+00
 0.1306297143864E+01  0.3783539198456E+00  0.0000000000000E+00
 0.6299559713731E+00 -0.4448788634348E+00  0.0000000000000E+00
 0.6714480731557E+00 -0.4002935754811E+00  0.0000000000000E+00
 0.7129401749383E+00 -0.3557082875275E+00  0.0000000000000E+00
 0.7544322767209E+00 -0.3111229995738E+00  0.0000000000000E+00
 0.7959243785035E+00 -0.2665377116201E+00  0.0000000000000E+00
 0.8374164802861E+00 -0.2219524236665E+00  0.0000000000000E+00
 0.8789085820687E+00 -0.1773671357128E+00  0.0000000000000E+00
 0.9204006838513E+00 -0.1327818477591E+00  0.0000000000000E+00
 0.9618927856339E+00 -0.8819655980548E-01  0.0000000000000E+00
 0.1003384887417E+01 -0.4361127185182E-01  0.0000000000000E+00
 0.1044876989199E+01  0.9740161018481E-03  0.0000000000000E+00
 0.1086369090982E+01  0.4555930405551E-01  0.0000000000000E+00
 0.1127861192764E+01  0.9014459200918E-01  0.0000000000000E+00
 0.1169353294547E+01  0.1347298799628E+00  0.0000000000000E+00
 0.1210845396330E+01  0.1793151679165E+00  0.0000000000000E+00
 0.1252337498112E+01  0.2239004558702E+00  0.0000000000000E+00
 0.1293829599895E+01  0.2684857438238E+00  0.0000000000000E+00
 0.1335321701677E+01  0.3130710317775E+00  0.0000000000000E+00
 0.1376813803460E+01  0.3576563197312E+00  0.0000000000000E+00
</DataArray>
</Points>
<Cells>
<DataArray type="Int64" Name="connectivity" format="ascii">
0 11 438 243
243 438 439 244
244 439 440 245
245 440 441 246
246 441 442 247
247 442 443 248
248 443 444 249
249 444 445 250
250 445 446 251
251 446 447 252
252 447 448 253
253 448 449 254
254 449 450 255
255 450 451 256
256 451 452 257
257 452 453 258
258 453 454 259
259 454 455 260
260 455 456 261
261 456 457 262
262 457 458 263
263 458 459 264
264 459 460 265
265 460 461 266
266 461 462 267
267 462 463 268
268 463 464 269
269 464 465 270
270 465 466 271
271 466 467 272
272 467 468 273
273 468 469 274
274 469 470 275
275 470 471 276
276 471 472 277
277 472 473 278
278 473 474 279
279 474 475 280
280 475 476 281
281 476 477 282
282 477 89 3
11 12 478 438
438 478 479 439
439 479 480 440
440 480 481 441
441 481 482 442
442 482 483 443
443 483 484 444
444 484 485 445
445 485 486 446
446 486 487 447
447 487 488 448
448 488 489 449
449 489 490 450
450 490 491 451
451 491 492 452
452 492 493 453
453 493 494 454
454 494 495 455
455 495 496 456
456 496 497 457
457 497 498 458
458 498 499 459
459 499 500 460
460 500 501 461
461 501 502 462
462 502 503 463
463 503 504 464
464 504 505 465
465 505 506 466
466 506 507 467
467 507 508 468
468 508 509 469
469 509 510 470
470 510 511 471
471 511 512 472
472 512 513 473
473 513 514 474
474 514 515 475
475 515 516 476
476 516 517 477
477 517 90 89
12 13 518 478
478 518 519 479
479 519 520 480
480 520 521 481
481 521 522 482
482 522 523 483
483 523 524 484
484 524 525 485
485 525 526 486
486 526 527 487
487 527 528 488
488 528 529 489
489 529 530 490
490 530 531 491
491 531 532 492
492 532 533 493
493 533 534 494
494 534 535 495
495 535 536 496
496 536 537 497
497 537 538 498
498 538 539 499
499 539 540 500
500 540 541 501
501 541 542 502
502 542 543 503
503 543 544 504
504 544 545 505
505 545 546 506
506 546 547 507
507 547 548 508
508 548 549 509
509 549 550 510
510 550 551 511
511 551 552 512
512 552 553 513
513 553 554 514
514 554 555 515
515 555 556 516
516 556 557 517
517 557 91 90
13 14 558 518
518 558 559 519
519 559 560 520
520 560 561 521
521 561 562 522
522 562 563 523
523 563 564 524
524 564 565 525
525 565 566 526
526 566 567 527
527 567 568 528
528 568 569 529
529 569 570 530
530 570 571 531
531 571 572 532
532 572 573 533
533 573 574 534
534 574 575 535
535 575 576 536
536 576 577 537
537 577 578 538
538 578 579 539
539 579 580 540
540 580 581 541
541 581 582 542
542 582 583 543
543 583 584 544
544 584 585 545
545 585 586 546
546 586 587 547
547 587 588 548
548 588 589 549
549 589 590 550
550 590 591 551
551 591 592 552
552 592 593 553
553 593 594 554
554 594 595 555
555 595 596 556
556 596 597 557
557 597 92 91
14 15 598 558
558 598 599 559
559 599 600 560
560 600 601 561
561 601 602 562
562 602 603 563
563 603 604 564
564 604 605 565
565 605 606 566
566 606 607 567
567 607 608 568
568 608 609 569
569 609 610 570
570 610 611 571
571 611 612 572
572 612 613 573
573 613 614 574
574 614 615 575
575 615 616 576
576 616 617 577
577 617 618 578
578 618 619 579
579 619 620 580
580 620 621 581
581 621 622 582
582 622 623 583
583 623 624 584
584 624 625 585
585 625 626 586
586 626 627 587
587 627 628 588
588 628 629 589
589 629 630 590
590 630 631 591
591 631 632 592
592 632 633 593
593 633 634 594
594 634 635 595
595 635 636 596
596 636 637 597
597 637 93 92
15 16 638 598
598 638 639 599
599 639 640 600
600 640 641 601
601 641 642 602
602 642 643 603
603 643 644 604
604 644 645 605
605 645 646 606
606 646 647 607
607 647 648 608
608 648 649 609
609 649 650 610
610 650 651 611
611 651 652 612
612 652 653 613
613 653 654 614
614 654 655 615
615 655 656 616
616 656 657 617
617 657 658 618
618 658 659 619
619 659 660 620
620 660 661 621
621 661 662 622
622 662 663 623
623 663 664 624
624 664 665 625
625 665 666 626
626 666 667 627
627 667 668 628
628 668 669 629
629 669 670 630
630 670 671 631
631 671 672 632
632 672 673 633
633 673 674 634
634 674 675 635
635 675 676 636
636 676 677 637
637 677 94 93
16 17 678 638
638 678 679 639
639 679 680 640
640 680 681 641
641 681 682 642
642 682 683 643
643 683 684 644
644 684 685 645
645 685 686 646
646 686 687 647
647 687 688 648
648 688 689 649
649 689 690 650
650 690 691 651
651 691 692 652
652 692 693 653
653 693 694 654
654 694 695 655
655 695 696 656
656 696 697 657
657 697 698 658
658 698 699 659
659 699 700 660
660 700 701 661
661 701 702 662
662 702 703 663
663 703 704 664
664 704 705 665
665 705 706 666
666 706 707 667
667 707 708 668
668 708 709 669
669 709 710 670
670 710 711 671
671 711 712 672
672 712 713 673
673 713 714 674
674 714 715 675
675 715 716 676
676 716 717 677
677 717 95 94
17 18 718 678
678 718 719 679
679 719 720 680
680 720 721 681
681 721 722 682
682 722 723 683
683 723 724 684
684 724 725 685
685 725 726 686
686 726 727 687
687 727 728 688
688 728 729 689
689 729 730 690
690 730 731 691
691 731 732 692
692 732 733 693
693 733 734 694
694 734 735 695
695 735 736 696
696 736 737 697
697 737 738 698
698 738 739 699
699 739 740 700
700 740 741 701
701 741 742 702
702 742 743 703
703 743 744 704
704 744 745 705
705 745 746 706
706 746 747 707
707 747 748 708
708 748 749 709
709 749 750 710
710 750 751 711
711 751 752 712
712 752 753 713
713 753 754 714
714 754 755 715
715 755 756 716
716 756 757 717
717 757 96 95
18 19 758 718
718 758 759 719
719 759 760 720
720 760 761 721
721 761 762 722
722 762 763 723
723 763 764 724
724 764 765 725
725 765 766 726
726 766 767 727
727 767 768 728
728 768 769 729
729 769 770 730
730 770 771 731
731 771 772 732
732 772 773 733
733 773 774 734
734 774 775 735
735 775 776 736
736 776 777 737
737 777 778 738
738 778 779 739
739 779 780 740
740 780 781 741
741 781 782 742
742 782 783 743
743 783 784 744
744 784 785 745
745 785 786 746
746 786 787 747
747 787 788 748
748 788 789 749
749 789 790 750
750 790 791 751
751 791 792 752
752 792 793 753
753 793 794 754
754 794 795 755
755 795 796 756
756 796 797 757
757 797 97 96
19 20 798 758
758 798 799 759
759 799 800 760
760 800 801 761
761 801 802 762
762 802 803 763
763 803 804 764
764 804 805 765
765 805 806 766
766 806 807 767
767 807 808 768
768 808 809 769
769 809 810 770
770 810 811 771
771 811 812 772
772 812 813 773
773 813 814 774
774 814 815 775
775 815 816 776
776 816 817 777
777 817 818 778
778 818 819 779
779 819 820 780
780 820 821 781
781 821 822 782
782 822 823 783
783 823 824 784
784 824 825 785
785 825 826 786
786 826 827 787
787 827 828 788
788 828 829 789
789 829 830 790
790 830 831 791
791 831 832 792
792 832 833 793
793 833 834 794
794 834 835 795
795 835 836 796
796 836 837 797
797 837 98 97
20 21 838 798
798 838 839 799
799 839 840 800
800 840 841 801
801 841 842 802
802 842 843 803
803 843 844 804
804 844 845 805
805 845 846 806
806 846 847 807
807 847 848 808
808 848 849 809
809 849 850 810
810 850 851 811
811 851 852 812
812 852 853 813
813 853 854 814
814 854 855 815
815 855 856 816
816 856 857 817
817 857 858 818
818 858 859 819
819 859 860 820
820 860 861 821
821 861 862 822
822 862 863 823
823 863 864 824
824 864 865 825
825 865 866 826
826 866 867 827
827 867 868 828
828 868 869 829
829 869 870 830
830 870 871 831
831 871 872 832
832 872 873 833
833 873 874 834
834 874 875 835
835 875 876 836
836 876 877 837
837 877 99 98
21 22 878 838
838 878 879 839
839 879 880 840
840 880 881 841
841 881 882 842
842 882 883 843
843 883 884 844
844 884 885 845
845 885 886 846
846 886 887 847
847 887 888 848
848 888 889 849
849 889 890 850
850 890 891 851
851 891 892 852
852 892 893 853
853 893 894 854
854 894 895 855
855 895 896 856
856 896 897 857
857 897 898 858
858 898 899 859
859 899 900 860
860 900 901 861
861 901 902 862
862 902 903 863
863 903 904 864
864 904 905 865
865 905 906 866
866 906 907 867
867 907 908 868
868 908 909 869
869 909 910 870
870 910 911 871
871 911 912 872
872 912 913 873
873 913 914 874
874 914 915 875
875 915 916 876
876 916 917 877
877 917 100 99
22 23 918 878
878 918 919 879
879 919 920 880
880 920 921 881
881 921 922 882
882 922 923 883
883 923 924 884
884 924 925 885
885 925 926 886
886 926 927 887
887 927 928 888
888 928 929 889
889 929 930 890
890 930 931 891
891 931 932 892
892 932 933 893
893 933 934 894
894 934 935 895
895 935 936 896
896 936 937 897
897 937 938 898
898 938 939 899
899 939 940 900
900 940 941 901
901 941 942 902
902 942 943 903
903 943 944 904
904 944 945 905
905 945 946 906
906 946 947 907
907 947 948 908
908 948 949 909
909 949 950 910
910 950 951 911
911 951 952 912
912 952 953 913
913 953 954 914
914 954 955 915
915 955 956 916
916 956 957 917
917 957 101 100
23 24 958 918
918 958 959 919
919 959 960 920
920 960 961 921
921 961 962 922
922 962 963 923
923 963 964 924
924 964 965 925
925 965 966 926
926 966 967 927
927 967 968 928
928 968 969 929
929 969 970 930
930 970 971 931
931 971 972 932
932 972 973 933
933 973 974 934
934 974 975 935
935 975 976 936
936 976 977 937
937 977 978 938
938 978 979 939
939 979 980 940
940 980 981 941
941 981 982 942
942 982 983 943
943 983 984 944
944 984 985 945
945 985 986 946
946 986 987 947
947 987 988 948
948 988 989 949
949 989 990 950
950 990 991 951
951 991 992 952
952 992 993 953
953 993 994 954
954 994 995 955
955 995 996 956
956 996 997 957
957 997 102 101
24 25 998 958
958 998 999 959
959 999 1000 960
960 1000 1001 961
961 1001 1002 962
962 1002 1003 963
963 1003 1004 964
964 1004 1005 965
965 1005 1006 966
966 1006 1007 967
967 1007 1008 968
968 1008 1009 969
969 1009 1010 970
970 1010 1011 971
971 1011 1012 972
972 1012 1013 973
973 1013 1014 974
974 1014 1015 975
975 1015 1016 976
976 1016 1017 977
977 1017 1018 978
978 1018 1019 979
979 1019 1020 980
980 1020 1021 981
981 1021 1022 982
982 1022 1023 983
983 1023 1024 984
984 1024 1025 985
985 1025 1026 986
986 1026 1027 987
987 1027 1028 988
988 1028 1029 989
989 1029 1030 990
990 1030 1031 991
991 1031 1032 992
992 1032 1033 993
993 1033 1034 994
994 1034 1035 995
995 1035 1036 996
996 1036 1037 997
997 1037 103 102
25 26 1038 998
998 1038 1039 999
999 1039 1040 1000
1000 1040 1041 1001
1001 1041 1042 1002
1002 1042 1043 1003
1003 1043 1044 1004
1004 1044 1045 1005
1005 1045 1046 1006
1006 1046 1047 1007
1007 1047 1048 1008
1008 1048 1049 1009
1009 1049 1050 1010
1010 1050 1051 1011
1011 1051 1052 1012
1012 1052 1053 1013
1013 1053 1054 1014
1014 1054 1055 1015
1015 1055 1056 1016
1016 1056 1057 1017
1017 1057 1058 1018
1018 1058 1059 1019
1019 1059 1060 1020
1020 1060 1061 1021
1021 1061 1062 1022
1022 1062 1063 1023
1023 1063 1064 1024
1024 1064 1065 1025
1025 1065 1066 1026
1026 1066 1067 1027
1027 1067 1068 1028
1028 1068 1069 1029
1029 1069 1070 1030
1030 1070 1071 1031
1031 1071 1072 1032
1032 1072 1073 1033
1033 1073 1074 1034
1034 1074 1075 1035
1035 1075 1076 1036
1036 1076 1077 1037
1037 1077 104 103
26 27 1078 1038
1038 1078 1079 1039
1039 1079 1080 1040
1040 1080 1081 1041
1041 1081 1082 1042
1042 1082 1083 1043
1043 1083 1084 1044
1044 1084 1085 1045
1045 1085 1086 1046
1046 1086 1087 1047
1047 1087 1088 1048
1048 1088 1089 1049
1049 1089 1090 1050
1050 1090 1091 1051
1051 1091 1092 1052
1052 1092 1093 1053
1053 1093 1094 1054
1054 1094 1095 1055
1055 1095 1096 1056
1056 1096 1097 1057
1057 1097 1098 1058
1058 1098 1099 1059
1059 1099 1100 1060
1060 1100 1101 1061
1061 1101 1102 1062
1062 1102 1103 1063
1063 1103 1104 1064
1064 1104 1105 1065
1065 1105 1106 1066
1066 1106 1107 1067
1067 1107 1108 1068
1068 1108 1109 1069
1069 1109 1110 1070
1070 1110 1111 1071
1071 1111 1112 1072
1072 1112 1113 1073
1073 1113 1114 1074
1074 1114 1115 1075
1075 1115 1116 1076
1076 1116 1117 1077
1077 1117 105 104
27 28 1118 1078
1078 1118 1119 1079
1079 1119 1120 1080
1080 1120 1121 1081
1081 1121 1122 1082
1082 1122 1123 1083
1083 1123 1124 1084
1084 1124 1125 1085
1085 1125 1126 1086
1086 1126 1127 1087
1087 1127 1128 1088
1088 1128 1129 1089
1089 1129 1130 1090
1090 1130 1131 1091
1091 1131 1132 1092
1092 1132 1133 1093
1093 1133 1134 1094
1094 1134 1135 1095
1095 1135 1136 1096
1096 1136 1137 1097
1097 1137 1138 1098
1098 1138 1139 1099
1099 1139 1140 1100
1100 1140 1141 1101
1101 1141 1142 1102
1102 1142 1143 1103
1103 1143 1144 1104
1104 1144 1145 1105
1105 1145 1146 1106
1106 1146 1147 1107
1107 1147 1148 1108
1108 1148 1149 1109
1109 1149 1150 1110
1110 1150 1151 1111
1111 1151 1152 1112
1112 1152 1153 1113
1113 1153 1154 1114
1114 1154 1155 1115
1115 1155 1156 1116
1116 1156 1157 1117
1117 1157 106 105
28 29 1158 1118
1118 1158 1159 1119
1119 1159 1160 1120
1120 1160 1161 1121
1121 1161 1162 1122
1122 1162 1163 1123
1123 1163 1164 1124
1124 1164 1165 1125
1125 1165 1166 1126
1126 1166 1167 1127
1127 1167 1168 1128
1128 1168 1169 1129
1129 1169 1170 1130
1130 1170 1171 1131
1131 1171 1172 1132
1132 1172 1173 1133
1133 1173 1174 1134
1134 1174 1175 1135
1135 1175 1176 1136
1136 1176 1177 1137
1137 1177 1178 1138
1138 1178 1179 1139
1139 1179 1180 1140
1140 1180 1181 1141
1141 1181 1182 1142
1142 1182 1183 1143
1143 1183 1184 1144
1144 1184 1185 1145
1145 1185 1186 1146
1146 1186 1187 1147
1147 1187 1188 1148
1148 1188 1189 1149
1149 1189 1190 1150
1150 1190 1191 1151
1151 1191 1192 1152
1152 1192 1193 1153
1153 1193 1194 1154
1154 1194 1195 1155
1155 1195 1196 1156
1156 1196 1197 1157
1157 1197 107 106
29 30 1198 1158
1158 1198 1199 1159
1159 1199 1200 1160
1160 1200 1201 1161
1161 1201 1202 1162
1162 1202 1203 1163
1163 1203 1204 1164
1164 1204 1205 1165
1165 1205 1206 1166
1166 1206 1207 1167
1167 1207 1208 1168
1168 1208 1209 1169
1169 1209 1210 1170
1170 1210 1211 1171
1171 1211 1212 1172
1172 1212 1213 1173
1173 1213 1214 1174
1174 1214 1215 1175
1175 1215 1216 1176
1176 1216 1217 1177
1177 1217 1218 1178
1178 1218 1219 1179
1179 1219 1220 1180
1180 1220 1221 1181
1181 1221 1222 1182
1182 1222 1223 1183
1183 1223 1224 1184
1184 1224 1225 1185
1185 1225 1226 1186
1186 1226 1227 1187
1187 1227 1228 1188
1188 1228 1229 1189
1189 1229 1230 1190
1190 1230 1231 1191
1191 1231 1232 1192
1192 1232 1233 1193
1193 1233 1234 1194
1194 1234 1235 1195
1195 1235 1236 1196
1196 1236 1237 1197
1197 1237 4 107
30 31 1238 1198
1198 1238 1239 1199
1199 1239 1240 1200
1200 1240 1241 1201
1201 1241 1242 1202
1202 1242 1243 1203
1203 1243 1244 1204
1204 1244 1245 1205
1205 1245 1246 1206
1206 1246 1247 1207
1207 1247 1248 1208
1208 1248 1249 1209
1209 1249 1250 1210
1210 1250 1251 1211
1211 1251 1252 1212
1212 1252 1253 1213
1213 1253 1254 1214
1214 1254 1255 1215
1215 1255 1256 1216
1216 1256 1257 1217
1217 1257 1258 1218
1218 1258 1259 1219
1219 1259 1260 1220
1220 1260 1261 1221
1221 1261 1262 1222
1222 1262 1263 1223
1223 1263 1264 1224
1224 1264 1265 1225
1225 1265 1266 1226
1226 1266 1267 1227
1227 1267 1268 1228
1228 1268 1269 1229
1229 1269 1270 1230
1230 1270 1271 1231
1231 1271 1272 1232
1232 1272 1273 1233
1233 1273 1274 1234
1234 1274 1275 1235
1235 1275 1276 1236
1236 1276 1277 1237
1237 1277 108 4
31 32 1278 1238
1238 1278 1279 1239
1239 1279 1280 1240
1240 1280 1281 1241
1241 1281 1282 1242
1242 1282 1283 1243
1243 1283 1284 1244
1244 1284 1285 1245
1245 1285 1286 1246
1246 1286 1287 1247
1247 1287 1288 1248
1248 1288 1289 1249
1249 1289 1290 1250
1250 1290 1291 1251
1251 1291 1292 1252
1252 1292 1293 1253
1253 1293 1294 1254
1254 1294 1295 1255
1255 1295 1296 1256
1256 1296 1297 1257
1257 1297 1298 1258
1258 1298 1299 1259
1259 1299 1300 1260
1260 1300 1301 1261
1261 1301 1302 1262
1262 1302 1303 1263
1263 1303 1304 1264
1264 1304 1305 1265
1265 1305 1306 1266
1266 1306 1307 1267
1267 1307 1308 1268
1268 1308 1309 1269
1269 1309 1310 1270
1270 1310 1311 1271
1271 1311 1312 1272
1272 1312 1313 1273
1273 1313 1314 1274
1274 1314 1315 1275
1275 1315 1316 1276
1276 1316 1317 1277
1277 1317 109 108
32 33 1318 1278
1278 1318 1319 1279
1279 1319 1320 1280
1280 1320 1321 1281
1281 1321 1322 1282
1282 1322 1323 1283
1283 1323 1324 1284
1284 1324 1325 1285
1285 1325 1326 1286
1286 1326 1327 1287
1287 1327 1328 1288
1288 1328 1329 1289
1289 1329 1330 1290
1290 1330 1331 1291
1291 1331 1332 1292
1292 1332 1333 1293
1293 1333 1334 1294
1294 1334 1335 1295
1295 1335 1336 1296
1296 1336 1337 1297
1297 1337 1338 1298
1298 1338 1339 1299
1299 1339 1340 1300
1300 1340 1341 1301
1301 1341 1342 1302
1302 1342 1343 1303
1303 1343 1344 1304
1304 1344 1345 1305
1305 1345 1346 1306
1306 1346 1347 1307
1307 1347 1348 1308
1308 1348 1349 1309
1309 1349 1350 1310
1310 1350 1351 1311
1311 1351 1352 1312
1312 1352 1353 1313
1313 1353 1354 1314
1314 1354 1355 1315
1315 1355 1356 1316
1316 1356 1357 1317
1317 1357 110 109
33 34 1358 1318
1318 1358 1359 1319
1319 1359 1360 1320
1320 1360 1361 1321
1321 1361 1362 1322
1322 1362 1363 1323
1323 1363 1364 1324
1324 1364 1365 1325
1325 1365 1366 1326
1326 1366 1367 1327
1327 1367 1368 1328
1328 1368 1369 1329
1329 1369 1370 1330
1330 1370 1371 1331
1331 1371 1372 1332
1332 1372 1373 1333
1333 1373 1374 1334
1334 1374 1375 1335
1335 1375 1376 1336
1336 1376 1377 1337
1337 1377 1378 1338
1338 1378 1379 1339
1339 1379 1380 1340
1340 1380 1381 1341
1341 1381 1382 1342
1342 1382 1383 1343
1343 1383 1384 1344
1344 1384 1385 1345
1345 1385 1386 1346
1346 1386 1387 1347
1347 1387 1388 1348
1348 1388 1389 1349
1349 1389 1390 1350
1350 1390 1391 1351
1351 1391 1392 1352
1352 1392 1393 1353
1353 1393 1394 1354
1354 1394 1395 1355
1355 1395 1396 1356
1356 1396 1397 1357
1357 1397 111 110
34 35 1398 1358
1358 1398 1399 1359
1359 1399 1400 1360
1360 1400 1401 1361
1361 1401 1402 1362
1362 1402 1403 1363
1363 1403 1404 1364
1364 1404 1405 1365
1365 1405 1406 1366
1366 1406 1407 1367
1367 1407 1408 1368
1368 1408 1409 1369
1369 1409 1410 1370
1370 1410 1411 1371
1371 1411 1412 1372
1372 1412 1413 1373
1373 1413 1414 1374
1374 1414 1415 1375
1375 1415 1416 1376
1376 1416 1417 1377
1377 1417 1418 1378
1378 1418 1419 1379
1379 1419 1420 1380
1380 1420 1421 1381
1381 1421 1422 1382
1382 1422 1423 1383
1383 1423 1424 1384
1384 1424 1425 1385
1385 1425 1426 1386
1386 1426 1427 1387
1387 1427 1428 1388
1388 1428 1429 1389
1389 1429 1430 1390
1390 1430 1431 1391
1391 1431 1432 1392
1392 1432 1433 1393
1393 1433 1434 1394
1394 1434 1435 1395
1395 1435 1436 1396
1396 1436 1437 1397
1397 1437 112 111
35 36 1438 1398
1398 1438 1439 1399
1399 1439 1440 1400
1400 1440 1441 1401
1401 1441 1442 1402
1402 1442 1443 1403
1403 1443 1444 1404
1404 1444 1445 1405
1405 1445 1446 1406
1406 1446 1447 1407
1407 1447 1448 1408
1408 1448 1449 1409
1409 1449 1450 1410
1410 1450 1451 1411
1411 1451 1452 1412
1412 1452 1453 1413
1413 1453 1454 1414
1414 1454 1455 1415
1415 1455 1456 1416
1416 1456 1457 1417
1417 1457 1458 1418
1418 1458 1459 1419
1419 1459 1460 1420
1420 1460 1461 1421
1421 1461 1462 1422
1422 1462 1463 1423
1423 1463 1464 1424
1424 1464 1465 1425
1425 1465 1466 1426
1426 1466 1467 1427
1427 1467 1468 1428
1428 1468 1469 1429
1429 1469 1470 1430
1430 1470 1471 1431
1431 1471 1472 1432
1432 1472 1473 1433
1433 1473 1474 1434
1434 1474 1475 1435
1435 1475 1476 1436
1436 1476 1477 1437
1437 1477 113 112
36 37 1478 1438
1438 1478 1479 1439
1439 1479 1480 1440
1440 1480 1481 1441
1441 1481 1482 1442
1442 1482 1483 1443
1443 1483 1484 1444
1444 1484 1485 1445
1445 1485 1486 1446
1446 1486 1487 1447
1447 1487 1488 1448
1448 1488 1489 1449
1449 1489 1490 1450
1450 1490 1491 1451
1451 1491 1492 1452
1452 1492 1493 1453
1453 1493 1494 1454
1454 1494 1495 1455
1455 1495 1496 1456
1456 1496 1497 1457
1457 1497 1498 1458
1458 1498 1499 1459
1459 1499 1500 1460
1460 1500 1501 1461
1461 1501 1502 1462
1462 1502 1503 1463
1463 1503 1504 1464
1464 1504 1505 1465
1465 1505 1506 1466
1466 1506 1507 1467
1467 1507 1508 1468
1468 1508 1509 1469
1469 1509 1510 1470
1470 1510 1511 1471
1471 1511 1512 1472
1472 1512 1513 1473
1473 1513 1514 1474
1474 1514 1515 1475
1475 1515 1516 1476
1476 1516 1517 1477
1477 1517 114 113
37 38 1518 1478
1478 1518 1519 1479
1479 1519 1520 1480
1480 1520 1521 1481
1481 1521 1522 1482
1482 1522 1523 1483
1483 1523 1524 1484
1484 1524 1525 1485
1485 1525 1526 1486
1486 1526 1527 1487
1487 1527 1528 1488
1488 1528 1529 1489
1489 1529 1530 1490
1490 1530 1531 1491
1491 1531 1532 1492
1492 1532 1533 1493
1493 1533 1534 1494
1494 1534 1535 1495
1495 1535 1536 1496
1496 1536 1537 1497
1497 1537 1538 1498
1498 1538 1539 1499
1499 1539 1540 1500
1500 1540 1541 1501
1501 1541 1542 1502
1502 1542 1543 1503
1503 1543 1544 1504
1504 1544 1545 1505
1505 1545 1546 1506
1506 1546 1547 1507
1507 1547 1548 1508
1508 1548 1549 1509
1509 1549 1550 1510
1510 1550 1551 1511
1511 1551 1552 1512
1512 1552 1553 1513
1513 1553 1554 1514
1514 1554 1555 1515
1515 1555 1556 1516
1516 1556 1557 1517
1517 1557 115 114
38 39 1558 1518
1518 1558 1559 1519
1519 1559 1560 1520
1520 1560 1561 1521
1521 1561 1562 1522
1522 1562 1563 1523
1523 1563 1564 1524
1524 1564 1565 1525
1525 1565 1566 1526
1526 1566 1567 1527
1527 1567 1568 1528
1528 1568 1569 1529
1529 1569 1570 1530
1530 1570 1571 1531
1531 1571 1572 1532
1532 1572 1573 1533
1533 1573 1574 1534
1534 1574 1575 1535
1535 1575 1576 1536
1536 1576 1577 1537
1537 1577 1578 1538
1538 1578 1579 1539
1539 1579 1580 1540
1540 1580 1581 1541
1541 1581 1582 1542
1542 1582 1583 1543
1543 1583 1584 1544
1544 1584 1585 1545
1545 1585 1586 1546
1546 1586 1587 1547
1547 1587 1588 1548
1548 1588 1589 1549
1549 1589 1590 1550
1550 1590 1591 1551
1551 1591 1592 1552
1552 1592 1593 1553
1553 1593 1594 1554
1554 1594 1595 1555
1555 1595 1596 1556
1556 1596 1597 1557
1557 1597 116 115
39 40 1598 1558
1558 1598 1599 1559
1559 1599 1600 1560
1560 1600 1601 1561
1561 1601 1602 1562
1562 1602 1603 1563
1563 1603 1604 1564
1564 1604 1605 1565
1565 1605 1606 1566
1566 1606 1607 1567
1567 1607 1608 1568
1568 1608 1609 1569
1569 1609 1610 1570
1570 1610 1611 1571
1571 1611 1612 1572
1572 1612 1613 1573
1573 1613 1614 1574
1574 1614 1615 1575
1575 1615 1616 1576
1576 1616 1617 1577
1577 1617 1618 1578
1578 1618 1619 1579
1579 1619 1620 1580
1580 1620 1621 1581
1581 1621 1622 1582
1582 1622 1623 1583
1583 1623 1624 1584
1584 1624 1625 1585
1585 1625 1626 1586
1586 1626 1627 1587
1587 1627 1628 1588
1588 1628 1629 1589
1589 1629 1630 1590
1590 1630 1631 1591
1591 1631 1632 1592
1592 1632 1633 1593
1593 1633 1634 1594
1594 1634 1635 1595
1595 1635 1636 1596
1596 1636 1637 1597
1597 1637 117 116
40 41 1638 1598
1598 1638 1639 1599
1599 1639 1640 1600
1600 1640 1641 1601
1601 1641 1642 1602
1602 1642 1643 1603
1603 1643 1644 1604
1604 1644 1645 1605
1605 1645 1646 1606
1606 1646 1647 1607
1607 1647 1648 1608
1608 1648 1649 1609
1609 1649 1650 1610
1610 1650 1651 1611
1611 1651 1652 1612
1612 1652 1653 1613
1613 1653 1654 1614
1614 1654 1655 1615
1615 1655 1656 1616
1616 1656 1657 1617
1617 1657 1658 1618
1618 1658 1659 1619
1619 1659 1660 1620
1620 1660 1661 1621
1621 1661 1662 1622
1622 1662 1663 1623
1623 1663 1664 1624
1624 1664 1665 1625
1625 1665 1666 1626
1626 1666 1667 1627
1627 1667 1668 1628
1628 1668 1669 1629
1629 1669 1670 1630
1630 1670 1671 1631
1631 1671 1672 1632
1632 1672 1673 1633
1633 1673 1674 1634
1634 1674 1675 1635
1635 1675 1676 1636
1636 1676 1677 1637
1637 1677 118 117
41 42 1678 1638
1638 1678 1679 1639
1639 1679 1680 1640
1640 1680 1681 1641
1641 1681 1682 1642
1642 1682 1683 1643
1643 1683 1684 1644
1644 1684 1685 1645
1645 1685 1686 1646
1646 1686 1687 1647
1647 1687 1688 1648
1648 1688 1689 1649
1649 1689 1690 1650
1650 1690 1691 1651
1651 1691 1692 1652
1652 1692 1693 1653
1653 1693 1694 1654
1654 1694 1695 1655
1655 1695 1696 1656
1656 1696 1697 1657
1657 1697 1698 1658
1658 1698 1699 1659
1659 1699 1700 1660
1660 1700 1701 1661
1661 1701 1702 1662
1662 1702 1703 1663
1663 1703 1704 1664
1664 1704 1705 1665
1665 1705 1706 1666
1666 1706 1707 1667
1667 1707 1708 1668
1668 1708 1709 1669
1669 1709 1710 1670
1670 1710 1711 1671
1671 1711 1712 1672
1672 1712 1713 1673
1673 1713 1714 1674
1674 1714 1715 1675
1675 1715 1716 1676
1676 1716 1717 1677
1677 1717 119 118
42 43 1718 1678
1678 1718 1719 1679
1679 1719 1720 1680
1680 1720 1721 1681
1681 1721 1722 1682
1682 1722 1723 1683
1683 1723 1724 1684
1684 1724 1725 1685
1685 1725 1726 1686
1686 1726 1727 1687
1687 1727 1728 1688
1688 1728 1729 1689
1689 1729 1730 1690
1690 1730 1731 1691
1691 1731 1732 1692
1692 1732 1733 1693
1693 1733 1734 1694
1694 1734 1735 1695
1695 1735 1736 1696
1696 1736 1737 1697
1697 1737 1738 1698
1698 1738 1739 1699
1699 1739 1740 1700
1700 1740 1741 1701
1701 1741 1742 1702
1702 1742 1743 1703
1703 1743 1744 1704
1704 1744 1745 1705
1705 1745 1746 1706
1706 1746 1747 1707
1707 1747 1748 1708
1708 1748 1749 1709
1709 1749 1750 1710
1710 1750 1751 1711
1711 1751 1752 1712
1712 1752 1753 1713
1713 1753 1754 1714
1714 1754 1755 1715
1715 1755 1756 1716
1716 1756 1757 1717
1717 1757 120 119
43 44 1758 1718
1718 1758 1759 1719
1719 1759 1760 1720
1720 1760 1761 1721
1721 1761 1762 1722
1722 1762 1763 1723
1723 1763 1764 1724
1724 1764 1765 1725
1725 1765 1766 1726
1726 1766 1767 1727
1727 1767 1768 1728
1728 1768 1769 1729
1729 1769 1770 1730
1730 1770 1771 1731
1731 1771 1772 1732
1732 1772 1773 1733
1733 1773 1774 1734
1734 1774 1775 1735
1735 1775 1776 1736
1736 1776 1777 1737
1737 1777 1778 1738
1738 1778 1779 1739
1739 1779 1780 1740
1740 1780 1781 1741
1741 1781 1782 1742
1742 1782 1783 1743
1743 1783 1784 1744
1744 1784 1785 1745
1745 1785 1786 1746
1746 1786 1787 1747
1747 1787 1788 1748
1748 1788 1789 1749
1749 1789 1790 1750
1750 1790 1791 1751
1751 1791 1792 1752
1752 1792 1793 1753
1753 1793 1794 1754
1754 1794 1795 1755
1755 1795 1796 1756
1756 1796 1797 1757
1757 1797 121 120
44 45 1798 1758
1758 1798 1799 1759
1759 1799 1800 1760
1760 1800 1801 1761
1761 1801 1802 1762
1762 1802 1803 1763
1763 1803 1804 1764
1764 1804 1805 1765
1765 1805 1806 1766
1766 1806 1807 1767
1767 1807 1808 1768
1768 1808 1809 1769
1769 1809 1810 1770
1770 1810 1811 1771
1771 1811 1812 1772
1772 1812 1813 1773
1773 1813 1814 1774
1774 1814 1815 1775
1775 1815 1816 1776
1776 1816 1817 1777
1777 1817 1818 1778
1778 1818 1819 1779
1779 1819 1820 1780
1780 1820 1821 1781
1781 1821 1822 1782
1782 1822 1823 1783
1783 1823 1824 1784
1784 1824 1825 1785
1785 1825 1826 1786
1786 1826 1827 1787
1787 1827 1828 1788
1788 1828 1829 1789
1789 1829 1830 1790
1790 1830 1831 1791
1791 1831 1832 1792
1792 1832 1833 1793
1793 1833 1834 1794
1794 1834 1835 1795
1795 1835 1836 1796
1796 1836 1837 1797
1797 1837 122 121
45 46 1838 1798
1798 1838 1839 1799
1799 1839 1840 1800
1800 1840 1841 1801
1801 1841 1842 1802
1802 1842 1843 1803
1803 1843 1844 1804
1804 1844 1845 1805
1805 1845 1846 1806
1806 1846 1847 1807
1807 1847 1848 1808
1808 1848 1849 1809
1809 1849 1850 1810
1810 1850 1851 1811
1811 1851 1852 1812
1812 1852 1853 1813
1813 1853 1854 1814
1814 1854 1855 1815
1815 1855 1856 1816
1816 1856 1857 1817
1817 1857 1858 1818
1818 1858 1859 1819
1819 1859 1860 1820
1820 1860 1861 1821
1821 1861 1862 1822
1822 1862 1863 1823
1823 1863 1864 1824
1824 1864 1865 1825
1825 1865 1866 1826
1826 1866 1867 1827
1827 1867 1868 1828
1828 1868 1869 1829
1829 1869 1870 1830
1830 1870 1871 1831
1831 1871 1872 1832
1832 1872 1873 1833
1833 1873 1874 1834
1834 1874 1875 1835
1835 1875 1876 1836
1836 1876 1877 1837
1837 1877 123 122
46 47 1878 1838
1838 1878 1879 1839
1839 1879 1880 1840
1840 1880 1881 1841
1841 1881 1882 1842
1842 1882 1883 1843
1843 1883 1884 1844
1844 1884 1885 1845
1845 1885 1886 1846
1846 1886 1887 1847
1847 1887 1888 1848
1848 1888 1889 1849
1849 1889 1890 1850
1850 1890 1891 1851
1851 1891 1892 1852
1852 1892 1893 1853
1853 1893 1894 1854
1854 1894 1895 1855
1855 1895 1896 1856
1856 1896 1897 1857
1857 1897 1898 1858
1858 1898 1899 1859
1859 1899 1900 1860
1860 1900 1901 1861
1861 1901 1902 1862
1862 1902 1903 1863
1863 1903 1904 1864
1864 1904 1905 1865
1865 1905 1906 1866
1866 1906 1907 1867
1867 1907 1908 1868
1868 1908 1909 1869
1869 1909 1910 1870
1870 1910 1911 1871
1871 1911 1912 1872
1872 1912 1913 1873
1873 1913 1914 1874
1874 1914 1915 1875
1875 1915 1916 1876
1876 1916 1917 1877
1877 1917 124 123
47 48 1918 1878
1878 1918 1919 1879
1879 1919 1920 1880
1880 1920 1921 1881
1881 1921 1922 1882
1882 1922 1923 1883
1883 1923 1924 1884
1884 1924 1925 1885
1885 1925 1926 1886
1886 1926 1927 1887
1887 1927 1928 1888
1888 1928 1929 1889
1889 1929 1930 1890
1890 1930 1931 1891
1891 1931 1932 1892
1892 1932 1933 1893
1893 1933 1934 1894
1894 1934 1935 1895
1895 1935 1936 1896
1896 1936 1937 1897
1897 1937 1938 1898
1898 1938 1939 1899
1899 1939 1940 1900
1900 1940 1941 1901
1901 1941 1942 1902
1902 1942 1943 1903
1903 1943 1944 1904
1904 1944 1945 1905
1905 1945 1946 1906
1906 1946 1947 1907
1907 1947 1948 1908
1908 1948 1949 1909
1909 1949 1950 1910
1910 1950 1951 1911
1911 1951 1952 1912
1912 1952 1953 1913
1913 1953 1954 1914
1914 1954 1955 1915
1915 1955 1956 1916
1916 1956 1957 1917
1917 1957 125 124
48 49 1958 1918
1918 1958 1959 1919
1919 1959 1960 1920
1920 1960 1961 1921
1921 1961 1962 1922
1922 1962 1963 1923
1923 1963 1964 1924
1924 1964 1965 1925
1925 1965 1966 1926
1926 1966 1967 1927
1927 1967 1968 1928
1928 1968 1969 1929
1929 1969 1970 1930
1930 1970 1971 1931
1931 1971 1972 1932
1932 1972 1973 1933
1933 1973 1974 1934
1934 1974 1975 1935
1935 1975 1976 1936
1936 1976 1977 1937
1937 1977 1978 1938
1938 1978 1979 1939
1939 1979 1980 1940
1940 1980 1981 1941
1941 1981 1982 1942
1942 1982 1983 1943
1943 1983 1984 1944
1944 1984 1985 1945
1945 1985 1986 1946
1946 1986 1987 1947
1947 1987 1988 1948
1948 1988 1989 1949
1949 1989 1990 1950
1950 1990 1991 1951
1951 1991 1992 1952
1952 1992 1993 1953
1953 1993 1994 1954
1954 1994 1995 1955
1955 1995 1996 1956
1956 1996 1997 1957
1957 1997 126 125
49 1 1998 1958
1958 1998 1999 1959
1959 1999 2000 1960
1960 2000 2001 1961
1961 2001 2002 1962
1962 2002 2003 1963
1963 2003 2004 1964
1964 2004 2005 1965
1965 2005 2006 1966
1966 2006 2007 1967
1967 2007 2008 1968
1968 2008 2009 1969
1969 2009 2010 1970
1970 2010 2011 1971
1971 2011 2012 1972
1972 2012 2013 1973
1973 2013 2014 1974
1974 2014 2015 1975
1975 2015 2016 1976
1976 2016 2017 1977
1977 2017 2018 1978
1978 2018 2019 1979
1979 2019 2020 1980
1980 2020 2021 1981
1981 2021 2022 1982
1982 2022 2023 1983
1983 2023 2024 1984
1984 2024 2025 1985
1985 2025 2026 1986
1986 2026 2027 1987
1987 2027 2028 1988
1988 2028 2029 1989
1989 2029 2030 1990
1990 2030 2031 1991
1991 2031 2032 1992
1992 2032 2033 1993
1993 2033 2034 1994
1994 2034 2035 1995
1995 2035 2036 1996
1996 2036 2037 1997
1997 2037 127 126
1 50 2038 1998
1998 2038 2039 1999
1999 2039 2040 2000
2000 2040 2041 2001
2001 2041 2042 2002
2002 2042 2043 2003
2003 2043 2044 2004
2004 2044 2045 2005
2005 2045 2046 2006
2006 2046 2047 2007
2007 2047 2048 2008
2008 2048 2049 2009
2009 2049 2050 2010
2010 2050 2051 2011
2011 2051 2052 2012
2012 2052 2053 2013
2013 2053 2054 2014
2014 2054 2055 2015
2015 2055 2056 2016
2016 2056 2057 2017
2017 2057 2058 2018
2018 2058 2059 2019
2019 2059 2060 2020
2020 2060 2061 2021
2021 2061 2062 2022
2022 2062 2063 2023
2023 2063 2064 2024
2024 2064 2065 2025
2025 2065 2066 2026
2026 2066 2067 2027
2027 2067 2068 2028
2028 2068 2069 2029
2029 2069 2070 2030
2030 2070 2071 2031
2031 2071 2072 2032
2032 2072 2073 2033
2033 2073 2074 2034
2034 2074 2075 2035
2035 2075 2076 2036
2036 2076 2077 2037
2037 2077 128 127
50 51 2078 2038
2038 2078 2079 2039
2039 2079 2080 2040
2040 2080 2081 2041
2041 2081 2082 2042
2042 2082 2083 2043
2043 2083 2084 2044
2044 2084 2085 2045
2045 2085 2086 2046
2046 2086 2087 2047
2047 2087 2088 2048
2048 2088 2089 2049
2049 2089 2090 2050
2050 2090 2091 2051
2051 2091 2092 2052
2052 2092 2093 2053
2053 2093 2094 2054
2054 2094 2095 2055
2055 2095 2096 2056
2056 2096 2097 2057
2057 2097 2098 2058
2058 2098 2099 2059
2059 2099 2100 2060
2060 2100 2101 2061
2061 2101 2102 2062
2062 2102 2103 2063
2063 2103 2104 2064
2064 2104 2105 2065
2065 2105 2106 2066
2066 2106 2107 2067
2067 2107 2108 2068
2068 2108 2109 2069
2069 2109 2110 2070
2070 2110 2111 2071
2071 2111 2112 2072
2072 2112 2113 2073
2073 2113 2114 2074
2074 2114 2115 2075
2075 2115 2116 2076
2076 2116 2117 2077
2077 2117 129 128
51 52 2118 2078
2078 2118 2119 2079
2079 2119 2120 2080
2080 2120 2121 2081
2081 2121 2122 2082
2082 2122 2123 2083
2083 2123 2124 2084
2084 2124 2125 2085
2085 2125 2126 2086
2086 2126 2127 2087
2087 2127 2128 2088
2088 2128 2129 2089
2089 2129 2130 2090
2090 2130 2131 2091
2091 2131 2132 2092
2092 2132 2133 2093
2093 2133 2134 2094
2094 2134 2135 2095
2095 2135 2136 2096
2096 2136 2137 2097
2097 2137 2138 2098
2098 2138 2139 2099
2099 2139 2140 2100
2100 2140 2141 2101
2101 2141 2142 2102
2102 2142 2143 2103
2103 2143 2144 2104
2104 2144 2145 2105
2105 2145 2146 2106
2106 2146 2147 2107
2107 2147 2148 2108
2108 2148 2149 2109
2109 2149 2150 2110
2110 2150 2151 2111
2111 2151 2152 2112
2112 2152 2153 2113
2113 2153 2154 2114
2114 2154 2155 2115
2115 2155 2156 2116
2116 2156 2157 2117
2117 2157 130 129
52 53 2158 2118
2118 2158 2159 2119
2119 2159 2160 2120
2120 2160 2161 2121
2121 2161 2162 2122
2122 2162 2163 2123
2123 2163 2164 2124
2124 2164 2165 2125
2125 2165 2166 2126
2126 2166 2167 2127
2127 2167 2168 2128
2128 2168 2169 2129
2129 2169 2170 2130
2130 2170 2171 2131
2131 2171 2172 2132
2132 2172 2173 2133
2133 2173 2174 2134
2134 2174 2175 2135
2135 2175 2176 2136
2136 2176 2177 2137
2137 2177 2178 2138
2138 2178 2179 2139
2139 2179 2180 2140
2140 2180 2181 2141
2141 2181 2182 2142
2142 2182 2183 2143
2143 2183 2184 2144
2144 2184 2185 2145
2145 2185 2186 2146
2146 2186 2187 2147
2147 2187 2188 2148
2148 2188 2189 2149
2149 2189 2190 2150
2150 2190 2191 2151
2151 2191 2192 2152
2152 2192 2193 2153
2153 2193 2194 2154
2154 2194 2195 2155
2155 2195 2196 2156
2156 2196 2197 2157
2157 2197 131 130
53 54 2198 2158
2158 2198 2199 2159
2159 2199 2200 2160
2160 2200 2201 2161
2161 2201 2202 2162
2162 2202 2203 2163
2163 2203 2204 2164
2164 2204 2205 2165
2165 2205 2206 2166
2166 2206 2207 2167
2167 2207 2208 2168
2168 2208 2209 2169
2169 2209 2210 2170
2170 2210 2211 2171
2171 2211 2212 2172
2172 2212 2213 2173
2173 2213 2214 2174
2174 2214 2215 2175
2175 2215 2216 2176
2176 2216 2217 2177
2177 2217 2218 2178
2178 2218 2219 2179
2179 2219 2220 2180
2180 2220 2221 2181
2181 2221 2222 2182
2182 2222 2223 2183
2183 2223 2224 2184
2184 2224 2225 2185
2185 2225 2226 2186
2186 2226 2227 2187
2187 2227 2228 2188
2188 2228 2229 2189
2189 2229 2230 2190
2190 2230 2231 2191
2191 2231 2232 2192
2192 2232 2233 2193
2193 2233 2234 2194
2194 2234 2235 2195
2195 2235 2236 2196
2196 2236 2237 2197
2197 2237 132 131
54 55 2238 2198
2198 2238 2239 2199
2199 2239 2240 2200
2200 2240 2241 2201
2201 2241 2242 2202
2202 2242 2243 2203
2203 2243 2244 2204
2204 2244 2245 2205
2205 2245 2246 2206
2206 2246 2247 2207
2207 2247 2248 2208
2208 2248 2249 2209
2209 2249 2250 2210
2210 2250 2251 2211
2211 2251 2252 2212
2212 2252 2253 2213
2213 2253 2254 2214
2214 2254 2255 2215
2215 2255 2256 2216
2216 2256 2257 2217
2217 2257 2258 2218
2218 2258 2259 2219
2219 2259 2260 2220
2220 2260 2261 2221
2221 2261 2262 2222
2222 2262 2263 2223
2223 2263 2264 2224
2224 2264 2265 2225
2225 2265 2266 2226
2226 2266 2267 2227
2227 2267 2268 2228
2228 2268 2269 2229
2229 2269 2270 2230
2230 2270 2271 2231
2231 2271 2272 2232
2232 2272 2273 2233
2233 2273 2274 2234
2234 2274 2275 2235
2235 2275 2276 2236
2236 2276 2277 2237
2237 2277 133 132
55 56 2278 2238
2238 2278 2279 2239
2239 2279 2280 2240
2240 2280 2281 2241
2241 2281 2282 2242
2242 2282 2283 2243
2243 2283 2284 2244
2244 2284 2285 2245
2245 2285 2286 2246
2246 2286 2287 2247
2247 2287 2288 2248
2248 2288 2289 2249
2249 2289 2290 2250
2250 2290 2291 2251
2251 2291 2292 2252
2252 2292 2293 2253
2253 2293 2294 2254
2254 2294 2295 2255
2255 2295 2296 2256
2256 2296 2297 2257
2257 2297 2298 2258
2258 2298 2299 2259
2259 2299 2300 2260
2260 2300 2301 2261
2261 2301 2302 2262
2262 2302 2303 2263
2263 2303 2304 2264
2264 2304 2305 2265
2265 2305 2306 2266
2266 2306 2307 2267
2267 2307 2308 2268
2268 2308 2309 2269
2269 2309 2310 2270
2270 2310 2311 2271
2271 2311 2312 2272
2272 2312 2313 2273
2273 2313 2314 2274
2274 2314 2315 2275
2275 2315 2316 2276
2276 2316 2317 2277
2277 2317 134 133
56 57 2318 2278
2278 2318 2319 2279
2279 2319 2320 2280
2280 2320 2321 2281
2281 2321 2322 2282
2282 2322 2323 2283
2283 2323 2324 2284
2284 2324 2325 2285
2285 2325 2326 2286
2286 2326 2327 2287
2287 2327 2328 2288
2288 2328 2329 2289
2289 2329 2330 2290
2290 2330 2331 2291
2291 2331 2332 2292
2292 2332 2333 2293
2293 2333 2334 2294
2294 2334 2335 2295
2295 2335 2336 2296
2296 2336 2337 2297
2297 2337 2338 2298
2298 2338 2339 2299
2299 2339 2340 2300
2300 2340 2341 2301
2301 2341 2342 2302
2302 2342 2343 2303
2303 2343 2344 2304
2304 2344 2345 2305
2305 2345 2346 2306
2306 2346 2347 2307
2307 2347 2348 2308
2308 2348 2349 2309
2309 2349 2350 2310
2310 2350 2351 2311
2311 2351 2352 2312
2312 2352 2353 2313
2313 2353 2354 2314
2314 2354 2355 2315
2315 2355 2356 2316
2316 2356 2357 2317
2317 2357 135 134
57 58 2358 2318
2318 2358 2359 2319
2319 2359 2360 2320
2320 2360 2361 2321
2321 2361 2362 2322
2322 2362 2363 2323
2323 2363 2364 2324
2324 2364 2365 2325
2325 2365 2366 2326
2326 2366 2367 2327
2327 2367 2368 2328
2328 2368 2369 2329
2329 2369 2370 2330
2330 2370 2371 2331
2331 2371 2372 2332
2332 2372 2373 2333
2333 2373 2374 2334
2334 2374 2375 2335
2335 2375 2376 2336
2336 2376 2377 2337
2337 2377 2378 2338
2338 2378 2379 2339
2339 2379 2380 2340
2340 2380 2381 2341
2341 2381 2382 2342
2342 2382 2383 2343
2343 2383 2384 2344
2344 2384 2385 2345
2345 2385 2386 2346
2346 2386 2387 2347
2347 2387 2388 2348
2348 2388 2389 2349
2349 2389 2390 2350
2350 2390 2391 2351
2351 2391 2392 2352
2352 2392 2393 2353
2353 2393 2394 2354
2354 2394 2395 2355
2355 2395 2396 2356
2356 2396 2397 2357
2357 2397 136 135
58 59 2398 2358
2358 2398 2399 2359
2359 2399 2400 2360
2360 2400 2401 2361
2361 2401 2402 2362
2362 2402 2403 2363
2363 2403 2404 2364
2364 2404 2405 2365
2365 2405 2406 2366
2366 2406 2407 2367
2367 2407 2408 2368
2368 2408 2409 2369
2369 2409 2410 2370
2370 2410 2411 2371
2371 2411 2412 2372
2372 2412 2413 2373
2373 2413 2414 2374
2374 2414 2415 2375
2375 2415 2416 2376
2376 2416 2417 2377
2377 2417 2418 2378
2378 2418 2419 2379
2379 2419 2420 2380
2380 2420 2421 2381
2381 2421 2422 2382
2382 2422 2423 2383
2383 2423 2424 2384
2384 2424 2425 2385
2385 2425 2426 2386
2386 2426 2427 2387
2387 2427 2428 2388
2388 2428 2429 2389
2389 2429 2430 2390
2390 2430 2431 2391
2391 2431 2432 2392
2392 2432 2433 2393
2393 2433 2434 2394
2394 2434 2435 2395
2395 2435 2436 2396
2396 2436 2437 2397
2397 2437 137 136
59 60 2438 2398
2398 2438 2439 2399
2399 2439 2440 2400
2400 2440 2441 2401
2401 2441 2442 2402
2402 2442 2443 2403
2403 2443 2444 2404
2404 2444 2445 2405
2405 2445 2446 2406
2406 2446 2447 2407
2407 2447 2448 2408
2408 2448 2449 2409
2409 2449 2450 2410
2410 2450 2451 2411
2411 2451 2452 2412
2412 2452 2453 2413
2413 2453 2454 2414
2414 2454 2455 2415
2415 2455 2456 2416
2416 2456 2457 2417
2417 2457 2458 2418
2418 2458 2459 2419
2419 2459 2460 2420
2420 2460 2461 2421
2421 2461 2462 2422
2422 2462 2463 2423
2423 2463 2464 2424
2424 2464 2465 2425
2425 2465 2466 2426
2426 2466 2467 2427
2427 2467 2468 2428
2428 2468 2469 2429
2429 2469 2470 2430
2430 2470 2471 2431
2431 2471 2472 2432
2432 2472 2473 2433
2433 2473 2474 2434
2434 2474 2475 2435
2435 2475 2476 2436
2436 2476 2477 2437
2437 2477 138 137
60 61 2478 2438
2438 2478 2479 2439
2439 2479 2480 2440
2440 2480 2481 2441
2441 2481 2482 2442
2442 2482 2483 2443
2443 2483 2484 2444
2444 2484 2485 2445
2445 2485 2486 2446
2446 2486 2487 2447
2447 2487 2488 2448
2448 2488 2489 2449
2449 2489 2490 2450
2450 2490 2491 2451
2451 2491 2492 2452
2452 2492 2493 2453
2453 2493 2494 2454
2454 2494 2495 2455
2455 2495 2496 2456
2456 2496 2497 2457
2457 2497 2498 2458
2458 2498 2499 2459
2459 2499 2500 2460
2460 2500 2501 2461
2461 2501 2502 2462
2462 2502 2503 2463
2463 2503 2504 2464
2464 2504 2505 2465
2465 2505 2506 2466
2466 2506 2507 2467
2467 2507 2508 2468
2468 2508 2509 2469
2469 2509 2510 2470
2470 2510 2511 2471
2471 2511 2512 2472
2472 2512 2513 2473
2473 2513 2514 2474
2474 2514 2515 2475
2475 2515 2516 2476
2476 2516 2517 2477
2477 2517 139 138
61 62 2518 2478
2478 2518 2519 2479
2479 2519 2520 2480
2480 2520 2521 2481
2481 2521 2522 2482
2482 2522 2523 2483
2483 2523 2524 2484
2484 2524 2525 2485
2485 2525 2526 2486
2486 2526 2527 2487
2487 2527 2528 2488
2488 2528 2529 2489
2489 2529 2530 2490
2490 2530 2531 2491
2491 2531 2532 2492
2492 2532 2533 2493
2493 2533 2534 2494
2494 2534 2535 2495
2495 2535 2536 2496
2496 2536 2537 2497
2497 2537 2538 2498
2498 2538 2539 2499
2499 2539 2540 2500
2500 2540 2541 2501
2501 2541 2542 2502
2502 2542 2543 2503
2503 2543 2544 2504
2504 2544 2545 2505
2505 2545 2546 2506
2506 2546 2547 2507
2507 2547 2548 2508
2508 2548 2549 2509
2509 2549 2550 2510
2510 2550 2551 2511
2511 2551 2552 2512
2512 2552 2553 2513
2513 2553 2554 2514
2514 2554 2555 2515
2515 2555 2556 2516
2516 2556 2557 2517
2517 2557 140 139
62 63 2558 2518
2518 2558 2559 2519
2519 2559 2560 2520
2520 2560 2561 2521
2521 2561 2562 2522
2522 2562 2563 2523
2523 2563 2564 2524
2524 2564 2565 2525
2525 2565 2566 2526
2526 2566 2567 2527
2527 2567 2568 2528
2528 2568 2569 2529
2529 2569 2570 2530
2530 2570 2571 2531
2531 2571 2572 2532
2532 2572 2573 2533
2533 2573 2574 2534
2534 2574 2575 2535
2535 2575 2576 2536
2536 2576 2577 2537
2537 2577 2578 2538
2538 2578 2579 2539
2539 2579 2580 2540
2540 2580 2581 2541
2541 2581 2582 2542
2542 2582 2583 2543
2543 2583 2584 2544
2544 2584 2585 2545
2545 2585 2586 2546
2546 2586 2587 2547
2547 2587 2588 2548
2548 2588 2589 2549
2549 2589 2590 2550
2550 2590 2591 2551
2551 2591 2592 2552
2552 2592 2593 2553
2553 2593 2594 2554
2554 2594 2595 2555
2555 2595 2596 2556
2556 2596 2597 2557
2557 2597 141 140
63 64 2598 2558
2558 2598 2599 2559
2559 2599 2600 2560
2560 2600 2601 2561
2561 2601 2602 2562
2562 2602 2603 2563
2563 2603 2604 2564
2564 2604 2605 2565
2565 2605 2606 2566
2566 2606 2607 2567
2567 2607 2608 2568
2568 2608 2609 2569
2569 2609 2610 2570
2570 2610 2611 2571
2571 2611 2612 2572
2572 2612 2613 2573
2573 2613 2614 2574
2574 2614 2615 2575
2575 2615 2616 2576
2576 2616 2617 2577
2577 2617 2618 2578
2578 2618 2619 2579
2579 2619 2620 2580
2580 2620 2621 2581
2581 2621 2622 2582
2582 2622 2623 2583
2583 2623 2624 2584
2584 2624 2625 2585
2585 2625 2626 2586
2586 2626 2627 2587
2587 2627 2628 2588
2588 2628 2629 2589
2589 2629 2630 2590
2590 2630 2631 2591
2591 2631 2632 2592
2592 2632 2633 2593
2593 2633 2634 2594
2594 2634 2635 2595
2595 2635 2636 2596
2596 2636 2637 2597
2597 2637 142 141
64 65 2638 2598
2598 2638 2639 2599
2599 2639 2640 2600
2600 2640 2641 2601
2601 2641 2642 2602
2602 2642 2643 2603
2603 2643 2644 2604
2604 2644 2645 2605
2605 2645 2646 2606
2606 2646 2647 2607
2607 2647 2648 2608
2608 2648 2649 2609
2609 2649 2650 2610
2610 2650 2651 2611
2611 2651 2652 2612
2612 2652 2653 2613
2613 2653 2654 2614
2614 2654 2655 2615
2615 2655 2656 2616
2616 2656 2657 2617
2617 2657 2658 2618
2618 2658 2659 2619
2619 2659 2660 2620
2620 2660 2661 2621
2621 2661 2662 2622
2622 2662 2663 2623
2623 2663 2664 2624
2624 2664 2665 2625
2625 2665 2666 2626
2626 2666 2667 2627
2627 2667 2668 2628
2628 2668 2669 2629
2629 2669 2670 2630
2630 2670 2671 2631
2631 2671 2672 2632
2632 2672 2673 2633
2633 2673 2674 2634
2634 2674 2675 2635
2635 2675 2676 2636
2636 2676 2677 2637
2637 2677 143 142
65 66 2678 2638
2638 2678 2679 2639
2639 2679 2680 2640
2640 2680 2681 2641
2641 2681 2682 2642
2642 2682 2683 2643
2643 2683 2684 2644
2644 2684 2685 2645
2645 2685 2686 2646
2646 2686 2687 2647
2647 2687 2688 2648
2648 2688 2689 2649
2649 2689 2690 2650
2650 2690 2691 2651
2651 2691 2692 2652
2652 2692 2693 2653
2653 2693 2694 2654
2654 2694 2695 2655
2655 2695 2696 2656
2656 2696 2697 2657
2657 2697 2698 2658
2658 2698 2699 2659
2659 2699 2700 2660
2660 2700 2701 2661
2661 2701 2702 2662
2662 2702 2703 2663
2663 2703 2704 2664
2664 2704 2705 2665
2665 2705 2706 2666
2666 2706 2707 2667
2667 2707 2708 2668
2668 2708 2709 2669
2669 2709 2710 2670
2670 2710 2711 2671
2671 2711 2712 2672
2672 2712 2713 2673
2673 2713 2714 2674
2674 2714 2715 2675
2675 2715 2716 2676
2676 2716 2717 2677
2677 2717 144 143
66 67 2718 2678
2678 2718 2719 2679
2679 2719 2720 2680
2680 2720 2721 2681
2681 2721 2722 2682
2682 2722 2723 2683
2683 2723 2724 2684
2684 2724 2725 2685
2685 2725 2726 2686
2686 2726 2727 2687
2687 2727 2728 2688
2688 2728 2729 2689
2689 2729 2730 2690
2690 2730 2731 2691
2691 2731 2732 2692
2692 2732 2733 2693
2693 2733 2734 2694
2694 2734 2735 2695
2695 2735 2736 2696
2696 2736 2737 2697
2697 2737 2738 2698
2698 2738 2739 2699
2699 2739 2740 2700
2700 2740 2741 2701
2701 2741 2742 2702
2702 2742 2743 2703
2703 2743 2744 2704
2704 2744 2745 2705
2705 2745 2746 2706
2706 2746 2747 2707
2707 2747 2748 2708
2708 2748 2749 2709
2709 2749 2750 2710
2710 2750 2751 2711
2711 2751 2752 2712
2712 2752 2753 2713
2713 2753 2754 2714
2714 2754 2755 2715
2715 2755 2756 2716
2716 2756 2757 2717
2717 2757 145 144
67 68 2758 2718
2718 2758 2759 2719
2719 2759 2760 2720
2720 2760 2761 2721
2721 2761 2762 2722
2722 2762 2763 2723
2723 2763 2764 2724
2724 2764 2765 2725
2725 2765 2766 2726
2726 2766 2767 2727
2727 2767 2768 2728
2728 2768 2769 2729
2729 2769 2770 2730
2730 2770 2771 2731
2731 2771 2772 2732
2732 2772 2773 2733
2733 2773 2774 2734
2734 2774 2775 2735
2735 2775 2776 2736
2736 2776 2777 2737
2737 2777 2778 2738
2738 2778 2779 2739
2739 2779 2780 2740
2740 2780 2781 2741
2741 2781 2782 2742
2742 2782 2783 2743
2743 2783 2784 2744
2744 2784 2785 2745
2745 2785 2786 2746
2746 2786 2787 2747
2747 2787 2788 2748
2748 2788 2789 2749
2749 2789 2790 2750
2750 2790 2791 2751
2751 2791 2792 2752
2752 2792 2793 2753
2753 2793 2794 2754
2754 2794 2795 2755
2755 2795 2796 2756
2756 2796 2797 2757
2757 2797 146 145
68 69 2798 2758
2758 2798 2799 2759
2759 2799 2800 2760
2760 2800 2801 2761
2761 2801 2802 2762
2762 2802 2803 2763
2763 2803 2804 2764
2764 2804 2805 2765
2765 2805 2806 2766
2766 2806 2807 2767
2767 2807 2808 2768
2768 2808 2809 2769
2769 2809 2810 2770
2770 2810 2811 2771
2771 2811 2812 2772
2772 2812 2813 2773
2773 2813 2814 2774
2774 2814 2815 2775
2775 2815 2816 2776
2776 2816 2817 2777
2777 2817 2818 2778
2778 2818 2819 2779
2779 2819 2820 2780
2780 2820 2821 2781
2781 2821 2822 2782
2782 2822 2823 2783
2783 2823 2824 2784
2784 2824 2825 2785
2785 2825 2826 2786
2786 2826 2827 2787
2787 2827 2828 2788
2788 2828 2829 2789
2789 2829 2830 2790
2790 2830 2831 2791
2791 2831 2832 2792
2792 2832 2833 2793
2793 2833 2834 2794
2794 2834 2835 2795
2795 2835 2836 2796
2796 2836 2837 2797
2797 2837 5 146
69 70 2838 2798
2798 2838 2839 2799
2799 2839 2840 2800
2800 2840 2841 2801
2801 2841 2842 2802
2802 2842 2843 2803
2803 2843 2844 2804
2804 2844 2845 2805
2805 2845 2846 2806
2806 2846 2847 2807
2807 2847 2848 2808
2808 2848 2849 2809
2809 2849 2850 2810
2810 2850 2851 2811
2811 2851 2852 2812
2812 2852 2853 2813
2813 2853 2854 2814
2814 2854 2855 2815
2815 2855 2856 2816
2816 2856 2857 2817
2817 2857 2858 2818
2818 2858 2859 2819
2819 2859 2860 2820
2820 2860 2861 2821
2821 2861 2862 2822
2822 2862 2863 2823
2823 2863 2864 2824
2824 2864 2865 2825
2825 2865 2866 2826
2826 2866 2867 2827
2827 2867 2868 2828
2828 2868 2869 2829
2829 2869 2870 2830
2830 2870 2871 2831
2831 2871 2872 2832
2832 2872 2873 2833
2833 2873 2874 2834
2834 2874 2875 2835
2835 2875 2876 2836
2836 2876 2877 2837
2837 2877 147 5
70 71 2878 2838
2838 2878 2879 2839
2839 2879 2880 2840
2840 2880 2881 2841
2841 2881 2882 2842
2842 2882 2883 2843
2843 2883 2884 2844
2844 2884 2885 2845
2845 2885 2886 2846
2846 2886 2887 2847
2847 2887 2888 2848
2848 2888 2889 2849
2849 2889 2890 2850
2850 2890 2891 2851
2851 2891 2892 2852
2852 2892 2893 2853
2853 2893 2894 2854
2854 2894 2895 2855
2855 2895 2896 2856
2856 2896 2897 2857
2857 2897 2898 2858
2858 2898 2899 2859
2859 2899 2900 2860
2860 2900 2901 2861
2861 2901 2902 2862
2862 2902 2903 2863
2863 2903 2904 2864
2864 2904 2905 2865
2865 2905 2906 2866
2866 2906 2907 2867
2867 2907 2908 2868
2868 2908 2909 2869
2869 2909 2910 2870
2870 2910 2911 2871
2871 2911 2912 2872
2872 2912 2913 2873
2873 2913 2914 2874
2874 2914 2915 2875
2875 2915 2916 2876
2876 2916 2917 2877
2877 2917 148 147
71 72 2918 2878
2878 2918 2919 2879
2879 2919 2920 2880
2880 2920 2921 2881
2881 2921 2922 2882
2882 2922 2923 2883
2883 2923 2924 2884
2884 2924 2925 2885
2885 2925 2926 2886
2886 2926 2927 2887
2887 2927 2928 2888
2888 2928 2929 2889
2889 2929 2930 2890
2890 2930 2931 2891
2891 2931 2932 2892
2892 2932 2933 2893
2893 2933 2934 2894
2894 2934 2935 2895
2895 2935 2936 2896
2896 2936 2937 2897
2897 2937 2938 2898
2898 2938 2939 2899
2899 2939 2940 2900
2900 2940 2941 2901
2901 2941 2942 2902
2902 2942 2943 2903
2903 2943 2944 2904
2904 2944 2945 2905
2905 2945 2946 2906
2906 2946 2947 2907
2907 2947 2948 2908
2908 2948 2949 2909
2909 2949 2950 2910
2910 2950 2951 2911
2911 2951 2952 2912
2912 2952 2953 2913
2913 2953 2954 2914
2914 2954 2955 2915
2915 2955 2956 2916
2916 2956 2957 2917
2917 2957 149 148
72 73 2958 2918
2918 2958 2959 2919
2919 2959 2960 2920
2920 2960 2961 2921
2921 2961 2962 2922
2922 2962 2963 2923
2923 2963 2964 2924
2924 2964 2965 2925
2925 2965 2966 2926
2926 2966 2967 2927
2927 2967 2968 2928
2928 2968 2969 2929
2929 2969 2970 2930
2930 2970 2971 2931
2931 2971 2972 2932
2932 2972 2973 2933
2933 2973 2974 2934
2934 2974 2975 2935
2935 2975 2976 2936
2936 2976 2977 2937
2937 2977 2978 2938
2938 2978 2979 2939
2939 2979 2980 2940
2940 2980 2981 2941
2941 2981 2982 2942
2942 2982 2983 2943
2943 2983 2984 2944
2944 2984 2985 2945
2945 2985 2986 2946
2946 2986 2987 2947
2947 2987 2988 2948
2948 2988 2989 2949
2949 2989 2990 2950
2950 2990 2991 2951
2951 2991 2992 2952
2952 2992 2993 2953
2953 2993 2994 2954
2954 2994 2995 2955
2955 2995 2996 2956
2956 2996 2997 2957
2957 2997 150 149
73 74 2998 2958
2958 2998 2999 2959
2959 2999 3000 2960
2960 3000 3001 2961
2961 3001 3002 2962
2962 3002 3003 2963
2963 3003 3004 2964
2964 3004 3005 2965
2965 3005 3006 2966
2966 3006 3007 2967
2967 3007 3008 2968
2968 3008 3009 2969
2969 3009 3010 2970
2970 3010 3011 2971
2971 3011 3012 2972
2972 3012 3013 2973
2973 3013 3014 2974
2974 3014 3015 2975
2975 3015 3016 2976
2976 3016 3017 2977
2977 3017 3018 2978
2978 3018 3019 2979
2979 3019 3020 2980
2980 3020 3021 2981
2981 3021 3022 2982
2982 3022 3023 2983
2983 3023 3024 2984
2984 3024 3025 2985
2985 3025 3026 2986
2986 3026 3027 2987
2987 3027 3028 2988
2988 3028 3029 2989
2989 3029 3030 2990
2990 3030 3031 2991
2991 3031 3032 2992
2992 3032 3033 2993
2993 3033 3034 2994
2994 3034 3035 2995
2995 3035 3036 2996
2996 3036 3037 2997
2997 3037 151 150
74 75 3038 2998
2998 3038 3039 2999
2999 3039 3040 3000
3000 3040 3041 3001
3001 3041 3042 3002
3002 3042 3043 3003
3003 3043 3044 3004
3004 3044 3045 3005
3005 3045 3046 3006
3006 3046 3047 3007
3007 3047 3048 3008
3008 3048 3049 3009
3009 3049 3050 3010
3010 3050 3051 3011
3011 3051 3052 3012
3012 3052 3053 3013
3013 3053 3054 3014
3014 3054 3055 3015
3015 3055 3056 3016
3016 3056 3057 3017
3017 3057 3058 3018
3018 3058 3059 3019
3019 3059 3060 3020
3020 3060 3061 3021
3021 3061 3062 3022
3022 3062 3063 3023
3023 3063 3064 3024
3024 3064 3065 3025
3025 3065 3066 3026
3026 3066 3067 3027
3027 3067 3068 3028
3028 3068 3069 3029
3029 3069 3070 3030
3030 3070 3071 3031
3031 3071 3072 3032
3032 3072 3073 3033
3033 3073 3074 3034
3034 3074 3075 3035
3035 3075 3076 3036
3036 3076 3077 3037
3037 3077 152 151
75 76 3078 3038
3038 3078 3079 3039
3039 3079 3080 3040
3040 3080 3081 3041
3041 3081 3082 3042
3042 3082 3083 3043
3043 3083 3084 3044
3044 3084 3085 3045
3045 3085 3086 3046
3046 3086 3087 3047
3047 3087 3088 3048
3048 3088 3089 3049
3049 3089 3090 3050
3050 3090 3091 3051
3051 3091 3092 3052
3052 3092 3093 3053
3053 3093 3094 3054
3054 3094 3095 3055
3055 3095 3096 3056
3056 3096 3097 3057
3057 3097 3098 3058
3058 3098 3099 3059
3059 3099 3100 3060
3060 3100 3101 3061
3061 3101 3102 3062
3062 3102 3103 3063
3063 3103 3104 3064
3064 3104 3105 3065
3065 3105 3106 3066
3066 3106 3107 3067
3067 3107 3108 3068
3068 3108 3109 3069
3069 3109 3110 3070
3070 3110 3111 3071
3071 3111 3112 3072
3072 3112 3113 3073
3073 3113 3114 3074
3074 3114 3115 3075
3075 3115 3116 3076
3076 3116 3117 3077
3077 3117 153 152
76 77 3118 3078
3078 3118 3119 3079
3079 3119 3120 3080
3080 3120 3121 3081
3081 3121 3122 3082
3082 3122 3123 3083
3083 3123 3124 3084
3084 3124 3125 3085
3085 3125 3126 3086
3086 3126 3127 3087
3087 3127 3128 3088
3088 3128 3129 3089
3089 3129 3130 3090
3090 3130 3131 3091
3091 3131 3132 3092
3092 3132 3133 3093
3093 3133 3134 3094
3094 3134 3135 3095
3095 3135 3136 3096
3096 3136 3137 3097
3097 3137 3138 3098
3098 3138 3139 3099
3099 3139 3140 3100
3100 3140 3141 3101
3101 3141 3142 3102
3102 3142 3143 3103
3103 3143 3144 3104
3104 3144 3145 3105
3105 3145 3146 3106
3106 3146 3147 3107
3107 3147 3148 3108
3108 3148 3149 3109
3109 3149 3150 3110
3110 3150 3151 3111
3111 3151 3152 3112
3112 3152 3153 3113
3113 3153 3154 3114
3114 3154 3155 3115
3115 3155 3156 3116
3116 3156 3157 3117
3117 3157 154 153
77 78 3158 3118
3118 3158 3159 3119
3119 3159 3160 3120
3120 3160 3161 3121
3121 3161 3162 3122
3122 3162 3163 3123
3123 3163 3164 3124
3124 3164 3165 3125
3125 3165 3166 3126
3126 3166 3167 3127
3127 3167 3168 3128
3128 3168 3169 3129
3129 3169 3170 3130
3130 3170 3171 3131
3131 3171 3172 3132
3132 3172 3173 3133
3133 3173 3174 3134
3134 3174 3175 3135
3135 3175 3176 3136
3136 3176 3177 3137
3137 3177 3178 3138
3138 3178 3179 3139
3139 3179 3180 3140
3140 3180 3181 3141
3141 3181 3182 3142
3142 3182 3183 3143
3143 3183 3184 3144
3144 3184 3185 3145
3145 3185 3186 3146
3146 3186 3187 3147
3147 3187 3188 3148
3148 3188 3189 3149
3149 3189 3190 3150
3150 3190 3191 3151
3151 3191 3192 3152
3152 3192 3193 3153
3153 3193 3194 3154
3154 3194 3195 3155
3155 3195 3196 3156
3156 3196 3197 3157
3157 3197 155 154
78 79 3198 3158
3158 3198 3199 3159
3159 3199 3200 3160
3160 3200 3201 3161
3161 3201 3202 3162
3162 3202 3203 3163
3163 3203 3204 3164
3164 3204 3205 3165
3165 3205 3206 3166
3166 3206 3207 3167
3167 3207 3208 3168
3168 3208 3209 3169
3169 3209 3210 3170
3170 3210 3211 3171
3171 3211 3212 3172
3172 3212 3213 3173
3173 3213 3214 3174
3174 3214 3215 3175
3175 3215 3216 3176
3176 3216 3217 3177
3177 3217 3218 3178
3178 3218 3219 3179
3179 3219 3220 3180
3180 3220 3221 3181
3181 3221 3222 3182
3182 3222 3223 3183
3183 3223 3224 3184
3184 3224 3225 3185
3185 3225 3226 3186
3186 3226 3227 3187
3187 3227 3228 3188
3188 3228 3229 3189
3189 3229 3230 3190
3190 3230 3231 3191
3191 3231 3232 3192
3192 3232 3233 3193
3193 3233 3234 3194
3194 3234 3235 3195
3195 3235 3236 3196
3196 3236 3237 3197
3197 3237 156 155
79 80 3238 3198
3198 3238 3239 3199
3199 3239 3240 3200
3200 3240 3241 3201
3201 3241 3242 3202
3202 3242 3243 3203
3203 3243 3244 3204
3204 3244 3245 3205
3205 3245 3246 3206
3206 3246 3247 3207
3207 3247 3248 3208
3208 3248 3249 3209
3209 3249 3250 3210
3210 3250 3251 3211
3211 3251 3252 3212
3212 3252 3253 3213
3213 3253 3254 3214
3214 3254 3255 3215
3215 3255 3256 3216
3216 3256 3257 3217
3217 3257 3258 3218
3218 3258 3259 3219
3219 3259 3260 3220
3220 3260 3261 3221
3221 3261 3262 3222
3222 3262 3263 3223
3223 3263 3264 3224
3224 3264 3265 3225
3225 3265 3266 3226
3226 3266 3267 3227
3227 3267 3268 3228
3228 3268 3269 3229
3229 3269 3270 3230
3230 3270 3271 3231
3231 3271 3272 3232
3232 3272 3273 3233
3233 3273 3274 3234
3234 3274 3275 3235
3235 3275 3276 3236
3236 3276 3277 3237
3237 3277 157 156
80 81 3278 3238
3238 3278 3279 3239
3239 3279 3280 3240
3240 3280 3281 3241
3241 3281 3282 3242
3242 3282 3283 3243
3243 3283 3284 3244
3244 3284 3285 3245
3245 3285 3286 3246
3246 3286 3287 3247
3247 3287 3288 3248
3248 3288 3289 3249
3249 3289 3290 3250
3250 3290 3291 3251
3251 3291 3292 3252
3252 3292 3293 3253
3253 3293 3294 3254
3254 3294 3295 3255
3255 3295 3296 3256
3256 3296 3297 3257
3257 3297 3298 3258
3258 3298 3299 3259
3259 3299 3300 3260
3260 3300 3301 3261
3261 3301 3302 3262
3262 3302 3303 3263
3263 3303 3304 3264
3264 3304 3305 3265
3265 3305 3306 3266
3266 3306 3307 3267
3267 3307 3308 3268
3268 3308 3309 3269
3269 3309 3310 3270
3270 3310 3311 3271
3271 3311 3312 3272
3272 3312 3313 3273
3273 3313 3314 3274
3274 3314 3315 3275
3275 3315 3316 3276
3276 3316 3317 3277
3277 3317 158 157
81 82 3318 3278
3278 3318 3319 3279
3279 3319 3320 3280
3280 3320 3321 3281
3281 3321 3322 3282
3282 3322 3323 3283
3283 3323 3324 3284
3284 3324 3325 3285
3285 3325 3326 3286
3286 3326 3327 3287
3287 3327 3328 3288
3288 3328 3329 3289
3289 3329 3330 3290
3290 3330 3331 3291
3291 3331 3332 3292
3292 3332 3333 3293
3293 3333 3334 3294
3294 3334 3335 3295
3295 3335 3336 3296
3296 3336 3337 3297
3297 3337 3338 3298
3298 3338 3339 3299
3299 3339 3340 3300
3300 3340 3341 3301
3301 3341 3342 3302
3302 3342 3343 3303
3303 3343 3344 3304
3304 3344 3345 3305
3305 3345 3346 3306
3306 3346 3347 3307
3307 3347 3348 3308
3308 3348 3349 3309
3309 3349 3350 3310
3310 3350 3351 3311
3311 3351 3352 3312
3312 3352 3353 3313
3313 3353 3354 3314
3314 3354 3355 3315
3315 3355 3356 3316
3316 3356 3357 3317
3317 3357 159 158
82 83 3358 3318
3318 3358 3359 3319
3319 3359 3360 3320
3320 3360 3361 3321
3321 3361 3362 3322
3322 3362 3363 3323
3323 3363 3364 3324
3324 3364 3365 3325
3325 3365 3366 3326
3326 3366 3367 3327
3327 3367 3368 3328
3328 3368 3369 3329
3329 3369 3370 3330
3330 3370 3371 3331
3331 3371 3372 3332
3332 3372 3373 3333
3333 3373 3374 3334
3334 3374 3375 3335
3335 3375 3376 3336
3336 3376 3377 3337
3337 3377 3378 3338
3338 3378 3379 3339
3339 3379 3380 3340
3340 3380 3381 3341
3341 3381 3382 3342
3342 3382 3383 3343
3343 3383 3384 3344
3344 3384 3385 3345
3345 3385 3386 3346
3346 3386 3387 3347
3347 3387 3388 3348
3348 3388 3389 3349
3349 3389 3390 3350
3350 3390 3391 3351
3351 3391 3392 3352
3352 3392 3393 3353
3353 3393 3394 3354
3354 3394 3395 3355
3355 3395 3396 3356
3356 3396 3397 3357
3357 3397 160 159
83 84 3398 3358
3358 3398 3399 3359
3359 3399 3400 3360
3360 3400 3401 3361
3361 3401 3402 3362
3362 3402 3403 3363
3363 3403 3404 3364
3364 3404 3405 3365
3365 3405 3406 3366
3366 3406 3407 3367
3367 3407 3408 3368
3368 3408 3409 3369
3369 3409 3410 3370
3370 3410 3411 3371
3371 3411 3412 3372
3372 3412 3413 3373
3373 3413 3414 3374
3374 3414 3415 3375
3375 3415 3416 3376
3376 3416 3417 3377
3377 3417 3418 3378
3378 3418 3419 3379
3379 3419 3420 3380
3380 3420 3421 3381
3381 3421 3422 3382
3382 3422 3423 3383
3383 3423 3424 3384
3384 3424 3425 3385
3385 3425 3426 3386
3386 3426 3427 3387
3387 3427 3428 3388
3388 3428 3429 3389
3389 3429 3430 3390
3390 3430 3431 3391
3391 3431 3432 3392
3392 3432 3433 3393
3393 3433 3434 3394
3394 3434 3435 3395
3395 3435 3436 3396
3396 3436 3437 3397
3397 3437 161 160
84 85 3438 3398
3398 3438 3439 3399
3399 3439 3440 3400
3400 3440 3441 3401
3401 3441 3442 3402
3402 3442 3443 3403
3403 3443 3444 3404
3404 3444 3445 3405
3405 3445 3446 3406
3406 3446 3447 3407
3407 3447 3448 3408
3408 3448 3449 3409
3409 3449 3450 3410
3410 3450 3451 3411
3411 3451 3452 3412
3412 3452 3453 3413
3413 3453 3454 3414
3414 3454 3455 3415
3415 3455 3456 3416
3416 3456 3457 3417
3417 3457 3458 3418
3418 3458 3459 3419
3419 3459 3460 3420
3420 3460 3461 3421
3421 3461 3462 3422
3422 3462 3463 3423
3423 3463 3464 3424
3424 3464 3465 3425
3425 3465 3466 3426
3426 3466 3467 3427
3427 3467 3468 3428
3428 3468 3469 3429
3429 3469 3470 3430
3430 3470 3471 3431
3431 3471 3472 3432
3432 3472 3473 3433
3433 3473 3474 3434
3434 3474 3475 3435
3435 3475 3476 3436
3436 3476 3477 3437
3437 3477 162 161
85 86 3478 3438
3438 3478 3479 3439
3439 3479 3480 3440
3440 3480 3481 3441
3441 3481 3482 3442
3442 3482 3483 3443
3443 3483 3484 3444
3444 3484 3485 3445
3445 3485 3486 3446
3446 3486 3487 3447
3447 3487 3488 3448
3448 3488 3489 3449
3449 3489 3490 3450
3450 3490 3491 3451
3451 3491 3492 3452
3452 3492 3493 3453
3453 3493 3494 3454
3454 3494 3495 3455
3455 3495 3496 3456
3456 3496 3497 3457
3457 3497 3498 3458
3458 3498 3499 3459
3459 3499 3500 3460
3460 3500 3501 3461
3461 3501 3502 3462
3462 3502 3503 3463
3463 3503 3504 3464
3464 3504 3505 3465
3465 3505 3506 3466
3466 3506 3507 3467
3467 3507 3508 3468
3468 3508 3509 3469
3469 3509 3510 3470
3470 3510 3511 3471
3471 3511 3512 3472
3472 3512 3513 3473
3473 3513 3514 3474
3474 3514 3515 3475
3475 3515 3516 3476
3476 3516 3517 3477
3477 3517 163 162
86 87 3518 3478
3478 3518 3519 3479
3479 3519 3520 3480
3480 3520 3521 3481
3481 3521 3522 3482
3482 3522 3523 3483
3483 3523 3524 3484
3484 3524 3525 3485
3485 3525 3526 3486
3486 3526 3527 3487
3487 3527 3528 3488
3488 3528 3529 3489
3489 3529 3530 3490
3490 3530 3531 3491
3491 3531 3532 3492
3492 3532 3533 3493
3493 3533 3534 3494
3494 3534 3535 3495
3495 3535 3536 3496
3496 3536 3537 3497
3497 3537 3538 3498
3498 3538 3539 3499
3499 3539 3540 3500
3500 3540 3541 3501
3501 3541 3542 3502
3502 3542 3543 3503
3503 3543 3544 3504
3504 3544 3545 3505
3505 3545 3546 3506
3506 3546 3547 3507
3507 3547 3548 3508
3508 3548 3549 3509
3509 3549 3550 3510
3510 3550 3551 3511
3511 3551 3552 3512
3512 3552 3553 3513
3513 3553 3554 3514
3514 3554 3555 3515
3515 3555 3556 3516
3516 3556 3557 3517
3517 3557 164 163
87 88 3558 3518
3518 3558 3559 3519
3519 3559 3560 3520
3520 3560 3561 3521
3521 3561 3562 3522
3522 3562 3563 3523
3523 3563 3564 3524
3524 3564 3565 3525
3525 3565 3566 3526
3526 3566 3567 3527
3527 3567 3568 3528
3528 3568 3569 3529
3529 3569 3570 3530
3530 3570 3571 3531
3531 3571 3572 3532
3532 3572 3573 3533
3533 3573 3574 3534
3534 3574 3575 3535
3535 3575 3576 3536
3536 3576 3577 3537
3537 3577 3578 3538
3538 3578 3579 3539
3539 3579 3580 3540
3540 3580 3581 3541
3541 3581 3582 3542
3542 3582 3583 3543
3543 3583 3584 3544
3544 3584 3585 3545
3545 3585 3586 3546
3546 3586 3587 3547
3547 3587 3588 3548
3548 3588 3589 3549
3549 3589 3590 3550
3550 3590 3591 3551
3551 3591 3592 3552
3552 3592 3593 3553
3553 3593 3594 3554
3554 3594 3595 3555
3555 3595 3596 3556
3556 3596 3597 3557
3557 3597 165 164
88 2 322 3558
3558 322 321 3559
3559 321 320 3560
3560 320 319 3561
3561 319 318 3562
3562 318 317 3563
3563 317 316 3564
3564 316 315 3565
3565 315 314 3566
3566 314 313 3567
3567 313 312 3568
3568 312 311 3569
3569 311 310 3570
3570 310 309 3571
3571 309 308 3572
3572 308 307 3573
3573 307 306 3574
3574 306 305 3575
3575 305 304 3576
3576 304 303 3577
3577 303 302 3578
3578 302 301 3579
3579 301 300 3580
3580 300 299 3581
3581 299 298 3582
3582 298 297 3583
3583 297 296 3584
3584 296 295 3585
3585 295 294 3586
3586 294 293 3587
3587 293 292 3588
3588 292 291 3589
3589 291 290 3590
3590 290 289 3591
3591 289 288 3592
3592 288 287 3593
3593 287 286 3594
3594 286 285 3595
3595 285 284 3596
3596 284 283 3597
3597 283 6 165
4 108 3598 380
380 3598 3599 379
379 3599 3600 378
378 3600 3601 377
377 3601 3602 376
376 3602 3603 375
375 3603 3604 374
374 3604 3605 373
373 3605 3606 372
372 3606 3607 371
371 3607 3608 370
370 3608 3609 369
369 3609 3610 368
368 3610 3611 367
367 3611 3612 366
366 3612 3613 365
365 3613 3614 364
364 3614 3615 363
363 3615 3616 362
362 3616 323 9
108 109 3617 3598
3598 3617 3618 3599
3599 3618 3619 3600
3600 3619 3620 3601
3601 3620 3621 3602
3602 3621 3622 3603
3603 3622 3623 3604
3604 3623 3624 3605
3605 3624 3625 3606
3606 3625 3626 3607
3607 3626 3627 3608
3608 3627 3628 3609
3609 3628 3629 3610
3610 3629 3630 3611
3611 3630 3631 3612
3612 3631 3632 3613
3613 3632 3633 3614
3614 3633 3634 3615
3615 3634 3635 3616
3616 3635 324 323
109 110 3636 3617
3617 3636 3637 3618
3618 3637 3638 3619
3619 3638 3639 3620
3620 3639 3640 3621
3621 3640 3641 3622
3622 3641 3642 3623
3623 3642 3643 3624
3624 3643 3644 3625
3625 3644 3645 3626
3626 3645 3646 3627
3627 3646 3647 3628
3628 3647 3648 3629
3629 3648 3649 3630
3630 3649 3650 3631
3631 3650 3651 3632
3632 3651 3652 3633
3633 3652 3653 3634
3634 3653 3654 3635
3635 3654 325 324
110 111 3655 3636
3636 3655 3656 3637
3637 3656 3657 3638
3638 3657 3658 3639
3639 3658 3659 3640
3640 3659 3660 3641
3641 3660 3661 3642
3642 3661 3662 3643
3643 3662 3663 3644
3644 3663 3664 3645
3645 3664 3665 3646
3646 3665 3666 3647
3647 3666 3667 3648
3648 3667 3668 3649
3649 3668 3669 3650
3650 3669 3670 3651
3651 3670 3671 3652
3652 3671 3672 3653
3653 3672 3673 3654
3654 3673 326 325
111 112 3674 3655
3655 3674 3675 3656
3656 3675 3676 3657
3657 3676 3677 3658
3658 3677 3678 3659
3659 3678 3679 3660
3660 3679 3680 3661
3661 3680 3681 3662
3662 3681 3682 3663
3663 3682 3683 3664
3664 3683 3684 3665
3665 3684 3685 3666
3666 3685 3686 3667
3667 3686 3687 3668
3668 3687 3688 3669
3669 3688 3689 3670
3670 3689 3690 3671
3671 3690 3691 3672
3672 3691 3692 3673
3673 3692 327 326
112 113 3693 3674
3674 3693 3694 3675
3675 3694 3695 3676
3676 3695 3696 3677
3677 3696 3697 3678
3678 3697 3698 3679
3679 3698 3699 3680
3680 3699 3700 3681
3681 3700 3701 3682
3682 3701 3702 3683
3683 3702 3703 3684
3684 3703 3704 3685
3685 3704 3705 3686
3686 3705 3706 3687
3687 3706 3707 3688
3688 3707 3708 3689
3689 3708 3709 3690
3690 3709 3710 3691
3691 3710 3711 3692
3692 3711 328 327
113 114 3712 3693
3693 3712 3713 3694
3694 3713 3714 3695
3695 3714 3715 3696
3696 3715 3716 3697
3697 3716 3717 3698
3698 3717 3718 3699
3699 3718 3719 3700
3700 3719 3720 3701
3701 3720 3721 3702
3702 3721 3722 3703
3703 3722 3723 3704
3704 3723 3724 3705
3705 3724 3725 3706
3706 3725 3726 3707
3707 3726 3727 3708
3708 3727 3728 3709
3709 3728 3729 3710
3710 3729 3730 3711
3711 3730 329 328
114 115 3731 3712
3712 3731 3732 3713
3713 3732 3733 3714
3714 3733 3734 3715
3715 3734 3735 3716
3716 3735 3736 3717
3717 3736 3737 3718
3718 3737 3738 3719
3719 3738 3739 3720
3720 3739 3740 3721
3721 3740 3741 3722
3722 3741 3742 3723
3723 3742 3743 3724
3724 3743 3744 3725
3725 3744 3745 3726
3726 3745 3746 3727
3727 3746 3747 3728
3728 3747 3748 3729
3729 3748 3749 3730
3730 3749 330 329
115 116 3750 3731
3731 3750 3751 3732
3732 3751 3752 3733
3733 3752 3753 3734
3734 3753 3754 3735
3735 3754 3755 3736
3736 3755 3756 3737
3737 3756 3757 3738
3738 3757 3758 3739
3739 3758 3759 3740
3740 3759 3760 3741
3741 3760 3761 3742
3742 3761 3762 3743
3743 3762 3763 3744
3744 3763 3764 3745
3745 3764 3765 3746
3746 3765 3766 3747
3747 3766 3767 3748
3748 3767 3768 3749
3749 3768 331 330
116 117 3769 3750
3750 3769 3770 3751
3751 3770 3771 3752
3752 3771 3772 3753
3753 3772 3773 3754
3754 3773 3774 3755
3755 3774 3775 3756
3756 3775 3776 3757
3757 3776 3777 3758
3758 3777 3778 3759
3759 3778 3779 3760
3760 3779 3780 3761
3761 3780 3781 3762
3762 3781 3782 3763
3763 3782 3783 3764
3764 3783 3784 3765
3765 3784 3785 3766
3766 3785 3786 3767
3767 3786 3787 3768
3768 3787 332 331
117 118 3788 3769
3769 3788 3789 3770
3770 3789 3790 3771
3771 3790 3791 3772
3772 3791 3792 3773
3773 3792 3793 3774
3774 3793 3794 3775
3775 3794 3795 3776
3776 3795 3796 3777
3777 3796 3797 3778
3778 3797 3798 3779
3779 3798 3799 3780
3780 3799 3800 3781
3781 3800 3801 3782
3782 3801 3802 3783
3783 3802 3803 3784
3784 3803 3804 3785
3785 3804 3805 3786
3786 3805 3806 3787
3787 3806 333 332
118 119 3807 3788
3788 3807 3808 3789
3789 3808 3809 3790
3790 3809 3810 3791
3791 3810 3811 3792
3792 3811 3812 3793
3793 3812 3813 3794
3794 3813 3814 3795
3795 3814 3815 3796
3796 3815 3816 3797
3797 3816 3817 3798
3798 3817 3818 3799
3799 3818 3819 3800
3800 3819 3820 3801
3801 3820 3821 3802
3802 3821 3822 3803
3803 3822 3823 3804
3804 3823 3824 3805
3805 3824 3825 3806
3806 3825 334 333
119 120 3826 3807
3807 3826 3827 3808
3808 3827 3828 3809
3809 3828 3829 3810
3810 3829 3830 3811
3811 3830 3831 3812
3812 3831 3832 3813
3813 3832 3833 3814
3814 3833 3834 3815
3815 3834 3835 3816
3816 3835 3836 3817
3817 3836 3837 3818
3818 3837 3838 3819
3819 3838 3839 3820
3820 3839 3840 3821
3821 3840 3841 3822
3822 3841 3842 3823
3823 3842 3843 3824
3824 3843 3844 3825
3825 3844 335 334
120 121 3845 3826
3826 3845 3846 3827
3827 3846 3847 3828
3828 3847 3848 3829
3829 3848 3849 3830
3830 3849 3850 3831
3831 3850 3851 3832
3832 3851 3852 3833
3833 3852 3853 3834
3834 3853 3854 3835
3835 3854 3855 3836
3836 3855 3856 3837
3837 3856 3857 3838
3838 3857 3858 3839
3839 3858 3859 3840
3840 3859 3860 3841
3841 3860 3861 3842
3842 3861 3862 3843
3843 3862 3863 3844
3844 3863 336 335
121 122 3864 3845
3845 3864 3865 3846
3846 3865 3866 3847
3847 3866 3867 3848
3848 3867 3868 3849
3849 3868 3869 3850
3850 3869 3870 3851
3851 3870 3871 3852
3852 3871 3872 3853
3853 3872 3873 3854
3854 3873 3874 3855
3855 3874 3875 3856
3856 3875 3876 3857
3857 3876 3877 3858
3858 3877 3878 3859
3859 3878 3879 3860
3860 3879 3880 3861
3861 3880 3881 3862
3862 3881 3882 3863
3863 3882 337 336
122 123 3883 3864
3864 3883 3884 3865
3865 3884 3885 3866
3866 3885 3886 3867
3867 3886 3887 3868
3868 3887 3888 3869
3869 3888 3889 3870
3870 3889 3890 3871
3871 3890 3891 3872
3872 3891 3892 3873
3873 3892 3893 3874
3874 3893 3894 3875
3875 3894 3895 3876
3876 3895 3896 3877
3877 3896 3897 3878
3878 3897 3898 3879
3879 3898 3899 3880
3880 3899 3900 3881
3881 3900 3901 3882
3882 3901 338 337
123 124 3902 3883
3883 3902 3903 3884
3884 3903 3904 3885
3885 3904 3905 3886
3886 3905 3906 3887
3887 3906 3907 3888
3888 3907 3908 3889
3889 3908 3909 3890
3890 3909 3910 3891
3891 3910 3911 3892
3892 3911 3912 3893
3893 3912 3913 3894
3894 3913 3914 3895
3895 3914 3915 3896
3896 3915 3916 3897
3897 3916 3917 3898
3898 3917 3918 3899
3899 3918 3919 3900
3900 3919 3920 3901
3901 3920 339 338
124 125 3921 3902
3902 3921 3922 3903
3903 3922 3923 3904
3904 3923 3924 3905
3905 3924 3925 3906
3906 3925 3926 3907
3907 3926 3927 3908
3908 3927 3928 3909
3909 3928 3929 3910
3910 3929 3930 3911
3911 3930 3931 3912
3912 3931 3932 3913
3913 3932 3933 3914
3914 3933 3934 3915
3915 3934 3935 3916
3916 3935 3936 3917
3917 3936 3937 3918
3918 3937 3938 3919
3919 3938 3939 3920
3920 3939 340 339
125 126 3940 3921
3921 3940 3941 3922
3922 3941 3942 3923
3923 3942 3943 3924
3924 3943 3944 3925
3925 3944 3945 3926
3926 3945 3946 3927
3927 3946 3947 3928
3928 3947 3948 3929
3929 3948 3949 3930
3930 3949 3950 3931
3931 3950 3951 3932
3932 3951 3952 3933
3933 3952 3953 3934
3934 3953 3954 3935
3935 3954 3955 3936
3936 3955 3956 3937
3937 3956 3957 3938
3938 3957 3958 3939
3939 3958 341 340
126 127 3959 3940
3940 3959 3960 3941
3941 3960 3961 3942
3942 3961 3962 3943
3943 3962 3963 3944
3944 3963 3964 3945
3945 3964 3965 3946
3946 3965 3966 3947
3947 3966 3967 3948
3948 3967 3968 3949
3949 3968 3969 3950
3950 3969 3970 3951
3951 3970 3971 3952
3952 3971 3972 3953
3953 3972 3973 3954
3954 3973 3974 3955
3955 3974 3975 3956
3956 3975 3976 3957
3957 3976 3977 3958
3958 3977 342 341
127 128 3978 3959
3959 3978 3979 3960
3960 3979 3980 3961
3961 3980 3981 3962
3962 3981 3982 3963
3963 3982 3983 3964
3964 3983 3984 3965
3965 3984 3985 3966
3966 3985 3986 3967
3967 3986 3987 3968
3968 3987 3988 3969
3969 3988 3989 3970
3970 3989 3990 3971
3971 3990 3991 3972
3972 3991 3992 3973
3973 3992 3993 3974
3974 3993 3994 3975
3975 3994 3995 3976
3976 3995 3996 3977
3977 3996 343 342
128 129 3997 3978
3978 3997 3998 3979
3979 3998 3999 3980
3980 3999 4000 3981
3981 4000 4001 3982
3982 4001 4002 3983
3983 4002 4003 3984
3984 4003 4004 3985
3985 4004 4005 3986
3986 4005 4006 3987
3987 4006 4007 3988
3988 4007 4008 3989
3989 4008 4009 3990
3990 4009 4010 3991
3991 4010 4011 3992
3992 4011 4012 3993
3993 4012 4013 3994
3994 4013 4014 3995
3995 4014 4015 3996
3996 4015 344 343
129 130 4016 3997
3997 4016 4017 3998
3998 4017 4018 3999
3999 4018 4019 4000
4000 4019 4020 4001
4001 4020 4021 4002
4002 4021 4022 4003
4003 4022 4023 4004
4004 4023 4024 4005
4005 4024 4025 4006
4006 4025 4026 4007
4007 4026 4027 4008
4008 4027 4028 4009
4009 4028 4029 4010
4010 4029 4030 4011
4011 4030 4031 4012
4012 4031 4032 4013
4013 4032 4033 4014
4014 4033 4034 4015
4015 4034 345 344
130 131 4035 4016
4016 4035 4036 4017
4017 4036 4037 4018
4018 4037 4038 4019
4019 4038 4039 4020
4020 4039 4040 4021
4021 4040 4041 4022
4022 4041 4042 4023
4023 4042 4043 4024
4024 4043 4044 4025
4025 4044 4045 4026
4026 4045 4046 4027
4027 4046 4047 4028
4028 4047 4048 4029
4029 4048 4049 4030
4030 4049 4050 4031
4031 4050 4051 4032
4032 4051 4052 4033
4033 4052 4053 4034
4034 4053 346 345
131 132 4054 4035
4035 4054 4055 4036
4036 4055 4056 4037
4037 4056 4057 4038
4038 4057 4058 4039
4039 4058 4059 4040
4040 4059 4060 4041
4041 4060 4061 4042
4042 4061 4062 4043
4043 4062 4063 4044
4044 4063 4064 4045
4045 4064 4065 4046
4046 4065 4066 4047
4047 4066 4067 4048
4048 4067 4068 4049
4049 4068 4069 4050
4050 4069 4070 4051
4051 4070 4071 4052
4052 4071 4072 4053
4053 4072 347 346
132 133 4073 4054
4054 4073 4074 4055
4055 4074 4075 4056
4056 4075 4076 4057
4057 4076 4077 4058
4058 4077 4078 4059
4059 4078 4079 4060
4060 4079 4080 4061
4061 4080 4081 4062
4062 4081 4082 4063
4063 4082 4083 4064
4064 4083 4084 4065
4065 4084 4085 4066
4066 4085 4086 4067
4067 4086 4087 4068
4068 4087 4088 4069
4069 4088 4089 4070
4070 4089 4090 4071
4071 4090 4091 4072
4072 4091 348 347
133 134 4092 4073
4073 4092 4093 4074
4074 4093 4094 4075
4075 4094 4095 4076
4076 4095 4096 4077
4077 4096 4097 4078
4078 4097 4098 4079
4079 4098 4099 4080
4080 4099 4100 4081
4081 4100 4101 4082
4082 4101 4102 4083
4083 4102 4103 4084
4084 4103 4104 4085
4085 4104 4105 4086
4086 4105 4106 4087
4087 4106 4107 4088
4088 4107 4108 4089
4089 4108 4109 4090
4090 4109 4110 4091
4091 4110 349 348
134 135 4111 4092
4092 4111 4112 4093
4093 4112 4113 4094
4094 4113 4114 4095
4095 4114 4115 4096
4096 4115 4116 4097
4097 4116 4117 4098
4098 4117 4118 4099
4099 4118 4119 4100
4100 4119 4120 4101
4101 4120 4121 4102
4102 4121 4122 4103
4103 4122 4123 4104
4104 4123 4124 4105
4105 4124 4125 4106
4106 4125 4126 4107
4107 4126 4127 4108
4108 4127 4128 4109
4109 4128 4129 4110
4110 4129 350 349
135 136 4130 4111
4111 4130 4131 4112
4112 4131 4132 4113
4113 4132 4133 4114
4114 4133 4134 4115
4115 4134 4135 4116
4116 4135 4136 4117
4117 4136 4137 4118
4118 4137 4138 4119
4119 4138 4139 4120
4120 4139 4140 4121
4121 4140 4141 4122
4122 4141 4142 4123
4123 4142 4143 4124
4124 4143 4144 4125
4125 4144 4145 4126
4126 4145 4146 4127
4127 4146 4147 4128
4128 4147 4148 4129
4129 4148 351 350
136 137 4149 4130
4130 4149 4150 4131
4131 4150 4151 4132
4132 4151 4152 4133
4133 4152 4153 4134
4134 4153 4154 4135
4135 4154 4155 4136
4136 4155 4156 4137
4137 4156 4157 4138
4138 4157 4158 4139
4139 4158 4159 4140
4140 4159 4160 4141
4141 4160 4161 4142
4142 4161 4162 4143
4143 4162 4163 4144
4144 4163 4164 4145
4145 4164 4165 4146
4146 4165 4166 4147
4147 4166 4167 4148
4148 4167 352 351
137 138 4168 4149
4149 4168 4169 4150
4150 4169 4170 4151
4151 4170 4171 4152
4152 4171 4172 4153
4153 4172 4173 4154
4154 4173 4174 4155
4155 4174 4175 4156
4156 4175 4176 4157
4157 4176 4177 4158
4158 4177 4178 4159
4159 4178 4179 4160
4160 4179 4180 4161
4161 4180 4181 4162
4162 4181 4182 4163
4163 4182 4183 4164
4164 4183 4184 4165
4165 4184 4185 4166
4166 4185 4186 4167
4167 4186 353 352
138 139 4187 4168
4168 4187 4188 4169
4169 4188 4189 4170
4170 4189 4190 4171
4171 4190 4191 4172
4172 4191 4192 4173
4173 4192 4193 4174
4174 4193 4194 4175
4175 4194 4195 4176
4176 4195 4196 4177
4177 4196 4197 4178
4178 4197 4198 4179
4179 4198 4199 4180
4180 4199 4200 4181
4181 4200 4201 4182
4182 4201 4202 4183
4183 4202 4203 4184
4184 4203 4204 4185
4185 4204 4205 4186
4186 4205 354 353
139 140 4206 4187
4187 4206 4207 4188
4188 4207 4208 4189
4189 4208 4209 4190
4190 4209 4210 4191
4191 4210 4211 4192
4192 4211 4212 4193
4193 4212 4213 4194
4194 4213 4214 4195
4195 4214 4215 4196
4196 4215 4216 4197
4197 4216 4217 4198
4198 4217 4218 4199
4199 4218 4219 4200
4200 4219 4220 4201
4201 4220 4221 4202
4202 4221 4222 4203
4203 4222 4223 4204
4204 4223 4224 4205
4205 4224 355 354
140 141 4225 4206
4206 4225 4226 4207
4207 4226 4227 4208
4208 4227 4228 4209
4209 4228 4229 4210
4210 4229 4230 4211
4211 4230 4231 4212
4212 4231 4232 4213
4213 4232 4233 4214
4214 4233 4234 4215
4215 4234 4235 4216
4216 4235 4236 4217
4217 4236 4237 4218
4218 4237 4238 4219
4219 4238 4239 4220
4220 4239 4240 4221
4221 4240 4241 4222
4222 4241 4242 4223
4223 4242 4243 4224
4224 4243 356 355
141 142 4244 4225
4225 4244 4245 4226
4226 4245 4246 4227
4227 4246 4247 4228
4228 4247 4248 4229
4229 4248 4249 4230
4230 4249 4250 4231
4231 4250 4251 4232
4232 4251 4252 4233
4233 4252 4253 4234
4234 4253 4254 4235
4235 4254 4255 4236
4236 4255 4256 4237
4237 4256 4257 4238
4238 4257 4258 4239
4239 4258 4259 4240
4240 4259 4260 4241
4241 4260 4261 4242
4242 4261 4262 4243
4243 4262 357 356
142 143 4263 4244
4244 4263 4264 4245
4245 4264 4265 4246
4246 4265 4266 4247
4247 4266 4267 4248
4248 4267 4268 4249
4249 4268 4269 4250
4250 4269 4270 4251
4251 4270 4271 4252
4252 4271 4272 4253
4253 4272 4273 4254
4254 4273 4274 4255
4255 4274 4275 4256
4256 4275 4276 4257
4257 4276 4277 4258
4258 4277 4278 4259
4259 4278 4279 4260
4260 4279 4280 4261
4261 4280 4281 4262
4262 4281 358 357
143 144 4282 4263
4263 4282 4283 4264
4264 4283 4284 4265
4265 4284 4285 4266
4266 4285 4286 4267
4267 4286 4287 4268
4268 4287 4288 4269
4269 4288 4289 4270
4270 4289 4290 4271
4271 4290 4291 4272
4272 4291 4292 4273
4273 4292 4293 4274
4274 4293 4294 4275
4275 4294 4295 4276
4276 4295 4296 4277
4277 4296 4297 4278
4278 4297 4298 4279
4279 4298 4299 4280
4280 4299 4300 4281
4281 4300 359 358
144 145 4301 4282
4282 4301 4302 4283
4283 4302 4303 4284
4284 4303 4304 4285
4285 4304 4305 4286
4286 4305 4306 4287
4287 4306 4307 4288
4288 4307 4308 4289
4289 4308 4309 4290
4290 4309 4310 4291
4291 4310 4311 4292
4292 4311 4312 4293
4293 4312 4313 4294
4294 4313 4314 4295
4295 4314 4315 4296
4296 4315 4316 4297
4297 4316 4317 4298
4298 4317 4318 4299
4299 4318 4319 4300
4300 4319 360 359
145 146 4320 4301
4301 4320 4321 4302
4302 4321 4322 4303
4303 4322 4323 4304
4304 4323 4324 4305
4305 4324 4325 4306
4306 4325 4326 4307
4307 4326 4327 4308
4308 4327 4328 4309
4309 4328 4329 4310
4310 4329 4330 4311
4311 4330 4331 4312
4312 4331 4332 4313
4313 4332 4333 4314
4314 4333 4334 4315
4315 4334 4335 4316
4316 4335 4336 4317
4317 4336 4337 4318
4318 4337 4338 4319
4319 4338 361 360
146 5 399 4320
4320 399 398 4321
4321 398 397 4322
4322 397 396 4323
4323 396 395 4324
4324 395 394 4325
4325 394 393 4326
4326 393 392 4327
4327 392 391 4328
4328 391 390 4329
4329 390 389 4330
4330 389 388 4331
4331 388 387 4332
4332 387 386 4333
4333 386 385 4334
4334 385 384 4335
4335 384 383 4336
4336 383 382 4337
4337 382 381 4338
4338 381 10 361
3 89 4339 166
166 4339 4340 167
167 4340 4341 168
168 4341 4342 169
169 4342 4343 170
170 4343 4344 171
171 4344 4345 172
172 4345 4346 173
173 4346 4347 174
174 4347 4348 175
175 4348 4349 176
176 4349 4350 177
177 4350 4351 178
178 4351 4352 179
179 4352 4353 180
180 4353 4354 181
181 4354 4355 182
182 4355 4356 183
183 4356 4357 184
184 4357 418 7
89 90 4358 4339
4339 4358 4359 4340
4340 4359 4360 4341
4341 4360 4361 4342
4342 4361 4362 4343
4343 4362 4363 4344
4344 4363 4364 4345
4345 4364 4365 4346
4346 4365 4366 4347
4347 4366 4367 4348
4348 4367 4368 4349
4349 4368 4369 4350
4350 4369 4370 4351
4351 4370 4371 4352
4352 4371 4372 4353
4353 4372 4373 4354
4354 4373 4374 4355
4355 4374 4375 4356
4356 4375 4376 4357
4357 4376 417 418
90 91 4377 4358
4358 4377 4378 4359
4359 4378 4379 4360
4360 4379 4380 4361
4361 4380 4381 4362
4362 4381 4382 4363
4363 4382 4383 4364
4364 4383 4384 4365
4365 4384 4385 4366
4366 4385 4386 4367
4367 4386 4387 4368
4368 4387 4388 4369
4369 4388 4389 4370
4370 4389 4390 4371
4371 4390 4391 4372
4372 4391 4392 4373
4373 4392 4393 4374
4374 4393 4394 4375
4375 4394 4395 4376
4376 4395 416 417
91 92 4396 4377
4377 4396 4397 4378
4378 4397 4398 4379
4379 4398 4399 4380
4380 4399 4400 4381
4381 4400 4401 4382
4382 4401 4402 4383
4383 4402 4403 4384
4384 4403 4404 4385
4385 4404 4405 4386
4386 4405 4406 4387
4387 4406 4407 4388
4388 4407 4408 4389
4389 4408 4409 4390
4390 4409 4410 4391
4391 4410 4411 4392
4392 4411 4412 4393
4393 4412 4413 4394
4394 4413 4414 4395
4395 4414 415 416
92 93 4415 4396
4396 4415 4416 4397
4397 4416 4417 4398
4398 4417 4418 4399
4399 4418 4419 4400
4400 4419 4420 4401
4401 4420 4421 4402
4402 4421 4422 4403
4403 4422 4423 4404
4404 4423 4424 4405
4405 4424 4425 4406
4406 4425 4426 4407
4407 4426 4427 4408
4408 4427 4428 4409
4409 4428 4429 4410
4410 4429 4430 4411
4411 4430 4431 4412
4412 4431 4432 4413
4413 4432 4433 4414
4414 4433 414 415
93 94 4434 4415
4415 4434 4435 4416
4416 4435 4436 4417
4417 4436 4437 4418
4418 4437 4438 4419
4419 4438 4439 4420
4420 4439 4440 4421
4421 4440 4441 4422
4422 4441 4442 4423
4423 4442 4443 4424
4424 4443 4444 4425
4425 4444 4445 4426
4426 4445 4446 4427
4427 4446 4447 4428
4428 4447 4448 4429
4429 4448 4449 4430
4430 4449 4450 4431
4431 4450 4451 4432
4432 4451 4452 4433
4433 4452 413 414
94 95 4453 4434
4434 4453 4454 4435
4435 4454 4455 4436
4436 4455 4456 4437
4437 4456 4457 4438
4438 4457 4458 4439
4439 4458 4459 4440
4440 4459 4460 4441
4441 4460 4461 4442
4442 4461 4462 4443
4443 4462 4463 4444
4444 4463 4464 4445
4445 4464 4465 4446
4446 4465 4466 4447
4447 4466 4467 4448
4448 4467 4468 4449
4449 4468 4469 4450
4450 4469 4470 4451
4451 4470 4471 4452
4452 4471 412 413
95 96 4472 4453
4453 4472 4473 4454
4454 4473 4474 4455
4455 4474 4475 4456
4456 4475 4476 4457
4457 4476 4477 4458
4458 4477 4478 4459
4459 4478 4479 4460
4460 4479 4480 4461
4461 4480 4481 4462
4462 4481 4482 4463
4463 4482 4483 4464
4464 4483 4484 4465
4465 4484 4485 4466
4466 4485 4486 4467
4467 4486 4487 4468
4468 4487 4488 4469
4469 4488 4489 4470
4470 4489 4490 4471
4471 4490 411 412
96 97 4491 4472
4472 4491 4492 4473
4473 4492 4493 4474
4474 4493 4494 4475
4475 4494 4495 4476
4476 4495 4496 4477
4477 4496 4497 4478
4478 4497 4498 4479
4479 4498 4499 4480
4480 4499 4500 4481
4481 4500 4501 4482
4482 4501 4502 4483
4483 4502 4503 4484
4484 4503 4504 4485
4485 4504 4505 4486
4486 4505 4506 4487
4487 4506 4507 4488
4488 4507 4508 4489
4489 4508 4509 4490
4490 4509 410 411
97 98 4510 4491
4491 4510 4511 4492
4492 4511 4512 4493
4493 4512 4513 4494
4494 4513 4514 4495
4495 4514 4515 4496
4496 4515 4516 4497
4497 4516 4517 4498
4498 4517 4518 4499
4499 4518 4519 4500
4500 4519 4520 4501
4501 4520 4521 4502
4502 4521 4522 4503
4503 4522 4523 4504
4504 4523 4524 4505
4505 4524 4525 4506
4506 4525 4526 4507
4507 4526 4527 4508
4508 4527 4528 4509
4509 4528 409 410
98 99 4529 4510
4510 4529 4530 4511
4511 4530 4531 4512
4512 4531 4532 4513
4513 4532 4533 4514
4514 4533 4534 4515
4515 4534 4535 4516
4516 4535 4536 4517
4517 4536 4537 4518
4518 4537 4538 4519
4519 4538 4539 4520
4520 4539 4540 4521
4521 4540 4541 4522
4522 4541 4542 4523
4523 4542 4543 4524
4524 4543 4544 4525
4525 4544 4545 4526
4526 4545 4546 4527
4527 4546 4547 4528
4528 4547 408 409
99 100 4548 4529
4529 4548 4549 4530
4530 4549 4550 4531
4531 4550 4551 4532
4532 4551 4552 4533
4533 4552 4553 4534
4534 4553 4554 4535
4535 4554 4555 4536
4536 4555 4556 4537
4537 4556 4557 4538
4538 4557 4558 4539
4539 4558 4559 4540
4540 4559 4560 4541
4541 4560 4561 4542
4542 4561 4562 4543
4543 4562 4563 4544
4544 4563 4564 4545
4545 4564 4565 4546
4546 4565 4566 4547
4547 4566 407 408
100 101 4567 4548
4548 4567 4568 4549
4549 4568 4569 4550
4550 4569 4570 4551
4551 4570 4571 4552
4552 4571 4572 4553
4553 4572 4573 4554
4554 4573 4574 4555
4555 4574 4575 4556
4556 4575 4576 4557
4557 4576 4577 4558
4558 4577 4578 4559
4559 4578 4579 4560
4560 4579 4580 4561
4561 4580 4581 4562
4562 4581 4582 4563
4563 4582 4583 4564
4564 4583 4584 4565
4565 4584 4585 4566
4566 4585 406 407
101 102 4586 4567
4567 4586 4587 4568
4568 4587 4588 4569
4569 4588 4589 4570
4570 4589 4590 4571
4571 4590 4591 4572
4572 4591 4592 4573
4573 4592 4593 4574
4574 4593 4594 4575
4575 4594 4595 4576
4576 4595 4596 4577
4577 4596 4597 4578
4578 4597 4598 4579
4579 4598 4599 4580
4580 4599 4600 4581
4581 4600 4601 4582
4582 4601 4602 4583
4583 4602 4603 4584
4584 4603 4604 4585
4585 4604 405 406
102 103 4605 4586
4586 4605 4606 4587
4587 4606 4607 4588
4588 4607 4608 4589
4589 4608 4609 4590
4590 4609 4610 4591
4591 4610 4611 4592
4592 4611 4612 4593
4593 4612 4613 4594
4594 4613 4614 4595
4595 4614 4615 4596
4596 4615 4616 4597
4597 4616 4617 4598
4598 4617 4618 4599
4599 4618 4619 4600
4600 4619 4620 4601
4601 4620 4621 4602
4602 4621 4622 4603
4603 4622 4623 4604
4604 4623 404 405
103 104 4624 4605
4605 4624 4625 4606
4606 4625 4626 4607
4607 4626 4627 4608
4608 4627 4628 4609
4609 4628 4629 4610
4610 4629 4630 4611
4611 4630 4631 4612
4612 4631 4632 4613
4613 4632 4633 4614
4614 4633 4634 4615
4615 4634 4635 4616
4616 4635 4636 4617
4617 4636 4637 4618
4618 4637 4638 4619
4619 4638 4639 4620
4620 4639 4640 4621
4621 4640 4641 4622
4622 4641 4642 4623
4623 4642 403 404
104 105 4643 4624
4624 4643 4644 4625
4625 4644 4645 4626
4626 4645 4646 4627
4627 4646 4647 4628
4628 4647 4648 4629
4629 4648 4649 4630
4630 4649 4650 4631
4631 4650 4651 4632
4632 4651 4652 4633
4633 4652 4653 4634
4634 4653 4654 4635
4635 4654 4655 4636
4636 4655 4656 4637
4637 4656 4657 4638
4638 4657 4658 4639
4639 4658 4659 4640
4640 4659 4660 4641
4641 4660 4661 4642
4642 4661 402 403
105 106 4662 4643
4643 4662 4663 4644
4644 4663 4664 4645
4645 4664 4665 4646
4646 4665 4666 4647
4647 4666 4667 4648
4648 4667 4668 4649
4649 4668 4669 4650
4650 4669 4670 4651
4651 4670 4671 4652
4652 4671 4672 4653
4653 4672 4673 4654
4654 4673 4674 4655
4655 4674 4675 4656
4656 4675 4676 4657
4657 4676 4677 4658
4658 4677 4678 4659
4659 4678 4679 4660
4660 4679 4680 4661
4661 4680 401 402
106 107 4681 4662
4662 4681 4682 4663
4663 4682 4683 4664
4664 4683 4684 4665
4665 4684 4685 4666
4666 4685 4686 4667
4667 4686 4687 4668
4668 4687 4688 4669
4669 4688 4689 4670
4670 4689 4690 4671
4671 4690 4691 4672
4672 4691 4692 4673
4673 4692 4693 4674
4674 4693 4694 4675
4675 4694 4695 4676
4676 4695 4696 4677
4677 4696 4697 4678
4678 4697 4698 4679
4679 4698 4699 4680
4680 4699 400 401
107 4 380 4681
4681 380 379 4682
4682 379 378 4683
4683 378 377 4684
4684 377 376 4685
4685 376 375 4686
4686 375 374 4687
4687 374 373 4688
4688 373 372 4689
4689 372 371 4690
4690 371 370 4691
4691 370 369 4692
4692 369 368 4693
4693 368 367 4694
4694 367 366 4695
4695 366 365 4696
4696 365 364 4697
4697 364 363 4698
4698 363 362 4699
4699 362 9 400
5 147 4700 399
399 4700 4701 398
398 4701 4702 397
397 4702 4703 396
396 4703 4704 395
395 4704 4705 394
394 4705 4706 393
393 4706 4707 392
392 4707 4708 391
391 4708 4709 390
390 4709 4710 389
389 4710 4711 388
388 4711 4712 387
387 4712 4713 386
386 4713 4714 385
385 4714 4715 384
384 4715 4716 383
383 4716 4717 382
382 4717 4718 381
381 4718 419 10
147 148 4719 4700
4700 4719 4720 4701
4701 4720 4721 4702
4702 4721 4722 4703
4703 4722 4723 4704
4704 4723 4724 4705
4705 4724 4725 4706
4706 4725 4726 4707
4707 4726 4727 4708
4708 4727 4728 4709
4709 4728 4729 4710
4710 4729 4730 4711
4711 4730 4731 4712
4712 4731 4732 4713
4713 4732 4733 4714
4714 4733 4734 4715
4715 4734 4735 4716
4716 4735 4736 4717
4717 4736 4737 4718
4718 4737 420 419
148 149 4738 4719
4719 4738 4739 4720
4720 4739 4740 4721
4721 4740 4741 4722
4722 4741 4742 4723
4723 4742 4743 4724
4724 4743 4744 4725
4725 4744 4745 4726
4726 4745 4746 4727
4727 4746 4747 4728
4728 4747 4748 4729
4729 4748 4749 4730
4730 4749 4750 4731
4731 4750 4751 4732
4732 4751 4752 4733
4733 4752 4753 4734
4734 4753 4754 4735
4735 4754 4755 4736
4736 4755 4756 4737
4737 4756 421 420
149 150 4757 4738
4738 4757 4758 4739
4739 4758 4759 4740
4740 4759 4760 4741
4741 4760 4761 4742
4742 4761 4762 4743
4743 4762 4763 4744
4744 4763 4764 4745
4745 4764 4765 4746
4746 4765 4766 4747
4747 4766 4767 4748
4748 4767 4768 4749
4749 4768 4769 4750
4750 4769 4770 4751
4751 4770 4771 4752
4752 4771 4772 4753
4753 4772 4773 4754
4754 4773 4774 4755
4755 4774 4775 4756
4756 4775 422 421
150 151 4776 4757
4757 4776 4777 4758
4758 4777 4778 4759
4759 4778 4779 4760
4760 4779 4780 4761
4761 4780 4781 4762
4762 4781 4782 4763
4763 4782 4783 4764
4764 4783 4784 4765
4765 4784 4785 4766
4766 4785 4786 4767
4767 4786 4787 4768
4768 4787 4788 4769
4769 4788 4789 4770
4770 4789 4790 4771
4771 4790 4791 4772
4772 4791 4792 4773
4773 4792 4793 4774
4774 4793 4794 4775
4775 4794 423 422
151 152 4795 4776
4776 4795 4796 4777
4777 4796 4797 4778
4778 4797 4798 4779
4779 4798 4799 4780
4780 4799 4800 4781
4781 4800 4801 4782
4782 4801 4802 4783
4783 4802 4803 4784
4784 4803 4804 4785
4785 4804 4805 4786
4786 4805 4806 4787
4787 4806 4807 4788
4788 4807 4808 4789
4789 4808 4809 4790
4790 4809 4810 4791
4791 4810 4811 4792
4792 4811 4812 4793
4793 4812 4813 4794
4794 4813 424 423
152 153 4814 4795
4795 4814 4815 4796
4796 4815 4816 4797
4797 4816 4817 4798
4798 4817 4818 4799
4799 4818 4819 4800
4800 4819 4820 4801
4801 4820 4821 4802
4802 4821 4822 4803
4803 4822 4823 4804
4804 4823 4824 4805
4805 4824 4825 4806
4806 4825 4826 4807
4807 4826 4827 4808
4808 4827 4828 4809
4809 4828 4829 4810
4810 4829 4830 4811
4811 4830 4831 4812
4812 4831 4832 4813
4813 4832 425 424
153 154 4833 4814
4814 4833 4834 4815
4815 4834 4835 4816
4816 4835 4836 4817
4817 4836 4837 4818
4818 4837 4838 4819
4819 4838 4839 4820
4820 4839 4840 4821
4821 4840 4841 4822
4822 4841 4842 4823
4823 4842 4843 4824
4824 4843 4844 4825
4825 4844 4845 4826
4826 4845 4846 4827
4827 4846 4847 4828
4828 4847 4848 4829
4829 4848 4849 4830
4830 4849 4850 4831
4831 4850 4851 4832
4832 4851 426 425
154 155 4852 4833
4833 4852 4853 4834
4834 4853 4854 4835
4835 4854 4855 4836
4836 4855 4856 4837
4837 4856 4857 4838
4838 4857 4858 4839
4839 4858 4859 4840
4840 4859 4860 4841
4841 4860 4861 4842
4842 4861 4862 4843
4843 4862 4863 4844
4844 4863 4864 4845
4845 4864 4865 4846
4846 4865 4866 4847
4847 4866 4867 4848
4848 4867 4868 4849
4849 4868 4869 4850
4850 4869 4870 4851
4851 4870 427 426
155 156 4871 4852
4852 4871 4872 4853
4853 4872 4873 4854
4854 4873 4874 4855
4855 4874 4875 4856
4856 4875 4876 4857
4857 4876 4877 4858
4858 4877 4878 4859
4859 4878 4879 4860
4860 4879 4880 4861
4861 4880 4881 4862
4862 4881 4882 4863
4863 4882 4883 4864
4864 4883 4884 4865
4865 4884 4885 4866
4866 4885 4886 4867
4867 4886 4887 4868
4868 4887 4888 4869
4869 4888 4889 4870
4870 4889 428 427
156 157 4890 4871
4871 4890 4891 4872
4872 4891 4892 4873
4873 4892 4893 4874
4874 4893 4894 4875
4875 4894 4895 4876
4876 4895 4896 4877
4877 4896 4897 4878
4878 4897 4898 4879
4879 4898 4899 4880
4880 4899 4900 4881
4881 4900 4901 4882
4882 4901 4902 4883
4883 4902 4903 4884
4884 4903 4904 4885
4885 4904 4905 4886
4886 4905 4906 4887
4887 4906 4907 4888
4888 4907 4908 4889
4889 4908 429 428
157 158 4909 4890
4890 4909 4910 4891
4891 4910 4911 4892
4892 4911 4912 4893
4893 4912 4913 4894
4894 4913 4914 4895
4895 4914 4915 4896
4896 4915 4916 4897
4897 4916 4917 4898
4898 4917 4918 4899
4899 4918 4919 4900
4900 4919 4920 4901
4901 4920 4921 4902
4902 4921 4922 4903
4903 4922 4923 4904
4904 4923 4924 4905
4905 4924 4925 4906
4906 4925 4926 4907
4907 4926 4927 4908
4908 4927 430 429
158 159 4928 4909
4909 4928 4929 4910
4910 4929 4930 4911
4911 4930 4931 4912
4912 4931 4932 4913
4913 4932 4933 4914
4914 4933 4934 4915
4915 4934 4935 4916
4916 4935 4936 4917
4917 4936 4937 4918
4918 4937 4938 4919
4919 4938 4939 4920
4920 4939 4940 4921
4921 4940 4941 4922
4922 4941 4942 4923
4923 4942 4943 4924
4924 4943 4944 4925
4925 4944 4945 4926
4926 4945 4946 4927
4927 4946 431 430
159 160 4947 4928
4928 4947 4948 4929
4929 4948 4949 4930
4930 4949 4950 4931
4931 4950 4951 4932
4932 4951 4952 4933
4933 4952 4953 4934
4934 4953 4954 4935
4935 4954 4955 4936
4936 4955 4956 4937
4937 4956 4957 4938
4938 4957 4958 4939
4939 4958 4959 4940
4940 4959 4960 4941
4941 4960 4961 4942
4942 4961 4962 4943
4943 4962 4963 4944
4944 4963 4964 4945
4945 4964 4965 4946
4946 4965 432 431
160 161 4966 4947
4947 4966 4967 4948
4948 4967 4968 4949
4949 4968 4969 4950
4950 4969 4970 4951
4951 4970 4971 4952
4952 4971 4972 4953
4953 4972 4973 4954
4954 4973 4974 4955
4955 4974 4975 4956
4956 4975 4976 4957
4957 4976 4977 4958
4958 4977 4978 4959
4959 4978 4979 4960
4960 4979 4980 4961
4961 4980 4981 4962
4962 4981 4982 4963
4963 4982 4983 4964
4964 4983 4984 4965
4965 4984 433 432
161 162 4985 4966
4966 4985 4986 4967
4967 4986 4987 4968
4968 4987 4988 4969
4969 4988 4989 4970
4970 4989 4990 4971
4971 4990 4991 4972
4972 4991 4992 4973
4973 4992 4993 4974
4974 4993 4994 4975
4975 4994 4995 4976
4976 4995 4996 4977
4977 4996 4997 4978
4978 4997 4998 4979
4979 4998 4999 4980
4980 4999 5000 4981
4981 5000 5001 4982
4982 5001 5002 4983
4983 5002 5003 4984
4984 5003 434 433
162 163 5004 4985
4985 5004 5005 4986
4986 5005 5006 4987
4987 5006 5007 4988
4988 5007 5008 4989
4989 5008 5009 4990
4990 5009 5010 4991
4991 5010 5011 4992
4992 5011 5012 4993
4993 5012 5013 4994
4994 5013 5014 4995
4995 5014 5015 4996
4996 5015 5016 4997
4997 5016 5017 4998
4998 5017 5018 4999
4999 5018 5019 5000
5000 5019 5020 5001
5001 5020 5021 5002
5002 5021 5022 5003
5003 5022 435 434
163 164 5023 5004
5004 5023 5024 5005
5005 5024 5025 5006
5006 5025 5026 5007
5007 5026 5027 5008
5008 5027 5028 5009
5009 5028 5029 5010
5010 5029 5030 5011
5011 5030 5031 5012
5012 5031 5032 5013
5013 5032 5033 5014
5014 5033 5034 5015
5015 5034 5035 5016
5016 5035 5036 5017
5017 5036 5037 5018
5018 5037 5038 5019
5019 5038 5039 5020
5020 5039 5040 5021
5021 5040 5041 5022
5022 5041 436 435
164 165 5042 5023
5023 5042 5043 5024
5024 5043 5044 5025
5025 5044 5045 5026
5026 5045 5046 5027
5027 5046 5047 5028
5028 5047 5048 5029
5029 5048 5049 5030
5030 5049 5050 5031
5031 5050 5051 5032
5032 5051 5052 5033
5033 5052 5053 5034
5034 5053 5054 5035
5035 5054 5055 5036
5036 5055 5056 5037
5037 5056 5057 5038
5038 5057 5058 5039
5039 5058 5059 5040
5040 5059 5060 5041
5041 5060 437 436
165 6 242 5042
5042 242 241 5043
5043 241 240 5044
5044 240 239 5045
5045 239 238 5046
5046 238 237 5047
5047 237 236 5048
5048 236 235 5049
5049 235 234 5050
5050 234 233 5051
5051 233 232 5052
5052 232 231 5053
5053 231 230 5054
5054 230 229 5055
5055 229 228 5056
5056 228 227 5057
5057 227 226 5058
5058 226 225 5059
5059 225 224 5060
5060 224 8 437
9 323 5061 400
400 5061 5062 401
401 5062 5063 402
402 5063 5064 403
403 5064 5065 404
404 5065 5066 405
405 5066 5067 406
406 5067 5068 407
407 5068 5069 408
408 5069 5070 409
409 5070 5071 410
410 5071 5072 411
411 5072 5073 412
412 5073 5074 413
413 5074 5075 414
414 5075 5076 415
415 5076 5077 416
416 5077 5078 417
417 5078 5079 418
418 5079 185 7
323 324 5080 5061
5061 5080 5081 5062
5062 5081 5082 5063
5063 5082 5083 5064
5064 5083 5084 5065
5065 5084 5085 5066
5066 5085 5086 5067
5067 5086 5087 5068
5068 5087 5088 5069
5069 5088 5089 5070
5070 5089 5090 5071
5071 5090 5091 5072
5072 5091 5092 5073
5073 5092 5093 5074
5074 5093 5094 5075
5075 5094 5095 5076
5076 5095 5096 5077
5077 5096 5097 5078
5078 5097 5098 5079
5079 5098 186 185
324 325 5099 5080
5080 5099 5100 5081
5081 5100 5101 5082
5082 5101 5102 5083
5083 5102 5103 5084
5084 5103 5104 5085
5085 5104 5105 5086
5086 5105 5106 5087
5087 5106 5107 5088
5088 5107 5108 5089
5089 5108 5109 5090
5090 5109 5110 5091
5091 5110 5111 5092
5092 5111 5112 5093
5093 5112 5113 5094
5094 5113 5114 5095
5095 5114 5115 5096
5096 5115 5116 5097
5097 5116 5117 5098
5098 5117 187 186
325 326 5118 5099
5099 5118 5119 5100
5100 5119 5120 5101
5101 5120 5121 5102
5102 5121 5122 5103
5103 5122 5123 5104
5104 5123 5124 5105
5105 5124 5125 5106
5106 5125 5126 5107
5107 5126 5127 5108
5108 5127 5128 5109
5109 5128 5129 5110
5110 5129 5130 5111
5111 5130 5131 5112
5112 5131 5132 5113
5113 5132 5133 5114
5114 5133 5134 5115
5115 5134 5135 5116
5116 5135 5136 5117
5117 5136 188 187
326 327 5137 5118
5118 5137 5138 5119
5119 5138 5139 5120
5120 5139 5140 5121
5121 5140 5141 5122
5122 5141 5142 5123
5123 5142 5143 5124
5124 5143 5144 5125
5125 5144 5145 5126
5126 5145 5146 5127
5127 5146 5147 5128
5128 5147 5148 5129
5129 5148 5149 5130
5130 5149 5150 5131
5131 5150 5151 5132
5132 5151 5152 5133
5133 5152 5153 5134
5134 5153 5154 5135
5135 5154 5155 5136
5136 5155 189 188
327 328 5156 5137
5137 5156 5157 5138
5138 5157 5158 5139
5139 5158 5159 5140
5140 5159 5160 5141
5141 5160 5161 5142
5142 5161 5162 5143
5143 5162 5163 5144
5144 5163 5164 5145
5145 5164 5165 5146
5146 5165 5166 5147
5147 5166 5167 5148
5148 5167 5168 5149
5149 5168 5169 5150
5150 5169 5170 5151
5151 5170 5171 5152
5152 5171 5172 5153
5153 5172 5173 5154
5154 5173 5174 5155
5155 5174 190 189
328 329 5175 5156
5156 5175 5176 5157
5157 5176 5177 5158
5158 5177 5178 5159
5159 5178 5179 5160
5160 5179 5180 5161
5161 5180 5181 5162
5162 5181 5182 5163
5163 5182 5183 5164
5164 5183 5184 5165
5165 5184 5185 5166
5166 5185 5186 5167
5167 5186 5187 5168
5168 5187 5188 5169
5169 5188 5189 5170
5170 5189 5190 5171
5171 5190 5191 5172
5172 5191 5192 5173
5173 5192 5193 5174
5174 5193 191 190
329 330 5194 5175
5175 5194 5195 5176
5176 5195 5196 5177
5177 5196 5197 5178
5178 5197 5198 5179
5179 5198 5199 5180
5180 5199 5200 5181
5181 5200 5201 5182
5182 5201 5202 5183
5183 5202 5203 5184
5184 5203 5204 5185
5185 5204 5205 5186
5186 5205 5206 5187
5187 5206 5207 5188
5188 5207 5208 5189
5189 5208 5209 5190
5190 5209 5210 5191
5191 5210 5211 5192
5192 5211 5212 5193
5193 5212 192 191
330 331 5213 5194
5194 5213 5214 5195
5195 5214 5215 5196
5196 5215 5216 5197
5197 5216 5217 5198
5198 5217 5218 5199
5199 5218 5219 5200
5200 5219 5220 5201
5201 5220 5221 5202
5202 5221 5222 5203
5203 5222 5223 5204
5204 5223 5224 5205
5205 5224 5225 5206
5206 5225 5226 5207
5207 5226 5227 5208
5208 5227 5228 5209
5209 5228 5229 5210
5210 5229 5230 5211
5211 5230 5231 5212
5212 5231 193 192
331 332 5232 5213
5213 5232 5233 5214
5214 5233 5234 5215
5215 5234 5235 5216
5216 5235 5236 5217
5217 5236 5237 5218
5218 5237 5238 5219
5219 5238 5239 5220
5220 5239 5240 5221
5221 5240 5241 5222
5222 5241 5242 5223
5223 5242 5243 5224
5224 5243 5244 5225
5225 5244 5245 5226
5226 5245 5246 5227
5227 5246 5247 5228
5228 5247 5248 5229
5229 5248 5249 5230
5230 5249 5250 5231
5231 5250 194 193
332 333 5251 5232
5232 5251 5252 5233
5233 5252 5253 5234
5234 5253 5254 5235
5235 5254 5255 5236
5236 5255 5256 5237
5237 5256 5257 5238
5238 5257 5258 5239
5239 5258 5259 5240
5240 5259 5260 5241
5241 5260 5261 5242
5242 5261 5262 5243
5243 5262 5263 5244
5244 5263 5264 5245
5245 5264 5265 5246
5246 5265 5266 5247
5247 5266 5267 5248
5248 5267 5268 5249
5249 5268 5269 5250
5250 5269 195 194
333 334 5270 5251
5251 5270 5271 5252
5252 5271 5272 5253
5253 5272 5273 5254
5254 5273 5274 5255
5255 5274 5275 5256
5256 5275 5276 5257
5257 5276 5277 5258
5258 5277 5278 5259
5259 5278 5279 5260
5260 5279 5280 5261
5261 5280 5281 5262
5262 5281 5282 5263
5263 5282 5283 5264
5264 5283 5284 5265
5265 5284 5285 5266
5266 5285 5286 5267
5267 5286 5287 5268
5268 5287 5288 5269
5269 5288 196 195
334 335 5289 5270
5270 5289 5290 5271
5271 5290 5291 5272
5272 5291 5292 5273
5273 5292 5293 5274
5274 5293 5294 5275
5275 5294 5295 5276
5276 5295 5296 5277
5277 5296 5297 5278
5278 5297 5298 5279
5279 5298 5299 5280
5280 5299 5300 5281
5281 5300 5301 5282
5282 5301 5302 5283
5283 5302 5303 5284
5284 5303 5304 5285
5285 5304 5305 5286
5286 5305 5306 5287
5287 5306 5307 5288
5288 5307 197 196
335 336 5308 5289
5289 5308 5309 5290
5290 5309 5310 5291
5291 5310 5311 5292
5292 5311 5312 5293
5293 5312 5313 5294
5294 5313 5314 5295
5295 5314 5315 5296
5296 5315 5316 5297
5297 5316 5317 5298
5298 5317 5318 5299
5299 5318 5319 5300
5300 5319 5320 5301
5301 5320 5321 5302
5302 5321 5322 5303
5303 5322 5323 5304
5304 5323 5324 5305
5305 5324 5325 5306
5306 5325 5326 5307
5307 5326 198 197
336 337 5327 5308
5308 5327 5328 5309
5309 5328 5329 5310
5310 5329 5330 5311
5311 5330 5331 5312
5312 5331 5332 5313
5313 5332 5333 5314
5314 5333 5334 5315
5315 5334 5335 5316
5316 5335 5336 5317
5317 5336 5337 5318
5318 5337 5338 5319
5319 5338 5339 5320
5320 5339 5340 5321
5321 5340 5341 5322
5322 5341 5342 5323
5323 5342 5343 5324
5324 5343 5344 5325
5325 5344 5345 5326
5326 5345 199 198
337 338 5346 5327
5327 5346 5347 5328
5328 5347 5348 5329
5329 5348 5349 5330
5330 5349 5350 5331
5331 5350 5351 5332
5332 5351 5352 5333
5333 5352 5353 5334
5334 5353 5354 5335
5335 5354 5355 5336
5336 5355 5356 5337
5337 5356 5357 5338
5338 5357 5358 5339
5339 5358 5359 5340
5340 5359 5360 5341
5341 5360 5361 5342
5342 5361 5362 5343
5343 5362 5363 5344
5344 5363 5364 5345
5345 5364 200 199
338 339 5365 5346
5346 5365 5366 5347
5347 5366 5367 5348
5348 5367 5368 5349
5349 5368 5369 5350
5350 5369 5370 5351
5351 5370 5371 5352
5352 5371 5372 5353
5353 5372 5373 5354
5354 5373 5374 5355
5355 5374 5375 5356
5356 5375 5376 5357
5357 5376 5377 5358
5358 5377 5378 5359
5359 5378 5379 5360
5360 5379 5380 5361
5361 5380 5381 5362
5362 5381 5382 5363
5363 5382 5383 5364
5364 5383 201 200
339 340 5384 5365
5365 5384 5385 5366
5366 5385 5386 5367
5367 5386 5387 5368
5368 5387 5388 5369
5369 5388 5389 5370
5370 5389 5390 5371
5371 5390 5391 5372
5372 5391 5392 5373
5373 5392 5393 5374
5374 5393 5394 5375
5375 5394 5395 5376
5376 5395 5396 5377
5377 5396 5397 5378
5378 5397 5398 5379
5379 5398 5399 5380
5380 5399 5400 5381
5381 5400 5401 5382
5382 5401 5402 5383
5383 5402 202 201
340 341 5403 5384
5384 5403 5404 5385
5385 5404 5405 5386
5386 5405 5406 5387
5387 5406 5407 5388
5388 5407 5408 5389
5389 5408 5409 5390
5390 5409 5410 5391
5391 5410 5411 5392
5392 5411 5412 5393
5393 5412 5413 5394
5394 5413 5414 5395
5395 5414 5415 5396
5396 5415 5416 5397
5397 5416 5417 5398
5398 5417 5418 5399
5399 5418 5419 5400
5400 5419 5420 5401
5401 5420 5421 5402
5402 5421 203 202
341 342 5422 5403
5403 5422 5423 5404
5404 5423 5424 5405
5405 5424 5425 5406
5406 5425 5426 5407
5407 5426 5427 5408
5408 5427 5428 5409
5409 5428 5429 5410
5410 5429 5430 5411
5411 5430 5431 5412
5412 5431 5432 5413
5413 5432 5433 5414
5414 5433 5434 5415
5415 5434 5435 5416
5416 5435 5436 5417
5417 5436 5437 5418
5418 5437 5438 5419
5419 5438 5439 5420
5420 5439 5440 5421
5421 5440 204 203
342 343 5441 5422
5422 5441 5442 5423
5423 5442 5443 5424
5424 5443 5444 5425
5425 5444 5445 5426
5426 5445 5446 5427
5427 5446 5447 5428
5428 5447 5448 5429
5429 5448 5449 5430
5430 5449 5450 5431
5431 5450 5451 5432
5432 5451 5452 5433
5433 5452 5453 5434
5434 5453 5454 5435
5435 5454 5455 5436
5436 5455 5456 5437
5437 5456 5457 5438
5438 5457 5458 5439
5439 5458 5459 5440
5440 5459 205 204
343 344 5460 5441
5441 5460 5461 5442
5442 5461 5462 5443
5443 5462 5463 5444
5444 5463 5464 5445
5445 5464 5465 5446
5446 5465 5466 5447
5447 5466 5467 5448
5448 5467 5468 5449
5449 5468 5469 5450
5450 5469 5470 5451
5451 5470 5471 5452
5452 5471 5472 5453
5453 5472 5473 5454
5454 5473 5474 5455
5455 5474 5475 5456
5456 5475 5476 5457
5457 5476 5477 5458
5458 5477 5478 5459
5459 5478 206 205
344 345 5479 5460
5460 5479 5480 5461
5461 5480 5481 5462
5462 5481 5482 5463
5463 5482 5483 5464
5464 5483 5484 5465
5465 5484 5485 5466
5466 5485 5486 5467
5467 5486 5487 5468
5468 5487 5488 5469
5469 5488 5489 5470
5470 5489 5490 5471
5471 5490 5491 5472
5472 5491 5492 5473
5473 5492 5493 5474
5474 5493 5494 5475
5475 5494 5495 5476
5476 5495 5496 5477
5477 5496 5497 5478
5478 5497 207 206
345 346 5498 5479
5479 5498 5499 5480
5480 5499 5500 5481
5481 5500 5501 5482
5482 5501 5502 5483
5483 5502 5503 5484
5484 5503 5504 5485
5485 5504 5505 5486
5486 5505 5506 5487
5487 5506 5507 5488
5488 5507 5508 5489
5489 5508 5509 5490
5490 5509 5510 5491
5491 5510 5511 5492
5492 5511 5512 5493
5493 5512 5513 5494
5494 5513 5514 5495
5495 5514 5515 5496
5496 5515 5516 5497
5497 5516 208 207
346 347 5517 5498
5498 5517 5518 5499
5499 5518 5519 5500
5500 5519 5520 5501
5501 5520 5521 5502
5502 5521 5522 5503
5503 5522 5523 5504
5504 5523 5524 5505
5505 5524 5525 5506
5506 5525 5526 5507
5507 5526 5527 5508
5508 5527 5528 5509
5509 5528 5529 5510
5510 5529 5530 5511
5511 5530 5531 5512
5512 5531 5532 5513
5513 5532 5533 5514
5514 5533 5534 5515
5515 5534 5535 5516
5516 5535 209 208
347 348 5536 5517
5517 5536 5537 5518
5518 5537 5538 5519
5519 5538 5539 5520
5520 5539 5540 5521
5521 5540 5541 5522
5522 5541 5542 5523
5523 5542 5543 5524
5524 5543 5544 5525
5525 5544 5545 5526
5526 5545 5546 5527
5527 5546 5547 5528
5528 5547 5548 5529
5529 5548 5549 5530
5530 5549 5550 5531
5531 5550 5551 5532
5532 5551 5552 5533
5533 5552 5553 5534
5534 5553 5554 5535
5535 5554 210 209
348 349 5555 5536
5536 5555 5556 5537
5537 5556 5557 5538
5538 5557 5558 5539
5539 5558 5559 5540
5540 5559 5560 5541
5541 5560 5561 5542
5542 5561 5562 5543
5543 5562 5563 5544
5544 5563 5564 5545
5545 5564 5565 5546
5546 5565 5566 5547
5547 5566 5567 5548
5548 5567 5568 5549
5549 5568 5569 5550
5550 5569 5570 5551
5551 5570 5571 5552
5552 5571 5572 5553
5553 5572 5573 5554
5554 5573 211 210
349 350 5574 5555
5555 5574 5575 5556
5556 5575 5576 5557
5557 5576 5577 5558
5558 5577 5578 5559
5559 5578 5579 5560
5560 5579 5580 5561
5561 5580 5581 5562
5562 5581 5582 5563
5563 5582 5583 5564
5564 5583 5584 5565
5565 5584 5585 5566
5566 5585 5586 5567
5567 5586 5587 5568
5568 5587 5588 5569
5569 5588 5589 5570
5570 5589 5590 5571
5571 5590 5591 5572
5572 5591 5592 5573
5573 5592 212 211
350 351 5593 5574
5574 5593 5594 5575
5575 5594 5595 5576
5576 5595 5596 5577
5577 5596 5597 5578
5578 5597 5598 5579
5579 5598 5599 5580
5580 5599 5600 5581
5581 5600 5601 5582
5582 5601 5602 5583
5583 5602 5603 5584
5584 5603 5604 5585
5585 5604 5605 5586
5586 5605 5606 5587
5587 5606 5607 5588
5588 5607 5608 5589
5589 5608 5609 5590
5590 5609 5610 5591
5591 5610 5611 5592
5592 5611 213 212
351 352 5612 5593
5593 5612 5613 5594
5594 5613 5614 5595
5595 5614 5615 5596
5596 5615 5616 5597
5597 5616 5617 5598
5598 5617 5618 5599
5599 5618 5619 5600
5600 5619 5620 5601
5601 5620 5621 5602
5602 5621 5622 5603
5603 5622 5623 5604
5604 5623 5624 5605
5605 5624 5625 5606
5606 5625 5626 5607
5607 5626 5627 5608
5608 5627 5628 5609
5609 5628 5629 5610
5610 5629 5630 5611
5611 5630 214 213
352 353 5631 5612
5612 5631 5632 5613
5613 5632 5633 5614
5614 5633 5634 5615
5615 5634 5635 5616
5616 5635 5636 5617
5617 5636 5637 5618
5618 5637 5638 5619
5619 5638 5639 5620
5620 5639 5640 5621
5621 5640 5641 5622
5622 5641 5642 5623
5623 5642 5643 5624
5624 5643 5644 5625
5625 5644 5645 5626
5626 5645 5646 5627
5627 5646 5647 5628
5628 5647 5648 5629
5629 5648 5649 5630
5630 5649 215 214
353 354 5650 5631
5631 5650 5651 5632
5632 5651 5652 5633
5633 5652 5653 5634
5634 5653 5654 5635
5635 5654 5655 5636
5636 5655 5656 5637
5637 5656 5657 5638
5638 5657 5658 5639
5639 5658 5659 5640
5640 5659 5660 5641
5641 5660 5661 5642
5642 5661 5662 5643
5643 5662 5663 5644
5644 5663 5664 5645
5645 5664 5665 5646
5646 5665 5666 5647
5647 5666 5667 5648
5648 5667 5668 5649
5649 5668 216 215
354 355 5669 5650
5650 5669 5670 5651
5651 5670 5671 5652
5652 5671 5672 5653
5653 5672 5673 5654
5654 5673 5674 5655
5655 5674 5675 5656
5656 5675 5676 5657
5657 5676 5677 5658
5658 5677 5678 5659
5659 5678 5679 5660
5660 5679 5680 5661
5661 5680 5681 5662
5662 5681 5682 5663
5663 5682 5683 5664
5664 5683 5684 5665
5665 5684 5685 5666
5666 5685 5686 5667
5667 5686 5687 5668
5668 5687 217 216
355 356 5688 5669
5669 5688 5689 5670
5670 5689 5690 5671
5671 5690 5691 5672
5672 5691 5692 5673
5673 5692 5693 5674
5674 5693 5694 5675
5675 5694 5695 5676
5676 5695 5696 5677
5677 5696 5697 5678
5678 5697 5698 5679
5679 5698 5699 5680
5680 5699 5700 5681
5681 5700 5701 5682
5682 5701 5702 5683
5683 5702 5703 5684
5684 5703 5704 5685
5685 5704 5705 5686
5686 5705 5706 5687
5687 5706 218 217
356 357 5707 5688
5688 5707 5708 5689
5689 5708 5709 5690
5690 5709 5710 5691
5691 5710 5711 5692
5692 5711 5712 5693
5693 5712 5713 5694
5694 5713 5714 5695
5695 5714 5715 5696
5696 5715 5716 5697
5697 5716 5717 5698
5698 5717 5718 5699
5699 5718 5719 5700
5700 5719 5720 5701
5701 5720 5721 5702
5702 5721 5722 5703
5703 5722 5723 5704
5704 5723 5724 5705
5705 5724 5725 5706
5706 5725 219 218
357 358 5726 5707
5707 5726 5727 5708
5708 5727 5728 5709
5709 5728 5729 5710
5710 5729 5730 5711
5711 5730 5731 5712
5712 5731 5732 5713
5713 5732 5733 5714
5714 5733 5734 5715
5715 5734 5735 5716
5716 5735 5736 5717
5717 5736 5737 5718
5718 5737 5738 5719
5719 5738 5739 5720
5720 5739 5740 5721
5721 5740 5741 5722
5722 5741 5742 5723
5723 5742 5743 5724
5724 5743 5744 5725
5725 5744 220 219
358 359 5745 5726
5726 5745 5746 5727
5727 5746 5747 5728
5728 5747 5748 5729
5729 5748 5749 5730
5730 5749 5750 5731
5731 5750 5751 5732
5732 5751 5752 5733
5733 5752 5753 5734
5734 5753 5754 5735
5735 5754 5755 5736
5736 5755 5756 5737
5737 5756 5757 5738
5738 5757 5758 5739
5739 5758 5759 5740
5740 5759 5760 5741
5741 5760 5761 5742
5742 5761 5762 5743
5743 5762 5763 5744
5744 5763 221 220
359 360 5764 5745
5745 5764 5765 5746
5746 5765 5766 5747
5747 5766 5767 5748
5748 5767 5768 5749
5749 5768 5769 5750
5750 5769 5770 5751
5751 5770 5771 5752
5752 5771 5772 5753
5753 5772 5773 5754
5754 5773 5774 5755
5755 5774 5775 5756
5756 5775 5776 5757
5757 5776 5777 5758
5758 5777 5778 5759
5759 5778 5779 5760
5760 5779 5780 5761
5761 5780 5781 5762
5762 5781 5782 5763
5763 5782 222 221
360 361 5783 5764
5764 5783 5784 5765
5765 5784 5785 5766
5766 5785 5786 5767
5767 5786 5787 5768
5768 5787 5788 5769
5769 5788 5789 5770
5770 5789 5790 5771
5771 5790 5791 5772
5772 5791 5792 5773
5773 5792 5793 5774
5774 5793 5794 5775
5775 5794 5795 5776
5776 5795 5796 5777
5777 5796 5797 5778
5778 5797 5798 5779
5779 5798 5799 5780
5780 5799 5800 5781
5781 5800 5801 5782
5782 5801 223 222
361 10 419 5783
5783 419 420 5784
5784 420 421 5785
5785 421 422 5786
5786 422 423 5787
5787 423 424 5788
5788 424 425 5789
5789 425 426 5790
5790 426 427 5791
5791 427 428 5792
5792 428 429 5793
5793 429 430 5794
5794 430 431 5795
5795 431 432 5796
5796 432 433 5797
5797 433 434 5798
5798 434 435 5799
5799 435 436 5800
5800 436 437 5801
5801 437 8 223
</DataArray>
<DataArray type="Int64" Name="offsets" format="ascii">
4
8
12
16
20
24
28
32
36
40
44
48
52
56
60
64
68
72
76
80
84
88
92
96
100
104
108
112
116
120
124
128
132
136
140
144
148
152
156
160
164
168
172
176
180
184
188
192
196
200
204
208
212
216
220
224
228
232
236
240
244
248
252
256
260
264
268
272
276
280
284
288
292
296
300
304
308
312
316
320
324
328
332
336
340
344
348
352
356
360
364
368
372
376
380
384
388
392
396
400
404
408
412
416
420
424
428
432
436
440
444
448
452
456
460
464
468
472
476
480
484
488
492
496
500
504
508
512
516
520
524
528
532
536
540
544
548
552
556
560
564
568
572
576
580
584
588
592
596
600
604
608
612
616
620
624
628
632
636
640
644
648
652
656
660
664
668
672
676
680
684
688
692
696
700
704
708
712
716
720
724
728
732
736
740
744
748
752
756
760
764
768
772
776
780
784
788
792
796
800
804
808
812
816
820
824
828
832
836
840
844
848
852
856
860
864
868
872
876
880
884
888
892
896
900
904
908
912
916
920
924
928
932
936
940
944
948
952
956
960
964
968
972
976
980
984
988
992
996
1000
1004
1008
1012
1016
1020
1024
1028
1032
1036
1040
1044
1048
1052
1056
1060
1064
1068
1072
1076
1080
1084
1088
1092
1096
1100
1104
1108
1112
1116
1120
1124
1128
1132
1136
1140
1144
1148
1152
1156
1160
1164
1168
1172
1176
1180
1184
1188
1192
1196
1200
1204
1208
1212
1216
1220
1224
1228
1232
1236
1240
1244
1248
1252
1256
1260
1264
1268
1272
1276
1280
1284
1288
1292
1296
1300
1304
1308
1312
1316
1320
1324
1328
1332
1336
1340
1344
1348
1352
1356
1360
1364
1368
1372
1376
1380
1384
1388
1392
1396
1400
1404
1408
1412
1416
1420
1424
1428
1432
1436
1440
1444
1448
1452
1456
1460
1464
1468
1472
1476
1480
1484
1488
1492
1496
1500
1504
1508
1512
1516
1520
1524
1528
1532
1536
1540
1544
1548
1552
1556
1560
1564
1568
1572
1576
1580
1584
1588
1592
1596
1600
1604
1608
1612
1616
1620
1624
1628
1632
1636
1640
1644
1648
1652
1656
1660
1664
1668
1672
1676
1680
1684
1688
1692
1696
1700
1704
1708
1712
1716
1720
1724
1728
1732
1736
1740
1744
1748
1752
1756
1760
1764
1768
1772
1776
1780
1784
1788
1792
1796
1800
1804
1808
1812
1816
1820
1824
1828
1832
1836
1840
1844
1848
1852
1856
1860
1864
1868
1872
1876
1880
1884
1888
1892
1896
1900
1904
1908
1912
1916
1920
1924
1928
1932
1936
1940
1944
1948
1952
1956
1960
1964
1968
1972
1976
1980
1984
1988
1992
1996
2000
2004
2008
2012
2016
2020
2024
2028
2032
2036
2040
2044
2048
2052
2056
2060
2064
2068
2072
2076
2080
2084
2088
2092
2096
2100
2104
2108
2112
2116
2120
2124
2128
2132
2136
2140
2144
2148
2152
2156
2160
2164
2168
2172
2176
2180
2184
2188
2192
2196
2200
2204
2208
2212
2216
2220
2224
2228
2232
2236
2240
2244
2248
2252
2256
2260
2264
2268
2272
2276
2280
2284
2288
2292
2296
2300
2304
2308
2312
2316
2320
2324
2328
2332
2336
2340
2344
2348
2352
2356
2360
2364
2368
2372
2376
2380
2384
2388
2392
2396
2400
2404
2408
2412
2416
2420
2424
2428
2432
2436
2440
2444
2448
2452
2456
2460
2464
2468
2472
2476
2480
2484
2488
2492
2496
2500
2504
2508
2512
2516
2520
2524
2528
2532
2536
2540
2544
2548
2552
2556
2560
2564
2568
2572
2576
2580
2584
2588
2592
2596
2600
2604
2608
2612
2616
2620
2624
2628
2632
2636
2640
2644
2648
2652
2656
2660
2664
2668
2672
2676
2680
2684
2688
2692
2696
2700
2704
2708
2712
2716
2720
2724
2728
2732
2736
2740
2744
2748
2752
2756
2760
2764
2768
2772
2776
2780
2784
2788
2792
2796
2800
2804
2808
2812
2816
2820
2824
2828
2832
2836
2840
2844
2848
2852
2856
2860
2864
2868
2872
2876
2880
2884
2888
2892
2896
2900
2904
2908
2912
2916
2920
2924
2928
2932
2936
2940
2944
2948
2952
2956
2960
2964
2968
2972
2976
2980
2984
2988
2992
2996
3000
3004
3008
3012
3016
3020
3024
3028
3032
3036
3040
3044
3048
3052
3056
3060
3064
3068
3072
3076
3080
3084
3088
3092
3096
3100
3104
3108
3112
3116
3120
3124
3128
3132
3136
3140
3144
3148
3152
3156
3160
3164
3168
3172
3176
3180
3184
3188
3192
3196
3200
3204
3208
3212
3216
3220
3224
3228
3232
3236
3240
3244
3248
3252
3256
3260
3264
3268
3272
3276
3280
3284
3288
3292
3296
3300
3304
3308
3312
3316
3320
3324
3328
3332
3336
3340
3344
3348
3352
3356
3360
3364
3368
3372
3376
3380
3384
3388
3392
3396
3400
3404
3408
3412
3416
3420
3424
3428
3432
3436
3440
3444
3448
3452
3456
3460
3464
3468
3472
3476
3480
3484
3488
3492
3496
3500
3504
3508
3512
3516
3520
3524
3528
3532
3536
3540
3544
3548
3552
3556
3560
3564
3568
3572
3576
3580
3584
3588
3592
3596
3600
3604
3608
3612
3616
3620
3624
3628
3632
3636
3640
3644
3648
3652
3656
3660
3664
3668
3672
3676
3680
3684
3688
3692
3696
3700
3704
3708
3712
3716
3720
3724
3728
3732
3736
3740
3744
3748
3752
3756
3760
3764
3768
3772
3776
3780
3784
3788
3792
3796
3800
3804
3808
3812
3816
3820
3824
3828
3832
3836
3840
3844
3848
3852
3856
3860
3864
3868
3872
3876
3880
3884
3888
3892
3896
3900
3904
3908
3912
3916
3920
3924
3928
3932
3936
3940
3944
3948
3952
3956
3960
3964
3968
3972
3976
3980
3984
3988
3992
3996
4000
4004
4008
4012
4016
4020
4024
4028
4032
4036
4040
4044
4048
4052
4056
4060
4064
4068
4072
4076
4080
4084
4088
4092
4096
4100
4104
4108
4112
4116
4120
4124
4128
4132
4136
4140
4144
4148
4152
4156
4160
4164
4168
4172
4176
4180
4184
4188
4192
4196
4200
4204
4208
4212
4216
4220
4224
4228
4232
4236
4240
4244
4248
4252
4256
4260
4264
4268
4272
4276
4280
4284
4288
4292
4296
4300
4304
4308
4312
4316
4320
4324
4328
4332
4336
4340
4344
4348
4352
4356
4360
4364
4368
4372
4376
4380
4384
4388
4392
4396
4400
4404
4408
4412
4416
4420
4424
4428
4432
4436
4440
4444
4448
4452
4456
4460
4464
4468
4472
4476
4480
4484
4488
4492
4496
4500
4504
4508
4512
4516
4520
4524
4528
4532
4536
4540
4544
4548
4552
4556
4560
4564
4568
4572
4576
4580
4584
4588
4592
4596
4600
4604
4608
4612
4616
4620
4624
4628
4632
4636
4640
4644
4648
4652
4656
4660
4664
4668
4672
4676
4680
4684
4688
4692
4696
4700
4704
4708
4712
4716
4720
4724
4728
4732
4736
4740
4744
4748
4752
4756
4760
4764
4768
4772
4776
4780
4784
4788
4792
4796
4800
4804
4808
4812
4816
4820
4824
4828
4832
4836
4840
4844
4848
4852
4856
4860
4864
4868
4872
4876
4880
4884
4888
4892
4896
4900
4904
4908
4912
4916
4920
4924
4928
4932
4936
4940
4944
4948
4952
4956
4960
4964
4968
4972
4976
4980
4984
4988
4992
4996
5000
5004
5008
5012
5016
5020
5024
5028
5032
5036
5040
5044
5048
5052
5056
5060
5064
5068
5072
5076
5080
5084
5088
5092
5096
5100
5104
5108
5112
5116
5120
5124
5128
5132
5136
5140
5144
5148
5152
5156
5160
5164
5168
5172
5176
5180
5184
5188
5192
5196
5200
5204
5208
5212
5216
5220
5224
5228
5232
5236
5240
5244
5248
5252
5256
5260
5264
5268
5272
5276
5280
5284
5288
5292
5296
5300
5304
5308
5312
5316
5320
5324
5328
5332
5336
5340
5344
5348
5352
5356
5360
5364
5368
5372
5376
5380
5384
5388
5392
5396
5400
5404
5408
5412
5416
5420
5424
5428
5432
5436
5440
5444
5448
5452
5456
5460
5464
5468
5472
5476
5480
5484
5488
5492
5496
5500
5504
5508
5512
5516
5520
5524
5528
5532
5536
5540
5544
5548
5552
5556
5560
5564
5568
5572
5576
5580
5584
5588
5592
5596
5600
5604
5608
5612
5616
5620
5624
5628
5632
5636
5640
5644
5648
5652
5656
5660
5664
5668
5672
5676
5680
5684
5688
5692
5696
5700
5704
5708
5712
5716
5720
5724
5728
5732
5736
5740
5744
5748
5752
5756
5760
5764
5768
5772
5776
5780
5784
5788
5792
5796
5800
5804
5808
5812
5816
5820
5824
5828
5832
5836
5840
5844
5848
5852
5856
5860
5864
5868
5872
5876
5880
5884
5888
5892
5896
5900
5904
5908
5912
5916
5920
5924
5928
5932
5936
5940
5944
5948
5952
5956
5960
5964
5968
5972
5976
5980
5984
5988
5992
5996
6000
6004
6008
6012
6016
6020
6024
6028
6032
6036
6040
6044
6048
6052
6056
6060
6064
6068
6072
6076
6080
6084
6088
6092
6096
6100
6104
6108
6112
6116
6120
6124
6128
6132
6136
6140
6144
6148
6152
6156
6160
6164
6168
6172
6176
6180
6184
6188
6192
6196
6200
6204
6208
6212
6216
6220
6224
6228
6232
6236
6240
6244
6248
6252
6256
6260
6264
6268
6272
6276
6280
6284
6288
6292
6296
6300
6304
6308
6312
6316
6320
6324
6328
6332
6336
6340
6344
6348
6352
6356
6360
6364
6368
6372
6376
6380
6384
6388
6392
6396
6400
6404
6408
6412
6416
6420
6424
6428
6432
6436
6440
6444
6448
6452
6456
6460
6464
6468
6472
6476
6480
6484
6488
6492
6496
6500
6504
6508
6512
6516
6520
6524
6528
6532
6536
6540
6544
6548
6552
6556
6560
6564
6568
6572
6576
6580
6584
6588
6592
6596
6600
6604
6608
6612
6616
6620
6624
6628
6632
6636
6640
6644
6648
6652
6656
6660
6664
6668
6672
6676
6680
6684
6688
6692
6696
6700
6704
6708
6712
6716
6720
6724
6728
6732
6736
6740
6744
6748
6752
6756
6760
6764
6768
6772
6776
6780
6784
6788
6792
6796
6800
6804
6808
6812
6816
6820
6824
6828
6832
6836
6840
6844
6848
6852
6856
6860
6864
6868
6872
6876
6880
6884
6888
6892
6896
6900
6904
6908
6912
6916
6920
6924
6928
6932
6936
6940
6944
6948
6952
6956
6960
6964
6968
6972
6976
6980
6984
6988
6992
6996
7000
7004
7008
7012
7016
7020
7024
7028
7032
7036
7040
7044
7048
7052
7056
7060
7064
7068
7072
7076
7080
7084
7088
7092
7096
7100
7104
7108
7112
7116
7120
7124
7128
7132
7136
7140
7144
7148
7152
7156
7160
7164
7168
7172
7176
7180
7184
7188
7192
7196
7200
7204
7208
7212
7216
7220
7224
7228
7232
7236
7240
7244
7248
7252
7256
7260
7264
7268
7272
7276
7280
7284
7288
7292
7296
7300
7304
7308
7312
7316
7320
7324
7328
7332
7336
7340
7344
7348
7352
7356
7360
7364
7368
7372
7376
7380
7384
7388
7392
7396
7400
7404
7408
7412
7416
7420
7424
7428
7432
7436
7440
7444
7448
7452
7456
7460
7464
7468
7472
7476
7480
7484
7488
7492
7496
7500
7504
7508
7512
7516
7520
7524
7528
7532
7536
7540
7544
7548
7552
7556
7560
7564
7568
7572
7576
7580
7584
7588
7592
7596
7600
7604
7608
7612
7616
7620
7624
7628
7632
7636
7640
7644
7648
7652
7656
7660
7664
7668
7672
7676
7680
7684
7688
7692
7696
7700
7704
7708
7712
7716
7720
7724
7728
7732
7736
7740
7744
7748
7752
7756
7760
7764
7768
7772
7776
7780
7784
7788
7792
7796
7800
7804
7808
7812
7816
7820
7824
7828
7832
7836
7840
7844
7848
7852
7856
7860
7864
7868
7872
7876
7880
7884
7888
7892
7896
7900
7904
7908
7912
7916
7920
7924
7928
7932
7936
7940
7944
7948
7952
7956
7960
7964
7968
7972
7976
7980
7984
7988
7992
7996
8000
8004
8008
8012
8016
8020
8024
8028
8032
8036
8040
8044
8048
8052
8056
8060
8064
8068
8072
8076
8080
8084
8088
8092
8096
8100
8104
8108
8112
8116
8120
8124
8128
8132
8136
8140
8144
8148
8152
8156
8160
8164
8168
8172
8176
8180
8184
8188
8192
8196
8200
8204
8208
8212
8216
8220
8224
8228
8232
8236
8240
8244
8248
8252
8256
8260
8264
8268
8272
8276
8280
8284
8288
8292
8296
8300
8304
8308
8312
8316
8320
8324
8328
8332
8336
8340
8344
8348
8352
8356
8360
8364
8368
8372
8376
8380
8384
8388
8392
8396
8400
8404
8408
8412
8416
8420
8424
8428
8432
8436
8440
8444
8448
8452
8456
8460
8464
8468
8472
8476
8480
8484
8488
8492
8496
8500
8504
8508
8512
8516
8520
8524
8528
8532
8536
8540
8544
8548
8552
8556
8560
8564
8568
8572
8576
8580
8584
8588
8592
8596
8600
8604
8608
8612
8616
8620
8624
8628
8632
8636
8640
8644
8648
8652
8656
8660
8664
8668
8672
8676
8680
8684
8688
8692
8696
8700
8704
8708
8712
8716
8720
8724
8728
8732
8736
8740
8744
8748
8752
8756
8760
8764
8768
8772
8776
8780
8784
8788
8792
8796
8800
8804
8808
8812
8816
8820
8824
8828
8832
8836
8840
8844
8848
8852
8856
8860
8864
8868
8872
8876
8880
8884
8888
8892
8896
8900
8904
8908
8912
8916
8920
8924
8928
8932
8936
8940
8944
8948
8952
8956
8960
8964
8968
8972
8976
8980
8984
8988
8992
8996
9000
9004
9008
9012
9016
9020
9024
9028
9032
9036
9040
9044
9048
9052
9056
9060
9064
9068
9072
9076
9080
9084
9088
9092
9096
9100
9104
9108
9112
9116
9120
9124
9128
9132
9136
9140
9144
9148
9152
9156
9160
9164
9168
9172
9176
9180
9184
9188
9192
9196
9200
9204
9208
9212
9216
9220
9224
9228
9232
9236
9240
9244
9248
9252
9256
9260
9264
9268
9272
9276
9280
9284
9288
9292
9296
9300
9304
9308
9312
9316
9320
9324
9328
9332
9336
9340
9344
9348
9352
9356
9360
9364
9368
9372
9376
9380
9384
9388
9392
9396
9400
9404
9408
9412
9416
9420
9424
9428
9432
9436
9440
9444
9448
9452
9456
9460
9464
9468
9472
9476
9480
9484
9488
9492
9496
9500
9504
9508
9512
9516
9520
9524
9528
9532
9536
9540
9544
9548
9552
9556
9560
9564
9568
9572
9576
9580
9584
9588
9592
9596
9600
9604
9608
9612
9616
9620
9624
9628
9632
9636
9640
9644
9648
9652
9656
9660
9664
9668
9672
9676
9680
9684
9688
9692
9696
9700
9704
9708
9712
9716
9720
9724
9728
9732
9736
9740
9744
9748
9752
9756
9760
9764
9768
9772
9776
9780
9784
9788
9792
9796
9800
9804
9808
9812
9816
9820
9824
9828
9832
9836
9840
9844
9848
9852
9856
9860
9864
9868
9872
9876
9880
9884
9888
9892
9896
9900
9904
9908
9912
9916
9920
9924
9928
9932
9936
9940
9944
9948
9952
9956
9960
9964
9968
9972
9976
9980
9984
9988
9992
9996
10000
10004
10008
10012
10016
10020
10024
10028
10032
10036
10040
10044
10048
10052
10056
10060
10064
10068
10072
10076
10080
10084
10088
10092
10096
10100
10104
10108
10112
10116
10120
10124
10128
10132
10136
10140
10144
10148
10152
10156
10160
10164
10168
10172
10176
10180
10184
10188
10192
10196
10200
10204
10208
10212
10216
10220
10224
10228
10232
10236
10240
10244
10248
10252
10256
10260
10264
10268
10272
10276
10280
10284
10288
10292
10296
10300
10304
10308
10312
10316
10320
10324
10328
10332
10336
10340
10344
10348
10352
10356
10360
10364
10368
10372
10376
10380
10384
10388
10392
10396
10400
10404
10408
10412
10416
10420
10424
10428
10432
10436
10440
10444
10448
10452
10456
10460
10464
10468
10472
10476
10480
10484
10488
10492
10496
10500
10504
10508
10512
10516
10520
10524
10528
10532
10536
10540
10544
10548
10552
10556
10560
10564
10568
10572
10576
10580
10584
10588
10592
10596
10600
10604
10608
10612
10616
10620
10624
10628
10632
10636
10640
10644
10648
10652
10656
10660
10664
10668
10672
10676
10680
10684
10688
10692
10696
10700
10704
10708
10712
10716
10720
10724
10728
10732
10736
10740
10744
10748
10752
10756
10760
10764
10768
10772
10776
10780
10784
10788
10792
10796
10800
10804
10808
10812
10816
10820
10824
10828
10832
10836
10840
10844
10848
10852
10856
10860
10864
10868
10872
10876
10880
10884
10888
10892
10896
10900
10904
10908
10912
10916
10920
10924
10928
10932
10936
10940
10944
10948
10952
10956
10960
10964
10968
10972
10976
10980
10984
10988
10992
10996
11000
11004
11008
11012
11016
11020
11024
11028
11032
11036
11040
11044
11048
11052
11056
11060
11064
11068
11072
11076
11080
11084
11088
11092
11096
11100
11104
11108
11112
11116
11120
11124
11128
11132
11136
11140
11144
11148
11152
11156
11160
11164
11168
11172
11176
11180
11184
11188
11192
11196
11200
11204
11208
11212
11216
11220
11224
11228
11232
11236
11240
11244
11248
11252
11256
11260
11264
11268
11272
11276
11280
11284
11288
11292
11296
11300
11304
11308
11312
11316
11320
11324
11328
11332
11336
11340
11344
11348
11352
11356
11360
11364
11368
11372
11376
11380
11384
11388
11392
11396
11400
11404
11408
11412
11416
11420
11424
11428
11432
11436
11440
11444
11448
11452
11456
11460
11464
11468
11472
11476
11480
11484
11488
11492
11496
11500
11504
11508
11512
11516
11520
11524
11528
11532
11536
11540
11544
11548
11552
11556
11560
11564
11568
11572
11576
11580
11584
11588
11592
11596
11600
11604
11608
11612
11616
11620
11624
11628
11632
11636
11640
11644
11648
11652
11656
11660
11664
11668
11672
11676
11680
11684
11688
11692
11696
11700
11704
11708
11712
11716
11720
11724
11728
11732
11736
11740
11744
11748
11752
11756
11760
11764
11768
11772
11776
11780
11784
11788
11792
11796
11800
11804
11808
11812
11816
11820
11824
11828
11832
11836
11840
11844
11848
11852
11856
11860
11864
11868
11872
11876
11880
11884
11888
11892
11896
11900
11904
11908
11912
11916
11920
11924
11928
11932
11936
11940
11944
11948
11952
11956
11960
11964
11968
11972
11976
11980
11984
11988
11992
11996
12000
12004
12008
12012
12016
12020
12024
12028
12032
12036
12040
12044
12048
12052
12056
12060
12064
12068
12072
12076
12080
12084
12088
12092
12096
12100
12104
12108
12112
12116
12120
12124
12128
12132
12136
12140
12144
12148
12152
12156
12160
12164
12168
12172
12176
12180
12184
12188
12192
12196
12200
12204
12208
12212
12216
12220
12224
12228
12232
12236
12240
12244
12248
12252
12256
12260
12264
12268
12272
12276
12280
12284
12288
12292
12296
12300
12304
12308
12312
12316
12320
12324
12328
12332
12336
12340
12344
12348
12352
12356
12360
12364
12368
12372
12376
12380
12384
12388
12392
12396
12400
12404
12408
12412
12416
12420
12424
12428
12432
12436
12440
12444
12448
12452
12456
12460
12464
12468
12472
12476
12480
12484
12488
12492
12496
12500
12504
12508
12512
12516
12520
12524
12528
12532
12536
12540
12544
12548
12552
12556
12560
12564
12568
12572
12576
12580
12584
12588
12592
12596
12600
12604
12608
12612
12616
12620
12624
12628
12632
12636
12640
12644
12648
12652
12656
12660
12664
12668
12672
12676
12680
12684
12688
12692
12696
12700
12704
12708
12712
12716
12720
12724
12728
12732
12736
12740
12744
12748
12752
12756
12760
12764
12768
12772
12776
12780
12784
12788
12792
12796
12800
12804
12808
12812
12816
12820
12824
12828
12832
12836
12840
12844
12848
12852
12856
12860
12864
12868
12872
12876
12880
12884
12888
12892
12896
12900
12904
12908
12912
12916
12920
12924
12928
12932
12936
12940
12944
12948
12952
12956
12960
12964
12968
12972
12976
12980
12984
12988
12992
12996
13000
13004
13008
13012
13016
13020
13024
13028
13032
13036
13040
13044
13048
13052
13056
13060
13064
13068
13072
13076
13080
13084
13088
13092
13096
13100
13104
13108
13112
13116
13120
13124
13128
13132
13136
13140
13144
13148
13152
13156
13160
13164
13168
13172
13176
13180
13184
13188
13192
13196
13200
13204
13208
13212
13216
13220
13224
13228
13232
13236
13240
13244
13248
13252
13256
13260
13264
13268
13272
13276
13280
13284
13288
13292
13296
13300
13304
13308
13312
13316
13320
13324
13328
13332
13336
13340
13344
13348
13352
13356
13360
13364
13368
13372
13376
13380
13384
13388
13392
13396
13400
13404
13408
13412
13416
13420
13424
13428
13432
13436
13440
13444
13448
13452
13456
13460
13464
13468
13472
13476
13480
13484
13488
13492
13496
13500
13504
13508
13512
13516
13520
13524
13528
13532
13536
13540
13544
13548
13552
13556
13560
13564
13568
13572
13576
13580
13584
13588
13592
13596
13600
13604
13608
13612
13616
13620
13624
13628
13632
13636
13640
13644
13648
13652
13656
13660
13664
13668
13672
13676
13680
13684
13688
13692
13696
13700
13704
13708
13712
13716
13720
13724
13728
13732
13736
13740
13744
13748
13752
13756
13760
13764
13768
13772
13776
13780
13784
13788
13792
13796
13800
13804
13808
13812
13816
13820
13824
13828
13832
13836
13840
13844
13848
13852
13856
13860
13864
13868
13872
13876
13880
13884
13888
13892
13896
13900
13904
13908
13912
13916
13920
13924
13928
13932
13936
13940
13944
13948
13952
13956
13960
13964
13968
13972
13976
13980
13984
13988
13992
13996
14000
14004
14008
14012
14016
14020
14024
14028
14032
14036
14040
14044
14048
14052
14056
14060
14064
14068
14072
14076
14080
14084
14088
14092
14096
14100
14104
14108
14112
14116
14120
14124
14128
14132
14136
14140
14144
14148
14152
14156
14160
14164
14168
14172
14176
14180
14184
14188
14192
14196
14200
14204
14208
14212
14216
14220
14224
14228
14232
14236
14240
14244
14248
14252
14256
14260
14264
14268
14272
14276
14280
14284
14288
14292
14296
14300
14304
14308
14312
14316
14320
14324
14328
14332
14336
14340
14344
14348
14352
14356
14360
14364
14368
14372
14376
14380
14384
14388
14392
14396
14400
14404
14408
14412
14416
14420
14424
14428
14432
14436
14440
14444
14448
14452
14456
14460
14464
14468
14472
14476
14480
14484
14488
14492
14496
14500
14504
14508
14512
14516
14520
14524
14528
14532
14536
14540
14544
14548
14552
14556
14560
14564
14568
14572
14576
14580
14584
14588
14592
14596
14600
14604
14608
14612
14616
14620
14624
14628
14632
14636
14640
14644
14648
14652
14656
14660
14664
14668
14672
14676
14680
14684
14688
14692
14696
14700
14704
14708
14712
14716
14720
14724
14728
14732
14736
14740
14744
14748
14752
14756
14760
14764
14768
14772
14776
14780
14784
14788
14792
14796
14800
14804
14808
14812
14816
14820
14824
14828
14832
14836
14840
14844
14848
14852
14856
14860
14864
14868
14872
14876
14880
14884
14888
14892
14896
14900
14904
14908
14912
14916
14920
14924
14928
14932
14936
14940
14944
14948
14952
14956
14960
14964
14968
14972
14976
14980
14984
14988
14992
14996
15000
15004
15008
15012
15016
15020
15024
15028
15032
15036
15040
15044
15048
15052
15056
15060
15064
15068
15072
15076
15080
15084
15088
15092
15096
15100
15104
15108
15112
15116
15120
15124
15128
15132
15136
15140
15144
15148
15152
15156
15160
15164
15168
15172
15176
15180
15184
15188
15192
15196
15200
15204
15208
15212
15216
15220
15224
15228
15232
15236
15240
15244
15248
15252
15256
15260
15264
15268
15272
15276
15280
15284
15288
15292
15296
15300
15304
15308
15312
15316
15320
15324
15328
15332
15336
15340
15344
15348
15352
15356
15360
15364
15368
15372
15376
15380
15384
15388
15392
15396
15400
15404
15408
15412
15416
15420
15424
15428
15432
15436
15440
15444
15448
15452
15456
15460
15464
15468
15472
15476
15480
15484
15488
15492
15496
15500
15504
15508
15512
15516
15520
15524
15528
15532
15536
15540
15544
15548
15552
15556
15560
15564
15568
15572
15576
15580
15584
15588
15592
15596
15600
15604
15608
15612
15616
15620
15624
15628
15632
15636
15640
15644
15648
15652
15656
15660
15664
15668
15672
15676
15680
15684
15688
15692
15696
15700
15704
15708
15712
15716
15720
15724
15728
15732
15736
15740
15744
15748
15752
15756
15760
15764
15768
15772
15776
15780
15784
15788
15792
15796
15800
15804
15808
15812
15816
15820
15824
15828
15832
15836
15840
15844
15848
15852
15856
15860
15864
15868
15872
15876
15880
15884
15888
15892
15896
15900
15904
15908
15912
15916
15920
15924
15928
15932
15936
15940
15944
15948
15952
15956
15960
15964
15968
15972
15976
15980
15984
15988
15992
15996
16000
16004
16008
16012
16016
16020
16024
16028
16032
16036
16040
16044
16048
16052
16056
16060
16064
16068
16072
16076
16080
16084
16088
16092
16096
16100
16104
16108
16112
16116
16120
16124
16128
16132
16136
16140
16144
16148
16152
16156
16160
16164
16168
16172
16176
16180
16184
16188
16192
16196
16200
16204
16208
16212
16216
16220
16224
16228
16232
16236
16240
16244
16248
16252
16256
16260
16264
16268
16272
16276
16280
16284
16288
16292
16296
16300
16304
16308
16312
16316
16320
16324
16328
16332
16336
16340
16344
16348
16352
16356
16360
16364
16368
16372
16376
16380
16384
16388
16392
16396
16400
16404
16408
16412
16416
16420
16424
16428
16432
16436
16440
16444
16448
16452
16456
16460
16464
16468
16472
16476
16480
16484
16488
16492
16496
16500
16504
16508
16512
16516
16520
16524
16528
16532
16536
16540
16544
16548
16552
16556
16560
16564
16568
16572
16576
16580
16584
16588
16592
16596
16600
16604
16608
16612
16616
16620
16624
16628
16632
16636
16640
16644
16648
16652
16656
16660
16664
16668
16672
16676
16680
16684
16688
16692
16696
16700
16704
16708
16712
16716
16720
16724
16728
16732
16736
16740
16744
16748
16752
16756
16760
16764
16768
16772
16776
16780
16784
16788
16792
16796
16800
16804
16808
16812
16816
16820
16824
16828
16832
16836
16840
16844
16848
16852
16856
16860
16864
16868
16872
16876
16880
16884
16888
16892
16896
16900
16904
16908
16912
16916
16920
16924
16928
16932
16936
16940
16944
16948
16952
16956
16960
16964
16968
16972
16976
16980
16984
16988
16992
16996
17000
17004
17008
17012
17016
17020
17024
17028
17032
17036
17040
17044
17048
17052
17056
17060
17064
17068
17072
17076
17080
17084
17088
17092
17096
17100
17104
17108
17112
17116
17120
17124
17128
17132
17136
17140
17144
17148
17152
17156
17160
17164
17168
17172
17176
17180
17184
17188
17192
17196
17200
17204
17208
17212
17216
17220
17224
17228
17232
17236
17240
17244
17248
17252
17256
17260
17264
17268
17272
17276
17280
17284
17288
17292
17296
17300
17304
17308
17312
17316
17320
17324
17328
17332
17336
17340
17344
17348
17352
17356
17360
17364
17368
17372
17376
17380
17384
17388
17392
17396
17400
17404
17408
17412
17416
17420
17424
17428
17432
17436
17440
17444
17448
17452
17456
17460
17464
17468
17472
17476
17480
17484
17488
17492
17496
17500
17504
17508
17512
17516
17520
17524
17528
17532
17536
17540
17544
17548
17552
17556
17560
17564
17568
17572
17576
17580
17584
17588
17592
17596
17600
17604
17608
17612
17616
17620
17624
17628
17632
17636
17640
17644
17648
17652
17656
17660
17664
17668
17672
17676
17680
17684
17688
17692
17696
17700
17704
17708
17712
17716
17720
17724
17728
17732
17736
17740
17744
17748
17752
17756
17760
17764
17768
17772
17776
17780
17784
17788
17792
17796
17800
17804
17808
17812
17816
17820
17824
17828
17832
17836
17840
17844
17848
17852
17856
17860
17864
17868
17872
17876
17880
17884
17888
17892
17896
17900
17904
17908
17912
17916
17920
17924
17928
17932
17936
17940
17944
17948
17952
17956
17960
17964
17968
17972
17976
17980
17984
17988
17992
17996
18000
18004
18008
18012
18016
18020
18024
18028
18032
18036
18040
18044
18048
18052
18056
18060
18064
18068
18072
18076
18080
18084
18088
18092
18096
18100
18104
18108
18112
18116
18120
18124
18128
18132
18136
18140
18144
18148
18152
18156
18160
18164
18168
18172
18176
18180
18184
18188
18192
18196
18200
18204
18208
18212
18216
18220
18224
18228
18232
18236
18240
18244
18248
18252
18256
18260
18264
18268
18272
18276
18280
18284
18288
18292
18296
18300
18304
18308
18312
18316
18320
18324
18328
18332
18336
18340
18344
18348
18352
18356
18360
18364
18368
18372
18376
18380
18384
18388
18392
18396
18400
18404
18408
18412
18416
18420
18424
18428
18432
18436
18440
18444
18448
18452
18456
18460
18464
18468
18472
18476
18480
18484
18488
18492
18496
18500
18504
18508
18512
18516
18520
18524
18528
18532
18536
18540
18544
18548
18552
18556
18560
18564
18568
18572
18576
18580
18584
18588
18592
18596
18600
18604
18608
18612
18616
18620
18624
18628
18632
18636
18640
18644
18648
18652
18656
18660
18664
18668
18672
18676
18680
18684
18688
18692
18696
18700
18704
18708
18712
18716
18720
18724
18728
18732
18736
18740
18744
18748
18752
18756
18760
18764
18768
18772
18776
18780
18784
18788
18792
18796
18800
18804
18808
18812
18816
18820
18824
18828
18832
18836
18840
18844
18848
18852
18856
18860
18864
18868
18872
18876
18880
18884
18888
18892
18896
18900
18904
18908
18912
18916
18920
18924
18928
18932
18936
18940
18944
18948
18952
18956
18960
18964
18968
18972
18976
18980
18984
18988
18992
18996
19000
19004
19008
19012
19016
19020
19024
19028
19032
19036
19040
19044
19048
19052
19056
19060
19064
19068
19072
19076
19080
19084
19088
19092
19096
19100
19104
19108
19112
19116
19120
19124
19128
19132
19136
19140
19144
19148
19152
19156
19160
19164
19168
19172
19176
19180
19184
19188
19192
19196
19200
19204
19208
19212
19216
19220
19224
19228
19232
19236
19240
19244
19248
19252
19256
19260
19264
19268
19272
19276
19280
19284
19288
19292
19296
19300
19304
19308
19312
19316
19320
19324
19328
19332
19336
19340
19344
19348
19352
19356
19360
19364
19368
19372
19376
19380
19384
19388
19392
19396
19400
19404
19408
19412
19416
19420
19424
19428
19432
19436
19440
19444
19448
19452
19456
19460
19464
19468
19472
19476
19480
19484
19488
19492
19496
19500
19504
19508
19512
19516
19520
19524
19528
19532
19536
19540
19544
19548
19552
19556
19560
19564
19568
19572
19576
19580
19584
19588
19592
19596
19600
19604
19608
19612
19616
19620
19624
19628
19632
19636
19640
19644
19648
19652
19656
19660
19664
19668
19672
19676
19680
19684
19688
19692
19696
19700
19704
19708
19712
19716
19720
19724
19728
19732
19736
19740
19744
19748
19752
19756
19760
19764
19768
19772
19776
19780
19784
19788
19792
19796
19800
19804
19808
19812
19816
19820
19824
19828
19832
19836
19840
19844
19848
19852
19856
19860
19864
19868
19872
19876
19880
19884
19888
19892
19896
19900
19904
19908
19912
19916
19920
19924
19928
19932
19936
19940
19944
19948
19952
19956
19960
19964
19968
19972
19976
19980
19984
19988
19992
19996
20000
20004
20008
20012
20016
20020
20024
20028
20032
20036
20040
20044
20048
20052
20056
20060
20064
20068
20072
20076
20080
20084
20088
20092
20096
20100
20104
20108
20112
20116
20120
20124
20128
20132
20136
20140
20144
20148
20152
20156
20160
20164
20168
20172
20176
20180
20184
20188
20192
20196
20200
20204
20208
20212
20216
20220
20224
20228
20232
20236
20240
20244
20248
20252
20256
20260
20264
20268
20272
20276
20280
20284
20288
20292
20296
20300
20304
20308
20312
20316
20320
20324
20328
20332
20336
20340
20344
20348
20352
20356
20360
20364
20368
20372
20376
20380
20384
20388
20392
20396
20400
20404
20408
20412
20416
20420
20424
20428
20432
20436
20440
20444
20448
20452
20456
20460
20464
20468
20472
20476
20480
20484
20488
20492
20496
20500
20504
20508
20512
20516
20520
20524
20528
20532
20536
20540
20544
20548
20552
20556
20560
20564
20568
20572
20576
20580
20584
20588
20592
20596
20600
20604
20608
20612
20616
20620
20624
20628
20632
20636
20640
20644
20648
20652
20656
20660
20664
20668
20672
20676
20680
20684
20688
20692
20696
20700
20704
20708
20712
20716
20720
20724
20728
20732
20736
20740
20744
20748
20752
20756
20760
20764
20768
20772
20776
20780
20784
20788
20792
20796
20800
20804
20808
20812
20816
20820
20824
20828
20832
20836
20840
20844
20848
20852
20856
20860
20864
20868
20872
20876
20880
20884
20888
20892
20896
20900
20904
20908
20912
20916
20920
20924
20928
20932
20936
20940
20944
20948
20952
20956
20960
20964
20968
20972
20976
20980
20984
20988
20992
20996
21000
21004
21008
21012
21016
21020
21024
21028
21032
21036
21040
21044
21048
21052
21056
21060
21064
21068
21072
21076
21080
21084
21088
21092
21096
21100
21104
21108
21112
21116
21120
21124
21128
21132
21136
21140
21144
21148
21152
21156
21160
21164
21168
21172
21176
21180
21184
21188
21192
21196
21200
21204
21208
21212
21216
21220
21224
21228
21232
21236
21240
21244
21248
21252
21256
21260
21264
21268
21272
21276
21280
21284
21288
21292
21296
21300
21304
21308
21312
21316
21320
21324
21328
21332
21336
21340
21344
21348
21352
21356
21360
21364
21368
21372
21376
21380
21384
21388
21392
21396
21400
21404
21408
21412
21416
21420
21424
21428
21432
21436
21440
21444
21448
21452
21456
21460
21464
21468
21472
21476
21480
21484
21488
21492
21496
21500
21504
21508
21512
21516
21520
21524
21528
21532
21536
21540
21544
21548
21552
21556
21560
21564
21568
21572
21576
21580
21584
21588
21592
21596
21600
21604
21608
21612
21616
21620
21624
21628
21632
21636
21640
21644
21648
21652
21656
21660
21664
21668
21672
21676
21680
21684
21688
21692
21696
21700
21704
21708
21712
21716
21720
21724
21728
21732
21736
21740
21744
21748
21752
21756
21760
21764
21768
21772
21776
21780
21784
21788
21792
21796
21800
21804
21808
21812
21816
21820
21824
21828
21832
21836
21840
21844
21848
21852
21856
21860
21864
21868
21872
21876
21880
21884
21888
21892
21896
21900
21904
21908
21912
21916
21920
21924
21928
21932
21936
21940
21944
21948
21952
21956
21960
21964
21968
21972
21976
21980
21984
21988
21992
21996
22000
22004
22008
22012
22016
22020
22024
22028
22032
22036
22040
22044
22048
22052
22056
22060
22064
22068
22072
22076
22080
22084
22088
22092
22096
22100
22104
22108
22112
22116
22120
22124
22128
22132
22136
22140
22144
22148
22152
22156
22160
22164
22168
22172
22176
22180
22184
22188
22192
22196
22200
22204
22208
22212
22216
22220
22224
22228
22232
22236
22240
22244
22248
22252
22256
22260
22264
22268
22272
22276
22280
22284
22288
22292
22296
22300
22304
22308
22312
22316
22320
22324
22328
22332
22336
22340
22344
22348
22352
22356
22360
22364
22368
22372
22376
22380
22384
22388
22392
22396
22400
22404
22408
22412
22416
22420
22424
22428
22432
22436
22440
22444
22448
22452
22456
22460
22464
22468
22472
22476
22480
22484
22488
22492
22496
22500
22504
22508
22512
22516
22520
22524
22528
22532
22536
22540
22544
22548
22552
22556
22560
22564
22568
22572
22576
22580
22584
22588
22592
22596
22600
22604
22608
22612
22616
22620
22624
22628
22632
22636
22640
22644
22648
22652
22656
22660
22664
22668
22672
22676
22680
22684
22688
22692
22696
22700
22704
22708
22712
22716
22720
</DataArray>
<DataArray type="Int64" Name="types" format="ascii">
9
9
9
9
9
9
9
9
9
9
9
9
9
9
9
9
9
9
9
9
9
9
9
9
9
9
9
9
9
9
9
9
9
9
9
9
9
9
9
9
9
9
9
9
9
9
9
9
9
9
9
9
9
9
9
9
9
9
9
9
9
9
9
9
9
9
9
9
9
9
9
9
9
9
9
9
9
9
9
9
9
9
9
9
9
9
9
9
9
9
9
9
9
9
9
9
9
9
9
9
9
9
9
9
9
9
9
9
9
9
9
9
9
9
9
9
9
9
9
9
9
9
9
9
9
9
9
9
9
9
9
9
9
9
9
9
9
9
9
9
9
9
9
9
9
9
9
9
9
9
9
9
9
9
9
9
9
9
9
9
9
9
9
9
9
9
9
9
9
9
9
9
9
9
9
9
9
9
9
9
9
9
9
9
9
9
9
9
9
9
9
9
9
9
9
9
9
9
9
9
9
9
9
9
9
9
9
9
9
9
9
9
9
9
9
9
9
9
9
9
9
9
9
9
9
9
9
9
9
9
9
9
9
9
9
9
9
9
9
9
9
9
9
9
9
9
9
9
9
9
9
9
9
9
9
9
9
9
9
9
9
9
9
9
9
9
9
9
9
9
9
9
9
9
9
9
9
9
9
9
9
9
9
9
9
9
9
9
9
9
9
9
9
9
9
9
9
9
9
9
9
9
9
9
9
9
9
9
9
9
9
9
9
9
9
9
9
9
9
9
9
9
9
9
9
9
9
9
9
9
9
9
9
9
9
9
9
9
9
9
9
9
9
9
9
9
9
9
9
9
9
9
9
9
9
9
9
9
9
9
9
9
9
9
9
9
9
9
9
9
9
9
9
9
9
9
9
9
9
9
9
9
9
9
9
9
9
9
9
9
9
9
9
9
9
9
9
9
9
9
9
9
9
9
9
9
9
9
9
9
9
9
9
9
9
9
9
9
9
9
9
9
9
9
9
9
9
9
9
9
9
9
9
9
9
9
9
9
9
9
9
9
9
9
9
9
9
9
9
9
9
9
9
9
9
9
9
9
9
9
9
9
9
9
9
9
9
9
9
9
9
9
9
9
9
9
9
9
9
9
9
9
9
9
9
9
9
9
9
9
9
9
9
9
9
9
9
9
9
9
9
9
9
9
9
9
9
9
9
9
9
9
9
9
9
9
9
9
9
9
9
9
9
9
9
9
9
9
9
9
9
9
9
9
9
9
9
9
9
9
9
9
9
9
9
9
9
9
9
9
9
9
9
9
9
9
9
9
9
9
9
9
9
9
9
9
9
9
9
9
9
9
9
9
9
9
9
9
9
9
9
9
9
9
9
9
9
9
9
9
9
9
9
9
9
9
9
9
9
9
9
9
9
9
9
9
9
9
9
9
9
9
9
9
9
9
9
9
9
9
9
9
9
9
9
9
9
9
9
9
9
9
9
9
9
9
9
9
9
9
9
9
9
9
9
9
9
9
9
9
9
9
9
9
9
9
9
9
9
9
9
9
9
9
9
9
9
9
9
9
9
9
9
9
9
9
9
9
9
9
9
9
9
9
9
9
9
9
9
9
9
9
9
9
9
9
9
9
9
9
9
9
9
9
9
9
9
9
9
9
9
9
9
9
9
9
9
9
9
9
9
9
9
9
9
9
9
9
9
9
9
9
9
9
9
9
9
9
9
9
9
9
9
9
9
9
9
9
9
9
9
9
9
9
9
9
9
9
9
9
9
9
9
9
9
9
9
9
9
9
9
9
9
9
9
9
9
9
9
9
9
9
9
9
9
9
9
9
9
9
9
9
9
9
9
9
9
9
9
9
9
9
9
9
9
9
9
9
9
9
9
9
9
9
9
9
9
9
9
9
9
9
9
9
9
9
9
9
9
9
9
9
9
9
9
9
9
9
9
9
9
9
9
9
9
9
9
9
9
9
9
9
9
9
9
9
9
9
9
9
9
9
9
9
9
9
9
9
9
9
9
9
9
9
9
9
9
9
9
9
9
9
9
9
9
9
9
9
9
9
9
9
9
9
9
9
9
9
9
9
9
9
9
9
9
9
9
9
9
9
9
9
9
9
9
9
9
9
9
9
9
9
9
9
9
9
9
9
9
9
9
9
9
9
9
9
9
9
9
9
9
9
9
9
9
9
9
9
9
9
9
9
9
9
9
9
9
9
9
9
9
9
9
9
9
9
9
9
9
9
9
9
9
9
9
9
9
9
9
9
9
9
9
9
9
9
9
9
9
9
9
9
9
9
9
9
9
9
9
9
9
9
9
9
9
9
9
9
9
9
9
9
9
9
9
9
9
9
9
9
9
9
9
9
9
9
9
9
9
9
9
9
9
9
9
9
9
9
9
9
9
9
9
9
9
9
9
9
9
9
9
9
9
9
9
9
9
9
9
9
9
9
9
9
9
9
9
9
9
9
9
9
9
9
9
9
9
9
9
9
9
9
9
9
9
9
9
9
9
9
9
9
9
9
9
9
9
9
9
9
9
9
9
9
9
9
9
9
9
9
9
9
9
9
9
9
9
9
9
9
9
9
9
9
9
9
9
9
9
9
9
9
9
9
9
9
9
9
9
9
9
9
9
9
9
9
9
9
9
9
9
9
9
9
9
9
9
9
9
9
9
9
9
9
9
9
9
9
9
9
9
9
9
9
9
9
9
9
9
9
9
9
9
9
9
9
9
9
9
9
9
9
9
9
9
9
9
9
9
9
9
9
9
9
9
9
9
9
9
9
9
9
9
9
9
9
9
9
9
9
9
9
9
9
9
9
9
9
9
9
9
9
9
9
9
9
9
9
9
9
9
9
9
9
9
9
9
9
9
9
9
9
9
9
9
9
9
9
9
9
9
9
9
9
9
9
9
9
9
9
9
9
9
9
9
9
9
9
9
9
9
9
9
9
9
9
9
9
9
9
9
9
9
9
9
9
9
9
9
9
9
9
9
9
9
9
9
9
9
9
9
9
9
9
9
9
9
9
9
9
9
9
9
9
9
9
9
9
9
9
9
9
9
9
9
9
9
9
9
9
9
9
9
9
9
9
9
9
9
9
9
9
9
9
9
9
9
9
9
9
9
9
9
9
9
9
9
9
9
9
9
9
9
9
9
9
9
9
9
9
9
9
9
9
9
9
9
9
9
9
9
9
9
9
9
9
9
9
9
9
9
9
9
9
9
9
9
9
9
9
9
9
9
9
9
9
9
9
9
9
9
9
9
9
9
9
9
9
9
9
9
9
9
9
9
9
9
9
9
9
9
9
9
9
9
9
9
9
9
9
9
9
9
9
9
9
9
9
9
9
9
9
9
9
9
9
9
9
9
9
9
9
9
9
9
9
9
9
9
9
9
9
9
9
9
9
9
9
9
9
9
9
9
9
9
9
9
9
9
9
9
9
9
9
9
9
9
9
9
9
9
9
9
9
9
9
9
9
9
9
9
9
9
9
9
9
9
9
9
9
9
9
9
9
9
9
9
9
9
9
9
9
9
9
9
9
9
9
9
9
9
9
9
9
9
9
9
9
9
9
9
9
9
9
9
9
9
9
9
9
9
9
9
9
9
9
9
9
9
9
9
9
9
9
9
9
9
9
9
9
9
9
9
9
9
9
9
9
9
9
9
9
9
9
9
9
9
9
9
9
9
9
9
9
9
9
9
9
9
9
9
9
9
9
9
9
9
9
9
9
9
9
9
9
9
9
9
9
9
9
9
9
9
9
9
9
9
9
9
9
9
9
9
9
9
9
9
9
9
9
9
9
9
9
9
9
9
9
9
9
9
9
9
9
9
9
9
9
9
9
9
9
9
9
9
9
9
9
9
9
9
9
9
9
9
9
9
9
9
9
9
9
9
9
9
9
9
9
9
9
9
9
9
9
9
9
9
9
9
9
9
9
9
9
9
9
9
9
9
9
9
9
9
9
9
9
9
9
9
9
9
9
9
9
9
9
9
9
9
9
9
9
9
9
9
9
9
9
9
9
9
9
9
9
9
9
9
9
9
9
9
9
9
9
9
9
9
9
9
9
9
9
9
9
9
9
9
9
9
9
9
9
9
9
9
9
9
9
9
9
9
9
9
9
9
9
9
9
9
9
9
9
9
9
9
9
9
9
9
9
9
9
9
9
9
9
9
9
9
9
9
9
9
9
9
9
9
9
9
9
9
9
9
9
9
9
9
9
9
9
9
9
9
9
9
9
9
9
9
9
9
9
9
9
9
9
9
9
9
9
9
9
9
9
9
9
9
9
9
9
9
9
9
9
9
9
9
9
9
9
9
9
9
9
9
9
9
9
9
9
9
9
9
9
9
9
9
9
9
9
9
9
9
9
9
9
9
9
9
9
9
9
9
9
9
9
9
9
9
9
9
9
9
9
9
9
9
9
9
9
9
9
9
9
9
9
9
9
9
9
9
9
9
9
9
9
9
9
9
9
9
9
9
9
9
9
9
9
9
9
9
9
9
9
9
9
9
9
9
9
9
9
9
9
9
9
9
9
9
9
9
9
9
9
9
9
9
9
9
9
9
9
9
9
9
9
9
9
9
9
9
9
9
9
9
9
9
9
9
9
9
9
9
9
9
9
9
9
9
9
9
9
9
9
9
9
9
9
9
9
9
9
9
9
9
9
9
9
9
9
9
9
9
9
9
9
9
9
9
9
9
9
9
9
9
9
9
9
9
9
9
9
9
9
9
9
9
9
9
9
9
9
9
9
9
9
9
9
9
9
9
9
9
9
9
9
9
9
9
9
9
9
9
9
9
9
9
9
9
9
9
9
9
9
9
9
9
9
9
9
9
9
9
9
9
9
9
9
9
9
9
9
9
9
9
9
9
9
9
9
9
9
9
9
9
9
9
9
9
9
9
9
9
9
9
9
9
9
9
9
9
9
9
9
9
9
9
9
9
9
9
9
9
9
9
9
9
9
9
9
9
9
9
9
9
9
9
9
9
9
9
9
9
9
9
9
9
9
9
9
9
9
9
9
9
9
9
9
9
9
9
9
9
9
9
9
9
9
9
9
9
9
9
9
9
9
9
9
9
9
9
9
9
9
9
9
9
9
9
9
9
9
9
9
9
9
9
9
9
9
9
9
9
9
9
9
9
9
9
9
9
9
9
9
9
9
9
9
9
9
9
9
9
9
9
9
9
9
9
9
9
9
9
9
9
9
9
9
9
9
9
9
9
9
9
9
9
9
9
9
9
9
9
9
9
9
9
9
9
9
9
9
9
9
9
9
9
9
9
9
9
9
9
9
9
9
9
9
9
9
9
9
9
9
9
9
9
9
9
9
9
9
9
9
9
9
9
9
9
9
9
9
9
9
9
9
9
9
9
9
9
9
9
9
9
9
9
9
9
9
9
9
9
9
9
9
9
9
9
9
9
9
9
9
9
9
9
9
9
9
9
9
9
9
9
9
9
9
9
9
9
9
9
9
9
9
9
9
9
9
9
9
9
9
9
9
9
9
9
9
9
9
9
9
9
9
9
9
9
9
9
9
9
9
9
9
9
9
9
9
9
9
9
9
9
9
9
9
9
9
9
9
9
9
9
9
9
9
9
9
9
9
9
9
9
9
9
9
9
9
9
9
9
9
9
9
9
9
9
9
9
9
9
9
9
9
9
9
9
9
9
9
9
9
9
9
9
9
9
9
9
9
9
9
9
9
9
9
9
9
9
9
9
9
9
9
9
9
9
9
9
9
9
9
9
9
9
9
9
9
9
9
9
9
9
9
9
9
9
9
9
9
9
9
9
9
9
9
9
9
9
9
9
9
9
9
9
9
9
9
9
9
9
9
9
9
9
9
9
9
9
9
9
9
9
9
9
9
9
9
9
9
9
9
9
9
9
9
9
9
9
9
9
9
9
9
9
9
9
9
9
9
9
9
9
9
9
9
9
9
9
9
9
9
9
9
9
9
9
9
9
9
9
9
9
9
9
9
9
9
9
9
9
9
9
9
9
9
9
9
9
9
9
9
9
9
9
9
9
9
9
9
9
9
9
9
9
9
9
9
9
9
9
9
9
9
9
9
9
9
9
9
9
9
9
9
9
9
9
9
9
9
9
9
9
9
9
9
9
9
9
9
9
9
9
9
9
9
9
9
9
9
9
9
9
9
9
9
9
9
9
9
9
9
9
9
9
9
9
9
9
9
9
9
9
9
9
9
9
9
9
9
9
9
9
9
9
9
9
9
9
9
9
9
9
9
9
9
9
9
9
9
9
9
9
9
9
9
9
9
9
9
9
9
9
9
9
9
9
9
9
9
9
9
9
9
9
9
9
9
9
9
9
9
9
9
9
9
9
9
9
9
9
9
9
9
9
9
9
9
9
9
9
9
9
9
9
9
9
9
9
9
9
9
9
9
9
9
9
9
9
9
9
9
9
9
9
9
9
9
9
9
9
9
9
9
9
9
9
9
9
9
9
9
9
9
9
9
9
9
9
9
9
9
9
9
9
9
9
9
9
9
9
9
9
9
9
9
9
9
9
9
9
9
9
9
9
9
9
9
9
9
9
9
9
9
9
9
9
9
9
9
9
9
9
9
9
9
9
9
9
9
9
9
9
9
9
9
9
9
9
9
9
9
9
9
9
9
9
9
9
9
9
9
9
9
9
9
9
9
9
9
9
9
9
9
9
9
9
9
9
9
9
9
9
9
9
9
9
9
9
9
9
9
9
9
9
9
9
9
9
9
9
9
9
9
9
9
9
9
9
9
9
9
9
9
9
9
9
9
9
9
9
9
9
9
9
9
9
9
9
9
9
9
9
9
9
9
9
9
9
9
9
9
9
9
9
9
9
9
9
9
9
9
9
9
9
9
9
9
9
9
9
9
9
9
9
9
9
9
9
9
9
9
9
9
9
9
9
9
9
9
9
9
9
9
9
9
9
9
9
9
9
9
9
9
9
9
9
9
9
9
9
9
9
9
9
9
9
9
9
9
9
9
9
9
9
9
9
9
9
9
9
9
9
9
9
9
9
9
9
9
9
9
9
9
9
9
9
9
9
9
9
9
9
9
9
9
9
9
9
9
9
9
9
9
9
9
9
9
9
9
9
9
9
9
9
9
9
9
9
9
9
9
9
9
9
9
9
9
9
9
9
9
9
9
9
9
9
9
9
9
9
9
9
9
9
9
9
9
9
9
9
9
9
9
9
9
9
9
9
9
9
9
9
9
9
9
9
9
9
9
9
9
9
9
9
9
9
9
9
9
9
9
9
9
9
9
9
9
9
9
9
9
9
9
9
9
9
9
9
9
9
9
9
9
9
9
9
9
9
9
9
9
9
9
9
9
9
9
9
9
9
9
9
9
9
9
9
9
9
9
9
9
9
9
9
9
9
9
9
9
9
9
9
9
9
9
9
9
9
9
9
9
9
9
9
9
9
9
9
9
9
9
9
9
9
9
9
9
9
9
9
9
9
9
9
9
9
9
9
9
9
9
9
9
9
9
9
9
9
9
9
9
9
9
9
9
9
9
9
9
9
9
9
9
9
9
9
9
9
9
9
9
9
9
9
9
9
9
9
9
9
9
9
9
9
9
9
9
9
9
9
9
9
9
9
9
9
9
9
9
9
9
9
9
9
9
9
9
9
9
9
9
9
9
9
9
9
9
9
9
9
9
9
9
9
9
9
9
9
9
9
9
9
9
9
9
9
9
9
9
9
9
9
9
9
9
9
9
9
9
9
9
9
9
9
9
9
9
9
9
9
9
9
9
9
9
9
9
9
9
9
9
9
9
9
9
9
9
9
9
9
9
9
9
9
9
9
9
9
9
9
9
9
9
9
9
9
9
9
9
9
9
9
9
9
9
9
9
9
9
9
9
9
9
9
9
9
9
9
9
9
9
9
9
9
9
9
9
9
9
9
9
9
9
9
9
9
9
9
9
9
9
9
9
9
9
9
9
9
9
9
9
9
9
9
9
9
9
9
9
9
9
9
9
9
9
9
9
9
9
9
9
9
9
9
9
9
9
9
9
9
9
9
9
9
9
9
9
9
9
9
9
9
9
9
9
9
9
9
9
9
9
9
9
9
9
9
9
9
9
9
9
9
9
9
9
9
9
9
9
9
9
9
9
9
9
9
9
9
9
9
9
9
9
9
9
9
9
9
9
9
9
9
9
9
9
9
9
9
9
9
9
9
9
9
9
9
9
9
9
9
9
9
9
9
9
9
9
9
9
9
9
9
9
9
9
9
9
9
9
9
9
9
9
9
9
9
9
9
9
9
9
9
9
9
9
9
9
9
9
9
9
9
9
9
9
9
9
9
9
9
9
9
9
9
9
9
9
9
9
9
9
9
9
9
9
9
9
9
9
9
9
9
9
9
9
9
9
9
9
9
9
9
9
9
9
9
9
9
9
9
9
9
9
9
9
9
9
9
9
9
9
9
9
9
9
9
9
9
9
9
9
9
9
9
9
9
9
9
9
9
9
9
9
9
9
9
9
9
9
9
9
9
9
9
9
9
9
9
9
9
9
9
9
9
9
9
9
9
9
9
9
9
9
9
9
9
9
9
9
9
9
9
9
9
9
9
9
9
9
9
9
9
9
9
9
9
9
9
9
9
9
9
9
9
9
9
9
9
9
9
9
9
9
9
9
9
9
9
9
9
9
9
9
9
9
9
9
9
9
9
9
9
9
9
9
9
9
9
9
9
9
9
9
9
9
9
9
9
9
9
9
9
9
9
9
9
9
9
9
9
9
9
9
9
9
9
9
9
9
9
9
9
9
9
9
9
9
9
9
9
9
9
9
9
9
9
9
9
9
9
9
9
9
9
9
9
9
9
9
9
9
9
9
9
9
9
9
9
9
9
9
9
9
9
9
9
9
9
9
9
9
9
9
9
9
9
9
9
9
9
9
9
9
9
9
9
9
9
9
9
9
9
9
9
9
9
9
9
9
9
9
9
9
9
9
9
9
9
9
9
9
9
9
9
9
9
9
9
9
9
9
9
9
9
9
9
9
9
9
9
9
9
9
9
9
9
9
9
9
9
9
9
9
9
9
9
9
9
9
9
9
9
9
9
9
9
9
9
9
9
9
9
9
9
9
9
9
9
9
9
9
9
9
9
9
9
9
9
9
9
9
9
9
9
9
9
9
9
9
9
9
9
9
9
9
9
9
9
9
9
9
9
9
9
9
9
9
9
9
9
9
9
9
9
9
9
9
9
9
9
9
9
9
9
9
9
9
9
9
9
9
9
9
9
9
9
9
9
9
9
9
9
9
9
9
9
9
9
9
9
9
9
9
9
9
9
9
9
9
9
9
9
9
9
9
9
9
9
9
9
9
9
9
9
9
9
9
9
9
9
9
9
9
9
9
9
9
9
9
9
9
9
9
9
9
9
9
9
9
9
9
9
9
9
9
9
9
9
9
9
9
9
9
9
9
9
9
9
9
9
9
9
9
9
9
9
9
9
9
9
9
9
9
9
9
9
9
9
9
9
9
9
9
9
9
9
9
9
9
9
9
9
9
9
9
9
9
9
9
9
9
9
9
9
9
9
9
9
9
9
9
9
9
9
9
9
9
9
9
9
9
9
9
9
9
9
9
9
9
9
9
9
9
9
9
9
9
9
9
9
9
9
9
9
9
9
9
9
9
9
9
9
9
9
9
9
9
9
9
9
9
9
9
9
9
9
9
9
9
9
9
9
9
9
9
9
9
9
9
9
9
9
9
9
9
9
9
9
9
9
9
9
9
9
9
9
9
9
9
9
9
9
9
9
9
9
9
9
9
9
9
9
9
9
9
9
9
9
9
9
9
9
9
9
9
9
9
9
9
9
9
9
9
9
9
9
9
9
9
9
9
9
9
9
9
9
9
9
9
9
9
9
9
9
9
9
9
9
9
9
9
9
9
9
9
9
9
9
9
9
9
9
9
9
9
9
9
9
9
9
9
9
9
9
9
9
9
9
9
9
9
9
9
9
9
9
9
9
9
9
9
9
9
9
9
9
9
9
9
9
9
9
9
9
9
9
9
9
9
9
9
9
9
9
9
9
9
9
9
9
9
9
9
9
9
9
9
9
9
9
9
9
9
9
9
9
9
9
9
9
9
9
9
9
9
9
9
9
9
9
9
9
9
9
9
9
9
9
9
9
9
9
9
9
9
9
9
9
9
9
9
9
9
9
9
9
9
9
9
9
9
9
9
9
9
9
9
9
9
9
9
9
9
9
9
9
9
9
9
9
9
9
9
9
9
9
9
9
9
9
9
9
9
9
9
9
9
9
9
9
9
9
9
9
9
9
9
9
9
9
9
9
9
9
9
9
9
9
9
9
9
9
9
9
9
9
9
9
9
9
9
9
9
9
9
9
9
9
9
9
9
9
9
9
9
9
9
9
9
9
9
9
9
9
9
9
9
9
9
9
9
9
9
9
9
9
9
9
9
9
9
9
9
9
9
9
9
9
9
9
9
9
9
9
9
9
9
9
9
9
9
9
9
9
9
9
9
9
9
9
9
9
9
9
9
9
9
9
9
9
9
9
9
9
9
9
9
9
9
9
9
9
9
9
9
9
9
9
9
9
9
9
9
9
9
9
9
9
9
9
9
9
9
9
9
9
9
9
9
9
9
9
9
9
9
9
9
9
9
9
9
9
9
9
9
9
9
9
9
9
9
9
9
9
9
9
9
9
9
9
9
9
9
9
9
9
9
9
9
9
9
9
9
9
9
9
9
9
9
9
9
9
9
9
9
9
9
9
9
9
9
9
9
9
9
9
9
9
9
9
9
9
9
9
9
9
9
9
9
9
9
9
9
9
9
9
9
9
9
9
9
9
9
9
9
9
9
9
9
9
9
9
9
9
9
9
9
9
9
9
9
9
9
9
9
9
9
9
9
9
9
9
9
9
9
9
9
9
9
9
9
9
9
9
9
9
9
9
9
9
9
9
9
9
9
9
9
9
9
9
9
9
9
9
9
9
9
9
9
9
9
9
9
9
9
9
9
9
9
9
9
9
9
9
9
9
9
9
9
9
9
9
9
9
9
9
9
9
9
9
9
9
9
9
9
9
9
9
9
9
9
9
9
9
9
9
9
9
9
9
9
9
9
9
9
9
9
9
9
9
9
9
9
9
9
9
9
9
9
9
9
9
9
9
9
9
9
9
9
9
9
9
9
9
9
9
9
9
9
9
9
9
9
9
9
9
9
9
9
9
9
9
9
9
9
9
9
9
9
9
9
9
9
9
9
9
9
9
9
9
9
9
9
9
9
9
9
9
9
9
9
9
9
9
9
9
9
9
9
9
9
9
9
9
9
9
9
9
9
9
9
9
9
9
9
9
9
9
9
9
9
9
9
9
9
9
9
9
9
9
9
9
9
9
9
9
9
9
9
9
9
9
9
9
9
9
9
9
9
9
9
9
9
9
9
9
9
9
9
9
9
9
9
9
9
9
9
9
9
9
9
9
9
9
9
9
9
9
9
9
9
9
9
9
9
9
9
9
9
9
9
9
9
9
9
9
9
9
9
9
9
9
9
9
9
9
9
9
9
9
9
9
9
9
9
9
9
9
9
9
9
9
9
9
9
9
9
9
9
9
9
9
9
9
9
9
9
9
9
9
9
9
9
9
9
9
9
9
9
9
9
9
9
9
9
9
9
9
9
9
9
9
9
9
9
9
9
9
9
9
9
9
9
9
9
9
9
9
9
9
9
9
9
9
9
9
9
9
9
9
9
9
9
9
9
9
9
9
9
9
9
9
9
9
9
9
9
9
9
9
9
9
9
9
9
9
9
9
9
9
9
9
9
9
9
9
9
9
9
9
9
9
9
9
9
9
9
9
9
9
9
9
9
9
9
9
9
9
9
9
9
9
9
9
9
9
9
9
9
9
9
9
9
9
9
9
9
9
9
9
9
9
9
9
9
9
9
9
9
9
9
9
9
9
9
9
9
9
9
9
9
9
9
9
9
9
9
9
9
9
9
9
9
9
9
9
9
9
9
9
9
9
9
9
9
9
9
9
9
9
9
9
9
9
9
9
9
9
9
9
9
9
9
9
9
9
9
9
9
9
9
9
9
9
9
9
9
9
9
9
9
9
9
9
9
9
9
9
9
9
9
9
9
9
9
9
9
9
9
9
9
9
9
9
9
9
9
9
9
9
9
9
9
9
9
9
9
9
9
9
9
9
9
9
9
9
9
9
9
9
9
9
9
9
9
9
9
9
9
9
9
9
9
9
9
9
9
9
9
9
9
9
9
9
9
9
9
9
9
9
9
9
9
9
9
9
9
9
9
9
9
9
9
9
9
9
9
9
9
9
9
9
9
9
9
9
9
9
9
9
9
9
9
9
9
9
9
9
9
9
9
9
9
9
9
9
9
9
9
9
9
9
9
9
9
9
9
9
9
9
9
9
9
9
9
9
9
9
9
9
9
9
9
9
9
9
9
9
9
9
9
9
9
9
9
9
9
9
9
9
9
9
9
9
9
9
9
9
9
9
9
9
9
9
9
9
9
9
9
9
9
9
9
9
9
9
9
9
9
9
9
9
9
9
9
9
9
9
9
9
9
9
9
9
9
9
9
9
9
9
9
9
9
9
9
9
9
9
9
9
9
9
9
9
9
9
9
9
9
9
9
9
9
9
9
9
9
9
9
9
9
9
9
9
9
9
9
9
9
9
9
9
9
9
9
9
9
9
9
9
9
9
9
9
9
9
9
9
9
9
9
9
9
9
9
9
9
9
9
9
9
9
9
9
9
9
9
9
9
9
9
9
9
9
9
9
9
9
9
9
9
9
9
9
9
9
9
9
9
9
9
9
9
9
9
9
9
9
9
9
9
9
9
9
9
9
9
9
9
9
9
9
9
9
9
9
9
</DataArray>
</Cells>
<PointData Vectors="'U'">
<DataArray type="Float64" Name="U" NumberOfComponents="2" ComponentName0="U1" ComponentName1="U2" format="ascii">
 0.1535472352726E-37  0.3857486380059E-37
-0.2250756043824E-37 -0.1054470231916E-37
-0.4038165150338E-38  0.1010128289538E-37
 0.3210748646333E-01  0.1269611415601E-01
 0.3280973091288E-01  0.1742725982963E-02
 0.3784554059727E-01 -0.1996716974772E-01
 0.4464359731187E-01 -0.4411206208611E-01
 0.5326183033101E+00  0.1937392427238E+00
 0.9225701742864E+00 -0.6796800623853E+00
 0.2442428399111E+00 -0.4534131346330E-01
 0.5109734279196E+00 -0.3863552515943E+00
 0.1536929390103E-37  0.7108502051653E-37
 0.1501353028916E-37  0.6288259884072E-37
 0.1372710715891E-37  0.5762264517214E-37
 0.1231758288934E-37  0.5357540679151E-37
 0.1092817947857E-37  0.5018141622914E-37
 0.9585247922572E-38  0.4719609060770E-37
 0.8290357478068E-38  0.4449098216688E-37
 0.7039665557500E-38  0.4199032108421E-37
 0.5828564005402E-38  0.3964571137045E-37
 0.4652811718216E-38  0.3742438508362E-37
 0.3508748179457E-38  0.3530313453582E-37
 0.2393265093519E-38  0.3326492116868E-37
 0.1303724787049E-38  0.3129686231740E-37
 0.2378780858463E-39  0.2938897678897E-37
-0.8062055378240E-39  0.2753337161405E-37
-0.1830194416652E-38  0.2572369679280E-37
-0.2835539438874E-38  0.2395476926911E-37
-0.3823509376121E-38  0.2222230726754E-37
-0.4795217788975E-38  0.2052273990401E-37
-0.5751551891353E-38  0.1885311331513E-37
-0.6693636885819E-38  0.1720919551284E-37
-0.7622075623129E-38  0.1559003725118E-37
-0.8537562869567E-38  0.1399379026848E-37
-0.9440709837953E-38  0.1241886643475E-37
-0.1033206089251E-37  0.1086390521431E-37
-0.1121209983697E-37  0.9327743644246E-38
-0.1208125579528E-37  0.7809388026688E-38
-0.1293990782913E-37  0.6307995506893E-38
-0.1378838899220E-37  0.4822856025451E-38
-0.1462698978291E-37  0.3353377278190E-38
-0.1545596088039E-37  0.1899074876152E-38
-0.1627551566021E-37  0.4595596154800E-39
-0.1708583214030E-37 -0.9654688211289E-39
-0.1788705467715E-37 -0.2376230046113E-38
-0.1867929538394E-37 -0.3772869607067E-38
-0.1946263522163E-37 -0.5155462840673E-38
-0.2023712493791E-37 -0.6524021276460E-38
-0.2100278573622E-37 -0.7878494867483E-38
-0.2175960976936E-37 -0.9218776054662E-38
-0.2324657250070E-37 -0.1185605822209E-37
-0.2397655198886E-37 -0.1315257717545E-37
-0.2469737593144E-37 -0.1443394276050E-37
-0.2540889186981E-37 -0.1569978932794E-37
-0.2611091713542E-37 -0.1694970203459E-37
-0.2680323788568E-37 -0.1818321779562E-37
-0.2748560787103E-37 -0.1939982217887E-37
-0.2815774682443E-37 -0.2059895086944E-37
-0.2881933855249E-37 -0.2177998551369E-37
-0.2947002851672E-37 -0.2294225161367E-37
-0.3010942089280E-37 -0.2408501721200E-37
-0.3073707512409E-37 -0.2520748383275E-37
-0.3135250146572E-37 -0.2630878722011E-37
-0.3195515589199E-37 -0.2738798632289E-37
-0.3254443364688E-37 -0.2844405744245E-37
-0.3311966133897E-37 -0.2947588895225E-37
-0.3368008765428E-37 -0.3048226305185E-37
-0.3422487132121E-37 -0.3146185431807E-37
-0.3475306827430E-37 -0.3241321209074E-37
-0.3526364378300E-37 -0.3333474845608E-37
-0.3575590407385E-37 -0.3421517973097E-37
-0.3622797340166E-37 -0.3506166973791E-37
-0.3667825042310E-37 -0.3587208681406E-37
-0.3710485924646E-37 -0.3664409244977E-37
-0.3750557929296E-37 -0.3737513213112E-37
-0.3787774435697E-37 -0.3806244059785E-37
-0.3821809938161E-37 -0.3870307662532E-37
-0.3852259328878E-37 -0.3929401149002E-37
-0.3878607208044E-37 -0.3983232850475E-37
-0.3900181539402E-37 -0.4031563411014E-37
-0.3916082599362E-37 -0.4074289690807E-37
-0.3925073818582E-37 -0.4111618185370E-37
-0.3925418984644E-37 -0.4144434864369E-37
-0.3914667613377E-37 -0.4175137119099E-37
-0.3889509212000E-37 -0.4209649313347E-37
-0.3846429447738E-37 -0.4262831649394E-37
-0.3787073707991E-37 -0.4375196184050E-37
-0.3750819739375E-37 -0.4675828357343E-37
-0.4030928300436E-37 -0.5693426391650E-37
 0.3204696967953E-01  0.1193247594623E-01
 0.3201383560059E-01  0.1129187380290E-01
 0.3200179991659E-01  0.1070196511760E-01
 0.3200646949055E-01  0.1013686846652E-01
 0.3202348880574E-01  0.9585504394839E-02
 0.3204957822270E-01  0.9042514218733E-02
 0.3208244855699E-01  0.8505129186152E-02
 0.3212055433661E-01  0.7971840035885E-02
 0.3216286499502E-01  0.7441780387137E-02
 0.3220869623266E-01  0.6914423890840E-02
 0.3225759476448E-01  0.6389428742095E-02
 0.3230926183786E-01  0.5866554818477E-02
 0.3236350276763E-01  0.5345618880084E-02
 0.3242019353919E-01  0.4826469611942E-02
 0.3247925854019E-01  0.4308973924136E-02
 0.3254065582713E-01  0.3793010442077E-02
 0.3260436801611E-01  0.3278466807225E-02
 0.3267040150241E-01  0.2765244457467E-02
 0.3273878694922E-01  0.2253265438730E-02
 0.3288193312107E-01  0.1236136298893E-02
 0.3295686928006E-01  0.7296702315724E-03
 0.3303429301868E-01  0.2236138937810E-03
 0.3311419973167E-01 -0.2821101530016E-03
 0.3319660828819E-01 -0.7876050209527E-03
 0.3328154987626E-01 -0.1292995830579E-02
 0.3336905764261E-01 -0.1798417828065E-02
 0.3345916466326E-01 -0.2304016653108E-02
 0.3355190260879E-01 -0.2809945463888E-02
 0.3364730120426E-01 -0.3316363531981E-02
 0.3374538845757E-01 -0.3823438020541E-02
 0.3384619014870E-01 -0.4331341535175E-02
 0.3394973024837E-01 -0.4840254478839E-02
 0.3405603081135E-01 -0.5350364604350E-02
 0.3416511200059E-01 -0.5861867281220E-02
 0.3427699243453E-01 -0.6374967234983E-02
 0.3439168903806E-01 -0.6889877912874E-02
 0.3450921747514E-01 -0.7406823504179E-02
 0.3462959223090E-01 -0.7926039277771E-02
 0.3475282687971E-01 -0.8447772718029E-02
 0.3487893438638E-01 -0.8972284737774E-02
 0.3500792741139E-01 -0.9499850856497E-02
 0.3513981865137E-01 -0.1003076249222E-01
 0.3527462125149E-01 -0.1056532852366E-01
 0.3541234926325E-01 -0.1110387702310E-01
 0.3555301794318E-01 -0.1164675640749E-01
 0.3569664456119E-01 -0.1219433864493E-01
 0.3584324852536E-01 -0.1274701995854E-01
 0.3599285218675E-01 -0.1330522439912E-01
 0.3614548123841E-01 -0.1386940624449E-01
 0.3630116483255E-01 -0.1444005201625E-01
 0.3645993642333E-01 -0.1501768614435E-01
 0.3662183286948E-01 -0.1560287178740E-01
 0.3678689434553E-01 -0.1619621699914E-01
 0.3695516240142E-01 -0.1679837774961E-01
 0.3712667616068E-01 -0.1741005917409E-01
 0.3730146736839E-01 -0.1803201889480E-01
 0.3747955086590E-01 -0.1866505144480E-01
 0.3766091140308E-01 -0.1930994876979E-01
 0.3803477305055E-01 -0.2064355889327E-01
 0.3822957325838E-01 -0.2133619647312E-01
 0.3842967568981E-01 -0.2204638953244E-01
 0.3863525840902E-01 -0.2277584870073E-01
 0.3884665581526E-01 -0.2352651090450E-01
 0.3906435065968E-01 -0.2430062418348E-01
 0.3928898474837E-01 -0.2510082930333E-01
 0.3952139826797E-01 -0.2593027326382E-01
 0.3976269594817E-01 -0.2679276780231E-01
 0.4001435169619E-01 -0.2769302273810E-01
 0.4027837163823E-01 -0.2863700077495E-01
 0.4055754932171E-01 -0.2963247854661E-01
 0.4085586778314E-01 -0.3068997695894E-01
 0.4117913073035E-01 -0.3182438133455E-01
 0.4153593498073E-01 -0.3305793021655E-01
 0.4193910779221E-01 -0.3442610600986E-01
 0.4240758768286E-01 -0.3599029572172E-01
 0.4296896667071E-01 -0.3786818868795E-01
 0.4365928464897E-01 -0.4032899223210E-01
 0.4116911805321E-01  0.2381335100857E-01
 0.4390175557774E-01  0.3921935903865E-01
 0.4930588603466E-01  0.5696045452213E-01
 0.5880228848909E-01  0.7645802250395E-01
 0.7243779344112E-01  0.9721864451730E-01
 0.8995454395749E-01  0.1185791336045E+00
 0.1111132561606E+00  0.1388815134399E+00
 0.1353828720642E+00  0.1575136177049E+00
 0.1622828577749E+00  0.1746003472286E+00
 0.1915043194598E+00  0.1901812082382E+00
 0.2227958510173E+00  0.2041398821067E+00
 0.2559035110374E+00  0.2162531461507E+00
 0.2905460844609E+00  0.2264046482076E+00
 0.3264369758806E+00  0.2344105149682E+00
 0.3632663037725E+00  0.2399476628900E+00
 0.4006850724583E+00  0.2428023416884E+00
 0.4383902392566E+00  0.2434239773980E+00
 0.4752690757321E+00  0.2373171208144E+00
 0.5079934033391E+00  0.2204350181471E+00
 0.5425231392339E+00  0.1724152452372E+00
 0.5495163376098E+00  0.1500653426724E+00
 0.5541253023685E+00  0.1272158771230E+00
 0.5563451095449E+00  0.1041391545255E+00
 0.5563423136602E+00  0.8107709396610E-01
 0.5548112601323E+00  0.5811949082315E-01
 0.5523175090623E+00  0.3520080699777E-01
 0.5493816234074E+00  0.1212506654470E-01
 0.5465626077993E+00 -0.1144464540215E-01
 0.5444422592149E+00 -0.3598354821320E-01
 0.5436596731724E+00 -0.6213262146201E-01
 0.5445588371857E+00 -0.9064201180908E-01
 0.5471776276680E+00 -0.1226217565341E+00
 0.5519217429226E+00 -0.1601705601987E+00
 0.5590117483312E+00 -0.2035353520698E+00
 0.5681929636881E+00 -0.2501202495281E+00
 0.5794001330790E+00 -0.2976984220357E+00
 0.5926953197804E+00 -0.3448454054425E+00
 0.6081114645225E+00 -0.3905847844836E+00
 0.6256020409163E+00 -0.4342381296805E+00
 0.6450054280065E+00 -0.4753291149798E+00
 0.6660076815310E+00 -0.5134894539693E+00
 0.6882716101192E+00 -0.5484547661948E+00
 0.7114585056413E+00 -0.5800472976211E+00
 0.7352126636886E+00 -0.6081598782007E+00
 0.7591492372337E+00 -0.6327481038054E+00
 0.7828403764280E+00 -0.6538303332018E+00
 0.8057949283048E+00 -0.6714978864653E+00
 0.8274299545551E+00 -0.6859338104570E+00
 0.8470467934108E+00 -0.6973995682914E+00
 0.8638897823815E+00 -0.7060287772148E+00
 0.8774888295040E+00 -0.7116724945573E+00
 0.8879430513853E+00 -0.7141618993242E+00
 0.8957239763342E+00 -0.7134097867441E+00
 0.9015753858398E+00 -0.7095547798410E+00
 0.9063876687114E+00 -0.7030421776022E+00
 0.9110990893959E+00 -0.6947446038747E+00
 0.9160840866382E+00 -0.6863911045595E+00
 0.9203781795430E+00 -0.6806500346325E+00
 0.9212128014598E+00 -0.6848439072706E+00
 0.9115910167471E+00 -0.6926367160884E+00
 0.8940613556877E+00 -0.6972609850044E+00
 0.8706060967131E+00 -0.6976562954538E+00
 0.8428264592448E+00 -0.6953727936867E+00
 0.8111142015633E+00 -0.6894954626006E+00
 0.7760426960603E+00 -0.6796649675998E+00
 0.7381773849392E+00 -0.6657709952186E+00
 0.6979687087218E+00 -0.6476334043736E+00
 0.6557777591650E+00 -0.6249597134673E+00
 0.6118850638260E+00 -0.5975366012994E+00
 0.5664429302933E+00 -0.5648390886959E+00
 0.5196069684667E+00 -0.5256936533629E+00
 0.4718900457284E+00 -0.4782032858623E+00
 0.4239909561846E+00 -0.4222039393316E+00
 0.3752258487670E+00 -0.3614313060750E+00
 0.3233428016378E+00 -0.2968216658811E+00
 0.2642939385653E+00 -0.2266339336671E+00
 0.1904456098844E+00 -0.1420991345270E+00
 0.2333286245312E-03  0.4789760483062E-03
 0.3946431408718E-03  0.8645524020187E-03
 0.5676091685679E-03  0.1246158765671E-02
 0.7654141901737E-03  0.1624613197446E-02
 0.9959927404277E-03  0.2001308252854E-02
 0.1262839838948E-02  0.2376135837956E-02
 0.1568055048880E-02  0.2748596568198E-02
 0.1912748581443E-02  0.3118088558817E-02
 0.2297492973628E-02  0.3483989944762E-02
 0.2722500332296E-02  0.3845700959998E-02
 0.3187744983225E-02  0.4202654058174E-02
 0.3693033627090E-02  0.4554313800912E-02
 0.4238052158955E-02  0.4900172399534E-02
 0.4822393270719E-02  0.5239741873075E-02
 0.5445572655336E-02  0.5572545899940E-02
 0.6107038623586E-02  0.5898113069102E-02
 0.6806182449558E-02  0.6215973919385E-02
 0.7542303067410E-02  0.6525642583060E-02
 0.8314663068944E-02  0.6826641455293E-02
 0.9122417845910E-02  0.7118477691349E-02
 0.9964636253423E-02  0.7400665413894E-02
 0.1084028124523E-01  0.7672744350801E-02
 0.1174819790516E-01  0.7934349160060E-02
 0.1268720400803E-01  0.8185593606063E-02
 0.1365619931276E-01  0.8427956798883E-02
 0.1465396496765E-01  0.8663249833057E-02
 0.1567892089822E-01  0.8892909294891E-02
 0.1672903988480E-01  0.9117890194546E-02
 0.1780189499541E-01  0.9338857469559E-02
 0.1889475216417E-01  0.9556507567020E-02
 0.2000468300442E-01  0.9771877590475E-02
 0.2112866474391E-01  0.9986608193553E-02
 0.2226367420754E-01  0.1020311173630E-01
 0.2340688260666E-01  0.1042346406061E-01
 0.2455600292236E-01  0.1064946247239E-01
 0.2570959491697E-01  0.1088465355643E-01
 0.2686804933335E-01  0.1113487716165E-01
 0.2803372811857E-01  0.1140936031973E-01
 0.2922116253212E-01  0.1172371078122E-01
 0.3043347481924E-01  0.1212629610330E-01
 0.3755798968001E-01 -0.3992233960390E-01
 0.3478111290165E-01 -0.3725880525781E-01
 0.3241337366304E-01 -0.3527075652768E-01
 0.3041717966837E-01 -0.3358115590712E-01
 0.2862851718613E-01 -0.3208227902310E-01
 0.2699361380269E-01 -0.3071656744620E-01
 0.2547497989076E-01 -0.2944989684941E-01
 0.2405068779305E-01 -0.2826151922705E-01
 0.2270576435284E-01 -0.2713909451481E-01
 0.2142933219157E-01 -0.2607352801114E-01
 0.2021309708950E-01 -0.2505628691109E-01
 0.1905100942540E-01 -0.2408037782634E-01
 0.1793863312516E-01 -0.2314051694456E-01
 0.1687252299479E-01 -0.2223269179046E-01
 0.1584974384549E-01 -0.2135357087737E-01
 0.1486752551908E-01 -0.2049978300895E-01
 0.1392312294457E-01 -0.1966722556029E-01
 0.1301401922910E-01 -0.1885073529833E-01
 0.1213848439841E-01 -0.1804484555189E-01
 0.1129587740373E-01 -0.1724587938584E-01
 0.1048601760103E-01 -0.1645164948454E-01
 0.9708796783734E-02 -0.1566063056544E-01
 0.8964142927027E-02 -0.1487166752236E-01
 0.8252004925773E-02 -0.1408387056887E-01
 0.7572298463743E-02 -0.1329651635233E-01
 0.6924941993719E-02 -0.1250907162890E-01
 0.6309770903376E-02 -0.1172109430630E-01
 0.5726540183426E-02 -0.1093224351844E-01
 0.5174881876501E-02 -0.1014224743079E-01
 0.4654260455391E-02 -0.9350877178060E-02
 0.4163916586048E-02 -0.8557918699204E-02
 0.3702790933993E-02 -0.7763135867136E-02
 0.3269413002383E-02 -0.6966213839894E-02
 0.2861743534904E-02 -0.6166672985186E-02
 0.2476908183761E-02 -0.5363727048070E-02
 0.2110833504639E-02 -0.4556007395533E-02
 0.1757267183137E-02 -0.3741086985158E-02
 0.1407082936585E-02 -0.2914249712696E-02
 0.1041507442741E-02 -0.2064820160705E-02
 0.6314052662993E-03 -0.1177924132275E-02
 0.2481625253761E+00 -0.5384691259053E-01
 0.2521471125862E+00 -0.6258698098125E-01
 0.2562347202067E+00 -0.7155184548791E-01
 0.2604415024927E+00 -0.8073888216261E-01
 0.2647811244582E+00 -0.9014388311913E-01
 0.2692665599611E+00 -0.9976000184000E-01
 0.2739106073341E+00 -0.1095772585359E+00
 0.2787257986848E+00 -0.1195821717325E+00
 0.2837240428937E+00 -0.1297575428854E+00
 0.2889162495233E+00 -0.1400826114035E+00
 0.2943119165430E+00 -0.1505332621019E+00
 0.2999188059341E+00 -0.1610824471413E+00
 0.3057426994343E+00 -0.1717004640224E+00
 0.3117871741194E+00 -0.1823553561142E+00
 0.3180534000157E+00 -0.1930135225788E+00
 0.3245400219297E+00 -0.2036404039944E+00
 0.3312431247380E+00 -0.2142011308077E+00
 0.3381562807195E+00 -0.2246611193358E+00
 0.3452706626191E+00 -0.2349866205928E+00
 0.3525752114125E+00 -0.2451452239426E+00
 0.3600568431851E+00 -0.2551063000607E+00
 0.3677006674902E+00 -0.2648413318193E+00
 0.3754902259764E+00 -0.2743242274989E+00
 0.3834077366303E+00 -0.2835316118389E+00
 0.3914343407798E+00 -0.2924430555467E+00
 0.3995503437902E+00 -0.3010412453519E+00
 0.4077354414581E+00 -0.3093120976160E+00
 0.4159689210886E+00 -0.3172448132102E+00
 0.4242298409288E+00 -0.3248318825082E+00
 0.4324971510487E+00 -0.3320689998167E+00
 0.4407497457938E+00 -0.3389548591455E+00
 0.4489664790849E+00 -0.3454910208569E+00
 0.4571262476528E+00 -0.3516820206740E+00
 0.4652081192443E+00 -0.3575353523741E+00
 0.4731915620199E+00 -0.3630614853969E+00
 0.4810566158831E+00 -0.3682737929249E+00
 0.4887842484764E+00 -0.3731886394414E+00
 0.4963566079870E+00 -0.3778253725358E+00
 0.5037575150222E+00 -0.3822060582474E+00
 0.2243399440609E+00 -0.4206656638829E-01
 0.2049703893574E+00 -0.3887302908754E-01
 0.1861785252636E+00 -0.3570978206692E-01
 0.1680082369924E+00 -0.3259110343947E-01
 0.1505074155495E+00 -0.2954381379876E-01
 0.1337267151950E+00 -0.2659310760775E-01
 0.1177305995353E+00 -0.2375880153195E-01
 0.1025943921447E+00 -0.2105294438768E-01
 0.8840299133079E-01 -0.1847858980916E-01
 0.7525157738469E-01 -0.1603129393667E-01
 0.6324754173986E-01 -0.1370451427435E-01
 0.5251293760151E-01 -0.1149590184020E-01
 0.4318690609144E-01 -0.9409528399647E-02
 0.3542663574057E-01 -0.7452832647113E-02
 0.2940787815587E-01 -0.5632592637553E-02
 0.2532286430829E-01 -0.3951384385960E-02
 0.2337606085688E-01 -0.2400745540951E-02
 0.2379350228192E-01 -0.9579793344879E-03
 0.2683729369144E-01  0.4112407437422E-03
 0.4876334221414E+00 -0.3634829330635E+00
 0.4641224808721E+00 -0.3407056582721E+00
 0.4404139777918E+00 -0.3180360637034E+00
 0.4164867474075E+00 -0.2954981063868E+00
 0.3923331234789E+00 -0.2731195327820E+00
 0.3679533171536E+00 -0.2509325574706E+00
 0.3433525412135E+00 -0.2289804928848E+00
 0.3185493705179E+00 -0.2073244150703E+00
 0.2935826531676E+00 -0.1860488554304E+00
 0.2685157192536E+00 -0.1652649462486E+00
 0.2434326694938E+00 -0.1451070148746E+00
 0.2184273533646E+00 -0.1257247673229E+00
 0.1935961725531E+00 -0.1072782864011E+00
 0.1690443417170E+00 -0.8993928142060E-01
 0.1449034443391E+00 -0.7389325092897E-01
 0.1213410112863E+00 -0.5933655993876E-01
 0.9855668184001E-01 -0.4647306889031E-01
 0.7680489434253E-01 -0.3550973825061E-01
 0.5642445838417E-01 -0.2663598376717E-01
 0.2563362135885E+00 -0.3596805974754E-01
 0.2690867464650E+00 -0.2589159361691E-01
 0.2824818115865E+00 -0.1523725661977E-01
 0.2964524577882E+00 -0.4118220499945E-02
 0.3109161192223E+00  0.7364008019144E-02
 0.3257812050450E+00  0.1911664671637E-01
 0.3409499043035E+00  0.3105809342166E-01
 0.3563212655195E+00  0.4312065873163E-01
 0.3717952695967E+00  0.5525315281490E-01
 0.3872776108150E+00  0.6742270171728E-01
 0.4026847254806E+00  0.7961539135188E-01
 0.4179484566776E+00  0.9183538819742E-01
 0.4330196240517E+00  0.1041022981954E+00
 0.4478697214928E+00  0.1164467438617E+00
 0.4624900975841E+00  0.1289044948298E+00
 0.4768883752345E+00  0.1415099156575E+00
 0.4910824726694E+00  0.1542897779306E+00
 0.5050932288125E+00  0.1672584092845E+00
 0.5189364569913E+00  0.1804141087824E+00
 0.5415933922615E+00 -0.4121588676289E+00
 0.5721639479846E+00 -0.4377219327534E+00
 0.6025284946292E+00 -0.4628324197054E+00
 0.6325262562518E+00 -0.4872860273071E+00
 0.6619946490549E+00 -0.5108864219770E+00
 0.6907694098407E+00 -0.5334461243929E+00
 0.7186841655633E+00 -0.5547883628565E+00
 0.7455700013506E+00 -0.5747491425270E+00
 0.7712549959789E+00 -0.5931794051219E+00
 0.7955636627588E+00 -0.6099473152938E+00
 0.8183162868496E+00 -0.6249408711350E+00
 0.8393282511956E+00 -0.6380711889307E+00
 0.8584095951720E+00 -0.6492769948006E+00
 0.8753652808473E+00 -0.6585310914586E+00
 0.8899969942254E+00 -0.6658498901459E+00
 0.9021078798858E+00 -0.6713075961968E+00
 0.9115127597999E+00 -0.6750575840700E+00
 0.9180596174668E+00 -0.6773659075038E+00
 0.9216791577075E+00 -0.6786678631722E+00
 0.1874317022218E-03  0.4086514654858E-03
 0.3597909563285E-03  0.8049407974475E-03
 0.5319818965360E-03  0.1177250022780E-02
 0.7309066005812E-03  0.1544682619085E-02
 0.9622521219441E-03  0.1908439791403E-02
 0.1230111582114E-02  0.2269372143598E-02
 0.1536495853482E-02  0.2627369267734E-02
 0.1882549702539E-02  0.2982081376259E-02
 0.2268838825424E-02  0.3333045485864E-02
 0.2695572908758E-02  0.3679768195572E-02
 0.3162720697166E-02  0.4021755665567E-02
 0.3670083513791E-02  0.4358525392264E-02
 0.4217341986346E-02  0.4689609182265E-02
 0.4804083956717E-02  0.5014550269328E-02
 0.5429820641071E-02  0.5332898647256E-02
 0.6093996139113E-02  0.5644206817597E-02
 0.6795997528013E-02  0.5948028841735E-02
 0.7535119222393E-02  0.6243903600470E-02
 0.8310618623281E-02  0.6531380295709E-02
 0.9121644581827E-02  0.6809996218662E-02
 0.9967257222126E-02  0.7079299035599E-02
 0.1084640667176E-01  0.7338865722785E-02
 0.1175792321735E-01  0.7588337804076E-02
 0.1270061782531E-01  0.7827653820578E-02
 0.1367339955564E-01  0.8058070115589E-02
 0.1467505891261E-01  0.8281418651456E-02
 0.1570400555606E-01  0.8499332430156E-02
 0.1675817883613E-01  0.8713008520016E-02
 0.1783510064218E-01  0.8923314482229E-02
 0.1893197602897E-01  0.9131072068613E-02
 0.2004581281598E-01  0.9337359830334E-02
 0.2117352623235E-01  0.9543774159392E-02
 0.2231202515103E-01  0.9752659625139E-02
 0.2345840746849E-01  0.9966007245760E-02
 0.2461029979314E-01  0.1018528728973E-01
 0.2576631833342E-01  0.1041333735675E-01
 0.2692646029586E-01  0.1065479973602E-01
 0.2809523034760E-01  0.1091578536895E-01
 0.2927741931981E-01  0.1121047916259E-01
 0.3053586487436E-01  0.1152875779088E-01
 0.1543930038819E-03  0.3687178075112E-03
 0.3235581272807E-03  0.7464039426913E-03
 0.4981086414421E-03  0.1110434960451E-02
 0.6975207968362E-03  0.1465531863673E-02
 0.9298449134002E-03  0.1816207503285E-02
 0.1198716270076E-02  0.2163203766612E-02
 0.1506290920039E-02  0.2506796624938E-02
 0.1853699899254E-02  0.2846817621342E-02
 0.2241517613597E-02  0.3182944296261E-02
 0.2669951058868E-02  0.3514779587316E-02
 0.3138965939741E-02  0.3841900095613E-02
 0.3648359375880E-02  0.4163875788802E-02
 0.4197807718996E-02  0.4480279089082E-02
 0.4786894621756E-02  0.4790686117837E-02
 0.5415127293226E-02  0.5094675036966E-02
 0.6081945909408E-02  0.5391824018570E-02
 0.6786733584879E-02  0.5681711795749E-02
 0.7528780323936E-02  0.5963902782560E-02
 0.8307338491107E-02  0.6237972252557E-02
 0.9121550698225E-02  0.6503485337852E-02
 0.9970468979384E-02  0.6760017751981E-02
 0.1085303430502E-01  0.7007167140621E-02
 0.1176807997305E-01  0.7244553251606E-02
 0.1271442436521E-01  0.7472021023543E-02
 0.1369096053719E-01  0.7690714545846E-02
 0.1469645005238E-01  0.7902462905330E-02
 0.1572927551969E-01  0.8109011905591E-02
 0.1678734662805E-01  0.8311715667283E-02
 0.1786814991662E-01  0.8511580715779E-02
 0.1896884916462E-01  0.8709513376468E-02
 0.2008640811644E-01  0.8906606379728E-02
 0.2121769253340E-01  0.9104400828756E-02
 0.2235955809175E-01  0.9305120588172E-02
 0.2350906192071E-01  0.9510562542858E-02
 0.2466384642645E-01  0.9721806547036E-02
 0.2582248796837E-01  0.9940981480424E-02
 0.2698551661682E-01  0.1017109063662E-01
 0.2815629935550E-01  0.1041695123611E-01
 0.2934720413568E-01  0.1067911278879E-01
 0.3061965506709E-01  0.1095241296915E-01
 0.1296357900978E-03  0.3400489687909E-03
 0.2903284085283E-03  0.6950689029668E-03
 0.4654238937127E-03  0.1045457224879E-02
 0.6655851167644E-03  0.1387793451382E-02
 0.8987423443324E-03  0.1724853799085E-02
 0.1168650970256E-02  0.2057810856810E-02
 0.1477406435243E-02  0.2386984010788E-02
 0.1826162081375E-02  0.2712359918368E-02
 0.2215488983973E-02  0.3033718427167E-02
 0.2645594079836E-02  0.3350746095570E-02
 0.3116440107470E-02  0.3663083130714E-02
 0.3627820846925E-02  0.3970349561388E-02
 0.4179408987655E-02  0.4272158020371E-02
 0.4770784545439E-02  0.4568118177448E-02
 0.5401451163583E-02  0.4857837458507E-02
 0.6070845475326E-02  0.5140920806628E-02
 0.6778346979862E-02  0.5416972427385E-02
 0.7523241633882E-02  0.5685582477147E-02
 0.8304777285043E-02  0.5946351451441E-02
 0.9122091147948E-02  0.6198869916013E-02
 0.9974229089889E-02  0.6442736099569E-02
 0.1086012952889E-01  0.6677557157347E-02
 0.1177863567294E-01  0.6902934629797E-02
 0.1272857137898E-01  0.7118668284191E-02
 0.1370880171852E-01  0.7325840499460E-02
 0.1471804319632E-01  0.7526267896781E-02
 0.1575464140084E-01  0.7721753299928E-02
 0.1681647829538E-01  0.7913744507068E-02
 0.1790101562582E-01  0.8103335180489E-02
 0.1900539094251E-01  0.8291479657991E-02
 0.2012653887397E-01  0.8479261200447E-02
 0.2126129108350E-01  0.8668144611083E-02
 0.2240647045262E-01  0.8860194237520E-02
 0.2355913480243E-01  0.9056957806115E-02
 0.2471695651147E-01  0.9259121538581E-02
 0.2587867133877E-01  0.9468019506788E-02
 0.2704492030726E-01  0.9685609636635E-02
 0.2821989516368E-01  0.9913553097368E-02
 0.2942003937930E-01  0.1014908622580E-01
 0.3068689883755E-01  0.1039793923250E-01
 0.1102796049577E-03  0.3167159234813E-03
 0.2610056591752E-03  0.6495375675393E-03
 0.4345632717013E-03  0.9833483821196E-03
 0.6351329538986E-03  0.1311612480893E-02
 0.8690236258563E-03  0.1634638477955E-02
 0.1139909884521E-02  0.1953330879990E-02
 0.1449826080247E-02  0.2268026714263E-02
 0.1799907019625E-02  0.2578763602597E-02
 0.2190719560795E-02  0.2885396754681E-02
 0.2622466262884E-02  0.3187676904319E-02
 0.3095106567241E-02  0.3485299471334E-02
 0.3608430761454E-02  0.3777930348198E-02
 0.4162108146927E-02  0.4065220831856E-02
 0.4755715446215E-02  0.4346813917598E-02
 0.5388753125294E-02  0.4622346712161E-02
 0.6060654691385E-02  0.4891451507569E-02
 0.6770796489086E-02  0.5153758380502E-02
 0.7518461000497E-02  0.5408883122976E-02
 0.8302892379188E-02  0.5656450500296E-02
 0.9123223752752E-02  0.5896074251460E-02
 0.9978497730684E-02  0.6127370711606E-02
 0.1086765506980E-01  0.6349953248887E-02
 0.1178954963936E-01  0.6563415359251E-02
 0.1274300549836E-01  0.6767540112712E-02
 0.1372685419788E-01  0.6963372154486E-02
 0.1473976197239E-01  0.7152707644297E-02
 0.1578003354825E-01  0.7337368703142E-02
 0.1684552489588E-01  0.7518849757925E-02
 0.1793368053637E-01  0.7698290074257E-02
 0.1904162305928E-01  0.7876661026947E-02
 0.2016627070815E-01  0.8055014502375E-02
 0.2130443635493E-01  0.8234719548419E-02
 0.2245293311761E-01  0.8417657053984E-02
 0.2360884040908E-01  0.8605112997230E-02
 0.2476990893414E-01  0.8797373900936E-02
 0.2593501547316E-01  0.8995144058721E-02
 0.2710503037811E-01  0.9199320175400E-02
 0.2828512326818E-01  0.9409782826465E-02
 0.2949073383667E-01  0.9625548849021E-02
 0.3074384077561E-01  0.9858153195866E-02
 0.9462808268467E-04  0.2963095368371E-03
 0.2354097390093E-03  0.6081630015083E-03
 0.4059597909733E-03  0.9241976232510E-03
 0.6063042588994E-03  0.1237215222696E-02
 0.8407397658705E-03  0.1545697014240E-02
 0.1112510538987E-02  0.1849884003797E-02
 0.1423539774753E-02  0.2149999873961E-02
 0.1774913842482E-02  0.2446075885605E-02
 0.2167181632056E-02  0.2738003074426E-02
 0.2600536611470E-02  0.3025578398683E-02
 0.3074932440611E-02  0.3308541967857E-02
 0.3590155102755E-02  0.3586600352119E-02
 0.4145870281284E-02  0.3859441013429E-02
 0.4741651524610E-02  0.4126739338647E-02
 0.5376996415044E-02  0.4388161960403E-02
 0.6051335757678E-02  0.4643368654358E-02
 0.6764043292096E-02  0.4892015431717E-02
 0.7514398766449E-02  0.5133743406128E-02
 0.8301643692298E-02  0.5368200659186E-02
 0.9124908789639E-02  0.5595022202332E-02
 0.9983236267381E-02  0.5813840078169E-02
 0.1087557190394E-01  0.6024274766200E-02
 0.1180077836951E-01  0.6225921311067E-02
 0.1275767506660E-01  0.6418562403987E-02
 0.1374505826293E-01  0.6603215648773E-02
 0.1476154428137E-01  0.6781648774338E-02
 0.1580539729762E-01  0.6955676466506E-02
 0.1687444963791E-01  0.7126804904001E-02
 0.1796613437969E-01  0.7296186273683E-02
 0.1907756785699E-01  0.7464783358419E-02
 0.2020566271219E-01  0.7633598006770E-02
 0.2134722743718E-01  0.7803889031519E-02
 0.2249908232670E-01  0.7977346002084E-02
 0.2365834682301E-01  0.8154996610092E-02
 0.2482285983485E-01  0.8336782059536E-02
 0.2599162683688E-01  0.8522895378876E-02
 0.2716576210050E-01  0.8713484995328E-02
 0.2835057526823E-01  0.8908180897645E-02
 0.2955784966183E-01  0.9108630824936E-02
 0.3079547528443E-01  0.9327742975642E-02
 0.8164703826798E-04  0.2776718991913E-03
 0.2130846358857E-03  0.5697495279139E-03
 0.3797619608899E-03  0.8676925602553E-03
 0.5792351869774E-03  0.1164680012454E-02
 0.8139434709077E-03  0.1458119650352E-02
 0.1086472693259E-02  0.1747549087185E-02
 0.1398545027352E-02  0.2032962173749E-02
 0.1751167067799E-02  0.2314332950812E-02
 0.2144852568063E-02  0.2591555318529E-02
 0.2579778257135E-02  0.2864453325045E-02
 0.3055888372525E-02  0.3132801152325E-02
 0.3572962880408E-02  0.3396340072830E-02
 0.4130663166044E-02  0.3654790608278E-02
 0.4728559458237E-02  0.3907859045306E-02
 0.5366146635457E-02  0.4155240933625E-02
 0.6042853206897E-02  0.4396623305594E-02
 0.6758050917693E-02  0.4631687909595E-02
 0.7511017642640E-02  0.4860100740880E-02
 0.8300993468098E-02  0.5081532321661E-02
 0.9127108504387E-02  0.5295637612199E-02
 0.9988406876073E-02  0.5502063597172E-02
 0.1088384047079E-01  0.5700440323906E-02
 0.1181227821670E-01  0.5890371645022E-02
 0.1277253143556E-01  0.6071648676116E-02
 0.1376336174558E-01  0.6245265692717E-02
 0.1478333882885E-01  0.6412954218370E-02
 0.1583068917774E-01  0.6576501820458E-02
 0.1690322454737E-01  0.6737400497057E-02
 0.1799837133084E-01  0.6896790030433E-02
 0.1911324645221E-01  0.7055604108400E-02
 0.2024476594895E-01  0.7214779956332E-02
 0.2138974531577E-01  0.7375458297160E-02
 0.2254502398351E-01  0.7539139717902E-02
 0.2370776854610E-01  0.7706617035688E-02
 0.2487589669584E-01  0.7877554128962E-02
 0.2604851140338E-01  0.8051776492726E-02
 0.2722678843999E-01  0.8229118995985E-02
 0.2841532564227E-01  0.8409747233185E-02
 0.2962164729192E-01  0.8597220483334E-02
 0.3084491635474E-01  0.8803534101354E-02
 0.7067495874362E-04  0.2601814914587E-03
 0.1935559264255E-03  0.5334832125829E-03
 0.3559363891436E-03  0.8134302018591E-03
 0.5540037700697E-03  0.1093950261204E-02
 0.7886815887027E-03  0.1371943130262E-02
 0.1061814963800E-02  0.1646371935594E-02
 0.1374842607059E-02  0.1916952441807E-02
 0.1728655377965E-02  0.2183559825404E-02
 0.2123713683577E-02  0.2446064465111E-02
 0.2560167955133E-02  0.2704300130531E-02
 0.3037948215314E-02  0.2958064653067E-02
 0.3556825979730E-02  0.3207127867097E-02
 0.4116457198947E-02  0.3451239872878E-02
 0.4716408381172E-02  0.3690135990902E-02
 0.5356171752601E-02  0.3923539737097E-02
 0.6035173897897E-02  0.4151164896461E-02
 0.6752785211130E-02  0.4372718566760E-02
 0.7508282631344E-02  0.4587891120362E-02
 0.8300906117952E-02  0.4796374792253E-02
 0.9129786889435E-02  0.4997843740534E-02
 0.9993972695683E-02  0.5191960105589E-02
 0.1089242173003E-01  0.5378366130138E-02
 0.1182400689079E-01  0.5556679321493E-02
 0.1278752954159E-01  0.5726703359218E-02
 0.1378171885120E-01  0.5889409216005E-02
 0.1480510264505E-01  0.6046484964244E-02
 0.1585587406173E-01  0.6199676210069E-02
 0.1693182792024E-01  0.6350441445322E-02
 0.1803038805918E-01  0.6499888750041E-02
 0.1914867741527E-01  0.6648906959758E-02
 0.2028362237068E-01  0.6798358546346E-02
 0.2143205337683E-01  0.6949263993846E-02
 0.2259083493197E-01  0.7102945779745E-02
 0.2375717731361E-01  0.7259995730550E-02
 0.2492905407679E-01  0.7419874194044E-02
 0.2610559509714E-01  0.7582200499384E-02
 0.2728778359561E-01  0.7746828598847E-02
 0.2847898920655E-01  0.7914643106285E-02
 0.2968292809299E-01  0.8090179091554E-02
 0.3089395105582E-01  0.8283689508019E-02
 0.6126864736018E-04  0.2434773091240E-03
 0.1764048842711E-03  0.4988101640065E-03
 0.3343558113563E-03  0.7610318974457E-03
 0.5306259988351E-03  0.1024893863633E-02
 0.7649836283114E-03  0.1287152619306E-02
 0.1038551884261E-02  0.1546368956060E-02
 0.1352433702973E-02  0.1801990520712E-02
 0.1707369978286E-02  0.2053769945483E-02
 0.2103749315854E-02  0.2301534231912E-02
 0.2541685502644E-02  0.2545112558886E-02
 0.3021088705360E-02  0.2784316914368E-02
 0.3541718975615E-02  0.3018939761283E-02
 0.4103225301520E-02  0.3248757194383E-02
 0.4705169830685E-02  0.3473531487302E-02
 0.5347042061110E-02  0.3693012942462E-02
 0.6028266976992E-02  0.3906941396692E-02
 0.6748214273644E-02  0.4115048781599E-02
 0.7506160928599E-02  0.4317049326789E-02
 0.8301348077665E-02  0.4512656425515E-02
 0.9132909590736E-02  0.4701563119280E-02
 0.9999898071864E-02  0.4883447357237E-02
 0.1090127786200E-01  0.5057965766641E-02
 0.1183592419349E-01  0.5224752354261E-02
 0.1280262795899E-01  0.5383624637681E-02
 0.1380008910067E-01  0.5535528441001E-02
 0.1482679911168E-01  0.5682101903218E-02
 0.1588092286056E-01  0.5825037355916E-02
 0.1696024219580E-01  0.5965745420606E-02
 0.1806218207443E-01  0.6105288074469E-02
 0.1918387563495E-01  0.6244497816149E-02
 0.2032226444254E-01  0.6384156334269E-02
 0.2147419826405E-01  0.6525166439205E-02
 0.2263656666604E-01  0.6668688924935E-02
 0.2380661182708E-01  0.6815152533903E-02
 0.2498232760371E-01  0.6963888350642E-02
 0.2616277611501E-01  0.7114449580278E-02
 0.2734852904701E-01  0.7266883267121E-02
 0.2854154456182E-01  0.7422674560586E-02
 0.2974254191423E-01  0.7586620144680E-02
 0.3094356131600E-01  0.7767144285051E-02
 0.5311863119433E-04  0.2273365862054E-03
 0.1612817226439E-03  0.4653473477837E-03
 0.3148534696262E-03  0.7101756148365E-03
 0.5090696699507E-03  0.9573485035620E-03
 0.7428571151467E-03  0.1203694568083E-02
 0.1016690791619E-02  0.1447530538038E-02
 0.1331317971531E-02  0.1688079037337E-02
 0.1687303143806E-02  0.1924965438829E-02
 0.2084945945601E-02  0.2157960983514E-02
 0.2524313186320E-02  0.2386879447215E-02
 0.3005289125928E-02  0.2611538983223E-02
 0.3527618933560E-02  0.2831749286567E-02
 0.4090942803710E-02  0.3047308984081E-02
 0.4694817680253E-02  0.3258005158638E-02
 0.5338730139451E-02  0.3463613594095E-02
 0.6022103836076E-02  0.3663899356488E-02
 0.6744308408983E-02  0.3858618622186E-02
 0.7504621850636E-02  0.4047508977004E-02
 0.8302287730581E-02  0.4230304575866E-02
 0.9136443925852E-02  0.4406717301136E-02
 0.1000614881834E-01  0.4576441652312E-02
 0.1091037273248E-01  0.4739150198395E-02
 0.1184799236645E-01  0.4894494782249E-02
 0.1281778873804E-01  0.5042306321795E-02
 0.1381843643720E-01  0.5183502810545E-02
 0.1484839644664E-01  0.5319666855749E-02
 0.1590581075395E-01  0.5452428897455E-02
 0.1698845232024E-01  0.5583141115177E-02
 0.1809375048029E-01  0.5712808944062E-02
 0.1921885163658E-01  0.5842200729648E-02
 0.2036071531861E-01  0.5972014816904E-02
 0.2151621153945E-01  0.6103042338373E-02
 0.2268224991749E-01  0.6236301505801E-02
 0.2385608640966E-01  0.6372095725835E-02
 0.2503569132345E-01  0.6509692804228E-02
 0.2621996497053E-01  0.6648676039551E-02
 0.2740892689401E-01  0.6789333592118E-02
 0.2860316512136E-01  0.6933538291742E-02
 0.2980121730601E-01  0.7085911384931E-02
 0.3099427304907E-01  0.7253267834879E-02
 0.4600091306387E-04  0.2116149805987E-03
 0.1478997970808E-03  0.4328243598424E-03
 0.2972531012259E-03  0.6605979692060E-03
 0.4892705609760E-03  0.8911480125701E-03
 0.7222886134221E-03  0.1121491195039E-02
 0.9962299674567E-03  0.1349825944779E-02
 0.1311492090076E-02  0.1575205514773E-02
 0.1668447094473E-02  0.1797137958479E-02
 0.2067291414883E-02  0.2015333949741E-02
 0.2508035273173E-02  0.2229584738782E-02
 0.2990530979331E-02  0.2439708458046E-02
 0.3514505204420E-02  0.2645527436255E-02
 0.4079587316422E-02  0.2846859673225E-02
 0.4685328058151E-02  0.3043514985059E-02
 0.5331210791489E-02  0.3235293299530E-02
 0.6016658060224E-02  0.3421984033969E-02
 0.6741040065920E-02  0.3603366992354E-02
 0.7503636770044E-02  0.3779202653958E-02
 0.8303695363968E-02  0.3949245660317E-02
 0.9140358932909E-02  0.4113226824452E-02
 0.1001269241578E-01  0.4270857833999E-02
 0.1091967215105E-01  0.4421828134342E-02
 0.1186017618127E-01  0.4565807677036E-02
 0.1283297710606E-01  0.4702639379025E-02
 0.1383672843024E-01  0.4833210482065E-02
 0.1486986648606E-01  0.4959043382114E-02
 0.1593051579536E-01  0.5081700138048E-02
 0.1701644446347E-01  0.5202466857655E-02
 0.1812508904241E-01  0.5322285170238E-02
 0.1925361122304E-01  0.5441854465674E-02
 0.2039898938864E-01  0.5561789885772E-02
 0.2155811177051E-01  0.5682778963412E-02
 0.2272789918447E-01  0.5805716837913E-02
 0.2390559918429E-01  0.5930815733689E-02
 0.2508911309378E-01  0.6057331117139E-02
 0.2627710334088E-01  0.6184927335279E-02
 0.2746897530410E-01  0.6314107478513E-02
 0.2866410552812E-01  0.6446928193966E-02
 0.2985952840127E-01  0.6587613625042E-02
 0.3104636414340E-01  0.6741672341227E-02
 0.3974830530994E-04  0.1962150642007E-03
 0.1360252099111E-03  0.4010461574945E-03
 0.2813842122064E-03  0.6120866958269E-03
 0.4711458263256E-03  0.8261355818977E-03
 0.7032475233859E-03  0.1040452269320E-02
 0.9771583204801E-03  0.1253208854347E-02
 0.1292948852171E-02  0.1463344809456E-02
 0.1650793174762E-02  0.1670269802415E-02
 0.2050774286887E-02  0.1873635673235E-02
 0.2492837560139E-02  0.2073207631732E-02
 0.2976797682957E-02  0.2268799519722E-02
 0.3502359224451E-02  0.2460242663239E-02
 0.4069138601680E-02  0.2647371717951E-02
 0.4676679261402E-02  0.2830017331541E-02
 0.5324460984664E-02  0.3008002285103E-02
 0.6011905376128E-02  0.3181139471116E-02
 0.6738383789297E-02  0.3349231712359E-02
 0.7503179073034E-02  0.3512061965658E-02
 0.8305543157890E-02  0.3669405165875E-02
 0.9144625434448E-02  0.3821011181175E-02
 0.1001949815689E-01  0.3966609338817E-02
 0.1092914400156E-01  0.4105906369110E-02
 0.1187244289875E-01  0.4238589901083E-02
 0.1284816113232E-01  0.4364512972468E-02
 0.1385493560018E-01  0.4484529254593E-02
 0.1489118373016E-01  0.4600097149831E-02
 0.1595501785097E-01  0.4712705558329E-02
 0.1704420507274E-01  0.4823569187495E-02
 0.1815619157494E-01  0.4933561105870E-02
 0.1928815542720E-01  0.5043309308754E-02
 0.2043709313162E-01  0.5153347777971E-02
 0.2159990678743E-01  0.5264269407064E-02
 0.2277351699819E-01  0.5376864452871E-02
 0.2395513926861E-01  0.5491282011121E-02
 0.2514256493873E-01  0.5606798866752E-02
 0.2633416746225E-01  0.5723175965455E-02
 0.2752873628939E-01  0.5841072759895E-02
 0.2872463685472E-01  0.5962572368376E-02
 0.2991791133391E-01  0.6091419358631E-02
 0.3109998201753E-01  0.6232105051928E-02
 0.3423272484799E-04  0.1810687264458E-03
 0.1254666178767E-03  0.3698690587868E-03
 0.2670890796265E-03  0.5644712697010E-03
 0.4546037244388E-03  0.7621692919390E-03
 0.6856906312368E-03  0.9604833710144E-03
 0.9594562210972E-03  0.1157622540204E-02
 0.1275676826995E-02  0.1352461707917E-02
 0.1634331320529E-02  0.1544335195159E-02
 0.2035383360218E-02  0.1732842610221E-02
 0.2478706997684E-02  0.1917722832601E-02
 0.2964074299530E-02  0.2098783023249E-02
 0.3491164329360E-02  0.2275860903699E-02
 0.4059578446989E-02  0.2448805602394E-02
 0.4668851670335E-02  0.2617466952209E-02
 0.5318459789039E-02  0.2781689408051E-02
 0.6007823604708E-02  0.2941308510050E-02
 0.6736316181443E-02  0.3096149527406E-02
 0.7503224135091E-02  0.3246017527932E-02
 0.8307805194206E-02  0.3390707595348E-02
 0.9149216099885E-02  0.3529988754819E-02
 0.1002653724328E-01  0.3663608223604E-02
 0.1093875828929E-01  0.3791290023430E-02
 0.1188476216109E-01  0.3912738603145E-02
 0.1286331139935E-01  0.4027815081330E-02
 0.1387303085744E-01  0.4137337031111E-02
 0.1491232460463E-01  0.4242695919980E-02
 0.1597929781122E-01  0.4345304102782E-02
 0.1707172020932E-01  0.4446301359026E-02
 0.1818704959581E-01  0.4546489383800E-02
 0.1932248070870E-01  0.4646424094442E-02
 0.2047502614660E-01  0.4746561519721E-02
 0.2164159590647E-01  0.4847408784493E-02
 0.2281909771076E-01  0.4949666916889E-02
 0.2400469232058E-01  0.5053442640633E-02
 0.2519602827805E-01  0.5158051935598E-02
 0.2639116340821E-01  0.5263345040783E-02
 0.2758830799388E-01  0.5370072989701E-02
 0.2878501434069E-01  0.5480239282793E-02
 0.2997669327293E-01  0.5597105673795E-02
 0.3115520800834E-01  0.5724387493530E-02
 0.2935385966759E-04  0.1661268673377E-03
 0.1160666000858E-03  0.3391850603799E-03
 0.2542253046545E-03  0.5176143047726E-03
 0.4395501744836E-03  0.6991235436951E-03
 0.6695663692088E-03  0.8814911586762E-03
 0.9430969758703E-03  0.1063004182350E-02
 0.1259660500556E-02  0.1242513472519E-02
 0.1619049794608E-02  0.1419301674304E-02
 0.2021107335028E-02  0.1592925870333E-02
 0.2465631394237E-02  0.1763100945102E-02
 0.2952347307081E-02  0.1929626708977E-02
 0.3480905585527E-02  0.2092345707804E-02
 0.4050890544442E-02  0.2251119940844E-02
 0.4661827661516E-02  0.2405817090184E-02
 0.5313188312188E-02  0.2556302264594E-02
 0.6004392609725E-02  0.2702432909567E-02
 0.6734815861693E-02  0.2844056225691E-02
 0.7503749296312E-02  0.2980999074667E-02
 0.8310457459233E-02  0.3113076571205E-02
 0.9154105479562E-02  0.3240076951037E-02
 0.1003378282171E-01  0.3361765393537E-02
 0.1094848711117E-01  0.3477882938820E-02
 0.1189710582734E-01  0.3588149778023E-02
 0.1287840067118E-01  0.3692433110061E-02
 0.1389098901115E-01  0.3791512267723E-02
 0.1493326685957E-01  0.3886709607484E-02
 0.1600333697964E-01  0.3979358683723E-02
 0.1709897506781E-01  0.4070522221014E-02
 0.1821765214373E-01  0.4160929190491E-02
 0.1935657926414E-01  0.4251063964237E-02
 0.2051278218487E-01  0.4341308361029E-02
 0.2168317191016E-01  0.4432091797292E-02
 0.2286463053818E-01  0.4524038502139E-02
 0.2405424415392E-01  0.4617226330416E-02
 0.2524949525787E-01  0.4711015976949E-02
 0.2644811936560E-01  0.4805327607832E-02
 0.2764780449413E-01  0.4900946247919E-02
 0.2884546407545E-01  0.4999732748274E-02
 0.3003612007453E-01  0.5104502175300E-02
 0.3121209173917E-01  0.5218381651389E-02
 0.2503167333348E-04  0.1513531126979E-03
 0.1076947430984E-03  0.3089114104291E-03
 0.2426660765415E-03  0.4714044248845E-03
 0.4258929284666E-03  0.6368884659806E-03
 0.6548183707985E-03  0.8033864346505E-03
 0.9280485312185E-03  0.9692881608357E-03
 0.1244880757060E-02  0.1133452122819E-02
 0.1604935153266E-02  0.1295131456833E-02
 0.2007934619029E-02  0.1453851998610E-02
 0.2453599201642E-02  0.1609308909468E-02
 0.2941604413330E-02  0.1761295452173E-02
 0.3471569644465E-02  0.1909658391647E-02
 0.4043060381527E-02  0.2054271584514E-02
 0.4655591526832E-02  0.2195019567268E-02
 0.5308629638572E-02  0.2331787275287E-02
 0.6001594251876E-02  0.2464453428989E-02
 0.6733863433691E-02  0.2592886717673E-02
 0.7504733845409E-02  0.2716935529418E-02
 0.8313477849471E-02  0.2836434907047E-02
 0.9159270026675E-02  0.2951192298586E-02
 0.1004120999126E-01  0.3060990780091E-02
 0.1095830459604E-01  0.3165587965863E-02
 0.1190944780320E-01  0.3264718641662E-02
 0.1289340360079E-01  0.3358254250302E-02
 0.1390878637206E-01  0.3446934164862E-02
 0.1495398911354E-01  0.3532010134612E-02
 0.1602711663849E-01  0.3614735573733E-02
 0.1712595367735E-01  0.3696095098887E-02
 0.1824798575455E-01  0.3776744667027E-02
 0.1939043943742E-01  0.3857098398596E-02
 0.2055035015519E-01  0.3937467687469E-02
 0.2172462275032E-01  0.4018211022165E-02
 0.2291010183776E-01  0.4099884839051E-02
 0.2410378270594E-01  0.4182545272516E-02
 0.2530296777320E-01  0.4265594740174E-02
 0.2650507787488E-01  0.4348999559128E-02
 0.2770734262047E-01  0.4433533470469E-02
 0.2890617977673E-01  0.4520883504456E-02
 0.3009637851191E-01  0.4613469770480E-02
 0.3127066904933E-01  0.4713970902731E-02
 0.2120129958802E-04  0.1367198474331E-03
 0.1002422267737E-03  0.2789835503165E-03
 0.2322993372871E-03  0.4257506076810E-03
 0.4135440710932E-03  0.5753684432596E-03
 0.6413882420986E-03  0.7260857274650E-03
 0.9142751458231E-03  0.8764084244082E-03
 0.1231315559239E-02  0.1025226363900E-02
 0.1591972393623E-02  0.1171782722325E-02
 0.1995853256272E-02  0.1315583769303E-02
 0.2442599377050E-02  0.1456310482723E-02
 0.2931834414781E-02  0.1593751557088E-02
 0.3463144622038E-02  0.1727758228017E-02
 0.4036075144913E-02  0.1858215759548E-02
 0.4650129399152E-02  0.1985024897841E-02
 0.5304768772692E-02  0.2108089789256E-02
 0.5999412346065E-02  0.2227309928006E-02
 0.6733441456056E-02  0.2342575131986E-02
 0.7506159005479E-02  0.2453755098734E-02
 0.8316846172643E-02  0.2560704708378E-02
 0.9164688103081E-02  0.2663250581280E-02
 0.1004879578541E-01  0.2761193533644E-02
 0.1096818682438E-01  0.2854307228478E-02
 0.1192176387241E-01  0.2942339934051E-02
 0.1290829647339E-01  0.3025165737847E-02
 0.1392640042995E-01  0.3103482758637E-02
 0.1497447050693E-01  0.3178471234643E-02
 0.1605061774402E-01  0.3251303833203E-02
 0.1715263873045E-01  0.3322886816752E-02
 0.1827803453553E-01  0.3393803568105E-02
 0.1942404615884E-01  0.3464399645253E-02
 0.2058771502300E-01  0.3534919486970E-02
 0.2176593290333E-01  0.3605655916194E-02
 0.2295549662777E-01  0.3677103340598E-02
 0.2415329873733E-01  0.3749298279381E-02
 0.2535645536063E-01  0.3821676764466E-02
 0.2656208927991E-01  0.3894227752173E-02
 0.2776703413438E-01  0.3967681204227E-02
 0.2896732434626E-01  0.4043540966851E-02
 0.3015761268312E-01  0.4123887042050E-02
 0.3133097102407E-01  0.4211049624743E-02
 0.1780947168201E-04  0.1222056356165E-03
 0.9361761857332E-04  0.2493502528359E-03
 0.2230264864117E-03  0.3805777872735E-03
 0.4024213961373E-03  0.5144803656437E-03
 0.6292176198921E-03  0.6495119345631E-03
 0.9017388918422E-03  0.7843001105656E-03
 0.1218940712144E-02  0.9177831500898E-03
 0.1580145227523E-02  0.1049210778232E-02
 0.1984850956506E-02  0.1178080974040E-02
 0.2432621312603E-02  0.1304066759237E-02
 0.2923027097736E-02  0.1426955108863E-02
 0.3455620001617E-02  0.1546602700990E-02
 0.4029923636664E-02  0.1662906270967E-02
 0.4645429183524E-02  0.1775782470550E-02
 0.5301592583965E-02  0.1885154259293E-02
 0.5997832618474E-02  0.1990941542672E-02
 0.6733534411266E-02  0.2093054995801E-02
 0.7508007914871E-02  0.2191385461239E-02
 0.8320544137476E-02  0.2285807580844E-02
 0.9170339965548E-02  0.2376167083074E-02
 0.1005651913035E-01  0.2462282321831E-02
 0.1097811173116E-01  0.2543942473324E-02
 0.1193403152982E-01  0.2620908283969E-02
 0.1292305697682E-01  0.2693055162480E-02
 0.1394380958530E-01  0.2761039084730E-02
 0.1499469043179E-01  0.2825968381114E-02
 0.1607382070827E-01  0.2888934944274E-02
 0.1717901148936E-01  0.2950767024845E-02
 0.1830778028149E-01  0.3011976337975E-02
 0.1945738135130E-01  0.3072841686421E-02
 0.2062485854498E-01  0.3133543478916E-02
 0.2180708434654E-01  0.3194312568708E-02
 0.2300079943156E-01  0.3255584280678E-02
 0.2420278565816E-01  0.3317373958232E-02
 0.2540997272039E-01  0.3379140620371E-02
 0.2661920669564E-01  0.3440875058423E-02
 0.2782698160718E-01  0.3503241919366E-02
 0.2902903332014E-01  0.3567566405307E-02
 0.3021993536184E-01  0.3635641634916E-02
 0.3139302812296E-01  0.3709518281003E-02
 0.1481196507663E-04  0.1077934974776E-03
 0.8774360728920E-04  0.2199702142200E-03
 0.2147609584743E-03  0.3358234574512E-03
 0.3924490513055E-03  0.4541518839221E-03
 0.6182496378315E-03  0.5735943775538E-03
 0.8904009256859E-03  0.6929005640592E-03
 0.1207730627583E-02  0.8110688657547E-03
 0.1569436431542E-02  0.9273690269366E-03
 0.1974915202004E-02  0.1041301107407E-02
 0.2423654824592E-02  0.1152536624833E-02
 0.2915173180833E-02  0.1260864264789E-02
 0.3448986565486E-02  0.1366147690960E-02
 0.4024596210258E-02  0.1468295621342E-02
 0.4641480503675E-02  0.1567240626043E-02
 0.5299089765263E-02  0.1662924293404E-02
 0.5996842677373E-02  0.1755286718439E-02
 0.6734128688861E-02  0.1844259253610E-02
 0.7510265622014E-02  0.1929753776964E-02
 0.8324555355536E-02  0.2011664638476E-02
 0.9176207762409E-02  0.2089856606357E-02
 0.1006436081688E-01  0.2164165364139E-02
 0.1098805903416E-01  0.2234395110097E-02
 0.1194622986026E-01  0.2300318219483E-02
 0.1293766404185E-01  0.2361810390226E-02
 0.1396099297438E-01  0.2419484942548E-02
 0.1501462837456E-01  0.2474378329600E-02
 0.1609670530311E-01  0.2527502090584E-02
 0.1720505180702E-01  0.2579607220432E-02
 0.1833720267337E-01  0.2631134935563E-02
 0.1949042435339E-01  0.2682299012022E-02
 0.2066175990840E-01  0.2733218088704E-02
 0.2184805727753E-01  0.2784063271631E-02
 0.2304599469198E-01  0.2835211461162E-02
 0.2425223894512E-01  0.2886652848853E-02
 0.2546353744118E-01  0.2937858031377E-02
 0.2667648249975E-01  0.2988802553572E-02
 0.2788727683577E-01  0.3040072626385E-02
 0.2909141910669E-01  0.3092826685423E-02
 0.3028343538009E-01  0.3148622949236E-02
 0.3145687145656E-01  0.3209281076893E-02
 0.1217172661681E-04  0.9346973241785E-04
 0.8255445738534E-04  0.1908096290652E-03
 0.2074268398383E-03  0.2914350589270E-03
 0.3835577234306E-03  0.3943198187164E-03
 0.6084299302263E-03  0.4982685425529E-03
 0.8802225212038E-03  0.6021499481754E-03
 0.1197659039161E-02  0.7050302225103E-03
 0.1559828232662E-02  0.8062097984996E-03
 0.1966033408323E-02  0.9052000206633E-03
 0.2415690188870E-02  0.1001677237467E-02
 0.2908264290445E-02  0.1095435604641E-02
 0.3443236346847E-02  0.1186347738220E-02
 0.4020084717819E-02  0.1274335221749E-02
 0.4638274653055E-02  0.1359346838897E-02
 0.5297250791374E-02  0.1441342822649E-02
 0.5996431980444E-02  0.1520283372889E-02
 0.6735212561928E-02  0.1596120430795E-02
 0.7512919069588E-02  0.1668786857499E-02
 0.8328865327725E-02  0.1738196687663E-02
 0.9182275511221E-02  0.1804233676676E-02
 0.1007230345392E-01  0.1866750657762E-02
 0.1099801015111E-01  0.1925566444421E-02
 0.1195833941807E-01  0.1980464375383E-02
 0.1295209769667E-01  0.2031319697994E-02
 0.1397793032031E-01  0.2078702904461E-02
 0.1503426379102E-01  0.2123578956581E-02
 0.1611925059337E-01  0.2166879803146E-02
 0.1723073815868E-01  0.2209280215685E-02
 0.1836627944739E-01  0.2251152192595E-02
 0.1952315224343E-01  0.2292646006301E-02
 0.2069839616946E-01  0.2333820089121E-02
 0.2188883050426E-01  0.2374786726166E-02
 0.2309106677775E-01  0.2415863320879E-02
 0.2430165525320E-01  0.2457009485759E-02
 0.2551716801645E-01  0.2497696414300E-02
 0.2673396588686E-01  0.2537870652291E-02
 0.2794800056584E-01  0.2578034142715E-02
 0.2915457561001E-01  0.2619190227417E-02
 0.3034818224585E-01  0.2662714828302E-02
 0.3152253001342E-01  0.2710244998948E-02
 0.9857479376079E-05  0.7922310060888E-04
 0.7799401369163E-04  0.1618404362116E-03
 0.2009575985198E-03  0.2473679626381E-03
 0.3756845440622E-03  0.3349287628006E-03
 0.5997072855221E-03  0.4234756480212E-03
 0.8711658812452E-03  0.5119915526174E-03
 0.1188699639129E-02  0.5996148971279E-03
 0.1551302698302E-02  0.6856850182944E-03
 0.1958193118595E-02  0.7697324857312E-03
 0.2408718212214E-02  0.8514444623769E-03
 0.2902292965375E-02  0.9306244568422E-03
 0.3438362603270E-02  0.1007156290379E-02
 0.4016382472345E-02  0.1080975587431E-02
 0.4635804556425E-02  0.1152047881699E-02
 0.5296067885292E-02  0.1220352247256E-02
 0.5996591808289E-02  0.1285869032623E-02
 0.6736776168532E-02  0.1348570767299E-02
 0.7515957082300E-02  0.1408411301711E-02
 0.8333461433215E-02  0.1465324370046E-02
 0.9188529079438E-02  0.1519212695776E-02
 0.1008033142958E-01  0.1569946136825E-02
 0.1100794813372E-01  0.1617357827343E-02
 0.1197034213650E-01  0.1661241603760E-02
 0.1296633896409E-01  0.1701471806804E-02
 0.1399460183726E-01  0.1738576232050E-02
 0.1505357604030E-01  0.1773449027957E-02
 0.1614143492605E-01  0.1806943570819E-02
 0.1725604771369E-01  0.1839659612835E-02
 0.1839498656990E-01  0.1871901222043E-02
 0.1955554011317E-01  0.1903756416352E-02
 0.2073474256302E-01  0.1935224317995E-02
 0.2192938163473E-01  0.1966358245985E-02
 0.2313599976036E-01  0.1997413793036E-02
 0.2435103152956E-01  0.2028313898891E-02
 0.2557088211433E-01  0.2058520190242E-02
 0.2679170176968E-01  0.2087940136467E-02
 0.2800922188231E-01  0.2116987677801E-02
 0.2921858433315E-01  0.2146531282975E-02
 0.3041422985234E-01  0.2177777705200E-02
 0.3159002280842E-01  0.2212322276022E-02
 0.7842664484382E-05  0.6504425525282E-04
 0.7401412878509E-04  0.1330390219311E-03
 0.1952949522660E-03  0.2035839119706E-03
 0.3687728353736E-03  0.2759298823498E-03
 0.5920340421878E-03  0.3491621407928E-03
 0.8631947566813E-03  0.4223718978903E-03
 0.1180826625919E-02  0.4947719687823E-03
 0.1543842109597E-02  0.5657467338956E-03
 0.1951382214323E-02  0.6348526787194E-03
 0.2402730328838E-02  0.7017932683556E-03
 0.2897252684619E-02  0.7663852098299E-03
 0.3434359807956E-02  0.8285259474026E-03
 0.4013484222605E-02  0.8881665368430E-03
 0.4634064740111E-02  0.9452899948374E-03
 0.5295534990332E-02  0.9998945892801E-03
 0.5997315241832E-02  0.1051980977066E-02
 0.6738811495504E-02  0.1101542358419E-02
 0.7519370355662E-02  0.1148553638072E-02
 0.8338332918676E-02  0.1192968309697E-02
 0.9194956166561E-02  0.1234708093785E-02
 0.1008843087824E-01  0.1273659823054E-02
 0.1101785761576E-01  0.1309670788346E-02
 0.1198222126083E-01  0.1342545063776E-02
 0.1298036979184E-01  0.1372155897488E-02
 0.1401098817423E-01  0.1398988788259E-02
 0.1507254435961E-01  0.1423867987689E-02
 0.1616323595428E-01  0.1447569504062E-02
 0.1728095642425E-01  0.1470619370337E-02
 0.1842329839708E-01  0.1493254952559E-02
 0.1958756127752E-01  0.1515502965672E-02
 0.2077077269268E-01  0.1537303524249E-02
 0.2196968709659E-01  0.1558649992885E-02
 0.2318077707907E-01  0.1579733029478E-02
 0.2440036407520E-01  0.1600432599937E-02
 0.2562469554798E-01  0.1620191861083E-02
 0.2684972908160E-01  0.1638871261364E-02
 0.2807100210756E-01  0.1656797546000E-02
 0.2928350662319E-01  0.1674713565118E-02
 0.3048165487922E-01  0.1693705020086E-02
 0.3165928297815E-01  0.1715253813221E-02
 0.6104753303356E-05  0.5092683315474E-04
 0.7057357466261E-04  0.1043934608151E-03
 0.1903881404746E-03  0.1600692631828E-03
 0.3627719673149E-03  0.2173154840886E-03
 0.5853661521837E-03  0.2753357462183E-03
 0.8562739913320E-03  0.3333231076629E-03
 0.1174012970685E-02  0.3905652115917E-03
 0.1537425280350E-02  0.4464958260168E-03
 0.1945582712982E-02  0.5007027756600E-03
 0.2397709369246E-02  0.5529106385513E-03
 0.2893125145782E-02  0.6029528990896E-03
 0.3431207013100E-02  0.6507429840796E-03
 0.4011365209573E-02  0.6962487816925E-03
 0.4633025716838E-02  0.7394715299727E-03
 0.5295617137262E-02  0.7804290132015E-03
 0.5998561171871E-02  0.8191422837437E-03
 0.6741270681391E-02  0.8556251843068E-03
 0.7523103676002E-02  0.8898735955708E-03
 0.8343416611570E-02  0.9218606728511E-03
 0.9201485019222E-02  0.9515270027822E-03
 0.1009652081894E-01  0.9787762088114E-03
 0.1102764769119E-01  0.1003469492150E-02
 0.1199387515760E-01  0.1025420891536E-02
 0.1299407683681E-01  0.1044502443715E-02
 0.1402696304947E-01  0.1061157932591E-02
 0.1509102803024E-01  0.1076142863076E-02
 0.1618449679703E-01  0.1090157289535E-02
 0.1730528940572E-01  0.1103654949297E-02
 0.1845102026478E-01  0.1116807716724E-02
 0.1961899985153E-01  0.1129581749007E-02
 0.2080624872427E-01  0.1141858054619E-02
 0.2200948757181E-01  0.1153568559855E-02
 0.2322512002017E-01  0.1164835552029E-02
 0.2444935859911E-01  0.1175490016178E-02
 0.2567830282480E-01  0.1184948974474E-02
 0.2690773471764E-01  0.1193020415105E-02
 0.2813301562964E-01  0.1199945234488E-02
 0.2934900845653E-01  0.1206353644185E-02
 0.3055004664269E-01  0.1213225812932E-02
 0.3173007692588E-01  0.1221952919813E-02
 0.4624274354495E-05  0.3686257505483E-04
 0.6763631446859E-04  0.7587848393944E-04
 0.1861918868905E-03  0.1167759329046E-03
 0.3576357139569E-03  0.1590116813131E-03
 0.5796627701024E-03  0.2018954487163E-03
 0.8503714397651E-03  0.2447156922540E-03
 0.1168236060622E-02  0.2868342440997E-03
 0.1532038549662E-02  0.3277373316185E-03
 0.1940788825242E-02  0.3670485946353E-03
 0.2393656368122E-02  0.4045180429204E-03
 0.2889917406953E-02  0.4399993913851E-03
 0.3428916777768E-02  0.4734245066982E-03
 0.4010043203749E-02  0.5047797179075E-03
 0.4632710349260E-02  0.5340854716590E-03
 0.5296342277613E-02  0.5613796488340E-03
 0.6000362714221E-02  0.5867040390592E-03
 0.6744192141520E-02  0.6100933492984E-03
 0.7527200951980E-02  0.6315646114050E-03
 0.8348762180592E-02  0.6511108033667E-03
 0.9208171429200E-02  0.6686915304847E-03
 0.1010466364850E-01  0.6842273423871E-03
 0.1103738797163E-01  0.6975934724691E-03
 0.1200538137957E-01  0.7086140678468E-03
 0.1300754641153E-01  0.7171602538527E-03
 0.1404262242846E-01  0.7236349364530E-03
 0.1510913367271E-01  0.7287261319667E-03
 0.1620533593937E-01  0.7330593634510E-03
 0.1732917857302E-01  0.7370174150832E-03
 0.1847829961752E-01  0.7407076840694E-03
 0.1965002163405E-01  0.7440361695981E-03
 0.2084135854144E-01  0.7468241824215E-03
 0.2204899776608E-01  0.7489401811847E-03
 0.2326927574123E-01  0.7504342709970E-03
 0.2449830053619E-01  0.7510826791290E-03
 0.2573203243955E-01  0.7502696447372E-03
 0.2696609047690E-01  0.7477465121344E-03
 0.2819567555607E-01  0.7436692864595E-03
 0.2941551921237E-01  0.7385676420356E-03
 0.3061990050234E-01  0.7333097143983E-03
 0.3180267720920E-01  0.7292859132615E-03
 0.3384623766154E-05  0.2284550414809E-04
 0.6517162767331E-04  0.4747897830618E-04
 0.1826673009867E-03  0.7367844012419E-04
 0.3533238845120E-03  0.1009838854437E-03
 0.5748877479026E-03  0.1288003329260E-03
 0.8454578279173E-03  0.1565053703674E-03
 0.1163474097502E-02  0.1835335995093E-03
 0.1527666805872E-02  0.2094256970789E-03
 0.1936990745228E-02  0.2338446762667E-03
 0.2390565376100E-02  0.2565697120491E-03
 0.2887626108859E-02  0.2774779197016E-03
 0.3427487321759E-02  0.2965219808466E-03
 0.4009517230768E-02  0.3137082974411E-03
 0.4633117882770E-02  0.3290775771575E-03
 0.5297709423218E-02  0.3426884498810E-03
 0.6002718280895E-02  0.3546038490823E-03
 0.6747573376239E-02  0.3648796225570E-03
 0.7531658495993E-02  0.3735541779679E-03
 0.8354364502603E-02  0.3806405298007E-03
 0.9215008619540E-02  0.3861175243099E-03
 0.1011285074722E-01  0.3899228743159E-03
 0.1104706782580E-01  0.3919461126002E-03
 0.1201672711365E-01  0.3920218296607E-03
 0.1302076332368E-01  0.3900207564853E-03
 0.1405794850308E-01  0.3863059399683E-03
 0.1512684061794E-01  0.3814992963628E-03
 0.1622572968209E-01  0.3761533122254E-03
 0.1735259723880E-01  0.3705811594981E-03
 0.1850510720857E-01  0.3648266755490E-03
 0.1968059584041E-01  0.3587358949806E-03
 0.2087607164840E-01  0.3520695500181E-03
 0.2208819026717E-01  0.3446303307438E-03
 0.2331322363019E-01  0.3363922871280E-03
 0.2454718032163E-01  0.3270714874754E-03
 0.2578588932221E-01  0.3160137111910E-03
 0.2702481772362E-01  0.3029100949542E-03
 0.2825901449366E-01  0.2878343744579E-03
 0.2948308814085E-01  0.2712172218581E-03
 0.3069123052556E-01  0.2538439110220E-03
 0.3187725904469E-01  0.2369885692530E-03
 0.2371574641046E-05  0.8870392100307E-05
 0.6315304851430E-04  0.1918163968693E-04
 0.1797805367147E-03  0.3075416622730E-04
 0.3498010078557E-03  0.4320091973588E-04
 0.5710086977948E-03  0.5601280498232E-04
 0.8415065765455E-03  0.6865060221881E-04
 0.1159707140102E-02  0.8061976985030E-04
 0.1524296284897E-02  0.9151658815434E-04
 0.1934179790160E-02  0.1010462174485E-03
 0.2388431534397E-02  0.1090201777764E-03
 0.2886249056028E-02  0.1153418446230E-03
 0.3426918147215E-02  0.1199869598447E-03
 0.4009787726981E-02  0.1229836068648E-03
 0.4634249093571E-02  0.1243938337762E-03
 0.5299719220398E-02  0.1242977159033E-03
 0.6005628002136E-02  0.1227797824570E-03
 0.6751413665469E-02  0.1199173409499E-03
 0.7536474435123E-02  0.1157704420696E-03
 0.8360220270928E-02  0.1103724010768E-03
 0.9221991586818E-02  0.1037215976496E-03
 0.1012107516624E-01  0.9577324680312E-04
 0.1105667811567E-01  0.8643159032667E-04
 0.1202790077798E-01  0.7554217935470E-04
 0.1303371326788E-01  0.6297606934850E-04
 0.1407292394209E-01  0.4905763009579E-04
 0.1514412822609E-01  0.3434417849482E-04
 0.1624565390543E-01  0.1931671880236E-04
 0.1737551788059E-01  0.4220149237931E-05
 0.1853141261014E-01 -0.1096441192158E-04
 0.1971069024364E-01 -0.2645085367664E-04
 0.2091035590865E-01 -0.4254009794809E-04
 0.2212703579146E-01 -0.5949766807640E-04
 0.2335694078855E-01 -0.7742939796803E-04
 0.2459598521339E-01 -0.9668435084510E-04
 0.2583987409092E-01 -0.1179602479918E-03
 0.2708393103303E-01 -0.1416286491467E-03
 0.2832306072857E-01 -0.1676977106952E-03
 0.2955174689776E-01 -0.1958274203618E-03
 0.3076408823935E-01 -0.2253235217446E-03
 0.3195386192684E-01 -0.2550225497233E-03
 0.1572952949922E-05 -0.5067393508437E-05
 0.6155782845252E-04 -0.9025341752990E-05
 0.1775022543767E-03 -0.1201712003030E-04
 0.3470359879212E-03 -0.1436546777714E-04
 0.5679968900480E-03 -0.1650177862805E-04
 0.8384938850437E-03 -0.1888759799943E-04
 0.1156917278770E-02 -0.2194880517128E-04
 0.1521914757000E-02 -0.2603299334891E-04
 0.1932348555317E-02 -0.3139073904985E-04
 0.2387251183432E-02 -0.3817550567388E-04
 0.2885785281691E-02 -0.4645511665907E-04
 0.3427210069530E-02 -0.5622868804661E-04
 0.4010856547312E-02 -0.6744490848195E-04
 0.4636106283063E-02 -0.8001931734129E-04
 0.5302373938361E-02 -0.9384968038702E-04
 0.6009093714162E-02 -0.1088293952763E-03
 0.6755714059155E-02 -0.1248593472210E-03
 0.7541648705911E-02 -0.1418575412678E-03
 0.8366327994864E-02 -0.1597700513269E-03
 0.9229117105364E-02 -0.1785786041495E-03
 0.1012933163722E-01 -0.1983100442553E-03
 0.1106621121387E-01 -0.2190448743169E-03
 0.1203889205084E-01 -0.2409258929756E-03
 0.1304638287016E-01 -0.2640808135199E-03
 0.1408753195324E-01 -0.2882226128712E-03
 0.1516097596462E-01 -0.3128569721846E-03
 0.1626508415568E-01 -0.3375727599270E-03
 0.1739791222145E-01 -0.3621920063501E-03
 0.1855718426400E-01 -0.3867955186152E-03
 0.1974027116154E-01 -0.4116571641042E-03
 0.2094417742720E-01 -0.4371407036602E-03
 0.2216550293674E-01 -0.4635823668589E-03
 0.2340040163270E-01 -0.4911715762396E-03
 0.2464469893188E-01 -0.5203271351177E-03
 0.2589398244546E-01 -0.5517946428340E-03
 0.2714343926224E-01 -0.5860108101511E-03
 0.2838783425511E-01 -0.6230643641777E-03
 0.2962152480054E-01 -0.6627029327965E-03
 0.3083851102539E-01 -0.7043224369405E-03
 0.3203251236975E-01 -0.7468525404856E-03
 0.9783739609374E-06 -0.1897199982329E-04
 0.6036649091342E-04 -0.3715254468094E-04
 0.1758071627845E-03 -0.5465366013469E-04
 0.3450017861810E-03 -0.7174104607609E-04
 0.5658271316727E-03 -0.8877549366559E-04
 0.8363987730276E-03 -0.1061459281066E-03
 0.1155088768726E-02 -0.1242118857134E-03
 0.1520511685907E-02 -0.1432647741071E-03
 0.1931491057579E-02 -0.1635093321260E-03
 0.2387021973502E-02 -0.1850617914281E-03
 0.2886235124350E-02 -0.2079589486355E-03
 0.3428365266427E-02 -0.2321728812791E-03
 0.4012726995911E-02 -0.2576275965337E-03
 0.4638693298844E-02 -0.2842151864608E-03
 0.5305677487872E-02 -0.3118105526913E-03
 0.6013118981084E-02 -0.3402845365018E-03
 0.6760477406339E-02 -0.3695158539622E-03
 0.7547183093064E-02 -0.3994002405159E-03
 0.8372688049489E-02 -0.4298628100347E-03
 0.9236383789431E-02 -0.4608649727625E-03
 0.1013761664875E-01 -0.4924151003409E-03
 0.1107566109732E-01 -0.5245777636966E-03
 0.1204969198555E-01 -0.5574832594637E-03
 0.1305875982760E-01 -0.5912569869185E-03
 0.1410175644899E-01 -0.6256478016772E-03
 0.1517736359733E-01 -0.6602226869853E-03
 0.1628399584945E-01 -0.6946387160551E-03
 0.1741975143474E-01 -0.7287834790307E-03
 0.1858238966505E-01 -0.7627989269369E-03
 0.1976930359057E-01 -0.7970189992753E-03
 0.2097750060718E-01 -0.8318715156553E-03
 0.2220355814160E-01 -0.8677658758315E-03
 0.2344357779609E-01 -0.9049786421304E-03
 0.2469330151239E-01 -0.9440026102757E-03
 0.2594820536373E-01 -0.9856352483153E-03
 0.2720334530222E-01 -0.1030380531171E-02
 0.2845334893673E-01 -0.1078407076554E-02
 0.2969244500831E-01 -0.1129547784398E-02
 0.3091452674985E-01 -0.1183283278742E-02
 0.3211323286265E-01 -0.1238621806472E-02
 0.5790266262968E-06 -0.3284717020798E-04
 0.5956246110822E-04 -0.6520951132649E-04
 0.1746736271708E-03 -0.9717199280066E-04
 0.3436751310873E-03 -0.1289494056032E-03
 0.5644776313299E-03 -0.1608380798892E-03
 0.8352030832737E-03 -0.1931588952742E-03
 0.1154208117228E-02 -0.2262073758207E-03
 0.1520078344814E-02 -0.2602190130092E-03
 0.1931602841451E-02 -0.2953515716361E-03
 0.2387742941398E-02 -0.3316822387127E-03
 0.2887600270018E-02 -0.3692148611149E-03
 0.3430387289059E-02 -0.4078927800933E-03
 0.4015403812780E-02 -0.4476139850449E-03
 0.4642015504115E-02 -0.4882461495400E-03
 0.5309635379945E-02 -0.5296406378376E-03
 0.6017709048107E-02 -0.5716452652828E-03
 0.6765708306673E-02 -0.6141162178854E-03
 0.7553081181816E-02 -0.6569266235755E-03
 0.8379302630512E-02 -0.6999802565926E-03
 0.9243792051785E-02 -0.7432177323298E-03
 0.1014592841008E-01 -0.7866283305459E-03
 0.1108502331807E-01 -0.8302598934975E-03
 0.1206029298996E-01 -0.8742292123793E-03
 0.1307083289670E-01 -0.9186581243387E-03
 0.1411558204079E-01 -0.9633297656609E-03
 0.1519327117689E-01 -0.1007870632285E-02
 0.1630236425076E-01 -0.1052004267157E-02
 0.1744100608569E-01 -0.1095682406379E-02
 0.1860699524077E-01 -0.1139107336920E-02
 0.1979775099317E-01 -0.1182673148241E-02
 0.2101028781700E-01 -0.1226872908470E-02
 0.2224116522376E-01 -0.1272191567870E-02
 0.2348643755119E-01 -0.1318996203476E-02
 0.2474176871283E-01 -0.1367857569622E-02
 0.2600252849798E-01 -0.1419628675263E-02
 0.2726364580112E-01 -0.1474882797817E-02
 0.2851961202768E-01 -0.1533868209996E-02
 0.2976452356880E-01 -0.1596500530085E-02
 0.3099215593304E-01 -0.1662338746765E-02
 0.3219604463748E-01 -0.1730460256747E-02
 0.3674958834322E-06 -0.4669631172119E-04
 0.5913175770575E-04 -0.9320492038163E-04
 0.1740833347088E-03 -0.1395872278831E-03
 0.3430362585230E-03 -0.1860122861182E-03
 0.5639298653563E-03 -0.2327172605058E-03
 0.8348914675304E-03 -0.2799590821078E-03
 0.1154264150418E-02 -0.3279715231025E-03
 0.1520607919771E-02 -0.3769346480980E-03
 0.1932681085144E-02 -0.4269584593197E-03
 0.2389414600493E-02 -0.4780796354673E-03
 0.2889883820212E-02 -0.5302674357708E-03
 0.3433281109705E-02 -0.5834349723069E-03
 0.4018893206818E-02 -0.6374530161894E-03
 0.4646079802893E-02 -0.6921639374521E-03
 0.5314254749760E-02 -0.7473949434847E-03
 0.6022870869778E-02 -0.8029703867730E-03
 0.6771413147547E-02 -0.8587235788546E-03
 0.7559348407499E-02 -0.9145047021707E-03
 0.8386175819188E-02 -0.9701957915943E-03
 0.9251344186677E-02 -0.1025716143029E-02
 0.1015426695510E-01 -0.1081035247897E-02
 0.1109429513127E-01 -0.1136183312057E-02
 0.1207068898143E-01 -0.1191262476548E-02
 0.1308259207667E-01 -0.1246389611994E-02
 0.1412899424898E-01 -0.1301380412127E-02
 0.1520867927523E-01 -0.1355919000264E-02
 0.1632016471103E-01 -0.1409793574263E-02
 0.1746164636461E-01 -0.1463018531176E-02
 0.1863096655733E-01 -0.1515855619651E-02
 0.1982557545501E-01 -0.1568759088702E-02
 0.2104249948343E-01 -0.1622288358809E-02
 0.2227828540946E-01 -0.1677006184677E-02
 0.2352894580998E-01 -0.1733373355140E-02
 0.2479007204433E-01 -0.1792042313674E-02
 0.2605693233576E-01 -0.1853925074190E-02
 0.2732433152407E-01 -0.1919666304617E-02
 0.2858662453744E-01 -0.1989593988959E-02
 0.2983777018497E-01 -0.2063704022709E-02
 0.3107141402859E-01 -0.2141628376757E-02
 0.3228096815425E-01 -0.2222507950366E-02
 0.3376153761125E-06 -0.6052254703044E-04
 0.5906273476037E-04 -0.1211467171461E-03
 0.1740210077935E-03 -0.1819132488408E-03
 0.3430686787945E-03 -0.2429498108901E-03
 0.5641684438001E-03 -0.3044389526725E-03
 0.8354513521910E-03 -0.3665772881915E-03
 0.1155248050101E-02 -0.4295389696040E-03
 0.1522095580975E-02 -0.4934492571244E-03
 0.1934724676174E-02 -0.5583698720786E-03
 0.2392039002104E-02 -0.6242958205024E-03
 0.2893090331385E-02 -0.6911604005295E-03
 0.3437053139090E-02 -0.7588452084322E-03
 0.4023202854990E-02 -0.8271927464382E-03
 0.4650894626683E-02 -0.8960193015481E-03
 0.5319544336724E-02 -0.9651273786228E-03
 0.6028613088772E-02 -0.1034317481428E-02
 0.6777600086091E-02 -0.1103399735096E-02
 0.7565992044448E-02 -0.1172201052126E-02
 0.8393313581193E-02 -0.1240581319953E-02
 0.9259044381407E-02 -0.1308437954948E-02
 0.1016263416914E-01 -0.1375719897093E-02
 0.1110347553963E-01 -0.1442438708318E-02
 0.1208087544995E-01 -0.1508680604043E-02
 0.1309402869029E-01 -0.1574555935800E-02
 0.1414197959673E-01 -0.1639911109097E-02
 0.1522356908139E-01 -0.1704485888096E-02
 0.1633737275601E-01 -0.1768131215130E-02
 0.1748164214333E-01 -0.1830922563957E-02
 0.1865426832219E-01 -0.1893180163669E-02
 0.1985273761115E-01 -0.1955418314583E-02
 0.2107409392558E-01 -0.2018263758199E-02
 0.2231487707663E-01 -0.2082359148808E-02
 0.2357106380388E-01 -0.2148262010232E-02
 0.2483817844321E-01 -0.2216710021561E-02
 0.2611139194006E-01 -0.2288677554609E-02
 0.2738538718650E-01 -0.2364882875947E-02
 0.2865438116169E-01 -0.2445734058854E-02
 0.2991218856025E-01 -0.2531305366594E-02
 0.3115231214390E-01 -0.2621297829643E-02
 0.3236802248021E-01 -0.2714912620745E-02
 0.4843448278899E-06 -0.7432875681497E-04
 0.5934586522548E-04 -0.1490422214682E-03
 0.1744741587845E-03 -0.2241628843521E-03
 0.3437589698847E-03 -0.2997806920813E-03
 0.5651809823075E-03 -0.3760274628113E-03
 0.8368728935843E-03 -0.4530426767881E-03
 0.1157153372080E-02 -0.5309428284639E-03
 0.1524538534806E-02 -0.6097990606058E-03
 0.1937734271071E-02 -0.6896244995458E-03
 0.2395619785733E-02 -0.7703715679405E-03
 0.2897225847675E-02 -0.8519364722855E-03
 0.3441711240533E-02 -0.9341682108002E-03
 0.4028341900943E-02 -0.1016880126756E-02
 0.4656469922643E-02 -0.1099861766938E-02
 0.5325514467803E-02 -0.1182890480400E-02
 0.6034946019775E-02 -0.1265742605280E-02
 0.6784279038453E-02 -0.1348204817077E-02
 0.7573021204853E-02 -0.1430080461887E-02
 0.8400723778726E-02 -0.1511206876416E-02
 0.9266898745014E-02 -0.1591459014486E-02
 0.1017103383727E-01 -0.1670764447103E-02
 0.1111256536363E-01 -0.1749114996929E-02
 0.1209084955143E-01 -0.1826579558333E-02
 0.1310513549865E-01 -0.1903260270507E-02
 0.1415452574098E-01 -0.1979032283911E-02
 0.1523792253864E-01 -0.2053688908582E-02
 0.1635396421411E-01 -0.2127141807483E-02
 0.1750096307503E-01 -0.2199525818033E-02
 0.1867686443338E-01 -0.2271218520960E-02
 0.1987919662377E-01 -0.2342793994560E-02
 0.2110502724818E-01 -0.2414947090566E-02
 0.2235089556719E-01 -0.2488402272638E-02
 0.2361274884086E-01 -0.2563816655618E-02
 0.2488605002291E-01 -0.2642016565324E-02
 0.2616587675359E-01 -0.2724042051899E-02
 0.2744679134539E-01 -0.2810687379878E-02
 0.2872287032446E-01 -0.2902441521917E-02
 0.2998777670616E-01 -0.2999455987383E-02
 0.3123485733020E-01 -0.3101498369417E-02
 0.3245722470072E-01 -0.3207828323914E-02
 0.8036676885023E-06 -0.8811761645085E-04
 0.5997355962159E-04 -0.1768982250202E-03
 0.1754328817177E-03 -0.2663480702218E-03
 0.3450965974026E-03 -0.3565224386886E-03
 0.5669579854586E-03 -0.4475057092177E-03
 0.8391489319232E-03 -0.5393829827896E-03
 0.1159976056568E-02 -0.6322148601252E-03
 0.1527936067468E-02 -0.7260190634753E-03
 0.1941712350269E-02 -0.8207599587340E-03
 0.2400162229816E-02 -0.9163466871855E-03
 0.2902297939727E-02 -0.1012637454821E-02
 0.3447264755208E-02 -0.1109447780011E-02
 0.4034320969120E-02 -0.1206561125500E-02
 0.4662817161072E-02 -0.1303739777491E-02
 0.5332177063733E-02 -0.1400735585358E-02
 0.6041881659803E-02 -0.1497300490842E-02
 0.6791461699212E-02 -0.1593197521506E-02
 0.7580446871856E-02 -0.1688206203596E-02
 0.8408416221508E-02 -0.1782140938677E-02
 0.9274915381108E-02 -0.1874853625602E-02
 0.1017947174257E-01 -0.1966249607774E-02
 0.1112156736814E-01 -0.2056299798201E-02
 0.1210061026409E-01 -0.2145054265814E-02
 0.1311590688622E-01 -0.2232605110641E-02
 0.1416662168158E-01 -0.2318854140543E-02
 0.1525172256843E-01 -0.2403645999631E-02
 0.1636991544159E-01 -0.2486950915349E-02
 0.1751957880329E-01 -0.2568961216709E-02
 0.1869871815318E-01 -0.2650110519451E-02
 0.1990491030382E-01 -0.2731032196025E-02
 0.2113525340280E-01 -0.2812489776956E-02
 0.2238629319456E-01 -0.2895291235927E-02
 0.2365395428668E-01 -0.2980195974459E-02
 0.2493364407503E-01 -0.3068122283377E-02
 0.2622035067139E-01 -0.3160179246022E-02
 0.2750851659056E-01 -0.3257239793294E-02
 0.2879207454454E-01 -0.3359875150176E-02
 0.3006452748745E-01 -0.3468313843894E-02
 0.3131905302949E-01 -0.3582388755879E-02
 0.3254858990075E-01 -0.3701417071423E-02
 0.1292505495735E-05 -0.1018916243781E-03
 0.6094001324312E-04 -0.2047210619851E-03
 0.1768896735821E-03 -0.3084799612836E-03
 0.3470737545124E-03 -0.4131914897691E-03
 0.5694927350332E-03 -0.5188953450381E-03
 0.8422749355116E-03 -0.6256245936681E-03
 0.1163714417977E-02 -0.7333854880491E-03
 0.1532289561397E-02 -0.8421429936810E-03
 0.1946663242162E-02 -0.9518126528350E-03
 0.2405673269402E-02 -0.1062259804331E-02
 0.2908315708349E-02 -0.1173303946656E-02
 0.3453724489687E-02 -0.1284726432242E-02
 0.4041152137985E-02 -0.1396280296564E-02
 0.4669949298409E-02 -0.1507700194591E-02
 0.5339545596893E-02 -0.1618712257531E-02
 0.6049433646271E-02 -0.1729043902830E-02
 0.6799161504837E-02 -0.1838434393138E-02
 0.7588281873237E-02 -0.1946639240162E-02
 0.8416402655143E-02 -0.2053449559976E-02
 0.9283104394938E-02 -0.2158693609592E-02
 0.1018795569532E-01 -0.2262253619779E-02
 0.1113048631598E-01 -0.2364078362408E-02
 0.1211015846663E-01 -0.2464197479486E-02
 0.1312633896090E-01 -0.2562691078972E-02
 0.1417825787604E-01 -0.2659485418171E-02
 0.1526495318825E-01 -0.2754474137912E-02
 0.1638520342628E-01 -0.2847683722440E-02
 0.1753745903035E-01 -0.2939361930986E-02
 0.1871979211765E-01 -0.3029996870056E-02
 0.1992983504040E-01 -0.3120280467496E-02
 0.2116472402327E-01 -0.3211045240431E-02
 0.2242101898501E-01 -0.3303184140193E-02
 0.2369462922968E-01 -0.3397561393881E-02
 0.2498091269167E-01 -0.3495190517369E-02
 0.2627477166245E-01 -0.3597253074905E-02
 0.2757052920799E-01 -0.3704703676025E-02
 0.2886197017272E-01 -0.3818197776917E-02
 0.3014242838953E-01 -0.3938041603613E-02
 0.3140489867061E-01 -0.4064133060642E-02
 0.3264213046730E-01 -0.4195846403211E-02
 0.1948646469549E-05 -0.1156531291397E-03
 0.6224107900366E-04 -0.2325166819676E-03
 0.1788392848449E-03 -0.3505690564367E-03
 0.3496852267207E-03 -0.4698033826038E-03
 0.5727811944951E-03 -0.5902169500788E-03
 0.8462489529294E-03 -0.7117927438151E-03
 0.1168369137886E-02 -0.8344839802442E-03
 0.1537602514270E-02 -0.9582034643806E-03
 0.1952593152591E-02 -0.1082817915416E-02
 0.2412161524221E-02 -0.1208148494627E-02
 0.2915289804435E-02 -0.1333975469983E-02
 0.3461102725822E-02 -0.1460045532727E-02
 0.4048848941520E-02 -0.1586080924303E-02
 0.4677880774158E-02 -0.1711788459096E-02
 0.5347635088581E-02 -0.1836868471890E-02
 0.6057617259945E-02 -0.1961023846918E-02
 0.6807393647621E-02 -0.2083970062499E-02
 0.7596540911481E-02 -0.2205438495902E-02
 0.8424696812296E-02 -0.2325196677291E-02
 0.9291477970393E-02 -0.2443048656338E-02
 0.1019649563999E-01 -0.2558852655454E-02
 0.1113932910823E-01 -0.2672534027660E-02
 0.1211949711332E-01 -0.2784100302070E-02
 0.1313642976242E-01 -0.2893617523632E-02
 0.1418942647637E-01 -0.3001034071425E-02
 0.1527759976709E-01 -0.3106290111683E-02
 0.1639980604802E-01 -0.3209465907358E-02
 0.1755457376497E-01 -0.3310862367352E-02
 0.1874004855293E-01 -0.3411020277711E-02
 0.1995392596884E-01 -0.3510689083845E-02
 0.2119338853633E-01 -0.3610770295981E-02
 0.2245501873458E-01 -0.3712243051684E-02
 0.2373471850385E-01 -0.3816078784391E-02
 0.2502780278926E-01 -0.3923389463444E-02
 0.2632909183741E-01 -0.4035432724770E-02
 0.2763278933381E-01 -0.4153248278117E-02
 0.2893252765318E-01 -0.4277578471852E-02
 0.3022146184117E-01 -0.4408808799009E-02
 0.3149238992962E-01 -0.4546902763086E-02
 0.3273785627531E-01 -0.4691291544449E-02
 0.2770686072418E-05 -0.1294043515797E-03
 0.6387416129572E-04 -0.2602907067468E-03
 0.1812785931571E-03 -0.3926252925243E-03
 0.3529282746762E-03 -0.5263728733634E-03
 0.5768219216441E-03 -0.6614901583842E-03
 0.8510715625344E-03 -0.7979116265165E-03
 0.1173943246143E-02 -0.9355385267934E-03
 0.1543880539635E-02 -0.1074232005036E-02
 0.1959510171847E-02 -0.1213809989895E-02
 0.2419637301653E-02 -0.1354049209995E-02
 0.2923232421901E-02 -0.1494690348379E-02
 0.3469413201874E-02 -0.1635445126422E-02
 0.4057426340065E-02 -0.1776004809521E-02
 0.4686627475107E-02 -0.1916048334158E-02
 0.5356462071442E-02 -0.2055250314785E-02
 0.6066449390908E-02 -0.2193289228116E-02
 0.6816175050645E-02 -0.2329856862471E-02
 0.7605240553146E-02 -0.2464660431955E-02
 0.8433314421691E-02 -0.2597443646942E-02
 0.9300050403526E-02 -0.2727985822515E-02
 0.1020510371766E-01 -0.2856120283205E-02
 0.1114810487847E-01 -0.2981747655415E-02
 0.1212863136108E-01 -0.3104851598815E-02
 0.1314617942031E-01 -0.3225481915659E-02
 0.1420012151154E-01 -0.3343606661237E-02
 0.1528964922159E-01 -0.3459209914564E-02
 0.1641370227235E-01 -0.3572423050930E-02
 0.1757089349355E-01 -0.3683597600154E-02
 0.1875944940146E-01 -0.3793324910649E-02
 0.1997713703111E-01 -0.3902410563833E-02
 0.2122119414146E-01 -0.4011824725650E-02
 0.2248823490481E-01 -0.4122633639093E-02
 0.2377416251175E-01 -0.4235918158092E-02
 0.2507425588419E-01 -0.4352891919761E-02
 0.2638325721218E-01 -0.4474892406198E-02
 0.2769525074038E-01 -0.4603048312067E-02
 0.2900371134515E-01 -0.4738192259125E-02
 0.3030160503701E-01 -0.4880791435031E-02
 0.3158151848908E-01 -0.5030876246956E-02
 0.3283577441843E-01 -0.5187934888505E-02
 0.3757978012474E-05 -0.1431474052737E-03
 0.6583812872653E-04 -0.2880484829707E-03
 0.1842064990974E-03 -0.4346581330306E-03
 0.3568025362283E-03 -0.5829140546347E-03
 0.5816159937451E-03 -0.7327337887451E-03
 0.8567458265713E-03 -0.8840045182938E-03
 0.1180442099980E-02 -0.1036576340962E-02
 0.1551131361314E-02 -0.1190259127468E-02
 0.1967424273551E-02 -0.1344822054541E-02
 0.2428112591475E-02 -0.1499997261565E-02
 0.2932157283305E-02 -0.1655485648225E-02
 0.3478671087730E-02 -0.1810963840810E-02
 0.4066900686784E-02 -0.1966092136155E-02
 0.4696206696681E-02 -0.2120521737800E-02
 0.5366044550511E-02 -0.2273901783787E-02
 0.6075948504682E-02 -0.2425886618796E-02
 0.6825524344595E-02 -0.2576144565249E-02
 0.7614399222047E-02 -0.2724358753160E-02
 0.8442273223260E-02 -0.2870248922935E-02
 0.9308838145058E-02 -0.3013569183850E-02
 0.1021379434056E-01 -0.3154127097322E-02
 0.1115682510319E-01 -0.3291797242889E-02
 0.1213756871734E-01 -0.3426537599121E-02
 0.1315559033755E-01 -0.3558379448159E-02
 0.1421033910151E-01 -0.3687307961593E-02
 0.1530109025009E-01 -0.3813348371693E-02
 0.1642687238918E-01 -0.3936680295241E-02
 0.1758638940347E-01 -0.4057703078260E-02
 0.1877795650737E-01 -0.4177056169838E-02
 0.1999942110117E-01 -0.4295599516338E-02
 0.2124808585933E-01 -0.4414371212219E-02
 0.2252060658743E-01 -0.4534525199291E-02
 0.2381289711219E-01 -0.4657253782434E-02
 0.2512020792469E-01 -0.4783875474061E-02
 0.2643720751532E-01 -0.4915811591103E-02
 0.2775786065120E-01 -0.5054284204499E-02
 0.2907547936050E-01 -0.5200220341238E-02
 0.3038282978259E-01 -0.5354172154138E-02
 0.3167227186967E-01 -0.5516238926981E-02
 0.3293588907833E-01 -0.5685966163276E-02
 0.4910594491347E-05 -0.1568843164029E-03
 0.6813324399564E-04 -0.3157951347185E-03
 0.1876238427255E-03 -0.4766766591977E-03
 0.3613099480093E-03 -0.6394404816201E-03
 0.5871669472663E-03 -0.8039659945408E-03
 0.8632772536662E-03 -0.9700939372230E-03
 0.1187873366008E-02 -0.1137623811710E-02
 0.1559364807055E-02 -0.1306314462268E-02
 0.1976347311165E-02 -0.1475886337445E-02
 0.2437601058235E-02 -0.1646026912224E-02
 0.2942079624192E-02 -0.1816397250781E-02
 0.3488892960454E-02 -0.1986638940920E-02
 0.4077289696243E-02 -0.2156381513036E-02
 0.4706637108153E-02 -0.2325248774912E-02
 0.5376401969755E-02 -0.2492864812870E-02
 0.6086134615386E-02 -0.2658860279477E-02
 0.6835461853163E-02 -0.2822880400861E-02
 0.7624037202681E-02 -0.2984584426424E-02
 0.8451592995464E-02 -0.3143668077692E-02
 0.9317859857337E-02 -0.3299859861460E-02
 0.1022258428411E-01 -0.3452940754288E-02
 0.1116550373300E-01 -0.3602757975106E-02
 0.1214631921296E-01 -0.3749241971910E-02
 0.1316466740490E-01 -0.3892403144677E-02
 0.1422007770859E-01 -0.4032241112884E-02
 0.1531191361194E-01 -0.4168819352442E-02
 0.1643929830602E-01 -0.4302362632418E-02
 0.1760103367148E-01 -0.4433315008328E-02
 0.1879553187797E-01 -0.4562361185573E-02
 0.2002073019728E-01 -0.4690413267456E-02
 0.2127400667665E-01 -0.4818576109552E-02
 0.2255206957254E-01 -0.4948091576093E-02
 0.2385085361568E-01 -0.5080265242484E-02
 0.2516558923207E-01 -0.5216523693399E-02
 0.2649087610594E-01 -0.5358376303470E-02
 0.2782055966922E-01 -0.5507143454045E-02
 0.2914778352646E-01 -0.5663851490566E-02
 0.3046510249869E-01 -0.5829141647583E-02
 0.3176463348685E-01 -0.6003184709460E-02
 0.3303820168935E-01 -0.6185584006232E-02
 0.6229294589281E-05 -0.1706170413778E-03
 0.7076110838730E-04 -0.3435356069031E-03
 0.1915333372303E-03 -0.5186896417649E-03
 0.3664546817814E-03 -0.6959652663692E-03
 0.5934807262051E-03 -0.8752043671243E-03
 0.8706737617970E-03 -0.1056201738035E-02
 0.1196246994532E-02 -0.1238706573040E-02
 0.1568592787452E-02 -0.1422426787943E-02
 0.1986292994350E-02 -0.1607034095401E-02
 0.2448118009562E-02 -0.1792171299343E-02
 0.2953016150558E-02 -0.1977459716041E-02
 0.3500096750887E-02 -0.2162506133466E-02
 0.4088612382390E-02 -0.2346909718250E-02
 0.4717938685871E-02 -0.2530267421806E-02
 0.5387555145438E-02 -0.2712178896772E-02
 0.6097029224764E-02 -0.2892251722210E-02
 0.6846009543606E-02 -0.3070108558502E-02
 0.7634176608454E-02 -0.3245385118986E-02
 0.8461295547435E-02 -0.3417753176626E-02
 0.9327136436599E-02 -0.3586915332982E-02
 0.1023149274498E-01 -0.3752625221980E-02
 0.1117415729136E-01 -0.3914701415532E-02
 0.1215489554428E-01 -0.4073044963340E-02
 0.1317341818599E-01 -0.4227642952449E-02
 0.1422933836117E-01 -0.4378506682213E-02
 0.1532211238030E-01 -0.4525734812537E-02
 0.1645096381437E-01 -0.4669593946379E-02
 0.1761479972219E-01 -0.4810569416346E-02
 0.1881213790823E-01 -0.4949387919681E-02
 0.2004101564415E-01 -0.5087011022269E-02
 0.2129889761966E-01 -0.5224608677321E-02
 0.2258255631440E-01 -0.5363510472174E-02
 0.2388795863580E-01 -0.5505136822303E-02
 0.2521032424635E-01 -0.5651025554544E-02
 0.2654418963650E-01 -0.5802778567571E-02
 0.2788328138818E-01 -0.5961820060820E-02
 0.2922056897506E-01 -0.6129281428971E-02
 0.3054838381268E-01 -0.6305897976319E-02
 0.3185858227514E-01 -0.6491915281200E-02
 0.3314271065201E-01 -0.6686995271471E-02
 0.7715500348385E-05 -0.1843474858156E-03
 0.7372462108003E-04 -0.3712747147520E-03
 0.1959395216908E-03 -0.5607056272263E-03
 0.3722431004784E-03 -0.7525011996264E-03
 0.6005656475828E-03 -0.9464660849665E-03
 0.8789456543200E-03 -0.1142349275938E-02
 0.1205575202821E-02 -0.1339849669181E-02
 0.1578829280921E-02 -0.1538624186434E-02
 0.1997276870067E-02 -0.1738295752559E-02
 0.2459680369433E-02 -0.1938462553394E-02
 0.2964985002668E-02 -0.2138706381350E-02
 0.3512301698702E-02 -0.2338599647539E-02
 0.4100889007410E-02 -0.2537711764905E-02
 0.4730132659781E-02 -0.2735613580126E-02
 0.5399526215050E-02 -0.2931881135718E-02
 0.6108655278826E-02 -0.3126099748156E-02
 0.6857190996865E-02 -0.3317870218530E-02
 0.7644841371384E-02 -0.3506805226118E-02
 0.8471404734689E-02 -0.3692552802972E-02
 0.9336691061267E-02 -0.3874789456526E-02
 0.1024054142843E-01 -0.4053240805879E-02
 0.1118280500665E-01 -0.4227695539377E-02
 0.1216331325420E-01 -0.4398023444466E-02
 0.1318185314892E-01 -0.4564185814772E-02
 0.1423812493365E-01 -0.4726202774410E-02
 0.1533168226334E-01 -0.4884204961543E-02
 0.1646185493932E-01 -0.5038497258470E-02
 0.1762766258714E-01 -0.5189602496067E-02
 0.1882773772478E-01 -0.5338285642437E-02
 0.2006022837402E-01 -0.5485554493811E-02
 0.2132269798528E-01 -0.5632641879422E-02
 0.2261199607173E-01 -0.5780964423936E-02
 0.2392413412993E-01 -0.5932058649926E-02
 0.2525433147547E-01 -0.6087576738882E-02
 0.2659706793641E-01 -0.6249217821870E-02
 0.2794595224968E-01 -0.6418516025354E-02
 0.2929377401834E-01 -0.6596714387026E-02
 0.3063262849717E-01 -0.6784648189314E-02
 0.3195409274091E-01 -0.6982641816220E-02
 0.3324941155796E-01 -0.7190416871960E-02
 0.9371279872546E-05 -0.1980775227709E-03
 0.7702795142305E-04 -0.3990171887036E-03
 0.2008487297070E-03 -0.6027330133213E-03
 0.3786837290711E-03 -0.8090608537484E-03
 0.6084323771849E-03 -0.1017768033870E-02
 0.8881055994824E-03 -0.1228557529401E-02
 0.1215872454502E-02 -0.1441077664002E-02
 0.1590090308032E-02 -0.1654934124993E-02
 0.2009316287567E-02 -0.1869700944198E-02
 0.2472306631301E-02 -0.2084931797024E-02
 0.2978005695926E-02 -0.2300169312579E-02
 0.3525528282600E-02 -0.2514952137018E-02
 0.4114141004358E-02 -0.2728820755057E-02
 0.4743241432698E-02 -0.2941320882829E-02
 0.5412338558160E-02 -0.3152005993624E-02
 0.6121037095758E-02 -0.3360440157635E-02
 0.6869031348440E-02 -0.3566203213382E-02
 0.7656057202314E-02 -0.3768885481655E-02
 0.8481946445445E-02 -0.3968111616736E-02
 0.9346549211431E-02 -0.4163531977483E-02
 0.1024975460799E-01 -0.4354843604418E-02
 0.1119146891845E-01 -0.4541804140159E-02
 0.1217159089002E-01 -0.4724250274537E-02
 0.1318998587813E-01 -0.4902115000254E-02
 0.1424644441088E-01 -0.5075424340819E-02
 0.1534062191460E-01 -0.5244337569543E-02
 0.1647196028252E-01 -0.5409194055156E-02
 0.1763959925973E-01 -0.5570549984752E-02
 0.1884229552466E-01 -0.5729204385104E-02
 0.2007831921565E-01 -0.5886207459229E-02
 0.2134534554478E-01 -0.6042852063799E-02
 0.2264031499492E-01 -0.6200640613267E-02
 0.2395929735019E-01 -0.6361226633964E-02
 0.2529752330841E-01 -0.6526379670995E-02
 0.2664942370732E-01 -0.6697901024981E-02
 0.2800849116088E-01 -0.6877441484944E-02
 0.2936732974203E-01 -0.7066363244609E-02
 0.3071778510030E-01 -0.7265608465657E-02
 0.3205113469322E-01 -0.7475585143548E-02
 0.3335829708223E-01 -0.7696076012875E-02
 0.1119933731837E-04 -0.2118090122010E-03
 0.8067652447578E-04 -0.4267677227310E-03
 0.2062690752133E-03 -0.6447801312734E-03
 0.3857872430685E-03 -0.8656566971034E-03
 0.6170939201705E-03 -0.1089126944822E-02
 0.8981686199679E-03 -0.1314847247919E-02
 0.1227155443547E-02 -0.1542414783560E-02
 0.1602393905606E-02 -0.1771383579892E-02
 0.2022430359631E-02 -0.2001278611373E-02
 0.2486016805411E-02 -0.2231609204452E-02
 0.2992099055150E-02 -0.2461879325634E-02
 0.3539798143999E-02 -0.2691594663987E-02
 0.4128390893873E-02 -0.2920267826111E-02
 0.4757288494436E-02 -0.3147420604874E-02
 0.5426016712870E-02 -0.3372585173979E-02
 0.6134200290075E-02 -0.3595305591308E-02
 0.6881557226108E-02 -0.3815141833446E-02
 0.7667851548588E-02 -0.4031662727371E-02
 0.8492948585236E-02 -0.4244470086310E-02
 0.9356738687862E-02 -0.4453188221533E-02
 0.1025915918656E-01 -0.4657485163686E-02
 0.1120017398822E-01 -0.4857086448440E-02
 0.1217975017015E-01 -0.5051793889138E-02
 0.1319783330130E-01 -0.5241509669866E-02
 0.1425430717587E-01 -0.5426262739690E-02
 0.1534893327690E-01 -0.5606237540958E-02
 0.1648127141100E-01 -0.5781803901149E-02
 0.1765058910914E-01 -0.5953546846427E-02
 0.1885577698596E-01 -0.6122294726795E-02
 0.2009523926522E-01 -0.6289135682224E-02
 0.2136677683462E-01 -0.6455419045440E-02
 0.2266743629857E-01 -0.6622731123141E-02
 0.2399336087067E-01 -0.6792842886607E-02
 0.2533980588972E-01 -0.6967644085961E-02
 0.2670116226433E-01 -0.7149043331031E-02
 0.2807080914860E-01 -0.7338815458581E-02
 0.2944115964009E-01 -0.7538450318902E-02
 0.3080379563906E-01 -0.7749004942846E-02
 0.3214967307544E-01 -0.7970976638668E-02
 0.3346935701927E-01 -0.8204211184526E-02
 0.1320300965688E-04 -0.2255438217172E-03
 0.8467701960181E-04 -0.4545310252671E-03
 0.2122104551972E-03 -0.6868553320975E-03
 0.3935664742781E-03 -0.9223012141332E-03
 0.6265656259192E-03 -0.1160559539050E-02
 0.9091520913860E-03 -0.1401239108203E-02
 0.1239443081092E-02 -0.1643885067751E-02
 0.1615760098016E-02 -0.1887999169205E-02
 0.2036639916603E-02 -0.2133057103990E-02
 0.2500832355997E-02 -0.2378524068182E-02
 0.3007287137109E-02 -0.2623866013881E-02
 0.3555133998334E-02 -0.2868556686573E-02
 0.4143662188404E-02 -0.3112082100091E-02
 0.4772298323547E-02 -0.3353941575162E-02
 0.5440586279998E-02 -0.3593647495124E-02
 0.6148171684539E-02 -0.3830725368579E-02
 0.6894796675369E-02 -0.4064716627367E-02
 0.7680253539450E-02 -0.4295169673269E-02
 0.8504441049424E-02 -0.4521664206480E-02
 0.9367289619524E-02 -0.4743798768428E-02
 0.1026878474734E-01 -0.4961212106134E-02
 0.1120894820218E-01 -0.5173596716655E-02
 0.1218781614667E-01 -0.5380717845590E-02
 0.1320541591763E-01 -0.5582444391886E-02
 0.1426172730651E-01 -0.5778805235297E-02
 0.1535662194512E-01 -0.5970006418987E-02
 0.1648978327625E-01 -0.6156443977280E-02
 0.1766061433674E-01 -0.6338726877589E-02
 0.1886814973173E-01 -0.6517707506261E-02
 0.2011094031789E-01 -0.6694506768589E-02
 0.2138692750848E-01 -0.6870526136354E-02
 0.2269328048682E-01 -0.7047433158746E-02
 0.2402623264866E-01 -0.7227116133163E-02
 0.2538107900152E-01 -0.7411587603881E-02
 0.2675218125497E-01 -0.7602868790233E-02
 0.2813280896699E-01 -0.7802866631364E-02
 0.2951517919167E-01 -0.8013208202928E-02
 0.3089059524187E-01 -0.8235074604218E-02
 0.3224966776796E-01 -0.8469059180382E-02
 0.3358257831992E-01 -0.8715073225718E-02
 0.1538627029289E-04 -0.2392838490668E-03
 0.8903738236233E-04 -0.4823118736616E-03
 0.2186845697328E-03 -0.7289670782557E-03
 0.4020364342927E-03 -0.9790070323274E-03
 0.6368652074879E-03 -0.1232082680944E-02
 0.9210757498046E-03 -0.1487753878247E-02
 0.1252756484821E-02 -0.1745512528775E-02
 0.1630210865003E-02 -0.2004807290381E-02
 0.2051967452199E-02 -0.2265064285910E-02
 0.2516776127058E-02 -0.2525704864548E-02
 0.3023593139863E-02 -0.2786157771006E-02
 0.3571559532374E-02 -0.3045866038747E-02
 0.4159979282238E-02 -0.3304290621339E-02
 0.4788296274874E-02 -0.3560910073230E-02
 0.5456073813065E-02 -0.3815218746321E-02
 0.6162979207758E-02 -0.4066725302261E-02
 0.6908779070329E-02 -0.4314954173352E-02
 0.7693293916646E-02 -0.4559434622581E-02
 0.8516455680844E-02 -0.4799725173679E-02
 0.9378234456537E-02 -0.5035399074166E-02
 0.1027866359127E-01 -0.5266065697317E-02
 0.1121782266273E-01 -0.5491383730145E-02
 0.1219581736024E-01 -0.5711080281398E-02
 0.1321275802424E-01 -0.5924988555827E-02
 0.1426872287852E-01 -0.6133134381671E-02
 0.1536369754572E-01 -0.6335741760988E-02
 0.1649749466286E-01 -0.6533228477629E-02
 0.1766966047592E-01 -0.6726222164047E-02
 0.1887938385029E-01 -0.6915593381959E-02
 0.2012537536458E-01 -0.7102489873727E-02
 0.2140573275614E-01 -0.7288360038269E-02
 0.2271776563636E-01 -0.7474949148234E-02
 0.2405781612277E-01 -0.7664262021886E-02
 0.2542123595092E-01 -0.7858436225573E-02
 0.2680237034808E-01 -0.8059610988222E-02
 0.2819438464398E-01 -0.8269834089933E-02
 0.2958929536002E-01 -0.8490880562140E-02
 0.3097811171473E-01 -0.8724066127713E-02
 0.3235107333262E-01 -0.8970088070084E-02
 0.3369794509847E-01 -0.9228926349985E-02
 0.1775373982358E-04 -0.2530310469850E-03
 0.9376685037389E-04 -0.5101151738662E-03
 0.2257049603185E-03 -0.7711240436481E-03
 0.4112143568335E-03 -0.1035787060368E-02
 0.6480127767202E-03 -0.1303713544138E-02
 0.9339617091452E-03 -0.1574412595367E-02
 0.1267118971462E-02 -0.1847321323184E-02
 0.1645770106369E-02 -0.2121834270107E-02
 0.2068437061356E-02 -0.2397327650600E-02
 0.2533872257026E-02 -0.2673179328011E-02
 0.3041041299303E-02 -0.2948781821103E-02
 0.3589099288103E-02 -0.3223548916206E-02
 0.4177367328003E-02 -0.3496918299499E-02
 0.4805308453662E-02 -0.3768349730551E-02
 0.5472506694828E-02 -0.4037321547656E-02
 0.6178651778101E-02 -0.4303327515943E-02
 0.6923535010488E-02 -0.4565876851385E-02
 0.7707004950400E-02 -0.4824481194973E-02
 0.8529026212397E-02 -0.5078679055552E-02
 0.9389607948053E-02 -0.5328019082208E-02
 0.1028883075998E-01 -0.5572081394863E-02
 0.1122683166733E-01 -0.5810490291964E-02
 0.1220378598588E-01 -0.6042933336482E-02
 0.1321988793921E-01 -0.6269205738885E-02
 0.1427531627363E-01 -0.6489327346966E-02
 0.1537017413332E-01 -0.6703536442945E-02
 0.1650440866871E-01 -0.6912267925993E-02
 0.1767771693976E-01 -0.7116162451006E-02
 0.1888945247963E-01 -0.7316102305003E-02
 0.2013849916571E-01 -0.7513255330306E-02
 0.2142312780440E-01 -0.7709110671400E-02
 0.2274080775541E-01 -0.7905486803583E-02
 0.2408801036687E-01 -0.8104503423438E-02
 0.2546016348125E-01 -0.8308424848602E-02
 0.2685161090821E-01 -0.8519513732783E-02
 0.2825542097999E-01 -0.8739968125457E-02
 0.2966340602561E-01 -0.8971723011706E-02
 0.3106626504460E-01 -0.9216240824016E-02
 0.3245383871577E-01 -0.9474332047423E-02
 0.3381543863221E-01 -0.9746049275447E-02
 0.2031070440431E-04 -0.2667874510956E-03
 0.9887599416844E-04 -0.5379460271490E-03
 0.2332870679641E-03 -0.8133352250916E-03
 0.4211197604821E-03 -0.1092654641903E-02
 0.6600308963253E-03 -0.1375469796259E-02
 0.9478344893669E-03 -0.1661236764447E-02
 0.1282556052963E-02 -0.1949335944325E-02
 0.1662463603880E-02 -0.2239106533923E-02
 0.2086074370418E-02 -0.2529874455728E-02
 0.2552146082732E-02 -0.2820974544036E-02
 0.3059656773533E-02 -0.3111764267741E-02
 0.3607778534016E-02 -0.3401629882482E-02
 0.4195852100683E-02 -0.3689987874657E-02
 0.4823361577320E-02 -0.3976281456438E-02
 0.5489913001383E-02 -0.4259975237112E-02
 0.6195219174788E-02 -0.4540550290916E-02
 0.6939096203978E-02 -0.4817502646869E-02
 0.7721420340934E-02 -0.5090328082229E-02
 0.8542188194276E-02 -0.5358546492939E-02
 0.9401447104096E-02 -0.5621682865670E-02
 0.1029932404275E-01 -0.5879288425371E-02
 0.1123601277251E-01 -0.6130952730810E-02
 0.1221175796698E-01 -0.6376322591918E-02
 0.1322683821825E-01 -0.6615153080720E-02
 0.1428153449011E-01 -0.6847455236901E-02
 0.1537607060184E-01 -0.7073477953699E-02
 0.1651053321590E-01 -0.7293668474259E-02
 0.1768477761851E-01 -0.7508674490819E-02
 0.1889833246122E-01 -0.7719382971717E-02
 0.2015026891122E-01 -0.7926974266211E-02
 0.2143904851392E-01 -0.8132971014616E-02
 0.2276232123552E-01 -0.8339259224276E-02
 0.2411671031863E-01 -0.8548070812251E-02
 0.2549774172465E-01 -0.8761797906728E-02
 0.2689977567074E-01 -0.8982831901594E-02
 0.2831579301068E-01 -0.9213531226576E-02
 0.2973739936406E-01 -0.9456004203582E-02
 0.3115496685287E-01 -0.9711873799003E-02
 0.3255790692850E-01 -0.9982074543985E-02
 0.3393503737977E-01 -0.1026673660737E-01
 0.2306314237021E-04 -0.2805552114879E-03
 0.1043767743830E-03 -0.5658098051690E-03
 0.2414483127034E-03 -0.8556100671786E-03
 0.4317745333055E-03 -0.1149623726929E-02
 0.6729446498018E-03 -0.1447369803703E-02
 0.9627210554869E-03 -0.1748248576370E-02
 0.1299095435607E-02 -0.2051581433176E-02
 0.1680318979122E-02 -0.2356650791314E-02
 0.2104906458147E-02 -0.2662731870137E-02
 0.2571624031114E-02 -0.2969117051799E-02
 0.3079465513591E-02 -0.3275130151232E-02
 0.3627623122428E-02 -0.3580131882597E-02
 0.4215459847761E-02 -0.3883519890197E-02
 0.4842482823424E-02 -0.4184723372232E-02
 0.5508321352329E-02 -0.4483195766580E-02
 0.6212711894410E-02 -0.4778407922339E-02
 0.6955495335192E-02 -0.5069844963119E-02
 0.7736575103048E-02 -0.5356988811350E-02
 0.8555978902829E-02 -0.5639342406513E-02
 0.9413791137855E-02 -0.5916408269766E-02
 0.1031018396335E-01 -0.6187709355241E-02
 0.1124540683828E-01 -0.6452800394430E-02
 0.1221977313192E-01 -0.6711286483439E-02
 0.1323364585918E-01 -0.6962880620098E-02
 0.1428740944956E-01 -0.7207582365457E-02
 0.1538141110472E-01 -0.7445647621018E-02
 0.1651588158780E-01 -0.7677531118069E-02
 0.1769084152404E-01 -0.7903881296769E-02
 0.1890600506344E-01 -0.8125582177372E-02
 0.2016064497065E-01 -0.8343818128530E-02
 0.2145343207877E-01 -0.8560136868824E-02
 0.2278221940520E-01 -0.8776484954273E-02
 0.2414380709024E-01 -0.8995202641489E-02
 0.2553384419898E-01 -0.9218810047342E-02
 0.2694672841141E-01 -0.9449832368151E-02
 0.2837536541718E-01 -0.9690799179734E-02
 0.2981115314422E-01 -0.9944007038111E-02
 0.3124411977009E-01 -0.1021125525120E-01
 0.3266321467380E-01 -0.1049361508224E-01
 0.3405671698777E-01 -0.1079130037786E-01
 0.2601775993214E-04 -0.2943366284888E-03
 0.1102826167205E-03 -0.5937122335725E-03
 0.2502081959820E-03 -0.8979585993099E-03
 0.4432030399806E-03 -0.1206709056746E-02
 0.6867817282824E-03 -0.1519432847776E-02
 0.9786508646823E-03 -0.1835471131568E-02
 0.1316767017611E-02 -0.2154083584525E-02
 0.1699365641448E-02 -0.2474494204010E-02
 0.2124961760722E-02 -0.2795927090771E-02
 0.2592333491201E-02 -0.3117632903368E-02
 0.3100494112618E-02 -0.3438903449164E-02
 0.3648659324601E-02 -0.3759076187043E-02
 0.4236217117056E-02 -0.4077532582971E-02
 0.4862699655309E-02 -0.4393690649343E-02
 0.5527760738114E-02 -0.4706995487329E-02
 0.6231160983859E-02 -0.5016910449125E-02
 0.6972765907710E-02 -0.5322912290107E-02
 0.7752505424665E-02 -0.5624471344395E-02
 0.8570437222070E-02 -0.5921075518245E-02
 0.9426681379578E-02 -0.6212206344498E-02
 0.1032145373810E-01 -0.6497359424193E-02
 0.1125505804455E-01 -0.6776054874888E-02
 0.1222787528554E-01 -0.7047855412542E-02
 0.1324035248649E-01 -0.7312430291475E-02
 0.1429297829295E-01 -0.7569765144786E-02
 0.1538622547801E-01 -0.7820119414037E-02
 0.1652047298759E-01 -0.8063950445616E-02
 0.1769591347855E-01 -0.8301900889103E-02
 0.1891245677402E-01 -0.8534843627461E-02
 0.2016959173467E-01 -0.8763957640838E-02
 0.2146621783085E-01 -0.8990806043631E-02
 0.2280041518478E-01 -0.9217387468049E-02
 0.2416918835299E-01 -0.9446145166348E-02
 0.2556833782471E-01 -0.9679726282838E-02
 0.2699232356293E-01 -0.9920794422907E-02
 0.2843399180776E-01 -0.1017206167188E-01
 0.2988453384045E-01 -0.1043602936842E-01
 0.3133361659984E-01 -0.1071469124291E-01
 0.3276969176471E-01 -0.1100927012890E-01
 0.3418045010476E-01 -0.1132007102158E-01
 0.2918203732046E-04 -0.3081341947038E-03
 0.1166085081416E-03 -0.6216594924481E-03
 0.2595884313767E-03 -0.9403916029942E-03
 0.4554322584864E-03 -0.1263926393547E-02
 0.7015725427047E-03 -0.1591679399216E-02
 0.9956559313265E-03 -0.1922928734647E-02
 0.1335602896924E-02 -0.2256869236773E-02
 0.1719634740184E-02 -0.2592664651822E-02
 0.2146269977713E-02 -0.2929487574000E-02
 0.2614302686296E-02 -0.3266547858171E-02
 0.3122769656217E-02 -0.3603107237480E-02
 0.3670913668822E-02 -0.3938482525789E-02
 0.4258150589251E-02 -0.4272041996784E-02
 0.4884039653416E-02 -0.4603195607087E-02
 0.5548260353251E-02 -0.4931383234320E-02
 0.6250597878130E-02 -0.5256063723758E-02
 0.6990942090017E-02 -0.5576708255761E-02
 0.7769248525175E-02 -0.5892778104560E-02
 0.8585603521294E-02 -0.6203748343483E-02
 0.9440161182521E-02 -0.6509081292521E-02
 0.1033317922198E-01 -0.6808246438221E-02
 0.1126501389260E-01 -0.7100729836696E-02
 0.1223611228406E-01 -0.7386051502485E-02
 0.1324700452110E-01 -0.7663835606714E-02
 0.1429828366799E-01 -0.7934051698697E-02
 0.1539054966707E-01 -0.8196959506482E-02
 0.1652433312014E-01 -0.8453014184716E-02
 0.1770000485466E-01 -0.8702845879882E-02
 0.1891768017916E-01 -0.8947307635389E-02
 0.2017707858217E-01 -0.9187562706664E-02
 0.2147734820628E-01 -0.9425178567074E-02
 0.2281682192877E-01 -0.9662195776597E-02
 0.2419273891587E-01 -0.9901153502700E-02
 0.2560108312038E-01 -0.1014482350373E-01
 0.2703640597870E-01 -0.1039601168070E-01
 0.2849151411942E-01 -0.1065762448918E-01
 0.2995739586911E-01 -0.1093238639183E-01
 0.3142333965986E-01 -0.1122250624071E-01
 0.3287726081251E-01 -0.1152937580675E-01
 0.3430620657382E-01 -0.1185340030718E-01
 0.3256428642307E-04 -0.3219506426115E-03
 0.1233711151492E-03 -0.6496583258147E-03
 0.2696131024861E-03 -0.9829207882682E-03
 0.4684919410705E-03 -0.1321292753053E-02
 0.7173503502842E-03 -0.1664131381445E-02
 0.1013770892491E-02 -0.2010647154775E-02
 0.1355637365435E-02 -0.2359966497080E-02
 0.1741159091545E-02 -0.2711190898139E-02
 0.2168861944495E-02 -0.3063441127599E-02
 0.2637560507590E-02 -0.3415887397083E-02
 0.3146319531590E-02 -0.3767763628621E-02
 0.3694412736009E-02 -0.4118368955129E-02
 0.4281286867233E-02 -0.4467061782252E-02
 0.4906530302823E-02 -0.4813247447573E-02
 0.5569849384842E-02 -0.5156363994827E-02
 0.6271054192298E-02 -0.5495869009730E-02
 0.7010058514119E-02 -0.5831231143862E-02
 0.7786842465390E-02 -0.6161905403210E-02
 0.8601519483240E-02 -0.6487356513365E-02
 0.9454275778816E-02 -0.6807029671516E-02
 0.1034540880489E-01 -0.7120369835690E-02
 0.1127532515776E-01 -0.7426829930839E-02
 0.1224453606464E-01 -0.7725887346739E-02
 0.1325365331055E-01 -0.8017120229439E-02
 0.1430337398659E-01 -0.8300480262641E-02
 0.1539442613802E-01 -0.8576224514639E-02
 0.1652749477924E-01 -0.8844801308977E-02
 0.1770313434670E-01 -0.9106821500659E-02
 0.1892167490281E-01 -0.9363109151316E-02
 0.2018308093472E-01 -0.9614800543661E-02
 0.2148676981538E-01 -0.9863455043841E-02
 0.2283135436434E-01 -0.1011114312281E-01
 0.2421434135581E-01 -0.1036049073874E-01
 0.2563193435957E-01 -0.1061439002269E-01
 0.2707881052649E-01 -0.1087579199479E-01
 0.2854776169766E-01 -0.1114780967661E-01
 0.3002958036799E-01 -0.1143341092496E-01
 0.3151315957615E-01 -0.1173504344259E-01
 0.3298583631445E-01 -0.1205428829768E-01
 0.3443395297402E-01 -0.1239166186805E-01
 0.3617372224805E-04 -0.3357890013499E-03
 0.1305889301819E-03 -0.6777161756925E-03
 0.2803088577285E-03 -0.1025559013765E-02
 0.4824148125077E-03 -0.1378826700398E-02
 0.7341514114429E-03 -0.1736812514832E-02
 0.1033033093712E-02 -0.2098653982841E-02
 0.1376906913978E-02 -0.2463405078909E-02
 0.1763973110203E-02 -0.2830102885984E-02
 0.2192769507181E-02 -0.3197816156422E-02
 0.2662136351372E-02 -0.3565676919671E-02
 0.3171171243253E-02 -0.3932893928892E-02
 0.3719182965372E-02 -0.4298751985938E-02
 0.4305652278434E-02 -0.4662603305604E-02
 0.4930198795448E-02 -0.5023852351495E-02
 0.5592556815918E-02 -0.5381938993547E-02
 0.6292561526826E-02 -0.5736323054005E-02
 0.7030150084427E-02 -0.6086473947921E-02
 0.7805325963334E-02 -0.6431843465730E-02
 0.8618227932499E-02 -0.6771888760334E-02
 0.9469072129207E-02 -0.7106040324829E-02
 0.1035819329493E-01 -0.7433720547104E-02
 0.1128604582294E-01 -0.7754350567317E-02
 0.1225320265042E-01 -0.8067365679333E-02
 0.1326035523259E-01 -0.8372297532255E-02
 0.1430830365872E-01 -0.8669078624534E-02
 0.1539790427602E-01 -0.8957960831069E-02
 0.1652999844193E-01 -0.9239381292666E-02
 0.1770532878192E-01 -0.9513924832651E-02
 0.1892444863160E-01 -0.9782377053086E-02
 0.2018758145227E-01 -0.1004583515263E-01
 0.2149443471207E-01 -0.1030583644278E-01
 0.2284392977858E-01 -0.1056446722945E-01
 0.2423387692326E-01 -0.1082442875324E-01
 0.2566073999597E-01 -0.1108872700252E-01
 0.2711936191111E-01 -0.1136045943707E-01
 0.2860255055974E-01 -0.1164295792586E-01
 0.3010091415278E-01 -0.1193945603451E-01
 0.3160293432755E-01 -0.1225266756710E-01
 0.3309532413116E-01 -0.1258438682959E-01
 0.3456365269041E-01 -0.1293525446052E-01
 0.4002055012309E-04 -0.3496526628381E-03
 0.1382824487989E-03 -0.7058413355895E-03
 0.2917051430547E-03 -0.1068320534269E-02
 0.4972368022147E-03 -0.1436548675230E-02
 0.7520151674284E-03 -0.1809748682612E-02
 0.1053482678429E-02 -0.2186978993400E-02
 0.1399450225339E-02 -0.2567216620827E-02
 0.1788112717585E-02 -0.2949431988697E-02
 0.2218025368003E-02 -0.3332641835884E-02
 0.2688059924474E-02 -0.3715941843786E-02
 0.3197352197180E-02 -0.4098518674311E-02
 0.3745250429621E-02 -0.4479646567533E-02
 0.4331272647691E-02 -0.4858675590212E-02
 0.4955071803058E-02 -0.5235013382834E-02
 0.5616411198921E-02 -0.5608105561041E-02
 0.6315151241425E-02 -0.5977417914882E-02
 0.7051251752845E-02 -0.6342424149659E-02
 0.7824738173333E-02 -0.6702576147975E-02
 0.8635772623980E-02 -0.7057326556687E-02
 0.9484598729444E-02 -0.7406093923630E-02
 0.1037158575520E-01 -0.7748280420482E-02
 0.1129723296283E-01 -0.8083277202348E-02
 0.1226217210521E-01 -0.8410478503103E-02
 0.1326717174966E-01 -0.8729369548518E-02
 0.1431313328252E-01 -0.9039862889456E-02
 0.1540104075164E-01 -0.9342203204100E-02
 0.1653189285167E-01 -0.9636812526796E-02
 0.1770662395152E-01 -0.9924243110087E-02
 0.1892601820066E-01 -0.1020523242471E-01
 0.2019057133748E-01 -0.1048082569982E-01
 0.2150030181717E-01 -0.1075252274609E-01
 0.2285446938615E-01 -0.1102240939023E-01
 0.2425122661513E-01 -0.1129324789595E-01
 0.2568734318561E-01 -0.1156814879653E-01
 0.2715787446295E-01 -0.1185035525053E-01
 0.2865568245552E-01 -0.1214342997126E-01
 0.3017120832537E-01 -0.1245089665892E-01
 0.3169250788384E-01 -0.1277576657389E-01
 0.3320562058009E-01 -0.1312007554697E-01
 0.3469526559649E-01 -0.1348460408794E-01
 0.4411607159870E-04 -0.3635454600254E-03
 0.1464743834955E-03 -0.7340431307346E-03
 0.3038344794140E-03 -0.1111221288396E-02
 0.5129973156612E-03 -0.1494481363535E-02
 0.7709844413464E-03 -0.1882968339893E-02
 0.1075162681359E-02 -0.2275654536392E-02
 0.1423308154349E-02 -0.2671435015688E-02
 0.1813615226289E-02 -0.3069211250148E-02
 0.2244662901977E-02 -0.3467948256097E-02
 0.2715361020627E-02 -0.3866707660539E-02
 0.3224889457861E-02 -0.4264657610127E-02
 0.3772640585712E-02 -0.4661066006080E-02
 0.4358173047711E-02 -0.5055285184847E-02
 0.4981175228785E-02 -0.5446730312628E-02
 0.5641440407274E-02 -0.5834856912816E-02
 0.6338854205345E-02 -0.6219140690573E-02
 0.7073398267576E-02 -0.6599063386301E-02
 0.7845118435267E-02 -0.6974080527207E-02
 0.8654197997408E-02 -0.7343643610476E-02
 0.9500905378266E-02 -0.7707162346062E-02
 0.1038564129753E-01 -0.8064021459510E-02
 0.1130894658103E-01 -0.8413584409541E-02
 0.1227150843784E-01 -0.8755205967460E-02
 0.1327416941249E-01 -0.9088325632314E-02
 0.1431792978751E-01 -0.9412835903229E-02
 0.1540389985144E-01 -0.9728972918039E-02
 0.1653323558721E-01 -0.1003714026933E-01
 0.1770706546219E-01 -0.1033785148522E-01
 0.1892641074996E-01 -0.1063178622411E-01
 0.2019205177299E-01 -0.1091992422640E-01
 0.2150433854040E-01 -0.1120371088747E-01
 0.2286289994703E-01 -0.1148521285030E-01
 0.2426627251025E-01 -0.1176723600577E-01
 0.2571158251907E-01 -0.1205298271905E-01
 0.2719415200717E-01 -0.1234583834567E-01
 0.2870694382488E-01 -0.1264960762249E-01
 0.3024025661185E-01 -0.1296813089209E-01
 0.3178170852230E-01 -0.1330475300362E-01
 0.3331661128201E-01 -0.1366178497012E-01
 0.3482874751333E-01 -0.1404016574094E-01
 0.4847281306288E-04 -0.3774717610689E-03
 0.1551899232799E-03 -0.7623321391149E-03
 0.3167327975824E-03 -0.1154279255366E-02
 0.5297395590193E-03 -0.1552650163564E-02
 0.7911056770177E-03 -0.1956503034535E-02
 0.1098119141611E-02 -0.2364716052523E-02
 0.1448523714186E-02 -0.2776096874508E-02
 0.1840519224827E-02 -0.3189475775605E-02
 0.2272715975001E-02 -0.3603766741594E-02
 0.2744069303838E-02 -0.4018000200158E-02
 0.3253809519640E-02 -0.4431329926414E-02
 0.3801378046575E-02 -0.4843022192703E-02
 0.4386377575380E-02 -0.5252436402114E-02
 0.5008533986902E-02 -0.5658999878802E-02
 0.5667671415009E-02 -0.6062182434761E-02
 0.6363700572970E-02 -0.6461473828144E-02
 0.7096623942130E-02 -0.6856367775416E-02
 0.7866506036817E-02 -0.7246327230555E-02
 0.8673548935698E-02 -0.7630806181264E-02
 0.9518042938375E-02 -0.8009208960453E-02
 0.1040041685698E-01 -0.8380906051203E-02
 0.1132124941436E-01 -0.8745236026192E-02
 0.1228127946030E-01 -0.9101516405682E-02
 0.1328141980527E-01 -0.9449142359353E-02
 0.1432276651133E-01 -0.9787986993375E-02
 0.1540655374189E-01 -0.1011827736062E-01
 0.1653409357713E-01 -0.1044039604510E-01
 0.1770670956412E-01 -0.1075481229947E-01
 0.1892566491042E-01 -0.1106213851231E-01
 0.2019203546606E-01 -0.1136327498390E-01
 0.2150652260563E-01 -0.1165959440637E-01
 0.2286915568571E-01 -0.1195312303669E-01
 0.2427889947911E-01 -0.1224668947103E-01
 0.2573329314487E-01 -0.1254357110951E-01
 0.2722798806550E-01 -0.1284728838037E-01
 0.2875610497059E-01 -0.1316189766036E-01
 0.3030783382136E-01 -0.1349158433085E-01
 0.3187034733793E-01 -0.1384006847486E-01
 0.3342817049635E-01 -0.1420997670796E-01
 0.3496405038751E-01 -0.1460242860370E-01
 0.5310468080012E-04 -0.3914365809918E-03
 0.1644570432676E-03 -0.7907204452470E-03
 0.3304398292718E-03 -0.1197514851297E-02
 0.5475109045076E-03 -0.1611083680241E-02
 0.8124291882540E-03 -0.2030387922921E-02
 0.1122401193157E-02 -0.2454202529837E-02
 0.1475142013436E-02 -0.2881241864707E-02
 0.1868864396550E-02 -0.3310262924449E-02
 0.2302218688547E-02 -0.3740129899286E-02
 0.2774214016605E-02 -0.4169845552833E-02
 0.3284138003820E-02 -0.4598554074834E-02
 0.3831486280099E-02 -0.5025525336516E-02
 0.4415909056213E-02 -0.5450130981207E-02
 0.5037171710664E-02 -0.5871815383935E-02
 0.5695130003538E-02 -0.6290067213283E-02
 0.6389719485092E-02 -0.6704394576404E-02
 0.7120962348360E-02 -0.7114307274986E-02
 0.7888939898249E-02 -0.7519279681649E-02
 0.8693870444765E-02 -0.7918772188420E-02
 0.9536063018351E-02 -0.8312187566527E-02
 0.1041597088729E-01 -0.8698885707650E-02
 0.1133420665901E-01 -0.9078183659709E-02
 0.1229155656931E-01 -0.9449364567255E-02
 0.1328899941800E-01 -0.9811781445198E-02
 0.1432772321072E-01 -0.1016528953514E-01
 0.1540908268082E-01 -0.1051010720681E-01
 0.1653454358523E-01 -0.1084659443581E-01
 0.1770562398696E-01 -0.1117517150201E-01
 0.1892383205271E-01 -0.1149637457712E-01
 0.2019054832748E-01 -0.1181101041327E-01
 0.2150684408999E-01 -0.1212035951679E-01
 0.2287318048826E-01 -0.1242638402242E-01
 0.2428899718136E-01 -0.1273191041321E-01
 0.2575230808753E-01 -0.1304026948753E-01
 0.2725916601924E-01 -0.1335510495609E-01
 0.2880291881819E-01 -0.1368073187927E-01
 0.3037369345883E-01 -0.1402171050604E-01
 0.3195821562053E-01 -0.1438218401433E-01
 0.3354015935529E-01 -0.1476514368283E-01
 0.3510112131929E-01 -0.1517191661953E-01
 0.5802714933858E-04 -0.4054457180793E-03
 0.1743068806669E-03 -0.8192219568439E-03
 0.3449995783806E-03 -0.1240951430234E-02
 0.5663633251906E-03 -0.1669814358688E-02
 0.8350094521948E-03 -0.2104662446789E-02
 0.1148061173992E-02 -0.2544157135149E-02
 0.1503210196616E-02 -0.2986913238623E-02
 0.1898691339491E-02 -0.3431612719206E-02
 0.2333205132427E-02 -0.3877071924413E-02
 0.2805823708235E-02 -0.4322270305532E-02
 0.3315899388559E-02 -0.4766347973791E-02
 0.3862987351494E-02 -0.5208584170179E-02
 0.4446788799385E-02 -0.5648368316649E-02
 0.5067110514171E-02 -0.6085166960037E-02
 0.5723840522169E-02 -0.6518492339991E-02
 0.6416938820193E-02 -0.6947875326698E-02
 0.7146446052599E-02 -0.7372846050115E-02
 0.7912458290459E-02 -0.7792894477689E-02
 0.8715207354082E-02 -0.8207491578360E-02
 0.9555017660162E-02 -0.8616042728343E-02
 0.1043236304423E-01 -0.9017901335902E-02
 0.1134788566451E-01 -0.9412366861143E-02
 0.1230241447392E-01 -0.9798691657026E-02
 0.1329698944255E-01 -0.1017618960830E-01
 0.1433288597682E-01 -0.1054470059552E-01
 0.1541157512081E-01 -0.1090443580546E-01
 0.1653467258931E-01 -0.1125573218634E-01
 0.1770388869323E-01 -0.1159895748519E-01
 0.1892097750998E-01 -0.1193456356358E-01
 0.2018763122118E-01 -0.1226324972072E-01
 0.2150530767051E-01 -0.1258618388446E-01
 0.2287493046867E-01 -0.1290523786190E-01
 0.2429646258222E-01 -0.1322320698849E-01
 0.2576846017004E-01 -0.1354344817301E-01
 0.2728745985039E-01 -0.1386971071229E-01
 0.2884712010586E-01 -0.1420657150116E-01
 0.3043756556064E-01 -0.1455899609476E-01
 0.3204508243612E-01 -0.1493160532322E-01
 0.3365242484777E-01 -0.1532781524457E-01
 0.3523990294878E-01 -0.1574919417856E-01
 0.6325748965256E-04 -0.4195059192362E-03
 0.1847741866144E-03 -0.8478527825638E-03
 0.3604608759073E-03 -0.1284615869427E-02
 0.5863538882582E-03 -0.1728879201220E-02
 0.8589054177122E-03 -0.2179371063258E-02
 0.1175154708569E-02 -0.2634627845920E-02
 0.1532777330235E-02 -0.3093158300412E-02
 0.1930041320147E-02 -0.3553568132902E-02
 0.2365709071727E-02 -0.4014628732122E-02
 0.2838925903423E-02 -0.4475301559108E-02
 0.3349116686279E-02 -0.4934728953039E-02
 0.3895901618993E-02 -0.5392205855205E-02
 0.4479036309548E-02 -0.5847145345435E-02
 0.5098370712038E-02 -0.6299041446970E-02
 0.5753825605447E-02 -0.6747434780799E-02
 0.6445384900034E-02 -0.7191883463865E-02
 0.7173106302516E-02 -0.7631942290280E-02
 0.7937098499490E-02 -0.8067121151785E-02
 0.8737603959018E-02 -0.8496906005876E-02
 0.9574958963454E-02 -0.8920709344051E-02
 0.1044965380032E-01 -0.9337882660908E-02
 0.1136235555267E-01 -0.9747712360706E-02
 0.1231393084117E-01 -0.1014942433672E-01
 0.1330547547992E-01 -0.1054229728498E-01
 0.1433834705593E-01 -0.1092615930489E-01
 0.1541412771765E-01 -0.1130121715153E-01
 0.1653457807473E-01 -0.1166778573247E-01
 0.1770159657454E-01 -0.1202617815285E-01
 0.1891718179849E-01 -0.1237675512655E-01
 0.2018334180190E-01 -0.1272009525348E-01
 0.2150193508374E-01 -0.1305723299437E-01
 0.2287437688838E-01 -0.1338992135943E-01
 0.2430120293083E-01 -0.1372089106198E-01
 0.2578158440036E-01 -0.1405349134662E-01
 0.2731263516848E-01 -0.1439155204636E-01
 0.2888842447333E-01 -0.1473990946898E-01
 0.3049915386162E-01 -0.1510396426404E-01
 0.3213069102206E-01 -0.1548887611575E-01
 0.3376479788022E-01 -0.1589855974876E-01
 0.3538033365247E-01 -0.1633486893741E-01
 0.6881504705458E-04 -0.4336250834145E-03
 0.1958978723720E-03 -0.8766316937487E-03
 0.3768780374055E-03 -0.1328539275687E-02
 0.6075453181601E-03 -0.1788320614569E-02
 0.8841808313594E-03 -0.2254564080813E-02
 0.1203740761464E-02 -0.2725668141614E-02
 0.1563894233651E-02 -0.3200028881680E-02
 0.1962955965853E-02 -0.3676175343793E-02
 0.2399763579313E-02 -0.4152838029648E-02
 0.2873546728642E-02 -0.4628966872425E-02
 0.3383811090880E-02 -0.5103713620549E-02
 0.3930247408408E-02 -0.5576395809117E-02
 0.4512668982836E-02 -0.6046456356841E-02
 0.5130970525167E-02 -0.6513422193638E-02
 0.5785105875615E-02 -0.6976867166212E-02
 0.6475082177092E-02 -0.7436381134620E-02
 0.7200972690727E-02 -0.7891547937726E-02
 0.7962896461307E-02 -0.8341901837385E-02
 0.8761103625842E-02 -0.8786948405507E-02
 0.9595938663851E-02 -0.9226112090288E-02
 0.1046790400356E-01 -0.9658747503976E-02
 0.1137768676945E-01 -0.1008413313522E-01
 0.1232618586132E-01 -0.1050147352874E-01
 0.1331454715243E-01 -0.1091001710835E-01
 0.1434420456169E-01 -0.1130958494177E-01
 0.1541684522041E-01 -0.1170038350281E-01
 0.1653436821093E-01 -0.1208270828118E-01
 0.1769885405216E-01 -0.1245681742003E-01
 0.1891254179796E-01 -0.1282297536290E-01
 0.2017775641535E-01 -0.1318162798100E-01
 0.2149676780533E-01 -0.1353365545252E-01
 0.2287150949497E-01 -0.1388066164947E-01
 0.2430313934938E-01 -0.1422527467984E-01
 0.2579152106430E-01 -0.1457079505475E-01
 0.2733445083606E-01 -0.1492109909127E-01
 0.2892652780110E-01 -0.1528127240085E-01
 0.3055813264041E-01 -0.1565717817766E-01
 0.3221475410092E-01 -0.1605458198695E-01
 0.3387709043402E-01 -0.1647798688410E-01
 0.3552234863553E-01 -0.1692959353209E-01
 0.7472158178934E-04 -0.4478125142365E-03
 0.2077216758531E-03 -0.9055807020456E-03
 0.3943116518398E-03 -0.1372757868613E-02
 0.6300066525507E-03 -0.1848187465201E-02
 0.9109045979288E-03 -0.2330298700027E-02
 0.1233881680386E-02 -0.2817337879395E-02
 0.1596613281478E-02 -0.3307581988001E-02
 0.1997476935324E-02 -0.3799484170422E-02
 0.2435400666746E-02 -0.4291739605498E-02
 0.2909710560547E-02 -0.4783294483662E-02
 0.3420001667570E-02 -0.5273318083871E-02
 0.3966040745262E-02 -0.5761157976121E-02
 0.4547701869461E-02 -0.6246293342820E-02
 0.5164925856694E-02 -0.6728289503151E-02
 0.5817699714150E-02 -0.7206758334593E-02
 0.6506052985847E-02 -0.7681325883318E-02
 0.7230072873389E-02 -0.8151609403017E-02
 0.7989886439334E-02 -0.8617172044915E-02
 0.8785748424102E-02 -0.9077543805384E-02
 0.9618007720090E-02 -0.9532166244549E-02
 0.1048717442304E-01 -0.9980402579722E-02
 0.1139395059694E-01 -0.1042152913904E-01
 0.1233926174219E-01 -0.1085473503136E-01
 0.1332429760947E-01 -0.1127924434696E-01
 0.1435056204208E-01 -0.1169487712145E-01
 0.1541984017954E-01 -0.1210184523460E-01
 0.1653416181748E-01 -0.1250042924426E-01
 0.1769578145985E-01 -0.1289083415392E-01
 0.1890717174549E-01 -0.1327322523839E-01
 0.2017097190520E-01 -0.1364790549229E-01
 0.2148986981098E-01 -0.1401558081537E-01
 0.2286634019950E-01 -0.1437767435561E-01
 0.2430221105678E-01 -0.1473666929205E-01
 0.2579811969392E-01 -0.1509576832007E-01
 0.2735266151597E-01 -0.1545884939043E-01
 0.2896110623931E-01 -0.1583122695738E-01
 0.3061414390092E-01 -0.1621924968163E-01
 0.3229694873467E-01 -0.1662936077056E-01
 0.3398909185301E-01 -0.1706675623219E-01
 0.3566588419354E-01 -0.1753407113815E-01
 0.8100168740644E-04 -0.4620792361422E-03
 0.2202949688125E-03 -0.9347257638818E-03
 0.4128295067456E-03 -0.1417314025347E-02
 0.6538139628753E-03 -0.1908536269475E-02
 0.9391511116920E-03 -0.2406640097450E-02
 0.1265643136841E-02 -0.2909704083786E-02
 0.1630988067477E-02 -0.3415880224545E-02
 0.2033645444796E-02 -0.3923548163989E-02
 0.2472650780631E-02 -0.4431375170003E-02
 0.2947439553290E-02 -0.4938312986361E-02
 0.3457704932400E-02 -0.5443557530424E-02
 0.4003294982944E-02 -0.5946494355053E-02
 0.4584147334656E-02 -0.6446645494504E-02
 0.5200249965909E-02 -0.6943620101639E-02
 0.5851622929386E-02 -0.7437072764740E-02
 0.6538317187663E-02 -0.7926670030629E-02
 0.7260432179939E-02 -0.8412066864812E-02
 0.8018100591338E-02 -0.8892859851407E-02
 0.8811578647690E-02 -0.9368608369901E-02
 0.9641215790463E-02 -0.9838776539006E-02
 0.1050752518536E-01 -0.1030274211381E-01
 0.1141121855824E-01 -0.1075978563143E-01
 0.1235324209715E-01 -0.1120908749149E-01
 0.1333482292574E-01 -0.1164985444488E-01
 0.1435752793643E-01 -0.1208191280880E-01
 0.1542323254235E-01 -0.1250548721292E-01
 0.1653408822013E-01 -0.1292084984756E-01
 0.1769251333369E-01 -0.1332815689890E-01
 0.1890120418415E-01 -0.1372747434872E-01
 0.2016310747488E-01 -0.1411895481846E-01
 0.2148133056806E-01 -0.1450311169709E-01
 0.2285890723484E-01 -0.1488115550444E-01
 0.2429838035945E-01 -0.1525537831703E-01
 0.2580124396053E-01 -0.1562882745524E-01
 0.2736702106003E-01 -0.1600532481891E-01
 0.2899181640648E-01 -0.1639038000976E-01
 0.3066679390683E-01 -0.1679084172948E-01
 0.3237690950162E-01 -0.1721390803382E-01
 0.3410056012665E-01 -0.1766558290529E-01
 0.3581088233627E-01 -0.1814905191196E-01
 0.8768331025860E-04 -0.4764383972525E-03
 0.2336737504559E-03 -0.9640976747802E-03
 0.4325077018221E-03 -0.1462257604989E-02
 0.6790511840703E-03 -0.1969432691952E-02
 0.9690006013699E-03 -0.2483662786628E-02
 0.1299094021811E-02 -0.3002841966008E-02
 0.1667073014031E-02 -0.3524992427809E-02
 0.2071501765096E-02 -0.4048424927698E-02
 0.2511542308707E-02 -0.4571788486886E-02
 0.2986753212766E-02 -0.5094051392445E-02
 0.3496934507444E-02 -0.5614446311043E-02
 0.4042020525561E-02 -0.6132405159496E-02
 0.4622014824939E-02 -0.6647499468512E-02
 0.5236953251281E-02 -0.7159387522092E-02
 0.5886888531381E-02 -0.7667771076328E-02
 0.6571891916177E-02 -0.8172361280914E-02
 0.7292073312139E-02 -0.8672854967470E-02
 0.8047568610232E-02 -0.9168886665390E-02
 0.8838632390452E-02 -0.9660050203438E-02
 0.9665610740528E-02 -0.1014583796964E-01
 0.1052901521465E-01 -0.1062564861894E-01
 0.1142956179241E-01 -0.1109877387387E-01
 0.1236821126251E-01 -0.1156439296697E-01
 0.1334622138035E-01 -0.1202170337654E-01
 0.1436521485691E-01 -0.1247054637173E-01
 0.1542714901213E-01 -0.1291116842773E-01
 0.1653428681168E-01 -0.1334384220049E-01
 0.1768919836278E-01 -0.1376868222657E-01
 0.1889479056665E-01 -0.1418565841567E-01
 0.2015430627369E-01 -0.1459476903170E-01
 0.2147126793938E-01 -0.1499631963603E-01
 0.2284927957506E-01 -0.1539127717016E-01
 0.2429163836583E-01 -0.1578169354155E-01
 0.2580077784129E-01 -0.1617039449969E-01
 0.2737728725931E-01 -0.1656107359687E-01
 0.2901829729294E-01 -0.1695938418046E-01
 0.3071564949198E-01 -0.1737267956066E-01
 0.3245422435561E-01 -0.1780898635753E-01
 0.3421120870083E-01 -0.1827526434124E-01
 0.3595729756052E-01 -0.1877533917077E-01
 0.9479839741467E-04 -0.4909057984709E-03
 0.2479218668698E-03 -0.9937331804766E-03
 0.4534319722692E-03 -0.1507647582844E-02
 0.7058110237914E-03 -0.2030953314034E-02
 0.1000539418681E-02 -0.2561452129231E-02
 0.1334306202181E-02 -0.3096835939690E-02
 0.1704922824762E-02 -0.3634994163975E-02
 0.2111084584409E-02 -0.4174176216698E-02
 0.2552100986812E-02 -0.4713025236365E-02
 0.3027667902599E-02 -0.5250538897730E-02
 0.3537700728632E-02 -0.5785997702285E-02
 0.4082224514904E-02 -0.6318888629647E-02
 0.4661310603048E-02 -0.6848839271308E-02
 0.5275043002237E-02 -0.7375562065131E-02
 0.5923506472838E-02 -0.7898810059209E-02
 0.6606791284134E-02 -0.8418342803985E-02
 0.7325015998601E-02 -0.8933902932379E-02
 0.8078317313466E-02 -0.9445167338533E-02
 0.8866945063115E-02 -0.9951769427156E-02
 0.9691238084708E-02 -0.1045323579797E-01
 0.1055170159859E-01 -0.1094899277638E-01
 0.1144905034573E-01 -0.1143835083996E-01
 0.1238425351761E-01 -0.1192049640226E-01
 0.1335859261865E-01 -0.1239462680812E-01
 0.1437373872565E-01 -0.1286060832250E-01
 0.1543172222879E-01 -0.1331872017532E-01
 0.1653490639652E-01 -0.1376924674365E-01
 0.1768599909132E-01 -0.1421227124094E-01
 0.1888810160379E-01 -0.1464767463889E-01
 0.2014473678315E-01 -0.1507530130141E-01
 0.2145983106077E-01 -0.1549523791621E-01
 0.2283756165796E-01 -0.1590817952785E-01
 0.2428201153552E-01 -0.1631588743951E-01
 0.2579663302514E-01 -0.1672089151398E-01
 0.2738322849619E-01 -0.1712666807955E-01
 0.2904017214491E-01 -0.1753894158271E-01
 0.3076023799092E-01 -0.1796555494548E-01
 0.3252841919648E-01 -0.1841544886337E-01
 0.3432071860848E-01 -0.1889665635576E-01
 0.3610504890837E-01 -0.1941395975720E-01
 0.1023840292847E-03 -0.5054997601071E-03
 0.2631154972104E-03 -0.1023680413373E-02
 0.4757065868097E-03 -0.1553567875808E-02
 0.7342090793198E-03 -0.2093216780711E-02
 0.1033879955985E-02 -0.2640155655783E-02
 0.1371380650018E-02 -0.3191856077464E-02
 0.1744624929847E-02 -0.3746074357734E-02
 0.2152469524279E-02 -0.4301009747393E-02
 0.2594393944042E-02 -0.4855314904193E-02
 0.3070245680349E-02 -0.5408031629272E-02
 0.3580063427486E-02 -0.5958500209961E-02
 0.4123966661675E-02 -0.6506271567795E-02
 0.4702095707968E-02 -0.7051035736246E-02
 0.5314582547090E-02 -0.7592564007437E-02
 0.5961543015515E-02 -0.8130664520710E-02
 0.6643084954837E-02 -0.8665148778488E-02
 0.7359333694190E-02 -0.9195809034391E-02
 0.8110424307796E-02 -0.9722369016395E-02
 0.8896598752547E-02 -0.1024450707922E-01
 0.9718184640062E-02 -0.1076179042773E-01
 0.1057567599320E-01 -0.1127368048081E-01
 0.1146978064089E-01 -0.1177951488169E-01
 0.1240146981329E-01 -0.1227849660918E-01
 0.1337204177641E-01 -0.1276983330393E-01
 0.1438320848557E-01 -0.1325342794941E-01
 0.1543706444339E-01 -0.1372960560251E-01
 0.1653606155028E-01 -0.1419867636566E-01
 0.1768303025382E-01 -0.1466070588360E-01
 0.1888124777979E-01 -0.1511549745999E-01
 0.2013449716016E-01 -0.1556274668675E-01
 0.2144709236437E-01 -0.1600231488875E-01
 0.2282378018343E-01 -0.1643459980559E-01
 0.2426945482722E-01 -0.1686102024030E-01
 0.2578866619914E-01 -0.1728372622854E-01
 0.2738459016870E-01 -0.1770586758354E-01
 0.2905710155125E-01 -0.1813313883346E-01
 0.3080022539259E-01 -0.1857383667947E-01
 0.3259934866941E-01 -0.1903789146921E-01
 0.3442929783546E-01 -0.1953463290475E-01
 0.3625505351196E-01 -0.2006976383038E-01
 0.1104823773150E-03 -0.5202437332118E-03
 0.2793365070908E-03 -0.1053988222672E-02
 0.4994350882768E-03 -0.1600087866135E-02
 0.7643470316662E-03 -0.2156298775728E-02
 0.1069103677138E-02 -0.2719835822243E-02
 0.1410369771047E-02 -0.3287932719784E-02
 0.1786201996870E-02 -0.3858216735911E-02
 0.2195653517843E-02 -0.4428853157850E-02
 0.2638398047307E-02 -0.4998523338708E-02
 0.3114448924568E-02 -0.5566330034555E-02
 0.3623975283518E-02 -0.6131686018310E-02
 0.4167193853857E-02 -0.6694214954778E-02
 0.4744314427796E-02 -0.7253675203928E-02
 0.5355516287858E-02 -0.7809900950425E-02
 0.6000945141726E-02 -0.8362758535671E-02
 0.6680724905481E-02 -0.8912114325224E-02
 0.7394985885761E-02 -0.9457813467067E-02
 0.8143859306030E-02 -0.9999630584471E-02
 0.8927576358739E-02 -0.1053729411449E-01
 0.9746449682885E-02 -0.1107041822064E-01
 0.1060095740866E-01 -0.1159850700800E-01
 0.1149179488543E-01 -0.1212093408223E-01
 0.1241992909385E-01 -0.1263692900415E-01
 0.1338666813619E-01 -0.1314572106745E-01
 0.1439375733794E-01 -0.1364726287185E-01
 0.1544334605527E-01 -0.1414194006054E-01
 0.1653796221132E-01 -0.1463010504726E-01
 0.1768054159094E-01 -0.1511182352818E-01
 0.1887451501825E-01 -0.1558683791663E-01
 0.2012389931972E-01 -0.1605470751452E-01
 0.2143336923064E-01 -0.1651507072574E-01
 0.2280822249806E-01 -0.1696801171526E-01
 0.2425417095607E-01 -0.1741456097745E-01
 0.2577692153586E-01 -0.1785640252176E-01
 0.2738117506131E-01 -0.1829623357696E-01
 0.2906858108275E-01 -0.1873958497999E-01
 0.3083479669886E-01 -0.1919513372573E-01
 0.3266596030420E-01 -0.1967386415217E-01
 0.3453588642120E-01 -0.2018662484819E-01
 0.3640605131878E-01 -0.2074028213897E-01
 0.1191431894918E-03 -0.5351660650534E-03
 0.2966831287603E-03 -0.1084721748305E-02
 0.5247429298297E-03 -0.1647308467519E-02
 0.7963502746195E-03 -0.2220323506838E-02
 0.1106316090641E-02 -0.2800622069144E-02
 0.1451351125706E-02 -0.3385184537010E-02
 0.1829704600245E-02 -0.3971519305457E-02
 0.2240665509318E-02 -0.4557779983857E-02
 0.2684126895477E-02 -0.5142699858731E-02
 0.3160281392718E-02 -0.5725461384314E-02
 0.3669434451087E-02 -0.6305562949055E-02
 0.4211901721281E-02 -0.6882709399374E-02
 0.4787962084701E-02 -0.7456732615423E-02
 0.5397840904446E-02 -0.8027532946682E-02
 0.6041712266650E-02 -0.8595037326141E-02
 0.6719714583618E-02 -0.9159169272189E-02
 0.7431981423648E-02 -0.9719829612023E-02
 0.8178638103251E-02 -0.1027684760215E-01
 0.8959902371427E-02 -0.1083000676855E-01
 0.9776068326386E-02 -0.1137897468511E-01
 0.1062759361792E-01 -0.1192330605869E-01
 0.1151515559804E-01 -0.1246241978284E-01
 0.1243971077940E-01 -0.1299558274718E-01
 0.1340257034805E-01 -0.1352205822803E-01
 0.1440550577255E-01 -0.1404186259500E-01
 0.1545071222472E-01 -0.1455545858630E-01
 0.1654078086756E-01 -0.1506326006574E-01
 0.1767873455744E-01 -0.1556535412410E-01
 0.1886813293273E-01 -0.1606144437679E-01
 0.2011319552115E-01 -0.1655097361823E-01
 0.2141892293052E-01 -0.1703336912352E-01
 0.2279113247059E-01 -0.1750839564499E-01
 0.2423634231619E-01 -0.1797665793430E-01
 0.2576145673380E-01 -0.1843928787666E-01
 0.2737284317174E-01 -0.1889838715902E-01
 0.2907422154960E-01 -0.1935915130094E-01
 0.3086333215905E-01 -0.1983051529890E-01
 0.3272755756853E-01 -0.2032456443634E-01
 0.3463990868719E-01 -0.2085389588979E-01
 0.3655812462249E-01 -0.2142708148031E-01
 0.1284251157533E-03 -0.5503018883182E-03
 0.3152703306499E-03 -0.1115961064470E-02
 0.5517735258556E-03 -0.1695351813405E-02
 0.8303571668561E-03 -0.2285437820845E-02
 0.1145628443160E-02 -0.2882663097373E-02
 0.1494401966950E-02 -0.3483743610730E-02
 0.1875179379009E-02 -0.4086087597844E-02
 0.2287528987206E-02 -0.4687866695309E-02
 0.2731588410654E-02 -0.5287893695450E-02
 0.3207741541749E-02 -0.5885451130945E-02
 0.3716434318614E-02 -0.6480136151980E-02
 0.4258081597258E-02 -0.7071742500121E-02
 0.4833030016612E-02 -0.7660179811199E-02
 0.5441549225182E-02 -0.8245416917364E-02
 0.6083839919409E-02 -0.8827442874195E-02
 0.6760053381215E-02 -0.9406239911202E-02
 0.7470324845263E-02 -0.9981766732764E-02
 0.8214771898223E-02 -0.1055391055169E-01
 0.8993596446999E-02 -0.1112251478338E-01
 0.9807070731707E-02 -0.1168730690174E-01
 0.1065562749762E-01 -0.1224790041682E-01
 0.1153992066847E-01 -0.1280376933857E-01
 0.1246089018270E-01 -0.1335422932536E-01
 0.1341984382695E-01 -0.1389859086941E-01
 0.1441857245281E-01 -0.1443694940774E-01
 0.1545930851536E-01 -0.1496986288771E-01
 0.1654469383532E-01 -0.1549782817161E-01
 0.1767781951778E-01 -0.1602097873954E-01
 0.1886234732755E-01 -0.1653900696509E-01
 0.2010266424982E-01 -0.1705126687401E-01
 0.2140405403088E-01 -0.1755699739563E-01
 0.2277280863975E-01 -0.1805565170561E-01
 0.2421622059144E-01 -0.1854738499569E-01
 0.2574240555010E-01 -0.1903269742522E-01
 0.2735951871523E-01 -0.1951293962158E-01
 0.2907365653232E-01 -0.1999275747378E-01
 0.3088517285851E-01 -0.2048116029423E-01
 0.3278333222120E-01 -0.2099132822562E-01
 0.3474073873361E-01 -0.2153791884087E-01
 0.3671114845803E-01 -0.2213168372702E-01
 0.1383979994185E-03 -0.5656951680065E-03
 0.3352337113344E-03 -0.1147805505769E-02
 0.5806913401311E-03 -0.1744366655843E-02
 0.8665198945081E-03 -0.2351815790843E-02
 0.1187156703151E-02 -0.2966129482336E-02
 0.1539597429979E-02 -0.3583756119444E-02
 0.1922667290854E-02 -0.4202034135870E-02
 0.2336260669763E-02 -0.4819191673232E-02
 0.2780783983831E-02 -0.5434152946360E-02
 0.3256822028280E-02 -0.6046322054751E-02
 0.3764963240273E-02 -0.6655407508619E-02
 0.4305720381813E-02 -0.7261298503818E-02
 0.4879505499189E-02 -0.7863985419313E-02
 0.5486630154956E-02 -0.8463506742371E-02
 0.6127319636957E-02 -0.9059914190129E-02
 0.6801736459972E-02 -0.9653249423006E-02
 0.7510016100773E-02 -0.1024353053370E-01
 0.8252266892384E-02 -0.1083070549999E-01
 0.9028672861493E-02 -0.1141468212804E-01
 0.9839481406108E-02 -0.1199525424758E-01
 0.1068509616967E-01 -0.1257210261766E-01
 0.1156614233595E-01 -0.1314476667537E-01
 0.1248353730234E-01 -0.1371262294930E-01
 0.1343857932274E-01 -0.1427504321026E-01
 0.1443307252196E-01 -0.1483221826462E-01
 0.1546927891001E-01 -0.1538482078381E-01
 0.1654987899056E-01 -0.1593345433744E-01
 0.1767801326429E-01 -0.1647832720298E-01
 0.1885741771387E-01 -0.1701915344353E-01
 0.2009260822500E-01 -0.1755523437058E-01
 0.2138910189276E-01 -0.1808565571170E-01
 0.2275360694827E-01 -0.1860958384988E-01
 0.2419413512083E-01 -0.1912672033288E-01
 0.2571999396917E-01 -0.1963686943848E-01
 0.2734121281037E-01 -0.2014047063228E-01
 0.2906656583241E-01 -0.2064136290703E-01
 0.3089962520990E-01 -0.2114836261180E-01
 0.3283236476603E-01 -0.2167567183569E-01
 0.3483761308190E-01 -0.2224032753629E-01
 0.3686490832517E-01 -0.2285581400922E-01
 0.1491459531240E-03 -0.5814015563201E-03
 0.3567345265451E-03 -0.1180379530336E-02
 0.6116854481546E-03 -0.1794535365491E-02
 0.9050049584024E-03 -0.2419664198859E-02
 0.1231019815166E-02 -0.3051216333546E-02
 0.1587008112487E-02 -0.3685382574237E-02
 0.1972201533074E-02 -0.4319477355328E-02
 0.2386869079684E-02 -0.4951833753611E-02
 0.2831707631291E-02 -0.5581523246981E-02
 0.3307509268963E-02 -0.6208093247983E-02
 0.3815004340483E-02 -0.6831374953757E-02
 0.4354800475351E-02 -0.7451357932035E-02
 0.4927371731463E-02 -0.8068114743527E-02
 0.5533068660050E-02 -0.8681753372970E-02
 0.6172138908361E-02 -0.9292387622461E-02
 0.6844754620432E-02 -0.9900118364603E-02
 0.7551050313639E-02 -0.1050502380504E-01
 0.8291123910523E-02 -0.1110711487256E-01
 0.9065139967474E-02 -0.1170636785741E-01
 0.9873318485162E-02 -0.1230264927873E-01
 0.1071603010897E-01 -0.1289571578725E-01
 0.1159386611968E-01 -0.1348518302692E-01
 0.1250771555273E-01 -0.1407050114265E-01
 0.1345886140269E-01 -0.1465111800745E-01
 0.1444911577920E-01 -0.1522733694527E-01
 0.1548076362539E-01 -0.1579996600504E-01
 0.1655651318437E-01 -0.1636974097026E-01
 0.1767953603968E-01 -0.1693697630985E-01
 0.1885361406115E-01 -0.1750144570575E-01
 0.2008335127510E-01 -0.1806244208119E-01
 0.2137444262888E-01 -0.1861894636149E-01
 0.2273394170639E-01 -0.1916988282747E-01
 0.2417050003834E-01 -0.1971452170457E-01
 0.2569455707975E-01 -0.2025193416636E-01
 0.2731805125880E-01 -0.2078149760611E-01
 0.2905270603991E-01 -0.2130594809728E-01
 0.3090597902482E-01 -0.2183354080720E-01
 0.3287360508343E-01 -0.2237931254133E-01
 0.3492958865359E-01 -0.2296297962067E-01
 0.3701910449418E-01 -0.2360145068665E-01
 0.1607715613819E-03 -0.5974924325797E-03
 0.3799662248570E-03 -0.1213840794868E-02
 0.6449735408041E-03 -0.1846083050724E-02
 0.9459929579050E-03 -0.2489228996462E-02
 0.1277336932279E-02 -0.3138145764785E-02
 0.1636696923617E-02 -0.3788797323336E-02
 0.2023805132744E-02 -0.4438539797807E-02
 0.2439353052731E-02 -0.5085870253626E-02
 0.2884345204370E-02 -0.5730046130270E-02
 0.3359783090181E-02 -0.6370778926471E-02
 0.3866535408523E-02 -0.7008031707847E-02
 0.4405299792270E-02 -0.7641897165475E-02
 0.4976607890195E-02 -0.8272529635668E-02
 0.5580845812748E-02 -0.8900104945164E-02
 0.6218281172327E-02 -0.9524797182416E-02
 0.6889094218636E-02 -0.1014676518689E-01
 0.7593417581069E-02 -0.1076614711870E-01
 0.8331338048682E-02 -0.1138301830415E-01
 0.9102999659084E-02 -0.1199742707345E-01
 0.9908593000518E-02 -0.1260931873486E-01
 0.1074845221676E-01 -0.1321853461100E-01
 0.1162312970164E-01 -0.1382477779885E-01
 0.1253348043634E-01 -0.1442758546016E-01
 0.1348076685955E-01 -0.1502649710827E-01
 0.1446680474818E-01 -0.1562194641727E-01
 0.1549389675689E-01 -0.1621489829335E-01
 0.1656476937810E-01 -0.1680624755891E-01
 0.1768260809202E-01 -0.1739644861979E-01
 0.1885121277800E-01 -0.1798537699565E-01
 0.2007523398555E-01 -0.1857236927285E-01
 0.2136048522829E-01 -0.1915636342537E-01
 0.2271428415797E-01 -0.1973610843835E-01
 0.2414581907355E-01 -0.2031049848703E-01
 0.2566655563243E-01 -0.2087787519022E-01
 0.2729030667699E-01 -0.2143643260402E-01
 0.2903195267682E-01 -0.2198748404090E-01
 0.3090353644713E-01 -0.2253823814042E-01
 0.3290585791550E-01 -0.2310420639749E-01
 0.3501549361008E-01 -0.2370802196478E-01
 0.3717333642531E-01 -0.2437089647934E-01
 0.1734017368416E-03 -0.6140607371124E-03
 0.4051630009077E-03 -0.1248391450513E-02
 0.6808062187892E-03 -0.1899289484676E-02
 0.9896771642972E-03 -0.2560802740971E-02
 0.1326223263986E-02 -0.3227168782740E-02
 0.1688715109750E-02 -0.3894186965911E-02
 0.2077488264612E-02 -0.4559345403700E-02
 0.2493700269087E-02 -0.5221374453604E-02
 0.2938673724996E-02 -0.5879757116667E-02
 0.3413616519106E-02 -0.6534387140762E-02
 0.3919528921323E-02 -0.7185365506659E-02
 0.4457191884417E-02 -0.7832888083195E-02
 0.5027189278781E-02 -0.8477188460106E-02
 0.5629938920060E-02 -0.9118507014169E-02
 0.6265725892604E-02 -0.9757075017961E-02
 0.6934737156387E-02 -0.1039310693524E-01
 0.7637102842157E-02 -0.1102679974935E-01
 0.8372898377678E-02 -0.1165829376605E-01
 0.9142246871532E-02 -0.1228771221943E-01
 0.9945308154307E-02 -0.1291508492719E-01
 0.1078237687500E-01 -0.1354034672092E-01
 0.1165396177479E-01 -0.1416329987258E-01
 0.1256087817355E-01 -0.1478358266698E-01
 0.1350436306714E-01 -0.1540084251014E-01
 0.1448623266822E-01 -0.1601566180082E-01
 0.1550880379262E-01 -0.1662918426059E-01
 0.1657481354312E-01 -0.1724249129882E-01
 0.1768744580299E-01 -0.1785621250135E-01
 0.1885049193579E-01 -0.1847037066458E-01
 0.2006860804957E-01 -0.1908440468843E-01
 0.2134766557721E-01 -0.1969728418829E-01
 0.2269515794249E-01 -0.2030767272838E-01
 0.2412068664121E-01 -0.2091418211212E-01
 0.2563659024615E-01 -0.2151448374515E-01
 0.2725843408629E-01 -0.2210552495500E-01
 0.2900435548180E-01 -0.2268688297616E-01
 0.3089165968253E-01 -0.2326411243386E-01
 0.3292777737197E-01 -0.2385259463101E-01
 0.3509386484143E-01 -0.2447797462994E-01
 0.3732706524795E-01 -0.2516687023753E-01
 0.1871960612849E-03 -0.6312295969266E-03
 0.4326110372810E-03 -0.1284294202309E-02
 0.7194711819293E-03 -0.1954504710412E-02
 0.1036260090491E-02 -0.2634732774817E-02
 0.1377784086612E-02 -0.3318565899506E-02
 0.1743097398342E-02 -0.4001747144942E-02
 0.2133245390385E-02 -0.4682015656864E-02
 0.2549885894665E-02 -0.5358412433604E-02
 0.2994660892125E-02 -0.6030683467653E-02
 0.3468975728903E-02 -0.6698918307704E-02
 0.3973952187565E-02 -0.7363357722978E-02
 0.4510446156442E-02 -0.8024297620655E-02
 0.5079087546992E-02 -0.8682045981669E-02
 0.5680321710615E-02 -0.9336902707567E-02
 0.6314448685560E-02 -0.9989151800167E-02
 0.6981660921701E-02 -0.1063905986023E-01
 0.7682085794016E-02 -0.1128688051248E-01
 0.8415787686086E-02 -0.1193281862841E-01
 0.9182869099653E-02 -0.1257707433352E-01
 0.9983458581660E-02 -0.1321976710173E-01
 0.1081780895906E-01 -0.1386093404920E-01
 0.1168638083464E-01 -0.1450048883716E-01
 0.1258994427754E-01 -0.1513818579644E-01
 0.1352970628843E-01 -0.1577379727173E-01
 0.1450748143747E-01 -0.1640807321498E-01
 0.1552559905375E-01 -0.1704235823765E-01
 0.1658680140953E-01 -0.1767794789864E-01
 0.1769425749650E-01 -0.1831568262241E-01
 0.1885172585034E-01 -0.1895577969740E-01
 0.2006382940060E-01 -0.1959784383729E-01
 0.2133643829767E-01 -0.2024096185736E-01
 0.2267713094337E-01 -0.2088382405313E-01
 0.2409578377005E-01 -0.2152489504777E-01
 0.2560541062317E-01 -0.2216130523418E-01
 0.2722310736996E-01 -0.2278878485777E-01
 0.2897020848308E-01 -0.2340492037520E-01
 0.3086984657758E-01 -0.2401290326920E-01
 0.3293787923675E-01 -0.2462705278666E-01
 0.3516286643232E-01 -0.2527583964556E-01
 0.3747954906032E-01 -0.2599263214737E-01
 0.2023589577163E-03 -0.6491654212026E-03
 0.4626632945713E-03 -0.1321895538707E-02
 0.7612964694877E-03 -0.2012169384111E-02
 0.1085946890423E-02 -0.2711429508548E-02
 0.1432106454839E-02 -0.3412645424041E-02
 0.1799856351268E-02 -0.4111677147707E-02
 0.2191052435697E-02 -0.4806664461602E-02
 0.2607871491052E-02 -0.5497039329417E-02
 0.3052264855075E-02 -0.6182841713437E-02
 0.3525820198484E-02 -0.6864363685142E-02
 0.4029767655160E-02 -0.7541982510704E-02
 0.4565028206157E-02 -0.8216087386580E-02
 0.5132271010990E-02 -0.8887053330299E-02
 0.5731964608347E-02 -0.9555232967364E-02
 0.6364421529623E-02 -0.1022095721225E-01
 0.7029838711798E-02 -0.1088454015243E-01
 0.7728340892143E-02 -0.1154628876160E-01
 0.8459982302372E-02 -0.1220647093582E-01
 0.9224845974483E-02 -0.1286536458500E-01
 0.1002302963202E-01 -0.1352318315170E-01
 0.1085474282611E-01 -0.1418007456670E-01
 0.1172039392202E-01 -0.1483607659853E-01
 0.1262070208214E-01 -0.1549107555413E-01
 0.1355683995377E-01 -0.1614498676411E-01
 0.1453061954374E-01 -0.1679874703541E-01
 0.1554438311891E-01 -0.1745392371701E-01
 0.1660087514202E-01 -0.1811205327567E-01
 0.1770323902240E-01 -0.1877422172772E-01
 0.1885517912649E-01 -0.1944088803100E-01
 0.2006125021135E-01 -0.2011188869752E-01
 0.2132726636675E-01 -0.2078652134393E-01
 0.2266080307349E-01 -0.2146363451408E-01
 0.2407186730420E-01 -0.2214172180980E-01
 0.2557391610071E-01 -0.2281758143944E-01
 0.2718525155002E-01 -0.2348588747389E-01
 0.2893013422118E-01 -0.2414211844936E-01
 0.3083784531651E-01 -0.2478636024252E-01
 0.3293458733257E-01 -0.2543053576311E-01
 0.3522018675063E-01 -0.2610524774929E-01
 0.3762973642680E-01 -0.2685216341449E-01
 0.2191579369735E-03 -0.6680983909612E-03
 0.4957588527306E-03 -0.1361659940523E-02
 0.8066510494299E-03 -0.2072840961100E-02
 0.1138933898867E-02 -0.2791373317622E-02
 0.1489248229847E-02 -0.3509737830000E-02
 0.1858976224523E-02 -0.4224171671843E-02
 0.2250864308484E-02 -0.4933391688403E-02
 0.2667604354706E-02 -0.5637295070922E-02
 0.3111434327010E-02 -0.6336235008197E-02
 0.3584103118368E-02 -0.7030703819897E-02
 0.4086933392743E-02 -0.7721205978705E-02
 0.4620900290713E-02 -0.8408213326440E-02
 0.5186705070353E-02 -0.9092158014271E-02
 0.5784835088750E-02 -0.9773436838883E-02
 0.6415613053575E-02 -0.1045242048638E-01
 0.7079239639054E-02 -0.1112946473410E-01
 0.7775837441415E-02 -0.1180492546745E-01
 0.8505452009865E-02 -0.1247913081409E-01
 0.9268148915128E-02 -0.1315243601673E-01
 0.1006399667991E-01 -0.1382515161514E-01
 0.1089316127417E-01 -0.1449754434661E-01
 0.1175599529923E-01 -0.1516978928391E-01
 0.1265316120643E-01 -0.1584192193715E-01
 0.1358579291226E-01 -0.1651402007519E-01
 0.1455570001907E-01 -0.1718722734281E-01
 0.1556524030888E-01 -0.1786335517116E-01
 0.1661716005755E-01 -0.1854420595731E-01
 0.1771456926701E-01 -0.1923114357624E-01
 0.1886110036057E-01 -0.1992491362466E-01
 0.2006120999436E-01 -0.2062564997243E-01
 0.2132060872316E-01 -0.2133295864784E-01
 0.2264678993668E-01 -0.2204599210046E-01
 0.2404975124106E-01 -0.2276348484262E-01
 0.2554314341133E-01 -0.2348219274953E-01
 0.2714606274992E-01 -0.2419605855583E-01
 0.2888517672164E-01 -0.2489857815218E-01
 0.3079582076211E-01 -0.2558610337476E-01
 0.3291634240770E-01 -0.2626639912364E-01
 0.3526291716805E-01 -0.2697065649421E-01
 0.3777609013966E-01 -0.2775043164740E-01
 0.2379517730096E-03 -0.6883556425327E-03
 0.5324477248864E-03 -0.1404221193102E-02
 0.8559394823134E-03 -0.2137226432015E-02
 0.1195390028070E-02 -0.2875117003306E-02
 0.1549224390277E-02 -0.3610183969241E-02
 0.1920406975806E-02 -0.4339409264448E-02
 0.2312613158780E-02 -0.5062275515744E-02
 0.2729017449392E-02 -0.5779199739425E-02
 0.3172109106556E-02 -0.6490850398757E-02
 0.3643772068488E-02 -0.7197907018914E-02
 0.4145403750832E-02 -0.7900985414229E-02
 0.4678021915986E-02 -0.8600625430652E-02
 0.5242352716514E-02 -0.9297303963986E-02
 0.5838898111736E-02 -0.9991451775303E-02
 0.6467988899258E-02 -0.1068347094517E-01
 0.7129829019190E-02 -0.1137375205309E-01
 0.7824539784105E-02 -0.1206269431322E-01
 0.8552160071443E-02 -0.1275068193776E-01
 0.9312740880871E-02 -0.1343814543340E-01
 0.1010632448415E-01 -0.1412549392308E-01
 0.1093303446746E-01 -0.1481311993838E-01
 0.1179316503101E-01 -0.1550134940929E-01
 0.1268731592249E-01 -0.1619038597327E-01
 0.1361657764301E-01 -0.1688049139464E-01
 0.1458275844857E-01 -0.1757303734190E-01
 0.1558823631588E-01 -0.1827010003188E-01
 0.1663576151692E-01 -0.1897377001937E-01
 0.1772840576428E-01 -0.1968571692626E-01
 0.1886971573594E-01 -0.2040701323679E-01
 0.2006402613538E-01 -0.2113815200500E-01
 0.2131690626732E-01 -0.2187914434282E-01
 0.2263570270106E-01 -0.2262959888929E-01
 0.2403027983226E-01 -0.2338872857430E-01
 0.2551423786658E-01 -0.2415360744300E-01
 0.2710700421323E-01 -0.2491794884483E-01
 0.2883688887770E-01 -0.2567374876848E-01
 0.3074458234531E-01 -0.2641337144192E-01
 0.3288182113904E-01 -0.2713835361957E-01
 0.3528743066483E-01 -0.2787761264919E-01
 0.3791629174749E-01 -0.2869379443760E-01
 0.2592354454641E-03 -0.7104172009167E-03
 0.5734212315153E-03 -0.1450460751775E-02
 0.9095845542781E-03 -0.2206220641724E-02
 0.1255428307930E-02 -0.2963278002009E-02
 0.1611991469600E-02 -0.3714314445538E-02
 0.1984059524007E-02 -0.4457537480073E-02
 0.2376207826723E-02 -0.5193363975538E-02
 0.2792030090406E-02 -0.5922748778553E-02
 0.3234221083715E-02 -0.6646656177365E-02
 0.3704770003459E-02 -0.7365927974972E-02
 0.4205130222102E-02 -0.8081268661912E-02
 0.4736350563950E-02 -0.8793267584799E-02
 0.5299175146354E-02 -0.9502431703012E-02
 0.5894116645673E-02 -0.1020921405872E-01
 0.6521512175288E-02 -0.1091403865554E-01
 0.7181568762085E-02 -0.1161732299456E-01
 0.7874407612945E-02 -0.1231950293058E-01
 0.8600063405906E-02 -0.1302101319720E-01
 0.9358576280711E-02 -0.1372235561005E-01
 0.1014996665042E-01 -0.1442403714041E-01
 0.1097431884961E-01 -0.1512658136831E-01
 0.1183186744780E-01 -0.1583047864986E-01
 0.1272314338368E-01 -0.1653612186947E-01
 0.1364918840406E-01 -0.1724398158974E-01
 0.1461181106847E-01 -0.1795568093094E-01
 0.1561341608203E-01 -0.1867358106481E-01
 0.1665676214754E-01 -0.1940007890698E-01
 0.1774488060183E-01 -0.2013717103203E-01
 0.1888122276616E-01 -0.2088628946934E-01
 0.2006998425891E-01 -0.2164834104928E-01
 0.2131656685431E-01 -0.2242383228375E-01
 0.2262812490306E-01 -0.2321297738084E-01
 0.2401429310444E-01 -0.2401571574786E-01
 0.2548840603300E-01 -0.2482984811284E-01
 0.2706976446732E-01 -0.2564951548023E-01
 0.2878738521210E-01 -0.2646613661708E-01
 0.3068587007084E-01 -0.2726859738703E-01
 0.3283033957904E-01 -0.2805026397941E-01
 0.3528931621546E-01 -0.2883308122356E-01
 0.3804674179524E-01 -0.2969063296405E-01
 0.2837144014672E-03 -0.7350148291934E-03
 0.6195449956705E-03 -0.1501629321573E-02
 0.9679868128496E-03 -0.2280944124018E-02
 0.1319065308003E-02 -0.3056509951035E-02
 0.1677432690741E-02 -0.3822417899809E-02
 0.2049803730050E-02 -0.4578655823148E-02
 0.2441534793130E-02 -0.5326666229785E-02
 0.2856549480621E-02 -0.6067908252346E-02
 0.3297695761696E-02 -0.6803599438283E-02
 0.3767036533087E-02 -0.7534706575708E-02
 0.4266062478899E-02 -0.8261993634025E-02
 0.4795842533039E-02 -0.8986077502620E-02
 0.5357132455417E-02 -0.9707478558077E-02
 0.5950452258046E-02 -0.1042665922412E-01
 0.6576143978990E-02 -0.1114405505632E-01
 0.7234417845745E-02 -0.1186010174494E-01
 0.7925396397369E-02 -0.1257526407926E-01
 0.8649112922045E-02 -0.1329002033484E-01
 0.9405601074245E-02 -0.1400493757646E-01
 0.1019486524247E-01 -0.1472061699314E-01
 0.1101695605029E-01 -0.1543771562616E-01
 0.1187204942635E-01 -0.1615690106786E-01
 0.1276060160771E-01 -0.1687877928391E-01
 0.1368359923952E-01 -0.1760405948243E-01
 0.1464285296313E-01 -0.1833464379861E-01
 0.1564080204316E-01 -0.1907319850660E-01
 0.1668021958662E-01 -0.1982243956707E-01
 0.1776409684869E-01 -0.2058470212469E-01
 0.1889578447306E-01 -0.2136179952662E-01
 0.2007932890477E-01 -0.2215509626294E-01
 0.2131995015687E-01 -0.2296567302753E-01
 0.2262458740222E-01 -0.2379448538076E-01
 0.2400258652613E-01 -0.2464243792635E-01
 0.2546685188008E-01 -0.2550848290368E-01
 0.2703616664264E-01 -0.2638793825441E-01
 0.2873931168506E-01 -0.2727298179934E-01
 0.3062265838543E-01 -0.2815073799921E-01
 0.3276254453019E-01 -0.2900560923692E-01
 0.3526351210643E-01 -0.2984579125303E-01
 0.3816171441859E-01 -0.3075236974988E-01
 0.3124319913508E-03 -0.7633170704156E-03
 0.6718824770546E-03 -0.1559537105399E-02
 0.1031441877789E-02 -0.2362760426578E-02
 0.1386169571481E-02 -0.3155437064111E-02
 0.1745349228857E-02 -0.3934699250970E-02
 0.2117470395461E-02 -0.4702798933949E-02
 0.2508460706420E-02 -0.5462143977436E-02
 0.2922473217470E-02 -0.6214610467053E-02
 0.3362454305815E-02 -0.6961604044257E-02
 0.3830509483181E-02 -0.7704166981808E-02
 0.4328149576827E-02 -0.8443088008834E-02
 0.4856453879437E-02 -0.9178986773814E-02
 0.5416184401563E-02 -0.9912378927786E-02
 0.6007865765601E-02 -0.1064372249841E-01
 0.6631843981429E-02 -0.1137345356509E-01
 0.7288332871058E-02 -0.1210201660637E-01
 0.7977457926013E-02 -0.1282989675713E-01
 0.8699254031288E-02 -0.1355760751652E-01
 0.9453753126773E-02 -0.1428577293576E-01
 0.1024095064113E-01 -0.1501508121535E-01
 0.1106087184070E-01 -0.1574632083542E-01
 0.1191363842288E-01 -0.1648034707821E-01
 0.1279962705886E-01 -0.1721800584878E-01
 0.1371976171215E-01 -0.1796028267916E-01
 0.1467585635809E-01 -0.1870939375339E-01
 0.1567039288230E-01 -0.1946833172788E-01
 0.1670616497083E-01 -0.2024013681302E-01
 0.1778612574100E-01 -0.2102748092747E-01
 0.1891352425840E-01 -0.2183256573521E-01
 0.2009225493809E-01 -0.2265724334220E-01
 0.2132735338697E-01 -0.2350323169875E-01
 0.2262554327472E-01 -0.2437234008402E-01
 0.2399586687572E-01 -0.2526664289856E-01
 0.2545070238540E-01 -0.2618664553545E-01
 0.2700803133194E-01 -0.2712960354062E-01
 0.2869566929625E-01 -0.2808999090612E-01
 0.3055935471694E-01 -0.2905632130527E-01
 0.3268149995847E-01 -0.3000626019066E-01
 0.3520497438611E-01 -0.3092638962008E-01
 0.3825195392161E-01 -0.3189513029559E-01
 0.3469969539690E-03 -0.7973017678664E-03
 0.7316706510357E-03 -0.1626847625106E-02
 0.1099985731741E-02 -0.2453216321215E-02
 0.1456411429522E-02 -0.3260531943516E-02
 0.1815465923353E-02 -0.4051238290203E-02
 0.2186856908562E-02 -0.4829922300753E-02
 0.2576836531094E-02 -0.5599702979325E-02
 0.2989692927037E-02 -0.6362750620172E-02
 0.3428416055362E-02 -0.7120569174286E-02
 0.3895126732730E-02 -0.7874217111843E-02
 0.4391341316519E-02 -0.8624469228509E-02
 0.4918141457615E-02 -0.9371921117634E-02
 0.5476291243486E-02 -0.1011706470420E-01
 0.6066317951050E-02 -0.1086033935158E-01
 0.6688571085083E-02 -0.1160217026829E-01
 0.7343268708869E-02 -0.1234300087149E-01
 0.8030540979759E-02 -0.1308332735360E-01
 0.8750427365405E-02 -0.1382368893668E-01
 0.9502962900225E-02 -0.1456475628507E-01
 0.1028814181902E-01 -0.1530729336115E-01
 0.1110597528130E-01 -0.1605221154476E-01
 0.1195654020583E-01 -0.1680055882520E-01
 0.1284013158984E-01 -0.1755345041811E-01
 0.1375760214111E-01 -0.1831219797952E-01
 0.1471076899983E-01 -0.1907938011423E-01
 0.1570216299469E-01 -0.1985834040411E-01
 0.1673460247178E-01 -0.2065243815610E-01
 0.1781100490138E-01 -0.2146466167779E-01
 0.1893452169151E-01 -0.2229758831925E-01
 0.2010890005688E-01 -0.2315357107209E-01
 0.2133899871592E-01 -0.2403501018707E-01
 0.2263134530618E-01 -0.2494465086867E-01
 0.2399470705259E-01 -0.2588588343618E-01
 0.2544092762833E-01 -0.2686108547607E-01
 0.2698702152848E-01 -0.2787016558923E-01
 0.2865945047572E-01 -0.2891129001098E-01
 0.3050161737369E-01 -0.2997835330346E-01
 0.3259415593579E-01 -0.3104999470838E-01
 0.3511061967756E-01 -0.3208671700783E-01
 0.3830246809768E-01 -0.3314244373259E-01
 0.3900053144689E-03 -0.8405820241666E-03
 0.8001334963839E-03 -0.1707492322786E-02
 0.1173135765269E-02 -0.2553757528958E-02
 0.1529255319206E-02 -0.3371943432728E-02
 0.1887456076500E-02 -0.4171973545519E-02
 0.2257733050973E-02 -0.4959886024428E-02
 0.2646504461432E-02 -0.5739186207824E-02
 0.3058098743325E-02 -0.6512185082309E-02
 0.3495501376139E-02 -0.7280368332834E-02
 0.3960828292894E-02 -0.8044748645872E-02
 0.4455589689757E-02 -0.8806044716785E-02
 0.4980864019902E-02 -0.9564800773225E-02
 0.5537414610737E-02 -0.1032146573516E-01
 0.6125770309221E-02 -0.1107644602613E-01
 0.6746284117513E-02 -0.1183014453349E-01
 0.7399179203840E-02 -0.1258299356660E-01
 0.8084592100930E-02 -0.1333549061830E-01
 0.8802569664206E-02 -0.1408819017750E-01
 0.9553154496055E-02 -0.1484179732770E-01
 0.1033634721834E-01 -0.1559713660361E-01
 0.1115215830990E-01 -0.1635522505657E-01
 0.1200063622659E-01 -0.1711729738107E-01
 0.1288199829625E-01 -0.1788476709404E-01
 0.1379701791720E-01 -0.1865934051260E-01
 0.1474751257109E-01 -0.1944403094762E-01
 0.1573606293082E-01 -0.2024256419883E-01
 0.1676551023105E-01 -0.2105859838047E-01
 0.1783873795544E-01 -0.2189539205920E-01
 0.1895880931837E-01 -0.2275586004968E-01
 0.2012933869354E-01 -0.2364284941063E-01
 0.2135502299287E-01 -0.2455947224720E-01
 0.2264222844425E-01 -0.2550945671450E-01
 0.2399950756586E-01 -0.2649758592625E-01
 0.2543825102546E-01 -0.2752826329037E-01
 0.2697451172104E-01 -0.2860463368103E-01
 0.2863318106439E-01 -0.2972973916352E-01
 0.3045533459618E-01 -0.3090573855635E-01
 0.3251265965256E-01 -0.3212605850719E-01
 0.3498402613708E-01 -0.3333615989226E-01
 0.3828957628114E-01 -0.3452929852358E-01
 0.4458434033666E-03 -0.9005034663107E-03
 0.8777932915925E-03 -0.1806996505175E-02
 0.1249566447542E-02 -0.2664892777958E-02
 0.1604086204655E-02 -0.3489429829318E-02
 0.1960958716512E-02 -0.4296712216314E-02
 0.2329848509650E-02 -0.5092424659571E-02
 0.2717309493412E-02 -0.5880377597967E-02
 0.3127583113761E-02 -0.6662728549187E-02
 0.3563635371581E-02 -0.7440850135593E-02
 0.4027558404703E-02 -0.8215637451855E-02
 0.4520850483794E-02 -0.8987712616037E-02
 0.5044583381305E-02 -0.9757541231110E-02
 0.5599518446372E-02 -0.1052551058858E-01
 0.6186185862239E-02 -0.1129198033125E-01
 0.6804942605253E-02 -0.1205731986866E-01
 0.7456017977220E-02 -0.1282194042700E-01
 0.8139556502478E-02 -0.1358633083681E-01
 0.8855614865866E-02 -0.1435104975955E-01
 0.9604247075692E-02 -0.1511682305147E-01
 0.1038546652332E-01 -0.1588451762570E-01
 0.1119929638399E-01 -0.1665522948815E-01
 0.1204578077592E-01 -0.1743035385382E-01
 0.1292507557699E-01 -0.1821162173246E-01
 0.1383787221475E-01 -0.1900123164775E-01
 0.1478598117997E-01 -0.1980274791532E-01
 0.1577202127259E-01 -0.2062032143206E-01
 0.1679884319768E-01 -0.2145786483611E-01
 0.1786929595156E-01 -0.2231882539496E-01
 0.1898637091943E-01 -0.2320638436448E-01
 0.2015357636786E-01 -0.2412385155574E-01
 0.2137547208197E-01 -0.2507506817980E-01
 0.2265829483997E-01 -0.2606477534808E-01
 0.2401047970169E-01 -0.2709911575842E-01
 0.2544305463320E-01 -0.2818453924138E-01
 0.2697143925960E-01 -0.2932746344281E-01
 0.2861873515127E-01 -0.3053732548617E-01
 0.3042451484086E-01 -0.3182470292134E-01
 0.3245324368011E-01 -0.3320946411865E-01
 0.3484542786713E-01 -0.3466916669139E-01
 0.3817884925164E-01 -0.3610640217682E-01
 0.5221590406927E-03 -0.9946481408470E-03
 0.9622513616718E-03 -0.1930796507098E-02
 0.1327241167147E-02 -0.2784651196127E-02
 0.1680500538514E-02 -0.3612931553644E-02
 0.2035497737509E-02 -0.4424909064300E-02
 0.2402988244917E-02 -0.5227199751308E-02
 0.2789097026523E-02 -0.6022987515921E-02
 0.3198049540552E-02 -0.6814158399758E-02
 0.3632750426595E-02 -0.7601838545661E-02
 0.4095267994293E-02 -0.8386744765312E-02
 0.4587084757592E-02 -0.9169362588128E-02
 0.5109265557108E-02 -0.9950053953448E-02
 0.5662569888767E-02 -0.1072912715108E-01
 0.6247529925743E-02 -0.1150688216807E-01
 0.6864507506857E-02 -0.1228364441083E-01
 0.7513739206690E-02 -0.1305979439890E-01
 0.8195378982933E-02 -0.1383580240906E-01
 0.8909495287245E-02 -0.1461221992926E-01
 0.9656156419142E-02 -0.1538977901964E-01
 0.1043539328214E-01 -0.1616936869703E-01
 0.1124725118776E-01 -0.1695213145857E-01
 0.1209179842467E-01 -0.1773956574277E-01
 0.1296916781949E-01 -0.1853370156607E-01
 0.1387998569815E-01 -0.1933737212296E-01
 0.1482604003990E-01 -0.2015489519975E-01
 0.1580994853376E-01 -0.2099090417599E-01
 0.1683453831326E-01 -0.2184948121782E-01
 0.1790262113488E-01 -0.2273413259727E-01
 0.1901714129434E-01 -0.2364819498758E-01
 0.2018154510189E-01 -0.2459537733903E-01
 0.2140029363758E-01 -0.2558025776809E-01
 0.2267952214375E-01 -0.2660863428866E-01
 0.2402760183085E-01 -0.2768790212342E-01
 0.2545543900919E-01 -0.2882621839366E-01
 0.2697784065548E-01 -0.3003328825574E-01
 0.2861778370186E-01 -0.3132420536725E-01
 0.3040968825455E-01 -0.3272328581205E-01
 0.3242723522036E-01 -0.3426111549969E-01
 0.3474672693370E-01 -0.3603294162904E-01
 0.3793587888564E-01 -0.3792537082286E-01
 0.2702090187671E-01 -0.2123280446163E-03
 0.2412771465885E-01 -0.1754849877398E-02
 0.2388829763902E-01 -0.3428326579923E-02
 0.2603754074014E-01 -0.5256769981888E-02
 0.3034216308294E-01 -0.7255107103735E-02
 0.3659084185270E-01 -0.9426564655620E-02
 0.4458698349543E-01 -0.1176584802136E-01
 0.5415153602538E-01 -0.1426265100922E-01
 0.6512404479887E-01 -0.1690559992809E-01
 0.7736254595200E-01 -0.1968677180545E-01
 0.9074277067281E-01 -0.2260450940074E-01
 0.1051555797514E+00 -0.2566142690236E-01
 0.1205041331894E+00 -0.2885848321916E-01
 0.1367019382684E+00 -0.3219002851099E-01
 0.1536724084171E+00 -0.3564248653309E-01
 0.1713504835302E+00 -0.3919571071352E-01
 0.1896843694306E+00 -0.4282338886412E-01
 0.2086266458429E+00 -0.4649837743219E-01
 0.2281440310718E+00 -0.5019346146498E-01
 0.2724571573228E-01 -0.8215563521254E-03
 0.2452767254405E-01 -0.2539341748710E-02
 0.2448822017937E-01 -0.4442665763593E-02
 0.2685662145688E-01 -0.6549093385871E-02
 0.3139401861279E-01 -0.8866552738080E-02
 0.3788340586019E-01 -0.1139348776903E-01
 0.4612423852792E-01 -0.1412078069943E-01
 0.5593403970502E-01 -0.1703462005441E-01
 0.6714924728335E-01 -0.2012000620326E-01
 0.7962525188056E-01 -0.2336526984979E-01
 0.9323568061715E-01 -0.2676491623843E-01
 0.1078697304537E+00 -0.3031775811844E-01
 0.1234290508430E+00 -0.3402137234193E-01
 0.1398257857142E+00 -0.3786743067886E-01
 0.1569823465384E+00 -0.4184034344517E-01
 0.1748328747421E+00 -0.4591783460045E-01
 0.1933238173019E+00 -0.5007110389727E-01
 0.2124084312902E+00 -0.5426624888352E-01
 0.2320416516992E+00 -0.5845376620663E-01
 0.2750860637537E-01 -0.1426566849316E-02
 0.2499304453412E-01 -0.3314456123905E-02
 0.2517471076617E-01 -0.5446839693802E-02
 0.2777949084071E-01 -0.7831514082564E-02
 0.3256344051749E-01 -0.1047014942313E-01
 0.3930483179435E-01 -0.1335623499693E-01
 0.4779947889110E-01 -0.1647666887388E-01
 0.5786166409423E-01 -0.1981399285169E-01
 0.6932486693417E-01 -0.2334968914069E-01
 0.8204198668717E-01 -0.2706849370500E-01
 0.9588465799845E-01 -0.3096118752529E-01
 0.1107404895415E+00 -0.3502287874773E-01
 0.1265097262860E+00 -0.3924776082501E-01
 0.1431032623507E+00 -0.4362462224852E-01
 0.1604424408301E+00 -0.4813522560586E-01
 0.1784601286508E+00 -0.5275435136600E-01
 0.1971006910323E+00 -0.5744926823628E-01
 0.2163134762826E+00 -0.6217858934191E-01
 0.2360476722122E+00 -0.6689314523291E-01
 0.2780770586993E-01 -0.2028732683027E-02
 0.2552215508866E-01 -0.4083824894974E-02
 0.2594682995943E-01 -0.6443564320886E-02
 0.2880550887355E-01 -0.9106828480974E-02
 0.3385030071892E-01 -0.1206851012842E-01
 0.4085541911342E-01 -0.1531713716854E-01
 0.4961340167048E-01 -0.1883548862870E-01
 0.5993552262609E-01 -0.2260243619206E-01
 0.7165250721565E-01 -0.2659599139503E-01
 0.8461491238245E-01 -0.3079739786738E-01
 0.9869248020111E-01 -0.3519380906871E-01
 0.1137712884124E+00 -0.3977667957549E-01
 0.1297502278590E+00 -0.4453677486703E-01
 0.1465389371575E+00 -0.4945978271862E-01
 0.1640574913244E+00 -0.5452447615294E-01
 0.1822371248432E+00 -0.5970239042131E-01
 0.2010192919142E+00 -0.6495705747612E-01
 0.2203502751873E+00 -0.7024487265604E-01
 0.2401775820316E+00 -0.7551828028282E-01
 0.2814181614259E-01 -0.2629225868558E-02
 0.2611357387638E-01 -0.4849489919801E-02
 0.2680345831108E-01 -0.7435378598098E-02
 0.2993401246776E-01 -0.1037741571447E-01
 0.3525434347721E-01 -0.1366385972024E-01
 0.4253531602809E-01 -0.1727812315856E-01
 0.5156655005235E-01 -0.2119881632808E-01
 0.6215658642066E-01 -0.2540113336251E-01
 0.7413361863428E-01 -0.2985966402678E-01
 0.8734601741248E-01 -0.3455223439631E-01
 0.1016617211925E+00 -0.3946244184140E-01
 0.1169653124664E+00 -0.4457812030593E-01
 0.1331543333949E+00 -0.4988656742103E-01
 0.1501371065997E+00 -0.5537026651141E-01
 0.1678322779342E+00 -0.6100494724137E-01
 0.1861691801421E+00 -0.6675916700558E-01
 0.2050866785550E+00 -0.7259423177425E-01
 0.2245291753172E+00 -0.7846591213000E-01
 0.2444445592459E+00 -0.8432841929863E-01
 0.2851005669648E-01 -0.3228848844825E-02
 0.2676609707724E-01 -0.5613028056180E-02
 0.2774351618751E-01 -0.8424254658758E-02
 0.3116425184458E-01 -0.1164531823499E-01
 0.3677519829152E-01 -0.1525804885391E-01
 0.4434451667852E-01 -0.1924074741276E-01
 0.5365930042877E-01 -0.2356781903606E-01
 0.6452564885576E-01 -0.2821079815281E-01
 0.7676945909513E-01 -0.3314089963163E-01
 0.9023707410786E-01 -0.3833259598544E-01
 0.1047947108199E+00 -0.4376598739985E-01
 0.1203254778660E+00 -0.4942532184565E-01
 0.1367255559588E+00 -0.5529443608275E-01
 0.1539019055130E+00 -0.6135263748664E-01
 0.1717716661824E+00 -0.6757279673398E-01
 0.1902623552666E+00 -0.7392112139192E-01
 0.2093108274645E+00 -0.8035760137427E-01
 0.2288605651936E+00 -0.8683814120586E-01
 0.2488608226067E+00 -0.9331830337640E-01
 0.2891173840706E-01 -0.3828266720142E-02
 0.2747868191406E-01 -0.6375669756279E-02
 0.2876596355111E-01 -0.9411781552436E-02
 0.3249540713013E-01 -0.1291219127679E-01
 0.3841235164488E-01 -0.1685257093202E-01
 0.4628283537717E-01 -0.2120618234250E-01
 0.5589182022574E-01 -0.2594324444612E-01
 0.6704327034813E-01 -0.3103166276990E-01
 0.7956102749321E-01 -0.3643932823426E-01
 0.9328956724935E-01 -0.4213741972515E-01
 0.1080934645200E+00 -0.4810259866050E-01
 0.1238543735900E+00 -0.5431557908143E-01
 0.1404671109479E+00 -0.6075679995883E-01
 0.1578372740371E+00 -0.6740252657224E-01
 0.1758805560746E+00 -0.7422309217824E-01
 0.1945229147353E+00 -0.8118290016346E-01
 0.2136997900846E+00 -0.8824123029434E-01
 0.2333544357940E+00 -0.9535443776236E-01
 0.2534379004455E+00 -0.1024792116811E+00
 0.2934628538072E-01 -0.4428054807878E-02
 0.2825039037205E-01 -0.7138427188155E-02
 0.2986978572280E-01 -0.1039924595518E-01
 0.3392659210500E-01 -0.1417936732389E-01
 0.4016515308134E-01 -0.1844858774542E-01
 0.4834990351666E-01 -0.2317525456504E-01
 0.5826406107897E-01 -0.2832545788223E-01
 0.6970976558898E-01 -0.3386352424179E-01
 0.8250904772748E-01 -0.3975407611562E-01
 0.9650467815017E-01 -0.4596506019376E-01
 0.1115596720549E+00 -0.5246976370877E-01
 0.1275542586951E+00 -0.5924544051936E-01
 0.1443819135417E+00 -0.6626923977395E-01
 0.1619469320409E+00 -0.7351457945259E-01
 0.1801637155760E+00 -0.8094958474271E-01
 0.1989569909311E+00 -0.8853729784927E-01
 0.2182613182315E+00 -0.9623668500683E-01
 0.2380202213600E+00 -0.1040047501556E+00
 0.2581867334248E+00 -0.1117992850046E+00
 0.2981318317853E-01 -0.5028729106130E-02
 0.2908033696161E-01 -0.7902150614387E-02
 0.3105396045232E-01 -0.1138769524856E-01
 0.3545683603445E-01 -0.1544789618196E-01
 0.4203279895735E-01 -0.2004695610587E-01
 0.5054514757218E-01 -0.2514846136202E-01
 0.6077572806604E-01 -0.3071445945378E-01
 0.7252516491348E-01 -0.3670576326137E-01
 0.8561392289151E-01 -0.4308378868102E-01
 0.9988323351390E-01 -0.4981331506601E-01
 0.1151946421740E+00 -0.5686432773767E-01
 0.1314269994683E+00 -0.6421071115387E-01
 0.1484724960427E+00 -0.7182645838792E-01
 0.1662342388776E+00 -0.7968234889060E-01
 0.1846255510561E+00 -0.8774459841311E-01
 0.2035702784602E+00 -0.9597523379072E-01
 0.2230025684530E+00 -0.1043331948000E+00
 0.2428665980523E+00 -0.1127763006115E+00
 0.2631174867741E+00 -0.1212635556516E+00
 0.3031194192977E-01 -0.5630762670649E-02
 0.2996764713325E-01 -0.8667567828440E-02
 0.3231742716593E-01 -0.1237798433681E-01
 0.3708506488073E-01 -0.1671858865283E-01
 0.4401431956388E-01 -0.2164826373002E-01
 0.5286777544274E-01 -0.2712600417242E-01
 0.6342626251428E-01 -0.3310991953520E-01
 0.7548919303190E-01 -0.3955738572118E-01
 0.8887571037318E-01 -0.4642667905481E-01
 0.1034256770111E+00 -0.5367947947264E-01
 0.1189992689692E+00 -0.6128254761453E-01
 0.1354740245747E+00 -0.6920649765655E-01
 0.1527409369392E+00 -0.7742230637637E-01
 0.1707020775825E+00 -0.8589831273489E-01
 0.1892699380427E+00 -0.9459907714324E-01
 0.2083678330302E+00 -0.1034858825238E+00
 0.2279299097741E+00 -0.1125178649105E+00
 0.2479013143132E+00 -0.1216538177426E+00
 0.2682393372723E+00 -0.1308541308706E+00
 0.3084207152786E-01 -0.6234599263465E-02
 0.3091142718091E-01 -0.9435313995545E-02
 0.3365906298294E-01 -0.1337081539557E-01
 0.3881008558903E-01 -0.1799205791496E-01
 0.4610856799238E-01 -0.2325286891292E-01
 0.5531676469249E-01 -0.2910782718505E-01
 0.6621482626406E-01 -0.3551121915088E-01
 0.7860124775774E-01 -0.4241706674327E-01
 0.9229409405092E-01 -0.4978057607232E-01
 0.1071320334200E+00 -0.5756039590107E-01
 0.1229739845132E+00 -0.6572013947532E-01
 0.1396962591646E+00 -0.7422724865771E-01
 0.1571887661796E+00 -0.8304981594296E-01
 0.1753527220499E+00 -0.9215391408163E-01
 0.1941000509791E+00 -0.1015026565673E+00
 0.2133538780975E+00 -0.1110567947357E+00
 0.2330487230959E+00 -0.1207758387616E+00
 0.2531309802751E+00 -0.1306197067035E+00
 0.2735602023566E+00 -0.1405503637192E+00
 0.3140305910586E-01 -0.6840658501121E-02
 0.3191073411763E-01 -0.1020594900551E-01
 0.3507765433748E-01 -0.1436676434926E-01
 0.4063056257554E-01 -0.1926875032058E-01
 0.4831420004646E-01 -0.2486093267807E-01
 0.5789084262444E-01 -0.3109365091263E-01
 0.6914027942345E-01 -0.3791748657356E-01
 0.8186037391835E-01 -0.4528319194807E-01
 0.9586835307004E-01 -0.5314297082771E-01
 0.1110018703086E+00 -0.6145250543597E-01
 0.1271187098820E+00 -0.7017233341263E-01
 0.1440940597489E+00 -0.7926681329374E-01
 0.1618168775960E+00 -0.8870126863023E-01
 0.1801877232355E+00 -0.9843965064308E-01
 0.1991182254965E+00 -0.1084437903172E+00
 0.2185316507567E+00 -0.1186740692104E+00
 0.2383632351263E+00 -0.1290905096542E+00
 0.2585608817536E+00 -0.1396542854209E+00
 0.2790865123807E+00 -0.1503291221886E+00
 0.3199435579652E-01 -0.7449344400572E-02
 0.3296455837230E-01 -0.1097997683869E-01
 0.3657188222960E-01 -0.1536631030219E-01
 0.4254500783179E-01 -0.2054898212355E-01
 0.5062966805406E-01 -0.2647246068402E-01
 0.6058848101142E-01 -0.3308301879896E-01
 0.7220117344809E-01 -0.4032764931871E-01
 0.8526525269948E-01 -0.4815391567561E-01
 0.9959734541558E-01 -0.5651108153735E-01
 0.1150342732759E+00 -0.6535191923867E-01
 0.1314328185638E+00 -0.7463395194040E-01
 0.1486671615262E+00 -0.8431852897756E-01
 0.1666254562933E+00 -0.9436829836429E-01
 0.1852078149814E+00 -0.1047452025321E+00
 0.2043258443621E+00 -0.1154099124146E+00
 0.2239032708609E+00 -0.1263225550466E+00
 0.2438763692064E+00 -0.1374437608851E+00
 0.2641948026032E+00 -0.1487360548216E+00
 0.2848229885957E+00 -0.1601650690640E+00
 0.3261536446925E-01 -0.8061049261476E-02
 0.3407180663093E-01 -0.1175785818313E-01
 0.3814030546210E-01 -0.1636985718357E-01
 0.4455176670755E-01 -0.2183296857470E-01
 0.5305320869072E-01 -0.2808733824178E-01
 0.6340788402362E-01 -0.3507533762469E-01
 0.7539573714260E-01 -0.4274048027258E-01
 0.8881418385719E-01 -0.5102721353183E-01
 0.1034794844167E+00 -0.5988191325763E-01
 0.1192278144935E+00 -0.6925448640600E-01
 0.1359150943462E+00 -0.7909948783676E-01
 0.1534146228518E+00 -0.8937531291464E-01
 0.1716139076648E+00 -0.1000420027952E+00
 0.1904128271643E+00 -0.1110595714995E+00
 0.2097232359881E+00 -0.1223876124317E+00
 0.2294696257959E+00 -0.1339860686768E+00
 0.2495896127173E+00 -0.1458162287323E+00
 0.2700348631401E+00 -0.1578420121155E+00
 0.2907724322088E+00 -0.1700310325426E+00
 0.3326543113508E-01 -0.8676157493807E-02
 0.3523128987199E-01 -0.1254002220038E-01
 0.3978134918633E-01 -0.1737775453863E-01
 0.4664900855998E-01 -0.2312085307732E-01
 0.5558283529831E-01 -0.2970536686480E-01
 0.6634698061259E-01 -0.3706992100626E-01
 0.7872186729610E-01 -0.4515464832691E-01
 0.9250507282275E-01 -0.5390094077878E-01
 0.1075127204941E+00 -0.6325232500360E-01
 0.1235805271375E+00 -0.7315587133761E-01
 0.1405636964091E+00 -0.8356319429466E-01
 0.1583347792479E+00 -0.9442976910060E-01
 0.1767807993678E+00 -0.1057130729174E+00
 0.1958016158388E+00 -0.1173712401785E+00
 0.2153095937771E+00 -0.1293628316302E+00
 0.2352302793441E+00 -0.1416476340884E+00
 0.2555029123709E+00 -0.1541875958678E+00
 0.2760813931089E+00 -0.1669480146719E+00
 0.2969355634292E+00 -0.1798984783238E+00
 0.3394384091574E-01 -0.9295050684992E-02
 0.3644171851819E-01 -0.1332687932136E-01
 0.4149330187965E-01 -0.1839031975597E-01
 0.4883472650350E-01 -0.2441273890502E-01
 0.5821633983612E-01 -0.3132630501602E-01
 0.6940342718232E-01 -0.3906603893667E-01
 0.8217713038075E-01 -0.4756877693983E-01
 0.9633542974161E-01 -0.5677290060263E-01
 0.1116945358728E+00 -0.6661910891713E-01
 0.1280898941497E+00 -0.7705164569140E-01
 0.1453761406876E+00 -0.8801919254190E-01
 0.1634252163756E+00 -0.9947431572951E-01
 0.1821238256760E+00 -0.1113719456575E+00
 0.2013720196386E+00 -0.1236683562244E+00
 0.2210829258016E+00 -0.1363210857035E+00
 0.2411834154638E+00 -0.1492897523861E+00
 0.2616146111659E+00 -0.1625369196617E+00
 0.2823328594171E+00 -0.1760291883218E+00
 0.3033109360586E+00 -0.1897380327202E+00
 0.3464981357377E-01 -0.9918109432407E-02
 0.3770169641326E-01 -0.1411882985055E-01
 0.4327430977855E-01 -0.1940785532521E-01
 0.5110673304362E-01 -0.2570871546844E-01
 0.6095128931633E-01 -0.3294990315559E-01
 0.7257460373654E-01 -0.4106296147335E-01
 0.8575875714495E-01 -0.4998149671446E-01
 0.1003023612642E+00 -0.5964090633516E-01
 0.1160219324047E+00 -0.6997906349199E-01
 0.1327528310926E+00 -0.8093737473835E-01
 0.1503492770639E+00 -0.9246157439555E-01
 0.1686827414010E+00 -0.1045013080766E+00
 0.1876397735815E+00 -0.1170089522533E+00
 0.2071208219499E+00 -0.1299389122763E+00
 0.2270400149509E+00 -0.1432476833593E+00
 0.2473257984080E+00 -0.1568946676856E+00
 0.2679214102686E+00 -0.1708429576085E+00
 0.2887858319237E+00 -0.1850603301268E+00
 0.3098949084205E+00 -0.1995199877174E+00
 0.3538250462978E-01 -0.1054571813883E-01
 0.3900972391390E-01 -0.1491627593667E-01
 0.4512238274301E-01 -0.2043067024035E-01
 0.5346266862993E-01 -0.2700888992161E-01
 0.6378503619193E-01 -0.3457594561886E-01
 0.7585762481057E-01 -0.4306001088232E-01
 0.8946365273648E-01 -0.5239150807593E-01
 0.1044025786108E+00 -0.6250285538162E-01
 0.1204914365152E+00 -0.7332908006128E-01
 0.1375656871979E+00 -0.8480871844009E-01
 0.1554792861659E+00 -0.9688452078760E-01
 0.1741033757791E+00 -0.1095031782057E+00
 0.1933245125296E+00 -0.1226144837323E+00
 0.2130437393358E+00 -0.1361709426212E+00
 0.2331764084839E+00 -0.1501279605362E+00
 0.2536527664093E+00 -0.1644446467324E+00
 0.2744183703823E+00 -0.1790845024971E+00
 0.2954349968536E+00 -0.1940163118535E+00
 0.3166816733129E+00 -0.2092147882646E+00
 0.3614100661698E-01 -0.1117826772149E-01
 0.4036420105627E-01 -0.1571963101058E-01
 0.4703539966115E-01 -0.2145909849714E-01
 0.5590000900823E-01 -0.2831341562445E-01
 0.6671472686819E-01 -0.3620428924168E-01
 0.7924934811274E-01 -0.4505661050300E-01
 0.9328840447268E-01 -0.5479764069455E-01
 0.1086324036348E+00 -0.6535679997079E-01
 0.1250991029757E+00 -0.7666622623768E-01
 0.1425242466180E+00 -0.8866152964060E-01
 0.1607616783320E+00 -0.1012824175245E+00
 0.1796823527784E+00 -0.1144725718764E+00
 0.1991729920591E+00 -0.1281791532863E+00
 0.2191354216191E+00 -0.1423527160809E+00
 0.2394864236580E+00 -0.1569475096423E+00
 0.2601582467536E+00 -0.1719222513198E+00
 0.2810989409887E+00 -0.1872407061651E+00
 0.3022732058291E+00 -0.2028724646717E+00
 0.3236633335078E+00 -0.2187934893022E+00
 0.3692435349533E-01 -0.1181615927372E-01
 0.4176343590953E-01 -0.1652933037709E-01
 0.4901112024374E-01 -0.2249351908327E-01
 0.5841607960541E-01 -0.2962252258541E-01
 0.6973731760913E-01 -0.3783490455084E-01
 0.8274639085652E-01 -0.4705233679051E-01
 0.9722929765555E-01 -0.5719891666452E-01
 0.1129877834330E+00 -0.6820102215798E-01
 0.1298405279580E+00 -0.7998783397602E-01
 0.1476237399894E+00 -0.9249195705338E-01
 0.1661913042703E+00 -0.1056499757192E+00
 0.1854141284429E+00 -0.1194024895807E+00
 0.2051792549926E+00 -0.1336939616785E+00
 0.2253894699906E+00 -0.1484729301251E+00
 0.2459631742469E+00 -0.1636924072403E+00
 0.2668347950380E+00 -0.1793106049126E+00
 0.2879550177229E+00 -0.1952913909101E+00
 0.3092915580952E+00 -0.2116049426675E+00
 0.3308300176481E+00 -0.2282281817494E+00
 0.3773152734123E-01 -0.1245980790894E-01
 0.4320565666709E-01 -0.1734584211605E-01
 0.5104720133277E-01 -0.2353437645718E-01
 0.6100807474307E-01 -0.3093654862180E-01
 0.7284959537838E-01 -0.3946791791849E-01
 0.8634515112454E-01 -0.4904697254196E-01
 0.1012823366272E+00 -0.5959461502025E-01
 0.1174643106017E+00 -0.7103411021461E-01
 0.1347108684014E+00 -0.8329158892005E-01
 0.1528588632920E+00 -0.9629654921283E-01
 0.1717623743329E+00 -0.1099823525589E+00
 0.1912924028377E+00 -0.1242864268678E+00
 0.2113364629010E+00 -0.1391504603443E+00
 0.2317984696782E+00 -0.1545209003795E+00
 0.2525986141446E+00 -0.1703494338983E+00
 0.2736736542421E+00 -0.1865936468842E+00
 0.2949770224365E+00 -0.2032173420980E+00
 0.3164795094996E+00 -0.2201910576571E+00
 0.3381700296695E+00 -0.2374923778292E+00
 0.3856146713879E-01 -0.1310964673255E-01
 0.4468902721231E-01 -0.1816967828686E-01
 0.5314121740196E-01 -0.2458220151991E-01
 0.6367308131328E-01 -0.3225597119028E-01
 0.7604820320806E-01 -0.4110365451880E-01
 0.9004183381914E-01 -0.5104056098172E-01
 0.1054432705800E+00 -0.6198433706303E-01
 0.1220572486025E+00 -0.7385503563926E-01
 0.1397048670937E+00 -0.8657561999471E-01
 0.1582238033075E+00 -0.1000723580417E+00
 0.1774684855736E+00 -0.1142752707177E+00
 0.1973101505425E+00 -0.1291185118939E+00
 0.2176369325395E+00 -0.1445409097274E+00
 0.2383540355083E+00 -0.1604867426705E+00
 0.2593835959000E+00 -0.1769062829959E+00
 0.2806648307153E+00 -0.1937563710171E+00
 0.3021540020502E+00 -0.2110005786149E+00
 0.3238250010444E+00 -0.2286095817722E+00
 0.3456700196994E+00 -0.2465613373594E+00
 0.3941307989084E-01 -0.1376613118590E-01
 0.4621166653369E-01 -0.1900140678469E-01
 0.5529068573693E-01 -0.2563763350033E-01
 0.6640810746993E-01 -0.3358144032558E-01
 0.7932967067257E-01 -0.4274268248178E-01
 0.9383248176135E-01 -0.5303346100122E-01
 0.1097076246297E+00 -0.6436807264529E-01
 0.1267615626527E+00 -0.7666323074251E-01
 0.1448168837350E+00 -0.8983858895441E-01
 0.1637122697462E+00 -0.1038170414578E+00
 0.1833026563845E+00 -0.1185251355057E+00
 0.2034596598436E+00 -0.1338936389129E+00
 0.2240721822644E+00 -0.1498584311538E+00
 0.2450468688400E+00 -0.1663615454803E+00
 0.2663079420165E+00 -0.1833517559794E+00
 0.2877971841864E+00 -0.2007850455409E+00
 0.3094737420220E+00 -0.2186245988881E+00
 0.3313146017231E+00 -0.2368410187113E+00
 0.3533151615798E+00 -0.2554123586867E+00
 0.4028525434404E-01 -0.1442974402535E-01
 0.4777167248367E-01 -0.1984166422131E-01
 0.5749309692310E-01 -0.2670144320660E-01
 0.6921011703303E-01 -0.3491381316824E-01
 0.8269045018104E-01 -0.4438585869059E-01
 0.9771301262755E-01 -0.5502640390981E-01
 0.1140707367747E+00 -0.6674626763135E-01
 0.1315719566489E+00 -0.7945866684446E-01
 0.1500409323310E+00 -0.9307977970939E-01
 0.1693175341644E+00 -0.1075289645919E+00
 0.1892573685398E+00 -0.1227291490476E+00
 0.2097325800720E+00 -0.1386075966992E+00
 0.2306329874209E+00 -0.1550971509106E+00
 0.2518668243190E+00 -0.1721375311528E+00
 0.2733605268638E+00 -0.1896759421230E+00
 0.2950585289340E+00 -0.2076674126314E+00
 0.3169228911555E+00 -0.2260746007786E+00
 0.3389336615296E+00 -0.2448678439342E+00
 0.3610893423896E+00 -0.2640250433290E+00
 0.4117687726383E-01 -0.1510100090606E-01
 0.4936714977800E-01 -0.2069116985078E-01
 0.5974595047375E-01 -0.2777455769643E-01
 0.7207606934620E-01 -0.3625419010774E-01
 0.8612695873017E-01 -0.4603437616228E-01
 0.1016792612724E+00 -0.5702055150074E-01
 0.1185278001972E+00 -0.6911989216916E-01
 0.1364829154835E+00 -0.8224193252904E-01
 0.1553707241601E+00 -0.9629918667498E-01
 0.1750324747753E+00 -0.1112072986684E+00
 0.1953246155666E+00 -0.1268854203647E+00
 0.2161199757728E+00 -0.1432571906162E+00
 0.2373094430839E+00 -0.1602523351109E+00
 0.2588029844817E+00 -0.1778082043273E+00
 0.2805293668548E+00 -0.1958703812282E+00
 0.3024357434665E+00 -0.2143928659234E+00
 0.3244870947388E+00 -0.2333376740803E+00
 0.3466664728197E+00 -0.2526747123053E+00
 0.3689753600429E+00 -0.2723815174518E+00
 0.4208685110564E-01 -0.1578045569481E-01
 0.5099624028979E-01 -0.2155073958185E-01
 0.6204679292963E-01 -0.2885808525659E-01
 0.7500296128411E-01 -0.3760395121142E-01
 0.8963562128518E-01 -0.4768981139321E-01
 0.1057270231973E+00 -0.5901755347941E-01
 0.1230739063648E+00 -0.7149050746663E-01
 0.1414887479969E+00 -0.8501430929935E-01
 0.1607997114194E+00 -0.9949759916769E-01
 0.1808496221759E+00 -0.1148521143051E+00
 0.2014959524104E+00 -0.1309930679240E+00
 0.2226123826188E+00 -0.1478403547929E+00
 0.2440910290053E+00 -0.1653205117817E+00
 0.2658437370029E+00 -0.1833684840863E+00
 0.2878017136576E+00 -0.2019282058721E+00
 0.3099148835336E+00 -0.2209526028284E+00
 0.3321511311169E+00 -0.2404029627288E+00
 0.3544964344689E+00 -0.2602486289340E+00
 0.3769551205572E+00 -0.2804666067266E+00
 0.4301411744285E-01 -0.1646870887056E-01
 0.5265716299195E-01 -0.2242130417044E-01
 0.6439326816527E-01 -0.2995334560457E-01
 0.7798788294115E-01 -0.3896479866941E-01
 0.9321292861661E-01 -0.4935417816119E-01
 0.1098521128560E+00 -0.6101961142102E-01
 0.1277041030908E+00 -0.7386033880690E-01
 0.1465836448255E+00 -0.8777785280779E-01
 0.1663211455745E+00 -0.1026766903235E+00
 0.1867612194654E+00 -0.1184644778722E+00
 0.2077625590241E+00 -0.1350523233242E+00
 0.2291998765568E+00 -0.1523562629559E+00
 0.2509666868266E+00 -0.1702995884386E+00
 0.2729768629553E+00 -0.1888148275739E+00
 0.2951641569363E+00 -0.2078442701484E+00
 0.3174813030066E+00 -0.2273397574330E+00
 0.3398990540935E+00 -0.2472618007671E+00
 0.3624062184463E+00 -0.2675790858364E+00
 0.3850098312174E+00 -0.2882679674236E+00
 0.4395767891919E-01 -0.1716641345126E-01
 0.5434825129810E-01 -0.2330392500292E-01
 0.6678316339170E-01 -0.3106189752765E-01
 0.8102806698280E-01 -0.4033879610947E-01
 0.9685548681686E-01 -0.5102997716668E-01
 0.1140504120057E+00 -0.6302953714433E-01
 0.1324134414192E+00 -0.7623234125441E-01
 0.1517617242775E+00 -0.9053546481623E-01
 0.1719281233645E+00 -0.1058390946134E+00
 0.1927592700238E+00 -0.1220465342021E+00
 0.2141152918835E+00 -0.1390646189956E+00
 0.2358721312671E+00 -0.1568054208120E+00
 0.2579248859842E+00 -0.1751889484873E+00
 0.2801896140831E+00 -0.1941453292786E+00
 0.3026027163967E+00 -0.2136152502815E+00
 0.3251197644140E+00 -0.2335495006792E+00
 0.3477143252779E+00 -0.2539078102631E+00
 0.3703779255798E+00 -0.2746581551633E+00
 0.3931201787018E+00 -0.2957761684768E+00
 0.4491662862101E-01 -0.1787428520959E-01
 0.5606800301515E-01 -0.2419981579391E-01
 0.6921447125177E-01 -0.3218557402980E-01
 0.8412095617499E-01 -0.4172841669854E-01
 0.1005600862128E+00 -0.5272025527158E-01
 0.1183179382259E+00 -0.6505082103507E-01
 0.1371970431345E+00 -0.7861027523909E-01
 0.1570170990453E+00 -0.9329097455543E-01
 0.1776136536848E+00 -0.1089884939064E+00
 0.1988356060473E+00 -0.1256015966783E+00
 0.2205447558964E+00 -0.1430326818309E+00
 0.2426184952681E+00 -0.1611897625854E+00
 0.2649537079980E+00 -0.1799895495243E+00
 0.2874688066271E+00 -0.1993598192060E+00
 0.3101029480746E+00 -0.2192397400387E+00
 0.3328145610799E+00 -0.2395791298814E+00
 0.3555799551468E+00 -0.2603369814051E+00
 0.3783932466389E+00 -0.2814805561699E+00
 0.4012665052461E+00 -0.3029847394804E+00
 0.4589018044400E-01 -0.1859311221714E-01
 0.5781513183889E-01 -0.2511036423641E-01
 0.7168545275495E-01 -0.3332651789098E-01
 0.8726427011128E-01 -0.4313659157612E-01
 0.1043237674943E+00 -0.5442866431900E-01
 0.1226509088022E+00 -0.6708769860409E-01
 0.1420501619906E+00 -0.8099877853698E-01
 0.1623439352228E+00 -0.9604921422239E-01
 0.1833707156535E+00 -0.1121296950990E+00
 0.2049819474221E+00 -0.1291342261624E+00
 0.2270413659466E+00 -0.1469606129162E+00
 0.2494280578618E+00 -0.1655127309670E+00
 0.2720409184751E+00 -0.1847040022893E+00
 0.2948009012688E+00 -0.2044599385586E+00
 0.3176500346990E+00 -0.2247183196991E+00
 0.3405496210432E+00 -0.2454281266326E+00
 0.3634786233240E+00 -0.2665477142093E+00
 0.3864335996657E+00 -0.2880436735815E+00
 0.4094289560306E+00 -0.3098901554013E+00
 0.4687770189916E-01 -0.1932376473714E-01
 0.5958862305886E-01 -0.2603715507146E-01
 0.7419470459426E-01 -0.3448721961938E-01
 0.9045607529150E-01 -0.4456676113325E-01
 0.1081438896999E+00 -0.5615952254035E-01
 0.1270458050947E+00 -0.6914521875648E-01
 0.1469682442415E+00 -0.8340343857655E-01
 0.1677365096544E+00 -0.9881609297676E-01
 0.1891923143489E+00 -0.1152687041017E+00
 0.2111899579397E+00 -0.1326503040441E+00
 0.2335954056278E+00 -0.1508539593134E+00
 0.2562897119995E+00 -0.1697793473670E+00
 0.2791740352920E+00 -0.1893366384383E+00
 0.3021720777669E+00 -0.2094492026524E+00
 0.3252288685204E+00 -0.2300536099793E+00
 0.3483086007190E+00 -0.2510981961709E+00
 0.3713927855539E+00 -0.2725408366234E+00
 0.3944802489533E+00 -0.2943475446497E+00
 0.4175875977487E+00 -0.3164917657532E+00
 0.4787875654547E-01 -0.2006721070532E-01
 0.6138780589643E-01 -0.2698200111221E-01
 0.7674124739021E-01 -0.3567056584700E-01
 0.9369487811628E-01 -0.4602293867428E-01
 0.1120182217697E+00 -0.5791788944260E-01
 0.1314994605789E+00 -0.7122932583348E-01
 0.1519470124882E+00 -0.8583087807319E-01
 0.1731892898694E+00 -0.1015986830741E+00
 0.1950715582635E+00 -0.1184128101347E+00
 0.2174513223589E+00 -0.1361571134085E+00
 0.2401971058744E+00 -0.1547197917883E+00
 0.2631922356896E+00 -0.1739962862989E+00
 0.2863404130964E+00 -0.1938935810765E+00
 0.3095683224050E+00 -0.2143330653090E+00
 0.3328241420551E+00 -0.2352503254393E+00
 0.3560749806783E+00 -0.2565933027300E+00
 0.3793047765796E+00 -0.2783196138238E+00
 0.4025144134571E+00 -0.3003948346628E+00
 0.4257225113569E+00 -0.3227917250988E+00
 0.4889314195676E-01 -0.2082452602822E-01
 0.6321241889610E-01 -0.2794696944498E-01
 0.7932460318414E-01 -0.3687988328249E-01
 0.9697970249130E-01 -0.4750976939172E-01
 0.1159450143338E+00 -0.5970963485113E-01
 0.1360091258773E+00 -0.7334693401222E-01
 0.1569825242950E+00 -0.8828883071509E-01
 0.1786969875114E+00 -0.1044052933136E+00
 0.2010017101072E+00 -0.1215706543248E+00
 0.2237577979160E+00 -0.1396634016444E+00
 0.2468367002218E+00 -0.1585667618536E+00
 0.2701243528331E+00 -0.1781719283149E+00
 0.2935273099075E+00 -0.1983827948433E+00
 0.3169754992608E+00 -0.2191189653400E+00
 0.3404204229823E+00 -0.2403153130913E+00
 0.3638321449765E+00 -0.2619196924099E+00
 0.3871968968059E+00 -0.2838897465295E+00
 0.4105173630012E+00 -0.3061908083768E+00
 0.4338138928926E+00 -0.3287949659620E+00
 0.4992094099839E-01 -0.2159691254936E-01
 0.6506269852245E-01 -0.2893441844584E-01
 0.8194490151025E-01 -0.3811899704634E-01
 0.1003101974636E+00 -0.4903260630781E-01
 0.1199231006455E+00 -0.6154152631222E-01
 0.1405725609953E+00 -0.7550602008416E-01
 0.1620712550240E+00 -0.9078623403383E-01
 0.1842546320697E+00 -0.1072455569173E+00
 0.2069762536325E+00 -0.1247523085815E+00
 0.2301012776633E+00 -0.1431794481532E+00
 0.2535044879425E+00 -0.1624051584535E+00
 0.2770747979266E+00 -0.1823164077734E+00
 0.3007219527985E+00 -0.2028141275581E+00
 0.3243794138510E+00 -0.2238163632186E+00
 0.3480022119194E+00 -0.2452575805437E+00
 0.3715634315026E+00 -0.2670859037419E+00
 0.3950514582144E+00 -0.2892593519478E+00
 0.4184704698029E+00 -0.3117432774058E+00
 0.4418421285600E+00 -0.3345091369451E+00
 0.5096257303511E-01 -0.2238571310555E-01
 0.6693947007091E-01 -0.2994703419523E-01
 0.8460298764693E-01 -0.3939229047261E-01
 0.1036867450732E+00 -0.5059758991217E-01
 0.1239519956698E+00 -0.6342132086051E-01
 0.1451881250037E+00 -0.7771572132488E-01
 0.1672101782185E+00 -0.9333332711292E-01
 0.1898576430627E+00 -0.1101305233855E+00
 0.2129889610681E+00 -0.1279693566770E+00
 0.2364738583344E+00 -0.1467171323722E+00
 0.2601909074051E+00 -0.1662469636797E+00
 0.2840323982219E+00 -0.1864416600439E+00
 0.3079116288963E+00 -0.2071993551265E+00
 0.3317659089453E+00 -0.2284367893203E+00
 0.3555540360197E+00 -0.2500883484310E+00
 0.3792522182666E+00 -0.2721028152859E+00
 0.4028508654542E+00 -0.2944389913794E+00
 0.4263553009610E+00 -0.3170625963213E+00
 0.4497879373310E+00 -0.3399445836041E+00
 0.5201884900470E-01 -0.2319242652057E-01
 0.6884424697406E-01 -0.3098786718977E-01
 0.8730053807320E-01 -0.4070476974705E-01
 0.1071105699069E+00 -0.5221173151761E-01
 0.1280319897868E+00 -0.6535786172211E-01
 0.1498548527781E+00 -0.7998643571421E-01
 0.1723968251274E+00 -0.9594174812132E-01
 0.1955018726696E+00 -0.1130727441823E+00
 0.2190339230034E+00 -0.1312349614094E+00
 0.2428678639210E+00 -0.1502899785222E+00
 0.2668865601060E+00 -0.1701058754518E+00
 0.2909861031037E+00 -0.1905614264745E+00
 0.3150837217921E+00 -0.2115521771392E+00
 0.3391209035454E+00 -0.2329938426928E+00
 0.3630604798348E+00 -0.2548210598484E+00
 0.3868819336345E+00 -0.2769836618803E+00
 0.4105776030094E+00 -0.2994416669156E+00
 0.4341536029039E+00 -0.3221616170359E+00
 0.4576324067782E+00 -0.3451142544355E+00
 0.5309104283515E-01 -0.2401872328322E-01
 0.7077936113341E-01 -0.3206038933499E-01
 0.9004021642559E-01 -0.4206214263486E-01
 0.1105838959371E+00 -0.5388302636258E-01
 0.1321642933218E+00 -0.6736120285432E-01
 0.1545725880613E+00 -0.8232996143925E-01
 0.1776294030099E+00 -0.9862467347640E-01
 0.2011837102060E+00 -0.1160864026309E+00
 0.2251056434646E+00 -0.1345639752787E+00
 0.2492759396737E+00 -0.1539132423332E+00
 0.2735823122909E+00 -0.1739973700721E+00
 0.2979251002846E+00 -0.1946912977725E+00
 0.3222258458148E+00 -0.2158882506605E+00
 0.3464305447528E+00 -0.2375032310816E+00
 0.3705063401355E+00 -0.2594714558984E+00
 0.3944361910474E+00 -0.2817441470355E+00
 0.4182143294273E+00 -0.3042829468520E+00
 0.4418473775640E+00 -0.3270557529511E+00
 0.4653571286046E+00 -0.3500337159984E+00
 0.5418095358420E-01 -0.2486648626066E-01
 0.7274808349050E-01 -0.3316850837911E-01
 0.9282581034547E-01 -0.4347091953141E-01
 0.1141100652596E+00 -0.5562052714082E-01
 0.1363511370785E+00 -0.6944272945017E-01
 0.1593420519077E+00 -0.8475961559600E-01
 0.1829068355900E+00 -0.1013969378244E+00
 0.2069000909598E+00 -0.1191874133925E+00
 0.2311990259976E+00 -0.1379730060147E+00
 0.2556910266851E+00 -0.1576039389951E+00
 0.2802692686120E+00 -0.1779386916345E+00
 0.3048387995740E+00 -0.1988486664819E+00
 0.3293258474908E+00 -0.2202251203192E+00
 0.3536812277205E+00 -0.2419826934936E+00
 0.3778766687087E+00 -0.2640575179590E+00
 0.4018988087785E+00 -0.2864025006693E+00
 0.4257438200746E+00 -0.3089810613999E+00
 0.4494187403743E+00 -0.3317630318152E+00
 0.4729441183806E+00 -0.3547210031002E+00
 0.5529102955934E-01 -0.2573762487215E-01
 0.7475479351371E-01 -0.3431685255431E-01
 0.9566238688448E-01 -0.4493835724604E-01
 0.1176937465440E+00 -0.5743452984150E-01
 0.1405959243787E+00 -0.7161528129579E-01
 0.1641649903829E+00 -0.8729040846529E-01
 0.1882288698974E+00 -0.1042752207920E+00
 0.2126485664962E+00 -0.1223935789213E+00
 0.2373094225582E+00 -0.1414805312506E+00
 0.2621064029772E+00 -0.1613809174925E+00
 0.2869388143208E+00 -0.1819488874580E+00
 0.3117168864774E+00 -0.2030527152118E+00
 0.3363718918015E+00 -0.2245821604589E+00
 0.3608597155714E+00 -0.2464519516133E+00
 0.3851569133852E+00 -0.2685994131828E+00
 0.4092540394883E+00 -0.2909794581962E+00
 0.4331490700588E+00 -0.3135573593597E+00
 0.4568497807870E+00 -0.3363043425347E+00
 0.4803756525175E+00 -0.3591965694227E+00
 0.3840783613731E-01  0.2092592170472E-01
 0.4078925196585E-01  0.3513358418155E-01
 0.4594194195407E-01  0.5093751100212E-01
 0.5531747376187E-01  0.6821176098083E-01
 0.6887413470159E-01  0.8691179140646E-01
 0.8611566402053E-01  0.1066838786807E+00
 0.1066565024933E+00  0.1259175460865E+00
 0.1301392247195E+00  0.1436881532790E+00
 0.1561903835807E+00  0.1599733868292E+00
 0.1845286607515E+00  0.1748227618169E+00
 0.2149153093015E+00  0.1881549103187E+00
 0.2471129316436E+00  0.1997678533406E+00
 0.2808601159207E+00  0.2095523955428E+00
 0.3158847217016E+00  0.2173396279955E+00
 0.3518911262135E+00  0.2228181809872E+00
 0.3885502417184E+00  0.2257661801798E+00
 0.4255559766411E+00  0.2266154024880E+00
 0.4618381638498E+00  0.2211516822892E+00
 0.4942283919204E+00  0.2054743943495E+00
 0.3591738753190E-01  0.1875020483830E-01
 0.3792110845486E-01  0.3115905895446E-01
 0.4287780370426E-01  0.4529360274208E-01
 0.5200916323184E-01  0.6067154719503E-01
 0.6528702436260E-01  0.7747974542794E-01
 0.8213317432931E-01  0.9556460032854E-01
 0.1020777231980E+00  0.1135030015627E+00
 0.1248180149239E+00  0.1302897467848E+00
 0.1500455897322E+00  0.1457452158913E+00
 0.1775091089983E+00  0.1598623985515E+00
 0.2069896491165E+00  0.1725642096483E+00
 0.2382687523071E+00  0.1836690761795E+00
 0.2711046301331E+00  0.1930764728271E+00
 0.3052427173802E+00  0.2006272371096E+00
 0.3404056922078E+00  0.2060246145884E+00
 0.3762814982019E+00  0.2090524459678E+00
 0.4125672603833E+00  0.2100995688569E+00
 0.4482385092974E+00  0.2052177496733E+00
 0.4802889228580E+00  0.1906974858431E+00
 0.3376836107648E-01  0.1684978488371E-01
 0.3531245386275E-01  0.2755281042622E-01
 0.4004885394430E-01  0.4003459730637E-01
 0.4887638173710E-01  0.5373151350420E-01
 0.6175145525326E-01  0.6879852026290E-01
 0.7810033105569E-01  0.8520330957079E-01
 0.9742188989181E-01  0.1017301357927E+00
 0.1194324038737E+00  0.1174081531181E+00
 0.1438539476057E+00  0.1319645798087E+00
 0.1704532742595E+00  0.1453207912758E+00
 0.1990292519073E+00  0.1573773656124E+00
 0.2293830518234E+00  0.1679600476570E+00
 0.2612935181791E+00  0.1769737199243E+00
 0.2945255088797E+00  0.1842681798824E+00
 0.3288213782609E+00  0.1895626712957E+00
 0.3638883069246E+00  0.1926463267488E+00
 0.3994340830962E+00  0.1938640463203E+00
 0.4344808000747E+00  0.1895264535920E+00
 0.4661821313608E+00  0.1761277060860E+00
 0.3193659473390E-01  0.1515169827942E-01
 0.3297825375794E-01  0.2428637171497E-01
 0.3743794743384E-01  0.3520327161294E-01
 0.4591353717162E-01  0.4733315435228E-01
 0.5831179327553E-01  0.6078312707509E-01
 0.7408679969716E-01  0.7555803745430E-01
 0.9274576520075E-01  0.9062936329126E-01
 0.1140158892780E+00  0.1051101775035E+00
 0.1376342687832E+00  0.1186890941514E+00
 0.1633750149064E+00  0.1312335141684E+00
 0.1910479516737E+00  0.1426132956065E+00
 0.2204710109381E+00  0.1526496058137E+00
 0.2514431807043E+00  0.1612462397637E+00
 0.2837495740749E+00  0.1682599145020E+00
 0.3171534902164E+00  0.1734255812235E+00
 0.3513836408937E+00  0.1765382234223E+00
 0.3861645056441E+00  0.1779005905067E+00
 0.4205674184506E+00  0.1740774330559E+00
 0.4519039607046E+00  0.1617704049387E+00
 0.3039392633450E-01  0.1361809792108E-01
 0.3091459581097E-01  0.2133291778895E-01
 0.3504502387575E-01  0.3078856014280E-01
 0.4312332138395E-01  0.4144790892661E-01
 0.5499604727134E-01  0.5337564308534E-01
 0.7014423104384E-01  0.6658517719654E-01
 0.8810278321519E-01  0.8020044935103E-01
 0.1086116256910E+00  0.9343292640841E-01
 0.1314176525575E+00  0.1059678109200E+00
 0.1562974142164E+00  0.1176418094172E+00
 0.1830655943902E+00  0.1282998231883E+00
 0.2115521106049E+00  0.1377540299437E+00
 0.2415736403600E+00  0.1459017568902E+00
 0.2729350620848E+00  0.1526035298015E+00
 0.3054211687509E+00  0.1576090271021E+00
 0.3387838912426E+00  0.1607197611427E+00
 0.3727687319799E+00  0.1621997736827E+00
 0.4065000046991E+00  0.1588626991109E+00
 0.4374461661551E+00  0.1476172206515E+00
 0.2911171959827E-01  0.1222455676213E-01
 0.2911196758200E-01  0.1866413714795E-01
 0.3287156061588E-01  0.2676748827207E-01
 0.4051396516175E-01  0.3604695348404E-01
 0.5182612742599E-01  0.4653595874459E-01
 0.6631170151609E-01  0.5824648596249E-01
 0.8353954574616E-01  0.7042938990775E-01
 0.1032645099437E+00  0.8239189580418E-01
 0.1252426449627E+00  0.9383493603566E-01
 0.1492521670386E+00  0.1045837142610E+00
 0.1751093173920E+00  0.1144689731404E+00
 0.2026515782947E+00  0.1232961194922E+00
 0.2317098002069E+00  0.1309541869648E+00
 0.2621068152570E+00  0.1373051950359E+00
 0.2936484033887E+00  0.1421123644551E+00
 0.3261103701076E+00  0.1451844565996E+00
 0.3592618324267E+00  0.1467507230365E+00
 0.3922842012419E+00  0.1438680449151E+00
 0.4228030778525E+00  0.1336490098438E+00
 0.2806276352694E-01  0.1095207006378E-01
 0.2755823408787E-01  0.1625278763312E-01
 0.3091828865350E-01  0.2311271562874E-01
 0.3809477260321E-01  0.3110116844639E-01
 0.4882136878991E-01  0.4023064280439E-01
 0.6262066159868E-01  0.5050955957261E-01
 0.7909597151435E-01  0.6129701315194E-01
 0.9801748555115E-01  0.7198898674485E-01
 0.1191507941652E+00  0.8231092119092E-01
 0.1422770014681E+00  0.9208955343327E-01
 0.1672130436348E+00  0.1011520215644E+00
 0.1938009805379E+00  0.1093024042376E+00
 0.2218823499266E+00  0.1164229816886E+00
 0.2512953242742E+00  0.1223767503808E+00
 0.2818651251590E+00  0.1269398524916E+00
 0.3133909085249E+00  0.1299291177301E+00
 0.3456662715896E+00  0.1315429432981E+00
 0.3779336707116E+00  0.1290757265886E+00
 0.4079775639477E+00  0.1198398748257E+00
 0.2722180522751E-01  0.9784837161488E-02
 0.2623999896037E-01  0.1407313325812E-01
 0.2918445873726E-01  0.1979594303345E-01
 0.3587429777202E-01  0.2658134685199E-01
 0.4599897212891E-01  0.3442926504240E-01
 0.5909777845884E-01  0.4334525709874E-01
 0.7480665085359E-01  0.5278253624510E-01
 0.9291025127187E-01  0.6221815383045E-01
 0.1131837981720E+00  0.7140563909073E-01
 0.1354129263463E+00  0.8018114187970E-01
 0.1594158639537E+00  0.8837641545562E-01
 0.1850377432694E+00  0.9580020555126E-01
 0.2121279795575E+00  0.1023315157297E+00
 0.2405372792468E+00  0.1078355002924E+00
 0.2701080312758E+00  0.1121015134340E+00
 0.3006611379621E+00  0.1149555733674E+00
 0.3320139500236E+00  0.1165689950934E+00
 0.3634733725662E+00  0.1144683545321E+00
 0.3929858623429E+00  0.1061623584611E+00
 0.2656572444174E-01  0.8709319669189E-02
 0.2514325057039E-01  0.1210122445762E-01
 0.2766770440189E-01  0.1678928714025E-01
 0.3385950237082E-01  0.2245864113686E-01
 0.4337394550883E-01  0.2910285563992E-01
 0.5576616037151E-01  0.3672612043427E-01
 0.7070199964183E-01  0.4486444962411E-01
 0.8797910280769E-01  0.5306866870051E-01
 0.1073819563539E+00  0.6112142380727E-01
 0.1287020658212E+00  0.6887273280636E-01
 0.1517601295410E+00  0.7616458937617E-01
 0.1764039395856E+00  0.8281552675483E-01
 0.2024888372264E+00  0.8870530334094E-01
 0.2298754970396E+00  0.9370341662034E-01
 0.2584208628746E+00  0.9761349888669E-01
 0.2879651710799E+00  0.1002722271481E+00
 0.3183474691836E+00  0.1018274080016E+00
 0.3489417246974E+00  0.1000333008481E+00
 0.3778607598290E+00  0.9259323352244E-01
 0.2607353086960E-01  0.7713768413711E-02
 0.2425374231324E-01  0.1031500290298E-01
 0.2636409688318E-01  0.1406594435716E-01
 0.3205540478735E-01  0.1870488195215E-01
 0.4095896659365E-01  0.2422332636686E-01
 0.5264586156074E-01  0.3062550576124E-01
 0.6680893451038E-01  0.3752070525782E-01
 0.8325708310589E-01  0.4452679569121E-01
 0.1017834133415E+00  0.5145530591466E-01
 0.1221861600861E+00  0.5817244884255E-01
 0.1442897191397E+00  0.6453396178869E-01
 0.1679447736536E+00  0.7037193401672E-01
 0.1930114207363E+00  0.7557056570697E-01
 0.2193582003840E+00  0.8000614518695E-01
 0.2468539981732E+00  0.8349801776372E-01
 0.2753554987625E+00  0.8589518866749E-01
 0.3047204051938E+00  0.8732529409439E-01
 0.3343913797226E+00  0.8576691267088E-01
 0.3626527496396E+00  0.7911897330922E-01
 0.2572627624588E-01  0.6787929219961E-02
 0.2355724094380E-01  0.8694306324172E-02
 0.2526827972362E-01  0.1160051714883E-01
 0.3046496595897E-01  0.1529280771640E-01
 0.3876428158997E-01  0.1976328110632E-01
 0.4975406005406E-01  0.2501718086412E-01
 0.6315120163906E-01  0.3072874912562E-01
 0.7877411616448E-01  0.3657668324011E-01
 0.9642377342042E-01  0.4240048473990E-01
 0.1159055681043E+00  0.4808359103164E-01
 0.1370486255855E+00  0.5349744333129E-01
 0.1597070542403E+00  0.5849014414302E-01
 0.1837451547029E+00  0.6295326352070E-01
 0.2090377723869E+00  0.6677205791314E-01
 0.2354633696388E+00  0.6978295449097E-01
 0.2628920487362E+00  0.7184888009759E-01
 0.2911965139920E+00  0.7308030234532E-01
 0.3198885496223E+00  0.7167791483909E-01
 0.3474291789173E+00  0.6574012904058E-01
 0.2550692566165E-01  0.5922831680286E-02
 0.2303970086463E-01  0.7220810469485E-02
 0.2437363434295E-01  0.9369168030665E-02
 0.2908909975510E-01  0.1219622648768E-01
 0.3679765445351E-01  0.1569599839965E-01
 0.4710509725787E-01  0.1987518491682E-01
 0.5974949248930E-01  0.2446557238480E-01
 0.7455704907585E-01  0.2920088991680E-01
 0.9133585472383E-01  0.3394729093395E-01
 0.1098985825671E+00  0.3860566160147E-01
 0.1300798474569E+00  0.4306405480815E-01
 0.1517378037017E+00  0.4718798072295E-01
 0.1747408620560E+00  0.5087847470387E-01
 0.1989691656602E+00  0.5403140363586E-01
 0.2243088169286E+00  0.5650125849510E-01
 0.2506404653455E+00  0.5816610790875E-01
 0.2778479238159E+00  0.5912173727100E-01
 0.3055110167790E+00  0.5778964059019E-01
 0.3322717194862E+00  0.5247417113996E-01
 0.2540021318254E-01  0.5110622643233E-02
 0.2268739185095E-01  0.5877935092955E-02
 0.2367245467327E-01  0.7349677432025E-02
 0.2792675136827E-01  0.9390130040835E-02
 0.3506436115104E-01  0.1199548959227E-01
 0.4471046472235E-01  0.1517383597484E-01
 0.5662144033155E-01  0.1870781729736E-01
 0.7062960592443E-01  0.2238075885398E-01
 0.8654947983441E-01  0.2608385390446E-01
 0.1042009236100E+00  0.2973513681792E-01
 0.1234245251936E+00  0.3323948914870E-01
 0.1440830600560E+00  0.3648045906885E-01
 0.1660492799556E+00  0.3936993765175E-01
 0.1892081483157E+00  0.4181548079303E-01
 0.2134520391748E+00  0.4369009702290E-01
 0.2386697402587E+00  0.4488759909045E-01
 0.2647524498343E+00  0.4549081083539E-01
 0.2913450863661E+00  0.4414100001593E-01
 0.3172726676810E+00  0.3935670445579E-01
 0.2539249515011E-01  0.4344424635021E-02
 0.2248699362100E-01  0.4650725852261E-02
 0.2315611763998E-01  0.5521438926593E-02
 0.2697501122566E-01  0.6850766057724E-02
 0.3356721818169E-01  0.8636579911870E-02
 0.4257877592687E-01  0.1088780981019E-01
 0.5378155284707E-01  0.1343192354491E-01
 0.6701227355345E-01  0.1609672882252E-01
 0.8209125927943E-01  0.1879660974672E-01
 0.9884532941254E-01  0.2146607101634E-01
 0.1171212646687E+00  0.2402658695916E-01
 0.1367868955104E+00  0.2637987980750E-01
 0.1577197364019E+00  0.2844960841575E-01
 0.1798095687483E+00  0.3015569840955E-01
 0.2029543402237E+00  0.3138966184732E-01
 0.2270493564575E+00  0.3206094539088E-01
 0.2519901684954E+00  0.3224004508046E-01
 0.2774817274178E+00  0.3078630295811E-01
 0.3025305894146E+00  0.2644122973857E-01
 0.2547161135328E-01  0.3618209712004E-02
 0.2242566711996E-01  0.3525718032459E-02
 0.2281524284605E-01  0.3865411268372E-02
 0.2622924587277E-01  0.4555674811240E-02
 0.3230663634984E-01  0.5594989590730E-02
 0.4071574095478E-01  0.6992247741176E-02
 0.5124111332806E-01  0.8614295438967E-02
 0.6372213737275E-01  0.1032861795868E-01
 0.7798434740763E-01  0.1207073344162E-01
 0.9386118885232E-01  0.1379062288926E-01
 0.1112055994086E+00  0.1542578556016E-01
 0.1298906626072E+00  0.1689594394919E-01
 0.1497991022685E+00  0.1813719608131E-01
 0.1708258468431E+00  0.1908241685170E-01
 0.1928744238975E+00  0.1964147744772E-01
 0.2158461465846E+00  0.1973876020508E-01
 0.2396393387638E+00  0.1943180984364E-01
 0.2640119956059E+00  0.1779413708646E-01
 0.2881456902926E+00  0.1379783089009E-01
 0.2562676326051E-01  0.2926676916312E-02
 0.2249110936533E-01  0.2490783487249E-02
 0.2263983613245E-01  0.2364031456005E-02
 0.2568323109719E-01  0.2483698774147E-02
 0.3128069218251E-01  0.2847402994948E-02
 0.3912415171451E-01  0.3462869522094E-02
 0.4900807032664E-01  0.4231466914206E-02
 0.6077267957902E-01  0.5055880895113E-02
 0.7424815431600E-01  0.5890527373295E-02
 0.8927416357876E-01  0.6699567080205E-02
 0.1057095261539E+00  0.7435637983529E-02
 0.1234324512174E+00  0.8036022236958E-02
 0.1423311170812E+00  0.8449814984091E-02
 0.1623059825493E+00  0.8623631334309E-02
 0.1832666253469E+00  0.8485993418879E-02
 0.2051212395016E+00  0.7975742014057E-02
 0.2277717174724E+00  0.7135577738528E-02
 0.2510215191252E+00  0.5245530678980E-02
 0.2742149302806E+00  0.1511205897661E-02
 0.2584842429791E-01  0.2265134435075E-02
 0.2267159834081E-01  0.1534921130343E-02
 0.2261940421385E-01  0.1001104595569E-02
 0.2532927678471E-01  0.6149545769272E-03
 0.3048520641845E-01  0.3715313376272E-03
 0.3780388591735E-01  0.2760689336225E-03
 0.4708693060790E-01  0.2602396556956E-03
 0.5817355368938E-01  0.2578100851067E-03
 0.7089800172654E-01  0.2397396671347E-03
 0.8510573895441E-01  0.1827832369451E-03
 0.1006610043968E+00  0.5346025781673E-04
 0.1174466436001E+00 -0.1942184514298E-03
 0.1353561073214E+00 -0.5978581770894E-03
 0.1542953451645E+00 -0.1196050764926E-02
 0.1741803787443E+00 -0.2040343090884E-02
 0.1949278414101E+00 -0.3176329330675E-02
 0.2164476690888E+00 -0.4576782206625E-02
 0.2385832929694E+00 -0.6769473226507E-02
 0.2608260682015E+00 -0.1032087877675E-01
 0.2612830693229E-01  0.1629223262450E-02
 0.2295601707713E-01  0.6480617429460E-03
 0.2274303258887E-01 -0.2384355758497E-03
 0.2515830232175E-01 -0.1069128332088E-02
 0.2991384477060E-01 -0.1853851639078E-02
 0.3675192750447E-01 -0.2590993210396E-02
 0.4547867493828E-01 -0.3322210320743E-02
 0.5593035818360E-01 -0.4086339123281E-02
 0.6794472928202E-01 -0.4898245592857E-02
 0.8137265107877E-01 -0.5770372401972E-02
 0.9608326020298E-01 -0.6723964965193E-02
 0.1119632900832E+00 -0.7789711122344E-02
 0.1289107843385E+00 -0.8992323368293E-02
 0.1468363042014E+00 -0.1035493299872E-01
 0.1656615131853E+00 -0.1190708841983E-01
 0.1853125999919E+00 -0.1367516626739E-01
 0.2057123695657E+00 -0.1564251953868E-01
 0.2267480890878E+00 -0.1815724576628E-01
 0.2480478334992E+00 -0.2159078207066E-01
 0.2645953734825E-01  0.1015080158635E-02
 0.2333387454067E-01 -0.1800956811097E-03
 0.2299918049707E-01 -0.1368231062386E-02
 0.2515999404912E-01 -0.2585891557368E-02
 0.2955819583916E-01 -0.3848849448400E-02
 0.3596241572926E-01 -0.5160312074428E-02
 0.4418070966954E-01 -0.6538231114145E-02
 0.5404445889492E-01 -0.7997315380275E-02
 0.6539430249499E-01 -0.9540437021984E-02
 0.7808619827477E-01 -0.1117102413424E-01
 0.9199376812301E-01 -0.1289998970656E-01
 0.1070068908883E+00 -0.1474477077755E-01
 0.1230273073995E+00 -0.1671874441177E-01
 0.1399685778051E+00 -0.1883051610489E-01
 0.1577554093573E+00 -0.2108706220776E-01
 0.1763213714262E+00 -0.2349073314352E-01
 0.1956053011418E+00 -0.2602523168918E-01
 0.2155327682547E+00 -0.2885337594188E-01
 0.2359066387181E+00 -0.3217473701494E-01
 0.5857763836553E-01 -0.2802781311494E-01
 0.8113413113964E-01 -0.3790099772109E-01
 0.1051470499903E+00 -0.5012514818650E-01
 0.1302213207752E+00 -0.6446889836505E-01
 0.1560753241896E+00 -0.8067834830989E-01
 0.1824861877446E+00 -0.9849974978087E-01
 0.2092451638402E+00 -0.1176849843404E+00
 0.2361850947476E+00 -0.1379990152187E+00
 0.2631848918304E+00 -0.1592299186750E+00
 0.2901435599246E+00 -0.1811875470903E+00
 0.3169660990442E+00 -0.2036988842460E+00
 0.3435669319789E+00 -0.2266104083321E+00
 0.3698858695215E+00 -0.2497991817953E+00
 0.3958836042774E+00 -0.2731710453352E+00
 0.4215311151037E+00 -0.2966522043054E+00
 0.4468118332134E+00 -0.3201896927189E+00
 0.4717430244820E+00 -0.3437693701696E+00
 0.4960628661299E+00 -0.3671636300218E+00
 0.5194005875043E+00 -0.3900280818231E+00
 0.6090510281231E-01 -0.2948767018401E-01
 0.8578328599115E-01 -0.4047926638142E-01
 0.1121862201585E+00 -0.5410491693208E-01
 0.1396509372757E+00 -0.7007846424503E-01
 0.1678680010281E+00 -0.8808928692184E-01
 0.1965903803768E+00 -0.1078266219935E+00
 0.2255655901678E+00 -0.1289777304761E+00
 0.2545944348057E+00 -0.1512457308941E+00
 0.2835468584200E+00 -0.1743732310264E+00
 0.3123237613170E+00 -0.1981392034164E+00
 0.3408344329283E+00 -0.2223482802205E+00
 0.3689961341249E+00 -0.2468295993927E+00
 0.3967550614963E+00 -0.2714523454980E+00
 0.4240736551418E+00 -0.2961176569146E+00
 0.4509140931259E+00 -0.3207446912670E+00
 0.4772501694556E+00 -0.3452786598435E+00
 0.5031190388099E+00 -0.3697327072240E+00
 0.5279977144233E+00 -0.3936805526751E+00
 0.5511342036827E+00 -0.4164707851033E+00
 0.6342109515798E-01 -0.3104287465689E-01
 0.9078115495739E-01 -0.4327742031547E-01
 0.1197000156363E+00 -0.5846122231798E-01
 0.1496446258846E+00 -0.7622901681646E-01
 0.1802783787391E+00 -0.9620182692000E-01
 0.2113315247023E+00 -0.1180021940844E+00
 0.2425069554247E+00 -0.1412362034534E+00
 0.2735794469500E+00 -0.1655323948434E+00
 0.3044190221588E+00 -0.1905843418743E+00
 0.3349360341789E+00 -0.2161412931125E+00
 0.3650498724611E+00 -0.2419885223110E+00
 0.3946851226944E+00 -0.2679417876930E+00
 0.4237976981044E+00 -0.2938682148594E+00
 0.4523541282176E+00 -0.3196704097382E+00
 0.4803097368628E+00 -0.3452665763452E+00
 0.5076303564987E+00 -0.3706067337865E+00
 0.5343732330658E+00 -0.3957372334727E+00
 0.5597638298529E+00 -0.4200368609742E+00
 0.5826752967690E+00 -0.4425738570323E+00
 0.6614601805477E-01 -0.3270948747878E-01
 0.9615723960720E-01 -0.4633473192993E-01
 0.1277151206464E+00 -0.6325146770054E-01
 0.1602146990686E+00 -0.8299384634201E-01
 0.1932972389652E+00 -0.1050995047732E+00
 0.2266740661405E+00 -0.1291132120921E+00
 0.2600056364098E+00 -0.1545404854449E+00
 0.2930500185257E+00 -0.1809222430495E+00
 0.3256881733203E+00 -0.2079018806885E+00
 0.3578480518371E+00 -0.2352028558279E+00
 0.3894650344099E+00 -0.2625964812450E+00
 0.4204754293112E+00 -0.2898910325435E+00
 0.4508478364117E+00 -0.3169587889657E+00
 0.4805547582982E+00 -0.3437105687737E+00
 0.5095460149111E+00 -0.3700695223838E+00
 0.5377798151234E+00 -0.3959963872618E+00
 0.5653305317736E+00 -0.4215754486572E+00
 0.5911830723607E+00 -0.4460016959317E+00
 0.6138475380844E+00 -0.4681060413442E+00
 0.6910576083117E-01 -0.3450638492366E-01
 0.1019452264938E+00 -0.4969503463281E-01
 0.1362585013565E+00 -0.6854248470168E-01
 0.1713698568168E+00 -0.9045580696465E-01
 0.2069071738908E+00 -0.1148733684724E+00
 0.2425703483827E+00 -0.1412500166378E+00
 0.2779837314638E+00 -0.1689690728944E+00
 0.3129016998024E+00 -0.1974715000719E+00
 0.3472283425100E+00 -0.2263527718901E+00
 0.3809173309646E+00 -0.2553178624662E+00
 0.4139255077993E+00 -0.2841321016229E+00
 0.4462047463248E+00 -0.3126039622709E+00
 0.4777384179203E+00 -0.3406191143935E+00
 0.5085058508265E+00 -0.3681035812890E+00
 0.5384515510302E+00 -0.3949912346715E+00
 0.5675248052349E+00 -0.4212593381584E+00
 0.5958112669138E+00 -0.4470349149184E+00
 0.6220703677361E+00 -0.4713479810320E+00
 0.6444694826385E+00 -0.4928453323610E+00
 0.7233202776945E-01 -0.3645577198738E-01
 0.1081832802543E+00 -0.5340983828658E-01
 0.1453573216631E+00 -0.7441118068154E-01
 0.1831136159067E+00 -0.9870785061692E-01
 0.2210805606815E+00 -0.1256214904395E+00
 0.2589587659446E+00 -0.1545049124887E+00
 0.2963481525820E+00 -0.1845961718431E+00
 0.3330160379200E+00 -0.2152260578846E+00
 0.3689022941427E+00 -0.2459489372383E+00
 0.4039936157850E+00 -0.2764624875138E+00
 0.4382727518490E+00 -0.3065366520369E+00
 0.4717099092274E+00 -0.3359893400713E+00
 0.5043039655642E+00 -0.3647285223067E+00
 0.5360405388250E+00 -0.3927024203287E+00
 0.5668576878561E+00 -0.4198612433074E+00
 0.5966930199047E+00 -0.4462045867834E+00
 0.6256357084713E+00 -0.4719070219785E+00
 0.6522398877630E+00 -0.4958581507987E+00
 0.6743590081415E+00 -0.5165809708694E+00
 0.7586317101678E-01 -0.3858444356926E-01
 0.1149142480641E+00 -0.5754013609095E-01
 0.1550380838800E+00 -0.8094631788185E-01
 0.1954425176453E+00 -0.1078535428191E+00
 0.2357773128345E+00 -0.1374481636214E+00
 0.2757620375936E+00 -0.1689698390605E+00
 0.3149901556185E+00 -0.2014882140068E+00
 0.3532615532504E+00 -0.2342176060492E+00
 0.3905637063245E+00 -0.2666838585796E+00
 0.4269218603106E+00 -0.2985927445389E+00
 0.4623474510735E+00 -0.3297318512063E+00
 0.4968302448951E+00 -0.3599389206056E+00
 0.5303836934109E+00 -0.3891533233469E+00
 0.5629976442218E+00 -0.4173520816721E+00
 0.5946013198033E+00 -0.4445069012931E+00
 0.6251168080635E+00 -0.4706451396758E+00
 0.6546278685764E+00 -0.4959930706846E+00
 0.6815085690102E+00 -0.5193284771051E+00
 0.7033349284966E+00 -0.5391160228592E+00
 0.7974531041625E-01 -0.4092503223343E-01
 0.1221857611997E+00 -0.6215864462146E-01
 0.1653253619924E+00 -0.8825043219464E-01
 0.2083438219501E+00 -0.1180076524625E+00
 0.2509424258642E+00 -0.1504625591670E+00
 0.2928856931868E+00 -0.1847331960631E+00
 0.3337855102046E+00 -0.2196995509535E+00
 0.3734955496198E+00 -0.2544593287896E+00
 0.4120601605705E+00 -0.2885292797579E+00
 0.4495458604157E+00 -0.3216428232630E+00
 0.4859933174162E+00 -0.3536201042801E+00
 0.5214112038923E+00 -0.3843295713506E+00
 0.5558248126286E+00 -0.4137506075169E+00
 0.5892246762905E+00 -0.4418947061125E+00
 0.6215277213845E+00 -0.4687592952727E+00
 0.6526359486137E+00 -0.4944039766785E+00
 0.6826181474229E+00 -0.5191096169270E+00
 0.7096980243381E+00 -0.5415732812417E+00
 0.7312175318332E+00 -0.5602704598031E+00
 0.8403374838986E-01 -0.4351764333126E-01
 0.1300502055461E+00 -0.6735257395737E-01
 0.1762400062543E+00 -0.9644212164609E-01
 0.2217926211843E+00 -0.1292965195347E+00
 0.2665032929454E+00 -0.1647765983879E+00
 0.3102169561017E+00 -0.2018755673456E+00
 0.3525955467654E+00 -0.2392672739091E+00
 0.3935669346356E+00 -0.2759413694032E+00
 0.4332369918411E+00 -0.3114324151465E+00
 0.4717124563596E+00 -0.3455244949493E+00
 0.5090611564267E+00 -0.3780860509909E+00
 0.5453080138862E+00 -0.4090266154508E+00
 0.5804856935849E+00 -0.4383729155766E+00
 0.6145805560205E+00 -0.4661750841177E+00
 0.6474929245806E+00 -0.4924590687624E+00
 0.6790997190525E+00 -0.5173197008195E+00
 0.7094450359765E+00 -0.5410936163407E+00
 0.7366355826263E+00 -0.5624292987479E+00
 0.7578287143209E+00 -0.5798845176091E+00
 0.8879474344091E-01 -0.4641208462130E-01
 0.1385644771217E+00 -0.7322728164235E-01
 0.1877966443487E+00 -0.1056587853552E+00
 0.2357482551645E+00 -0.1418580072349E+00
 0.2823669080089E+00 -0.1805016376447E+00
 0.3276243475810E+00 -0.2204640717237E+00
 0.3712694271293E+00 -0.2602052289162E+00
 0.4133202331231E+00 -0.2986264836670E+00
 0.4539419696106E+00 -0.3353142263487E+00
 0.4932761042345E+00 -0.3701280312413E+00
 0.5314129049553E+00 -0.4029995983644E+00
 0.5683890423663E+00 -0.4338882991512E+00
 0.6042385954915E+00 -0.4628735436248E+00
 0.6389378278208E+00 -0.4900463361169E+00
 0.6723655138552E+00 -0.5154621212153E+00
 0.7043683181523E+00 -0.5392519934867E+00
 0.7349562016182E+00 -0.5618075323525E+00
 0.7621549288054E+00 -0.5817602289088E+00
 0.7829919777737E+00 -0.5978223056497E+00
 0.9410774805445E-01 -0.4967104796416E-01
 0.1477893577889E+00 -0.7991126345362E-01
 0.2000001609988E+00 -0.1160599208612E+00
 0.2501498753394E+00 -0.1558406410940E+00
 0.2984171847868E+00 -0.1977433866375E+00
 0.3449585039908E+00 -0.2405450521551E+00
 0.3896480237853E+00 -0.2824975301605E+00
 0.4326008596210E+00 -0.3224466085854E+00
 0.4740305721702E+00 -0.3600694918983E+00
 0.5141034179359E+00 -0.3953250207397E+00
 0.5529252383348E+00 -0.4282204057533E+00
 0.5905385561221E+00 -0.4587710806380E+00
 0.6269717645024E+00 -0.4871121171145E+00
 0.6621842714173E+00 -0.5133754978518E+00
 0.6960278716077E+00 -0.5376450570947E+00
 0.7283138192709E+00 -0.5600868704512E+00
 0.7590092740655E+00 -0.5811444538651E+00
 0.7860966866584E+00 -0.5994615587502E+00
 0.8065324858364E+00 -0.6139758266553E+00
 0.1000682717663E+00 -0.5337484925914E-01
 0.1577882058735E+00 -0.8756321280272E-01
 0.2128406487947E+00 -0.1278310342745E+00
 0.2649110170631E+00 -0.1714011998741E+00
 0.3145128739189E+00 -0.2165942140083E+00
 0.3620549310716E+00 -0.2621349629362E+00
 0.4075697664081E+00 -0.3060923696787E+00
 0.4512614631523E+00 -0.3473015042848E+00
 0.4933713223187E+00 -0.3855694494209E+00
 0.5340771138347E+00 -0.4209731760187E+00
 0.5734923472426E+00 -0.4536034143258E+00
 0.6116586822327E+00 -0.4835351957922E+00
 0.6485908544177E+00 -0.5109600039682E+00
 0.6842239641156E+00 -0.5360487548315E+00
 0.7183770092290E+00 -0.5589102622528E+00
 0.7508208872401E+00 -0.5797417015698E+00
 0.7814726563723E+00 -0.5990332727296E+00
 0.8083092901314E+00 -0.6154658561591E+00
 0.8282774501824E+00 -0.6282697396067E+00
 0.1067916176349E+00 -0.5762884876736E-01
 0.1686243862749E+00 -0.9638238734156E-01
 0.2262860318996E+00 -0.1411880450357E+00
 0.2799131763819E+00 -0.1886993783303E+00
 0.3304870464968E+00 -0.2371217041124E+00
 0.3787396795475E+00 -0.2852098533926E+00
 0.4248785643882E+00 -0.3308978257302E+00
 0.4691686660483E+00 -0.3730610536095E+00
 0.5118503082811E+00 -0.4116674585991E+00
 0.5530987608578E+00 -0.4469225705180E+00
 0.5930276751582E+00 -0.4790045557746E+00
 0.6316706026100E+00 -0.5080498759175E+00
 0.6690197800707E+00 -0.5343052673056E+00
 0.7049779217293E+00 -0.5579761996391E+00
 0.7393251552737E+00 -0.5791905149057E+00
 0.7717875208540E+00 -0.5981699214040E+00
 0.8022267307958E+00 -0.6154439632215E+00
 0.8286505846642E+00 -0.6297488231826E+00
 0.8480572944426E+00 -0.6406673688345E+00
 0.1144178438596E+00 -0.6257574894443E-01
 0.1803562522507E+00 -0.1066244260121E+00
 0.2402710561249E+00 -0.1563814708264E+00
 0.2949988063126E+00 -0.2078868347896E+00
 0.3461499313439E+00 -0.2593521681819E+00
 0.3948389793953E+00 -0.3096951809709E+00
 0.4414331044009E+00 -0.3567827045555E+00
 0.4862087270466E+00 -0.3995726466030E+00
 0.5293738057605E+00 -0.4382069548362E+00
 0.5710900417621E+00 -0.4730217240213E+00
 0.6114648009587E+00 -0.5042855781588E+00
 0.6505152299075E+00 -0.5321978954844E+00
 0.6882011490282E+00 -0.5570571806805E+00
 0.7243844016107E+00 -0.5790960923926E+00
 0.7588002371753E+00 -0.5984529541187E+00
 0.7911261039927E+00 -0.6153652142713E+00
 0.8211659198271E+00 -0.6303929339582E+00
 0.8469907772151E+00 -0.6423364806536E+00
 0.8657083215663E+00 -0.6511786594599E+00
 0.1231184622260E+00 -0.6841741709136E-01
 0.1930271286802E+00 -0.1186265713720E+00
 0.2546806418149E+00 -0.1736978503813E+00
 0.3099654122362E+00 -0.2290855639146E+00
 0.3612982768826E+00 -0.2832485147648E+00
 0.4101930987628E+00 -0.3354609268261E+00
 0.4571151515242E+00 -0.3835865975201E+00
 0.5022899120199E+00 -0.4266733475477E+00
 0.5458684604224E+00 -0.4650286176477E+00
 0.5879930748630E+00 -0.4991214764493E+00
 0.6287580781316E+00 -0.5293176364663E+00
 0.6681536334835E+00 -0.5558799083631E+00
 0.7060962649113E+00 -0.5791506359019E+00
 0.7423988228998E+00 -0.5993784987268E+00
 0.7767463633790E+00 -0.6167019605279E+00
 0.8087651235277E+00 -0.6313647236122E+00
 0.8382022343606E+00 -0.6439483041834E+00
 0.8632176422696E+00 -0.6533139434418E+00
 0.8810780351312E+00 -0.6598710371292E+00
 0.1331053893139E+00 -0.7545744637454E-01
 0.2066445319462E+00 -0.1328493713053E+00
 0.2693247404788E+00 -0.1934508356257E+00
 0.3245660864460E+00 -0.2523457020683E+00
 0.3757357000317E+00 -0.3086867527080E+00
 0.4246717045228E+00 -0.3623322974971E+00
 0.4718316931595E+00 -0.4111424413139E+00
 0.5173401818227E+00 -0.4542004598817E+00
 0.5612803347077E+00 -0.4919722431743E+00
 0.6037712004919E+00 -0.5250760269109E+00
 0.6448836079006E+00 -0.5539850108672E+00
 0.6845670812898E+00 -0.5790197154504E+00
 0.7226843779793E+00 -0.6005505603142E+00
 0.7589931569033E+00 -0.6188276862587E+00
 0.7931244464994E+00 -0.6339801531969E+00
 0.8246520333292E+00 -0.6462505583113E+00
 0.8532711730197E+00 -0.6562347704313E+00
 0.8772452951034E+00 -0.6628362607750E+00
 0.8940349339554E+00 -0.6668844931757E+00
 0.1446424946431E+00 -0.8419257194401E-01
 0.2211331299180E+00 -0.1499507625586E+00
 0.2839039046685E+00 -0.2159333715080E+00
 0.3385298366497E+00 -0.2775711566486E+00
 0.3893080373631E+00 -0.3354475201585E+00
 0.4381778348498E+00 -0.3901368485059E+00
 0.4855067743917E+00 -0.4392973181861E+00
 0.5313031441442E+00 -0.4819901805647E+00
 0.5755758695683E+00 -0.5188715159207E+00
 0.6184115604072E+00 -0.5507441555606E+00
 0.6598401741931E+00 -0.5781919077174E+00
 0.6997558466105E+00 -0.6015710825319E+00
 0.7379607060972E+00 -0.6212553375174E+00
 0.7741547317123E+00 -0.6374821667457E+00
 0.8079132078607E+00 -0.6503664745570E+00
 0.8387578090822E+00 -0.6601487092156E+00
 0.8663410290779E+00 -0.6674371079709E+00
 0.8890284475564E+00 -0.6711415527227E+00
 0.9044857635759E+00 -0.6724527558757E+00
 0.1580478212377E+00 -0.9556488506330E-01
 0.2362265063540E+00 -0.1708892661051E+00
 0.2979715586275E+00 -0.2412698137110E+00
 0.3516449734889E+00 -0.3043826523315E+00
 0.4019263158426E+00 -0.3633190974892E+00
 0.4506262208465E+00 -0.4187535375692E+00
 0.4980701386029E+00 -0.4679092504019E+00
 0.5441383621631E+00 -0.5098590954877E+00
 0.5887481345105E+00 -0.5455470650225E+00
 0.6319287451038E+00 -0.5759979960119E+00
 0.6736481114025E+00 -0.6018743837519E+00
 0.7137357645500E+00 -0.6235240203247E+00
 0.7519331337111E+00 -0.6412973700656E+00
 0.7878847815466E+00 -0.6554111405381E+00
 0.8211107437974E+00 -0.6659711760533E+00
 0.8510835036372E+00 -0.6732236809249E+00
 0.8774267422920E+00 -0.6778003498507E+00
 0.8985846578582E+00 -0.6785649953662E+00
 0.9124057336041E+00 -0.6769330689458E+00
 0.1736845533961E+00 -0.1116238181232E+00
 0.2511010057911E+00 -0.1972326147571E+00
 0.3110872164246E+00 -0.2685736657549E+00
 0.3638749036477E+00 -0.3323823640690E+00
 0.4135172769699E+00 -0.3922149503563E+00
 0.4619163861606E+00 -0.4481195802942E+00
 0.5094512864307E+00 -0.4968084646876E+00
 0.5558352131855E+00 -0.5375722274791E+00
 0.6008276004643E+00 -0.5718153995212E+00
 0.6443645413284E+00 -0.6007459665098E+00
 0.6863436146058E+00 -0.6250126971815E+00
 0.7265326110218E+00 -0.6449057695011E+00
 0.7646189312773E+00 -0.6607385704347E+00
 0.8001964641145E+00 -0.6727101274836E+00
 0.8327365500904E+00 -0.6809242026430E+00
 0.8616689293992E+00 -0.6856691307148E+00
 0.8866077913145E+00 -0.6876211934101E+00
 0.9060271791625E+00 -0.6855463817284E+00
 0.9178920814472E+00 -0.6808457384500E+00
 0.2604404852763E+00 -0.4501244900377E-01
 0.2734153197293E+00 -0.3558072658240E-01
 0.2870622611731E+00 -0.2554384337435E-01
 0.3013068572146E+00 -0.1500286591891E-01
 0.3160749309129E+00 -0.4066754477407E-02
 0.3312791012497E+00  0.7161052365306E-02
 0.3468217583318E+00  0.1858735595443E-01
 0.3625975116188E+00  0.3013255360153E-01
 0.3784975679537E+00  0.4173380333318E-01
 0.3944151978045E+00  0.5334762769834E-01
 0.4102520100414E+00  0.6495147070881E-01
 0.4259244122821E+00  0.7654372427278E-01
 0.4413694027549E+00  0.8814181739736E-01
 0.4565485859852E+00  0.9977814321963E-01
 0.4714492397050E+00  0.1114939552586E+00
 0.4860815996690E+00  0.1233318896539E+00
 0.5004724342795E+00  0.1353283037832E+00
 0.5146561482092E+00  0.1475067767265E+00
 0.5286659929212E+00  0.1598737100094E+00
 0.2645414227797E+00 -0.5442329533281E-01
 0.2775818365478E+00 -0.4564596618051E-01
 0.2912971943885E+00 -0.3627578546395E-01
 0.3056329312293E+00 -0.2637878648425E-01
 0.3205200574143E+00 -0.1605629899654E-01
 0.3358776394490E+00 -0.5414824276579E-02
 0.3516114063246E+00  0.5444192936074E-02
 0.3676153888391E+00  0.1643035105791E-01
 0.3837754659013E+00  0.2746874924161E-01
 0.3999747984289E+00  0.3850370776848E-01
 0.4161007464732E+00  0.4950150419216E-01
 0.4320527779104E+00  0.6045164859676E-01
 0.4477505175860E+00  0.7136615569941E-01
 0.4631406440365E+00  0.8227635400262E-01
 0.4782009564596E+00  0.9322706463349E-01
 0.4929399664176E+00  0.1042685613236E+00
 0.5073912134199E+00  0.1154475091662E+00
 0.5216033784480E+00  0.1267987150795E+00
 0.5356289078509E+00  0.1383393952244E+00
 0.2686310102814E+00 -0.6412996230080E-01
 0.2816298819132E+00 -0.5606580178893E-01
 0.2952781554704E+00 -0.4739625479798E-01
 0.3095521468876E+00 -0.3818432688743E-01
 0.3243987175462E+00 -0.2851904832328E-01
 0.3397470609704E+00 -0.1850378361914E-01
 0.3555103527676E+00 -0.8243528379525E-02
 0.3715863624823E+00  0.2163051412385E-02
 0.3878599856150E+00  0.1262975034118E-01
 0.4042078699584E+00  0.2308792475581E-01
 0.4205051841744E+00  0.3349065382462E-01
 0.4366342613396E+00  0.4381556160441E-01
 0.4524944960391E+00  0.5406569018014E-01
 0.4680122739577E+00  0.6426774742802E-01
 0.4831489722415E+00  0.7446720933727E-01
 0.4979045170362E+00  0.8472028293258E-01
 0.5123143207581E+00  0.9508370139235E-01
 0.5264392639756E+00  0.1056044679793E+00
 0.5403518305714E+00  0.1163121575171E+00
 0.2727176125032E+00 -0.7410478587159E-01
 0.2855537055945E+00 -0.6680149653358E-01
 0.2990040013442E+00 -0.5887464375897E-01
 0.3130673255059E+00 -0.5038486132744E-01
 0.3277109059874E+00 -0.4141382748870E-01
 0.3428796609737E+00 -0.3205856442197E-01
 0.3584991755667E+00 -0.2242331277755E-01
 0.3744764125775E+00 -0.1261141128112E-01
 0.3907010881058E+00 -0.2718297110669E-02
 0.4070489741969E+00  0.7174803569311E-02
 0.4233875958647E+00  0.1700648143084E-01
 0.4395845175332E+00  0.2673969735186E-01
 0.4555180480043E+00  0.3636463166782E-01
 0.4710895835092E+00  0.4589897225717E-01
 0.4862358193570E+00  0.5538474763965E-01
 0.5009378365165E+00  0.6488115393694E-01
 0.5152232958209E+00  0.7445380022034E-01
 0.5291590048617E+00  0.8416236240975E-01
 0.5428348589729E+00  0.9405011334376E-01
 0.2768188137934E+00 -0.8432204501489E-01
 0.2893732822552E+00 -0.7781344572965E-01
 0.3024996184605E+00 -0.7066454497382E-01
 0.3162128399258E+00 -0.6293177991791E-01
 0.3304991386110E+00 -0.5468863353231E-01
 0.3453218131476E+00 -0.4602421039396E-01
 0.3606232109338E+00 -0.3703815793229E-01
 0.3763249292287E+00 -0.2783434049733E-01
 0.3923280635710E+00 -0.1851408889622E-01
 0.4085148011430E+00 -0.9169408977123E-02
 0.4247522384313E+00  0.1236892088987E-03
 0.4408990440550E+00  0.9311363547737E-02
 0.4568153723006E+00  0.1836695537492E-01
 0.4723759908219E+00  0.2729387718726E-01
 0.4874856656758E+00  0.3612514126804E-01
 0.5020942293706E+00  0.4491831231064E-01
 0.5162067125643E+00  0.5374537533316E-01
 0.5298828767093E+00  0.6267877915047E-01
 0.5432228979539E+00  0.7177734187105E-01
 0.2809812354617E+00 -0.9476444832137E-01
 0.2931684904284E+00 -0.8907611984792E-01
 0.3058809020227E+00 -0.8273670746590E-01
 0.3191439950348E+00 -0.7579538459821E-01
 0.3329598672320E+00 -0.6831565107898E-01
 0.3473098340031E+00 -0.6037623067288E-01
 0.3621549733055E+00 -0.5206864036540E-01
 0.3774353546168E+00 -0.4349284693878E-01
 0.3930690436264E+00 -0.3475174824677E-01
 0.4089518771152E+00 -0.2594479992498E-01
 0.4249589255065E+00 -0.1716103528733E-01
 0.4409485260733E+00 -0.8471805914227E-02
 0.4567697572182E+00  0.7617970107932E-04
 0.4722741090037E+00  0.8466577951094E-02
 0.4873316060305E+00  0.1671649036975E-01
 0.5018502820464E+00  0.2487508007010E-01
 0.5157951933236E+00  0.3301598825145E-01
 0.5291996504789E+00  0.4122321395408E-01
 0.5421600486010E+00  0.4957323534975E-01
 0.2852467322182E+00 -0.1054171225739E+00
 0.2970102166106E+00 -0.1005708331737E+00
 0.3092493028470E+00 -0.9507178435310E-01
 0.3219954383661E+00 -0.8895940995556E-01
 0.3352627612837E+00 -0.8228521195546E-01
 0.3490484094807E+00 -0.7511501383206E-01
 0.3633318468532E+00 -0.6752854458136E-01
 0.3780732317062E+00 -0.5961714085736E-01
 0.3932113413460E+00 -0.5147995804320E-01
 0.4086617111158E+00 -0.4321886434113E-01
 0.4243157335591E+00 -0.3493211007228E-01
 0.4400415894776E+00 -0.2670692831414E-01
 0.4556880697980E+00 -0.1861141095245E-01
 0.4710925643338E+00 -0.1068635103819E-01
 0.4860945925482E+00 -0.2938295161617E-02
 0.5005558125888E+00  0.4664158966314E-02
 0.5143854588999E+00  0.1218796920618E-01
 0.5275653932752E+00  0.1972449459785E-01
 0.5401628248360E+00  0.2736963637306E-01
 0.2896554733170E+00 -0.1162659328063E+00
 0.3009666636469E+00 -0.1122828929643E+00
 0.3127023429718E+00 -0.1076565893943E+00
 0.3248962572800E+00 -0.1024153435409E+00
 0.3375706163719E+00 -0.9659734473136E-01
 0.3507350552685E+00 -0.9025354007564E-01
 0.3643852312812E+00 -0.8344867013518E-01
 0.3785007077088E+00 -0.7626078659574E-01
 0.3930422476199E+00 -0.6877939432217E-01
 0.4079488403097E+00 -0.6110219843227E-01
 0.4231349280640E+00 -0.5333035699156E-01
 0.4384884784865E+00 -0.4556213829118E-01
 0.4538708155190E+00 -0.3788497677330E-01
 0.4691195277963E+00 -0.3036615063550E-01
 0.4840563348053E+00 -0.2304276168146E-01
 0.4985023935675E+00 -0.1591255244812E-01
 0.5123035779972E+00 -0.8928572217184E-02
 0.5253653582294E+00 -0.2002509751135E-02
 0.5376879537609E+00  0.4978872450310E-02
 0.2942496607917E+00 -0.1272981981924E+00
 0.3051111065308E+00 -0.1242034269439E+00
 0.3163456695518E+00 -0.1204868986055E+00
 0.3279866876666E+00 -0.1161657386089E+00
 0.3400607980885E+00 -0.1112646465708E+00
 0.3525863487095E+00 -0.1058188856513E+00
 0.3655717562719E+00 -0.9987616740019E-01
 0.3790133462709E+00 -0.9349753975644E-01
 0.3928925578013E+00 -0.8675728184347E-01
 0.4071725669938E+00 -0.7974168382273E-01
 0.4217945019591E+00 -0.7254648416376E-01
 0.4366735611268E+00 -0.6527266317767E-01
 0.4516955644221E+00 -0.5802025857423E-01
 0.4667148406098E+00 -0.5087990316620E-01
 0.4815550083197E+00 -0.4392195733583E-01
 0.4960153247489E+00 -0.3718360172086E-01
 0.5098870358502E+00 -0.3065548242867E-01
 0.5229861288070E+00 -0.2427242046909E-01
 0.5352044306227E+00 -0.1791711922411E-01
 0.2990717449058E+00 -0.1385017194298E+00
 0.3095184825633E+00 -0.1363275750589E+00
 0.3202880154279E+00 -0.1335650440296E+00
 0.3314114286305E+00 -0.1302211207075E+00
 0.3429167764667E+00 -0.1263080821861E+00
 0.3548274579382E+00 -0.1218461695673E+00
 0.3671606926734E+00 -0.1168657451176E+00
 0.3799256540759E+00 -0.1114089492514E+00
 0.3931210351788E+00 -0.1055308346968E+00
 0.4067319314872E+00 -0.9929986168088E-01
 0.4207259872776E+00 -0.9279752971737E-01
 0.4350488091920E+00 -0.8611680426505E-01
 0.4496187421204E+00 -0.7935886768590E-01
 0.4643212851277E+00 -0.7262757969088E-01
 0.4790038113786E+00 -0.6602088055796E-01
 0.4934721030849E+00 -0.5961826587206E-01
 0.5074920628867E+00 -0.5346363631357E-01
 0.5208042693287E+00 -0.4754407931443E-01
 0.5331679339886E+00 -0.4177119787329E-01
 0.3041666987172E+00 -0.1498660348776E+00
 0.3142702322344E+00 -0.1486568635178E+00
 0.3246486602243E+00 -0.1469035041682E+00
 0.3353297778615E+00 -0.1446047124088E+00
 0.3463408783288E+00 -0.1417624538606E+00
 0.3577073527459E+00 -0.1383840298009E+00
 0.3694514639658E+00 -0.1344840465293E+00
 0.3815909352420E+00 -0.1300862403075E+00
 0.3941371171862E+00 -0.1252251650154E+00
 0.4070925517723E+00 -0.1199476995674E+00
 0.4204477647439E+00 -0.1143142552012E+00
 0.4341771042721E+00 -0.1083994604449E+00
 0.4482334155046E+00 -0.1022919628269E+00
 0.4625413111533E+00 -0.9609278738135E-01
 0.4769888020631E+00 -0.8991138940720E-01
 0.4914171770513E+00 -0.8385805559195E-01
 0.5056096361654E+00 -0.7803052307582E-01
 0.5192811442613E+00 -0.7249147264044E-01
 0.5320815284915E+00 -0.6723238279102E-01
 0.3095633971213E+00 -0.1613707187978E+00
 0.3194172786885E+00 -0.1611759836066E+00
 0.3295018145012E+00 -0.1604909515518E+00
 0.3398411203373E+00 -0.1593085216811E+00
 0.3504603882320E+00 -0.1576231642209E+00
 0.3613847918651E+00 -0.1554324117245E+00
 0.3726385945298E+00 -0.1527383746940E+00
 0.3842441983870E+00 -0.1495492926669E+00
 0.3962209402075E+00 -0.1458811573461E+00
 0.4085834630802E+00 -0.1417594359038E+00
 0.4213394831715E+00 -0.1372208936865E+00
 0.4344867268363E+00 -0.1323154681465E+00
 0.4480087294358E+00 -0.1271080723827E+00
 0.4618690449941E+00 -0.1216800874731E+00
 0.4760031750293E+00 -0.1161300949691E+00
 0.4903071200061E+00 -0.1105730113251E+00
 0.5046206874386E+00 -0.1051359781116E+00
 0.5187026073176E+00 -0.9994756037420E-01
 0.5321907953957E+00 -0.9511171235235E-01
 0.3152738138696E+00 -0.1729839186610E+00
 0.3249787356587E+00 -0.1738495085383E+00
 0.3348748270890E+00 -0.1742870746416E+00
 0.3449826353230E+00 -0.1742861883460E+00
 0.3553246732787E+00 -0.1738369206818E+00
 0.3659246234996E+00 -0.1729307756109E+00
 0.3768067405560E+00 -0.1715617055921E+00
 0.3879952799670E+00 -0.1697272103962E+00
 0.3995138165861E+00 -0.1674295575959E+00
 0.4113843275206E+00 -0.1646771784728E+00
 0.4236259034194E+00 -0.1614862981908E+00
 0.4362529140186E+00 -0.1578828591668E+00
 0.4492723789052E+00 -0.1539047927887E+00
 0.4626801584541E+00 -0.1496046844227E+00
 0.4764553323899E+00 -0.1450528519088E+00
 0.4905516467027E+00 -0.1403407942745E+00
 0.5048839323774E+00 -0.1355848119021E+00
 0.5193047996908E+00 -0.1309290847679E+00
 0.5335613635231E+00 -0.1265462752484E+00
 0.3213025247528E+00 -0.1846683320926E+00
 0.3309610721243E+00 -0.1866331978239E+00
 0.3407769965556E+00 -0.1882389068958E+00
 0.3507677508994E+00 -0.1894740133487E+00
 0.3609532246788E+00 -0.1903270648567E+00
 0.3713552125333E+00 -0.1907871518870E+00
 0.3819970638656E+00 -0.1908445464616E+00
 0.3929034113652E+00 -0.1904914226425E+00
 0.4040998953734E+00 -0.1897226849789E+00
 0.4156128112403E+00 -0.1885369529523E+00
 0.4274686056872E+00 -0.1869377677109E+00
 0.4396931338759E+00 -0.1849351088271E+00
 0.4523105571962E+00 -0.1825473402226E+00
 0.4653417036895E+00 -0.1798037558346E+00
 0.4788016075386E+00 -0.1767479853954E+00
 0.4926957547051E+00 -0.1734426910061E+00
 0.5070141576073E+00 -0.1699763257183E+00
 0.5217216956073E+00 -0.1664735826309E+00
 0.5367405078544E+00 -0.1631131401151E+00
 0.3276501872693E+00 -0.1963841547040E+00
 0.3373651305593E+00 -0.1994792973086E+00
 0.3472100269472E+00 -0.2022885613400E+00
 0.3571999102714E+00 -0.2048012705433E+00
 0.3673525154051E+00 -0.2070066611691E+00
 0.3776879743178E+00 -0.2088942161814E+00
 0.3882286803525E+00 -0.2104540877203E+00
 0.3989992673460E+00 -0.2116775991662E+00
 0.4100266644002E+00 -0.2125578444196E+00
 0.4213402000784E+00 -0.2130904222615E+00
 0.4329717409186E+00 -0.2132743634147E+00
 0.4449558598908E+00 -0.2131133326425E+00
 0.4573300442320E+00 -0.2126172246866E+00
 0.4701349758618E+00 -0.2118043315877E+00
 0.4834149683623E+00 -0.2107043598421E+00
 0.4972187595978E+00 -0.2093627579130E+00
 0.5116011735006E+00 -0.2078471761430E+00
 0.5266269962222E+00 -0.2062576016565E+00
 0.5423816340254E+00 -0.2047437089555E+00
 0.3343144603566E+00 -0.2080906335926E+00
 0.3441880041966E+00 -0.2123390791725E+00
 0.3541707984719E+00 -0.2163770138482E+00
 0.3642761789943E+00 -0.2201956586318E+00
 0.3745203609310E+00 -0.2237862879830E+00
 0.3849223216032E+00 -0.2271404469113E+00
 0.3955038454443E+00 -0.2302502488272E+00
 0.4062897084854E+00 -0.2331087462926E+00
 0.4173079932992E+00 -0.2357103846520E+00
 0.4285905410450E+00 -0.2380515630938E+00
 0.4401735660651E+00 -0.2401313416469E+00
 0.4520984836634E+00 -0.2419523486795E+00
 0.4644130397071E+00 -0.2435219645067E+00
 0.4771728941828E+00 -0.2448538861612E+00
 0.4904439247530E+00 -0.2459702199666E+00
 0.5043057368796E+00 -0.2469043060486E+00
 0.5188573131631E+00 -0.2477045389205E+00
 0.5342266952961E+00 -0.2484394613235E+00
 0.5505889820426E+00 -0.2492037944937E+00
 0.3412902247990E+00 -0.2197471087375E+00
 0.3514235050804E+00 -0.2251643956604E+00
 0.3616520897240E+00 -0.2304464100809E+00
 0.3719882745702E+00 -0.2355867768716E+00
 0.3824473757437E+00 -0.2405793761364E+00
 0.3930477534052E+00 -0.2454184804187E+00
 0.4038109932782E+00 -0.2500989570983E+00
 0.4147622392125E+00 -0.2546165262204E+00
 0.4259306832618E+00 -0.2589680742364E+00
 0.4373502353185E+00 -0.2631520315991E+00
 0.4490604135264E+00 -0.2671688274754E+00
 0.4611075220747E+00 -0.2710214381429E+00
 0.4735462189472E+00 -0.2747160459859E+00
 0.4864416296423E+00 -0.2782628201017E+00
 0.4998722445340E+00 -0.2816768089669E+00
 0.5139339608595E+00 -0.2849788785532E+00
 0.5287457961427E+00 -0.2881964839105E+00
 0.5444579572612E+00 -0.2913636814756E+00
 0.5612619499584E+00 -0.2945188133608E+00
 0.3485697114595E+00 -0.2313138548248E+00
 0.3590623988030E+00 -0.2379088284670E+00
 0.3696429519798E+00 -0.2444416273717E+00
 0.3803231547342E+00 -0.2509082572966E+00
 0.3911179185305E+00 -0.2573051380454E+00
 0.4020453979097E+00 -0.2636291640682E+00
 0.4131272549770E+00 -0.2698778090755E+00
 0.4243890707389E+00 -0.2760492604416E+00
 0.4358609125416E+00 -0.2821425735832E+00
 0.4475780791500E+00 -0.2881578381139E+00
 0.4595820585241E+00 -0.2940963457775E+00
 0.4719217488958E+00 -0.2999607439918E+00
 0.4846550114800E+00 -0.3057551460298E+00
 0.4978506415733E+00 -0.3114851449399E+00
 0.5115908571657E+00 -0.3171576347280E+00
 0.5259743881075E+00 -0.3227802643506E+00
 0.5411201459215E+00 -0.3283602147465E+00
 0.5571710474041E+00 -0.3339017813489E+00
 0.5742968327756E+00 -0.3394022207506E+00
 0.3561427028992E+00 -0.2427528454711E+00
 0.3670927315027E+00 -0.2505287039075E+00
 0.3781292063012E+00 -0.2583115859168E+00
 0.3892637593002E+00 -0.2660994229446E+00
 0.4005112046052E+00 -0.2738906161811E+00
 0.4118896955392E+00 -0.2816840095218E+00
 0.4234210144255E+00 -0.2894788847132E+00
 0.4351309891497E+00 -0.2972749587580E+00
 0.4470500397773E+00 -0.3050723653309E+00
 0.4592138655336E+00 -0.3128716004223E+00
 0.4716642879764E+00 -0.3206734074427E+00
 0.4844502692802E+00 -0.3284785679663E+00
 0.4976291227753E+00 -0.3362875500174E+00
 0.5112679206989E+00 -0.3440999448247E+00
 0.5254450698658E+00 -0.3519135942318E+00
 0.5402519481799E+00 -0.3597232769790E+00
 0.5557943319634E+00 -0.3675187986956E+00
 0.5721931010764E+00 -0.3752823842526E+00
 0.5895835503331E+00 -0.3829854391539E+00
 0.3639968480092E+00 -0.2540284824414E+00
 0.3755003313155E+00 -0.2629840692233E+00
 0.3870941832078E+00 -0.2720104980453E+00
 0.3987900597849E+00 -0.2811068346729E+00
 0.4106027725721E+00 -0.2902725378609E+00
 0.4225504415106E+00 -0.2995073336625E+00
 0.4346547544432E+00 -0.3088110933416E+00
 0.4469413209097E+00 -0.3181836909041E+00
 0.4594401130954E+00 -0.3276248175778E+00
 0.4721859888639E+00 -0.3371337288369E+00
 0.4852192904648E+00 -0.3467088953617E+00
 0.4985865066844E+00 -0.3563475230425E+00
 0.5123409735445E+00 -0.3660448994625E+00
 0.5265435652913E+00 -0.3757935169699E+00
 0.5412632884411E+00 -0.3855819198901E+00
 0.5565776331868E+00 -0.3953932355750E+00
 0.5725724731699E+00 -0.4052033965348E+00
 0.5893412888057E+00 -0.4149791622706E+00
 0.6069835075583E+00 -0.4246762060839E+00
 0.3721172403330E+00 -0.2651076370837E+00
 0.3842677956395E+00 -0.2752383291328E+00
 0.3965171557342E+00 -0.2854971005893E+00
 0.4088769825190E+00 -0.2958831076838E+00
 0.4213619610997E+00 -0.3063956838720E+00
 0.4339899065008E+00 -0.3170341108322E+00
 0.4467819450733E+00 -0.3277973810279E+00
 0.4597627507827E+00 -0.3386839271616E+00
 0.4729608188120E+00 -0.3496912963586E+00
 0.4864087574123E+00 -0.3608157470409E+00
 0.5001435740436E+00 -0.3720517454541E+00
 0.5142069230182E+00 -0.3833913378456E+00
 0.5286452685915E+00 -0.3948233749488E+00
 0.5435099000016E+00 -0.4063325703119E+00
 0.5588567161658E+00 -0.4178983872820E+00
 0.5747456881745E+00 -0.4294937766923E+00
 0.5912399302382E+00 -0.4410838310013E+00
 0.6084043946950E+00 -0.4526244734000E+00
 0.6263044246551E+00 -0.4640613686067E+00
 0.3804842445248E+00 -0.2759579728739E+00
 0.3933699443195E+00 -0.2872545116824E+00
 0.4063664117873E+00 -0.2987287921221E+00
 0.4194850960826E+00 -0.3103788367787E+00
 0.4327402083704E+00 -0.3222025007173E+00
 0.4461487471876E+00 -0.3341971427171E+00
 0.4597305646660E+00 -0.3463592848364E+00
 0.4735084482761E+00 -0.3586842386790E+00
 0.4875081925452E+00 -0.3711656809465E+00
 0.5017586327418E+00 -0.3837951635613E+00
 0.5162916075632E+00 -0.3965615463767E+00
 0.5311418109758E+00 -0.4094503443524E+00
 0.5463464857737E+00 -0.4224429872833E+00
 0.5619449060168E+00 -0.4355159999826E+00
 0.5779775981533E+00 -0.4486401250264E+00
 0.5944852706146E+00 -0.4617794271631E+00
 0.6115074694819E+00 -0.4748904313286E+00
 0.6290810581171E+00 -0.4879213413164E+00
 0.6472387695055E+00 -0.5008113104467E+00
 0.3890763800502E+00 -0.2865501400446E+00
 0.4027793866707E+00 -0.2989993469126E+00
 0.4166075878735E+00 -0.3116675810809E+00
 0.4305718094889E+00 -0.3245503892212E+00
 0.4446852330038E+00 -0.3376426975215E+00
 0.4589633109597E+00 -0.3509383939950E+00
 0.4734236943618E+00 -0.3644299057057E+00
 0.4880861421937E+00 -0.3781077554229E+00
 0.5029723835985E+00 -0.3919600872500E+00
 0.5181059021683E+00 -0.4059721557946E+00
 0.5335116094671E+00 -0.4201257790716E+00
 0.5492153724134E+00 -0.4343987620493E+00
 0.5652433583156E+00 -0.4487643057254E+00
 0.5816211649856E+00 -0.4631904253138E+00
 0.5983727149756E+00 -0.4776394085565E+00
 0.6155189152291E+00 -0.4920673470525E+00
 0.6330761127634E+00 -0.5064237634992E+00
 0.6510544019081E+00 -0.5206513263263E+00
 0.6694557390458E+00 -0.5346855885496E+00
 0.3978713356374E+00 -0.2968586943989E+00
 0.4124683380055E+00 -0.3104448096153E+00
 0.4272063304360E+00 -0.3242822525469E+00
 0.4420949320458E+00 -0.3383626827351E+00
 0.4571455514518E+00 -0.3526766058131E+00
 0.4723711741691E+00 -0.3672128812281E+00
 0.4877861419497E+00 -0.3819582431370E+00
 0.5034058909446E+00 -0.3968968251727E+00
 0.5192466194473E+00 -0.4120096852217E+00
 0.5353248583874E+00 -0.4272743329114E+00
 0.5516569194628E+00 -0.4426642697750E+00
 0.5682581979781E+00 -0.4581485597138E+00
 0.5851423113616E+00 -0.4736914547422E+00
 0.6023200608983E+00 -0.4892521067083E+00
 0.6197982131688E+00 -0.5047843973405E+00
 0.6375781058039E+00 -0.5202369134995E+00
 0.6556540834646E+00 -0.5355530794423E+00
 0.6740117430503E+00 -0.5506714382570E+00
 0.6926259301998E+00 -0.5655260848737E+00
 0.4068461688240E+00 -0.3068623107621E+00
 0.4224087983325E+00 -0.3215682995374E+00
 0.4381284808748E+00 -0.3365484933802E+00
 0.4540128919003E+00 -0.3517892251464E+00
 0.4700707548042E+00 -0.3672750878287E+00
 0.4863114962084E+00 -0.3829883840183E+00
 0.5027448829625E+00 -0.3989086197545E+00
 0.5193806055872E+00 -0.4150120365644E+00
 0.5362277830002E+00 -0.4312711811355E+00
 0.5532943707516E+00 -0.4476545196340E+00
 0.5705864611603E+00 -0.4641261115964E+00
 0.5881074698379E+00 -0.4806453657073E+00
 0.6058572094637E+00 -0.4971669058897E+00
 0.6238308574119E+00 -0.5136405800799E+00
 0.6420178258644E+00 -0.5300116449774E+00
 0.6604005363052E+00 -0.5462211574988E+00
 0.6789530777339E+00 -0.5622065985112E+00
 0.6976397022897E+00 -0.5779027488724E+00
 0.7164131228353E+00 -0.5932428298267E+00
 0.4159775577198E+00 -0.3165439726046E+00
 0.4325728419515E+00 -0.3323528277401E+00
 0.4493404305369E+00 -0.3484490480523E+00
 0.4662851783216E+00 -0.3648122033673E+00
 0.4834120530863E+00 -0.3814195078941E+00
 0.5007256724462E+00 -0.3982452299830E+00
 0.5182298189316E+00 -0.4152601919174E+00
 0.5359268971085E+00 -0.4324313496652E+00
 0.5538173154566E+00 -0.4497214493996E+00
 0.5718987886426E+00 -0.4670887663349E+00
 0.5901655660371E+00 -0.4844869394367E+00
 0.6086076013938E+00 -0.5018649220354E+00
 0.6272096865977E+00 -0.5191670731820E+00
 0.6459505776907E+00 -0.5363334181732E+00
 0.6648021407601E+00 -0.5533001103876E+00
 0.6837285332961E+00 -0.5700001331271E+00
 0.7026854088855E+00 -0.5863642924870E+00
 0.7216190823493E+00 -0.6023225666989E+00
 0.7404655519317E+00 -0.6178058548281E+00
 0.4252420126812E+00 -0.3258910642741E+00
 0.4429328460407E+00 -0.3427870578309E+00
 0.4608093918281E+00 -0.3599736787773E+00
 0.4788726691307E+00 -0.3774223225512E+00
 0.4971226622163E+00 -0.3951013956099E+00
 0.5155577751100E+00 -0.4129757101674E+00
 0.5341742583310E+00 -0.4310060299739E+00
 0.5529655746520E+00 -0.4491487419643E+00
 0.5719216990394E+00 -0.4673556402188E+00
 0.5910283653598E+00 -0.4855738195517E+00
 0.6102662853962E+00 -0.5037456839294E+00
 0.6296103767734E+00 -0.5218090798169E+00
 0.6490290461692E+00 -0.5396975672777E+00
 0.6684835823000E+00 -0.5573408438448E+00
 0.6879277185049E+00 -0.5746653408421E+00
 0.7073074261921E+00 -0.5915950237907E+00
 0.7265609911298E+00 -0.6080524558679E+00
 0.7456193825270E+00 -0.6239602367801E+00
 0.7644067180521E+00 -0.6392430268176E+00
 0.4346158579084E+00 -0.3348951882306E+00
 0.4534612945466E+00 -0.3528648491514E+00
 0.4725030431456E+00 -0.3711184020066E+00
 0.4917371162116E+00 -0.3896176920558E+00
 0.5111571178418E+00 -0.4083209216726E+00
 0.5307536763192E+00 -0.4271820705424E+00
 0.5505138251633E+00 -0.4461505404990E+00
 0.5704203127299E+00 -0.4651709714310E+00
 0.5904508538973E+00 -0.4841831965095E+00
 0.6105773561738E+00 -0.5031223193523E+00
 0.6307651657327E+00 -0.5219189034752E+00
 0.6509723900433E+00 -0.5404992667843E+00
 0.6711493648719E+00 -0.5587858724917E+00
 0.6912383463236E+00 -0.5766978045830E+00
 0.7111735268342E+00 -0.5941513132145E+00
 0.7308815031262E+00 -0.6110604171210E+00
 0.7502823750532E+00 -0.6273375635828E+00
 0.7692917208357E+00 -0.6428944021526E+00
 0.7878237357696E+00 -0.6576429223393E+00
 0.4440745441918E+00 -0.3435512433330E+00
 0.4641292769390E+00 -0.3625833617438E+00
 0.4843872138584E+00 -0.3818825789276E+00
 0.5048379931910E+00 -0.4013998461269E+00
 0.5254672538205E+00 -0.4210817812510E+00
 0.5462561236601E+00 -0.4408701843259E+00
 0.5671805998400E+00 -0.4607018543124E+00
 0.5882108304114E+00 -0.4805086150872E+00
 0.6093103369527E+00 -0.5002174944339E+00
 0.6304352322879E+00 -0.5197510194926E+00
 0.6515334964480E+00 -0.5390275999201E+00
 0.6725443814867E+00 -0.5579619690707E+00
 0.6933980246759E+00 -0.5764656457628E+00
 0.7140153638119E+00 -0.5944473655010E+00
 0.7343084745352E+00 -0.6118134096733E+00
 0.7541815027456E+00 -0.6284677304372E+00
 0.7735324718764E+00 -0.6443117221920E+00
 0.7922565042960E+00 -0.6592434077637E+00
 0.8102516238346E+00 -0.6731557113703E+00
 0.4535899493878E+00 -0.3518542447220E+00
 0.4749009998817E+00 -0.3719367077169E+00
 0.4964175643363E+00 -0.3922593108674E+00
 0.5181212875171E+00 -0.4127607906904E+00
 0.5399880515719E+00 -0.4333748100706E+00
 0.5619876024151E+00 -0.4540296776576E+00
 0.5840829674930E+00 -0.4746484355865E+00
 0.6062297238972E+00 -0.4951491784059E+00
 0.6283751916739E+00 -0.5154455200866E+00
 0.6504576296066E+00 -0.5354471526588E+00
 0.6724055086949E+00 -0.5550604486308E+00
 0.6941369357021E+00 -0.5741890549818E+00
 0.7155592980316E+00 -0.5927344116013E+00
 0.7365692047040E+00 -0.6105961012150E+00
 0.7570528115749E+00 -0.6276718964760E+00
 0.7768866503120E+00 -0.6438573010434E+00
 0.7959391634893E+00 -0.6590442507691E+00
 0.8140733264176E+00 -0.6731183798377E+00
 0.8311514534697E+00 -0.6859535073021E+00
 0.4631234480697E+00 -0.3597911601960E+00
 0.4857197829708E+00 -0.3808996614191E+00
 0.5085184154227E+00 -0.4022108268222E+00
 0.5314910852593E+00 -0.4236499199886E+00
 0.5546019314871E+00 -0.4451363558958E+00
 0.5778073334497E+00 -0.4665837776596E+00
 0.6010553902836E+00 -0.4879005402933E+00
 0.6242851734388E+00 -0.5089904178600E+00
 0.6474258734397E+00 -0.5297534258134E+00
 0.6703959411393E+00 -0.5500866859636E+00
 0.6931023012284E+00 -0.5698852715715E+00
 0.7154396934476E+00 -0.5890429625174E+00
 0.7372901743630E+00 -0.6074528192952E+00
 0.7585227876541E+00 -0.6250074498645E+00
 0.7789933773838E+00 -0.6415987908842E+00
 0.7985444639471E+00 -0.6571171423730E+00
 0.8170049735941E+00 -0.6714490593043E+00
 0.8341893631224E+00 -0.6844734206994E+00
 0.8498945505416E+00 -0.6960545394575E+00
 0.4726264330731E+00 -0.3673400665551E+00
 0.4965089726997E+00 -0.3894262321431E+00
 0.5205840680905E+00 -0.4116666214137E+00
 0.5448113881776E+00 -0.4339719144271E+00
 0.5691412602361E+00 -0.4562461904600E+00
 0.5935147826416E+00 -0.4783875561731E+00
 0.6178633709564E+00 -0.5002891647891E+00
 0.6421079788803E+00 -0.5218403991052E+00
 0.6661581735810E+00 -0.5429280929711E+00
 0.6899111851623E+00 -0.5634377118568E+00
 0.7132509959100E+00 -0.5832544236097E+00
 0.7360474833076E+00 -0.6022639790829E+00
 0.7581555755450E+00 -0.6203532965882E+00
 0.7794143085151E+00 -0.6374106080854E+00
 0.7996455688551E+00 -0.6533249808472E+00
 0.8186521196024E+00 -0.6679849829922E+00
 0.8362141317669E+00 -0.6812762394396E+00
 0.8520824508018E+00 -0.6930777556828E+00
 0.8659648032503E+00 -0.7032573772107E+00
 0.4820527351146E+00 -0.3744834099041E+00
 0.5071967444910E+00 -0.3974766972997E+00
 0.5325160976004E+00 -0.4205648948589E+00
 0.5579561192264E+00 -0.4436431606163E+00
 0.5834513885790E+00 -0.4665993956830E+00
 0.6089261422180E+00 -0.4893156472158E+00
 0.6342938603345E+00 -0.5116697920784E+00
 0.6594564254373E+00 -0.5335372436326E+00
 0.6843030999756E+00 -0.5547925607459E+00
 0.7087094521408E+00 -0.5753108923598E+00
 0.7325362620308E+00 -0.5949691991709E+00
 0.7556283523914E+00 -0.6136471782113E+00
 0.7778131945109E+00 -0.6312277920498E+00
 0.7988990211649E+00 -0.6475972823265E+00
 0.8186720064274E+00 -0.6626445404230E+00
 0.8368918038683E+00 -0.6762597469416E+00
 0.8532842755548E+00 -0.6883323660220E+00
 0.8675295275345E+00 -0.6987491722622E+00
 0.8792414202386E+00 -0.7073949169948E+00
 0.4913548503532E+00 -0.3812052993403E+00
 0.5177083273022E+00 -0.4050123482909E+00
 0.5442115255667E+00 -0.4288448809832E+00
 0.5707932704732E+00 -0.4525817975495E+00
 0.5973708731058E+00 -0.4760942792562E+00
 0.6238507690238E+00 -0.4992481998840E+00
 0.6501280753355E+00 -0.5219065558004E+00
 0.6760856440610E+00 -0.5439316722447E+00
 0.7015929245230E+00 -0.5651871137233E+00
 0.7265047518475E+00 -0.5855392827178E+00
 0.7506600338562E+00 -0.6048586869574E+00
 0.7738801880044E+00 -0.6230208351469E+00
 0.7959670573560E+00 -0.6399067068870E+00
 0.8166998855956E+00 -0.6554027511404E+00
 0.8358307381513E+00 -0.6694004159340E+00
 0.8530775272950E+00 -0.6817953326405E+00
 0.8681136461922E+00 -0.6924865524106E+00
 0.8805536398152E+00 -0.7013767859694E+00
 0.8899374700591E+00 -0.7083760712336E+00
 0.5004838948707E+00 -0.3874927215491E+00
 0.5279656295585E+00 -0.4119981586928E+00
 0.5555621462594E+00 -0.4364511842912E+00
 0.5831840479830E+00 -0.4607139236693E+00
 0.6107306025476E+00 -0.4846406649739E+00
 0.6380904468914E+00 -0.5080814791026E+00
 0.6651409922932E+00 -0.5308853888182E+00
 0.6917473285003E+00 -0.5529029490589E+00
 0.7177609796745E+00 -0.5739883032065E+00
 0.7430185801319E+00 -0.5940008003620E+00
 0.7673403576475E+00 -0.6128062250541E+00
 0.7905281836636E+00 -0.6302776580253E+00
 0.8123628277659E+00 -0.6462959914030E+00
 0.8325999132291E+00 -0.6607501706632E+00
 0.8509639176206E+00 -0.6735373368717E+00
 0.8671394607632E+00 -0.6845632038868E+00
 0.8807593466537E+00 -0.6937431810014E+00
 0.8913901405910E+00 -0.7010047379478E+00
 0.8985223102120E+00 -0.7062896308851E+00
 0.5093843617703E+00 -0.3933313863827E+00
 0.5378764506097E+00 -0.4183946974966E+00
 0.5664382622532E+00 -0.4433218824690E+00
 0.5949613204239E+00 -0.4679581120959E+00
 0.6233271947817E+00 -0.4921411840634E+00
 0.6514079373206E+00 -0.5157064631176E+00
 0.6790651773880E+00 -0.5384906154599E+00
 0.7061488676080E+00 -0.5603343224801E+00
 0.7324960034717E+00 -0.5810842816887E+00
 0.7579292735946E+00 -0.6005947346222E+00
 0.7822554387287E+00 -0.6187286395093E+00
 0.8052631500454E+00 -0.6353585698062E+00
 0.8267198325041E+00 -0.6503674532729E+00
 0.8463671700399E+00 -0.6636493595560E+00
 0.8639146525238E+00 -0.6751106900305E+00
 0.8790306451959E+00 -0.6846722924098E+00
 0.8913305916791E+00 -0.6922730762920E+00
 0.9003625665328E+00 -0.6978750093859E+00
 0.9055893091690E+00 -0.7014657002884E+00
 0.5179875518963E+00 -0.3987009392830E+00
 0.5473209239634E+00 -0.4241486140345E+00
 0.5766683832543E+00 -0.4493745879927E+00
 0.6059030019477E+00 -0.4742075415694E+00
 0.6348905305254E+00 -0.4984702699207E+00
 0.6634890716560E+00 -0.5219857580846E+00
 0.6915477374687E+00 -0.5445810653029E+00
 0.7189053601863E+00 -0.5660897903965E+00
 0.7453893330151E+00 -0.5863538608773E+00
 0.7708143789153E+00 -0.6052249438005E+00
 0.7949810120018E+00 -0.6225656144437E+00
 0.8176734339763E+00 -0.6382504068044E+00
 0.8386565897574E+00 -0.6521669469467E+00
 0.8576720969181E+00 -0.6642175080018E+00
 0.8744327799081E+00 -0.6743215148374E+00
 0.8886155506445E+00 -0.6824197351802E+00
 0.8998522006273E+00 -0.6884809943108E+00
 0.9077158763115E+00 -0.6925118053659E+00
 0.9116932724062E+00 -0.6945676019647E+00
 0.5262517366241E+00 -0.4036151526656E+00
 0.5562319663534E+00 -0.4292729850012E+00
 0.5861602242171E+00 -0.4546260919919E+00
 0.6158935204301E+00 -0.4794876260634E+00
 0.6452849946767E+00 -0.5036679978247E+00
 0.6741821370260E+00 -0.5269814140360E+00
 0.7024252642570E+00 -0.5492489392469E+00
 0.7298464880644E+00 -0.5703004860077E+00
 0.7562688173797E+00 -0.5899764155105E+00
 0.7815051630382E+00 -0.6081289443378E+00
 0.8053570537245E+00 -0.6246234589515E+00
 0.8276129164370E+00 -0.6393398996028E+00
 0.8480458234900E+00 -0.6521745009190E+00
 0.8664106907212E+00 -0.6630423560929E+00
 0.8824410306087E+00 -0.6718815121122E+00
 0.8958454583652E+00 -0.6786596201070E+00
 0.9063038267388E+00 -0.6833845949093E+00
 0.9134610231760E+00 -0.6861217110743E+00
 0.9169085803906E+00 -0.6870229647991E+00
 0.5341453938273E+00 -0.4081025722472E+00
 0.5645602826185E+00 -0.4338075233449E+00
 0.5948476652229E+00 -0.4591305670270E+00
 0.6248533109399E+00 -0.4838711883915E+00
 0.6544212286919E+00 -0.5078324801987E+00
 0.6833913644930E+00 -0.5308247212210E+00
 0.7115987406845E+00 -0.5526673226178E+00
 0.7388727945104E+00 -0.5731905707612E+00
 0.7650367548671E+00 -0.5922373269138E+00
 0.7899068844192E+00 -0.6096647121556E+00
 0.8132915020055E+00 -0.6253458845760E+00
 0.8349897680007E+00 -0.6391721471491E+00
 0.8547903232777E+00 -0.6510557912531E+00
 0.8724700389055E+00 -0.6609342993115E+00
 0.8877933762317E+00 -0.6687768320865E+00
 0.9005131579252E+00 -0.6745943811453E+00
 0.9103738828131E+00 -0.6784558608168E+00
 0.9171191436389E+00 -0.6805147269416E+00
 0.9205080370983E+00 -0.6810587785889E+00
</DataArray>
</PointData>
   <DataArray type="Float64" Name="Load" NumberOfComponents="1"    ComponentName0="Load" format="ascii">
 0.2794415062835E+01
 0.2656046982891E+01
 0.2527309812828E+01
 0.2506674491348E+01
 0.2487155457227E+01
 0.2471664107074E+01
 0.2453783324249E+01
 0.2432780650450E+01
 0.2408116373860E+01
 0.2379784702296E+01
 0.2347886240750E+01
 0.2312570323765E+01
 0.2273974612701E+01
 0.2232205094496E+01
 0.2187326937251E+01
 0.2139364480336E+01
 0.2088306692835E+01
 0.2034121114510E+01
 0.1976765769059E+01
 0.1916220182076E+01
 0.1852522977759E+01
 0.1785854568841E+01
 0.1716722986732E+01
 0.1645945633303E+01
 0.1572871084818E+01
 0.1495118142745E+01
 0.1410908931282E+01
 0.1320186538274E+01
 0.1224523223900E+01
 0.1126600956916E+01
 0.1029710154440E+01
 0.9374466847414E+00
 0.8535598101122E+00
 0.7827140483866E+00
 0.7313831949989E+00
 0.7063437019922E+00
 0.7178073474630E+00
 0.7670429024172E+00
 0.9253906809383E+00
 0.9542011941747E+00
 0.2128876045744E+01
 0.2411950630423E+01
 0.2572770446335E+01
 0.2471309541082E+01
 0.2421569111634E+01
 0.2396366318552E+01
 0.2374469520531E+01
 0.2353330545482E+01
 0.2330314476128E+01
 0.2304659239909E+01
 0.2276005632167E+01
 0.2244275013397E+01
 0.2209487251574E+01
 0.2171697468576E+01
 0.2130957762544E+01
 0.2087300693446E+01
 0.2040733668940E+01
 0.1991240949046E+01
 0.1938792600093E+01
 0.1883357933872E+01
 0.1824927203897E+01
 0.1763546384037E+01
 0.1699364717841E+01
 0.1632576845618E+01
 0.1563162850719E+01
 0.1490621728634E+01
 0.1414089480468E+01
 0.1332932367715E+01
 0.1247337321240E+01
 0.1158472009212E+01
 0.1068315369920E+01
 0.9793961711994E+00
 0.8946157742623E+00
 0.8172476269519E+00
 0.7510633992095E+00
 0.7001771404358E+00
 0.6693160843444E+00
 0.6605341011055E+00
 0.6828316943281E+00
 0.7045784332902E+00
 0.6275613504133E+00
 0.1527345942845E+01
 0.2172634549091E+01
 0.2395505947433E+01
 0.2384205734991E+01
 0.2332948850492E+01
 0.2302480849478E+01
 0.2277368243723E+01
 0.2253544134036E+01
 0.2228948913194E+01
 0.2202434382734E+01
 0.2173508411833E+01
 0.2141947837877E+01
 0.2107677954565E+01
 0.2070685007819E+01
 0.2030974698307E+01
 0.1988549507597E+01
 0.1943399367856E+01
 0.1895500208127E+01
 0.1844820070297E+01
 0.1791329061231E+01
 0.1735014792989E+01
 0.1675903603523E+01
 0.1614046012194E+01
 0.1549373868275E+01
 0.1481609422167E+01
 0.1410490582169E+01
 0.1335919344694E+01
 0.1257948443653E+01
 0.1176961342356E+01
 0.1093865815527E+01
 0.1010116491959E+01
 0.9276234599142E+00
 0.8486729601761E+00
 0.7758755935084E+00
 0.7119218791005E+00
 0.6593663018808E+00
 0.6199062889307E+00
 0.5939145043094E+00
 0.5774504086756E+00
 0.5221361742548E+00
 0.5171912367621E+00
 0.1244966192832E+01
 0.1995094731673E+01
 0.2218429816183E+01
 0.2265999738871E+01
 0.2236353576219E+01
 0.2205625445291E+01
 0.2179297476120E+01
 0.2154001713600E+01
 0.2128306193406E+01
 0.2101189660324E+01
 0.2072101773564E+01
 0.2040760367266E+01
 0.2007028277363E+01
 0.1970843174993E+01
 0.1932174080964E+01
 0.1890997871182E+01
 0.1847287620682E+01
 0.1801008843958E+01
 0.1752122859381E+01
 0.1700592601475E+01
 0.1646391157250E+01
 0.1589503366848E+01
 0.1529873011184E+01
 0.1467289069287E+01
 0.1401441504631E+01
 0.1332276759542E+01
 0.1260102510372E+01
 0.1185347439691E+01
 0.1108515058353E+01
 0.1030329493704E+01
 0.9518459422874E+00
 0.8744670307853E+00
 0.7999100647876E+00
 0.7300802300393E+00
 0.6667358770441E+00
 0.6110524298667E+00
 0.5630634020246E+00
 0.5210842042213E+00
 0.4738707348941E+00
 0.4087569259983E+00
 0.4815575808454E+00
 0.1042429474146E+01
 0.1849476988255E+01
 0.2055980098285E+01
 0.2135115277590E+01
 0.2130115340234E+01
 0.2105481094707E+01
 0.2079875523623E+01
 0.2054294261083E+01
 0.2028105646558E+01
 0.2000698565815E+01
 0.1971613784121E+01
 0.1940576190931E+01
 0.1907427704705E+01
 0.1872078691921E+01
 0.1834473524580E+01
 0.1794569219376E+01
 0.1752323790620E+01
 0.1707691195577E+01
 0.1660622311062E+01
 0.1611066755058E+01
 0.1558973881409E+01
 0.1504278391686E+01
 0.1446841703957E+01
 0.1386396235177E+01
 0.1322679958403E+01
 0.1255792280193E+01
 0.1186248453481E+01
 0.1114659921810E+01
 0.1041577310524E+01
 0.9675781910736E+00
 0.8934049852966E+00
 0.8200384167631E+00
 0.7486816826494E+00
 0.6806094960996E+00
 0.6168097688013E+00
 0.5575331392308E+00
 0.5019998868979E+00
 0.4472467124482E+00
 0.3867378479619E+00
 0.3390676456509E+00
 0.4547378293127E+00
 0.8744731228220E+00
 0.1722360340930E+01
 0.1908152270957E+01
 0.2001840993105E+01
 0.2017193305149E+01
 0.2001829772526E+01
 0.1978998643712E+01
 0.1954174697934E+01
 0.1928125907250E+01
 0.1900776650015E+01
 0.1871892029325E+01
 0.1841270163695E+01
 0.1808771079262E+01
 0.1774300623787E+01
 0.1737791297717E+01
 0.1699186991296E+01
 0.1658433310634E+01
 0.1615472387241E+01
 0.1570242084002E+01
 0.1522674312104E+01
 0.1472689530856E+01
 0.1420174915011E+01
 0.1364938716115E+01
 0.1306705524905E+01
 0.1245279625867E+01
 0.1180858850270E+01
 0.1114048483615E+01
 0.1045523771416E+01
 0.9758258956946E+00
 0.9054030660093E+00
 0.8347459655607E+00
 0.7644846376187E+00
 0.6953848534169E+00
 0.6282085626045E+00
 0.5633951300881E+00
 0.5007409955522E+00
 0.4392748996005E+00
 0.3771238689435E+00
 0.3162406694331E+00
 0.2896994709404E+00
 0.4169032848292E+00
 0.7273653512002E+00
 0.1606885071629E+01
 0.1772441088246E+01
 0.1870838013905E+01
 0.1900895737298E+01
 0.1895288379755E+01
 0.1876687475437E+01
 0.1853544386736E+01
 0.1828214394353E+01
 0.1801278801599E+01
 0.1772806912234E+01
 0.1742729653762E+01
 0.1710960149409E+01
 0.1677421538737E+01
 0.1642047338483E+01
 0.1604775455978E+01
 0.1565542350019E+01
 0.1524278827379E+01
 0.1480908270305E+01
 0.1435342314363E+01
 0.1387471365789E+01
 0.1337142970681E+01
 0.1284135415852E+01
 0.1228187745481E+01
 0.1169162937307E+01
 0.1107311023586E+01
 0.1043254477031E+01
 0.9776592626871E+00
 0.9110177465906E+00
 0.8436577508618E+00
 0.7758637488322E+00
 0.7079806748144E+00
 0.6404263779671E+00
 0.5735906973028E+00
 0.5076118360078E+00
 0.4422269828536E+00
 0.3770013224963E+00
 0.3126767838430E+00
 0.2576865563563E+00
 0.2466639548472E+00
 0.3659071680666E+00
 0.5948088229135E+00
 0.1499217030678E+01
 0.1646341554977E+01
 0.1743926041174E+01
 0.1783686683876E+01
 0.1786850132369E+01
 0.1773156319368E+01
 0.1752401634719E+01
 0.1728287604785E+01
 0.1702097771486E+01
 0.1674251912621E+01
 0.1644855528446E+01
 0.1613904460188E+01
 0.1581358397910E+01
 0.1547164023964E+01
 0.1511260363944E+01
 0.1473578323879E+01
 0.1434038513381E+01
 0.1392549364421E+01
 0.1349001379604E+01
 0.1303256498591E+01
 0.1255131389525E+01
 0.1204389383670E+01
 0.1150790074510E+01
 0.1094237929234E+01
 0.1034998404598E+01
 0.9736650673438E+00
 0.9108502303320E+00
 0.8469724130688E+00
 0.7822460295359E+00
 0.7167867534155E+00
 0.6507172661287E+00
 0.5842027066305E+00
 0.5174109838640E+00
 0.4504137688020E+00
 0.3832471774867E+00
 0.3166114336051E+00
 0.2540506643076E+00
 0.2066552026347E+00
 0.2032652855448E+00
 0.3044523128159E+00
 0.4729426903671E+00
 0.1397062667317E+01
 0.1527819249964E+01
 0.1621592026296E+01
 0.1667147835944E+01
 0.1677503395320E+01
 0.1668757388881E+01
 0.1650825188889E+01
 0.1628317569326E+01
 0.1603162209679E+01
 0.1576142559628E+01
 0.1547562369089E+01
 0.1517521879923E+01
 0.1486033180335E+01
 0.1453066787864E+01
 0.1418569493885E+01
 0.1382470322631E+01
 0.1344681267290E+01
 0.1305096177752E+01
 0.1263584899840E+01
 0.1219983816146E+01
 0.1174086045067E+01
 0.1125647828275E+01
 0.1074446397185E+01
 0.1020408376092E+01
 0.9637864477968E+00
 0.9051160790774E+00
 0.8449298773141E+00
 0.7835585000275E+00
 0.7211109316091E+00
 0.6575676663489E+00
 0.5928899706005E+00
 0.5270866736885E+00
 0.4602516320153E+00
 0.3926076697357E+00
 0.3248109739237E+00
 0.2590544650884E+00
 0.2010974192241E+00
 0.1609752907450E+00
 0.1576376680820E+00
 0.2358685103997E+00
 0.3590709043408E+00
 0.1298972865339E+01
 0.1415311004211E+01
 0.1503729586047E+01
 0.1552200003284E+01
 0.1568065231575E+01
 0.1563891459068E+01
 0.1548952725557E+01
 0.1528319662471E+01
 0.1504431657501E+01
 0.1478414799295E+01
 0.1450777983063E+01
 0.1421738743041E+01
 0.1391373248411E+01
 0.1359684557989E+01
 0.1326633068423E+01
 0.1292149437034E+01
 0.1256138891295E+01
 0.1218481689088E+01
 0.1179028334530E+01
 0.1137592809594E+01
 0.1093949802825E+01
 0.1047851065828E+01
 0.9990841006852E+00
 0.9475795134483E+00
 0.8935561924903E+00
 0.8374734010740E+00
 0.7797698833238E+00
 0.7206825669623E+00
 0.6602251204385E+00
 0.5982748997091E+00
 0.5346908480173E+00
 0.4694204019483E+00
 0.4026270620569E+00
 0.3348977780129E+00
 0.2678208252846E+00
 0.2053763679557E+00
 0.1549545318043E+00
 0.1222554955329E+00
 0.1121145228964E+00
 0.1632578827877E+00
 0.2512461825894E+00
 0.1203989066316E+01
 0.1307631841242E+01
 0.1389992060943E+01
 0.1439322356422E+01
 0.1459144245151E+01
 0.1458941015356E+01
 0.1446953541023E+01
 0.1428340886022E+01
 0.1405890602560E+01
 0.1381022541197E+01
 0.1354442480507E+01
 0.1326489657861E+01
 0.1297311504153E+01
 0.1266950049750E+01
 0.1235384071589E+01
 0.1202549017323E+01
 0.1168345288071E+01
 0.1132640916443E+01
 0.1095268756074E+01
 0.1056023147475E+01
 0.1014663277597E+01
 0.9709355194699E+00
 0.9246285494362E+00
 0.8756612185879E+00
 0.8242033698819E+00
 0.7706274213423E+00
 0.7152719150755E+00
 0.6582800686502E+00
 0.5995826545005E+00
 0.5389855090235E+00
 0.4763032520997E+00
 0.4115166854835E+00
 0.3450089369335E+00
 0.2779808514153E+00
 0.2134066212322E+00
 0.1578136088339E+00
 0.1203981478339E+00
 0.9903152429548E-01
 0.7809234109160E-01
 0.9104554811019E-01
 0.1481817427686E+00
 0.1111451662915E+01
 0.1203881373502E+01
 0.1279957981125E+01
 0.1328715629839E+01
 0.1351159867842E+01
 0.1354234298869E+01
 0.1345003746799E+01
 0.1328448104595E+01
 0.1307542431886E+01
 0.1283934716035E+01
 0.1258506997664E+01
 0.1231717054881E+01
 0.1203786356630E+01
 0.1174799927205E+01
 0.1144758472758E+01
 0.1113604872080E+01
 0.1081236559145E+01
 0.1047510848515E+01
 0.1012244654186E+01
 0.9752147384739E+00
 0.9361658870323E+00
 0.8948361205909E+00
 0.8510060106137E+00
 0.8045696726694E+00
 0.7556371733861E+00
 0.7044885251970E+00
 0.6513608854889E+00
 0.5963079513009E+00
 0.5391921396939E+00
 0.4797798905450E+00
 0.4179006382760E+00
 0.3536713144742E+00
 0.2878831084571E+00
 0.2227588917466E+00
 0.1637067058706E+00
 0.1220471542192E+00
 0.1079985811179E+00
 0.1050062142561E+00
 0.8380246020323E-01
 0.4562027624375E-01
 0.5067011579791E-01
 0.1020890768298E+01
 0.1103369138426E+01
 0.1173205931885E+01
 0.1220412234126E+01
 0.1244379299676E+01
 0.1250032387441E+01
 0.1243268381990E+01
 0.1228717325381E+01
 0.1209403633480E+01
 0.1187132218375E+01
 0.1162932229819E+01
 0.1137370587200E+01
 0.1110741584956E+01
 0.1083174901847E+01
 0.1054695425030E+01
 0.1025255477441E+01
 0.9947511608898E+00
 0.9630305207354E+00
 0.9298960260433E+00
 0.8951081557889E+00
 0.8583970233188E+00
 0.8194882423129E+00
 0.7781456265921E+00
 0.7342281958786E+00
 0.6877789719254E+00
 0.6389834513296E+00
 0.5879795897847E+00
 0.5347386682953E+00
 0.4790712881330E+00
 0.4207386410909E+00
 0.3596509722094E+00
 0.2961937918230E+00
 0.2318789687986E+00
 0.1708710241318E+00
 0.1238229168048E+00
 0.1093050797670E+00
 0.1249917611183E+00
 0.1390664745502E+00
 0.1291944841740E+00
 0.9451134089094E-01
 0.5527165680156E-01
 0.9319611828995E+00
 0.1005559123781E+01
 0.1069345813941E+01
 0.1114347199311E+01
 0.1138955040176E+01
 0.1146529911556E+01
 0.1141890862018E+01
 0.1129225091824E+01
 0.1111498592900E+01
 0.1090604994463E+01
 0.1067686941391E+01
 0.1043406485851E+01
 0.1018126175301E+01
 0.9920198348593E+00
 0.9651375005136E+00
 0.9374422614749E+00
 0.9088301880940E+00
 0.8791412988157E+00
 0.8481647645891E+00
 0.8156453604344E+00
 0.7812973106663E+00
 0.7448293527344E+00
 0.7059808742610E+00
 0.6645677216798E+00
 0.6205611818340E+00
 0.5740524081346E+00
 0.5250844682290E+00
 0.4735554030968E+00
 0.4192428504966E+00
 0.3619421868987E+00
 0.3017306807177E+00
 0.2394795528528E+00
 0.1781037161119E+00
 0.1262010484035E+00
 0.1048914972691E+00
 0.1265600870268E+00
 0.1633043927607E+00
 0.1884336050107E+00
 0.1901813103468E+00
 0.1713832469230E+00
 0.1489250744056E+00
 0.8444021996488E+00
 0.9100295573948E+00
 0.9680293901574E+00
 0.1010402690935E+01
 0.1034956888930E+01
 0.1043862514002E+01
 0.1040988351352E+01
 0.1030042435848E+01
 0.1013855307524E+01
 0.9943494789142E+00
 0.9727466069106E+00
 0.9497869781875E+00
 0.9258942173091E+00
 0.9012839189609E+00
 0.8760310372164E+00
 0.8501100425059E+00
 0.8234178684890E+00
 0.7957874460490E+00
 0.7669953918866E+00
 0.7367707487362E+00
 0.7048100331077E+00
 0.6708006277504E+00
 0.6344508938495E+00
 0.5955272914339E+00
 0.5539265136477E+00
 0.5096469458605E+00
 0.4626423374233E+00
 0.4127482978268E+00
 0.3597319085932E+00
 0.3034747114465E+00
 0.2443598832397E+00
 0.1842012429467E+00
 0.1291675657377E+00
 0.9854952838567E-01
 0.1171439254341E+00
 0.1648424110059E+00
 0.2125444041632E+00
 0.2454052249350E+00
 0.2574131091903E+00
 0.2524267742309E+00
 0.2432025799603E+00
 0.7580119378029E+00
 0.8164439563446E+00
 0.8689513428076E+00
 0.9084354555408E+00
 0.9323971937655E+00
 0.9421168906503E+00
 0.9406513121177E+00
 0.9312313456450E+00
 0.9165022737366E+00
 0.8983666032325E+00
 0.8780923800092E+00
 0.8564799451088E+00
 0.8340050244590E+00
 0.8109211043363E+00
 0.7873267697523E+00
 0.7632078065409E+00
 0.7384624670526E+00
 0.7129171801347E+00
 0.6863363435602E+00
 0.6584327493786E+00
 0.6288830330448E+00
 0.5973489442057E+00
 0.5635022008026E+00
 0.5270550766412E+00
 0.4878279836333E+00
 0.4457287924794E+00
 0.4006281062493E+00
 0.3523115579472E+00
 0.3005647597047E+00
 0.2454371311543E+00
 0.1878989473479E+00
 0.1319264556198E+00
 0.9255618019172E-01
 0.1022328080993E+00
 0.1531425185004E+00
 0.2134208660514E+00
 0.2674548220149E+00
 0.3067254942331E+00
 0.3279578187330E+00
 0.3349184204479E+00
 0.3368698108147E+00
 0.6726304795046E+00
 0.7245302622122E+00
 0.7718463539783E+00
 0.8082935425934E+00
 0.8312500497473E+00
 0.8413412282239E+00
 0.8409457715509E+00
 0.8328434670823E+00
 0.8194667056389E+00
 0.8026606012038E+00
 0.7837106173902E+00
 0.7634590419449E+00
 0.7424237058283E+00
 0.7208910082037E+00
 0.6989810047787E+00
 0.6766901137430E+00
 0.6539179235120E+00
 0.6304845774639E+00
 0.6061422019473E+00
 0.5805864301569E+00
 0.5534716410384E+00
 0.5244299332931E+00
 0.4930915485748E+00
 0.4591107076121E+00
 0.4222303826321E+00
 0.3822701558836E+00
 0.3390236680840E+00
 0.2922412699235E+00
 0.2417702554748E+00
 0.1879856443972E+00
 0.1331737034352E+00
 0.8759934584454E-01
 0.8518461464086E-01
 0.1343580791348E+00
 0.2004641404156E+00
 0.2670343003328E+00
 0.3257353756408E+00
 0.3708957702374E+00
 0.4005799626866E+00
 0.4181269723281E+00
 0.4300154952206E+00
 0.5881285152414E+00
 0.6340657688802E+00
 0.6764849478816E+00
 0.7098265378727E+00
 0.7314658266715E+00
 0.7415552004673E+00
 0.7419174283368E+00
 0.7349208542719E+00
 0.7227743287390E+00
 0.7072389968102E+00
 0.6895933905675E+00
 0.6707047473672E+00
 0.6511226893182E+00
 0.6311608552061E+00
 0.6109579498551E+00
 0.5905198188522E+00
 0.5697469977249E+00
 0.5484532023412E+00
 0.5263778758089E+00
 0.5031982602498E+00
 0.4785439606746E+00
 0.4520136051722E+00
 0.4231916106421E+00
 0.3916706639436E+00
 0.3571149264332E+00
 0.3192569753780E+00
 0.2778188278037E+00
 0.2325338623261E+00
 0.1833871868382E+00
 0.1314689225041E+00
 0.8297859037220E-01
 0.6793263598288E-01
 0.1123963688095E+00
 0.1800847946377E+00
 0.2528571108293E+00
 0.3234442401138E+00
 0.3862758055267E+00
 0.4371189205168E+00
 0.4746243434849E+00
 0.5016761296741E+00
 0.5227954891289E+00
 0.5043995536060E+00
 0.5448662741008E+00
 0.5826695532119E+00
 0.6128922525520E+00
 0.6329826557425E+00
 0.6427596577524E+00
 0.6435974364547E+00
 0.6374989891264E+00
 0.6264513380388E+00
 0.6121145630783E+00
 0.5957408861966E+00
 0.5782073369201E+00
 0.5600853000735E+00
 0.5417096834813E+00
 0.5232345929742E+00
 0.5046737006713E+00
 0.4859277536193E+00
 0.4668035671674E+00
 0.4470271520112E+00
 0.4262558216564E+00
 0.4040917159043E+00
 0.3800961924040E+00
 0.3538035638849E+00
 0.3247411892515E+00
 0.2924917633184E+00
 0.2566995387994E+00
 0.2170172378055E+00
 0.1731852964878E+00
 0.1254949772587E+00
 0.7714393789252E-01
 0.5124272742712E-01
 0.8995957549757E-01
 0.1567565184045E+00
 0.2313253778442E+00
 0.3077763442506E+00
 0.3816122318559E+00
 0.4484593995715E+00
 0.5049062455641E+00
 0.5497731998301E+00
 0.5851853760171E+00
 0.6152716435502E+00
 0.4213545558974E+00
 0.4567784618845E+00
 0.4902318983567E+00
 0.5173623033621E+00
 0.5357369323287E+00
 0.5449472126639E+00
 0.5460108153036E+00
 0.5406132808869E+00
 0.5305300985945E+00
 0.5173111295189E+00
 0.5021678253557E+00
 0.4859741722870E+00
 0.4693140904203E+00
 0.4525378859111E+00
 0.4358116612869E+00
 0.4191550880894E+00
 0.4024681388416E+00
 0.3855499700425E+00
 0.3681120834811E+00
 0.3497899897468E+00
 0.3301553824373E+00
 0.3087282890613E+00
 0.2849881678139E+00
 0.2583919852891E+00
 0.2284351944731E+00
 0.1946659635353E+00
 0.1566595117127E+00
 0.1141917527814E+00
 0.6840019151300E-01
 0.3472576508691E-01
 0.6938959823427E-01
 0.1340323599252E+00
 0.2072464510501E+00
 0.2849952792221E+00
 0.3641047815990E+00
 0.4409843405773E+00
 0.5119096595167E+00
 0.5739005196229E+00
 0.6259236877733E+00
 0.6685729960734E+00
 0.7067704062590E+00
 0.3389200966287E+00
 0.3696859642148E+00
 0.3990510402735E+00
 0.4231554027141E+00
 0.4397101210985E+00
 0.4481588278492E+00
 0.4492404371449E+00
 0.4443699046034E+00
 0.4351272120345E+00
 0.4229493545024E+00
 0.4089972390771E+00
 0.3941316307332E+00
 0.3789410290269E+00
 0.3637857915696E+00
 0.3488407872761E+00
 0.3341298693924E+00
 0.3195511506798E+00
 0.3048951670540E+00
 0.2898575387813E+00
 0.2740497603251E+00
 0.2570097800433E+00
 0.2382119117257E+00
 0.2170753847512E+00
 0.1929799069291E+00
 0.1653225693982E+00
 0.1335327918872E+00
 0.9705984802279E-01
 0.5568726041298E-01
 0.1707580579930E-01
 0.5382648671365E-01
 0.1152274904491E+00
 0.1844902842408E+00
 0.2599464017514E+00
 0.3396913411921E+00
 0.4211270886745E+00
 0.5010631221586E+00
 0.5761560636326E+00
 0.6437420630725E+00
 0.7024249461617E+00
 0.7530913280480E+00
 0.7929468166938E+00
 0.2570318652359E+00
 0.2834895001834E+00
 0.3090257676288E+00
 0.3302031861763E+00
 0.3448859055854E+00
 0.3524295254716E+00
 0.3533597712425E+00
 0.3488657623231E+00
 0.3403519262642E+00
 0.3291452167495E+00
 0.3163508187022E+00
 0.3028092657095E+00
 0.2891077184826E+00
 0.2756125830844E+00
 0.2625052119665E+00
 0.2498125058236E+00
 0.2374300880356E+00
 0.2251391680031E+00
 0.2126182826272E+00
 0.1994530485476E+00
 0.1851453437740E+00
 0.1691216128189E+00
 0.1507398508597E+00
 0.1293034384158E+00
 0.1041124106958E+00
 0.7447178785378E-01
 0.3966275139673E-01
 0.3593886081924E-02
 0.4913524686859E-01
 0.1041164391258E+00
 0.1667905348040E+00
 0.2368870273461E+00
 0.3134670937807E+00
 0.3948205494261E+00
 0.4785230271259E+00
 0.5616129444743E+00
 0.6410141053223E+00
 0.7141549211174E+00
 0.7796647097742E+00
 0.8368007167123E+00
 0.8858921547592E+00
 0.1756359589182E+00
 0.1981228120671E+00
 0.2201114299868E+00
 0.2385073220967E+00
 0.2513240656250E+00
 0.2578754629237E+00
 0.2585312888423E+00
 0.2542984790209E+00
 0.2464297218313E+00
 0.2361504674492E+00
 0.2245106205953E+00
 0.2123283806141E+00
 0.2001879290807E+00
 0.1884615890207E+00
 0.1773384850222E+00
 0.1668506936175E+00
 0.1568937268395E+00
 0.1472419357314E+00
 0.1375601322700E+00
 0.1274147608028E+00
 0.1162870766325E+00
 0.1035914686798E+00
 0.8870915117876E-01
 0.7108508537073E-01
 0.5061890667750E-01
 0.2998327226076E-01
 0.2932367978420E-01
 0.6028669159273E-01
 0.1044223307638E+00
 0.1577725886822E+00
 0.2197829419610E+00
 0.2899763911176E+00
 0.3673500076551E+00
 0.4502146377802E+00
 0.5362425651325E+00
 0.6226363252467E+00
 0.7064829457307E+00
 0.7852978962303E+00
 0.8574087707893E+00
 0.9218593908075E+00
 0.9793774917013E+00
 0.9470813084949E-01
 0.1136737568851E+00
 0.1325460126773E+00
 0.1484507381343E+00
 0.1595415638193E+00
 0.1651389781915E+00
 0.1655183403592E+00
 0.1615555095315E+00
 0.1543860908272E+00
 0.1451560009940E+00
 0.1348758057484E+00
 0.1243568365608E+00
 0.1141983167469E+00
 0.1047995184022E+00
 0.9637988229950E-01
 0.8899862770135E-01
 0.8257243523726E-01
 0.7689512866104E-01
 0.7166585653969E-01
 0.6653651358979E-01
 0.6119775708387E-01
 0.5555308190042E-01
 0.5010528822976E-01
 0.4673924958635E-01
 0.4934397499967E-01
 0.6176341150028E-01
 0.8481215507873E-01
 0.1177397379326E+00
 0.1601269721384E+00
 0.2119357835291E+00
 0.2731046789722E+00
 0.3432210450269E+00
 0.4212968567388E+00
 0.5056838790820E+00
 0.5941411068854E+00
 0.6839938046286E+00
 0.7724422684754E+00
 0.8569991830649E+00
 0.9357884056775E+00
 0.1007775258760E+01
 0.1072902665635E+01
 0.1484090263366E-01
 0.3212590920454E-01
 0.4907582043455E-01
 0.6321856673080E-01
 0.7308956468312E-01
 0.7820170977238E-01
 0.7888767309004E-01
 0.7603346057237E-01
 0.7081031126701E-01
 0.6446976760888E-01
 0.5820851784822E-01
 0.5306185326362E-01
 0.4976840377977E-01
 0.4861502151997E-01
 0.4939945694450E-01
 0.5161255709159E-01
 0.5470747221248E-01
 0.5826942406451E-01
 0.6206265199267E-01
 0.6602732820612E-01
 0.7028684558936E-01
 0.7519115547286E-01
 0.8139174807785E-01
 0.8990293914493E-01
 0.1020499558516E+00
 0.1193157144952E+00
 0.1431746642674E+00
 0.1749411055305E+00
 0.2156639012880E+00
 0.2660488489652E+00
 0.3263713626950E+00
 0.3963692660525E+00
 0.4751369302374E+00
 0.5610995022843E+00
 0.6521033932694E+00
 0.7455707477008E+00
 0.8387675040031E+00
 0.9291639446153E+00
 0.1014731018068E+01
 0.1094170065229E+01
 0.1166558233920E+01
 0.6648476272326E-01
 0.5741815721927E-01
 0.5093343505582E-01
 0.4842782168212E-01
 0.4922559035268E-01
 0.5177935235327E-01
 0.5516322458926E-01
 0.5927682997062E-01
 0.6433249865811E-01
 0.7039710798379E-01
 0.7725088989684E-01
 0.8448733845514E-01
 0.9167268490612E-01
 0.9845607816413E-01
 0.1046156820247E+00
 0.1100633611790E+00
 0.1148303320894E+00
 0.1190473472049E+00
 0.1229276432132E+00
 0.1267582629698E+00
 0.1309059317433E+00
 0.1358434156987E+00
 0.1421982088196E+00
 0.1508076187981E+00
 0.1627296055251E+00
 0.1792373647166E+00
 0.2017901529387E+00
 0.2319023622623E+00
 0.2709436424166E+00
 0.3199402562115E+00
 0.3794178159938E+00
 0.4492864345402E+00
 0.5287611369541E+00
 0.6163647083338E+00
 0.7100326603554E+00
 0.8072629037313E+00
 0.9053498415743E+00
 0.1001698321846E+01
 0.1094102258851E+01
 0.1180889970466E+01
 0.1260422827274E+01
 0.1463446628161E+00
 0.1395585133481E+00
 0.1334688823014E+00
 0.1293619495496E+00
 0.1278812213646E+00
 0.1291015537757E+00
 0.1327376222491E+00
 0.1383191793086E+00
 0.1452855741751E+00
 0.1530420191003E+00
 0.1610134818636E+00
 0.1686968584048E+00
 0.1756995625913E+00
 0.1817589474281E+00
 0.1867451538852E+00
 0.1906533350629E+00
 0.1935907738748E+00
 0.1957627828228E+00
 0.1974605026190E+00
 0.1990532261985E+00
 0.2009891133886E+00
 0.2038089192769E+00
 0.2081765450992E+00
 0.2149180324990E+00
 0.2250339136399E+00
 0.2397240136009E+00
 0.2604094291478E+00
 0.2886494579724E+00
 0.3259533050246E+00
 0.3735470566142E+00
 0.4321637060829E+00
 0.5018926038248E+00
 0.5820924597722E+00
 0.6714007560808E+00
 0.7678427903195E+00
 0.8689743920475E+00
 0.9720898474313E+00
 0.1074501981655E+01
 0.1173788527724E+01
 0.1267870344619E+01
 0.1354544071724E+01
 0.2260112806812E+00
 0.2222014290559E+00
 0.2186582665130E+00
 0.2165110673537E+00
 0.2164479842960E+00
 0.2186888518444E+00
 0.2230644189479E+00
 0.2291375065719E+00
 0.2363236216261E+00
 0.2439942284817E+00
 0.2515571700669E+00
 0.2585121195564E+00
 0.2644821516139E+00
 0.2692258547197E+00
 0.2726361362027E+00
 0.2747316001042E+00
 0.2756449197877E+00
 0.2756110832228E+00
 0.2749575121269E+00
 0.2740976911956E+00
 0.2735308359583E+00
 0.2738507750496E+00
 0.2757676228054E+00
 0.2801363342135E+00
 0.2879647568186E+00
 0.3004451971677E+00
 0.3189967375163E+00
 0.3452139684135E+00
 0.3807033374598E+00
 0.4268477159525E+00
 0.4845675548616E+00
 0.5541361088689E+00
 0.6350717969837E+00
 0.7261395185735E+00
 0.8254544563625E+00
 0.9306156417022E+00
 0.1038892981951E+01
 0.1147478960222E+01
 0.1253703123109E+01
 0.1355081239029E+01
 0.1448952710957E+01
 0.3054606755192E+00
 0.3046748738306E+00
 0.3039411195219E+00
 0.3042067487248E+00
 0.3060778681873E+00
 0.3097663594482E+00
 0.3151295173020E+00
 0.3217641589344E+00
 0.3291181063394E+00
 0.3365934616187E+00
 0.3436279173926E+00
 0.3497495785236E+00
 0.3546073010713E+00
 0.3579821383962E+00
 0.3597864725706E+00
 0.3600566102903E+00
 0.3589429982533E+00
 0.3567007308404E+00
 0.3536818905879E+00
 0.3503309751655E+00
 0.3471851779177E+00
 0.3448816296457E+00
 0.3441746656052E+00
 0.3459581932496E+00
 0.3512704085220E+00
 0.3613261028815E+00
 0.3775672048204E+00
 0.4016320653017E+00
 0.4352151627679E+00
 0.4798405371667E+00
 0.5366083953668E+00
 0.6059814275349E+00
 0.6876508440931E+00
 0.7805195753867E+00
 0.8827931048587E+00
 0.9921016618918E+00
 0.1105669406894E+01
 0.1220542225269E+01
 0.1333779458956E+01
 0.1442505752182E+01
 0.1543668525426E+01
 0.3847142156415E+00
 0.3869225449137E+00
 0.3890482456782E+00
 0.3918533391058E+00
 0.3958283017190E+00
 0.4011341014484E+00
 0.4076237541006E+00
 0.4149174909262E+00
 0.4225001969688E+00
 0.4298156709001E+00
 0.4363423803520E+00
 0.4416450656693E+00
 0.4454036260404E+00
 0.4474244658869E+00
 0.4476404892558E+00
 0.4461051903955E+00
 0.4429847583535E+00
 0.4385507749375E+00
 0.4331747375073E+00
 0.4273254848158E+00
 0.4215707956429E+00
 0.4165844597979E+00
 0.4131614196582E+00
 0.4122365638676E+00
 0.4148877109786E+00
 0.4223671881998E+00
 0.4361554449345E+00
 0.4579443697240E+00
 0.4895172932489E+00
 0.5325353146024E+00
 0.5882775265142E+00
 0.6574031021318E+00
 0.7397882365412E+00
 0.8344839612642E+00
 0.9397875431757E+00
 0.1053350945511E+01
 0.1172334070928E+01
 0.1293613669981E+01
 0.1413963815984E+01
 0.1530131006399E+01
 0.1638704254386E+01
 0.4637982414800E+00
 0.4689596824436E+00
 0.4739467501543E+00
 0.4793400300694E+00
 0.4855028896461E+00
 0.4925267114618E+00
 0.5002432873011E+00
 0.5082857602094E+00
 0.5161721147422E+00
 0.5233882634356E+00
 0.5294559960894E+00
 0.5339798535434E+00
 0.5366737341894E+00
 0.5373717154760E+00
 0.5360286750556E+00
 0.5327157211656E+00
 0.5276140694023E+00
 0.5210098444314E+00
 0.5132907589020E+00
 0.5049456491698E+00
 0.4965677712998E+00
 0.4888625112029E+00
 0.4826617296127E+00
 0.4789406698384E+00
 0.4788206029568E+00
 0.4835995804320E+00
 0.4948068044662E+00
 0.5141962072036E+00
 0.5436441297228E+00
 0.5849499477999E+00
 0.6395747595564E+00
 0.7083827922847E+00
 0.7914476441996E+00
 0.8879790526472E+00
 0.9963692126717E+00
 0.1114284983805E+01
 0.1238806538931E+01
 0.1366622639919E+01
 0.1494210350056E+01
 0.1617944860980E+01
 0.1734068362590E+01
 0.5427393951967E+00
 0.5508174970460E+00
 0.5586571087931E+00
 0.5666633556238E+00
 0.5750685011948E+00
 0.5838842011984E+00
 0.5929096317193E+00
 0.6017816545711E+00
 0.6100456520322E+00
 0.6172272030814E+00
 0.6228913398674E+00
 0.6266837189436E+00
 0.6283541228299E+00
 0.6277661334369E+00
 0.6248979450914E+00
 0.6198388520103E+00
 0.6127847265580E+00
 0.6040348342933E+00
 0.5939906517272E+00
 0.5831575945763E+00
 0.5721502638533E+00
 0.5617013226231E+00
 0.5526759252597E+00
 0.5460879235060E+00
 0.5431033111577E+00
 0.5450704938526E+00
 0.5535743630159E+00
 0.5704379083037E+00
 0.5976356432147E+00
 0.6371090130215E+00
 0.6905066541569E+00
 0.7589078132107E+00
 0.8425967923754E+00
 0.9409539410116E+00
 0.1052471694014E+01
 0.1174827796775E+01
 0.1305010287015E+01
 0.1439503989471E+01
 0.1574477782520E+01
 0.1705934789777E+01
 0.1829766837146E+01
 0.6215636946066E+00
 0.6325313539933E+00
 0.6432159455288E+00
 0.6538532716912E+00
 0.6645434153016E+00
 0.6752120207687E+00
 0.6856172858410E+00
 0.6953920425925E+00
 0.7041034541020E+00
 0.7113136710583E+00
 0.7166300532154E+00
 0.7197399617688E+00
 0.7204304240805E+00
 0.7185960251629E+00
 0.7142394368245E+00
 0.7074686455856E+00
 0.6984938466136E+00
 0.6876261829856E+00
 0.6752786914083E+00
 0.6619702960951E+00
 0.6483332022089E+00
 0.6351233319210E+00
 0.6232354883608E+00
 0.6137197587666E+00
 0.6077867023406E+00
 0.6068376180924E+00
 0.6125178705700E+00
 0.6267251886644E+00
 0.6515374943274E+00
 0.6890433094791E+00
 0.7410858330897E+00
 0.8089705544947E+00
 0.8932070824990E+00
 0.9933601637452E+00
 0.1108030402954E+01
 0.1234905467135E+01
 0.1370871798815E+01
 0.1512196324577E+01
 0.1654727378205E+01
 0.1794087727718E+01
 0.1925804569581E+01
 0.7002963610370E+00
 0.7141373812766E+00
 0.7276652718744E+00
 0.7409520199177E+00
 0.7539655588156E+00
 0.7665412469919E+00
 0.7783899092889E+00
 0.7891339728772E+00
 0.7983574533206E+00
 0.8056561567503E+00
 0.8106787505346E+00
 0.8131546706936E+00
 0.8129093139395E+00
 0.8098695558453E+00
 0.8040635344610E+00
 0.7956183056106E+00
 0.7847579694845E+00
 0.7718042500753E+00
 0.7571795632273E+00
 0.7414133457554E+00
 0.7251517659511E+00
 0.7091700403166E+00
 0.6943888537752E+00
 0.6818916881542E+00
 0.6729325619946E+00
 0.6689668101974E+00
 0.6717035116579E+00
 0.6831196506937E+00
 0.7054014488026E+00
 0.7407899875669E+00
 0.7913309699628E+00
 0.8585684909198E+00
 0.9432536555768E+00
 0.1045151734398E+01
 0.1162982467892E+01
 0.1294445742015E+01
 0.1436319719020E+01
 0.1584640673703E+01
 0.1734921856961E+01
 0.1882390445724E+01
 0.2022186608456E+01
 0.7789618494896E+00
 0.7956713695329E+00
 0.8120487361481E+00
 0.8280066513944E+00
 0.8433811981422E+00
 0.8579142946982E+00
 0.8712644084138E+00
 0.8830384489610E+00
 0.8928332689907E+00
 0.9002759607650E+00
 0.9050557348292E+00
 0.9069445306115E+00
 0.9058071799052E+00
 0.9016040171979E+00
 0.8943894924563E+00
 0.8843099626617E+00
 0.8716028813566E+00
 0.8565991427543E+00
 0.8397282715740E+00
 0.8215271553934E+00
 0.8026522257147E+00
 0.7838939343537E+00
 0.7661948728376E+00
 0.7506686465631E+00
 0.7386108835359E+00
 0.7315310372579E+00
 0.7312039242638E+00
 0.7396892461349E+00
 0.7592858516180E+00
 0.7923928992058E+00
 0.8412670666935E+00
 0.9077044470211E+00
 0.9927156182585E+00
 0.1096285231585E+01
 0.1217266566267E+01
 0.1353377515392E+01
 0.1501283922244E+01
 0.1656779309686E+01
 0.1815024621618E+01
 0.1970829867471E+01
 0.2118919044041E+01
 0.8575839439572E+00
 0.8771684513573E+00
 0.8964102210608E+00
 0.9150660630370E+00
 0.9328403342716E+00
 0.9493789866990E+00
 0.9642842167696E+00
 0.9771434609304E+00
 0.9875633943353E+00
 0.9952007627149E+00
 0.9997850182071E+00
 0.1001131264725E+01
 0.9991448983583E+00
 0.9938208337802E+00
 0.9852405672494E+00
 0.9735698456913E+00
 0.9590587701101E+00
 0.9420458406228E+00
 0.9229652729515E+00
 0.9023582005687E+00
 0.8808874678221E+00
 0.8593545157749E+00
 0.8387195905928E+00
 0.8201227108704E+00
 0.8048985998568E+00
 0.7946100113016E+00
 0.7910984707102E+00
 0.7965088611408E+00
 0.8132562848515E+00
 0.8439032333863E+00
 0.8909260687544E+00
 0.9563871898275E+00
 0.1041576548108E+01
 0.1146720103787E+01
 0.1270822918223E+01
 0.1411630445088E+01
 0.1565694789295E+01
 0.1728554947882E+01
 0.1894999421389E+01
 0.2059393586889E+01
 0.2216010001267E+01
 0.9361858738553E+00
 0.9586630761456E+00
 0.9807933427036E+00
 0.1002179763663E+01
 0.1022394662269E+01
 0.1040985823640E+01
 0.1057496108621E+01
 0.1071490595598E+01
 0.1082583806426E+01
 0.1090461356656E+01
 0.1094893235885E+01
 0.1095738726832E+01
 0.1092945072781E+01
 0.1086542900136E+01
 0.1076641404163E+01
 0.1063425676409E+01
 0.1047157599094E+01
 0.1028181541944E+01
 0.1006933816046E+01
 0.9839564103097E+00
 0.9599145269632E+00
 0.9356161028813E+00
 0.9120344563318E+00
 0.8903318417608E+00
 0.8718789171808E+00
 0.8582900810918E+00
 0.8514735603193E+00
 0.8536608989504E+00
 0.8673862688432E+00
 0.8953802651282E+00
 0.9403476363639E+00
 0.1004632178481E+01
 0.1089825123008E+01
 0.1196419045667E+01
 0.1323593297418E+01
 0.1469134561787E+01
 0.1629482513062E+01
 0.1799910046377E+01
 0.1974810089631E+01
 0.2148070289809E+01
 0.2313470478623E+01
 0.1014790439845E+01
 0.1040189114431E+01
 0.1065241345358E+01
 0.1089397398434E+01
 0.1112096654408E+01
 0.1132786658048E+01
 0.1150948568683E+01
 0.1166123231806E+01
 0.1177932102830E+01
 0.1186089810558E+01
 0.1190407872260E+01
 0.1190791206491E+01
 0.1187230409031E+01
 0.1179793005164E+01
 0.1168616485680E+01
 0.1153905118288E+01
 0.1135931540899E+01
 0.1115044078213E+01
 0.1091678349780E+01
 0.1066373602140E+01
 0.1039793104821E+01
 0.1012746510710E+01
 0.9862152556245E+00
 0.9613791521293E+00
 0.9396409733746E+00
 0.9226642807435E+00
 0.9124230313442E+00
 0.9112359038720E+00
 0.9217580428831E+00
 0.9468922382959E+00
 0.9895800885976E+00
 0.1052462498213E+01
 0.1137455918916E+01
 0.1245348506138E+01
 0.1375521132425E+01
 0.1525819949476E+01
 0.1692576497648E+01
 0.1870786231594E+01
 0.2054420371896E+01
 0.2236850164755E+01
 0.2411315194720E+01
 0.1093420145134E+01
 0.1121780026737E+01
 0.1149797190340E+01
 0.1176768643310E+01
 0.1201999190665E+01
 0.1224834052882E+01
 0.1244690922427E+01
 0.1261085513511E+01
 0.1273646391299E+01
 0.1282118332642E+01
 0.1286356143228E+01
 0.1286312346095E+01
 0.1282022669549E+01
 0.1273592815024E+01
 0.1261189129240E+01
 0.1245034774958E+01
 0.1225411965741E+01
 0.1202670889390E+01
 0.1177243493168E+01
 0.1149662468331E+01
 0.1120584610541E+01
 0.1090816199216E+01
 0.1061341430786E+01
 0.1033352464957E+01
 0.1008279683199E+01
 0.9878324815333E+00
 0.9740485912944E+00
 0.9693332446196E+00
 0.9764634403969E+00
 0.9985173897751E+00
 0.1038681527752E+01
 0.1099909994625E+01
 0.1184470404312E+01
 0.1293479366894E+01
 0.1426551742050E+01
 0.1581616535517E+01
 0.1754904868702E+01
 0.1941123841310E+01
 0.2133793839866E+01
 0.2325725355156E+01
 0.2509563500433E+01
 0.1172097332149E+01
 0.1203469064626E+01
 0.1234503741467E+01
 0.1264343283971E+01
 0.1292155461462E+01
 0.1317180978709E+01
 0.1338772839493E+01
 0.1356421700075E+01
 0.1369764539342E+01
 0.1378578469786E+01
 0.1382764181072E+01
 0.1382324334902E+01
 0.1377341885262E+01
 0.1367962101149E+01
 0.1354380723433E+01
 0.1336839424647E+01
 0.1315628666023E+01
 0.1291098235513E+01
 0.1263673238926E+01
 0.1233875787016E+01
 0.1202351407331E+01
 0.1169897596305E+01
 0.1137495531959E+01
 0.1106343948492E+01
 0.1077895607570E+01
 0.1053901527377E+01
 0.1036460225502E+01
 0.1028061779885E+01
 0.1031604783411E+01
 0.1050345039467E+01
 0.1087721072299E+01
 0.1147016545279E+01
 0.1230878077187E+01
 0.1340787739831E+01
 0.1476632644245E+01
 0.1636453907029E+01
 0.1816393975872E+01
 0.2010861430079E+01
 0.2212893724597E+01
 0.2414690295406E+01
 0.2608240207926E+01
 0.1250844327164E+01
 0.1285289499066E+01
 0.1319404017194E+01
 0.1352171412778E+01
 0.1382619038420E+01
 0.1409880716051E+01
 0.1433244061552E+01
 0.1452175743899E+01
 0.1466323643070E+01
 0.1475500512204E+01
 0.1479656412504E+01
 0.1478847285598E+01
 0.1473205742850E+01
 0.1462918139736E+01
 0.1448210134282E+01
 0.1429341424873E+01
 0.1406609251686E+01
 0.1380360578750E+01
 0.1351010324703E+01
 0.1319065793887E+01
 0.1285156206621E+01
 0.1250064548194E+01
 0.1214762768432E+01
 0.1180449820490E+01
 0.1148594862637E+01
 0.1120985391155E+01
 0.1099776625610E+01
 0.1087540564171E+01
 0.1087295855248E+01
 0.1102476805816E+01
 0.1136780263269E+01
 0.1193835544069E+01
 0.1276697833223E+01
 0.1387255981907E+01
 0.1525714038745E+01
 0.1690261246489E+01
 0.1876967970006E+01
 0.2079935319436E+01
 0.2291682773531E+01
 0.2503742074370E+01
 0.2707376503875E+01
 0.1329683595243E+01
 0.1367274871353E+01
 0.1404541488660E+01
 0.1440303699826E+01
 0.1473444044215E+01
 0.1502986872796E+01
 0.1528154250536E+01
 0.1548390985153E+01
 0.1563359605055E+01
 0.1572912997867E+01
 0.1577055028238E+01
 0.1575898696262E+01
 0.1569629053300E+01
 0.1558475189898E+01
 0.1542693188336E+01
 0.1522560192159E+01
 0.1498378618231E+01
 0.1470490034470E+01
 0.1439295667632E+01
 0.1405283608570E+01
 0.1369061504561E+01
 0.1331391795762E+01
 0.1293230566255E+01
 0.1255770038233E+01
 0.1220488997834E+01
 0.1189205292991E+01
 0.1164125588432E+01
 0.1147899550293E+01
 0.1143662911789E+01
 0.1155027911824E+01
 0.1185954616822E+01
 0.1240433582567E+01
 0.1321959560838E+01
 0.1432873927319E+01
 0.1573749453924E+01
 0.1742967354149E+01
 0.1936548395234E+01
 0.2148279114541E+01
 0.2370123051284E+01
 0.2592880752602E+01
 0.2807010869663E+01
 0.1408637908855E+01
 0.1449459268546E+01
 0.1489960418601E+01
 0.1528791721214E+01
 0.1564685390786E+01
 0.1596553473603E+01
 0.1623552906008E+01
 0.1645109909172E+01
 0.1660906767814E+01
 0.1670842266881E+01
 0.1674979498949E+01
 0.1673492956900E+01
 0.1666623264215E+01
 0.1654644014883E+01
 0.1637842197632E+01
 0.1616511721387E+01
 0.1590958450735E+01
 0.1561515852960E+01
 0.1528567822076E+01
 0.1492578674296E+01
 0.1454129019161E+01
 0.1413954436270E+01
 0.1372988094387E+01
 0.1332407941011E+01
 0.1293694815110E+01
 0.1258689758335E+01
 0.1229644367958E+01
 0.1209280275442E+01
 0.1200845722376E+01
 0.1208128578571E+01
 0.1235355329545E+01
 0.1286892348627E+01
 0.1366705998276E+01
 0.1477640380337E+01
 0.1620696594635E+01
 0.1794500773473E+01
 0.1995053789074E+01
 0.2215823169601E+01
 0.2448175672055E+01
 0.2682109630916E+01
 0.2907190013882E+01
 0.1487730534205E+01
 0.1531877628618E+01
 0.1575706243625E+01
 0.1617688340325E+01
 0.1656399072759E+01
 0.1690635099689E+01
 0.1719489324273E+01
 0.1742373937076E+01
 0.1758997574739E+01
 0.1769312041119E+01
 0.1773446117208E+01
 0.1771640884215E+01
 0.1764196002756E+01
 0.1751431435400E+01
 0.1733665516605E+01
 0.1711208135015E+01
 0.1684366753572E+01
 0.1653463920489E+01
 0.1618862448080E+01
 0.1580998197198E+01
 0.1540419113540E+01
 0.1497827355588E+01
 0.1454125744762E+01
 0.1410469831372E+01
 0.1368334117051E+01
 0.1329574605300E+01
 0.1296479971965E+01
 0.1271836524928E+01
 0.1258998638617E+01
 0.1261925511232E+01
 0.1285111152143E+01
 0.1333310773488E+01
 0.1410994901912E+01
 0.1521564929284E+01
 0.1666518446292E+01
 0.1844790052910E+01
 0.2052399299386E+01
 0.2282494001623E+01
 0.2525800471814E+01
 0.2771435489017E+01
 0.3007969843344E+01
 0.1566985439786E+01
 0.1614566081648E+01
 0.1661826004898E+01
 0.1707048142147E+01
 0.1748642508502E+01
 0.1785287063573E+01
 0.1816012578126E+01
 0.1840223226028E+01
 0.1857662235525E+01
 0.1868343008839E+01
 0.1872467548583E+01
 0.1870349271073E+01
 0.1862350638147E+01
 0.1848839905458E+01
 0.1830167121944E+01
 0.1806657252972E+01
 0.1778617395890E+01
 0.1746356268674E+01
 0.1710211778156E+01
 0.1670586571452E+01
 0.1627990190031E+01
 0.1583084614180E+01
 0.1536734548125E+01
 0.1490064475653E+01
 0.1444533363226E+01
 0.1402002839737E+01
 0.1364789381798E+01
 0.1335734953944E+01
 0.1318291675890E+01
 0.1316583470240E+01
 0.1335370436419E+01
 0.1379807450141E+01
 0.1454901570118E+01
 0.1564670141365E+01
 0.1711184690323E+01
 0.1893764172310E+01
 0.2108496314444E+01
 0.2348213635023E+01
 0.2602955611073E+01
 0.2860868792339E+01
 0.3109416469528E+01
 0.1646427531898E+01
 0.1697562332285E+01
 0.1748368830504E+01
 0.1796927917772E+01
 0.1841474916623E+01
 0.1880565596744E+01
 0.1913171487300E+01
 0.1938696444701E+01
 0.1956928360329E+01
 0.1967952379216E+01
 0.1972052358294E+01
 0.1969620418245E+01
 0.1961085831762E+01
 0.1946867078246E+01
 0.1927346181612E+01
 0.1902862147530E+01
 0.1873719634841E+01
 0.1840210551562E+01
 0.1802644039104E+01
 0.1761384744141E+01
 0.1716898006155E+01
 0.1669798734934E+01
 0.1620905470593E+01
 0.1571302465484E+01
 0.1522423173256E+01
 0.1476124393975E+01
 0.1434739630120E+01
 0.1401155603897E+01
 0.1378911549794E+01
 0.1372286880299E+01
 0.1386303324006E+01
 0.1426523313929E+01
 0.1498521741646E+01
 0.1606994179363E+01
 0.1754673469241E+01
 0.1941353137328E+01
 0.2163252061767E+01
 0.2412898805725E+01
 0.2679597037965E+01
 0.2950423794795E+01
 0.3211607156916E+01
 0.1726082924818E+01
 0.1780906098914E+01
 0.1835386489488E+01
 0.1887387219317E+01
 0.1934957745115E+01
 0.1976528063887E+01
 0.2011014592158E+01
 0.2037830539051E+01
 0.2056820583608E+01
 0.2068153435528E+01
 0.2072204550390E+01
 0.2069451692949E+01
 0.2060395125728E+01
 0.2045505418214E+01
 0.2025196673360E+01
 0.1999820746832E+01
 0.1969677682925E+01
 0.1935039558980E+01
 0.1896182899093E+01
 0.1853429591218E+01
 0.1807194984218E+01
 0.1758039963914E+01
 0.1706728660117E+01
 0.1654295506086E+01
 0.1602137737657E+01
 0.1552095764630E+01
 0.1506507786817E+01
 0.1468292360330E+01
 0.1441062715442E+01
 0.1429241531033E+01
 0.1438104142701E+01
 0.1473624672112E+01
 0.1541974986683E+01
 0.1648593990374E+01
 0.1796973660653E+01
 0.1987488873746E+01
 0.2216569265508E+01
 0.2476460105078E+01
 0.2755677933447E+01
 0.3040118692781E+01
 0.3314631383218E+01
 0.1805979251329E+01
 0.1864639615313E+01
 0.1922934020082E+01
 0.1978488978883E+01
 0.2029155133343E+01
 0.2073233169886E+01
 0.2109590085733E+01
 0.2137660436944E+01
 0.2157360123547E+01
 0.2168955032440E+01
 0.2172923064820E+01
 0.2169835058923E+01
 0.2160266513011E+01
 0.2144741799521E+01
 0.2123706989318E+01
 0.2097525419599E+01
 0.2066490247675E+01
 0.2030850689972E+01
 0.1990846859449E+01
 0.1946753219591E+01
 0.1898929425040E+01
 0.1847875409764E+01
 0.1794292543213E+01
 0.1739155525667E+01
 0.1683814024171E+01
 0.1630079430695E+01
 0.1580280729271E+01
 0.1537353227515E+01
 0.1504968289619E+01
 0.1487676261812E+01
 0.1490993923304E+01
 0.1521306525490E+01
 0.1585408575820E+01
 0.1689549094693E+01
 0.1838087699456E+01
 0.2032106412491E+01
 0.2268345764155E+01
 0.2538800904906E+01
 0.2831147988277E+01
 0.3129975685843E+01
 0.3418591782319E+01
 0.1886146024486E+01
 0.1948808212239E+01
 0.2011070452770E+01
 0.2070300208382E+01
 0.2124134415083E+01
 0.2170741158978E+01
 0.2208945698786E+01
 0.2238218687046E+01
 0.2258564277498E+01
 0.2270361044792E+01
 0.2274201246801E+01
 0.2270756598088E+01
 0.2260682013239E+01
 0.2244557117914E+01
 0.2222859555583E+01
 0.2195962571130E+01
 0.2164150074618E+01
 0.2127645417839E+01
 0.2086648622983E+01
 0.2041382227165E+01
 0.1992144657063E+01
 0.1939368091447E+01
 0.1883682798633E+01
 0.1825993627668E+01
 0.1767590794290E+01
 0.1710243057991E+01
 0.1656254694339E+01
 0.1608560410826E+01
 0.1570870846583E+01
 0.1547844629333E+01
 0.1545223052614E+01
 0.1569796227146E+01
 0.1629001919823E+01
 0.1729966127361E+01
 0.1878035134132E+01
 0.2075145513818E+01
 0.2318474139327E+01
 0.2599816052080E+01
 0.2905952557637E+01
 0.3220021053019E+01
 0.3523605028885E+01
 0.1966615061640E+01
 0.2033461000299E+01
 0.2099859653356E+01
 0.2162892801207E+01
 0.2219966673560E+01
 0.2269114007573E+01
 0.2309128535594E+01
 0.2339535032785E+01
 0.2360445862251E+01
 0.2372369786562E+01
 0.2376026316311E+01
 0.2372196059057E+01
 0.2361617294877E+01
 0.2344925960469E+01
 0.2322630513946E+01
 0.2295112299809E+01
 0.2262643544346E+01
 0.2225418798929E+01
 0.2183594492001E+01
 0.2137336974530E+01
 0.2086878174323E+01
 0.2032575946314E+01
 0.1974981256566E+01
 0.1914918928422E+01
 0.1853607463465E+01
 0.1792758511469E+01
 0.1734634620059E+01
 0.1682150202991E+01
 0.1639033077417E+01
 0.1610026551190E+01
 0.1601074070360E+01
 0.1619357515123E+01
 0.1672971669797E+01
 0.1769984297684E+01
 0.1916857139261E+01
 0.2116552921673E+01
 0.2366841415243E+01
 0.2659390284188E+01
 0.2980031727235E+01
 0.3310285412562E+01
 0.3629802719496E+01
 0.2047420983931E+01
 0.2118651667286E+01
 0.2189371293785E+01
 0.2256344426112E+01
 0.2316727314154E+01
 0.2368415552996E+01
 0.2410184787002E+01
 0.2441635840953E+01
 0.2463012517495E+01
 0.2474973318888E+01
 0.2478378756120E+01
 0.2474126348214E+01
 0.2463041254802E+01
 0.2445816238112E+01
 0.2422989363774E+01
 0.2394948004922E+01
 0.2361950207351E+01
 0.2324158901864E+01
 0.2281683666057E+01
 0.2234630732040E+01
 0.2183160620902E+01
 0.2127550649862E+01
 0.2068264567760E+01
 0.2006037116283E+01
 0.1942002630833E+01
 0.1877800489208E+01
 0.1815633078468E+01
 0.1758372466093E+01
 0.1709738103526E+01
 0.1674529728116E+01
 0.1658864440476E+01
 0.1670294794655E+01
 0.1717577425625E+01
 0.1809781818392E+01
 0.1954622125516E+01
 0.2156285363431E+01
 0.2413328739811E+01
 0.2717396032945E+01
 0.3053318984632E+01
 0.3400804043262E+01
 0.3737331859265E+01
 0.2128601812327E+01
 0.2204439432357E+01
 0.2279682004121E+01
 0.2350739564280E+01
 0.2414496695773E+01
 0.2468711592737E+01
 0.2512159359763E+01
 0.2544543439136E+01
 0.2566265947716E+01
 0.2578156744155E+01
 0.2581231734459E+01
 0.2576513095053E+01
 0.2564915699538E+01
 0.2547188935782E+01
 0.2523898728446E+01
 0.2495436119204E+01
 0.2462042438716E+01
 0.2423846347755E+01
 0.2380907638099E+01
 0.2333268908497E+01
 0.2281014834641E+01
 0.2224336464727E+01
 0.2163602861917E+01
 0.2099448949021E+01
 0.2032912486896E+01
 0.1965544971396E+01
 0.1899468971335E+01
 0.1837489856165E+01
 0.1783289568834E+01
 0.1741690957425E+01
 0.1718949412604E+01
 0.1722957808799E+01
 0.1763128249190E+01
 0.1849583613632E+01
 0.1991432894826E+01
 0.2194313787396E+01
 0.2457811353595E+01
 0.2773690605740E+01
 0.3125739573372E+01
 0.3491617851357E+01
 0.3846355305769E+01
 0.2210199679261E+01
 0.2290890179296E+01
 0.2370876718316E+01
 0.2446170673493E+01
 0.2513360766189E+01
 0.2570069866737E+01
 0.2615095316833E+01
 0.2648275252510E+01
 0.2670200995820E+01
 0.2681897382260E+01
 0.2684550457886E+01
 0.2679314182747E+01
 0.2667195011500E+01
 0.2648997854256E+01
 0.2625314110322E+01
 0.2596535819907E+01
 0.2562885056456E+01
 0.2524453795459E+01
 0.2481249513722E+01
 0.2433248177300E+01
 0.2380454757536E+01
 0.2322968918016E+01
 0.2261058185515E+01
 0.2195248468970E+01
 0.2126468865005E+01
 0.2056167232616E+01
 0.1986365715927E+01
 0.1919776495693E+01
 0.1860011200677E+01
 0.1811877028949E+01
 0.1781724690638E+01
 0.1777746466326E+01
 0.1809989841257E+01
 0.1889670316624E+01
 0.2027435544275E+01
 0.2230629142180E+01
 0.2500158912127E+01
 0.2828112168566E+01
 0.3197207724783E+01
 0.3582774903966E+01
 0.3957051552985E+01
 0.2292261689223E+01
 0.2378077821088E+01
 0.2463050269024E+01
 0.2542739512900E+01
 0.2613411702929E+01
 0.2672559902677E+01
 0.2719033107374E+01
 0.2752842734180E+01
 0.2774804564523E+01
 0.2786163865001E+01
 0.2788291504453E+01
 0.2782479302651E+01
 0.2769825863875E+01
 0.2751189410394E+01
 0.2727183703565E+01
 0.2698198790344E+01
 0.2664434978306E+01
 0.2625945449749E+01
 0.2582683334748E+01
 0.2534555584809E+01
 0.2481484301133E+01
 0.2423473398174E+01
 0.2360682811378E+01
 0.2293521025805E+01
 0.2222797018403E+01
 0.2149839483122E+01
 0.2076548961178E+01
 0.2005516101406E+01
 0.1940245813186E+01
 0.1885485155835E+01
 0.1847628863991E+01
 0.1835115816375E+01
 0.1858592449987E+01
 0.1930388786266E+01
 0.2062830594586E+01
 0.2265250410118E+01
 0.2540236792556E+01
 0.2880474297743E+01
 0.3267621857962E+01
 0.3674332955897E+01
 0.4069613799430E+01
 0.2374840965456E+01
 0.2466085959485E+01
 0.2556309294921E+01
 0.2640558660704E+01
 0.2714748549970E+01
 0.2776252689519E+01
 0.2824009554828E+01
 0.2858250080676E+01
 0.2880054406126E+01
 0.2890915193516E+01
 0.2892402198205E+01
 0.2885949602924E+01
 0.2872747059271E+01
 0.2853702574098E+01
 0.2829448345990E+01
 0.2800369116156E+01
 0.2766641004549E+01
 0.2728276683556E+01
 0.2685173501937E+01
 0.2637167739563E+01
 0.2584096269339E+01
 0.2525863777076E+01
 0.2462517527007E+01
 0.2394341211429E+01
 0.2322013218067E+01
 0.2246728215269E+01
 0.2170243878724E+01
 0.2094999567290E+01
 0.2024353702070E+01
 0.1962942846783E+01
 0.1917145493626E+01
 0.1895581085391E+01
 0.1909439499972E+01
 0.1972164307643E+01
 0.2097886795783E+01
 0.2298235689794E+01
 0.2577909415388E+01
 0.2930559129627E+01
 0.3336855858724E+01
 0.3766362974621E+01
 0.4184247900526E+01
 0.2457997932300E+01
 0.2555009899921E+01
 0.2650774500570E+01
 0.2739753200688E+01
 0.2817477750252E+01
 0.2881220029884E+01
 0.2930056442322E+01
 0.2964492584862E+01
 0.2985917650230E+01
 0.2996099637556E+01
 0.2996819902238E+01
 0.2989657298830E+01
 0.2975889345959E+01
 0.2956468780897E+01
 0.2932041434090E+01
 0.2902983126311E+01
 0.2869443523287E+01
 0.2831393557446E+01
 0.2788674067299E+01
 0.2741049840935E+01
 0.2688271086639E+01
 0.2630140795924E+01
 0.2566589631510E+01
 0.2497770427056E+01
 0.2424221878319E+01
 0.2346990942182E+01
 0.2267671685589E+01
 0.2188521617282E+01
 0.2112709995967E+01
 0.2044706746156E+01
 0.1990804377010E+01
 0.1959722354629E+01
 0.1963116632906E+01
 0.2015514399956E+01
 0.2132957918180E+01
 0.2329696979722E+01
 0.2613046910000E+01
 0.2978110013245E+01
 0.3404742884513E+01
 0.3858951434779E+01
 0.4301167434141E+01
 0.2541801906109E+01
 0.2644959144528E+01
 0.2746583393721E+01
 0.2840462650731E+01
 0.2921713586323E+01
 0.2987533565043E+01
 0.3037198721775E+01
 0.3071554711674E+01
 0.3092349213227E+01
 0.3101653664228E+01
 0.3101471446278E+01
 0.3093525479113E+01
 0.3079175460265E+01
 0.3059412082315E+01
 0.3034889078119E+01
 0.3005969471804E+01
 0.2972774448222E+01
 0.2935232564118E+01
 0.2893128241911E+01
 0.2846154911769E+01
 0.2793975715402E+01
 0.2736290617869E+01
 0.2672911061751E+01
 0.2603854516553E+01
 0.2529512649277E+01
 0.2450772758571E+01
 0.2369045797775E+01
 0.2286376868019E+01
 0.2205701217299E+01
 0.2131260594227E+01
 0.2069182064633E+01
 0.2028188922354E+01
 0.2020301255863E+01
 0.2061064470267E+01
 0.2168503261929E+01
 0.2359819681949E+01
 0.2645536800856E+01
 0.3022827986735E+01
 0.3471048816824E+01
 0.3952195112748E+01
 0.4420582004069E+01
 0.2626333080499E+01
 0.2736060469585E+01
 0.2843893565759E+01
 0.2942843082841E+01
 0.3027578354394E+01
 0.3095263240586E+01
 0.3145452125531E+01
 0.3179407715959E+01
 0.3199289943111E+01
 0.3207500762659E+01
 0.3206272549138E+01
 0.3197467951896E+01
 0.3182520218089E+01
 0.3162449336744E+01
 0.3137910281091E+01
 0.3109249208242E+01
 0.3076557138046E+01
 0.3039720329951E+01
 0.2998467834144E+01
 0.2952422933311E+01
 0.2901162445512E+01
 0.2844283217660E+01
 0.2781476306998E+01
 0.2712621114721E+01
 0.2637957111614E+01
 0.2558202338448E+01
 0.2474567194019E+01
 0.2388854821880E+01
 0.2303720487091E+01
 0.2223111642243E+01
 0.2152900893697E+01
 0.2101702625181E+01
 0.2081771982744E+01
 0.2109564994096E+01
 0.2205111936316E+01
 0.2388888204524E+01
 0.2675299937603E+01
 0.3064378987005E+01
 0.3535440090615E+01
 0.4046166506042E+01
 0.4542662771267E+01
 0.2711685043825E+01
 0.2828461754824E+01
 0.2942886663545E+01
 0.3047069442276E+01
 0.3135202143148E+01
 0.3204475055911E+01
 0.3254820078946E+01
 0.3288006785537E+01
 0.3306664548635E+01
 0.3313550247194E+01
 0.3311127327932E+01
 0.3301389219948E+01
 0.3285830741107E+01
 0.3265490524059E+01
 0.3241017225568E+01
 0.3212735969273E+01
 0.3180706388805E+01
 0.3144773369837E+01
 0.3104612719634E+01
 0.3059779989597E+01
 0.3009767671083E+01
 0.2954070733183E+01
 0.2892260249140E+01
 0.2824076859700E+01
 0.2749605231127E+01
 0.2669387525212E+01
 0.2584419122239E+01
 0.2496233865027E+01
 0.2407161341631E+01
 0.2320785342233E+01
 0.2242626200930E+01
 0.2181059726975E+01
 0.2148417571454E+01
 0.2161910182962E+01
 0.2243531242843E+01
 0.2417318873789E+01
 0.2702314034948E+01
 0.3102402417001E+01
 0.3597496808570E+01
 0.4140808965708E+01
 0.4667376459627E+01
 0.2797968036363E+01
 0.2922336713902E+01
 0.3043773293702E+01
 0.3153338025293E+01
 0.3244722039621E+01
 0.3315227902984E+01
 0.3365289817986E+01
 0.3397287734473E+01
 0.3414379421317E+01
 0.3419696185504E+01
 0.3415928048971E+01
 0.3405184737870E+01
 0.3389006967782E+01
 0.3368439335595E+01
 0.3344115825550E+01
 0.3316336396926E+01
 0.3285128675718E+01
 0.3250298082562E+01
 0.3211470540789E+01
 0.3168137629939E+01
 0.3119710875462E+01
 0.3065586015648E+01
 0.3005216183739E+01
 0.2938204744003E+01
 0.2864481863646E+01
 0.2784410810177E+01
 0.2698761427393E+01
 0.2608774488776E+01
 0.2516410254609E+01
 0.2424818198181E+01
 0.2339061376537E+01
 0.2267130796267E+01
 0.2221244970303E+01
 0.2219157237983E+01
 0.2284701072369E+01
 0.2445697316550E+01
 0.2726655887807E+01
 0.3136508014941E+01
 0.3656745043295E+01
 0.4236129902507E+01
 0.4793228284584E+01
 0.2885315702231E+01
 0.3017902894718E+01
 0.3146819639908E+01
 0.3261899366702E+01
 0.3356320477541E+01
 0.3427618292176E+01
 0.3476884998232E+01
 0.3507228358067E+01
 0.3522392786411E+01
 0.3525895957702E+01
 0.3520641685831E+01
 0.3508835256834E+01
 0.3492043814031E+01
 0.3471303384067E+01
 0.3447224368979E+01
 0.3420077705951E+01
 0.3389859205154E+01
 0.3356337912811E+01
 0.3319094639823E+01
 0.3277562244269E+01
 0.3231076078904E+01
 0.3178936661579E+01
 0.3120482738763E+01
 0.3055183927009E+01
 0.2982819095640E+01
 0.2903573376676E+01
 0.2817984886641E+01
 0.2726981752209E+01
 0.2632114170183E+01
 0.2536026356745E+01
 0.2443212493882E+01
 0.2361115294181E+01
 0.2301616262712E+01
 0.2282738945791E+01
 0.2329933040514E+01
 0.2474934378037E+01
 0.2748582002884E+01
 0.3166477293854E+01
 0.3712661324062E+01
 0.4332437632892E+01
 0.4924279277148E+01
 0.2973882729445E+01
 0.3115406033431E+01
 0.3252312556498E+01
 0.3372999804187E+01
 0.3470142200049E+01
 0.3541676117436E+01
 0.3589544513651E+01
 0.3617713271289E+01
 0.3630566770501E+01
 0.3632009564528E+01
 0.3625135907113E+01
 0.3612218718476E+01
 0.3594828114753E+01
 0.3573975265100E+01
 0.3550237686261E+01
 0.3523853846699E+01
 0.3494788860010E+01
 0.3462779794264E+01
 0.3427368696144E+01
 0.3387936651218E+01
 0.3343749285639E+01
 0.3294017465606E+01
 0.3237970808144E+01
 0.3174951063952E+01
 0.3104592478013E+01
 0.3026907580460E+01
 0.2942202479453E+01
 0.2851079662380E+01
 0.2754644927143E+01
 0.2654970710261E+01
 0.2555869607891E+01
 0.2464059965920E+01
 0.2390829771291E+01
 0.2354132331374E+01
 0.2380688940647E+01
 0.2506119779154E+01
 0.2768473357512E+01
 0.3191822292058E+01
 0.3765106499018E+01
 0.4427485826563E+01
 0.5074967081273E+01
 0.3063857331622E+01
 0.3215133013695E+01
 0.3360571810746E+01
 0.3486886087293E+01
 0.3586291242429E+01
 0.3657357911395E+01
 0.3703116169336E+01
 0.3728530009903E+01
 0.3738666013265E+01
 0.3737799966143E+01
 0.3729180289084E+01
 0.3715111717345E+01
 0.3697139948424E+01
 0.3676233509749E+01
 0.3652927568000E+01
 0.3627425237400E+01
 0.3599663072916E+01
 0.3569351952203E+01
 0.3536003215978E+01
 0.3498955022721E+01
 0.3457411592404E+01
 0.3410501448733E+01
 0.3357352178317E+01
 0.3297186112475E+01
 0.3229503482453E+01
 0.3154155426758E+01
 0.3071223236225E+01
 0.2980979900102E+01
 0.2884062898626E+01
 0.2781916746904E+01
 0.2677566487990E+01
 0.2576825892565E+01
 0.2490105980435E+01
 0.2434880753771E+01
 0.2438653590342E+01
 0.2540680259139E+01
 0.2786941196742E+01
 0.3212275875123E+01
 0.3812766252657E+01
 0.4524224228382E+01
 0.5232004944373E+01
 0.3155471175185E+01
 0.3317445182745E+01
 0.3471997070735E+01
 0.3603861622653E+01
 0.3704897792279E+01
 0.3774629673851E+01
 0.3817459341294E+01
 0.3839492066728E+01
 0.3846499572119E+01
 0.3843092049440E+01
 0.3832621154463E+01
 0.3817379781363E+01
 0.3798858524335E+01
 0.3777964641390E+01
 0.3755181808161E+01
 0.3730675770302E+01
 0.3704357868030E+01
 0.3675920102358E+01
 0.3644853016892E+01
 0.3610462739641E+01
 0.3571902373688E+01
 0.3528227058851E+01
 0.3478470954505E+01
 0.3421747496628E+01
 0.3357437008047E+01
 0.3285245851180E+01
 0.3205045142862E+01
 0.3116784091234E+01
 0.3020619767246E+01
 0.2917326148490E+01
 0.2809047026850E+01
 0.2700514682440E+01
 0.2600959843270E+01
 0.2526901556566E+01
 0.2505983983027E+01
 0.2580569218978E+01
 0.2805076680422E+01
 0.3227617991750E+01
 0.3855111200165E+01
 0.4622130117602E+01
 0.5396565286678E+01
 0.3249011114325E+01
 0.3422786026968E+01
 0.3587061801179E+01
 0.3724256921405E+01
 0.3826067943553E+01
 0.3893405109288E+01
 0.3932378447490E+01
 0.3950369478119E+01
 0.3953847642538E+01
 0.3947693909124E+01
 0.3935296225296E+01
 0.3918884659942E+01
 0.3899861626243E+01
 0.3879054383394E+01
 0.3856886775321E+01
 0.3833486288859E+01
 0.3808743711655E+01
 0.3782341078449E+01
 0.3753760019038E+01
 0.3722287799403E+01
 0.3687038913455E+01
 0.3647005837097E+01
 0.3601139268806E+01
 0.3548456044523E+01
 0.3488233932477E+01
 0.3420056536359E+01
 0.3343607255498E+01
 0.3258527819121E+01
 0.3164496951211E+01
 0.3061593753959E+01
 0.2951007756009E+01
 0.2836228555399E+01
 0.2724997028981E+01
 0.2632343759666E+01
 0.2585250457864E+01
 0.2628321434525E+01
 0.2824504223694E+01
 0.3237890861118E+01
 0.3891239427477E+01
 0.4720257022404E+01
 0.5570037938999E+01
 0.3344836802671E+01
 0.3531705457538E+01
 0.3706327932142E+01
 0.3848424014819E+01
 0.3949864709394E+01
 0.4013526379964E+01
 0.4047610747097E+01
 0.4060883898440E+01
 0.4060461200726E+01
 0.4051398548506E+01
 0.4037036929740E+01
 0.4019486599724E+01
 0.4000027650755E+01
 0.3979389438090E+01
 0.3957928966434E+01
 0.3935735940567E+01
 0.3912686641539E+01
 0.3888463653739E+01
 0.3862553631718E+01
 0.3834240655872E+01
 0.3802615668731E+01
 0.3766621164798E+01
 0.3725135572570E+01
 0.3677092766287E+01
 0.3621688103544E+01
 0.3558409560411E+01
 0.3486783069570E+01
 0.3406170292101E+01
 0.3315789635789E+01
 0.3215023767009E+01
 0.3104064827616E+01
 0.2985029966651E+01
 0.2863875659461E+01
 0.2753571381205E+01
 0.2679473497587E+01
 0.2687172239896E+01
 0.2847606837681E+01
 0.3243505496870E+01
 0.3919856852439E+01
 0.4817593430942E+01
 0.5754024360275E+01
 0.3443405570940E+01
 0.3644892631859E+01
 0.3830462388920E+01
 0.3976723957886E+01
 0.4076280135123E+01
 0.4134739721455E+01
 0.4162813215076E+01
 0.4170704828517E+01
 0.4166063131783E+01
 0.4153986728182E+01
 0.4137671459443E+01
 0.4119047084500E+01
 0.4099237937107E+01
 0.4078859468923E+01
 0.4058196734452E+01
 0.4037303713749E+01
 0.4016049610444E+01
 0.3994129601484E+01
 0.3971051367686E+01
 0.3946114225177E+01
 0.3918403612187E+01
 0.3886827038482E+01
 0.3850202997045E+01
 0.3807396845418E+01
 0.3757543765544E+01
 0.3700067716395E+01
 0.3634374707801E+01
 0.3559584728062E+01
 0.3474490889092E+01
 0.3377804371766E+01
 0.3268715827641E+01
 0.3147889812634E+01
 0.3019248272735E+01
 0.2893122491160E+01
 0.2792140288128E+01
 0.2761188883805E+01
 0.2877802789239E+01
 0.3245468138119E+01
 0.3939430311341E+01
 0.4912885653475E+01
 0.5950440631560E+01
 0.3545308240785E+01
 0.3763220901315E+01
 0.3960254296442E+01
 0.4109502681706E+01
 0.4205195098973E+01
 0.4256665528338E+01
 0.4277549602387E+01
 0.4279448052694E+01
 0.4270351405924E+01
 0.4255231184150E+01
 0.4237028646864E+01
 0.4217432052998E+01
 0.4197379386174E+01
 0.4177359284208E+01
 0.4157582196532E+01
 0.4138070179746E+01
 0.4118694087428E+01
 0.4099175063996E+01
 0.4079059772796E+01
 0.4057684137426E+01
 0.4034149696640E+01
 0.4007346872512E+01
 0.3976047768113E+01
 0.3939063869167E+01
 0.3895493544716E+01
 0.3844731772936E+01
 0.3786108376993E+01
 0.3718550124377E+01
 0.3640476811443E+01
 0.3549982009060E+01
 0.3445297754094E+01
 0.3325624424601E+01
 0.3192680512372E+01
 0.3053632749243E+01
 0.2927187101303E+01
 0.2855396222676E+01
 0.2919888001430E+01
 0.3245805642185E+01
 0.3948317126758E+01
 0.5004449843526E+01
 0.6161637801729E+01
 0.3651321867891E+01
 0.3887809981614E+01
 0.4096629837219E+01
 0.4247047489665E+01
 0.4336322530438E+01
 0.4378763350877E+01
 0.4391279645744E+01
 0.4386677632303E+01
 0.4373004841885E+01
 0.4354902350553E+01
 0.4334942655559E+01
 0.4314515544168E+01
 0.4294347309499E+01
 0.4274791166270E+01
 0.4255983274121E+01
 0.4237919404356E+01
 0.4220481902494E+01
 0.4203432246867E+01
 0.4186375713000E+01
 0.4168709267973E+01
 0.4149576417816E+01
 0.4127872226034E+01
 0.4102337524076E+01
 0.4071744172880E+01
 0.4035176977579E+01
 0.3992038829921E+01
 0.3941631448266E+01
 0.3882745008529E+01
 0.3813493662009E+01
 0.3731436769919E+01
 0.3633943138863E+01
 0.3518823063222E+01
 0.3385544489370E+01
 0.3237711178833E+01
 0.3088923589919E+01
 0.2975869868845E+01
 0.2980453122662E+01
 0.3248216632142E+01
 0.3945002909286E+01
 0.5089934154277E+01
 0.6390549460429E+01
 0.3762489447417E+01
 0.4020112618038E+01
 0.4240657893854E+01
 0.4389511872423E+01
 0.4469129311714E+01
 0.4500294042515E+01
 0.4503353604587E+01
 0.4491913041641E+01
 0.4473691905597E+01
 0.4452775637879E+01
 0.4431258431869E+01
 0.4410183697988E+01
 0.4390048441402E+01
 0.4371067289592E+01
 0.4353305819110E+01
 0.4336740996592E+01
 0.4321277327963E+01
 0.4306731474590E+01
 0.4292788101118E+01
 0.4278932636943E+01
 0.4264381493502E+01
 0.4248061350720E+01
 0.4228699342688E+01
 0.4205041118143E+01
 0.4176179538352E+01
 0.4141561943425E+01
 0.4100511570242E+01
 0.4051743831473E+01
 0.3993148020111E+01
 0.3921860671569E+01
 0.3834537130728E+01
 0.3727769641353E+01
 0.3598888414143E+01
 0.3447757356898E+01
 0.3281864282767E+01
 0.3129754176375E+01
 0.3068347231983E+01
 0.3259033446124E+01
 0.3928601851659E+01
 0.5166015844472E+01
 0.6640901592803E+01
 0.3880243914542E+01
 0.4162035871796E+01
 0.4393531681539E+01
 0.4536789268744E+01
 0.4602733006332E+01
 0.4620284666429E+01
 0.4613016741371E+01
 0.4594643008515E+01
 0.4572082778506E+01
 0.4548640222206E+01
 0.4525837832842E+01
 0.4504339037107E+01
 0.4484404063942E+01
 0.4466112198351E+01
 0.4449465812046E+01
 0.4434432296645E+01
 0.4420949427210E+01
 0.4408903695834E+01
 0.4398080231094E+01
 0.4388082884978E+01
 0.4378237791562E+01
 0.4367537513778E+01
 0.4354717275198E+01
 0.4338509096124E+01
 0.4318032139718E+01
 0.4292811291545E+01
 0.4262238373139E+01
 0.4225016806359E+01
 0.4178901171905E+01
 0.4120740875411E+01
 0.4046679162018E+01
 0.3952364576017E+01
 0.3833289651460E+01
 0.3685716081680E+01
 0.3510425009179E+01
 0.3325127610074E+01
 0.3195124189138E+01
 0.3288586825306E+01
 0.3899888859662E+01
 0.5228038897941E+01
 0.6917520928327E+01
 0.4006607501009E+01
 0.4316110210496E+01
 0.4556495249030E+01
 0.4688306264534E+01
 0.4735773939640E+01
 0.4737507397385E+01
 0.4719429468223E+01
 0.4694346999606E+01
 0.4667864538745E+01
 0.4642309134161E+01
 0.4618566234659E+01
 0.4596904877494E+01
 0.4577353132791E+01
 0.4559865254975E+01
 0.4544391556836E+01
 0.4530900635522E+01
 0.4519374621775E+01
 0.4509783448564E+01
 0.4502032842287E+01
 0.4495876537212E+01
 0.4490793640614E+01
 0.4485886955554E+01
 0.4479928959074E+01
 0.4471650759895E+01
 0.4460210844484E+01
 0.4445237019774E+01
 0.4426228239497E+01
 0.4401933853026E+01
 0.4370068646370E+01
 0.4327349681267E+01
 0.4269653064194E+01
 0.4192054069779E+01
 0.4088704184657E+01
 0.3952780413128E+01
 0.3778445268608E+01
 0.3570586682169E+01
 0.3375339138793E+01
 0.3353021813634E+01
 0.3863344008258E+01
 0.5269675620571E+01
 0.7226808472496E+01
 0.4144524492022E+01
 0.4485720557128E+01
 0.4730649992116E+01
 0.4842693284606E+01
 0.4866275815031E+01
 0.4850491932407E+01
 0.4821708491297E+01
 0.4790523972182E+01
 0.4760758971923E+01
 0.4733630325417E+01
 0.4709359368170E+01
 0.4687829713681E+01
 0.4668855308293E+01
 0.4652282995994E+01
 0.4638025824666E+01
 0.4626065624831E+01
 0.4616439444873E+01
 0.4609212311198E+01
 0.4604428101207E+01
 0.4602021435525E+01
 0.4601673873125E+01
 0.4602656440686E+01
 0.4603820777292E+01
 0.4603912793596E+01
 0.4602136438087E+01
 0.4598234014429E+01
 0.4591832833001E+01
 0.4581773454446E+01
 0.4565825746629E+01
 0.4540742897944E+01
 0.4502409758112E+01
 0.4445775247421E+01
 0.4364329857399E+01
 0.4249076192061E+01
 0.4088530682545E+01
 0.3874362544881E+01
 0.3626420519092E+01
 0.3476478491695E+01
 0.3831025486017E+01
 0.5282929080833E+01
 0.7577519848881E+01
 0.4298441268419E+01
 0.4675403700630E+01
 0.4916505982936E+01
 0.4997282478961E+01
 0.4991538116096E+01
 0.4957599668612E+01
 0.4918989975230E+01
 0.4882726279537E+01
 0.4850542388967E+01
 0.4822498182402E+01
 0.4798170035692E+01
 0.4777091388868E+01
 0.4758893765549E+01
 0.4743341306984E+01
 0.4730327873303E+01
 0.4719861401224E+01
 0.4712043394701E+01
 0.4707042782491E+01
 0.4705054638356E+01
 0.4706221829558E+01
 0.4710482191067E+01
 0.4717350443437E+01
 0.4725820742045E+01
 0.4734679041772E+01
 0.4743173199719E+01
 0.4751148851306E+01
 0.4758352219774E+01
 0.4763737248363E+01
 0.4765219587847E+01
 0.4759767319408E+01
 0.4743565990310E+01
 0.4711926433260E+01
 0.4658500778382E+01
 0.4573379869747E+01
 0.4441291618682E+01
 0.4242779645559E+01
 0.3967546322352E+01
 0.3693269562809E+01
 0.3829481771210E+01
 0.5259449932190E+01
 0.7982197614032E+01
 0.4475370541417E+01
 0.4891165623822E+01
 0.5112995745562E+01
 0.5147404789919E+01
 0.5108165716825E+01
 0.5057187014303E+01
 0.5010505243539E+01
 0.4970596328965E+01
 0.4937066768866E+01
 0.4908864607362E+01
 0.4884994346221E+01
 0.4864700821871E+01
 0.4847477631562E+01
 0.4833037307588E+01
 0.4821275242048E+01
 0.4812238718336E+01
 0.4806101747171E+01
 0.4803142417320E+01
 0.4803713647197E+01
 0.4808185723589E+01
 0.4816805878562E+01
 0.4829428278378E+01
 0.4845287879082E+01
 0.4863259039602E+01
 0.4882625761676E+01
 0.4903289243867E+01
 0.4925053697197E+01
 0.4946971290372E+01
 0.4967187779251E+01
 0.4983076881389E+01
 0.4991420385453E+01
 0.4988372938753E+01
 0.4968629642835E+01
 0.4922914249511E+01
 0.4834675212783E+01
 0.4678065461507E+01
 0.4416453977212E+01
 0.4049069781144E+01
 0.3910972036794E+01
 0.5195933655348E+01
 0.8460209557332E+01
 0.4686969706558E+01
 0.5140570460231E+01
 0.5315365536561E+01
 0.5285603720847E+01
 0.5212443553878E+01
 0.5147845138039E+01
 0.5095648037616E+01
 0.5053907592604E+01
 0.5020280138937E+01
 0.4992748740965E+01
 0.4969877209980E+01
 0.4950705051308E+01
 0.4934643959872E+01
 0.4921390884303E+01
 0.4910865276628E+01
 0.4903166831675E+01
 0.4898548236567E+01
 0.4897398014105E+01
 0.4900225883786E+01
 0.4907635189623E+01
 0.4920224754712E+01
 0.4938302333937E+01
 0.4961496481748E+01
 0.4988868815414E+01
 0.5019732505877E+01
 0.5053936825257E+01
 0.5091198139682E+01
 0.5130595555354E+01
 0.5170583796196E+01
 0.5209156241733E+01
 0.5243984989270E+01
 0.5272495788255E+01
 0.5291227679723E+01
 0.5293223381432E+01
 0.5263630738557E+01
 0.5176158925334E+01
 0.4982762523014E+01
 0.4598294692303E+01
 0.4169056600215E+01
 0.5111105162122E+01
 0.9045394472404E+01
 0.4953935591992E+01
 0.5431569311346E+01
 0.5510799637049E+01
 0.5401447694697E+01
 0.5301322341082E+01
 0.5228575075486E+01
 0.5174034189761E+01
 0.5132612826574E+01
 0.5100240541578E+01
 0.5074245807321E+01
 0.5052916358920E+01
 0.5035189447909E+01
 0.5020459110924E+01
 0.5008445784042E+01
 0.4999116308132E+01
 0.4992635078287E+01
 0.4989337471898E+01
 0.4989719557218E+01
 0.4994438928751E+01
 0.5004319929069E+01
 0.5020327391832E+01
 0.5043340284696E+01
 0.5073612781064E+01
 0.5110598307867E+01
 0.5153653059102E+01
 0.5202364874567E+01
 0.5256076282486E+01
 0.5313743615031E+01
 0.5374209545483E+01
 0.5436347535312E+01
 0.5499030031005E+01
 0.5561274616836E+01
 0.5622051742748E+01
 0.5678140801669E+01
 0.5720025473059E+01
 0.5726168942558E+01
 0.5657904380294E+01
 0.5389528158932E+01
 0.4755394282321E+01
 0.5093169865533E+01
 0.9808763551028E+01
 0.5316351690405E+01
 0.5765749093705E+01
 0.5670158639838E+01
 0.5484389155315E+01
 0.5373720852465E+01
 0.5298646167931E+01
 0.5245659264412E+01
 0.5206859922446E+01
 0.5177129669380E+01
 0.5153533185066E+01
 0.5134264540662E+01
 0.5118279032174E+01
 0.5105019422665E+01
 0.5094270251920E+01
 0.5086068459024E+01
 0.5080654111257E+01
 0.5078446988288E+01
 0.5080043771254E+01
 0.5086233710841E+01
 0.5098032949417E+01
 0.5116739059653E+01
 0.5143878648635E+01
 0.5180660594857E+01
 0.5227354691875E+01
 0.5283446774158E+01
 0.5347864722917E+01
 0.5419058509770E+01
 0.5495614562320E+01
 0.5576857928133E+01
 0.5662874678359E+01
 0.5754129707778E+01
 0.5851411514819E+01
 0.5956329112909E+01
 0.6070173669187E+01
 0.6192073291300E+01
 0.6312639880492E+01
 0.6409149962755E+01
 0.6422614679627E+01
 0.5883934861194E+01
 0.5414828156610E+01
 0.1094067446609E+02
 0.5862146972270E+01
 0.6105537035283E+01
 0.5739509148548E+01
 0.5535170392223E+01
 0.5428797203212E+01
 0.5358026413651E+01
 0.5310971783745E+01
 0.5276984124367E+01
 0.5251270953314E+01
 0.5230868894817E+01
 0.5214131184013E+01
 0.5200138163922E+01
 0.5188451214315E+01
 0.5178957058375E+01
 0.5171783983161E+01
 0.5167256671191E+01
 0.5165878695819E+01
 0.5168337046419E+01
 0.5175529710317E+01
 0.5188623582450E+01
 0.5209164733502E+01
 0.5239266773701E+01
 0.5281471088776E+01
 0.5337758148448E+01
 0.5408040064119E+01
 0.5489788333667E+01
 0.5579662122993E+01
 0.5675538925323E+01
 0.5777367206425E+01
 0.5886871631316E+01
 0.6006660102793E+01
 0.6139529759915E+01
 0.6289004769121E+01
 0.6461243645710E+01
 0.6664702950319E+01
 0.6913629193690E+01
 0.7199692689387E+01
 0.7573680707338E+01
 0.7748253570410E+01
 0.6722115835015E+01
 0.1311132936869E+02
 0.6826275983567E+01
 0.6194983483116E+01
 0.5708205000201E+01
 0.5562277017276E+01
 0.5464500273559E+01
 0.5408525766212E+01
 0.5370521673723E+01
 0.5343624395709E+01
 0.5323098584823E+01
 0.5306598098084E+01
 0.5292778734251E+01
 0.5280969773456E+01
 0.5270909736700E+01
 0.5262622977884E+01
 0.5256347049609E+01
 0.5252497909433E+01
 0.5251659586831E+01
 0.5254597307004E+01
 0.5262289378798E+01
 0.5276003508552E+01
 0.5297430649240E+01
 0.5328996847797E+01
 0.5374613321268E+01
 0.5439927251739E+01
 0.5526198432455E+01
 0.5627616542115E+01
 0.5737641853750E+01
 0.5853059822429E+01
 0.5974688318201E+01
 0.6106425623776E+01
 0.6253749522797E+01
 0.6422198681780E+01
 0.6615694745955E+01
 0.6842087348656E+01
 0.7124405358616E+01
 0.7492032068616E+01
 0.8008124184797E+01
 0.8655187201499E+01
 0.1004945860341E+02
 0.1005705768316E+02
 0.1965568726551E+02
 0.1221723984371E+00
 0.1296571997812E+00
 0.1418421885080E+00
 0.1578041874872E+00
 0.1766323194784E+00
 0.1970447682665E+00
 0.2180839655366E+00
 0.2391498406668E+00
 0.2597057147117E+00
 0.2792585756544E+00
 0.2974405996237E+00
 0.3139919695983E+00
 0.3286664474178E+00
 0.3411715219056E+00
 0.3511937592395E+00
 0.3584446166554E+00
 0.3625769465071E+00
 0.3635931674006E+00
 0.3624585135816E+00
 0.3593317243001E+00
 0.1289653808711E+00
 0.1440113347749E+00
 0.1624450557722E+00
 0.1837745980751E+00
 0.2070909262770E+00
 0.2313969194018E+00
 0.2559037017345E+00
 0.2800065624146E+00
 0.3031685411766E+00
 0.3249397478118E+00
 0.3449899569505E+00
 0.3630918278084E+00
 0.3790386619550E+00
 0.3925928389697E+00
 0.4035008059905E+00
 0.4114932873230E+00
 0.4161513259995E+00
 0.4173260994109E+00
 0.4139401086835E+00
 0.4048393125372E+00
 0.1349625270725E+00
 0.1579976139236E+00
 0.1828261959919E+00
 0.2095795694073E+00
 0.2375620568130E+00
 0.2659442621607E+00
 0.2940459049919E+00
 0.3213051631778E+00
 0.3472142334000E+00
 0.3713576471107E+00
 0.3934415608270E+00
 0.4132693665955E+00
 0.4306680807414E+00
 0.4454355825218E+00
 0.4573313175096E+00
 0.4660355676993E+00
 0.4710547835341E+00
 0.4717375327605E+00
 0.4669663159325E+00
 0.4575501035562E+00
 0.1406338066125E+00
 0.1714859113980E+00
 0.2029259978854E+00
 0.2352563859687E+00
 0.2680548261602E+00
 0.3006630749580E+00
 0.3324940217142E+00
 0.3630378307355E+00
 0.3918295921123E+00
 0.4184923015268E+00
 0.4427656262386E+00
 0.4644808200492E+00
 0.4834899483333E+00
 0.4996075133834E+00
 0.5125795421461E+00
 0.5220353740270E+00
 0.5273835610208E+00
 0.5279300185955E+00
 0.5231680182691E+00
 0.5142084214645E+00
 0.1461162206152E+00
 0.1846469759047E+00
 0.2227605104118E+00
 0.2608163383176E+00
 0.2985737310207E+00
 0.3355426734009E+00
 0.3712309035092E+00
 0.4051862555554E+00
 0.4369923616283E+00
 0.4663133506825E+00
 0.4929215469095E+00
 0.5166725644081E+00
 0.5374363489930E+00
 0.5550337633780E+00
 0.5691971559893E+00
 0.5795243477240E+00
 0.5854439185754E+00
 0.5864320713640E+00
 0.5823181117216E+00
 0.5741588528893E+00
 0.1515044843966E+00
 0.1975863623388E+00
 0.2423967075326E+00
 0.2862786881585E+00
 0.3291210331736E+00
 0.3705733739782E+00
 0.4102384449939E+00
 0.4477262711252E+00
 0.4826718829474E+00
 0.5147817288536E+00
 0.5438601739152E+00
 0.5697850766925E+00
 0.5924410147736E+00
 0.6116555036769E+00
 0.6271599947834E+00
 0.6385667502129E+00
 0.6453944571514E+00
 0.6472812548866E+00
 0.6442408016101E+00
 0.6371526175661E+00
 0.1568673188831E+00
 0.2103895491691E+00
 0.2618947573981E+00
 0.3116720617681E+00
 0.3597003585944E+00
 0.4057446425856E+00
 0.4494960780296E+00
 0.4906288170542E+00
 0.5288306567622E+00
 0.5638507921619E+00
 0.5955254100758E+00
 0.6237543491504E+00
 0.6484380294941E+00
 0.6694174091102E+00
 0.6864431799290E+00
 0.6991757279971E+00
 0.7072385654992E+00
 0.7104023985099E+00
 0.7087735188977E+00
 0.7030569040826E+00
 0.1622597983814E+00
 0.2231234390842E+00
 0.2813068458965E+00
 0.3370236529791E+00
 0.3903164735223E+00
 0.4410448991913E+00
 0.4889804818448E+00
 0.5338604249570E+00
 0.5754254133515E+00
 0.6134674875908E+00
 0.6478550458717E+00
 0.6785114483903E+00
 0.7053571486835E+00
 0.7282563782419E+00
 0.7469962899628E+00
 0.7613020143407E+00
 0.7708995688044E+00
 0.7756642634284E+00
 0.7757541160477E+00
 0.7717383174185E+00
 0.1677279603444E+00
 0.2358418461785E+00
 0.3006759001331E+00
 0.3623568668476E+00
 0.4209727926475E+00
 0.4764612435429E+00
 0.5286657210677E+00
 0.5773837500658E+00
 0.6224079540306E+00
 0.6635731609909E+00
 0.7007809617802E+00
 0.7339809935567E+00
 0.7631193091142E+00
 0.7880927951513E+00
 0.8087367529741E+00
 0.8248482719315E+00
 0.8362485015267E+00
 0.8428991644877E+00
 0.8449952247614E+00
 0.8430169578635E+00
 0.1733115510662E+00
 0.2485884447535E+00
 0.3200365054851E+00
 0.3876901616700E+00
 0.4516702014200E+00
 0.5119787907181E+00
 0.5685233043626E+00
 0.6211579364002E+00
 0.6697256452193E+00
 0.7141038754474E+00
 0.7542287583715E+00
 0.7900794910031E+00
 0.8216332771084E+00
 0.8488271759599E+00
 0.8715519768526E+00
 0.8896791213163E+00
 0.9031179256211E+00
 0.9119059174490E+00
 0.9162727973131E+00
 0.9166528022811E+00
 0.1790457151008E+00
 0.2613990302185E+00
 0.3394160225186E+00
 0.4130370567704E+00
 0.4824065834547E+00
 0.5475804368793E+00
 0.6085223238944E+00
 0.6651390377228E+00
 0.7173218878472E+00
 0.7649906691260E+00
 0.8081174949805E+00
 0.8467143513114E+00
 0.8807943989498E+00
 0.9103404192889E+00
 0.9353030441556E+00
 0.9556283485551E+00
 0.9713084604642E+00
 0.9824512271209E+00
 0.9893238052001E+00
 0.9923469652084E+00
 0.1849621465600E+00
 0.2743031801851E+00
 0.3588357366664E+00
 0.4384065363226E+00
 0.5131768153778E+00
 0.5832468417465E+00
 0.6486296326924E+00
 0.7092803509506E+00
 0.7651364675466E+00
 0.8161597460398E+00
 0.8623595982201E+00
 0.9037836248335E+00
 0.9404847712565E+00
 0.9724954075550E+00
 0.9998284289491E+00
 0.1022503898389E+01
 0.1040592916994E+01
 0.1054271285617E+01
 0.1063848399646E+01
 0.1069751940010E+01
 0.1910899114048E+00
 0.2873255707123E+00
 0.3783119605518E+00
 0.4638037006499E+00
 0.5439730888836E+00
 0.6189566720663E+00
 0.6888101620526E+00
 0.7535328212200E+00
 0.8131059759134E+00
 0.8675328385962E+00
 0.9168611790518E+00
 0.9611764918895E+00
 0.1000574368562E+01
 0.1035139301431E+01
 0.1064947571410E+01
 0.1090092086509E+01
 0.1110720019168E+01
 0.1127074281002E+01
 0.1139511858862E+01
 0.1148480656083E+01
 0.1974560881613E+00
 0.3004870819967E+00
 0.3978571066135E+00
 0.4892305721797E+00
 0.5747854745045E+00
 0.6546870632063E+00
 0.7290273917776E+00
 0.7978455516670E+00
 0.8611643455356E+00
 0.9190277675547E+00
 0.9715227011139E+00
 0.1018774253739E+01
 0.1060922675416E+01
 0.1098106075733E+01
 0.1130464303434E+01
 0.1158161542540E+01
 0.1181418403069E+01
 0.1200544178439E+01
 0.1215947628246E+01
 0.1228108083053E+01
 0.2040862556067E+00
 0.3138057223634E+00
 0.4174806724060E+00
 0.5146869269720E+00
 0.6056025730556E+00
 0.6904141669743E+00
 0.7692438734021E+00
 0.8421663447869E+00
 0.9092434344160E+00
 0.9705591167343E+00
 0.1026239854199E+01
 0.1076451586823E+01
 0.1121380534919E+01
 0.1161219111191E+01
 0.1196170177614E+01
 0.1226467153733E+01
 0.1252401193009E+01
 0.1274346392331E+01
 0.1292765409823E+01
 0.1308178415672E+01
 0.2110049068805E+00
 0.3272974750005E+00
 0.4371902231053E+00
 0.5401712155676E+00
 0.6364123186113E+00
 0.7261138702964E+00
 0.8094219191765E+00
 0.8864424072242E+00
 0.9572737923590E+00
 0.1022039129514E+01
 0.1080904690268E+01
 0.1134078064932E+01
 0.1181792207934E+01
 0.1224293895838E+01
 0.1261847849481E+01
 0.1294754180862E+01
 0.1323371153110E+01
 0.1348134924605E+01
 0.1369561974959E+01
 0.1388219461882E+01
 0.2182357952042E+00
 0.3409770662445E+00
 0.4569923357254E+00
 0.5656814993444E+00
 0.6672028363738E+00
 0.7617625828590E+00
 0.8495243585872E+00
 0.9306211214691E+00
 0.1005185504069E+01
 0.1073378699813E+01
 0.1135406864664E+01
 0.1191519770834E+01
 0.1241997471709E+01
 0.1287140702528E+01
 0.1327274411294E+01
 0.1362762389909E+01
 0.1394025995757E+01
 0.1421559612763E+01
 0.1445931392164E+01
 0.1467757409536E+01
 0.2258022351564E+00
 0.3548586929553E+00
 0.4768935316548E+00
 0.5912164155852E+00
 0.6979633599866E+00
 0.7973380975818E+00
 0.8895153688950E+00
 0.9746508899267E+00
 0.1052909104996E+01
 0.1124488435341E+01
 0.1189634938962E+01
 0.1248640939256E+01
 0.1301833699305E+01
 0.1349567190584E+01
 0.1392224608297E+01
 0.1430230038881E+01
 0.1464063430869E+01
 0.1494272648219E+01
 0.1521473529006E+01
 0.1546328753889E+01
 0.2337273888010E+00
 0.3689567410766E+00
 0.4969012255042E+00
 0.6167761903623E+00
 0.7286852215709E+00
 0.8328205363423E+00
 0.9293613937137E+00
 0.1018482065138E+01
 0.1100376578904E+01
 0.1175279793226E+01
 0.1243477736401E+01
 0.1305305617735E+01
 0.1361137907882E+01
 0.1411380918598E+01
 0.1456473900570E+01
 0.1496897608420E+01
 0.1533185741067E+01
 0.1565934192554E+01
 0.1595800952789E+01
 0.1623489514397E+01
 0.2420345275461E+00
 0.3832864860600E+00
 0.5170246670382E+00
 0.6423636597772E+00
 0.7593628614795E+00
 0.8681933190418E+00
 0.9690320818789E+00
 0.1062067892991E+01
 0.1147522357456E+01
 0.1225666201019E+01
 0.1296825657053E+01
 0.1361379249973E+01
 0.1419748680399E+01
 0.1472391669207E+01
 0.1519801254227E+01
 0.1562511127919E+01
 0.1601103730164E+01
 0.1636217092586E+01
 0.1668544666662E+01
 0.1698822730196E+01
 0.2507472988159E+00
 0.3978648117506E+00
 0.5372759151129E+00
 0.6679853370939E+00
 0.7899948926547E+00
 0.9034441887483E+00
 0.1008501277237E+01
 0.1105365496191E+01
 0.1194284343864E+01
 0.1275564178612E+01
 0.1349571961550E+01
 0.1416730184517E+01
 0.1477507957317E+01
 0.1532413573887E+01
 0.1581991638228E+01
 0.1626825070436E+01
 0.1667540029687E+01
 0.1704810682729E+01
 0.1739358782589E+01
 0.1771944097599E+01
 0.2598900004366E+00
 0.4127109496408E+00
 0.5576708392701E+00
 0.6936525120727E+00
 0.8205851969506E+00
 0.9385662632665E+00
 0.1047748024463E+01
 0.1148336858755E+01
 0.1240604917481E+01
 0.1324894414592E+01
 0.1401613974532E+01
 0.1471231058555E+01
 0.1534262647571E+01
 0.1591266987313E+01
 0.1642838182630E+01
 0.1689604788623E+01
 0.1732231773441E+01
 0.1771423557489E+01
 0.1807923255488E+01
 0.1842503689605E+01
 0.2694878726159E+00
 0.4278472504694E+00
 0.5782301585606E+00
 0.7193823865564E+00
 0.8511440511675E+00
 0.9735591055095E+00
 0.1086757579013E+01
 0.1190949796038E+01
 0.1286431900694E+01
 0.1373582775749E+01
 0.1452854184462E+01
 0.1524760031999E+01
 0.1589866033177E+01
 0.1648780087497E+01
 0.1702143981533E+01
 0.1750628500596E+01
 0.1794932680435E+01
 0.1835785553129E+01
 0.1873944939221E+01
 0.1910186762881E+01
 0.2795674206269E+00
 0.4433000041831E+00
 0.5989805322102E+00
 0.7451992563899E+00
 0.8816892871164E+00
 0.1008429811801E+01
 0.1125522416169E+01
 0.1233178901864E+01
 0.1331719477000E+01
 0.1421561236667E+01
 0.1503201225368E+01
 0.1577201856439E+01
 0.1644178951878E+01
 0.1704790187790E+01
 0.1759723535480E+01
 0.1809688836396E+01
 0.1855414640459E+01
 0.1897649211921E+01
 0.1937159019761E+01
 0.1974715061219E+01
 0.2901567804451E+00
 0.4591003217589E+00
 0.6199557143482E+00
 0.7711357466762E+00
 0.9122474862403E+00
 0.1043194113035E+01
 0.1164043229870E+01
 0.1275006460449E+01
 0.1376429046215E+01
 0.1468768714839E+01
 0.1552570726399E+01
 0.1628448765854E+01
 0.1697070745999E+01
 0.1759144751821E+01
 0.1815403830261E+01
 0.1866593963111E+01
 0.1913468836902E+01
 0.1956790883613E+01
 0.1997330196424E+01
 0.2035847677706E+01
 0.3012861291651E+00
 0.4752850813867E+00
 0.6411977714476E+00
 0.7972340910847E+00
 0.9428551909391E+00
 0.1077877463785E+01
 0.1202329891610E+01
 0.1316423290657E+01
 0.1420529983788E+01
 0.1515151779860E+01
 0.1600886001078E+01
 0.1678401164957E+01
 0.1748419957241E+01
 0.1811702094367E+01
 0.1869025040940E+01
 0.1921168284517E+01
 0.1968906419234E+01
 0.2013011305235E+01
 0.2054252901165E+01
 0.2093380487364E+01
 0.3129881707031E+00
 0.4918979795263E+00
 0.6627584067189E+00
 0.8235474991129E+00
 0.9735601727332E+00
 0.1112516155644E+01
 0.1240402402410E+01
 0.1357429553031E+01
 0.1464000333291E+01
 0.1560665266143E+01
 0.1648078607307E+01
 0.1726968148036E+01
 0.1798114800451E+01
 0.1862331798348E+01
 0.1920440883774E+01
 0.1973252729382E+01
 0.2021558714691E+01
 0.2066135605074E+01
 0.2107750707724E+01
 0.2147144457023E+01
 0.3252986949377E+00
 0.5089906800796E+00
 0.6847003805805E+00
 0.8501415883246E+00
 0.1004422721500E+01
 0.1147158408634E+01
 0.1278291784663E+01
 0.1398035462446E+01
 0.1506827374755E+01
 0.1605272735863E+01
 0.1694088732707E+01
 0.1774067812474E+01
 0.1846053388933E+01
 0.1910914824067E+01
 0.1969518587567E+01
 0.2022704581640E+01
 0.2071276913297E+01
 0.2116012735072E+01
 0.2157675075081E+01
 0.2197002890829E+01
 0.3382572248054E+00
 0.5266240908595E+00
 0.7070990577713E+00
 0.8770959088877E+00
 0.1035516976245E+01
 0.1181865455608E+01
 0.1316040925139E+01
 0.1438261915845E+01
 0.1549008079488E+01
 0.1648946808430E+01
 0.1738865431578E+01
 0.1819627405519E+01
 0.1892143760415E+01
 0.1957343363658E+01
 0.2016138529785E+01
 0.2069396873988E+01
 0.2117931207444E+01
 0.2162514318233E+01
 0.2203903519487E+01
 0.2242847388950E+01
 0.3519077898547E+00
 0.5448698129973E+00
 0.7300441338804E+00
 0.9045056082796E+00
 0.1066932335360E+01
 0.1216712648004E+01
 0.1353705389147E+01
 0.1478141047535E+01
 0.1590549459327E+01
 0.1691669365551E+01
 0.1782366730338E+01
 0.1863583333532E+01
 0.1936303744647E+01
 0.2001520486038E+01
 0.2060193574194E+01
 0.2113217361140E+01
 0.2161409352369E+01
 0.2205532698789E+01
 0.2246336849756E+01
 0.2284591529809E+01
 0.3662997969525E+00
 0.5638117395930E+00
 0.7536415119129E+00
 0.9324831899027E+00
 0.1098774879891E+01
 0.1251790500347E+01
 0.1391354111335E+01
 0.1517716608795E+01
 0.1631468703897E+01
 0.1733431531693E+01
 0.1824559518919E+01
 0.1905880978708E+01
 0.1978460648675E+01
 0.2043359572465E+01
 0.2101588119801E+01
 0.2154067078663E+01
 0.2201614654595E+01
 0.2244978080098E+01
 0.2284894415322E+01
 0.2322159928294E+01
 0.3814890734425E+00
 0.5835479092369E+00
 0.7780154549978E+00
 0.9611604964291E+00
 0.1131168934839E+01
 0.1287205791620E+01
 0.1429070073104E+01
 0.1557044270305E+01
 0.1671793194212E+01
 0.1774233515911E+01
 0.1865419324886E+01
 0.1946474445293E+01
 0.2018550915833E+01
 0.2082783728169E+01
 0.2140237053718E+01
 0.2191858670623E+01
 0.2238463587396E+01
 0.2280775301812E+01
 0.2319508814075E+01
 0.2355478464967E+01
 0.3975390490332E+00
 0.6041925889117E+00
 0.8033109945075E+00
 0.9906908798555E+00
 0.1164258706790E+01
 0.1323082645464E+01
 0.1466950874558E+01
 0.1596191741500E+01
 0.1711560276201E+01
 0.1814084200438E+01
 0.1904929876883E+01
 0.1985326187496E+01
 0.2056519778360E+01
 0.2119725261210E+01
 0.2176064747260E+01
 0.2226514625422E+01
 0.2271883215207E+01
 0.2312860844274E+01
 0.2350124095643E+01
 0.2384478843701E+01
 0.4145220878638E+00
 0.6258786432066E+00
 0.8296966672394E+00
 0.1021251616744E+01
 0.1198210036742E+01
 0.1359563604293E+01
 0.1505109194227E+01
 0.1635238665433E+01
 0.1750816720509E+01
 0.1853000379743E+01
 0.1943082359689E+01
 0.2022406452547E+01
 0.2092320909048E+01
 0.2154125335563E+01
 0.2209004278537E+01
 0.2257965615732E+01
 0.2301808503624E+01
 0.2341180002863E+01
 0.2376696047254E+01
 0.2409109499328E+01
 0.4325210401065E+00
 0.6487603155618E+00
 0.8573677177457E+00
 0.1053046724007E+01
 0.1233212394656E+01
 0.1396810836737E+01
 0.1543673249554E+01
 0.1674276375565E+01
 0.1789617916075E+01
 0.1891005676172E+01
 0.1979874380152E+01
 0.2057692582216E+01
 0.2125916206759E+01
 0.2185934094386E+01
 0.2238997357954E+01
 0.2286149448442E+01
 0.2328179867468E+01
 0.2365683787060E+01
 0.2399191593639E+01
 0.2429340556702E+01
 0.4516309344541E+00
 0.6730163157071E+00
 0.8865497705354E+00
 0.1086310012914E+01
 0.1269481045405E+01
 0.1435007326874E+01
 0.1582787119979E+01
 0.1713407290420E+01
 0.1828026532480E+01
 0.1928128837527E+01
 0.2015308341106E+01
 0.2091167867009E+01
 0.2157275471268E+01
 0.2215111264711E+01
 0.2265995304017E+01
 0.2311011214540E+01
 0.2350941155212E+01
 0.2386325154693E+01
 0.2417585921286E+01
 0.2445168407853E+01
 0.4719609277404E+00
 0.6988539414601E+00
 0.9175028566524E+00
 0.1121308942120E+01
 0.1307259489286E+01
 0.1474358557947E+01
 0.1622611191363E+01
 0.1752744153117E+01
 0.1866110770406E+01
 0.1964401484698E+01
 0.2049389245971E+01
 0.2122819937105E+01
 0.2186375837345E+01
 0.2241627209240E+01
 0.2289961826912E+01
 0.2332505842400E+01
 0.2370039165612E+01
 0.2403053819029E+01
 0.2431857624424E+01
 0.2456622728783E+01
 0.4936376146684E+00
 0.7265119779225E+00
 0.9505276366884E+00
 0.1158347239001E+01
 0.1346823169043E+01
 0.1515094362707E+01
 0.1663322690106E+01
 0.1792408835823E+01
 0.1903941743306E+01
 0.1999854991497E+01
 0.2082121571148E+01
 0.2152638167284E+01
 0.2213200576789E+01
 0.2265463470810E+01
 0.2310877034333E+01
 0.2350605999911E+01
 0.2385426586843E+01
 0.2415809797868E+01
 0.2441976990117E+01
 0.2463778658324E+01
 0.5168058354151E+00
 0.7562794796141E+00
 0.9859596430502E+00
 0.1197773991673E+01
 0.1388482072086E+01
 0.1557471821027E+01
 0.1705117185796E+01
 0.1832530042262E+01
 0.1941589654638E+01
 0.2034516479273E+01
 0.2113505311833E+01
 0.2180609564769E+01
 0.2237736333192E+01
 0.2286613508781E+01
 0.2328739011095E+01
 0.2365313646990E+01
 0.2397085165920E+01
 0.2424512029581E+01
 0.2447876948251E+01
 0.2466761885621E+01
 0.5416959412684E+00
 0.7884080784875E+00
 0.1024210644539E+01
 0.1239979745180E+01
 0.1432580696395E+01
 0.1601786864935E+01
 0.1748209979393E+01
 0.1873238715103E+01
 0.1979118395251E+01
 0.2068404838423E+01
 0.2143531816103E+01
 0.2206713634982E+01
 0.2259966714821E+01
 0.2305081718965E+01
 0.2343572541253E+01
 0.2376652117817E+01
 0.2405064054409E+01
 0.2429144421806E+01
 0.2449322686569E+01
 0.2465748253986E+01
 0.4593916282980E+00
 0.7098224489016E+00
 0.7438434537493E+00
 0.7080023101863E+00
 0.6119537687166E+00
 0.4974921649372E+00
 0.4163820402923E+00
 0.3776361032665E+00
 0.3527731769468E+00
 0.3271802809156E+00
 0.2984101595173E+00
 0.2667086604934E+00
 0.2320768468052E+00
 0.1947739072835E+00
 0.1561487179821E+00
 0.1172808570801E+00
 0.7842451367548E-01
 0.4528228719777E-01
 0.2030529773424E-01
 0.9307277141425E-03
 0.3930962653504E+00
 0.6562937696404E+00
 0.6776743159659E+00
 0.6488664069412E+00
 0.5863675684699E+00
 0.5081960013875E+00
 0.4414399096801E+00
 0.3974458119141E+00
 0.3660696172186E+00
 0.3374666343579E+00
 0.3079576758739E+00
 0.2764270686553E+00
 0.2424625323406E+00
 0.2060973253375E+00
 0.1679629202324E+00
 0.1288727026801E+00
 0.8997185382052E-01
 0.5501987365622E-01
 0.2540354203466E-01
 0.2123889866597E-02
 0.3294382271019E+00
 0.5849355632970E+00
 0.6200692889019E+00
 0.5981577303392E+00
 0.5555836128585E+00
 0.5026217853733E+00
 0.4519177622490E+00
 0.4110311249414E+00
 0.3773926752964E+00
 0.3466042271528E+00
 0.3161784634121E+00
 0.2847327276964E+00
 0.2514490987505E+00
 0.2159990123566E+00
 0.1785929476309E+00
 0.1397972236975E+00
 0.1006170337186E+00
 0.6343232494199E-01
 0.2929201439145E-01
 0.4003000796391E-02
 0.2720229835111E+00
 0.5140085289221E+00
 0.5619584982839E+00
 0.5515197732149E+00
 0.5224234224753E+00
 0.4867801094618E+00
 0.4501613673704E+00
 0.4158583029526E+00
 0.3838454720333E+00
 0.3529195814212E+00
 0.3222784271222E+00
 0.2911059849505E+00
 0.2585994047918E+00
 0.2242109504057E+00
 0.1878078313350E+00
 0.1496280134354E+00
 0.1103934116079E+00
 0.7133327788239E-01
 0.3316687878399E-01
 0.5368635539798E-02
 0.2206623441433E+00
 0.4464280428364E+00
 0.5043381396670E+00
 0.5052895223056E+00
 0.4874403042012E+00
 0.4641328668745E+00
 0.4388331497106E+00
 0.4119126294605E+00
 0.3837799725825E+00
 0.3547220433069E+00
 0.3250720234667E+00
 0.2947631612160E+00
 0.2633402034660E+00
 0.2302697069606E+00
 0.1951956324675E+00
 0.1580510923183E+00
 0.1192370218419E+00
 0.7900899648535E-01
 0.3767794671136E-01
 0.5254894188175E-02
 0.1749560010371E+00
 0.3830939065504E+00
 0.4477914080538E+00
 0.4586409966224E+00
 0.4503173808550E+00
 0.4364777525920E+00
 0.4200579858609E+00
 0.4000612104035E+00
 0.3767288255949E+00
 0.3508852338833E+00
 0.3234050772809E+00
 0.2947623711058E+00
 0.2649276122973E+00
 0.2335535788407E+00
 0.2002109224699E+00
 0.1646106309930E+00
 0.1268708526687E+00
 0.8640498138716E-01
 0.4304451637259E-01
 0.3387268656156E-02
 0.1344161794284E+00
 0.3242345370851E+00
 0.3927467888494E+00
 0.4114981425333E+00
 0.4110618365021E+00
 0.4047067031568E+00
 0.3953035344463E+00
 0.3813292705922E+00
 0.3628749349497E+00
 0.3408988527361E+00
 0.3164297491615E+00
 0.2902090456503E+00
 0.2625408758152E+00
 0.2333225015099E+00
 0.2021694750971E+00
 0.1686770144389E+00
 0.1327604929688E+00
 0.9311536914043E-01
 0.4903652067766E-01
 0.2892455991698E-02
 0.9855468301188E-01
 0.2698277281904E+00
 0.3395158587085E+00
 0.3640669726286E+00
 0.3698890675852E+00
 0.3694256804908E+00
 0.3655510156513E+00
 0.3566218072076E+00
 0.3426750133524E+00
 0.3246879472533E+00
 0.3036619189597E+00
 0.2804023738903E+00
 0.2554076659322E+00
 0.2287946958058E+00
 0.2002883208154E+00
 0.1694632205546E+00
 0.1361273713515E+00
 0.9839039812026E-01
 0.5496930022233E-01
 0.7772967090111E-02
 0.6692060925651E-01
 0.2197346266235E+00
 0.2883333368123E+00
 0.3166501421462E+00
 0.3271308225161E+00
 0.3311467048499E+00
 0.3315269817904E+00
 0.3266819325186E+00
 0.3166579301838E+00
 0.3024309287306E+00
 0.2849200486629E+00
 0.2648840383416E+00
 0.2428965377600E+00
 0.2192352979241E+00
 0.1937552117773E+00
 0.1660806839214E+00
 0.1360023058816E+00
 0.1011889814849E+00
 0.5975350958974E-01
 0.1352275157908E-01
 0.3916168098015E-01
 0.1737576399747E+00
 0.2393742129099E+00
 0.2695738998093E+00
 0.2831726937124E+00
 0.2903531916032E+00
 0.2938317397680E+00
 0.2921373306456E+00
 0.2853480926177E+00
 0.2744367321429E+00
 0.2602389639543E+00
 0.2434234752837E+00
 0.2245604264316E+00
 0.2040278003463E+00
 0.1818066801125E+00
 0.1576178217436E+00
 0.1313102304107E+00
 0.1002714526927E+00
 0.6200261545593E-01
 0.1807611410611E-01
 0.1550340025546E-01
 0.1316694549010E+00
 0.1927642617491E+00
 0.2231553929264E+00
 0.2384184391893E+00
 0.2475187380639E+00
 0.2530058580730E+00
 0.2535473736198E+00
 0.2492510945296E+00
 0.2410799033051E+00
 0.2297992138208E+00
 0.2159799827229E+00
 0.2001441346098E+00
 0.1827193642446E+00
 0.1637976710313E+00
 0.1432251013067E+00
 0.1209707192897E+00
 0.9431687699788E-01
 0.6017604728065E-01
 0.1963480083305E-01
 0.1061104051384E-01
 0.9323051594184E-01
 0.1485886877709E+00
 0.1776885303353E+00
 0.1932700172630E+00
 0.2031110295960E+00
 0.2095628452218E+00
 0.2114369646319E+00
 0.2088601075221E+00
 0.2027724845869E+00
 0.1938807635519E+00
 0.1826646237294E+00
 0.1695738253570E+00
 0.1550444662469E+00
 0.1392566889347E+00
 0.1221957657266E+00
 0.1040007389714E+00
 0.8204643015808E-01
 0.5273188349724E-01
 0.1645615625186E-01
 0.2801069732403E-01
 0.5820558349680E-01
 0.1069029006884E+00
 0.1334409227558E+00
 0.1481185236297E+00
 0.1575926495826E+00
 0.1640062527929E+00
 0.1663192117169E+00
 0.1646678954256E+00
 0.1599554533763E+00
 0.1528368830439E+00
 0.1437107892810E+00
 0.1329413623852E+00
 0.1209358066171E+00
 0.1079293733215E+00
 0.9404128449334E-01
 0.7961621226918E-01
 0.6234496970940E-01
 0.3828033140380E-01
 0.7241809013098E-02
 0.4454795428579E-01
 0.2642473561630E-01
 0.6775802504310E-01
 0.9066540671539E-01
 0.1033485732164E+00
 0.1114279705264E+00
 0.1168449586069E+00
 0.1187161637520E+00
 0.1171847289374E+00
 0.1131057382250E+00
 0.1070879223615E+00
 0.9946105664618E-01
 0.9049739470095E-01
 0.8053945362801E-01
 0.6983020080324E-01
 0.5858860386046E-01
 0.4737183654132E-01
 0.3444239142891E-01
 0.1595757958261E-01
 0.1142569713763E-01
 0.5927419437602E-01
 0.4787766216805E-02
 0.3135907447471E-01
 0.4967886754082E-01
 0.5939491436773E-01
 0.6513257505542E-01
 0.6864410174111E-01
 0.6921552523233E-01
 0.6700090206537E-01
 0.6280241611618E-01
 0.5719142949960E-01
 0.5044980860298E-01
 0.4276921171241E-01
 0.3441385927395E-01
 0.2561452141613E-01
 0.1674678617915E-01
 0.9087680019827E-02
 0.6769263353403E-02
 0.1767311001178E-01
 0.3733483394526E-01
 0.7231092474305E-01
 0.2953205831356E-01
 0.7919871481073E-02
 0.1245486035613E-01
 0.1767520281976E-01
 0.2004729946942E-01
 0.2077519412188E-01
 0.1934370985169E-01
 0.1601088165226E-01
 0.1180817796164E-01
 0.8367485743834E-02
 0.8816660887526E-02
 0.1359516849784E-01
 0.2019443989384E-01
 0.2755938655356E-01
 0.3528843203549E-01
 0.4260746934699E-01
 0.4961917387209E-01
 0.5892930032709E-01
 0.7298729222083E-01
 0.8385893458697E-01
 0.5340618234204E-01
 0.3653380063931E-01
 0.2926664388491E-01
 0.2772160353379E-01
 0.2886983178694E-01
 0.3139888073346E-01
 0.3567269660908E-01
 0.4151051877562E-01
 0.4823292468583E-01
 0.5531509849253E-01
 0.6249439531746E-01
 0.6966858586490E-01
 0.7676104620462E-01
 0.8382392964559E-01
 0.9095036869950E-01
 0.9780626564921E-01
 0.1040025911086E+00
 0.1105104227707E+00
 0.1185847962060E+00
 0.9413359582078E-01
 0.7518483684135E-01
 0.6599396031113E-01
 0.6426671274308E-01
 0.6743347712905E-01
 0.7305533057802E-01
 0.7979635424965E-01
 0.8778710372584E-01
 0.9676303857521E-01
 0.1060652021133E+00
 0.1151807756560E+00
 0.1238259327659E+00
 0.1318726086938E+00
 0.1392371344415E+00
 0.1460103529637E+00
 0.1525022717340E+00
 0.1589200661573E+00
 0.1652887220291E+00
 0.1713702100046E+00
 0.1743366090164E+00
 0.1033618760686E+00
 0.9509704644283E-01
 0.9338233549500E-01
 0.9759776304597E-01
 0.1059948193383E+00
 0.1165736021720E+00
 0.1280345589795E+00
 0.1402830504165E+00
 0.1529821661807E+00
 0.1655152162374E+00
 0.1773966002102E+00
 0.1883178281439E+00
 0.1980882382884E+00
 0.2065312404671E+00
 0.2136018467578E+00
 0.2195581780197E+00
 0.2250170132865E+00
 0.2304938983276E+00
 0.2380164286186E+00
 0.2405142142337E+00
 0.1120584227247E+00
 0.1131218470109E+00
 0.1184968733942E+00
 0.1288255660449E+00
 0.1427229149541E+00
 0.1586103822551E+00
 0.1752555423350E+00
 0.1923022244071E+00
 0.2093023250903E+00
 0.2256901476948E+00
 0.2410382937702E+00
 0.2550522021209E+00
 0.2674945023835E+00
 0.2780875887029E+00
 0.2865754636585E+00
 0.2928452170525E+00
 0.2971650150247E+00
 0.2999539575948E+00
 0.3037230540024E+00
 0.3118801165453E+00
 0.5761451041228E+00
 0.8358489263028E+00
 0.1083464446617E+01
 0.1307430575944E+01
 0.1504719242888E+01
 0.1675326774634E+01
 0.1820317375798E+01
 0.1941670348296E+01
 0.2042311372229E+01
 0.2125411305132E+01
 0.2193854907879E+01
 0.2250165778220E+01
 0.2296571662970E+01
 0.2334997895736E+01
 0.2367022938593E+01
 0.2393908409196E+01
 0.2416671871512E+01
 0.2435525868785E+01
 0.2451060624290E+01
 0.2465197207254E+01
 0.6156741347742E+00
 0.8978994064948E+00
 0.1162355447146E+01
 0.1398099619111E+01
 0.1601772241404E+01
 0.1773877326288E+01
 0.1916213171609E+01
 0.2031595110774E+01
 0.2124007448025E+01
 0.2197592468285E+01
 0.2255943282224E+01
 0.2302063549251E+01
 0.2338499731478E+01
 0.2367383015021E+01
 0.2390424385988E+01
 0.2409031794894E+01
 0.2424533868788E+01
 0.2436953285238E+01
 0.2447046437983E+01
 0.2456550641931E+01
 0.6579959194027E+00
 0.9659106156281E+00
 0.1247982584850E+01
 0.1494208103984E+01
 0.1701941780648E+01
 0.1872652781999E+01
 0.2009183164781E+01
 0.2115374240425E+01
 0.2196543324578E+01
 0.2257983454650E+01
 0.2304038202206E+01
 0.2338180671588E+01
 0.2363277424299E+01
 0.2381664044047E+01
 0.2395183706636E+01
 0.2405378438346E+01
 0.2413712453592E+01
 0.2419626149776E+01
 0.2423987872343E+01
 0.2429070475626E+01
 0.7043700345068E+00
 0.1040476084790E+01
 0.1340639906132E+01
 0.1595771255772E+01
 0.1804682503160E+01
 0.1970472178452E+01
 0.2097458004361E+01
 0.2190885412665E+01
 0.2257700752869E+01
 0.2304457790156E+01
 0.2336237850695E+01
 0.2356935287183E+01
 0.2369684363700E+01
 0.2376954005256E+01
 0.2380633568802E+01
 0.2382272770934E+01
 0.2383235437073E+01
 0.2382200842111E+01
 0.2380813783178E+01
 0.2383185651805E+01
 0.7556466816738E+00
 0.1122766653918E+01
 0.1440859916920E+01
 0.1702652102252E+01
 0.1909130732014E+01
 0.2065764672123E+01
 0.2178940894132E+01
 0.2255792457962E+01
 0.2305186363720E+01
 0.2334959853053E+01
 0.2350833893092E+01
 0.2357008780774E+01
 0.2356771174529E+01
 0.2352592295191E+01
 0.2346275046824E+01
 0.2339240449187E+01
 0.2332584262885E+01
 0.2324353097748E+01
 0.2317779029614E+01
 0.2319470760918E+01
 0.8127677665116E+00
 0.1214002149366E+01
 0.1549252534812E+01
 0.1814547441869E+01
 0.2014074136119E+01
 0.2156562415665E+01
 0.2251202350093E+01
 0.2307578335271E+01
 0.2336702375808E+01
 0.2347586085747E+01
 0.2346384247972E+01
 0.2337412829035E+01
 0.2323939381655E+01
 0.2308270933861E+01
 0.2291986707573E+01
 0.2276276403774E+01
 0.2261893000618E+01
 0.2246514325952E+01
 0.2235599592012E+01
 0.2238545513299E+01
 0.8768176553795E+00
 0.1315529535894E+01
 0.1666372093005E+01
 0.1930904547222E+01
 0.2117895765777E+01
 0.2240468748811E+01
 0.2311497962892E+01
 0.2343611078093E+01
 0.2350044117157E+01
 0.2340691237180E+01
 0.2321813379020E+01
 0.2297581986663E+01
 0.2271034432179E+01
 0.2244136300668E+01
 0.2218123852898E+01
 0.2193894834843E+01
 0.2171840808042E+01
 0.2149564661231E+01
 0.2135209138304E+01
 0.2141096898672E+01
 0.9490772996783E+00
 0.1428837069806E+01
 0.1792662923081E+01
 0.2050815545090E+01
 0.2218489636820E+01
 0.2314627255001E+01
 0.2356809766444E+01
 0.2361246942397E+01
 0.2343231159578E+01
 0.2313017754030E+01
 0.2276523246114E+01
 0.2237461757719E+01
 0.2198412687833E+01
 0.2160833639541E+01
 0.2125527845773E+01
 0.2093074990522E+01
 0.2063514517284E+01
 0.2034670933512E+01
 0.2017686362195E+01
 0.2027901488193E+01
 0.1031076781859E+01
 0.1555573600414E+01
 0.1928386740278E+01
 0.2172896780817E+01
 0.2313159501772E+01
 0.2375702566339E+01
 0.2383927663650E+01
 0.2357980103980E+01
 0.2314672478932E+01
 0.2263838005711E+01
 0.2210495623819E+01
 0.2157569514071E+01
 0.2106966071296E+01
 0.2059499012289E+01
 0.2015483198484E+01
 0.1975180545983E+01
 0.1938302667128E+01
 0.1903200511575E+01
 0.1884231307980E+01
 0.1899827114378E+01
 0.1124661282389E+01
 0.1697563135421E+01
 0.2073520313100E+01
 0.2295129852251E+01
 0.2398506232065E+01
 0.2419892573791E+01
 0.2389592353260E+01
 0.2331649211542E+01
 0.2263359255185E+01
 0.2193090708947E+01
 0.2124363361055E+01
 0.2059011284500E+01
 0.1998100350095E+01
 0.1941711280230E+01
 0.1889650528634E+01
 0.1841881130549E+01
 0.1797820081151E+01
 0.1756675598554E+01
 0.1736158192255E+01
 0.1757830430801E+01
 0.1232079289412E+01
 0.1856813019196E+01
 0.2227598672231E+01
 0.2414646146346E+01
 0.2470310449181E+01
 0.2443003060717E+01
 0.2370728253125E+01
 0.2280705140377E+01
 0.2189065455198E+01
 0.2101481276721E+01
 0.2019425388397E+01
 0.1943443512902E+01
 0.1873671374616E+01
 0.1809419215441E+01
 0.1749993383491E+01
 0.1695086692747E+01
 0.1643859574213E+01
 0.1596755568439E+01
 0.1574905555483E+01
 0.1602966481807E+01
 0.1356106260584E+01
 0.2035506076089E+01
 0.2389465415665E+01
 0.2527430043209E+01
 0.2523432618676E+01
 0.2440636177014E+01
 0.2324798287066E+01
 0.2204525769276E+01
 0.2092512219882E+01
 0.1990503087427E+01
 0.1897583945737E+01
 0.1812981520221E+01
 0.1735894388601E+01
 0.1664861160332E+01
 0.1598711645366E+01
 0.1536900089055E+01
 0.1478370227881E+01
 0.1425248610501E+01
 0.1402074246675E+01
 0.1436426374135E+01
 0.1500224921665E+01
 0.2235953870076E+01
 0.2556859994189E+01
 0.2627911271407E+01
 0.2551786690704E+01
 0.2408576244945E+01
 0.2250300485637E+01
 0.2103720107029E+01
 0.1975417628252E+01
 0.1862334298246E+01
 0.1761203432869E+01
 0.1670079301256E+01
 0.1587252076832E+01
 0.1510492755773E+01
 0.1438187170228E+01
 0.1369588610671E+01
 0.1303464032034E+01
 0.1244160692839E+01
 0.1219508066497E+01
 0.1259621707319E+01
 0.1668898533030E+01
 0.2460455046909E+01
 0.2725708845902E+01
 0.2708421804689E+01
 0.2548518796723E+01
 0.2343493457258E+01
 0.2147369253968E+01
 0.1980279821742E+01
 0.1840327093900E+01
 0.1719598061521E+01
 0.1612938728274E+01
 0.1517429310365E+01
 0.1430425122951E+01
 0.1348925332932E+01
 0.1270935929577E+01
 0.1195570754523E+01
 0.1121455314838E+01
 0.1055795543105E+01
 0.1029436563223E+01
 0.1074340182458E+01
 0.1868003004852E+01
 0.2710916914949E+01
 0.2888855067528E+01
 0.2758545697598E+01
 0.2506681726776E+01
 0.2244094151752E+01
 0.2018269902447E+01
 0.1837325252891E+01
 0.1690157679456E+01
 0.1565083321624E+01
 0.1455636055783E+01
 0.1357925971822E+01
 0.1268241506368E+01
 0.1182854881024E+01
 0.1099551124169E+01
 0.1017414531434E+01
 0.9349422691030E+00
 0.8629262400972E+00
 0.8347064032201E+00
 0.8830061184196E+00
 0.2105539874480E+01
 0.2987843350661E+01
 0.3033691677918E+01
 0.2764603378328E+01
 0.2421034311750E+01
 0.2112644046439E+01
 0.1867215032419E+01
 0.1678143478783E+01
 0.1527662142764E+01
 0.1401657982861E+01
 0.1292396026131E+01
 0.1194674615149E+01
 0.1103593987744E+01
 0.1014946529404E+01
 0.9266258048726E+00
 0.8378486359334E+00
 0.7469442675609E+00
 0.6690646228492E+00
 0.6391382190784E+00
 0.6890966264295E+00
 0.2392899302721E+01
 0.3287527792820E+01
 0.3137497656287E+01
 0.2710487394461E+01
 0.2291969845185E+01
 0.1956020923294E+01
 0.1698219339368E+01
 0.1504999650463E+01
 0.1355353769623E+01
 0.1232569780862E+01
 0.1126752038935E+01
 0.1030923355298E+01
 0.9392513880876E+00
 0.8476636395077E+00
 0.7546611692606E+00
 0.6597912883654E+00
 0.5610961463554E+00
 0.4788557410171E+00
 0.4480660249018E+00
 0.4978025938941E+00
 0.2746897647355E+01
 0.3592717088384E+01
 0.3158997577988E+01
 0.2583488729544E+01
 0.2133317319622E+01
 0.1781284942314E+01
 0.1512199280561E+01
 0.1318993591981E+01
 0.1176305943797E+01
 0.1062067269524E+01
 0.9626684125522E+00
 0.8697436519119E+00
 0.7775653614735E+00
 0.6830837998516E+00
 0.5859936423015E+00
 0.4863610090769E+00
 0.3818713898896E+00
 0.2985925317932E+00
 0.2691426030959E+00
 0.3171358389501E+00
 0.3195231638696E+01
 0.3841538746753E+01
 0.3018921856944E+01
 0.2411471451941E+01
 0.1963967261959E+01
 0.1588357364155E+01
 0.1306361491047E+01
 0.1121593155002E+01
 0.9959681030942E+00
 0.8956520530901E+00
 0.8038999749710E+00
 0.7134739066288E+00
 0.6202361130071E+00
 0.5228332657415E+00
 0.4226208833507E+00
 0.3208951610140E+00
 0.2146778937704E+00
 0.1366752397333E+00
 0.1134725141672E+00
 0.1599396098254E+00
 0.3736001240816E+01
 0.3663095659319E+01
 0.2754803851568E+01
 0.2249945323908E+01
 0.1788460539961E+01
 0.1369128497059E+01
 0.1074701701760E+01
 0.9198259533162E+00
 0.8234248523912E+00
 0.7386506398996E+00
 0.6527740811118E+00
 0.5633005160393E+00
 0.4684419595652E+00
 0.3682014167246E+00
 0.2659580159055E+00
 0.1659160446462E+00
 0.6720655949453E-01
 0.4223121067054E-02
 0.7600146834584E-02
 0.4664846250618E-01
 0.3284289733172E+00
 0.2561481449593E+00
 0.1959591850832E+00
 0.1444654358605E+00
 0.1014471574036E+00
 0.6755209405913E-01
 0.4288066489415E-01
 0.2699541005814E-01
 0.1894913144292E-01
 0.1737321377817E-01
 0.2049737728867E-01
 0.2628104118623E-01
 0.3269373380727E-01
 0.3794463265580E-01
 0.4070081660324E-01
 0.4027357462641E-01
 0.3670969822485E-01
 0.3075683945153E-01
 0.2374865615229E-01
 0.1736869547098E-01
 0.3763077377066E+00
 0.3100041569170E+00
 0.2440048007647E+00
 0.1869149735717E+00
 0.1393103888622E+00
 0.1013823260896E+00
 0.7324528445984E-01
 0.5462219211042E-01
 0.4473818596158E-01
 0.4228753864712E-01
 0.4545778102733E-01
 0.5205420657897E-01
 0.5972606156798E-01
 0.6624178069422E-01
 0.6979281519085E-01
 0.6928134481388E-01
 0.6450677275757E-01
 0.5617509547073E-01
 0.4570912357679E-01
 0.3515326850587E-01
 0.4259221541193E+00
 0.3612363227596E+00
 0.2953147254029E+00
 0.2344140022897E+00
 0.1820975748269E+00
 0.1394663638862E+00
 0.1069753824100E+00
 0.8463146852992E-01
 0.7191753937465E-01
 0.6771771168122E-01
 0.7029559417506E-01
 0.7737151838661E-01
 0.8631539969015E-01
 0.9443779320037E-01
 0.9936120353591E-01
 0.9942268391990E-01
 0.9399907689688E-01
 0.8361254693362E-01
 0.6974616083164E-01
 0.5443028382165E-01
 0.4796190548215E+00
 0.4148514280545E+00
 0.3488903134942E+00
 0.2859882194885E+00
 0.2297237237085E+00
 0.1822714367184E+00
 0.1447755526250E+00
 0.1177446920678E+00
 0.1010864912736E+00
 0.9403719840317E-01
 0.9509838805714E-01
 0.1020498453271E+00
 0.1120842512254E+00
 0.1220782604010E+00
 0.1290028504872E+00
 0.1304412572847E+00
 0.1250982977515E+00
 0.1131001252932E+00
 0.9588317809226E-01
 0.7557485571870E-01
 0.5374036028867E+00
 0.4722896530526E+00
 0.4061777666202E+00
 0.3418504476963E+00
 0.2824461402601E+00
 0.2304450857496E+00
 0.1876076965315E+00
 0.1550424285989E+00
 0.1332282614558E+00
 0.1219362015607E+00
 0.1201222118877E+00
 0.1258608248341E+00
 0.1363849281705E+00
 0.1482800941915E+00
 0.1578713226685E+00
 0.1618146473912E+00
 0.1578120551981E+00
 0.1452132828798E+00
 0.1251630332373E+00
 0.1000594300730E+00
 0.5992364265985E+00
 0.5340732135298E+00
 0.4679765409744E+00
 0.4027174715633E+00
 0.3408431314992E+00
 0.2847975811637E+00
 0.2366528326043E+00
 0.1980242159728E+00
 0.1699916657980E+00
 0.1529809890460E+00
 0.1466061528763E+00
 0.1495157012358E+00
 0.1593070974565E+00
 0.1725799318638E+00
 0.1852031110744E+00
 0.1928731830496E+00
 0.1919751155461E+00
 0.1805607131985E+00
 0.1589993100683E+00
 0.1298159590898E+00
 0.6650381017782E+00
 0.6004549270855E+00
 0.5348349877031E+00
 0.4692522524289E+00
 0.4056681703779E+00
 0.3462782495209E+00
 0.2932183537053E+00
 0.2484119980689E+00
 0.2134433573646E+00
 0.1894011412206E+00
 0.1766800572242E+00
 0.1747519386421E+00
 0.1819490859286E+00
 0.1953302029887E+00
 0.2107248166522E+00
 0.2230910223970E+00
 0.2273354732306E+00
 0.2195960563388E+00
 0.1985977939309E+00
 0.1662739313606E+00
 0.7346568387066E+00
 0.6714873687161E+00
 0.6070649857881E+00
 0.5419758009875E+00
 0.4776422979434E+00
 0.4158942058333E+00
 0.3587245479118E+00
 0.3081418030338E+00
 0.2660421956823E+00
 0.2340565740315E+00
 0.2133470037540E+00
 0.2043447543121E+00
 0.2064412214107E+00
 0.2176741824921E+00
 0.2344910480977E+00
 0.2517334150155E+00
 0.2630968128345E+00
 0.2623683655917E+00
 0.2454075881745E+00
 0.2120682435874E+00
 0.8078631481000E+00
 0.7470604533053E+00
 0.6847535453387E+00
 0.6211790327883E+00
 0.5572883357843E+00
 0.4944914488100E+00
 0.4344874270853E+00
 0.3791556911572E+00
 0.3304633502557E+00
 0.2903517830364E+00
 0.2605746074201E+00
 0.2424645761727E+00
 0.2366132373819E+00
 0.2424622070710E+00
 0.2578351617546E+00
 0.2784950974312E+00
 0.2979406516511E+00
 0.3079440952148E+00
 0.3004904850413E+00
 0.2709509188368E+00
 0.8843522860216E+00
 0.8269343993042E+00
 0.7677887541502E+00
 0.7069052858841E+00
 0.6448464373508E+00
 0.5826038688092E+00
 0.5214965866492E+00
 0.4631085693234E+00
 0.4092422928747E+00
 0.3618626609136E+00
 0.3230065848655E+00
 0.2946321424698E+00
 0.2783769485486E+00
 0.2751908921641E+00
 0.2848099246279E+00
 0.3050528988156E+00
 0.3309788294359E+00
 0.3541699663172E+00
 0.3632129803406E+00
 0.3469119614188E+00
 0.9637502276989E+00
 0.9107561607447E+00
 0.8558734659159E+00
 0.7989386845004E+00
 0.7402187445002E+00
 0.6803360434794E+00
 0.6202153063556E+00
 0.5610571454533E+00
 0.5043291298227E+00
 0.4517602264647E+00
 0.4053222230343E+00
 0.3671780721405E+00
 0.3395696391556E+00
 0.3246039041351E+00
 0.3238759484369E+00
 0.3378369855588E+00
 0.3647740445995E+00
 0.3992194571200E+00
 0.4298781140394E+00
 0.4396715340440E+00
 0.1045607381142E+01
 0.9980424930013E+00
 0.9485138064036E+00
 0.8967915162204E+00
 0.8429442958723E+00
 0.7873084918117E+00
 0.7304643665882E+00
 0.6732298080673E+00
 0.6166710447107E+00
 0.5621254691830E+00
 0.5112295250180E+00
 0.4659421842077E+00
 0.4285497455111E+00
 0.4016278076698E+00
 0.3879164072073E+00
 0.3900257505756E+00
 0.4098069724188E+00
 0.4470448629679E+00
 0.4965382852986E+00
 0.5421979149947E+00
 0.1129391400580E+01
 0.1088141085366E+01
 0.1044957361894E+01
 0.9996132108951E+00
 0.9520727517526E+00
 0.9024878320843E+00
 0.8511906730478E+00
 0.7986958773501E+00
 0.7457158171861E+00
 0.6931899095903E+00
 0.6423271314257E+00
 0.5946607081465E+00
 0.5521132155276E+00
 0.5170681956193E+00
 0.4924387269151E+00
 0.4817085853666E+00
 0.4888866328784E+00
 0.5181982529055E+00
 0.5730496116138E+00
 0.6509181376147E+00
 0.1214515788086E+01
 0.1180280185038E+01
 0.1144248156173E+01
 0.1106240405265E+01
 0.1066194691545E+01
 0.1024176866994E+01
 0.9803836240422E+00
 0.9351489471010E+00
 0.8889597371247E+00
 0.8424835181034E+00
 0.7966107234962E+00
 0.7525149525490E+00
 0.7117366122722E+00
 0.6762989226287E+00
 0.6488714300092E+00
 0.6330080652184E+00
 0.6335095565377E+00
 0.6570255543165E+00
 0.7131346618874E+00
 0.8174166692901E+00
 0.1300366486301E+01
 0.1273633999204E+01
 0.1245325756325E+01
 0.1215331541671E+01
 0.1183612986323E+01
 0.1150220681105E+01
 0.1115303437576E+01
 0.1079118609969E+01
 0.1042048633312E+01
 0.1004627357250E+01
 0.9675797267946E+00
 0.9318795994533E+00
 0.8988331774461E+00
 0.8702004924519E+00
 0.8483766903352E+00
 0.8366731085310E+00
 0.8397786764884E+00
 0.8645760583193E+00
 0.9217815098216E+00
 0.1030076428010E+01
 0.1386322299586E+01
 0.1367368969458E+01
 0.1347107608667E+01
 0.1325499548357E+01
 0.1302550660223E+01
 0.1278329341328E+01
 0.1252978477023E+01
 0.1226727221829E+01
 0.1199906543059E+01
 0.1172971534754E+01
 0.1146533446481E+01
 0.1121405096527E+01
 0.1098664929630E+01
 0.1079747780879E+01
 0.1066575131358E+01
 0.1061745774816E+01
 0.1068821213127E+01
 0.1092759771793E+01
 0.1140566186533E+01
 0.1221448712535E+01
 0.1471772197896E+01
 0.1460675335304E+01
 0.1448547328340E+01
 0.1435411941210E+01
 0.1421318808053E+01
 0.1406359509595E+01
 0.1390678972221E+01
 0.1374485692715E+01
 0.1358063293663E+01
 0.1341785229118E+01
 0.1326134109053E+01
 0.1311726984216E+01
 0.1299347862662E+01
 0.1289988401000E+01
 0.1284896399499E+01
 0.1285627416877E+01
 0.1294081473749E+01
 0.1312467626607E+01
 0.1342980223635E+01
 0.1386795358465E+01
 0.1556128041086E+01
 0.1552784273618E+01
 0.1548661237083E+01
 0.1543829685576E+01
 0.1538370356698E+01
 0.1532386910965E+01
 0.1526014662714E+01
 0.1519427023984E+01
 0.1512840915845E+01
 0.1506521777614E+01
 0.1500788175251E+01
 0.1496015249134E+01
 0.1492635077211E+01
 0.1491129944437E+01
 0.1492010486720E+01
 0.1495762616733E+01
 0.1502731267465E+01
 0.1512876269004E+01
 0.1525315041134E+01
 0.1537713395619E+01
 0.1638835079981E+01
 0.1642980244310E+01
 0.1646544380529E+01
 0.1649627007339E+01
 0.1652321370654E+01
 0.1654724067864E+01
 0.1656940319318E+01
 0.1659085741540E+01
 0.1661285088835E+01
 0.1663667817711E+01
 0.1666359598231E+01
 0.1669467989961E+01
 0.1673059234004E+01
 0.1677121227799E+01
 0.1681504921686E+01
 0.1685832513531E+01
 0.1689356775643E+01
 0.1690760585866E+01
 0.1687919979239E+01
 0.1677621355740E+01
 0.1719380549115E+01
 0.1730610236169E+01
 0.1741381262139E+01
 0.1751803386492E+01
 0.1761961857770E+01
 0.1771924824811E+01
 0.1781745447159E+01
 0.1791459395161E+01
 0.1801078017075E+01
 0.1810576784048E+01
 0.1819878011171E+01
 0.1828826212247E+01
 0.1837153772229E+01
 0.1844434004748E+01
 0.1850018483099E+01
 0.1852956826960E+01
 0.1851902780070E+01
 0.1845024766980E+01
 0.1829955295878E+01
 0.1803863756607E+01
 0.1797297443619E+01
 0.1815085965185E+01
 0.1832447658698E+01
 0.1849483895319E+01
 0.1866251845908E+01
 0.1882771160485E+01
 0.1899023739436E+01
 0.1914948333576E+01
 0.1930430370400E+01
 0.1945286836357E+01
 0.1959245654562E+01
 0.1971918777571E+01
 0.1982768239460E+01
 0.1991064915628E+01
 0.1995841180533E+01
 0.1995841823476E+01
 0.1989483163671E+01
 0.1974836939195E+01
 0.1949664398428E+01
 0.1911557550575E+01
 0.1872162051625E+01
 0.1895879843013E+01
 0.1919104269492E+01
 0.1941908923854E+01
 0.1964305025968E+01
 0.1986246952357E+01
 0.2007630924878E+01
 0.2028288607545E+01
 0.2047976337478E+01
 0.2066360261427E+01
 0.2082997511767E+01
 0.2097313655380E+01
 0.2108577053328E+01
 0.2115871604719E+01
 0.2118070747033E+01
 0.2113817444100E+01
 0.2101516334651E+01
 0.2079343483908E+01
 0.2045273848998E+01
 0.1997070489370E+01
 0.1943604792886E+01
 0.1972540755716E+01
 0.2000812641644E+01
 0.2028449619834E+01
 0.2055402132099E+01
 0.2081546554677E+01
 0.2106684193182E+01
 0.2130535959022E+01
 0.2152733663271E+01
 0.2172808691292E+01
 0.2190178855802E+01
 0.2204134440278E+01
 0.2213824825044E+01
 0.2218247585067E+01
 0.2216242366434E+01
 0.2206491707187E+01
 0.2187529425214E+01
 0.2157753207957E+01
 0.2115426103074E+01
 0.2058648686774E+01
 0.2011307563311E+01
 0.2044689735931E+01
 0.2077129751206E+01
 0.2108600112344E+01
 0.2138979210293E+01
 0.2168056598172E+01
 0.2195534013640E+01
 0.2221023099084E+01
 0.2244040908965E+01
 0.2264004389757E+01
 0.2280225130494E+01
 0.2291905828580E+01
 0.2298140041780E+01
 0.2297916755926E+01
 0.2290130823846E+01
 0.2273599073465E+01
 0.2247079679994E+01
 0.2209289319852E+01
 0.2158914017039E+01
 0.2094627234439E+01
 0.2075001328051E+01
 0.2112013740664E+01
 0.2147699298658E+01
 0.2181965641181E+01
 0.2214611039494E+01
 0.2245332621688E+01
 0.2273731443995E+01
 0.2299314930535E+01
 0.2321497983050E+01
 0.2339604321371E+01
 0.2352869686890E+01
 0.2360448524103E+01
 0.2361425618271E+01
 0.2354833796879E+01
 0.2339678050431E+01
 0.2314965222923E+01
 0.2279736877153E+01
 0.2233102461081E+01
 0.2174272973026E+01
 0.2102596602957E+01
 0.2134463224176E+01
 0.2174259442607E+01
 0.2212242637494E+01
 0.2248250318554E+01
 0.2281994543338E+01
 0.2313076587598E+01
 0.2340998212658E+01
 0.2365170011695E+01
 0.2384918600986E+01
 0.2399494635682E+01
 0.2408083510789E+01
 0.2409820385226E+01
 0.2403810877745E+01
 0.2389158419049E+01
 0.2364998840632E+01
 0.2330542436722E+01
 0.2285123614764E+01
 0.2228257610642E+01
 0.2159699919439E+01
 0.2079496396349E+01
 0.2189512100298E+01
 0.2231226259729E+01
 0.2270549883093E+01
 0.2307245653012E+01
 0.2340933492926E+01
 0.2371116500412E+01
 0.2397200358245E+01
 0.2418508004868E+01
 0.2434292371223E+01
 0.2443749710193E+01
 0.2446035530330E+01
 0.2440284674205E+01
 0.2425636719786E+01
 0.2401267718343E+01
 0.2366429494289E+01
 0.2320498622547E+01
 0.2263038907158E+01
 0.2193882963121E+01
 0.2113234261598E+01
 0.2021772876534E+01
 0.2240002522262E+01
 0.2282759181890E+01
 0.2322472096616E+01
 0.2358820721446E+01
 0.2391325100431E+01
 0.2419388340697E+01
 0.2442325136551E+01
 0.2459382066357E+01
 0.2469754285291E+01
 0.2472601784490E+01
 0.2467067259180E+01
 0.2452296819288E+01
 0.2427464285487E+01
 0.2391799728761E+01
 0.2344623459447E+01
 0.2285388245193E+01
 0.2213736004334E+01
 0.2129582554848E+01
 0.2033261653724E+01
 0.1925765270848E+01
 0.2285817824930E+01
 0.2328743109394E+01
 0.2367916118187E+01
 0.2402914845436E+01
 0.2433148721943E+01
 0.2457920061184E+01
 0.2476460536896E+01
 0.2487955058564E+01
 0.2491559852569E+01
 0.2486418530289E+01
 0.2471678001425E+01
 0.2446504809982E+01
 0.2410101651696E+01
 0.2361723417462E+01
 0.2300692112912E+01
 0.2226410626799E+01
 0.2138377188555E+01
 0.2036209063164E+01
 0.1919710152101E+01
 0.1789145329359E+01
 0.2326864301094E+01
 0.2369102516880E+01
 0.2406843668190E+01
 0.2439532160851E+01
 0.2466454430994E+01
 0.2486814175035E+01
 0.2499773045000E+01
 0.2504474666929E+01
 0.2500060791727E+01
 0.2485683784348E+01
 0.2460516818515E+01
 0.2423761269295E+01
 0.2374649425356E+01
 0.2312439429842E+01
 0.2236397879726E+01
 0.2145762953861E+01
 0.2039676114649E+01
 0.1917059204811E+01
 0.1776387857356E+01
 0.1615295208454E+01
 0.2363071692343E+01
 0.2403809016478E+01
 0.2439271202545E+01
 0.2468730418910E+01
 0.2491340524439E+01
 0.2506215735068E+01
 0.2512469506140E+01
 0.2509233999845E+01
 0.2495670668398E+01
 0.2470976257004E+01
 0.2434384768686E+01
 0.2385163446578E+01
 0.2322598892904E+01
 0.2245967389257E+01
 0.2154480385045E+01
 0.2047190394360E+01
 0.1922829597784E+01
 0.1779523923625E+01
 0.1614231675656E+01
 0.1421333258825E+01
 0.2394392065955E+01
 0.2432871178643E+01
 0.2465245858853E+01
 0.2490585217683E+01
 0.2507911144920E+01
 0.2516270988155E+01
 0.2514766166436E+01
 0.2502561287388E+01
 0.2478885590092E+01
 0.2443030620310E+01
 0.2394343362092E+01
 0.2332211190717E+01
 0.2256032889811E+01
 0.2165167733414E+01
 0.2058851408107E+01
 0.1936062002333E+01
 0.1795310123683E+01
 0.1634304627861E+01
 0.1449425339470E+01
 0.1234868877305E+01
 0.2420794702244E+01
 0.2456309878497E+01
 0.2484816568528E+01
 0.2505162812584E+01
 0.2516257499544E+01
 0.2517123301779E+01
 0.2506903629597E+01
 0.2484854423375E+01
 0.2450333191486E+01
 0.2402787490501E+01
 0.2341739777499E+01
 0.2266762873602E+01
 0.2177438756734E+01
 0.2073292109401E+01
 0.1953688762383E+01
 0.1817689320937E+01
 0.1663854392461E+01
 0.1490036764952E+01
 0.1293294673924E+01
 0.1071030973271E+01
 0.2442288878430E+01
 0.2474180141393E+01
 0.2498051670291E+01
 0.2512531983692E+01
 0.2516461109664E+01
 0.2508901049032E+01
 0.2489105973155E+01
 0.2456489444737E+01
 0.2410598916387E+01
 0.2351095535135E+01
 0.2277732273215E+01
 0.2190322347736E+01
 0.2088690315239E+01
 0.1972599356689E+01
 0.1841650802937E+01
 0.1695159554958E+01
 0.1532034067204E+01
 0.1350763682177E+01
 0.1149889206458E+01
 0.9293561197310E+00
 0.2458928966241E+01
 0.2486567376918E+01
 0.2505027999849E+01
 0.2512752248683E+01
 0.2508587264608E+01
 0.2491718278543E+01
 0.2461584970191E+01
 0.2417819109843E+01
 0.2360206109665E+01
 0.2288659535085E+01
 0.2203196168577E+01
 0.2103902043715E+01
 0.1990884052365E+01
 0.1864205909859E+01
 0.1723813084582E+01
 0.1569462170891E+01
 0.1400692775530E+01
 0.1216922081697E+01
 0.1017831324537E+01
 0.8040984290867E+00
 0.2470824540914E+01
 0.2493588862553E+01
 0.2505822014201E+01
 0.2505863572484E+01
 0.2492679779899E+01
 0.2465674946537E+01
 0.2424539260459E+01
 0.2369161009208E+01
 0.2299584101342E+01
 0.2215985103970E+01
 0.2118650706693E+01
 0.2007948025956E+01
 0.1884287822308E+01
 0.1748086744175E+01
 0.1599741290523E+01
 0.1439633601945E+01
 0.1268187358228E+01
 0.1085946786933E+01
 0.8932993609250E+00
 0.6897104163748E+00
 0.2478138541219E+01
 0.2495366601221E+01
 0.2500476202942E+01
 0.2491866725383E+01
 0.2468772620657E+01
 0.2430906058702E+01
 0.2378240716354E+01
 0.2310921184967E+01
 0.2229237165972E+01
 0.2133610442072E+01
 0.2024578520943E+01
 0.1902774928870E+01
 0.1768913611336E+01
 0.1623790587556E+01
 0.1468321649765E+01
 0.1303636304903E+01
 0.1131229239452E+01
 0.9530512799595E+00
 0.7710163271567E+00
 0.5832127757394E+00
 0.2481116700960E+01
 0.2492088075833E+01
 0.2489121427425E+01
 0.2470941459599E+01
 0.2437216770827E+01
 0.2388006316583E+01
 0.2323530420876E+01
 0.2244144281522E+01
 0.2150339394465E+01
 0.2042737069278E+01
 0.1922075565442E+01
 0.1789200099427E+01
 0.1645068852877E+01
 0.1490792640014E+01
 0.1327731141160E+01
 0.1157670829289E+01
 0.9830944717283E+00
 0.8074968078946E+00
 0.6355559272458E+00
 0.4711011457137E+00
 0.2480141995931E+01
 0.2484009443073E+01
 0.2471900900418E+01
 0.2443336596336E+01
 0.2398531461264E+01
 0.2337762236442E+01
 0.2261394581838E+01
 0.2169927498436E+01
 0.2063995644427E+01
 0.1944354559690E+01
 0.1811863561573E+01
 0.1667479093235E+01
 0.1512272580342E+01
 0.1347491577315E+01
 0.1174689902865E+01
 0.9959615084986E+00
 0.8143309468160E+00
 0.6344241087019E+00
 0.4639188151926E+00
 0.3191456728845E+00
 0.2475688938193E+01
 0.2471054617648E+01
 0.2448565656187E+01
 0.2409232125712E+01
 0.2353333962042E+01
 0.2281140807062E+01
 0.2193095408592E+01
 0.2089804672267E+01
 0.1972010757508E+01
 0.1840561800371E+01
 0.1696392682721E+01
 0.1540524680378E+01
 0.1374097016317E+01
 0.1198449601253E+01
 0.1015285869563E+01
 0.8269626308589E+00
 0.6370033809890E+00
 0.4510985906817E+00
 0.2794629462758E+00
 0.1463303407496E+00
</DataArray>
<CellData Tensors="'E_Centroid','S_Centroid'">
<DataArray type="Float64" Name="E_Centroid" NumberOfComponents="4" ComponentName0="E11" ComponentName1="E22" ComponentName2="E33" ComponentName3="E12" format="ascii">
-0.8406319958524E-03  0.6246649994115E-02  0.0000000000000E+00  0.1669525988999E-02
-0.1482938671528E-02  0.5502334215604E-02  0.0000000000000E+00 -0.4868364747574E-04
-0.1306839685104E-02  0.5305602415950E-02  0.0000000000000E+00  0.3694840274217E-04
-0.1315959829468E-02  0.5249106459047E-02  0.0000000000000E+00  0.8969118516586E-05
-0.1301789621976E-02  0.5210848571157E-02  0.0000000000000E+00  0.1063708814649E-04
-0.1294552631411E-02  0.5177811787266E-02  0.0000000000000E+00  0.1350067193809E-04
-0.1284986437928E-02  0.5140487893976E-02  0.0000000000000E+00  0.1778488691238E-04
-0.1274029281849E-02  0.5096461282451E-02  0.0000000000000E+00  0.2220820087023E-04
-0.1261097316600E-02  0.5044802104601E-02  0.0000000000000E+00  0.2650729885800E-04
-0.1246260055510E-02  0.4985449862753E-02  0.0000000000000E+00  0.3056067004471E-04
-0.1229553353951E-02  0.4918626535804E-02  0.0000000000000E+00  0.3435971111404E-04
-0.1211059652917E-02  0.4844642142792E-02  0.0000000000000E+00  0.3793580018718E-04
-0.1190850112054E-02  0.4763785693866E-02  0.0000000000000E+00  0.4133997589975E-04
-0.1168980519640E-02  0.4676279033194E-02  0.0000000000000E+00  0.4462921499004E-04
-0.1145484958307E-02  0.4582258712489E-02  0.0000000000000E+00  0.4785901642317E-04
-0.1120376053264E-02  0.4481775801343E-02  0.0000000000000E+00  0.5107790162261E-04
-0.1093648497649E-02  0.4374806877651E-02  0.0000000000000E+00  0.5432554822805E-04
-0.1065284287204E-02  0.4261284610103E-02  0.0000000000000E+00  0.5762177101554E-04
-0.1035261988890E-02  0.4141120695603E-02  0.0000000000000E+00  0.6096837513919E-04
-0.1003569858031E-02  0.4014272923644E-02  0.0000000000000E+00  0.6433236532677E-04
-0.9702265982185E-03  0.3880823224257E-02  0.0000000000000E+00  0.6762435380769E-04
-0.9353249857124E-03  0.3741150682615E-02  0.0000000000000E+00  0.7064493149342E-04
-0.8990329444346E-03  0.3596384998633E-02  0.0000000000000E+00  0.7252447314696E-04
-0.8614790446983E-03  0.3448438193254E-02  0.0000000000000E+00  0.6962644691302E-04
-0.8223703400117E-03  0.3295913346024E-02  0.0000000000000E+00  0.5593919558405E-04
-0.7808755040941E-03  0.3133544928287E-02  0.0000000000000E+00  0.2863517774490E-04
-0.7362273508104E-03  0.2957499310821E-02  0.0000000000000E+00 -0.9636342662267E-05
-0.6883233309530E-03  0.2767705791525E-02  0.0000000000000E+00 -0.5357246126397E-04
-0.6378289534376E-03  0.2567563265710E-02  0.0000000000000E+00 -0.9819407420661E-04
-0.5859966931930E-03  0.2362791386770E-02  0.0000000000000E+00 -0.1404514803021E-03
-0.5344186243302E-03  0.2160370320562E-02  0.0000000000000E+00 -0.1795955161009E-03
-0.4848461034593E-03  0.1967920231268E-02  0.0000000000000E+00 -0.2168614164879E-03
-0.4392410350188E-03  0.1793295565808E-02  0.0000000000000E+00 -0.2542168593713E-03
-0.3999543477036E-03  0.1646327565086E-02  0.0000000000000E+00 -0.2936180952707E-03
-0.3701489855507E-03  0.1540726610636E-02  0.0000000000000E+00 -0.3398686357320E-03
-0.3516201466272E-03  0.1491840932929E-02  0.0000000000000E+00 -0.4029618269282E-03
-0.3529803731666E-03  0.1518909062017E-02  0.0000000000000E+00 -0.4988092029253E-03
-0.3506207828319E-03  0.1640377507512E-02  0.0000000000000E+00 -0.6566220353692E-03
-0.4868606449155E-03  0.1937117552289E-02  0.0000000000000E+00 -0.8946195895917E-03
 0.2733660738063E-04  0.2303628803723E-02  0.0000000000000E+00 -0.1772449767495E-02
-0.2747519060779E-02  0.3147670168740E-02  0.0000000000000E+00 -0.1291378634337E-02
-0.6055545895627E-03  0.5462100115437E-02  0.0000000000000E+00  0.1664711610095E-02
-0.1274137443271E-02  0.5438186143277E-02  0.0000000000000E+00  0.5762175025064E-03
-0.1299455946172E-02  0.5173674549605E-02  0.0000000000000E+00  0.1045922467509E-03
-0.1262686032536E-02  0.5076619900460E-02  0.0000000000000E+00  0.7252283105012E-04
-0.1255681620316E-02  0.5019694930666E-02  0.0000000000000E+00  0.4955536284609E-04
-0.1244017243039E-02  0.4973954538494E-02  0.0000000000000E+00  0.5187226783551E-04
-0.1233381420285E-02  0.4929380537400E-02  0.0000000000000E+00  0.5962320780962E-04
-0.1221334799262E-02  0.4881159413782E-02  0.0000000000000E+00  0.6996623693851E-04
-0.1207888716322E-02  0.4827421036506E-02  0.0000000000000E+00  0.8088813062416E-04
-0.1192835702951E-02  0.4767425809597E-02  0.0000000000000E+00  0.9170755225923E-04
-0.1176171847308E-02  0.4700984138017E-02  0.0000000000000E+00  0.1021521634405E-03
-0.1157914116486E-02  0.4628133267787E-02  0.0000000000000E+00  0.1121803052288E-03
-0.1138096770373E-02  0.4548985078577E-02  0.0000000000000E+00  0.1218535761136E-03
-0.1116748361322E-02  0.4463647865380E-02  0.0000000000000E+00  0.1312805105924E-03
-0.1093885497599E-02  0.4372190133941E-02  0.0000000000000E+00  0.1405824809461E-03
-0.1069510353986E-02  0.4274628539104E-02  0.0000000000000E+00  0.1498726488358E-03
-0.1043611632943E-02  0.4170932143608E-02  0.0000000000000E+00  0.1592380543941E-03
-0.1016168815458E-02  0.4061041468122E-02  0.0000000000000E+00  0.1687237075768E-03
-0.9871593788792E-03  0.3944896525297E-02  0.0000000000000E+00  0.1783134490520E-03
-0.9565671006809E-03  0.3822484310980E-02  0.0000000000000E+00  0.1878945233278E-03
-0.9243969360789E-03  0.3693913886750E-02  0.0000000000000E+00  0.1971987789807E-03
-0.8906664398223E-03  0.3559538315007E-02  0.0000000000000E+00  0.2055851108482E-03
-0.8551654286156E-03  0.3419973440836E-02  0.0000000000000E+00  0.2114749184365E-03
-0.8174543737293E-03  0.3275463385538E-02  0.0000000000000E+00  0.2124636880232E-03
-0.7774548031792E-03  0.3124835342905E-02  0.0000000000000E+00  0.2060745259783E-03
-0.7355074913748E-03  0.2965750444100E-02  0.0000000000000E+00  0.1906988134107E-03
-0.6918573819686E-03  0.2796497468410E-02  0.0000000000000E+00  0.1665848908135E-03
-0.6466327541776E-03  0.2617448467108E-02  0.0000000000000E+00  0.1355743855907E-03
-0.6001277137605E-03  0.2431261038747E-02  0.0000000000000E+00  0.9971600743258E-04
-0.5529368230417E-03  0.2242374697424E-02  0.0000000000000E+00  0.6013370425698E-04
-0.5059336480966E-03  0.2056386440344E-02  0.0000000000000E+00  0.1649502558446E-04
-0.4602865890449E-03  0.1879606819628E-02  0.0000000000000E+00 -0.3288106301899E-04
-0.4174668430154E-03  0.1719052540106E-02  0.0000000000000E+00 -0.9088848532970E-04
-0.3790009708253E-03  0.1582916789640E-02  0.0000000000000E+00 -0.1618465685121E-03
-0.3457458251532E-03  0.1480660734959E-02  0.0000000000000E+00 -0.2521762276016E-03
-0.3195378979675E-03  0.1422574130512E-02  0.0000000000000E+00 -0.3710807428921E-03
-0.2948444173360E-03  0.1417160358761E-02  0.0000000000000E+00 -0.5375059152302E-03
-0.2894700630148E-03  0.1474773496568E-02  0.0000000000000E+00 -0.7531659166980E-03
-0.2042272330744E-03  0.1579599697207E-02  0.0000000000000E+00 -0.1191488155099E-02
-0.5108252475217E-04  0.1479956148636E-02  0.0000000000000E+00 -0.1189547637878E-02
-0.2219396608001E-02  0.2011608203345E-02  0.0000000000000E+00 -0.5840180454237E-03
-0.4540484056327E-03  0.4972451122670E-02  0.0000000000000E+00  0.1461618837318E-02
-0.1068036182198E-02  0.5140304684866E-02  0.0000000000000E+00  0.8290953966510E-03
-0.1222720303247E-02  0.5011901668835E-02  0.0000000000000E+00  0.2885742695239E-03
-0.1213691903707E-02  0.4892688581231E-02  0.0000000000000E+00  0.1404470609811E-03
-0.1204133221705E-02  0.4824600467411E-02  0.0000000000000E+00  0.1048608579714E-03
-0.1194062145605E-02  0.4769938377418E-02  0.0000000000000E+00  0.9800947882474E-04
-0.1182444584579E-02  0.4719456106326E-02  0.0000000000000E+00  0.1065717171673E-03
-0.1169922030290E-02  0.4667692632144E-02  0.0000000000000E+00  0.1204581639810E-03
-0.1156071460418E-02  0.4612123742642E-02  0.0000000000000E+00  0.1364648284760E-03
-0.1140857680154E-02  0.4551570040470E-02  0.0000000000000E+00  0.1529281518841E-03
-0.1124229400096E-02  0.4485520274344E-02  0.0000000000000E+00  0.1691982390788E-03
-0.1106188733724E-02  0.4413790434061E-02  0.0000000000000E+00  0.1850545210078E-03
-0.1086745607815E-02  0.4336340280265E-02  0.0000000000000E+00  0.2005037852106E-03
-0.1065910195648E-02  0.4253176961163E-02  0.0000000000000E+00  0.2156583220574E-03
-0.1043684119180E-02  0.4164305460286E-02  0.0000000000000E+00  0.2306706520463E-03
-0.1020057904600E-02  0.4069707488227E-02  0.0000000000000E+00  0.2456910028161E-03
-0.9950105446206E-03  0.3969338221652E-02  0.0000000000000E+00  0.2608351940995E-03
-0.9685123595248E-03  0.3863139344349E-02  0.0000000000000E+00  0.2761563103536E-03
-0.9405286717540E-03  0.3751060922300E-02  0.0000000000000E+00  0.2916106982471E-03
-0.9110226694710E-03  0.3633097234155E-02  0.0000000000000E+00  0.3070071781282E-03
-0.8799534022558E-03  0.3509339977028E-02  0.0000000000000E+00  0.3219105983699E-03
-0.8471913689015E-03  0.3379999016969E-02  0.0000000000000E+00  0.3354016426667E-03
-0.8123033137383E-03  0.3245196671301E-02  0.0000000000000E+00  0.3459784809961E-03
-0.7747688814026E-03  0.3104600506586E-02  0.0000000000000E+00  0.3522554268533E-03
-0.7347423923223E-03  0.2957465834457E-02  0.0000000000000E+00  0.3532048295572E-03
-0.6930726117494E-03  0.2802987066231E-02  0.0000000000000E+00  0.3476144454570E-03
-0.6505036687315E-03  0.2640798615387E-02  0.0000000000000E+00  0.3343966371381E-03
-0.6073300186392E-03  0.2471642831991E-02  0.0000000000000E+00  0.3131104551070E-03
-0.5636271275260E-03  0.2297687886705E-02  0.0000000000000E+00  0.2836372602293E-03
-0.5195268905403E-03  0.2122399515592E-02  0.0000000000000E+00  0.2455085701530E-03
-0.4753633117753E-03  0.1950220889536E-02  0.0000000000000E+00  0.1974262093421E-03
-0.4317607503420E-03  0.1786319110659E-02  0.0000000000000E+00  0.1370751656264E-03
-0.3895657226425E-03  0.1636501016961E-02  0.0000000000000E+00  0.6081111175379E-04
-0.3492713921853E-03  0.1506989661779E-02  0.0000000000000E+00 -0.3650897858301E-04
-0.3108705994599E-03  0.1403974779356E-02  0.0000000000000E+00 -0.1609256306231E-03
-0.2726059260837E-03  0.1332621557291E-02  0.0000000000000E+00 -0.3211929048529E-03
-0.2333949057072E-03  0.1294293507052E-02  0.0000000000000E+00 -0.5225780584565E-03
-0.1837362591098E-03  0.1284847833474E-02  0.0000000000000E+00 -0.7899044901515E-03
-0.6290168219536E-04  0.1220491395630E-02  0.0000000000000E+00 -0.1059928789133E-02
-0.2153362027960E-03  0.1119502047231E-02  0.0000000000000E+00 -0.7148050061664E-03
-0.1862328273109E-02  0.1584081224716E-02  0.0000000000000E+00 -0.6354662009317E-03
-0.3551450519142E-03  0.4600766654224E-02  0.0000000000000E+00  0.1247611006304E-02
-0.8976438890129E-03  0.4818351720689E-02  0.0000000000000E+00  0.9016900459488E-03
-0.1117725943273E-02  0.4792697962064E-02  0.0000000000000E+00  0.4391038658702E-03
-0.1152525743799E-02  0.4697362143346E-02  0.0000000000000E+00  0.2293423390722E-03
-0.1150507765515E-02  0.4623630864436E-02  0.0000000000000E+00  0.1658451623719E-03
-0.1142765676209E-02  0.4564447088198E-02  0.0000000000000E+00  0.1510614249582E-03
-0.1131901708606E-02  0.4509864913209E-02  0.0000000000000E+00  0.1574008511496E-03
-0.1119325573859E-02  0.4455447521033E-02  0.0000000000000E+00  0.1732745495665E-03
-0.1105373240225E-02  0.4398474964890E-02  0.0000000000000E+00  0.1930139526597E-03
-0.1090107117118E-02  0.4337560408917E-02  0.0000000000000E+00  0.2141319135627E-03
-0.1073562652983E-02  0.4271990461709E-02  0.0000000000000E+00  0.2354581980864E-03
-0.1055753271702E-02  0.4201420872507E-02  0.0000000000000E+00  0.2565378868662E-03
-0.1036689384805E-02  0.4125692333322E-02  0.0000000000000E+00  0.2772699253624E-03
-0.1016372854534E-02  0.4044727875039E-02  0.0000000000000E+00  0.2977329064660E-03
-0.9947951385887E-03  0.3958476672834E-02  0.0000000000000E+00  0.3180812093892E-03
-0.9719354961976E-03  0.3866886750889E-02  0.0000000000000E+00  0.3384799501299E-03
-0.9477605825861E-03  0.3769896063798E-02  0.0000000000000E+00  0.3590572122490E-03
-0.9222258187273E-03  0.3667439808602E-02  0.0000000000000E+00  0.3798625703810E-03
-0.8952753617725E-03  0.3559464655311E-02  0.0000000000000E+00  0.4008213773530E-03
-0.8668383769318E-03  0.3445952104997E-02  0.0000000000000E+00  0.4216724174593E-03
-0.8368033026419E-03  0.3326939579777E-02  0.0000000000000E+00  0.4418590035200E-03
-0.8049110965118E-03  0.3202462550787E-02  0.0000000000000E+00  0.4603970606218E-03
-0.7706465874031E-03  0.3072348796824E-02  0.0000000000000E+00  0.4760794878977E-03
-0.7335724462632E-03  0.2936131307075E-02  0.0000000000000E+00  0.4881466409373E-03
-0.6940125498923E-03  0.2793461435915E-02  0.0000000000000E+00  0.4960924057647E-03
-0.6530033545362E-03  0.2644399537639E-02  0.0000000000000E+00  0.4986821134480E-03
-0.6114809830238E-03  0.2489370948087E-02  0.0000000000000E+00  0.4939758197017E-03
-0.5698119014749E-03  0.2329363792064E-02  0.0000000000000E+00  0.4800418967182E-03
-0.5279269152589E-03  0.2166193775003E-02  0.0000000000000E+00  0.4551933851044E-03
-0.4856319847844E-03  0.2002566564556E-02  0.0000000000000E+00  0.4177070115364E-03
-0.4428396332246E-03  0.1841963115078E-02  0.0000000000000E+00  0.3654412380889E-03
-0.3996825971171E-03  0.1688481128398E-02  0.0000000000000E+00  0.2955123921526E-03
-0.3563569105371E-03  0.1546621843055E-02  0.0000000000000E+00  0.2039123676404E-03
-0.3126636219007E-03  0.1420758126454E-02  0.0000000000000E+00  0.8575649860224E-04
-0.2674919167822E-03  0.1314368015545E-02  0.0000000000000E+00 -0.6404822875283E-04
-0.2187902806509E-03  0.1228607397923E-02  0.0000000000000E+00 -0.2492003174666E-03
-0.1638199377598E-03  0.1160618850345E-02  0.0000000000000E+00 -0.4710224766535E-03
-0.8983460875711E-04  0.1089708325707E-02  0.0000000000000E+00 -0.7174967865350E-03
-0.2052593306967E-04  0.9705925950802E-03  0.0000000000000E+00 -0.8214945229448E-03
-0.3345493396850E-03  0.9515588004555E-03  0.0000000000000E+00 -0.4940976590987E-03
-0.1549829609153E-02  0.1336406632198E-02  0.0000000000000E+00 -0.8229189907561E-03
-0.2872387264493E-03  0.4288149548020E-02  0.0000000000000E+00  0.1054329531603E-02
-0.7613667099379E-03  0.4509416097850E-02  0.0000000000000E+00  0.8905393203178E-03
-0.1007916851661E-02  0.4545426605781E-02  0.0000000000000E+00  0.5367337857728E-03
-0.1080855210225E-02  0.4485424401251E-02  0.0000000000000E+00  0.3173383569480E-03
-0.1093377652324E-02  0.4416955580546E-02  0.0000000000000E+00  0.2314166247223E-03
-0.1090199935651E-02  0.4356499733811E-02  0.0000000000000E+00  0.2076395750066E-03
-0.1081208343565E-02  0.4299970277304E-02  0.0000000000000E+00  0.2111779481017E-03
-0.1069274829504E-02  0.4243918088771E-02  0.0000000000000E+00  0.2277517521115E-03
-0.1055536144910E-02  0.4186092390778E-02  0.0000000000000E+00  0.2502353111606E-03
-0.1040393661674E-02  0.4125102809218E-02  0.0000000000000E+00  0.2751534323976E-03
-0.1024016899889E-02  0.4060163598161E-02  0.0000000000000E+00  0.3008455601452E-03
-0.1006482095300E-02  0.3990837370929E-02  0.0000000000000E+00  0.3265773883970E-03
-0.9878215682558E-03  0.3916883408964E-02  0.0000000000000E+00  0.3521108542536E-03
-0.9680422891880E-03  0.3838161061002E-02  0.0000000000000E+00  0.3774628962661E-03
-0.9471314905978E-03  0.3754573770093E-02  0.0000000000000E+00  0.4027675951301E-03
-0.9250588888661E-03  0.3666039114990E-02  0.0000000000000E+00  0.4281875121031E-03
-0.9017772131269E-03  0.3572476102344E-02  0.0000000000000E+00  0.4538502327672E-03
-0.8772225631464E-03  0.3473807320712E-02  0.0000000000000E+00  0.4797945861132E-03
-0.8513111292932E-03  0.3369965592583E-02  0.0000000000000E+00  0.5059160811637E-03
-0.8239279304035E-03  0.3260903936869E-02  0.0000000000000E+00  0.5318992361718E-03
-0.7948867854759E-03  0.3146587131465E-02  0.0000000000000E+00  0.5571301585721E-03
-0.7638415291155E-03  0.3026907615784E-02  0.0000000000000E+00  0.5806829669422E-03
-0.7302777095183E-03  0.2901554480356E-02  0.0000000000000E+00  0.6016359415991E-03
-0.6938756680381E-03  0.2770099277859E-02  0.0000000000000E+00  0.6195421209271E-03
-0.6550548634622E-03  0.2632502884875E-02  0.0000000000000E+00  0.6339747866146E-03
-0.6148708638090E-03  0.2489319521928E-02  0.0000000000000E+00  0.6434879004860E-03
-0.5742749080855E-03  0.2341410569645E-02  0.0000000000000E+00  0.6455463857301E-03
-0.5336247751635E-03  0.2189884836909E-02  0.0000000000000E+00  0.6372372980753E-03
-0.4927381040440E-03  0.2036274682565E-02  0.0000000000000E+00  0.6157663338124E-03
-0.4511843560283E-03  0.1882676767056E-02  0.0000000000000E+00  0.5784550797310E-03
-0.4085453611826E-03  0.1731755455502E-02  0.0000000000000E+00  0.5224832954545E-03
-0.3645252034479E-03  0.1586624279006E-02  0.0000000000000E+00  0.4445715484853E-03
-0.3188085741023E-03  0.1450555812288E-02  0.0000000000000E+00  0.3407628125439E-03
-0.2706568586354E-03  0.1326340266064E-02  0.0000000000000E+00  0.2069140751577E-03
-0.2185851874844E-03  0.1215328950501E-02  0.0000000000000E+00  0.4015291552315E-04
-0.1607061112005E-03  0.1116381063786E-02  0.0000000000000E+00 -0.1589494945695E-03
-0.9441605591237E-04  0.1023065223861E-02  0.0000000000000E+00 -0.3821428768788E-03
-0.2152826052149E-04  0.9172194385185E-03  0.0000000000000E+00 -0.5829875379630E-03
-0.1856330703554E-04  0.8043218848092E-03  0.0000000000000E+00 -0.6088574822971E-03
-0.3860329076699E-03  0.8458888130655E-03  0.0000000000000E+00 -0.4313063627397E-03
-0.1277219667474E-02  0.1144988534635E-02  0.0000000000000E+00 -0.9866580751932E-03
-0.2382440043784E-03  0.4009390412729E-02  0.0000000000000E+00  0.8851956243508E-03
-0.6522616958386E-03  0.4218463284436E-02  0.0000000000000E+00  0.8412358759600E-03
-0.9035799580612E-03  0.4288473047685E-02  0.0000000000000E+00  0.5907883869701E-03
-0.1003905282588E-02  0.4260606252499E-02  0.0000000000000E+00  0.3922697522262E-03
-0.1032764823129E-02  0.4204022758927E-02  0.0000000000000E+00  0.2968651217509E-03
-0.1036286074521E-02  0.4145895205518E-02  0.0000000000000E+00  0.2657077775278E-03
-0.1030178290543E-02  0.4089292509935E-02  0.0000000000000E+00  0.2665140290007E-03
-0.1019529433927E-02  0.4032723181560E-02  0.0000000000000E+00  0.2832345262730E-03
-0.1006366750108E-02  0.3974653420371E-02  0.0000000000000E+00  0.3077358599325E-03
-0.9915480868884E-03  0.3913936589447E-02  0.0000000000000E+00  0.3357796693323E-03
-0.9754521011365E-03  0.3849826104081E-02  0.0000000000000E+00  0.3652341491780E-03
-0.9582558261380E-03  0.3781861367518E-02  0.0000000000000E+00  0.3950935452171E-03
-0.9400383773702E-03  0.3709759268297E-02  0.0000000000000E+00  0.4249678979276E-03
-0.9208250640364E-03  0.3633337837917E-02  0.0000000000000E+00  0.4547969488858E-03
-0.9006059587061E-03  0.3552466512857E-02  0.0000000000000E+00  0.4846792615150E-03
-0.8793438074496E-03  0.3467037191387E-02  0.0000000000000E+00  0.5147624271844E-03
-0.8569768368925E-03  0.3376949671434E-02  0.0000000000000E+00  0.5451647051385E-03
-0.8334188342644E-03  0.3282109667551E-02  0.0000000000000E+00  0.5759106369231E-03
-0.8085533091636E-03  0.3182428615703E-02  0.0000000000000E+00  0.6068704577300E-03
-0.7822167726544E-03  0.3077821421151E-02  0.0000000000000E+00  0.6376956657762E-03
-0.7541572198797E-03  0.2968180831333E-02  0.0000000000000E+00  0.6677673167313E-03
-0.7239795767885E-03  0.2853302201051E-02  0.0000000000000E+00  0.6962619887369E-03
-0.6912067790840E-03  0.2732830607517E-02  0.0000000000000E+00  0.7224632198715E-03
-0.6556210445868E-03  0.2606431421583E-02  0.0000000000000E+00  0.7460237921351E-03
-0.6176728142591E-03  0.2474284750228E-02  0.0000000000000E+00  0.7663861709372E-03
-0.5783438799788E-03  0.2337213024220E-02  0.0000000000000E+00  0.7818245790701E-03
-0.5385008681646E-03  0.2196288775199E-02  0.0000000000000E+00  0.7893685305898E-03
-0.4984353626283E-03  0.2052640711065E-02  0.0000000000000E+00  0.7854561494754E-03
-0.4578631924303E-03  0.1907551059222E-02  0.0000000000000E+00  0.7665297970189E-03
-0.4161771755183E-03  0.1762614383899E-02  0.0000000000000E+00  0.7292145790893E-03
-0.3727023827645E-03  0.1619798154986E-02  0.0000000000000E+00  0.6701934841812E-03
-0.3268102991470E-03  0.1481344809732E-02  0.0000000000000E+00  0.5860008470504E-03
-0.2778226684828E-03  0.1349467610844E-02  0.0000000000000E+00  0.4730048797661E-03
-0.2247448495573E-03  0.1225694233406E-02  0.0000000000000E+00  0.3282173535334E-03
-0.1662221548061E-03  0.1110014628741E-02  0.0000000000000E+00  0.1511938147805E-03
-0.1011302106020E-03  0.1000050502537E-02  0.0000000000000E+00 -0.5314727785785E-04
-0.3056235931553E-04  0.8894290263578E-03  0.0000000000000E+00 -0.2662741287844E-03
 0.2703849598173E-04  0.7721355541975E-03  0.0000000000000E+00 -0.4305348232240E-03
-0.2177047506668E-04  0.6841378196096E-03  0.0000000000000E+00 -0.4511467704263E-03
-0.3821587041156E-03  0.7531675109479E-03  0.0000000000000E+00 -0.4402309830586E-03
-0.1039301137905E-02  0.9761025903178E-03  0.0000000000000E+00 -0.1099834136635E-02
-0.2013565046745E-03  0.3751901458832E-02  0.0000000000000E+00  0.7379458703446E-03
-0.5639111631601E-03  0.3943777056558E-02  0.0000000000000E+00  0.7757935039380E-03
-0.8084336078974E-03  0.4030873646330E-02  0.0000000000000E+00  0.6138303355043E-03
-0.9260595525287E-03  0.4028074865330E-02  0.0000000000000E+00  0.4506837854669E-03
-0.9698250559989E-03  0.3985566142990E-02  0.0000000000000E+00  0.3579557502294E-03
-0.9811457025786E-03  0.3932602569713E-02  0.0000000000000E+00  0.3232663281715E-03
-0.9787678779314E-03  0.3877619668806E-02  0.0000000000000E+00  0.3221727470443E-03
-0.9699502590498E-03  0.3821582243592E-02  0.0000000000000E+00  0.3389936019767E-03
-0.9577148166786E-03  0.3763902718011E-02  0.0000000000000E+00  0.3650967154697E-03
-0.9434309647653E-03  0.3703836821901E-02  0.0000000000000E+00  0.3957580585370E-03
-0.9277430755538E-03  0.3640784837335E-02  0.0000000000000E+00  0.4284702572609E-03
-0.9109635605764E-03  0.3574325238979E-02  0.0000000000000E+00  0.4619857270518E-03
-0.8932401182608E-03  0.3504171182644E-02  0.0000000000000E+00  0.4957683669449E-03
-0.8746296145135E-03  0.3430121999634E-02  0.0000000000000E+00  0.5296754925769E-03
-0.8551321671494E-03  0.3352025741936E-02  0.0000000000000E+00  0.5637622934640E-03
-0.8347067371817E-03  0.3269754465687E-02  0.0000000000000E+00  0.5981538809194E-03
-0.8132773355789E-03  0.3183189807662E-02  0.0000000000000E+00  0.6329541608751E-03
-0.7907337677655E-03  0.3092218174761E-02  0.0000000000000E+00  0.6681728510954E-03
-0.7669244473192E-03  0.2996725015262E-02  0.0000000000000E+00  0.7036619750141E-03
-0.7416380009732E-03  0.2896583970867E-02  0.0000000000000E+00  0.7390604209507E-03
-0.7145695041000E-03  0.2791626567039E-02  0.0000000000000E+00  0.7737751571699E-03
-0.6853007823421E-03  0.2681590648997E-02  0.0000000000000E+00  0.8070835572464E-03
-0.6534002487185E-03  0.2566126369770E-02  0.0000000000000E+00  0.8383863811168E-03
-0.6187192639232E-03  0.2444996130013E-02  0.0000000000000E+00  0.8673029367888E-03
-0.5816883297455E-03  0.2318520167561E-02  0.0000000000000E+00  0.8930532782982E-03
-0.5431636917381E-03  0.2187645305143E-02  0.0000000000000E+00  0.9136250876410E-03
-0.5038731964044E-03  0.2053512045809E-02  0.0000000000000E+00  0.9257249071175E-03
-0.4640056739088E-03  0.1917195916533E-02  0.0000000000000E+00  0.9253651524097E-03
-0.4231794222294E-03  0.1779745968827E-02  0.0000000000000E+00  0.9084787833213E-03
-0.3806529159395E-03  0.1642333734838E-02  0.0000000000000E+00  0.8712106505426E-03
-0.3355631610993E-03  0.1506336414357E-02  0.0000000000000E+00  0.8099245584011E-03
-0.2870528983264E-03  0.1373260000387E-02  0.0000000000000E+00  0.7211459090005E-03
-0.2342491220910E-03  0.1244463386932E-02  0.0000000000000E+00  0.6017584692682E-03
-0.1761791540059E-03  0.1120586805128E-02  0.0000000000000E+00  0.4500648570610E-03
-0.1119981346826E-03  0.1000904436344E-02  0.0000000000000E+00  0.2679148764091E-03
-0.4218120964211E-04  0.8829748501631E-03  0.0000000000000E+00  0.6420057126397E-04
 0.2690408697881E-04  0.7635145290360E-03  0.0000000000000E+00 -0.1367171795074E-03
 0.6557168890109E-04  0.6486209427949E-03  0.0000000000000E+00 -0.2841173771548E-03
-0.1444458635258E-04  0.5846390177071E-03  0.0000000000000E+00 -0.3407306563619E-03
-0.3395368330180E-03  0.6577164828091E-03  0.0000000000000E+00 -0.4718300983371E-03
-0.8297017899922E-03  0.8186684689312E-03  0.0000000000000E+00 -0.1167734147228E-02
-0.1725881231793E-03  0.3508721083070E-02  0.0000000000000E+00  0.6094802410446E-03
-0.4913340897126E-03  0.3682574362806E-02  0.0000000000000E+00  0.7051165216013E-03
-0.7232211615967E-03  0.3776683142971E-02  0.0000000000000E+00  0.6161272044646E-03
-0.8501831644747E-03  0.3791963253057E-02  0.0000000000000E+00  0.4933965228494E-03
-0.9060057249038E-03  0.3763048094253E-02  0.0000000000000E+00  0.4122383962952E-03
-0.9251659896667E-03  0.3716887187644E-02  0.0000000000000E+00  0.3785384758945E-03
-0.9270407607383E-03  0.3664905086749E-02  0.0000000000000E+00  0.3770590917955E-03
-0.9204808944820E-03  0.3610328286484E-02  0.0000000000000E+00  0.3943253139334E-03
-0.9094772767951E-03  0.3553645886525E-02  0.0000000000000E+00  0.4218846985371E-03
-0.8959305150772E-03  0.3494616332454E-02  0.0000000000000E+00  0.4548183458230E-03
-0.8807812312365E-03  0.3432868312071E-02  0.0000000000000E+00  0.4903811508715E-03
-0.8645037196109E-03  0.3368073873300E-02  0.0000000000000E+00  0.5271385199916E-03
-0.8473323035225E-03  0.3299977318164E-02  0.0000000000000E+00  0.5644290117543E-03
-0.8293671595133E-03  0.3228381035745E-02  0.0000000000000E+00  0.6020327010799E-03
-0.8106253646457E-03  0.3153124388461E-02  0.0000000000000E+00  0.6399602198154E-03
-0.7910655167168E-03  0.3074066079343E-02  0.0000000000000E+00  0.6783114310295E-03
-0.7705983789840E-03  0.2991071711319E-02  0.0000000000000E+00  0.7171742895518E-03
-0.7490892799016E-03  0.2904007615522E-02  0.0000000000000E+00  0.7565455792348E-03
-0.7263512018611E-03  0.2812731466422E-02  0.0000000000000E+00  0.7962671151941E-03
-0.7021284069381E-03  0.2717077291014E-02  0.0000000000000E+00  0.8359807855659E-03
-0.6760749066222E-03  0.2616829000892E-02  0.0000000000000E+00  0.8751320913509E-03
-0.6477631097204E-03  0.2511694589903E-02  0.0000000000000E+00  0.9130766206463E-03
-0.6167993682578E-03  0.2401349279331E-02  0.0000000000000E+00  0.9492585274521E-03
-0.5830688289396E-03  0.2285634064588E-02  0.0000000000000E+00  0.9831869017844E-03
-0.5469440716082E-03  0.2164944693400E-02  0.0000000000000E+00  0.1013830434659E-02
-0.5091277828984E-03  0.2040258106794E-02  0.0000000000000E+00  0.1038913657456E-02
-0.4701819962934E-03  0.1912691576971E-02  0.0000000000000E+00  0.1054906029287E-02
-0.4301724153145E-03  0.1783218187801E-02  0.0000000000000E+00  0.1057548836645E-02
-0.3886232385812E-03  0.1652665365273E-02  0.0000000000000E+00  0.1042452337939E-02
-0.3446922026281E-03  0.1521844560343E-02  0.0000000000000E+00  0.1005456447294E-02
-0.2973922483231E-03  0.1391642232244E-02  0.0000000000000E+00  0.9427572743546E-03
-0.2457416143187E-03  0.1262970037249E-02  0.0000000000000E+00  0.8510031247000E-03
-0.1888365387403E-03  0.1136552463804E-02  0.0000000000000E+00  0.7276780191258E-03
-0.1259560389251E-03  0.1012497352922E-02  0.0000000000000E+00  0.5723078118884E-03
-0.5708563114409E-04  0.8899208504358E-03  0.0000000000000E+00  0.3886774843770E-03
 0.1516957096548E-04  0.7673386557058E-03  0.0000000000000E+00  0.1883202219736E-03
 0.7964143380645E-04  0.6456287359694E-03  0.0000000000000E+00 -0.3975284010582E-05
 0.1018459356752E-03  0.5389898305227E-03  0.0000000000000E+00 -0.1526465473979E-03
 0.8327509003037E-05  0.4919471307653E-03  0.0000000000000E+00 -0.2623891245221E-03
-0.2715189587121E-03  0.5560565858185E-03  0.0000000000000E+00 -0.5024421356605E-03
-0.6420771061177E-03  0.6684914008940E-03  0.0000000000000E+00 -0.1201245863285E-02
-0.1494946353545E-03  0.3275702647129E-02  0.0000000000000E+00  0.4969668385262E-03
-0.4308384698070E-03  0.3432314046371E-02  0.0000000000000E+00  0.6346741334288E-03
-0.6474361355824E-03  0.3527501160392E-02  0.0000000000000E+00  0.6051126359561E-03
-0.7778993509286E-03  0.3555083072003E-02  0.0000000000000E+00  0.5228060465547E-03
-0.8425940315957E-03  0.3538029715843E-02  0.0000000000000E+00  0.4588154792386E-03
-0.8688792767284E-03  0.3499255027683E-02  0.0000000000000E+00  0.4302357891641E-03
-0.8751547917752E-03  0.3451235695325E-02  0.0000000000000E+00  0.4302408242269E-03
-0.8711281706500E-03  0.3398887655467E-02  0.0000000000000E+00  0.4485943832824E-03
-0.8615941798183E-03  0.3343747269590E-02  0.0000000000000E+00  0.4776796261390E-03
-0.8489613863300E-03  0.3286123922756E-02  0.0000000000000E+00  0.5126863590498E-03
-0.8344743905335E-03  0.3225927270662E-02  0.0000000000000E+00  0.5507850266411E-03
-0.8187846351473E-03  0.3162965497042E-02  0.0000000000000E+00  0.5904273512685E-03
-0.8022263053396E-03  0.3097043754997E-02  0.0000000000000E+00  0.6308595940867E-03
-0.7849523904873E-03  0.3027987101923E-02  0.0000000000000E+00  0.6717984641589E-03
-0.7670030169855E-03  0.2955638325695E-02  0.0000000000000E+00  0.7132149141268E-03
-0.7483397751497E-03  0.2879849487261E-02  0.0000000000000E+00  0.7551850557776E-03
-0.7288616011049E-03  0.2800473090504E-02  0.0000000000000E+00  0.7977823009311E-03
-0.7084098060297E-03  0.2717356045412E-02  0.0000000000000E+00  0.8409941806341E-03
-0.6867630890743E-03  0.2630328756271E-02  0.0000000000000E+00  0.8846599137516E-03
-0.6636258370446E-03  0.2539189894267E-02  0.0000000000000E+00  0.9284342712112E-03
-0.6386196530768E-03  0.2443688049121E-02  0.0000000000000E+00  0.9718016968943E-03
-0.6113119419563E-03  0.2343517785173E-02  0.0000000000000E+00  0.1014167502666E-02
-0.5813321016289E-03  0.2238382331834E-02  0.0000000000000E+00  0.1054964913533E-02
-0.5485668946199E-03  0.2128175573030E-02  0.0000000000000E+00  0.1093554155136E-02
-0.5133038077945E-03  0.2013317940159E-02  0.0000000000000E+00  0.1128656782846E-02
-0.4760782777462E-03  0.1894753959431E-02  0.0000000000000E+00  0.1157770934148E-02
-0.4372757843339E-03  0.1773520199652E-02  0.0000000000000E+00  0.1177197549130E-02
-0.3968301411884E-03  0.1650456637537E-02  0.0000000000000E+00  0.1182516505069E-02
-0.3541766991275E-03  0.1526180503018E-02  0.0000000000000E+00  0.1169152013893E-02
-0.3084015589935E-03  0.1401197217655E-02  0.0000000000000E+00  0.1132775038489E-02
-0.2584523774982E-03  0.1275995660560E-02  0.0000000000000E+00  0.1069530411347E-02
-0.2033199464087E-03  0.1151033540866E-02  0.0000000000000E+00  0.9762678012999E-03
-0.1422107660906E-03  0.1026611289260E-02  0.0000000000000E+00  0.8510595960512E-03
-0.7483199683689E-04  0.9026111500449E-03  0.0000000000000E+00  0.6944535349407E-03
-0.2207833163737E-05  0.7784400778809E-03  0.0000000000000E+00  0.5115776215716E-03
 0.7089224942552E-04  0.6541381338176E-03  0.0000000000000E+00  0.3148368210305E-03
 0.1299979025089E-03  0.5343184596830E-03  0.0000000000000E+00  0.1255160017713E-03
 0.1407261989811E-03  0.4369776630296E-03  0.0000000000000E+00 -0.3706441004972E-04
 0.4646685707099E-04  0.3994175832267E-03  0.0000000000000E+00 -0.2028321539700E-03
-0.1873443376619E-03  0.4486636608287E-03  0.0000000000000E+00 -0.5224074812596E-03
-0.4709789407351E-03  0.5236429017185E-03  0.0000000000000E+00 -0.1209966210881E-02
-0.1305126965398E-03  0.3050228940326E-02  0.0000000000000E+00  0.3980386720390E-03
-0.3797124834503E-03  0.3190935093794E-02  0.0000000000000E+00  0.5671834629408E-03
-0.5801187569644E-03  0.3283751487103E-02  0.0000000000000E+00  0.5859337388782E-03
-0.7099864112035E-03  0.3319193871560E-02  0.0000000000000E+00  0.5416143468770E-03
-0.7805672107111E-03  0.3311862901532E-02  0.0000000000000E+00  0.4977941983705E-03
-0.8128364746554E-03  0.3280318820638E-02  0.0000000000000E+00  0.4776069378249E-03
-0.8233299833059E-03  0.3236800721165E-02  0.0000000000000E+00  0.4809931171419E-03
-0.8219469957383E-03  0.3187260197346E-02  0.0000000000000E+00  0.5012557276767E-03
-0.8140410849062E-03  0.3134122643646E-02  0.0000000000000E+00  0.5320958277087E-03
-0.8024622124759E-03  0.3078241885011E-02  0.0000000000000E+00  0.5690968873048E-03
-0.7887459088701E-03  0.3019833965777E-02  0.0000000000000E+00  0.6094994548048E-03
-0.7737245323181E-03  0.2958871926338E-02  0.0000000000000E+00  0.6517239585630E-03
-0.7578396813220E-03  0.2895245050250E-02  0.0000000000000E+00  0.6949662604661E-03
-0.7413038976126E-03  0.2828817684038E-02  0.0000000000000E+00  0.7389003813732E-03
-0.7241852116163E-03  0.2759446982701E-02  0.0000000000000E+00  0.7834675732777E-03
-0.7064512129921E-03  0.2686984916815E-02  0.0000000000000E+00  0.8287253783917E-03
-0.6879906520592E-03  0.2611274339853E-02  0.0000000000000E+00  0.8747365869003E-03
-0.6686219368252E-03  0.2532144491059E-02  0.0000000000000E+00  0.9214843527943E-03
-0.6480914217295E-03  0.2449400552913E-02  0.0000000000000E+00  0.9688118252723E-03
-0.6260677925869E-03  0.2362810942795E-02  0.0000000000000E+00  0.1016391698616E-02
-0.6021453168474E-03  0.2272098253666E-02  0.0000000000000E+00  0.1063741249523E-02
-0.5758846120372E-03  0.2176951364728E-02  0.0000000000000E+00  0.1110288924026E-02
-0.5469207621986E-03  0.2077095289430E-02  0.0000000000000E+00  0.1155421030154E-02
-0.5151151320201E-03  0.1972450565785E-02  0.0000000000000E+00  0.1198335187574E-02
-0.4806514941461E-03  0.1863423383161E-02  0.0000000000000E+00  0.1237527050978E-02
-0.4438931983038E-03  0.1750884493232E-02  0.0000000000000E+00  0.1270309423826E-02
-0.4050481959223E-03  0.1635754595610E-02  0.0000000000000E+00  0.1292870431690E-02
-0.3639175911169E-03  0.1518723765062E-02  0.0000000000000E+00  0.1300707542708E-02
-0.3198554749498E-03  0.1400212415351E-02  0.0000000000000E+00  0.1289157486865E-02
-0.2719024847958E-03  0.1280468553317E-02  0.0000000000000E+00  0.1253822070705E-02
-0.2189932394482E-03  0.1159669509669E-02  0.0000000000000E+00  0.1190873665957E-02
-0.1601743872991E-03  0.1037949429110E-02  0.0000000000000E+00  0.1097389529742E-02
-0.9487250681500E-04  0.9153693679746E-03  0.0000000000000E+00  0.9719448908222E-03
-0.2333863048415E-04  0.7918311822995E-03  0.0000000000000E+00  0.8158155246070E-03
 0.5230826464764E-04  0.6673258208804E-03  0.0000000000000E+00  0.6347491902312E-03
 0.1254836791644E-03  0.5435162486233E-03  0.0000000000000E+00  0.4404194444226E-03
 0.1800797489985E-03  0.4276510229899E-03  0.0000000000000E+00  0.2486359009385E-03
 0.1847222621308E-03  0.3383277232591E-03  0.0000000000000E+00  0.6498189982944E-04
 0.9800346884548E-04  0.3043402704831E-03  0.0000000000000E+00 -0.1526803756789E-03
-0.9298880081932E-04  0.3369594794741E-03  0.0000000000000E+00 -0.5290004555269E-03
-0.3120535372217E-03  0.3830139489673E-03  0.0000000000000E+00 -0.1201050779554E-02
-0.1146025399096E-03  0.2830567536705E-02  0.0000000000000E+00  0.3107644202886E-03
-0.3359543887633E-03  0.2956823756251E-02  0.0000000000000E+00  0.5039308527970E-03
-0.5202121445602E-03  0.3045314237241E-02  0.0000000000000E+00  0.5620875840072E-03
-0.6466951902870E-03  0.3085323173444E-02  0.0000000000000E+00  0.5523024025272E-03
-0.7205896708290E-03  0.3085599832422E-02  0.0000000000000E+00  0.5298260165651E-03
-0.7575271924085E-03  0.3060687764186E-02  0.0000000000000E+00  0.5203530236980E-03
-0.7718102704153E-03  0.3021850305999E-02  0.0000000000000E+00  0.5288159577799E-03
-0.7730248265905E-03  0.2975500792621E-02  0.0000000000000E+00  0.5518692151634E-03
-0.7668209165844E-03  0.2924729929211E-02  0.0000000000000E+00  0.5847959969454E-03
-0.7563919943576E-03  0.2870882239992E-02  0.0000000000000E+00  0.6238044102390E-03
-0.7435332198680E-03  0.2814480704665E-02  0.0000000000000E+00  0.6663485830958E-03
-0.7292510574019E-03  0.2755678245180E-02  0.0000000000000E+00  0.7109012663352E-03
-0.7140961890151E-03  0.2694464439025E-02  0.0000000000000E+00  0.7566546856826E-03
-0.6983443752404E-03  0.2630755996853E-02  0.0000000000000E+00  0.8032656733886E-03
-0.6820948949291E-03  0.2564433764379E-02  0.0000000000000E+00  0.8506597332709E-03
-0.6653237576649E-03  0.2495355678663E-02  0.0000000000000E+00  0.8988840264549E-03
-0.6479111620621E-03  0.2423358613893E-02  0.0000000000000E+00  0.9479966433101E-03
-0.6296540532133E-03  0.2348256605824E-02  0.0000000000000E+00  0.9979819671538E-03
-0.6102685763661E-03  0.2269832477722E-02  0.0000000000000E+00  0.1048692408057E-02
-0.5893909110183E-03  0.2187829217543E-02  0.0000000000000E+00  0.1099820328929E-02
-0.5665899340178E-03  0.2101949536145E-02  0.0000000000000E+00  0.1150907376744E-02
-0.5414140211202E-03  0.2011878383279E-02  0.0000000000000E+00  0.1201383867255E-02
-0.5134868150063E-03  0.1917352061905E-02  0.0000000000000E+00  0.1250568302199E-02
-0.4826226810413E-03  0.1818293994111E-02  0.0000000000000E+00  0.1297497741826E-02
-0.4488896068359E-03  0.1715067014761E-02  0.0000000000000E+00  0.1340471078986E-02
-0.4124795272359E-03  0.1608441266878E-02  0.0000000000000E+00  0.1376656304367E-02
-0.3734276272446E-03  0.1499201369897E-02  0.0000000000000E+00  0.1402174007054E-02
-0.3314066091018E-03  0.1387880717627E-02  0.0000000000000E+00  0.1412496098431E-02
-0.2856986697155E-03  0.1274718485053E-02  0.0000000000000E+00  0.1402940743091E-02
-0.2353223713316E-03  0.1159749682909E-02  0.0000000000000E+00  0.1369108311483E-02
-0.1792433922434E-03  0.1042917504038E-02  0.0000000000000E+00  0.1307241824304E-02
-0.1166299054238E-03  0.9241467323018E-03  0.0000000000000E+00  0.1214628166050E-02
-0.4720395909719E-04  0.8034097268368E-03  0.0000000000000E+00  0.1090209219954E-02
 0.2818944132915E-04  0.6808019550484E-03  0.0000000000000E+00  0.9356458412960E-03
 0.1064197219856E-03  0.5570255779570E-03  0.0000000000000E+00  0.7565984566191E-03
 0.1796217923696E-03  0.4351449197896E-03  0.0000000000000E+00  0.5628849545972E-03
 0.2314319085045E-03  0.3238619771778E-03  0.0000000000000E+00  0.3644184797403E-03
 0.2347884317450E-03  0.2404613238759E-03  0.0000000000000E+00  0.1566910805739E-03
 0.1605401090544E-03  0.2059562444573E-03  0.0000000000000E+00 -0.1060178203329E-03
 0.7825086447477E-05  0.2223167492237E-03  0.0000000000000E+00 -0.5226063233768E-03
-0.1619510790268E-03  0.2458363039619E-03  0.0000000000000E+00 -0.1179542981275E-02
-0.1010479159952E-03  0.2615524216093E-02  0.0000000000000E+00  0.2335733369264E-03
-0.2980704008814E-03  0.2728725813019E-02  0.0000000000000E+00  0.4454463436735E-03
-0.4667123280136E-03  0.2811836632137E-02  0.0000000000000E+00  0.5359286464895E-03
-0.5879669424168E-03  0.2854018451019E-02  0.0000000000000E+00  0.5569614195694E-03
-0.6630645096415E-03  0.2860004233744E-02  0.0000000000000E+00  0.5557995170769E-03
-0.7033438251451E-03  0.2840903182690E-02  0.0000000000000E+00  0.5585031902915E-03
-0.7208317692822E-03  0.2806655834871E-02  0.0000000000000E+00  0.5734191010761E-03
-0.7244659780502E-03  0.2763700821391E-02  0.0000000000000E+00  0.6001056010499E-03
-0.7199558522145E-03  0.2715559565694E-02  0.0000000000000E+00  0.6354994218502E-03
-0.7107259384213E-03  0.2663982067803E-02  0.0000000000000E+00  0.6765908794866E-03
-0.6987858996545E-03  0.2609777771337E-02  0.0000000000000E+00  0.7211690388725E-03
-0.6853004565411E-03  0.2553281999791E-02  0.0000000000000E+00  0.7678375632905E-03
-0.6709255283207E-03  0.2494593669079E-02  0.0000000000000E+00  0.8158329032929E-03
-0.6560006248956E-03  0.2433691102211E-02  0.0000000000000E+00  0.8648229811799E-03
-0.6406579545590E-03  0.2370486247056E-02  0.0000000000000E+00  0.9147343037198E-03
-0.6248836039251E-03  0.2304848298254E-02  0.0000000000000E+00  0.9656141189179E-03
-0.6085506390149E-03  0.2236611770668E-02  0.0000000000000E+00  0.1017523241952E-02
-0.5914360076582E-03  0.2165578307042E-02  0.0000000000000E+00  0.1070453318869E-02
-0.5732275592055E-03  0.2091511464223E-02  0.0000000000000E+00  0.1124270399532E-02
-0.5535309618467E-03  0.2014132779817E-02  0.0000000000000E+00  0.1178686502556E-02
-0.5318892631946E-03  0.1933128403974E-02  0.0000000000000E+00  0.1233259480802E-02
-0.5078313102257E-03  0.1848177357960E-02  0.0000000000000E+00  0.1287406567867E-02
-0.4809537677551E-03  0.1759015379439E-02  0.0000000000000E+00  0.1340369162628E-02
-0.4510073458639E-03  0.1665548595546E-02  0.0000000000000E+00  0.1391035419798E-02
-0.4179370765708E-03  0.1568075266493E-02  0.0000000000000E+00  0.1437539334764E-02
-0.3817675170015E-03  0.1467248232480E-02  0.0000000000000E+00  0.1476941574272E-02
-0.3423690222202E-03  0.1363705901825E-02  0.0000000000000E+00  0.1505331577918E-02
-0.2992931868237E-03  0.1257825174210E-02  0.0000000000000E+00  0.1518195833475E-02
-0.2517604668870E-03  0.1149681105970E-02  0.0000000000000E+00  0.1510879432679E-02
-0.1987874241873E-03  0.1039135970608E-02  0.0000000000000E+00  0.1479021609437E-02
-0.1394054897512E-03  0.9259660863443E-03  0.0000000000000E+00  0.1418948349595E-02
-0.7295084286885E-04  0.8099813174957E-03  0.0000000000000E+00  0.1328104890356E-02
 0.5181616046790E-06  0.6911783970902E-03  0.0000000000000E+00  0.1205634883843E-02
 0.7957316439344E-04  0.5699479372949E-03  0.0000000000000E+00  0.1053239698201E-02
 0.1602487160582E-03  0.4476942197815E-03  0.0000000000000E+00  0.8759124032620E-03
 0.2339544403903E-03  0.3285123603627E-03  0.0000000000000E+00  0.6810166058797E-03
 0.2850281405066E-03  0.2215842565972E-03  0.0000000000000E+00  0.4730901050647E-03
 0.2909735212260E-03  0.1419760966955E-03  0.0000000000000E+00  0.2410294801840E-03
 0.2318573080796E-03  0.1043843405264E-03  0.0000000000000E+00 -0.5942900100703E-04
 0.1128342213944E-03  0.1058043179834E-03  0.0000000000000E+00 -0.5048011723393E-03
-0.1814465384575E-04  0.1115164452888E-03  0.0000000000000E+00 -0.1148940218238E-02
-0.8933976896905E-04  0.2404246056960E-02  0.0000000000000E+00  0.1651822245325E-03
-0.2649307424286E-03  0.2505662357982E-02  0.0000000000000E+00  0.3918584485343E-03
-0.4187229002892E-03  0.2582884495783E-02  0.0000000000000E+00  0.5090327901578E-03
-0.5335730276960E-03  0.2625522873621E-02  0.0000000000000E+00  0.5572786656747E-03
-0.6081959140179E-03  0.2635598834966E-02  0.0000000000000E+00  0.5766585305177E-03
-0.6505743269860E-03  0.2621411194619E-02  0.0000000000000E+00  0.5922988093587E-03
-0.6706018811146E-03  0.2591479815706E-02  0.0000000000000E+00  0.6146876236700E-03
-0.6763777619249E-03  0.2551970868247E-02  0.0000000000000E+00  0.6457428549777E-03
-0.6734795878096E-03  0.2506625140783E-02  0.0000000000000E+00  0.6839855011149E-03
-0.6654511929124E-03  0.2457498516261E-02  0.0000000000000E+00  0.7272706713276E-03
-0.6544634540400E-03  0.2405650950123E-02  0.0000000000000E+00  0.7738143806370E-03
-0.6418165074793E-03  0.2351592071084E-02  0.0000000000000E+00  0.8224199180897E-03
-0.6282628819908E-03  0.2295532581726E-02  0.0000000000000E+00  0.8724137428097E-03
-0.6142034008606E-03  0.2237517836942E-02  0.0000000000000E+00  0.9235039923118E-03
-0.5998031841324E-03  0.2177496234088E-02  0.0000000000000E+00  0.9756365674811E-03
-0.5850591752970E-03  0.2115352553299E-02  0.0000000000000E+00  0.1028870824987E-02
-0.5698383418578E-03  0.2050922281240E-02  0.0000000000000E+00  0.1083278775158E-02
-0.5538988873233E-03  0.1983997499232E-02  0.0000000000000E+00  0.1138865614454E-02
-0.5369018105257E-03  0.1914325419974E-02  0.0000000000000E+00  0.1195514843821E-02
-0.5184231103101E-03  0.1841609077067E-02  0.0000000000000E+00  0.1252957599683E-02
-0.4979779364212E-03  0.1765519232853E-02  0.0000000000000E+00  0.1310761543768E-02
-0.4750677257239E-03  0.1685724895574E-02  0.0000000000000E+00  0.1368321937357E-02
-0.4492487881766E-03  0.1601949669914E-02  0.0000000000000E+00  0.1424802263212E-02
-0.4201957446788E-03  0.1514066005837E-02  0.0000000000000E+00  0.1478958895692E-02
-0.3877270807146E-03  0.1422292610086E-02  0.0000000000000E+00  0.1528792600227E-02
-0.3517059498662E-03  0.1327155457340E-02  0.0000000000000E+00  0.1571290012677E-02
-0.3118473082357E-03  0.1229143362546E-02  0.0000000000000E+00  0.1602538061409E-02
-0.2675903062410E-03  0.1128481493656E-02  0.0000000000000E+00  0.1618064901703E-02
-0.2181035360125E-03  0.1025098444771E-02  0.0000000000000E+00  0.1613269471573E-02
-0.1624176319206E-03  0.9187193681371E-03  0.0000000000000E+00  0.1583847669682E-02
-0.9965444764071E-04  0.8090097575866E-03  0.0000000000000E+00  0.1526196405714E-02
-0.2934565117091E-04  0.6957378429786E-03  0.0000000000000E+00  0.1437846088592E-02
 0.4810484165702E-04  0.5790004330249E-03  0.0000000000000E+00  0.1317969198216E-02
 0.1307429306885E-03  0.4595210550504E-03  0.0000000000000E+00  0.1168001286744E-02
 0.2139871129375E-03  0.3393082522656E-03  0.0000000000000E+00  0.9918641265702E-03
 0.2890004289595E-03  0.2230956536214E-03  0.0000000000000E+00  0.7942980242787E-03
 0.3413795117828E-03  0.1198649730630E-03  0.0000000000000E+00  0.5754223174772E-03
 0.3528600878971E-03  0.4221846042973E-04  0.0000000000000E+00  0.3203674760910E-03
 0.3101066756123E-03  0.7984106828798E-07  0.0000000000000E+00 -0.1113329387729E-04
 0.2206879386722E-03 -0.1181663166656E-04  0.0000000000000E+00 -0.4774473824420E-03
 0.1212532512682E-03 -0.2042757661760E-04  0.0000000000000E+00 -0.1111672611671E-02
-0.7910614220447E-04  0.2196104365088E-02  0.0000000000000E+00  0.1045351836432E-03
-0.2356686435768E-03  0.2286861991456E-02  0.0000000000000E+00  0.3430852846057E-03
-0.3754667146753E-03  0.2358014332114E-02  0.0000000000000E+00  0.4824481170160E-03
-0.4832009411657E-03  0.2399891727719E-02  0.0000000000000E+00  0.5545824491056E-03
-0.5560452754763E-03  0.2412718768832E-02  0.0000000000000E+00  0.5933046578480E-03
-0.5994102816657E-03  0.2402558382715E-02  0.0000000000000E+00  0.6221027221881E-03
-0.6212884475141E-03  0.2376556818745E-02  0.0000000000000E+00  0.6526412249209E-03
-0.6288598180209E-03  0.2340426310741E-02  0.0000000000000E+00  0.6886550976045E-03
-0.6274304465271E-03  0.2297954750958E-02  0.0000000000000E+00  0.7300931265053E-03
-0.6205627605391E-03  0.2251403872048E-02  0.0000000000000E+00  0.7756930505225E-03
-0.6105330165954E-03  0.2202038866222E-02  0.0000000000000E+00  0.8241581087694E-03
-0.5987492995989E-03  0.2150527338830E-02  0.0000000000000E+00  0.8745468025178E-03
-0.5860483117611E-03  0.2097188511802E-02  0.0000000000000E+00  0.9263168365033E-03
-0.5728871350038E-03  0.2042136598164E-02  0.0000000000000E+00  0.9792448563290E-03
-0.5594621566008E-03  0.1985359708569E-02  0.0000000000000E+00  0.1033315110908E-02
-0.5457810291211E-03  0.1926761450970E-02  0.0000000000000E+00  0.1088611955380E-02
-0.5317051497530E-03  0.1866181139463E-02  0.0000000000000E+00  0.1145227707119E-02
-0.5169748555555E-03  0.1803403900413E-02  0.0000000000000E+00  0.1203187563658E-02
-0.5012251659805E-03  0.1738163119640E-02  0.0000000000000E+00  0.1262396099664E-02
-0.4840022795147E-03  0.1670145278049E-02  0.0000000000000E+00  0.1322603363333E-02
-0.4647903940149E-03  0.1599005426444E-02  0.0000000000000E+00  0.1383382849223E-02
-0.4430558375555E-03  0.1524397556184E-02  0.0000000000000E+00  0.1444104217576E-02
-0.4183034690603E-03  0.1446022721612E-02  0.0000000000000E+00  0.1503858176102E-02
-0.3901228432537E-03  0.1363706879500E-02  0.0000000000000E+00  0.1561289185049E-02
-0.3582048469722E-03  0.1277579070809E-02  0.0000000000000E+00  0.1614294659485E-02
-0.3222581597290E-03  0.1188033842787E-02  0.0000000000000E+00  0.1659815905253E-02
-0.2818521347418E-03  0.1095411444573E-02  0.0000000000000E+00  0.1693959210048E-02
-0.2363223029049E-03  0.9997927918470E-03  0.0000000000000E+00  0.1712311150405E-02
-0.1847940500859E-03  0.9009771664011E-03  0.0000000000000E+00  0.1710336850013E-02
-0.1263236074301E-03  0.7985830124264E-03  0.0000000000000E+00  0.1683789091319E-02
-0.6013793577081E-04  0.6922094128994E-03  0.0000000000000E+00  0.1629106124935E-02
 0.1402577640025E-04  0.5816354493212E-03  0.0000000000000E+00  0.1543819193282E-02
 0.9543476861418E-04  0.4670999455601E-03  0.0000000000000E+00  0.1426965964586E-02
 0.1816963129573E-03  0.3496485746574E-03  0.0000000000000E+00  0.1279472384614E-02
 0.2678325871500E-03  0.2317534141807E-03  0.0000000000000E+00  0.1103959657543E-02
 0.3451221664250E-03  0.1184448882387E-03  0.0000000000000E+00  0.9026660114528E-03
 0.4006656907450E-03  0.1809727200464E-04  0.0000000000000E+00  0.6723497395873E-03
 0.4198318891480E-03 -0.5902177498448E-04  0.0000000000000E+00  0.3964420739966E-03
 0.3938243091413E-03 -0.1064191043197E-03  0.0000000000000E+00  0.3964800749534E-04
 0.3305924569548E-03 -0.1300263801912E-03  0.0000000000000E+00 -0.4423010572648E-03
 0.2576470549858E-03 -0.1503944536238E-03  0.0000000000000E+00 -0.1069445333653E-02
-0.7006851165867E-04  0.1990622342373E-02  0.0000000000000E+00  0.5075642866914E-04
-0.2096095108896E-03  0.2071709378328E-02  0.0000000000000E+00  0.2989393882949E-03
-0.3362793840684E-03  0.2136805674758E-02  0.0000000000000E+00  0.4568652285718E-03
-0.4365055886993E-03  0.2177067540405E-02  0.0000000000000E+00  0.5499033662838E-03
-0.5065760637230E-03  0.2191559108184E-02  0.0000000000000E+00  0.6065516114145E-03
-0.5499614468875E-03  0.2184599480098E-02  0.0000000000000E+00  0.6483347411178E-03
-0.5730163481177E-03  0.2162083685779E-02  0.0000000000000E+00  0.6873955864271E-03
-0.5819969550702E-03  0.2129176562775E-02  0.0000000000000E+00  0.7287974453361E-03
-0.5818457070187E-03  0.2089583520477E-02  0.0000000000000E+00  0.7737167990594E-03
-0.5760597932949E-03  0.2045680939941E-02  0.0000000000000E+00  0.8217425334747E-03
-0.5669671008067E-03  0.1998890300187E-02  0.0000000000000E+00  0.8720953687900E-03
-0.5560539461150E-03  0.1950015213085E-02  0.0000000000000E+00  0.9241299490182E-03
-0.5442260573014E-03  0.1899475539409E-02  0.0000000000000E+00  0.9774701977522E-03
-0.5319895687669E-03  0.1847452994515E-02  0.0000000000000E+00  0.1031987382098E-02
-0.5195690230607E-03  0.1793976677825E-02  0.0000000000000E+00  0.1087722674255E-02
-0.5069817158652E-03  0.1738971132038E-02  0.0000000000000E+00  0.1144798567730E-02
-0.4940834288127E-03  0.1682281750862E-02  0.0000000000000E+00  0.1203337090803E-02
-0.4805970460167E-03  0.1623688921999E-02  0.0000000000000E+00  0.1263390001115E-02
-0.4661318961542E-03  0.1562914211040E-02  0.0000000000000E+00  0.1324886679597E-02
-0.4502035010883E-03  0.1499628653232E-02  0.0000000000000E+00  0.1387596725731E-02
-0.4322615686292E-03  0.1433470330858E-02  0.0000000000000E+00  0.1451098048977E-02
-0.4117302495329E-03  0.1364073065579E-02  0.0000000000000E+00  0.1514735366352E-02
-0.3880540186809E-03  0.1291106481590E-02  0.0000000000000E+00  0.1577535747021E-02
-0.3607311321388E-03  0.1214340376332E-02  0.0000000000000E+00  0.1638052576401E-02
-0.3293255520402E-03  0.1133807752981E-02  0.0000000000000E+00  0.1694107221517E-02
-0.2933986793823E-03  0.1049770623543E-02  0.0000000000000E+00  0.1742619818619E-02
-0.2523836565086E-03  0.9624244329039E-03  0.0000000000000E+00  0.1779732040157E-02
-0.2055205008113E-03  0.8717146153919E-03  0.0000000000000E+00  0.1801097456693E-02
-0.1518981045141E-03  0.7773268781386E-03  0.0000000000000E+00  0.1802248553527E-02
-0.9060499412678E-04  0.6787977727352E-03  0.0000000000000E+00  0.1778982290059E-02
-0.2097855304906E-04  0.5756929660887E-03  0.0000000000000E+00  0.1727737591806E-02
 0.5704336210205E-04  0.4678358124226E-03  0.0000000000000E+00  0.1645960261926E-02
 0.1424347716532E-03  0.3556213066290E-03  0.0000000000000E+00  0.1532411060744E-02
 0.2324643551332E-03  0.2403749097407E-03  0.0000000000000E+00  0.1387333270465E-02
 0.3219524803549E-03  0.1248833259083E-03  0.0000000000000E+00  0.1211962883633E-02
 0.4025361434503E-03  0.1421169365955E-04  0.0000000000000E+00  0.1006319245040E-02
 0.4628502050213E-03 -0.8406813010281E-04  0.0000000000000E+00  0.7647704892866E-03
 0.4912241905574E-03 -0.1617117935026E-03  0.0000000000000E+00  0.4704432693749E-03
 0.4818763186616E-03 -0.2145974623507E-03  0.0000000000000E+00  0.9310906520418E-04
 0.4420854790002E-03 -0.2484712171977E-03  0.0000000000000E+00 -0.4008653082788E-03
 0.3920822824602E-03 -0.2787147804266E-03  0.0000000000000E+00 -0.1023464973672E-02
-0.6201373620774E-04  0.1787428894428E-02  0.0000000000000E+00  0.3113945468175E-05
-0.1862209379416E-03  0.1859707076977E-02  0.0000000000000E+00  0.2591858225128E-03
-0.3005961564252E-03  0.1918873678066E-02  0.0000000000000E+00  0.4327323194910E-03
-0.3931387675907E-03  0.1956927800443E-02  0.0000000000000E+00  0.5440339279623E-03
-0.4596875432803E-03  0.1972213271665E-02  0.0000000000000E+00  0.6171093674176E-03
-0.5022717561694E-03  0.1967710113629E-02  0.0000000000000E+00  0.6714290008512E-03
-0.5258688670170E-03  0.1948216363800E-02  0.0000000000000E+00  0.7191296794254E-03
-0.5358551259135E-03  0.1918317932389E-02  0.0000000000000E+00  0.7661896456407E-03
-0.5367573268810E-03  0.1881547583988E-02  0.0000000000000E+00  0.8148005495348E-03
-0.5319424268019E-03  0.1840318955100E-02  0.0000000000000E+00  0.8653375679874E-03
-0.5237415244721E-03  0.1796161649078E-02  0.0000000000000E+00  0.9175435175001E-03
-0.5136893122749E-03  0.1749990158176E-02  0.0000000000000E+00  0.9710954906130E-03
-0.5027437946033E-03  0.1702313686711E-02  0.0000000000000E+00  0.1025811371771E-02
-0.4914513326656E-03  0.1653377439159E-02  0.0000000000000E+00  0.1081679998574E-02
-0.4800602677151E-03  0.1603250976093E-02  0.0000000000000E+00  0.1138816892367E-02
-0.4685956161616E-03  0.1551880762614E-02  0.0000000000000E+00  0.1197395543755E-02
-0.4569069087120E-03  0.1499119852046E-02  0.0000000000000E+00  0.1257577089140E-02
-0.4446994982708E-03  0.1444745628679E-02  0.0000000000000E+00  0.1319446465098E-02
-0.4315567821127E-03  0.1388469317974E-02  0.0000000000000E+00  0.1382961893313E-02
-0.4169622104546E-03  0.1329946964885E-02  0.0000000000000E+00  0.1447914251891E-02
-0.4003273426506E-03  0.1268797938877E-02  0.0000000000000E+00  0.1513886842593E-02
-0.3810279378109E-03  0.1204631069201E-02  0.0000000000000E+00  0.1580203425248E-02
-0.3584410845677E-03  0.1137077314334E-02  0.0000000000000E+00  0.1645839095062E-02
-0.3319696291234E-03  0.1065843323580E-02  0.0000000000000E+00  0.1709276864957E-02
-0.3010523793492E-03  0.9908625176383E-03  0.0000000000000E+00  0.1768286478976E-02
-0.2651104319165E-03  0.9122655777546E-03  0.0000000000000E+00  0.1819786837969E-02
-0.2234491859159E-03  0.8301084265282E-03  0.0000000000000E+00  0.1859966082306E-02
-0.1752199217240E-03  0.7442100117743E-03  0.0000000000000E+00  0.1884546995872E-02
-0.1194793262661E-03  0.6541561046389E-03  0.0000000000000E+00  0.1889122408264E-02
-0.5535011392577E-04  0.5594204506009E-03  0.0000000000000E+00  0.1869512026005E-02
 0.1772289468305E-04  0.4595576513308E-03  0.0000000000000E+00  0.1822109345442E-02
 0.9961774811384E-04  0.3544523793573E-03  0.0000000000000E+00  0.1744193605054E-02
 0.1890625944850E-03  0.2446492027772E-03  0.0000000000000E+00  0.1634134694873E-02
 0.2830875102292E-03  0.1316945174826E-03  0.0000000000000E+00  0.1491386976248E-02
 0.3764677235299E-03  0.1855417845362E-04  0.0000000000000E+00  0.1315820879017E-02
 0.4613389295489E-03 -0.8985192282107E-04  0.0000000000000E+00  0.1105585782431E-02
 0.5277688612931E-03 -0.1868037266319E-03  0.0000000000000E+00  0.8534599394713E-03
 0.5664023694654E-03 -0.2657023728708E-03  0.0000000000000E+00  0.5431296895302E-03
 0.5733873161043E-03 -0.3239983331967E-03  0.0000000000000E+00  0.1491106737137E-03
 0.5548916735669E-03 -0.3668930745748E-03  0.0000000000000E+00 -0.3543574860190E-03
 0.5253426636197E-03 -0.4056575015852E-03  0.0000000000000E+00 -0.9745752291473E-03
-0.5477552807652E-04  0.1586228266177E-02  0.0000000000000E+00 -0.3900844222485E-04
-0.1650770797847E-03  0.1650447381654E-02  0.0000000000000E+00  0.2235744650106E-03
-0.2679374177061E-03  0.1703872064035E-02  0.0000000000000E+00  0.4103330858122E-03
-0.3527652649277E-03  0.1739314889938E-02  0.0000000000000E+00  0.5375801607989E-03
-0.4152391259128E-03  0.1754702492004E-02  0.0000000000000E+00  0.6255843828816E-03
-0.4563342607747E-03  0.1752000655682E-02  0.0000000000000E+00  0.6918076403332E-03
-0.4798917002619E-03  0.1735070904638E-02  0.0000000000000E+00  0.7480600876044E-03
-0.4904798471482E-03  0.1707929507303E-02  0.0000000000000E+00  0.8009004758330E-03
-0.4921890183117E-03  0.1673879559213E-02  0.0000000000000E+00  0.8533307180371E-03
-0.4882092261761E-03  0.1635310111398E-02  0.0000000000000E+00  0.9064279912877E-03
-0.4808335743461E-03  0.1593814592488E-02  0.0000000000000E+00  0.9604417643615E-03
-0.4716168094590E-03  0.1550392235659E-02  0.0000000000000E+00  0.1015384476305E-02
-0.4615518848657E-03  0.1505628057981E-02  0.0000000000000E+00  0.1071288197110E-02
-0.4512154903139E-03  0.1459824662900E-02  0.0000000000000E+00  0.1128278493933E-02
-0.4408744261999E-03  0.1413089989814E-02  0.0000000000000E+00  0.1186560928499E-02
-0.4305587541640E-03  0.1365392366300E-02  0.0000000000000E+00  0.1246372131298E-02
-0.4201105557587E-03  0.1316593398442E-02  0.0000000000000E+00  0.1307921485124E-02
-0.4092171029549E-03  0.1266468691667E-02  0.0000000000000E+00  0.1371333725196E-02
-0.3974351788975E-03  0.1214720125761E-02  0.0000000000000E+00  0.1436600339149E-02
-0.3842144496589E-03  0.1160988752827E-02  0.0000000000000E+00  0.1503536346001E-02
-0.3689247960420E-03  0.1104873329682E-02  0.0000000000000E+00  0.1571733495878E-02
-0.3508883050554E-03  0.1045953474913E-02  0.0000000000000E+00  0.1640501051298E-02
-0.3294093330717E-03  0.9838158387270E-03  0.0000000000000E+00  0.1708775257295E-02
-0.3037928013055E-03  0.9180991476832E-03  0.0000000000000E+00  0.1774988659466E-02
-0.2733547477893E-03  0.8486357887891E-03  0.0000000000000E+00  0.1836880926710E-02
-0.2373823765567E-03  0.7754277796630E-03  0.0000000000000E+00  0.1891385896809E-02
-0.1950605475974E-03  0.6983974453367E-03  0.0000000000000E+00  0.1934745208130E-02
-0.1454568616395E-03  0.6172456971089E-03  0.0000000000000E+00  0.1962748326271E-02
-0.8759742157738E-04  0.5314694645195E-03  0.0000000000000E+00  0.1971035789404E-02
-0.2063649640510E-04  0.4404931898400E-03  0.0000000000000E+00  0.1955423525527E-02
 0.5588357345593E-04  0.3438733068742E-03  0.0000000000000E+00  0.1912212613923E-02
 0.1416817334393E-03  0.2415596778886E-03  0.0000000000000E+00  0.1838444498935E-02
 0.2352929915612E-03  0.1342259189057E-03  0.0000000000000E+00  0.1732013895248E-02
 0.3336002095557E-03  0.2357568715065E-04  0.0000000000000E+00  0.1591536084879E-02
 0.4314495452408E-03 -0.8735787115268E-04  0.0000000000000E+00  0.1415600527096E-02
 0.5215360645506E-03 -0.1939079525560E-03  0.0000000000000E+00  0.1200838364249E-02
 0.5951917856805E-03 -0.2901680206540E-03  0.0000000000000E+00  0.9390503206711E-03
 0.6448018601046E-03 -0.3708087624280E-03  0.0000000000000E+00  0.6149401879000E-03
 0.6676746199997E-03 -0.4342332345609E-03  0.0000000000000E+00  0.2073054349654E-03
 0.6688227731392E-03 -0.4850572393900E-03  0.0000000000000E+00 -0.3037331629164E-03
 0.6580234781182E-03 -0.5314268644926E-03  0.0000000000000E+00 -0.9233167363123E-03
-0.4822189633669E-04  0.1386779573086E-02  0.0000000000000E+00 -0.7613261786483E-04
-0.1458329713641E-03  0.1443591512853E-02  0.0000000000000E+00  0.1918577959028E-03
-0.2378950525809E-03  0.1491491583702E-02  0.0000000000000E+00  0.3898396821173E-03
-0.3150708943099E-03  0.1524054620301E-02  0.0000000000000E+00  0.5310038384635E-03
-0.3730674600335E-03  0.1538997756278E-02  0.0000000000000E+00  0.6324877146013E-03
-0.4121039760723E-03  0.1537529227386E-02  0.0000000000000E+00  0.7098659230858E-03
-0.4350981368187E-03  0.1522726798848E-02  0.0000000000000E+00  0.7744219358605E-03
-0.4458963488467E-03  0.1498071361604E-02  0.0000000000000E+00  0.8330339976321E-03
-0.4481545104299E-03  0.1466605415326E-02  0.0000000000000E+00  0.8893284511549E-03
-0.4448552600590E-03  0.1430646770745E-02  0.0000000000000E+00  0.9449917116060E-03
-0.4382204612927E-03  0.1391814047318E-02  0.0000000000000E+00  0.1000750103858E-02
-0.4297993036456E-03  0.1351165741033E-02  0.0000000000000E+00  0.1056952861659E-02
-0.4206026528654E-03  0.1309347983813E-02  0.0000000000000E+00  0.1113859217915E-02
-0.4112270764910E-03  0.1266713196858E-02  0.0000000000000E+00  0.1171746542830E-02
-0.4019517889861E-03  0.1223404346583E-02  0.0000000000000E+00  0.1230923993846E-02
-0.3928086012078E-03  0.1179410630004E-02  0.0000000000000E+00  0.1291702431912E-02
-0.3836304462426E-03  0.1134602442768E-02  0.0000000000000E+00  0.1354348155338E-02
-0.3740855479691E-03  0.1088754342339E-02  0.0000000000000E+00  0.1419032244101E-02
-0.3637030523667E-03  0.1041559444707E-02  0.0000000000000E+00  0.1485784270660E-02
-0.3518969787041E-03  0.9926435232216E-03  0.0000000000000E+00  0.1554447310673E-02
-0.3379922865637E-03  0.9415829010263E-03  0.0000000000000E+00  0.1624626319586E-02
-0.3212530358957E-03  0.8879245083657E-03  0.0000000000000E+00  0.1695624277140E-02
-0.3009068852590E-03  0.8312065048052E-03  0.0000000000000E+00  0.1766352404097E-02
-0.2761594811477E-03  0.7709967116148E-03  0.0000000000000E+00  0.1835211533299E-02
-0.2462067263265E-03  0.7070265403502E-03  0.0000000000000E+00  0.1899930111274E-02
-0.2102075512127E-03  0.6391728436840E-03  0.0000000000000E+00  0.1957469866586E-02
-0.1672320157254E-03  0.5672302920647E-03  0.0000000000000E+00  0.2004129778368E-02
-0.1162671703780E-03  0.4907891450974E-03  0.0000000000000E+00  0.2035760130407E-02
-0.5630744657065E-04  0.4092658234488E-03  0.0000000000000E+00  0.2048033114777E-02
 0.1346800836616E-04  0.3220437676595E-03  0.0000000000000E+00  0.2036732235919E-02
 0.9343470062440E-04  0.2286861370503E-03  0.0000000000000E+00  0.1998021682130E-02
 0.1831827569272E-03  0.1292019377169E-03  0.0000000000000E+00  0.1928646208650E-02
 0.2811073775493E-03  0.2436531623636E-04  0.0000000000000E+00  0.1825968920644E-02
 0.3840220038846E-03 -0.8402377467666E-04  0.0000000000000E+00  0.1687757563899E-02
 0.4869233836148E-03 -0.1929494838498E-03  0.0000000000000E+00  0.1511440997931E-02
 0.5830681739453E-03 -0.2980528937334E-03  0.0000000000000E+00  0.1292442418749E-02
 0.6648617229072E-03 -0.3941453557707E-03  0.0000000000000E+00  0.1022043307777E-02
 0.7259497018259E-03 -0.4768632133360E-03  0.0000000000000E+00  0.6861053648801E-03
 0.7642082922718E-03 -0.5450066839974E-03  0.0000000000000E+00  0.2671722292350E-03
 0.7836812249920E-03 -0.6026710764879E-03  0.0000000000000E+00 -0.2497966620228E-03
 0.7906182329077E-03 -0.6561124099842E-03  0.0000000000000E+00 -0.8698519671022E-03
-0.4224644164895E-04  0.1188882711248E-02  0.0000000000000E+00 -0.1087028856368E-03
-0.1282057821817E-03  0.1238854124652E-02  0.0000000000000E+00  0.1638004518706E-03
-0.2101204681136E-03  0.1281456620091E-02  0.0000000000000E+00  0.3713488803844E-03
-0.2797657836728E-03  0.1310967534884E-02  0.0000000000000E+00  0.5246560239080E-03
-0.3329981307984E-03  0.1325035835218E-02  0.0000000000000E+00  0.6382463776787E-03
-0.3695083904060E-03  0.1324313048182E-02  0.0000000000000E+00  0.7259649767537E-03
-0.3914744917823E-03  0.1311231408852E-02  0.0000000000000E+00  0.7984553881942E-03
-0.4021108374669E-03  0.1288784419495E-02  0.0000000000000E+00  0.8627180930406E-03
-0.4046567733850E-03  0.1259742558810E-02  0.0000000000000E+00  0.9228425088190E-03
-0.4018707683599E-03  0.1226319371520E-02  0.0000000000000E+00  0.9810309894102E-03
-0.3958780903474E-03  0.1190126481169E-02  0.0000000000000E+00  0.1038447734577E-02
-0.3882001745254E-03  0.1152258011787E-02  0.0000000000000E+00  0.1095771066107E-02
-0.3798497292000E-03  0.1113406243039E-02  0.0000000000000E+00  0.1153493780867E-02
-0.3714326582275E-03  0.1073964892180E-02  0.0000000000000E+00  0.1212056024135E-02
-0.3632341129454E-03  0.1034107629675E-02  0.0000000000000E+00  0.1271881737131E-02
-0.3552838863436E-03  0.9938427394704E-03  0.0000000000000E+00  0.1333365807653E-02
-0.3474036487093E-03  0.9530490523751E-03  0.0000000000000E+00  0.1396839477986E-02
-0.3392412667721E-03  0.9115003651465E-03  0.0000000000000E+00  0.1462526557070E-02
-0.3302969902376E-03  0.8688812874774E-03  0.0000000000000E+00  0.1530499854170E-02
-0.3199473118422E-03  0.8248018922566E-03  0.0000000000000E+00  0.1600635312694E-02
-0.3074694084437E-03  0.7788144839891E-03  0.0000000000000E+00  0.1672557168233E-02
-0.2920658259250E-03  0.7304306141130E-03  0.0000000000000E+00  0.1745571504880E-02
-0.2728846852937E-03  0.6791370618566E-03  0.0000000000000E+00  0.1818578528534E-02
-0.2490318292712E-03  0.6244291850908E-03  0.0000000000000E+00  0.1889964817628E-02
-0.2195856427798E-03  0.5659385288002E-03  0.0000000000000E+00  0.1957464042836E-02
-0.1835814658231E-03  0.5034206484364E-03  0.0000000000000E+00  0.2018076134113E-02
-0.1399787375106E-03  0.4365480924441E-03  0.0000000000000E+00  0.2068158892829E-02
-0.8768509371043E-04  0.3648064717055E-03  0.0000000000000E+00  0.2103615474445E-02
-0.2565961632167E-04  0.2875372456003E-03  0.0000000000000E+00  0.2120132080947E-02
 0.4690378958827E-04  0.2040865096012E-03  0.0000000000000E+00  0.2113431355579E-02
 0.1303178065751E-03  0.1140225771142E-03  0.0000000000000E+00  0.2079500866176E-02
 0.2240767631098E-03  0.1740064755979E-04  0.0000000000000E+00  0.2014742856044E-02
 0.3264863799179E-03 -0.8493657234631E-04  0.0000000000000E+00  0.1915955821579E-02
 0.4343541447719E-03 -0.1911465719511E-03  0.0000000000000E+00  0.1780081061166E-02
 0.5428737849978E-03 -0.2982905902717E-03  0.0000000000000E+00  0.1603514813783E-02
 0.6458370711984E-03 -0.4023314491354E-03  0.0000000000000E+00  0.1380743738480E-02
 0.7365070975678E-03 -0.4986923408925E-03  0.0000000000000E+00  0.1102792170330E-02
 0.8094745903817E-03 -0.5836764834272E-03  0.0000000000000E+00  0.7568274400723E-03
 0.8626215597592E-03 -0.6562904027856E-03  0.0000000000000E+00  0.3279778802602E-03
 0.8991752230788E-03 -0.7192059683716E-03  0.0000000000000E+00 -0.1934694778446E-03
 0.9234550185839E-03 -0.7796121289924E-03  0.0000000000000E+00 -0.8138050104235E-03
-0.3676218633927E-04  0.9923685608732E-03  0.0000000000000E+00 -0.1370988809379E-03
-0.1119609288779E-03  0.1035991500881E-02  0.0000000000000E+00  0.1391840893520E-03
-0.1843144397017E-03  0.1073521328018E-02  0.0000000000000E+00  0.3549067811035E-03
-0.2465849539762E-03  0.1099875589938E-02  0.0000000000000E+00  0.5188033415254E-03
-0.2948534577263E-03  0.1112730831313E-02  0.0000000000000E+00  0.6432153826491E-03
-0.3284557758040E-03  0.1112337898511E-02  0.0000000000000E+00  0.7404294044559E-03
-0.3489852556706E-03  0.1100604688094E-02  0.0000000000000E+00  0.8203965496824E-03
-0.3591123841687E-03  0.1080091375360E-02  0.0000000000000E+00  0.8900953116649E-03
-0.3616879592956E-03  0.1053298865283E-02  0.0000000000000E+00  0.9539427557258E-03
-0.3592403425551E-03  0.1022314945556E-02  0.0000000000000E+00  0.1014568635683E-02
-0.3537801324023E-03  0.9887185574931E-03  0.0000000000000E+00  0.1073531164345E-02
-0.3467825325743E-03  0.9536183941825E-03  0.0000000000000E+00  0.1131823212375E-02
-0.3392474666842E-03  0.9177383474079E-03  0.0000000000000E+00  0.1190171881932E-02
-0.3317799261837E-03  0.8815044546134E-03  0.0000000000000E+00  0.1249187165736E-02
-0.3246643433933E-03  0.8451160876324E-03  0.0000000000000E+00  0.1309416525078E-02
-0.3179244101350E-03  0.8085982050595E-03  0.0000000000000E+00  0.1371347220577E-02
-0.3113681051068E-03  0.7718372162075E-03  0.0000000000000E+00  0.1435382690507E-02
-0.3046213741027E-03  0.7346060719657E-03  0.0000000000000E+00  0.1501805598009E-02
-0.2971541749140E-03  0.6965809011540E-03  0.0000000000000E+00  0.1570737371845E-02
-0.2883036796767E-03  0.6573556382390E-03  0.0000000000000E+00  0.1642092333270E-02
-0.2772968507603E-03  0.6164573198495E-03  0.0000000000000E+00  0.1715521033360E-02
-0.2632720201530E-03  0.5733602073095E-03  0.0000000000000E+00  0.1790342763777E-02
-0.2452958348063E-03  0.5274979283626E-03  0.0000000000000E+00  0.1865460568349E-02
-0.2223743565234E-03  0.4782929351568E-03  0.0000000000000E+00  0.1939262926851E-02
-0.1934708641575E-03  0.4252787107763E-03  0.0000000000000E+00  0.2009503120145E-02
-0.1575007812224E-03  0.3680934212610E-03  0.0000000000000E+00  0.2073227521080E-02
-0.1133155340330E-03  0.3062923398111E-03  0.0000000000000E+00  0.2126852643796E-02
-0.5974252964513E-04  0.2392608957783E-03  0.0000000000000E+00  0.2166325565647E-02
 0.4300541649682E-05  0.1662684771467E-03  0.0000000000000E+00  0.2187328742542E-02
 0.7961792285849E-04  0.8662350475600E-04  0.0000000000000E+00  0.2185497420825E-02
 0.1664814625839E-03 -0.1070955306156E-06  0.0000000000000E+00  0.2156608841093E-02
 0.2643233182295E-03 -0.9383924242110E-04  0.0000000000000E+00  0.2096689244390E-02
 0.3714054553610E-03 -0.1936938707605E-03  0.0000000000000E+00  0.2001958286114E-02
 0.4845775149919E-03 -0.2978306526044E-03  0.0000000000000E+00  0.1868568344664E-02
 0.5992560494930E-03 -0.4034264155184E-03  0.0000000000000E+00  0.1692009955919E-02
 0.7097065719223E-03 -0.5067547736726E-03  0.0000000000000E+00  0.1466033659534E-02
 0.8099045401215E-03 -0.6037387736056E-03  0.0000000000000E+00  0.1181622175031E-02
 0.8949480853054E-03 -0.6911325434332E-03  0.0000000000000E+00  0.8269918017768E-03
 0.9630415082430E-03 -0.7679066217809E-03  0.0000000000000E+00  0.3899808302611E-03
 0.1014428259522E-02 -0.8354932228342E-03  0.0000000000000E+00 -0.1383458680742E-03
 0.1057959845704E-02 -0.8985358645260E-03  0.0000000000000E+00 -0.7516213461148E-03
-0.3169671648425E-04  0.7970965621840E-03  0.0000000000000E+00 -0.1616340135769E-03
-0.9690275676231E-04  0.8348172204156E-03  0.0000000000000E+00  0.1178161009055E-03
-0.1602229674921E-03  0.8675059684326E-03  0.0000000000000E+00  0.3405356921228E-03
-0.2152951136022E-03  0.8906632495017E-03  0.0000000000000E+00  0.5136561941438E-03
-0.2584696927254E-03  0.9020566812008E-03  0.0000000000000E+00  0.6476946284230E-03
-0.2888581518516E-03  0.9016567815964E-03  0.0000000000000E+00  0.7535494324442E-03
-0.3075985512691E-03  0.8909509832913E-03  0.0000000000000E+00  0.8404688892153E-03
-0.3168999496488E-03  0.8721212201347E-03  0.0000000000000E+00  0.9153085090495E-03
-0.3192583934534E-03  0.8474105950565E-03  0.0000000000000E+00  0.9827028967672E-03
-0.3169744602836E-03  0.8187689594289E-03  0.0000000000000E+00  0.1045628778897E-02
-0.3119323928952E-03  0.7877229435459E-03  0.0000000000000E+00  0.1105993023907E-02
-0.3055464081237E-03  0.7553776450321E-03  0.0000000000000E+00  0.1165083782496E-02
-0.2987907405424E-03  0.7224749080258E-03  0.0000000000000E+00  0.1223858492307E-02
-0.2922597926859E-03  0.6894639956540E-03  0.0000000000000E+00  0.1283100425535E-02
-0.2862306473101E-03  0.6565644937240E-03  0.0000000000000E+00  0.1343486780982E-02
-0.2807166331071E-03  0.6238150833559E-03  0.0000000000000E+00  0.1405603899856E-02
-0.2755093961616E-03  0.5911084267239E-03  0.0000000000000E+00  0.1469933681043E-02
-0.2702112447567E-03  0.5582161913041E-03  0.0000000000000E+00  0.1536823293203E-02
-0.2642604324301E-03  0.5248058558298E-03  0.0000000000000E+00  0.1606448156917E-02
-0.2569532315451E-03  0.4904548194292E-03  0.0000000000000E+00  0.1678766850209E-02
-0.2474644905782E-03  0.4546639788128E-03  0.0000000000000E+00  0.1753463802599E-02
-0.2348664495725E-03  0.4168691470290E-03  0.0000000000000E+00  0.1829881871277E-02
-0.2181432315953E-03  0.3764500333382E-03  0.0000000000000E+00  0.1906940316455E-02
-0.1962017112945E-03  0.3327567027460E-03  0.0000000000000E+00  0.1983044328144E-02
-0.1678924198117E-03  0.2852269764921E-03  0.0000000000000E+00  0.2055979337485E-02
-0.1320138303652E-03  0.2333855687701E-03  0.0000000000000E+00  0.2122844696950E-02
-0.8731077749674E-04  0.1766747239800E-03  0.0000000000000E+00  0.2180114411817E-02
-0.3252811227566E-04  0.1143828356087E-03  0.0000000000000E+00  0.2223770250331E-02
 0.3346570801999E-04  0.4570790717766E-04  0.0000000000000E+00  0.2249474125167E-02
 0.1114879293785E-03 -0.3008275350158E-04  0.0000000000000E+00  0.2252750551235E-02
 0.2017929274717E-03 -0.1134336289591E-03  0.0000000000000E+00  0.2229139706154E-02
 0.3037834989882E-03 -0.2042513124364E-03  0.0000000000000E+00  0.2174270234359E-02
 0.4157174019253E-03 -0.3016506338964E-03  0.0000000000000E+00  0.2083783645870E-02
 0.5345224982533E-03 -0.4038288129256E-03  0.0000000000000E+00  0.1953091725061E-02
 0.6558409221631E-03 -0.5080993602285E-03  0.0000000000000E+00  0.1776892366506E-02
 0.7743596806734E-03 -0.6110212489456E-03  0.0000000000000E+00  0.1548362364324E-02
 0.8845590728699E-03 -0.7089076369192E-03  0.0000000000000E+00  0.1258517610080E-02
 0.9820290431930E-03 -0.7988228211366E-03  0.0000000000000E+00  0.8965703387772E-03
 0.1064235751389E-02 -0.8794558382711E-03  0.0000000000000E+00  0.4520273592172E-03
 0.1132698082673E-02 -0.9517123622414E-03  0.0000000000000E+00 -0.8198687884888E-04
 0.1181333065174E-02 -0.1014021464339E-02  0.0000000000000E+00 -0.7012062174558E-03
-0.2698952238097E-04  0.6029387417051E-03  0.0000000000000E+00 -0.1826140460082E-03
-0.8286497497752E-04  0.6351470852998E-03  0.0000000000000E+00  0.9950146445912E-04
-0.1376218059057E-03  0.6632119586943E-03  0.0000000000000E+00  0.3282110413528E-03
-0.1856768080814E-03  0.6831640223036E-03  0.0000000000000E+00  0.5093520782272E-03
-0.2236747828298E-03  0.6929034458658E-03  0.0000000000000E+00  0.6519126552782E-03
-0.2506015357129E-03  0.6922131475728E-03  0.0000000000000E+00  0.7655651645162E-03
-0.2672467709775E-03  0.6822479236130E-03  0.0000000000000E+00  0.8588718347033E-03
-0.2754332757863E-03  0.6648645420027E-03  0.0000000000000E+00  0.9384977100943E-03
-0.2773387489654E-03  0.6420658912991E-03  0.0000000000000E+00  0.1009207579298E-02
-0.2750442308948E-03  0.6156589191998E-03  0.0000000000000E+00  0.1074254348351E-02
-0.2703012297508E-03  0.5871037018321E-03  0.0000000000000E+00  0.1135849168274E-02
-0.2644517000801E-03  0.5574865946993E-03  0.0000000000000E+00  0.1195553412623E-02
-0.2584331325604E-03  0.5275550007141E-03  0.0000000000000E+00  0.1254547316957E-02
-0.2528204544105E-03  0.4977725907613E-03  0.0000000000000E+00  0.1313787782870E-02
-0.2478769900299E-03  0.4683735101604E-03  0.0000000000000E+00  0.1374085675537E-02
-0.2436014109632E-03  0.4394069080425E-03  0.0000000000000E+00  0.1436131566607E-02
-0.2397662832372E-03  0.4107700857327E-03  0.0000000000000E+00  0.1500491115793E-02
-0.2359484818404E-03  0.3822327881291E-03  0.0000000000000E+00  0.1567581178456E-02
-0.2315531750356E-03  0.3534536151545E-03  0.0000000000000E+00  0.1637636482625E-02
-0.2258343762687E-03  0.3239931848271E-03  0.0000000000000E+00  0.1710665996972E-02
-0.2179133690384E-03  0.2933258057864E-03  0.0000000000000E+00  0.1786395916675E-02
-0.2067950400059E-03  0.2608483724151E-03  0.0000000000000E+00  0.1864203061564E-02
-0.1913805008345E-03  0.2258867135675E-03  0.0000000000000E+00  0.1943035721779E-02
-0.1704782306087E-03  0.1877196805916E-03  0.0000000000000E+00  0.2021329419628E-02
-0.1428279707744E-03  0.1456920674400E-03  0.0000000000000E+00  0.2096912850618E-02
-0.1071131999039E-03  0.9921873757216E-04  0.0000000000000E+00  0.2166943796308E-02
-0.6197216016107E-04  0.4763223543997E-04  0.0000000000000E+00  0.2227952216304E-02
-0.6063191503536E-05 -0.9874441713896E-05  0.0000000000000E+00  0.2275946005060E-02
 0.6180400329792E-04 -0.7417610484331E-04  0.0000000000000E+00  0.2306551671091E-02
 0.1424759700838E-03 -0.1460525813756E-03  0.0000000000000E+00  0.2315163494253E-02
 0.2362134734759E-03 -0.2259721963697E-03  0.0000000000000E+00  0.2297064350985E-02
 0.3424207913033E-03 -0.3138525630692E-03  0.0000000000000E+00  0.2247472774329E-02
 0.4593852978564E-03 -0.4088296988907E-03  0.0000000000000E+00  0.2161461801641E-02
 0.5841370913746E-03 -0.5091651979327E-03  0.0000000000000E+00  0.2033751868300E-02
 0.7125402287537E-03 -0.6123187144342E-03  0.0000000000000E+00  0.1858343759491E-02
 0.8396263192912E-03 -0.7150996804171E-03  0.0000000000000E+00  0.1627952269056E-02
 0.9602971158954E-03 -0.8141276173787E-03  0.0000000000000E+00  0.1333660683960E-02
 0.1070246667514E-02 -0.9066215935481E-03  0.0000000000000E+00  0.9655261599439E-03
 0.1167152028468E-02 -0.9911268110346E-03  0.0000000000000E+00  0.5141069708569E-03
 0.1249359511069E-02 -0.1067266390350E-02  0.0000000000000E+00 -0.2521000014248E-04
 0.1319179648487E-02 -0.1133535964577E-02  0.0000000000000E+00 -0.6594811460095E-03
-0.2258971641423E-04  0.4097772284856E-03  0.0000000000000E+00 -0.2002686792956E-03
-0.6970402632059E-04  0.4367953858028E-03  0.0000000000000E+00  0.8408268222476E-04
-0.1163104377967E-03  0.4604201301197E-03  0.0000000000000E+00  0.3179172899998E-03
-0.1575230145261E-03  0.4771627272009E-03  0.0000000000000E+00  0.5060152031870E-03
-0.1902918901774E-03  0.4850825929456E-03  0.0000000000000E+00  0.6560826263135E-03
-0.2135521226292E-03  0.4838466653994E-03  0.0000000000000E+00  0.7767151362879E-03
-0.2278330549654E-03  0.4743507735969E-03  0.0000000000000E+00  0.8758227096121E-03
-0.2346384261892E-03  0.4581759260830E-03  0.0000000000000E+00  0.9598379690219E-03
-0.2358644280590E-03  0.4371056237424E-03  0.0000000000000E+00  0.1033588227071E-02
-0.2333848592414E-03  0.4128043139723E-03  0.0000000000000E+00  0.1100541797437E-02
-0.2288164050511E-03  0.3866558643211E-03  0.0000000000000E+00  0.1163172342025E-02
-0.2234206354803E-03  0.3597156694676E-03  0.0000000000000E+00  0.1223291134654E-02
-0.2180891270428E-03  0.3327257870859E-03  0.0000000000000E+00  0.1282291124826E-02
-0.2133693974988E-03  0.3061560507692E-03  0.0000000000000E+00  0.1341300681989E-02
-0.2095049995396E-03  0.2802496128357E-03  0.0000000000000E+00  0.1401266263149E-02
-0.2064757675208E-03  0.2550627521305E-03  0.0000000000000E+00  0.1462986400579E-02
-0.2040324441503E-03  0.2304956832292E-03  0.0000000000000E+00  0.1527114924892E-02
-0.2017246785330E-03  0.2063155358610E-03  0.0000000000000E+00  0.1594143125987E-02
-0.1989232522457E-03  0.1821718691713E-03  0.0000000000000E+00  0.1664370305604E-02
-0.1948387744175E-03  0.1576085170877E-03  0.0000000000000E+00  0.1737862165030E-02
-0.1885378732593E-03  0.1320732028217E-03  0.0000000000000E+00  0.1814394804947E-02
-0.1789572418217E-03  0.1049240478828E-03  0.0000000000000E+00  0.1893389418666E-02
-0.1649147712168E-03  0.7543366758165E-04  0.0000000000000E+00  0.1973835707294E-02
-0.1451212093833E-03  0.4281127581213E-04  0.0000000000000E+00  0.2054212323610E-02
-0.1182067571427E-03  0.6311211436016E-05  0.0000000000000E+00  0.2132401506286E-02
-0.8274059955388E-04 -0.3475853602693E-04  0.0000000000000E+00  0.2205624565124E-02
-0.3725277846067E-04 -0.8117294234702E-04  0.0000000000000E+00  0.2270466345884E-02
 0.1969056873746E-04 -0.1338343797675E-03  0.0000000000000E+00  0.2322953734645E-02
 0.8934965949908E-04 -0.1936939024418E-03  0.0000000000000E+00  0.2358665505318E-02
 0.1726178516215E-03 -0.2615866355116E-03  0.0000000000000E+00  0.2372850093783E-02
 0.2697862439330E-03 -0.3380188125458E-03  0.0000000000000E+00  0.2360518236628E-02
 0.3802894457452E-03 -0.4229393546836E-03  0.0000000000000E+00  0.2316471907569E-02
 0.5024727519962E-03 -0.5155295439424E-03  0.0000000000000E+00  0.2235229006909E-02
 0.6334858913213E-03 -0.6141354956699E-03  0.0000000000000E+00  0.2110862573339E-02
 0.7693993700546E-03 -0.7163641350703E-03  0.0000000000000E+00  0.1936751354356E-02
 0.9055390009808E-03 -0.8192419271411E-03  0.0000000000000E+00  0.1705215603530E-02
 0.1037073614590E-02 -0.9196145448735E-03  0.0000000000000E+00  0.1407428542621E-02
 0.1159872866251E-02 -0.1014796041176E-02  0.0000000000000E+00  0.1034003191307E-02
 0.1271038715440E-02 -0.1103103174121E-02  0.0000000000000E+00  0.5768236533060E-03
 0.1369081301119E-02 -0.1183400140602E-02  0.0000000000000E+00  0.2990314830009E-04
 0.1455340911947E-02 -0.1256357142715E-02  0.0000000000000E+00 -0.6089748506589E-03
-0.1845334972752E-04  0.2175103418577E-03  0.0000000000000E+00 -0.2148051528407E-03
-0.5729724127204E-04  0.2396178410803E-03  0.0000000000000E+00  0.7141689881093E-04
-0.9611694291294E-04  0.2589682316362E-03  0.0000000000000E+00  0.3096260869919E-03
-0.1306534443481E-03  0.2725104567444E-03  0.0000000000000E+00  0.5037353205410E-03
-0.1581647908051E-03  0.2784789922154E-03  0.0000000000000E+00  0.6603736642165E-03
-0.1775914650818E-03  0.2764798284104E-03  0.0000000000000E+00  0.7871958673353E-03
-0.1892744576386E-03  0.2672110743145E-03  0.0000000000000E+00  0.8915039580688E-03
-0.1944576488089E-03  0.2520228326897E-03  0.0000000000000E+00  0.9794759580582E-03
-0.1947915266942E-03  0.2325014496810E-03  0.0000000000000E+00  0.1055951109655E-02
-0.1919574943333E-03  0.2101731189346E-03  0.0000000000000E+00  0.1124562326870E-02
-0.1874386619545E-03  0.1863395975848E-03  0.0000000000000E+00  0.1188007663576E-02
-0.1824108162953E-03  0.1620157369823E-03  0.0000000000000E+00  0.1248324816758E-02
-0.1777122238839E-03  0.1379288223907E-03  0.0000000000000E+00  0.1307107578064E-02
-0.1738560423212E-03  0.1145472544833E-03  0.0000000000000E+00  0.1365651494289E-02
-0.1710605090185E-03  0.9211781786428E-04  0.0000000000000E+00  0.1425038651285E-02
-0.1692826348727E-03  0.7070054876535E-04  0.0000000000000E+00  0.1486177809135E-02
-0.1682486798283E-03  0.5019676478841E-04  0.0000000000000E+00  0.1549814358027E-02
-0.1674793597726E-03  0.3037025168298E-04  0.0000000000000E+00  0.1616518150696E-02
-0.1663099334103E-03  0.1086144594019E-04  0.0000000000000E+00  0.1686658042867E-02
-0.1639067558026E-03 -0.8802358163412E-05  0.0000000000000E+00  0.1760362742148E-02
-0.1592811372899E-03 -0.2919958625815E-04  0.0000000000000E+00  0.1837466362142E-02
-0.1513012165235E-03 -0.5101017054402E-04  0.0000000000000E+00  0.1917444672246E-02
-0.1387018165088E-03 -0.7501346228588E-04  0.0000000000000E+00  0.1999340653384E-02
-0.1200966584434E-03 -0.1020679134470E-03  0.0000000000000E+00  0.2081688154656E-02
-0.9400723816128E-04 -0.1330070374646E-03  0.0000000000000E+00  0.2162432607662E-02
-0.5888830621553E-04 -0.1686271516863E-03  0.0000000000000E+00  0.2238863837314E-02
-0.1315897544574E-04 -0.2098093987313E-03  0.0000000000000E+00  0.2307621216852E-02
 0.4471372603798E-04 -0.2575526808374E-03  0.0000000000000E+00  0.2364745186901E-02
 0.1160722066802E-03 -0.3128891731897E-03  0.0000000000000E+00  0.2405757273633E-02
 0.2018748075125E-03 -0.3767189105250E-03  0.0000000000000E+00  0.2425748531865E-02
 0.3024665656626E-03 -0.4496009696234E-03  0.0000000000000E+00  0.2419447897488E-02
 0.4173390390723E-03 -0.5315352143964E-03  0.0000000000000E+00  0.2381239556421E-02
 0.5449195202207E-03 -0.6217692046790E-03  0.0000000000000E+00  0.2305101766988E-02
 0.6824876837189E-03 -0.7187482134599E-03  0.0000000000000E+00  0.2184499072861E-02
 0.8263056414198E-03 -0.8202227516485E-03  0.0000000000000E+00  0.2012242483141E-02
 0.9719298434882E-03 -0.9234023265502E-03  0.0000000000000E+00  0.1780307751292E-02
 0.1114734585578E-02 -0.1025297350991E-02  0.0000000000000E+00  0.1479900650162E-02
 0.1250581784510E-02 -0.1123266254624E-02  0.0000000000000E+00  0.1102182844536E-02
 0.1376314416326E-02 -0.1215352878800E-02  0.0000000000000E+00  0.6395343994607E-03
 0.1490200887795E-02 -0.1300478988502E-02  0.0000000000000E+00  0.8666714396772E-04
 0.1591924493280E-02 -0.1378844477435E-02  0.0000000000000E+00 -0.5561591043095E-03
-0.1454243759846E-04  0.2604607265548E-04  0.0000000000000E+00 -0.2264017717718E-03
-0.4553780064623E-04  0.4348423580593E-04  0.0000000000000E+00  0.6137819006782E-04
-0.7688913629950E-04  0.5870808410366E-04  0.0000000000000E+00  0.3033062616764E-03
-0.1049038989940E-03  0.6906644931621E-04  0.0000000000000E+00  0.5025818002438E-03
-0.1271452357977E-03  0.7297764184078E-04  0.0000000000000E+00  0.6649276562481E-03
-0.1426011489969E-03  0.7002885305559E-04  0.0000000000000E+00  0.7971799951960E-03
-0.1514829624488E-03  0.6077112055834E-04  0.0000000000000E+00  0.9060829793426E-03
-0.1548262503868E-03  0.4636363416815E-04  0.0000000000000E+00  0.9975526363385E-03
-0.1540696027817E-03  0.2821791978183E-04  0.0000000000000E+00  0.1076403846660E-02
-0.1507182316198E-03  0.7728744318318E-05  0.0000000000000E+00  0.1146392683406E-02
-0.1461253894737E-03 -0.1388717835718E-04  0.0000000000000E+00  0.1210407703808E-02
-0.1413779552205E-03 -0.3566280769101E-04  0.0000000000000E+00  0.1270690265885E-02
-0.1372551118537E-03 -0.5689361803022E-04  0.0000000000000E+00  0.1329022059630E-02
-0.1342296936318E-03 -0.7711950105288E-04  0.0000000000000E+00  0.1386859841064E-02
-0.1324896144739E-03 -0.9609511992479E-04  0.0000000000000E+00  0.1445419702015E-02
-0.1319653493529E-03 -0.1137599794262E-03  0.0000000000000E+00  0.1505721515004E-02
-0.1323561765112E-03 -0.1302134634914E-03  0.0000000000000E+00  0.1568604587657E-02
-0.1331523239025E-03 -0.1456958217971E-03  0.0000000000000E+00  0.1634720776625E-02
-0.1336526086336E-03 -0.1605756852913E-03  0.0000000000000E+00  0.1704513073328E-02
-0.1329786044776E-03 -0.1753417742895E-03  0.0000000000000E+00  0.1778179252461E-02
-0.1300860601987E-03 -0.1905977953062E-03  0.0000000000000E+00  0.1855619370506E-02
-0.1237746355836E-03 -0.2070604856043E-03  0.0000000000000E+00  0.1936373678752E-02
-0.1126965455517E-03 -0.2255594089012E-03  0.0000000000000E+00  0.2019549823865E-02
-0.9536920407704E-04 -0.2470183873983E-03  0.0000000000000E+00  0.2103748360774E-02
-0.7020586209877E-04 -0.2723561870684E-03  0.0000000000000E+00  0.2186987228916E-02
-0.3554595983662E-04 -0.3024712496366E-03  0.0000000000000E+00  0.2266629995912E-02
 0.1030600403751E-04 -0.3383502598995E-03  0.0000000000000E+00  0.2339371279552E-02
 0.6899002052141E-04 -0.3810908080794E-03  0.0000000000000E+00  0.2401261674234E-02
 0.1419438004640E-03 -0.4318122074913E-03  0.0000000000000E+00  0.2447758983984E-02
 0.2302092149569E-03 -0.4914900287017E-03  0.0000000000000E+00  0.2473789316096E-02
 0.3342082654285E-03 -0.5607515150129E-03  0.0000000000000E+00  0.2473794624446E-02
 0.4535141023453E-03 -0.6396661891286E-03  0.0000000000000E+00  0.2441743698944E-02
 0.5866562810077E-03 -0.7275661746350E-03  0.0000000000000E+00  0.2371090974008E-02
 0.7310514358243E-03 -0.8230065408307E-03  0.0000000000000E+00  0.2254723688883E-02
 0.8831340539753E-03 -0.9238748014165E-03  0.0000000000000E+00  0.2084925639435E-02
 0.1038644621073E-02 -0.1027531687307E-02  0.0000000000000E+00  0.1853342543331E-02
 0.1193079482258E-02 -0.1131105814051E-02  0.0000000000000E+00  0.1551194500276E-02
 0.1342248880350E-02 -0.1231938050996E-02  0.0000000000000E+00  0.1169996972870E-02
 0.1482757752784E-02 -0.1327926171007E-02  0.0000000000000E+00  0.7026394383558E-03
 0.1612351436784E-02 -0.1417820910593E-02  0.0000000000000E+00  0.1448096512961E-03
 0.1729209802266E-02 -0.1500964346503E-02  0.0000000000000E+00 -0.5022133386127E-03
-0.1082384648307E-04 -0.1646997813830E-03  0.0000000000000E+00 -0.2352113274083E-03
-0.3433193170687E-04 -0.1517238153725E-03  0.0000000000000E+00  0.5385658399901E-04
-0.5849142231712E-04 -0.1404965201293E-03  0.0000000000000E+00  0.2989264948184E-03
-0.8012435513403E-04 -0.1333023426839E-03  0.0000000000000E+00  0.5026091096228E-03
-0.9709289662774E-04 -0.1315351313504E-03  0.0000000000000E+00  0.6698644973286E-03
-0.1084640445798E-03 -0.1355942187528E-03  0.0000000000000E+00  0.8068194464357E-03
-0.1143671734747E-03 -0.1450339417157E-03  0.0000000000000E+00  0.9197128289568E-03
-0.1156740641814E-03 -0.1588508453462E-03  0.0000000000000E+00  0.1014202200070E-02
-0.1136426558570E-03 -0.1757866657595E-03  0.0000000000000E+00  0.1095053579699E-02
-0.1096186251453E-03 -0.1945696578342E-03  0.0000000000000E+00  0.1166113286020E-02
-0.1048308059897E-03 -0.2140688245453E-03  0.0000000000000E+00  0.1230430941676E-02
-0.1002758739011E-03 -0.2333702422584E-03  0.0000000000000E+00  0.1290430122086E-02
-0.9666958458782E-04 -0.2517987922340E-03  0.0000000000000E+00  0.1348066976709E-02
-0.9443943336812E-04 -0.2689087499544E-03  0.0000000000000E+00  0.1404952227389E-02
-0.9373857057796E-04 -0.2844609314667E-03  0.0000000000000E+00  0.1462432913664E-02
-0.9446755572956E-04 -0.2983975201581E-03  0.0000000000000E+00  0.1521639614296E-02
-0.9629641050699E-04 -0.3108203224189E-03  0.0000000000000E+00  0.1583506884650E-02
-0.9868353069292E-04 -0.3219742124832E-03  0.0000000000000E+00  0.1648771282683E-02
-0.1008906349963E-03 -0.3322366476411E-03  0.0000000000000E+00  0.1717954019547E-02
-0.1019943336407E-03 -0.3421115310140E-03  0.0000000000000E+00  0.1791327661313E-02
-0.1008949833095E-03 -0.3522265547610E-03  0.0000000000000E+00  0.1868865844486E-02
-0.9632424809447E-04 -0.3633335177691E-03  0.0000000000000E+00  0.1950182852592E-02
-0.8685247283405E-04 -0.3763099860317E-03  0.0000000000000E+00  0.2034461946050E-02
-0.7090150121522E-04 -0.3921425723908E-03  0.0000000000000E+00  0.2120381504333E-02
-0.4677648345375E-04 -0.4118326990269E-03  0.0000000000000E+00  0.2206041213611E-02
-0.1270005956605E-04 -0.4363790774636E-03  0.0000000000000E+00  0.2288884152430E-02
 0.3314235864210E-04 -0.4668739161690E-03  0.0000000000000E+00  0.2365662270753E-02
 0.9250649063236E-04 -0.5045164504908E-03  0.0000000000000E+00  0.2432435196997E-02
 0.1669390803135E-03 -0.5505200055979E-03  0.0000000000000E+00  0.2484593683976E-02
 0.2575842453875E-03 -0.6059469816024E-03  0.0000000000000E+00  0.2516895109447E-02
 0.3649633609319E-03 -0.6715081886662E-03  0.0000000000000E+00  0.2523493042835E-02
 0.4887540559571E-03 -0.7473605481336E-03  0.0000000000000E+00  0.2497945714233E-02
 0.6276058457726E-03 -0.8329368134499E-03  0.0000000000000E+00  0.2433198133652E-02
 0.7790764362801E-03 -0.9269097883862E-03  0.0000000000000E+00  0.2321584384875E-02
 0.9397551142619E-03 -0.1027295913133E-02  0.0000000000000E+00  0.2154884524822E-02
 0.1105522001741E-02 -0.1131579999598E-02  0.0000000000000E+00  0.1924418938786E-02
 0.1271933985149E-02 -0.1236963863009E-02  0.0000000000000E+00  0.1621369497569E-02
 0.1434708550351E-02 -0.1340749182280E-02  0.0000000000000E+00  0.1237499998208E-02
 0.1590157483538E-02 -0.1440679204359E-02  0.0000000000000E+00  0.7662025097924E-03
 0.1735378435241E-02 -0.1535157587627E-02  0.0000000000000E+00  0.2039605605009E-03
 0.1867399285641E-02 -0.1622729395638E-02  0.0000000000000E+00 -0.4476990320804E-03
-0.7268414551066E-05 -0.3548049887387E-03  0.0000000000000E+00 -0.2413640344515E-03
-0.2359664449008E-04 -0.3461147776370E-03  0.0000000000000E+00  0.4875706023071E-04
-0.4080219732692E-04 -0.3387714727188E-03  0.0000000000000E+00  0.2964572794916E-03
-0.5617723856225E-04 -0.3347217705696E-03  0.0000000000000E+00  0.5038609890888E-03
-0.6787506643470E-04 -0.3351708431695E-03  0.0000000000000E+00  0.6752864471324E-03
-0.7506514646252E-04 -0.3404798537202E-03  0.0000000000000E+00  0.8162483394432E-03
-0.7783364618161E-04 -0.3502742944661E-03  0.0000000000000E+00  0.9325331885225E-03
-0.7692672290636E-04 -0.3636758386502E-03  0.0000000000000E+00  0.1029551521431E-02
-0.7345006977720E-04 -0.3795592643441E-03  0.0000000000000E+00  0.1112005606379E-02
-0.6860626393985E-04 -0.3967666438391E-03  0.0000000000000E+00  0.1183806675115E-02
-0.6350625188564E-04 -0.4142517322793E-03  0.0000000000000E+00  0.1248140397198E-02
-0.5905661945874E-04 -0.4311574254483E-03  0.0000000000000E+00  0.1307592823298E-02
-0.5590656759184E-04 -0.4468434599952E-03  0.0000000000000E+00  0.1364281071709E-02
-0.5443411241776E-04 -0.4608838300425E-03  0.0000000000000E+00  0.1419961653929E-02
-0.5475377381157E-04 -0.4730497866714E-03  0.0000000000000E+00  0.1476108271515E-02
-0.5673318879407E-04 -0.4832891025560E-03  0.0000000000000E+00  0.1533960606647E-02
-0.6001112207507E-04 -0.4917075789174E-03  0.0000000000000E+00  0.1594548776782E-02
-0.6401305187684E-04 -0.4985551458126E-03  0.0000000000000E+00  0.1658695948580E-02
-0.6796324126948E-04 -0.5042176188710E-03  0.0000000000000E+00  0.1727005053520E-02
-0.7089351928574E-04 -0.5092129246863E-03  0.0000000000000E+00  0.1799828732419E-02
-0.7164943196655E-04 -0.5141910221191E-03  0.0000000000000E+00  0.1877221454328E-02
-0.6889552351502E-04 -0.5199365583746E-03  0.0000000000000E+00  0.1958880691617E-02
-0.6112127613755E-04 -0.5273724669093E-03  0.0000000000000E+00  0.2044075879190E-02
-0.4665374225599E-04 -0.5375453015296E-03  0.0000000000000E+00  0.2131574097880E-02
-0.2368987652729E-04 -0.5515365210596E-03  0.0000000000000E+00  0.2219566165064E-02
 0.9666455074664E-05 -0.5704434997108E-03  0.0000000000000E+00  0.2305581227346E-02
 0.5535401846407E-04 -0.5954644186679E-03  0.0000000000000E+00  0.2386432256736E-02
 0.1152535814472E-03 -0.6279037166806E-03  0.0000000000000E+00  0.2458189246578E-02
 0.1910350868976E-03 -0.6690762103614E-03  0.0000000000000E+00  0.2516175748492E-02
 0.2839636666495E-03 -0.7201428242504E-03  0.0000000000000E+00  0.2554980185503E-02
 0.3946818982138E-03 -0.7819132341196E-03  0.0000000000000E+00  0.2568469536146E-02
 0.5229934595091E-03 -0.8546486094591E-03  0.0000000000000E+00  0.2549797750008E-02
 0.6676836775359E-03 -0.9378967697857E-03  0.0000000000000E+00  0.2491412719757E-02
 0.8264544054064E-03 -0.1030454461400E-02  0.0000000000000E+00  0.2385111606410E-02
 0.9960333173034E-03 -0.1130459233618E-02  0.0000000000000E+00  0.2222182136147E-02
 0.1172401881480E-02 -0.1235495081781E-02  0.0000000000000E+00  0.1993607883765E-02
 0.1351127768661E-02 -0.1342802358282E-02  0.0000000000000E+00  0.1690477118062E-02
 0.1527788514440E-02 -0.1449616685563E-02  0.0000000000000E+00  0.1304723510424E-02
 0.1698342918373E-02 -0.1553479889459E-02  0.0000000000000E+00  0.8301604071462E-03
 0.1859223543867E-02 -0.1652371636309E-02  0.0000000000000E+00  0.2638049360518E-03
 0.2006580104123E-02 -0.1744184352935E-02  0.0000000000000E+00 -0.3928703012409E-03
-0.3850252237620E-05 -0.5443419523159E-03  0.0000000000000E+00 -0.2449700468749E-03
-0.1325790237573E-04 -0.5397887666842E-03  0.0000000000000E+00  0.4599854223910E-04
-0.2371168423601E-04 -0.5362337578184E-03  0.0000000000000E+00  0.2958722716181E-03
-0.3293587082852E-04 -0.5353110583539E-03  0.0000000000000E+00  0.5063736342694E-03
-0.3936620794928E-04 -0.5380383603881E-03  0.0000000000000E+00  0.6812816650951E-03
-0.4229208785195E-04 -0.5447197866138E-03  0.0000000000000E+00  0.8255855397776E-03
-0.4178789999279E-04 -0.5550239749787E-03  0.0000000000000E+00  0.9446714165141E-03
-0.3850672169205E-04 -0.5681713401818E-03  0.0000000000000E+00  0.1043719893756E-02
-0.3342746726834E-04 -0.5831511571501E-03  0.0000000000000E+00  0.1127362346571E-02
-0.2762534707790E-04 -0.5989099039193E-03  0.0000000000000E+00  0.1199556212760E-02
-0.2210052506296E-04 -0.6144840148374E-03  0.0000000000000E+00  0.1263602409477E-02
-0.1767063703149E-04 -0.6290756471527E-03  0.0000000000000E+00  0.1322231628810E-02
-0.1491619778304E-04 -0.6420838069846E-03  0.0000000000000E+00  0.1377708737120E-02
-0.1416238508756E-04 -0.6531068288027E-03  0.0000000000000E+00  0.1431927205099E-02
-0.1548177747791E-04 -0.6619302371459E-03  0.0000000000000E+00  0.1486482066337E-02
-0.1870647707174E-04 -0.6685100309746E-03  0.0000000000000E+00  0.1542719396923E-02
-0.2344230336279E-04 -0.6729573784408E-03  0.0000000000000E+00  0.1601764190966E-02
-0.2908102973270E-04 -0.6755274928169E-03  0.0000000000000E+00  0.1664527303579E-02
-0.3480943753556E-04 -0.6766138193368E-03  0.0000000000000E+00  0.1731696230358E-02
-0.3961513954551E-04 -0.6767468043787E-03  0.0000000000000E+00  0.1803708441309E-02
-0.4228986805305E-04 -0.6765965328368E-03  0.0000000000000E+00  0.1880706032144E-02
-0.4143231309212E-04 -0.6769778325658E-03  0.0000000000000E+00  0.1962478401185E-02
-0.3545238024422E-04 -0.6788559593991E-03  0.0000000000000E+00  0.2048391380191E-02
-0.2258319446219E-04 -0.6833342807279E-03  0.0000000000000E+00  0.2137311514299E-02
-0.9132711782933E-06 -0.6915716011057E-03  0.0000000000000E+00  0.2227530466000E-02
 0.3157461948444E-04 -0.7047624999049E-03  0.0000000000000E+00  0.2316670996007E-02
 0.7694896374077E-04 -0.7242118995939E-03  0.0000000000000E+00  0.2401612567672E-02
 0.1372253344576E-03 -0.7513334095754E-03  0.0000000000000E+00  0.2478439435008E-02
 0.2142113287292E-03 -0.7875512048155E-03  0.0000000000000E+00  0.2542410967363E-02
 0.3093118493311E-03 -0.8341366331373E-03  0.0000000000000E+00  0.2587949752033E-02
 0.4233120576808E-03 -0.8920133522596E-03  0.0000000000000E+00  0.2608640679215E-02
 0.5561623555901E-03 -0.9615629279268E-03  0.0000000000000E+00  0.2597240519544E-02
 0.7067987693435E-03 -0.1042461595249E-02  0.0000000000000E+00  0.2545709665851E-02
 0.8730702787836E-03 -0.1133635542354E-02  0.0000000000000E+00  0.2445317374349E-02
 0.1051828658418E-02 -0.1233336283233E-02  0.0000000000000E+00  0.2286859135080E-02
 0.1239124394911E-02 -0.1339225692362E-02  0.0000000000000E+00  0.2060958383183E-02
 0.1430492668293E-02 -0.1448553141850E-02  0.0000000000000E+00  0.1758553198208E-02
 0.1621324058394E-02 -0.1558455767462E-02  0.0000000000000E+00  0.1371666120915E-02
 0.1807181027032E-02 -0.1666229822026E-02  0.0000000000000E+00  0.8944098431928E-03
 0.1983855281519E-02 -0.1769414581020E-02  0.0000000000000E+00  0.3241182817270E-03
 0.2146797372727E-02 -0.1865369464050E-02  0.0000000000000E+00 -0.3378700687223E-03
-0.5461835097079E-06 -0.7333785622259E-03  0.0000000000000E+00 -0.2461215280040E-03
-0.3249133706390E-05 -0.7328388518388E-03  0.0000000000000E+00  0.4551296990861E-04
-0.7120116094938E-05 -0.7329926844275E-03  0.0000000000000E+00  0.2971492382604E-03
-0.1028307436291E-04 -0.7351834217465E-03  0.0000000000000E+00  0.5101781712278E-03
-0.1144740895158E-04 -0.7402436905426E-03  0.0000000000000E+00  0.6879271142855E-03
-0.1003540539764E-04 -0.7484061664322E-03  0.0000000000000E+00  0.8349369193802E-03
-0.6135161805320E-05 -0.7593597610100E-03  0.0000000000000E+00  0.9562436477478E-03
-0.3342810817701E-06 -0.7724010696381E-03  0.0000000000000E+00  0.1056819033889E-02
 0.6492543131592E-05 -0.7866171730141E-03  0.0000000000000E+00  0.1141222621395E-02
 0.1338277545540E-04 -0.8010497785143E-03  0.0000000000000E+00  0.1213445053601E-02
 0.1943977576224E-04 -0.8148152620304E-03  0.0000000000000E+00  0.1276885609187E-02
 0.2393303409733E-04 -0.8271765415122E-03  0.0000000000000E+00  0.1334403766658E-02
 0.2635207344683E-04 -0.8375754466672E-03  0.0000000000000E+00  0.1388399404551E-02
 0.2642724024700E-04 -0.8456386268444E-03  0.0000000000000E+00  0.1440893682918E-02
 0.2413068649317E-04 -0.8511692759888E-03  0.0000000000000E+00  0.1493596746590E-02
 0.1966805557770E-04 -0.8541339531320E-03  0.0000000000000E+00  0.1547957330080E-02
 0.1346782309189E-04 -0.8546503260181E-03  0.0000000000000E+00  0.1605193636475E-02
 0.6172378848729E-05 -0.8529788779073E-03  0.0000000000000E+00  0.1666304430805E-02
-0.1367908170180E-05 -0.8495196669548E-03  0.0000000000000E+00  0.1732063897298E-02
-0.8097398816104E-05 -0.8448137976696E-03  0.0000000000000E+00  0.1802998486336E-02
-0.1275543202583E-04 -0.8395489185845E-03  0.0000000000000E+00  0.1879344195318E-02
-0.1387650709686E-04 -0.8345669232346E-03  0.0000000000000E+00  0.1960990646781E-02
-0.9792541067810E-05 -0.8308719345541E-03  0.0000000000000E+00  0.2047409995226E-02
 0.1356263156088E-05 -0.8296207035059E-03  0.0000000000000E+00  0.2137579003650E-02
 0.2159012184694E-04 -0.8320465534690E-03  0.0000000000000E+00  0.2229900369818E-02
 0.5304989125476E-04 -0.8394398507848E-03  0.0000000000000E+00  0.2322099159190E-02
 0.9793961028653E-04 -0.8532131945686E-03  0.0000000000000E+00  0.2411128706925E-02
 0.1584196923818E-03 -0.8748935574686E-03  0.0000000000000E+00  0.2493094062851E-02
 0.2364500177753E-03 -0.9060225381251E-03  0.0000000000000E+00  0.2563196576244E-02
 0.3335939945711E-03 -0.9479938676131E-03  0.0000000000000E+00  0.2615699283606E-02
 0.4508004771159E-03 -0.1001860112259E-02  0.0000000000000E+00  0.2643911861497E-02
 0.5881868284662E-03 -0.1068138910666E-02  0.0000000000000E+00  0.2640201413626E-02
 0.7448544428585E-03 -0.1146647735255E-02  0.0000000000000E+00  0.2596047635063E-02
 0.9188031619482E-03 -0.1236447713976E-02  0.0000000000000E+00  0.2502194167031E-02
 0.1106997362983E-02 -0.1335898568199E-02  0.0000000000000E+00  0.2348934429999E-02
 0.1305529400414E-02 -0.1442722174487E-02  0.0000000000000E+00  0.2126499138427E-02
 0.1509863841405E-02 -0.1554150425897E-02  0.0000000000000E+00  0.1825615034100E-02
 0.1715162523756E-02 -0.1667189920775E-02  0.0000000000000E+00  0.1438304051705E-02
 0.1916563177797E-02 -0.1778859780486E-02  0.0000000000000E+00  0.9588486403593E-03
 0.2109248612692E-02 -0.1886267117113E-02  0.0000000000000E+00  0.3847442955876E-03
 0.2288072495920E-02 -0.1986318261142E-02  0.0000000000000E+00 -0.2827896891672E-03
 0.2664708775691E-05 -0.9219788815329E-03  0.0000000000000E+00 -0.2448944048373E-03
 0.6489989344113E-05 -0.9253521060686E-03  0.0000000000000E+00  0.4724443933456E-04
 0.9063791689427E-05 -0.9291509014106E-03  0.0000000000000E+00  0.3002706835201E-03
 0.1189006676864E-04 -0.9344466089057E-03  0.0000000000000E+00  0.5153025504127E-03
 0.1599419362228E-04 -0.9418898437217E-03  0.0000000000000E+00  0.6952909012935E-03
 0.2181135509495E-04 -0.9516308418125E-03  0.0000000000000E+00  0.8443972801030E-03
 0.2921907507649E-04 -0.9633601595677E-03  0.0000000000000E+00  0.9673558240324E-03
 0.3767192407641E-04 -0.9764314414069E-03  0.0000000000000E+00  0.1068953197143E-02
 0.4637967628794E-04 -0.9900148095035E-03  0.0000000000000E+00  0.1153681111417E-02
 0.5447904851720E-04 -0.1003238584834E-02  0.0000000000000E+00  0.1225555278444E-02
 0.6116984768387E-04 -0.1015296048641E-02  0.0000000000000E+00  0.1288060000589E-02
 0.6580647965229E-04 -0.1025511722663E-02  0.0000000000000E+00  0.1344169634805E-02
 0.6794928310042E-04 -0.1033373129230E-02  0.0000000000000E+00  0.1396406945286E-02
 0.6738625553167E-04 -0.1038538640349E-02  0.0000000000000E+00  0.1446911227035E-02
 0.6413659362212E-04 -0.1040832091226E-02  0.0000000000000E+00  0.1497500746046E-02
 0.5844550016813E-04 -0.1040232616866E-02  0.0000000000000E+00  0.1549722201856E-02
 0.5077674131966E-04 -0.1036865250303E-02  0.0000000000000E+00  0.1604884372815E-02
 0.4180697633044E-04 -0.1030995463024E-02  0.0000000000000E+00  0.1664073271417E-02
 0.3242301407511E-04 -0.1023028600446E-02  0.0000000000000E+00  0.1728151122166E-02
 0.2372236586612E-04 -0.1013514194813E-02  0.0000000000000E+00  0.1797736839930E-02
 0.1701623011746E-04 -0.1003154472406E-02  0.0000000000000E+00  0.1873166027540E-02
 0.1383222047885E-04 -0.9928148301533E-03  0.0000000000000E+00  0.1954436372845E-02
 0.1591448308783E-04 -0.9835343811549E-03  0.0000000000000E+00  0.2041136012814E-02
 0.2521452196130E-04 -0.9765194887376E-03  0.0000000000000E+00  0.2132362751239E-02
 0.4386151878993E-04 -0.9730749549480E-03  0.0000000000000E+00  0.2226641097746E-02
 0.7412255404715E-04 -0.9745854351968E-03  0.0000000000000E+00  0.2321808372506E-02
 0.1183431839311E-03 -0.9825721524920E-03  0.0000000000000E+00  0.2414901167615E-02
 0.1788388311739E-03 -0.9986796855693E-03  0.0000000000000E+00  0.2502054551966E-02
 0.2577363694362E-03 -0.1024575155374E-02  0.0000000000000E+00  0.2578421136667E-02
 0.3567764433180E-03 -0.1061786595177E-02  0.0000000000000E+00  0.2638113739503E-02
 0.4770926398772E-03 -0.1111510253422E-02  0.0000000000000E+00  0.2674175868617E-02
 0.6189895299574E-03 -0.1174415304596E-02  0.0000000000000E+00  0.2678592710102E-02
 0.7817489905124E-03 -0.1250473249647E-02  0.0000000000000E+00  0.2642367340706E-02
 0.9635269486440E-03 -0.1338886282882E-02  0.0000000000000E+00  0.2555713943647E-02
 0.1161392067807E-02 -0.1438118465110E-02  0.0000000000000E+00  0.2408405444054E-02
 0.1371456149781E-02 -0.1545936946714E-02  0.0000000000000E+00  0.2190239019946E-02
 0.1589080184757E-02 -0.1659532662361E-02  0.0000000000000E+00  0.1891662595511E-02
 0.1809161943891E-02 -0.1775753538504E-02  0.0000000000000E+00  0.1504602354272E-02
 0.2026394851402E-02 -0.1891320527908E-02  0.0000000000000E+00  0.1023388978269E-02
 0.2235377132300E-02 -0.2002921957372E-02  0.0000000000000E+00  0.4455737960082E-03
 0.2430414652208E-02 -0.2107056803767E-02  0.0000000000000E+00 -0.2276971395548E-03
 0.5801456533179E-05 -0.1110203715247E-02  0.0000000000000E+00 -0.2413498522069E-03
 0.1601456450634E-04 -0.1117410504628E-02  0.0000000000000E+00  0.5114842243110E-04
 0.2492414307219E-04 -0.1124805312750E-02  0.0000000000000E+00  0.3052242482173E-03
 0.3368532160320E-04 -0.1133203477405E-02  0.0000000000000E+00  0.5217729960176E-03
 0.4306601745251E-04 -0.1143076881783E-02  0.0000000000000E+00  0.7034341589767E-03
 0.5335167740536E-04 -0.1154484929393E-02  0.0000000000000E+00  0.8540519797554E-03
 0.6436867748207E-04 -0.1167104695629E-02  0.0000000000000E+00  0.9781046386000E-03
 0.7559419896335E-04 -0.1180330796113E-02  0.0000000000000E+00  0.1080219367884E-02
 0.8630539189527E-04 -0.1193403561509E-02  0.0000000000000E+00  0.1164827967369E-02
 0.9572621938965E-04 -0.1205530107140E-02  0.0000000000000E+00  0.1235967187116E-02
 0.1031463067133E-03 -0.1215977584057E-02  0.0000000000000E+00  0.1297196172091E-02
 0.1080026376236E-03 -0.1224132558621E-02  0.0000000000000E+00  0.1351592090453E-02
 0.1099267619674E-03 -0.1229530598384E-02  0.0000000000000E+00  0.1401789124398E-02
 0.1087660118264E-03 -0.1231864727334E-02  0.0000000000000E+00  0.1450034964976E-02
 0.1045885224796E-03 -0.1230982000568E-02  0.0000000000000E+00  0.1498248329513E-02
 0.9768048799963E-04 -0.1226875824638E-02  0.0000000000000E+00  0.1548068284813E-02
 0.8854159879776E-04 -0.1219679179365E-02  0.0000000000000E+00  0.1600890597725E-02
 0.7788252128360E-04 -0.1209661954344E-02  0.0000000000000E+00  0.1657886959728E-02
 0.6662539732694E-04 -0.1197233132317E-02  0.0000000000000E+00  0.1720008167943E-02
 0.5590780005088E-04 -0.1182948066007E-02  0.0000000000000E+00  0.1787968362889E-02
 0.4708915835175E-04 -0.1167520147039E-02  0.0000000000000E+00  0.1862207838060E-02
 0.4175668316908E-04 -0.1151834260627E-02  0.0000000000000E+00  0.1942839709507E-02
 0.4172827706453E-04 -0.1136960191138E-02  0.0000000000000E+00  0.2029577506233E-02
 0.4904564978128E-04 -0.1124149753105E-02  0.0000000000000E+00  0.2121651017278E-02
 0.6594701053003E-04 -0.1114775887482E-02  0.0000000000000E+00  0.2217718002120E-02
 0.9482818682488E-04 -0.1110315836272E-02  0.0000000000000E+00  0.2315739322450E-02
 0.1381821951282E-03 -0.1112400250053E-02  0.0000000000000E+00  0.2412846279192E-02
 0.1984896331917E-03 -0.1122795438975E-02  0.0000000000000E+00  0.2505215904813E-02
 0.2780590828889E-03 -0.1143302030895E-02  0.0000000000000E+00  0.2587964466578E-02
 0.3788271908300E-03 -0.1175594163555E-02  0.0000000000000E+00  0.2655066891878E-02
 0.5021334600767E-03 -0.1221026450349E-02  0.0000000000000E+00  0.2699311671539E-02
 0.6484903493158E-03 -0.1280435109269E-02  0.0000000000000E+00  0.2712310081311E-02
 0.8173763790765E-03 -0.1353958882490E-02  0.0000000000000E+00  0.2684590202603E-02
 0.1007110888790E-02 -0.1440948328282E-02  0.0000000000000E+00  0.2605827465862E-02
 0.1214861997136E-02 -0.1539970229938E-02  0.0000000000000E+00  0.2465248323941E-02
 0.1436743141948E-02 -0.1648825420899E-02  0.0000000000000E+00  0.2252167897040E-02
 0.1667983910820E-02 -0.1764643869483E-02  0.0000000000000E+00  0.1956681480481E-02
 0.1903188306242E-02 -0.1884091409616E-02  0.0000000000000E+00  0.1570522116272E-02
 0.2136589114337E-02 -0.2003575916285E-02  0.0000000000000E+00  0.1087959746808E-02
 0.2362211417748E-02 -0.2119376451320E-02  0.0000000000000E+00  0.5065285930578E-03
 0.2573827026328E-02 -0.2227605101251E-02  0.0000000000000E+00 -0.1726493954073E-03
 0.8881515195599E-05 -0.1298111084660E-02  0.0000000000000E+00 -0.2355355162889E-03
 0.2537530812433E-04 -0.1309091673089E-02  0.0000000000000E+00  0.5719108389589E-04
 0.4053897448230E-04 -0.1320047855843E-02  0.0000000000000E+00  0.3120029676216E-03
 0.5519830838547E-04 -0.1331552513145E-02  0.0000000000000E+00  0.5296151263002E-03
 0.6987063297080E-04 -0.1343902005098E-02  0.0000000000000E+00  0.7124125656911E-03
 0.8468619946276E-04 -0.1357058477882E-02  0.0000000000000E+00  0.8639782988903E-03
 0.9940662000105E-04 -0.1370673295609E-02  0.0000000000000E+00  0.9885783805354E-03
 0.1135153676857E-03 -0.1384168680222E-02  0.0000000000000E+00  0.1090707484676E-02
 0.1263423766065E-03 -0.1396844233368E-02  0.0000000000000E+00  0.1174748529462E-02
 0.1371883587051E-03 -0.1407979011202E-02  0.0000000000000E+00  0.1244758717552E-02
 0.1454267869935E-03 -0.1416911242746E-02  0.0000000000000E+00  0.1304364616349E-02
 0.1505749781624E-03 -0.1423089799412E-02  0.0000000000000E+00  0.1356735819808E-02
 0.1523358808208E-03 -0.1426100288315E-02  0.0000000000000E+00  0.1404607107930E-02
 0.1506175147503E-03 -0.1425672927328E-02  0.0000000000000E+00  0.1450324695985E-02
 0.1455384868910E-03 -0.1421680216204E-02  0.0000000000000E+00  0.1495899461911E-02
 0.1374270542183E-03 -0.1414131215521E-02  0.0000000000000E+00  0.1543056375929E-02
 0.1268191030562E-03 -0.1403167140848E-02  0.0000000000000E+00  0.1593273662024E-02
 0.1144586655988E-03 -0.1389061428987E-02  0.0000000000000E+00  0.1647806196128E-02
 0.1013016997861E-03 -0.1372224715891E-02  0.0000000000000E+00  0.1707693019933E-02
 0.8852358546399E-04 -0.1353215185357E-02  0.0000000000000E+00  0.1773745487439E-02
 0.7752920681295E-04 -0.1332753552009E-02  0.0000000000000E+00  0.1846513004089E-02
 0.6996238995738E-04 -0.1311739712202E-02  0.0000000000000E+00  0.1926230971765E-02
 0.6771205511408E-04 -0.1291269334171E-02  0.0000000000000E+00  0.2012747470163E-02
 0.7290824809830E-04 -0.1272635076654E-02  0.0000000000000E+00  0.2105435364119E-02
 0.8789797946773E-04 -0.1257274287534E-02  0.0000000000000E+00  0.2203097802845E-02
 0.1152081282960E-03 -0.1246754759608E-02  0.0000000000000E+00  0.2303831855983E-02
 0.1574849407898E-03 -0.1242817075397E-02  0.0000000000000E+00  0.2404877087149E-02
 0.2173842210000E-03 -0.1247353121157E-02  0.0000000000000E+00  0.2502467182884E-02
 0.2974109083386E-03 -0.1262304765239E-02  0.0000000000000E+00  0.2591697590328E-02
 0.3997164944871E-03 -0.1289503873533E-02  0.0000000000000E+00  0.2666420693060E-02
 0.5258679329141E-03 -0.1330478087167E-02  0.0000000000000E+00  0.2719183286689E-02
 0.6766070794134E-03 -0.1386246464993E-02  0.0000000000000E+00  0.2741231187891E-02
 0.8516268452063E-03 -0.1457129032638E-02  0.0000000000000E+00  0.2722617061256E-02
 0.1049419945369E-02 -0.1542633645845E-02  0.0000000000000E+00  0.2652463544375E-02
 0.1267252911903E-02 -0.1641430768569E-02  0.0000000000000E+00  0.2519417913571E-02
 0.1501227623543E-02 -0.1751346616409E-02  0.0000000000000E+00  0.2312257511936E-02
 0.1746419283540E-02 -0.1869433875853E-02  0.0000000000000E+00  0.2020645488279E-02
 0.1997112495138E-02 -0.1992156964737E-02  0.0000000000000E+00  0.1636023964601E-02
 0.2247062497636E-02 -0.2115598129052E-02  0.0000000000000E+00  0.1152504511445E-02
 0.2489719139957E-02 -0.2235629452633E-02  0.0000000000000E+00  0.5675504040817E-03
 0.2718310344718E-02 -0.2347978574252E-02  0.0000000000000E+00 -0.1176988477758E-03
 0.1192102612598E-04 -0.1485756633140E-02  0.0000000000000E+00 -0.2274865759928E-03
 0.3461927635718E-04 -0.1500469530253E-02  0.0000000000000E+00  0.6534866207602E-04
 0.5598122021311E-04 -0.1514966189013E-02  0.0000000000000E+00  0.3206053961613E-03
 0.7651939468875E-04 -0.1529588324659E-02  0.0000000000000E+00  0.5388547816743E-03
 0.9650635492833E-04 -0.1544459697462E-02  0.0000000000000E+00  0.7222775262293E-03
 0.1159129089076E-03 -0.1559440248161E-02  0.0000000000000E+00  0.8742465360273E-03
 0.1344248397846E-03 -0.1574145800033E-02  0.0000000000000E+00  0.9988576290892E-03
 0.1515184136119E-03 -0.1588015230038E-02  0.0000000000000E+00  0.1100500628963E-02
 0.1665640968202E-03 -0.1600398312618E-02  0.0000000000000E+00  0.1183523082263E-02
 0.1789304150329E-03 -0.1610640278311E-02  0.0000000000000E+00  0.1252004927748E-02
 0.1880695426538E-03 -0.1618148083133E-02  0.0000000000000E+00  0.1309635109590E-02
 0.1935771654806E-03 -0.1622433175486E-02  0.0000000000000E+00  0.1359666749127E-02
 0.1952277676197E-03 -0.1623132983260E-02  0.0000000000000E+00  0.1404924991269E-02
 0.1929911867095E-03 -0.1620017162517E-02  0.0000000000000E+00  0.1447844580332E-02
 0.1870377344846E-03 -0.1612985572878E-02  0.0000000000000E+00  0.1490519673785E-02
 0.1777384687634E-03 -0.1602064012824E-02  0.0000000000000E+00  0.1534753838504E-02
 0.1656653866971E-03 -0.1587401929193E-02  0.0000000000000E+00  0.1582102282953E-02
 0.1515948602803E-03 -0.1569275128514E-02  0.0000000000000E+00  0.1633899627957E-02
 0.1365147265520E-03 -0.1548093576924E-02  0.0000000000000E+00  0.1691271934231E-02
 0.1216354595015E-03 -0.1524414915559E-02  0.0000000000000E+00  0.1755128936845E-02
 0.1084041365000E-03 -0.1498962906914E-02  0.0000000000000E+00  0.1826132864455E-02
 0.9851771849811E-04 -0.1472647508166E-02  0.0000000000000E+00  0.1904647721774E-02
 0.9393291768456E-04 -0.1446584985303E-02  0.0000000000000E+00  0.1990665027785E-02
 0.9686579152213E-04 -0.1422103728146E-02  0.0000000000000E+00  0.2083711956285E-02
 0.1097715182694E-03 -0.1400701270906E-02  0.0000000000000E+00  0.2182749894650E-02
 0.1353099705014E-03 -0.1384033456911E-02  0.0000000000000E+00  0.2286026176311E-02
 0.1762860681787E-03 -0.1373950849333E-02  0.0000000000000E+00  0.2390904294645E-02
 0.2355405869990E-03 -0.1372474312892E-02  0.0000000000000E+00  0.2493692046979E-02
 0.3157893366048E-03 -0.1381694305038E-02  0.0000000000000E+00  0.2589482758492E-02
 0.4194176120046E-03 -0.1403611805006E-02  0.0000000000000E+00  0.2672024728809E-02
 0.5482418942446E-03 -0.1439942189380E-02  0.0000000000000E+00  0.2733638736641E-02
 0.7032561375518E-03 -0.1491903668075E-02  0.0000000000000E+00  0.2765214366590E-02
 0.8843874665932E-03 -0.1560012786708E-02  0.0000000000000E+00  0.2756326931569E-02
 0.1090315059360E-02 -0.1643945679775E-02  0.0000000000000E+00  0.2695528204994E-02
 0.1318406927545E-02 -0.1742480347364E-02  0.0000000000000E+00  0.2570847567018E-02
 0.1564744847447E-02 -0.1853463559208E-02  0.0000000000000E+00  0.2370462169990E-02
 0.1824231038112E-02 -0.1973858033987E-02  0.0000000000000E+00  0.2083518292948E-02
 0.2090807618731E-02 -0.2099910480516E-02  0.0000000000000E+00  0.1701069175012E-02
 0.2357732533703E-02 -0.2227364756285E-02  0.0000000000000E+00  0.1216978269538E-02
 0.2617865789923E-02 -0.2351680248231E-02  0.0000000000000E+00  0.6285934375761E-03
 0.2863865236268E-02 -0.2468189546765E-02  0.0000000000000E+00 -0.6289694911386E-04
 0.1493503817967E-04 -0.1673193982763E-02  0.0000000000000E+00 -0.2172266070093E-03
 0.4379048497467E-04 -0.1691614861901E-02  0.0000000000000E+00  0.7560694232825E-04
 0.7131955947591E-04 -0.1709644326524E-02  0.0000000000000E+00  0.3310356723294E-03
 0.9773451862959E-04 -0.1727402142700E-02  0.0000000000000E+00  0.5495186573596E-03
 0.1230678263055E-03 -0.1744841949399E-02  0.0000000000000E+00  0.7330771065554E-03
 0.1471273964590E-03 -0.1761717628368E-02  0.0000000000000E+00  0.8849208967856E-03
 0.1695141841645E-03 -0.1777601633955E-02  0.0000000000000E+00  0.1009015833439E-02
 0.1896862139711E-03 -0.1791940705052E-02  0.0000000000000E+00  0.1109675193660E-02
 0.2070444250739E-03 -0.1804127467782E-02  0.0000000000000E+00  0.1191226656292E-02
 0.2210178149935E-03 -0.1813568735901E-02  0.0000000000000E+00  0.1257777556314E-02
 0.2311330702278E-03 -0.1819738442744E-02  0.0000000000000E+00  0.1313076174027E-02
 0.2370627230424E-03 -0.1822211061965E-02  0.0000000000000E+00  0.1360451528009E-02
 0.2386530185407E-03 -0.1820677540971E-02  0.0000000000000E+00  0.1402809383837E-02
 0.2359366192504E-03 -0.1814949006261E-02  0.0000000000000E+00  0.1442662870182E-02
 0.2291365349246E-03 -0.1804954329248E-02  0.0000000000000E+00  0.1482179957834E-02
 0.2186670577400E-03 -0.1790736851055E-02  0.0000000000000E+00  0.1523234669771E-02
 0.2051358633359E-03 -0.1772453956966E-02  0.0000000000000E+00  0.1567452783136E-02
 0.1893502516259E-03 -0.1750382339200E-02  0.0000000000000E+00  0.1616244260678E-02
 0.1723275750803E-03 -0.1724928632392E-02  0.0000000000000E+00  0.1670820024955E-02
 0.1553102208526E-03 -0.1696646178240E-02  0.0000000000000E+00  0.1732188494634E-02
 0.1397836920295E-03 -0.1666257078047E-02  0.0000000000000E+00  0.1801127674477E-02
 0.1274940725690E-03 -0.1634675915138E-02  0.0000000000000E+00  0.1878135903172E-02
 0.1204620970453E-03 -0.1603033736892E-02  0.0000000000000E+00  0.1963356719068E-02
 0.1209869671364E-03 -0.1572688982978E-02  0.0000000000000E+00  0.2056482949010E-02
 0.1316308671408E-03 -0.1545194566742E-02  0.0000000000000E+00  0.2156647748921E-02
 0.1551880970442E-03 -0.1522291284939E-02  0.0000000000000E+00  0.2262264139045E-02
 0.1946272149208E-03 -0.1505939116829E-02  0.0000000000000E+00  0.2370837311341E-02
 0.2529833313999E-03 -0.1498290701924E-02  0.0000000000000E+00  0.2478769413945E-02
 0.3331974225225E-03 -0.1501591912540E-02  0.0000000000000E+00  0.2581173596028E-02
 0.4379076826280E-03 -0.1518023919780E-02  0.0000000000000E+00  0.2671715811211E-02
 0.5692029075313E-03 -0.1549504636576E-02  0.0000000000000E+00  0.2742509151760E-02
 0.7283533710434E-03 -0.1597468441150E-02  0.0000000000000E+00  0.2784097435250E-02
 0.9155427592034E-03 -0.1662645154940E-02  0.0000000000000E+00  0.2785575808346E-02
 0.1129653389983E-02 -0.1744892599019E-02  0.0000000000000E+00  0.2734903808341E-02
 0.1368162268019E-02 -0.1843103385524E-02  0.0000000000000E+00  0.2619448833869E-02
 0.1627127229654E-02 -0.1955143648317E-02  0.0000000000000E+00  0.2426719145002E-02
 0.1901262821711E-02 -0.2077876867508E-02  0.0000000000000E+00  0.2145254300415E-02
 0.2184146930141E-02 -0.2207317758398E-02  0.0000000000000E+00  0.1765619537942E-02
 0.2468516420006E-02 -0.2338857275657E-02  0.0000000000000E+00  0.1281344356183E-02
 0.2746615705817E-02 -0.2467528638804E-02  0.0000000000000E+00  0.6896195719197E-03
 0.3010494129294E-02 -0.2588248841491E-02  0.0000000000000E+00 -0.8296419988923E-05
 0.1793770096691E-04 -0.1860475050567E-02  0.0000000000000E+00 -0.2047683136330E-03
 0.5293045038261E-04 -0.1882595816435E-02  0.0000000000000E+00  0.8796079606780E-04
 0.8661916770075E-04 -0.1904163189262E-02  0.0000000000000E+00  0.3433035199511E-03
 0.1189259402344E-03 -0.1925082259942E-02  0.0000000000000E+00  0.5616347540933E-03
 0.1496465833008E-03 -0.1945138459180E-02  0.0000000000000E+00  0.7448567310342E-03
 0.1784231383932E-03 -0.1963976553265E-02  0.0000000000000E+00  0.8960601638458E-03
 0.2047644125125E-03 -0.1981119482922E-02  0.0000000000000E+00  0.1019119739422E-02
 0.2281013269915E-03 -0.1996015003320E-02  0.0000000000000E+00  0.1118300975546E-02
 0.2478572983867E-03 -0.2008092990177E-02  0.0000000000000E+00  0.1197928814250E-02
 0.2635160673712E-03 -0.2016818491535E-02  0.0000000000000E+00  0.1262144602787E-02
 0.2746757087910E-03 -0.2021731401468E-02  0.0000000000000E+00  0.1314754572552E-02
 0.2810846563625E-03 -0.2022469984209E-02  0.0000000000000E+00  0.1359157043251E-02
 0.2826613533770E-03 -0.2018780438658E-02  0.0000000000000E+00  0.1398329016492E-02
 0.2795022620491E-03 -0.2010517260929E-02  0.0000000000000E+00  0.1434851655051E-02
 0.2718839005612E-03 -0.1997639768621E-02  0.0000000000000E+00  0.1470956674902E-02
 0.2602639547132E-03 -0.1980209393546E-02  0.0000000000000E+00  0.1508579577340E-02
 0.2452850114315E-03 -0.1958390888052E-02  0.0000000000000E+00  0.1549409342722E-02
 0.2277835030570E-03 -0.1932460044735E-02  0.0000000000000E+00  0.1594925891292E-02
 0.2088035037614E-03 -0.1902817171518E-02  0.0000000000000E+00  0.1646421886764E-02
 0.1896156559631E-03 -0.1870007176229E-02  0.0000000000000E+00  0.1705003824963E-02
 0.1717395983638E-03 -0.1834745357730E-02  0.0000000000000E+00  0.1771567629257E-02
 0.1569659617532E-03 -0.1797944997102E-02  0.0000000000000E+00  0.1846751061208E-02
 0.1473751324564E-03 -0.1760745546088E-02  0.0000000000000E+00  0.1930857891353E-02
 0.1453459574338E-03 -0.1724529183576E-02  0.0000000000000E+00  0.2023757994111E-02
 0.1535458162837E-03 -0.1690898710698E-02  0.0000000000000E+00  0.2124770445876E-02
 0.1749042150312E-03 -0.1661676050962E-02  0.0000000000000E+00  0.2232490688976E-02
 0.2125576755928E-03 -0.1638929261954E-02  0.0000000000000E+00  0.2344585449166E-02
 0.2697444588199E-03 -0.1624944778843E-02  0.0000000000000E+00  0.2457574260658E-02
 0.3496446903434E-03 -0.1622130042932E-02  0.0000000000000E+00  0.2566615388746E-02
 0.4551686954856E-03 -0.1632857102723E-02  0.0000000000000E+00  0.2665317685954E-02
 0.5887012164805E-03 -0.1659261322762E-02  0.0000000000000E+00  0.2745607938798E-02
 0.7518148777920E-03 -0.1703011132722E-02  0.0000000000000E+00  0.2797696484212E-02
 0.9449752177215E-03 -0.1765068193197E-02  0.0000000000000E+00  0.2810195340941E-02
 0.1167288420437E-02 -0.1845488203178E-02  0.0000000000000E+00  0.2770447902102E-02
 0.1416352811253E-02 -0.1943289008752E-02  0.0000000000000E+00  0.2665110738903E-02
 0.1688203257760E-02 -0.2056358713889E-02  0.0000000000000E+00  0.2480948473861E-02
 0.1977355496983E-02 -0.2181455476608E-02  0.0000000000000E+00  0.2205798589092E-02
 0.2277001932525E-02 -0.2314348953814E-02  0.0000000000000E+00  0.1829636375444E-02
 0.2579329972431E-02 -0.2450060080714E-02  0.0000000000000E+00  0.1345571642172E-02
 0.2875932731745E-02 -0.2583175215088E-02  0.0000000000000E+00  0.7505950290559E-03
 0.3158202485072E-02 -0.2708167015629E-02  0.0000000000000E+00  0.4604708374253E-04
 0.2094243534852E-04 -0.2047650342005E-02  0.0000000000000E+00 -0.1901141351457E-03
 0.6207867078548E-04 -0.2073478370694E-02  0.0000000000000E+00  0.1024137886065E-03
 0.1019423975124E-03 -0.2098601138234E-02  0.0000000000000E+00  0.3574242128169E-03
 0.1401729450006E-03 -0.2122714490987E-02  0.0000000000000E+00  0.5752326900410E-03
 0.1763316161924E-03 -0.2145436902725E-02  0.0000000000000E+00  0.7576596858015E-03
 0.2098918179666E-03 -0.2166301533761E-02  0.0000000000000E+00  0.9077181782739E-03
 0.2402642633978E-03 -0.2184777101112E-02  0.0000000000000E+00  0.1029229676456E-02
 0.2668458496046E-03 -0.2200307311062E-02  0.0000000000000E+00  0.1126441191672E-02
 0.2890764365805E-03 -0.2212355359148E-02  0.0000000000000E+00  0.1203693416729E-02
 0.3064904095126E-03 -0.2220442475773E-02  0.0000000000000E+00  0.1265169923529E-02
 0.3187552649484E-03 -0.2224174342070E-02  0.0000000000000E+00  0.1314734835319E-02
 0.3256950874383E-03 -0.2223254214849E-02  0.0000000000000E+00  0.1355849966243E-02
 0.3273012744375E-03 -0.2217485410169E-02  0.0000000000000E+00  0.1391554375961E-02
 0.3237351113304E-03 -0.2206767630585E-02  0.0000000000000E+00  0.1424486624805E-02
 0.3153273048210E-03 -0.2191091899778E-02  0.0000000000000E+00  0.1456931468599E-02
 0.3025788488417E-03 -0.2170538055231E-02  0.0000000000000E+00  0.1490876058043E-02
 0.2861661536982E-03 -0.2145277379665E-02  0.0000000000000E+00  0.1528064251422E-02
 0.2669526103191E-03 -0.2115582689283E-02  0.0000000000000E+00  0.1570039543259E-02
 0.2460057907007E-03 -0.2081844646591E-02  0.0000000000000E+00  0.1618172224509E-02
 0.2246204521767E-03 -0.2044595223423E-02  0.0000000000000E+00  0.1673665309381E-02
 0.2043455415757E-03 -0.2004537348639E-02  0.0000000000000E+00  0.1737533915742E-02
 0.1870110651497E-03 -0.1962576573240E-02  0.0000000000000E+00  0.1810559606796E-02
 0.1747520340232E-03 -0.1919853788604E-02  0.0000000000000E+00  0.1893214151730E-02
 0.1700227231164E-03 -0.1877767914662E-02  0.0000000000000E+00  0.1985555828181E-02
 0.1755931270961E-03 -0.1837965369734E-02  0.0000000000000E+00  0.2087104312017E-02
 0.1945279322604E-03 -0.1802344515713E-02  0.0000000000000E+00  0.2196655426401E-02
 0.2301351457872E-03 -0.1773079214669E-02  0.0000000000000E+00  0.2312059270864E-02
 0.2858642861225E-03 -0.1752590764486E-02  0.0000000000000E+00  0.2429978599095E-02
 0.3651481790831E-03 -0.1743453492074E-02  0.0000000000000E+00  0.2545645548411E-02
 0.4711886134803E-03 -0.1748240502923E-02  0.0000000000000E+00  0.2652640907490E-02
 0.6066908488097E-03 -0.1769319628301E-02  0.0000000000000E+00  0.2742730079972E-02
 0.7735579518851E-03 -0.1808612216767E-02  0.0000000000000E+00  0.2805804728117E-02
 0.9725659398871E-03 -0.1867332392544E-02  0.0000000000000E+00  0.2829991468847E-02
 0.1203070104600E-02 -0.1945753050686E-02  0.0000000000000E+00  0.2801991921933E-02
 0.1462807649120E-02 -0.2043031776760E-02  0.0000000000000E+00  0.2707698794576E-02
 0.1747796444887E-02 -0.2157085232675E-02  0.0000000000000E+00  0.2533052347336E-02
 0.2052345645081E-02 -0.2284563210846E-02  0.0000000000000E+00  0.2265086359009E-02
 0.2369240924822E-02 -0.2420977946009E-02  0.0000000000000E+00  0.1893079349599E-02
 0.2690087050772E-02 -0.2560960214485E-02  0.0000000000000E+00  0.1409632371161E-02
 0.3005780987765E-02 -0.2698622069335E-02  0.0000000000000E+00  0.8114882324726E-03
 0.3307000157697E-02 -0.2827955765447E-02  0.0000000000000E+00  0.1000738502294E-03
 0.2396208533910E-04 -0.2234769226868E-02  0.0000000000000E+00 -0.1732567233049E-03
 0.7127306093850E-04 -0.2264326757567E-02  0.0000000000000E+00  0.1189778595469E-03
 0.1173494034097E-03 -0.2293034466698E-02  0.0000000000000E+00  0.3734185236304E-03
 0.1615525063219E-03 -0.2320382605557E-02  0.0000000000000E+00  0.5903439055283E-03
 0.2032099195282E-03 -0.2345823199768E-02  0.0000000000000E+00  0.7715274590133E-03
 0.2416236662191E-03 -0.2368775700531E-02  0.0000000000000E+00  0.9199441515656E-03
 0.2761015582557E-03 -0.2388651136985E-02  0.0000000000000E+00  0.1039399709078E-02
 0.3060013121891E-03 -0.2404885757751E-02  0.0000000000000E+00  0.1134152412684E-02
 0.3307750853380E-03 -0.2416973790651E-02  0.0000000000000E+00  0.1208578355393E-02
 0.3500054601856E-03 -0.2424491943238E-02  0.0000000000000E+00  0.1266912832339E-02
 0.3634286260759E-03 -0.2427112446257E-02  0.0000000000000E+00  0.1313078812188E-02
 0.3709448627496E-03 -0.2424605288738E-02  0.0000000000000E+00  0.1350596334052E-02
 0.3726196887456E-03 -0.2416832988595E-02  0.0000000000000E+00  0.1382557372183E-02
 0.3686803550093E-03 -0.2403742290258E-02  0.0000000000000E+00  0.1411646860885E-02
 0.3595123530466E-03 -0.2385357047480E-02  0.0000000000000E+00  0.1440191203112E-02
 0.3456596821431E-03 -0.2361775608564E-02  0.0000000000000E+00  0.1470218496944E-02
 0.3278311823086E-03 -0.2333174700242E-02  0.0000000000000E+00  0.1503518181125E-02
 0.3069146586381E-03 -0.2299821808015E-02  0.0000000000000E+00  0.1541689926566E-02
 0.2839975301997E-03 -0.2262094321730E-02  0.0000000000000E+00  0.1586176516955E-02
 0.2603940445521E-03 -0.2220506422660E-02  0.0000000000000E+00  0.1638274930799E-02
 0.2376770806987E-03 -0.2175742687025E-02  0.0000000000000E+00  0.1699119829151E-02
 0.2177102267049E-03 -0.2128694008273E-02  0.0000000000000E+00  0.1769640165958E-02
 0.2026773837358E-03 -0.2080495143629E-02  0.0000000000000E+00  0.1850482929577E-02
 0.1951032354494E-03 -0.2032554015761E-02  0.0000000000000E+00  0.1941905999146E-02
 0.1978569231988E-03 -0.1986553519732E-02  0.0000000000000E+00  0.2043644726352E-02
 0.2141373323063E-03 -0.1944462775447E-02  0.0000000000000E+00  0.2154714372214E-02
 0.2474264980337E-03 -0.1908558073073E-02  0.0000000000000E+00  0.2273172162337E-02
 0.3013924176826E-03 -0.1881395496239E-02  0.0000000000000E+00  0.2395852688450E-02
 0.3797335856792E-03 -0.1865720547867E-02  0.0000000000000E+00  0.2518094307745E-02
 0.4859626117269E-03 -0.1864316916131E-02  0.0000000000000E+00  0.2633482907003E-02
 0.6231308297054E-03 -0.1879799954697E-02  0.0000000000000E+00  0.2733651550037E-02
 0.7935021085707E-03 -0.1914363854264E-02  0.0000000000000E+00  0.2808191361676E-02
 0.9981952776612E-03 -0.1969498106822E-02  0.0000000000000E+00  0.2844742918092E-02
 0.1236844976768E-02 -0.2045715583800E-02  0.0000000000000E+00  0.2829339602249E-02
 0.1507350556623E-02 -0.2142332364023E-02  0.0000000000000E+00  0.2747053584273E-02
 0.1805724186160E-02 -0.2257304488236E-02  0.0000000000000E+00  0.2582913967009E-02
 0.2126064042593E-02 -0.2387173366913E-02  0.0000000000000E+00  0.2323041869646E-02
 0.2460727611928E-02 -0.2527181879173E-02  0.0000000000000E+00  0.1955905089438E-02
 0.2800698972362E-02 -0.2671547298889E-02  0.0000000000000E+00  0.1473500413865E-02
 0.3136125383237E-02 -0.2813873490533E-02  0.0000000000000E+00  0.8722683465301E-03
 0.3456902489817E-02 -0.2947629166129E-02  0.0000000000000E+00  0.1537192236439E-03
 0.2700905946692E-04 -0.2421880207933E-02  0.0000000000000E+00 -0.1541793345294E-03
 0.8055035509442E-04 -0.2455203876532E-02  0.0000000000000E+00  0.1376730569391E-03
 0.1328987292716E-03 -0.2487537877250E-02  0.0000000000000E+00  0.3913126470638E-03
 0.1831399232228E-03 -0.2518168761829E-02  0.0000000000000E+00  0.6070017591685E-03
 0.2303670415922E-03 -0.2546381801522E-02  0.0000000000000E+00  0.7864999163753E-03
 0.2737078255328E-03 -0.2571480886565E-02  0.0000000000000E+00  0.9327827989043E-03
 0.3123633414429E-03 -0.2592817004388E-02  0.0000000000000E+00  0.1049677632789E-02
 0.3456486105361E-03 -0.2609817111436E-02  0.0000000000000E+00  0.1141484384070E-02
 0.3730257872899E-03 -0.2622005812924E-02  0.0000000000000E+00  0.1212635220591E-02
 0.3941248864999E-03 -0.2629015985172E-02  0.0000000000000E+00  0.1267427672993E-02
 0.4087513736184E-03 -0.2630588188435E-02  0.0000000000000E+00  0.1309845220939E-02
 0.4168831500230E-03 -0.2626561505647E-02  0.0000000000000E+00  0.1343461137163E-02
 0.4186615111278E-03 -0.2616860030428E-02  0.0000000000000E+00  0.1371411013730E-02
 0.4143809936167E-03 -0.2601479433198E-02  0.0000000000000E+00  0.1396414631621E-02
 0.4044824255896E-03 -0.2580477418415E-02  0.0000000000000E+00  0.1420827899316E-02
 0.3895523158821E-03 -0.2553970761980E-02  0.0000000000000E+00  0.1446708259781E-02
 0.3703302496563E-03 -0.2522140315728E-02  0.0000000000000E+00  0.1475880449852E-02
 0.3477255410761E-03 -0.2485245620192E-02  0.0000000000000E+00  0.1509991890956E-02
 0.3228413854210E-03 -0.2443646876779E-02  0.0000000000000E+00  0.1550551680055E-02
 0.2970064138770E-03 -0.2397835290380E-02  0.0000000000000E+00  0.1598947168392E-02
 0.2718115070344E-03 -0.2348470704714E-02  0.0000000000000E+00  0.1656431917099E-02
 0.2491473971796E-03 -0.2296421935677E-02  0.0000000000000E+00  0.1724084979568E-02
 0.2312403872236E-03 -0.2242809410080E-02  0.0000000000000E+00  0.1802735118258E-02
 0.2206796702352E-03 -0.2189041530359E-02  0.0000000000000E+00  0.1892850706959E-02
 0.2204290622734E-03 -0.2136829574257E-02  0.0000000000000E+00  0.1994398080572E-02
 0.2338195582993E-03 -0.2088206620214E-02  0.0000000000000E+00  0.2106631928294E-02
 0.2645086017334E-03 -0.2045546737598E-02  0.0000000000000E+00  0.2227842137128E-02
 0.3163888038764E-03 -0.2011539370434E-02  0.0000000000000E+00  0.2355066502882E-02
 0.3934365283574E-03 -0.1989104245115E-02  0.0000000000000E+00  0.2483785669898E-02
 0.4994944627209E-03 -0.1981244313666E-02  0.0000000000000E+00  0.2607628277563E-02
 0.6379865497034E-03 -0.1990837435371E-02  0.0000000000000E+00  0.2718128869093E-02
 0.8115702470827E-03 -0.2020371639462E-02  0.0000000000000E+00  0.2804600426375E-02
 0.1021743586224E-02 -0.2071637150279E-02  0.0000000000000E+00  0.2854199555021E-02
 0.1268456305624E-02 -0.2145413390435E-02  0.0000000000000E+00  0.2852265088878E-02
 0.1549799459822E-02 -0.2241198342399E-02  0.0000000000000E+00  0.2782988922075E-02
 0.1861796607348E-02 -0.2357002828690E-02  0.0000000000000E+00  0.2630395926822E-02
 0.2198334176705E-02 -0.2489263038020E-02  0.0000000000000E+00  0.2379577002578E-02
 0.2551319797842E-02 -0.2632940930414E-02  0.0000000000000E+00  0.2018065769734E-02
 0.2911073951720E-02 -0.2781813671391E-02  0.0000000000000E+00  0.1537149904160E-02
 0.3266932028098E-02 -0.2928936726293E-02  0.0000000000000E+00  0.9329043235897E-03
 0.3607931422964E-02 -0.3067204915695E-02  0.0000000000000E+00  0.2069129673548E-03
 0.3009546180194E-04 -0.2609031190738E-02  0.0000000000000E+00 -0.1328561088329E-03
 0.8994648780794E-04 -0.2646171703049E-02  0.0000000000000E+00  0.1585273412781E-03
 0.1486478717479E-03 -0.2682184963085E-02  0.0000000000000E+00  0.4111381254336E-03
 0.2050094449153E-03 -0.2716153958357E-02  0.0000000000000E+00  0.6252415501398E-03
 0.2578876391364E-03 -0.2747196015111E-02  0.0000000000000E+00  0.8026153471546E-03
 0.3062327358163E-03 -0.2774497761285E-02  0.0000000000000E+00  0.9462743233217E-03
 0.3491360525651E-03 -0.2797348811887E-02  0.0000000000000E+00  0.1060104836008E-02
 0.3858679701308E-03 -0.2815166530322E-02  0.0000000000000E+00  0.1148479750568E-02
 0.4159001781245E-03 -0.2827506890865E-02  0.0000000000000E+00  0.1215908915336E-02
 0.4389110852441E-03 -0.2834061081586E-02  0.0000000000000E+00  0.1266763375457E-02
 0.4547774004506E-03 -0.2834640861546E-02  0.0000000000000E+00  0.1305089204477E-02
 0.4635570309288E-03 -0.2829157460432E-02  0.0000000000000E+00  0.1334507928737E-02
 0.4654692577007E-03 -0.2817599265331E-02  0.0000000000000E+00  0.1358189106878E-02
 0.4608774480030E-03 -0.2800012843455E-02  0.0000000000000E+00  0.1378875206606E-02
 0.4502783048780E-03 -0.2776490692358E-02  0.0000000000000E+00  0.1398938682241E-02
 0.4343001779151E-03 -0.2747167762466E-02  0.0000000000000E+00  0.1420453788954E-02
 0.4137114361353E-03 -0.2712227497047E-02  0.0000000000000E+00  0.1445269283549E-02
 0.3894396487618E-03 -0.2671918638368E-02  0.0000000000000E+00  0.1475070874920E-02
 0.3625993067797E-03 -0.2626580020279E-02  0.0000000000000E+00  0.1511426728644E-02
 0.3345278439345E-03 -0.2576674381951E-02  0.0000000000000E+00  0.1555809899222E-02
 0.3068276570998E-03 -0.2522830083202E-02  0.0000000000000E+00  0.1609591145274E-02
 0.2814095266767E-03 -0.2465885966003E-02  0.0000000000000E+00  0.1674001347021E-02
 0.2605348775315E-03 -0.2406939304838E-02  0.0000000000000E+00  0.1750056791575E-02
 0.2468505619468E-03 -0.2347389640374E-02  0.0000000000000E+00  0.1838446758603E-02
 0.2434094847051E-03 -0.2288967510935E-02  0.0000000000000E+00  0.1939383900471E-02
 0.2536713996923E-03 -0.2233761913113E-02  0.0000000000000E+00  0.2052383049613E-02
 0.2814691813278E-03 -0.2184238601303E-02  0.0000000000000E+00  0.2175993899459E-02
 0.3309248794080E-03 -0.2143217386383E-02  0.0000000000000E+00  0.2307491490091E-02
 0.4063039322593E-03 -0.2113793773792E-02  0.0000000000000E+00  0.2442538652898E-02
 0.5117980789077E-03 -0.2099197575295E-02  0.0000000000000E+00  0.2574849316473E-02
 0.6512313084913E-03 -0.2102583890415E-02  0.0000000000000E+00  0.2695898823975E-02
 0.8276899836675E-03 -0.2126756610419E-02  0.0000000000000E+00  0.2794749708789E-02
 0.1043092111235E-02 -0.2173834654897E-02  0.0000000000000E+00  0.2858080605078E-02
 0.1297744336131E-02 -0.2244894699265E-02  0.0000000000000E+00  0.2870510754911E-02
 0.1589965943113E-02 -0.2339645164291E-02  0.0000000000000E+00  0.2815289603223E-02
 0.1915815432645E-02 -0.2456172112478E-02  0.0000000000000E+00  0.2675338174452E-02
 0.2268970796653E-02 -0.2590813174495E-02  0.0000000000000E+00  0.2434589549758E-02
 0.2640868133633E-02 -0.2738238316245E-02  0.0000000000000E+00  0.2079507724384E-02
 0.3021116561270E-02 -0.2891754725356E-02  0.0000000000000E+00  0.1600554236962E-02
 0.3398168637977E-02 -0.3043822862132E-02  0.0000000000000E+00  0.9933643899606E-03
 0.3760116699073E-02 -0.3186705668294E-02  0.0000000000000E+00  0.2595789027644E-03
 0.3323321930540E-04 -0.2796269758989E-02  0.0000000000000E+00 -0.1092522661714E-03
 0.9949696345950E-04 -0.2837291693730E-02  0.0000000000000E+00  0.1815764442237E-03
 0.1646538325129E-03 -0.2877048681620E-02  0.0000000000000E+00  0.4329317636961E-03
 0.2272348918378E-03 -0.2914418479642E-02  0.0000000000000E+00  0.6451004560757E-03
 0.2858560393641E-03 -0.2948348324173E-02  0.0000000000000E+00  0.8199103684626E-03
 0.3392865361553E-03 -0.2977905959988E-02  0.0000000000000E+00  0.9604542335465E-03
 0.3865057159836E-03 -0.3002319280564E-02  0.0000000000000E+00  0.1070716005101E-02
 0.4267389223280E-03 -0.3020997290388E-02  0.0000000000000E+00  0.1155173656779E-02
 0.4594687845482E-03 -0.3033530011013E-02  0.0000000000000E+00  0.1218437187866E-02
 0.4844248544758E-03 -0.3039670598621E-02  0.0000000000000E+00  0.1264962969979E-02
 0.5015585079089E-03 -0.3039306034832E-02  0.0000000000000E+00  0.1298861874965E-02
 0.5110110651288E-03 -0.3032423494693E-02  0.0000000000000E+00  0.1323798437616E-02
 0.5130826046437E-03 -0.3019078759244E-02  0.0000000000000E+00  0.1342965964574E-02
 0.5082071277485E-03 -0.2999371374810E-02  0.0000000000000E+00  0.1359116679768E-02
 0.4969377590932E-03 -0.2973429512651E-02  0.0000000000000E+00  0.1374625732383E-02
 0.4799438621617E-03 -0.2941405889362E-02  0.0000000000000E+00  0.1391570698072E-02
 0.4580203646311E-03 -0.2903484809065E-02  0.0000000000000E+00  0.1411812073230E-02
 0.4321095013352E-03 -0.2859901147489E-02  0.0000000000000E+00  0.1437063350747E-02
 0.4033321832355E-03 -0.2810967959123E-02  0.0000000000000E+00  0.1468943440163E-02
 0.3730286042485E-03 -0.2757113759590E-02  0.0000000000000E+00  0.1509005314266E-02
 0.3428056446968E-03 -0.2698928336506E-02  0.0000000000000E+00  0.1558734097526E-02
 0.3145863726313E-03 -0.2637212212179E-02  0.0000000000000E+00  0.1619513133310E-02
 0.2906592354485E-03 -0.2573030070500E-02  0.0000000000000E+00  0.1692551022730E-02
 0.2737208825337E-03 -0.2507762409781E-02  0.0000000000000E+00  0.1778767675039E-02
 0.2669065042373E-03 -0.2443148816663E-02  0.0000000000000E+00  0.1878637177438E-02
 0.2737998491228E-03 -0.2381324810669E-02  0.0000000000000E+00  0.1991955688486E-02
 0.2984076835476E-03 -0.2324840117829E-02  0.0000000000000E+00  0.2117561236504E-02
 0.3450847584244E-03 -0.2276640118347E-02  0.0000000000000E+00  0.2253002697865E-02
 0.4183955229207E-03 -0.2239995875676E-02  0.0000000000000E+00  0.2394168905481E-02
 0.5228992085779E-03 -0.2218370273836E-02  0.0000000000000E+00  0.2534906890143E-02
 0.6628480404057E-03 -0.2215209888629E-02  0.0000000000000E+00  0.2666678400086E-02
 0.8417951662041E-03 -0.2233657402745E-02  0.0000000000000E+00  0.2778329676972E-02
 0.1062124022495E-02 -0.2276191078082E-02  0.0000000000000E+00  0.2856072700252E-02
 0.1324546611244E-02 -0.2344220002856E-02  0.0000000000000E+00  0.2883784642796E-02
 0.1627654755680E-02 -0.2437697234410E-02  0.0000000000000E+00  0.2843708643301E-02
 0.1967572781909E-02 -0.2554810208399E-02  0.0000000000000E+00  0.2717555447811E-02
 0.2337778348856E-02 -0.2691808682627E-02  0.0000000000000E+00  0.2487961123493E-02
 0.2729214710389E-02 -0.2843060321105E-02  0.0000000000000E+00  0.2140169956218E-02
 0.3130726985466E-02 -0.3001369222503E-02  0.0000000000000E+00  0.1663685222332E-02
 0.3529804708598E-02 -0.3158547607781E-02  0.0000000000000E+00  0.1053615764477E-02
 0.3913496935407E-02 -0.3306160263669E-02  0.0000000000000E+00  0.3116346771491E-03
 0.3643420729435E-04 -0.2983643464994E-02  0.0000000000000E+00 -0.8332421059707E-04
 0.1092372237576E-03 -0.3028625209860E-02  0.0000000000000E+00  0.2068637888089E-03
 0.1809736732378E-03 -0.3072201851821E-02  0.0000000000000E+00  0.4567355454474E-03
 0.2498902874952E-03 -0.3113042372532E-02  0.0000000000000E+00  0.6666173999152E-03
 0.3143568206908E-03 -0.3149920746282E-02  0.0000000000000E+00  0.8384197002376E-03
 0.3729574895036E-03 -0.3181784252559E-02  0.0000000000000E+00  0.9753530048183E-03
 0.4245581523492E-03 -0.3207799699303E-02  0.0000000000000E+00  0.1081538678206E-02
 0.4683402970713E-03 -0.3227370545732E-02  0.0000000000000E+00  0.1161593227218E-02
 0.5038008311210E-03 -0.3240125293753E-02  0.0000000000000E+00  0.1220250085144E-02
 0.5307250665076E-03 -0.3245884308888E-02  0.0000000000000E+00  0.1262063061659E-02
 0.5491439984348E-03 -0.3244615032611E-02  0.0000000000000E+00  0.1291209847900E-02
 0.5592868461981E-03 -0.3236385169569E-02  0.0000000000000E+00  0.1311392187711E-02
 0.5615379366084E-03 -0.3221321399949E-02  0.0000000000000E+00  0.1325816126295E-02
 0.5564039874930E-03 -0.3199578453409E-02  0.0000000000000E+00  0.1337229799125E-02
 0.5444951115609E-03 -0.3171321000385E-02  0.0000000000000E+00  0.1347996234604E-02
 0.5265207103153E-03 -0.3136718969733E-02  0.0000000000000E+00  0.1360181853607E-02
 0.5032997920708E-03 -0.3095955616386E-02  0.0000000000000E+00  0.1375645610207E-02
 0.4757853474942E-03 -0.3049248693380E-02  0.0000000000000E+00  0.1396117242243E-02
 0.4450994552456E-03 -0.2996880867647E-02  0.0000000000000E+00  0.1423256990965E-02
 0.4125785852439E-03 -0.2939240447847E-02  0.0000000000000E+00  0.1458690813914E-02
 0.3798265364528E-03 -0.2876871268923E-02  0.0000000000000E+00  0.1504014171080E-02
 0.3487702442321E-03 -0.2810526777800E-02  0.0000000000000E+00  0.1560762297593E-02
 0.3217162432600E-03 -0.2741229037242E-02  0.0000000000000E+00  0.1630339763814E-02
 0.3014020572737E-03 -0.2670328479371E-02  0.0000000000000E+00  0.1713905911428E-02
 0.2910370486999E-03 -0.2599562390264E-02  0.0000000000000E+00  0.1812210878632E-02
 0.2943226342914E-03 -0.2531101959669E-02  0.0000000000000E+00  0.1925353490978E-02
 0.3154361579493E-03 -0.2467571380196E-02  0.0000000000000E+00  0.2052489734958E-02
 0.3589664937421E-03 -0.2412034749117E-02  0.0000000000000E+00  0.2191481280688E-02
 0.4297854429663E-03 -0.2367936367555E-02  0.0000000000000E+00  0.2338490722820E-02
 0.5328373137199E-03 -0.2338976658827E-02  0.0000000000000E+00  0.2487551662303E-02
 0.6728312675338E-03 -0.2328907077411E-02  0.0000000000000E+00  0.2630164969443E-02
 0.8538276346237E-03 -0.2341232721933E-02  0.0000000000000E+00  0.2755002497021E-02
 0.1078725673383E-02 -0.2378824548690E-02  0.0000000000000E+00  0.2847827787689E-02
 0.1348698460989E-02 -0.2443464002982E-02  0.0000000000000E+00  0.2891757557502E-02
 0.1662663403851E-02 -0.2535389260694E-02  0.0000000000000E+00  0.2867964036183E-02
 0.2016849976325E-02 -0.2652921725856E-02  0.0000000000000E+00  0.2756834238432E-02
 0.2404549369172E-02 -0.2792238716227E-02  0.0000000000000E+00  0.2539554762346E-02
 0.2816191585594E-02 -0.2947396488563E-02  0.0000000000000E+00  0.2199982613393E-02
 0.3239800206402E-02 -0.3110659730467E-02  0.0000000000000E+00  0.1726512442167E-02
 0.3661811671666E-02 -0.3273132177359E-02  0.0000000000000E+00  0.1113624656141E-02
 0.4068120823281E-02 -0.3425605066154E-02  0.0000000000000E+00  0.3629917747494E-03
 0.3971037659049E-04 -0.3171200140997E-02  0.0000000000000E+00 -0.5501954486178E-04
 0.1192030222936E-03 -0.3220233963138E-02  0.0000000000000E+00  0.2344404701507E-03
 0.1976650852438E-03 -0.3267717675598E-02  0.0000000000000E+00  0.4825965484752E-03
 0.2730505116028E-03 -0.3312105946555E-02  0.0000000000000E+00  0.6898328428992E-03
 0.3434754172113E-03 -0.3351995210430E-02  0.0000000000000E+00  0.8581758053774E-03
 0.4073344279482E-03 -0.3386210724301E-02  0.0000000000000E+00  0.9909955742985E-03
 0.4633792029660E-03 -0.3413859881637E-02  0.0000000000000E+00  0.1092592637801E-02
 0.5107502185155E-03 -0.3434345079648E-02  0.0000000000000E+00  0.1167756915860E-02
 0.5489640405055E-03 -0.3447339587343E-02  0.0000000000000E+00  0.1221369319092E-02
 0.5778683270308E-03 -0.3452737887811E-02  0.0000000000000E+00  0.1258093259903E-02
 0.5975802498286E-03 -0.3450594386250E-02  0.0000000000000E+00  0.1282174763105E-02
 0.6084225368561E-03 -0.3441062710951E-02  0.0000000000000E+00  0.1297346122758E-02
 0.6108678732658E-03 -0.3424344354865E-02  0.0000000000000E+00  0.1306814088947E-02
 0.6054980601471E-03 -0.3400651551665E-02  0.0000000000000E+00  0.1313307803731E-02
 0.5929807846776E-03 -0.3370186237018E-02  0.0000000000000E+00  0.1319162324893E-02
 0.5740643639981E-03 -0.3333134856827E-02  0.0000000000000E+00  0.1326417443427E-02
 0.5495891652894E-03 -0.3289677544003E-02  0.0000000000000E+00  0.1336916298595E-02
 0.5205147217313E-03 -0.3240011514964E-02  0.0000000000000E+00  0.1352392313899E-02
 0.4879586741236E-03 -0.3184384286767E-02  0.0000000000000E+00  0.1374536563969E-02
 0.4532468690234E-03 -0.3123137803466E-02  0.0000000000000E+00  0.1405039882286E-02
 0.4179719522228E-03 -0.3056762330454E-02  0.0000000000000E+00  0.1445602767707E-02
 0.3840556625324E-03 -0.2985955126899E-02  0.0000000000000E+00  0.1497910447006E-02
 0.3538128487593E-03 -0.2911685052728E-02  0.0000000000000E+00  0.1563565794376E-02
 0.3300118919961E-03 -0.2835260621938E-02  0.0000000000000E+00  0.1643975206419E-02
 0.3159268230829E-03 -0.2758404307547E-02  0.0000000000000E+00  0.1740178661663E-02
 0.3153686963619E-03 -0.2683310572231E-02  0.0000000000000E+00  0.1852598784151E-02
 0.3326801239196E-03 -0.2612666611554E-02  0.0000000000000E+00  0.1980739875334E-02
 0.3726833786711E-03 -0.2549646069574E-02  0.0000000000000E+00  0.2122817454521E-02
 0.4405639802533E-03 -0.2497861703889E-02  0.0000000000000E+00  0.2275319541356E-02
 0.5416676319269E-03 -0.2461253766567E-02  0.0000000000000E+00  0.2432525767603E-02
 0.6811892982670E-03 -0.2443890726909E-02  0.0000000000000E+00  0.2586036806792E-02
 0.8637392580826E-03 -0.2449664101051E-02  0.0000000000000E+00  0.2724401175637E-02
 0.1092788121172E-02 -0.2481873534146E-02  0.0000000000000E+00  0.2832960905341E-02
 0.1370033682965E-02 -0.2542717866167E-02  0.0000000000000E+00  0.2894059772075E-02
 0.1694781824359E-02 -0.2632767862443E-02  0.0000000000000E+00  0.2887734956866E-02
 0.2063416304465E-02 -0.2750518928617E-02  0.0000000000000E+00  0.2792929191846E-02
 0.2469062740330E-02 -0.2892097083322E-02  0.0000000000000E+00  0.2589212140069E-02
 0.2901619124091E-02 -0.3051239876040E-02  0.0000000000000E+00  0.2258865332726E-02
 0.3348225000882E-02 -0.3219633084581E-02  0.0000000000000E+00  0.1789002698938E-02
 0.3794162919319E-02 -0.3387604173239E-02  0.0000000000000E+00  0.1173356450361E-02
 0.4224048329740E-02 -0.3545085321035E-02  0.0000000000000E+00  0.4135557100008E-03
 0.4307388571328E-04 -0.3358988238922E-02  0.0000000000000E+00 -0.2427699476745E-04
 0.1294308155310E-03 -0.3412180494337E-02  0.0000000000000E+00  0.2643652975339E-03
 0.2147869869762E-03 -0.3463670294574E-02  0.0000000000000E+00  0.5105668586479E-03
 0.2967919870898E-03 -0.3511690306646E-02  0.0000000000000E+00  0.7147884989246E-03
 0.3732987548128E-03 -0.3554653957436E-02  0.0000000000000E+00  0.8792083867401E-03
 0.4425072199726E-03 -0.3591262965584E-02  0.0000000000000E+00  0.1007400660818E-02
 0.5030549625648E-03 -0.3620568116228E-02  0.0000000000000E+00  0.1103889132042E-02
 0.5540460956772E-03 -0.3641977036708E-02  0.0000000000000E+00  0.1173673717462E-02
 0.5950244185917E-03 -0.3655216034991E-02  0.0000000000000E+00  0.1221807541036E-02
 0.6259086133335E-03 -0.3660262379984E-02  0.0000000000000E+00  0.1253075561247E-02
 0.6469102666622E-03 -0.3657265256822E-02  0.0000000000000E+00  0.1271792793191E-02
 0.6584523817825E-03 -0.3646470427836E-02  0.0000000000000E+00  0.1281714237717E-02
 0.6611007744866E-03 -0.3628158504267E-02  0.0000000000000E+00  0.1286034049522E-02
 0.6555149689245E-03 -0.3602601638132E-02  0.0000000000000E+00  0.1287446267013E-02
 0.6424208209653E-03 -0.3570039720768E-02  0.0000000000000E+00  0.1288241032055E-02
 0.6226042899291E-03 -0.3530674876801E-02  0.0000000000000E+00  0.1290415026752E-02
 0.5969241432230E-03 -0.3484681897306E-02  0.0000000000000E+00  0.1295780337073E-02
 0.5663419582828E-03 -0.3432233923635E-02  0.0000000000000E+00  0.1306060521029E-02
 0.5319650074450E-03 -0.3373538455045E-02  0.0000000000000E+00  0.1322965914978E-02
 0.4951012335866E-03 -0.3308884799482E-02  0.0000000000000E+00  0.1348242926005E-02
 0.4573235858375E-03 -0.3238701867129E-02  0.0000000000000E+00  0.1383690465699E-02
 0.4205389287577E-03 -0.3163621329031E-02  0.0000000000000E+00  0.1431140401137E-02
 0.3870598284261E-03 -0.3084547769591E-02  0.0000000000000E+00  0.1492394727223E-02
 0.3596743966319E-03 -0.3002735142355E-02  0.0000000000000E+00  0.1569113054383E-02
 0.3417103761853E-03 -0.2919877427960E-02  0.0000000000000E+00  0.1662637797328E-02
 0.3370785936744E-03 -0.2838178353719E-02  0.0000000000000E+00  0.1773735871750E-02
 0.3502794032290E-03 -0.2760374539999E-02  0.0000000000000E+00  0.1902290539906E-02
 0.3863652752162E-03 -0.2689737417920E-02  0.0000000000000E+00  0.2046913956582E-02
 0.4508394017299E-03 -0.2630040560211E-02  0.0000000000000E+00  0.2204474989534E-02
 0.5494634331258E-03 -0.2585463652411E-02  0.0000000000000E+00  0.2369565020945E-02
 0.6879467026569E-03 -0.2560402505226E-02  0.0000000000000E+00  0.2533954024534E-02
 0.8714943000792E-03 -0.2559158984172E-02  0.0000000000000E+00  0.2686128901304E-02
 0.1104208971180E-02 -0.2585499888800E-02  0.0000000000000E+00  0.2811047860540E-02
 0.1388385473376E-02 -0.2642091857678E-02  0.0000000000000E+00  0.2890277334321E-02
 0.1723792174641E-02 -0.2729893494747E-02  0.0000000000000E+00  0.2902657356818E-02
 0.2107027748622E-02 -0.2847622866662E-02  0.0000000000000E+00  0.2825558872887E-02
 0.2531081781480E-02 -0.2991382774789E-02  0.0000000000000E+00  0.2636750308838E-02
 0.2985304109494E-02 -0.3154587365376E-02  0.0000000000000E+00  0.2316725391772E-02
 0.3455882718339E-02 -0.3328300870751E-02  0.0000000000000E+00  0.1851119504779E-02
 0.3926833685285E-02 -0.3501998479918E-02  0.0000000000000E+00  0.1232776048029E-02
 0.4381351904442E-02 -0.3664656541612E-02  0.0000000000000E+00  0.4632263964647E-03
 0.4653724148900E-04 -0.3547057207165E-02  0.0000000000000E+00  0.8973760709965E-05
 0.1399581801357E-03 -0.3604528698165E-02  0.0000000000000E+00  0.2967049005353E-03
 0.2324001634950E-03 -0.3660135397436E-02  0.0000000000000E+00  0.5407034803353E-03
 0.3211934148141E-03 -0.3711877931655E-02  0.0000000000000E+00  0.7415269625640E-03
 0.4039159281404E-03 -0.3757979971931E-02  0.0000000000000E+00  0.9015437287252E-03
 0.4785672622423E-03 -0.3797018273536E-02  0.0000000000000E+00  0.1024579895362E-02
 0.5436720171102E-03 -0.3827991110602E-02  0.0000000000000E+00  0.1115429913462E-02
 0.5983046014856E-03 -0.3850319634886E-02  0.0000000000000E+00  0.1179342233671E-02
 0.6420460176750E-03 -0.3863793616444E-02  0.0000000000000E+00  0.1221567522125E-02
 0.6748968869372E-03 -0.3868483641448E-02  0.0000000000000E+00  0.1247023686917E-02
 0.6971732074891E-03 -0.3864642839514E-02  0.0000000000000E+00  0.1260094142520E-02
 0.7094062000545E-03 -0.3852616119689E-02  0.0000000000000E+00  0.1264547219548E-02
 0.7122602289930E-03 -0.3832767869682E-02  0.0000000000000E+00  0.1263549660417E-02
 0.7064754249470E-03 -0.3805432625889E-02  0.0000000000000E+00  0.1259742944466E-02
 0.6928363890215E-03 -0.3770888821086E-02  0.0000000000000E+00  0.1255354208772E-02
 0.6721652861208E-03 -0.3729353269042E-02  0.0000000000000E+00  0.1252319556247E-02
 0.6453360930807E-03 -0.3680993067127E-02  0.0000000000000E+00  0.1252403856777E-02
 0.6133076690782E-03 -0.3625953655273E-02  0.0000000000000E+00  0.1257306303967E-02
 0.5771706959369E-03 -0.3564397596507E-02  0.0000000000000E+00  0.1268743877146E-02
 0.5382075940203E-03 -0.3496555247061E-02  0.0000000000000E+00  0.1288508053624E-02
 0.4979626471081E-03 -0.3422786287655E-02  0.0000000000000E+00  0.1318488146195E-02
 0.4583175982582E-03 -0.3343647197913E-02  0.0000000000000E+00  0.1360657739261E-02
 0.4215713428535E-03 -0.3259966804413E-02  0.0000000000000E+00  0.1417017044125E-02
 0.3905194930896E-03 -0.3172931130984E-02  0.0000000000000E+00  0.1489483277083E-02
 0.3685310536573E-03 -0.3084190844969E-02  0.0000000000000E+00  0.1579712285165E-02
 0.3596048094232E-03 -0.2995943279573E-02  0.0000000000000E+00  0.1688834637080E-02
 0.3683888953430E-03 -0.2910958649417E-02  0.0000000000000E+00  0.1817142953053E-02
 0.4001599492309E-03 -0.2832591550513E-02  0.0000000000000E+00  0.1963690053872E-02
 0.4607398837011E-03 -0.2764765435720E-02  0.0000000000000E+00  0.2125784564683E-02
 0.5563184795322E-03 -0.2711895758713E-02  0.0000000000000E+00  0.2298401754314E-02
 0.6931470967071E-03 -0.2678713521093E-02  0.0000000000000E+00  0.2473560026259E-02
 0.8770721682748E-03 -0.2669954199472E-02  0.0000000000000E+00  0.2639758670153E-02
 0.1112894618445E-02 -0.2689892371908E-02  0.0000000000000E+00  0.2781622858890E-02
 0.1403587681925E-02 -0.2741718453860E-02  0.0000000000000E+00  0.2879947965887E-02
 0.1749468790827E-02 -0.2826842780231E-02  0.0000000000000E+00  0.2912318889087E-02
 0.2147425683875E-02 -0.2944264790031E-02  0.0000000000000E+00  0.2854400805648E-02
 0.2590352149017E-02 -0.3090100648927E-02  0.0000000000000E+00  0.2681957895839E-02
 0.3067037598938E-02 -0.3257440050339E-02  0.0000000000000E+00  0.2373455617870E-02
 0.3562645832941E-02 -0.3436679958115E-02  0.0000000000000E+00  0.1912822578582E-02
 0.4059800798420E-02 -0.3616358204995E-02  0.0000000000000E+00  0.1291848335937E-02
 0.4540117724865E-02 -0.3784385967122E-02  0.0000000000000E+00  0.5118987023918E-03
 0.5011345163132E-04 -0.3735457913738E-02  0.0000000000000E+00  0.4481236077080E-04
 0.1508242673665E-03 -0.3797344407236E-02  0.0000000000000E+00  0.3315339031634E-03
 0.2505679631696E-03 -0.3857190891316E-02  0.0000000000000E+00  0.5730682399864E-03
 0.3463365704613E-03 -0.3912753308448E-02  0.0000000000000E+00  0.7700912387132E-03
 0.4354189272581E-03 -0.3962057448729E-02  0.0000000000000E+00  0.9252038654985E-03
 0.5156079968896E-03 -0.4003553861049E-02  0.0000000000000E+00  0.1042536743888E-02
 0.5853176807403E-03 -0.4036193917941E-02  0.0000000000000E+00  0.1127206081217E-02
 0.6436016305214E-03 -0.4059422845689E-02  0.0000000000000E+00  0.1184749587236E-02
 0.6900906676181E-03 -0.4073106653600E-02  0.0000000000000E+00  0.1220641239980E-02
 0.7248806727922E-03 -0.4077421751092E-02  0.0000000000000E+00  0.1239942380134E-02
 0.7484038834090E-03 -0.4072735747406E-02  0.0000000000000E+00  0.1247102543593E-02
 0.7613088562187E-03 -0.4059500474481E-02  0.0000000000000E+00  0.1245892103703E-02
 0.7643645282598E-03 -0.4038169042132E-02  0.0000000000000E+00  0.1239433801352E-02
 0.7583947139977E-03 -0.4009140825979E-02  0.0000000000000E+00  0.1230297626362E-02
 0.7442432788061E-03 -0.3972733238627E-02  0.0000000000000E+00  0.1220628448983E-02
 0.7227669736482E-03 -0.3929176627533E-02  0.0000000000000E+00  0.1212283365429E-02
 0.6948515645607E-03 -0.3878627926781E-02  0.0000000000000E+00  0.1206963004862E-02
 0.6614481888085E-03 -0.3821201200937E-02  0.0000000000000E+00  0.1206326812349E-02
 0.6236244635846E-03 -0.3757009169865E-02  0.0000000000000E+00  0.1212084786249E-02
 0.5826293804725E-03 -0.3686216957866E-02  0.0000000000000E+00  0.1226061775184E-02
 0.5399692222700E-03 -0.3609107146477E-02  0.0000000000000E+00  0.1250228050559E-02
 0.4974898537113E-03 -0.3526151320031E-02  0.0000000000000E+00  0.1286692305156E-02
 0.4574643733866E-03 -0.3438090759556E-02  0.0000000000000E+00  0.1337650136192E-02
 0.4226825908131E-03 -0.3346029555336E-02  0.0000000000000E+00  0.1405278672576E-02
 0.3965408147589E-03 -0.3251559157719E-02  0.0000000000000E+00  0.1491556147487E-02
 0.3831119353343E-03 -0.3156853191135E-02  0.0000000000000E+00  0.1597994452975E-02
 0.3871792648377E-03 -0.3064697270596E-02  0.0000000000000E+00  0.1725325075703E-02
 0.4142343842280E-03 -0.2978511407118E-02  0.0000000000000E+00  0.1873086150860E-02
 0.4704155201576E-03 -0.2902354243864E-02  0.0000000000000E+00  0.2039088018684E-02
 0.5623496895398E-03 -0.2840869403165E-02  0.0000000000000E+00  0.2218768392308E-02
 0.6968562633027E-03 -0.2799127645206E-02  0.0000000000000E+00  0.2404483603969E-02
 0.8804706061901E-03 -0.2782319866506E-02  0.0000000000000E+00  0.2584833308954E-02
 0.1118762965819E-02 -0.2795270711253E-02  0.0000000000000E+00  0.2744176149795E-02
 0.1415476470770E-02 -0.2841756026045E-02  0.0000000000000E+00  0.2862556546215E-02
 0.1771578366595E-02 -0.2923711333536E-02  0.0000000000000E+00  0.2916253078019E-02
 0.2184335553981E-02 -0.3040487897946E-02  0.0000000000000E+00  0.2879085657437E-02
 0.2646599507139E-02 -0.3188262287678E-02  0.0000000000000E+00  0.2724590633091E-02
 0.3146592466361E-02 -0.3359803700311E-02  0.0000000000000E+00  0.2428931981200E-02
 0.3668376234991E-02 -0.3544793089284E-02  0.0000000000000E+00  0.1974067310437E-02
 0.4193042288760E-02 -0.3730735682829E-02  0.0000000000000E+00  0.1350538746364E-02
 0.4700446966914E-02 -0.3904354096878E-02  0.0000000000000E+00  0.5594631837467E-03
 0.5381619317344E-04 -0.3924243125404E-02  0.0000000000000E+00  0.8332814612842E-04
 0.1620703062462E-03 -0.3990696043432E-02  0.0000000000000E+00  0.3689351701029E-03
 0.2693570674766E-03 -0.4054917641764E-02  0.0000000000000E+00  0.6077276764115E-03
 0.3723071775865E-03 -0.4114403617026E-02  0.0000000000000E+00  0.8005241549491E-03
 0.4679034200143E-03 -0.4166972276161E-02  0.0000000000000E+00  0.9502055497068E-03
 0.5537254498673E-03 -0.4210947042254E-02  0.0000000000000E+00  0.1061265197200E-02
 0.6280802182892E-03 -0.4245239805450E-02  0.0000000000000E+00  0.1139196709499E-02
 0.6900122164705E-03 -0.4269332994435E-02  0.0000000000000E+00  0.1189870178099E-02
 0.7392176545835E-03 -0.4283184229885E-02  0.0000000000000E+00  0.1219008875668E-02
 0.7759035860234E-03 -0.4287090341003E-02  0.0000000000000E+00  0.1231826674387E-02
 0.8006322116473E-03 -0.4281545325244E-02  0.0000000000000E+00  0.1232834765531E-02
 0.8141796962728E-03 -0.4267116408261E-02  0.0000000000000E+00  0.1225791961439E-02
 0.8174261137643E-03 -0.4244350560261E-02  0.0000000000000E+00  0.1213758381702E-02
 0.8112821613334E-03 -0.4213714353886E-02  0.0000000000000E+00  0.1199212007187E-02
 0.7966513750659E-03 -0.4175564415647E-02  0.0000000000000E+00  0.1184195001283E-02
 0.7744232619864E-03 -0.4130143284494E-02  0.0000000000000E+00  0.1170466129439E-02
 0.7454917288332E-03 -0.4077595158163E-02  0.0000000000000E+00  0.1159643980658E-02
 0.7107949722572E-03 -0.4017999048849E-02  0.0000000000000E+00  0.1153332065803E-02
 0.6713708642591E-03 -0.3951413007099E-02  0.0000000000000E+00  0.1153218832861E-02
 0.6284268340470E-03 -0.3877930769877E-02  0.0000000000000E+00  0.1161149628151E-02
 0.5834215313109E-03 -0.3797750060653E-02  0.0000000000000E+00  0.1179164775676E-02
 0.5381537525839E-03 -0.3711247884226E-02  0.0000000000000E+00  0.1209499677861E-02
 0.4948580105837E-03 -0.3619066011398E-02  0.0000000000000E+00  0.1254540360444E-02
 0.4563039953292E-03 -0.3522212084877E-02  0.0000000000000E+00  0.1316723759165E-02
 0.4258998724216E-03 -0.3422201449176E-02  0.0000000000000E+00  0.1398356930918E-02
 0.4077766859311E-03 -0.3321165086094E-02  0.0000000000000E+00  0.1501348446189E-02
 0.4068374932313E-03 -0.3221883380699E-02  0.0000000000000E+00  0.1626896528026E-02
 0.4287760294316E-03 -0.3127820636053E-02  0.0000000000000E+00  0.1775069105797E-02
 0.4800403767039E-03 -0.3043151762669E-02  0.0000000000000E+00  0.1944242602202E-02
 0.5676999959427E-03 -0.2972736278060E-02  0.0000000000000E+00  0.2130401952904E-02
 0.6991656332399E-03 -0.2921985033416E-02  0.0000000000000E+00  0.2326341884920E-02
 0.8817093875150E-03 -0.2896563704145E-02  0.0000000000000E+00  0.2520866086563E-02
 0.1121746708138E-02 -0.2901890222759E-02  0.0000000000000E+00  0.2698151818895E-02
 0.1423892470864E-02 -0.2942393134726E-02  0.0000000000000E+00  0.2837530206710E-02
 0.1789880410841E-02 -0.3020617113803E-02  0.0000000000000E+00  0.2913932638314E-02
 0.2217465511442E-02 -0.3136349420041E-02  0.0000000000000E+00  0.2899190387156E-02
 0.2699526880160E-02 -0.3285886969725E-02  0.0000000000000E+00  0.2764366037572E-02
 0.3223720508905E-02 -0.3461689218228E-02  0.0000000000000E+00  0.2483010750852E-02
 0.3772923138667E-02 -0.3652669454060E-02  0.0000000000000E+00  0.2034804112407E-02
 0.4326536719570E-02 -0.3845193468050E-02  0.0000000000000E+00  0.1408813816456E-02
 0.4862456930764E-02 -0.4024656214296E-02  0.0000000000000E+00  0.6058069073612E-03
 0.5766000330372E-04 -0.4113468058018E-02  0.0000000000000E+00  0.1246206544241E-03
 0.1737401710610E-03 -0.4184655366391E-02  0.0000000000000E+00  0.4090001267014E-03
 0.2888383568856E-03 -0.4253400319677E-02  0.0000000000000E+00  0.6447529043557E-03
 0.3991958795975E-03 -0.4316919508335E-02  0.0000000000000E+00  0.8328676285268E-03
 0.5014696068101E-03 -0.4372812577168E-02  0.0000000000000E+00  0.9765589851074E-03
 0.5930187988087E-03 -0.4419275434428E-02  0.0000000000000E+00  0.1080748193191E-02
 0.6720490559501E-03 -0.4455190107081E-02  0.0000000000000E+00  0.1151367237359E-02
 0.7376104107155E-03 -0.4480092331426E-02  0.0000000000000E+00  0.1194664268971E-02
 0.7894833522604E-03 -0.4494049586358E-02  0.0000000000000E+00  0.1216637718329E-02
 0.8280048175987E-03 -0.4497495923107E-02  0.0000000000000E+00  0.1222661134358E-02
 0.8538826429110E-03 -0.4491064985089E-02  0.0000000000000E+00  0.1217300135060E-02
 0.8680319741564E-03 -0.4475448451518E-02  0.0000000000000E+00  0.1204285612912E-02
 0.8714510287080E-03 -0.4451292355147E-02  0.0000000000000E+00  0.1186594160204E-02
 0.8651406097210E-03 -0.4419132615722E-02  0.0000000000000E+00  0.1166589549680E-02
 0.8500641467883E-03 -0.4379365031970E-02  0.0000000000000E+00  0.1146189646700E-02
 0.8271418274858E-03 -0.4332242778810E-02  0.0000000000000E+00  0.1127034757993E-02
 0.7972718227174E-03 -0.4277894655983E-02  0.0000000000000E+00  0.1110642973545E-02
 0.7613739844723E-03 -0.4216360992623E-02  0.0000000000000E+00  0.1098544990147E-02
 0.7204496048567E-03 -0.4147640501466E-02  0.0000000000000E+00  0.1092392270038E-02
 0.6756562590865E-03 -0.4071749600882E-02  0.0000000000000E+00  0.1094036647153E-02
 0.6283951178571E-03 -0.3988793627513E-02  0.0000000000000E+00  0.1105576112782E-02
 0.5804063799827E-03 -0.3899045479968E-02  0.0000000000000E+00  0.1129362502061E-02
 0.5338726189232E-03 -0.3803035430782E-02  0.0000000000000E+00  0.1167964995406E-02
 0.4915281651148E-03 -0.3701659809687E-02  0.0000000000000E+00  0.1224077489392E-02
 0.4567761607538E-03 -0.3596340123156E-02  0.0000000000000E+00  0.1300339288597E-02
 0.4337877353807E-03 -0.3489144244886E-02  0.0000000000000E+00  0.1399067997018E-02
 0.4275672763968E-03 -0.3382824240438E-02  0.0000000000000E+00  0.1521953942069E-02
 0.4439939573207E-03 -0.3280863999056E-02  0.0000000000000E+00  0.1669638193648E-02
 0.4898145689751E-03 -0.3187531062299E-02  0.0000000000000E+00  0.1841129155924E-02
 0.5725413950348E-03 -0.3107883088168E-02  0.0000000000000E+00  0.2033049519064E-02
 0.7001961564563E-03 -0.3047666005915E-02  0.0000000000000E+00  0.2238744222410E-02
 0.8808345887860E-03 -0.3013035934804E-02  0.0000000000000E+00  0.2447342027447E-02
 0.1121797304032E-02 -0.3010047229060E-02  0.0000000000000E+00  0.2642945811444E-02
 0.1428683583877E-02 -0.3043853712075E-02  0.0000000000000E+00  0.2804233036224E-02
 0.1804128121547E-02 -0.3117704584902E-02  0.0000000000000E+00  0.2904761835393E-02
 0.2246505110808E-02 -0.3231923268528E-02  0.0000000000000E+00  0.2914230179522E-02
 0.2748811727092E-02 -0.3383002940201E-02  0.0000000000000E+00  0.2800957099364E-02
 0.3298149168774E-02 -0.3563113249587E-02  0.0000000000000E+00  0.2535525201423E-02
 0.3876120746429E-02 -0.3760345440204E-02  0.0000000000000E+00  0.2094977730183E-02
 0.4460262450786E-02 -0.3959805544420E-02  0.0000000000000E+00  0.1466641765495E-02
 0.5026282278257E-02 -0.4145404115572E-02  0.0000000000000E+00  0.6508144171875E-03
 0.6166049434972E-04 -0.4303191010823E-02  0.0000000000000E+00  0.1688002673649E-03
 0.1858810273531E-03 -0.4379298325808E-02  0.0000000000000E+00  0.4518291690718E-03
 0.3090878911488E-03 -0.4452728352331E-02  0.0000000000000E+00  0.6842194505238E-03
 0.4270993245878E-03 -0.4520395954322E-02  0.0000000000000E+00  0.8671617663099E-03
 0.5362231486001E-03 -0.4579669265093E-02  0.0000000000000E+00  0.1004266291820E-02
 0.6335909555761E-03 -0.4628617110927E-02  0.0000000000000E+00  0.1100955745533E-02
 0.7173149526316E-03 -0.4666103977838E-02  0.0000000000000E+00  0.1163667610629E-02
 0.7864690878568E-03 -0.4691738480453E-02  0.0000000000000E+00  0.1199076411159E-02
 0.8409407701080E-03 -0.4705719395517E-02  0.0000000000000E+00  0.1213481004965E-02
 0.8812185455069E-03 -0.4708637110312E-02  0.0000000000000E+00  0.1212419107291E-02
 0.9081735321610E-03 -0.4701279459564E-02  0.0000000000000E+00  0.1200500112007E-02
 0.9228722408223E-03 -0.4684472074332E-02  0.0000000000000E+00  0.1181407408103E-02
 0.9264383473930E-03 -0.4658965148500E-02  0.0000000000000E+00  0.1158010622324E-02
 0.9199658836529E-03 -0.4625365754004E-02  0.0000000000000E+00  0.1132535381873E-02
 0.9044781243761E-03 -0.4584108458531E-02  0.0000000000000E+00  0.1106752578183E-02
 0.8809235747641E-03 -0.4535455272822E-02  0.0000000000000E+00  0.1082163257882E-02
 0.8502005655858E-03 -0.4479516865039E-02  0.0000000000000E+00  0.1060166041114E-02
 0.8132050489490E-03 -0.4416291351928E-02  0.0000000000000E+00  0.1042201369791E-02
 0.7708948077239E-03 -0.4345713682422E-02  0.0000000000000E+00  0.1029867519883E-02
 0.7243691921238E-03 -0.4267717358405E-02  0.0000000000000E+00  0.1025007723865E-02
 0.6749619290583E-03 -0.4182308162842E-02  0.0000000000000E+00  0.1029763779255E-02
 0.6243428607834E-03 -0.4089645674475E-02  0.0000000000000E+00  0.1046591730769E-02
 0.5746288269418E-03 -0.3990136835109E-02  0.0000000000000E+00  0.1078234152481E-02
 0.5285027598396E-03 -0.3884551640198E-02  0.0000000000000E+00  0.1127635997338E-02
 0.4893445656423E-03 -0.3774199373604E-02  0.0000000000000E+00  0.1197768717671E-02
 0.4613453048136E-03 -0.3661062951727E-02  0.0000000000000E+00  0.1291367568360E-02
 0.4495891894420E-03 -0.3547840613967E-02  0.0000000000000E+00  0.1410636869737E-02
 0.4601198519150E-03 -0.3438007391971E-02  0.0000000000000E+00  0.1556831886170E-02
 0.4999662964393E-03 -0.3335894647454E-02  0.0000000000000E+00  0.1729659276718E-02
 0.5770781423648E-03 -0.3246734083453E-02  0.0000000000000E+00  0.1926474969713E-02
 0.7001025615260E-03 -0.3176595079599E-02  0.0000000000000E+00  0.2141297363874E-02
 0.8779234933241E-03 -0.3132134644845E-02  0.0000000000000E+00  0.2363720261804E-02
 0.1118889739967E-02 -0.3120085210531E-02  0.0000000000000E+00  0.2577904450129E-02
 0.1429708555868E-02 -0.3146403127560E-02  0.0000000000000E+00  0.2761960505824E-02
 0.1814069762760E-02 -0.3215149694797E-02  0.0000000000000E+00  0.2888067783009E-02
 0.2271124030277E-02 -0.3327303221947E-02  0.0000000000000E+00  0.2923648880139E-02
 0.2794102568869E-02 -0.3479648840279E-02  0.0000000000000E+00  0.2833984660972E-02
 0.3369577615627E-02 -0.3664098740433E-02  0.0000000000000E+00  0.2586281692296E-02
 0.3977785429014E-02 -0.3867865380672E-02  0.0000000000000E+00  0.2154526455785E-02
 0.4594196589772E-02 -0.4074658593479E-02  0.0000000000000E+00  0.1523992945596E-02
 0.5192075975565E-02 -0.4266727819920E-02  0.0000000000000E+00  0.6943686687524E-03
 0.6583460569487E-04 -0.4493474104360E-02  0.0000000000000E+00  0.2159889927612E-03
 0.1985440797130E-03 -0.4574706046953E-02  0.0000000000000E+00  0.4975321542658E-03
 0.3301880360460E-03 -0.4652997010542E-02  0.0000000000000E+00  0.7262070231829E-03
 0.4561213911559E-03 -0.4724933195829E-02  0.0000000000000E+00  0.9034437335597E-03
 0.5722761833307E-03 -0.4787636627754E-02  0.0000000000000E+00  0.1033319628652E-02
 0.6755491636747E-03 -0.4839050708153E-02  0.0000000000000E+00  0.1121842710918E-02
 0.7639701219827E-03 -0.4878038048864E-02  0.0000000000000E+00  0.1176030128615E-02
 0.8366596655431E-03 -0.4904303768067E-02  0.0000000000000E+00  0.1203033686118E-02
 0.8936390098245E-03 -0.4918202926226E-02  0.0000000000000E+00  0.1209476687558E-02
 0.9355732698383E-03 -0.4920503757832E-02  0.0000000000000E+00  0.1201061984363E-02
 0.9635164588222E-03 -0.4912164009946E-02  0.0000000000000E+00  0.1182427917942E-02
 0.9786997082002E-03 -0.4894152997047E-02  0.0000000000000E+00  0.1157187068120E-02
 0.9823795989303E-03 -0.4867329857979E-02  0.0000000000000E+00  0.1128075899469E-02
 0.9757462590004E-03 -0.4832374111822E-02  0.0000000000000E+00  0.1097156202616E-02
 0.9598823850578E-03 -0.4789758231030E-02  0.0000000000000E+00  0.1066028249264E-02
 0.9357621019102E-03 -0.4739750982893E-02  0.0000000000000E+00  0.1036032525283E-02
 0.9042795697428E-03 -0.4682442118332E-02  0.0000000000000E+00  0.1008428881206E-02
 0.8663011740724E-03 -0.4617784175451E-02  0.0000000000000E+00  0.9845496634658E-03
 0.8227342317929E-03 -0.4545644249133E-02  0.0000000000000E+00  0.9659231194638E-03
 0.7746115056046E-03 -0.4465867778992E-02  0.0000000000000E+00  0.9543677902223E-03
 0.7231893013794E-03 -0.4378354332895E-02  0.0000000000000E+00  0.9520539682902E-03
 0.6700552432905E-03 -0.4283141440653E-02  0.0000000000000E+00  0.9615276962375E-03
 0.6172463492437E-03 -0.4180501240268E-02  0.0000000000000E+00  0.9856925501710E-03
 0.5673774778582E-03 -0.4071062448973E-02  0.0000000000000E+00  0.1027735279525E-02
 0.5237859048397E-03 -0.3956003335815E-02  0.0000000000000E+00  0.1090955351137E-02
 0.4906604728255E-03 -0.3837198844593E-02  0.0000000000000E+00  0.1178509772396E-02
 0.4731405780780E-03 -0.3717265587883E-02  0.0000000000000E+00  0.1293134179748E-02
 0.4774087773748E-03 -0.3599637480830E-02  0.0000000000000E+00  0.1436735429819E-02
 0.5107537825098E-03 -0.3488675305057E-02  0.0000000000000E+00  0.1609783609753E-02
 0.5815500660606E-03 -0.3389753484616E-02  0.0000000000000E+00  0.1810467108023E-02
 0.6990780189267E-03 -0.3309245184380E-02  0.0000000000000E+00  0.2033612117627E-02
 0.8730902099959E-03 -0.3254311693394E-02  0.0000000000000E+00  0.2269437679757E-02
 0.1113028247500E-02 -0.3232401862875E-02  0.0000000000000E+00  0.2502323683976E-02
 0.1426841540697E-02 -0.3250355388491E-02  0.0000000000000E+00  0.2709933714624E-02
 0.1819450758862E-02 -0.3313165959636E-02  0.0000000000000E+00  0.2863090557301E-02
 0.2290970944505E-02 -0.3422606876426E-02  0.0000000000000E+00  0.2926807598035E-02
 0.2835015150079E-02 -0.3575875409065E-02  0.0000000000000E+00  0.2863008123490E-02
 0.3437672111863E-02 -0.3764675466686E-02  0.0000000000000E+00  0.2635054988192E-02
 0.4077712461314E-02 -0.3975282377075E-02  0.0000000000000E+00  0.2213381335921E-02
 0.4728313766915E-02 -0.4189853487262E-02  0.0000000000000E+00  0.1580840116901E-02
 0.5360009988179E-02 -0.4388777381383E-02  0.0000000000000E+00  0.7363517415184E-03
 0.7020089530210E-04 -0.4684384146903E-02  0.0000000000000E+00  0.2663214385057E-03
 0.2117854437493E-03 -0.4770965988150E-02  0.0000000000000E+00  0.5462289969476E-03
 0.3522287676690E-03 -0.4854308674420E-02  0.0000000000000E+00  0.7707992134670E-03
 0.4863745813865E-03 -0.4930637823394E-02  0.0000000000000E+00  0.9417463589742E-03
 0.6097484411265E-03 -0.4996812961136E-02  0.0000000000000E+00  0.1063698928969E-02
 0.7190056038625E-03 -0.5050655496923E-02  0.0000000000000E+00  0.1143346164583E-02
 0.8121082886198E-03 -0.5091045992039E-02  0.0000000000000E+00  0.1188366993203E-02
 0.8882517221682E-03 -0.5117814450732E-02  0.0000000000000E+00  0.1206443788694E-02
 0.9476226211311E-03 -0.5131501131805E-02  0.0000000000000E+00  0.1204546172132E-02
 0.9910910736835E-03 -0.5133076073456E-02  0.0000000000000E+00  0.1188538522742E-02
 0.1019915508890E-02 -0.5123683653115E-02  0.0000000000000E+00  0.1163068264576E-02
 0.1035505608885E-02 -0.5104446562610E-02  0.0000000000000E+00  0.1131649623539E-02
 0.1039258211881E-02 -0.5076337094970E-02  0.0000000000000E+00  0.1096856754682E-02
 0.1032461968282E-02 -0.5040107807584E-02  0.0000000000000E+00  0.1060560208427E-02
 0.1016258078725E-02 -0.4996267641224E-02  0.0000000000000E+00  0.1024165193835E-02
 0.9916432026969E-03 -0.4945089725766E-02  0.0000000000000E+00  0.9888300598500E-03
 0.9595027778234E-03 -0.4886640082041E-02  0.0000000000000E+00  0.9556564803797E-03
 0.9206678912327E-03 -0.4820822535841E-02  0.0000000000000E+00  0.9258506563048E-03
 0.8759884852094E-03 -0.4747432675444E-02  0.0000000000000E+00  0.9008534688549E-03
 0.8264224778236E-03 -0.4666223312367E-02  0.0000000000000E+00  0.8824417760718E-03
 0.7731388812163E-03 -0.4576981797234E-02  0.0000000000000E+00  0.8727976540650E-03
 0.7176312788670E-03 -0.4479615552543E-02  0.0000000000000E+00  0.8745409310342E-03
 0.6618426574281E-03 -0.4374251025794E-02  0.0000000000000E+00  0.8907210559723E-03
 0.6083026887212E-03 -0.4261361060406E-02  0.0000000000000E+00  0.9247536977533E-03
 0.5602856475161E-03 -0.4141974012555E-02  0.0000000000000E+00  0.9802576802506E-03
 0.5219541790806E-03 -0.4017832968352E-02  0.0000000000000E+00  0.1060810549224E-02
 0.4984751239347E-03 -0.3891443039843E-02  0.0000000000000E+00  0.1169690833857E-02
 0.4961396539938E-03 -0.3766160978898E-02  0.0000000000000E+00  0.1309489154056E-02
 0.5224670374886E-03 -0.3646336664016E-02  0.0000000000000E+00  0.1481501273185E-02
 0.5862359239938E-03 -0.3537447806856E-02  0.0000000000000E+00  0.1684849295869E-02
 0.6973591743303E-03 -0.3446142097657E-02  0.0000000000000E+00  0.1915311737876E-02
 0.8664920459739E-03 -0.3380079270455E-02  0.0000000000000E+00  0.2163914189099E-02
 0.1104253106386E-02 -0.3347457261217E-02  0.0000000000000E+00  0.2415449364945E-02
 0.1419977866750E-02 -0.3356081781456E-02  0.0000000000000E+00  0.2647293623726E-02
 0.1820016736084E-02 -0.3412012022846E-02  0.0000000000000E+00  0.2828972035846E-02
 0.2305672680058E-02 -0.3517980693861E-02  0.0000000000000E+00  0.2922971094320E-02
 0.2871128074429E-02 -0.3671747620255E-02  0.0000000000000E+00  0.2887514017819E-02
 0.3502060493334E-02 -0.3864880536619E-02  0.0000000000000E+00  0.2681582693260E-02
 0.4175672329842E-02 -0.4082659268067E-02  0.0000000000000E+00  0.2271465679311E-02
 0.4862584961060E-02 -0.4305507244010E-02  0.0000000000000E+00  0.1637158628839E-02
 0.5530275743157E-02 -0.4511724945419E-02  0.0000000000000E+00  0.7766451853350E-03
 0.7477988483026E-04 -0.4875993653914E-02  0.0000000000000E+00  0.3199459880404E-03
 0.2256671735309E-03 -0.4968173284350E-02  0.0000000000000E+00  0.5980503664390E-03
 0.3753091925020E-03 -0.5056774273328E-02  0.0000000000000E+00  0.8180830752954E-03
 0.5179816060993E-03 -0.5137623951807E-02  0.0000000000000E+00  0.9820963812342E-03
 0.6487684553961E-03 -0.5207301171288E-02  0.0000000000000E+00  0.1095369143026E-02
 0.7640779762880E-03 -0.5263511299431E-02  0.0000000000000E+00  0.1165382298311E-02
 0.8618246277259E-03 -0.5305177850582E-02  0.0000000000000E+00  0.1200567515179E-02
 0.9413124548342E-03 -0.5332289684543E-02  0.0000000000000E+00  0.1209192947437E-02
 0.1002930801324E-02 -0.5345605501823E-02  0.0000000000000E+00  0.1198593053292E-02
 0.1047786759716E-02 -0.5346323534969E-02  0.0000000000000E+00  0.1174784265057E-02
 0.1077366473439E-02 -0.5335792240953E-02  0.0000000000000E+00  0.1142397220836E-02
 0.1093272508068E-02 -0.5315296996110E-02  0.0000000000000E+00  0.1104815485648E-02
 0.1097048935634E-02 -0.5285926569070E-02  0.0000000000000E+00  0.1064418666935E-02
 0.1090084694653E-02 -0.5248506221274E-02  0.0000000000000E+00  0.1022857071777E-02
 0.1073577943489E-02 -0.5203579232430E-02  0.0000000000000E+00  0.9813158478823E-03
 0.1048544350877E-02 -0.5151420352603E-02  0.0000000000000E+00  0.9407496347640E-03
 0.1015855868127E-02 -0.5092069064629E-02  0.0000000000000E+00  0.9020826784934E-03
 0.9763025417294E-03 -0.5025377659612E-02  0.0000000000000E+00  0.8663769952797E-03
 0.9306701633145E-03 -0.4951067115514E-02  0.0000000000000E+00  0.8349684368865E-03
 0.8798337602539E-03 -0.4868793766349E-02  0.0000000000000E+00  0.8095744061610E-03
 0.8248654091985E-03 -0.4778227565313E-02  0.0000000000000E+00  0.7923707264752E-03
 0.7671530239368E-03 -0.4679138638028E-02  0.0000000000000E+00  0.7860328220462E-03
 0.7085314229123E-03 -0.4571497688832E-02  0.0000000000000E+00  0.7937380868741E-03
 0.6514277783505E-03 -0.4455607747663E-02  0.0000000000000E+00  0.8191144036650E-03
 0.5990322829281E-03 -0.4332328614951E-02  0.0000000000000E+00  0.8660863198444E-03
 0.5554558199337E-03 -0.4203247147545E-02  0.0000000000000E+00  0.9386445911693E-03
 0.5258619706922E-03 -0.4070725346756E-02  0.0000000000000E+00  0.1040615213951E-02
 0.5166153192013E-03 -0.3938003128392E-02  0.0000000000000E+00  0.1175297744771E-02
 0.5354293235433E-03 -0.3809373012943E-02  0.0000000000000E+00  0.1344870745123E-02
 0.5914567082298E-03 -0.3690367631875E-02  0.0000000000000E+00  0.1549491047946E-02
 0.6952315145387E-03 -0.3587868689431E-02  0.0000000000000E+00  0.1786042611141E-02
 0.8583366947806E-03 -0.3510016790004E-02  0.0000000000000E+00  0.2046560245574E-02
 0.1092648718515E-02 -0.3465782956708E-02  0.0000000000000E+00  0.2316479193608E-02
 0.1409041299558E-02 -0.3464020939513E-02  0.0000000000000E+00  0.2573095713688E-02
 0.1815517825685E-02 -0.3512000793552E-02  0.0000000000000E+00  0.2784743487266E-02
 0.2314833817040E-02 -0.3613606238298E-02  0.0000000000000E+00  0.2911291451274E-02
 0.2901977727836E-02 -0.3767347117008E-02  0.0000000000000E+00  0.2906901601901E-02
 0.3562325251686E-02 -0.3964758416374E-02  0.0000000000000E+00  0.2725558277688E-02
 0.4271406194821E-02 -0.4190069298121E-02  0.0000000000000E+00  0.2328695048373E-02
 0.4996976206331E-02 -0.4421755275225E-02  0.0000000000000E+00  0.1692926490135E-02
 0.5703083617618E-02 -0.4635766721820E-02  0.0000000000000E+00  0.8151292913015E-03
 0.7959447380812E-04 -0.5068382063002E-02  0.0000000000000E+00  0.3770262037117E-03
 0.2402584859260E-03 -0.5166432354990E-02  0.0000000000000E+00  0.6531384941026E-03
 0.3995393402471E-03 -0.5260514994185E-02  0.0000000000000E+00  0.8681485395469E-03
 0.5510772098857E-03 -0.5346014581172E-02  0.0000000000000E+00  0.1024512246201E-02
 0.6894748934743E-03 -0.5419209428287E-02  0.0000000000000E+00  0.1128276885488E-02
 0.8108900612128E-03 -0.5477698335127E-02  0.0000000000000E+00  0.1187842768735E-02
 0.9132155833017E-03 -0.5520479235633E-02  0.0000000000000E+00  0.1212494952544E-02
 0.9959059820445E-03 -0.5547740369383E-02  0.0000000000000E+00  0.1211143696755E-02
 0.1059596461976E-02 -0.5560496848786E-02  0.0000000000000E+00  0.1191501878292E-02
 0.1105666906982E-02 -0.5560203824776E-02  0.0000000000000E+00  0.1159721088385E-02
 0.1135856026467E-02 -0.5548431636408E-02  0.0000000000000E+00  0.1120382234438E-02
 0.1151973644554E-02 -0.5526636824200E-02  0.0000000000000E+00  0.1076700643700E-02
 0.1155717325227E-02 -0.5496026696018E-02  0.0000000000000E+00  0.1030825983431E-02
 0.1148577148310E-02 -0.5457497710183E-02  0.0000000000000E+00  0.9841579179835E-03
 0.1131805909956E-02 -0.5411624537025E-02  0.0000000000000E+00  0.9376362996818E-03
 0.1106434269874E-02 -0.5358680427704E-02  0.0000000000000E+00  0.8919908293932E-03
 0.1073315734922E-02 -0.5298675566090E-02  0.0000000000000E+00  0.8479495359571E-03
 0.1033193622706E-02 -0.5231408286812E-02  0.0000000000000E+00  0.8064124731466E-03
 0.9867830248130E-03 -0.5156522523408E-02  0.0000000000000E+00  0.7685926661050E-03
 0.9348683567439E-03 -0.5073575143649E-02  0.0000000000000E+00  0.7361296509049E-03
 0.8784154826611E-03 -0.4982114514506E-02  0.0000000000000E+00  0.7111737384454E-03
 0.8186953760547E-03 -0.4881767350636E-02  0.0000000000000E+00  0.6964358436463E-03
 0.7574208361434E-03 -0.4772339658724E-02  0.0000000000000E+00  0.6952005727879E-03
 0.6968992978421E-03 -0.4653951712065E-02  0.0000000000000E+00  0.7112873441448E-03
 0.6402154074490E-03 -0.4527276787473E-02  0.0000000000000E+00  0.7489074314720E-03
 0.5914014742040E-03 -0.4393721130456E-02  0.0000000000000E+00  0.8124505924206E-03
 0.5555844091418E-03 -0.4255470753313E-02  0.0000000000000E+00  0.9062865654317E-03
 0.5391621267510E-03 -0.4115605765403E-02  0.0000000000000E+00  0.1034440071571E-02
 0.5499982347645E-03 -0.3978308708353E-02  0.0000000000000E+00  0.1200021879770E-02
 0.5975787913263E-03 -0.3849109126612E-02  0.0000000000000E+00  0.1404321394623E-02
 0.6930349853401E-03 -0.3735069277810E-02  0.0000000000000E+00  0.1645487246464E-02
 0.8488902439248E-03 -0.3644778477086E-02  0.0000000000000E+00  0.1916786853624E-02
 0.1078353099722E-02 -0.3587992489345E-02  0.0000000000000E+00  0.2204566645790E-02
 0.1393993113585E-02 -0.3574690986756E-02  0.0000000000000E+00  0.2486305320582E-02
 0.1805714664204E-02 -0.3613510974484E-02  0.0000000000000E+00  0.2729311877691E-02
 0.2318037140309E-02 -0.3709708457087E-02  0.0000000000000E+00  0.2890788477187E-02
 0.2927052602134E-02 -0.3862775565546E-02  0.0000000000000E+00  0.2920464512809E-02
 0.3617994991499E-02 -0.4064360620448E-02  0.0000000000000E+00  0.2766622162650E-02
 0.4364620622096E-02 -0.4297596570254E-02  0.0000000000000E+00  0.2384978549660E-02
 0.5131448128837E-02 -0.4538754585792E-02  0.0000000000000E+00  0.1748125069631E-02
 0.5878661876837E-02 -0.4761125435250E-02  0.0000000000000E+00  0.8516806996197E-03
 0.8467043181366E-04 -0.5261637185242E-02  0.0000000000000E+00  0.4377425424438E-03
 0.2556372253065E-03 -0.5365858804455E-02  0.0000000000000E+00  0.7116481121083E-03
 0.4250422795266E-03 -0.5465664256803E-02  0.0000000000000E+00  0.9210876120424E-03
 0.5858102610837E-03 -0.5555943087401E-02  0.0000000000000E+00  0.1069001341412E-02
 0.7320179858223E-03 -0.5632651750649E-02  0.0000000000000E+00  0.1162346368038E-02
 0.8595721957878E-03 -0.5693296822485E-02  0.0000000000000E+00  0.1210590423569E-02
 0.9663784808752E-03 -0.5736990188027E-02  0.0000000000000E+00  0.1223982979298E-02
 0.1052092405393E-02 -0.5764167658672E-02  0.0000000000000E+00  0.1212132559979E-02
 0.1117645086652E-02 -0.5776143821363E-02  0.0000000000000E+00  0.1183137034230E-02
 0.1164728782970E-02 -0.5774661572726E-02  0.0000000000000E+00  0.1143256986460E-02
 0.1195360824403E-02 -0.5761530770625E-02  0.0000000000000E+00  0.1096982407341E-02
 0.1211572245218E-02 -0.5738386225931E-02  0.0000000000000E+00  0.1047317078932E-02
 0.1215219231735E-02 -0.5706554163194E-02  0.0000000000000E+00  0.9961422239601E-03
 0.1207892662720E-02 -0.5666999288461E-02  0.0000000000000E+00  0.9445753823651E-03
 0.1190896725753E-02 -0.5620323769618E-02  0.0000000000000E+00  0.8932860521862E-03
 0.1165272513350E-02 -0.5566795844838E-02  0.0000000000000E+00  0.8427585140307E-03
 0.1131849963337E-02 -0.5506393739701E-02  0.0000000000000E+00  0.7935066017390E-03
 0.1091320106403E-02 -0.5438859912685E-02  0.0000000000000E+00  0.7462511698928E-03
 0.1044321115837E-02 -0.5363759619220E-02  0.0000000000000E+00  0.7020646985877E-03
 0.9915395206222E-03 -0.5280548284215E-02  0.0000000000000E+00  0.6624899662402E-03
 0.9338261994783E-03 -0.5188649664956E-02  0.0000000000000E+00  0.6296314145496E-03
 0.8723244446702E-03 -0.5087542237865E-02  0.0000000000000E+00  0.6062135306659E-03
 0.8086116994567E-03 -0.4976859731001E-02  0.0000000000000E+00  0.5956046529376E-03
 0.7448588074273E-03 -0.4856528082918E-02  0.0000000000000E+00  0.6017910247282E-03
 0.6840234116443E-03 -0.4727017229932E-02  0.0000000000000E+00  0.6292459888421E-03
 0.6300316252814E-03 -0.4589528985808E-02  0.0000000000000E+00  0.6827365213828E-03
 0.5879379658754E-03 -0.4446039842663E-02  0.0000000000000E+00  0.7671627829675E-03
 0.5641289041378E-03 -0.4299424363824E-02  0.0000000000000E+00  0.8872798547002E-03
 0.5665661933855E-03 -0.4153696524654E-02  0.0000000000000E+00  0.1047169447091E-02
 0.6050167196857E-03 -0.4014314635193E-02  0.0000000000000E+00  0.1249344576597E-02
 0.6911697179767E-03 -0.3888453444611E-02  0.0000000000000E+00  0.1493380347520E-02
 0.8384859786526E-03 -0.3785101100979E-02  0.0000000000000E+00  0.1774019017947E-02
 0.1061568950680E-02 -0.3714792964132E-02  0.0000000000000E+00  0.2078827939205E-02
 0.1374843336181E-02 -0.3688703667035E-02  0.0000000000000E+00  0.2385794542176E-02
 0.1790386587871E-02 -0.3717001147058E-02  0.0000000000000E+00  0.2661445297682E-02
 0.2314845368578E-02 -0.3806566338957E-02  0.0000000000000E+00  0.2860326387019E-02
 0.2945786938707E-02 -0.3958159050863E-02  0.0000000000000E+00  0.2927366959917E-02
 0.3668533287598E-02 -0.4163744365694E-02  0.0000000000000E+00  0.2804349339569E-02
 0.4454980538648E-02 -0.4405335076533E-02  0.0000000000000E+00  0.2440221996622E-02
 0.5265956447327E-02 -0.4656687558820E-02  0.0000000000000E+00  0.1802741658987E-02
 0.6057253874109E-02 -0.4888052755595E-02  0.0000000000000E+00  0.8861668813044E-03
 0.9003700463512E-04 -0.5455856954234E-02  0.0000000000000E+00  0.5022943741094E-03
 0.2718916391979E-03 -0.5566581700154E-02  0.0000000000000E+00  0.7737474976024E-03
 0.4519566437405E-03 -0.5672370035379E-02  0.0000000000000E+00  0.9769932263392E-03
 0.6223461648629E-03 -0.5767554884072E-02  0.0000000000000E+00  0.1115556464413E-02
 0.7765610610112E-03 -0.5847748517163E-02  0.0000000000000E+00  0.1197474411795E-02
 0.9102616333410E-03 -0.5910386309208E-02  0.0000000000000E+00  0.1233454265772E-02
 0.1021410888663E-02 -0.5954743684966E-02  0.0000000000000E+00  0.1234831730637E-02
 0.1109926596872E-02 -0.5981561144657E-02  0.0000000000000E+00  0.1211967653517E-02
 0.1177093370410E-02 -0.5992501191613E-02  0.0000000000000E+00  0.1173341794804E-02
 0.1224959125129E-02 -0.5989626987198E-02  0.0000000000000E+00  0.1125286116228E-02
 0.1255846558133E-02 -0.5975004684251E-02  0.0000000000000E+00  0.1072149034450E-02
 0.1272020853092E-02 -0.5950452432596E-02  0.0000000000000E+00  0.1016673379203E-02
 0.1275500342582E-02 -0.5917413579358E-02  0.0000000000000E+00  0.9604304988213E-03
 0.1267974856426E-02 -0.5876916403752E-02  0.0000000000000E+00  0.9042236917671E-03
 0.1250795646482E-02 -0.5829585615164E-02  0.0000000000000E+00  0.8484277283345E-03
 0.1225009103005E-02 -0.5775680526735E-02  0.0000000000000E+00  0.7932622064029E-03
 0.1191416345626E-02 -0.5715144918687E-02  0.0000000000000E+00  0.7390099916810E-03
 0.1150650780167E-02 -0.5647664071019E-02  0.0000000000000E+00  0.6861963510609E-03
 0.1103267890308E-02 -0.5572723869197E-02  0.0000000000000E+00  0.6357358109792E-03
 0.1049849619363E-02 -0.5489677488747E-02  0.0000000000000E+00  0.5890551980728E-03
 0.9911237340998E-03 -0.5397822395302E-02  0.0000000000000E+00  0.5481917802470E-03
 0.9280958076184E-03 -0.5296485497890E-02  0.0000000000000E+00  0.5158600291715E-03
 0.8621953421203E-03 -0.5185122318261E-02  0.0000000000000E+00  0.4954859155610E-03
 0.7954404566172E-03 -0.5063454635981E-02  0.0000000000000E+00  0.4911938075247E-03
 0.7306407930845E-03 -0.4931733907001E-02  0.0000000000000E+00  0.5076886247182E-03
 0.6715883792338E-03 -0.4790934922134E-02  0.0000000000000E+00  0.5500846209790E-03
 0.6232278565651E-03 -0.4642791241900E-02  0.0000000000000E+00  0.6237882265661E-03
 0.5918851790763E-03 -0.4489924134915E-02  0.0000000000000E+00  0.7342768808500E-03
 0.5855602201598E-03 -0.4336114953206E-02  0.0000000000000E+00  0.8866279947683E-03
 0.6142354774551E-03 -0.4186672287202E-02  0.0000000000000E+00  0.1084658055369E-02
 0.6901017058464E-03 -0.4048799230786E-02  0.0000000000000E+00  0.1329528234380E-02
 0.8275339319753E-03 -0.3931811836969E-02  0.0000000000000E+00  0.1617713242625E-02
 0.1042576471863E-02 -0.3846997855903E-02  0.0000000000000E+00  0.1938352881150E-02
 0.1351664605981E-02 -0.3806780906989E-02  0.0000000000000E+00  0.2270341539160E-02
 0.1769342713142E-02 -0.3823027173625E-02  0.0000000000000E+00  0.2579757971013E-02
 0.2304804978481E-02 -0.3904527005769E-02  0.0000000000000E+00  0.2818586420038E-02
 0.2957554168640E-02 -0.4053654591886E-02  0.0000000000000E+00  0.2926612629337E-02
 0.3713324198346E-02 -0.4262970172657E-02  0.0000000000000E+00  0.2838230855507E-02
 0.4542099245593E-02 -0.4513384926380E-02  0.0000000000000E+00  0.2494333432021E-02
 0.5400454716984E-02 -0.4775766194701E-02  0.0000000000000E+00  0.1856776983667E-02
 0.6239113282700E-02 -0.5016831799646E-02  0.0000000000000E+00  0.9184356464566E-03
 0.9572765009383E-04 -0.5651151553480E-02  0.0000000000000E+00  0.5709024343714E-03
 0.2891225404600E-03 -0.5768746337070E-02  0.0000000000000E+00  0.8396196577099E-03
 0.4804396563976E-03 -0.5880797622069E-02  0.0000000000000E+00  0.1035957668458E-02
 0.6608696482249E-03 -0.5981009298628E-02  0.0000000000000E+00  0.1164151352760E-02
 0.8232821693130E-03 -0.6064626889649E-02  0.0000000000000E+00  0.1233524379849E-02
 0.9631027213736E-03 -0.6129044686486E-02  0.0000000000000E+00  0.1256223591480E-02
 0.1078409656230E-02 -0.6173763761931E-02  0.0000000000000E+00  0.1244803472390E-02
 0.1169456664721E-02 -0.6199896731869E-02  0.0000000000000E+00  0.1210426334506E-02
 0.1237947629077E-02 -0.6209507976446E-02  0.0000000000000E+00  0.1161937671634E-02
 0.1286332810630E-02 -0.6205014473098E-02  0.0000000000000E+00  0.1105689238246E-02
 0.1317266996762E-02 -0.6188753676782E-02  0.0000000000000E+00  0.1045826502878E-02
 0.1333260719236E-02 -0.6162729315076E-02  0.0000000000000E+00  0.9847756187328E-03
 0.1336495826746E-02 -0.6128497355817E-02  0.0000000000000E+00  0.9237540782891E-03
 0.1328757417310E-02 -0.6087142964596E-02  0.0000000000000E+00  0.8632187890650E-03
 0.1311438250944E-02 -0.6039307272089E-02  0.0000000000000E+00  0.8032267235459E-03
 0.1285584282495E-02 -0.5985236374783E-02  0.0000000000000E+00  0.7437152924270E-03
 0.1251962498800E-02 -0.5924837382340E-02  0.0000000000000E+00  0.6847212584901E-03
 0.1211143668503E-02 -0.5857737841677E-02  0.0000000000000E+00  0.6265590927033E-03
 0.1163595389302E-02 -0.5783344670630E-02  0.0000000000000E+00  0.5699685155548E-03
 0.1109789031037E-02 -0.5700909322813E-02  0.0000000000000E+00  0.5162410926247E-03
 0.1050321911368E-02 -0.5609602807590E-02  0.0000000000000E+00  0.4673248330364E-03
 0.9860527191022E-03 -0.5508598841515E-02  0.0000000000000E+00  0.4258991192635E-03
 0.9182514204258E-03 -0.5397170741305E-02  0.0000000000000E+00  0.3954190385632E-03
 0.8487683544874E-03 -0.5274828455569E-02  0.0000000000000E+00  0.3801145542237E-03
 0.7802451302530E-03 -0.5141592062698E-02  0.0000000000000E+00  0.3848858137974E-03
 0.7163121817138E-03 -0.4998188724993E-02  0.0000000000000E+00  0.4151558322162E-03
 0.6617657560161E-03 -0.4846076714105E-02  0.0000000000000E+00  0.4768012142619E-03
 0.6228185571480E-03 -0.4687575264913E-02  0.0000000000000E+00  0.5759984005079E-03
 0.6074407780288E-03 -0.4526164439942E-02  0.0000000000000E+00  0.7188277253919E-03
 0.6257519462403E-03 -0.4366914513243E-02  0.0000000000000E+00  0.9104727113943E-03
 0.6903681348192E-03 -0.4216955540699E-02  0.0000000000000E+00  0.1153831808491E-02
 0.8165309685542E-03 -0.4085836123084E-02  0.0000000000000E+00  0.1447379692486E-02
 0.1021747938771E-02 -0.3985541100632E-02  0.0000000000000E+00  0.1782220591737E-02
 0.1324609000467E-02 -0.3929774223254E-02  0.0000000000000E+00  0.2138633316509E-02
 0.1742436567061E-02 -0.3932263715902E-02  0.0000000000000E+00  0.2482695584914E-02
 0.2287453042177E-02 -0.4004024429808E-02  0.0000000000000E+00  0.2764035488655E-02
 0.2961661037223E-02 -0.4149460483664E-02  0.0000000000000E+00  0.2917004569762E-02
 0.3751653653030E-02 -0.4362099097619E-02  0.0000000000000E+00  0.2867644555214E-02
 0.4625522809175E-02 -0.4621843185514E-02  0.0000000000000E+00  0.2547229904447E-02
 0.5534900827390E-02 -0.4896235237156E-02  0.0000000000000E+00  0.1910264144393E-02
 0.6424496808394E-02 -0.5147779150189E-02  0.0000000000000E+00  0.9482977198861E-03
 0.1017809511661E-03 -0.5847646015959E-02  0.0000000000000E+00  0.6438117570420E-03
 0.3074459646752E-03 -0.5972517570543E-02  0.0000000000000E+00  0.9094636148044E-03
 0.5106707726222E-03 -0.6091132854455E-02  0.0000000000000E+00  0.1098070355376E-02
 0.7015879631173E-03 -0.6196481569554E-02  0.0000000000000E+00  0.1214734942746E-02
 0.8723757394425E-03 -0.6283420934627E-02  0.0000000000000E+00  0.1270318728239E-02
 0.1018246771885E-02 -0.6349346604388E-02  0.0000000000000E+00  0.1278641141049E-02
 0.1137469487026E-02 -0.6394062953542E-02  0.0000000000000E+00  0.1253617887507E-02
 0.1230721974617E-02 -0.6419133921565E-02  0.0000000000000E+00  0.1207252982504E-02
 0.1300201885717E-02 -0.6427085137764E-02  0.0000000000000E+00  0.1148724191488E-02
 0.1348811344080E-02 -0.6420720988224E-02  0.0000000000000E+00  0.1084334659733E-02
 0.1379562961366E-02 -0.6402662305206E-02  0.0000000000000E+00  0.1017953633652E-02
 0.1395221194115E-02 -0.6375096877705E-02  0.0000000000000E+00  0.9516285619331E-03
 0.1398130012013E-02 -0.6339685509960E-02  0.0000000000000E+00  0.8861771605142E-03
 0.1390163925851E-02 -0.6297561279972E-02  0.0000000000000E+00  0.8216785456436E-03
 0.1372750286659E-02 -0.6249374382715E-02  0.0000000000000E+00  0.7578508557758E-03
 0.1346928283646E-02 -0.6195353073130E-02  0.0000000000000E+00  0.6943341715197E-03
 0.1313425470896E-02 -0.6135365938484E-02  0.0000000000000E+00  0.6309061267600E-03
 0.1272745416345E-02 -0.6068983132243E-02  0.0000000000000E+00  0.5676567222659E-03
 0.1225263351661E-02 -0.5995534264934E-02  0.0000000000000E+00  0.5051348356974E-03
 0.1171334939687E-02 -0.5914171099449E-02  0.0000000000000E+00  0.4444775431448E-03
 0.1111420642482E-02 -0.5823939715434E-02  0.0000000000000E+00  0.3875209096763E-03
 0.1046224133073E-02 -0.5723860911492E-02  0.0000000000000E+00  0.3368828867131E-03
 0.9768454675002E-03 -0.5613023991955E-02  0.0000000000000E+00  0.2960170265116E-03
 0.9049535946677E-03 -0.5490721950332E-02  0.0000000000000E+00  0.2692228215623E-03
 0.8330035779777E-03 -0.5356733424277E-02  0.0000000000000E+00  0.2615536036538E-03
 0.7644378816054E-03 -0.5211520161240E-02  0.0000000000000E+00  0.2786938532617E-03
 0.7038657069233E-03 -0.5056234934167E-02  0.0000000000000E+00  0.3269414093368E-03
 0.6573310289396E-03 -0.4892846512047E-02  0.0000000000000E+00  0.4131309588959E-03
 0.6326994095758E-03 -0.4724461681924E-02  0.0000000000000E+00  0.5443317456262E-03
 0.6401352291798E-03 -0.4555814478926E-02  0.0000000000000E+00  0.7271358154492E-03
 0.6925820374541E-03 -0.4393842693877E-02  0.0000000000000E+00  0.9663140430105E-03
 0.8060711991226E-03 -0.4248204499595E-02  0.0000000000000E+00  0.1262610525073E-02
 0.9995641361337E-03 -0.4131491708171E-02  0.0000000000000E+00  0.1609522092291E-02
 0.1293928403444E-02 -0.4058686685109E-02  0.0000000000000E+00  0.1989274121689E-02
 0.1709585241467E-02 -0.4045530171264E-02  0.0000000000000E+00  0.2368522458797E-02
 0.2262328245105E-02 -0.4105603422283E-02  0.0000000000000E+00  0.2694891591246E-02
 0.2957344098121E-02 -0.4245832177120E-02  0.0000000000000E+00  0.2897095430864E-02
 0.3782686706131E-02 -0.4461191833919E-02  0.0000000000000E+00  0.2891807684543E-02
 0.4704703339642E-02 -0.4730784928303E-02  0.0000000000000E+00  0.2598838184196E-02
 0.5669267182604E-02 -0.5018367950076E-02  0.0000000000000E+00  0.1963309592083E-02
 0.6613653231795E-02 -0.5281242526487E-02  0.0000000000000E+00  0.9755023127513E-03
 0.1082417621728E-03 -0.6045483441470E-02  0.0000000000000E+00  0.7212951840677E-03
 0.3269964678898E-03 -0.6178083927448E-02  0.0000000000000E+00  0.9834957757849E-03
 0.5428561011328E-03 -0.6303586003154E-02  0.0000000000000E+00  0.1163414733861E-02
 0.7447345908882E-03 -0.6414165081773E-02  0.0000000000000E+00  0.1267223994633E-02
 0.9240542424614E-03 -0.6504271485468E-02  0.0000000000000E+00  0.1307629877514E-02
 0.1075851541419E-02 -0.6571361326600E-02  0.0000000000000E+00  0.1300395156503E-02
 0.1198680979632E-02 -0.6615639163024E-02  0.0000000000000E+00  0.1260947051066E-02
 0.1293750721890E-02 -0.6639212721814E-02  0.0000000000000E+00  0.1202157072323E-02
 0.1363835695626E-02 -0.6645133174378E-02  0.0000000000000E+00  0.1133479250761E-02
 0.1412341273260E-02 -0.6636624524571E-02  0.0000000000000E+00  0.1061079774971E-02
 0.1442661367253E-02 -0.6616598668075E-02  0.0000000000000E+00  0.9884654927045E-03
 0.1457819271338E-02 -0.6587421129737E-02  0.0000000000000E+00  0.9172371604755E-03
 0.1460316254801E-02 -0.6550845891635E-02  0.0000000000000E+00  0.8477657642596E-03
 0.1452107883937E-02 -0.6508042440779E-02  0.0000000000000E+00  0.7797229569446E-03
 0.1434647718961E-02 -0.6459661412370E-02  0.0000000000000E+00  0.7124698826622E-03
 0.1408961286306E-02 -0.6405908342660E-02  0.0000000000000E+00  0.6453371714156E-03
 0.1375731526091E-02 -0.6346611953753E-02  0.0000000000000E+00  0.5778329113713E-03
 0.1335390833009E-02 -0.6281286402602E-02  0.0000000000000E+00  0.5098108636105E-03
 0.1288218464713E-02 -0.6209187086125E-02  0.0000000000000E+00  0.4416141095624E-03
 0.1234450248002E-02 -0.6129369787045E-02  0.0000000000000E+00  0.3742062868193E-03
 0.1174404451045E-02 -0.6040759043248E-02  0.0000000000000E+00  0.3092884152215E-03
 0.1108622778439E-02 -0.5942225089188E-02  0.0000000000000E+00  0.2493896487373E-03
 0.1038026434260E-02 -0.5832673839028E-02  0.0000000000000E+00  0.1979295716694E-03
 0.9640911738922E-03 -0.5711179131092E-02  0.0000000000000E+00  0.1592380383314E-03
 0.8890691075712E-03 -0.5577271530219E-02  0.0000000000000E+00  0.1384742015133E-03
 0.8161903284604E-03 -0.5431133291666E-02  0.0000000000000E+00  0.1415280003732E-03
 0.7498392881358E-03 -0.5273584863827E-02  0.0000000000000E+00  0.1750561182718E-03
 0.6958342215459E-03 -0.5106198004762E-02  0.0000000000000E+00  0.2464915480321E-03
 0.6618550332630E-03 -0.4931632691952E-02  0.0000000000000E+00  0.3638535246906E-03
 0.6580055305339E-03 -0.4754180959665E-02  0.0000000000000E+00  0.5351557347716E-03
 0.6974358144715E-03 -0.4580451457437E-02  0.0000000000000E+00  0.7671513389490E-03
 0.7968562636053E-03 -0.4420058658099E-02  0.0000000000000E+00  0.1063114437358E-02
 0.9766324154346E-03 -0.4286069284447E-02  0.0000000000000E+00  0.1419390575188E-02
 0.1259998680879E-02 -0.4194698193926E-02  0.0000000000000E+00  0.1820800922227E-02
 0.1670794026895E-02 -0.4163822572749E-02  0.0000000000000E+00  0.2235311829112E-02
 0.2228987045823E-02 -0.4209950726573E-02  0.0000000000000E+00  0.2609086051969E-02
 0.2943770729869E-02 -0.4343105848670E-02  0.0000000000000E+00  0.2865130133142E-02
 0.3805444599167E-02 -0.4560317284759E-02  0.0000000000000E+00  0.2909705379551E-02
 0.4778953513921E-02 -0.4840234093959E-02  0.0000000000000E+00  0.2649066513424E-02
 0.5803553014110E-02 -0.5142438428000E-02  0.0000000000000E+00  0.2016171936185E-02
 0.6806807285555E-02 -0.5417584519504E-02  0.0000000000000E+00  0.9997145441963E-03
 0.1151626437854E-03 -0.6244829007645E-02  0.0000000000000E+00  0.8036576413341E-03
 0.3479312385752E-03 -0.6385662648311E-02  0.0000000000000E+00  0.1061951346767E-02
 0.5772337745533E-03 -0.6518396366826E-02  0.0000000000000E+00  0.1232063973019E-02
 0.7905734781133E-03 -0.6634273687632E-02  0.0000000000000E+00  0.1321493591067E-02
 0.9785497201228E-03 -0.6727325404750E-02  0.0000000000000E+00  0.1345169034358E-02
 0.1136080089155E-02 -0.6795149609484E-02  0.0000000000000E+00  0.1321110260254E-02
 0.1262127916718E-02 -0.6838471568748E-02  0.0000000000000E+00  0.1266410252498E-02
 0.1358556893831E-02 -0.6860049851272E-02  0.0000000000000E+00  0.1194811809929E-02
 0.1428811607395E-02 -0.6863529317608E-02  0.0000000000000E+00  0.1115960318654E-02
 0.1476852462981E-02 -0.6852582435138E-02  0.0000000000000E+00  0.1035773421565E-02
 0.1506474271714E-02 -0.6830413675164E-02  0.0000000000000E+00  0.9572958346114E-03
 0.1520959212102E-02 -0.6799553998797E-02  0.0000000000000E+00  0.8816084718491E-03
 0.1522956916238E-02 -0.6761834456366E-02  0.0000000000000E+00  0.8085888612959E-03
 0.1514492847812E-02 -0.6718446727744E-02  0.0000000000000E+00  0.7374744379846E-03
 0.1497036868739E-02 -0.6670032024533E-02  0.0000000000000E+00  0.6672550134499E-03
 0.1471593444968E-02 -0.6616768156964E-02  0.0000000000000E+00  0.5969433751358E-03
 0.1438795970875E-02 -0.6558443309255E-02  0.0000000000000E+00  0.5257707791927E-03
 0.1399002448584E-02 -0.6494518275102E-02  0.0000000000000E+00  0.4533452660085E-03
 0.1352393597064E-02 -0.6424178951805E-02  0.0000000000000E+00  0.3797905257394E-03
 0.1299082441236E-02 -0.6346390714291E-02  0.0000000000000E+00  0.3058782846717E-03
 0.1239240918168E-02 -0.6259961974749E-02  0.0000000000000E+00  0.2331511795573E-03
 0.1173243113987E-02 -0.6163616996294E-02  0.0000000000000E+00  0.1640214326229E-03
 0.1101824051389E-02 -0.6056081557804E-02  0.0000000000000E+00  0.1018408654306E-03
 0.1026256636839E-02 -0.5936211405484E-02  0.0000000000000E+00  0.5092800692355E-04
 0.9485763242444E-03 -0.5803286409299E-02  0.0000000000000E+00  0.1649576061480E-04
 0.8717793268743E-03 -0.5657199882002E-02  0.0000000000000E+00  0.4575196145246E-05
 0.7999898373807E-03 -0.5498417858073E-02  0.0000000000000E+00  0.2210579103121E-04
 0.7387433287373E-03 -0.5328072278108E-02  0.0000000000000E+00  0.7703834124476E-04
 0.6954485321370E-03 -0.5148303518817E-02  0.0000000000000E+00  0.1782748534016E-03
 0.6800310848143E-03 -0.4962850341969E-02  0.0000000000000E+00  0.3352288405762E-03
 0.7057030184927E-03 -0.4777839026775E-02  0.0000000000000E+00  0.5567097026261E-03
 0.7897048638928E-03 -0.4602655087164E-02  0.0000000000000E+00  0.8487591101378E-03
 0.9537061827432E-03 -0.4450658972482E-02  0.0000000000000E+00  0.1211042285812E-02
 0.1223347920271E-02 -0.4339193473079E-02  0.0000000000000E+00  0.1631708919083E-02
 0.1626188025084E-02 -0.4288351072246E-02  0.0000000000000E+00  0.2080943449101E-02
 0.2187026454009E-02 -0.4317935646243E-02  0.0000000000000E+00  0.2504222006333E-02
 0.2920044615139E-02 -0.4441727279150E-02  0.0000000000000E+00  0.2818983649695E-02
 0.3818791499089E-02 -0.4659579427853E-02  0.0000000000000E+00  0.2920004697585E-02
 0.4847377455924E-02 -0.4950141906191E-02  0.0000000000000E+00  0.2697695398970E-02
 0.5937776392810E-02 -0.5268631955506E-02  0.0000000000000E+00  0.2069363462446E-02
 0.7004146133804E-02 -0.5557097711957E-02  0.0000000000000E+00  0.1020564487796E-02
 0.1226057110493E-03 -0.6445875040080E-02  0.0000000000000E+00  0.8912412266365E-03
 0.3704352807455E-03 -0.6595505911089E-02  0.0000000000000E+00  0.1145085641435E-02
 0.6140805281530E-03 -0.6735837762970E-02  0.0000000000000E+00  0.1304074925762E-02
 0.8394038790178E-03 -0.6857044071121E-02  0.0000000000000E+00  0.1377364762822E-02
 0.1036115036089E-02 -0.6952734018385E-02  0.0000000000000E+00  0.1382572440224E-02
 0.1199098793445E-02 -0.7020759367891E-02  0.0000000000000E+00  0.1340337023229E-02
 0.1327883633433E-02 -0.7062515435731E-02  0.0000000000000E+00  0.1269568818208E-02
 0.1425136555994E-02 -0.7081534243659E-02  0.0000000000000E+00  0.1184853580618E-02
 0.1495072280669E-02 -0.7082124439013E-02  0.0000000000000E+00  0.1095906687449E-02
 0.1542256293732E-02 -0.7068429764380E-02  0.0000000000000E+00  0.1008259149534E-02
 0.1570898006949E-02 -0.7043940473971E-02  0.0000000000000E+00  0.9243801852888E-03
 0.1584532326070E-02 -0.7011333454738E-02  0.0000000000000E+00  0.8447539466572E-03
 0.1585943511887E-02 -0.6972495748898E-02  0.0000000000000E+00  0.7687196645479E-03
 0.1577212725907E-02 -0.6928624208130E-02  0.0000000000000E+00  0.6950581204789E-03
 0.1559814696353E-02 -0.6880339618229E-02  0.0000000000000E+00  0.6223783098051E-03
 0.1534725039307E-02 -0.6827787094223E-02  0.0000000000000E+00  0.5493712474503E-03
 0.1502523079605E-02 -0.6770714465541E-02  0.0000000000000E+00  0.4749877325814E-03
 0.1463490142798E-02 -0.6708533225060E-02  0.0000000000000E+00  0.3985832845452E-03
 0.1417707075549E-02 -0.6640366302580E-02  0.0000000000000E+00  0.3200502464554E-03
 0.1365162467613E-02 -0.6565096290319E-02  0.0000000000000E+00  0.2399506283742E-03
 0.1305879117600E-02 -0.6481423083796E-02  0.0000000000000E+00  0.1596452726874E-03
 0.1240059242797E-02 -0.6387931943860E-02  0.0000000000000E+00  0.8140082000782E-04
 0.1168246102968E-02 -0.6283174558956E-02  0.0000000000000E+00  0.8466641513688E-05
 0.1091502547486E-02 -0.6165793190871E-02  0.0000000000000E+00 -0.5489354121388E-04
 0.1011636965370E-02 -0.6034818934554E-02  0.0000000000000E+00 -0.1034689839799E-03
 0.9313940406157E-03 -0.5889852245956E-02  0.0000000000000E+00 -0.1311593777685E-03
 0.8546057828226E-03 -0.5730988817868E-02  0.0000000000000E+00 -0.1308318852915E-03
 0.7864696898729E-03 -0.5558883791294E-02  0.0000000000000E+00 -0.9411975861276E-04
 0.7340354486833E-03 -0.5375088710564E-02  0.0000000000000E+00 -0.1133658422325E-04
 0.7069227345411E-03 -0.5182675576741E-02  0.0000000000000E+00  0.1282677984335E-03
 0.7182377125889E-03 -0.4987121448923E-02  0.0000000000000E+00  0.3355852973841E-03
 0.7855608589066E-03 -0.4797365499783E-02  0.0000000000000E+00  0.6196222463232E-03
 0.9317049651166E-03 -0.4626825139167E-02  0.0000000000000E+00  0.9838295049927E-03
 0.1184689823393E-02 -0.4493792240628E-02  0.0000000000000E+00  0.1420492031268E-02
 0.1576049806439E-02 -0.4420585395159E-02  0.0000000000000E+00  0.1903107001246E-02
 0.2136120980687E-02 -0.4430657581220E-02  0.0000000000000E+00  0.2377544658071E-02
 0.2885206147035E-02 -0.4542302599271E-02  0.0000000000000E+00  0.2756059027192E-02
 0.3821446861309E-02 -0.4759121886174E-02  0.0000000000000E+00  0.2921033929523E-02
 0.4908799644716E-02 -0.5060491304152E-02  0.0000000000000E+00  0.2744106657827E-02
 0.6071908208418E-02 -0.5396817096954E-02  0.0000000000000E+00  0.2123618597029E-02
 0.7205708233852E-02 -0.5699644936081E-02  0.0000000000000E+00  0.1037935350887E-02
 0.1306449917288E-03 -0.6648847587015E-02  0.0000000000000E+00  0.9844312292031E-03
 0.3947279577516E-03 -0.6807908420662E-02  0.0000000000000E+00  0.1233175179883E-02
 0.6537197953509E-03 -0.6956225290652E-02  0.0000000000000E+00  0.1379479837711E-02
 0.8915658416233E-03 -0.7082738015544E-02  0.0000000000000E+00  0.1434588313613E-02
 0.1097024594646E-02 -0.7180650445123E-02  0.0000000000000E+00  0.1419384622292E-02
 0.1265074225619E-02 -0.7248219853234E-02  0.0000000000000E+00  0.1357540272666E-02
 0.1396006260322E-02 -0.7287695739378E-02  0.0000000000000E+00  0.1269921347588E-02
 0.1493463412895E-02 -0.7303521951829E-02  0.0000000000000E+00  0.1171882680450E-02
 0.1562537322806E-02 -0.7300739896257E-02  0.0000000000000E+00  0.1073043132462E-02
 0.1608443900596E-02 -0.7283977863330E-02  0.0000000000000E+00  0.9783796156693E-03
 0.1635812525191E-02 -0.7256994326302E-02  0.0000000000000E+00  0.8896596601185E-03
 0.1648417029868E-02 -0.7222584135175E-02  0.0000000000000E+00  0.8066921135026E-03
 0.1649157148181E-02 -0.7182663887922E-02  0.0000000000000E+00  0.7282370691244E-03
 0.1640152350512E-02 -0.7138415818623E-02  0.0000000000000E+00  0.6526021360103E-03
 0.1622869341426E-02 -0.7090428338508E-02  0.0000000000000E+00  0.5780119538243E-03
 0.1598246862817E-02 -0.7038809154472E-02  0.0000000000000E+00  0.5028370321754E-03
 0.1566806239897E-02 -0.6983266987635E-02  0.0000000000000E+00  0.4257482749264E-03
 0.1528750973270E-02 -0.6923169724385E-02  0.0000000000000E+00  0.3458449567257E-03
 0.1484062139283E-02 -0.6857585884390E-02  0.0000000000000E+00  0.2627780452016E-03
 0.1432603774762E-02 -0.6785325156723E-02  0.0000000000000E+00  0.1768828823411E-03
 0.1374248189236E-02 -0.6704988889227E-02  0.0000000000000E+00  0.8931516676794E-04
 0.1309022946823E-02 -0.6615032800460E-02  0.0000000000000E+00  0.2167016908278E-05
 0.1237275786989E-02 -0.6513843425092E-02  0.0000000000000E+00 -0.8144973447705E-04
 0.1159854975442E-02 -0.6399857893780E-02  0.0000000000000E+00 -0.1573705950720E-03
 0.1078335274301E-02 -0.6271865439521E-02  0.0000000000000E+00 -0.2204456008059E-03
 0.9951970313095E-03 -0.6129176135569E-02  0.0000000000000E+00 -0.2645834961005E-03
 0.9139532267861E-03 -0.5971507003032E-02  0.0000000000000E+00 -0.2825600521328E-03
 0.8394120594551E-03 -0.5799007478732E-02  0.0000000000000E+00 -0.2657157818487E-03
 0.7781766395880E-03 -0.5612577907155E-02  0.0000000000000E+00 -0.2037113162086E-03
 0.7394256784179E-03 -0.5414512155772E-02  0.0000000000000E+00 -0.8457018943786E-04
 0.7359705983607E-03 -0.5209462092322E-02  0.0000000000000E+00  0.1046482913692E-03
 0.7854985179830E-03 -0.5005673177115E-02  0.0000000000000E+00  0.3760508394038E-03
 0.9117346612041E-03 -0.4816322666740E-02  0.0000000000000E+00  0.7373081966296E-03
 0.1144959413365E-02 -0.4660381466263E-02  0.0000000000000E+00  0.1185698691527E-02
 0.1520872301654E-02 -0.4562307362980E-02  0.0000000000000E+00  0.1699327970868E-02
 0.2076052079758E-02 -0.4549511314841E-02  0.0000000000000E+00  0.2225884283603E-02
 0.2838295505841E-02 -0.4645640504108E-02  0.0000000000000E+00  0.2673276233267E-02
 0.3811856983535E-02 -0.4859229406933E-02  0.0000000000000E+00  0.2910442171979E-02
 0.4962035606251E-02 -0.5171114579384E-02  0.0000000000000E+00  0.2787930460903E-02
 0.6205389948037E-02 -0.5527593569320E-02  0.0000000000000E+00  0.2177531081542E-02
 0.7411363004526E-02 -0.5841045152689E-02  0.0000000000000E+00  0.1054730265128E-02
 0.1393735394748E-03 -0.6854018921684E-02  0.0000000000000E+00  0.1083654806818E-02
 0.4210759454631E-03 -0.7023243316933E-02  0.0000000000000E+00  0.1326524326463E-02
 0.6965425884402E-03 -0.7179966942829E-02  0.0000000000000E+00  0.1458280999837E-02
 0.9474632818346E-03 -0.7311707536015E-02  0.0000000000000E+00  0.1492832038365E-02
 0.1161598506888E-02 -0.7411307288397E-02  0.0000000000000E+00  0.1455042477481E-02
 0.1334199382218E-02 -0.7477633648050E-02  0.0000000000000E+00  0.1372084506159E-02
 0.1466569295159E-02 -0.7514015634241E-02  0.0000000000000E+00  0.1266890302903E-02
 0.1563525167445E-02 -0.7525962164511E-02  0.0000000000000E+00  0.1155448277719E-02
 0.1631145728361E-02 -0.7519310967593E-02  0.0000000000000E+00  0.1047060272769E-02
 0.1675334270851E-02 -0.7499174553159E-02  0.0000000000000E+00  0.9459506029276E-03
 0.1701134601379E-02 -0.7469548873048E-02  0.0000000000000E+00  0.8530481914067E-03
 0.1712536803527E-02 -0.7433309441285E-02  0.0000000000000E+00  0.7674093243899E-03
 0.1712531173096E-02 -0.7392370620708E-02  0.0000000000000E+00  0.6871804425452E-03
 0.1703255016188E-02 -0.7347877836031E-02  0.0000000000000E+00  0.6101868421917E-03
 0.1686152920306E-02 -0.7300374668420E-02  0.0000000000000E+00  0.5342719850690E-03
 0.1662118757687E-02 -0.7249927366974E-02  0.0000000000000E+00  0.4574926765547E-03
 0.1631612754365E-02 -0.7196208218087E-02  0.0000000000000E+00  0.3782447550786E-03
 0.1594760777540E-02 -0.7138549170806E-02  0.0000000000000E+00  0.2953705119812E-03
 0.1551445830932E-02 -0.7075975253995E-02  0.0000000000000E+00  0.2082711670319E-03
 0.1501408869107E-02 -0.7007235693464E-02  0.0000000000000E+00  0.1170388263041E-03
 0.1444371736778E-02 -0.6930845828169E-02  0.0000000000000E+00  0.2260013428002E-04
 0.1380185756499E-02 -0.6845143836392E-02  0.0000000000000E+00 -0.7315713675324E-04
 0.1309000820087E-02 -0.6748362823217E-02  0.0000000000000E+00 -0.1672944802625E-03
 0.1231448421057E-02 -0.6638746728500E-02  0.0000000000000E+00 -0.2557918484487E-03
 0.1148866869024E-02 -0.6514854762807E-02  0.0000000000000E+00 -0.3336208522380E-03
 0.1063464415971E-02 -0.6375715637328E-02  0.0000000000000E+00 -0.3947832465055E-03
 0.9784137875882E-03 -0.6220667448046E-02  0.0000000000000E+00 -0.4320771882154E-03
 0.8980873761559E-03 -0.6049334055497E-02  0.0000000000000E+00 -0.4366945471892E-03
 0.8285559552371E-03 -0.5861910794087E-02  0.0000000000000E+00 -0.3978079158780E-03
 0.7784169950888E-03 -0.5659806743736E-02  0.0000000000000E+00 -0.3023747902491E-03
 0.7599788437436E-03 -0.5446666487007E-02  0.0000000000000E+00 -0.1355072379198E-03
 0.7907579468239E-03 -0.5229765598273E-02  0.0000000000000E+00  0.1180605704791E-03
 0.8950823875986E-03 -0.5021678159528E-02  0.0000000000000E+00  0.4705993728850E-03
 0.1105266575095E-02 -0.4841674523716E-02  0.0000000000000E+00  0.9252746486211E-03
 0.1461257108224E-02 -0.4716133110322E-02  0.0000000000000E+00  0.1466308366740E-02
 0.2006600593271E-02 -0.4676655225281E-02  0.0000000000000E+00  0.2045082293768E-02
 0.2778095985803E-02 -0.4753160622042E-02  0.0000000000000E+00  0.2566473893754E-02
 0.3788433657164E-02 -0.4960629631563E-02  0.0000000000000E+00  0.2885505031549E-02
 0.5005089057392E-02 -0.5282493216712E-02  0.0000000000000E+00  0.2826872519831E-02
 0.6339243787799E-02 -0.5660767845021E-02  0.0000000000000E+00  0.2236365314301E-02
 0.7626446280714E-02 -0.5987261572122E-02  0.0000000000000E+00  0.1038739310346E-02
 0.1488899536328E-03 -0.7061708761931E-02  0.0000000000000E+00  0.1189436168763E-02
 0.4497909068927E-03 -0.7241925406920E-02  0.0000000000000E+00  0.1425471173991E-02
 0.7429936524843E-03 -0.7407486625739E-02  0.0000000000000E+00  0.1540438443035E-02
 0.1007533373961E-02 -0.7544271156622E-02  0.0000000000000E+00  0.1551655325267E-02
 0.1230150828318E-02 -0.7644846832893E-02  0.0000000000000E+00  0.1488857736960E-02
 0.1406624482003E-02 -0.7708966976057E-02  0.0000000000000E+00  0.1383237797755E-02
 0.1539580408816E-02 -0.7741313674022E-02  0.0000000000000E+00  0.1259851075487E-02
 0.1635234500057E-02 -0.7748625713851E-02  0.0000000000000E+00  0.1135099626323E-02
 0.1700760912985E-02 -0.7737588246707E-02  0.0000000000000E+00  0.1017683046999E-02
 0.1742773563628E-02 -0.7713778215632E-02  0.0000000000000E+00  0.9108427119834E-03
 0.1766710841110E-02 -0.7681381911457E-02  0.0000000000000E+00  0.8145248718340E-03
 0.1776745976932E-02 -0.7643307696910E-02  0.0000000000000E+00  0.7269613992925E-03
 0.1775928726021E-02 -0.7601430426112E-02  0.0000000000000E+00  0.6456600669539E-03
 0.1766390723704E-02 -0.7556834353154E-02  0.0000000000000E+00  0.5679642095413E-03
 0.1749539345263E-02 -0.7510005527867E-02  0.0000000000000E+00  0.4913473964931E-03
 0.1726215851263E-02 -0.7460965539619E-02  0.0000000000000E+00  0.4135660900864E-03
 0.1696817330884E-02 -0.7409354458593E-02  0.0000000000000E+00  0.3327510682074E-03
 0.1661393822653E-02 -0.7354478050279E-02  0.0000000000000E+00  0.2474907740423E-03
 0.1619733892879E-02 -0.7295331293954E-02  0.0000000000000E+00  0.1569308339815E-03
 0.1571458866715E-02 -0.7230618181137E-02  0.0000000000000E+00  0.6090469300876E-04
 0.1516141911373E-02 -0.7158783412124E-02  0.0000000000000E+00 -0.3991389446187E-04
 0.1453458040581E-02 -0.7078062407457E-02  0.0000000000000E+00 -0.1438715586436E-03
 0.1383358724553E-02 -0.6986549588249E-02  0.0000000000000E+00 -0.2482386469303E-03
 0.1306259348190E-02 -0.6882311607194E-02  0.0000000000000E+00 -0.3491840422487E-03
 0.1223263640303E-02 -0.6763695147762E-02  0.0000000000000E+00 -0.4418618447233E-03
 0.1136306691304E-02 -0.6629464448682E-02  0.0000000000000E+00 -0.5204541827705E-03
 0.1048207837183E-02 -0.6478588761556E-02  0.0000000000000E+00 -0.5779051707825E-03
 0.9628655031921E-03 -0.6310159251695E-02  0.0000000000000E+00 -0.6054218609143E-03
 0.8857390771008E-03 -0.6123626901598E-02  0.0000000000000E+00 -0.5918882622253E-03
 0.8247057037902E-03 -0.5919422865782E-02  0.0000000000000E+00 -0.5234123214887E-03
 0.7913499252868E-03 -0.5700007788725E-02  0.0000000000000E+00 -0.3833451229800E-03
 0.8026998447275E-03 -0.5471394071997E-02  0.0000000000000E+00 -0.1533144346031E-03
 0.8832908846647E-03 -0.5245128156661E-02  0.0000000000000E+00  0.1838202974432E-03
 0.1067102806884E-02 -0.5040274723364E-02  0.0000000000000E+00  0.6379733670168E-03
 0.1398251674988E-02 -0.4884735298424E-02  0.0000000000000E+00  0.1201168111577E-02
 0.1927876050117E-02 -0.4814377991969E-02  0.0000000000000E+00  0.1830852652112E-02
 0.2703561738611E-02 -0.4866359312086E-02  0.0000000000000E+00  0.2430961543253E-02
 0.3748905523757E-02 -0.5063890195616E-02  0.0000000000000E+00  0.2842423367931E-02
 0.5037029727985E-02 -0.5395091410713E-02  0.0000000000000E+00  0.2860249705082E-02
 0.6468029130160E-02 -0.5795636758600E-02  0.0000000000000E+00  0.2293523571657E-02
 0.7879116227822E-02 -0.6149550953991E-02  0.0000000000000E+00  0.1020532730377E-02
 0.1593313003040E-03 -0.7272297196101E-02  0.0000000000000E+00  0.1302330476090E-02
 0.4812584726704E-03 -0.7464425955623E-02  0.0000000000000E+00  0.1530341233006E-02
 0.7936039334175E-03 -0.7639234120629E-02  0.0000000000000E+00  0.1625791677944E-02
 0.1072266650689E-02 -0.7780712298700E-02  0.0000000000000E+00  0.1610418504272E-02
 0.1302995597380E-02 -0.7881309775952E-02  0.0000000000000E+00  0.1519934301243E-02
 0.1482453679090E-02 -0.7942035565674E-02  0.0000000000000E+00  0.1390108518054E-02
 0.1614975208965E-02 -0.7969252749002E-02  0.0000000000000E+00  0.1248086695965E-02
 0.1708423670560E-02 -0.7971099398853E-02  0.0000000000000E+00  0.1110351268087E-02
 0.1771167192313E-02 -0.7955136803274E-02  0.0000000000000E+00  0.9846391976293E-03
 0.1810533031738E-02 -0.7927360152682E-02  0.0000000000000E+00  0.8729486463078E-03
 0.1832316257560E-02 -0.7892079405893E-02  0.0000000000000E+00  0.7740979756207E-03
 0.1840828312590E-02 -0.7852176735472E-02  0.0000000000000E+00  0.6854336611120E-03
 0.1839140895917E-02 -0.7809445031615E-02  0.0000000000000E+00  0.6038129794596E-03
 0.1829353631082E-02 -0.7764881352293E-02  0.0000000000000E+00  0.5261093442000E-03
 0.1812820845740E-02 -0.7718901662148E-02  0.0000000000000E+00  0.4494471390794E-03
 0.1790323917628E-02 -0.7671480754162E-02  0.0000000000000E+00  0.3713033311679E-03
 0.1762196013537E-02 -0.7622232334454E-02  0.0000000000000E+00  0.2895596747800E-03
 0.1728414983500E-02 -0.7570447874309E-02  0.0000000000000E+00  0.2025587191804E-03
 0.1688680843404E-02 -0.7515108368534E-02  0.0000000000000E+00  0.1091881884703E-03
 0.1642501134864E-02 -0.7454890784228E-02  0.0000000000000E+00  0.9009567441376E-05
 0.1589304324485E-02 -0.7388187619902E-02  0.0000000000000E+00 -0.9757918033085E-04
 0.1528590926420E-02 -0.7313149282920E-02  0.0000000000000E+00 -0.2091884939080E-03
 0.1460115474140E-02 -0.7227749375684E-02  0.0000000000000E+00 -0.3233315523841E-03
 0.1384081252179E-02 -0.7129897272275E-02  0.0000000000000E+00 -0.4364078609725E-03
 0.1301364960293E-02 -0.7017750699401E-02  0.0000000000000E+00 -0.5438121459151E-03
 0.1213635844020E-02 -0.6889835191256E-02  0.0000000000000E+00 -0.6399941089663E-03
 0.1123357470484E-02 -0.6744773573872E-02  0.0000000000000E+00 -0.7181730617071E-03
 0.1033928538881E-02 -0.6581133588149E-02  0.0000000000000E+00 -0.7697504351663E-03
 0.9501308546928E-03 -0.6397603272933E-02  0.0000000000000E+00 -0.7835522191942E-03
 0.8789923421840E-03 -0.6193566447310E-02  0.0000000000000E+00 -0.7451102297236E-03
 0.8311522628980E-03 -0.5970143599032E-02  0.0000000000000E+00 -0.6362971607297E-03
 0.8228036847739E-03 -0.5731791809324E-02  0.0000000000000E+00 -0.4358323441193E-03
 0.8782084957646E-03 -0.5488557909171E-02  0.0000000000000E+00 -0.1216133199621E-03
 0.1032476608589E-02 -0.5258663018780E-02  0.0000000000000E+00  0.3237522556452E-03
 0.1333573740704E-02 -0.5070903123083E-02  0.0000000000000E+00  0.9018587118932E-03
 0.1840680733688E-02 -0.4965239010263E-02  0.0000000000000E+00  0.1579098742273E-02
 0.2613964595727E-02 -0.4986947281487E-02  0.0000000000000E+00  0.2261531051559E-02
 0.3691418593662E-02 -0.5169693595795E-02  0.0000000000000E+00  0.2776649855689E-02
 0.5054346619709E-02 -0.5508645243771E-02  0.0000000000000E+00  0.2885986769985E-02
 0.6597114224864E-02 -0.5934954005082E-02  0.0000000000000E+00  0.2347776814331E-02
 0.8138522860062E-02 -0.6322892306125E-02  0.0000000000000E+00  0.1011802722843E-02
 0.1708615797163E-03 -0.7486254323038E-02  0.0000000000000E+00  0.1422994924846E-02
 0.5159512330244E-03 -0.7691344800485E-02  0.0000000000000E+00  0.1641492742341E-02
 0.8490119774734E-03 -0.7875784549455E-02  0.0000000000000E+00  0.1714090292728E-02
 0.1142230286005E-02 -0.8021400085986E-02  0.0000000000000E+00  0.1668303934008E-02
 0.1380472971129E-02 -0.8120780643337E-02  0.0000000000000E+00  0.1547195977477E-02
 0.1561781598774E-02 -0.8176682819194E-02  0.0000000000000E+00  0.1391683034889E-02
 0.1692670026881E-02 -0.8197536253292E-02  0.0000000000000E+00  0.1230826749461E-02
 0.1782914761598E-02 -0.8193040391775E-02  0.0000000000000E+00  0.1080712348581E-02
 0.1842155526681E-02 -0.8171626305571E-02  0.0000000000000E+00  0.9476726019628E-03
 0.1878407603231E-02 -0.8139627759898E-02  0.0000000000000E+00  0.8321791935419E-03
 0.1897763715303E-02 -0.8101390137348E-02  0.0000000000000E+00  0.7317851050312E-03
 0.1904616349816E-02 -0.8059699647606E-02  0.0000000000000E+00  0.6429075847283E-03
 0.1902015838906E-02 -0.8016220776788E-02  0.0000000000000E+00  0.5617581394957E-03
 0.1892001381809E-02 -0.7971836795659E-02  0.0000000000000E+00  0.4847654096978E-03
 0.1875858286100E-02 -0.7926881963026E-02  0.0000000000000E+00  0.4087351150858E-03
 0.1854301643101E-02 -0.7881283697162E-02  0.0000000000000E+00  0.3308930298033E-03
 0.1827601405041E-02 -0.7834637122371E-02  0.0000000000000E+00  0.2488938251198E-03
 0.1795668877840E-02 -0.7786233656001E-02  0.0000000000000E+00  0.1608468261808E-03
 0.1758123822662E-02 -0.7735059233231E-02  0.0000000000000E+00  0.6538295697606E-04
 0.1714368364050E-02 -0.7679785273617E-02  0.0000000000000E+00 -0.3821977289176E-04
 0.1663692404344E-02 -0.7618773815296E-02  0.0000000000000E+00 -0.1498618524848E-03
 0.1605425278795E-02 -0.7550110955157E-02  0.0000000000000E+00 -0.2684471932404E-03
 0.1539127399328E-02 -0.7471670074907E-02  0.0000000000000E+00 -0.3917648352334E-03
 0.1464796442835E-02 -0.7381226679421E-02  0.0000000000000E+00 -0.5164835400113E-03
 0.1383094668033E-02 -0.7276778385470E-02  0.0000000000000E+00 -0.6382927011914E-03
 0.1295440940410E-02 -0.7156645937759E-02  0.0000000000000E+00 -0.7519943846677E-03
 0.1203951635614E-02 -0.7019140005788E-02  0.0000000000000E+00 -0.8512147998815E-03
 0.1111513247986E-02 -0.6862330736890E-02  0.0000000000000E+00 -0.9277396810365E-03
 0.1022179022457E-02 -0.6684147174139E-02  0.0000000000000E+00 -0.9705923134247E-03
 0.9420142248766E-03 -0.6482885196044E-02  0.0000000000000E+00 -0.9650518707304E-03
 0.8805003059207E-03 -0.6258199815560E-02  0.0000000000000E+00 -0.8918890439414E-03
 0.8526330203250E-03 -0.6012718597412E-02  0.0000000000000E+00 -0.7272704000587E-03
 0.8818457652232E-03 -0.5754487980328E-02  0.0000000000000E+00 -0.4442612813866E-03
 0.1003665432681E-02 -0.5500119071385E-02  0.0000000000000E+00 -0.1747813053626E-04
 0.1269299032933E-02 -0.5278404273157E-02  0.0000000000000E+00  0.5660001169599E-03
 0.1746108440418E-02 -0.5132868951238E-02  0.0000000000000E+00  0.1284912541686E-02
 0.2508716587745E-02 -0.5117616116877E-02  0.0000000000000E+00  0.2051652472131E-02
 0.3613438731082E-02 -0.5279337281739E-02  0.0000000000000E+00  0.2682587892714E-02
 0.5054879948134E-02 -0.5623669421821E-02  0.0000000000000E+00  0.2900607498353E-02
 0.6723440265379E-02 -0.6080401131418E-02  0.0000000000000E+00  0.2404599526007E-02
 0.8409302819307E-02 -0.6505657722626E-02  0.0000000000000E+00  0.1005870441794E-02
 0.1836867999617E-03 -0.7704160475380E-02  0.0000000000000E+00  0.1552192765332E-02
 0.5544552032650E-03 -0.7923413142820E-02  0.0000000000000E+00  0.1759291114200E-02
 0.9099838485121E-03 -0.8117810338706E-02  0.0000000000000E+00  0.1804920244383E-02
 0.1218062595640E-02 -0.8266719894247E-02  0.0000000000000E+00  0.1724228296110E-02
 0.1462918508067E-02 -0.8363284663851E-02  0.0000000000000E+00  0.1569322699279E-02
 0.1644649307445E-02 -0.8412657868876E-02  0.0000000000000E+00  0.1386798943950E-02
 0.1772514651623E-02 -0.8425776918350E-02  0.0000000000000E+00  0.1207249081611E-02
 0.1858472875906E-02 -0.8414037768247E-02  0.0000000000000E+00  0.1045703278255E-02
 0.1913476636185E-02 -0.8386683122605E-02  0.0000000000000E+00  0.9065659558496E-03
 0.1946167172034E-02 -0.8350264510162E-02  0.0000000000000E+00  0.7884883784482E-03
 0.1962851952043E-02 -0.8309051641271E-02  0.0000000000000E+00  0.6876402158396E-03
 0.1967935246048E-02 -0.8265655492692E-02  0.0000000000000E+00  0.5994900891069E-03
 0.1964397862823E-02 -0.8221563313815E-02  0.0000000000000E+00  0.5196285335240E-03
 0.1954188987889E-02 -0.8177518651238E-02  0.0000000000000E+00  0.4440790605861E-03
 0.1938509415569E-02 -0.8133764121282E-02  0.0000000000000E+00  0.3693694862519E-03
 0.1918002772229E-02 -0.8090181123676E-02  0.0000000000000E+00  0.2925102745600E-03
 0.1892878193237E-02 -0.8046356053498E-02  0.0000000000000E+00  0.2109570447796E-03
 0.1862988249927E-02 -0.8001596926236E-02  0.0000000000000E+00  0.1226036796789E-03
 0.1827883391981E-02 -0.7954916538754E-02  0.0000000000000E+00  0.2582935967363E-04
 0.1786871556856E-02 -0.7905005807705E-02  0.0000000000000E+00 -0.8038069080954E-04
 0.1739112687878E-02 -0.7850221746771E-02  0.0000000000000E+00 -0.1962478407096E-03
 0.1683769801151E-02 -0.7788610038872E-02  0.0000000000000E+00 -0.3209997899269E-03
 0.1620212971883E-02 -0.7717967039032E-02  0.0000000000000E+00 -0.4527337230239E-03
 0.1548242747237E-02 -0.7635960717805E-02  0.0000000000000E+00 -0.5884224900139E-03
 0.1468324364619E-02 -0.7540462134973E-02  0.0000000000000E+00 -0.7240981374986E-03
 0.1381650261835E-02 -0.7429628902609E-02  0.0000000000000E+00 -0.8549944700824E-03
 0.1290010088086E-02 -0.7301505661824E-02  0.0000000000000E+00 -0.9752746314335E-03
 0.1195780732634E-02 -0.7153708312006E-02  0.0000000000000E+00 -0.1077303515000E-02
 0.1102254742689E-02 -0.6983436454419E-02  0.0000000000000E+00 -0.1150573882773E-02
 0.1014444010962E-02 -0.6787893493940E-02  0.0000000000000E+00 -0.1180476986480E-02
 0.9404817290518E-03 -0.6565189063136E-02  0.0000000000000E+00 -0.1147147061020E-02
 0.8938084047544E-03 -0.6315889485306E-02  0.0000000000000E+00 -0.1024724321121E-02
 0.8964198048499E-03 -0.6045543295562E-02  0.0000000000000E+00 -0.7818482201802E-03
 0.9833684438025E-03 -0.5768277919341E-02  0.0000000000000E+00 -0.3849712496855E-03
 0.1208133917975E-02 -0.5511681917033E-02  0.0000000000000E+00  0.1917272583457E-03
 0.1645952286104E-02 -0.5321829364488E-02  0.0000000000000E+00  0.9431389251682E-03
 0.2387571929186E-02 -0.5261978305586E-02  0.0000000000000E+00  0.1793702027863E-02
 0.3512402679320E-02 -0.5394655203433E-02  0.0000000000000E+00  0.2552741205726E-02
 0.5035052589399E-02 -0.5740962160444E-02  0.0000000000000E+00  0.2901102102918E-02
 0.6844520398456E-02 -0.6231856323960E-02  0.0000000000000E+00  0.2465482278638E-02
 0.8693855015229E-02 -0.6699271976170E-02  0.0000000000000E+00  0.1001010416665E-02
 0.1980693292423E-03 -0.7926740822393E-02  0.0000000000000E+00  0.1690816645158E-02
 0.5975048935427E-03 -0.8161530969935E-02  0.0000000000000E+00  0.1884091510053E-02
 0.9774422817238E-03 -0.8366097194832E-02  0.0000000000000E+00  0.1897631101287E-02
 0.1300474355042E-02 -0.8517057487436E-02  0.0000000000000E+00  0.1776760256856E-02
 0.1550642479431E-02 -0.8608754378787E-02  0.0000000000000E+00  0.1584704843329E-02
 0.1731019551447E-02 -0.8649584989995E-02  0.0000000000000E+00  0.1374142370542E-02
 0.1854275046414E-02 -0.8653478762064E-02  0.0000000000000E+00  0.1176500892526E-02
 0.1934798116232E-02 -0.8633606053316E-02  0.0000000000000E+00  0.1004881194639E-02
 0.1984839319017E-02 -0.8599890712168E-02  0.0000000000000E+00  0.8611610780605E-03
 0.2013558036543E-02 -0.8558933210308E-02  0.0000000000000E+00  0.7418868072355E-03
 0.2027368120567E-02 -0.8514794163193E-02  0.0000000000000E+00  0.6417613162171E-03
 0.2030605467110E-02 -0.8469823058231E-02  0.0000000000000E+00  0.5553173494020E-03
 0.2026129910422E-02 -0.8425280916737E-02  0.0000000000000E+00  0.4775724389229E-03
 0.2015771022157E-02 -0.8381747760281E-02  0.0000000000000E+00  0.4041999827495E-03
 0.2000630778390E-02 -0.8339367133560E-02  0.0000000000000E+00  0.3315009051582E-03
 0.1981277742566E-02 -0.8297978060854E-02  0.0000000000000E+00  0.2563136659366E-03
 0.1957864464422E-02 -0.8257170192531E-02  0.0000000000000E+00  0.1759289851012E-03
 0.1930194848043E-02 -0.8216287163120E-02  0.0000000000000E+00  0.8804858277217E-04
 0.1897763825914E-02 -0.8174393605525E-02  0.0000000000000E+00 -0.9190410861670E-05
 0.1859799630922E-02 -0.8130228855004E-02  0.0000000000000E+00 -0.1171020335834E-03
 0.1815343750966E-02 -0.8082174543436E-02  0.0000000000000E+00 -0.2362506491494E-03
 0.1763399399846E-02 -0.8028263426725E-02  0.0000000000000E+00 -0.3662193196410E-03
 0.1703150644993E-02 -0.7966240541045E-02  0.0000000000000E+00 -0.5054455427659E-03
 0.1634210642346E-02 -0.7893694966377E-02  0.0000000000000E+00 -0.6512369146852E-03
 0.1556869371535E-02 -0.7808408568811E-02  0.0000000000000E+00 -0.8000082430838E-03
 0.1472125316021E-02 -0.7708424323836E-02  0.0000000000000E+00 -0.9474959363231E-03
 0.1381474269975E-02 -0.7591578153777E-02  0.0000000000000E+00 -0.1088523927259E-02
 0.1286802400831E-02 -0.7455092629703E-02  0.0000000000000E+00 -0.1216229187118E-02
 0.1190631198469E-02 -0.7295495079093E-02  0.0000000000000E+00 -0.1320852679978E-02
 0.1096858087551E-02 -0.7108934295179E-02  0.0000000000000E+00 -0.1388289925979E-02
 0.1012113993135E-02 -0.6891954730893E-02  0.0000000000000E+00 -0.1398580003438E-02
 0.9479557295081E-03 -0.6642900782554E-02  0.0000000000000E+00 -0.1324533965874E-02
 0.9243120528266E-03 -0.6364373860962E-02  0.0000000000000E+00 -0.1131093264684E-02
 0.9747103047820E-03 -0.6067083794404E-02  0.0000000000000E+00 -0.7768500765550E-03
 0.1153525346025E-02 -0.5775906469502E-02  0.0000000000000E+00 -0.2219475669605E-03
 0.1542908596345E-02 -0.5537818890558E-02  0.0000000000000E+00  0.5486670943542E-03
 0.2250945684157E-02 -0.5424870168847E-02  0.0000000000000E+00  0.1478761086705E-02
 0.3385564388063E-02 -0.5518358796345E-02  0.0000000000000E+00  0.2377683852262E-02
 0.4990236654151E-02 -0.5861146020375E-02  0.0000000000000E+00  0.2882659129901E-02
 0.6957450513920E-02 -0.6389427643513E-02  0.0000000000000E+00  0.2531079637122E-02
 0.8994942330747E-02 -0.6905376163593E-02  0.0000000000000E+00  0.9964869166723E-03
 0.2143484991754E-03 -0.8154914038100E-02  0.0000000000000E+00  0.1839918610575E-02
 0.6460314814870E-03 -0.8406816932854E-02  0.0000000000000E+00  0.2016207486603E-02
 0.1052501982383E-02 -0.8621560040583E-02  0.0000000000000E+00  0.1991229525765E-02
 0.1390243370469E-02 -0.8772770296565E-02  0.0000000000000E+00  0.1824013250378E-02
 0.1643897796982E-02 -0.8856982065339E-02  0.0000000000000E+00  0.1591395604327E-02
 0.1820744522269E-02 -0.8886925605994E-02  0.0000000000000E+00  0.1352257461777E-02
 0.1937614057328E-02 -0.8880018240057E-02  0.0000000000000E+00  0.1137732853664E-02
 0.2011518612432E-02 -0.8851180931366E-02  0.0000000000000E+00  0.9578734381769E-03
 0.2055910537174E-02 -0.8810792457500E-02  0.0000000000000E+00  0.8113826209380E-03
 0.2080305803931E-02 -0.8765281069342E-02  0.0000000000000E+00  0.6924558917020E-03
 0.2091091324431E-02 -0.8718345770340E-02  0.0000000000000E+00  0.5942980257117E-03
 0.2092446107589E-02 -0.8671985321430E-02  0.0000000000000E+00  0.5105581834950E-03
 0.2087056446167E-02 -0.8627188224736E-02  0.0000000000000E+00  0.4357542703443E-03
 0.2076604095176E-02 -0.8584351004306E-02  0.0000000000000E+00  0.3652801150374E-03
 0.2062079865719E-02 -0.8543514066063E-02  0.0000000000000E+00  0.2952705236575E-03
 0.2043975568498E-02 -0.8504480287848E-02  0.0000000000000E+00  0.2224421868132E-03
 0.2022393296087E-02 -0.8466856646068E-02  0.0000000000000E+00  0.1439610364604E-03
 0.1997100599838E-02 -0.8430043597747E-02  0.0000000000000E+00  0.5736576629317E-04
 0.1967553672236E-02 -0.8393185566417E-02  0.0000000000000E+00 -0.3943335340173E-04
 0.1932919202235E-02 -0.8355103392171E-02  0.0000000000000E+00 -0.1480523192033E-03
 0.1892135218641E-02 -0.8314237841081E-02  0.0000000000000E+00 -0.2694200050069E-03
 0.1844053595231E-02 -0.8268640473351E-02  0.0000000000000E+00 -0.4035084615948E-03
 0.1787676824621E-02 -0.8216033302728E-02  0.0000000000000E+00 -0.5491287550783E-03
 0.1722440708280E-02 -0.8153956758559E-02  0.0000000000000E+00 -0.7039499268635E-03
 0.1648485257793E-02 -0.8080143432699E-02  0.0000000000000E+00 -0.8648002999017E-03
 0.1566655662774E-02 -0.7992575500319E-02  0.0000000000000E+00 -0.1027978263974E-02
 0.1478199139490E-02 -0.7888947131110E-02  0.0000000000000E+00 -0.1189081512595E-02
 0.1384546710701E-02 -0.7766164996955E-02  0.0000000000000E+00 -0.1342202355560E-02
 0.1287462085980E-02 -0.7620169497514E-02  0.0000000000000E+00 -0.1478602694334E-02
 0.1189702555309E-02 -0.7446139673258E-02  0.0000000000000E+00 -0.1585083318945E-02
 0.1096293470293E-02 -0.7239108493000E-02  0.0000000000000E+00 -0.1642181803286E-02
 0.1016638231382E-02 -0.6995139185844E-02  0.0000000000000E+00 -0.1622230528486E-02
 0.9679967970664E-03 -0.6713542242140E-02  0.0000000000000E+00 -0.1487544356569E-02
 0.9812117463485E-03 -0.6400694911474E-02  0.0000000000000E+00 -0.1189770114459E-02
 0.1109747613110E-02 -0.6076987045251E-02  0.0000000000000E+00 -0.6746329564742E-03
 0.1440851499106E-02 -0.5787887808970E-02  0.0000000000000E+00  0.9686475876930E-04
 0.2100260788933E-02 -0.5612793312797E-02  0.0000000000000E+00  0.1096694482298E-02
 0.3230184382036E-02 -0.5654356022819E-02  0.0000000000000E+00  0.2145285302822E-02
 0.4914667353091E-02 -0.5985095738921E-02  0.0000000000000E+00  0.2837896966765E-02
 0.7058533580533E-02 -0.6553329810712E-02  0.0000000000000E+00  0.2601411820783E-02
 0.9315749759649E-02 -0.7126063748356E-02  0.0000000000000E+00  0.9923123019014E-03
 0.2329708366774E-03 -0.8389862000459E-02  0.0000000000000E+00  0.2000748672337E-02
 0.7012298573870E-03 -0.8660675637068E-02  0.0000000000000E+00  0.2155855552122E-02
 0.1136511197609E-02 -0.8885255618977E-02  0.0000000000000E+00  0.2084222419014E-02
 0.1488196663866E-02 -0.9034137924995E-02  0.0000000000000E+00  0.1863507507494E-02
 0.1742831770766E-02 -0.9107552933873E-02  0.0000000000000E+00  0.1587067567844E-02
 0.1913525126472E-02 -0.9123932695087E-02  0.0000000000000E+00  0.1319576173342E-02
 0.2022071299463E-02 -0.9104626539641E-02  0.0000000000000E+00  0.1090150394779E-02
 0.2088185932306E-02 -0.9066118793236E-02  0.0000000000000E+00  0.9044196746985E-03
 0.2126318037686E-02 -0.9018897801714E-02  0.0000000000000E+00  0.7572645241318E-03
 0.2146120076417E-02 -0.8968946901706E-02  0.0000000000000E+00  0.6403622274938E-03
 0.2153797247119E-02 -0.8919438719807E-02  0.0000000000000E+00  0.5454584946827E-03
 0.2153278857254E-02 -0.8871934635618E-02  0.0000000000000E+00  0.4654167128955E-03
 0.2147026735597E-02 -0.8827110422128E-02  0.0000000000000E+00  0.3943548460897E-03
 0.2136549602970E-02 -0.8785164777641E-02  0.0000000000000E+00  0.3274724817541E-03
 0.2122717504611E-02 -0.8746035095387E-02  0.0000000000000E+00  0.2608077719536E-03
 0.2105945987640E-02 -0.8709497135853E-02  0.0000000000000E+00  0.1910119290205E-03
 0.2086294669846E-02 -0.8675191179276E-02  0.0000000000000E+00  0.1151717648447E-03
 0.2063509156754E-02 -0.8642597518439E-02  0.0000000000000E+00  0.3069823432525E-04
 0.2037026667458E-02 -0.8610971032119E-02  0.0000000000000E+00 -0.6470350049179E-04
 0.2005974618555E-02 -0.8579251524308E-02  0.0000000000000E+00 -0.1729489009156E-03
 0.1969206875095E-02 -0.8545979127090E-02  0.0000000000000E+00 -0.2953515633013E-03
 0.1925434951874E-02 -0.8509261220948E-02  0.0000000000000E+00 -0.4323091060386E-03
 0.1873483939811E-02 -0.8466828076551E-02  0.0000000000000E+00 -0.5830424322674E-03
 0.1812621426149E-02 -0.8416202591319E-02  0.0000000000000E+00 -0.7456058670127E-03
 0.1742865077018E-02 -0.8355108925036E-02  0.0000000000000E+00 -0.9172618118434E-03
 0.1664954866971E-02 -0.8281525410967E-02  0.0000000000000E+00 -0.1094915939233E-02
 0.1579946484394E-02 -0.8193078527655E-02  0.0000000000000E+00 -0.1275037153459E-02
 0.1488867503770E-02 -0.8086450582155E-02  0.0000000000000E+00 -0.1452838397773E-02
 0.1392761193072E-02 -0.7957107366238E-02  0.0000000000000E+00 -0.1620854932126E-02
 0.1293258394710E-02 -0.7799392152863E-02  0.0000000000000E+00 -0.1767179591133E-02
 0.1193738878245E-02 -0.7606963948769E-02  0.0000000000000E+00 -0.1873460966452E-02
 0.1101272156271E-02 -0.7373675895188E-02  0.0000000000000E+00 -0.1912517736010E-02
 0.1029935773706E-02 -0.7095374255105E-02  0.0000000000000E+00 -0.1845439106168E-02
 0.1006707124083E-02 -0.6773323023658E-02  0.0000000000000E+00 -0.1618554051065E-02
 0.1081950433612E-02 -0.6421507228953E-02  0.0000000000000E+00 -0.1163917974461E-02
 0.1345133893409E-02 -0.6080646943693E-02  0.0000000000000E+00 -0.4156960782110E-03
 0.1938458966827E-02 -0.5834451835469E-02  0.0000000000000E+00  0.6363862034998E-03
 0.3043901562396E-02 -0.5808401347947E-02  0.0000000000000E+00  0.1839957465161E-02
 0.4801285355194E-02 -0.6114319653393E-02  0.0000000000000E+00  0.2755769530277E-02
 0.7142757038458E-02 -0.6723872433283E-02  0.0000000000000E+00  0.2675712495251E-02
 0.9660133020258E-02 -0.7363959433409E-02  0.0000000000000E+00  0.9890805781705E-03
 0.2545354716188E-03 -0.8633131862235E-02  0.0000000000000E+00  0.2174804485145E-02
 0.7646530750431E-03 -0.8924889075037E-02  0.0000000000000E+00  0.2303057636226E-02
 0.1231098105682E-02 -0.9158384876973E-02  0.0000000000000E+00  0.2174384448746E-02
 0.1595170861892E-02 -0.9301279270734E-02  0.0000000000000E+00  0.1891996460451E-02
 0.1847415447002E-02 -0.9359753019332E-02  0.0000000000000E+00  0.1568985602301E-02
 0.2008861594036E-02 -0.9359598888994E-02  0.0000000000000E+00  0.1274479978436E-02
 0.2107044514253E-02 -0.9326376288291E-02  0.0000000000000E+00  0.1033086379292E-02
 0.2164274675380E-02 -0.9277702190035E-02  0.0000000000000E+00  0.8444223135944E-03
 0.2195656303977E-02 -0.9223692450753E-02  0.0000000000000E+00  0.6989779008226E-03
 0.2210701153902E-02 -0.9169570632962E-02  0.0000000000000E+00  0.5858711553044E-03
 0.2215263899490E-02 -0.9117817048357E-02  0.0000000000000E+00  0.4955151161403E-03
 0.2212932571514E-02 -0.9069478547122E-02  0.0000000000000E+00  0.4201339935942E-03
 0.2205898459437E-02 -0.9024887750097E-02  0.0000000000000E+00  0.3535709326289E-03
 0.2195476690608E-02 -0.8984038666027E-02  0.0000000000000E+00  0.2909295956910E-03
 0.2182410439693E-02 -0.8946770737947E-02  0.0000000000000E+00  0.2282279382146E-03
 0.2167041843843E-02 -0.8912844537851E-02  0.0000000000000E+00  0.1621127611174E-03
 0.2149397708949E-02 -0.8881951202872E-02  0.0000000000000E+00  0.8964229292185E-04
 0.2129217851559E-02 -0.8853675083967E-02  0.0000000000000E+00  0.8141355005847E-05
 0.2105943079360E-02 -0.8827414332702E-02  0.0000000000000E+00 -0.8486042347594E-04
 0.2078688295230E-02 -0.8802269572723E-02  0.0000000000000E+00 -0.1915682450964E-03
 0.2046247850216E-02 -0.8776927258977E-02  0.0000000000000E+00 -0.3136979006376E-03
 0.2007207416436E-02 -0.8749594484034E-02  0.0000000000000E+00 -0.4521129051607E-03
 0.1960218463018E-02 -0.8718045003929E-02  0.0000000000000E+00 -0.6064860806628E-03
 0.1904387218505E-02 -0.8679815629523E-02  0.0000000000000E+00 -0.7752803916422E-03
 0.1839637346334E-02 -0.8632661840079E-02  0.0000000000000E+00 -0.9562029212912E-03
 0.1766657814957E-02 -0.8574615104434E-02  0.0000000000000E+00 -0.1146796030945E-02
 0.1686380207696E-02 -0.8503311519798E-02  0.0000000000000E+00 -0.1344477465055E-02
 0.1599494737271E-02 -0.8415310719387E-02  0.0000000000000E+00 -0.1545719462232E-02
 0.1506384345117E-02 -0.8305740015746E-02  0.0000000000000E+00 -0.1744547173668E-02
 0.1407607798476E-02 -0.8168289085606E-02  0.0000000000000E+00 -0.1930691727705E-02
 0.1304931704879E-02 -0.7995469824600E-02  0.0000000000000E+00 -0.2087501706566E-02
 0.1203028535679E-02 -0.7779149717343E-02  0.0000000000000E+00 -0.2189300436426E-02
 0.1112435482546E-02 -0.7511773085466E-02  0.0000000000000E+00 -0.2197619173634E-02
 0.1055191389875E-02 -0.7188990663719E-02  0.0000000000000E+00 -0.2055837273708E-02
 0.1076125678387E-02 -0.6816541931679E-02  0.0000000000000E+00 -0.1684587041917E-02
 0.1262890196502E-02 -0.6426405000791E-02  0.0000000000000E+00 -0.9901468295332E-03
 0.1770704725634E-02 -0.6101429051932E-02  0.0000000000000E+00  0.8638479566614E-04
 0.2825381279367E-02 -0.5989077040948E-02  0.0000000000000E+00  0.1441927271608E-02
 0.4641578705217E-02 -0.6251547960187E-02  0.0000000000000E+00  0.2619948704550E-02
 0.7203096283567E-02 -0.6901468031247E-02  0.0000000000000E+00  0.2751794508273E-02
 0.1003286598544E-01 -0.7622378118962E-02  0.0000000000000E+00  0.9880128698005E-03
 0.2798641255862E-03 -0.8886789383442E-02  0.0000000000000E+00  0.2363895105288E-02
 0.8383469307460E-03 -0.9201741290490E-02  0.0000000000000E+00  0.2457468915455E-02
 0.1338216897636E-02 -0.9442271049175E-02  0.0000000000000E+00  0.2258411628213E-02
 0.1711935326685E-02 -0.9574016518012E-02  0.0000000000000E+00  0.1905257133861E-02
 0.1957343030875E-02 -0.9612445496561E-02  0.0000000000000E+00  0.1534018409897E-02
 0.2105997268687E-02 -0.9592602610756E-02  0.0000000000000E+00  0.1215409125607E-02
 0.2191776324784E-02 -0.9544177797431E-02  0.0000000000000E+00  0.9660982177134E-03
 0.2239188470350E-02 -0.9485153550570E-02  0.0000000000000E+00  0.7780031384294E-03
 0.2263496548111E-02 -0.9424653247224E-02  0.0000000000000E+00  0.6368582630416E-03
 0.2273748873974E-02 -0.9366805146239E-02  0.0000000000000E+00  0.5293582954906E-03
 0.2275278444109E-02 -0.9313245285658E-02  0.0000000000000E+00  0.4448083847932E-03
 0.2271248366988E-02 -0.9264446120982E-02  0.0000000000000E+00  0.3749882861230E-03
 0.2263541585129E-02 -0.9220380240025E-02  0.0000000000000E+00  0.3136139156344E-03
 0.2253265366672E-02 -0.9180839238429E-02  0.0000000000000E+00  0.2558013840494E-03
 0.2241034056991E-02 -0.9145575191224E-02  0.0000000000000E+00  0.1976295725094E-03
 0.2227121676317E-02 -0.9114348271390E-02  0.0000000000000E+00  0.1358050240559E-03
 0.2211533245454E-02 -0.9086919111397E-02  0.0000000000000E+00  0.6741176655373E-04
 0.2194020129706E-02 -0.9063000693518E-02  0.0000000000000E+00 -0.1026365616569E-04
 0.2174051589466E-02 -0.9042168460248E-02  0.0000000000000E+00 -0.9982836095906E-04
 0.2150761460008E-02 -0.9023729773732E-02  0.0000000000000E+00 -0.2037575102733E-03
 0.2122915890468E-02 -0.9006572192743E-02  0.0000000000000E+00 -0.3241811841613E-03
 0.2088994430073E-02 -0.8989055625261E-02  0.0000000000000E+00 -0.4624731531660E-03
 0.2047478663349E-02 -0.8969038414660E-02  0.0000000000000E+00 -0.6188098202027E-03
 0.1997316551109E-02 -0.8944102975238E-02  0.0000000000000E+00 -0.7920898633692E-03
 0.1938364749910E-02 -0.8912072411849E-02  0.0000000000000E+00 -0.9804676326351E-03
 0.1871319633870E-02 -0.8871084093229E-02  0.0000000000000E+00 -0.1182135200022E-02
 0.1797064116169E-02 -0.8818858790076E-02  0.0000000000000E+00 -0.1395513282922E-02
 0.1716028482416E-02 -0.8751939602198E-02  0.0000000000000E+00 -0.1618436480632E-02
 0.1628015127624E-02 -0.8665270188787E-02  0.0000000000000E+00 -0.1846584175727E-02
 0.1532604025546E-02 -0.8552112713369E-02  0.0000000000000E+00 -0.2071603642711E-02
 0.1430057426231E-02 -0.8404147251788E-02  0.0000000000000E+00 -0.2279060209349E-02
 0.1322726128347E-02 -0.8211646127967E-02  0.0000000000000E+00 -0.2445772558869E-02
 0.1217469349014E-02 -0.7964003166302E-02  0.0000000000000E+00 -0.2535531415570E-02
 0.1130579537258E-02 -0.7651196106409E-02  0.0000000000000E+00 -0.2491784616745E-02
 0.1098938072490E-02 -0.7269296768206E-02  0.0000000000000E+00 -0.2227735564531E-02
 0.1203273156344E-02 -0.6837138932743E-02  0.0000000000000E+00 -0.1623759235592E-02
 0.1605300486088E-02 -0.6428964051901E-02  0.0000000000000E+00 -0.5637382789127E-03
 0.2575402000252E-02 -0.6209242441286E-02  0.0000000000000E+00  0.9267216208567E-03
 0.4425560181884E-02 -0.6401751196366E-02  0.0000000000000E+00  0.2406423981699E-02
 0.7229509931856E-02 -0.7086735858961E-02  0.0000000000000E+00  0.2824726802793E-02
 0.1043996673649E-01 -0.7905579027614E-02  0.0000000000000E+00  0.9911253929530E-03
 0.3101120496288E-03 -0.9153656026571E-02  0.0000000000000E+00  0.2570221517687E-02
 0.9250435730545E-03 -0.9494187843250E-02  0.0000000000000E+00  0.2618070748794E-02
 0.1460180326366E-02 -0.9738285091862E-02  0.0000000000000E+00  0.2331403620975E-02
 0.1839053028774E-02 -0.9851655645538E-02  0.0000000000000E+00  0.1897856802336E-02
 0.2071893851741E-02 -0.9863911467765E-02  0.0000000000000E+00  0.1478727821584E-02
 0.2203861415653E-02 -0.9821262133714E-02  0.0000000000000E+00  0.1141038355919E-02
 0.2275352404470E-02 -0.9756792040547E-02  0.0000000000000E+00  0.8890889505481E-03
 0.2312274728764E-02 -0.9687659359645E-02  0.0000000000000E+00  0.7055615809556E-03
 0.2329401183572E-02 -0.9621267977126E-02  0.0000000000000E+00  0.5714293008794E-03
 0.2334973561362E-02 -0.9560330377535E-02  0.0000000000000E+00  0.4713177112116E-03
 0.2333644989771E-02 -0.9505518156351E-02  0.0000000000000E+00  0.3937482263963E-03
 0.2328085136195E-02 -0.9456694666577E-02  0.0000000000000E+00  0.3302936416680E-03
 0.2319842414816E-02 -0.9413472602115E-02  0.0000000000000E+00  0.2747074603137E-03
 0.2309809711730E-02 -0.9375453919673E-02  0.0000000000000E+00  0.2222326001601E-03
 0.2298475212124E-02 -0.9342319779437E-02  0.0000000000000E+00  0.1690917480197E-03
 0.2286052498359E-02 -0.9313847411450E-02  0.0000000000000E+00  0.1121163582419E-03
 0.2272536740197E-02 -0.9289886033089E-02  0.0000000000000E+00  0.4847309109790E-04
 0.2257708552835E-02 -0.9270301063659E-02  0.0000000000000E+00 -0.2453612931608E-04
 0.2241091906545E-02 -0.9254878993951E-02  0.0000000000000E+00 -0.1096058410751E-03
 0.2221875525809E-02 -0.9243182948537E-02  0.0000000000000E+00 -0.2094476161188E-03
 0.2198836816281E-02 -0.9234365173804E-02  0.0000000000000E+00 -0.3266080638440E-03
 0.2170376703130E-02 -0.9227003982366E-02  0.0000000000000E+00 -0.4630185874425E-03
 0.2134811822362E-02 -0.9219092748473E-02  0.0000000000000E+00 -0.6194250849239E-03
 0.2090929841293E-02 -0.9208292352569E-02  0.0000000000000E+00 -0.7951995004459E-03
 0.2038543526138E-02 -0.9192523805584E-02  0.0000000000000E+00 -0.9889426792631E-03
 0.1978416515189E-02 -0.9170073183388E-02  0.0000000000000E+00 -0.1199494749381E-02
 0.1911462856711E-02 -0.9138810973319E-02  0.0000000000000E+00 -0.1426307269411E-02
 0.1837937154142E-02 -0.9095366586810E-02  0.0000000000000E+00 -0.1668635109672E-02
 0.1757155887674E-02 -0.9034666798206E-02  0.0000000000000E+00 -0.1923907214820E-02
 0.1667847438848E-02 -0.8949808955947E-02  0.0000000000000E+00 -0.2185869234581E-02
 0.1568952238945E-02 -0.8832036690617E-02  0.0000000000000E+00 -0.2442697162610E-02
 0.1460723477844E-02 -0.8670582123819E-02  0.0000000000000E+00 -0.2674573030232E-02
 0.1346474352985E-02 -0.8452458772444E-02  0.0000000000000E+00 -0.2849348578547E-02
 0.1236371273401E-02 -0.8162490728169E-02  0.0000000000000E+00 -0.2913965625964E-02
 0.1157352926911E-02 -0.7786511124165E-02  0.0000000000000E+00 -0.2779901983638E-02
 0.1177497267384E-02 -0.7326136932467E-02  0.0000000000000E+00 -0.2307853183678E-02
 0.1454781374284E-02 -0.6836702364955E-02  0.0000000000000E+00 -0.1320879325167E-02
 0.2298626005057E-02 -0.6488128075982E-02  0.0000000000000E+00  0.2653197550783E-03
 0.4142131410772E-02 -0.6573971467762E-02  0.0000000000000E+00  0.2080065791069E-02
 0.7207465465917E-02 -0.7280839031152E-02  0.0000000000000E+00  0.2884275349771E-02
 0.1088912455162E-01 -0.8219196285290E-02  0.0000000000000E+00  0.1001502779320E-02
 0.3469492947658E-03 -0.9437687884912E-02  0.0000000000000E+00  0.2796473774150E-02
 0.1028441794806E-02 -0.9806082463938E-02  0.0000000000000E+00  0.2782614235129E-02
 0.1599648104462E-02 -0.1004766151024E-01  0.0000000000000E+00  0.2386091647062E-02
 0.1976639757955E-02 -0.1013263844792E-01  0.0000000000000E+00  0.1862938855783E-02
 0.2189752872289E-02 -0.1011165974150E-01  0.0000000000000E+00  0.1399600595806E-02
 0.2301023974413E-02 -0.1004351637009E-01  0.0000000000000E+00  0.1050537154666E-02
 0.2356719109010E-02 -0.9962868854878E-02  0.0000000000000E+00  0.8024444256712E-03
 0.2382849918412E-02 -0.9884405860458E-02  0.0000000000000E+00  0.6278272494685E-03
 0.2392942699906E-02 -0.9813059767109E-02  0.0000000000000E+00  0.5034201329683E-03
 0.2394108851476E-02 -0.9749869302937E-02  0.0000000000000E+00  0.4123653386453E-03
 0.2390193129483E-02 -0.9694470948312E-02  0.0000000000000E+00  0.3428121468641E-03
 0.2383325298816E-02 -0.9646116617688E-02  0.0000000000000E+00  0.2863965380424E-03
 0.2374707676861E-02 -0.9604079087351E-02  0.0000000000000E+00  0.2370840680023E-03
 0.2365021079289E-02 -0.9567794797995E-02  0.0000000000000E+00  0.1903597156277E-03
 0.2354635079524E-02 -0.9536896376545E-02  0.0000000000000E+00  0.1426712364955E-03
 0.2343712696211E-02 -0.9511197876359E-02  0.0000000000000E+00  0.9103879069128E-04
 0.2332251517048E-02 -0.9490655898649E-02  0.0000000000000E+00  0.3276917488546E-04
 0.2320078420491E-02 -0.9475310006914E-02  0.0000000000000E+00 -0.3476185936080E-04
 0.2306798297538E-02 -0.9465189181973E-02  0.0000000000000E+00 -0.1142755025147E-03
 0.2291694362962E-02 -0.9460162478819E-02  0.0000000000000E+00 -0.2086679261609E-03
 0.2273604304169E-02 -0.9459719621973E-02  0.0000000000000E+00 -0.3208875285321E-03
 0.2250889455992E-02 -0.9462739729679E-02  0.0000000000000E+00 -0.4534700754719E-03
 0.2221710416862E-02 -0.9467416877651E-02  0.0000000000000E+00 -0.6078162629718E-03
 0.2184686634860E-02 -0.9471527345781E-02  0.0000000000000E+00 -0.7838296363847E-03
 0.2139603276648E-02 -0.9473111773540E-02  0.0000000000000E+00 -0.9805624152000E-03
 0.2087348647074E-02 -0.9470629911050E-02  0.0000000000000E+00 -0.1197491770596E-02
 0.2028946615111E-02 -0.9462145980711E-02  0.0000000000000E+00 -0.1435100118559E-02
 0.1964560838045E-02 -0.9444465035477E-02  0.0000000000000E+00 -0.1694064261329E-02
 0.1893125282986E-02 -0.9412667923262E-02  0.0000000000000E+00 -0.1973571177967E-02
 0.1812670261553E-02 -0.9359977388739E-02  0.0000000000000E+00 -0.2269527350601E-02
 0.1721060468924E-02 -0.9277660060186E-02  0.0000000000000E+00 -0.2572944338261E-02
 0.1616820014092E-02 -0.9154608013126E-02  0.0000000000000E+00 -0.2868012089030E-02
 0.1500140476645E-02 -0.8976439690246E-02  0.0000000000000E+00 -0.3128232397930E-02
 0.1375234530327E-02 -0.8723998557041E-02  0.0000000000000E+00 -0.3307489479946E-02
 0.1257997411119E-02 -0.8373588617280E-02  0.0000000000000E+00 -0.3322436695817E-02
 0.1198479134469E-02 -0.7907081041351E-02  0.0000000000000E+00 -0.3025260244601E-02
 0.1337034779994E-02 -0.7349115689817E-02  0.0000000000000E+00 -0.2184162075015E-02
 0.2006378464393E-02 -0.6854234317751E-02  0.0000000000000E+00 -0.5740601692479E-03
 0.3780342771612E-02 -0.6784632123119E-02  0.0000000000000E+00  0.1590003762010E-02
 0.7115792292682E-02 -0.7486393655691E-02  0.0000000000000E+00  0.2910040850027E-02
 0.1139025209410E-01 -0.8571014322374E-02  0.0000000000000E+00  0.1023575727190E-02
 0.3928667531219E-03 -0.9744604893328E-02  0.0000000000000E+00  0.3045933691343E-02
 0.1153612711627E-02 -0.1014246656819E-01  0.0000000000000E+00  0.2946590413331E-02
 0.1759503535456E-02 -0.1037108977261E-01  0.0000000000000E+00  0.2411700373921E-02
 0.2123962422341E-02 -0.1041400480770E-01  0.0000000000000E+00  0.1792140090264E-02
 0.2308798314816E-02 -0.1035223269590E-01  0.0000000000000E+00  0.1293522302051E-02
 0.2395686479157E-02 -0.1025696370051E-01  0.0000000000000E+00  0.9439199435953E-03
 0.2434729256180E-02 -0.1016101741578E-01  0.0000000000000E+00  0.7071663167831E-03
 0.2450235449415E-02 -0.1007462524246E-01  0.0000000000000E+00  0.5458975537078E-03
 0.2453726310824E-02 -0.9999615310131E-02  0.0000000000000E+00  0.4337732362349E-03
 0.2450925995616E-02 -0.9935205300125E-02  0.0000000000000E+00  0.3532363073607E-03
 0.2444786897538E-02 -0.9879990151031E-02  0.0000000000000E+00  0.2925396201374E-03
 0.2436880577048E-02 -0.9832646336038E-02  0.0000000000000E+00  0.2436703645975E-03
 0.2428068525743E-02 -0.9792148182213E-02  0.0000000000000E+00  0.2009804610497E-03
 0.2418831194516E-02 -0.9757802277367E-02  0.0000000000000E+00  0.1603072963235E-03
 0.2409431949301E-02 -0.9729220742115E-02  0.0000000000000E+00  0.1183996502186E-03
 0.2399994983410E-02 -0.9706276010448E-02  0.0000000000000E+00  0.7252620031745E-04
 0.2390532265358E-02 -0.9689049783329E-02  0.0000000000000E+00  0.2018993015418E-04
 0.2380932052228E-02 -0.9677773949011E-02  0.0000000000000E+00 -0.4109809203284E-04
 0.2370904287224E-02 -0.9672746470057E-02  0.0000000000000E+00 -0.1140135846069E-03
 0.2359867927300E-02 -0.9674190210049E-02  0.0000000000000E+00 -0.2015625080791E-03
 0.2346780346596E-02 -0.9682013326009E-02  0.0000000000000E+00 -0.3070527106601E-03
 0.2330018987313E-02 -0.9695500162731E-02  0.0000000000000E+00 -0.4336617782614E-03
 0.2307606602922E-02 -0.9713135970831E-02  0.0000000000000E+00 -0.5835542141301E-03
 0.2277981247325E-02 -0.9732860029636E-02  0.0000000000000E+00 -0.7572593968557E-03
 0.2240906787660E-02 -0.9752843879793E-02  0.0000000000000E+00 -0.9543075301001E-03
 0.2197445536153E-02 -0.9771716979148E-02  0.0000000000000E+00 -0.1174803781530E-02
 0.2148800389905E-02 -0.9787744296812E-02  0.0000000000000E+00 -0.1420233406028E-02
 0.2095120679684E-02 -0.9797968924046E-02  0.0000000000000E+00 -0.1692625915295E-02
 0.2035063446553E-02 -0.9797793196698E-02  0.0000000000000E+00 -0.1992827278989E-02
 0.1966132256662E-02 -0.9780874455283E-02  0.0000000000000E+00 -0.2318828293832E-02
 0.1885408116496E-02 -0.9739003813817E-02  0.0000000000000E+00 -0.2664499167810E-02
 0.1790177097212E-02 -0.9661538522920E-02  0.0000000000000E+00 -0.3018364373672E-02
 0.1678217822779E-02 -0.9533960540298E-02  0.0000000000000E+00 -0.3360743780448E-02
 0.1548554070573E-02 -0.9334939601697E-02  0.0000000000000E+00 -0.3655482272275E-02
 0.1406233948793E-02 -0.9033490183016E-02  0.0000000000000E+00 -0.3831447080068E-02
 0.1279775710297E-02 -0.8592293759835E-02  0.0000000000000E+00 -0.3747752715899E-02
 0.1276025119958E-02 -0.7994956384505E-02  0.0000000000000E+00 -0.3138362602165E-02
 0.1720772246379E-02 -0.7348999181046E-02  0.0000000000000E+00 -0.1620662886257E-02
 0.3332560676361E-02 -0.7063476019524E-02  0.0000000000000E+00  0.8641796485198E-03
 0.6923679255834E-02 -0.7709767082283E-02  0.0000000000000E+00  0.2862295689912E-02
 0.1195617185579E-01 -0.8972492529997E-02  0.0000000000000E+00  0.1063000339750E-02
 0.4517111622288E-03 -0.1008298377961E-01  0.0000000000000E+00  0.3322536138911E-02
 0.1307578802814E-02 -0.1050989375072E-01  0.0000000000000E+00  0.3101274231550E-02
 0.1942472017405E-02 -0.1070784792626E-01  0.0000000000000E+00  0.2392323801463E-02
 0.2278795770251E-02 -0.1069059921622E-01  0.0000000000000E+00  0.1675901275357E-02
 0.2425897721991E-02 -0.1058108665777E-01  0.0000000000000E+00  0.1158626005631E-02
 0.2485747938415E-02 -0.1045900151144E-01  0.0000000000000E+00  0.8224521306783E-03
 0.2508220835608E-02 -0.1034990807409E-01  0.0000000000000E+00  0.6049659028297E-03
 0.2513801508449E-02 -0.1025764890560E-01  0.0000000000000E+00  0.4612532577950E-03
 0.2511415470153E-02 -0.1018061601761E-01  0.0000000000000E+00  0.3636407707342E-03
 0.2505249039729E-02 -0.1011620000711E-01  0.0000000000000E+00  0.2947747543149E-03
 0.2497333684796E-02 -0.1006202383462E-01  0.0000000000000E+00  0.2435223831165E-03
 0.2488697545010E-02 -0.1001626654650E-01  0.0000000000000E+00  0.2025076604538E-03
 0.2479884287355E-02 -0.9977666939831E-02  0.0000000000000E+00  0.1666317902056E-03
 0.2471195035834E-02 -0.9945448438121E-02  0.0000000000000E+00  0.1321839060086E-03
 0.2462803877807E-02 -0.9919235654485E-02  0.0000000000000E+00  0.9628062068623E-04
 0.2454809315555E-02 -0.9898982084599E-02  0.0000000000000E+00  0.5649228215682E-04
 0.2447248707240E-02 -0.9884910381949E-02  0.0000000000000E+00  0.1057028624182E-04
 0.2440083687346E-02 -0.9877458075168E-02  0.0000000000000E+00 -0.4377700169542E-04
 0.2433148756782E-02 -0.9877210660198E-02  0.0000000000000E+00 -0.1090981854633E-03
 0.2426037879206E-02 -0.9884785055154E-02  0.0000000000000E+00 -0.1884075228368E-03
 0.2417897037113E-02 -0.9900592953261E-02  0.0000000000000E+00 -0.2852878122775E-03
 0.2407198503619E-02 -0.9924455544404E-02  0.0000000000000E+00 -0.4035693363114E-03
 0.2391863996035E-02 -0.9955279555815E-02  0.0000000000000E+00 -0.5463135081719E-03
 0.2370135525307E-02 -0.9991239009077E-02  0.0000000000000E+00 -0.7148270552490E-03
 0.2341749105557E-02 -0.1003063717213E-01  0.0000000000000E+00 -0.9091944272173E-03
 0.2307974016749E-02 -0.1007222407753E-01  0.0000000000000E+00 -0.1130163205714E-02
 0.2270238854230E-02 -0.1011441156700E-01  0.0000000000000E+00 -0.1380166691712E-02
 0.2228735348086E-02 -0.1015449845889E-01  0.0000000000000E+00 -0.1662425075363E-02
 0.2181945412908E-02 -0.1018836620948E-01  0.0000000000000E+00 -0.1979209728369E-02
 0.2127028456679E-02 -0.1021043052634E-01  0.0000000000000E+00 -0.2330366330653E-02
 0.2060597579315E-02 -0.1021352721795E-01  0.0000000000000E+00 -0.2712435650737E-02
 0.1979270482617E-02 -0.1018832660361E-01  0.0000000000000E+00 -0.3118218520579E-02
 0.1879365385197E-02 -0.1012161812897E-01  0.0000000000000E+00 -0.3535387329635E-02
 0.1756024472888E-02 -0.9992236698630E-02  0.0000000000000E+00 -0.3939915670665E-02
 0.1605036547582E-02 -0.9765561219663E-02  0.0000000000000E+00 -0.4278703875043E-02
 0.1433491671942E-02 -0.9389965719749E-02  0.0000000000000E+00 -0.4434438259175E-02
 0.1301208815827E-02 -0.8804592224988E-02  0.0000000000000E+00 -0.4144826610663E-02
 0.1480265254448E-02 -0.8030522664075E-02  0.0000000000000E+00 -0.2889025456834E-02
 0.2801484207411E-02 -0.7464006373258E-02  0.0000000000000E+00 -0.1949401648417E-03
 0.6586892695116E-02 -0.7966734846922E-02  0.0000000000000E+00  0.2664948408107E-02
 0.1260342293437E-01 -0.9442063720894E-02  0.0000000000000E+00  0.1124770816746E-02
 0.5296551757107E-03 -0.1046626287682E-01  0.0000000000000E+00  0.3630725591545E-02
 0.1500103357229E-02 -0.1091663743194E-01  0.0000000000000E+00  0.3229891944612E-02
 0.2150166901155E-02 -0.1105400086428E-01  0.0000000000000E+00  0.2304795759875E-02
 0.2436455166035E-02 -0.1095401278581E-01  0.0000000000000E+00  0.1504741483897E-02
 0.2536827425381E-02 -0.1079272706969E-01  0.0000000000000E+00  0.9956303948167E-03
 0.2568993667075E-02 -0.1064710044646E-01  0.0000000000000E+00  0.6889902765981E-03
 0.2576120290511E-02 -0.1052838778156E-01  0.0000000000000E+00  0.4982801898841E-03
 0.2573014247100E-02 -0.1043296502648E-01  0.0000000000000E+00  0.3757521740185E-03
 0.2565759608495E-02 -0.1035587089396E-01  0.0000000000000E+00  0.2943659400859E-03
 0.2556969806222E-02 -0.1029281025912E-01  0.0000000000000E+00  0.2379151755302E-03
 0.2547792586123E-02 -0.1024059124304E-01  0.0000000000000E+00  0.1963906827249E-03
 0.2538762680405E-02 -0.1019701403296E-01  0.0000000000000E+00  0.1633100637814E-03
 0.2530145757766E-02 -0.1016066470708E-01  0.0000000000000E+00  0.1342647416172E-03
 0.2522093371314E-02 -0.1013073992704E-01  0.0000000000000E+00  0.1060776040908E-03
 0.2514711078597E-02 -0.1010691367503E-01  0.0000000000000E+00  0.7628708543542E-04
 0.2508085643965E-02 -0.1008924353613E-01  0.0000000000000E+00  0.4280910991397E-04
 0.2502289267282E-02 -0.1007810638494E-01  0.0000000000000E+00  0.3689411675639E-05
 0.2497364826133E-02 -0.1007415280347E-01  0.0000000000000E+00 -0.4310707031172E-04
 0.2493283558596E-02 -0.1007826363996E-01  0.0000000000000E+00 -0.9991494026804E-04
 0.2489846033618E-02 -0.1009147519579E-01  0.0000000000000E+00 -0.1696284837164E-03
 0.2486460860094E-02 -0.1011478258538E-01  0.0000000000000E+00 -0.2559613285655E-03
 0.2481803408997E-02 -0.1014870513347E-01  0.0000000000000E+00 -0.3633491749734E-03
 0.2473765260804E-02 -0.1019276377809E-01  0.0000000000000E+00 -0.4958969667872E-03
 0.2460386505726E-02 -0.1024548956078E-01  0.0000000000000E+00 -0.6559263981524E-03
 0.2441354588257E-02 -0.1030531243541E-01  0.0000000000000E+00 -0.8442506114460E-03
 0.2418149343559E-02 -0.1037098359915E-01  0.0000000000000E+00 -0.1062336594212E-02
 0.2392428205222E-02 -0.1044091023018E-01  0.0000000000000E+00 -0.1313486057935E-02
 0.2364445733409E-02 -0.1051259614342E-01  0.0000000000000E+00 -0.1601819388138E-02
 0.2332603024159E-02 -0.1058254696752E-01  0.0000000000000E+00 -0.1930625606301E-02
 0.2293908443295E-02 -0.1064627971720E-01  0.0000000000000E+00 -0.2301213137998E-02
 0.2244826230391E-02 -0.1069819623051E-01  0.0000000000000E+00 -0.2712414271700E-02
 0.2181888137694E-02 -0.1073109398667E-01  0.0000000000000E+00 -0.3160859685781E-02
 0.2101058507449E-02 -0.1073454187066E-01  0.0000000000000E+00 -0.3641279997965E-02
 0.1995366086587E-02 -0.1069025836001E-01  0.0000000000000E+00 -0.4142690135773E-02
 0.1853954678085E-02 -0.1056462245937E-01  0.0000000000000E+00 -0.4633676382280E-02
 0.1667039350999E-02 -0.1030062973520E-01  0.0000000000000E+00 -0.5032911286538E-02
 0.1443945548555E-02 -0.9803493729339E-02  0.0000000000000E+00 -0.5131377189149E-02
 0.1345698600314E-02 -0.8974783913233E-02  0.0000000000000E+00 -0.4354640002434E-02
 0.2214531862176E-02 -0.8081049039637E-02  0.0000000000000E+00 -0.1707017875858E-02
 0.6044329662140E-02 -0.8296247818520E-02  0.0000000000000E+00  0.2174795249389E-02
 0.1335319411127E-01 -0.1001298043634E-01  0.0000000000000E+00  0.1205260109980E-02
 0.6370222401582E-03 -0.1091667995091E-01  0.0000000000000E+00  0.3974552191405E-02
 0.1744625068662E-02 -0.1137219193524E-01  0.0000000000000E+00  0.3299834232571E-02
 0.2380889286847E-02 -0.1139869526349E-01  0.0000000000000E+00  0.2116565076727E-02
 0.2588521892225E-02 -0.1119154223854E-01  0.0000000000000E+00  0.1272649606110E-02
 0.2636572882041E-02 -0.1098143200686E-01  0.0000000000000E+00  0.8095467689429E-03
 0.2643427219888E-02 -0.1081916787592E-01  0.0000000000000E+00  0.5480008111029E-03
 0.2637538896679E-02 -0.1069557883891E-01  0.0000000000000E+00  0.3902165973721E-03
 0.2627486018777E-02 -0.1060028463474E-01  0.0000000000000E+00  0.2916039927606E-03
 0.2616622806716E-02 -0.1052534692936E-01  0.0000000000000E+00  0.2274426776905E-03
 0.2606060976087E-02 -0.1046510299606E-01  0.0000000000000E+00  0.1836567365356E-03
 0.2596181879345E-02 -0.1041579117778E-01  0.0000000000000E+00  0.1517953373794E-03
 0.2587106589729E-02 -0.1037498423262E-01  0.0000000000000E+00  0.1264760889943E-03
 0.2578877901233E-02 -0.1034121613395E-01  0.0000000000000E+00  0.1040896965765E-03
 0.2571534853398E-02 -0.1031372029071E-01  0.0000000000000E+00  0.8205109893422E-04
 0.2565137968375E-02 -0.1029225949056E-01  0.0000000000000E+00  0.5835874801083E-04
 0.2559776415785E-02 -0.1027701787869E-01  0.0000000000000E+00  0.3130636257317E-04
 0.2555564593971E-02 -0.1026853663541E-01  0.0000000000000E+00 -0.7287479092122E-06
 0.2552629726665E-02 -0.1026768028100E-01  0.0000000000000E+00 -0.3947193458131E-04
 0.2551082538257E-02 -0.1027562036428E-01  0.0000000000000E+00 -0.8695835360095E-04
 0.2550946692404E-02 -0.1029381491574E-01  0.0000000000000E+00 -0.1458145746023E-03
 0.2551961675034E-02 -0.1032389943893E-01  0.0000000000000E+00 -0.2196660021797E-03
 0.2553147062073E-02 -0.1036727554131E-01  0.0000000000000E+00 -0.3133953855514E-03
 0.2552493447653E-02 -0.1042436523766E-01  0.0000000000000E+00 -0.4322743421858E-03
 0.2547865374547E-02 -0.1049428063029E-01  0.0000000000000E+00 -0.5799985296719E-03
 0.2538870039894E-02 -0.1057558249930E-01  0.0000000000000E+00 -0.7584686755223E-03
 0.2527150227279E-02 -0.1066679170995E-01  0.0000000000000E+00 -0.9700813290455E-03
 0.2514517240322E-02 -0.1076600309924E-01  0.0000000000000E+00 -0.1218900705223E-02
 0.2501249688431E-02 -0.1087077586632E-01  0.0000000000000E+00 -0.1509468907632E-02
 0.2485755196008E-02 -0.1097837448697E-01  0.0000000000000E+00 -0.1845449266990E-02
 0.2465105672450E-02 -0.1108580012586E-01  0.0000000000000E+00 -0.2229048021042E-02
 0.2435926046799E-02 -0.1118953952778E-01  0.0000000000000E+00 -0.2660874730485E-02
 0.2395188380453E-02 -0.1128522461980E-01  0.0000000000000E+00 -0.3140632022033E-02
 0.2339582343907E-02 -0.1136647649865E-01  0.0000000000000E+00 -0.3668940270087E-02
 0.2262162471425E-02 -0.1142068667988E-01  0.0000000000000E+00 -0.4246893303679E-02
 0.2148613306193E-02 -0.1142061446298E-01  0.0000000000000E+00 -0.4866161889516E-02
 0.1979453876975E-02 -0.1131420823516E-01  0.0000000000000E+00 -0.5485227790024E-02
 0.1728435440601E-02 -0.1100036051510E-01  0.0000000000000E+00 -0.5987071337852E-02
 0.1402770445894E-02 -0.1026745363981E-01  0.0000000000000E+00 -0.5911441121087E-02
 0.1651309186537E-02 -0.9077356751030E-02  0.0000000000000E+00 -0.3784925801430E-02
 0.5219330944098E-02 -0.8793829604208E-02  0.0000000000000E+00  0.1129584164754E-02
 0.1423298381928E-01 -0.1075373470702E-01  0.0000000000000E+00  0.1265136202532E-02
 0.7918320528415E-03 -0.1147373706943E-01  0.0000000000000E+00  0.4354009180594E-02
 0.2058807042985E-02 -0.1188385285610E-01  0.0000000000000E+00  0.3246180400205E-02
 0.2624761730692E-02 -0.1171673679727E-01  0.0000000000000E+00  0.1786198494660E-02
 0.2721752810859E-02 -0.1138650439714E-01  0.0000000000000E+00  0.9845700083196E-03
 0.2720462590689E-02 -0.1114290671887E-01  0.0000000000000E+00  0.6107283680220E-03
 0.2707619799939E-02 -0.1097373898899E-01  0.0000000000000E+00  0.4050012419646E-03
 0.2691827212026E-02 -0.1085098674166E-01  0.0000000000000E+00  0.2845540759039E-03
 0.2677041474368E-02 -0.1075961476233E-01  0.0000000000000E+00  0.2112878756368E-03
 0.2664005521822E-02 -0.1068918849915E-01  0.0000000000000E+00  0.1644566065669E-03
 0.2652586970627E-02 -0.1063326953616E-01  0.0000000000000E+00  0.1330333203852E-03
 0.2642585231063E-02 -0.1058780765649E-01  0.0000000000000E+00  0.1103845125371E-03
 0.2633806951620E-02 -0.1055033467058E-01  0.0000000000000E+00  0.9238768895792E-04
 0.2626141866045E-02 -0.1051944319873E-01  0.0000000000000E+00  0.7629191626077E-04
 0.2619557529240E-02 -0.1049447163555E-01  0.0000000000000E+00  0.6013675433936E-04
 0.2614094780185E-02 -0.1047531170822E-01  0.0000000000000E+00  0.4239975527379E-04
 0.2609858694562E-02 -0.1046229512804E-01  0.0000000000000E+00  0.2177127015318E-04
 0.2607010765487E-02 -0.1045613385903E-01  0.0000000000000E+00 -0.3013553267095E-05
 0.2605760626564E-02 -0.1045790047015E-01  0.0000000000000E+00 -0.3332664825573E-04
 0.2606351262628E-02 -0.1046904000392E-01  0.0000000000000E+00 -0.7082710208767E-04
 0.2609023667799E-02 -0.1049140622060E-01  0.0000000000000E+00 -0.1177246728906E-03
 0.2613890092799E-02 -0.1052728169117E-01  0.0000000000000E+00 -0.1772632040544E-03
 0.2620479754172E-02 -0.1057912659006E-01  0.0000000000000E+00 -0.2544242186741E-03
 0.2627104005302E-02 -0.1064868244004E-01  0.0000000000000E+00 -0.3556486067947E-03
 0.2631561372830E-02 -0.1073606909168E-01  0.0000000000000E+00 -0.4865186962635E-03
 0.2633350909410E-02 -0.1084003065993E-01  0.0000000000000E+00 -0.6507262775060E-03
 0.2634139559003E-02 -0.1095843754287E-01  0.0000000000000E+00 -0.8520693804928E-03
 0.2635680648195E-02 -0.1108851279283E-01  0.0000000000000E+00 -0.1095224540224E-02
 0.2638149730429E-02 -0.1122758777694E-01  0.0000000000000E+00 -0.1384386043559E-02
 0.2640045773996E-02 -0.1137382122009E-01  0.0000000000000E+00 -0.1722628430539E-02
 0.2638773455484E-02 -0.1152615623843E-01  0.0000000000000E+00 -0.2112279903259E-02
 0.2631418696830E-02 -0.1168372432311E-01  0.0000000000000E+00 -0.2555200907750E-02
 0.2615810294300E-02 -0.1184550275190E-01  0.0000000000000E+00 -0.3053220602018E-02
 0.2590196052889E-02 -0.1201005763620E-01  0.0000000000000E+00 -0.3611066435349E-02
 0.2549728520426E-02 -0.1217258732537E-01  0.0000000000000E+00 -0.4238514646424E-02
 0.2480871467226E-02 -0.1231845880260E-01  0.0000000000000E+00 -0.4948242760794E-02
 0.2359756227525E-02 -0.1241013166616E-01  0.0000000000000E+00 -0.5738039939868E-02
 0.2155582823526E-02 -0.1237224717997E-01  0.0000000000000E+00 -0.6575915502285E-02
 0.1749204438581E-02 -0.1197125365155E-01  0.0000000000000E+00 -0.7313015686722E-02
 0.1290651953728E-02 -0.1071275513451E-01  0.0000000000000E+00 -0.6435683884219E-02
 0.4040317975148E-02 -0.9691948354189E-02  0.0000000000000E+00 -0.9244234608081E-03
 0.1528234930174E-01 -0.1182719880047E-01  0.0000000000000E+00  0.1142338042398E-02
 0.1026750439373E-02 -0.1221484725501E-01  0.0000000000000E+00  0.4750555834487E-02
 0.2462241335642E-02 -0.1244139465663E-01  0.0000000000000E+00  0.2935475670298E-02
 0.2853415489154E-02 -0.1195542744379E-01  0.0000000000000E+00  0.1277165182737E-02
 0.2819400760844E-02 -0.1152438389164E-01  0.0000000000000E+00  0.6693864324262E-03
 0.2786464868921E-02 -0.1127592363791E-01  0.0000000000000E+00  0.4119255594964E-03
 0.2760600585857E-02 -0.1110969830970E-01  0.0000000000000E+00  0.2661472002591E-03
 0.2738691787193E-02 -0.1099480620430E-01  0.0000000000000E+00  0.1858349839552E-03
 0.2721787456236E-02 -0.1091125007031E-01  0.0000000000000E+00  0.1373112828688E-03
 0.2708046649698E-02 -0.1084774915985E-01  0.0000000000000E+00  0.1070629564172E-03
 0.2696718182672E-02 -0.1079763089509E-01  0.0000000000000E+00  0.8705996952296E-04
 0.2687153315889E-02 -0.1075691419649E-01  0.0000000000000E+00  0.7278265326366E-04
 0.2678990947670E-02 -0.1072328656942E-01  0.0000000000000E+00  0.6139401767130E-04
 0.2672035866387E-02 -0.1069551626796E-01  0.0000000000000E+00  0.5102256506118E-04
 0.2666229789772E-02 -0.1067311555914E-01  0.0000000000000E+00  0.4033142142168E-04
 0.2661618655929E-02 -0.1065614409601E-01  0.0000000000000E+00  0.2827668695063E-04
 0.2658335806887E-02 -0.1064509971064E-01  0.0000000000000E+00  0.1394921889486E-04
 0.2656592039336E-02 -0.1064086781714E-01  0.0000000000000E+00 -0.3544311329151E-05
 0.2656672383925E-02 -0.1064471668509E-01  0.0000000000000E+00 -0.2519164129230E-04
 0.2658935977748E-02 -0.1065833580919E-01  0.0000000000000E+00 -0.5221323459209E-04
 0.2663811469421E-02 -0.1068392283499E-01  0.0000000000000E+00 -0.8627672083972E-04
 0.2671769186043E-02 -0.1072433534584E-01  0.0000000000000E+00 -0.1299213124898E-03
 0.2682998066693E-02 -0.1078317787313E-01  0.0000000000000E+00 -0.1876009136192E-03
 0.2696483050847E-02 -0.1086407937284E-01  0.0000000000000E+00 -0.2665779542447E-03
 0.2710258912513E-02 -0.1096900291897E-01  0.0000000000000E+00 -0.3749773674462E-03
 0.2723736285981E-02 -0.1109707446136E-01  0.0000000000000E+00 -0.5196485717716E-03
 0.2738294719789E-02 -0.1124474705079E-01  0.0000000000000E+00 -0.7067640006661E-03
 0.2755179312108E-02 -0.1140740252309E-01  0.0000000000000E+00 -0.9413406410851E-03
 0.2774215935449E-02 -0.1158170249303E-01  0.0000000000000E+00 -0.1225987682083E-02
 0.2794094575970E-02 -0.1176686250260E-01  0.0000000000000E+00 -0.1561803346988E-02
 0.2812909975711E-02 -0.1196434139255E-01  0.0000000000000E+00 -0.1950193797049E-02
 0.2828598381100E-02 -0.1217661411295E-01  0.0000000000000E+00 -0.2393776257576E-02
 0.2839981952532E-02 -0.1240634672192E-01  0.0000000000000E+00 -0.2895947286510E-02
 0.2847534532388E-02 -0.1265711036191E-01  0.0000000000000E+00 -0.3462838607331E-02
 0.2849281175792E-02 -0.1293328289967E-01  0.0000000000000E+00 -0.4108963212152E-02
 0.2838338435303E-02 -0.1323710868522E-01  0.0000000000000E+00 -0.4856314073059E-02
 0.2791059631838E-02 -0.1356074522036E-01  0.0000000000000E+00 -0.5747095660970E-02
 0.2686846814343E-02 -0.1386152093715E-01  0.0000000000000E+00 -0.6787493080129E-02
 0.2438990675397E-02 -0.1404937415039E-01  0.0000000000000E+00 -0.8143571895505E-02
 0.1473307192317E-02 -0.1332703001322E-01  0.0000000000000E+00 -0.9292574560326E-02
 0.2521322271649E-02 -0.1155017403534E-01  0.0000000000000E+00 -0.4667350924849E-02
 0.1659174873607E-01 -0.1368133995966E-01  0.0000000000000E+00  0.2800265003057E-03
 0.1401276431249E-02 -0.1331607958466E-01  0.0000000000000E+00  0.5063004547534E-02
 0.2960528152433E-02 -0.1294697859168E-01  0.0000000000000E+00  0.2085953775541E-02
 0.3000632729472E-02 -0.1202716948051E-01  0.0000000000000E+00  0.6263661872348E-03
 0.2872578769646E-02 -0.1161310677769E-01  0.0000000000000E+00  0.3851986816665E-03
 0.2836340320584E-02 -0.1137730459043E-01  0.0000000000000E+00  0.2175709868257E-03
 0.2800964045556E-02 -0.1122792271169E-01  0.0000000000000E+00  0.1417836042398E-03
 0.2778804529050E-02 -0.1112769290434E-01  0.0000000000000E+00  0.9781952495896E-04
 0.2761951282835E-02 -0.1105586131881E-01  0.0000000000000E+00  0.7242865404861E-04
 0.2749092618893E-02 -0.1100158978706E-01  0.0000000000000E+00  0.5681643101815E-04
 0.2738717776581E-02 -0.1095864291256E-01  0.0000000000000E+00  0.4671110257773E-04
 0.2730109600307E-02 -0.1092347406294E-01  0.0000000000000E+00  0.3955823222512E-04
 0.2722834274667E-02 -0.1089412477601E-01  0.0000000000000E+00  0.3379675299356E-04
 0.2716695549104E-02 -0.1086965388228E-01  0.0000000000000E+00  0.2838896525523E-04
 0.2711650450866E-02 -0.1084981317760E-01  0.0000000000000E+00  0.2259152278564E-04
 0.2707774172437E-02 -0.1083486607204E-01  0.0000000000000E+00  0.1581688511315E-04
 0.2705238404375E-02 -0.1082549164145E-01  0.0000000000000E+00  0.7545014305721E-05
 0.2704302814188E-02 -0.1082274752604E-01  0.0000000000000E+00 -0.2745758461264E-05
 0.2705316537175E-02 -0.1082807999573E-01  0.0000000000000E+00 -0.1564380819885E-04
 0.2708730100379E-02 -0.1084338341112E-01  0.0000000000000E+00 -0.3188883944893E-04
 0.2715115752255E-02 -0.1087112820080E-01  0.0000000000000E+00 -0.5251382911470E-04
 0.2725208058307E-02 -0.1091460328958E-01  0.0000000000000E+00 -0.7911570759972E-04
 0.2739882874690E-02 -0.1097839044181E-01  0.0000000000000E+00 -0.1147258007653E-03
 0.2759285406922E-02 -0.1106860356471E-01  0.0000000000000E+00 -0.1662189523118E-03
 0.2782423870958E-02 -0.1119074189858E-01  0.0000000000000E+00 -0.2448508574627E-03
 0.2808807419228E-02 -0.1134491314065E-01  0.0000000000000E+00 -0.3633658956601E-03
 0.2838856452761E-02 -0.1152465385216E-01  0.0000000000000E+00 -0.5322337459210E-03
 0.2872442663178E-02 -0.1172188457822E-01  0.0000000000000E+00 -0.7561520609453E-03
 0.2908668500132E-02 -0.1193201592628E-01  0.0000000000000E+00 -0.1034148673258E-02
 0.2946559559138E-02 -0.1215556678991E-01  0.0000000000000E+00 -0.1363448593334E-02
 0.2985394406170E-02 -0.1239722180200E-01  0.0000000000000E+00 -0.1743126400929E-02
 0.3024515391351E-02 -0.1266377252505E-01  0.0000000000000E+00 -0.2176058118529E-02
 0.3063904304979E-02 -0.1296203987047E-01  0.0000000000000E+00 -0.2667491792914E-02
 0.3105481596097E-02 -0.1329933298487E-01  0.0000000000000E+00 -0.3223189079421E-02
 0.3152188230482E-02 -0.1368871375259E-01  0.0000000000000E+00 -0.3853679828060E-02
 0.3201001329844E-02 -0.1415273401662E-01  0.0000000000000E+00 -0.4584041157594E-02
 0.3256904693462E-02 -0.1472276955034E-01  0.0000000000000E+00 -0.5457933461937E-02
 0.3260057473662E-02 -0.1541702178245E-01  0.0000000000000E+00 -0.6601729673115E-02
 0.3351670172719E-02 -0.1626774357570E-01  0.0000000000000E+00 -0.7984520112516E-02
 0.2690811712672E-02 -0.1710381492117E-01  0.0000000000000E+00 -0.1109176197609E-01
 0.1037726002320E-02 -0.1558916452350E-01  0.0000000000000E+00 -0.1055568050876E-01
 0.1846740534518E-01 -0.1786611811631E-01  0.0000000000000E+00 -0.3249788995283E-02
 0.2003115747604E-02 -0.1528940216910E-01  0.0000000000000E+00  0.4754219844778E-02
 0.3464894918275E-02 -0.1282956214644E-01  0.0000000000000E+00  0.1338149711046E-03
 0.2946498527846E-02 -0.1198669767726E-01  0.0000000000000E+00  0.2233102233503E-03
 0.2920001515072E-02 -0.1164776052358E-01  0.0000000000000E+00  0.9412900786095E-04
 0.2859441340881E-02 -0.1144916489970E-01  0.0000000000000E+00  0.5799906676134E-04
 0.2832518995202E-02 -0.1133030935424E-01  0.0000000000000E+00  0.3655801555345E-04
 0.2812233004789E-02 -0.1125094980565E-01  0.0000000000000E+00  0.2539077836444E-04
 0.2798326363320E-02 -0.1119448287025E-01  0.0000000000000E+00  0.1897153657419E-04
 0.2787584187363E-02 -0.1115147841043E-01  0.0000000000000E+00  0.1520478228714E-04
 0.2778969571886E-02 -0.1111689363197E-01  0.0000000000000E+00  0.1284700077006E-04
 0.2771741285862E-02 -0.1108793740626E-01  0.0000000000000E+00  0.1120243434830E-04
 0.2765561547583E-02 -0.1106319565484E-01  0.0000000000000E+00  0.9832622736378E-05
 0.2760292494289E-02 -0.1104212122101E-01  0.0000000000000E+00  0.8445649000655E-05
 0.2755948233653E-02 -0.1102476422157E-01  0.0000000000000E+00  0.6828192988445E-05
 0.2752653181051E-02 -0.1101162230109E-01  0.0000000000000E+00  0.4807330369672E-05
 0.2750624873776E-02 -0.1100356705176E-01  0.0000000000000E+00  0.2224578948412E-05
 0.2750168776501E-02 -0.1100182222207E-01  0.0000000000000E+00 -0.1082577059802E-05
 0.2751683750786E-02 -0.1100799214555E-01  0.0000000000000E+00 -0.5305660377763E-05
 0.2755680735940E-02 -0.1102412722226E-01  0.0000000000000E+00 -0.1068747815008E-04
 0.2762819321074E-02 -0.1105288605148E-01  0.0000000000000E+00 -0.1757210630865E-04
 0.2773977210109E-02 -0.1109781625430E-01  0.0000000000000E+00 -0.2650555374606E-04
 0.2790416015986E-02 -0.1116400611160E-01  0.0000000000000E+00 -0.3846614009534E-04
 0.2813844168200E-02 -0.1125987582573E-01  0.0000000000000E+00 -0.5687368968116E-04
 0.2845982902633E-02 -0.1139807963574E-01  0.0000000000000E+00 -0.9552733299167E-04
 0.2887131353550E-02 -0.1158149637244E-01  0.0000000000000E+00 -0.1790628250606E-03
 0.2935213977178E-02 -0.1179730844465E-01  0.0000000000000E+00 -0.3259106513555E-03
 0.2987181015522E-02 -0.1203156528464E-01  0.0000000000000E+00 -0.5385151246770E-03
 0.3040975733803E-02 -0.1227778058972E-01  0.0000000000000E+00 -0.8092779636742E-03
 0.3096231385530E-02 -0.1253819543914E-01  0.0000000000000E+00 -0.1128999454136E-02
 0.3153999237462E-02 -0.1282163215415E-01  0.0000000000000E+00 -0.1492766653571E-02
 0.3215979723365E-02 -0.1314033728257E-01  0.0000000000000E+00 -0.1902617946424E-02
 0.3283670925274E-02 -0.1350683553361E-01  0.0000000000000E+00 -0.2367479133437E-02
 0.3359024871584E-02 -0.1392939646083E-01  0.0000000000000E+00 -0.2894013925274E-02
 0.3446376073654E-02 -0.1442430179285E-01  0.0000000000000E+00 -0.3477949620519E-02
 0.3557774317431E-02 -0.1503978926821E-01  0.0000000000000E+00 -0.4126679073886E-02
 0.3694792781407E-02 -0.1584648158309E-01  0.0000000000000E+00 -0.4884803219256E-02
 0.3922570150139E-02 -0.1695561714074E-01  0.0000000000000E+00 -0.5846741341427E-02
 0.4014205427001E-02 -0.1847238134922E-01  0.0000000000000E+00 -0.7230303853319E-02
 0.5248712183833E-02 -0.2106213772111E-01  0.0000000000000E+00 -0.9147031650342E-02
 0.5962013809609E-03 -0.2383331468586E-01  0.0000000000000E+00 -0.1641810199850E-01
 0.2386219557311E-01 -0.3047526882394E-01  0.0000000000000E+00 -0.1521016577090E-01
 0.1199695056461E-01 -0.2207275073609E-01  0.0000000000000E+00 -0.1110398324195E+00
 0.1302353118905E-01 -0.2318453664888E-01  0.0000000000000E+00 -0.6882915602072E-01
 0.1477501238461E-01 -0.2492239355101E-01  0.0000000000000E+00 -0.3331930739189E-01
 0.1705999829591E-01 -0.2719771545195E-01  0.0000000000000E+00 -0.3625101628767E-02
 0.1975466403996E-01 -0.2987230300892E-01  0.0000000000000E+00  0.2111570201203E-01
 0.2267348907001E-01 -0.3276545239842E-01  0.0000000000000E+00  0.4147852684122E-01
 0.2568458541137E-01 -0.3573807911673E-01  0.0000000000000E+00  0.5781995547873E-01
 0.2870150414824E-01 -0.3870729474980E-01  0.0000000000000E+00  0.7051847389729E-01
 0.3164792994812E-01 -0.4159829606313E-01  0.0000000000000E+00  0.7997222628553E-01
 0.3445405655175E-01 -0.4434211367971E-01  0.0000000000000E+00  0.8654724523931E-01
 0.3706712554757E-01 -0.4688805089589E-01  0.0000000000000E+00  0.9057713508149E-01
 0.3945028801476E-01 -0.4920002022402E-01  0.0000000000000E+00  0.9236924788851E-01
 0.4156933107154E-01 -0.5124304847430E-01  0.0000000000000E+00  0.9221027976926E-01
 0.4338465852633E-01 -0.5297438978776E-01  0.0000000000000E+00  0.9035270037390E-01
 0.4485438150780E-01 -0.5434761078148E-01  0.0000000000000E+00  0.8701123383943E-01
 0.4594088644436E-01 -0.5531902515099E-01  0.0000000000000E+00  0.8237825315916E-01
 0.4659240597915E-01 -0.5584209270452E-01  0.0000000000000E+00  0.7667086616978E-01
 0.4680427079297E-01 -0.5592203901706E-01  0.0000000000000E+00  0.6995396651547E-01
 0.4674099372317E-01 -0.5566945800274E-01  0.0000000000000E+00  0.6260111700745E-01
 0.4618642903470E-01 -0.5533188085849E-01  0.0000000000000E+00  0.5640494304004E-01
 0.1214994713138E-01 -0.2371804669811E-01  0.0000000000000E+00 -0.1082788425199E+00
 0.1435946012822E-01 -0.2583888257835E-01  0.0000000000000E+00 -0.6545874047313E-01
 0.1703262295255E-01 -0.2844827688260E-01  0.0000000000000E+00 -0.2963150568974E-01
 0.2012012651211E-01 -0.3145638986795E-01  0.0000000000000E+00  0.3642589096832E-03
 0.2348414752770E-01 -0.3474063676456E-01  0.0000000000000E+00  0.2527497300730E-01
 0.2698580249777E-01 -0.3815819277949E-01  0.0000000000000E+00  0.4565832198334E-01
 0.3051434046664E-01 -0.4159787091817E-01  0.0000000000000E+00  0.6191614972686E-01
 0.3398557025857E-01 -0.4497427341481E-01  0.0000000000000E+00  0.7445376159698E-01
 0.3732357479140E-01 -0.4821257768765E-01  0.0000000000000E+00  0.8366139275090E-01
 0.4046453408911E-01 -0.5125029117007E-01  0.0000000000000E+00  0.8990056287720E-01
 0.4336142371781E-01 -0.5404180700997E-01  0.0000000000000E+00  0.9350544720176E-01
 0.4598198400088E-01 -0.5655571921274E-01  0.0000000000000E+00  0.9478467977728E-01
 0.4829766755768E-01 -0.5876263503254E-01  0.0000000000000E+00  0.9402555460391E-01
 0.5027639409817E-01 -0.6062784864153E-01  0.0000000000000E+00  0.9148628603182E-01
 0.5188445721164E-01 -0.6211370053951E-01  0.0000000000000E+00  0.8740050775019E-01
 0.5308497026459E-01 -0.6318112453302E-01  0.0000000000000E+00  0.8200693616574E-01
 0.5381689289946E-01 -0.6377259692842E-01  0.0000000000000E+00  0.7556034974738E-01
 0.5406174203317E-01 -0.6386475286654E-01  0.0000000000000E+00  0.6827870963179E-01
 0.5362395948776E-01 -0.6334578023780E-01  0.0000000000000E+00  0.6071944902405E-01
 0.5242150325132E-01 -0.6197529597803E-01  0.0000000000000E+00  0.5235413453733E-01
 0.1222617227086E-01 -0.2521164733270E-01  0.0000000000000E+00 -0.1051667538772E+00
 0.1563020619175E-01 -0.2845046362872E-01  0.0000000000000E+00 -0.6196373456392E-01
 0.1926544274705E-01 -0.3193641074957E-01  0.0000000000000E+00 -0.2577528601002E-01
 0.2315888193219E-01 -0.3568855540711E-01  0.0000000000000E+00  0.4440869176908E-02
 0.2721817848805E-01 -0.3960681822597E-01  0.0000000000000E+00  0.2945882655846E-01
 0.3132698649008E-01 -0.4357597100421E-01  0.0000000000000E+00  0.4982833388752E-01
 0.3539156997200E-01 -0.4750021797566E-01  0.0000000000000E+00  0.6597816435037E-01
 0.3933399190059E-01 -0.5130080801110E-01  0.0000000000000E+00  0.7832358161292E-01
 0.4308321626088E-01 -0.5490677132495E-01  0.0000000000000E+00  0.8725637633945E-01
 0.4658055386768E-01 -0.5826048501367E-01  0.0000000000000E+00  0.9313685943469E-01
 0.4978425618792E-01 -0.6132151047612E-01  0.0000000000000E+00  0.9629964288987E-01
 0.5266652812195E-01 -0.6406276210315E-01  0.0000000000000E+00  0.9705563351609E-01
 0.5520352618131E-01 -0.6645973076242E-01  0.0000000000000E+00  0.9569522643792E-01
 0.5736800254494E-01 -0.6848294787040E-01  0.0000000000000E+00  0.9248568466730E-01
 0.5912750734042E-01 -0.7009716255712E-01  0.0000000000000E+00  0.8768089732191E-01
 0.6043758061925E-01 -0.7125659028059E-01  0.0000000000000E+00  0.8154242339215E-01
 0.6122861865666E-01 -0.7189128091969E-01  0.0000000000000E+00  0.7434522078360E-01
 0.6140147643146E-01 -0.7191570975318E-01  0.0000000000000E+00  0.6633259121765E-01
 0.6081078826268E-01 -0.7115955973251E-01  0.0000000000000E+00  0.5757556149488E-01
 0.5959373777745E-01 -0.6971594149865E-01  0.0000000000000E+00  0.4758888445982E-01
 0.1226076773816E-01 -0.2664798825883E-01  0.0000000000000E+00 -0.1015962607767E+00
 0.1683833030825E-01 -0.3098303307623E-01  0.0000000000000E+00 -0.5818922628647E-01
 0.2145932748127E-01 -0.3538313334556E-01  0.0000000000000E+00 -0.2175758883848E-01
 0.2618312712506E-01 -0.3989853506540E-01  0.0000000000000E+00  0.8622744977643E-02
 0.3095777155190E-01 -0.4447286151155E-01  0.0000000000000E+00  0.3369179586420E-01
 0.3569484781991E-01 -0.4901486296570E-01  0.0000000000000E+00  0.5400957026988E-01
 0.4031420555449E-01 -0.5344299156728E-01  0.0000000000000E+00  0.7002092284544E-01
 0.4474590810743E-01 -0.5768599717768E-01  0.0000000000000E+00  0.8214708317627E-01
 0.4892532644114E-01 -0.6167907071570E-01  0.0000000000000E+00  0.9078087072014E-01
 0.5279952615683E-01 -0.6536997208822E-01  0.0000000000000E+00  0.9628366461737E-01
 0.5633166348855E-01 -0.6872298478825E-01  0.0000000000000E+00  0.9899140693707E-01
 0.5949794237303E-01 -0.7171499094511E-01  0.0000000000000E+00  0.9921777813532E-01
 0.6227801306985E-01 -0.7432512321974E-01  0.0000000000000E+00  0.9725738098473E-01
 0.6464677454311E-01 -0.7652649154792E-01  0.0000000000000E+00  0.9338601307912E-01
 0.6656961128855E-01 -0.7828221806957E-01  0.0000000000000E+00  0.8786905515034E-01
 0.6799522874556E-01 -0.7953896806554E-01  0.0000000000000E+00  0.8097301700982E-01
 0.6883949814186E-01 -0.8021358445913E-01  0.0000000000000E+00  0.7295534827433E-01
 0.6900777747781E-01 -0.8020451977247E-01  0.0000000000000E+00  0.6395091198869E-01
 0.6843637794963E-01 -0.7943248521132E-01  0.0000000000000E+00  0.5394015114849E-01
 0.6729990956632E-01 -0.7803831632598E-01  0.0000000000000E+00  0.4266413333701E-01
 0.1227361406249E-01 -0.2804724686330E-01  0.0000000000000E+00 -0.9759029736878E-01
 0.1800527848211E-01 -0.3346358453802E-01  0.0000000000000E+00 -0.5410492606249E-01
 0.2362008579846E-01 -0.3878782179273E-01  0.0000000000000E+00 -0.1754153583887E-01
 0.2919382725758E-01 -0.4408869533952E-01  0.0000000000000E+00  0.1292539230873E-01
 0.3470417379371E-01 -0.4933914386441E-01  0.0000000000000E+00  0.3799413364878E-01
 0.4008816525181E-01 -0.5447337913051E-01  0.0000000000000E+00  0.5822092366493E-01
 0.4528022422558E-01 -0.5942366972764E-01  0.0000000000000E+00  0.7406271876539E-01
 0.5021896599504E-01 -0.6412728114044E-01  0.0000000000000E+00  0.8594380718393E-01
 0.5484698023926E-01 -0.6852634081183E-01  0.0000000000000E+00  0.9425781437545E-01
 0.5911738592819E-01 -0.7257443415244E-01  0.0000000000000E+00  0.9936746743433E-01
 0.6299811995841E-01 -0.7624044537221E-01  0.0000000000000E+00  0.1016105994524E+00
 0.6646889128291E-01 -0.7950472649901E-01  0.0000000000000E+00  0.1013037307797E+00
 0.6951183872999E-01 -0.8234902877140E-01  0.0000000000000E+00  0.9874513984942E-01
 0.7210265183016E-01 -0.8474749833680E-01  0.0000000000000E+00  0.9421551811909E-01
 0.7420482029266E-01 -0.8666130517727E-01  0.0000000000000E+00  0.8798250679865E-01
 0.7576270398574E-01 -0.8803256252382E-01  0.0000000000000E+00  0.8030210467211E-01
 0.7669747815555E-01 -0.8877862273875E-01  0.0000000000000E+00  0.7138766657022E-01
 0.7693921806210E-01 -0.8882147287703E-01  0.0000000000000E+00  0.6133281310542E-01
 0.7647158759552E-01 -0.8812959916595E-01  0.0000000000000E+00  0.5012848512314E-01
 0.7545623510918E-01 -0.8684118912265E-01  0.0000000000000E+00  0.3768939269386E-01
 0.1227745622730E-01 -0.2942443283924E-01  0.0000000000000E+00 -0.9316099117800E-01
 0.1914634885607E-01 -0.3590716456049E-01  0.0000000000000E+00 -0.4970129308879E-01
 0.2575726308135E-01 -0.4216009370486E-01  0.0000000000000E+00 -0.1310609762665E-01
 0.3219450692905E-01 -0.4826122235277E-01  0.0000000000000E+00  0.1737016901722E-01
 0.3845786161713E-01 -0.5420601955113E-01  0.0000000000000E+00  0.4238385595949E-01
 0.4450590648305E-01 -0.5995002023544E-01  0.0000000000000E+00  0.6248054415025E-01
 0.5028731883907E-01 -0.6543962519305E-01  0.0000000000000E+00  0.7812187876845E-01
 0.5574998799007E-01 -0.7062117045568E-01  0.0000000000000E+00  0.8973356640292E-01
 0.6084404876770E-01 -0.7544418539732E-01  0.0000000000000E+00  0.9770944376520E-01
 0.6552881813844E-01 -0.7986826459449E-01  0.0000000000000E+00  0.1024134352748E+00
 0.6977690518762E-01 -0.8386682316907E-01  0.0000000000000E+00  0.1041851507705E+00
 0.7357123087327E-01 -0.8742337720226E-01  0.0000000000000E+00  0.1033434097835E+00
 0.7689599835669E-01 -0.9052180372696E-01  0.0000000000000E+00  0.1001885473669E+00
 0.7972783703106E-01 -0.9313722560517E-01  0.0000000000000E+00  0.9500202862475E-01
 0.8203018515759E-01 -0.9523063868954E-01  0.0000000000000E+00  0.8804675846032E-01
 0.8375008444422E-01 -0.9674561400559E-01  0.0000000000000E+00  0.7956008184168E-01
 0.8482214737381E-01 -0.9761162488392E-01  0.0000000000000E+00  0.6972606993996E-01
 0.8519972928106E-01 -0.9777324623995E-01  0.0000000000000E+00  0.5863003910839E-01
 0.8489145308850E-01 -0.9722613761170E-01  0.0000000000000E+00  0.4629853253094E-01
 0.8403152184173E-01 -0.9608559328659E-01  0.0000000000000E+00  0.3276044846423E-01
 0.1228219977112E-01 -0.3079014978324E-01  0.0000000000000E+00 -0.8832006549661E-01
 0.2027363302752E-01 -0.3832623319035E-01  0.0000000000000E+00 -0.4497561623593E-01
 0.2787967631680E-01 -0.4550836861379E-01  0.0000000000000E+00 -0.8437809582305E-02
 0.3518949040956E-01 -0.5242005141806E-01  0.0000000000000E+00  0.2197445290457E-01
 0.4221968473490E-01 -0.5907381644246E-01  0.0000000000000E+00  0.4687859929919E-01
 0.4894680668041E-01 -0.6544320351250E-01  0.0000000000000E+00  0.6680555602438E-01
 0.5533281805292E-01 -0.7148783461957E-01  0.0000000000000E+00  0.8221625899748E-01
 0.6133507614899E-01 -0.7716345183683E-01  0.0000000000000E+00  0.9353563465985E-01
 0.6691143682848E-01 -0.8242718820883E-01  0.0000000000000E+00  0.1011571033846E+00
 0.7202744209484E-01 -0.8724473424143E-01  0.0000000000000E+00  0.1054453101989E+00
 0.7666033099467E-01 -0.9159401358385E-01  0.0000000000000E+00  0.1067411466015E+00
 0.8079620593894E-01 -0.9546166228048E-01  0.0000000000000E+00  0.1053647621952E+00
 0.8442154309684E-01 -0.9883381976062E-01  0.0000000000000E+00  0.1016167225595E+00
 0.8751490806424E-01 -0.1016875137568E+00  0.0000000000000E+00  0.9577614921676E-01
 0.9004263416857E-01 -0.1039863251370E+00  0.0000000000000E+00  0.8809769875302E-01
 0.9195886091904E-01 -0.1056803828100E+00  0.0000000000000E+00  0.7880280400360E-01
 0.9321334584626E-01 -0.1067137172404E+00  0.0000000000000E+00  0.6805942158289E-01
 0.9377801313249E-01 -0.1070498579166E+00  0.0000000000000E+00  0.5595949619855E-01
 0.9367387550764E-01 -0.1066982595124E+00  0.0000000000000E+00  0.4256439319376E-01
 0.9300896308440E-01 -0.1057508874577E+00  0.0000000000000E+00  0.2797102172580E-01
 0.1229594819085E-01 -0.3215293943550E-01  0.0000000000000E+00 -0.8307705693031E-01
 0.2139671642015E-01 -0.4073046771305E-01  0.0000000000000E+00 -0.3992805238596E-01
 0.2999486550557E-01 -0.4884003160950E-01  0.0000000000000E+00 -0.3527852974635E-02
 0.3818286827639E-01 -0.5656890950491E-01  0.0000000000000E+00  0.2675212941493E-01
 0.4599055049658E-01 -0.6394307979621E-01  0.0000000000000E+00  0.5149400502103E-01
 0.5340945715339E-01 -0.7095115500045E-01  0.0000000000000E+00  0.7121209787602E-01
 0.6041362969502E-01 -0.7756487546274E-01  0.0000000000000E+00  0.8636278933619E-01
 0.6696970317430E-01 -0.8374925816236E-01  0.0000000000000E+00  0.9736834821716E-01
 0.7304323371263E-01 -0.8946908404803E-01  0.0000000000000E+00  0.1046209453464E+00
 0.7860598150343E-01 -0.9469616885791E-01  0.0000000000000E+00  0.1084853397807E+00
 0.8363985889565E-01 -0.9941300932276E-01  0.0000000000000E+00  0.1093030194975E+00
 0.8813437394998E-01 -0.1036095736611E+00  0.0000000000000E+00  0.1073944420268E+00
 0.9207888284329E-01 -0.1072748439595E+00  0.0000000000000E+00  0.1030589862687E+00
 0.9545529814226E-01 -0.1103891260402E+00  0.0000000000000E+00  0.9657181813684E-01
 0.9823520213003E-01 -0.1129211019107E+00  0.0000000000000E+00  0.8817949266157E-01
 0.1003820126353E+00 -0.1148299727708E+00  0.0000000000000E+00  0.7809216362258E-01
 0.1018600083981E+00 -0.1160742766550E+00  0.0000000000000E+00  0.6647077641450E-01
 0.1026556513018E+00 -0.1166326078836E+00  0.0000000000000E+00  0.5341872210586E-01
 0.1027966816891E+00 -0.1165223052708E+00  0.0000000000000E+00  0.3902508943725E-01
 0.1023707921525E+00 -0.1158171696605E+00  0.0000000000000E+00  0.2342522612678E-01
 0.1232563697720E-01 -0.3351995409203E-01  0.0000000000000E+00 -0.7744010894694E-01
 0.2252334067704E-01 -0.4312764347484E-01  0.0000000000000E+00 -0.3456008043394E-01
 0.3210904257092E-01 -0.5216114403605E-01  0.0000000000000E+00  0.1629664220525E-02
 0.4117812777878E-01 -0.6071102117369E-01  0.0000000000000E+00  0.3171417901614E-01
 0.4977114017697E-01 -0.6881416933555E-01  0.0000000000000E+00  0.5624362470594E-01
 0.5789222964954E-01 -0.7647191810306E-01  0.0000000000000E+00  0.7571489387759E-01
 0.6552628212841E-01 -0.8366693924002E-01  0.0000000000000E+00  0.9057725141093E-01
 0.7264878626924E-01 -0.9037315754426E-01  0.0000000000000E+00  0.1012488300514E+00
 0.7923283485981E-01 -0.9656288657150E-01  0.0000000000000E+00  0.1081197502854E+00
 0.8525637599674E-01 -0.1022140757019E+00  0.0000000000000E+00  0.1115542391789E+00
 0.9070612344635E-01 -0.1073139421176E+00  0.0000000000000E+00  0.1118937127001E+00
 0.9557537819340E-01 -0.1118561782975E+00  0.0000000000000E+00  0.1094581341886E+00
 0.9985716410790E-01 -0.1158333966961E+00  0.0000000000000E+00  0.1045449335362E+00
 0.1035380407726E+00 -0.1192305351885E+00  0.0000000000000E+00  0.9742515460607E-01
 0.1065964195246E+00 -0.1220231008641E+00  0.0000000000000E+00  0.8833886229879E-01
 0.1090058796468E+00 -0.1241805184342E+00  0.0000000000000E+00  0.7748928145732E-01
 0.1107440479814E+00 -0.1256749118483E+00  0.0000000000000E+00  0.6503577823412E-01
 0.1118093060125E+00 -0.1264974065004E+00  0.0000000000000E+00  0.5109385339290E-01
 0.1122340871612E+00 -0.1266710807744E+00  0.0000000000000E+00  0.3577355673036E-01
 0.1120925514770E+00 -0.1262580502465E+00  0.0000000000000E+00  0.1923097986943E-01
 0.1237736916202E-01 -0.3489738474751E-01  0.0000000000000E+00 -0.7141639759570E-01
 0.2365982521216E-01 -0.4552405233489E-01  0.0000000000000E+00 -0.2887391752036E-01
 0.3422721972149E-01 -0.5547657912742E-01  0.0000000000000E+00  0.7038634910669E-02
 0.4417802663312E-01 -0.6484891704958E-01  0.0000000000000E+00  0.3686925287361E-01
 0.5356174481183E-01 -0.7368709761435E-01  0.0000000000000E+00  0.6113897901620E-01
 0.6239319604381E-01 -0.8200325522810E-01  0.0000000000000E+00  0.8032706106003E-01
 0.7066693075743E-01 -0.8978984966056E-01  0.0000000000000E+00  0.9487400821600E-01
 0.7836674409636E-01 -0.9702920767177E-01  0.0000000000000E+00  0.1051927644839E+00
 0.8547301171371E-01 -0.1037009649648E+00  0.0000000000000E+00  0.1116707452144E+00
 0.9196982517946E-01 -0.1097891953264E+00  0.0000000000000E+00  0.1146710962672E+00
 0.9784887665645E-01 -0.1152860384088E+00  0.0000000000000E+00  0.1145346489866E+00
 0.1031077151058E+00 -0.1201893840019E+00  0.0000000000000E+00  0.1115804190463E+00
 0.1077438015575E+00 -0.1244962757772E+00  0.0000000000000E+00  0.1061037730592E+00
 0.1117493706465E+00 -0.1281973813197E+00  0.0000000000000E+00  0.9837230524686E-01
 0.1151106342404E+00 -0.1312761350062E+00  0.0000000000000E+00  0.8862164371740E-01
 0.1178115856090E+00 -0.1337126050785E+00  0.0000000000000E+00  0.7705153371133E-01
 0.1198421338315E+00 -0.1354915911799E+00  0.0000000000000E+00  0.6382294276382E-01
 0.1212110469157E+00 -0.1366152790581E+00  0.0000000000000E+00  0.4906275027275E-01
 0.1219551585821E+00 -0.1371121570190E+00  0.0000000000000E+00  0.3289693274900E-01
 0.1221412727888E+00 -0.1370386262213E+00  0.0000000000000E+00  0.1549290996474E-01
 0.1245662819409E-01 -0.3629071490604E-01  0.0000000000000E+00 -0.6501252041313E-01
 0.2481137572994E-01 -0.4792483621210E-01  0.0000000000000E+00 -0.2287225767564E-01
 0.3635337444561E-01 -0.5879017821322E-01  0.0000000000000E+00  0.1270150532346E-01
 0.4718460103039E-01 -0.6898443338043E-01  0.0000000000000E+00  0.4222411946169E-01
 0.5736220852336E-01 -0.7856145893390E-01  0.0000000000000E+00  0.6618972878210E-01
 0.6691009698396E-01 -0.8754261826880E-01  0.0000000000000E+00  0.8506004591717E-01
 0.7583137974766E-01 -0.9592908572188E-01  0.0000000000000E+00  0.9926584869051E-01
 0.8411755515175E-01 -0.1037110212923E+00  0.0000000000000E+00  0.1092142289034E+00
 0.9175597700140E-01 -0.1108751157035E+00  0.0000000000000E+00  0.1152894610357E+00
 0.9873682257147E-01 -0.1174115441750E+00  0.0000000000000E+00  0.1178532467454E+00
 0.1050569502228E+00 -0.1233175863532E+00  0.0000000000000E+00  0.1172455570821E+00
 0.1107185978675E+00 -0.1285958007176E+00  0.0000000000000E+00  0.1137843698829E+00
 0.1157243213245E+00 -0.1332483633221E+00  0.0000000000000E+00  0.1077633440026E+00
 0.1200727788514E+00 -0.1372724914817E+00  0.0000000000000E+00  0.9944771087369E-01
 0.1237585471484E+00 -0.1406602121555E+00  0.0000000000000E+00  0.8907068469738E-01
 0.1267760134081E+00 -0.1434023334997E+00  0.0000000000000E+00  0.7683118511106E-01
 0.1291265565477E+00 -0.1454956247249E+00  0.0000000000000E+00  0.6289373613156E-01
 0.1308285219269E+00 -0.1469525876134E+00  0.0000000000000E+00  0.4739561857828E-01
 0.1319235136664E+00 -0.1478075214626E+00  0.0000000000000E+00  0.3047528787313E-01
 0.1324757018265E+00 -0.1481156188447E+00  0.0000000000000E+00  0.1230761562365E-01
 0.1256842279603E-01 -0.3770489034869E-01  0.0000000000000E+00 -0.5823480371772E-01
 0.2598231532162E-01 -0.5033422900219E-01  0.0000000000000E+00 -0.1655816675878E-01
 0.3849061430973E-01 -0.6210491519696E-01  0.0000000000000E+00  0.1861960765777E-01
 0.5019922959201E-01 -0.7311876670798E-01  0.0000000000000E+00  0.4778397901645E-01
 0.6117193340282E-01 -0.8343642710243E-01  0.0000000000000E+00  0.7140382740809E-01
 0.7144034374230E-01 -0.9308714569180E-01  0.0000000000000E+00  0.8992360460358E-01
 0.8101510871762E-01 -0.1020798087315E+00  0.0000000000000E+00  0.1037638651958E+00
 0.8989480557635E-01 -0.1104118159241E+00  0.0000000000000E+00  0.1133255328281E+00
 0.9807343384292E-01 -0.1180766153032E+00  0.0000000000000E+00  0.1189895564879E+00
 0.1055471824751E+00 -0.1250704441430E+00  0.0000000000000E+00  0.1211160644251E+00
 0.1123182439273E+00 -0.1313959237933E+00  0.0000000000000E+00  0.1200441523097E+00
 0.1183939256585E+00 -0.1370606987993E+00  0.0000000000000E+00  0.1160909786817E+00
 0.1237823953675E+00 -0.1420726421255E+00  0.0000000000000E+00  0.1095491490424E+00
 0.1284892492535E+00 -0.1464360989184E+00  0.0000000000000E+00  0.1006827728977E+00
 0.1325177310095E+00 -0.1501520695032E+00  0.0000000000000E+00  0.8972449231568E-01
 0.1358724872025E+00 -0.1532220515248E+00  0.0000000000000E+00  0.7687448367686E-01
 0.1385657825618E+00 -0.1556542794940E+00  0.0000000000000E+00  0.6230218590993E-01
 0.1406251729780E+00 -0.1574712677558E+00  0.0000000000000E+00  0.4615455407277E-01
 0.1420976812251E+00 -0.1587138326263E+00  0.0000000000000E+00  0.2858021381285E-01
 0.1430477174466E+00 -0.1594388543025E+00  0.0000000000000E+00  0.9759541393782E-02
 0.1271738689896E-01 -0.3914444037214E-01  0.0000000000000E+00 -0.5108955299891E-01
 0.2717626629211E-01 -0.5275574991393E-01  0.0000000000000E+00 -0.9935058523267E-02
 0.4064133298129E-01 -0.6542305569631E-01  0.0000000000000E+00  0.2479336008386E-01
 0.5322272785412E-01 -0.7725256686652E-01  0.0000000000000E+00  0.5355268341213E-01
 0.6498992796811E-01 -0.8831080107717E-01  0.0000000000000E+00  0.7678764978653E-01
 0.7598105443188E-01 -0.9863369789088E-01  0.0000000000000E+00  0.9492581058771E-01
 0.8621331826206E-01 -0.1082369090055E+00  0.0000000000000E+00  0.1083773726430E+00
 0.9569174597291E-01 -0.1171244737774E+00  0.0000000000000E+00  0.1175370853059E+00
 0.1044166345201E+00 -0.1252962826224E+00  0.0000000000000E+00  0.1227826461289E+00
 0.1123900908090E+00 -0.1327545760185E+00  0.0000000000000E+00  0.1244727266283E+00
 0.1196197718343E+00 -0.1395074834152E+00  0.0000000000000E+00  0.1229457777268E+00
 0.1261183565028E+00 -0.1455680765470E+00  0.0000000000000E+00  0.1185185939653E+00
 0.1319000054586E+00 -0.1509503524355E+00  0.0000000000000E+00  0.1114835494693E+00
 0.1369775831072E+00 -0.1556661691916E+00  0.0000000000000E+00  0.1021048877761E+00
 0.1413631274025E+00 -0.1597256891625E+00  0.0000000000000E+00  0.9061630950173E-01
 0.1450713502306E+00 -0.1631409684753E+00  0.0000000000000E+00  0.7722094397163E-01
 0.1481249606706E+00 -0.1659313259025E+00  0.0000000000000E+00  0.6209425979145E-01
 0.1505605797656E+00 -0.1681291948266E+00  0.0000000000000E+00  0.4539264348796E-01
 0.1524313783522E+00 -0.1697826945888E+00  0.0000000000000E+00  0.2727386449728E-01
 0.1538038008857E+00 -0.1709523656807E+00  0.0000000000000E+00  0.7922730600713E-02
 0.1290785554517E-01 -0.4061357240439E-01  0.0000000000000E+00 -0.4358323378209E-01
 0.2839630229456E-01 -0.5519236695269E-01  0.0000000000000E+00 -0.3006681146239E-02
 0.4280736067018E-01 -0.6874631291412E-01  0.0000000000000E+00  0.3122240990361E-01
 0.5625546282736E-01 -0.8138605302643E-01  0.0000000000000E+00  0.5953290257863E-01
 0.6881488799651E-01 -0.9318308590496E-01  0.0000000000000E+00  0.8234609914370E-01
 0.8052912010668E-01 -0.1041789236763E+00  0.0000000000000E+00  0.1000730694163E+00
 0.9142099657616E-01 -0.1143950740328E+00  0.0000000000000E+00  0.1131138432431E+00
 0.1015013630728E+00 -0.1238416158476E+00  0.0000000000000E+00  0.1218572689818E+00
 0.1107764555425E+00 -0.1325245565275E+00  0.0000000000000E+00  0.1266781179069E+00
 0.1192541842007E+00 -0.1404520600717E+00  0.0000000000000E+00  0.1279339564281E+00
 0.1269477576765E+00 -0.1476378876731E+00  0.0000000000000E+00  0.1259630336130E+00
 0.1338754490961E+00 -0.1541007999795E+00  0.0000000000000E+00  0.1210824034719E+00
 0.1400576747472E+00 -0.1598612233392E+00  0.0000000000000E+00  0.1135851070626E+00
 0.1455147549244E+00 -0.1649387627979E+00  0.0000000000000E+00  0.1037367190850E+00
 0.1502675228491E+00 -0.1693527919421E+00  0.0000000000000E+00  0.9177342228264E-01
 0.1543405093964E+00 -0.1731257265119E+00  0.0000000000000E+00  0.7790272116850E-01
 0.1577664727714E+00 -0.1762876186090E+00  0.0000000000000E+00  0.6230713500345E-01
 0.1605909786892E+00 -0.1788807347839E+00  0.0000000000000E+00  0.4515273273437E-01
 0.1628739195147E+00 -0.1809611078929E+00  0.0000000000000E+00  0.2660651403002E-01
 0.1646853418483E+00 -0.1825945434204E+00  0.0000000000000E+00  0.6857705799855E-02
 0.1314392176961E-01 -0.4211624353863E-01  0.0000000000000E+00 -0.3572262576516E-01
 0.2964507592089E-01 -0.5764663362108E-01  0.0000000000000E+00  0.4222865652053E-02
 0.4499010258566E-01 -0.7207599051058E-01  0.0000000000000E+00  0.3790571415631E-01
 0.5929747099162E-01 -0.8551913310599E-01  0.0000000000000E+00  0.6572622944546E-01
 0.7264528957179E-01 -0.9805158579042E-01  0.0000000000000E+00  0.8808267390439E-01
 0.8508128306709E-01 -0.1097193384938E+00  0.0000000000000E+00  0.1053701174929E+00
 0.9663299391478E-01 -0.1205488633659E+00  0.0000000000000E+00  0.1179788383825E+00
 0.1073164563905E+00 -0.1305556795672E+00  0.0000000000000E+00  0.1262923133695E+00
 0.1171434802876E+00 -0.1397515796181E+00  0.0000000000000E+00  0.1306829482095E+00
 0.1261276456004E+00 -0.1481505522771E+00  0.0000000000000E+00  0.1315077677664E+00
 0.1342877588960E+00 -0.1557720727902E+00  0.0000000000000E+00  0.1291054347772E+00
 0.1416478405024E+00 -0.1626407808812E+00  0.0000000000000E+00  0.1237939959299E+00
 0.1482347281272E+00 -0.1687837362091E+00  0.0000000000000E+00  0.1158680705145E+00
 0.1540762751169E+00 -0.1742284064753E+00  0.0000000000000E+00  0.1055956595740E+00
 0.1592020122030E+00 -0.1790033162710E+00  0.0000000000000E+00  0.9321664771342E-01
 0.1636459827176E+00 -0.1831409692131E+00  0.0000000000000E+00  0.7894410790780E-01
 0.1674505696515E+00 -0.1866817555848E+00  0.0000000000000E+00  0.6296854791531E-01
 0.1706700521781E+00 -0.1896775598703E+00  0.0000000000000E+00  0.4546626119308E-01
 0.1733713526625E+00 -0.1921926228325E+00  0.0000000000000E+00  0.2661414209848E-01
 0.1756295007940E+00 -0.1942993009627E+00  0.0000000000000E+00  0.6606845572396E-02
 0.1342948234804E-01 -0.4365622336897E-01  0.0000000000000E+00 -0.2751492533833E-01
 0.3092493419886E-01 -0.6012081572553E-01  0.0000000000000E+00  0.1174912270340E-01
 0.4719067537628E-01 -0.7541312635687E-01  0.0000000000000E+00  0.4484160105888E-01
 0.6234858721621E-01 -0.8965153714392E-01  0.0000000000000E+00  0.7213325854611E-01
 0.7647950195893E-01 -0.1029145198325E+00  0.0000000000000E+00  0.9399951689818E-01
 0.8963423800511E-01 -0.1152514277942E+00  0.0000000000000E+00  0.1108200166686E+00
 0.1018441194712E+00 -0.1266928076707E+00  0.0000000000000E+00  0.1229759452609E+00
 0.1131297372127E+00 -0.1372590200792E+00  0.0000000000000E+00  0.1308461766704E+00
 0.1235081066568E+00 -0.1469673081643E+00  0.0000000000000E+00  0.1348015290448E+00
 0.1329983303832E+00 -0.1558373725609E+00  0.0000000000000E+00  0.1351992334831E+00
 0.1416248265383E+00 -0.1638944509414E+00  0.0000000000000E+00  0.1323791152301E+00
 0.1494174600868E+00 -0.1711691941561E+00  0.0000000000000E+00  0.1266610082718E+00
 0.1564095807314E+00 -0.1776954193650E+00  0.0000000000000E+00  0.1183419883651E+00
 0.1626365671516E+00 -0.1835084807715E+00  0.0000000000000E+00  0.1076934458093E+00
 0.1681364696676E+00 -0.1886459043946E+00  0.0000000000000E+00  0.9495997600848E-01
 0.1729524722146E+00 -0.1931499333480E+00  0.0000000000000E+00  0.8036118365079E-01
 0.1771360892031E+00 -0.1970708175462E+00  0.0000000000000E+00  0.6409635768366E-01
 0.1807499286458E+00 -0.2004696685737E+00  0.0000000000000E+00  0.4635260112111E-01
 0.1838679594973E+00 -0.2034188983741E+00  0.0000000000000E+00  0.2731754734166E-01
 0.1865711437668E+00 -0.2059982087334E+00  0.0000000000000E+00  0.7192978817148E-02
 0.1376827611063E-01 -0.4523714680155E-01  0.0000000000000E+00 -0.1896781808363E-01
 0.3223802358587E-01 -0.6261700653040E-01  0.0000000000000E+00  0.1956726848212E-01
 0.4941003852135E-01 -0.7875863036680E-01  0.0000000000000E+00  0.5202781428180E-01
 0.6540857602119E-01 -0.9378295251986E-01  0.0000000000000E+00  0.7875363923161E-01
 0.8031590834640E-01 -0.1077701452166E+00  0.0000000000000E+00  0.1000974430548E+00
 0.9418474305344E-01 -0.1207717598115E+00  0.0000000000000E+00  0.1164241365962E+00
 0.1070492480390E+00 -0.1328215169154E+00  0.0000000000000E+00  0.1281067097007E+00
 0.1189339373124E+00 -0.1439440205442E+00  0.0000000000000E+00  0.1355204306784E+00
 0.1298606657658E+00 -0.1541616325555E+00  0.0000000000000E+00  0.1390355068295E+00
 0.1398539057741E+00 -0.1634996462959E+00  0.0000000000000E+00  0.1390102793806E+00
 0.1489436796824E+00 -0.1719890874979E+00  0.0000000000000E+00  0.1357865819219E+00
 0.1571657555301E+00 -0.1796667082360E+00  0.0000000000000E+00  0.1296868516685E+00
 0.1645600314755E+00 -0.1865731486613E+00  0.0000000000000E+00  0.1210114302505E+00
 0.1711693411711E+00 -0.1927516042457E+00  0.0000000000000E+00  0.1100359026804E+00
 0.1770400133003E+00 -0.1982483812575E+00  0.0000000000000E+00  0.9701035795071E-01
 0.1822239394337E+00 -0.2031150423955E+00  0.0000000000000E+00  0.8216164234794E-01
 0.1867811968223E+00 -0.2074111295074E+00  0.0000000000000E+00  0.6569839867561E-01
 0.1907821922546E+00 -0.2112064265206E+00  0.0000000000000E+00  0.4781899646592E-01
 0.1943076745444E+00 -0.2145811766367E+00  0.0000000000000E+00  0.2872259406617E-01
 0.1974448936080E+00 -0.2176226209173E+00  0.0000000000000E+00  0.8620039419191E-02
 0.1416391597121E-01 -0.4686256202004E-01  0.0000000000000E+00 -0.1008952278474E-01
 0.3358638866057E-01 -0.6513723649705E-01  0.0000000000000E+00  0.2767211610641E-01
 0.5164912338479E-01 -0.8211342113160E-01  0.0000000000000E+00  0.5946153902851E-01
 0.6847726623885E-01 -0.9791316367882E-01  0.0000000000000E+00  0.8558610395346E-01
 0.8415303439661E-01 -0.1126168892167E+00  0.0000000000000E+00  0.1063759449872E+00
 0.9872974064653E-01 -0.1262771089538E+00  0.0000000000000E+00  0.1221821231140E+00
 0.1122434367672E+00 -0.1389297992465E+00  0.0000000000000E+00  0.1333705641775E+00
 0.1247219275932E+00 -0.1506032128473E+00  0.0000000000000E+00  0.1403141505325E+00
 0.1361915506049E+00 -0.1613245082222E+00  0.0000000000000E+00  0.1433836378134E+00
 0.1466820000829E+00 -0.1711244563008E+00  0.0000000000000E+00  0.1429395110675E+00
 0.1562288880535E+00 -0.1800398873867E+00  0.0000000000000E+00  0.1393265225889E+00
 0.1648739226925E+00 -0.1881137203685E+00  0.0000000000000E+00  0.1328705163289E+00
 0.1726635534034E+00 -0.1953934457099E+00  0.0000000000000E+00  0.1238758111013E+00
 0.1796479566310E+00 -0.2019300070651E+00  0.0000000000000E+00  0.1126228124137E+00
 0.1858814528200E+00 -0.2077782167335E+00  0.0000000000000E+00  0.9936764155735E-01
 0.1914241603033E+00 -0.2129984796552E+00  0.0000000000000E+00  0.8434481679844E-01
 0.1963440875769E+00 -0.2176589870906E+00  0.0000000000000E+00  0.6777263294976E-01
 0.2007187878385E+00 -0.2218375055702E+00  0.0000000000000E+00  0.4986095766173E-01
 0.2046352668426E+00 -0.2256215064482E+00  0.0000000000000E+00  0.3082106574363E-01
 0.2081868071804E+00 -0.2291053733820E+00  0.0000000000000E+00  0.1087467388143E-01
 0.1461991976615E-01 -0.4853597732866E-01  0.0000000000000E+00 -0.8887958489260E-03
 0.3497206924532E-01 -0.6768358202756E-01  0.0000000000000E+00  0.3605813289607E-01
 0.5390896423454E-01 -0.8547856508187E-01  0.0000000000000E+00  0.6713943252212E-01
 0.7155469208170E-01 -0.1020421988553E+00  0.0000000000000E+00  0.9262849022368E-01
 0.8798968676109E-01 -0.1174534916930E+00  0.0000000000000E+00  0.1128331897766E+00
 0.1032664901691E+00 -0.1317645914211E+00  0.0000000000000E+00  0.1280918608942E+00
 0.1174220541448E+00 -0.1450127924450E+00  0.0000000000000E+00  0.1387647557097E+00
 0.1304868487148E+00 -0.1572294106063E+00  0.0000000000000E+00  0.1452238117726E+00
 0.1424913560222E+00 -0.1684460982679E+00  0.0000000000000E+00  0.1478416608337E+00
 0.1534703618645E+00 -0.1786990052960E+00  0.0000000000000E+00  0.1469820715942E+00
 0.1634650616896E+00 -0.1880307891825E+00  0.0000000000000E+00  0.1429936612550E+00
 0.1725231375990E+00 -0.1964905947452E+00  0.0000000000000E+00  0.1362064428196E+00
 0.1806975792764E+00 -0.2041327719559E+00  0.0000000000000E+00  0.1269293009159E+00
 0.1880457721106E+00 -0.2110158922089E+00  0.0000000000000E+00  0.1154478885705E+00
 0.1946297153244E+00 -0.2172029661826E+00  0.0000000000000E+00  0.1020246385635E+00
 0.2005172433205E+00 -0.2227627254626E+00  0.0000000000000E+00  0.8690187445706E-01
 0.2057836209292E+00 -0.2277713160685E+00  0.0000000000000E+00  0.7030753480594E-01
 0.2105127994009E+00 -0.2323136940571E+00  0.0000000000000E+00  0.5246292893816E-01
 0.2147972998546E+00 -0.2364837356435E+00  0.0000000000000E+00  0.3359173682766E-01
 0.2187356811736E+00 -0.2403820861267E+00  0.0000000000000E+00  0.1392787514181E-01
 0.1513973882549E-01 -0.5026090522152E-01  0.0000000000000E+00  0.8625083086841E-02
 0.3639719514842E-01 -0.7025827136046E-01  0.0000000000000E+00  0.4471946058083E-01
 0.5619082840852E-01 -0.8885541443010E-01  0.0000000000000E+00  0.7505764157140E-01
 0.7464123549665E-01 -0.1061704777712E+00  0.0000000000000E+00  0.9987774290039E-01
 0.9182509447455E-01 -0.1222791501944E+00  0.0000000000000E+00  0.1194659961354E+00
 0.1077927039922E+00 -0.1372318039513E+00  0.0000000000000E+00  0.1341494215640E+00
 0.1225809119340E+00 -0.1510660980940E+00  0.0000000000000E+00  0.1442842670849E+00
 0.1362222436072E+00 -0.1638158438877E+00  0.0000000000000E+00  0.1502431906315E+00
 0.1487510189912E+00 -0.1755169163087E+00  0.0000000000000E+00  0.1524021853913E+00
 0.1602070169463E+00 -0.1862107762822E+00  0.0000000000000E+00  0.1511295288577E+00
 0.1706370347871E+00 -0.1959459535457E+00  0.0000000000000E+00  0.1467786599838E+00
 0.1800947773173E+00 -0.2047778897332E+00  0.0000000000000E+00  0.1396844572401E+00
 0.1886397691321E+00 -0.2127678048935E+00  0.0000000000000E+00  0.1301608163191E+00
 0.1963364684241E+00 -0.2199817701063E+00  0.0000000000000E+00  0.1184988504927E+00
 0.2032542326243E+00 -0.2264906727556E+00  0.0000000000000E+00  0.1049673132706E+00
 0.2094680903913E+00 -0.2323710372504E+00  0.0000000000000E+00  0.8981616243569E-01
 0.2150598676616E+00 -0.2377062423661E+00  0.0000000000000E+00  0.7328265426373E-01
 0.2201191037851E+00 -0.2425875769127E+00  0.0000000000000E+00  0.5559914548910E-01
 0.2247429298915E+00 -0.2471143353831E+00  0.0000000000000E+00  0.3700158070545E-01
 0.2290341108384E+00 -0.2513922254935E+00  0.0000000000000E+00  0.1773670319169E-01
 0.1572678758809E-01 -0.5204090851391E-01  0.0000000000000E+00  0.1844236044769E-01
 0.3786408302453E-01 -0.7286379343188E-01  0.0000000000000E+00  0.5364995416216E-01
 0.5849635056299E-01 -0.9224574996933E-01  0.0000000000000E+00  0.8321182373318E-01
 0.7773777462541E-01 -0.1102989661222E+00  0.0000000000000E+00  0.1073299105338E+00
 0.9565905774065E-01 -0.1270936730409E+00  0.0000000000000E+00  0.1262698025016E+00
 0.1123066911561E+00 -0.1426769707164E+00  0.0000000000000E+00  0.1403490047571E+00
 0.1277164040562E+00 -0.1570859231353E+00  0.0000000000000E+00  0.1499217362666E+00
 0.1419221954478E+00 -0.1703562997896E+00  0.0000000000000E+00  0.1553632701785E+00
 0.1549619620533E+00 -0.1825279728881E+00  0.0000000000000E+00  0.1570545954279E+00
 0.1668804253448E+00 -0.1936476932240E+00  0.0000000000000E+00  0.1553697905012E+00
 0.1777300448646E+00 -0.2037699473905E+00  0.0000000000000E+00  0.1506680613992E+00
 0.1875706300627E+00 -0.2129565746931E+00  0.0000000000000E+00  0.1432897612645E+00
 0.1964682592922E+00 -0.2212756960021E+00  0.0000000000000E+00  0.1335540813887E+00
 0.2044943433469E+00 -0.2288007650302E+00  0.0000000000000E+00  0.1217575816051E+00
 0.2117252868740E+00 -0.2356102280679E+00  0.0000000000000E+00  0.1081750695033E+00
 0.2182427969586E+00 -0.2417878682938E+00  0.0000000000000E+00  0.9306366261315E-01
 0.2241345662050E+00 -0.2474235710005E+00  0.0000000000000E+00  0.7666929486645E-01
 0.2294948986162E+00 -0.2526140833437E+00  0.0000000000000E+00  0.5923463202320E-01
 0.2344245565850E+00 -0.2574630716526E+00  0.0000000000000E+00  0.4100719893378E-01
 0.2390292648541E+00 -0.2620799238101E+00  0.0000000000000E+00  0.2224638406872E-01
 0.1638447516028E-01 -0.5387964843633E-01  0.0000000000000E+00  0.2855288585882E-01
 0.3937533604638E-01 -0.7550300957839E-01  0.0000000000000E+00  0.6284323354001E-01
 0.6082767081283E-01 -0.9565192772853E-01  0.0000000000000E+00  0.9159716748919E-01
 0.8084583682473E-01 -0.1144293345571E+00  0.0000000000000E+00  0.1149801317944E+00
 0.9949210125806E-01 -0.1318976368577E+00  0.0000000000000E+00  0.1332386222117E+00
 0.1168075048168E+00 -0.1480990938829E+00  0.0000000000000E+00  0.1466828682037E+00
 0.1328256477699E+00 -0.1630692236222E+00  0.0000000000000E+00  0.1556673700605E+00
 0.1475814657998E+00 -0.1768452631081E+00  0.0000000000000E+00  0.1605721482923E+00
 0.1611162340607E+00 -0.1894709191537E+00  0.0000000000000E+00  0.1617849643898E+00
 0.1734796317166E+00 -0.2009982752644E+00  0.0000000000000E+00  0.1596870409851E+00
 0.1847299005428E+00 -0.2114879166762E+00  0.0000000000000E+00  0.1546442651719E+00
 0.1949330876280E+00 -0.2210082290961E+00  0.0000000000000E+00  0.1470029683021E+00
 0.2041618858429E+00 -0.2296343030326E+00  0.0000000000000E+00  0.1370877466295E+00
 0.2124945710217E+00 -0.2374468859246E+00  0.0000000000000E+00  0.1252003570633E+00
 0.2200143085970E+00 -0.2445316846705E+00  0.0000000000000E+00  0.1116211157283E+00
 0.2268089874335E+00 -0.2509792212727E+00  0.0000000000000E+00  0.9661352745700E-01
 0.2329714906387E+00 -0.2568851745554E+00  0.0000000000000E+00  0.8043126796383E-01
 0.2386000806500E+00 -0.2623508925536E+00  0.0000000000000E+00  0.6332627381990E-01
 0.2437982059618E+00 -0.2674833957086E+00  0.0000000000000E+00  0.4555658086981E-01
 0.2486730871706E+00 -0.2723942627885E+00  0.0000000000000E+00  0.2739339169922E-01
 0.1711624004639E-01 -0.5578093607802E-01  0.0000000000000E+00  0.3894621773907E-01
 0.4093394806260E-01 -0.7817926978965E-01  0.0000000000000E+00  0.7229274851629E-01
 0.6318757811450E-01 -0.9907703085109E-01  0.0000000000000E+00  0.1002084117877E+00
 0.8396775683044E-01 -0.1185641227245E+00  0.0000000000000E+00  0.1228226119248E+00
 0.1033256317819E+00 -0.1366925482410E+00  0.0000000000000E+00  0.1403649851545E+00
 0.1212950923936E+00 -0.1534981067527E+00  0.0000000000000E+00  0.1531412457162E+00
 0.1379066254768E+00 -0.1690138489787E+00  0.0000000000000E+00  0.1615088503522E+00
 0.1531956307380E+00 -0.1832780548853E+00  0.0000000000000E+00  0.1658549451409E+00
 0.1672066456094E+00 -0.1963381851398E+00  0.0000000000000E+00  0.1665759783664E+00
 0.1799944063704E+00 -0.2082517814298E+00  0.0000000000000E+00  0.1640616963255E+00
 0.1916231346889E+00 -0.2190857444797E+00  0.0000000000000E+00  0.1586855321890E+00
 0.2021653166931E+00 -0.2289152203712E+00  0.0000000000000E+00  0.1508001772758E+00
 0.2117003790486E+00 -0.2378223929492E+00  0.0000000000000E+00  0.1407355549311E+00
 0.2203134228266E+00 -0.2458952581602E+00  0.0000000000000E+00  0.1287981263581E+00
 0.2280941248037E+00 -0.2532265178839E+00  0.0000000000000E+00  0.1152728898519E+00
 0.2351360877556E+00 -0.2599129373748E+00  0.0000000000000E+00  0.1004286734279E+00
 0.2415367346281E+00 -0.2660552982959E+00  0.0000000000000E+00  0.8452568401029E-01
 0.2473975157707E+00 -0.2717587241583E+00  0.0000000000000E+00  0.6782384121151E-01
 0.2528236544662E+00 -0.2771326180509E+00  0.0000000000000E+00  0.5059034801741E-01
 0.2579224898142E+00 -0.2822893113997E+00  0.0000000000000E+00  0.3310658920865E-01
 0.1792558962634E-01 -0.5774878910542E-01  0.0000000000000E+00  0.4961176118285E-01
 0.4254341438600E-01 -0.8089653589175E-01  0.0000000000000E+00  0.8199186023032E-01
 0.6557966087791E-01 -0.1025250288500E+00  0.0000000000000E+00  0.1090398670208E+00
 0.8710684142413E-01 -0.1227069098858E+00  0.0000000000000E+00  0.1308505901946E+00
 0.1071621004809E+00 -0.1414810102189E+00  0.0000000000000E+00  0.1476398659241E+00
 0.1257704482558E+00 -0.1588750294052E+00  0.0000000000000E+00  0.1597122523084E+00
 0.1429583264149E+00 -0.1749186860807E+00  0.0000000000000E+00  0.1674312313978E+00
 0.1587612137594E+00 -0.1896509676640E+00  0.0000000000000E+00  0.1711937078018E+00
 0.1732268975936E+00 -0.2031231110888E+00  0.0000000000000E+00  0.1714068638871E+00
 0.1864153750031E+00 -0.2153983439683E+00  0.0000000000000E+00  0.1684703716656E+00
 0.1983971409079E+00 -0.2265501922829E+00  0.0000000000000E+00  0.1627660096946E+00
 0.2092514068737E+00 -0.2366608582653E+00  0.0000000000000E+00  0.1546530749660E+00
 0.2190645265624E+00 -0.2458198132525E+00  0.0000000000000E+00  0.1444665427731E+00
 0.2279284478154E+00 -0.2541223141879E+00  0.0000000000000E+00  0.1325168363232E+00
 0.2359391567072E+00 -0.2616678360302E+00  0.0000000000000E+00  0.1190925265460E+00
 0.2431955363631E+00 -0.2685589226718E+00  0.0000000000000E+00  0.1044664127753E+00
 0.2497989270942E+00 -0.2749007928946E+00  0.0000000000000E+00  0.8890376243302E-01
 0.2558532341722E+00 -0.2808015569804E+00  0.0000000000000E+00  0.7267097075762E-01
 0.2614646337042E+00 -0.2863721093091E+00  0.0000000000000E+00  0.5604274616891E-01
 0.2667394916182E+00 -0.2917243545952E+00  0.0000000000000E+00  0.3930828795448E-01
 0.1881614604315E-01 -0.5978749537766E-01  0.0000000000000E+00  0.6053894039056E-01
 0.4420785119903E-01 -0.8365951351219E-01  0.0000000000000E+00  0.9193394065362E-01
 0.6800846659392E-01 -0.1060009459237E+00  0.0000000000000E+00  0.1180854379506E+00
 0.9026754166765E-01 -0.1268624930200E+00  0.0000000000000E+00  0.1390562975443E+00
 0.1110051702329E+00 -0.1462668935248E+00  0.0000000000000E+00  0.1550525967475E+00
 0.1302357682992E+00 -0.1642321260593E+00  0.0000000000000E+00  0.1663817741027E+00
 0.1479808869947E+00 -0.1807838017820E+00  0.0000000000000E+00  0.1734168252377E+00
 0.1642758138079E+00 -0.1959613956447E+00  0.0000000000000E+00  0.1765673084249E+00
 0.1791717009624E+00 -0.2098200697595E+00  0.0000000000000E+00  0.1762533159160E+00
 0.1927341351728E+00 -0.2224290882001E+00  0.0000000000000E+00  0.1728858559859E+00
 0.2050402914562E+00 -0.2338690224235E+00  0.0000000000000E+00  0.1668557699444E+00
 0.2161764937277E+00 -0.2442295238017E+00  0.0000000000000E+00  0.1585290571658E+00
 0.2262363038336E+00 -0.2536076299473E+00  0.0000000000000E+00  0.1482452643244E+00
 0.2353186115862E+00 -0.2621059417054E+00  0.0000000000000E+00  0.1363177797707E+00
 0.2435255666311E+00 -0.2698305386004E+00  0.0000000000000E+00  0.1230373508337E+00
 0.2509609367018E+00 -0.2768893137664E+00  0.0000000000000E+00  0.1086791072227E+00
 0.2577293829535E+00 -0.2833912811639E+00  0.0000000000000E+00  0.9351165356586E-01
 0.2639365793338E+00 -0.2894467915652E+00  0.0000000000000E+00  0.7780615295998E-01
 0.2696889842059E+00 -0.2951674803707E+00  0.0000000000000E+00  0.6184291630767E-01
 0.2750913124439E+00 -0.3006640422824E+00  0.0000000000000E+00  0.4591609573746E-01
 0.1979169939474E-01 -0.6190168297883E-01  0.0000000000000E+00  0.7171739980108E-01
 0.4593212438886E-01 -0.8647379276203E-01  0.0000000000000E+00  0.1021124849979E+00
 0.7047967080199E-01 -0.1095110376666E+00  0.0000000000000E+00  0.1273386422410E+00
 0.9345563183440E-01 -0.1310370706918E+00  0.0000000000000E+00  0.1474308974641E+00
 0.1148598857384E+00 -0.1510555097701E+00  0.0000000000000E+00  0.1625907580362E+00
 0.1346946032545E+00 -0.1695730602863E+00  0.0000000000000E+00  0.1731333360886E+00
 0.1529757259011E+00 -0.1866105793628E+00  0.0000000000000E+00  0.1794450684949E+00
 0.1697382241186E+00 -0.2022079548654E+00  0.0000000000000E+00  0.1819513292522E+00
 0.1850368832746E+00 -0.2164245747928E+00  0.0000000000000E+00  0.1810874191731E+00
 0.1989433552966E+00 -0.2293362342056E+00  0.0000000000000E+00  0.1772770864400E+00
 0.2115420328010E+00 -0.2410310975288E+00  0.0000000000000E+00  0.1709208535310E+00
 0.2229268534768E+00 -0.2516067692547E+00  0.0000000000000E+00  0.1623913577428E+00
 0.2331989689999E+00 -0.2611682291373E+00  0.0000000000000E+00  0.1520320250097E+00
 0.2424643912975E+00 -0.2698255868220E+00  0.0000000000000E+00  0.1401579541405E+00
 0.2508313527754E+00 -0.2776914205397E+00  0.0000000000000E+00  0.1270603815783E+00
 0.2584081505213E+00 -0.2848785822899E+00  0.0000000000000E+00  0.1130148305810E+00
 0.2653021918073E+00 -0.2914992594700E+00  0.0000000000000E+00  0.9829126542171E-01
 0.2716202810244E+00 -0.2976653409982E+00  0.0000000000000E+00  0.8316374910583E-01
 0.2774686720712E+00 -0.3034886274057E+00  0.0000000000000E+00  0.6791619957029E-01
 0.2829502762024E+00 -0.3090783253306E+00  0.0000000000000E+00  0.5284466467045E-01
 0.2085627055505E-01 -0.6409640238788E-01  0.0000000000000E+00  0.8313725296584E-01
 0.4772199248861E-01 -0.8934600432285E-01  0.0000000000000E+00  0.1125212496204E+00
 0.7300026056089E-01 -0.1130629834341E+00  0.0000000000000E+00  0.1367926338631E+00
 0.9667840030453E-01 -0.1352384397707E+00  0.0000000000000E+00  0.1559644163593E+00
 0.1187328512782E+00 -0.1558537929962E+00  0.0000000000000E+00  0.1702400509945E+00
 0.1391520151073E+00 -0.1749030539162E+00  0.0000000000000E+00  0.1799479512233E+00
 0.1579456779798E+00 -0.1924018541984E+00  0.0000000000000E+00  0.1854923733684E+00
 0.1751485456240E+00 -0.2083905982560E+00  0.0000000000000E+00  0.1873179367350E+00
 0.1908194856802E+00 -0.2229333797210E+00  0.0000000000000E+00  0.1858775644820E+00
 0.2050368599161E+00 -0.2361131849248E+00  0.0000000000000E+00  0.1816091231906E+00
 0.2178929628506E+00 -0.2480264616948E+00  0.0000000000000E+00  0.1749233167799E+00
 0.2294899737607E+00 -0.2587793941199E+00  0.0000000000000E+00  0.1661991826761E+00
 0.2399371266307E+00 -0.2684853872250E+00  0.0000000000000E+00  0.1557831186555E+00
 0.2493478308464E+00 -0.2772623167367E+00  0.0000000000000E+00  0.1439904214366E+00
 0.2578363947743E+00 -0.2852292261256E+00  0.0000000000000E+00  0.1311108354041E+00
 0.2655153340737E+00 -0.2925035801381E+00  0.0000000000000E+00  0.1174180340585E+00
 0.2724942421962E+00 -0.2992001332129E+00  0.0000000000000E+00  0.1031811002411E+00
 0.2788804473738E+00 -0.3054316397308E+00  0.0000000000000E+00  0.8867501082986E-01
 0.2847796926804E+00 -0.3113096606310E+00  0.0000000000000E+00  0.7418537733834E-01
 0.2902935550047E+00 -0.3169422327387E+00  0.0000000000000E+00  0.6000727474185E-01
 0.2201418594886E-01 -0.6637721835007E-01  0.0000000000000E+00  0.9478936740520E-01
 0.4958426431698E-01 -0.9228398861843E-01  0.0000000000000E+00  0.1231544093454E+00
 0.7557873251094E-01 -0.1166660913486E+00  0.0000000000000E+00  0.1464402232356E+00
 0.9994485061482E-01 -0.1394762004101E+00  0.0000000000000E+00  0.1646456529236E+00
 0.1226324123734E+00 -0.1606704833049E+00  0.0000000000000E+00  0.1779841403782E+00
 0.1436147312988E+00 -0.1802290419741E+00  0.0000000000000E+00  0.1868039384109E+00
 0.1628951204670E+00 -0.1981620400814E+00  0.0000000000000E+00  0.1915319499893E+00
 0.1805082878259E+00 -0.2145107165346E+00  0.0000000000000E+00  0.1926357316787E+00
 0.1965178431067E+00 -0.2293445586504E+00  0.0000000000000E+00  0.1905883469613E+00
 0.2110096944855E+00 -0.2427545923684E+00  0.0000000000000E+00  0.1858431111887E+00
 0.2240848841158E+00 -0.2548463963205E+00  0.0000000000000E+00  0.1788212684495E+00
 0.2358545959332E+00 -0.2657354914551E+00  0.0000000000000E+00  0.1699078318568E+00
 0.2464367569088E+00 -0.2755443053775E+00  0.0000000000000E+00  0.1594510473463E+00
 0.2559525531964E+00 -0.2843988382009E+00  0.0000000000000E+00  0.1477646444828E+00
 0.2645224463524E+00 -0.2924246480830E+00  0.0000000000000E+00  0.1351346027448E+00
 0.2722629108027E+00 -0.2997435186148E+00  0.0000000000000E+00  0.1218301865850E+00
 0.2792851734015E+00 -0.3064721757938E+00  0.0000000000000E+00  0.1081170752071E+00
 0.2856964784405E+00 -0.3127235692421E+00  0.0000000000000E+00  0.9426907351209E-01
 0.2916018814062E+00 -0.3186087377468E+00  0.0000000000000E+00  0.8057182312495E-01
 0.2971027601637E+00 -0.3242355006992E+00  0.0000000000000E+00  0.6731726430518E-01
 0.2327016399823E-01 -0.6875031497210E-01  0.0000000000000E+00  0.1066656921956E+00
 0.5152697437749E-01 -0.9529698309106E-01  0.0000000000000E+00  0.1340067319002E+00
 0.7822530868438E-01 -0.1203315212782E+00  0.0000000000000E+00  0.1562738885146E+00
 0.1032659154713E+00 -0.1437619740963E+00  0.0000000000000E+00  0.1734620597893E+00
 0.1265688432456E+00 -0.1655163163696E+00  0.0000000000000E+00  0.1858044613044E+00
 0.1480912978953E+00 -0.1855598266076E+00  0.0000000000000E+00  0.1936767052475E+00
 0.1678300923291E+00 -0.2038972485770E+00  0.0000000000000E+00  0.1975335981645E+00
 0.1858204577236E+00 -0.2205712269930E+00  0.0000000000000E+00  0.1978695756607E+00
 0.2021316484892E+00 -0.2356575707631E+00  0.0000000000000E+00  0.1951804486854E+00
 0.2168581713803E+00 -0.2492564048261E+00  0.0000000000000E+00  0.1899362336040E+00
 0.2301108359552E+00 -0.2614834548637E+00  0.0000000000000E+00  0.1825689014393E+00
 0.2420107337973E+00 -0.2724644705922E+00  0.0000000000000E+00  0.1734688135299E+00
 0.2526852166300E+00 -0.2823316157668E+00  0.0000000000000E+00  0.1629847260022E+00
 0.2622637367632E+00 -0.2912194798259E+00  0.0000000000000E+00  0.1514267970235E+00
 0.2708730809206E+00 -0.2992602789093E+00  0.0000000000000E+00  0.1390746886440E+00
 0.2786334830995E+00 -0.3065798849960E+00  0.0000000000000E+00  0.1261903771114E+00
 0.2856572520361E+00 -0.3132964085018E+00  0.0000000000000E+00  0.1130333142152E+00
 0.2920509014315E+00 -0.3195222966451E+00  0.0000000000000E+00  0.9987394220256E-01
 0.2979186448602E+00 -0.3253678151777E+00  0.0000000000000E+00  0.8699662044917E-01
 0.3033633427797E+00 -0.3309420276977E+00  0.0000000000000E+00  0.7468937433647E-01
 0.2462941933770E-01 -0.7122261909021E-01  0.0000000000000E+00  0.1187596520536E+00
 0.5355958264678E-01 -0.9839583396323E-01  0.0000000000000E+00  0.1450737950363E+00
 0.8095217781433E-01 -0.1240725330384E+00  0.0000000000000E+00  0.1662857970415E+00
 0.1066546907784E+00 -0.1481096412990E+00  0.0000000000000E+00  0.1823996085803E+00
 0.1305545457345E+00 -0.1704042239450E+00  0.0000000000000E+00  0.1936799955254E+00
 0.1525922360462E+00 -0.1909062337445E+00  0.0000000000000E+00  0.2005384971460E+00
 0.1727584098635E+00 -0.2096154039397E+00  0.0000000000000E+00  0.2034634670481E+00
 0.1910896389131E+00 -0.2265766516079E+00  0.0000000000000E+00  0.2029803901049E+00
 0.2076620025358E+00 -0.2418733094144E+00  0.0000000000000E+00  0.1996105012997E+00
 0.2225798987819E+00 -0.2556158960063E+00  0.0000000000000E+00  0.1938416521939E+00
 0.2359651086272E+00 -0.2679314785845E+00  0.0000000000000E+00  0.1861165141006E+00
 0.2479496731835E+00 -0.2789570600984E+00  0.0000000000000E+00  0.1768299434343E+00
 0.2586712179808E+00 -0.2888353652213E+00  0.0000000000000E+00  0.1663296584321E+00
 0.2682680623439E+00 -0.2977101445707E+00  0.0000000000000E+00  0.1549200264985E+00
 0.2768735953149E+00 -0.3057205196050E+00  0.0000000000000E+00  0.1428715873482E+00
 0.2846116855735E+00 -0.3129962986615E+00  0.0000000000000E+00  0.1304358371973E+00
 0.2915951682344E+00 -0.3196563969725E+00  0.0000000000000E+00  0.1178628527977E+00
 0.2979290973405E+00 -0.3258119963830E+00  0.0000000000000E+00  0.1054174247334E+00
 0.3037165714462E+00 -0.3315722552710E+00  0.0000000000000E+00  0.9338175241214E-01
 0.3090636518372E+00 -0.3370490273219E+00  0.0000000000000E+00  0.8204125215483E-01
 0.2609778208771E-01 -0.7380193611335E-01  0.0000000000000E+00  0.1310665781183E+00
 0.5569319670333E-01 -0.1015932278375E+00  0.0000000000000E+00  0.1563522157092E+00
 0.8377375925419E-01 -0.1279047544040E+00  0.0000000000000E+00  0.1764678036639E+00
 0.1101266842290E+00 -0.1525355910967E+00  0.0000000000000E+00  0.1914426048003E+00
 0.1346042512215E+00 -0.1753495350139E+00  0.0000000000000E+00  0.2015869856161E+00
 0.1571301908743E+00 -0.1962812599622E+00  0.0000000000000E+00  0.2073580853446E+00
 0.1776897659460E+00 -0.2153263394732E+00  0.0000000000000E+00  0.2092837592493E+00
 0.1963220469414E+00 -0.2325331691887E+00  0.0000000000000E+00  0.2079249088112E+00
 0.2131114346135E+00 -0.2479941201344E+00  0.0000000000000E+00  0.2038309146107E+00
 0.2281737788501E+00 -0.2618316613508E+00  0.0000000000000E+00  0.1975084263059E+00
 0.2416432279870E+00 -0.2741855810961E+00  0.0000000000000E+00  0.1894105175000E+00
 0.2536639449730E+00 -0.2852052828310E+00  0.0000000000000E+00  0.1799354266746E+00
 0.2643847819081E+00 -0.2950449727037E+00  0.0000000000000E+00  0.1694280798741E+00
 0.2739536305957E+00 -0.3038582324328E+00  0.0000000000000E+00  0.1581846562912E+00
 0.2825108730133E+00 -0.3117914472425E+00  0.0000000000000E+00  0.1464635661669E+00
 0.2901839804385E+00 -0.3189783078586E+00  0.0000000000000E+00  0.1345023469463E+00
 0.2970857530801E+00 -0.3255379645962E+00  0.0000000000000E+00  0.1225382032657E+00
 0.3033188984744E+00 -0.3315794428776E+00  0.0000000000000E+00  0.1108278797835E+00
 0.3089847693263E+00 -0.3372101439528E+00  0.0000000000000E+00  0.9965122350683E-01
 0.3141933737467E+00 -0.3425454921088E+00  0.0000000000000E+00  0.8929533076334E-01
 0.2768183926516E-01 -0.7649711197204E-01  0.0000000000000E+00  0.1435842324954E+00
 0.5794082891795E-01 -0.1049039601301E+00  0.0000000000000E+00  0.1678399385561E+00
 0.8670700502773E-01 -0.1318464889089E+00  0.0000000000000E+00  0.1868114617280E+00
 0.1137000949278E+00 -0.1570590031894E+00  0.0000000000000E+00  0.2005734769288E+00
 0.1387352413536E+00 -0.1803701970601E+00  0.0000000000000E+00  0.2094986042050E+00
 0.1617200878291E+00 -0.2017002278871E+00  0.0000000000000E+00  0.2141004069467E+00
 0.1826358269923E+00 -0.2210418923170E+00  0.0000000000000E+00  0.2149523893008E+00
 0.2015255735928E+00 -0.2384486567132E+00  0.0000000000000E+00  0.2126553921421E+00
 0.2184839062004E+00 -0.2540238010542E+00  0.0000000000000E+00  0.2077896804867E+00
 0.2336399864863E+00 -0.2679035945219E+00  0.0000000000000E+00  0.2008814234281E+00
 0.2471419238002E+00 -0.2802421161165E+00  0.0000000000000E+00  0.1923934458697E+00
 0.2591472881565E+00 -0.2912024210108E+00  0.0000000000000E+00  0.1827259417083E+00
 0.2698171874058E+00 -0.3009511834299E+00  0.0000000000000E+00  0.1722190821206E+00
 0.2793098753902E+00 -0.3096525604738E+00  0.0000000000000E+00  0.1611583326375E+00
 0.2877732329481E+00 -0.3174606697274E+00  0.0000000000000E+00  0.1497868468222E+00
 0.2953384203506E+00 -0.3245131536004E+00  0.0000000000000E+00  0.1383244963972E+00
 0.3021176444077E+00 -0.3309288520391E+00  0.0000000000000E+00  0.1269917319929E+00
 0.3082101424158E+00 -0.3368135448767E+00  0.0000000000000E+00  0.1160346343381E+00
 0.3137141210662E+00 -0.3422715386291E+00  0.0000000000000E+00  0.1057310278566E+00
 0.3187422583028E+00 -0.3474207057712E+00  0.0000000000000E+00  0.9637660411617E-01
 0.2938909888606E-01 -0.7931821191082E-01  0.0000000000000E+00  0.1563133985235E+00
 0.6031768814356E-01 -0.1083452339335E+00  0.0000000000000E+00  0.1795365680739E+00
 0.8977174040764E-01 -0.1359190574197E+00  0.0000000000000E+00  0.1973080250346E+00
 0.1173961214367E+00 -0.1617021543096E+00  0.0000000000000E+00  0.2097725119937E+00
 0.1429675813682E+00 -0.1854870063239E+00  0.0000000000000E+00  0.2173845478186E+00
 0.1663792875886E+00 -0.2071809370529E+00  0.0000000000000E+00  0.2207261269665E+00
 0.1876103165634E+00 -0.2267759817646E+00  0.0000000000000E+00  0.2204225663262E+00
 0.2067098068326E+00 -0.2443327032241E+00  0.0000000000000E+00  0.2171192738630E+00
 0.2237847820118E+00 -0.2599675677533E+00  0.0000000000000E+00  0.2114301274527E+00
 0.2389799139128E+00 -0.2738328264582E+00  0.0000000000000E+00  0.2039012045391E+00
 0.2524590697746E+00 -0.2860986139328E+00  0.0000000000000E+00  0.1950039630002E+00
 0.2643945973033E+00 -0.2969429634436E+00  0.0000000000000E+00  0.1851387273325E+00
 0.2749609202976E+00 -0.3065460217046E+00  0.0000000000000E+00  0.1746387234161E+00
 0.2843274861967E+00 -0.3150832928325E+00  0.0000000000000E+00  0.1637761079563E+00
 0.2926502833815E+00 -0.3227171877073E+00  0.0000000000000E+00  0.1527756533235E+00
 0.3000643975434E+00 -0.3295895212641E+00  0.0000000000000E+00  0.1418357458518E+00
 0.3066809287071E+00 -0.3358183466873E+00  0.0000000000000E+00  0.1311557894742E+00
 0.3125942650362E+00 -0.3415049052538E+00  0.0000000000000E+00  0.1209680796554E+00
 0.3178970848158E+00 -0.3467481602098E+00  0.0000000000000E+00  0.1115482750885E+00
 0.3227008543821E+00 -0.3516647999022E+00  0.0000000000000E+00  0.1032071898695E+00
 0.3122817257260E-01 -0.8227672178705E-01  0.0000000000000E+00  0.1692585610346E+00
 0.6284151166251E-01 -0.1119369992226E+00  0.0000000000000E+00  0.1914437551195E+00
 0.9299105035615E-01 -0.1401471865465E+00  0.0000000000000E+00  0.2079484391822E+00
 0.1212393043600E+00 -0.1664907592082E+00  0.0000000000000E+00  0.2190175283277E+00
 0.1473243689928E+00 -0.1907238548422E+00  0.0000000000000E+00  0.2252105449596E+00
 0.1711277397618E+00 -0.2127438140799E+00  0.0000000000000E+00  0.2271911142086E+00
 0.1926290827322E+00 -0.2325446719436E+00  0.0000000000000E+00  0.2256422942616E+00
 0.2118860192074E+00 -0.2501965916777E+00  0.0000000000000E+00  0.2212587361422E+00
 0.2290207572241E+00 -0.2658319731981E+00  0.0000000000000E+00  0.2146906286833E+00
 0.2441960666612E+00 -0.2796216141052E+00  0.0000000000000E+00  0.2065038978576E+00
 0.2575935810126E+00 -0.2917536731918E+00  0.0000000000000E+00  0.1971768926277E+00
 0.2694018447731E+00 -0.3024225257162E+00  0.0000000000000E+00  0.1871077153252E+00
 0.2798096221449E+00 -0.3118227433741E+00  0.0000000000000E+00  0.1766201748720E+00
 0.2889983538269E+00 -0.3201418966478E+00  0.0000000000000E+00  0.1659705034086E+00
 0.2971328054010E+00 -0.3275512908838E+00  0.0000000000000E+00  0.1553621382776E+00
 0.3043524051300E+00 -0.3341973094091E+00  0.0000000000000E+00  0.1449682534093E+00
 0.3107667658899E+00 -0.3401968968273E+00  0.0000000000000E+00  0.1349625509902E+00
 0.3164639272194E+00 -0.3456453954634E+00  0.0000000000000E+00  0.1255596140846E+00
 0.3215277896294E+00 -0.3506333802921E+00  0.0000000000000E+00  0.1170312356952E+00
 0.3260621612367E+00 -0.3552701924765E+00  0.0000000000000E+00  0.1097076035986E+00
 0.3320899239300E-01 -0.8538577769916E-01  0.0000000000000E+00  0.1824287350369E+00
 0.6553295563868E-01 -0.1157023499679E+00  0.0000000000000E+00  0.2035656954325E+00
 0.9639173498870E-01 -0.1445594597702E+00  0.0000000000000E+00  0.2187233581277E+00
 0.1252579261626E+00 -0.1714543676018E+00  0.0000000000000E+00  0.2282835001394E+00
 0.1518320197426E+00 -0.1961080095237E+00  0.0000000000000E+00  0.2329377770631E+00
 0.1759881555449E+00 -0.2184120815509E+00  0.0000000000000E+00  0.2334458198111E+00
 0.1977101670652E+00 -0.2383662331247E+00  0.0000000000000E+00  0.2305537632643E+00
 0.2170671377328E+00 -0.2560532602367E+00  0.0000000000000E+00  0.2250101798101E+00
 0.2341997488877E+00 -0.2716247881944E+00  0.0000000000000E+00  0.2175042301323E+00
 0.2492919156318E+00 -0.2852731815920E+00  0.0000000000000E+00  0.2086210371791E+00
 0.2625452726112E+00 -0.2972068097891E+00  0.0000000000000E+00  0.1988432628496E+00
 0.2741659852066E+00 -0.3076377481410E+00  0.0000000000000E+00  0.1885637222257E+00
 0.2843580593239E+00 -0.3167758060416E+00  0.0000000000000E+00  0.1780939408842E+00
 0.2933155824159E+00 -0.3248211648074E+00  0.0000000000000E+00  0.1676715981543E+00
 0.3012127314019E+00 -0.3319545581291E+00  0.0000000000000E+00  0.1574762003848E+00
 0.3081938800540E+00 -0.3383274894375E+00  0.0000000000000E+00  0.1476524241613E+00
 0.3143670429527E+00 -0.3440557641504E+00  0.0000000000000E+00  0.1383434686877E+00
 0.3198125961085E+00 -0.3492276973722E+00  0.0000000000000E+00  0.1297413254013E+00
 0.3246019968809E+00 -0.3539220912624E+00  0.0000000000000E+00  0.1221096346628E+00
 0.3288223287368E+00 -0.3582322908986E+00  0.0000000000000E+00  0.1157977398041E+00
 0.3534304161293E-01 -0.8866041869046E-01  0.0000000000000E+00  0.1958383856310E+00
 0.6841603612335E-01 -0.1196679576567E+00  0.0000000000000E+00  0.2159097069683E+00
 0.1000048266012E+00 -0.1491888388075E+00  0.0000000000000E+00  0.2296231361431E+00
 0.1294844526307E+00 -0.1766267871595E+00  0.0000000000000E+00  0.2375420888863E+00
 0.1565205719824E+00 -0.2016704193351E+00  0.0000000000000E+00  0.2405221864387E+00
 0.1809861811396E+00 -0.2242119210181E+00  0.0000000000000E+00  0.2394345246077E+00
 0.2028738520760E+00 -0.2442611854278E+00  0.0000000000000E+00  0.2350926069129E+00
 0.2222676647052E+00 -0.2619172101597E+00  0.0000000000000E+00  0.2283035588043E+00
 0.2393307130763E+00 -0.2773548057214E+00  0.0000000000000E+00  0.2197981871144E+00
 0.2542716636656E+00 -0.2907914720097E+00  0.0000000000000E+00  0.2101793674199E+00
 0.2673146364609E+00 -0.3024582200521E+00  0.0000000000000E+00  0.1999303870566E+00
 0.2786847988295E+00 -0.3125861283494E+00  0.0000000000000E+00  0.1894347453227E+00
 0.2886020804563E+00 -0.3214008197496E+00  0.0000000000000E+00  0.1789882510607E+00
 0.2972735684935E+00 -0.3291153078255E+00  0.0000000000000E+00  0.1688072776609E+00
 0.3048832694252E+00 -0.3359200089042E+00  0.0000000000000E+00  0.1590453127583E+00
 0.3115812006346E+00 -0.3419721497785E+00  0.0000000000000E+00  0.1498161681675E+00
 0.3174740844701E+00 -0.3473867427754E+00  0.0000000000000E+00  0.1412282410481E+00
 0.3226340194895E+00 -0.3522447634387E+00  0.0000000000000E+00  0.1334453048941E+00
 0.3271167258824E+00 -0.3566102678096E+00  0.0000000000000E+00  0.1267151633169E+00
 0.3309814110925E+00 -0.3605500365362E+00  0.0000000000000E+00  0.1213985688566E+00
 0.3764364917435E-01 -0.9211785475567E-01  0.0000000000000E+00  0.2095087267292E+00
 0.7151867933245E-01 -0.1238646830960E+00  0.0000000000000E+00  0.2284869463150E+00
 0.1038661967518E+00 -0.1540731991067E+00  0.0000000000000E+00  0.2406378363702E+00
 0.1339560575686E+00 -0.1820466463433E+00  0.0000000000000E+00  0.2467611506007E+00
 0.1614240548244E+00 -0.2074460390214E+00  0.0000000000000E+00  0.2479136675502E+00
 0.1861506231939E+00 -0.2301727226960E+00  0.0000000000000E+00  0.2450944886827E+00
 0.2081427337049E+00 -0.2502523522594E+00  0.0000000000000E+00  0.2391869537768E+00
 0.2275035739275E+00 -0.2678043941777E+00  0.0000000000000E+00  0.2310615428145E+00
 0.2444234066176E+00 -0.2830315841925E+00  0.0000000000000E+00  0.2214933625355E+00
 0.2591399354605E+00 -0.2961808202037E+00  0.0000000000000E+00  0.2111005911701E+00
 0.2719025397932E+00 -0.3075084611149E+00  0.0000000000000E+00  0.2003619691891E+00
 0.2829566717631E+00 -0.3172657858510E+00  0.0000000000000E+00  0.1896463717155E+00
 0.2925385415025E+00 -0.3256944619089E+00  0.0000000000000E+00  0.1792296652446E+00
 0.3008681569562E+00 -0.3330200958074E+00  0.0000000000000E+00  0.1693038581883E+00
 0.3081392676504E+00 -0.3394425256405E+00  0.0000000000000E+00  0.1599945920876E+00
 0.3145080204294E+00 -0.3451248838105E+00  0.0000000000000E+00  0.1513839724553E+00
 0.3200805315132E+00 -0.3501821420188E+00  0.0000000000000E+00  0.1435429629314E+00
 0.3249215279381E+00 -0.3546890461151E+00  0.0000000000000E+00  0.1366022588149E+00
 0.3290695751127E+00 -0.3586942723127E+00  0.0000000000000E+00  0.1307815522209E+00
 0.3325444979982E+00 -0.3622267631342E+00  0.0000000000000E+00  0.1264329289186E+00
 0.4012628428620E-01 -0.9577807930942E-01  0.0000000000000E+00  0.2234685528898E+00
 0.7487330606529E-01 -0.1283278356644E+00  0.0000000000000E+00  0.2413132377016E+00
 0.1080172746590E+00 -0.1592563528815E+00  0.0000000000000E+00  0.2517572115146E+00
 0.1387151517090E+00 -0.1877576194536E+00  0.0000000000000E+00  0.2559040391961E+00
 0.1665809181486E+00 -0.2134744400319E+00  0.0000000000000E+00  0.2550554528848E+00
 0.1915137555663E+00 -0.2363273047607E+00  0.0000000000000E+00  0.2503547554962E+00
 0.2135417802659E+00 -0.2563649510283E+00  0.0000000000000E+00  0.2427563073373E+00
 0.2327921552660E+00 -0.2737320338152E+00  0.0000000000000E+00  0.2331983779600E+00
 0.2494880294149E+00 -0.2886650642921E+00  0.0000000000000E+00  0.2225034661407E+00
 0.2639013457993E+00 -0.3014455016281E+00  0.0000000000000E+00  0.2113010507099E+00
 0.2763097917929E+00 -0.3123579993415E+00  0.0000000000000E+00  0.2000581954982E+00
 0.2869802446286E+00 -0.3216750794962E+00  0.0000000000000E+00  0.1891223093915E+00
 0.2961651434213E+00 -0.3296543008413E+00  0.0000000000000E+00  0.1787439251644E+00
 0.3040967189018E+00 -0.3365329347451E+00  0.0000000000000E+00  0.1690870925711E+00
 0.3109778240651E+00 -0.3425193791336E+00  0.0000000000000E+00  0.1602478873341E+00
 0.3169702417127E+00 -0.3477820483210E+00  0.0000000000000E+00  0.1522760815581E+00
 0.3221797438854E+00 -0.3524352155570E+00  0.0000000000000E+00  0.1452070712889E+00
 0.3266670071149E+00 -0.3565516967239E+00  0.0000000000000E+00  0.1391380612827E+00
 0.3304573320261E+00 -0.3601689374342E+00  0.0000000000000E+00  0.1342452077958E+00
 0.3335233203678E+00 -0.3632720342658E+00  0.0000000000000E+00  0.1308296898204E+00
 0.4280960904359E-01 -0.9966326105325E-01  0.0000000000000E+00  0.2377606172367E+00
 0.7851833175551E-01 -0.1331008401314E+00  0.0000000000000E+00  0.2544093157225E+00
 0.1125053323745E+00 -0.1647862455901E+00  0.0000000000000E+00  0.2629694393764E+00
 0.1438099848661E+00 -0.1938103340368E+00  0.0000000000000E+00  0.2649309180951E+00
 0.1720347483048E+00 -0.2197998568467E+00  0.0000000000000E+00  0.2618821231296E+00
 0.1971115958034E+00 -0.2427124473587E+00  0.0000000000000E+00  0.2551354847007E+00
 0.2190985610482E+00 -0.2626267904156E+00  0.0000000000000E+00  0.2457097282824E+00
 0.2381517137274E+00 -0.2797182706207E+00  0.0000000000000E+00  0.2346183003063E+00
 0.2545347029125E+00 -0.2942650089532E+00  0.0000000000000E+00  0.2227341686287E+00
 0.2685599436470E+00 -0.3065891547854E+00  0.0000000000000E+00  0.2106913911692E+00
 0.2805365891353E+00 -0.3170066456911E+00  0.0000000000000E+00  0.1989357527343E+00
 0.2907538445934E+00 -0.3258120120145E+00  0.0000000000000E+00  0.1877848793124E+00
 0.2994800884315E+00 -0.3332783585373E+00  0.0000000000000E+00  0.1774572897278E+00
 0.3069582265706E+00 -0.3396529990256E+00  0.0000000000000E+00  0.1680835756798E+00
 0.3133984909626E+00 -0.3451504704807E+00  0.0000000000000E+00  0.1597292744787E+00
 0.3189679617473E+00 -0.3499440961144E+00  0.0000000000000E+00  0.1524116909251E+00
 0.3237682208472E+00 -0.3541442723331E+00  0.0000000000000E+00  0.1461280549256E+00
 0.3278596939146E+00 -0.3578205594795E+00  0.0000000000000E+00  0.1409646185853E+00
 0.3312716496759E+00 -0.3610236626612E+00  0.0000000000000E+00  0.1370439294456E+00
 0.3339380678620E+00 -0.3637012963194E+00  0.0000000000000E+00  0.1345361843899E+00
 0.4571625655528E-01 -0.1038143759049E+00  0.0000000000000E+00  0.2524115646124E+00
 0.8249372789646E-01 -0.1382158512845E+00  0.0000000000000E+00  0.2677883922639E+00
 0.1173840256306E+00 -0.1707255424029E+00  0.0000000000000E+00  0.2742744829725E+00
 0.1492966204578E+00 -0.2002595180370E+00  0.0000000000000E+00  0.2737887527309E+00
 0.1778335537791E+00 -0.2264718317353E+00  0.0000000000000E+00  0.2683235305079E+00
 0.2029855294312E+00 -0.2493705541865E+00  0.0000000000000E+00  0.2593462110054E+00
 0.2248434632623E+00 -0.2690684469447E+00  0.0000000000000E+00  0.2479425436347E+00
 0.2436009727139E+00 -0.2857814647101E+00  0.0000000000000E+00  0.2352134184381E+00
 0.2595727412435E+00 -0.2998402040998E+00  0.0000000000000E+00  0.2220823893510E+00
 0.2731186340968E+00 -0.3116142323344E+00  0.0000000000000E+00  0.2091763192585E+00
 0.2845819350160E+00 -0.3214529578047E+00  0.0000000000000E+00  0.1969076518909E+00
 0.2942747621739E+00 -0.3296735001041E+00  0.0000000000000E+00  0.1855551667954E+00
 0.3024811939007E+00 -0.3365641840531E+00  0.0000000000000E+00  0.1752977708981E+00
 0.3094533139713E+00 -0.3423809000345E+00  0.0000000000000E+00  0.1662243339087E+00
 0.3154041530822E+00 -0.3473399101317E+00  0.0000000000000E+00  0.1583637002128E+00
 0.3205043296048E+00 -0.3516144777015E+00  0.0000000000000E+00  0.1517107952924E+00
 0.3248531424360E+00 -0.3553160492028E+00  0.0000000000000E+00  0.1462177100723E+00
 0.3284926603749E+00 -0.3584978752997E+00  0.0000000000000E+00  0.1419475011978E+00
 0.3314852228546E+00 -0.3612194712739E+00  0.0000000000000E+00  0.1390902573248E+00
 0.3338177863603E+00 -0.3635353814836E+00  0.0000000000000E+00  0.1375435926327E+00
-0.5316572709924E-01  0.7611947421191E-01  0.0000000000000E+00 -0.1055786637652E-01
-0.9364166869405E-01  0.1070196645461E+00  0.0000000000000E+00 -0.1116008189865E+00
-0.9766794108680E-01  0.1125901525215E+00  0.0000000000000E+00 -0.1259976064006E+00
-0.9255827157352E-01  0.1075496413624E+00  0.0000000000000E+00 -0.1369242027406E+00
-0.7948961911352E-01  0.9344549561445E-01  0.0000000000000E+00 -0.1422027046119E+00
-0.6442252912634E-01  0.7615569531585E-01  0.0000000000000E+00 -0.1340299569702E+00
-0.5401290792628E-01  0.6365075134838E-01  0.0000000000000E+00 -0.1132017292856E+00
-0.4923845771796E-01  0.5748915994731E-01  0.0000000000000E+00 -0.9063693179468E-01
-0.4621675491010E-01  0.5349485189800E-01  0.0000000000000E+00 -0.7131731398082E-01
-0.4302025897707E-01  0.4946476272234E-01  0.0000000000000E+00 -0.5508996627845E-01
-0.3935418168693E-01  0.4500350820227E-01  0.0000000000000E+00 -0.4103059970879E-01
-0.3525503461855E-01  0.4014445518847E-01  0.0000000000000E+00 -0.2872383177770E-01
-0.3072895885167E-01  0.3488215799031E-01  0.0000000000000E+00 -0.1814094450441E-01
-0.2582103987598E-01  0.2924533778643E-01  0.0000000000000E+00 -0.9268564842866E-02
-0.2071297027962E-01  0.2343381720380E-01  0.0000000000000E+00 -0.2174186991505E-02
-0.1554267417925E-01  0.1761469833168E-01  0.0000000000000E+00  0.2872286514068E-02
-0.1038288359538E-01  0.1178868824914E-01  0.0000000000000E+00  0.5979703611381E-02
-0.6011488625215E-02  0.6791035635524E-02  0.0000000000000E+00  0.7806829883918E-02
-0.2672438034658E-02  0.3067435234029E-02  0.0000000000000E+00  0.8840143018971E-02
 0.2555918102292E-03  0.7300976774549E-04  0.0000000000000E+00  0.8855950927395E-02
-0.4583517821742E-01  0.6483032175008E-01  0.0000000000000E+00 -0.1538124533995E-01
-0.8537292051736E-01  0.1000988928128E+00  0.0000000000000E+00 -0.9834926309795E-01
-0.8913759397155E-01  0.1024240488747E+00  0.0000000000000E+00 -0.1167662984307E+00
-0.8499892862076E-01  0.9840322939262E-01  0.0000000000000E+00 -0.1185497075168E+00
-0.7653756734949E-01  0.8918596025040E-01  0.0000000000000E+00 -0.1177880943411E+00
-0.6619116064296E-01  0.7743176830040E-01  0.0000000000000E+00 -0.1116110636076E+00
-0.5760212627782E-01  0.6715996868433E-01  0.0000000000000E+00 -0.9818341814248E-01
-0.5213177670946E-01  0.6020953028393E-01  0.0000000000000E+00 -0.8111362617475E-01
-0.4824581729162E-01  0.5523718129557E-01  0.0000000000000E+00 -0.6391570059752E-01
-0.4463096538750E-01  0.5077301528555E-01  0.0000000000000E+00 -0.4814287268954E-01
-0.4083919775577E-01  0.4622698161804E-01  0.0000000000000E+00 -0.3408840081945E-01
-0.3673952038361E-01  0.4141553464961E-01  0.0000000000000E+00 -0.2166606748227E-01
-0.3227991774161E-01  0.3627434885671E-01  0.0000000000000E+00 -0.1083279527848E-01
-0.2746700353466E-01  0.3080638077460E-01  0.0000000000000E+00 -0.1640000987505E-02
-0.2238931103263E-01  0.2510185814285E-01  0.0000000000000E+00  0.5779744824259E-02
-0.1716217809908E-01  0.1927569369106E-01  0.0000000000000E+00  0.1127444069384E-01
-0.1194341367779E-01  0.1349402185692E-01  0.0000000000000E+00  0.1474373569876E-01
-0.7255476409751E-02  0.8298091566976E-02  0.0000000000000E+00  0.1650975354194E-01
-0.3244543340442E-02  0.3931216800486E-02  0.0000000000000E+00  0.1719533386622E-01
 0.5391565085628E-03  0.3990466710468E-04  0.0000000000000E+00  0.1688433045265E-01
-0.3776535639751E-01  0.5490634096237E-01  0.0000000000000E+00 -0.2723522084913E-01
-0.7574458176300E-01  0.8954277592676E-01  0.0000000000000E+00 -0.8839300651431E-01
-0.8137054573886E-01  0.9389887629988E-01  0.0000000000000E+00 -0.1036801741476E+00
-0.7855076245090E-01  0.9052769382512E-01  0.0000000000000E+00 -0.1028227950906E+00
-0.7279403138489E-01  0.8424243721325E-01  0.0000000000000E+00 -0.9799410941813E-01
-0.6579500269918E-01  0.7626887834056E-01  0.0000000000000E+00 -0.9174390698091E-01
-0.5928044246247E-01  0.6845798164718E-01  0.0000000000000E+00 -0.8207335386720E-01
-0.5417911608254E-01  0.6201423718550E-01  0.0000000000000E+00 -0.6920173954516E-01
-0.4999036521298E-01  0.5670424847089E-01  0.0000000000000E+00 -0.5483299488254E-01
-0.4608145122778E-01  0.5191557937061E-01  0.0000000000000E+00 -0.4045393686394E-01
-0.4215236706403E-01  0.4724666709277E-01  0.0000000000000E+00 -0.2694956767321E-01
-0.3804351967769E-01  0.4246733140055E-01  0.0000000000000E+00 -0.1468055971813E-01
-0.3365294417764E-01  0.3744865229570E-01  0.0000000000000E+00 -0.3793088200341E-02
-0.2893748614507E-01  0.3214098988998E-01  0.0000000000000E+00  0.5593330188597E-02
-0.2392870256078E-01  0.2657247182227E-01  0.0000000000000E+00  0.1333011293945E-01
-0.1870572533107E-01  0.2082421944627E-01  0.0000000000000E+00  0.1922364534434E-01
-0.1340659741434E-01  0.1504245263622E-01  0.0000000000000E+00  0.2300117424421E-01
-0.8357851080710E-02  0.9573526093509E-02  0.0000000000000E+00  0.2493947730707E-01
-0.3680277915227E-02  0.4589825485966E-02  0.0000000000000E+00  0.2567335008520E-01
 0.9162346061138E-03 -0.1182741709418E-03  0.0000000000000E+00  0.2533178481533E-01
-0.3048562431058E-01  0.4595040766257E-01  0.0000000000000E+00 -0.3916577335228E-01
-0.6626662973398E-01  0.7896236524392E-01  0.0000000000000E+00 -0.8103784027655E-01
-0.7366870316075E-01  0.8517149976156E-01  0.0000000000000E+00 -0.9099497729727E-01
-0.7252985353590E-01  0.8337040746179E-01  0.0000000000000E+00 -0.8805449980089E-01
-0.6868969541325E-01  0.7898516322743E-01  0.0000000000000E+00 -0.8121760614310E-01
-0.6400133241302E-01  0.7359804796124E-01  0.0000000000000E+00 -0.7427109816368E-01
-0.5932912025514E-01  0.6792551687500E-01  0.0000000000000E+00 -0.6632908855071E-01
-0.5505939683428E-01  0.6250895017128E-01  0.0000000000000E+00 -0.5619730737814E-01
-0.5107037359985E-01  0.5745750509897E-01  0.0000000000000E+00 -0.4437746151850E-01
-0.4714248667447E-01  0.5264842022334E-01  0.0000000000000E+00 -0.3181948075629E-01
-0.4317872001741E-01  0.4795270102668E-01  0.0000000000000E+00 -0.1937796942553E-01
-0.3909282444736E-01  0.4322693829305E-01  0.0000000000000E+00 -0.7634182075211E-02
-0.3478841404803E-01  0.3834102106675E-01  0.0000000000000E+00  0.3060765568981E-02
-0.3019451704078E-01  0.3321121000511E-01  0.0000000000000E+00  0.1247792501384E-01
-0.2529515308262E-01  0.2781605039256E-01  0.0000000000000E+00  0.2042608011139E-01
-0.2012389316330E-01  0.2218931616296E-01  0.0000000000000E+00  0.2666563382947E-01
-0.1477896249667E-01  0.1643684214985E-01  0.0000000000000E+00  0.3081475624213E-01
-0.9425520676604E-02  0.1074049408936E-01  0.0000000000000E+00  0.3311107906547E-01
-0.4149125362955E-02  0.5213686825593E-02  0.0000000000000E+00  0.3415203722632E-01
 0.1191056905732E-02 -0.2206167501551E-03  0.0000000000000E+00  0.3403116454309E-01
-0.2403543365055E-01  0.3787670116216E-01  0.0000000000000E+00 -0.5038529875825E-01
-0.5731326676303E-01  0.6880748497028E-01  0.0000000000000E+00 -0.7552479532026E-01
-0.6607660230449E-01  0.7647511545733E-01  0.0000000000000E+00 -0.7968022519352E-01
-0.6655381293141E-01  0.7628301084900E-01  0.0000000000000E+00 -0.7453220798665E-01
-0.6429001624132E-01  0.7350497198570E-01  0.0000000000000E+00 -0.6638118569283E-01
-0.6127282588593E-01  0.6993582554627E-01  0.0000000000000E+00 -0.5879486565849E-01
-0.5808861650756E-01  0.6597448365529E-01  0.0000000000000E+00 -0.5152038166251E-01
-0.5476627495351E-01  0.6169578252214E-01  0.0000000000000E+00 -0.4302435646761E-01
-0.5127212467291E-01  0.5724507621336E-01  0.0000000000000E+00 -0.3316015881533E-01
-0.4758841471008E-01  0.5271929766504E-01  0.0000000000000E+00 -0.2238904989850E-01
-0.4375483577850E-01  0.4817318361543E-01  0.0000000000000E+00 -0.1128793536006E-01
-0.3977722017922E-01  0.4358280838582E-01  0.0000000000000E+00 -0.4031235640269E-03
-0.3560581766204E-01  0.3886971923553E-01  0.0000000000000E+00  0.9819627827699E-02
-0.3117284108291E-01  0.3395108402855E-01  0.0000000000000E+00  0.1905652168450E-01
-0.2643190849061E-01  0.2877271429615E-01  0.0000000000000E+00  0.2706405743730E-01
-0.2137429312988E-01  0.2332444062444E-01  0.0000000000000E+00  0.3356346990522E-01
-0.1605382888231E-01  0.1766568004885E-01  0.0000000000000E+00  0.3811060329956E-01
-0.1049851976622E-01  0.1183983498779E-01  0.0000000000000E+00  0.4090014644517E-01
-0.4744328708909E-02  0.5894132245770E-02  0.0000000000000E+00  0.4244085485861E-01
 0.1217079734406E-02 -0.1307589972241E-03  0.0000000000000E+00  0.4273681649485E-01
-0.1837776684139E-01  0.3061104923569E-01  0.0000000000000E+00 -0.6063954550391E-01
-0.4898859095022E-01  0.5922794739344E-01  0.0000000000000E+00 -0.7149556247438E-01
-0.5866184383718E-01  0.6790658460503E-01  0.0000000000000E+00 -0.6992215214243E-01
-0.6052055210239E-01  0.6913439018147E-01  0.0000000000000E+00 -0.6241859595435E-01
-0.5958009003907E-01  0.6772853724586E-01  0.0000000000000E+00 -0.5311590214719E-01
-0.5784827801110E-01  0.6555186356121E-01  0.0000000000000E+00 -0.4492227531820E-01
-0.5583861573642E-01  0.6292600370162E-01  0.0000000000000E+00 -0.3780971392643E-01
-0.5341070831619E-01  0.5970883281814E-01  0.0000000000000E+00 -0.3021907872498E-01
-0.5053397210919E-01  0.5599655331319E-01  0.0000000000000E+00 -0.2173242171635E-01
-0.4727049153069E-01  0.5195860526417E-01  0.0000000000000E+00 -0.1248868504046E-01
-0.4372460765827E-01  0.4773787156885E-01  0.0000000000000E+00 -0.2768421601878E-02
-0.3996662345652E-01  0.4339858785858E-01  0.0000000000000E+00  0.7049968751083E-02
-0.3600114526157E-01  0.3892825310368E-01  0.0000000000000E+00  0.1655068903562E-01
-0.3178540880461E-01  0.3427168504127E-01  0.0000000000000E+00  0.2537729434076E-01
-0.2726286453614E-01  0.2936413817788E-01  0.0000000000000E+00  0.3325421298990E-01
-0.2239403319050E-01  0.2416337738034E-01  0.0000000000000E+00  0.3987953306757E-01
-0.1719353409355E-01  0.1868806368768E-01  0.0000000000000E+00  0.4478380205231E-01
-0.1157057032433E-01  0.1286216292280E-01  0.0000000000000E+00  0.4811989282586E-01
-0.5499558466875E-02  0.6659380477527E-02  0.0000000000000E+00  0.5027200784412E-01
 0.9166716849283E-03  0.2164951054420E-03  0.0000000000000E+00  0.5110945805323E-01
-0.1344577958666E-01  0.2408169601757E-01  0.0000000000000E+00 -0.6987186449097E-01
-0.4131670334724E-01  0.5026419630201E-01  0.0000000000000E+00 -0.6868644133461E-01
-0.5147706858211E-01  0.5953421752759E-01  0.0000000000000E+00 -0.6169810660158E-01
-0.5442543296327E-01  0.6190787998809E-01  0.0000000000000E+00 -0.5174973856403E-01
-0.5457186429617E-01  0.6164644668843E-01  0.0000000000000E+00 -0.4127201134462E-01
-0.5385475522645E-01  0.6057173444725E-01  0.0000000000000E+00 -0.3242819175692E-01
-0.5277433810428E-01  0.5899990020241E-01  0.0000000000000E+00 -0.2519503455538E-01
-0.5112720729126E-01  0.5670341616625E-01  0.0000000000000E+00 -0.1805771341309E-01
-0.4887969402711E-01  0.5373986059261E-01  0.0000000000000E+00 -0.1049099024184E-01
-0.4612139343224E-01  0.5028942092583E-01  0.0000000000000E+00 -0.2457886806100E-02
-0.4297436424982E-01  0.4652070982272E-01  0.0000000000000E+00  0.5988985908875E-02
-0.3953884206986E-01  0.4254344208754E-01  0.0000000000000E+00  0.1466777125473E-01
-0.3586067409767E-01  0.3839811858818E-01  0.0000000000000E+00  0.2327026738064E-01
-0.3192886961570E-01  0.3406690363009E-01  0.0000000000000E+00  0.3147449403036E-01
-0.2769232160969E-01  0.2949231056874E-01  0.0000000000000E+00  0.3901192528912E-01
-0.2309521240902E-01  0.2461571472220E-01  0.0000000000000E+00  0.4558425005874E-01
-0.1812386650042E-01  0.1942675992625E-01  0.0000000000000E+00  0.5073015841466E-01
-0.1258606549677E-01  0.1374788279078E-01  0.0000000000000E+00  0.5456986632696E-01
-0.6385496098366E-02  0.7472804705759E-02  0.0000000000000E+00  0.5734557209615E-01
 0.2903568678552E-03  0.8077166769964E-03  0.0000000000000E+00  0.5876083841894E-01
-0.9169029214211E-02  0.1821835878111E-01  0.0000000000000E+00 -0.7809014897105E-01
-0.3428961368133E-01  0.4191793215098E-01  0.0000000000000E+00 -0.6687691396748E-01
-0.4456290131284E-01  0.5140541203326E-01  0.0000000000000E+00 -0.5490597135603E-01
-0.4829940097684E-01  0.5463085002124E-01  0.0000000000000E+00 -0.4249443906481E-01
-0.4930108526108E-01  0.5528410578891E-01  0.0000000000000E+00 -0.3076768779034E-01
-0.4937939203225E-01  0.5507990098869E-01  0.0000000000000E+00 -0.2119103339537E-01
-0.4902947465186E-01  0.5434004274326E-01  0.0000000000000E+00 -0.1364664209613E-01
-0.4803603827787E-01  0.5281511523640E-01  0.0000000000000E+00 -0.6671283070494E-02
-0.4636984763041E-01  0.5054352016878E-01  0.0000000000000E+00  0.3086143122512E-03
-0.4413150838211E-01  0.4770013151069E-01  0.0000000000000E+00  0.7423091565575E-02
-0.4143944176938E-01  0.4444943144987E-01  0.0000000000000E+00  0.1476841578183E-01
-0.3839871403909E-01  0.4091427851130E-01  0.0000000000000E+00  0.2233298759084E-01
-0.3507803158329E-01  0.3716714606187E-01  0.0000000000000E+00  0.2994324187579E-01
-0.3149444652813E-01  0.3322424106336E-01  0.0000000000000E+00  0.3735688403817E-01
-0.2761071509698E-01  0.2904512526744E-01  0.0000000000000E+00  0.4435088997040E-01
-0.2336750752372E-01  0.2456889611541E-01  0.0000000000000E+00  0.5066146434464E-01
-0.1873581089106E-01  0.1977021359604E-01  0.0000000000000E+00  0.5586738340677E-01
-0.1344071262102E-01  0.1438870988233E-01  0.0000000000000E+00  0.6007199345711E-01
-0.7308369733806E-02  0.8233362281118E-02  0.0000000000000E+00  0.6337819843822E-01
-0.5787236239108E-03  0.1547880887836E-02  0.0000000000000E+00  0.6531245800378E-01
-0.5479540941016E-02  0.1295401838576E-01  0.0000000000000E+00 -0.8532911977438E-01
-0.2788454177033E-01  0.3417264046141E-01  0.0000000000000E+00 -0.6587241045273E-01
-0.3795052125952E-01  0.4355524099841E-01  0.0000000000000E+00 -0.4941148684552E-01
-0.4218588215243E-01  0.4734541757293E-01  0.0000000000000E+00 -0.3458419943889E-01
-0.4381700569203E-01  0.4868613126664E-01  0.0000000000000E+00 -0.2153963489070E-01
-0.4449561872261E-01  0.4914781225987E-01  0.0000000000000E+00 -0.1113944632967E-01
-0.4470430042280E-01  0.4905163305584E-01  0.0000000000000E+00 -0.3138631250461E-02
-0.4423745225526E-01  0.4815373634703E-01  0.0000000000000E+00  0.3876640612353E-02
-0.4307524645783E-01  0.4648615083725E-01  0.0000000000000E+00  0.1051055844007E-01
-0.4132509233903E-01  0.4421682003663E-01  0.0000000000000E+00  0.1694828950206E-01
-0.3909580986068E-01  0.4149661787274E-01  0.0000000000000E+00  0.2337612382630E-01
-0.3648417272755E-01  0.3844341586909E-01  0.0000000000000E+00  0.2990918878390E-01
-0.3356651038128E-01  0.3514328601348E-01  0.0000000000000E+00  0.3650193546665E-01
-0.3038011404042E-01  0.3163765969476E-01  0.0000000000000E+00  0.4301010623909E-01
-0.2690440976371E-01  0.2790620418208E-01  0.0000000000000E+00  0.4928124641521E-01
-0.2308609475742E-01  0.2389607440923E-01  0.0000000000000E+00  0.5511199148925E-01
-0.1889309080704E-01  0.1958013863037E-01  0.0000000000000E+00  0.6014920778208E-01
-0.1398861195565E-01  0.1463547972050E-01  0.0000000000000E+00  0.6449881116651E-01
-0.8116557132851E-02  0.8783423089875E-02  0.0000000000000E+00  0.6814649596672E-01
-0.1532304981772E-02  0.2269550277956E-02  0.0000000000000E+00  0.7045388319839E-01
-0.2313980306203E-02  0.8226010303600E-02  0.0000000000000E+00 -0.9163423320119E-01
-0.2207125048894E-01  0.2700254983483E-01  0.0000000000000E+00 -0.6549951533079E-01
-0.3166323946390E-01  0.3600960684623E-01  0.0000000000000E+00 -0.4506809740866E-01
-0.3613104288761E-01  0.4009746332750E-01  0.0000000000000E+00 -0.2792886875910E-01
-0.3817511717743E-01  0.4190593656268E-01  0.0000000000000E+00 -0.1352534731781E-01
-0.3927218776271E-01  0.4284332368866E-01  0.0000000000000E+00 -0.2222524706229E-02
-0.3988225671600E-01  0.4322087047050E-01  0.0000000000000E+00  0.6349816339271E-02
-0.3981703917509E-01  0.4281100957276E-01  0.0000000000000E+00  0.1355467359338E-01
-0.3906679577913E-01  0.4164492113539E-01  0.0000000000000E+00  0.2002136306651E-01
-0.3774409558859E-01  0.3988466683284E-01  0.0000000000000E+00  0.2597600114984E-01
-0.3594857485429E-01  0.3766676915364E-01  0.0000000000000E+00  0.3165827862425E-01
-0.3376407799025E-01  0.3509652337622E-01  0.0000000000000E+00  0.3726923025497E-01
-0.3126474698168E-01  0.3226115930844E-01  0.0000000000000E+00  0.4286873486913E-01
-0.2850029177333E-01  0.2921801838336E-01  0.0000000000000E+00  0.4840806943226E-01
-0.2546652118512E-01  0.2596607659251E-01  0.0000000000000E+00  0.5381369183378E-01
-0.2212266943185E-01  0.2246722577814E-01  0.0000000000000E+00  0.5895737336655E-01
-0.1844405399150E-01  0.1870352239252E-01  0.0000000000000E+00  0.6357428615690E-01
-0.1405511419572E-01  0.1431145729696E-01  0.0000000000000E+00  0.6779233223630E-01
-0.8615330822088E-02  0.8924402577592E-02  0.0000000000000E+00  0.7151851892034E-01
-0.2355830128236E-02  0.2752793649525E-02  0.0000000000000E+00  0.7398615633119E-01
 0.3857683148713E-03  0.3976496338459E-02  0.0000000000000E+00 -0.9705428788447E-01
-0.1681571649396E-01  0.2037699714223E-01  0.0000000000000E+00 -0.6560392965627E-01
-0.2571754717782E-01  0.2878697541056E-01  0.0000000000000E+00 -0.4172688032265E-01
-0.3017935906799E-01  0.3293166396657E-01  0.0000000000000E+00 -0.2242532737782E-01
-0.3243267948361E-01  0.3499999733078E-01  0.0000000000000E+00 -0.6656764981605E-02
-0.3377595099685E-01  0.3623313164777E-01  0.0000000000000E+00  0.5605906209744E-02
-0.3463862958150E-01  0.3692496741083E-01  0.0000000000000E+00  0.1483939029624E-01
-0.3485159591240E-01  0.3686792255960E-01  0.0000000000000E+00  0.2234963675262E-01
-0.3441334136772E-01  0.3609352712100E-01  0.0000000000000E+00  0.2878660724725E-01
-0.3343954158615E-01  0.3475810759050E-01  0.0000000000000E+00  0.3441316545629E-01
-0.3202256275833E-01  0.3298563192134E-01  0.0000000000000E+00  0.3950217820411E-01
-0.3023305835625E-01  0.3086693515769E-01  0.0000000000000E+00  0.4430916817815E-01
-0.2813761399681E-01  0.2848313683513E-01  0.0000000000000E+00  0.4897295008025E-01
-0.2579193562462E-01  0.2589963326114E-01  0.0000000000000E+00  0.5352557739297E-01
-0.2320647965143E-01  0.2313212886489E-01  0.0000000000000E+00  0.5796649765399E-01
-0.2035726651898E-01  0.2016119019597E-01  0.0000000000000E+00  0.6224405252683E-01
-0.1723570466699E-01  0.1698680750511E-01  0.0000000000000E+00  0.6619103255258E-01
-0.1345312918640E-01  0.1322895530693E-01  0.0000000000000E+00  0.6997329625166E-01
-0.8586652617814E-02  0.8437030173110E-02  0.0000000000000E+00  0.7346975212112E-01
-0.2803771981749E-02  0.2750861211707E-02  0.0000000000000E+00  0.7584393786314E-01
 0.2672610025157E-02  0.1525261350782E-03  0.0000000000000E+00 -0.1016376593694E+00
-0.1208216361948E-01  0.1426283493685E-01  0.0000000000000E+00 -0.6604907593944E-01
-0.2012396895073E-01  0.2189951198624E-01  0.0000000000000E+00 -0.3924196460814E-01
-0.2437153851693E-01  0.2588919940565E-01  0.0000000000000E+00 -0.1796291485068E-01
-0.2664604138857E-01  0.2802456886016E-01  0.0000000000000E+00 -0.8584115695299E-03
-0.2807240447064E-01  0.2938305442901E-01  0.0000000000000E+00  0.1239526370518E-01
-0.2904478752640E-01  0.3023688811647E-01  0.0000000000000E+00  0.2235551185013E-01
-0.2941334190828E-01  0.3039980889636E-01  0.0000000000000E+00  0.3026190983690E-01
-0.2918225238325E-01  0.2990314691846E-01  0.0000000000000E+00  0.3677821282181E-01
-0.2846762281663E-01  0.2889650950075E-01  0.0000000000000E+00  0.4220249713175E-01
-0.2735603338969E-01  0.2749309388669E-01  0.0000000000000E+00  0.4683082219401E-01
-0.2590627777574E-01  0.2576978223718E-01  0.0000000000000E+00  0.5095185561261E-01
-0.2417465358281E-01  0.2379756427911E-01  0.0000000000000E+00  0.5475948973414E-01
-0.2221760678601E-01  0.2164347316415E-01  0.0000000000000E+00  0.5834697752370E-01
-0.2005746616681E-01  0.1933627792897E-01  0.0000000000000E+00  0.6177129508125E-01
-0.1768929167641E-01  0.1687690783485E-01  0.0000000000000E+00  0.6504639757454E-01
-0.1512782608868E-01  0.1429017772967E-01  0.0000000000000E+00  0.6809903435292E-01
-0.1200007083855E-01  0.1120647546368E-01  0.0000000000000E+00  0.7114227121631E-01
-0.7810022463734E-02  0.7102316785625E-02  0.0000000000000E+00  0.7408460338261E-01
-0.2625949260860E-02  0.2016194586550E-02  0.0000000000000E+00  0.7609701262552E-01
 0.4594494961200E-02 -0.3294132207460E-02  0.0000000000000E+00 -0.1054302842768E+00
-0.7834266080364E-02  0.8625845081766E-02  0.0000000000000E+00 -0.6671479840756E-01
-0.1488782736654E-01  0.1535398013184E-01  0.0000000000000E+00 -0.3747369275829E-01
-0.1874361107812E-01  0.1900673802878E-01  0.0000000000000E+00 -0.1442719070910E-01
-0.2086905499433E-01  0.2103380905814E-01  0.0000000000000E+00  0.3952483223052E-02
-0.2222549130494E-01  0.2235766109738E-01  0.0000000000000E+00  0.1820195827527E-01
-0.2317012601119E-01  0.2322749868461E-01  0.0000000000000E+00  0.2893174955213E-01
-0.2357251888245E-01  0.2347942679388E-01  0.0000000000000E+00  0.3730449180051E-01
-0.2344056744677E-01  0.2314393404525E-01  0.0000000000000E+00  0.4398819274379E-01
-0.2288812614959E-01  0.2236251507346E-01  0.0000000000000E+00  0.4931387804327E-01
-0.2199676313401E-01  0.2123882602579E-01  0.0000000000000E+00  0.5359646648166E-01
-0.2081503103744E-01  0.1983706477746E-01  0.0000000000000E+00  0.5714507605492E-01
-0.1938745837646E-01  0.1821578579629E-01  0.0000000000000E+00  0.6019064457984E-01
-0.1776639099123E-01  0.1643794800141E-01  0.0000000000000E+00  0.6286884641583E-01
-0.1598172830554E-01  0.1454032457345E-01  0.0000000000000E+00  0.6527450133133E-01
-0.1404713748370E-01  0.1254312057836E-01  0.0000000000000E+00  0.6746641228765E-01
-0.1200604174305E-01  0.1050074126102E-01  0.0000000000000E+00  0.6944721809508E-01
-0.9533342043951E-02  0.8084298941088E-02  0.0000000000000E+00  0.7147527178027E-01
-0.6081024948017E-02  0.4719997334046E-02  0.0000000000000E+00  0.7354747695353E-01
-0.1590654167316E-02  0.3228426023776E-03  0.0000000000000E+00  0.7493610072074E-01
 0.6194791406380E-02 -0.6407300307157E-02  0.0000000000000E+00 -0.1084745319080E+00
-0.4035868907534E-02  0.3431586384135E-02  0.0000000000000E+00 -0.6749610259916E-01
-0.1000994817076E-01  0.9152514356448E-02  0.0000000000000E+00 -0.3629058283194E-01
-0.1332664901684E-01  0.1231610600405E-01  0.0000000000000E+00 -0.1170278125592E-01
-0.1515217834657E-01  0.1407873236412E-01  0.0000000000000E+00  0.7864926553744E-02
-0.1629722394888E-01  0.1521979253282E-01  0.0000000000000E+00  0.2309075140947E-01
-0.1708287790762E-01  0.1596646671326E-01  0.0000000000000E+00  0.3461177747343E-01
-0.1739888297730E-01  0.1617872448743E-01  0.0000000000000E+00  0.4350328803939E-01
-0.1725601518642E-01  0.1588630255134E-01  0.0000000000000E+00  0.5042600534163E-01
-0.1676386865119E-01  0.1522153646802E-01  0.0000000000000E+00  0.5573951069858E-01
-0.1599951595365E-01  0.1427955301658E-01  0.0000000000000E+00  0.5977567603005E-01
-0.1500299585364E-01  0.1311354525756E-01  0.0000000000000E+00  0.6285798003786E-01
-0.1380636122305E-01  0.1176844874580E-01  0.0000000000000E+00  0.6524352580889E-01
-0.1245300109694E-01  0.1029773778980E-01  0.0000000000000E+00  0.6709688637799E-01
-0.1097385615588E-01  0.8739040550054E-02  0.0000000000000E+00  0.6853245750968E-01
-0.9396394857816E-02  0.7126527015003E-02  0.0000000000000E+00  0.6962782505847E-01
-0.7793907427503E-02  0.5544593360243E-02  0.0000000000000E+00  0.7042820596315E-01
-0.5923753010679E-02  0.3737990596670E-02  0.0000000000000E+00  0.7121693158812E-01
-0.3225524130568E-02  0.1122566509919E-02  0.0000000000000E+00  0.7212905576362E-01
 0.4979388405599E-03 -0.2516911929186E-02  0.0000000000000E+00  0.7264929450014E-01
 0.7512736361123E-02 -0.9226803112410E-02  0.0000000000000E+00 -0.1108085181484E+00
-0.6513774751806E-03 -0.1354141908536E-02  0.0000000000000E+00 -0.6830201371235E-01
-0.5487315983816E-02  0.3293319751799E-02  0.0000000000000E+00 -0.3557068403039E-01
-0.8146864158123E-02  0.5844357271739E-02  0.0000000000000E+00 -0.9675698096944E-02
-0.9542037073679E-02  0.7206697901667E-02  0.0000000000000E+00  0.1097266275791E-01
-0.1034733308569E-01  0.8030148035025E-02  0.0000000000000E+00  0.2713471620942E-01
-0.1085038811609E-01  0.8522578896344E-02  0.0000000000000E+00  0.3945010298738E-01
-0.1096254950940E-01  0.8569845714455E-02  0.0000000000000E+00  0.4889749172434E-01
-0.1069784885360E-01  0.8201961251573E-02  0.0000000000000E+00  0.5611771539994E-01
-0.1016063854281E-01  0.7541815243264E-02  0.0000000000000E+00  0.6149192002771E-01
-0.9424325470476E-02  0.6677302341495E-02  0.0000000000000E+00  0.6536697066618E-01
-0.8522764589950E-02  0.5653076007161E-02  0.0000000000000E+00  0.6807864819635E-01
-0.7476085122886E-02  0.4500839135440E-02  0.0000000000000E+00  0.6990631533560E-01
-0.6314558477912E-02  0.3260134083940E-02  0.0000000000000E+00  0.7103847652588E-01
-0.5061333955465E-02  0.1960412949735E-02  0.0000000000000E+00  0.7159935577690E-01
-0.3746558779580E-02  0.6380499727298E-03  0.0000000000000E+00  0.7166115239388E-01
-0.2465263207471E-02 -0.6009051462036E-03  0.0000000000000E+00  0.7126652559837E-01
-0.1088465305089E-02 -0.1908766862183E-02  0.0000000000000E+00  0.7067330536115E-01
 0.8909716087240E-03 -0.3815120336045E-02  0.0000000000000E+00  0.7017474060900E-01
 0.3789714979510E-02 -0.6643103738413E-02  0.0000000000000E+00  0.6959599950909E-01
 0.8583979410440E-02 -0.1178903590198E-01  0.0000000000000E+00 -0.1124656682762E+00
 0.2354127936453E-02 -0.5765119608650E-02  0.0000000000000E+00 -0.6905474100300E-01
-0.1313703337038E-02 -0.2228687415757E-02  0.0000000000000E+00 -0.3520276763477E-01
-0.3225998949034E-02 -0.3858120607017E-03  0.0000000000000E+00 -0.8235357996861E-02
-0.4081330169289E-02  0.4612613750195E-03  0.0000000000000E+00  0.1337254994862E-01
-0.4433007042209E-02  0.8469972051998E-03  0.0000000000000E+00  0.3041438761489E-01
-0.4539136852464E-02  0.9637718124834E-03  0.0000000000000E+00  0.4351180471593E-01
-0.4334489662631E-02  0.7257208812939E-03  0.0000000000000E+00  0.5353944308214E-01
-0.3837640936059E-02  0.1648523936996E-03  0.0000000000000E+00  0.6110567432883E-01
-0.3147652484731E-02 -0.6049698567024E-03  0.0000000000000E+00  0.6660371691119E-01
-0.2335635110346E-02 -0.1501353006828E-02  0.0000000000000E+00  0.7039136949112E-01
-0.1432701674982E-02 -0.2484535871750E-02  0.0000000000000E+00  0.7281524433528E-01
-0.4500973372004E-03 -0.3532977987152E-02  0.0000000000000E+00  0.7417745582821E-01
 0.5964666069351E-03 -0.4622365256975E-02  0.0000000000000E+00  0.7469505969587E-01
 0.1699843056941E-02 -0.5739697226781E-02  0.0000000000000E+00  0.7450753887585E-01
 0.2845671340409E-02 -0.6864151346369E-02  0.0000000000000E+00  0.7367560034029E-01
 0.3941559426808E-02 -0.7894171038999E-02  0.0000000000000E+00  0.7219202346073E-01
 0.4991675891722E-02 -0.8866277839045E-02  0.0000000000000E+00  0.7020325963315E-01
 0.6356472065276E-02 -0.1016878646707E-01  0.0000000000000E+00  0.6810287493207E-01
 0.8387562711501E-02 -0.1214630620418E-01  0.0000000000000E+00  0.6618657510964E-01
 0.9441334840296E-02 -0.1412770012898E-01  0.0000000000000E+00 -0.1134740399124E+00
 0.5015137454306E-02 -0.9835073664451E-02  0.0000000000000E+00 -0.6968967133354E-01
 0.2519593976471E-02 -0.7420941334584E-02  0.0000000000000E+00 -0.3508788385696E-01
 0.1417949276479E-02 -0.6355419523463E-02  0.0000000000000E+00 -0.7276294741446E-02
 0.1190957006931E-02 -0.6117543641036E-02  0.0000000000000E+00  0.1516304582860E-01
 0.1391289134430E-02 -0.6274083099719E-02  0.0000000000000E+00  0.3301666779315E-01
 0.1785424185228E-02 -0.6643017811300E-02  0.0000000000000E+00  0.4687147516744E-01
 0.2413213765862E-02 -0.7279652004247E-02  0.0000000000000E+00  0.5749363437653E-01
 0.3249884996521E-02 -0.8147935976621E-02  0.0000000000000E+00  0.6544757751124E-01
 0.4201254476928E-02 -0.9142377572933E-02  0.0000000000000E+00  0.7112756853345E-01
 0.5197075551452E-02 -0.1018445503753E-01  0.0000000000000E+00  0.7489497062715E-01
 0.6204693654241E-02 -0.1123491014952E-01  0.0000000000000E+00  0.7710236480174E-01
 0.7215522891344E-02 -0.1227607391491E-01  0.0000000000000E+00  0.7807351807677E-01
 0.8223724912351E-02 -0.1329389981302E-01  0.0000000000000E+00  0.7806322285816E-01
 0.9240555834237E-02 -0.1429325764276E-01  0.0000000000000E+00  0.7724890698242E-01
 0.1028284465542E-01 -0.1528459788605E-01  0.0000000000000E+00  0.7570714820073E-01
 0.1130981771673E-01 -0.1621445565307E-01  0.0000000000000E+00  0.7338375460950E-01
 0.1224026923454E-01 -0.1705085169447E-01  0.0000000000000E+00  0.7018831746468E-01
 0.1319796239753E-01 -0.1794524147221E-01  0.0000000000000E+00  0.6642543788854E-01
 0.1435884267110E-01 -0.1907815888067E-01  0.0000000000000E+00  0.6288846079748E-01
 0.1011596114784E-01 -0.1627603116214E-01  0.0000000000000E+00 -0.1138577094154E+00
 0.7366153698784E-02 -0.1359730898710E-01  0.0000000000000E+00 -0.7015758820285E-01
 0.6022687905744E-02 -0.1229278850511E-01  0.0000000000000E+00 -0.3514185665094E-01
 0.5769255060059E-02 -0.1204697147692E-01  0.0000000000000E+00 -0.6699815770820E-02
 0.6239062840209E-02 -0.1249314557082E-01  0.0000000000000E+00  0.1644410980937E-01
 0.7074112836212E-02 -0.1328037506684E-01  0.0000000000000E+00  0.3503339144424E-01
 0.8059180185746E-02 -0.1423222487652E-01  0.0000000000000E+00  0.4961185563240E-01
 0.9207487128286E-02 -0.1537133676261E-01  0.0000000000000E+00  0.6083477075520E-01
 0.1048618200870E-01 -0.1665552092536E-01  0.0000000000000E+00  0.6921392277030E-01
 0.1180574237405E-01 -0.1798727753145E-01  0.0000000000000E+00  0.7513410335251E-01
 0.1309637745128E-01 -0.1929154815514E-01  0.0000000000000E+00  0.7895046011687E-01
 0.1432051814611E-01 -0.2052632770808E-01  0.0000000000000E+00  0.8101080657381E-01
 0.1546435936092E-01 -0.2167016793873E-01  0.0000000000000E+00  0.8165018678400E-01
 0.1652040679752E-01 -0.2270769237226E-01  0.0000000000000E+00  0.8116066896582E-01
 0.1750566421843E-01 -0.2364837394954E-01  0.0000000000000E+00  0.7978284393660E-01
 0.1846929143792E-01 -0.2453163849600E-01  0.0000000000000E+00  0.7767016960455E-01
 0.1944675085103E-01 -0.2538124740220E-01  0.0000000000000E+00  0.7481513364365E-01
 0.2042693451934E-01 -0.2621399441129E-01  0.0000000000000E+00  0.7094225077834E-01
 0.2132821902499E-01 -0.2704039192170E-01  0.0000000000000E+00  0.6575893839338E-01
 0.2175709388375E-01 -0.2745325020193E-01  0.0000000000000E+00  0.6027405122549E-01
 0.1064083768973E-01 -0.1826701777522E-01  0.0000000000000E+00 -0.1136264654006E+00
 0.9444727537934E-02 -0.1709347499912E-01  0.0000000000000E+00 -0.7043537590895E-01
 0.9202297639972E-02 -0.1684464165798E-01  0.0000000000000E+00 -0.3530377188525E-01
 0.9811777857681E-02 -0.1744482235078E-01  0.0000000000000E+00 -0.6406517176010E-02
 0.1103109779524E-01 -0.1863214532184E-01  0.0000000000000E+00  0.1731514351043E-01
 0.1256692811044E-01 -0.2012218412081E-01  0.0000000000000E+00  0.3656054813909E-01
 0.1421993360863E-01 -0.2174009096549E-01  0.0000000000000E+00  0.5182261111514E-01
 0.1597504745709E-01 -0.2347436479627E-01  0.0000000000000E+00  0.6364561219777E-01
 0.1778907772335E-01 -0.2527356339432E-01  0.0000000000000E+00  0.7248336105645E-01
 0.1957720743581E-01 -0.2704822295909E-01  0.0000000000000E+00  0.7870533729614E-01
 0.2127197543331E-01 -0.2872880947097E-01  0.0000000000000E+00  0.8265185470333E-01
 0.2283102694982E-01 -0.3027094723813E-01  0.0000000000000E+00  0.8465165487141E-01
 0.2423051080816E-01 -0.3164522606388E-01  0.0000000000000E+00  0.8502905624598E-01
 0.2544911753069E-01 -0.3282357384944E-01  0.0000000000000E+00  0.8408887501948E-01
 0.2648475497343E-01 -0.3379594615563E-01  0.0000000000000E+00  0.8212221399905E-01
 0.2738108559615E-01 -0.3459257915926E-01  0.0000000000000E+00  0.7940429397496E-01
 0.2823711195331E-01 -0.3529019141671E-01  0.0000000000000E+00  0.7611327501932E-01
 0.2910656898117E-01 -0.3597967645908E-01  0.0000000000000E+00  0.7213825703446E-01
 0.3031402328432E-01 -0.3691333022125E-01  0.0000000000000E+00  0.6683318368996E-01
 0.3064497868070E-01 -0.3728868217010E-01  0.0000000000000E+00  0.5934729187733E-01
 0.1106079528830E-01 -0.2019864116292E-01  0.0000000000000E+00 -0.1128974018339E+00
 0.1126884724252E-01 -0.2030536936557E-01  0.0000000000000E+00 -0.7062494519452E-01
 0.1204429440577E-01 -0.2107107714954E-01  0.0000000000000E+00 -0.3548159684600E-01
 0.1353599099432E-01 -0.2253659796368E-01  0.0000000000000E+00 -0.6302165818160E-02
 0.1553787827182E-01 -0.2450535132981E-01  0.0000000000000E+00  0.1787293686827E-01
 0.1782339999043E-01 -0.2675073037649E-01  0.0000000000000E+00  0.3769649702964E-01
 0.2020782032698E-01 -0.2910541481170E-01  0.0000000000000E+00  0.5360251001974E-01
 0.2264473610712E-01 -0.3151622641139E-01  0.0000000000000E+00  0.6601554322369E-01
 0.2507492886809E-01 -0.3391658744848E-01  0.0000000000000E+00  0.7533664575414E-01
 0.2741912051288E-01 -0.3622619682028E-01  0.0000000000000E+00  0.8192264067042E-01
 0.2961659997794E-01 -0.3838533477073E-01  0.0000000000000E+00  0.8609696229365E-01
 0.3162545959684E-01 -0.4035306550160E-01  0.0000000000000E+00  0.8815860346365E-01
 0.3341393038207E-01 -0.4209455941840E-01  0.0000000000000E+00  0.8839763194826E-01
 0.3494523060344E-01 -0.4356850914023E-01  0.0000000000000E+00  0.8709344954646E-01
 0.3618627952004E-01 -0.4473597604270E-01  0.0000000000000E+00  0.8452167711081E-01
 0.3712647944680E-01 -0.4557615231945E-01  0.0000000000000E+00  0.8098774334430E-01
 0.3781965320497E-01 -0.4611236814998E-01  0.0000000000000E+00  0.7687953658279E-01
 0.3832319513073E-01 -0.4640585958752E-01  0.0000000000000E+00  0.7243506724231E-01
 0.3898951854134E-01 -0.4681535216226E-01  0.0000000000000E+00  0.6777764565436E-01
 0.4062316402178E-01 -0.4751837490441E-01  0.0000000000000E+00  0.6122263929799E-01
 0.5025114239657E-01 -0.1091540118491E+00  0.0000000000000E+00  0.2662278460912E+00
 0.8878240587887E-01 -0.1454095741363E+00  0.0000000000000E+00  0.2796770159808E+00
 0.1253887235853E+00 -0.1795272530339E+00  0.0000000000000E+00  0.2833222213849E+00
 0.1585068548764E+00 -0.2101630537338E+00  0.0000000000000E+00  0.2797218163957E+00
 0.1877553851750E+00 -0.2369823091926E+00  0.0000000000000E+00  0.2711951387876E+00
 0.2131460195296E+00 -0.2600329593618E+00  0.0000000000000E+00  0.2594784727147E+00
 0.2348432392082E+00 -0.2794822090846E+00  0.0000000000000E+00  0.2457635717089E+00
 0.2531227507256E+00 -0.2956304424314E+00  0.0000000000000E+00  0.2312376361366E+00
 0.2683916967482E+00 -0.3089077995380E+00  0.0000000000000E+00  0.2168532985055E+00
 0.2810967214496E+00 -0.3197708782196E+00  0.0000000000000E+00  0.2032056413902E+00
 0.2916455136933E+00 -0.3286321479458E+00  0.0000000000000E+00  0.1906528823192E+00
 0.3003943322876E+00 -0.3358519839155E+00  0.0000000000000E+00  0.1794187280085E+00
 0.3076562162600E+00 -0.3417494127065E+00  0.0000000000000E+00  0.1696334802917E+00
 0.3137017555957E+00 -0.3465998364098E+00  0.0000000000000E+00  0.1613411811450E+00
 0.3187526934744E+00 -0.3506290112797E+00  0.0000000000000E+00  0.1545251972798E+00
 0.3229856241904E+00 -0.3540179371631E+00  0.0000000000000E+00  0.1491193489982E+00
 0.3265444050418E+00 -0.3569111754625E+00  0.0000000000000E+00  0.1449581168572E+00
 0.3294580006152E+00 -0.3593402116321E+00  0.0000000000000E+00  0.1419864124433E+00
 0.3318024196818E+00 -0.3613960958855E+00  0.0000000000000E+00  0.1403159689533E+00
 0.3338841478577E+00 -0.3633171055638E+00  0.0000000000000E+00  0.1399894947609E+00
 0.5515255920481E-01 -0.1155020246676E+00  0.0000000000000E+00  0.2825101683027E+00
 0.9704166126034E-01 -0.1547788081816E+00  0.0000000000000E+00  0.2949658404586E+00
 0.1361046681309E+00 -0.1911862186971E+00  0.0000000000000E+00  0.2951505179493E+00
 0.1709776703552E+00 -0.2233878339813E+00  0.0000000000000E+00  0.2873122702340E+00
 0.2012105019345E+00 -0.2510200479541E+00  0.0000000000000E+00  0.2744631279948E+00
 0.2268918043349E+00 -0.2741972245358E+00  0.0000000000000E+00  0.2586280372195E+00
 0.2482926620489E+00 -0.2931871532394E+00  0.0000000000000E+00  0.2411335553050E+00
 0.2658025854604E+00 -0.3084122521386E+00  0.0000000000000E+00  0.2234519388750E+00
 0.2799761901184E+00 -0.3204543474164E+00  0.0000000000000E+00  0.2067199108301E+00
 0.2913964266281E+00 -0.3299083322226E+00  0.0000000000000E+00  0.1915536633665E+00
 0.3005696950443E+00 -0.3372881530422E+00  0.0000000000000E+00  0.1782685973962E+00
 0.3079188440555E+00 -0.3430232447652E+00  0.0000000000000E+00  0.1670284172121E+00
 0.3138017617210E+00 -0.3474778601620E+00  0.0000000000000E+00  0.1578776410811E+00
 0.3185184977491E+00 -0.3509561246151E+00  0.0000000000000E+00  0.1507510399298E+00
 0.3223099004129E+00 -0.3537021401030E+00  0.0000000000000E+00  0.1455176093900E+00
 0.3253745842667E+00 -0.3559162862899E+00  0.0000000000000E+00  0.1419843374104E+00
 0.3279029324153E+00 -0.3577846525140E+00  0.0000000000000E+00  0.1398496552051E+00
 0.3298848923465E+00 -0.3593236267055E+00  0.0000000000000E+00  0.1391528138502E+00
 0.3314203628255E+00 -0.3606473813056E+00  0.0000000000000E+00  0.1401186495401E+00
 0.3327645861072E+00 -0.3619926935761E+00  0.0000000000000E+00  0.1427247719499E+00
 0.6047176563256E-01 -0.1222295752114E+00  0.0000000000000E+00  0.2992706357825E+00
 0.1061054558635E+00 -0.1650264955447E+00  0.0000000000000E+00  0.3097159454988E+00
 0.1477757373646E+00 -0.2037959746933E+00  0.0000000000000E+00  0.3057435560953E+00
 0.1842308495708E+00 -0.2373683126883E+00  0.0000000000000E+00  0.2927998598781E+00
 0.2151346366650E+00 -0.2654696509169E+00  0.0000000000000E+00  0.2748421356701E+00
 0.2407095499338E+00 -0.2883524078834E+00  0.0000000000000E+00  0.2542681516536E+00
 0.2613776939217E+00 -0.3064280884810E+00  0.0000000000000E+00  0.2326425134825E+00
 0.2776704455404E+00 -0.3202668390275E+00  0.0000000000000E+00  0.2117701171391E+00
 0.2903282890879E+00 -0.3306413699429E+00  0.0000000000000E+00  0.1929097959295E+00
 0.3000956461623E+00 -0.3383104173427E+00  0.0000000000000E+00  0.1766172911995E+00
 0.3075838836725E+00 -0.3438950606024E+00  0.0000000000000E+00  0.1630992620919E+00
 0.3132814295261E+00 -0.3478918087712E+00  0.0000000000000E+00  0.1524039467874E+00
 0.3175915742759E+00 -0.3507099846397E+00  0.0000000000000E+00  0.1444433629113E+00
 0.3208436367083E+00 -0.3526822113012E+00  0.0000000000000E+00  0.1390171586893E+00
 0.3232974046680E+00 -0.3540710010702E+00  0.0000000000000E+00  0.1358769651980E+00
 0.3251708443006E+00 -0.3550952834829E+00  0.0000000000000E+00  0.1347272817939E+00
 0.3266748807210E+00 -0.3559589681338E+00  0.0000000000000E+00  0.1351783716463E+00
 0.3277028351305E+00 -0.3566098637652E+00  0.0000000000000E+00  0.1373976829211E+00
 0.3283611696421E+00 -0.3571869739871E+00  0.0000000000000E+00  0.1415558249614E+00
 0.3289900473728E+00 -0.3579938978140E+00  0.0000000000000E+00  0.1470066492904E+00
 0.6633432713917E-01 -0.1295609836369E+00  0.0000000000000E+00  0.3167765944760E+00
 0.1160858554674E+00 -0.1762123801210E+00  0.0000000000000E+00  0.3240599088888E+00
 0.1604372606137E+00 -0.2174032241308E+00  0.0000000000000E+00  0.3147647766267E+00
 0.1982714123941E+00 -0.2521037437724E+00  0.0000000000000E+00  0.2957263876361E+00
 0.2294523125829E+00 -0.2802521786547E+00  0.0000000000000E+00  0.2718510721372E+00
 0.2544351818924E+00 -0.3023284003769E+00  0.0000000000000E+00  0.2459833930154E+00
 0.2738523427032E+00 -0.3189504110959E+00  0.0000000000000E+00  0.2199940112407E+00
 0.2884302503699E+00 -0.3308898374228E+00  0.0000000000000E+00  0.1960446932143E+00
 0.2991377798955E+00 -0.3391515134229E+00  0.0000000000000E+00  0.1754296154682E+00
 0.3068965901686E+00 -0.3446733439051E+00  0.0000000000000E+00  0.1585370847740E+00
 0.3124213847472E+00 -0.3481815618460E+00  0.0000000000000E+00  0.1453862942173E+00
 0.3162596388881E+00 -0.3502326452833E+00  0.0000000000000E+00  0.1358564731080E+00
 0.3188530462510E+00 -0.3512731682187E+00  0.0000000000000E+00  0.1296906498670E+00
 0.3205503030856E+00 -0.3516540380805E+00  0.0000000000000E+00  0.1265374056263E+00
 0.3216177891721E+00 -0.3516441807812E+00  0.0000000000000E+00  0.1260325342488E+00
 0.3222746789667E+00 -0.3514634475012E+00  0.0000000000000E+00  0.1277853822579E+00
 0.3227191005879E+00 -0.3513001323647E+00  0.0000000000000E+00  0.1313128876160E+00
 0.3227198929584E+00 -0.3510106475394E+00  0.0000000000000E+00  0.1368489663743E+00
 0.3224908460084E+00 -0.3508462711245E+00  0.0000000000000E+00  0.1443103846168E+00
 0.3226446189685E+00 -0.3513586412438E+00  0.0000000000000E+00  0.1523826158315E+00
 0.7285463108047E-01 -0.1376230837445E+00  0.0000000000000E+00  0.3351219943806E+00
 0.1271422235549E+00 -0.1885081491554E+00  0.0000000000000E+00  0.3378730121787E+00
 0.1741692707763E+00 -0.2320788628060E+00  0.0000000000000E+00  0.3218750971235E+00
 0.2130808545289E+00 -0.2675736439430E+00  0.0000000000000E+00  0.2955944476434E+00
 0.2440446674003E+00 -0.2952420650918E+00  0.0000000000000E+00  0.2649876641486E+00
 0.2678506801521E+00 -0.3158987531743E+00  0.0000000000000E+00  0.2333591372373E+00
 0.2854246158766E+00 -0.3304528755011E+00  0.0000000000000E+00  0.2029363321718E+00
 0.2977559162684E+00 -0.3399463989145E+00  0.0000000000000E+00  0.1762166627702E+00
 0.3060839872133E+00 -0.3456566543306E+00  0.0000000000000E+00  0.1543969390961E+00
 0.3115112630170E+00 -0.3487035849692E+00  0.0000000000000E+00  0.1375694035496E+00
 0.3148421264102E+00 -0.3499044596247E+00  0.0000000000000E+00  0.1254823537438E+00
 0.3166672018221E+00 -0.3498590030741E+00  0.0000000000000E+00  0.1177956523987E+00
 0.3174508545291E+00 -0.3490341586450E+00  0.0000000000000E+00  0.1140530486918E+00
 0.3175429789081E+00 -0.3477802251586E+00  0.0000000000000E+00  0.1137395625708E+00
 0.3171979656480E+00 -0.3463535974163E+00  0.0000000000000E+00  0.1163710428724E+00
 0.3166170919361E+00 -0.3449555657877E+00  0.0000000000000E+00  0.1214526055988E+00
 0.3159619806391E+00 -0.3437350687261E+00  0.0000000000000E+00  0.1283794524925E+00
 0.3148957444561E+00 -0.3424747286617E+00  0.0000000000000E+00  0.1373858482588E+00
 0.3138552931597E+00 -0.3416517563157E+00  0.0000000000000E+00  0.1480747343504E+00
 0.3138181355717E+00 -0.3421598734201E+00  0.0000000000000E+00  0.1585575433068E+00
 0.8015735228125E-01 -0.1465576022594E+00  0.0000000000000E+00  0.3544310787207E+00
 0.1394446798471E+00 -0.2020888150236E+00  0.0000000000000E+00  0.3509418371050E+00
 0.1890579666490E+00 -0.2479090742625E+00  0.0000000000000E+00  0.3266338794141E+00
 0.2286192669651E+00 -0.2837320508253E+00  0.0000000000000E+00  0.2918550848556E+00
 0.2587441432030E+00 -0.3102637899775E+00  0.0000000000000E+00  0.2537244568519E+00
 0.2806829484791E+00 -0.3287797974674E+00  0.0000000000000E+00  0.2160056651217E+00
 0.2957561600884E+00 -0.3405864927739E+00  0.0000000000000E+00  0.1812963927339E+00
 0.3052961115971E+00 -0.3470757699426E+00  0.0000000000000E+00  0.1523441141967E+00
 0.3108455911566E+00 -0.3498280800751E+00  0.0000000000000E+00  0.1300610617183E+00
 0.3136727190948E+00 -0.3501295892555E+00  0.0000000000000E+00  0.1140969916715E+00
 0.3146428571592E+00 -0.3488590571335E+00  0.0000000000000E+00  0.1038470649361E+00
 0.3143635643276E+00 -0.3466318470723E+00  0.0000000000000E+00  0.9870750419105E-01
 0.3132984521367E+00 -0.3439101927056E+00  0.0000000000000E+00  0.9799920550170E-01
 0.3117756648611E+00 -0.3410196395355E+00  0.0000000000000E+00  0.1010347421527E+00
 0.3100186112321E+00 -0.3381842255093E+00  0.0000000000000E+00  0.1072048414450E+00
 0.3081964142371E+00 -0.3355719053279E+00  0.0000000000000E+00  0.1158995852027E+00
 0.3064239777145E+00 -0.3332813406822E+00  0.0000000000000E+00  0.1263716013561E+00
 0.3042961316152E+00 -0.3310585829355E+00  0.0000000000000E+00  0.1388274770144E+00
 0.3025627846229E+00 -0.3296979215068E+00  0.0000000000000E+00  0.1525741053470E+00
 0.3026035570984E+00 -0.3304800735300E+00  0.0000000000000E+00  0.1652633293930E+00
 0.8838683559709E-01 -0.1565267796708E+00  0.0000000000000E+00  0.3748442252282E+00
 0.1531802930231E+00 -0.2171481574958E+00  0.0000000000000E+00  0.3629720835462E+00
 0.2051820613281E+00 -0.2649717776438E+00  0.0000000000000E+00  0.3284980184828E+00
 0.2448115156165E+00 -0.3004975917189E+00  0.0000000000000E+00  0.2838839792050E+00
 0.2733272950453E+00 -0.3250832825639E+00  0.0000000000000E+00  0.2375162270177E+00
 0.2925993329700E+00 -0.3406261262594E+00  0.0000000000000E+00  0.1935832558989E+00
 0.3044648785526E+00 -0.3489569443842E+00  0.0000000000000E+00  0.1550143853103E+00
 0.3106835718090E+00 -0.3519006354927E+00  0.0000000000000E+00  0.1246321830656E+00
 0.3131142335912E+00 -0.3513504691325E+00  0.0000000000000E+00  0.1028203815776E+00
 0.3131498312633E+00 -0.3487170651150E+00  0.0000000000000E+00  0.8863131564087E-01
 0.3116711222312E+00 -0.3448935528818E+00  0.0000000000000E+00  0.8103435931703E-01
 0.3092668835737E+00 -0.3404730586052E+00  0.0000000000000E+00  0.7912949270154E-01
 0.3063711973419E+00 -0.3358821880833E+00  0.0000000000000E+00  0.8200225337259E-01
 0.3032661417023E+00 -0.3313959167205E+00  0.0000000000000E+00  0.8879240899094E-01
 0.3001277585231E+00 -0.3271885732070E+00  0.0000000000000E+00  0.9876691204816E-01
 0.2970847153404E+00 -0.3233859267220E+00  0.0000000000000E+00  0.1111998399908E+00
 0.2942026971966E+00 -0.3200335904756E+00  0.0000000000000E+00  0.1252012224915E+00
 0.2910498915848E+00 -0.3168825365013E+00  0.0000000000000E+00  0.1409514377779E+00
 0.2887512842399E+00 -0.3151111185738E+00  0.0000000000000E+00  0.1575168528813E+00
 0.2891033165042E+00 -0.3164112654325E+00  0.0000000000000E+00  0.1721959157922E+00
 0.9771326557465E-01 -0.1677223831613E+00  0.0000000000000E+00  0.3965197297628E+00
 0.1685555439009E+00 -0.2339003746497E+00  0.0000000000000E+00  0.3735744912680E+00
 0.2226047328375E+00 -0.2833292488026E+00  0.0000000000000E+00  0.3268064972320E+00
 0.2615332490225E+00 -0.3177376446337E+00  0.0000000000000E+00  0.2709757683319E+00
 0.2875029176378E+00 -0.3393959020457E+00  0.0000000000000E+00  0.2158120731166E+00
 0.3032035742976E+00 -0.3510258992525E+00  0.0000000000000E+00  0.1658357809988E+00
 0.3111308137188E+00 -0.3551304050918E+00  0.0000000000000E+00  0.1241828981259E+00
 0.3135495351216E+00 -0.3540418637099E+00  0.0000000000000E+00  0.9346216742452E-01
 0.3126127372423E+00 -0.3499407658799E+00  0.0000000000000E+00  0.7323390786337E-01
 0.3097652152112E+00 -0.3442876561007E+00  0.0000000000000E+00  0.6180615804482E-01
 0.3058406623756E+00 -0.3379250271296E+00  0.0000000000000E+00  0.5767196828213E-01
 0.3013663162381E+00 -0.3313780620632E+00  0.0000000000000E+00  0.5962239700458E-01
 0.2967157279934E+00 -0.3250043211434E+00  0.0000000000000E+00  0.6651225991041E-01
 0.2921021274197E+00 -0.3190038911395E+00  0.0000000000000E+00  0.7732164925763E-01
 0.2876419080281E+00 -0.3134882009616E+00  0.0000000000000E+00  0.9120650458872E-01
 0.2834197477861E+00 -0.3085369845379E+00  0.0000000000000E+00  0.1073383142429E+00
 0.2794534246595E+00 -0.3041441239015E+00  0.0000000000000E+00  0.1247043916981E+00
 0.2753263263225E+00 -0.3001075596243E+00  0.0000000000000E+00  0.1434782462151E+00
 0.2725794232485E+00 -0.2980380620069E+00  0.0000000000000E+00  0.1625591799046E+00
 0.2734337046546E+00 -0.3000569825447E+00  0.0000000000000E+00  0.1789921209052E+00
 0.1083392734598E+00 -0.1803739392954E+00  0.0000000000000E+00  0.4196305021984E+00
 0.1857986411726E+00 -0.2525832365381E+00  0.0000000000000E+00  0.3822389051789E+00
 0.2413636958392E+00 -0.3030175342801E+00  0.0000000000000E+00  0.3207576263104E+00
 0.2785943324390E+00 -0.3352507873169E+00  0.0000000000000E+00  0.2523404173327E+00
 0.3008983850002E+00 -0.3528114769523E+00  0.0000000000000E+00  0.1880791873746E+00
 0.3120333602659E+00 -0.3594978648618E+00  0.0000000000000E+00  0.1326351986257E+00
 0.3153076113299E+00 -0.3586451157299E+00  0.0000000000000E+00  0.8909166301921E-01
 0.3135445372741E+00 -0.3531400560015E+00  0.0000000000000E+00  0.5941752881681E-01
 0.3091179258582E+00 -0.3453720765292E+00  0.0000000000000E+00  0.4202321863792E-01
 0.3034148557697E+00 -0.3367395431403E+00  0.0000000000000E+00  0.3435943675616E-01
 0.2971455856517E+00 -0.3279542123566E+00  0.0000000000000E+00  0.3443120397722E-01
 0.2907305244573E+00 -0.3194245518773E+00  0.0000000000000E+00  0.4073721492662E-01
 0.2844534401668E+00 -0.3114075202875E+00  0.0000000000000E+00  0.5192808935504E-01
 0.2784401503359E+00 -0.3040084447848E+00  0.0000000000000E+00  0.6685273365431E-01
 0.2727399287362E+00 -0.2972676767272E+00  0.0000000000000E+00  0.8458077797336E-01
 0.2673935579761E+00 -0.2912189047580E+00  0.0000000000000E+00  0.1042078357279E+00
 0.2623742074920E+00 -0.2858078485745E+00  0.0000000000000E+00  0.1246340359062E+00
 0.2573234160011E+00 -0.2809226909587E+00  0.0000000000000E+00  0.1460542794600E+00
 0.2542238572109E+00 -0.2786417996359E+00  0.0000000000000E+00  0.1672851379718E+00
 0.2557256357921E+00 -0.2815319994818E+00  0.0000000000000E+00  0.1852194521696E+00
 0.1205079569002E+00 -0.1947593068920E+00  0.0000000000000E+00  0.4443583408018E+00
 0.2051611504755E+00 -0.2734605866190E+00  0.0000000000000E+00  0.3882955017646E+00
 0.2614570712796E+00 -0.3240316494933E+00  0.0000000000000E+00  0.3093776489799E+00
 0.2957172914149E+00 -0.3527434068288E+00  0.0000000000000E+00  0.2271034450673E+00
 0.3130445667172E+00 -0.3648375476558E+00  0.0000000000000E+00  0.1538408200947E+00
 0.3185623420319E+00 -0.3654928053131E+00  0.0000000000000E+00  0.9404103562211E-01
 0.3165423919476E+00 -0.3590319411664E+00  0.0000000000000E+00  0.5027661825745E-01
 0.3103669023716E+00 -0.3488854789686E+00  0.0000000000000E+00  0.2330170268669E-01
 0.3024871229284E+00 -0.3375017012319E+00  0.0000000000000E+00  0.1005888254505E-01
 0.2940868938929E+00 -0.3260672444289E+00  0.0000000000000E+00  0.7099102687316E-02
 0.2856702803717E+00 -0.3150757377421E+00  0.0000000000000E+00  0.1198566490296E-01
 0.2775101197284E+00 -0.3047747993810E+00  0.0000000000000E+00  0.2297754806248E-01
 0.2697775707656E+00 -0.2952962411040E+00  0.0000000000000E+00  0.3856953328144E-01
 0.2624988945934E+00 -0.2866375771485E+00  0.0000000000000E+00  0.5752017571673E-01
 0.2556536761071E+00 -0.2787649901625E+00  0.0000000000000E+00  0.7884600200354E-01
 0.2492414590032E+00 -0.2716688112410E+00  0.0000000000000E+00  0.1016032472595E+00
 0.2431952995212E+00 -0.2652514952314E+00  0.0000000000000E+00  0.1246519746137E+00
 0.2372616223053E+00 -0.2595383161932E+00  0.0000000000000E+00  0.1482401742266E+00
 0.2338786805613E+00 -0.2571002886820E+00  0.0000000000000E+00  0.1711952156194E+00
 0.2361246409574E+00 -0.2609616678798E+00  0.0000000000000E+00  0.1903686567230E+00
 0.1345133151634E+00 -0.2112190844378E+00  0.0000000000000E+00  0.4708828904015E+00
 0.2269184774789E+00 -0.2968241660655E+00  0.0000000000000E+00  0.3908576314040E+00
 0.2828219161211E+00 -0.3463027160412E+00  0.0000000000000E+00  0.2914783929633E+00
 0.3125083337231E+00 -0.3697977593506E+00  0.0000000000000E+00  0.1943139844631E+00
 0.3233604036271E+00 -0.3748616140718E+00  0.0000000000000E+00  0.1127360313571E+00
 0.3222107426015E+00 -0.3684040443967E+00  0.0000000000000E+00  0.5037800373499E-01
 0.3144078071827E+00 -0.3558481925557E+00  0.0000000000000E+00  0.8568433719770E-02
 0.3037994032907E+00 -0.3410571301897E+00  0.0000000000000E+00 -0.1386192875195E-01
 0.2926856143670E+00 -0.3263004008584E+00  0.0000000000000E+00 -0.2167698859245E-01
 0.2818755031276E+00 -0.3123761232469E+00  0.0000000000000E+00 -0.1915011009479E-01
 0.2715916784672E+00 -0.2994801142421E+00  0.0000000000000E+00 -0.9039194528228E-02
 0.2619325613643E+00 -0.2876699399113E+00  0.0000000000000E+00  0.6761979105768E-02
 0.2529444567008E+00 -0.2769391712660E+00  0.0000000000000E+00  0.2665425646146E-01
 0.2445490801674E+00 -0.2671719055326E+00  0.0000000000000E+00  0.4935117668216E-01
 0.2366577549098E+00 -0.2582610884754E+00  0.0000000000000E+00  0.7385266426180E-01
 0.2292328129911E+00 -0.2501577764376E+00  0.0000000000000E+00  0.9921839210649E-01
 0.2221723750525E+00 -0.2427267452516E+00  0.0000000000000E+00  0.1243248079842E+00
 0.2153815272717E+00 -0.2361835440167E+00  0.0000000000000E+00  0.1495044821338E+00
 0.2117571294534E+00 -0.2336075867758E+00  0.0000000000000E+00  0.1736983470318E+00
 0.2147925289480E+00 -0.2384829874729E+00  0.0000000000000E+00  0.1938443755081E+00
 0.1507143381762E+00 -0.2301773101879E+00  0.0000000000000E+00  0.4993606214253E+00
 0.2513677558019E+00 -0.3229934776413E+00  0.0000000000000E+00  0.3887352224294E+00
 0.3053003442630E+00 -0.3696612400287E+00  0.0000000000000E+00  0.2656003935196E+00
 0.3284178939274E+00 -0.3858275241486E+00  0.0000000000000E+00  0.1529696723975E+00
 0.3311402508839E+00 -0.3821355653519E+00  0.0000000000000E+00  0.6461353445381E-01
 0.3223713874271E+00 -0.3675947242133E+00  0.0000000000000E+00  0.2333339649954E-02
 0.3085503544576E+00 -0.3487296440767E+00  0.0000000000000E+00 -0.3487166611579E-01
 0.2937520644236E+00 -0.3295689524431E+00  0.0000000000000E+00 -0.5086357965306E-01
 0.2798091764701E+00 -0.3118763617309E+00  0.0000000000000E+00 -0.5216076603581E-01
 0.2669841146795E+00 -0.2958851853300E+00  0.0000000000000E+00 -0.4361742745066E-01
 0.2551709406394E+00 -0.2814443005127E+00  0.0000000000000E+00 -0.2811744349210E-01
 0.2442896776435E+00 -0.2684165607523E+00  0.0000000000000E+00 -0.7604949610089E-02
 0.2342609754232E+00 -0.2566561348255E+00  0.0000000000000E+00  0.1628515411773E-01
 0.2249022451318E+00 -0.2459331542784E+00  0.0000000000000E+00  0.4226227533627E-01
 0.2160601872089E+00 -0.2360703697103E+00  0.0000000000000E+00  0.6934634958599E-01
 0.2076643545089E+00 -0.2269840878251E+00  0.0000000000000E+00  0.9664795844973E-01
 0.1995834094586E+00 -0.2185072083906E+00  0.0000000000000E+00  0.1231248842074E+00
 0.1919454661454E+00 -0.2111078797409E+00  0.0000000000000E+00  0.1492215953341E+00
 0.1880970978221E+00 -0.2083791086335E+00  0.0000000000000E+00  0.1741049219409E+00
 0.1919130488955E+00 -0.2142496372636E+00  0.0000000000000E+00  0.1949520408124E+00
 0.1695545435455E+00 -0.2521725733951E+00  0.0000000000000E+00  0.5298842633162E+00
 0.2788197657163E+00 -0.3523105895517E+00  0.0000000000000E+00  0.3802981802472E+00
 0.3285841802237E+00 -0.3937757792932E+00  0.0000000000000E+00  0.2299373666495E+00
 0.3426872402989E+00 -0.4000159844731E+00  0.0000000000000E+00  0.1020770988725E+00
 0.3355516231012E+00 -0.3857705187738E+00  0.0000000000000E+00  0.9678614856787E-02
 0.3184619828822E+00 -0.3624546190373E+00  0.0000000000000E+00 -0.4893153504390E-01
 0.2987572681516E+00 -0.3374640544780E+00  0.0000000000000E+00 -0.7855430665055E-01
 0.2803033068327E+00 -0.3145146857637E+00  0.0000000000000E+00 -0.8639589393544E-01
 0.2640913075137E+00 -0.2944820485352E+00  0.0000000000000E+00 -0.8043291932566E-01
 0.2497119130724E+00 -0.2769114134007E+00  0.0000000000000E+00 -0.6566145539448E-01
 0.2367343571795E+00 -0.2613108832620E+00  0.0000000000000E+00 -0.4485912747849E-01
 0.2249210020533E+00 -0.2473693592211E+00  0.0000000000000E+00 -0.1994363413356E-01
 0.2140716332786E+00 -0.2348049872112E+00  0.0000000000000E+00  0.7450292768637E-02
 0.2039006067091E+00 -0.2232738475618E+00  0.0000000000000E+00  0.3606310148959E-01
 0.1941948248566E+00 -0.2125328946360E+00  0.0000000000000E+00  0.6497372676116E-01
 0.1848561781254E+00 -0.2024692099192E+00  0.0000000000000E+00  0.9339503326450E-01
 0.1757294529796E+00 -0.1928895322165E+00  0.0000000000000E+00  0.1204376304964E+00
 0.1672442351969E+00 -0.1845883825064E+00  0.0000000000000E+00  0.1466743560898E+00
 0.1631725369970E+00 -0.1816630765832E+00  0.0000000000000E+00  0.1716206861893E+00
 0.1677042070282E+00 -0.1884436014804E+00  0.0000000000000E+00  0.1928806210884E+00
 0.1915895014368E+00 -0.2779070907329E+00  0.0000000000000E+00  0.5624021505767E+00
 0.3095768837099E+00 -0.3851220159644E+00  0.0000000000000E+00  0.3632501142487E+00
 0.3521212378031E+00 -0.4180463030143E+00  0.0000000000000E+00  0.1822399958451E+00
 0.3542788529280E+00 -0.4112322070344E+00  0.0000000000000E+00  0.4078750378211E-01
 0.3356606464825E+00 -0.3847619353966E+00  0.0000000000000E+00 -0.5128045158453E-01
 0.3100188425834E+00 -0.3525053385825E+00  0.0000000000000E+00 -0.1016803395388E+00
 0.2850364933007E+00 -0.3220811617730E+00  0.0000000000000E+00 -0.1207501090200E+00
 0.2637208185746E+00 -0.2961898506755E+00  0.0000000000000E+00 -0.1192188575537E+00
 0.2458813884964E+00 -0.2744881114661E+00  0.0000000000000E+00 -0.1057224743322E+00
 0.2304218472786E+00 -0.2558339576935E+00  0.0000000000000E+00 -0.8481987740031E-01
 0.2166495389683E+00 -0.2394633160634E+00  0.0000000000000E+00 -0.5901267780746E-01
 0.2041994381411E+00 -0.2249171144151E+00  0.0000000000000E+00 -0.3019016499508E-01
 0.1927486453773E+00 -0.2117718835556E+00  0.0000000000000E+00  0.2951009626528E-04
 0.1819085091834E+00 -0.1995684360132E+00  0.0000000000000E+00  0.3046218039886E-01
 0.1714148047979E+00 -0.1880074008974E+00  0.0000000000000E+00  0.6029281297446E-01
 0.1611498887420E+00 -0.1769558991402E+00  0.0000000000000E+00  0.8888683204420E-01
 0.1509398579300E+00 -0.1661993332196E+00  0.0000000000000E+00  0.1155786146887E+00
 0.1416107041563E+00 -0.1569443517173E+00  0.0000000000000E+00  0.1410639251265E+00
 0.1373134083027E+00 -0.1537610167592E+00  0.0000000000000E+00  0.1653434808081E+00
 0.1424406866017E+00 -0.1612968664218E+00  0.0000000000000E+00  0.1866820204852E+00
 0.2175256777839E+00 -0.3083286183900E+00  0.0000000000000E+00  0.5965506288617E+00
 0.3438771563960E+00 -0.4217274333057E+00  0.0000000000000E+00  0.3342304295025E+00
 0.3749506688166E+00 -0.4414099089500E+00  0.0000000000000E+00  0.1197100029342E+00
 0.3617957668410E+00 -0.4179281079028E+00  0.0000000000000E+00 -0.3130660585330E-01
 0.3305226229573E+00 -0.3780897529966E+00  0.0000000000000E+00 -0.1165590912150E+00
 0.2968467297400E+00 -0.3375755306755E+00  0.0000000000000E+00 -0.1535881638796E+00
 0.2676820447948E+00 -0.3029270866223E+00  0.0000000000000E+00 -0.1597368837884E+00
 0.2444292833907E+00 -0.2750522496183E+00  0.0000000000000E+00 -0.1483929079402E+00
 0.2255852675437E+00 -0.2523140078170E+00  0.0000000000000E+00 -0.1275313601718E+00
 0.2095021224698E+00 -0.2330536614002E+00  0.0000000000000E+00 -0.1007892726119E+00
 0.1953105997082E+00 -0.2163126579807E+00  0.0000000000000E+00 -0.7042987032278E-01
 0.1825253713618E+00 -0.2014782274110E+00  0.0000000000000E+00 -0.3838245817915E-01
 0.1706848179031E+00 -0.1879640519452E+00  0.0000000000000E+00 -0.6205909330549E-02
 0.1593028790311E+00 -0.1752027604274E+00  0.0000000000000E+00  0.2507064882938E-01
 0.1480849349561E+00 -0.1628628399935E+00  0.0000000000000E+00  0.5479064502754E-01
 0.1369083425351E+00 -0.1508079942834E+00  0.0000000000000E+00  0.8250464238882E-01
 0.1255831822413E+00 -0.1388033589352E+00  0.0000000000000E+00  0.1078263580291E+00
 0.1154430681466E+00 -0.1285626338892E+00  0.0000000000000E+00  0.1315318655434E+00
 0.1109377660535E+00 -0.1250612089899E+00  0.0000000000000E+00  0.1542669368172E+00
 0.1164911187603E+00 -0.1331280155112E+00  0.0000000000000E+00  0.1752493247473E+00
 0.2482710779903E+00 -0.3447779132316E+00  0.0000000000000E+00  0.6312746523747E+00
 0.3817519249084E+00 -0.4622356309852E+00  0.0000000000000E+00  0.2880653798919E+00
 0.3954026833221E+00 -0.4619726168596E+00  0.0000000000000E+00  0.3894618507862E-01
 0.3634255419140E+00 -0.4180491751792E+00  0.0000000000000E+00 -0.1135226600324E+00
 0.3194126398106E+00 -0.3649961072617E+00  0.0000000000000E+00 -0.1831111201460E+00
 0.2792141923906E+00 -0.3180358315116E+00  0.0000000000000E+00 -0.2020007967290E+00
 0.2472500434066E+00 -0.2806363326507E+00  0.0000000000000E+00 -0.1942732236723E+00
 0.2228889394452E+00 -0.2515716821106E+00  0.0000000000000E+00 -0.1734733822000E+00
 0.2035921601267E+00 -0.2283495168491E+00  0.0000000000000E+00 -0.1455649109289E+00
 0.1873519610720E+00 -0.2089826621676E+00  0.0000000000000E+00 -0.1133249717985E+00
 0.1731446790188E+00 -0.1923088115599E+00  0.0000000000000E+00 -0.7902903403760E-01
 0.1603274426834E+00 -0.1775024591203E+00  0.0000000000000E+00 -0.4467339014816E-01
 0.1482827049462E+00 -0.1637973136179E+00  0.0000000000000E+00 -0.1161049488301E-01
 0.1364578903966E+00 -0.1505567338931E+00  0.0000000000000E+00  0.1940917592656E-01
 0.1245712360143E+00 -0.1374669642157E+00  0.0000000000000E+00  0.4791755273031E-01
 0.1125171372400E+00 -0.1244120993499E+00  0.0000000000000E+00  0.7363629255283E-01
 0.1000855984358E+00 -0.1111299253945E+00  0.0000000000000E+00  0.9647910993621E-01
 0.8924124367338E-01 -0.9993746211844E-01  0.0000000000000E+00  0.1172026864690E+00
 0.8460084873831E-01 -0.9609066812446E-01  0.0000000000000E+00  0.1372991347329E+00
 0.9037734361771E-01 -0.1044010095252E+00  0.0000000000000E+00  0.1572981616150E+00
 0.2849932553985E+00 -0.3892789887785E+00  0.0000000000000E+00  0.6639101927223E+00
 0.4226376433110E+00 -0.5061584261222E+00  0.0000000000000E+00  0.2162056091618E+00
 0.4105396210810E+00 -0.4762523854036E+00  0.0000000000000E+00 -0.6376397306345E-01
 0.3570513728559E+00 -0.4091595359665E+00  0.0000000000000E+00 -0.2026798810571E+00
 0.3023225691957E+00 -0.3455978844400E+00  0.0000000000000E+00 -0.2462600813547E+00
 0.2579712121636E+00 -0.2949776723832E+00  0.0000000000000E+00 -0.2448577104327E+00
 0.2243029881847E+00 -0.2557821426374E+00  0.0000000000000E+00 -0.2241669093084E+00
 0.1994340963465E+00 -0.2260552544594E+00  0.0000000000000E+00 -0.1943440634834E+00
 0.1802610054754E+00 -0.2029470165227E+00  0.0000000000000E+00 -0.1594793731148E+00
 0.1644177738387E+00 -0.1840931468222E+00  0.0000000000000E+00 -0.1221380816761E+00
 0.1506348644163E+00 -0.1679680005281E+00  0.0000000000000E+00 -0.8482823859319E-01
 0.1380542757988E+00 -0.1534599640657E+00  0.0000000000000E+00 -0.4939370970067E-01
 0.1259299441141E+00 -0.1396674089348E+00  0.0000000000000E+00 -0.1668536646462E-01
 0.1137216925666E+00 -0.1259792874282E+00  0.0000000000000E+00  0.1293621577901E-01
 0.1012284346748E+00 -0.1121729124208E+00  0.0000000000000E+00  0.3914745733365E-01
 0.8838835759280E-01 -0.9818201094379E-01  0.0000000000000E+00  0.6175719239795E-01
 0.7495735590321E-01 -0.8369743320805E-01  0.0000000000000E+00  0.8094578443130E-01
 0.6365977240638E-01 -0.7172916373148E-01  0.0000000000000E+00  0.9726446852863E-01
 0.5906860543088E-01 -0.6759439391505E-01  0.0000000000000E+00  0.1133131316547E+00
 0.6486809782864E-01 -0.7581907078099E-01  0.0000000000000E+00  0.1313608171356E+00
 0.3289830051029E+00 -0.4452158643882E+00  0.0000000000000E+00  0.6871734136767E+00
 0.4642313054466E+00 -0.5509211440225E+00  0.0000000000000E+00  0.1033052907789E+00
 0.4151273850768E+00 -0.4778247835497E+00  0.0000000000000E+00 -0.1907087483411E+00
 0.3410597101708E+00 -0.3892829763280E+00  0.0000000000000E+00 -0.2900709255809E+00
 0.2807820595998E+00 -0.3222615602216E+00  0.0000000000000E+00 -0.3007423361247E+00
 0.2341074437817E+00 -0.2694086506755E+00  0.0000000000000E+00 -0.2825995352054E+00
 0.1990045846301E+00 -0.2284608912344E+00  0.0000000000000E+00 -0.2499431560620E+00
 0.1742537960251E+00 -0.1986262298836E+00  0.0000000000000E+00 -0.2106401161713E+00
 0.1560191037636E+00 -0.1765486184986E+00  0.0000000000000E+00 -0.1685994792215E+00
 0.1412724300392E+00 -0.1590134922415E+00  0.0000000000000E+00 -0.1269477382837E+00
 0.1283221630764E+00 -0.1438703184251E+00  0.0000000000000E+00 -0.8810804380953E-01
 0.1161339827774E+00 -0.1297915352012E+00  0.0000000000000E+00 -0.5313044138179E-01
 0.1039591731558E+00 -0.1159071501162E+00  0.0000000000000E+00 -0.2205825395998E-01
 0.9139111059205E-01 -0.1017616329901E+00  0.0000000000000E+00  0.5113948561224E-02
 0.7838885639354E-01 -0.8730967452066E-01  0.0000000000000E+00  0.2806062246923E-01
 0.6496322008908E-01 -0.7255919416275E-01  0.0000000000000E+00  0.4653610531853E-01
 0.5082269685226E-01 -0.5714760777024E-01  0.0000000000000E+00  0.6089066839285E-01
 0.3957710296103E-01 -0.4484053347579E-01  0.0000000000000E+00  0.7112174989153E-01
 0.3542534573268E-01 -0.4065563226866E-01  0.0000000000000E+00  0.8127746980971E-01
 0.4113463845864E-01 -0.4848323419838E-01  0.0000000000000E+00  0.9582506997496E-01
 0.3814244165633E+00 -0.5190145778615E+00  0.0000000000000E+00  0.6810533477931E+00
 0.4981614069677E+00 -0.5873943649350E+00  0.0000000000000E+00 -0.8343053770795E-01
 0.4004439570567E+00 -0.4530732648226E+00  0.0000000000000E+00 -0.3324192587806E+00
 0.3177148145120E+00 -0.3639714611027E+00  0.0000000000000E+00 -0.3571131425703E+00
 0.2575039206481E+00 -0.2976226065893E+00  0.0000000000000E+00 -0.3479086691900E+00
 0.2076413480770E+00 -0.2412874563132E+00  0.0000000000000E+00 -0.3176319784709E+00
 0.1710606760245E+00 -0.1981793179715E+00  0.0000000000000E+00 -0.2716968002791E+00
 0.1475869644381E+00 -0.1694621187945E+00  0.0000000000000E+00 -0.2210152050031E+00
 0.1315887990781E+00 -0.1499722276899E+00  0.0000000000000E+00 -0.1719133287427E+00
 0.1186526664541E+00 -0.1345622154464E+00  0.0000000000000E+00 -0.1278710485591E+00
 0.1067268663107E+00 -0.1205575216128E+00  0.0000000000000E+00 -0.8963274849519E-01
 0.9489936795966E-01 -0.1068260739113E+00  0.0000000000000E+00 -0.5670459607087E-01
 0.8261519763117E-01 -0.9275296315702E-01  0.0000000000000E+00 -0.2837576064916E-01
 0.6969743709061E-01 -0.7813274768782E-01  0.0000000000000E+00 -0.4519977382033E-02
 0.5634450369407E-01 -0.6315103397392E-01  0.0000000000000E+00  0.1442535443670E-01
 0.4270920216617E-01 -0.4802075212008E-01  0.0000000000000E+00  0.2798572749569E-01
 0.2843709242835E-01 -0.3225560655437E-01  0.0000000000000E+00  0.3642440516122E-01
 0.1815630434782E-01 -0.2048594310907E-01  0.0000000000000E+00  0.3870549875093E-01
 0.1521965039666E-01 -0.1686780272335E-01  0.0000000000000E+00  0.4060374444483E-01
 0.2102633655111E-01 -0.2418409559892E-01  0.0000000000000E+00  0.4915518365883E-01
 0.4201333655482E+00 -0.6298304680251E+00  0.0000000000000E+00  0.5071776630946E+00
 0.4906928953110E+00 -0.5451261994782E+00  0.0000000000000E+00 -0.4003827530829E+00
 0.3642439239226E+00 -0.4145531183115E+00  0.0000000000000E+00 -0.4158553599848E+00
 0.2955265975202E+00 -0.3404577742278E+00  0.0000000000000E+00 -0.4056115748629E+00
 0.2329922803779E+00 -0.2724529292394E+00  0.0000000000000E+00 -0.3940813849476E+00
 0.1775909264782E+00 -0.2093047384557E+00  0.0000000000000E+00 -0.3525985116938E+00
 0.1398244229479E+00 -0.1638927230499E+00  0.0000000000000E+00 -0.2874435225260E+00
 0.1203516165543E+00 -0.1396304860944E+00  0.0000000000000E+00 -0.2226015544806E+00
 0.1081558616436E+00 -0.1245988502450E+00  0.0000000000000E+00 -0.1689678977946E+00
 0.9728916087487E-01 -0.1115148417572E+00  0.0000000000000E+00 -0.1260344081470E+00
 0.8618597652187E-01 -0.9835126208193E-01  0.0000000000000E+00 -0.9063445578358E-01
 0.7453079311135E-01 -0.8471924016858E-01  0.0000000000000E+00 -0.6093926367545E-01
 0.6206340909832E-01 -0.7037272352265E-01  0.0000000000000E+00 -0.3614703311910E-01
 0.4882676911653E-01 -0.5527153405119E-01  0.0000000000000E+00 -0.1631686655437E-01
 0.3529395644330E-01 -0.3989901023252E-01  0.0000000000000E+00 -0.1895253614292E-02
 0.2203338367281E-01 -0.2487583852682E-01  0.0000000000000E+00  0.6746384821488E-02
 0.8805270713221E-02 -0.1019074059609E-01  0.0000000000000E+00  0.8597182237265E-02
 0.9073511216595E-03 -0.2194265238420E-03  0.0000000000000E+00  0.3198231035624E-03
 0.2485867030106E-03  0.1973842337859E-02  0.0000000000000E+00 -0.8279269689406E-02
 0.7304428134868E-02 -0.5866354219491E-02  0.0000000000000E+00 -0.8238509707132E-02
 0.4205679108118E-01 -0.5072152991635E-01  0.0000000000000E+00  0.5050645674157E-01
 0.3279340273989E-01 -0.3956576080728E-01  0.0000000000000E+00  0.5320111562710E-01
 0.2482730460720E-01 -0.3051260817738E-01  0.0000000000000E+00  0.5592636466420E-01
 0.1805982917184E-01 -0.2272098164925E-01  0.0000000000000E+00  0.5939414435205E-01
 0.1245476251404E-01 -0.1616476021933E-01  0.0000000000000E+00  0.6340061062996E-01
 0.8111965915323E-02 -0.1092928357780E-01  0.0000000000000E+00  0.6753332882727E-01
 0.5042036563014E-02 -0.7034318153455E-02  0.0000000000000E+00  0.7134289439329E-01
 0.3179437714825E-02 -0.4423743576888E-02  0.0000000000000E+00  0.7437620209592E-01
 0.2383189567433E-02 -0.2966945496877E-02  0.0000000000000E+00  0.7621285329605E-01
 0.2447376447717E-02 -0.2467520317505E-02  0.0000000000000E+00  0.7650236134859E-01
 0.3116012877356E-02 -0.2677191298732E-02  0.0000000000000E+00  0.7500220633507E-01
 0.4104722859000E-02 -0.3316278295694E-02  0.0000000000000E+00  0.7161147282642E-01
 0.5129106532801E-02 -0.4100935113960E-02  0.0000000000000E+00  0.6639351364474E-01
 0.5937985548475E-02 -0.4775614982203E-02  0.0000000000000E+00  0.5957937065685E-01
 0.6346925113229E-02 -0.5146525922108E-02  0.0000000000000E+00  0.5154428814862E-01
 0.6264820004687E-02 -0.5109083817675E-02  0.0000000000000E+00  0.4275478963715E-01
 0.5706103551203E-02 -0.4661606782190E-02  0.0000000000000E+00  0.3369472667972E-01
 0.4784861456071E-02 -0.3901333289205E-02  0.0000000000000E+00  0.2479036714044E-01
 0.3699195878563E-02 -0.3007456975296E-02  0.0000000000000E+00  0.1636796502066E-01
 0.2688651866267E-02 -0.2217443298375E-02  0.0000000000000E+00  0.8591636465265E-02
 0.4870495753644E-01 -0.5762838067503E-01  0.0000000000000E+00  0.4416455238347E-01
 0.3996777952052E-01 -0.4762150679634E-01  0.0000000000000E+00  0.4739260682453E-01
 0.3129238072207E-01 -0.3763963516609E-01  0.0000000000000E+00  0.5085318902565E-01
 0.2376781847886E-01 -0.2902359583076E-01  0.0000000000000E+00  0.5446229700301E-01
 0.1755079267406E-01 -0.2178447124779E-01  0.0000000000000E+00  0.5872524248970E-01
 0.1267142477142E-01 -0.1594737013664E-01  0.0000000000000E+00  0.6335705576172E-01
 0.9147266783332E-02 -0.1152829369183E-01  0.0000000000000E+00  0.6790435983900E-01
 0.6934189039640E-02 -0.8492311332272E-02  0.0000000000000E+00  0.7184482403066E-01
 0.5914671591781E-02 -0.6733012463910E-02  0.0000000000000E+00  0.7466342780390E-01
 0.5894619982714E-02 -0.6068174058791E-02  0.0000000000000E+00  0.7590357584292E-01
 0.6611783130412E-02 -0.6246568551341E-02  0.0000000000000E+00  0.7521772701931E-01
 0.7754204419977E-02 -0.6964964081113E-02  0.0000000000000E+00  0.7241519761390E-01
 0.8989288356081E-02 -0.7895507018666E-02  0.0000000000000E+00  0.6750074080622E-01
 0.1000251477229E-01 -0.8722823025874E-02  0.0000000000000E+00  0.6069276265300E-01
 0.1054173596192E-01 -0.9187273350820E-02  0.0000000000000E+00  0.5240845346970E-01
 0.1045842117431E-01 -0.9126288408353E-02  0.0000000000000E+00  0.4320751508846E-01
 0.9733459576534E-02 -0.8501750869159E-02  0.0000000000000E+00  0.3369985266975E-01
 0.8477532541968E-02 -0.7402365688376E-02  0.0000000000000E+00  0.2444461457011E-01
 0.6902326143577E-02 -0.6018794263982E-02  0.0000000000000E+00  0.1587943515710E-01
 0.5313482683270E-02 -0.4623451459146E-02  0.0000000000000E+00  0.8314146545112E-02
 0.5545368607499E-01 -0.6491646558258E-01  0.0000000000000E+00  0.3894389791180E-01
 0.4691051963635E-01 -0.5517244199714E-01  0.0000000000000E+00  0.4064791654568E-01
 0.3819319980356E-01 -0.4525234803172E-01  0.0000000000000E+00  0.4400037803821E-01
 0.3016369338613E-01 -0.3606483366756E-01  0.0000000000000E+00  0.4788727194501E-01
 0.2330946370152E-01 -0.2813097245205E-01  0.0000000000000E+00  0.5241896414917E-01
 0.1779872005584E-01 -0.2159559762727E-01  0.0000000000000E+00  0.5749417393412E-01
 0.1369512452139E-01 -0.1652427360987E-01  0.0000000000000E+00  0.6272089206295E-01
 0.1099568218776E-01 -0.1292088359841E-01  0.0000000000000E+00  0.6756674083369E-01
 0.9619438769138E-02 -0.1071629263770E-01  0.0000000000000E+00  0.7144890240439E-01
 0.9399236959760E-02 -0.9757099983055E-02  0.0000000000000E+00  0.7380742805378E-01
 0.1008174317595E-01 -0.9804350229465E-02  0.0000000000000E+00  0.7417183020233E-01
 0.1133962555690E-01 -0.1054408369441E-01  0.0000000000000E+00  0.7222694469548E-01
 0.1279769059355E-01 -0.1161147085826E-01  0.0000000000000E+00  0.6787327619672E-01
 0.1407403636157E-01 -0.1262954974538E-01  0.0000000000000E+00  0.6126983845306E-01
 0.1483396212172E-01 -0.1326080695365E-01  0.0000000000000E+00  0.5284142704582E-01
 0.1484801628062E-01 -0.1326395055207E-01  0.0000000000000E+00  0.4323198770517E-01
 0.1403790712458E-01 -0.1254052891861E-01  0.0000000000000E+00  0.3319869398479E-01
 0.1248985629284E-01 -0.1115164833838E-01  0.0000000000000E+00  0.2347062254515E-01
 0.1042713747784E-01 -0.9293303176105E-02  0.0000000000000E+00  0.1462987533918E-01
 0.8150333532402E-02 -0.7239092440823E-02  0.0000000000000E+00  0.7117943655329E-02
 0.6275061350848E-01 -0.7281004481521E-01  0.0000000000000E+00  0.3371099993258E-01
 0.5416540835731E-01 -0.6308373287292E-01  0.0000000000000E+00  0.3377506703833E-01
 0.4542616612706E-01 -0.5317405500133E-01  0.0000000000000E+00  0.3620281843353E-01
 0.3711142023650E-01 -0.4370549201257E-01  0.0000000000000E+00  0.3985136556921E-01
 0.2972097616397E-01 -0.3519144849953E-01  0.0000000000000E+00  0.4445039210427E-01
 0.2355743120552E-01 -0.2794519084579E-01  0.0000000000000E+00  0.4981644049540E-01
 0.1878171693615E-01 -0.2212988021212E-01  0.0000000000000E+00  0.5560539661681E-01
 0.1546089974450E-01 -0.1782137548113E-01  0.0000000000000E+00  0.6130057976678E-01
 0.1357423093764E-01 -0.1501126462907E-01  0.0000000000000E+00  0.6628301245893E-01
 0.1300388543115E-01 -0.1359718606622E-01  0.0000000000000E+00  0.6990432586600E-01
 0.1352835823895E-01 -0.1337498518513E-01  0.0000000000000E+00  0.7156405365061E-01
 0.1482575415040E-01 -0.1404075593976E-01  0.0000000000000E+00  0.7079185049453E-01
 0.1649250882854E-01 -0.1520763007279E-01  0.0000000000000E+00  0.6733209944510E-01
 0.1808179513715E-01 -0.1644135486928E-01  0.0000000000000E+00  0.6121966504049E-01
 0.1916316117505E-01 -0.1731637673508E-01  0.0000000000000E+00  0.5282519428142E-01
 0.1939777599993E-01 -0.1748778855671E-01  0.0000000000000E+00  0.4283982283733E-01
 0.1861133752313E-01 -0.1676308400489E-01  0.0000000000000E+00  0.3217362983974E-01
 0.1683538427495E-01 -0.1514595502144E-01  0.0000000000000E+00  0.2177371395999E-01
 0.1428825457145E-01 -0.1282407756953E-01  0.0000000000000E+00  0.1242608603881E-01
 0.1128225824604E-01 -0.1008684926203E-01  0.0000000000000E+00  0.4646616507665E-02
 0.7060403804411E-01 -0.8130278508280E-01  0.0000000000000E+00  0.2836971532234E-01
 0.6194456478671E-01 -0.7155176634188E-01  0.0000000000000E+00  0.2679385791067E-01
 0.5316516451331E-01 -0.6163899186719E-01  0.0000000000000E+00  0.2791519365507E-01
 0.4464461040720E-01 -0.5197284482948E-01  0.0000000000000E+00  0.3078458345856E-01
 0.3681887728314E-01 -0.4300571765851E-01  0.0000000000000E+00  0.3501789101216E-01
 0.3003402079340E-01 -0.3509378751426E-01  0.0000000000000E+00  0.4035540238570E-01
 0.2453425285353E-01 -0.2849108266452E-01  0.0000000000000E+00  0.4645707877714E-01
 0.2047090107223E-01 -0.2335914558359E-01  0.0000000000000E+00  0.5283365964209E-01
 0.1790368447176E-01 -0.1977137978562E-01  0.0000000000000E+00  0.5885996669603E-01
 0.1678994938781E-01 -0.1770198191433E-01  0.0000000000000E+00  0.6382744114718E-01
 0.1697084636225E-01 -0.1701191510896E-01  0.0000000000000E+00  0.6701582734151E-01
 0.1816345193919E-01 -0.1744033307666E-01  0.0000000000000E+00  0.6778177238190E-01
 0.1996654526529E-01 -0.1860901199025E-01  0.0000000000000E+00  0.6566218154026E-01
 0.2188802881453E-01 -0.2004718593226E-01  0.0000000000000E+00  0.6048444873403E-01
 0.2340113431882E-01 -0.2124354516960E-01  0.0000000000000E+00  0.5246314024366E-01
 0.2403094718196E-01 -0.2172735656193E-01  0.0000000000000E+00  0.4224496827381E-01
 0.2345812393361E-01 -0.2116757335935E-01  0.0000000000000E+00  0.3085108970744E-01
 0.2160431633297E-01 -0.1945806586950E-01  0.0000000000000E+00  0.1948342608435E-01
 0.1864973894365E-01 -0.1674195167013E-01  0.0000000000000E+00  0.9231129513024E-02
 0.1495029221632E-01 -0.1334143961190E-01  0.0000000000000E+00  0.7969861288638E-03
 0.7901474311591E-01 -0.9038311134173E-01  0.0000000000000E+00  0.2298148198893E-01
 0.7032156643793E-01 -0.8065087699734E-01  0.0000000000000E+00  0.1982243414999E-01
 0.6152294459269E-01 -0.7076090489400E-01  0.0000000000000E+00  0.1941470485849E-01
 0.5285896745676E-01 -0.6097408257158E-01  0.0000000000000E+00  0.2108372482722E-01
 0.4468397409221E-01 -0.5165702376892E-01  0.0000000000000E+00  0.2447334857318E-01
 0.3733881041563E-01 -0.4316074435872E-01  0.0000000000000E+00  0.2932770870903E-01
 0.3111176986120E-01 -0.3578335183314E-01  0.0000000000000E+00  0.3533746029914E-01
 0.2622535016458E-01 -0.2975886558507E-01  0.0000000000000E+00  0.4206189981705E-01
 0.2282441701049E-01 -0.2524617258139E-01  0.0000000000000E+00  0.4890887688636E-01
 0.2095888028310E-01 -0.2231263299855E-01  0.0000000000000E+00  0.5515522963689E-01
 0.2056200370142E-01 -0.2091262215353E-01  0.0000000000000E+00  0.5999790840244E-01
 0.2142989132957E-01 -0.2086709645746E-01  0.0000000000000E+00  0.6263251565039E-01
 0.2320986674830E-01 -0.2185154743984E-01  0.0000000000000E+00  0.6236014820153E-01
 0.2540770622229E-01 -0.2340169929069E-01  0.0000000000000E+00  0.5872084976531E-01
 0.2742624946772E-01 -0.2494847989747E-01  0.0000000000000E+00  0.5164174458226E-01
 0.2864743792971E-01 -0.2589352991452E-01  0.0000000000000E+00  0.4156555361395E-01
 0.2855857130803E-01 -0.2572688962564E-01  0.0000000000000E+00  0.2949183614680E-01
 0.2689420673436E-01 -0.2416235758677E-01  0.0000000000000E+00  0.1684419263085E-01
 0.2372730087859E-01 -0.2123076371096E-01  0.0000000000000E+00  0.5125615783688E-02
 0.1944053836280E-01 -0.1726308491196E-01  0.0000000000000E+00 -0.4531685906531E-02
 0.8797263111016E-01 -0.1000387155664E+00  0.0000000000000E+00  0.1764930477903E-01
 0.7933279133557E-01 -0.9041631628789E-01  0.0000000000000E+00  0.1298932474718E-01
 0.7057591721221E-01 -0.8061863723846E-01  0.0000000000000E+00  0.1094297389107E-01
 0.6184774835076E-01 -0.7080374018280E-01  0.0000000000000E+00  0.1110165992971E-01
 0.5342170595636E-01 -0.6125337280474E-01  0.0000000000000E+00  0.1321302648304E-01
 0.4560492961098E-01 -0.5228187487886E-01  0.0000000000000E+00  0.1708622595031E-01
 0.3869563724613E-01 -0.4419551570297E-01  0.0000000000000E+00  0.2248649602825E-01
 0.3296082718042E-01 -0.3727125482830E-01  0.0000000000000E+00  0.2906121829361E-01
 0.2861755978337E-01 -0.3173901494643E-01  0.0000000000000E+00  0.3630071685080E-01
 0.2581033752230E-01 -0.2775973271165E-01  0.0000000000000E+00  0.4353004578464E-01
 0.2458296438635E-01 -0.2539789756766E-01  0.0000000000000E+00  0.4993008239348E-01
 0.2484688545146E-01 -0.2459050152642E-01  0.0000000000000E+00  0.5458989878922E-01
 0.2635118747033E-01 -0.2511757817469E-01  0.0000000000000E+00  0.5659562742365E-01
 0.2866329529155E-01 -0.2658288232511E-01  0.0000000000000E+00  0.5516241958529E-01
 0.3117495873596E-01 -0.2841818482916E-01  0.0000000000000E+00  0.4981190503086E-01
 0.3315484296616E-01 -0.2993051098684E-01  0.0000000000000E+00  0.4058077821186E-01
 0.3386985230545E-01 -0.3041274435331E-01  0.0000000000000E+00  0.2820365479057E-01
 0.3277391176538E-01 -0.2931812331288E-01  0.0000000000000E+00  0.1414700374579E-01
 0.2970470519321E-01 -0.2644745267587E-01  0.0000000000000E+00  0.3461207920352E-03
 0.2496740184829E-01 -0.2204142067638E-01  0.0000000000000E+00 -0.1137629389867E-01
 0.9745771985006E-01 -0.1102466974256E+00  0.0000000000000E+00  0.1250337227267E-01
 0.8898646713286E-01 -0.1008547833426E+00  0.0000000000000E+00  0.6447970469117E-02
 0.8036891980783E-01 -0.9125569578084E-01  0.0000000000000E+00  0.2739484853875E-02
 0.7168516281047E-01 -0.8153517467151E-01  0.0000000000000E+00  0.1188544991649E-02
 0.6313459355509E-01 -0.7189646857759E-01  0.0000000000000E+00  0.1668607215343E-02
 0.5497444702328E-01 -0.6260029638166E-01  0.0000000000000E+00  0.4085801874359E-02
 0.4748453171068E-01 -0.5393095721825E-01  0.0000000000000E+00  0.8310706576071E-02
 0.4094564978749E-01 -0.4617585359468E-01  0.0000000000000E+00  0.1411465231757E-01
 0.3562091255932E-01 -0.3960765400530E-01  0.0000000000000E+00  0.2112100182790E-01
 0.3173343532199E-01 -0.3446279812751E-01  0.0000000000000E+00  0.2877419380394E-01
 0.2943711492740E-01 -0.3091308461041E-01  0.0000000000000E+00  0.3632931455931E-01
 0.2877962889971E-01 -0.2902965529114E-01  0.0000000000000E+00  0.4286742785125E-01
 0.2965917487115E-01 -0.2874097749789E-01  0.0000000000000E+00  0.4734565074343E-01
 0.3177992991543E-01 -0.2978973043284E-01  0.0000000000000E+00  0.4869532878368E-01
 0.3461739851991E-01 -0.3169910148646E-01  0.0000000000000E+00  0.4598525596457E-01
 0.3741588560715E-01 -0.3376877202245E-01  0.0000000000000E+00  0.3866445748938E-01
 0.3925718443726E-01 -0.3513527880551E-01  0.0000000000000E+00  0.2687446124945E-01
 0.3924502823984E-01 -0.3493773970020E-01  0.0000000000000E+00  0.1173507439756E-01
 0.3679770771787E-01 -0.3258590078691E-01  0.0000000000000E+00 -0.4630161624745E-02
 0.3192660892998E-01 -0.2802555147705E-01  0.0000000000000E+00 -0.1958134663789E-01
 0.1074389060875E+00 -0.1209732745256E+00  0.0000000000000E+00  0.7683156798914E-02
 0.9926847724380E-01 -0.1119492962804E+00  0.0000000000000E+00  0.3617601069084E-03
 0.9091596713589E-01 -0.1026827684243E+00  0.0000000000000E+00 -0.4959241854555E-02
 0.8241455301576E-01 -0.9320749605139E-01  0.0000000000000E+00 -0.8310160689345E-02
 0.7389900152274E-01 -0.8365806433934E-01  0.0000000000000E+00 -0.9704266301531E-02
 0.6556913696220E-01 -0.7423382622894E-01  0.0000000000000E+00 -0.9137197913188E-02
 0.5766530300487E-01 -0.6517539892123E-01  0.0000000000000E+00 -0.6626890357667E-02
 0.5045243828327E-01 -0.5674969106145E-01  0.0000000000000E+00 -0.2263379603901E-02
 0.4420638905272E-01 -0.4923710311065E-01  0.0000000000000E+00  0.3742135752935E-02
 0.3919722337795E-01 -0.4291570931092E-01  0.0000000000000E+00  0.1101313825200E-01
 0.3566563108543E-01 -0.3803861815043E-01  0.0000000000000E+00  0.1897194964731E-01
 0.3378944849843E-01 -0.3480168607675E-01  0.0000000000000E+00  0.2681740838928E-01
 0.3363823890181E-01 -0.3329974674837E-01  0.0000000000000E+00  0.3352494345409E-01
 0.3511534645570E-01 -0.3347103767356E-01  0.0000000000000E+00  0.3788385755189E-01
 0.3789040634305E-01 -0.3503292236450E-01  0.0000000000000E+00  0.3859569850906E-01
 0.4133419129398E-01 -0.3742011129722E-01  0.0000000000000E+00  0.3446990512597E-01
 0.4448867741668E-01 -0.3975489764032E-01  0.0000000000000E+00  0.2476340216808E-01
 0.4614981995593E-01 -0.4091563827018E-01  0.0000000000000E+00  0.9684194635231E-02
 0.4515907449818E-01 -0.3979371618033E-01  0.0000000000000E+00 -0.9113439428929E-02
 0.4087381773472E-01 -0.3572088351993E-01  0.0000000000000E+00 -0.2851061479367E-01
 0.1178742649439E+00 -0.1321741782699E+00  0.0000000000000E+00  0.3323209986587E-02
 0.1101464409671E+00 -0.1236644270556E+00  0.0000000000000E+00 -0.5114222042215E-02
 0.1022034190777E+00 -0.1148818966953E+00  0.0000000000000E+00 -0.1193763676110E-01
 0.9404513103780E-01 -0.1058238698898E+00  0.0000000000000E+00 -0.1707545276344E-01
 0.8575292303883E-01 -0.9656828897797E-01  0.0000000000000E+00 -0.2045890161779E-01
 0.7746914809278E-01 -0.8725360018467E-01  0.0000000000000E+00 -0.2200710045211E-01
 0.6938241386852E-01 -0.7806463911512E-01  0.0000000000000E+00 -0.2164554252131E-01
 0.6171834966303E-01 -0.6922413308142E-01  0.0000000000000E+00 -0.1933970876151E-01
 0.5473256726818E-01 -0.6098642872872E-01  0.0000000000000E+00 -0.1513598565719E-01
 0.4870216666571E-01 -0.5362983064770E-01  0.0000000000000E+00 -0.9206922832719E-02
 0.4391225345122E-01 -0.4744408257381E-01  0.0000000000000E+00 -0.1899163331774E-02
 0.4063382114920E-01 -0.4270947747617E-01  0.0000000000000E+00  0.6218327994112E-02
 0.3908887804496E-01 -0.3966371560570E-01  0.0000000000000E+00  0.1431051103481E-01
 0.3939795933882E-01 -0.3845207768178E-01  0.0000000000000E+00  0.2124652176301E-01
 0.4150460121825E-01 -0.3905619007332E-01  0.0000000000000E+00  0.2560248675223E-01
 0.4507275309837E-01 -0.4119821283026E-01  0.0000000000000E+00  0.2573298199715E-01
 0.4936188088540E-01 -0.4422560012242E-01  0.0000000000000E+00  0.1998008829269E-01
 0.5312093033008E-01 -0.4701223948846E-01  0.0000000000000E+00  0.7149246333816E-02
 0.5467087228509E-01 -0.4801069857481E-01  0.0000000000000E+00 -0.1260490913452E-01
 0.5239157798766E-01 -0.4567371178020E-01  0.0000000000000E+00 -0.3684226635684E-01
 0.1287120192455E+00 -0.1437953834348E+00  0.0000000000000E+00 -0.4513667465296E-03
 0.1215722431074E+00 -0.1359484361079E+00  0.0000000000000E+00 -0.9843806991788E-02
 0.1141918700887E+00 -0.1278084697090E+00  0.0000000000000E+00 -0.1801401605909E-01
 0.1065501797397E+00 -0.1193500334666E+00  0.0000000000000E+00 -0.2483498863591E-01
 0.9868779595835E-01 -0.1106081717812E+00  0.0000000000000E+00 -0.3019230282762E-01
 0.9069605925502E-01 -0.1016678468396E+00  0.0000000000000E+00 -0.3396166941282E-01
 0.8270936087601E-01 -0.9265654830826E-01  0.0000000000000E+00 -0.3601194046643E-01
 0.7490117675599E-01 -0.8374073604602E-01  0.0000000000000E+00 -0.3622273592269E-01
 0.6748251527459E-01 -0.7512477720573E-01  0.0000000000000E+00 -0.3451173320348E-01
 0.6070075517949E-01 -0.6705036181244E-01  0.0000000000000E+00 -0.3087025712665E-01
 0.5483650909900E-01 -0.5979408034715E-01  0.0000000000000E+00 -0.2540756186764E-01
 0.5019563346973E-01 -0.5366037944412E-01  0.0000000000000E+00 -0.1840481243480E-01
 0.4709250577035E-01 -0.4896620806223E-01  0.0000000000000E+00 -0.1037951308695E-01
 0.4581886498515E-01 -0.4601204141430E-01  0.0000000000000E+00 -0.2159708431515E-02
 0.4658938267858E-01 -0.4503123525753E-01  0.0000000000000E+00  0.5036546306206E-02
 0.4944983945855E-01 -0.4610528637263E-01  0.0000000000000E+00  0.9530596261707E-02
 0.5412654776038E-01 -0.4902660933107E-01  0.0000000000000E+00  0.9161526035827E-02
 0.5978729930799E-01 -0.5308625162664E-01  0.0000000000000E+00  0.1421036454880E-02
 0.6472950719970E-01 -0.5679745594489E-01  0.0000000000000E+00 -0.1591456651736E-01
 0.6642934844502E-01 -0.5785591640596E-01  0.0000000000000E+00 -0.4303413915390E-01
 0.1398894936031E+00 -0.1557723707992E+00  0.0000000000000E+00 -0.3532667658344E-02
 0.1334786787528E+00 -0.1487318023861E+00  0.0000000000000E+00 -0.1371781148855E-01
 0.1268130660116E+00 -0.1413910085963E+00  0.0000000000000E+00 -0.2304769459711E-01
 0.1198632160552E+00 -0.1337144977656E+00  0.0000000000000E+00 -0.3137485731478E-01
 0.1126423030983E+00 -0.1257086609243E+00  0.0000000000000E+00 -0.3857050544117E-01
 0.1052018945823E+00 -0.1174172782470E+00  0.0000000000000E+00 -0.4449926971057E-01
 0.9762859737031E-01 -0.1089181443498E+00  0.0000000000000E+00 -0.4901255610873E-01
 0.9004311981509E-01 -0.1003222078086E+00  0.0000000000000E+00 -0.5195336149146E-01
 0.8260169968252E-01 -0.9177513256225E-01  0.0000000000000E+00 -0.5316935492978E-01
 0.7549919825281E-01 -0.8346057156466E-01  0.0000000000000E+00 -0.5253364216152E-01
 0.6897283728134E-01 -0.7560414538853E-01  0.0000000000000E+00 -0.4997446177040E-01
 0.6330519611133E-01 -0.6847678715304E-01  0.0000000000000E+00 -0.4551651522049E-01
 0.5882440476969E-01 -0.6239548503569E-01  0.0000000000000E+00 -0.3933807200640E-01
 0.5589810324439E-01 -0.5771819941676E-01  0.0000000000000E+00 -0.3184971878184E-01
 0.5491494205171E-01 -0.5482723081631E-01  0.0000000000000E+00 -0.2380288721569E-01
 0.5624169523210E-01 -0.5409023401004E-01  0.0000000000000E+00 -0.1643898179937E-01
 0.6013071122641E-01 -0.5577709881148E-01  0.0000000000000E+00 -0.1169169253348E-01
 0.6652486857570E-01 -0.5988676954332E-01  0.0000000000000E+00 -0.1244382086710E-01
 0.7460650439011E-01 -0.6577236075860E-01  0.0000000000000E+00 -0.2277702769206E-01
 0.8188531571032E-01 -0.7138347659537E-01  0.0000000000000E+00 -0.4731212480060E-01
 0.1513329455135E+00 -0.1680282929710E+00  0.0000000000000E+00 -0.5818549245282E-02
 0.1457749682593E+00 -0.1619207491838E+00  0.0000000000000E+00 -0.1662788948690E-01
 0.1399623887037E+00 -0.1555212422043E+00  0.0000000000000E+00 -0.2690060264774E-01
 0.1338663899282E+00 -0.1487944506599E+00  0.0000000000000E+00 -0.3649270335621E-01
 0.1274855313196E+00 -0.1417317873407E+00  0.0000000000000E+00 -0.4528205695450E-01
 0.1208454681008E+00 -0.1343507212281E+00  0.0000000000000E+00 -0.5314524015652E-01
 0.1139980229417E+00 -0.1266936254409E+00  0.0000000000000E+00 -0.5994674655697E-01
 0.1070215499234E+00 -0.1188279756844E+00  0.0000000000000E+00 -0.6553611570567E-01
 0.1000231858909E+00 -0.1108484355300E+00  0.0000000000000E+00 -0.6975065974797E-01
 0.9314307126509E-01 -0.1028808782370E+00  0.0000000000000E+00 -0.7242316651574E-01
 0.8656045108506E-01 -0.9508822975102E-01  0.0000000000000E+00 -0.7339536884238E-01
 0.8050150247367E-01 -0.8767795173059E-01  0.0000000000000E+00 -0.7253936883395E-01
 0.7524863695646E-01 -0.8091087814350E-01  0.0000000000000E+00 -0.6979095224442E-01
 0.7115073943029E-01 -0.7511082773556E-01  0.0000000000000E+00 -0.6520138048949E-01
 0.6863306844825E-01 -0.7067366911106E-01  0.0000000000000E+00 -0.5901883682065E-01
 0.6820349447099E-01 -0.6807262937552E-01  0.0000000000000E+00 -0.5181945150785E-01
 0.7044691235464E-01 -0.6785179799859E-01  0.0000000000000E+00 -0.4472600218666E-01
 0.7598084498912E-01 -0.7058518417887E-01  0.0000000000000E+00 -0.3979480105862E-01
 0.8530644344235E-01 -0.7673467166471E-01  0.0000000000000E+00 -0.4076518010015E-01
 0.9797398601848E-01 -0.8604293396840E-01  0.0000000000000E+00 -0.5480923272417E-01
 0.1629615085950E+00 -0.1804781204889E+00  0.0000000000000E+00 -0.7219525781867E-02
 0.1583542353667E+00 -0.1754038270375E+00  0.0000000000000E+00 -0.1847187181398E-01
 0.1535073355627E+00 -0.1700612152569E+00  0.0000000000000E+00 -0.2944324484593E-01
 0.1483985926738E+00 -0.1644218624073E+00  0.0000000000000E+00 -0.4000499622429E-01
 0.1430226467554E+00 -0.1584736288919E+00  0.0000000000000E+00 -0.5005087785098E-01
 0.1373927423981E+00 -0.1522220399839E+00  0.0000000000000E+00 -0.5947874495688E-01
 0.1315412610355E+00 -0.1456905342596E+00  0.0000000000000E+00 -0.6817978486373E-01
 0.1255207674214E+00 -0.1389212426438E+00  0.0000000000000E+00 -0.7603289349626E-01
 0.1194063685131E+00 -0.1319770452431E+00  0.0000000000000E+00 -0.8290254509597E-01
 0.1132998160934E+00 -0.1249452924524E+00  0.0000000000000E+00 -0.8863936802780E-01
 0.1073357269938E+00 -0.1179435132377E+00  0.0000000000000E+00 -0.9308345504084E-01
 0.1016904279834E+00 -0.1111275453992E+00  0.0000000000000E+00 -0.9607127916248E-01
 0.9659423588956E-01 -0.1047027829879E+00  0.0000000000000E+00 -0.9744816029499E-01
 0.9234852880443E-01 -0.9893969201466E-01  0.0000000000000E+00 -0.9708989687145E-01
 0.8934992519626E-01 -0.9419554155531E-01  0.0000000000000E+00 -0.9494016733453E-01
 0.8812582851038E-01 -0.9094578487628E-01  0.0000000000000E+00 -0.9107629359253E-01
 0.8938920684215E-01 -0.8983149846423E-01  0.0000000000000E+00 -0.8582903276583E-01
 0.9413207546258E-01 -0.9173637954153E-01  0.0000000000000E+00 -0.8001612529443E-01
 0.1037941420917E+00 -0.9792435194278E-01  0.0000000000000E+00 -0.7544012755710E-01
 0.1207996018757E+00 -0.1103705038556E+00  0.0000000000000E+00 -0.7637674214230E-01
 0.1746905505841E+00 -0.1930327948820E+00  0.0000000000000E+00 -0.7672567143127E-02
 0.1711022754628E+00 -0.1890616364898E+00  0.0000000000000E+00 -0.1917643172690E-01
 0.1673010198914E+00 -0.1848578170655E+00  0.0000000000000E+00 -0.3058615464159E-01
 0.1632739399497E+00 -0.1804030773385E+00  0.0000000000000E+00 -0.4178970053028E-01
 0.1590186008463E+00 -0.1756890907912E+00  0.0000000000000E+00 -0.5269550581699E-01
 0.1545455403817E+00 -0.1707197477149E+00  0.0000000000000E+00 -0.6321890378849E-01
 0.1498797053937E+00 -0.1655123428189E+00  0.0000000000000E+00 -0.7327294257160E-01
 0.1450620392088E+00 -0.1600989104547E+00  0.0000000000000E+00 -0.8276243942050E-01
 0.1401519657494E+00 -0.1545284196907E+00  0.0000000000000E+00 -0.9158016437932E-01
 0.1352312939148E+00 -0.1488703162843E+00  0.0000000000000E+00 -0.9960435675094E-01
 0.1304100655832E+00 -0.1432198887754E+00  0.0000000000000E+00 -0.1066970990483E+00
 0.1258350546440E+00 -0.1377060990156E+00  0.0000000000000E+00 -0.1127033444809E+00
 0.1217020236445E+00 -0.1325028745666E+00  0.0000000000000E+00 -0.1174506163899E+00
 0.1182735833989E+00 -0.1278455191618E+00  0.0000000000000E+00 -0.1207495758359E+00
 0.1159059052333E+00 -0.1240551237878E+00  0.0000000000000E+00 -0.1223957587814E+00
 0.1150902853919E+00 -0.1215762786019E+00  0.0000000000000E+00 -0.1221725902949E+00
 0.1165218670308E+00 -0.1210385785972E+00  0.0000000000000E+00 -0.1198547598705E+00
 0.1212219150526E+00 -0.1233649331269E+00  0.0000000000000E+00 -0.1152037957750E+00
 0.1307884561522E+00 -0.1299846240548E+00  0.0000000000000E+00 -0.1079295007804E+00
 0.1480317400213E+00 -0.1433661120972E+00  0.0000000000000E+00 -0.9719745658048E-01
 0.1864344680953E+00 -0.2056022097308E+00  0.0000000000000E+00 -0.7144668962361E-02
 0.1839038818964E+00 -0.2027735887420E+00  0.0000000000000E+00 -0.1870601153806E-01
 0.1811935405764E+00 -0.1997547020618E+00  0.0000000000000E+00 -0.3029276708828E-01
 0.1783001819531E+00 -0.1965379391428E+00  0.0000000000000E+00 -0.4180480808062E-01
 0.1752270231937E+00 -0.1931218208681E+00  0.0000000000000E+00 -0.5315855796431E-01
 0.1719864023749E+00 -0.1895134508758E+00  0.0000000000000E+00 -0.6427653144827E-01
 0.1686015634128E+00 -0.1857301186881E+00  0.0000000000000E+00 -0.7507933831312E-01
 0.1651084177602E+00 -0.1818008738032E+00  0.0000000000000E+00 -0.8547949625749E-01
 0.1615578497706E+00 -0.1777686197953E+00  0.0000000000000E+00 -0.9537622915385E-01
 0.1580190012276E+00 -0.1736931431010E+00  0.0000000000000E+00 -0.1046504406966E+00
 0.1545839638248E+00 -0.1696554792523E+00  0.0000000000000E+00 -0.1131590517130E+00
 0.1513744149700E+00 -0.1657641166212E+00  0.0000000000000E+00 -0.1207277633474E+00
 0.1485509642642E+00 -0.1621637540709E+00  0.0000000000000E+00 -0.1271409436945E+00
 0.1463263871469E+00 -0.1590477101443E+00  0.0000000000000E+00 -0.1321265261372E+00
 0.1449846078122E+00 -0.1566757299142E+00  0.0000000000000E+00 -0.1353320853223E+00
 0.1449084847956E+00 -0.1554000447872E+00  0.0000000000000E+00 -0.1362845501066E+00
 0.1466213190737E+00 -0.1557044668000E+00  0.0000000000000E+00 -0.1343171448004E+00
 0.1508497502577E+00 -0.1582641334874E+00  0.0000000000000E+00 -0.1284261139811E+00
 0.1586157279311E+00 -0.1640371253920E+00  0.0000000000000E+00 -0.1169457419292E+00
 0.1712187647201E+00 -0.1743264110116E+00  0.0000000000000E+00 -0.9677740026165E-01
 0.1981091265480E+00 -0.2180976671423E+00  0.0000000000000E+00 -0.5630654124873E-02
 0.1966472647710E+00 -0.2164224162896E+00  0.0000000000000E+00 -0.1706126599944E-01
 0.1950401655715E+00 -0.2146005976193E+00  0.0000000000000E+00 -0.2857596819847E-01
 0.1932927927740E+00 -0.2126340243313E+00  0.0000000000000E+00 -0.4008050092683E-01
 0.1914138669230E+00 -0.2105280766074E+00  0.0000000000000E+00 -0.5149246550210E-01
 0.1894182002890E+00 -0.2082939184006E+00  0.0000000000000E+00 -0.6273257044953E-01
 0.1873283658630E+00 -0.2059500561257E+00  0.0000000000000E+00 -0.7371725918344E-01
 0.1851761992166E+00 -0.2035237317841E+00  0.0000000000000E+00 -0.8435218789551E-01
 0.1830044906070E+00 -0.2010525018930E+00  0.0000000000000E+00 -0.9452585788940E-01
 0.1808691274643E+00 -0.1985862566722E+00  0.0000000000000E+00 -0.1041026178007E+00
 0.1788418968069E+00 -0.1961898848857E+00  0.0000000000000E+00 -0.1129141236906E+00
 0.1770141370290E+00 -0.1939467734858E+00  0.0000000000000E+00 -0.1207480901494E+00
 0.1755014134028E+00 -0.1919633257850E+00  0.0000000000000E+00 -0.1273326779492E+00
 0.1744493319679E+00 -0.1903746477846E+00  0.0000000000000E+00 -0.1323139692818E+00
 0.1740403891786E+00 -0.1893513966713E+00  0.0000000000000E+00 -0.1352223647294E+00
 0.1745010535315E+00 -0.1891072645560E+00  0.0000000000000E+00 -0.1354207539129E+00
 0.1761061467349E+00 -0.1899049206930E+00  0.0000000000000E+00 -0.1320220631769E+00
 0.1791713695419E+00 -0.1920533672440E+00  0.0000000000000E+00 -0.1237542520415E+00
 0.1839984583609E+00 -0.1958709986592E+00  0.0000000000000E+00 -0.1087477936132E+00
 0.1907261047209E+00 -0.2015507845621E+00  0.0000000000000E+00 -0.8436267189527E-01
 0.2096336595756E+00 -0.2304336788191E+00  0.0000000000000E+00 -0.3149063358113E-02
 0.2092264692427E+00 -0.2298966033360E+00  0.0000000000000E+00 -0.1427270508812E-01
 0.2087050974954E+00 -0.2292530460815E+00  0.0000000000000E+00 -0.2548619638923E-01
 0.2080805327078E+00 -0.2285120751435E+00  0.0000000000000E+00 -0.3669586045809E-01
 0.2073651859755E+00 -0.2276841605489E+00  0.0000000000000E+00 -0.4781539045376E-01
 0.2065747536946E+00 -0.2267829748328E+00  0.0000000000000E+00 -0.5875802182539E-01
 0.2057294770285E+00 -0.2258266053820E+00  0.0000000000000E+00 -0.6942958079396E-01
 0.2048550716341E+00 -0.2248384490168E+00  0.0000000000000E+00 -0.7972190159389E-01
 0.2039835044929E+00 -0.2238479669232E+00  0.0000000000000E+00 -0.8950601320701E-01
 0.2031537042585E+00 -0.2228913917650E+00  0.0000000000000E+00 -0.9862443121921E-01
 0.2024121999294E+00 -0.2220123922626E+00  0.0000000000000E+00 -0.1068817971140E+00
 0.2018135694893E+00 -0.2212625980941E+00  0.0000000000000E+00 -0.1140329456858E+00
 0.2014204050468E+00 -0.2207017333414E+00  0.0000000000000E+00 -0.1197672265264E+00
 0.2013021858674E+00 -0.2203968312801E+00  0.0000000000000E+00 -0.1236875463516E+00
 0.2015318409665E+00 -0.2204194738328E+00  0.0000000000000E+00 -0.1252821752875E+00
 0.2021775609947E+00 -0.2208389383107E+00  0.0000000000000E+00 -0.1238871589598E+00
 0.2032850353631E+00 -0.2217070243667E+00  0.0000000000000E+00 -0.1186382117741E+00
 0.2048402924385E+00 -0.2230260657828E+00  0.0000000000000E+00 -0.1084175005719E+00
 0.2067023377630E+00 -0.2246868328467E+00  0.0000000000000E+00 -0.9182958012209E-01
 0.2085179541746E+00 -0.2263814017931E+00  0.0000000000000E+00 -0.6724125552202E-01
 0.2209319260278E+00 -0.2425294795316E+00  0.0000000000000E+00  0.2610961064273E-03
 0.2215430867035E+00 -0.2430921661203E+00  0.0000000000000E+00 -0.1039589383182E-01
 0.2220636921025E+00 -0.2435807154246E+00  0.0000000000000E+00 -0.2110377683270E-01
 0.2225081972161E+00 -0.2440088517484E+00  0.0000000000000E+00 -0.3176569828325E-01
 0.2228900999667E+00 -0.2443894777115E+00  0.0000000000000E+00 -0.4228845607541E-01
 0.2232233111135E+00 -0.2447360286012E+00  0.0000000000000E+00 -0.5257527834257E-01
 0.2235228992313E+00 -0.2450632194581E+00  0.0000000000000E+00 -0.6251939494304E-01
 0.2238053318408E+00 -0.2453873056938E+00  0.0000000000000E+00 -0.7199789580581E-01
 0.2240882741338E+00 -0.2457259277302E+00  0.0000000000000E+00 -0.8086538054960E-01
 0.2243899203508E+00 -0.2460975232662E+00  0.0000000000000E+00 -0.8894694004479E-01
 0.2247277261114E+00 -0.2465201907305E+00  0.0000000000000E+00 -0.9603002313548E-01
 0.2251162769500E+00 -0.2470097638360E+00  0.0000000000000E+00 -0.1018547586881E+00
 0.2255638414461E+00 -0.2475766854052E+00  0.0000000000000E+00 -0.1061023691642E+00
 0.2260668790120E+00 -0.2482210131183E+00  0.0000000000000E+00 -0.1083815282196E+00
 0.2266013564591E+00 -0.2489245048157E+00  0.0000000000000E+00 -0.1082131164347E+00
 0.2271091721760E+00 -0.2496381922829E+00  0.0000000000000E+00 -0.1050153377260E+00
 0.2274774275849E+00 -0.2502632666407E+00  0.0000000000000E+00 -0.9809470924119E-01
 0.2275093456659E+00 -0.2506233880526E+00  0.0000000000000E+00 -0.8665620797627E-01
 0.2268907530869E+00 -0.2504311101533E+00  0.0000000000000E+00 -0.6985121862792E-01
 0.2251469885986E+00 -0.2492507586180E+00  0.0000000000000E+00 -0.4687770268409E-01
 0.2319336884352E+00 -0.2543102789430E+00  0.0000000000000E+00  0.4543095835476E-02
 0.2335075177603E+00 -0.2559140043316E+00  0.0000000000000E+00 -0.5507600776719E-02
 0.2350039078095E+00 -0.2574649838587E+00  0.0000000000000E+00 -0.1553344611951E-01
 0.2364382163535E+00 -0.2589789217226E+00  0.0000000000000E+00 -0.2543258431079E-01
 0.2378221939809E+00 -0.2604681865363E+00  0.0000000000000E+00 -0.3510407979464E-01
 0.2391650207509E+00 -0.2619428719489E+00  0.0000000000000E+00 -0.4444130350764E-01
 0.2404735932412E+00 -0.2634111065867E+00  0.0000000000000E+00 -0.5332635295258E-01
 0.2417521439574E+00 -0.2648787263017E+00  0.0000000000000E+00 -0.6162490384325E-01
 0.2430012322015E+00 -0.2663483480743E+00  0.0000000000000E+00 -0.6918115013421E-01
 0.2442160469709E+00 -0.2678177946461E+00  0.0000000000000E+00 -0.7581260651091E-01
 0.2453838742924E+00 -0.2692777336033E+00  0.0000000000000E+00 -0.8130465766959E-01
 0.2464804885028E+00 -0.2707083060364E+00  0.0000000000000E+00 -0.8540489080552E-01
 0.2474651299870E+00 -0.2720744259379E+00  0.0000000000000E+00 -0.8781750252735E-01
 0.2482736453762E+00 -0.2733193430960E+00  0.0000000000000E+00 -0.8819852513484E-01
 0.2488093507463E+00 -0.2743560265281E+00  0.0000000000000E+00 -0.8615342019614E-01
 0.2489313916423E+00 -0.2750560779746E+00  0.0000000000000E+00 -0.8123992587801E-01
 0.2484412813555E+00 -0.2752365785117E+00  0.0000000000000E+00 -0.7298096645731E-01
 0.2470704289553E+00 -0.2746472039895E+00  0.0000000000000E+00 -0.6089332252810E-01
 0.2444735645353E+00 -0.2729624185931E+00  0.0000000000000E+00 -0.4453575830041E-01
 0.2402426118143E+00 -0.2697882099297E+00  0.0000000000000E+00 -0.2359421081869E-01
 0.2425750995702E+00 -0.2657078422931E+00  0.0000000000000E+00  0.9625575173284E-02
 0.2450391974826E+00 -0.2682762949672E+00  0.0000000000000E+00  0.2990779275995E-03
 0.2474264398544E+00 -0.2708003150010E+00  0.0000000000000E+00 -0.8897431730302E-02
 0.2497505526465E+00 -0.2732948522226E+00  0.0000000000000E+00 -0.1785736927901E-01
 0.2520187805211E+00 -0.2757688195762E+00  0.0000000000000E+00 -0.2647304167609E-01
 0.2542328458689E+00 -0.2782260248333E+00  0.0000000000000E+00 -0.3463017708125E-01
 0.2563888977459E+00 -0.2806651560515E+00  0.0000000000000E+00 -0.4220354493868E-01
 0.2584767158633E+00 -0.2830790477818E+00  0.0000000000000E+00 -0.4905324518077E-01
 0.2604782237580E+00 -0.2854532861526E+00  0.0000000000000E+00 -0.5502149561768E-01
 0.2623652858168E+00 -0.2877641297184E+00  0.0000000000000E+00 -0.5992989340507E-01
 0.2640967063575E+00 -0.2899756687420E+00  0.0000000000000E+00 -0.6357727615672E-01
 0.2656143184729E+00 -0.2920361136300E+00  0.0000000000000E+00 -0.6573849466028E-01
 0.2668380565415E+00 -0.2938731036894E+00  0.0000000000000E+00 -0.6616466025786E-01
 0.2676599851531E+00 -0.2953879908037E+00  0.0000000000000E+00 -0.6458576373657E-01
 0.2679374768681E+00 -0.2964492405172E+00  0.0000000000000E+00 -0.6071695282671E-01
 0.2674862119867E+00 -0.2968855090391E+00  0.0000000000000E+00 -0.5427003364389E-01
 0.2660744911926E+00 -0.2964797157225E+00  0.0000000000000E+00 -0.4497131682933E-01
 0.2634212902635E+00 -0.2949663676134E+00  0.0000000000000E+00 -0.3258483879376E-01
 0.2592019316305E+00 -0.2920354585845E+00  0.0000000000000E+00 -0.1693662781869E-01
 0.2530704410277E+00 -0.2873500305029E+00  0.0000000000000E+00  0.2085225977529E-02
 0.2527982939618E+00 -0.2766601987830E+00  0.0000000000000E+00  0.1542801318721E-01
 0.2560658797554E+00 -0.2801020626973E+00  0.0000000000000E+00  0.6923522417399E-02
 0.2592436838036E+00 -0.2834934928515E+00  0.0000000000000E+00 -0.1324004853697E-02
 0.2623410974553E+00 -0.2868459012378E+00  0.0000000000000E+00 -0.9204812560092E-02
 0.2653584323615E+00 -0.2901621167843E+00  0.0000000000000E+00 -0.1660691065599E-01
 0.2682877041995E+00 -0.2934371662070E+00  0.0000000000000E+00 -0.2341215582390E-01
 0.2711124324820E+00 -0.2966581017805E+00  0.0000000000000E+00 -0.2949330243368E-01
 0.2738067049839E+00 -0.2998031224148E+00  0.0000000000000E+00 -0.3471196297017E-01
 0.2763336131937E+00 -0.3028400869608E+00  0.0000000000000E+00 -0.3891745094332E-01
 0.2786430974922E+00 -0.3057244574913E+00  0.0000000000000E+00 -0.4194660238456E-01
 0.2806692219245E+00 -0.3083966900224E+00  0.0000000000000E+00 -0.4362480190060E-01
 0.2823269141023E+00 -0.3107791023617E+00  0.0000000000000E+00 -0.4376857597348E-01
 0.2835082667476E+00 -0.3127723019417E+00  0.0000000000000E+00 -0.4219024371549E-01
 0.2840786218663E+00 -0.3142513680082E+00  0.0000000000000E+00 -0.3870518624837E-01
 0.2838728655431E+00 -0.3150621708127E+00  0.0000000000000E+00 -0.3314219738538E-01
 0.2826926286131E+00 -0.3150184681694E+00  0.0000000000000E+00 -0.2535688077450E-01
 0.2803052825028E+00 -0.3139006315941E+00  0.0000000000000E+00 -0.1524686927434E-01
 0.2764454790300E+00 -0.3114567837006E+00  0.0000000000000E+00 -0.2765671960034E-02
 0.2708191591948E+00 -0.3074064347066E+00  0.0000000000000E+00  0.1207226825175E-01
 0.2630996859799E+00 -0.3014409833260E+00  0.0000000000000E+00  0.2920887495374E-01
 0.2625529295811E+00 -0.2871131675548E+00  0.0000000000000E+00  0.2186192409916E-01
 0.2665260975317E+00 -0.2913251917985E+00  0.0000000000000E+00  0.1425844392027E-01
 0.2703822523099E+00 -0.2954656196829E+00  0.0000000000000E+00  0.7053532366593E-02
 0.2741241784371E+00 -0.2995398891386E+00  0.0000000000000E+00  0.3578581531918E-03
 0.2777432591733E+00 -0.3035425468396E+00  0.0000000000000E+00 -0.5715942564338E-02
 0.2812201359163E+00 -0.3074579072458E+00  0.0000000000000E+00 -0.1105072357489E-01
 0.2845245542145E+00 -0.3112599201998E+00  0.0000000000000E+00 -0.1552335166199E-01
 0.2876145901495E+00 -0.3149114348197E+00  0.0000000000000E+00 -0.1900433932121E-01
 0.2904353914871E+00 -0.3183629899328E+00  0.0000000000000E+00 -0.2135862863571E-01
 0.2929175439286E+00 -0.3215512363283E+00  0.0000000000000E+00 -0.2244763709342E-01
 0.2949751779517E+00 -0.3243971004736E+00  0.0000000000000E+00 -0.2213276040933E-01
 0.2965039635388E+00 -0.3268038278955E+00  0.0000000000000E+00 -0.2028058642473E-01
 0.2973791958786E+00 -0.3286550959503E+00  0.0000000000000E+00 -0.1677007287728E-01
 0.2974542470965E+00 -0.3298134537931E+00  0.0000000000000E+00 -0.1150182424699E-01
 0.2965597164714E+00 -0.3301194073459E+00  0.0000000000000E+00 -0.4409287909721E-02
 0.2945035827395E+00 -0.3293914543766E+00  0.0000000000000E+00  0.4528889614973E-02
 0.2910724179278E+00 -0.3274271791229E+00  0.0000000000000E+00  0.1527687895846E-01
 0.2860331194784E+00 -0.3240049840116E+00  0.0000000000000E+00  0.2773231334345E-01
 0.2791326126163E+00 -0.3188846393105E+00  0.0000000000000E+00  0.4172115164630E-01
 0.2700936758526E+00 -0.3118033272068E+00  0.0000000000000E+00  0.5698586362530E-01
 0.2717957671522E+00 -0.2970200256532E+00  0.0000000000000E+00  0.2883203286963E-01
 0.2763683799581E+00 -0.3018899792115E+00  0.0000000000000E+00  0.2218948473343E-01
 0.2807820144955E+00 -0.3066515374083E+00  0.0000000000000E+00  0.1609581955138E-01
 0.2850312118735E+00 -0.3113023384508E+00  0.0000000000000E+00  0.1065941852841E-01
 0.2890969442985E+00 -0.3158269417012E+00  0.0000000000000E+00  0.5989042682234E-02
 0.2929473633668E+00 -0.3201975706696E+00  0.0000000000000E+00  0.2195315255874E-02
 0.2965379402144E+00 -0.3243742595955E+00  0.0000000000000E+00 -0.6091163177917E-03
 0.2998111350475E+00 -0.3283045348223E+00  0.0000000000000E+00 -0.2310708411547E-02
 0.3026957525993E+00 -0.3319227824260E+00  0.0000000000000E+00 -0.2797407033452E-02
 0.3051061537455E+00 -0.3351494669161E+00  0.0000000000000E+00 -0.1962317220532E-02
 0.3069415100979E+00 -0.3378903809175E+00  0.0000000000000E+00  0.2912700954081E-03
 0.3080853096159E+00 -0.3400361257732E+00  0.0000000000000E+00  0.4043414388470E-02
 0.3084053388914E+00 -0.3414620407996E+00  0.0000000000000E+00  0.9349607241155E-02
 0.3077543593208E+00 -0.3420287950873E+00  0.0000000000000E+00  0.1623152923255E-01
 0.3059716207704E+00 -0.3415837942726E+00  0.0000000000000E+00  0.2466684374595E-01
 0.3028851652845E+00 -0.3399633881343E+00  0.0000000000000E+00  0.3457864206587E-01
 0.2983145496456E+00 -0.3369955623409E+00  0.0000000000000E+00  0.4582525631379E-01
 0.2920731430213E+00 -0.3325023932355E+00  0.0000000000000E+00  0.5819065369442E-01
 0.2839695848106E+00 -0.3263015115205E+00  0.0000000000000E+00  0.7137302176817E-01
 0.2738105550895E+00 -0.3182082425473E+00  0.0000000000000E+00  0.8496869165632E-01
 0.2804903044358E+00 -0.3063411920276E+00  0.0000000000000E+00  0.3623900369251E-01
 0.2855503181154E+00 -0.3117503065985E+00  0.0000000000000E+00  0.3059841053811E-01
 0.2903947748340E+00 -0.3169986830630E+00  0.0000000000000E+00  0.2566119939320E-01
 0.2950089124800E+00 -0.3220749019238E+00  0.0000000000000E+00  0.2152913917696E-01
 0.2993622644077E+00 -0.3269522818947E+00  0.0000000000000E+00  0.1830184685002E-01
 0.3034098278132E+00 -0.3315900371167E+00  0.0000000000000E+00  0.1607757036746E-01
 0.3070927866254E+00 -0.3359339862025E+00  0.0000000000000E+00  0.1495223129892E-01
 0.3103388640352E+00 -0.3399168855098E+00  0.0000000000000E+00  0.1501705097635E-01
 0.3130624904148E+00 -0.3434585689260E+00  0.0000000000000E+00  0.1635499493997E-01
 0.3151650098293E+00 -0.3464661122303E+00  0.0000000000000E+00  0.1903617389066E-01
 0.3165351589490E+00 -0.3488342495757E+00  0.0000000000000E+00  0.2311228992012E-01
 0.3170500496061E+00 -0.3504462671363E+00  0.0000000000000E+00  0.2861022159033E-01
 0.3165768653032E+00 -0.3511755808318E+00  0.0000000000000E+00  0.3552488984772E-01
 0.3149754258545E+00 -0.3508881558960E+00  0.0000000000000E+00  0.4381160920067E-01
 0.3121016609178E+00 -0.3494458258316E+00  0.0000000000000E+00  0.5337814290648E-01
 0.3078118545629E+00 -0.3467104045750E+00  0.0000000000000E+00  0.6407654788966E-01
 0.3019672924091E+00 -0.3425482767540E+00  0.0000000000000E+00  0.7569451262044E-01
 0.2944389263303E+00 -0.3368350309539E+00  0.0000000000000E+00  0.8794527633688E-01
 0.2851121162424E+00 -0.3294601223924E+00  0.0000000000000E+00  0.1004555817147E+00
 0.2738916363427E+00 -0.3203317775225E+00  0.0000000000000E+00  0.1127545236999E+00
 0.2886063649829E+00 -0.3150438189986E+00  0.0000000000000E+00  0.4398167892701E-01
 0.2940376833488E+00 -0.3208687651789E+00  0.0000000000000E+00  0.3936634240985E-01
 0.2991829759865E+00 -0.3264658187980E+00  0.0000000000000E+00  0.3560980819845E-01
 0.3040175385939E+00 -0.3318136538176E+00  0.0000000000000E+00  0.3280158245772E-01
 0.3084987142393E+00 -0.3368733772396E+00  0.0000000000000E+00  0.3102623788396E-01
 0.3125679776201E+00 -0.3415905938834E+00  0.0000000000000E+00  0.3036373437708E-01
 0.3161525475220E+00 -0.3458969787077E+00  0.0000000000000E+00  0.3088741266588E-01
 0.3191665921051E+00 -0.3497114281508E+00  0.0000000000000E+00  0.3266055922718E-01
 0.3215122770569E+00 -0.3529410399149E+00  0.0000000000000E+00  0.3573208158453E-01
 0.3230809385576E+00 -0.3554821990422E+00  0.0000000000000E+00  0.4013162847444E-01
 0.3237546470273E+00 -0.3572220303508E+00  0.0000000000000E+00  0.4586440392602E-01
 0.3234083958942E+00 -0.3580404458288E+00  0.0000000000000E+00  0.5290591033753E-01
 0.3219131075567E+00 -0.3578129756382E+00  0.0000000000000E+00  0.6119686191311E-01
 0.3191395949109E+00 -0.3564145217751E+00  0.0000000000000E+00  0.7063847488196E-01
 0.3149635571201E+00 -0.3537241184907E+00  0.0000000000000E+00  0.8108818461404E-01
 0.3092716349530E+00 -0.3496307390136E+00  0.0000000000000E+00  0.9235547163603E-01
 0.3019685346880E+00 -0.3440401697991E+00  0.0000000000000E+00  0.1041968589535E+00
 0.2929850952129E+00 -0.3368829245334E+00  0.0000000000000E+00  0.1163086095895E+00
 0.2822866383531E+00 -0.3281226203679E+00  0.0000000000000E+00  0.1283164916747E+00
 0.2698797345490E+00 -0.3177632579811E+00  0.0000000000000E+00  0.1397636778684E+00
 0.2961194709226E+00 -0.3231011575048E+00  0.0000000000000E+00  0.5195897566874E-01
 0.3018034361504E+00 -0.3292156743957E+00  0.0000000000000E+00  0.4837685580095E-01
 0.3071184283835E+00 -0.3350217861805E+00  0.0000000000000E+00  0.4580751551874E-01
 0.3120292506398E+00 -0.3404874837427E+00  0.0000000000000E+00  0.4432099711523E-01
 0.3164803210084E+00 -0.3455607233934E+00  0.0000000000000E+00  0.4398053446946E-01
 0.3203993627350E+00 -0.3501730726760E+00  0.0000000000000E+00  0.4484213482619E-01
 0.3237001869045E+00 -0.3542424165519E+00  0.0000000000000E+00  0.4695127637938E-01
 0.3262848114218E+00 -0.3576749840794E+00  0.0000000000000E+00  0.5033841968496E-01
 0.3280453118979E+00 -0.3603670939784E+00  0.0000000000000E+00  0.5501419102104E-01
 0.3288657639647E+00 -0.3622069740556E+00  0.0000000000000E+00  0.6096473021118E-01
 0.3286245647021E+00 -0.3630769355961E+00  0.0000000000000E+00  0.6814756737941E-01
 0.3271973543247E+00 -0.3628561168271E+00  0.0000000000000E+00  0.7648836502532E-01
 0.3244607083402E+00 -0.3614239579524E+00  0.0000000000000E+00  0.8587885209972E-01
 0.3202967484376E+00 -0.3586645454542E+00  0.0000000000000E+00  0.9617622375833E-01
 0.3145988535177E+00 -0.3544719902616E+00  0.0000000000000E+00  0.1072041261214E+00
 0.3072787866866E+00 -0.3487571225643E+00  0.0000000000000E+00  0.1187550301217E+00
 0.2982757934400E+00 -0.3414560312216E+00  0.0000000000000E+00  0.1305932269798E+00
 0.2875684627453E+00 -0.3325412449257E+00  0.0000000000000E+00  0.1424565224182E+00
 0.2751892329975E+00 -0.3220360512515E+00  0.0000000000000E+00  0.1540519377241E+00
 0.2612390851029E+00 -0.3100296693048E+00  0.0000000000000E+00  0.1650399810586E+00
 0.3030100033126E+00 -0.3304917008197E+00  0.0000000000000E+00  0.6007170367306E-01
 0.3088267055423E+00 -0.3367680726085E+00  0.0000000000000E+00  0.5751924769776E-01
 0.3141811949953E+00 -0.3426444095792E+00  0.0000000000000E+00  0.5612979023038E-01
 0.3190267124276E+00 -0.3480767142779E+00  0.0000000000000E+00  0.5594523043706E-01
 0.3232937437868E+00 -0.3529986089137E+00  0.0000000000000E+00  0.5700128777091E-01
 0.3268960820836E+00 -0.3573272902227E+00  0.0000000000000E+00  0.5932500844943E-01
 0.3297349274823E+00 -0.3609674968478E+00  0.0000000000000E+00  0.6292945022289E-01
 0.3317018221816E+00 -0.3638143116538E+00  0.0000000000000E+00  0.6780793066233E-01
 0.3326810754694E+00 -0.3657554515971E+00  0.0000000000000E+00  0.7392883494073E-01
 0.3325521312032E+00 -0.3666734897021E+00  0.0000000000000E+00  0.8123150637444E-01
 0.3311921702871E+00 -0.3664482939860E+00  0.0000000000000E+00  0.8962360949237E-01
 0.3284791267693E+00 -0.3649598529584E+00  0.0000000000000E+00  0.9898034570635E-01
 0.3242952284654E+00 -0.3620915859734E+00  0.0000000000000E+00  0.1091459330345E+00
 0.3185311653005E+00 -0.3577342202422E+00  0.0000000000000E+00  0.1199378023501E+00
 0.3110910765421E+00 -0.3517903834920E+00  0.0000000000000E+00  0.1311540193920E+00
 0.3018987880194E+00 -0.3441802674909E+00  0.0000000000000E+00  0.1425845376791E+00
 0.2909062675290E+00 -0.3348491654676E+00  0.0000000000000E+00  0.1540269852481E+00
 0.2781063517350E+00 -0.3237786855285E+00  0.0000000000000E+00  0.1653071616992E+00
 0.2635545115721E+00 -0.3110057555685E+00  0.0000000000000E+00  0.1763003618989E+00
 0.2474032993563E+00 -0.2966562124356E+00  0.0000000000000E+00  0.1869322217829E+00
 0.3092622269625E+00 -0.3371981938260E+00  0.0000000000000E+00  0.6822486975089E-01
 0.3150919828839E+00 -0.3435089212157E+00  0.0000000000000E+00  0.6669248781333E-01
 0.3203588667199E+00 -0.3493197590578E+00  0.0000000000000E+00  0.6646568536935E-01
 0.3250020897792E+00 -0.3545720311123E+00  0.0000000000000E+00  0.6754910658911E-01
 0.3289367471710E+00 -0.3591834469950E+00  0.0000000000000E+00  0.6994582412854E-01
 0.3320626404747E+00 -0.3630566662246E+00  0.0000000000000E+00  0.7365002977772E-01
 0.3342695390845E+00 -0.3660843549281E+00  0.0000000000000E+00  0.7863860782395E-01
 0.3354406391222E+00 -0.3681524760086E+00  0.0000000000000E+00  0.8486375394703E-01
 0.3354551936607E+00 -0.3691427654348E+00  0.0000000000000E+00  0.9224738485160E-01
 0.3341908540754E+00 -0.3689349243240E+00  0.0000000000000E+00  0.1006776868557E+00
 0.3315259893555E+00 -0.3674087849194E+00  0.0000000000000E+00  0.1100080730256E+00
 0.3273420687409E+00 -0.3644465270702E+00  0.0000000000000E+00  0.1200588686857E+00
 0.3215260787293E+00 -0.3599349037818E+00  0.0000000000000E+00  0.1306221611332E+00
 0.3139728914696E+00 -0.3537673702044E+00  0.0000000000000E+00  0.1414704474781E+00
 0.3045875112511E+00 -0.3458460008555E+00  0.0000000000000E+00  0.1523700814075E+00
 0.2932872399577E+00 -0.3360831402388E+00  0.0000000000000E+00  0.1631012441672E+00
 0.2800041101140E+00 -0.3244029511080E+00  0.0000000000000E+00  0.1734875614744E+00
 0.2646891222177E+00 -0.3107437434641E+00  0.0000000000000E+00  0.1834414142577E+00
 0.2473240671025E+00 -0.2950651572026E+00  0.0000000000000E+00  0.1930365710533E+00
 0.2279681295363E+00 -0.2773794302393E+00  0.0000000000000E+00  0.2026171576331E+00
 0.3148634547310E+00 -0.3432068239948E+00  0.0000000000000E+00  0.7633185937076E-01
 0.3205890674811E+00 -0.3494270639083E+00  0.0000000000000E+00  0.7581056947845E-01
 0.3256465265984E+00 -0.3550419346232E+00  0.0000000000000E+00  0.7672206225357E-01
 0.3299565056271E+00 -0.3599734978028E+00  0.0000000000000E+00  0.7902695143770E-01
 0.3334169834592E+00 -0.3641217714527E+00  0.0000000000000E+00  0.8269265841864E-01
 0.3359141137303E+00 -0.3673751494642E+00  0.0000000000000E+00  0.8767810181254E-01
 0.3373281122131E+00 -0.3696160254003E+00  0.0000000000000E+00  0.9392102608331E-01
 0.3375367498238E+00 -0.3707240880100E+00  0.0000000000000E+00  0.1013286056612E+00
 0.3364177096247E+00 -0.3705785227483E+00  0.0000000000000E+00  0.1097713965298E+00
 0.3338504098866E+00 -0.3690597066032E+00  0.0000000000000E+00  0.1190805289631E+00
 0.3297174891215E+00 -0.3660505856107E+00  0.0000000000000E+00  0.1290480873337E+00
 0.3239058817633E+00 -0.3614376600529E+00  0.0000000000000E+00  0.1394307600434E+00
 0.3163072179775E+00 -0.3551113079309E+00  0.0000000000000E+00  0.1499570383950E+00
 0.3068171076516E+00 -0.3469650043513E+00  0.0000000000000E+00  0.1603385413078E+00
 0.2953326576713E+00 -0.3368927810480E+00  0.0000000000000E+00  0.1702865644841E+00
 0.2817471973384E+00 -0.3247839083699E+00  0.0000000000000E+00  0.1795359568656E+00
 0.2659405224784E+00 -0.3105130581760E+00  0.0000000000000E+00  0.1878806268332E+00
 0.2477612724897E+00 -0.2939226680956E+00  0.0000000000000E+00  0.1952301562389E+00
 0.2269948970273E+00 -0.2747899518314E+00  0.0000000000000E+00  0.2017142493001E+00
 0.2033114217724E+00 -0.2527653595529E+00  0.0000000000000E+00  0.2079297365484E+00
 0.3198039551451E+00 -0.3485074482313E+00  0.0000000000000E+00  0.8432174157693E-01
 0.3253142386313E+00 -0.3545181979143E+00  0.0000000000000E+00  0.8480796385504E-01
 0.3300471561035E+00 -0.3598126312133E+00  0.0000000000000E+00  0.8682612528023E-01
 0.3338993163165E+00 -0.3642881350676E+00  0.0000000000000E+00  0.9029135009555E-01
 0.3367502572543E+00 -0.3678256486365E+00  0.0000000000000E+00  0.9513526360569E-01
 0.3384738163767E+00 -0.3703005536100E+00  0.0000000000000E+00  0.1012808115615E+00
 0.3389437889737E+00 -0.3715880135225E+00  0.0000000000000E+00  0.1086244591425E+00
 0.3380367810047E+00 -0.3715656203076E+00  0.0000000000000E+00  0.1170246449315E+00
 0.3356337664138E+00 -0.3701148177869E+00  0.0000000000000E+00  0.1262954218391E+00
 0.3316209630735E+00 -0.3671217044826E+00  0.0000000000000E+00  0.1362044068780E+00
 0.3258901030518E+00 -0.3624772908077E+00  0.0000000000000E+00  0.1464744176079E+00
 0.3183378158304E+00 -0.3560769371292E+00  0.0000000000000E+00  0.1567884224150E+00
 0.3088635617277E+00 -0.3478184290236E+00  0.0000000000000E+00  0.1667976627380E+00
 0.2973652492699E+00 -0.3375978612556E+00  0.0000000000000E+00  0.1761330384567E+00
 0.2837312023106E+00 -0.3253020792234E+00  0.0000000000000E+00  0.1844201131157E+00
 0.2678262759548E+00 -0.3107956424414E+00  0.0000000000000E+00  0.1912984224300E+00
 0.2494678782625E+00 -0.2938985781137E+00  0.0000000000000E+00  0.1964461745325E+00
 0.2283832064115E+00 -0.2743471005081E+00  0.0000000000000E+00  0.1996125174606E+00
 0.2041230893338E+00 -0.2517181902049E+00  0.0000000000000E+00  0.2006589733244E+00
 0.1758404736526E+00 -0.2252440879887E+00  0.0000000000000E+00  0.1996405038610E+00
 0.3240768939359E+00 -0.3530933364808E+00  0.0000000000000E+00  0.9213551629303E-01
 0.3292692993901E+00 -0.3587829633537E+00  0.0000000000000E+00  0.9362701268773E-01
 0.3335689328936E+00 -0.3636370539203E+00  0.0000000000000E+00  0.9670740510335E-01
 0.3368440190715E+00 -0.3675239191441E+00  0.0000000000000E+00  0.1012505042778E+00
 0.3389557768266E+00 -0.3703054704552E+00  0.0000000000000E+00  0.1071556703579E+00
 0.3397689788473E+00 -0.3718472262672E+00  0.0000000000000E+00  0.1143114777344E+00
 0.3391561687029E+00 -0.3720221859959E+00  0.0000000000000E+00  0.1225724890955E+00
 0.3369990445908E+00 -0.3707120155094E+00  0.0000000000000E+00  0.1317460120965E+00
 0.3331886981048E+00 -0.3678072003123E+00  0.0000000000000E+00  0.1415861171997E+00
 0.3276252632915E+00 -0.3632067145175E+00  0.0000000000000E+00  0.1517928893353E+00
 0.3202168608386E+00 -0.3568170972023E+00  0.0000000000000E+00  0.1620154711704E+00
 0.3108773083281E+00 -0.3485504294060E+00  0.0000000000000E+00  0.1718578659608E+00
 0.2995217535847E+00 -0.3383204124988E+00  0.0000000000000E+00  0.1808866834180E+00
 0.2860590451652E+00 -0.3260354453749E+00  0.0000000000000E+00  0.1886399902202E+00
 0.2703791511437E+00 -0.3115871634435E+00  0.0000000000000E+00  0.1946360066034E+00
 0.2523330364069E+00 -0.2948321774037E+00  0.0000000000000E+00  0.1983790923684E+00
 0.2317009092336E+00 -0.2755635219531E+00  0.0000000000000E+00  0.1993568040370E+00
 0.2081405075093E+00 -0.2534657827222E+00  0.0000000000000E+00  0.1970111201737E+00
 0.1811040186139E+00 -0.2280442090543E+00  0.0000000000000E+00  0.1906360214746E+00
 0.1496844345140E+00 -0.1985222255233E+00  0.0000000000000E+00  0.1789613089316E+00
 0.3276780736255E+00 -0.3569599983993E+00  0.0000000000000E+00  0.9971093226374E-01
 0.3324581254674E+00 -0.3622234186950E+00  0.0000000000000E+00  0.1021934361844E+00
 0.3362207648198E+00 -0.3665201984264E+00  0.0000000000000E+00  0.1062682370098E+00
 0.3388033257094E+00 -0.3696869832198E+00  0.0000000000000E+00  0.1117780489080E+00
 0.3400514124807E+00 -0.3715693214987E+00  0.0000000000000E+00  0.1185983231469E+00
 0.3398267203998E+00 -0.3720288232332E+00  0.0000000000000E+00  0.1265881648491E+00
 0.3380082042848E+00 -0.3709439531330E+00  0.0000000000000E+00  0.1355622810142E+00
 0.3344910049350E+00 -0.3682087700634E+00  0.0000000000000E+00  0.1452774320445E+00
 0.3291849010073E+00 -0.3637313549451E+00  0.0000000000000E+00  0.1554282148637E+00
 0.3220126011332E+00 -0.3574322311179E+00  0.0000000000000E+00  0.1656485372961E+00
 0.3129074355039E+00 -0.3492423439607E+00  0.0000000000000E+00  0.1755162703579E+00
 0.3018096168824E+00 -0.3390997902355E+00  0.0000000000000E+00  0.1845592013598E+00
 0.2886600070265E+00 -0.3269442830165E+00  0.0000000000000E+00  0.1922605453642E+00
 0.2733901154409E+00 -0.3127081653703E+00  0.0000000000000E+00  0.1980618239871E+00
 0.2559068315239E+00 -0.2963026143934E+00  0.0000000000000E+00  0.2013596349071E+00
 0.2360703580967E+00 -0.2775976774083E+00  0.0000000000000E+00  0.2014899311763E+00
 0.2136645345519E+00 -0.2563956176410E+00  0.0000000000000E+00  0.1976869530556E+00
 0.1883645285820E+00 -0.2324018473194E+00  0.0000000000000E+00  0.1889870261321E+00
 0.1597186819416E+00 -0.2052124726308E+00  0.0000000000000E+00  0.1740053909704E+00
 0.1273322112540E+00 -0.1744410116482E+00  0.0000000000000E+00  0.1504392231515E+00
 0.3306088237819E+00 -0.3601087312296E+00  0.0000000000000E+00  0.1069830638192E+00
 0.3348893110799E+00 -0.3648465644756E+00  0.0000000000000E+00  0.1104145289849E+00
 0.3380142439945E+00 -0.3684698662871E+00  0.0000000000000E+00  0.1153797408166E+00
 0.3397902700266E+00 -0.3707838522338E+00  0.0000000000000E+00  0.1217089321336E+00
 0.3400535791820E+00 -0.3716239994305E+00  0.0000000000000E+00  0.1292675511535E+00
 0.3386717971652E+00 -0.3708571157952E+00  0.0000000000000E+00  0.1378935673785E+00
 0.3355399968503E+00 -0.3683768902459E+00  0.0000000000000E+00  0.1473667223503E+00
 0.3305761512687E+00 -0.3640991527797E+00  0.0000000000000E+00  0.1573972922221E+00
 0.3237175068939E+00 -0.3579582663318E+00  0.0000000000000E+00  0.1676255985266E+00
 0.3149176034062E+00 -0.3499043630378E+00  0.0000000000000E+00  0.1776265626630E+00
 0.3041429654059E+00 -0.3399004189897E+00  0.0000000000000E+00  0.1869156226470E+00
 0.2913683233678E+00 -0.3279180254473E+00  0.0000000000000E+00  0.1949533086595E+00
 0.2765692662243E+00 -0.3139307801253E+00  0.0000000000000E+00  0.2011457890348E+00
 0.2597113668598E+00 -0.2979043849382E+00  0.0000000000000E+00  0.2048378375641E+00
 0.2407351714174E+00 -0.2797828676727E+00  0.0000000000000E+00  0.2052928851779E+00
 0.2195375435082E+00 -0.2594713183186E+00  0.0000000000000E+00  0.2016520047098E+00
 0.1959536311166E+00 -0.2368186620167E+00  0.0000000000000E+00  0.1928595748608E+00
 0.1697549007730E+00 -0.2116133937190E+00  0.0000000000000E+00  0.1775416454316E+00
 0.1407222882061E+00 -0.1836382563495E+00  0.0000000000000E+00  0.1538214348773E+00
 0.1088412708970E+00 -0.1528447587563E+00  0.0000000000000E+00  0.1192817713008E+00
 0.3328767902512E+00 -0.3625472750472E+00  0.0000000000000E+00  0.1138807931775E+00
 0.3365756093294E+00 -0.3666638365439E+00  0.0000000000000E+00  0.1181750335444E+00
 0.3389619107532E+00 -0.3694953081234E+00  0.0000000000000E+00  0.1238798105889E+00
 0.3398161007297E+00 -0.3708202016632E+00  0.0000000000000E+00  0.1308418231725E+00
 0.3389755267343E+00 -0.3704748489445E+00  0.0000000000000E+00  0.1389351499240E+00
 0.3363254874103E+00 -0.3683432577164E+00  0.0000000000000E+00  0.1479868454397E+00
 0.3317876926551E+00 -0.3643449806216E+00  0.0000000000000E+00  0.1577481220387E+00
 0.3253115724287E+00 -0.3584261518436E+00  0.0000000000000E+00  0.1678894403361E+00
 0.3168687972687E+00 -0.3505540693820E+00  0.0000000000000E+00  0.1780059154153E+00
 0.3064495313538E+00 -0.3407137023062E+00  0.0000000000000E+00  0.1876251950816E+00
 0.2940586928886E+00 -0.3289043323890E+00  0.0000000000000E+00  0.1962134527336E+00
 0.2797108940477E+00 -0.3151349375454E+00  0.0000000000000E+00  0.2031765164485E+00
 0.2634232923038E+00 -0.2994175404019E+00  0.0000000000000E+00  0.2078529886279E+00
 0.2452061753155E+00 -0.2817583229701E+00  0.0000000000000E+00  0.2094950415398E+00
 0.2250519444086E+00 -0.2621470823011E+00  0.0000000000000E+00  0.2072309892010E+00
 0.2029247669715E+00 -0.2405470090920E+00  0.0000000000000E+00  0.2000026580588E+00
 0.1787565934126E+00 -0.2168895985001E+00  0.0000000000000E+00  0.1864739960856E+00
 0.1524616599821E+00 -0.1910846487820E+00  0.0000000000000E+00  0.1649273346553E+00
 0.1239969702760E+00 -0.1630643932950E+00  0.0000000000000E+00  0.1332662746915E+00
 0.9346699174730E-01 -0.1328731922090E+00  0.0000000000000E+00  0.8929228673243E-01
 0.3344972308901E+00 -0.3642913739891E+00  0.0000000000000E+00  0.1203242756860E+00
 0.3375340923106E+00 -0.3676913644909E+00  0.0000000000000E+00  0.1253336317200E+00
 0.3390760648371E+00 -0.3696059026211E+00  0.0000000000000E+00  0.1315723369574E+00
 0.3388889663772E+00 -0.3697992642762E+00  0.0000000000000E+00  0.1389420705283E+00
 0.3368268335177E+00 -0.3681247906236E+00  0.0000000000000E+00  0.1473452971610E+00
 0.3328059526963E+00 -0.3644974975053E+00  0.0000000000000E+00  0.1566065074792E+00
 0.3267838397184E+00 -0.3588720347633E+00  0.0000000000000E+00  0.1664537445373E+00
 0.3187469419715E+00 -0.3512301385213E+00  0.0000000000000E+00  0.1765254085307E+00
 0.3087045695498E+00 -0.3415746660598E+00  0.0000000000000E+00  0.1863831739460E+00
 0.2966854730764E+00 -0.3299264979748E+00  0.0000000000000E+00  0.1955222383821E+00
 0.2827345124382E+00 -0.3163214613705E+00  0.0000000000000E+00  0.2033755566348E+00
 0.2669083536998E+00 -0.3008061834521E+00  0.0000000000000E+00  0.2093100347055E+00
 0.2492702219517E+00 -0.2834328568227E+00  0.0000000000000E+00  0.2126117882157E+00
 0.2298846044307E+00 -0.2642537318858E+00  0.0000000000000E+00  0.2124562443827E+00
 0.2088137537321E+00 -0.2433170409787E+00  0.0000000000000E+00  0.2078577979089E+00
 0.1861189150373E+00 -0.2206670475631E+00  0.0000000000000E+00  0.1975944451082E+00
 0.1618686925588E+00 -0.1963508005172E+00  0.0000000000000E+00  0.1801097919997E+00
 0.1361499717847E+00 -0.1704280460090E+00  0.0000000000000E+00  0.1534228283252E+00
 0.1090182221140E+00 -0.1429377041746E+00  0.0000000000000E+00  0.1151694941172E+00
 0.8040128712645E-01 -0.1137657318043E+00  0.0000000000000E+00  0.6315419882747E-01
 0.3354926734108E+00 -0.3653645954675E+00  0.0000000000000E+00  0.1262167246690E+00
 0.3377825144681E+00 -0.3679459330896E+00  0.0000000000000E+00  0.1317139696516E+00
 0.3383641600361E+00 -0.3688062607602E+00  0.0000000000000E+00  0.1382232152256E+00
 0.3370112792343E+00 -0.3677189115420E+00  0.0000000000000E+00  0.1457426710130E+00
 0.3336149868562E+00 -0.3645760271313E+00  0.0000000000000E+00  0.1542164985018E+00
 0.3281348670115E+00 -0.3593364447698E+00  0.0000000000000E+00  0.1634673199415E+00
 0.3205689244232E+00 -0.3519945711169E+00  0.0000000000000E+00  0.1732019123046E+00
 0.3109409131884E+00 -0.3425674166293E+00  0.0000000000000E+00  0.1830354525901E+00
 0.2992963562549E+00 -0.3310912584213E+00  0.0000000000000E+00  0.1925108612785E+00
 0.2857005507004E+00 -0.3176199348729E+00  0.0000000000000E+00  0.2011084812951E+00
 0.2702362286626E+00 -0.3022225416133E+00  0.0000000000000E+00  0.2082469517720E+00
 0.2530008888512E+00 -0.2849805052364E+00  0.0000000000000E+00  0.2132747045493E+00
 0.2341048745160E+00 -0.2659850657851E+00  0.0000000000000E+00  0.2154498692141E+00
 0.2136721227966E+00 -0.2453369606080E+00  0.0000000000000E+00  0.2139050388729E+00
 0.1918463401253E+00 -0.2231508705099E+00  0.0000000000000E+00  0.2075926403644E+00
 0.1688054773009E+00 -0.1995674650286E+00  0.0000000000000E+00  0.1952071052926E+00
 0.1447844432425E+00 -0.1747734437592E+00  0.0000000000000E+00  0.1750819698914E+00
 0.1200867133178E+00 -0.1490152429668E+00  0.0000000000000E+00  0.1450618999612E+00
 0.9500509977295E-01 -0.1225367263526E+00  0.0000000000000E+00  0.1023025006176E+00
 0.6919317655862E-01 -0.9511833044966E-01  0.0000000000000E+00  0.4327252351783E-01
 0.3358971377872E+00 -0.3658024381777E+00  0.0000000000000E+00  0.1314411562189E+00
 0.3373455923428E+00 -0.3674558303051E+00  0.0000000000000E+00  0.1371189280452E+00
 0.3368421192088E+00 -0.3671174183846E+00  0.0000000000000E+00  0.1436009584625E+00
 0.3342042639494E+00 -0.3646086658021E+00  0.0000000000000E+00  0.1510133372929E+00
 0.3293828886981E+00 -0.3598847844453E+00  0.0000000000000E+00  0.1593338183935E+00
 0.3223859038701E+00 -0.3529544108132E+00  0.0000000000000E+00  0.1683675652822E+00
 0.3132472172521E+00 -0.3438458929241E+00  0.0000000000000E+00  0.1777989513255E+00
 0.3020217756899E+00 -0.3326047164656E+00  0.0000000000000E+00  0.1872312142153E+00
 0.2887853993567E+00 -0.3192940631905E+00  0.0000000000000E+00  0.1962040904367E+00
 0.2736337628978E+00 -0.3039939916769E+00  0.0000000000000E+00  0.2041993066106E+00
 0.2566807296014E+00 -0.2867994671197E+00  0.0000000000000E+00  0.2106374526013E+00
 0.2380572931210E+00 -0.2678186026924E+00  0.0000000000000E+00  0.2148664118012E+00
 0.2179130322374E+00 -0.2471729275574E+00  0.0000000000000E+00  0.2161395867685E+00
 0.1964226756685E+00 -0.2250020938864E+00  0.0000000000000E+00  0.2135812529069E+00
 0.1738011529310E+00 -0.2014761562994E+00  0.0000000000000E+00  0.2061357916125E+00
 0.1503308614705E+00 -0.1768188622666E+00  0.0000000000000E+00  0.1924960328716E+00
 0.1264025134659E+00 -0.1513434929980E+00  0.0000000000000E+00  0.1709989686112E+00
 0.1025637906012E+00 -0.1254944281780E+00  0.0000000000000E+00  0.1394386869374E+00
 0.7954852601104E-01 -0.9986814620683E-01  0.0000000000000E+00  0.9459423554677E-01
 0.5796892444457E-01 -0.7494545937997E-01  0.0000000000000E+00  0.3043111971991E-01
 0.3357613565238E+00 -0.3656624500858E+00  0.0000000000000E+00  0.1358676993710E+00
 0.3362558828353E+00 -0.3662608849184E+00  0.0000000000000E+00  0.1413354877006E+00
 0.3345262378342E+00 -0.3645634953064E+00  0.0000000000000E+00  0.1474991153745E+00
 0.3304985298904E+00 -0.3605081995256E+00  0.0000000000000E+00  0.1545931697003E+00
 0.3241957017437E+00 -0.3541325954772E+00  0.0000000000000E+00  0.1625654139454E+00
 0.3156580919197E+00 -0.3454745810657E+00  0.0000000000000E+00  0.1711777782546E+00
 0.3049416513630E+00 -0.3345816523662E+00  0.0000000000000E+00  0.1801003482224E+00
 0.2921233035764E+00 -0.3215180919071E+00  0.0000000000000E+00  0.1889379858328E+00
 0.2773008794430E+00 -0.3063656829568E+00  0.0000000000000E+00  0.1972384497589E+00
 0.2605911362237E+00 -0.2892215191643E+00  0.0000000000000E+00  0.2044917392658E+00
 0.2421276592967E+00 -0.2701952818334E+00  0.0000000000000E+00  0.2101232992025E+00
 0.2220604592342E+00 -0.2494077925290E+00  0.0000000000000E+00  0.2134803429894E+00
 0.2005593096396E+00 -0.2269927820110E+00  0.0000000000000E+00  0.2138097420141E+00
 0.1778235970056E+00 -0.2031044381676E+00  0.0000000000000E+00  0.2102256836841E+00
 0.1541024998253E+00 -0.1779342281231E+00  0.0000000000000E+00  0.2016648611214E+00
 0.1297307045233E+00 -0.1517417025615E+00  0.0000000000000E+00  0.1868245967197E+00
 0.1051880205210E+00 -0.1249060799322E+00  0.0000000000000E+00  0.1640676686008E+00
 0.8120263010818E-01 -0.9801433680142E-01  0.0000000000000E+00  0.1312371646261E+00
 0.5898049496501E-01 -0.7204593538534E-01  0.0000000000000E+00  0.8518141354080E-01
 0.4113624676856E-01 -0.4903533106807E-01  0.0000000000000E+00  0.1971381303350E-01
 0.3351443150754E+00 -0.3650196978942E+00  0.0000000000000E+00  0.1393095045948E+00
 0.3344980438828E+00 -0.3643547793633E+00  0.0000000000000E+00  0.1440780628154E+00
 0.3313857160607E+00 -0.3611049618335E+00  0.0000000000000E+00  0.1497503501224E+00
 0.3259191687844E+00 -0.3554433449193E+00  0.0000000000000E+00  0.1563824499680E+00
 0.3181371314498E+00 -0.3474103305660E+00  0.0000000000000E+00  0.1638020124930E+00
 0.3080811455212E+00 -0.3370406815215E+00  0.0000000000000E+00  0.1717508468599E+00
 0.2958197920627E+00 -0.3243911493387E+00  0.0000000000000E+00  0.1799080452955E+00
 0.2814465452256E+00 -0.3095400696583E+00  0.0000000000000E+00  0.1878937371866E+00
 0.2650757522678E+00 -0.2925832126342E+00  0.0000000000000E+00  0.1952681737518E+00
 0.2468387360923E+00 -0.2736294130831E+00  0.0000000000000E+00  0.2015270369621E+00
 0.2268814678775E+00 -0.2527974824079E+00  0.0000000000000E+00  0.2060919078292E+00
 0.2053650611305E+00 -0.2302156541363E+00  0.0000000000000E+00  0.2082945581823E+00
 0.1824709838478E+00 -0.2060253615983E+00  0.0000000000000E+00  0.2073539420965E+00
 0.1584137956503E+00 -0.1803920153307E+00  0.0000000000000E+00  0.2023451102135E+00
 0.1334656287411E+00 -0.1535267786309E+00  0.0000000000000E+00  0.1921595337612E+00
 0.1079993447009E+00 -0.1257257692031E+00  0.0000000000000E+00  0.1754554923951E+00
 0.8256473066435E-01 -0.9743980908278E-01  0.0000000000000E+00  0.1505934540037E+00
 0.5803743467102E-01 -0.6941006743887E-01  0.0000000000000E+00  0.1155407053945E+00
 0.3596763474131E-01 -0.4298889553981E-01  0.0000000000000E+00  0.6774414735954E-01
 0.1996639422106E-01 -0.2142216478710E-01  0.0000000000000E+00  0.4479937255352E-02
</DataArray>
<DataArray type="Float64" Name="S_Centroid" NumberOfComponents="4" ComponentName0="S11" ComponentName1="S22" ComponentName2="S33" ComponentName3="S12" format="ascii">
 0.4005725191392E+00  0.3353606674292E+01  0.7508358498745E+00  0.3478179135109E+00
-0.5964171800254E-01  0.2850888644407E+01  0.5582493935995E+00 -0.1014242653226E-01
 0.1086719092358E-01  0.2766051392854E+01  0.5553837250313E+00  0.7697583885502E-02
-0.2046216820379E-02  0.2733398063267E+01  0.5462703774294E+00  0.1868566352982E-02
 0.5125250452600E-03  0.2714111765445E+01  0.5429248661882E+00  0.2216060025015E-02
-0.5536693563424E-04  0.2696763134149E+01  0.5393415614795E+00  0.2812639980116E-02
 0.7531083549694E-04  0.2677356275813E+01  0.5354863253091E+00  0.3705184764210E-02
 0.4781249792107E-04  0.2654418874364E+01  0.5308933452833E+00  0.4626708503140E-02
 0.5735169021914E-04  0.2627515437332E+01  0.5255145656352E+00  0.5522353915036E-02
 0.5690744127484E-04  0.2596602700269E+01  0.5193319292807E+00  0.6366806243503E-02
 0.5739050231379E-04  0.2561799004872E+01  0.5123712867097E+00  0.7158273130981E-02
 0.5605852271429E-04  0.2523265133802E+01  0.5046642459850E+00  0.7903291686035E-02
 0.5351866466474E-04  0.2481151764969E+01  0.4962410641213E+00  0.8612494957725E-02
 0.4958913017261E-04  0.2435574396762E+01  0.4871248044372E+00  0.9297753099835E-02
 0.4430064055694E-04  0.2386604157545E+01  0.4773296987499E+00  0.9970628396731E-02
 0.3773218969538E-04  0.2334267665812E+01  0.4668610865571E+00  0.1064122947828E-01
 0.2957896423861E-04  0.2278552646347E+01  0.4557164518530E+00  0.1131782251940E-01
 0.2049175813135E-04  0.2219424193458E+01  0.4438889436576E+00  0.1200453559842E-01
 0.1011349672153E-04  0.2156836226679E+01  0.4313692744631E+00  0.1270174478912E-01
-0.8935707821456E-06  0.2090766926935E+01  0.4181532129038E+00  0.1340257607646E-01
-0.1154115710889E-04  0.2021259213188E+01  0.4042495404299E+00  0.1408840700828E-01
-0.2072090981164E-04  0.1948510802721E+01  0.3896980221691E+00  0.1471769402458E-01
 0.3517887265780E-04  0.1873125983832E+01  0.3746322381234E+00  0.1510926520143E-01
 0.3502887086487E-03  0.1796149133396E+01  0.3592998897748E+00  0.1450550973752E-01
 0.8933399156272E-03  0.1716844871502E+01  0.3435476474028E+00  0.1165399905107E-01
 0.1394856988131E-02  0.1632403366430E+01  0.3267596495526E+00  0.5965662015372E-02
 0.1748605932527E-02  0.1540801377790E+01  0.3085100013417E+00 -0.2007571382986E-02
 0.2001738794418E-02  0.1442013869584E+01  0.2888031259792E+00 -0.1116092940228E-01
 0.2256597200672E-02  0.1337836685195E+01  0.2680186604730E+00 -0.2045709874224E-01
 0.2611758066523E-02  0.1231273455000E+01  0.2467770462905E+00 -0.2926072499027E-01
 0.3152203273013E-02  0.1125980927523E+01  0.2258266295242E+00 -0.3741573242809E-01
 0.3963313082262E-02  0.1025949283347E+01  0.2059825223553E+00 -0.4517946165612E-01
 0.5046036009869E-02  0.9352696173775E+00  0.1880631334798E+00 -0.5296184557082E-01
 0.6459750709716E-02  0.8590772122544E+00  0.1731073951723E+00 -0.6117043636281E-01
 0.8351485743757E-02  0.8045496488440E+00  0.1625802293402E+00 -0.7080596560165E-01
 0.1185560757297E-01  0.7799643888136E+00  0.1583640016371E+00 -0.8395038040155E-01
 0.1485938861685E-01  0.7948133180063E+00  0.1619345437377E+00 -0.1039185836847E+00
 0.3304088994793E-01  0.8626235088643E+00  0.1791328824317E+00 -0.1367962570288E+00
-0.1434026573655E-02  0.1008556886420E+01  0.2014245749707E+00 -0.1863790807021E+00
 0.3351354562698E+00  0.1283590535723E+01  0.3237452032228E+00 -0.3692603673110E+00
-0.1089223061800E+01  0.1367105777732E+01  0.5557654401463E-01 -0.2690372148188E+00
 0.4222058153126E+00  0.2950395269450E+01  0.6745202270037E+00  0.3468149179084E+00
 0.4744951010550E-01  0.2844250997555E+01  0.5783401101500E+00  0.1200453127240E+00
-0.3354047056258E-02  0.2693783652819E+01  0.5380859291706E+00  0.2179005135233E-01
 0.3593870135165E-02  0.2644971335657E+01  0.5297130490517E+00  0.1510892309792E-01
-0.4210357099053E-03  0.2614319187372E+01  0.5227796381225E+00  0.1032403390063E-01
-0.2936584756680E-03  0.2590527910729E+01  0.5180468581701E+00  0.1080672243889E-01
-0.5757016579189E-03  0.2567241774333E+01  0.5133332221844E+00  0.1242150159615E-01
-0.5805128284637E-03  0.2542125402958E+01  0.5083089856004E+00  0.1457629932599E-01
-0.5741303997324E-03  0.2514138260366E+01  0.5027128334843E+00  0.1685169383818E-01
-0.5440157530771E-03  0.2482898274974E+01  0.4964708592423E+00  0.1910574000656E-01
-0.5143282869782E-03  0.2448300659517E+01  0.4895572735410E+00  0.2128170066393E-01
-0.4893211062992E-03  0.2410363749687E+01  0.4819748928981E+00  0.2337089686463E-01
-0.4724886384262E-03  0.2369144942539E+01  0.4737344978394E+00  0.2538616162728E-01
-0.4646523304377E-03  0.2324700436354E+01  0.4648471637315E+00  0.2735010630550E-01
-0.4655243095242E-03  0.2277065983176E+01  0.4553200985580E+00  0.2928801679103E-01
-0.4739996154594E-03  0.2226250533642E+01  0.4451553134386E+00  0.3122346842992E-01
-0.4880986789814E-03  0.2172238469488E+01  0.4343500806341E+00  0.3317459458305E-01
-0.5046830665006E-03  0.2114999596505E+01  0.4228989889893E+00  0.3515077232454E-01
-0.5195717714674E-03  0.2054503716531E+01  0.4107968350733E+00  0.3714863512692E-01
-0.5255584109483E-03  0.1990745858169E+01  0.3980440658829E+00  0.3914469226275E-01
-0.5102484409748E-03  0.1923785922959E+01  0.3846551406353E+00  0.4108307885229E-01
-0.4343580544413E-03  0.1853817618519E+01  0.3706766576165E+00  0.4283023132034E-01
-0.9558471215548E-04  0.1781212273135E+01  0.3562233429928E+00  0.4405727456484E-01
 0.7841599516494E-03  0.1706166555411E+01  0.3413901481596E+00  0.4426326822823E-01
 0.2085581728993E-02  0.1628039805226E+01  0.3260250822491E+00  0.4293219280551E-01
 0.3294518601491E-02  0.1545485321219E+01  0.3097559725799E+00  0.3972891936189E-01
 0.4037221212810E-02  0.1457518405261E+01  0.2923111296505E+00  0.3470518549996E-01
 0.4294097120393E-02  0.1364327935945E+01  0.2737244106919E+00  0.2824466359458E-01
 0.4270865153519E-02  0.1267349508895E+01  0.2543240785994E+00  0.2077416816353E-01
 0.4253812102557E-02  0.1168966942737E+01  0.2346441544644E+00  0.1252785502242E-01
 0.4534984219699E-02  0.1072168351752E+01  0.2153406704031E+00  0.3436463654894E-02
 0.5341735916906E-02  0.9802973204425E+00  0.1971278142093E+00 -0.6850221445277E-02
 0.6831277812172E-02  0.8970476852352E+00  0.1807757953032E+00 -0.1893510106333E-01
 0.9293463343376E-02  0.8267591948404E+00  0.1672105341284E+00 -0.3371803502295E-01
 0.1356631420695E-01  0.7745690456972E+00  0.1576270743297E+00 -0.5253671395319E-01
 0.2005868967745E-01  0.7459386997412E+00  0.1531994801666E+00 -0.7730848791052E-01
 0.3302537731942E-01  0.7463606989216E+00  0.1558772175710E+00 -0.1119803987282E+00
 0.4401295460547E-01  0.7791144359395E+00  0.1646254805621E+00 -0.1569095655891E+00
 0.1059292773851E+00  0.8491904964898E+00  0.1910239576215E+00 -0.2482266983625E+00
 0.1771702891591E+00  0.8151030681531E+00  0.1984546744197E+00 -0.2478224239425E+00
-0.9536080856622E+00  0.8093105813537E+00 -0.2885950129174E-01 -0.1216704258278E+00
 0.4383691117384E+00  0.2699410576249E+01  0.6275559469488E+00  0.3045039236849E+00
 0.1205777854242E+00  0.2707386473610E+01  0.5655928602347E+00  0.1727282072066E+00
 0.1680840967416E-01  0.2614567558257E+01  0.5262752014283E+00  0.6011963933483E-01
 0.5266813566552E-02  0.2549592009305E+01  0.5109717721884E+00  0.2925980429839E-01
 0.1120509789537E-02  0.2513092874016E+01  0.5028426842541E+00  0.2184601202312E-01
-0.8764050247262E-03  0.2484123806730E+01  0.4966494877417E+00  0.2041864137111E-01
-0.1433631127879E-02  0.2457691650642E+01  0.4912516112230E+00  0.2220244102139E-01
-0.1666028071792E-02  0.2430673408568E+01  0.4858014833382E+00  0.2509545076705E-01
-0.1689168495642E-02  0.2401725493477E+01  0.4800072721490E+00  0.2843017252855E-01
-0.1647304918114E-02  0.2370197572785E+01  0.4737100606321E+00  0.3186003156339E-01
-0.1582950351909E-02  0.2335812741526E+01  0.4668459651914E+00  0.3524963305387E-01
-0.1522835925308E-02  0.2298468478273E+01  0.4593891353149E+00  0.3855302511422E-01
-0.1478065314737E-02  0.2258141049107E+01  0.4513326034838E+00  0.4177162181514E-01
-0.1453297534234E-02  0.2214833012299E+01  0.4426759495494E+00  0.4492881698371E-01
-0.1448741514512E-02  0.2168546911207E+01  0.4334196403970E+00  0.4805638572363E-01
-0.1461674223443E-02  0.2119273900855E+01  0.4235624516378E+00  0.5118562545956E-01
-0.1486650407723E-02  0.2066991997069E+01  0.4131010754879E+00  0.5434066530245E-01
-0.1515280810323E-02  0.2011672924137E+01  0.4020315346561E+00  0.5753256451411E-01
-0.1535235401179E-02  0.1953293757266E+01  0.3903517101897E+00  0.6075222865061E-01
-0.1526857791477E-02  0.1891856430684E+01  0.3780659202121E+00  0.6395982861785E-01
-0.1454662037111E-02  0.1827417574789E+01  0.3651925879922E+00  0.6706470782717E-01
-0.1217554960024E-02  0.1760111768112E+01  0.3517788478723E+00  0.6987534204869E-01
-0.5578504473152E-03  0.1690067139120E+01  0.3379018627697E+00  0.7207885002851E-01
 0.7673665032569E-03  0.1617171274151E+01  0.3235877329526E+00  0.7338654707884E-01
 0.2568933378322E-02  0.1540989024049E+01  0.3087115960856E+00  0.7358433930833E-01
 0.4263426605166E-02  0.1460954955479E+01  0.2930436807836E+00  0.7241967595702E-01
 0.5386665249134E-02  0.1376762613559E+01  0.2764298598808E+00  0.6966596589742E-01
 0.5878167170799E-02  0.1288783518414E+01  0.2589323409753E+00  0.6523134465196E-01
 0.5997141605474E-02  0.1198211727907E+01  0.2408417774914E+00  0.5909109573434E-01
 0.6151665712282E-02  0.1106954332200E+01  0.2226212028998E+00  0.5114761865485E-01
 0.6773288741933E-02  0.1017433370111E+01  0.2048413348231E+00  0.4113046017746E-01
 0.8232797608980E-02  0.9324327373975E+00  0.1881331098047E+00  0.2855732610124E-01
 0.1086641071732E-01  0.8550608834556E+00  0.1731854614153E+00  0.1266898158391E-01
 0.1526446132182E-01  0.7887065652195E+00  0.1607942077043E+00 -0.7606037185904E-02
 0.2229061225905E-01  0.7368095183245E+00  0.1518200283790E+00 -0.3352617296321E-01
 0.3363859426111E-01  0.7024833773394E+00  0.1472243965139E+00 -0.6691518834484E-01
 0.5009915412153E-01  0.6866359911904E+00  0.1473470312580E+00 -0.1088704285747E+00
 0.7637539208548E-01  0.6882854291424E+00  0.1529321665244E+00 -0.1645634350395E+00
 0.1345673184988E+00  0.6693144329315E+00  0.1607763526818E+00 -0.2208184971876E+00
 0.3585517470290E-01  0.5920377774995E+00  0.1255785923117E+00 -0.1489177092482E+00
-0.8146155361197E+00  0.6213884177408E+00 -0.3864542425165E-01 -0.1323887915320E+00
 0.4416925755708E+00  0.2506655781333E+01  0.5896696801676E+00  0.2599189590011E+00
 0.1705244804111E+00  0.2552189311872E+01  0.5445427665709E+00  0.1878520924395E+00
 0.4469364992254E-01  0.2507370271030E+01  0.5104127917963E+00  0.9147997182910E-01
 0.1211934110716E-01  0.2449572621364E+01  0.4923383998306E+00  0.4777965385470E-01
 0.2999984524509E-02  0.2408891074362E+01  0.4823782189654E+00  0.3455107540833E-01
-0.9188238393606E-03  0.2377086488758E+01  0.4752335400652E+00  0.3147113012146E-01
-0.2464144066268E-02  0.2348271942518E+01  0.4691615666814E+00  0.3279184390806E-01
-0.3035373818670E-02  0.2319786743284E+01  0.4633502807975E+00  0.3609886440337E-01
-0.3196932523475E-02  0.2290073147246E+01  0.4573752497598E+00  0.4021124003756E-01
-0.3176108173258E-02  0.2258352022058E+01  0.4510351894980E+00  0.4461081521478E-01
-0.3091676490909E-02  0.2224222115766E+01  0.4442260944744E+00  0.4905379114617E-01
-0.2998907794952E-02  0.2187490313518E+01  0.4368982876550E+00  0.5344539296438E-01
-0.2925712379037E-02  0.2148066664832E+01  0.4290281968836E+00  0.5776456764038E-01
-0.2883814976823E-02  0.2105908150441E+01  0.4206048733604E+00  0.6202768869303E-01
-0.2875528870174E-02  0.2060987720764E+01  0.4116224445124E+00  0.6626691845817E-01
-0.2896550271165E-02  0.2013279381008E+01  0.4020765721387E+00  0.7051665610194E-01
-0.2936971723014E-02  0.1962753292722E+01  0.3919632700404E+00  0.7480358569944E-01
-0.2981027510443E-02  0.1909379645794E+01  0.3812797293383E+00  0.7913803529950E-01
-0.3005100772128E-02  0.1853136568403E+01  0.3700262990400E+00  0.8350445340782E-01
-0.2972408142244E-02  0.1794023621532E+01  0.3582102480157E+00  0.8784842008586E-01
-0.2815773457952E-02  0.1732077089908E+01  0.3458522684436E+00  0.9205395883806E-01
-0.2386357732441E-02  0.1667352657829E+01  0.3329932649812E+00  0.9591605405800E-01
-0.1421874388849E-02  0.1599826198396E+01  0.3196808695650E+00  0.9918322639903E-01
 0.2557745442481E-03  0.1529299001304E+01  0.3059109597282E+00  0.1016972166094E+00
 0.2418234505901E-02  0.1455532391650E+01  0.2915901295762E+00  0.1033525842776E+00
 0.4498079009784E-02  0.1378415947337E+01  0.2765828093908E+00  0.1038921067103E+00
 0.6034314239097E-02  0.1298055948993E+01  0.2608180565329E+00  0.1029116288489E+00
 0.6960587463727E-02  0.1214950456771E+01  0.2443822124886E+00  0.1000087282346E+00
 0.7567521461021E-02  0.1130117806282E+01  0.2275370689393E+00  0.9483195499456E-01
 0.8338703186518E-02  0.1045088096170E+01  0.2106853630108E+00  0.8702229385396E-01
 0.9806196771131E-02  0.9618073395329E+00  0.1943227101564E+00  0.7613359107944E-01
 0.1246538496039E-01  0.8825336017644E+00  0.1789998000123E+00  0.6156508154555E-01
 0.1683253196759E-01  0.8097403439953E+00  0.1653145776560E+00  0.4248174315290E-01
 0.2362550915953E-01  0.7458845691803E+00  0.1539020179613E+00  0.1786593716443E-01
 0.3394449636236E-01  0.6930527998619E+00  0.1453994614115E+00 -0.1334338095703E-01
 0.4908976382230E-01  0.6521721283970E+00  0.1402523805338E+00 -0.5191673267660E-01
 0.7018598927861E-01  0.6220354829516E+00  0.1384442965090E+00 -0.9812968239245E-01
 0.1014402657912E+00  0.5929164872641E+00  0.1388713526804E+00 -0.1494784968236E+00
 0.1234012339153E+00  0.5363672862855E+00  0.1319537060064E+00 -0.1711446918551E+00
-0.5369979750011E-01  0.4821785928942E+00  0.8569576035579E-01 -0.1029370120566E+00
-0.6754044163385E+00  0.5271940145712E+00 -0.2964208079515E-01 -0.1714414559817E+00
 0.4359992685820E+00  0.2342411044876E+01  0.5556820709719E+00  0.2196519852051E+00
 0.2033262982703E+00  0.2399485796061E+01  0.5205624266232E+00  0.1855290246054E+00
 0.7135545634945E-01  0.2385248557870E+01  0.4913208101652E+00  0.1118195384250E+00
 0.2250050618074E-01  0.2341783671869E+01  0.4728568426561E+00  0.6611215753332E-01
 0.6034035234065E-02  0.2302006209894E+01  0.4616080559042E+00  0.4821179669741E-01
-0.5972121755027E-03  0.2268860977797E+01  0.4536527598843E+00  0.4325824468560E-01
-0.3453196799229E-02  0.2238704556327E+01  0.4470502785672E+00  0.4399540574525E-01
-0.4608493100054E-02  0.2209221884017E+01  0.4409226847536E+00  0.4744828157205E-01
-0.5007237642454E-02  0.2179004646804E+01  0.4347994883112E+00  0.5213235636232E-01
-0.5065522330455E-02  0.2147224668529E+01  0.4284318356239E+00  0.5732363160714E-01
-0.4986656375199E-02  0.2113421879218E+01  0.4216870508522E+00  0.6267615820792E-01
-0.4873741120484E-02  0.2077342697970E+01  0.4144937975464E+00  0.6803695574707E-01
-0.4778165448642E-02  0.2038848903317E+01  0.4068141536358E+00  0.7335642778731E-01
-0.4723336720189E-02  0.1997861387552E+01  0.3986276161064E+00  0.7863810319347E-01
-0.4715572568045E-02  0.1954328281188E+01  0.3899225475343E+00  0.8390991544371E-01
-0.4749496155051E-02  0.1908208000701E+01  0.3806917065819E+00  0.8920573146660E-01
-0.4810094965286E-02  0.1859462115184E+01  0.3709304095711E+00  0.9455213159169E-01
-0.4872620458249E-02  0.1808056493314E+01  0.3606367799450E+00  0.9995720519201E-01
-0.4899841937574E-02  0.1753965454476E+01  0.3498131277203E+00  0.1053991833140E+00
-0.4834406130020E-02  0.1697178867673E+01  0.3384688973522E+00  0.1108123405939E+00
-0.4577771104369E-02  0.1637703023542E+01  0.3266250553547E+00  0.1160687827476E+00
-0.3952561722701E-02  0.1575526244730E+01  0.3143147412850E+00  0.1209756178125E+00
-0.2716153297919E-02  0.1510547255391E+01  0.3015662249124E+00  0.1253408208552E+00
-0.7504642662187E-03  0.1442572426273E+01  0.2883643966983E+00  0.1290712748726E+00
 0.1706038903555E-02  0.1371521763975E+01  0.2746455646683E+00  0.1320780802167E+00
 0.4143904607036E-02  0.1297556562119E+01  0.2603400972245E+00  0.1340599789350E+00
 0.6154302927752E-02  0.1221023248965E+01  0.2454355140358E+00  0.1344888300264E+00
 0.7692469062654E-02  0.1142488137941E+01  0.2300361248286E+00  0.1327577701026E+00
 0.9072542300116E-02  0.1062827867437E+01  0.2143800851419E+00  0.1282846525590E+00
 0.1082491365293E-01  0.9832670458565E+00  0.1988183948645E+00  0.1205114746447E+00
 0.1355195047099E-01  0.9053439552080E+00  0.1837791838743E+00  0.1088506862827E+00
 0.1785048545094E-01  0.8308294344545E+00  0.1697359865103E+00  0.9261907237109E-01
 0.2435021438207E-01  0.7615853735471E+00  0.1571871199281E+00  0.7099225243701E-01
 0.3384900793548E-01  0.6992644749076E+00  0.1466226987535E+00  0.4310709888414E-01
 0.4735947562102E-01  0.6448236982980E+00  0.1384366368467E+00  0.8365190713213E-02
 0.6577175576976E-01  0.5978914106926E+00  0.1327326352703E+00 -0.3311447795308E-01
 0.8963903078777E-01  0.5552562295370E+00  0.1289790539869E+00 -0.7961309915203E-01
 0.1154314467518E+00  0.5065763203804E+00  0.1244015552802E+00 -0.1214557367740E+00
 0.1013984269956E+00  0.4442672560794E+00  0.1091331382412E+00 -0.1268453084969E+00
-0.9697816728603E-01  0.4163225484123E+00  0.6386887717697E-01 -0.8985549201428E-01
-0.5505402956529E+00  0.4587131193862E+00 -0.1836543552699E-01 -0.2055537651548E+00
 0.4245020112892E+00  0.2194349680689E+01  0.5237703462004E+00  0.1844157546151E+00
 0.2235300813406E+00  0.2252998818082E+01  0.4953057872651E+00  0.1752574737231E+00
 0.9363240247649E-01  0.2256987816165E+01  0.4701240507336E+00  0.1230809136464E+00
 0.3402572255797E-01  0.2227572190063E+01  0.4523195892643E+00  0.8172286484416E-01
 0.1013382569269E-01  0.2192128646130E+01  0.4404525009279E+00  0.6184690021117E-01
 0.1043034248268E-03  0.2159346498079E+01  0.4318901667364E+00  0.5535578684748E-01
-0.4363968914545E-02  0.2128748859320E+01  0.4248769844123E+00  0.5552375590392E-01
-0.6304788778171E-02  0.2098800462447E+01  0.4184991409698E+00  0.5900719282700E-01
-0.7057431418831E-02  0.2068367634460E+01  0.4122620467513E+00  0.6411163732671E-01
-0.7257734083175E-02  0.2036694209314E+01  0.4058873010943E+00  0.6995409760382E-01
-0.7219754020782E-02  0.2003312826493E+01  0.3992186204433E+00  0.7609044755644E-01
-0.7105814830753E-02  0.1967943010954E+01  0.3921674450685E+00  0.8231115504913E-01
-0.6999190593350E-02  0.1930416490289E+01  0.3846834656715E+00  0.8853497851504E-01
-0.6939215380390E-02  0.1890628655721E+01  0.3767378936819E+00  0.9474936411590E-01
-0.6938507775553E-02  0.1848508350768E+01  0.3683139740867E+00  0.1009748458982E+00
-0.6991385280524E-02  0.1804000693071E+01  0.3594018669135E+00  0.1072421720638E+00
-0.7077446308987E-02  0.1757058594446E+01  0.3499962348427E+00  0.1135759799551E+00
-0.7161890078491E-02  0.1707641648086E+01  0.3400959566693E+00  0.1199813823943E+00
-0.7192300259324E-02  0.1655716830972E+01  0.3297049110555E+00  0.1264313450464E+00
-0.7089668378825E-02  0.1601259575046E+01  0.3188339860844E+00  0.1328532633734E+00
-0.6728887927712E-02  0.1544245296226E+01  0.3075032862418E+00  0.1391181906402E+00
-0.5918896265989E-02  0.1484615174132E+01  0.2957392599800E+00  0.1450545806266E+00
-0.4443952504859E-02  0.1422238288369E+01  0.2835588713982E+00  0.1505131704328E+00
-0.2229542816005E-02  0.1356958981379E+01  0.2709458917501E+00  0.1554216229755E+00
 0.4991026794881E-03  0.1288814751350E+01  0.2578627746483E+00  0.1596637852154E+00
 0.3310770545495E-02  0.1218126144278E+01  0.2442873866049E+00  0.1628801202351E+00
 0.5872964389888E-02  0.1145368646295E+01  0.2302483255679E+00  0.1644517767978E+00
 0.8180458195044E-02  0.1071128819594E+01  0.2158618587744E+00  0.1636366974010E+00
 0.1056921184940E-01  0.9961584809237E+00  0.2013455415549E+00  0.1596937073157E+00
 0.1359801597526E-01  0.9214278301446E+00  0.1870051720106E+00  0.1519197035996E+00
 0.1791509091376E-01  0.8481236462478E+00  0.1732077500133E+00  0.1396236421910E+00
 0.2418106130348E-01  0.7775790214654E+00  0.1603520189432E+00  0.1220835094990E+00
 0.3308013374116E-01  0.7111177484436E+00  0.1488395786548E+00  0.9854268303987E-01
 0.4537706378120E-01  0.6497266801817E+00  0.1390207508642E+00  0.6837861514965E-01
 0.6182305997921E-01  0.5935883851365E+00  0.1310822909764E+00  0.3149871133437E-01
 0.8271245569089E-01  0.5415377516925E+00  0.1248500433371E+00 -0.1107234952622E-01
 0.1065527234056E+00  0.4898824664842E+00  0.1192870397555E+00 -0.5547377669230E-01
 0.1222624383036E+00  0.4327195451225E+00  0.1109963983392E+00 -0.8969475461558E-01
 0.8292443532085E-01  0.3770528907055E+00  0.9199546657611E-01 -0.9398891027205E-01
-0.1077037908854E+00  0.3653487975496E+00  0.5152900210069E-01 -0.9171478790944E-01
-0.4418197159684E+00  0.3979318353723E+00 -0.8777576250013E-02 -0.2291321112298E+00
 0.4092327112494E+00  0.2056423525286E+01  0.4931312546554E+00  0.1537387226066E+00
 0.2344628449534E+00  0.2112666265171E+01  0.4694258290199E+00  0.1616236462524E+00
 0.1107137906654E+00  0.2127091808253E+01  0.4475611264528E+00  0.1278813195791E+00
 0.4497732381257E-01  0.2109199992794E+01  0.4308354697412E+00  0.9389245507241E-01
 0.1475916578152E-01  0.2079505493566E+01  0.4188529381108E+00  0.7457411444592E-01
 0.1113865649910E-02  0.2048508974020E+01  0.4099245740424E+00  0.6734715153514E-01
-0.5201634837924E-02  0.2018293171277E+01  0.4026183132873E+00  0.6711932213421E-01
-0.8085933561283E-02  0.1988385937581E+01  0.3960600067057E+00  0.7062366690307E-01
-0.9299510950635E-02  0.1958041123618E+01  0.3897483283411E+00  0.7606181553396E-01
-0.9706523393285E-02  0.1926655049575E+01  0.3833897109493E+00  0.8244959532378E-01
-0.9748249628666E-02  0.1893805042681E+01  0.3768113642254E+00  0.8926463670767E-01
-0.9656796806816E-02  0.1859213531700E+01  0.3699113524907E+00  0.9624702623009E-01
-0.9554059081253E-02  0.1822700645079E+01  0.3626293226031E+00  0.1032850761904E+00
-0.9499499275564E-02  0.1784147002165E+01  0.3549295058667E+00  0.1103490606795E+00
-0.9514286733343E-02  0.1743468171032E+01  0.3467907820274E+00  0.1174504775133E+00
-0.9593391999026E-02  0.1700598771616E+01  0.3382010809629E+00  0.1246153915487E+00
-0.9711038280856E-02  0.1655483600601E+01  0.3291545173688E+00  0.1318654498548E+00
-0.9821783189951E-02  0.1608074855511E+01  0.3196506192274E+00  0.1392026769658E+00
-0.9857322008396E-02  0.1558329950173E+01  0.3096945302477E+00  0.1465962444305E+00
-0.9717774907411E-02  0.1506208042928E+01  0.2992980580640E+00  0.1539709206490E+00
-0.9257138557133E-02  0.1451657887456E+01  0.2884801540784E+00  0.1612031573434E+00
-0.8279504256158E-02  0.1394591921985E+01  0.2772624876772E+00  0.1681424073421E+00
-0.6593691317035E-02  0.1334875729722E+01  0.2656564116395E+00  0.1746638289656E+00
-0.4150122256899E-02  0.1272397955379E+01  0.2536495704042E+00  0.1806881113823E+00
-0.1143487259143E-02  0.1207276716951E+01  0.2412266495329E+00  0.1860527658501E+00
 0.2082024860375E-02  0.1139919104068E+01  0.2284002291892E+00  0.1903385594525E+00
 0.5280458136429E-02  0.1070857639746E+01  0.2152276227835E+00  0.1928593551705E+00
 0.8496285671791E-02  0.1000663612559E+01  0.2018319826536E+00  0.1927844062732E+00
 0.1208726574778E-01  0.9299728430749E+00  0.1884120245721E+00  0.1892664127219E+00
 0.1662806973850E-01  0.8595391721359E+00  0.1752334509861E+00  0.1815022184123E+00
 0.2278941647625E-01  0.7902475710105E+00  0.1626073999204E+00  0.1687342825812E+00
 0.3125672687482E-01  0.7230537662873E+00  0.1508621008805E+00  0.1502387306687E+00
 0.4270373929080E-01  0.6588339498538E+00  0.1403075399197E+00  0.1253663474529E+00
 0.5775975160079E-01  0.5980788998978E+00  0.1311677322543E+00  0.9376351165485E-01
 0.7679332198836E-01  0.5405027254309E+00  0.1234592113235E+00  0.5581559911327E-01
 0.9920139315307E-01  0.4846830837812E+00  0.1167768971270E+00  0.1337511898011E-01
 0.1209904020025E+00  0.4279114187641E+00  0.1097803657892E+00 -0.2848274565996E-01
 0.1265149602603E+00  0.3694521487794E+00  0.9919342328604E-01 -0.5919112009358E-01
 0.7317509515962E-01  0.3227932628979E+00  0.7919367279158E-01 -0.7098555323244E-01
-0.9728206105852E-01  0.3182401528375E+00  0.4419161901430E-01 -0.9829793690944E-01
-0.3472414840420E+00  0.3395794554703E+00 -0.1532405737175E-02 -0.2432779467349E+00
 0.3914400925288E+00  0.1925318924657E+01  0.4633518103416E+00  0.1269750499023E+00
 0.2385052887426E+00  0.1977633806306E+01  0.4432278256144E+00  0.1468992749688E+00
 0.1227498014198E+00  0.1997709923667E+01  0.4240919513368E+00  0.1283598339447E+00
 0.5433759267312E-01  0.1988565261841E+01  0.4085805769911E+00  0.1027909420050E+00
 0.1930906461781E-01  0.1964748151102E+01  0.3968114490569E+00  0.8588299901488E-01
 0.2253235870797E-02  0.1936442054947E+01  0.3877390639412E+00  0.7886218228216E-01
-0.6008040014113E-02  0.1907302725020E+01  0.3802589426676E+00  0.7855397726231E-01
-0.9943781175500E-02  0.1877893372872E+01  0.3735899239062E+00  0.8215110686543E-01
-0.1170321594129E-01  0.1847931430824E+01  0.3672456484489E+00  0.8789264531028E-01
-0.1237578654082E-01  0.1817018728721E+01  0.3609285938142E+00  0.9475382181113E-01
-0.1253563184285E-01  0.1784818340072E+01  0.3544565469276E+00  0.1021627395112E+00
-0.1249179760326E-01  0.1751082195063E+01  0.3477180846733E+00  0.1098205247255E+00
-0.1240997705440E-01  0.1715635694357E+01  0.3406451485365E+00  0.1175893771568E+00
-0.1237326979262E-01  0.1678355140699E+01  0.3331963791464E+00  0.1254234790801E+00
-0.1241347385046E-01  0.1639148919176E+01  0.3253470939131E+00  0.1333250454638E+00
-0.1252721258349E-01  0.1597944281775E+01  0.3170834185632E+00  0.1413148811135E+00
-0.1268357628387E-01  0.1554678957450E+01  0.3083990808287E+00  0.1494113099522E+00
-0.1282631254675E-01  0.1509297390100E+01  0.2992942199704E+00  0.1576136619491E+00
-0.1287129013568E-01  0.1461746484653E+01  0.2897750432215E+00  0.1658889819201E+00
-0.1269948423184E-01  0.1411969553043E+01  0.2798540179325E+00  0.1741626632270E+00
-0.1214869127499E-01  0.1359894600115E+01  0.2695491857846E+00  0.1823191852453E+00
-0.1102191701249E-01  0.1305418787895E+01  0.2588793780340E+00  0.1902242954955E+00
-0.9145576280119E-02  0.1248416357092E+01  0.2478541598557E+00  0.1977621927280E+00
-0.6477945662589E-02  0.1188814923672E+01  0.2364673991255E+00  0.2048306040297E+00
-0.3171048999049E-02  0.1126782600281E+01  0.2247223136051E+00  0.2112146733626E+00
 0.5204185023574E-03  0.1062764536569E+01  0.2126569941832E+00  0.2164403447659E+00
 0.4439392714331E-02  0.9973033791087E+00  0.2003485573500E+00  0.2197720888889E+00
 0.8684522220982E-02  0.9309306045621E+00  0.1879230281569E+00  0.2203226737539E+00
 0.1363506140239E-01  0.8641719775626E+00  0.1755614104091E+00  0.2171775698647E+00
 0.1987163593201E-01  0.7975952852387E+00  0.1634933866704E+00  0.2094700926659E+00
 0.2806573133696E-01  0.7318300964922E+00  0.1519791678305E+00  0.1964077650028E+00
 0.3888938951973E-01  0.6675192427784E+00  0.1412817285649E+00  0.1772923172055E+00
 0.5294532381017E-01  0.6051907401656E+00  0.1316272147566E+00  0.1515995869414E+00
 0.7064905805225E-01  0.5450046368106E+00  0.1231307408074E+00  0.1192307938473E+00
 0.9188588123612E-01  0.4864719142478E+00  0.1156715608204E+00  0.8097447571078E-01
 0.1150023551313E+00  0.4284061396614E+00  0.1086817005780E+00  0.3923337948040E-01
 0.1339159009462E+00  0.3697439429284E+00  0.1007319702760E+00 -0.8281841668145E-03
 0.1314407759428E+00  0.3135840650103E+00  0.8900496951690E-01 -0.3180136396225E-01
 0.7295238581909E-01  0.2744605610529E+00  0.6948259040978E-01 -0.5466440080635E-01
-0.7361378342322E-01  0.2712093592748E+00  0.3951911575921E-01 -0.1046754446693E+00
-0.2638634747504E+00  0.2822067351484E+00  0.3668652134265E-02 -0.2502595542295E+00
 0.3719061356530E+00  0.1799071666477E+01  0.4341955668960E+00  0.1035347577692E+00
 0.2373555885335E+00  0.1847002466277E+01  0.4168716171739E+00  0.1322237774693E+00
 0.1302439843417E+00  0.1869801186677E+01  0.4000090401644E+00  0.1260651321778E+00
 0.6159524113315E-01  0.1867004579537E+01  0.3857199698818E+00  0.1089179260951E+00
 0.2328522999805E-01  0.1848545120231E+01  0.3743660756243E+00  0.9558655793732E-01
 0.3296942505047E-02  0.1823352898156E+01  0.3653299735761E+00  0.8963245585325E-01
-0.6858806621545E-02  0.1795803891860E+01  0.3577890223792E+00  0.8963350482467E-01
-0.1189235613096E-01  0.1767280900332E+01  0.3510777140718E+00  0.9345716295172E-01
-0.1425408163653E-01  0.1737971517932E+01  0.3447434923962E+00  0.9951658853180E-01
-0.1523910580050E-01  0.1707713102040E+01  0.3384948042918E+00  0.1068096578701E+00
-0.1555142108352E-01  0.1676282600213E+01  0.3321462407753E+00  0.1147468802653E+00
-0.1557958125699E-01  0.1643482969702E+01  0.3255806825405E+00  0.1230056978754E+00
-0.1553630681827E-01  0.1609159547620E+01  0.3187246529097E+00  0.1314290817750E+00
-0.1553088945028E-01  0.1573193895109E+01  0.3115326057738E+00  0.1399580130189E+00
-0.1560745661281E-01  0.1535493098985E+01  0.3039771330041E+00  0.1485864400741E+00
-0.1576521668325E-01  0.1495980305567E+01  0.2960430221881E+00  0.1573302195629E+00
-0.1596850863625E-01  0.1454587609215E+01  0.2877238244032E+00  0.1662046456145E+00
-0.1615043451742E-01  0.1411252000038E+01  0.2790203172619E+00  0.1752071205303E+00
-0.1621160437042E-01  0.1365909994424E+01  0.2699396820332E+00  0.1843041482405E+00
-0.1601575097848E-01  0.1318490800420E+01  0.2604950137701E+00  0.1934238060220E+00
-0.1538757195575E-01  0.1268907300771E+01  0.2507039494988E+00  0.2024586863502E+00
-0.1412915824720E-01  0.1217049891666E+01  0.2405841502687E+00  0.2112848958641E+00
-0.1207583796003E-01  0.1162805173065E+01  0.2301458704505E+00  0.2197843564402E+00
-0.9179439729909E-02  0.1106129919021E+01  0.2193900991274E+00  0.2278237817541E+00
-0.5541285231485E-02  0.1047217773801E+01  0.2083353008184E+00  0.2351368291756E+00
-0.1327655041228E-02  0.9865191079960E+00  0.1970382935270E+00  0.2412022773484E+00
 0.3391263255796E-02  0.9245562542956E+00  0.1855895062758E+00  0.2452494887929E+00
 0.8768903300193E-02  0.8618050589841E+00  0.1741147950514E+00  0.2463576046109E+00
 0.1520468546433E-01  0.7986868510792E+00  0.1627783097343E+00  0.2435733356228E+00
 0.2327652894513E-01  0.7356093507798E+00  0.1517771782066E+00  0.2359947990991E+00
 0.3363696878288E-01  0.6729903163860E+00  0.1413254591397E+00  0.2228188351439E+00
 0.4691024693457E-01  0.6112241985642E+00  0.1316268910611E+00  0.2033891247657E+00
 0.6357892301739E-01  0.5505881115374E+00  0.1228334087413E+00  0.1773040820703E+00
 0.8378933079961E-01  0.4910573076556E+00  0.1149693294042E+00  0.1446778194200E+00
 0.1068901059156E+00  0.4321600680431E+00  0.1078100363982E+00  0.1065786708961E+00
 0.1302371037774E+00  0.3732562216705E+00  0.1006986665901E+00  0.6559100421846E-01
 0.1464319560554E+00  0.3148988544595E+00  0.9226616347786E-01  0.2614916697074E-01
 0.1388725653914E+00  0.2623106751051E+00  0.8023664929492E-01 -0.7721752074514E-02
 0.8128958626816E-01  0.2283523884678E+00  0.6192839587000E-01 -0.4225669863880E-01
-0.4176578924750E-01  0.2232375427988E+00  0.3629435125108E-01 -0.1088348916588E+00
-0.1889267856300E+00  0.2254989810298E+00  0.7314439188967E-02 -0.2520762933074E+00
 0.3511358639444E+00  0.1676444876014E+01  0.4055161540343E+00  0.8292472313551E-01
 0.2322340591191E+00  0.1720003879276E+01  0.3904475934971E+00  0.1181632211525E+00
 0.1337884061109E+00  0.1743734337140E+01  0.3755045542457E+00  0.1220695286298E+00
 0.6656226254948E-01  0.1745387376198E+01  0.3623899331496E+00  0.1128363219858E+00
 0.2633251681695E-01  0.1731511726017E+01  0.3515688538055E+00  0.1037071244030E+00
 0.4024025447946E-02  0.1709505394251E+01  0.3427058890466E+00  0.9950144513306E-01
-0.7849882219338E-02  0.1683871240442E+01  0.3352042766395E+00  0.1002068991557E+00
-0.1396218425201E-01  0.1656540808718E+01  0.3285157297884E+00  0.1044282763400E+00
-0.1695022750774E-01  0.1628117988637E+01  0.3222335570275E+00  0.1108532971640E+00
-0.1827873722858E-01  0.1598681299375E+01  0.3160805171393E+00  0.1185618512274E+00
-0.1877077971648E-01  0.1568137497445E+01  0.3098733481632E+00  0.1269790527690E+00
-0.1889252060105E-01  0.1536355999977E+01  0.3034927003975E+00  0.1357758243634E+00
-0.1890466966902E-01  0.1503213964706E+01  0.2968618634309E+00  0.1447846372375E+00
-0.1894414642072E-01  0.1468606508906E+01  0.2899324768174E+00  0.1539375790704E+00
-0.1906858512183E-01  0.1432444825572E+01  0.2826752523022E+00  0.1632224106942E+00
-0.1928053966965E-01  0.1394651177572E+01  0.2750741316794E+00  0.1726511200695E+00
-0.1954003059292E-01  0.1355153712623E+01  0.2671227403865E+00  0.1822367884850E+00
-0.1976989022325E-01  0.1313882784750E+01  0.2588225827620E+00  0.1919759063554E+00
-0.1985626234920E-01  0.1270765390546E+01  0.2501818293674E+00  0.2018357964305E+00
-0.1964724778737E-01  0.1225718888862E+01  0.2412143318093E+00  0.2117482700191E+00
-0.1895596832100E-01  0.1178645516418E+01  0.2319379130756E+00  0.2216127597669E+00
-0.1758153379773E-01  0.1129433453672E+01  0.2223703872885E+00  0.2313101919310E+00
-0.1535940570659E-01  0.1077980613090E+01  0.2125242446436E+00  0.2407127140175E+00
-0.1222360081723E-01  0.1024262104027E+01  0.2024077036581E+00  0.2496531634580E+00
-0.8219799852103E-02  0.9684780632667E+00  0.1920516555447E+00  0.2578181349800E+00
-0.3428926036383E-02  0.9110617764992E+00  0.1815265727975E+00  0.2646477959732E+00
 0.2161367006598E-02  0.8524958613667E+00  0.1709314482217E+00  0.2693480059332E+00
 0.8757420710786E-02  0.7931913171705E+00  0.1603897499663E+00  0.2709807373912E+00
 0.1677646417819E-01  0.7334714166903E+00  0.1500495784096E+00  0.2685744757632E+00
 0.2678592204211E-01  0.6736071863162E+00  0.1400786237590E+00  0.2612129307482E+00
 0.3940230201850E-01  0.6138451127239E+00  0.1306494848953E+00  0.2480986797914E+00
 0.5517387510101E-01  0.5543921306985E+00  0.1219132029766E+00  0.2286228181285E+00
 0.7442768885570E-01  0.4953618023060E+00  0.1139578999304E+00  0.2024885184184E+00
 0.9701064968250E-01  0.4366647374988E+00  0.1067350790267E+00  0.1699615672044E+00
 0.1217442909953E+00  0.3780016054559E+00  0.9994918077960E-01  0.1322394143031E+00
 0.1452015249027E+00  0.3193817617446E+00  0.9291665871402E-01  0.9175405069349E-01
 0.1594402821147E+00  0.2625949793550E+00  0.8440705355170E-01  0.5179914590020E-01
 0.1496134419580E+00  0.2136157172691E+00  0.7264583292792E-01  0.1353789576418E-01
 0.9671585473998E-01  0.1826895218755E+00  0.5588107615578E-01 -0.3180841152078E-01
-0.4860516341271E-02  0.1742846000028E+00  0.3388481723722E-01 -0.1102084279611E+00
-0.1201666938901E+00  0.1694447579694E+00  0.9855612962733E-02 -0.2502189117856E+00
 0.3294663109204E+00  0.1556620506462E+01  0.3772173690975E+00  0.6474258739935E-01
 0.2240286475391E+00  0.1596019537888E+01  0.3640096425095E+00  0.1049855940720E+00
 0.1339535721274E+00  0.1619589560855E+01  0.3507086318225E+00  0.1171015797107E+00
 0.6924200994747E-01  0.1624249657640E+01  0.3386983385645E+00  0.1150630002407E+00
 0.2822794546346E-01  0.1614140234546E+01  0.3284736408966E+00  0.1103804198436E+00
 0.4247090510501E-02  0.1595169985140E+01  0.3198834198968E+00  0.1084068796679E+00
-0.9082044391620E-02  0.1571609858522E+01  0.3125055674828E+00  0.1101699909305E+00
-0.1619423038223E-01  0.1545691440410E+01  0.3058994465639E+00  0.1149727528735E+00
-0.1979912266396E-01  0.1518347059264E+01  0.2997095917861E+00  0.1218324990610E+00
-0.2148412285277E-01  0.1489880137706E+01  0.2936792073469E+00  0.1299592518104E+00
-0.2217390596909E-01  0.1460331892238E+01  0.2876316015398E+00  0.1388226211335E+00
-0.2240637968049E-01  0.1429647492789E+01  0.2814482268157E+00  0.1481044301187E+00
-0.2248892603483E-01  0.1397744665455E+01  0.2750511519825E+00  0.1576363924590E+00
-0.2258631329347E-01  0.1364538838300E+01  0.2683905090007E+00  0.1673470148737E+00
-0.2277024558082E-01  0.1329950025771E+01  0.2614359599338E+00  0.1772207773246E+00
-0.2304712585212E-01  0.1293902636014E+01  0.2541711058198E+00  0.1872675050463E+00
-0.2337305414494E-01  0.1256322682658E+01  0.2465899293771E+00  0.1974993001991E+00
-0.2366105054503E-01  0.1217135054306E+01  0.2386948043089E+00  0.2079129093074E+00
-0.2378358140302E-01  0.1176258521487E+01  0.2304949914513E+00  0.2184775844693E+00
-0.2357422033484E-01  0.1133600830359E+01  0.2220053253129E+00  0.2291292346245E+00
-0.2283474463710E-01  0.1089056698503E+01  0.2132443939507E+00  0.2397723695595E+00
-0.2135800893060E-01  0.1042513823594E+01  0.2042311659759E+00  0.2502883050566E+00
-0.1897155040491E-01  0.9938779791261E+00  0.1949812886497E+00  0.2605350623112E+00
-0.1558287452835E-01  0.9431324044040E+00  0.1855099087394E+00  0.2703120288757E+00
-0.1117935846337E-01  0.8904692316296E+00  0.1758579772537E+00  0.2792648074285E+00
-0.5760668369550E-02  0.8362896604199E+00  0.1661058008852E+00  0.2868033960308E+00
 0.7626234533063E-03  0.7810247036579E+00  0.1563574677521E+00  0.2921195840775E+00
 0.8646431569809E-02  0.7250161492609E+00  0.1467325183526E+00  0.2942700197756E+00
 0.1832275422583E-01  0.6684965670979E+00  0.1373638663116E+00  0.2922793207514E+00
 0.3034169722205E-01  0.6116217183787E+00  0.1283926850334E+00  0.2852308975172E+00
 0.4526999384778E-01  0.5545036993668E+00  0.1199547404304E+00  0.2723420460537E+00
 0.6355932354512E-01  0.4972162548538E+00  0.1121551173510E+00  0.2530475339653E+00
 0.8536026495864E-01  0.4397826332176E+00  0.1050285812003E+00  0.2271269202596E+00
 0.1102166300003E+00  0.3821385100413E+00  0.9847102947566E-01  0.1949262164526E+00
 0.1364867333244E+00  0.3242391728462E+00  0.9214518260718E-01  0.1576246780708E+00
 0.1602266807876E+00  0.2666946502816E+00  0.8538426748616E-01  0.1172676985832E+00
 0.1735541141505E+00  0.2120666426687E+00  0.7712415251307E-01  0.7592051642402E-01
 0.1638354249624E+00  0.1661991300111E+00  0.6600691197827E-01  0.3264397503850E-01
 0.1177939843987E+00  0.1367173741029E+00  0.5090227245883E-01 -0.2208704584784E-01
 0.3522459723602E-01  0.1245961231708E+00  0.3196414455767E-01 -0.1088763170998E+00
-0.5582889014775E-01  0.1140825190089E+00  0.1165072594584E-01 -0.2457381204887E+00
 0.3071295290372E+00  0.1439034581263E+01  0.3492328272640E+00  0.4866111173881E-01
 0.2133950369505E+00  0.1474560122943E+01  0.3375910370093E+00  0.9280132136817E-01
 0.1312482466635E+00  0.1497310310000E+01  0.3257117161862E+00  0.1116518010747E+00
 0.6974315783098E-01  0.1503903734868E+01  0.3147293832296E+00  0.1160336287888E+00
 0.2885364572545E-01  0.1496798951824E+01  0.3051305240566E+00  0.1157915657701E+00
 0.3823324323362E-02  0.1480592907254E+01  0.2968832507393E+00  0.1163548310218E+00
-0.1064877642578E-01  0.1459137721654E+01  0.2896977933625E+00  0.1194623124275E+00
-0.1863375553218E-01  0.1434769073959E+01  0.2832270679057E+00  0.1250219999082E+00
-0.2281441572156E-01  0.1408650338185E+01  0.2771671886228E+00  0.1323957125567E+00
-0.2485022735111E-01  0.1381278105084E+01  0.2712855795890E+00  0.1409564328763E+00
-0.2574524713339E-01  0.1352822945690E+01  0.2654155436662E+00  0.1502435493920E+00
-0.2609996937702E-01  0.1323309384077E+01  0.2594418868060E+00  0.1599661586216E+00
-0.2626505533926E-01  0.1292701273635E+01  0.2532872474334E+00  0.1699651877639E+00
-0.2643213232626E-01  0.1260939417438E+01  0.2469014607014E+00  0.1801714539650E+00
-0.2668687885310E-01  0.1227956535370E+01  0.2402539348835E+00  0.1905696461350E+00
-0.2703973267231E-01  0.1193681890204E+01  0.2333284349832E+00  0.2011696076083E+00
-0.2744315895384E-01  0.1158041175470E+01  0.2261196066726E+00  0.2119840082136E+00
-0.2780078944441E-01  0.1120955172161E+01  0.2186308798011E+00  0.2230111075438E+00
-0.2797204644326E-01  0.1082335877228E+01  0.2108727692992E+00  0.2342229993207E+00
-0.2777653205534E-01  0.1042083357648E+01  0.2028613681413E+00  0.2455596874226E+00
-0.2700397410021E-01  0.1000086718002E+01  0.1946165516805E+00  0.2569290578624E+00
-0.2543720127784E-01  0.9562330746948E+00  0.1861591774574E+00  0.2682097009728E+00
-0.2288884158772E-01  0.9104316340917E+00  0.1775085611459E+00  0.2792435748540E+00
-0.1923343852805E-01  0.8626648682026E+00  0.1686862884485E+00  0.2897990450715E+00
-0.1439902930124E-01  0.8131061115869E+00  0.1597414188375E+00  0.2994873606654E+00
-0.8308584502626E-02  0.7621146425347E+00  0.1507612138529E+00  0.3076961605425E+00
-0.8014113438632E-03  0.7100631385763E+00  0.1418523475603E+00  0.3136107446207E+00
 0.8423951468103E-02  0.6572232669543E+00  0.1331294456683E+00  0.3162907978552E+00
 0.1981100838445E-01  0.6037449956247E+00  0.1247112026602E+00  0.3147665476931E+00
 0.3388698529492E-01  0.5496883985121E+00  0.1167150785006E+00  0.3081295012009E+00
 0.5115890916102E-01  0.4950637314317E+00  0.1092445297464E+00  0.2956142387648E+00
 0.7196916153302E-01  0.4398575607713E+00  0.1023653459862E+00  0.2766885181371E+00
 0.9628486930079E-01  0.3840599667050E+00  0.9606896863270E-01  0.2511739335101E+00
 0.1233667512213E+00  0.3276895727562E+00  0.9021126613976E-01  0.2194249365803E+00
 0.1512068189457E+00  0.2709757785329E+00  0.8443652075393E-01  0.1824817502264E+00
 0.1756014073268E+00  0.2150005405508E+00  0.7812039073960E-01  0.1418784592059E+00
 0.1891245594200E+00  0.1626896078567E+00  0.7036283450382E-01  0.9856043831036E-01
 0.1813708595984E+00  0.1192885995316E+00  0.6013189272204E-01  0.5021447491363E-01
 0.1433074414768E+00  0.9019370512821E-01  0.4670023001689E-01 -0.1238104184572E-01
 0.7738072327879E-01  0.7445159686479E-01  0.3036646448121E-01 -0.1051669106428E+00
 0.5408032239999E-02  0.5943349007856E-01  0.1296830465695E-01 -0.2393625448717E+00
 0.2842898657627E+00  0.1323283957319E+01  0.3215147694074E+00  0.3441296335880E-01
 0.2008249222674E+00  0.1355238711238E+01  0.3112127313385E+00  0.8163717657523E-01
 0.1261101314053E+00  0.1376779876663E+01  0.3005780060925E+00  0.1060484976862E+00
 0.6822650188487E-01  0.1384516457498E+01  0.2905485962060E+00  0.1160997217272E+00
 0.2816878176973E-01  0.1379749923823E+01  0.2815837453145E+00  0.1201371935595E+00
 0.2654713274187E-02  0.1365982010557E+01  0.2737273488451E+00  0.1233955849766E+00
-0.1262884178076E-01  0.1346571861852E+01  0.2667886079897E+00  0.1280599212799E+00
-0.2132501840147E-01  0.1323820240829E+01  0.2604990483673E+00  0.1345297611196E+00
-0.2601293950881E-01  0.1299030694114E+01  0.2546035547149E+00  0.1424969790451E+00
-0.2837586255210E-01  0.1272853179705E+01  0.2488954671395E+00  0.1515147228170E+00
-0.2947261416932E-01  0.1245575051065E+01  0.2432204910034E+00  0.1612113288990E+00
-0.2995471053257E-01  0.1217298860771E+01  0.2374688335863E+00  0.1713374825098E+00
-0.3021095892914E-01  0.1188037147927E+01  0.2315652412502E+00  0.1817528626340E+00
-0.3045773967231E-01  0.1157759439794E+01  0.2254603433840E+00  0.1923966645871E+00
-0.3079395315404E-01  0.1126414134897E+01  0.2191240396138E+00  0.2032576177204E+00
-0.3123390407299E-01  0.1093937646714E+01  0.2125407516953E+00  0.2143480880066E+00
-0.3172653456121E-01  0.1060257055684E+01  0.2057061072899E+00  0.2256830775975E+00
-0.3216639082904E-01  0.1025290434276E+01  0.1986248116491E+00  0.2372636690886E+00
-0.3240024824173E-01  0.9889444285968E+00  0.1913088389217E+00  0.2490655918441E+00
-0.3223379593549E-01  0.9511129463628E+00  0.1837758328239E+00  0.2610328326191E+00
-0.3144340010978E-01  0.9116804180787E+00  0.1760474062171E+00  0.2730753209401E+00
-0.2979805232248E-01  0.8705322043156E+00  0.1681468329042E+00  0.2850670695747E+00
-0.2708964634441E-01  0.8275763757376E+00  0.1600973482643E+00  0.2968338040987E+00
-0.2315513129132E-01  0.7827872627554E+00  0.1519264285567E+00  0.3081164358373E+00
-0.1786328982761E-01  0.7363115794665E+00  0.1436896600689E+00  0.3184984575896E+00
-0.1106504412518E-01  0.6884605404734E+00  0.1354791012884E+00  0.3273520851614E+00
-0.2534145495875E-02  0.6395452990686E+00  0.1274022326130E+00  0.3338620952976E+00
 0.8072262490071E-02  0.5897688443359E+00  0.1195682231469E+00  0.3370968536843E+00
 0.2120615560889E-01  0.5392069796491E+00  0.1120826287218E+00  0.3360978057429E+00
 0.3736789702353E-01  0.4878416459288E+00  0.1050419101557E+00  0.3299682636976E+00
 0.5699888661411E-01  0.4356089711852E+00  0.9852157302794E-01  0.3179575837340E+00
 0.8032711852897E-01  0.3824452403409E+00  0.9255447315315E-01  0.2995512677126E+00
 0.1071416407377E+00  0.3283481365916E+00  0.8709795676373E-01  0.2745769156131E+00
 0.1364573319478E+00  0.2734482167583E+00  0.8198111096284E-01  0.2433336008007E+00
 0.1660078770539E+00  0.2182250183109E+00  0.7684658021808E-01  0.2066383591889E+00
 0.1915413026045E+00  0.1640809796151E+00  0.7112445750376E-01  0.1654787546471E+00
 0.2063031983278E+00  0.1140054740905E+00  0.6406173543825E-01  0.1198796491767E+00
 0.2018970580861E+00  0.7246304696281E-01  0.5487202182744E-01  0.6674322401987E-01
 0.1722925761306E+00  0.4311472872473E-01  0.4308146161302E-01 -0.2319436218676E-02
 0.1209632119509E+00  0.2408630788370E-01  0.2900990439921E-01 -0.9946820442839E-01
 0.6452575413965E-01  0.5492076000507E-02  0.1400356623670E-01 -0.2315984601896E+00
 0.2610666450248E+00  0.1209071020709E+01  0.2940275375281E+00  0.2177816320491E-01
 0.1866927034378E+00  0.1237747132091E+01  0.2848879713509E+00  0.7147610078200E-01
 0.1189093778505E+00  0.1257859811184E+01  0.2753538419100E+00  0.1005100241287E+00
 0.6487333465248E-01  0.1266161943704E+01  0.2662070596382E+00  0.1155380099434E+00
 0.2618579341242E-01  0.1263170808802E+01  0.2578713242855E+00  0.1236051367447E+00
 0.6829584473705E-03  0.1251503232166E+01  0.2504372418545E+00  0.1296047334673E+00
-0.1508290659013E-01  0.1234019284582E+01  0.2437872792312E+00  0.1359669215208E+00
-0.2430734977793E-01  0.1212895200800E+01  0.2377175737467E+00  0.1434698116446E+00
-0.2941208238012E-01  0.1189498413545E+01  0.2320172696902E+00  0.1521027343109E+00
-0.3206210125454E-01  0.1164590659351E+01  0.2265057149946E+00  0.1616027184575E+00
-0.3334627222750E-01  0.1138558676036E+01  0.2210424840555E+00  0.1716996055672E+00
-0.3395414172498E-01  0.1111577788109E+01  0.2155247324883E+00  0.1821972500720E+00
-0.3430620793049E-01  0.1083709132444E+01  0.2098805880302E+00  0.1929826737922E+00
-0.3464054232542E-01  0.1054952677122E+01  0.2040624300000E+00  0.2040093445619E+00
-0.3506790024929E-01  0.1025274540938E+01  0.1980413310888E+00  0.2152739809045E+00
-0.3560592091398E-01  0.9946201098987E+00  0.1918028406550E+00  0.2267941568075E+00
-0.3619992024434E-01  0.9629193644478E+00  0.1853438916025E+00  0.2385891050573E+00
-0.3673548461161E-01  0.9300889946406E+00  0.1786707046682E+00  0.2506640751395E+00
-0.3704687679164E-01  0.8960315732329E+00  0.1717969418482E+00  0.2629991867769E+00
-0.3692552915151E-01  0.8606359509378E+00  0.1647420868121E+00  0.2755423666766E+00
-0.3613279455575E-01  0.8237821284997E+00  0.1575298691362E+00  0.2882047595391E+00
-0.3442024535653E-01  0.7853519999990E+00  0.1501863531664E+00  0.3008550445811E+00
-0.3155432340850E-01  0.7452482541091E+00  0.1427387882671E+00  0.3133037859097E+00
-0.2733117622871E-01  0.7034312064373E+00  0.1352200080566E+00  0.3252685794108E+00
-0.2156115192524E-01  0.6600154787908E+00  0.1276908672759E+00  0.3363113865574E+00
-0.1402760755230E-01  0.6152607252664E+00  0.1202466253346E+00  0.3457949794022E+00
-0.4444038070770E-02  0.5694157852186E+00  0.1129943511133E+00  0.3529081678835E+00
 0.7569944312901E-02  0.5226178991804E+00  0.1060375702787E+00  0.3567314887818E+00
 0.2247235881144E-01  0.4748770312241E+00  0.9946987948933E-01  0.3563201762012E+00
 0.4073452759352E-01  0.4261122849100E+00  0.9336936389201E-01  0.3507893931536E+00
 0.6273023394335E-01  0.3762082951107E+00  0.8778770711895E-01  0.3393971085185E+00
 0.8857480112941E-01  0.3250788309258E+00  0.8273072764382E-01  0.3216289978017E+00
 0.1178943099832E+00  0.2727547999928E+00  0.7812982315943E-01  0.2972845752170E+00
 0.1495046995846E+00  0.2194848084525E+00  0.7379790270711E-01  0.2665567461325E+00
 0.1809838572155E+00  0.1659508685157E+00  0.6938694618018E-01  0.2299915947502E+00
 0.2081852169068E+00  0.1137363512304E+00  0.6438431458685E-01  0.1880554185856E+00
 0.2251055613000E+00  0.6570205388734E-01  0.5816152390413E-01  0.1400728620661E+00
 0.2250424703533E+00  0.2552011079368E-01  0.5011251697614E-01  0.8259209854417E-01
 0.2040108521854E+00 -0.4423902905649E-02  0.3991739045077E-01  0.8260001541015E-02
 0.1656032568955E+00 -0.2632125810531E-01  0.2785640017314E-01 -0.9214605336798E-01
 0.1222491342773E+00 -0.4776816055441E-01  0.1489619496656E-01 -0.2228011106244E+00
 0.2375483804428E+00  0.1096169567490E+01  0.2667435935614E+00  0.1057425594648E-01
 0.1712876913823E+00  0.1121837226196E+01  0.2586249873695E+00  0.6227903907343E-01
 0.1099566918382E+00  0.1140408797124E+01  0.2500731015187E+00  0.9518025571608E-01
 0.5986739274508E-01  0.1148856193834E+01  0.2417447209181E+00  0.1145632010246E+00
 0.2295206871226E-01  0.1147175054215E+01  0.2340254280726E+00  0.1263649187309E+00
-0.2117537057980E-02  0.1137282846356E+01  0.2270330652427E+00  0.1350697373974E+00
-0.1805300929219E-01  0.1121572002001E+01  0.2207038018306E+00  0.1432074134833E+00
-0.2761266924833E-01  0.1102042960381E+01  0.2148860614287E+00  0.1518328007346E+00
-0.3302767632814E-01  0.1080067832364E+01  0.2094080343276E+00  0.1611909994037E+00
-0.3591086056922E-01  0.1056481108899E+01  0.2041140527076E+00  0.1711963607154E+00
-0.3735806483467E-01  0.1031749182924E+01  0.1988782265814E+00  0.1816865347134E+00
-0.3808340778816E-01  0.1006112072618E+01  0.1936057358510E+00  0.1925270722340E+00
-0.3853175770139E-01  0.9796772383990E+00  0.1882290989444E+00  0.2036396240260E+00
-0.3895906210923E-01  0.9524753367959E+00  0.1827032576598E+00  0.2149973707365E+00
-0.3948602528630E-01  0.9244913476887E+00  0.1770010671180E+00  0.2266088899070E+00
-0.4013273612615E-01  0.8956809481761E+00  0.1711096449597E+00  0.2384997010181E+00
-0.4084054640970E-01  0.8659782762025E+00  0.1650275484177E+00  0.2506952266281E+00
-0.4148600457461E-01  0.8352998132543E+00  0.1587627641017E+00  0.2632062495786E+00
-0.4189074244292E-01  0.8035451334549E+00  0.1523308804723E+00  0.2760180575639E+00
-0.4183129504309E-01  0.7705987672393E+00  0.1457534966111E+00  0.2890826504761E+00
-0.4105221084164E-01  0.7363360786806E+00  0.1390567756399E+00  0.3023120927860E+00
-0.3928443169427E-01  0.7006336144313E+00  0.1322698385184E+00  0.3155698672063E+00
-0.3626521806346E-01  0.6633849886453E+00  0.1254239559853E+00  0.3286532798131E+00
-0.3174779589666E-01  0.6245319976696E+00  0.1185568421212E+00  0.3412609525693E+00
-0.2548533815894E-01  0.5841535374192E+00  0.1117336415170E+00  0.3529390036062E+00
-0.1719778817975E-01  0.5424560866492E+00  0.1050516612593E+00  0.3630457946440E+00
-0.6543079913814E-02  0.4996269560843E+00  0.9861677670360E-01  0.3707775074452E+00
 0.6893420634522E-02  0.4557413846045E+00  0.9252696242655E-01  0.3752286358792E+00
 0.2357423266574E-01  0.4107513078095E+00  0.8686510938943E-01  0.3754684477190E+00
 0.4394136250699E-01  0.3645258479033E+00  0.8169344329939E-01  0.3706213095084E+00
 0.6830260645106E-01  0.3169157388077E+00  0.7704367019979E-01  0.3599453307323E+00
 0.9666795446358E-01  0.2678314750054E+00  0.7289988698009E-01  0.3429083870496E+00
 0.1285222782379E+00  0.2173500009239E+00  0.6917445686313E-01  0.3192523035288E+00
 0.1625322693209E+00  0.1658283337325E+00  0.6567212158927E-01  0.2890277639624E+00
 0.1962073965162E+00  0.1140952490340E+00  0.6206053003482E-01  0.2524922667964E+00
 0.2256050380245E+00  0.6380318434689E-01  0.5788164533678E-01  0.2096498421960E+00
 0.2454628743056E+00  0.1758023523652E-01  0.5260862269236E-01  0.1593271848723E+00
 0.2504423572822E+00 -0.2161430206706E-01  0.4576561172500E-01  0.9800901420970E-01
 0.2379038631499E+00 -0.5229354488445E-01  0.3712206420626E-01  0.1939772186936E-01
 0.2110931527551E+00 -0.7663880327942E-01  0.2689087029584E-01 -0.8351360568402E-01
 0.1791131040315E+00 -0.1003856714772E+00  0.1574548674550E-01 -0.2132218689854E+00
 0.2138019428646E+00  0.9844030370492E+00  0.2396409995537E+00  0.6487386375921E-03
 0.1548365783338E+00  0.1007306582433E+01  0.2324286356168E+00  0.5399704622273E-01
 0.9951237371893E-01  0.1024291469127E+01  0.2247607719184E+00  0.9015256633673E-01
 0.5338510666155E-01  0.1032579507577E+01  0.2171929260842E+00  0.1133404013773E+00
 0.1853654663564E-01  0.1031828550346E+01  0.2100730225268E+00  0.1285644512260E+00
-0.5746788132067E-02  0.1023412321728E+01  0.2035331097521E+00  0.1398810414966E+00
-0.2156375952201E-01  0.1009305084091E+01  0.1975482678576E+00  0.1498186828415E+00
-0.3126424116283E-01  0.9913078639235E+00  0.1920087274133E+00  0.1596228424454E+00
-0.3687245687191E-01  0.9707545868212E+00  0.1867764287730E+00  0.1697501140648E+00
-0.3992371095832E-01  0.9485185290460E+00  0.1817189663254E+00  0.1802786595496E+00
-0.4150061339821E-01  0.9251257065137E+00  0.1767250212565E+00  0.1911548990044E+00
-0.4232875825872E-01  0.9008710187533E+00  0.1717084546576E+00  0.2023115600419E+00
-0.4286964738104E-01  0.8759043008850E+00  0.1666069331834E+00  0.2137107019215E+00
-0.4339275859318E-01  0.8502858941142E+00  0.1613786295089E+00  0.2253499991432E+00
-0.4402639806746E-01  0.8240199513633E+00  0.1559987129837E+00  0.2372535186539E+00
-0.4479189921219E-01  0.7970732565201E+00  0.1504562737035E+00  0.2494574043295E+00
-0.4562607723639E-01  0.7693850710555E+00  0.1447518009208E+00  0.2619952262534E+00
-0.4639615815806E-01  0.7408726427826E+00  0.1388952989946E+00  0.2748846795460E+00
-0.4691080359347E-01  0.7114334028924E+00  0.1329045218402E+00  0.2881170603914E+00
-0.4693081297502E-01  0.6809480082755E+00  0.1268034409496E+00  0.3016488017281E+00
-0.4618214018483E-01  0.6492867253912E+00  0.1206209188387E+00  0.3153930914235E+00
-0.4437231399932E-01  0.6163189372814E+00  0.1143893263609E+00  0.3292090461090E+00
-0.4120652831422E-01  0.5819261363473E+00  0.1081439232181E+00  0.3428831439530E+00
-0.3639377417185E-01  0.5460282880080E+00  0.1019269042861E+00  0.3560993459816E+00
-0.2963152529125E-01  0.5086663471166E+00  0.9580696579271E-01  0.3683930155384E+00
-0.2058001853767E-01  0.4699933176069E+00  0.8988266115321E-01  0.3791222569687E+00
-0.8845597487578E-02  0.4301367399406E+00  0.8425822974615E-01  0.3874929328515E+00
 0.6018102625247E-02  0.3891139072981E+00  0.7902640316225E-01  0.3926139564982E+00
 0.2447761283550E-01  0.3468257082453E+00  0.7426066532274E-01  0.3935671674108E+00
 0.4694722313570E-01  0.3031016243856E+00  0.7000977054749E-01  0.3894816711170E+00
 0.7367350563876E-01  0.2577713204515E+00  0.6628896620583E-01  0.3796061126911E+00
 0.1045726918361E+00  0.2107537879238E+00  0.6306529689173E-01  0.3633736668170E+00
 0.1390138318059E+00  0.1621749185368E+00  0.6023775096617E-01  0.3404447272530E+00
 0.1755617452169E+00  0.1124813317291E+00  0.5760861624763E-01  0.3107056192800E+00
 0.2117257053608E+00  0.6259506194939E-01  0.5486415427958E-01  0.2741293491144E+00
 0.2438199722557E+00  0.1415711767187E-01  0.5159541875434E-01  0.2303303707677E+00
 0.2672599614208E+00 -0.3047861614188E-01  0.4735626976144E-01  0.1778041536149E+00
 0.2777648760405E+00 -0.6894543240514E-01  0.4176388934941E-01  0.1131520183711E+00
 0.2735487406282E+00 -0.1003619456520E+00  0.3463735951138E-01  0.3106472361321E-01
 0.2573157805223E+00 -0.1267611969162E+00  0.2611091711031E-01 -0.7382447607061E-01
 0.2355157155076E+00 -0.1524010190311E+00  0.1662293954301E-01 -0.2030365055681E+00
 0.1898786372931E+00  0.8736302165340E+00  0.2127017739349E+00 -0.8126758776661E-02
 0.1375193190202E+00  0.8939878427409E+00  0.2063014354263E+00  0.4657801342820E-01
 0.8779478156986E-01  0.9093820635883E+00  0.1994353720035E+00  0.8548605933191E-01
 0.4559081442329E-01  0.9172908767858E+00  0.1925763411114E+00  0.1119958665549E+00
 0.1302028074800E-01  0.9171626193011E+00  0.1860365827820E+00  0.1303300794433E+00
-0.1018560486899E-01  0.9099539413694E+00  0.1799536699816E+00  0.1441265913781E+00
-0.2562442566373E-01  0.8972766574192E+00  0.1743304489488E+00  0.1558458511972E+00
-0.3527636811439E-01  0.8807275272986E+00  0.1690902343565E+00  0.1668542653841E+00
-0.4095506721579E-01  0.8615735045115E+00  0.1641236899048E+00  0.1777772324829E+00
-0.4410093944847E-01  0.8406987823433E+00  0.1593195709530E+00  0.1888391643826E+00
-0.4576662172729E-01  0.8186701123069E+00  0.1545807004194E+00  0.2000920337450E+00
-0.4667707979878E-01  0.7958266869078E+00  0.1498299236545E+00  0.2115384320381E+00
-0.4730270204248E-01  0.7723556054413E+00  0.1450105828406E+00  0.2231850405103E+00
-0.4792184339585E-01  0.7483448851323E+00  0.1400846104347E+00  0.2350580189856E+00
-0.4866773471812E-01  0.7238174367025E+00  0.1350299424090E+00  0.2472001928234E+00
-0.4956147586847E-01  0.6987514891331E+00  0.1298380045877E+00  0.2596608600422E+00
-0.5053455575338E-01  0.6730920900333E+00  0.1245115087113E+00  0.2724836420574E+00
-0.5144440249203E-01  0.6467580101998E+00  0.1190627233157E+00  0.2856945253729E+00
-0.5208619008337E-01  0.6196451851893E+00  0.1135118007126E+00  0.2992917365795E+00
-0.5220403133102E-01  0.5916306347727E+00  0.1078853222959E+00  0.3132367379723E+00
-0.5150358823439E-01  0.5625789626255E+00  0.1022150764013E+00  0.3274444774946E+00
-0.4966662877195E-01  0.5323507781030E+00  0.9653683130472E-01  0.3417710515050E+00
-0.4636409395535E-01  0.5008130596019E+00  0.9088979448366E-01  0.3559948443857E+00
-0.4126000577008E-01  0.4678616383775E+00  0.8532032779285E-01  0.3697893031370E+00
-0.3399766492681E-01  0.4334983908199E+00  0.7990014636922E-01  0.3826835254476E+00
-0.2418079344012E-01  0.3978234372700E+00  0.7472852987952E-01  0.3940387275232E+00
-0.1136732393739E-01  0.3609068388606E+00  0.6990790402636E-01  0.4030719173594E+00
 0.4919203080528E-02  0.3227119351031E+00  0.6552622861314E-01  0.4089059002909E+00
 0.2514997066444E-01  0.2830945058975E+00  0.6164889623103E-01  0.4106324551060E+00
 0.4971489079970E-01  0.2418522595913E+00  0.5831343094714E-01  0.4073799001398E+00
 0.7880661239122E-01  0.1988023343508E+00  0.5552179017575E-01  0.3983776269113E+00
 0.1122620304384E+00  0.1538778405222E+00  0.5322797498528E-01  0.3830092696602E+00
 0.1493608182856E+00  0.1072495381171E+00  0.5132207204531E-01  0.3608362272805E+00
 0.1886078515099E+00  0.5943096749530E-01  0.4960776454026E-01  0.3315700168597E+00
 0.2275611547621E+00  0.1139139846834E-01  0.4779051135822E-01  0.2949167757459E+00
 0.2628105984839E+00 -0.3529107457020E-01  0.4550390546079E-01  0.2501746585972E+00
 0.2903609895071E+00 -0.7853892888276E-01  0.4236441275615E-01  0.1956354829873E+00
 0.3067220387931E+00 -0.1164490528778E+00  0.3805459775012E-01  0.1281125388277E+00
 0.3106201730113E+00 -0.1485080985820E+00  0.3242241536898E-01  0.4318863217719E-01
 0.3041991461515E+00 -0.1765841912082E+00  0.2552299136899E-01 -0.6327774211710E-01
 0.2917593119315E+00 -0.2038449962588E+00  0.1758286339656E-01 -0.1923576529207E+00
 0.1658183358358E+00  0.7637356132771E+00  0.1859107925929E+00 -0.1586096201578E-01
 0.1194805079847E+00  0.7817407080969E+00  0.1802442459022E+00  0.3997037404714E-01
 0.7498769488484E-01  0.7955654582131E+00  0.1741106332140E+00  0.8121660023939E-01
 0.3663487117105E-01  0.8029371670225E+00  0.1679144101408E+00  0.1106257994051E+00
 0.6489992358895E-02  0.8031838305100E+00  0.1619347669868E+00  0.1317682735480E+00
-0.1540092342748E-01  0.7969462426624E+00  0.1563090661762E+00  0.1478887336089E+00
-0.3023135012155E-01  0.7855290377135E+00  0.1510595397694E+00  0.1613379029036E+00
-0.3965472318645E-01  0.7703318208232E+00  0.1461354217049E+00  0.1735487490757E+00
-0.4527952781805E-01  0.7525371059324E+00  0.1414515177307E+00  0.1852767601971E+00
-0.4844086724197E-01  0.7330183103191E+00  0.1369154906556E+00  0.1968732727623E+00
-0.5014830184353E-01  0.7123660748505E+00  0.1324435565750E+00  0.2084896044525E+00
-0.5111547913234E-01  0.6909532876408E+00  0.1279675636086E+00  0.2201985122987E+00
-0.5181425064582E-01  0.6689985128468E+00  0.1234368542795E+00  0.2320540031560E+00
-0.5252709540563E-01  0.6466146834200E+00  0.1188175193734E+00  0.2441138624833E+00
-0.5338927611195E-01  0.6238424453597E+00  0.1140906355496E+00  0.2564424980811E+00
-0.5441996587760E-01  0.6006713788337E+00  0.1092502842192E+00  0.2691046726467E+00
-0.5554435035538E-01  0.5770526851613E+00  0.1043016685154E+00  0.2821558649947E+00
-0.5660942094116E-01  0.5529071985066E+00  0.9925955699218E-01  0.2956317167868E+00
-0.5739621484708E-01  0.5281298241460E+00  0.9414672326267E-01  0.3095383889522E+00
-0.5763116314597E-01  0.5025940445984E+00  0.8899257761658E-01  0.3238431889192E+00
-0.5699808739154E-01  0.4761582394469E+00  0.8383203166026E-01  0.3384638157398E+00
-0.5515105835522E-01  0.4486729171691E+00  0.7870437293556E-01  0.3532550568601E+00
-0.5172514196331E-01  0.4199887693919E+00  0.7365272658323E-01  0.3679900832730E+00
-0.4633905553582E-01  0.3899760236983E+00  0.6872739465661E-01  0.3823357351544E+00
-0.3858338233630E-01  0.3585971444593E+00  0.6400275337831E-01  0.3958187721991E+00
-0.2800796527952E-01  0.3259005317152E+00  0.5957851417492E-01  0.4078062211926E+00
-0.1412468897922E-01  0.2919012718400E+00  0.5555531739999E-01  0.4175270361231E+00
 0.3572287892035E-02  0.2565124187119E+00  0.5201694209591E-01  0.4241166927814E+00
 0.2556056187153E-01  0.2195494238979E+00  0.4902199788436E-01  0.4266735645190E+00
 0.5221052896153E-01  0.1807837616811E+00  0.4659885882290E-01  0.4243192147627E+00
 0.8367013139607E-01  0.1400248964336E+00  0.4473900623259E-01  0.4162545160766E+00
 0.1197129126449E+00  0.9722090469647E-01  0.4338676411479E-01  0.4018012924708E+00
 0.1595548376621E+00  0.5257897904736E-01  0.4242676397409E-01  0.3804101908560E+00
 0.2016755895425E+00  0.6656515626318E-02  0.4166642165464E-01  0.3516161582723E+00
 0.2437144518823E+00 -0.3956590885779E-01  0.4082970921331E-01  0.3148835404537E+00
 0.2825305283436E+00 -0.8460324894403E-01  0.3958545646979E-01  0.2692588365706E+00
 0.3146252134660E+00 -0.1266277348872E+00  0.3759949627604E-01  0.2129256885913E+00
 0.3370743880731E+00 -0.1640976586664E+00  0.3459534639686E-01  0.1429386173284E+00
 0.3488647894855E+00 -0.1966414492719E+00  0.3044466849638E-01  0.5566088095238E-01
 0.3516741419010E+00 -0.2259726489477E+00  0.2514029896527E-01 -0.5204097112550E-01
 0.3481056276059E+00 -0.2546988054353E+00  0.1868136471249E-01 -0.1812191593629E+00
 0.1416523570272E+00  0.6546228361268E+00  0.1592550410039E+00 -0.2264643445143E-01
 0.1008376419035E+00  0.6704459350029E+00  0.1542567176799E+00  0.3412509405497E-01
 0.6124649627059E-01  0.6827369481457E+00  0.1487966911005E+00  0.7736434988795E-01
 0.2665339240642E-01  0.6894589401588E+00  0.1432224686472E+00  0.1093033380427E+00
-0.9662032390450E-03  0.6898812808854E+00  0.1377830175824E+00  0.1329679950195E+00
-0.2135006796498E-01  0.6844088630271E+00  0.1326117609885E+00  0.1512427031147E+00
-0.3537035205585E-01  0.6740904381133E+00  0.1277440191150E+00  0.1663448721273E+00
-0.4439707049421E-01  0.6601426181567E+00  0.1231491113676E+00  0.1797329356037E+00
-0.4984507119474E-01  0.6436546488310E+00  0.1187619172969E+00  0.1922588555265E+00
-0.5293940006910E-01  0.6254731565294E+00  0.1145067529983E+00  0.2043814556195E+00
-0.5463692493305E-01  0.6061983115578E+00  0.1103122789687E+00  0.2163432774995E+00
-0.5563092588115E-01  0.5862266501548E+00  0.1061191464360E+00  0.2282856382054E+00
-0.5638786868536E-01  0.5658021182023E+00  0.1018828514216E+00  0.2403112037504E+00
-0.5718968364721E-01  0.5450592941934E+00  0.9757392356321E-01  0.2525116710677E+00
-0.5817066727850E-01  0.5240550573672E+00  0.9317687940618E-01  0.2649753612442E+00
-0.5934622069220E-01  0.5027898720009E+00  0.8868873158330E-01  0.2777845425711E+00
-0.6063410088008E-01  0.4812211898927E+00  0.8411741905597E-01  0.2910082238577E+00
-0.6187009536435E-01  0.4592722499741E+00  0.7948043210630E-01  0.3046930319663E+00
-0.6282036930194E-01  0.4368372451718E+00  0.7480337628862E-01  0.3188541354936E+00
-0.6319268631166E-01  0.4137861475449E+00  0.7011869329150E-01  0.3334656893163E+00
-0.6264765791103E-01  0.3899706294786E+00  0.6546459528900E-01  0.3484494091832E+00
-0.6081009411287E-01  0.3652300881782E+00  0.6088399972031E-01  0.3636607292802E+00
-0.5727800947284E-01  0.3393977175213E+00  0.5642394245047E-01  0.3788705258370E+00
-0.5162473913165E-01  0.3123173492820E+00  0.5213852280700E-01  0.3937426693614E+00
-0.4338944901963E-01  0.2839122883258E+00  0.4810456857806E-01  0.4078050079114E+00
-0.3207016754711E-01  0.2541807126834E+00  0.4442210968921E-01  0.4204325268960E+00
-0.1713428471202E-01  0.2230852271725E+00  0.4119018910588E-01  0.4308664349361E+00
 0.1953625515450E-02  0.1904917773039E+00  0.3848908113739E-01  0.4382532227542E+00
 0.2568038699419E-01  0.1561790791376E+00  0.3637189376833E-01  0.4416941824336E+00
 0.5440301016873E-01  0.1198958100115E+00  0.3485976455549E-01  0.4402981979855E+00
 0.8823525109792E-01  0.8144557217276E-01  0.3393616515983E-01  0.4332293460440E+00
 0.1269038477399E+00  0.4078879980789E-01  0.3353853000931E-01  0.4197380939668E+00
 0.1695845764294E+00 -0.1841653254924E-02  0.3354858513481E-01  0.3991574618376E+00
 0.2147597235190E+00 -0.4586557446835E-01  0.3377883031347E-01  0.3708502201552E+00
 0.2601672987697E+00 -0.9031785672218E-01  0.3396988891569E-01  0.3340655853751E+00
 0.3029190050401E+00 -0.1338178773476E+00  0.3382022604246E-01  0.2876549448023E+00
 0.3399077846121E+00 -0.1747586468016E+00  0.3302982805428E-01  0.2297483682481E+00
 0.3686419273772E+00 -0.2118376852682E+00  0.3136084888910E-01  0.1576723829568E+00
 0.3880827547828E+00 -0.2447972280391E+00  0.2865710577577E-01  0.6832872488452E-01
 0.3996520723982E+00 -0.2746734223648E+00  0.2499573037914E-01 -0.4030614111752E-01
 0.4047511030109E+00 -0.3048602067169E+00  0.1997817955649E-01 -0.1695427100838E+00
 0.1174055329374E+00  0.5462100098777E+00  0.1327231105408E+00 -0.2856226679112E-01
 0.8168719539682E-01  0.5600007066084E+00  0.1283375823134E+00  0.2899668520964E-01
 0.4670327645280E-01  0.5708015117012E+00  0.1235009594711E+00  0.7393891254626E-01
 0.1576886040873E-01  0.5767940856462E+00  0.1185125909770E+00  0.1080840292160E+00
-0.9261524877034E-02  0.5772319274327E+00  0.1135940822038E+00  0.1340032043858E+00
-0.2798405343560E-01  0.5723466427049E+00  0.1088725194762E+00  0.1542561255452E+00
-0.4101893266497E-01  0.5629768757370E+00  0.1043915901700E+00  0.1709159474260E+00
-0.4949418646169E-01  0.5501740451860E+00  0.1001359732370E+00  0.1854365228030E+00
-0.5464624357589E-01  0.5349315985341E+00  0.9605707242301E-01  0.1987380736160E+00
-0.5758977877318E-01  0.5180582565102E+00  0.9209369691972E-01  0.2113684652423E+00
-0.5922249379002E-01  0.5001519589438E+00  0.8818589434483E-01  0.2236523253498E+00
-0.6020996110654E-01  0.4816237570298E+00  0.8428276044057E-01  0.2357965019926E+00
-0.6100715331543E-01  0.4627369345889E+00  0.8034595745194E-01  0.2479524747867E+00
-0.6189100491142E-01  0.4436441524985E+00  0.7635063065513E-01  0.2602473255488E+00
-0.6299184331787E-01  0.4244166683990E+00  0.7228496609336E-01  0.2727951087138E+00
-0.6431936418674E-01  0.4050650576452E+00  0.6814913970720E-01  0.2856973369107E+00
-0.6578266550103E-01  0.3855528839257E+00  0.6395404463792E-01  0.2990380597796E+00
-0.6720547396728E-01  0.3658059608191E+00  0.5972009826027E-01  0.3128761654748E+00
-0.6833830380000E-01  0.3457179768667E+00  0.5547593543999E-01  0.3272369516550E+00
-0.6886931528763E-01  0.3251553995320E+00  0.5125721761267E-01  0.3421025685815E+00
-0.6843473243679E-01  0.3039628377258E+00  0.4710562175973E-01  0.3574002143957E+00
-0.6662887005695E-01  0.2819678905200E+00  0.4306780473438E-01  0.3729880748606E+00
-0.6301186148992E-01  0.2589855390308E+00  0.3919473609222E-01  0.3886376174408E+00
-0.5711173382773E-01  0.2348329703140E+00  0.3554424782690E-01  0.4040131087572E+00
-0.4841732489319E-01  0.2093949973556E+00  0.3219553497223E-01  0.4186464823238E+00
-0.3637634690945E-01  0.1826212369147E+00  0.2924897843690E-01  0.4319223991524E+00
-0.2041247099489E-01  0.1544241426726E+00  0.2680233473493E-01  0.4430942996904E+00
 0.4038634103617E-04  0.1246251466247E+00  0.2493310696469E-01  0.4513178250555E+00
 0.2548203437860E-01  0.9296867400144E-01  0.2369014202902E-01  0.4556934868979E+00
 0.5626322212674E-01  0.5918221457679E-01  0.2308908768476E-01  0.4553119615410E+00
 0.9247482740044E-01  0.2306292835847E-01  0.2310755149611E-01  0.4492935074452E+00
 0.1338130600470E+00 -0.1542133985349E-01  0.2367834439153E-01  0.4368102581631E+00
 0.1794344377623E+00 -0.5602361420357E-01  0.2468216507954E-01  0.4170746419046E+00
 0.2278443622121E+00 -0.9815904014343E-01  0.2593706480022E-01  0.3892850708381E+00
 0.2768885808841E+00 -0.1408957784997E+00  0.2719856088218E-01  0.3525020732744E+00
 0.3238988212868E+00 -0.1829600714522E+00  0.2818775038696E-01  0.3054236783111E+00
 0.3660943590909E+00 -0.2229236868326E+00  0.2863413487834E-01  0.2461712858533E+00
 0.4012027493995E+00 -0.2596641776004E+00  0.2830771478164E-01  0.1722899582756E+00
 0.4283693622747E+00 -0.2928590234441E+00  0.2710206816996E-01  0.8124600610261E-01
 0.4475305294022E+00 -0.3232700863320E+00  0.2485208898437E-01 -0.2882205577721E-01
 0.4629588213846E+00 -0.3522477225198E+00  0.2214222010292E-01 -0.1565877800517E+00
 0.9309857133211E-01  0.4384291032529E+00  0.1063055365011E+00 -0.3367375274490E-01
 0.6211197369195E-01  0.4503286298853E+00  0.1024881222426E+00  0.2454502096102E-01
 0.3147418270375E-01  0.4596945716089E+00  0.9823375232632E-01  0.7094493568273E-01
 0.4094834971204E-02  0.4649108184534E+00  0.9380113208267E-01  0.1070117068475E+00
-0.1830862130412E-01  0.4652440332975E+00  0.8938708373065E-01  0.1349363805863E+00
-0.3524664027233E-01  0.4608012474324E+00  0.8511092270027E-01  0.1569894647027E+00
-0.4714488978532E-01  0.4522507483746E+00  0.8102117292517E-01  0.1750976848183E+00
-0.5492757829020E-01  0.4404979078892E+00  0.7711406706889E-01  0.1906892722451E+00
-0.5966985619075E-01  0.4264422211478E+00  0.7335447408447E-01  0.2047297696514E+00
-0.6237900946220E-01  0.4108474142427E+00  0.6969368199463E-01  0.2178393283959E+00
-0.6388980764947E-01  0.3942999147297E+00  0.6608202240075E-01  0.2304152127417E+00
-0.6483444099052E-01  0.3772172467266E+00  0.6247656207818E-01  0.2427257874171E+00
-0.6565111700659E-01  0.3598762355067E+00  0.5884502457687E-01  0.2549705185974E+00
-0.6660766167136E-01  0.3424439157877E+00  0.5516725164532E-01  0.2673125879892E+00
-0.6782751182028E-01  0.3250037959683E+00  0.5143525759605E-01  0.2798930786761E+00
-0.6931269990448E-01  0.3075755143524E+00  0.4765256359967E-01  0.2928341450760E+00
-0.7096238177997E-01  0.2901283768589E+00  0.4383319966895E-01  0.3062361827901E+00
-0.7258733045445E-01  0.2725907670470E+00  0.4000068791456E-01  0.3201715186222E+00
-0.7392164806920E-01  0.2548559712226E+00  0.3618686516990E-01  0.3346766985264E+00
-0.7463306939136E-01  0.2367869510745E+00  0.3243077681989E-01  0.3497430929250E+00
-0.7433249680905E-01  0.2182210313773E+00  0.2877770734247E-01  0.3653049579675E+00
-0.7258286742263E-01  0.1989736304869E+00  0.2527815298953E-01  0.3812253889026E+00
-0.6890595664991E-01  0.1788412364571E+00  0.2198705628907E-01  0.3972792316081E+00
-0.6278474137748E-01  0.1576145972587E+00  0.1896597145886E-01  0.4131342340040E+00
-0.5365870817794E-01  0.1351410398131E+00  0.1629646656986E-01  0.4283290275790E+00
-0.4092635408908E-01  0.1113233951725E+00  0.1407940842649E-01  0.4422593107663E+00
-0.2396783102209E-01  0.8602612765337E-01  0.1241165951120E-01  0.4541905013338E+00
-0.2184668253059E-02  0.5902822654673E-01  0.1136871182814E-01  0.4632854676684E+00
 0.2494038066360E-01  0.3004129696663E-01  0.1099633568990E-01  0.4686404415791E+00
 0.5775957847240E-01 -0.1228205914469E-02  0.1130627468006E-01  0.4693230303417E+00
 0.9635251130547E-01 -0.3499188688120E-01  0.1227212506772E-01  0.4644041042954E+00
 0.1404003727053E+00 -0.7128079819593E-01  0.1382391510786E-01  0.4529729643665E+00
 0.1890581907301E+00 -0.1098451567866E+00  0.1584260702479E-01  0.4341215918114E+00
 0.2408696081981E+00 -0.1501101038221E+00  0.1815190114568E-01  0.4068941083773E+00
 0.2937867120611E+00 -0.1911884043976E+00  0.2051966183846E-01  0.3701859087694E+00
 0.3453357599485E+00 -0.2319062926258E+00  0.2268589380259E-01  0.3225754917663E+00
 0.3929623127633E+00 -0.2709821479999E+00  0.2439603331622E-01  0.2621911681156E+00
 0.4346240761686E+00 -0.3073975321259E+00  0.2544530918769E-01  0.1867854867814E+00
 0.4690954393732E+00 -0.3407760543073E+00  0.2566387739561E-01  0.9417236626970E-01
 0.4970944394523E+00 -0.3714099104384E+00  0.2513690617734E-01 -0.1708059971776E-01
 0.5154598321244E+00 -0.3992712195675E+00  0.2323772285766E-01 -0.1460846282738E+00
 0.6874731461886E-01  0.3312174240029E+00  0.7999294891634E-01 -0.3804459282388E-01
 0.4217877754883E-01  0.3413504685880E+00  0.7670585037038E-01  0.2072947171083E-01
 0.1565621497845E-01  0.3493369493997E+00  0.7299863396340E-01  0.6837730011201E-01
-0.8269888544316E-02  0.3537471232170E+00  0.6909544796414E-01  0.1061150160338E+00
-0.2802717684703E-01  0.3538804174943E+00  0.6517064910057E-01  0.1358151361790E+00
-0.4308235882512E-01  0.3497570915683E+00  0.6133494746259E-01  0.1594927422114E+00
-0.5371377069859E-01  0.3419090177316E+00  0.5763905026549E-01  0.1789316317855E+00
-0.6067618755360E-01  0.3311145688855E+00  0.5408767707234E-01  0.1955203557841E+00
-0.6490126310334E-01  0.3181840027221E+00  0.5065654867860E-01  0.2102515784983E+00
-0.6729416593292E-01  0.3038321456848E+00  0.4730759665532E-01  0.2238029886840E+00
-0.6862516778834E-01  0.2886268861506E+00  0.4400034432811E-01  0.2366352428026E+00
-0.6948891626405E-01  0.2729853723768E+00  0.4069929182903E-01  0.2490736270112E+00
-0.7030243355371E-01  0.2571926211640E+00  0.3737803807904E-01  0.2613640237170E+00
-0.7132072493360E-01  0.2414263764446E+00  0.3402113080915E-01  0.2737057874182E+00
-0.7265756155332E-01  0.2257801461181E+00  0.3062451736930E-01  0.2862678483593E+00
-0.7430537911371E-01  0.2102814197652E+00  0.2719520853555E-01  0.2991940756334E+00
-0.7615208911217E-01  0.1949047306188E+00  0.2375052865523E-01  0.3126023150138E+00
-0.7799460197290E-01  0.1795809265414E+00  0.2031726521644E-01  0.3265794113672E+00
-0.7954987229697E-01  0.1642029563436E+00  0.1693061706160E-01  0.3411742663663E+00
-0.8046448838485E-01  0.1486303281694E+00  0.1363316816006E-01  0.3563887484841E+00
-0.8032328709141E-01  0.1326930352232E+00  0.1047394978244E-01  0.3721658150498E+00
-0.7865719234161E-01  0.1161942290165E+00  0.7507407446853E-02  0.3883756368614E+00
-0.7494934549630E-01  0.9891199340606E-01  0.4792529653365E-02  0.4047991076986E+00
-0.6863795002608E-01  0.8061117927006E-01  0.2394645884479E-02  0.4211102947101E+00
-0.5911386312910E-01  0.6110281916169E-01  0.3977912124463E-03  0.4368568427939E+00
-0.4572695297524E-01  0.4024468742626E-01 -0.1096453126133E-02  0.4514466231096E+00
-0.2781338959210E-01  0.1785510846158E-01 -0.1991656255781E-02  0.4641567105773E+00
-0.4739890005430E-02 -0.6327910922470E-02 -0.2213560218565E-02  0.4741554165433E+00
 0.2403332050158E-01 -0.3262505774989E-01 -0.1718347475268E-02  0.4805315969506E+00
 0.5886823580809E-01 -0.6135199366808E-01 -0.4967515794000E-03  0.4823257267714E+00
 0.9984468000037E-01 -0.9273268195701E-01  0.1422399629869E-02  0.4785550719333E+00
 0.1466431389210E+00 -0.1268040913884E+00  0.3967809565649E-02  0.4682234934891E+00
 0.1984321514225E+00 -0.1633240963237E+00  0.7021611124395E-02  0.4503045408902E+00
 0.2538032173457E+00 -0.2017394020676E+00  0.1041276321079E-01  0.4236983048436E+00
 0.3108114163211E+00 -0.2412131419696E+00  0.1391965507773E-01  0.3871549489325E+00
 0.3671396657327E+00 -0.2806628325369E+00  0.1729536689688E-01  0.3391567218777E+00
 0.4204251169882E+00 -0.3189185200398E+00  0.2030131969220E-01  0.2778459751350E+00
 0.4686618155822E+00 -0.3550332911481E+00  0.2272570522546E-01  0.2011512828221E+00
 0.5107612913992E+00 -0.3885215561600E+00  0.2444794741216E-01  0.1071056186625E+00
 0.5458571734290E+00 -0.4194036164316E+00  0.2529071177634E-01 -0.5252083349974E-02
 0.5754420310680E+00 -0.4465228051706E+00  0.2578384556370E-01 -0.1373919050774E+00
 0.4436366272935E-01  0.2245165559902E+00  0.5377604454524E-01 -0.4172264141629E-01
 0.2194156795068E-01  0.2329829891446E+00  0.5098491217880E-01  0.1751722541999E-01
-0.6696684040414E-03  0.2396347342977E+00  0.4779301389089E-01  0.6623276858548E-01
-0.2124018369242E-01  0.2432122080371E+00  0.4439440553046E-01  0.1054198337355E+00
-0.3834513329961E-01  0.2430609006361E+00  0.4094315407740E-01  0.1366838801425E+00
-0.5143914131731E-01  0.2391436863063E+00  0.3754090955719E-01  0.1618156529914E+00
-0.6069186653570E-01  0.2318847279720E+00  0.3423857279745E-01  0.1824630640494E+00
-0.6671913499013E-01  0.2219535110730E+00  0.3104687567921E-01  0.1999662430496E+00
-0.7032667808863E-01  0.2100775094656E+00  0.2795016669187E-01  0.2153308801049E+00
-0.7232432183945E-01  0.1969211663309E+00  0.2491936926962E-01  0.2292795405634E+00
-0.7341802092370E-01  0.1830287573445E+00  0.2192214761082E-01  0.2423275706534E+00
-0.7416206496421E-01  0.1688113948273E+00  0.1892986625470E-01  0.2548523190866E+00
-0.7494871068029E-01  0.1545575029700E+00  0.1592175869520E-01  0.2671439836752E+00
-0.7601687993924E-01  0.1404520563015E+00  0.1288703546448E-01  0.2794376413871E+00
-0.7746810863620E-01  0.1265963126800E+00  0.9825640955181E-02  0.2919304707643E+00
-0.7928337712892E-01  0.1130243389148E+00  0.6748192457739E-02  0.3047888326969E+00
-0.8133806823061E-01  0.9971531772787E-01  0.3675449954221E-02  0.3181489418957E+00
-0.8341433009245E-01  0.8660242548284E-01  0.6376190875797E-03  0.3321131504226E+00
-0.8521126926440E-01  0.7357836426498E-01 -0.2326581034552E-02  0.3467438128064E+00
-0.8635369166149E-01  0.6049934610096E-01 -0.5170869189158E-02  0.3620546168154E+00
-0.8639976251012E-01  0.4718818552517E-01 -0.7842315513849E-02  0.3779989167586E+00
-0.8484790551744E-01  0.3343596489902E-01 -0.1028238827691E-01  0.3944561279090E+00
-0.8114241917459E-01  0.1900276340940E-01 -0.1242793133823E-01  0.4112157713316E+00
-0.7467688373982E-01  0.3628318230477E-02 -0.1420971331361E-01  0.4279608996892E+00
-0.6479386371602E-01 -0.1291137693705E-01 -0.1554104836219E-01  0.4442503127062E+00
-0.5079457447948E-01 -0.3080204805957E-01 -0.1631932475099E-01  0.4595051165930E+00
-0.3197000813322E-01 -0.5027007637375E-01 -0.1644801714649E-01  0.4730138208844E+00
-0.7648903821616E-02 -0.7161763220647E-01 -0.1585330744185E-01  0.4839486935159E+00
 0.2273676841063E-01 -0.9519804877186E-01 -0.1449225628820E-01  0.4913886457209E+00
 0.5956732884716E-01 -0.1213512070090E+00 -0.1235677581649E-01  0.4943437683104E+00
 0.1029341888404E+00 -0.1503179173968E+00 -0.9476745852484E-02  0.4917746314095E+00
 0.1525303367376E+00 -0.1821483292766E+00 -0.5923598596071E-02  0.4825983128784E+00
 0.2075502027787E+00 -0.2166174194756E+00 -0.1813443366402E-02  0.4656727086162E+00
 0.2666400090733E+00 -0.2532022342153E+00  0.2687555011648E-02  0.4397630350201E+00
 0.3279490750835E+00 -0.2911190505144E+00  0.7366005023579E-02  0.4034898644888E+00
 0.3892936211061E+00 -0.3293650971599E+00  0.1198570496786E-01  0.3552532498531E+00
 0.4484277650537E+00 -0.3668589660314E+00  0.1631376004755E-01  0.2932142789845E+00
 0.5034299192260E+00 -0.4026821232846E+00  0.2014955948855E-01  0.2154173309873E+00
 0.5529238447114E+00 -0.4363019401490E+00  0.2332438126005E-01  0.1201715941403E+00
 0.5962395913646E+00 -0.4672943400448E+00  0.2578905064824E-01  0.6229822547048E-02
 0.6340286803717E+00 -0.4958455062648E+00  0.2763663523320E-01 -0.1268697602389E+00
 0.1995790937978E-01  0.1182761139628E+00  0.2764680508049E-01 -0.4475107339735E-01
 0.1448455624191E-02  0.1251630729637E+00  0.2532230609492E-01  0.1487852054866E-01
-0.1743049106380E-01  0.1305216646309E+00  0.2261823505046E-01  0.6450543462978E-01
-0.3473657173662E-01  0.1332483866347E+00  0.1970236327321E-01  0.1049448581854E+00
-0.4919168988018E-01  0.1327432192598E+00  0.1671030612493E-01  0.1375778463701E+00
-0.6026194838657E-01  0.1289344234320E+00  0.1373449521374E-01  0.1639991386209E+00
-0.6803982681772E-01  0.1221624776903E+00  0.1082453033582E-01  0.1857299908031E+00
-0.7302885552920E-01  0.1130046779665E+00  0.7995164606601E-02  0.2040574907553E+00
-0.7592564650020E-01  0.1021130932140E+00  0.5237489420798E-02  0.2199898139651E+00
-0.7745234118906E-01  0.9010208058976E-01  0.2529947917840E-02  0.2342838175160E+00
-0.7825209011964E-01  0.7748885096831E-01 -0.1526478325395E-03  0.2475015959637E+00
-0.7883715656883E-01  0.6467390694041E-01 -0.2832649967893E-02  0.2600676695119E+00
-0.7957223232086E-01  0.5194486996695E-01 -0.5525472553118E-02  0.2723140780870E+00
-0.8067734928218E-01  0.3949069075457E-01 -0.8237331828268E-02  0.2845107272703E+00
-0.8223947481938E-01  0.2741816110942E-01 -0.1096426290537E-01  0.2968830516137E+00
-0.8422638773162E-01  0.1576660520256E-01 -0.1369195670984E-01  0.3096203761341E+00
-0.8649971609861E-01  0.4519218932312E-02 -0.1639609967758E-01  0.3228779904537E+00
-0.8882599850336E-01 -0.6388660601607E-02 -0.1904293210476E-01  0.3367746138918E+00
-0.9088587360227E-01 -0.1706446572291E-01 -0.2159006818675E-01  0.3513870913913E+00
-0.9228185889071E-01 -0.2765502670153E-01 -0.2398737747589E-01  0.3667422370366E+00
-0.9254501922832E-01 -0.3834437309970E-01 -0.2617787885569E-01  0.3828054911622E+00
-0.9114097778230E-01 -0.4935304206132E-01 -0.2809880438743E-01  0.3994676390592E+00
-0.8747510167563E-01 -0.6093828748199E-01 -0.2968267827383E-01  0.4165293017540E+00
-0.8089646545716E-01 -0.7338448839397E-01 -0.3085619123002E-01  0.4336850311429E+00
-0.7069944367826E-01 -0.8694936001431E-01 -0.3152976120834E-01  0.4505067921442E+00
-0.5613616405487E-01 -0.1018606828875E+00 -0.3159936985934E-01  0.4664299649488E+00
-0.3645073686111E-01 -0.1183884130266E+00 -0.3096783043900E-01  0.4807544189836E+00
-0.1093024746888E-01 -0.1368745833542E+00 -0.2956096660510E-01  0.4926552460476E+00
 0.2102772892598E-01 -0.1577061789093E+00 -0.2733569040399E-01  0.5011994307621E+00
 0.5983059918237E-01 -0.1812501160679E+00 -0.2428390373896E-01  0.5053642762167E+00
 0.1055924010395E+00 -0.2077690712180E+00 -0.2043533434021E-01  0.5040516440581E+00
 0.1580306855876E+00 -0.2373335857091E+00 -0.1586058026063E-01  0.4960915730224E+00
 0.2163762320036E+00 -0.2697440688306E+00 -0.1067356752444E-01  0.4802295335966E+00
 0.2793336827111E+00 -0.3045146063300E+00 -0.5036184798825E-02  0.4551039723824E+00
 0.3451388622236E+00 -0.3409146331843E+00  0.8448458204463E-03  0.4192171829465E+00
 0.4117107001730E+00 -0.3780110353817E+00  0.6739933058707E-02  0.3708974472646E+00
 0.4768945812519E+00 -0.4147853901042E+00  0.1242183841465E-01  0.3083126346848E+00
 0.5387584551309E+00 -0.4503448920515E+00  0.1768271287938E-01  0.2296214253747E+00
 0.5958201083120E+00 -0.4840412619751E+00  0.2235576960051E-01  0.1332363328901E+00
 0.6472672994189E+00 -0.5155159794837E+00  0.2635026437969E-01  0.1805565494843E-01
 0.6928963178595E+00 -0.5449240835313E+00  0.2959444730662E-01 -0.1158664797767E+00
-0.4461621857343E-02  0.1245025737313E-01  0.1597727126965E-02 -0.4716703566864E-01
-0.1925930090078E-01  0.1783321419550E-01 -0.2852173453065E-03  0.1278712289904E-01
-0.3456228623998E-01  0.2193655545435E-01 -0.2525146194753E-02  0.6318880435899E-01
-0.4868738148324E-01  0.2380026346600E-01 -0.4977423677618E-02  0.1047045414574E+00
-0.6050045855744E-01  0.2288407358485E-01 -0.7523277106623E-02  0.1385265947076E+00
-0.6949663104053E-01  0.1909920292799E-01 -0.1007948577270E-01  0.1660791652534E+00
-0.7571676807440E-01  0.1272243295892E-01 -0.1259886721083E-01  0.1887672868942E+00
-0.7957519009025E-01  0.4253928266118E-02 -0.1506425258930E-01  0.2078234653877E+00
-0.8167506847360E-01 -0.5721934260777E-02 -0.1747940080734E-01  0.2242508008306E+00
-0.8265891447695E-01 -0.1663934133336E-01 -0.1985965145799E-01  0.2388318084497E+00
-0.8310954704720E-01 -0.2801029255215E-01 -0.2222396825103E-01  0.2521682710005E+00
-0.8349647659398E-01 -0.3944849856611E-01 -0.2458899539842E-01  0.2647271380685E+00
-0.8415473177247E-01 -0.5067077609586E-01 -0.2696510197548E-01  0.2768795950686E+00
-0.8528309434778E-01 -0.6148718083233E-01 -0.2935405547343E-01  0.2889291328374E+00
-0.8695188638092E-01 -0.7178751368978E-01 -0.3174788048722E-01  0.3011291038385E+00
-0.8911408074263E-01 -0.8152850995866E-01 -0.3412851864881E-01  0.3136919815134E+00
-0.9161641311374E-01 -0.9072361602440E-01 -0.3646800637104E-01  0.3267926216170E+00
-0.9420904481222E-01 -0.9943550225531E-01 -0.3872890999061E-01  0.3405668276176E+00
-0.9655362852865E-01 -0.1077715771082E+00 -0.4086504173630E-01  0.3551068893947E+00
-0.9823002751395E-01 -0.1158813482251E+00 -0.4282227578591E-01  0.3704540100093E+00
-0.9874195031941E-01 -0.1239551732182E+00 -0.4453942537121E-01  0.3865873678954E+00
-0.9752208811264E-01 -0.1322245255351E+00 -0.4594932341424E-01  0.4034111820715E+00
-0.9393688858735E-01 -0.1409630815329E+00 -0.4697999472410E-01  0.4207395455937E+00
-0.8729100147901E-01 -0.1504781610393E+00 -0.4755383321226E-01  0.4382809074061E+00
-0.7683050591629E-01 -0.1610598077778E+00 -0.4757806344779E-01  0.4556223382259E+00
-0.6175765226022E-01 -0.1729765227340E+00 -0.4694683569841E-01  0.4722145813089E+00
-0.4126753488314E-01 -0.1865409778295E+00 -0.4556170322144E-01  0.4873690153629E+00
-0.1460149076163E-01 -0.2021351688795E+00 -0.4334733257416E-01  0.5002628475564E+00
 0.1888374817057E-01 -0.2201812545504E+00 -0.4025950187589E-01  0.5099497870636E+00
 0.5963150327368E-01 -0.2410765141706E+00 -0.3628900272012E-01  0.5153727729068E+00
 0.1077891026594E+00 -0.2651108049318E+00 -0.3146434092334E-01  0.5153738788129E+00
 0.1631097517657E+00 -0.2923820352172E+00 -0.2585445707558E-01  0.5086966026832E+00
 0.2248692974827E+00 -0.3227233910085E+00 -0.1957081899680E-01  0.4939772850248E+00
 0.2918332215228E+00 -0.3556909338086E+00 -0.1277154264747E-01  0.4697341006841E+00
 0.3623140843048E+00 -0.3906062702386E+00 -0.5658437271079E-02  0.4343595071368E+00
 0.4343120540963E+00 -0.4265947389240E+00  0.1543463057449E-02  0.3861130289017E+00
 0.5057239038161E+00 -0.4626866339076E+00  0.8607454109949E-02  0.3231655200882E+00
 0.5745913142875E+00 -0.4979865711098E+00  0.1532094886384E-01  0.2437493687426E+00
 0.6393201156311E+00 -0.5317981830399E+00  0.2150438683868E-01  0.1463832159606E+00
 0.6988312262330E+00 -0.5637405820386E+00  0.2701812924148E-01  0.3016867727843E-01
 0.7522048409415E+00 -0.5937010510363E+00  0.3170075845341E-01 -0.1046277786178E+00
-0.2888821821638E-01 -0.9300319093214E-01 -0.2437828219297E-01 -0.4900235975504E-01
-0.4014604806984E-01 -0.8905933280904E-01 -0.2584107656084E-01  0.1122012163859E-01
-0.5200864075135E-01 -0.8617743142156E-01 -0.2763721484641E-01  0.6227635293249E-01
-0.6302774547132E-01 -0.8518524022875E-01 -0.2964259758172E-01  0.1047102309114E+00
-0.7220926697891E-01 -0.8656019807771E-01 -0.3175389348450E-01  0.1395551032635E+00
-0.7909033357206E-01 -0.9039457278276E-01 -0.3389698177607E-01  0.1680873842567E+00
-0.8368092230006E-01 -0.9645874236877E-01 -0.3602793347062E-01  0.1916068388901E+00
-0.8632598713141E-01 -0.1043163125720E+00 -0.3812846050885E-01  0.2112921244899E+00
-0.8754962427920E-01 -0.1134429616742E+00 -0.4019851778969E-01  0.2281361618707E+00
-0.8792280061080E-01 -0.1233190641433E+00 -0.4224837358036E-01  0.2429402673175E+00
-0.8797111872930E-01 -0.1334869596811E+00 -0.4429161634207E-01  0.2563397788792E+00
-0.8812135341294E-01 -0.1435773400908E+00 -0.4633973939126E-01  0.2688396081003E+00
-0.8867738022971E-01 -0.1533145499218E+00 -0.4839838675149E-01  0.2808472861169E+00
-0.8981479039510E-01 -0.1625103387922E+00 -0.5046502658944E-01  0.2926983799791E+00
-0.9158544743521E-01 -0.1710530976082E+00 -0.5252770979140E-01  0.3046735229234E+00
-0.9392607654912E-01 -0.1788968948500E+00 -0.5456459509289E-01  0.3170082521910E+00
-0.9666749622626E-01 -0.1860524593009E+00 -0.5654399194800E-01  0.3298972668161E+00
-0.9954282554474E-01 -0.1925806093930E+00 -0.5842468785814E-01  0.3434940163726E+00
-0.1021943328550E+00 -0.1985885045509E+00 -0.6015656837757E-01  0.3579070865168E+00
-0.1041790103810E+00 -0.2042278423714E+00 -0.6168137146962E-01  0.3731932618468E+00
-0.1049731246354E+00 -0.2096946124802E+00 -0.6293354836090E-01  0.3893470499676E+00
-0.1039764610699E+00 -0.2152303231580E+00 -0.6384135779690E-01  0.4062880932810E+00
-0.1005166509824E+00 -0.2211239478486E+00 -0.6432812072475E-01  0.4238462377079E+00
-0.9385397042684E-01 -0.2277044164176E+00 -0.6431167832720E-01  0.4417461456390E+00
-0.8318592260335E-01 -0.2352926787144E+00 -0.6369572121269E-01  0.4595919183610E+00
-0.6766379523207E-01 -0.2441967189176E+00 -0.6237210375936E-01  0.4768508639053E+00
-0.4643117938086E-01 -0.2547712933681E+00 -0.6024049544744E-01  0.4928463051829E+00
-0.1867923581385E-01 -0.2674387939974E+00 -0.5722360681494E-01  0.5067573314492E+00
 0.1628282025536E-01 -0.2826584647986E+00 -0.5327512970252E-01  0.5176236828761E+00
 0.5894305420025E-01 -0.3008616228186E+00 -0.4838371444465E-01  0.5243531464992E+00
 0.1094923952070E+00 -0.3223707493863E+00 -0.4257567147030E-01  0.5257277159516E+00
 0.1677299536490E+00 -0.3473177967763E+00 -0.3591756916067E-01  0.5204053558394E+00
 0.2329842444965E+00 -0.3755751953348E+00 -0.2851819059261E-01  0.5069162765852E+00
 0.3040827705035E+00 -0.4067448213421E+00 -0.2053241047368E-01  0.4836634123144E+00
 0.3794061854107E+00 -0.4401984073015E+00 -0.1215844455935E-01  0.4489342748896E+00
 0.4570149997983E+00 -0.4751108317781E+00 -0.3619166449887E-02  0.4009206112514E+00
 0.5348294540127E+00 -0.5105446467902E+00  0.4856961516869E-02  0.3377853111547E+00
 0.6108451403522E+00 -0.5455955787054E+00  0.1304991252383E-01  0.2578124989864E+00
 0.6833264890676E+00 -0.5795221277530E+00  0.2076087257228E-01  0.1596255224770E+00
 0.7508827979006E+00 -0.6118405415767E+00  0.2780845167916E-01  0.4249178333216E-01
 0.8120649636778E+00 -0.6421553165769E+00  0.3398192992656E-01 -0.9327063145177E-01
-0.5331647985858E-01 -0.1981233854105E+00 -0.5028797380316E-01 -0.5028417371918E-01
-0.6118074495628E-01 -0.1955633001004E+00 -0.5134880977650E-01  0.1015772085617E-01
-0.6971948197313E-01 -0.1938733464114E+00 -0.5271856646247E-01  0.6176193307403E-01
-0.7769871293574E-01 -0.1937589343172E+00 -0.5429153025960E-01  0.1049710391328E+00
-0.8425987741825E-01 -0.1956331174478E+00 -0.5597859980736E-01  0.1406846761365E+00
-0.8899172893044E-01 -0.1995811900132E+00 -0.5771458464873E-01  0.1700517369617E+00
-0.9189012335856E-01 -0.2054070598618E+00 -0.5945943753009E-01  0.1942777471264E+00
-0.9324760271538E-01 -0.2127264006453E+00 -0.6119480158400E-01  0.2144898997655E+00
-0.9352216014323E-01 -0.2210676575627E+00 -0.6291796447873E-01  0.2316678340869E+00
-0.9322107076239E-01 -0.2299545620475E+00 -0.6463512752511E-01  0.2466263900365E+00
-0.9281621528159E-01 -0.2389601650827E+00 -0.6635527706162E-01  0.2600292487705E+00
-0.9269221025005E-01 -0.2477342123606E+00 -0.6808528553668E-01  0.2724151708438E+00
-0.9312079738657E-01 -0.2560111688167E+00 -0.6982639428116E-01  0.2842252225668E+00
-0.9425281817031E-01 -0.2636068667600E+00 -0.7157193805257E-01  0.2958253438339E+00
-0.9612012407043E-01 -0.2704101289959E+00 -0.7330605170560E-01  0.3075225558018E+00
-0.9864192630278E-01 -0.2763735565955E+00 -0.7500309769729E-01  0.3195751255910E+00
-0.1016322332087E+00 -0.2815057564462E+00 -0.7662759907282E-01  0.3321976610046E+00
-0.1048065785302E+00 -0.2858657838871E+00 -0.7813447364775E-01  0.3455616550960E+00
-0.1077875828100E+00 -0.2895602396925E+00 -0.7946956568468E-01  0.3597927185899E+00
-0.1101093075371E+00 -0.2927423926671E+00 -0.8057034124144E-01  0.3749643183228E+00
-0.1112206614647E+00 -0.2956129902370E+00 -0.8136673155281E-01  0.3910878020136E+00
-0.1104887034837E+00 -0.2984224675418E+00 -0.8178223542375E-01  0.4081001430734E+00
-0.1072024422442E+00 -0.3014737712499E+00 -0.8173524391677E-01  0.4258491404402E+00
-0.1005778171200E+00 -0.3051159663094E+00 -0.8113875789493E-01  0.4440779359555E+00
-0.8976333886800E-01 -0.3096994402103E+00 -0.7989255700614E-01  0.4624096165733E+00
-0.7385801278035E-01 -0.3155704933406E+00 -0.7788570238479E-01  0.4803294211709E+00
-0.5195116073561E-01 -0.3231255088671E+00 -0.7501533503836E-01  0.4971733855852E+00
-0.2317908377908E-01 -0.3328279572300E+00 -0.7120140926279E-01  0.5121227584318E+00
 0.1320335071120E-01 -0.3451763555900E+00 -0.6639460196512E-01  0.5242032796339E+00
 0.5773775423367E-01 -0.3606399492689E+00 -0.6058043990976E-01  0.5322875373244E+00
 0.1106686593250E+00 -0.3795793112631E+00 -0.5378213118904E-01  0.5350978187015E+00
 0.1718507246205E+00 -0.4021668026907E+00 -0.4606321630043E-01  0.5312078632658E+00
 0.2406719346311E+00 -0.4283199167582E+00 -0.3752959698465E-01  0.5190443153270E+00
 0.3160226596540E+00 -0.4576893662603E+00 -0.2833334174347E-01  0.4968982501013E+00
 0.3963436146069E+00 -0.4896949460764E+00 -0.1867026657211E-01  0.4629546105476E+00
 0.4797378380546E+00 -0.5235525608124E+00 -0.8762944682145E-02  0.4153349747530E+00
 0.5641262092334E+00 -0.5583446742053E+00  0.1156307022848E-02  0.3521827320549E+00
 0.6474357448003E+00 -0.5931497521198E+00  0.1085719869789E-01  0.2718173973299E+00
 0.7277627464745E+00 -0.6271634200904E+00  0.2011986557663E-01  0.1729500843926E+00
 0.8034059069350E+00 -0.6597587478383E+00  0.2872943224744E-01  0.5495936154097E-01
 0.8725188964546E+00 -0.6902996234386E+00  0.3644385514626E-01 -0.8184797922191E-01
-0.7774207965149E-01 -0.3029469541248E+00 -0.7613780788980E-01 -0.5103542630552E-01
-0.8233616506248E-01 -0.3017240246461E+00 -0.7681203908631E-01  0.9583029609346E-02
-0.8765007043077E-01 -0.3012009338931E+00 -0.7777020202364E-01  0.6164005643403E-01
-0.9264646585055E-01 -0.3019694601329E+00 -0.7892318637275E-01  0.1054945068775E+00
-0.9659766733305E-01 -0.3043777303332E+00 -0.8019508072825E-01  0.1419336798756E+00
-0.9915113205934E-01 -0.3084960060235E+00 -0.8152942883146E-01  0.1719969870265E+00
-0.1003021649970E+00 -0.3141505290433E+00 -0.8289054004323E-01  0.1968065446183E+00
-0.1003053111421E+00 -0.3209989016315E+00 -0.8426084381031E-01  0.2174416439924E+00
-0.9956403329945E-01 -0.3286155701813E+00 -0.8563592197223E-01  0.2348671549523E+00
-0.9852934805962E-01 -0.3365645794857E+00 -0.8701878680575E-01  0.2499075437044E+00
-0.9762307349352E-01 -0.3444495269532E+00 -0.8841452140682E-01  0.2632505013207E+00
-0.9718864022263E-01 -0.3519407271405E+00 -0.8982587481113E-01  0.2754649219846E+00
-0.9746508509594E-01 -0.3587849216143E+00 -0.9125000270177E-01  0.2870226528539E+00
-0.9857727555028E-01 -0.3648041264371E+00 -0.9267628177846E-01  0.2983181669881E+00
-0.1005357447338E+00 -0.3698892689265E+00 -0.9408500413404E-01  0.3096837630511E+00
-0.1032411047893E+00 -0.3739925849097E+00 -0.9544673936206E-01  0.3213998735608E+00
-0.1064898065671E+00 -0.3771210871775E+00 -0.9672218019019E-01  0.3337008722891E+00
-0.1099793926778E+00 -0.3793320849606E+00 -0.9786229698595E-01  0.3467765207177E+00
-0.1133127201557E+00 -0.3807312119088E+00 -0.9880878788526E-01  0.3607700470953E+00
-0.1160010247608E+00 -0.3814725511153E+00 -0.9949471665780E-01  0.3757725910062E+00
-0.1174661140003E+00 -0.3817605570038E+00 -0.9984533568864E-01  0.3918137557236E+00
-0.1170426528727E+00 -0.3818532853291E+00 -0.9977918912717E-01  0.4088496658981E+00
-0.1139813188997E+00 -0.3820661428818E+00 -0.9920949383464E-01  0.4267482031467E+00
-0.1074537603037E+00 -0.3827667122307E+00 -0.9804409596786E-01  0.4452732310397E+00
-0.9655898629033E-01 -0.3843332897121E+00 -0.9617845663365E-01  0.4640688459307E+00
-0.8034222739573E-01 -0.3871493597127E+00 -0.9349831881491E-01  0.4826397896360E+00
-0.5783556384327E-01 -0.3916525894037E+00 -0.8989763198896E-01  0.5003359503558E+00
-0.2811556756855E-01 -0.3983483766628E+00 -0.8529279011724E-01  0.5163415476777E+00
 0.9624179956950E-02 -0.4077768746500E+00 -0.7963054012521E-01  0.5296689502185E+00
 0.5598760418777E-01 -0.4204492623242E+00 -0.7289233271346E-01  0.5391561970013E+00
 0.1112826201157E+00 -0.4367696326650E+00 -0.6509740347988E-01  0.5434668068200E+00
 0.1754286779484E+00 -0.4569568552798E+00 -0.5630563630530E-01  0.5410917735611E+00
 0.2478796485216E+00 -0.4809788349153E+00 -0.4661983797342E-01  0.5303561790684E+00
 0.3275896611738E+00 -0.5085377622238E+00 -0.3618962074927E-01  0.5094411183908E+00
 0.4130525470201E+00 -0.5390995096365E+00 -0.2520939289893E-01  0.4764289852917E+00
 0.5023988716407E+00 -0.5719136620549E+00 -0.1390295829002E-01  0.4293663287635E+00
 0.5935302111473E+00 -0.6060722067663E+00 -0.2508399161165E-02  0.3663652487167E+00
 0.6842833965891E+00 -0.6406248608938E+00  0.8731707269179E-02  0.2857637744809E+00
 0.7725686494148E+00 -0.6746858674317E+00  0.1957655668833E-01  0.1863353835357E+00
 0.8563897965373E+00 -0.7074726423035E+00  0.2978343129056E-01  0.6752464185877E-01
 0.9335861134937E+00 -0.7381500643453E+00  0.3908721041212E-01 -0.7038959747566E-01
-0.1021615712035E+00 -0.4075083949103E+00 -0.1019339947417E+00 -0.5127531820683E-01
-0.1035882504296E+00 -0.4075839655631E+00 -0.1022344447219E+00  0.9481868707411E-02
-0.1057601618468E+00 -0.4082070645676E+00 -0.1027934468146E+00  0.6190609115051E-01
-0.1078216299700E+00 -0.4098634406297E+00 -0.1035370156628E+00  0.1062871187418E+00
-0.1091712976479E+00 -0.4128364142234E+00 -0.1044015439300E+00  0.1433181484535E+00
-0.1095205284584E+00 -0.4171750114587E+00 -0.1053391095531E+00  0.1739451911055E+00
-0.1088750590688E+00 -0.4227186412914E+00 -0.1063187416563E+00  0.1992174261194E+00
-0.1074636404493E+00 -0.4291581348821E+00 -0.1073243566655E+00  0.2201706315135E+00
-0.1056454191629E+00 -0.4361078000696E+00 -0.1083506454611E+00  0.2377547122002E+00
-0.1038220408886E+00 -0.4431689375332E+00 -0.1093981973145E+00  0.2528010522057E+00
-0.1023689134589E+00 -0.4499751783426E+00 -0.1104688200064E+00  0.2660178345867E+00
-0.1015895032299E+00 -0.4562184921864E+00 -0.1115616007457E+00  0.2780007840299E+00
-0.1016898848901E+00 -0.4616596840436E+00 -0.1126699154656E+00  0.2892498752298E+00
-0.1027680117172E+00 -0.4661287887696E+00 -0.1137793617928E+00  0.3001861831957E+00
-0.1048120206502E+00 -0.4695203374453E+00 -0.1148664733307E+00  0.3111659881001E+00
-0.1077030207805E+00 -0.4717871901720E+00 -0.1158980439175E+00  0.3224911096324E+00
-0.1112193128545E+00 -0.4729352074187E+00 -0.1168309057956E+00  0.3344153401017E+00
-0.1150401918731E+00 -0.4730198812990E+00 -0.1176120163870E+00  0.3471467555555E+00
-0.1187487942561E+00 -0.4721453595387E+00 -0.1181788325200E+00  0.3608466443742E+00
-0.1218338072136E+00 -0.4704656392034E+00 -0.1184598910486E+00  0.3756246837204E+00
-0.1236903702282E+00 -0.4681876554388E+00 -0.1183756068973E+00  0.3915300397189E+00
-0.1236212459004E+00 -0.4655755851085E+00 -0.1178393679577E+00  0.4085397170647E+00
-0.1208391829920E+00 -0.4629555960950E+00 -0.1167589575573E+00  0.4265437479462E+00
-0.1144716207507E+00 -0.4607120226666E+00 -0.1150367303976E+00  0.4453289579878E+00
-0.1035675117163E+00 -0.4592494588812E+00 -0.1125633957968E+00  0.4645625758916E+00
-0.8711670885253E-01 -0.4589874337788E+00 -0.1092208301538E+00  0.4837706569631E+00
-0.6409094042137E-01 -0.4604046081268E+00 -0.1048991112727E+00  0.5023184793618E+00
-0.3350205626889E-01 -0.4640492426373E+00 -0.9951026126406E-01  0.5193945951374E+00
 0.5524655034472E-02 -0.4705055754085E+00 -0.9299618546055E-01  0.5339992853914E+00
 0.5366417978514E-01 -0.4803307614654E+00 -0.8533331760762E-01  0.5449373493978E+00
 0.1112974695180E+00 -0.4939777745515E+00 -0.7653606214719E-01  0.5508149697772E+00
 0.1784178316790E+00 -0.5117178912454E+00 -0.6666001290660E-01  0.5500419598061E+00
 0.2545513918957E+00 -0.5335745136941E+00 -0.5580462519123E-01  0.5408432559615E+00
 0.3387173499822E+00 -0.5593038460891E+00 -0.4411729987879E-01  0.5212904501701E+00
 0.4294570653289E+00 -0.5884162368024E+00 -0.3179183476843E-01  0.4893613383677E+00
 0.5249160297742E+00 -0.6201887902574E+00 -0.1905455238057E-01  0.4430206527388E+00
 0.6229590177063E+00 -0.6537135904989E+00 -0.6150914650166E-02  0.3803364644930E+00
 0.7213139114644E+00 -0.6879996035904E+00  0.6662861674082E-02  0.2996466766943E+00
 0.8176934610418E+00 -0.7220661010855E+00  0.1912547227625E-01  0.1997601329121E+00
 0.9098232392948E+00 -0.7549749773223E+00  0.3096965285598E-01  0.8015506138169E-01
 0.9952738489216E+00 -0.7857222954310E+00  0.4191031132264E-01 -0.5891451843019E-01
-0.1265722315275E+00 -0.5118403931993E+00 -0.1276825268480E+00 -0.5101966754773E-01
-0.1249155790665E+00 -0.5131831178575E+00 -0.1276197412865E+00  0.9842591503588E-02
-0.1240132993453E+00 -0.5149360871661E+00 -0.1277898792065E+00  0.6255639224467E-01
-0.1231786614640E+00 -0.5174856086823E+00 -0.1281328559386E+00  0.1073546977360E+00
-0.1219323736177E+00 -0.5210507215197E+00 -0.1285966209437E+00  0.1448522707431E+00
-0.1200535336637E+00 -0.5256544480344E+00 -0.1291415982640E+00  0.1759160995846E+00
-0.1175672056054E+00 -0.5311418856800E+00 -0.1297418201904E+00  0.2015324628396E+00
-0.1146866342173E+00 -0.5372297021193E+00 -0.1303832692102E+00  0.2226985821851E+00
-0.1117355730263E+00 -0.5435666077003E+00 -0.1310604380983E+00  0.2403502309484E+00
-0.1090725572747E+00 -0.5497882367432E+00 -0.1317721607671E+00  0.2553240157083E+00
-0.1070300944010E+00 -0.5555575500890E+00 -0.1325175308727E+00  0.2683458327896E+00
-0.1058730313882E+00 -0.5605889478901E+00 -0.1332923978419E+00  0.2800353398889E+00
-0.1057744470713E+00 -0.5646587844025E+00 -0.1340866482928E+00  0.2909181128788E+00
-0.1068046722821E+00 -0.5676067110880E+00 -0.1348822786839E+00  0.3014398382170E+00
-0.1089285748675E+00 -0.5693321924107E+00 -0.1356521554770E+00  0.3119793213182E+00
-0.1120070331352E+00 -0.5697895807624E+00 -0.1363593248114E+00  0.3228587912515E+00
-0.1157997649227E+00 -0.5689839269735E+00 -0.1369567404201E+00  0.3343509101728E+00
-0.1199677194616E+00 -0.5669687347490E+00 -0.1373872928893E+00  0.3466819306842E+00
-0.1240745231290E+00 -0.5638460280873E+00 -0.1375841122934E+00  0.3600314828905E+00
-0.1275867713401E+00 -0.5597686705497E+00 -0.1374710904264E+00  0.3745285073887E+00
-0.1298735519590E+00 -0.5549446769547E+00 -0.1369636478237E+00  0.3902429214350E+00
-0.1302063847532E+00 -0.5496426548082E+00 -0.1359698099384E+00  0.4071742433315E+00
-0.1277606209097E+00 -0.5441976466433E+00 -0.1343916555132E+00  0.4252366682802E+00
-0.1216196419922E+00 -0.5390088120801E+00 -0.1321256927833E+00  0.4442422387382E+00
-0.1107817917895E+00 -0.5345053214614E+00 -0.1290574245733E+00  0.4638835608783E+00
-0.9417989440103E-01 -0.5311415555008E+00 -0.1250642918440E+00  0.4837100764041E+00
-0.7072214402312E-01 -0.5294368663935E+00 -0.1200318038719E+00  0.5031044086703E+00
-0.3935060840707E-01 -0.5299833224983E+00 -0.1138667878778E+00  0.5212613636983E+00
 0.8847643486462E-03 -0.5334117029954E+00 -0.1065053893164E+00  0.5371710688050E+00
 0.5073877217757E-01 -0.5403291590608E+00 -0.9791807883573E-01  0.5496070276981E+00
 0.1106750400489E+00 -0.5512428305152E+00 -0.8811355940627E-01  0.5571199712449E+00
 0.1807698330843E+00 -0.5664821794572E+00 -0.7714247042410E-01  0.5580401465521E+00
 0.2606281522363E+00 -0.5861311123939E+00 -0.6510059300160E-01  0.5504931946132E+00
 0.3493363189063E+00 -0.6100025251804E+00 -0.5213324203167E-01  0.5324404036041E+00
 0.4454791376778E+00 -0.6376502483479E+00 -0.3843422270672E-01  0.5017511329318E+00
 0.5472066164294E+00 -0.6683738374248E+00 -0.2423344456019E-01  0.4562997946889E+00
 0.6523316754515E+00 -0.7012570074860E+00 -0.9785066552700E-02  0.3940963730861E+00
 0.7584575311564E+00 -0.7352572494652E+00  0.4640056407393E-02  0.3134588230283E+00
 0.8630915091138E+00 -0.7692898948780E+00  0.1876032312671E-01  0.2132060366099E+00
 0.9636925778289E+00 -0.8022653718151E+00  0.3228544168384E-01  0.9282787393783E-01
 0.1057583582526E+01 -0.8330295194352E+00  0.4491081328733E-01 -0.4743690395610E-01
-0.1509719324781E+00 -0.6159740862315E+00 -0.1533892060276E+00 -0.5028121908490E-01
-0.1462989265750E+00 -0.6185593708748E+00 -0.1529716617694E+00  0.1065592131335E-01
-0.1423762173932E+00 -0.6214301561294E+00 -0.1527612769808E+00  0.6358838488734E-01
-0.1386753077527E+00 -0.6248789727986E+00 -0.1527108583858E+00  0.1087027072337E+00
-0.1348351162335E+00 -0.6290613230210E+00 -0.1527792901275E+00  0.1465487827562E+00
-0.1307053117752E+00 -0.6339705633580E+00 -0.1529351773055E+00  0.1779274953405E+00
-0.1263375015040E+00 -0.6394514056926E+00 -0.1531577837215E+00  0.2037717992023E+00
-0.1219380590994E+00 -0.6452401390816E+00 -0.1534356419226E+00  0.2250457010837E+00
-0.1178030582384E+00 -0.6510151208327E+00 -0.1537636381055E+00  0.2426724925991E+00
-0.1142535076529E+00 -0.6564436423606E+00 -0.1541394322996E+00  0.2574931633430E+00
-0.1115822753953E+00 -0.6612172285180E+00 -0.1545599030858E+00  0.2702492018479E+00
-0.1100169491498E+00 -0.6650732795399E+00 -0.1550180480479E+00  0.2815816848118E+00
-0.1096977189388E+00 -0.6678049510326E+00 -0.1555005363114E+00  0.2920394001910E+00
-0.1106667647142E+00 -0.6692629046439E+00 -0.1559859361960E+00  0.3020906169530E+00
-0.1128649911953E+00 -0.6693527077498E+00 -0.1564435421202E+00  0.3121350678734E+00
-0.1161324859176E+00 -0.6680309481460E+00 -0.1568326891497E+00  0.3225142252017E+00
-0.1202101125162E+00 -0.6653021020638E+00 -0.1571024452570E+00  0.3335188736977E+00
-0.1247405409843E+00 -0.6612174044969E+00 -0.1571915914386E+00  0.3453931157521E+00
-0.1292682734413E+00 -0.6558759928185E+00 -0.1570288555919E+00  0.3583350340982E+00
-0.1332384571404E+00 -0.6494284000491E+00 -0.1565333737704E+00  0.3724934080101E+00
-0.1359949359758E+00 -0.6420821452983E+00 -0.1556154185737E+00  0.3879599652990E+00
-0.1367788268159E+00 -0.6341083854960E+00 -0.1541774447598E+00  0.4047582718086E+00
-0.1347287649543E+00 -0.6258489588188E+00 -0.1521155470213E+00  0.4228286460817E+00
-0.1288843303299E+00 -0.6177157469850E+00 -0.1493200176880E+00  0.4420106275018E+00
-0.1181927596245E+00 -0.6101606325743E+00 -0.1456706806104E+00  0.4620245826276E+00
-0.1015282100523E+00 -0.6036715517621E+00 -0.1410399544645E+00  0.4824456909790E+00
-0.7773215171461E-01 -0.5988081692461E+00 -0.1353080662084E+00  0.5026763069165E+00
-0.4567179560371E-01 -0.5962072409726E+00 -0.1283758092282E+00  0.5219199788732E+00
-0.4314683437563E-02 -0.5965484793766E+00 -0.1201726343535E+00  0.5391592625315E+00
 0.4718258043517E-01 -0.6004929822834E+00 -0.1106620820186E+00  0.5531389344342E+00
 0.1093760236317E+00 -0.6086072705957E+00 -0.9984625088061E-01  0.5623565968406E+00
 0.1824342040330E+00 -0.6212847350478E+00 -0.8777010751083E-01  0.5650645988698E+00
 0.2660481410740E+00 -0.6386748823318E+00 -0.7452534936208E-01  0.5592896241534E+00
 0.3593743346776E+00 -0.6606503365692E+00 -0.6025520127620E-01  0.5428807207064E+00
 0.4610385753178E+00 -0.6868081831123E+00 -0.4515392223174E-01  0.5135933995455E+00
 0.5691871015901E+00 -0.7164664630702E+00 -0.2945587273494E-01  0.4692016440513E+00
 0.6815682998901E+00 -0.7486932716842E+00 -0.1342499455888E-01  0.4076419740878E+00
 0.7956474724441E+00 -0.7823857385777E+00  0.2652346812806E-02  0.3271921067441E+00
 0.9087195177940E+00 -0.8163492406810E+00  0.1847405569789E-01  0.2266582800221E+00
 0.1017981834375E+01 -0.8493464397656E+00  0.3372707942443E-01  0.1055267899583E+00
 0.1120514304531E+01 -0.8800824103248E+00  0.4808637955784E-01 -0.3596862395385E-01
-0.1753590351057E+00 -0.7199392836932E+00 -0.1790596664280E+00 -0.4906989910499E-01
-0.1677208985380E+00 -0.7237488059958E+00 -0.1782939435636E+00  0.1191480911539E-01
-0.1608183315020E+00 -0.7277295093962E+00 -0.1777095708277E+00  0.6500061809307E-01
-0.1542721261865E+00 -0.7320849670557E+00 -0.1772714212900E+00  0.1103364843719E+00
-0.1478360419739E+00 -0.7369079730394E+00 -0.1769488056394E+00  0.1484192841504E+00
-0.1414324595974E+00 -0.7421594069990E+00 -0.1767183759526E+00  0.1799954784885E+00
-0.1351453951056E+00 -0.7476786917553E+00 -0.1765648200032E+00  0.2059538287667E+00
-0.1291815609343E+00 -0.7532165793462E+00 -0.1764796306858E+00  0.2272307254099E+00
-0.1238159383724E+00 -0.7584770242855E+00 -0.1764585951610E+00  0.2447392763635E+00
-0.1193368896956E+00 -0.7631566255580E+00 -0.1764987056808E+00  0.2593247321793E+00
-0.1160005728161E+00 -0.7669747502576E+00 -0.1765950672462E+00  0.2717426277311E+00
-0.1139985994898E+00 -0.7696922551840E+00 -0.1767381735684E+00  0.2826532950914E+00
-0.1134384436997E+00 -0.7711201792063E+00 -0.1769117272174E+00  0.2926264800920E+00
-0.1143337358263E+00 -0.7711214183945E+00 -0.1770910334830E+00  0.3021509775798E+00
-0.1166008747567E+00 -0.7696086660913E+00 -0.1772419108107E+00  0.3116457204575E+00
-0.1200587539178E+00 -0.7665413647038E+00 -0.1773200263666E+00  0.3214700775201E+00
-0.1244292719578E+00 -0.7619235386679E+00 -0.1772705647667E+00  0.3319320120974E+00
-0.1293370549909E+00 -0.7558037595126E+00 -0.1770281655386E+00  0.3432929566742E+00
-0.1343080480428E+00 -0.7482773863833E+00 -0.1765170895155E+00  0.3557693782691E+00
-0.1387667878372E+00 -0.7394912741872E+00 -0.1756516150223E+00  0.3695303089654E+00
-0.1420328824155E+00 -0.7296506971322E+00 -0.1743367185074E+00  0.3846902082299E+00
-0.1433180806458E+00 -0.7190272884493E+00 -0.1724690763890E+00  0.4012981181211E+00
-0.1417251585512E+00 -0.7079674026805E+00 -0.1699385147786E+00  0.4193223885758E+00
-0.1362502932806E+00 -0.6968933438684E+00 -0.1666287299128E+00  0.4386323664355E+00
-0.1257892217300E+00 -0.6862776649221E+00 -0.1624133797505E+00  0.4589787077862E+00
-0.1091558711908E+00 -0.6766404064080E+00 -0.1571592578616E+00  0.4799649688044E+00
-0.8512185245417E-01 -0.6685810244162E+00 -0.1507405776203E+00  0.5010160585784E+00
-0.5247448080528E-01 -0.6627817051882E+00 -0.1430512393303E+00  0.5213473284727E+00
-0.1009182717597E-01 -0.6599733562191E+00 -0.1340130386760E+00  0.5399369966440E+00
 0.4296695577065E-01 -0.6608748624899E+00 -0.1235815831854E+00  0.5555043096746E+00
 0.1073602253592E+00 -0.6661172810871E+00 -0.1117514128108E+00  0.5664965166533E+00
 0.1833585877442E+00 -0.6761637202903E+00 -0.9856102797790E-01  0.5710898293924E+00
 0.2707469900429E+00 -0.6912346233363E+00 -0.8409752791185E-01  0.5672118863529E+00
 0.3687564051097E+00 -0.7112659218805E+00 -0.6850190437491E-01  0.5525965703724E+00
 0.4760528973940E+00 -0.7358986331258E+00 -0.5196914792077E-01  0.5248787306905E+00
 0.5907727584705E+00 -0.7644665048102E+00 -0.3473874978558E-01  0.4817203137902E+00
 0.7105893392426E+00 -0.7960161400962E+00 -0.1708536042531E-01  0.4209678090126E+00
 0.8328184723677E+00 -0.8293771317853E+00  0.6882681267195E-03  0.3408383251121E+00
 0.9545349788458E+00 -0.8632402777597E+00  0.1825894048929E-01  0.2401051059548E+00
 0.1072673207545E+01 -0.8962220344777E+00  0.3529023513931E-01  0.1182396672234E+00
 0.1184064276756E+01 -0.9268894342389E+00  0.5143496926987E-01 -0.2452059322573E-01
-0.1997323002316E+00 -0.8237646567091E+00 -0.2046993944384E+00 -0.4739303654746E-01
-0.1891656191453E+00 -0.8287859536444E+00 -0.2035903175917E+00  0.1361430456536E-01
-0.1793112973873E+00 -0.8338727162726E+00 -0.2026368057515E+00  0.6679279070106E-01
-0.1699320526323E+00 -0.8391436006986E+00 -0.2018151336735E+00  0.1122614125700E+00
-0.1608936542822E+00 -0.8446295077468E+00 -0.2011046354025E+00  0.1504744842574E+00
-0.1521928674528E+00 -0.8502566811646E+00 -0.2004899127110E+00  0.1821346945533E+00
-0.1439508991772E+00 -0.8558553306664E+00 -0.1999612489484E+00  0.2080953388768E+00
-0.1363807790039E+00 -0.8611864620581E+00 -0.1995134511854E+00  0.2292709637980E+00
-0.1297419386982E+00 -0.8659762741358E+00 -0.1991436455343E+00  0.2465673081923E+00
-0.1242942571547E+00 -0.8699487108630E+00 -0.1988485965666E+00  0.2608343592998E+00
-0.1202597147060E+00 -0.8728503902480E+00 -0.1986220239505E+00  0.2728406471537E+00
-0.1177950759644E+00 -0.8744660494881E+00 -0.1984522280477E+00  0.2832639053645E+00
-0.1169752702989E+00 -0.8746255812839E+00 -0.1983201732718E+00  0.2926927057875E+00
-0.1177850623630E+00 -0.8732052059981E+00 -0.1981980566256E+00  0.3016342868201E+00
-0.1201159261396E+00 -0.8701256356779E+00 -0.1980483153147E+00  0.3105249312673E+00
-0.1237653015181E+00 -0.8653496670043E+00 -0.1978229966523E+00  0.3197403822276E+00
-0.1284361688080E+00 -0.8588808819482E+00 -0.1974634130937E+00  0.3296046414634E+00
-0.1337355166959E+00 -0.8507646769128E+00 -0.1969000416558E+00  0.3403957549790E+00
-0.1391714865673E+00 -0.8410916112725E+00 -0.1960526224894E+00  0.3523483187563E+00
-0.1441490430297E+00 -0.8300033642682E+00 -0.1948304843628E+00  0.3656518609346E+00
-0.1479647767782E+00 -0.8177010432041E+00 -0.1931331668744E+00  0.3804443458165E+00
-0.1498023146697E+00 -0.8044544908207E+00 -0.1908513639420E+00  0.3968016077174E+00
-0.1487296313193E+00 -0.7906120893036E+00 -0.1878683469240E+00  0.4147218797586E+00
-0.1437000822778E+00 -0.7766040472344E+00 -0.1840608286452E+00  0.4341066564812E+00
-0.1335576704863E+00 -0.7629213310798E+00 -0.1792958029849E+00  0.4547395602560E+00
-0.1170546671978E+00 -0.7501144270472E+00 -0.1734338214334E+00  0.4762554522153E+00
-0.9288980620852E-01 -0.7388218535674E+00 -0.1663423344339E+00  0.4981050601473E+00
-0.5976555445320E-01 -0.7297717610770E+00 -0.1579074654590E+00  0.5195191751638E+00
-0.1646347011068E-01 -0.7237483190388E+00 -0.1480423600359E+00  0.5394755733460E+00
 0.3806369692900E-01 -0.7215318916057E+00 -0.1366936409722E+00  0.5566718171194E+00
 0.1045868560532E+00 -0.7238231767330E+00 -0.1238472659814E+00  0.5695080687192E+00
 0.1834890082312E+00 -0.7311609085085E+00 -0.1095343816876E+00  0.5760863249421E+00
 0.2746579247186E+00 -0.7438421782942E+00 -0.9383685211339E-01  0.5742347759840E+00
 0.3774047968288E+00 -0.7618705083148E+00 -0.7689314344301E-01  0.5615683746458E+00
 0.4904371310439E+00 -0.7849325636675E+00 -0.5889908740238E-01  0.5355932417986E+00
 0.6118771961763E+00 -0.8123763030594E+00 -0.4009982197415E-01  0.4938462841880E+00
 0.7393147363231E+00 -0.8432223731215E+00 -0.2078152766936E-01  0.4340663099528E+00
 0.8699055525868E+00 -0.8762269844294E+00 -0.1264286387349E-02  0.3543894105808E+00
 0.1000495189427E+01 -0.9099620099901E+00  0.1810663615718E-01  0.2535371388575E+00
 0.1127747624709E+01 -0.9428965527124E+00  0.3697021495025E-01  0.1309569658365E+00
 0.1248232136919E+01 -0.9734573504940E+00  0.5495495810383E-01 -0.1310353103285E-01
-0.2240908148917E+00 -0.9274779052042E+00 -0.2303137474511E+00 -0.4525554301455E-01
-0.2106184665500E+00 -0.9337040259522E+00 -0.2288645019108E+00  0.1575144627927E-01
-0.1978286285793E+00 -0.9398969125696E+00 -0.2275451116205E+00  0.6896576489735E-01
-0.1856200146299E+00 -0.9460936216284E+00 -0.2263427306244E+00  0.1144830533323E+00
-0.1739681501866E+00 -0.9522638881306E+00 -0.2252464110199E+00  0.1527243968197E+00
-0.1629455666274E+00 -0.9582976583300E+00 -0.2242486483330E+00  0.1843585197058E+00
-0.1527145742366E+00 -0.9640128297712E+00 -0.2233454841297E+00  0.2102116314443E+00
-0.1434994286658E+00 -0.9691773095415E+00 -0.2225353509575E+00  0.2311823314384E+00
-0.1355485839897E+00 -0.9735368705984E+00 -0.2218170942230E+00  0.2481722194446E+00
-0.1290968768291E+00 -0.9768412709296E+00 -0.2211876328477E+00  0.2620369902480E+00
-0.1243341943143E+00 -0.9788639892636E+00 -0.2206396400034E+00  0.2735575355761E+00
-0.1213833620822E+00 -0.9794141037042E+00 -0.2201594964379E+00  0.2834274009647E+00
-0.1202868755483E+00 -0.9783412732140E+00 -0.2197256330266E+00  0.2922519542402E+00
-0.1210003564320E+00 -0.9755360316061E+00 -0.2193072808756E+00  0.3005547638747E+00
-0.1233900314554E+00 -0.9709278894223E+00 -0.2188635874369E+00  0.3087874904485E+00
-0.1272317578976E+00 -0.9644833844827E+00 -0.2183430317296E+00  0.3173405554142E+00
-0.1322097972476E+00 -0.9562055536602E+00 -0.2176830734253E+00  0.3265526623423E+00
-0.1379140790276E+00 -0.9461359898647E+00 -0.2168100170092E+00  0.3367175534716E+00
-0.1438358844525E+00 -0.9343593022693E+00 -0.2156390405576E+00  0.3480875043346E+00
-0.1493618514497E+00 -0.9210103491552E+00 -0.2140744433110E+00  0.3608726021525E+00
-0.1537669923735E+00 -0.9062839780363E+00 -0.2120101972412E+00  0.3752349312507E+00
-0.1562082860417E+00 -0.8904457790962E+00 -0.2093308161468E+00  0.3912783121891E+00
-0.1557201920481E+00 -0.8738434544053E+00 -0.2059127323590E+00  0.4090326487899E+00
-0.1512140483030E+00 -0.8569123590981E+00 -0.2016252844847E+00  0.4284339466464E+00
-0.1414821014937E+00 -0.8401593638762E+00 -0.1963282959995E+00  0.4493016132428E+00
-0.1252137400661E+00 -0.8241634808233E+00 -0.1898754470072E+00  0.4713050277972E+00
-0.1010319844314E+00 -0.8096012875673E+00 -0.1821266571136E+00  0.4939244386361E+00
-0.6754963972826E-01 -0.7972471518008E+00 -0.1729593608831E+00  0.5164102932894E+00
-0.2344475708999E-01 -0.7879403114674E+00 -0.1622770161296E+00  0.5377444978371E+00
 0.3244538657316E-01 -0.7825261124061E+00 -0.1500161474020E+00  0.5566074592866E+00
 0.1010148565829E+00 -0.7817799512693E+00 -0.1361530209661E+00  0.5713560718644E+00
 0.1827701414126E+00 -0.7863222779279E+00 -0.1207104291018E+00  0.5800202975700E+00
 0.2777119247712E+00 -0.7965330367875E+00 -0.1037642239495E+00  0.5803282919641E+00
 0.3852390192704E+00 -0.8124884731726E+00 -0.8544989205374E-01  0.5697716253227E+00
 0.5041035646864E+00 -0.8339237876332E+00 -0.6596404557231E-01  0.5457185057008E+00
 0.6324118403952E+00 -0.8602010217194E+00 -0.4555783694371E-01  0.5055664872866E+00
 0.7676631112810E+00 -0.8903117551094E+00 -0.2452972913120E-01  0.4469279781431E+00
 0.9068430479686E+00 -0.9229339010450E+00 -0.3218170663235E-02  0.3678374028244E+00
 0.1046556720677E+01 -0.9565156475416E+00  0.1800821489541E-01  0.2669467402084E+00
 0.1183185301422E+01 -0.9893748367744E+00  0.3876209350713E-01  0.1436707437931E+00
 0.1313017730929E+01 -0.1019791834437E+01  0.5864518017233E-01 -0.1728420826733E-02
-0.2484339288912E+00 -0.1031105906753E+01 -0.2559079709422E+00 -0.4266006523426E-01
-0.2320658411382E+00 -0.1038535116976E+01 -0.2541201954095E+00  0.1832516580195E-01
-0.2163453555180E+00 -0.1045838002192E+01 -0.2524366753037E+00  0.7152156647885E-01
-0.2013025750362E+00 -0.1052972656328E+01 -0.2508550500108E+00  0.1170072401455E+00
-0.1870211343367E+00 -0.1059848233203E+01 -0.2493738772238E+00  0.1551784852467E+00
-0.1736505612405E+00 -0.1066317097214E+01 -0.2479935353864E+00  0.1866792003376E+00
-0.1613974825142E+00 -0.1072182436683E+01 -0.2467159875158E+00  0.2123166118523E+00
-0.1505013523014E+00 -0.1077216487630E+01 -0.2455435716451E+00  0.2329793693267E+00
-0.1412033108084E+00 -0.1081182595375E+01 -0.2444771848797E+00  0.2495685023489E+00
-0.1337158698892E+00 -0.1083855267074E+01 -0.2435142310212E+00  0.2629467915942E+00
-0.1281984176945E+00 -0.1085034711259E+01 -0.2426466294065E+00  0.2739072019347E+00
-0.1247404721912E+00 -0.1084554903379E+01 -0.2418590787180E+00  0.2831577166407E+00
-0.1233520925085E+00 -0.1082286170141E+01 -0.2411276561230E+00  0.2913185443789E+00
-0.1239594796537E+00 -0.1078134278525E+01 -0.2404187552182E+00  0.2989274273931E+00
-0.1264033620800E+00 -0.1072038221891E+01 -0.2396883203658E+00  0.3064493065101E+00
-0.1304380020939E+00 -0.1063968561550E+01 -0.2388813162884E+00  0.3142874111653E+00
-0.1357292892284E+00 -0.1053927578399E+01 -0.2379313770710E+00  0.3227936122655E+00
-0.1418508433759E+00 -0.1041952319387E+01 -0.2367606360806E+00  0.3322762265273E+00
-0.1482782216517E+00 -0.1028120167500E+01 -0.2352796813363E+00  0.3430045588907E+00
-0.1543811932429E+00 -0.1012557371192E+01 -0.2333877163646E+00  0.3552091293184E+00
-0.1594148614896E+00 -0.9954502577857E+00 -0.2309730272968E+00  0.3690765885118E+00
-0.1625112761025E+00 -0.9770575069360E+00 -0.2279137600039E+00  0.3847398034628E+00
-0.1626729240864E+00 -0.9577232048387E+00 -0.2240792291241E+00  0.4022620596994E+00
-0.1587701930862E+00 -0.9378848332385E+00 -0.2193310085332E+00  0.4216162477260E+00
-0.1495438168153E+00 -0.9180623678159E+00 -0.2135212401080E+00  0.4426605084582E+00
-0.1336193368573E+00 -0.8988611124540E+00 -0.2064960929393E+00  0.4651022257149E+00
-0.1095414712567E+00 -0.8809943599851E+00 -0.1981071692004E+00  0.4884553006964E+00
-0.7582874664788E-01 -0.8652825937136E+00 -0.1882222708770E+00  0.5119946363656E+00
-0.3104879341744E-01 -0.8526215969085E+00 -0.1767340806987E+00  0.5347115379942E+00
 0.2608578465346E-01 -0.8439249624394E+00 -0.1635678379945E+00  0.5552745165280E+00
 0.9660326595074E-01 -0.8400477897406E+00 -0.1486889069736E+00  0.5720016524958E+00
 0.1811456043866E+00 -0.8416985641206E+00 -0.1321105939154E+00  0.5828534327634E+00
 0.2798378683774E+00 -0.8493468833678E+00 -0.1139018046953E+00  0.5854573612421E+00
 0.3921757575989E+00 -0.8631478324561E+00 -0.9419441637504E-01  0.5771766448378E+00
 0.5169614186014E+00 -0.8828893362573E+00 -0.7318558462173E-01  0.5552314025592E+00
 0.6522853189363E+00 -0.9079488320425E+00 -0.5113270338317E-01  0.5168642641040E+00
 0.7955509016707E+00 -0.9372869996885E+00 -0.2834722002597E-01  0.4595413715862E+00
 0.9435637164566E+00 -0.9694991481005E+00 -0.5187086406080E-02  0.3811742439375E+00
 0.1092674971206E+01 -0.1002904212400E+01  0.1795415202861E-01  0.2803274247563E+00
 0.1238966069029E+01 -0.1035662236502E+01  0.4066076711120E-01  0.1563739639983E+00
 0.1378422626554E+01 -0.1065897992667E+01  0.6250492770873E-01  0.9593142422536E-02
-0.2727612008427E+00 -0.1134674855933E+01 -0.2814872155496E+00 -0.3960711139031E-01
-0.2534949629130E+00 -0.1143310394653E+01 -0.2793610756760E+00  0.2133620590670E-01
-0.2348377213296E+00 -0.1151730858947E+01 -0.2773137201876E+00  0.7446337748525E-01
-0.2169476050476E+00 -0.1159817367701E+01 -0.2753529986528E+00  0.1198401434609E+00
-0.2000153449004E+00 -0.1167418892047E+01 -0.2734868514647E+00  0.1578457674833E+00
-0.1842686537760E+00 -0.1174349214537E+01 -0.2717235777115E+00  0.1891079533374E+00
-0.1699611239964E+00 -0.1180395023366E+01 -0.2700712334969E+00  0.2144228487292E+00
-0.1573505497011E+00 -0.1185331030759E+01 -0.2685363200935E+00  0.2346752476821E+00
-0.1466735636067E+00 -0.1188936809239E+01 -0.2671220785495E+00  0.2507694611957E+00
-0.1381223448315E+00 -0.1191011044419E+01 -0.2658266818112E+00  0.2635770667473E+00
-0.1318268510057E+00 -0.1191380851299E+01 -0.2646415444044E+00  0.2739030900113E+00
-0.1278435986023E+00 -0.1189905805251E+01 -0.2635498846979E+00  0.2824687422658E+00
-0.1261500495981E+00 -0.1186477832217E+01 -0.2625255802750E+00  0.2899071609386E+00
-0.1266426708006E+00 -0.1181018810647E+01 -0.2615323001866E+00  0.2967680460974E+00
-0.1291364895514E+00 -0.1173477822207E+01 -0.2605228662338E+00  0.3035273885377E+00
-0.1333642644264E+00 -0.1163829638564E+01 -0.2594387844640E+00  0.3105991779876E+00
-0.1389740011887E+00 -0.1152075470907E+01 -0.2582098982668E+00  0.3183467182557E+00
-0.1455239293493E+00 -0.1138246968385E+01 -0.2567541833727E+00  0.3270915706999E+00
-0.1524752120355E+00 -0.1122412891832E+01 -0.2549776245729E+00  0.3371192126020E+00
-0.1591824245930E+00 -0.1104688953745E+01 -0.2527742794342E+00  0.3486802719218E+00
-0.1648826700133E+00 -0.1085250538650E+01 -0.2500266454584E+00  0.3619862315473E+00
-0.1686850491279E+00 -0.1064346562899E+01 -0.2466063260801E+00  0.3771999171458E+00
-0.1695619017804E+00 -0.1042314325707E+01 -0.2423752491092E+00  0.3944196139642E+00
-0.1663440363381E+00 -0.1019590133294E+01 -0.2371868374607E+00  0.4136574631771E+00
-0.1577212360854E+00 -0.9967039410145E+00 -0.2308850388604E+00  0.4348133972571E+00
-0.1422545588970E+00 -0.9742847434864E+00 -0.2233078638042E+00  0.4576365460303E+00
-0.1184081482948E+00 -0.9530807964120E+00 -0.2142977921346E+00  0.4816790135671E+00
-0.8460189651519E-01 -0.9339581654926E+00 -0.2037120154371E+00  0.5062455402208E+00
-0.3928622350973E-01 -0.9178702509767E+00 -0.1914312977498E+00  0.5303428212686E+00
 0.1896026651987E-01 -0.9058018630183E+00 -0.1773683219427E+00  0.5526335210212E+00
 0.9131163005986E-01 -0.8986927329442E+00 -0.1614762229831E+00  0.5714020985750E+00
 0.1785582724826E+00 -0.8973459617835E+00 -0.1437575400023E+00  0.5845426502393E+00
 0.2809626860776E+00 -0.9023282828300E+00 -0.1242731212023E+00  0.5895815545455E+00
 0.3981287975206E+00 -0.9138808472569E+00 -0.1031504114843E+00  0.5837483156197E+00
 0.5289164994240E+00 -0.9318499243983E+00 -0.8058668619568E-01  0.5641039141357E+00
 0.6714028506528E+00 -0.9556311776238E+00 -0.5684566624127E-01  0.5277192377178E+00
 0.8228915762496E+00 -0.9841537758986E+00 -0.3225244041041E-01  0.4718929902882E+00
 0.9799980186766E+00 -0.1015926505879E+01 -0.7185697547599E-02  0.3943915301869E+00
 0.1138803884923E+01 -0.1049132470167E+01  0.1793428321850E-01  0.2936734099293E+00
 0.1295069703638E+01 -0.1081764897584E+01  0.4266096184662E-01  0.1690600480119E+00
 0.1444450673807E+01 -0.1111780954488E+01  0.6653394485519E-01  0.2084871874601E-01
-0.2970723520979E+00 -0.1238210396513E+01 -0.3070565542978E+00 -0.3609515059888E-01
-0.2748936893560E+00 -0.1248060277983E+01 -0.3045907980066E+00  0.2478705401071E-01
-0.2532829031338E+00 -0.1257609513184E+01 -0.3021784877664E+00  0.7779552556313E-01
-0.2325239763509E+00 -0.1266663603732E+01 -0.2998375204845E+00  0.1229883133463E+00
-0.2129143848695E+00 -0.1275011515272E+01 -0.2975851844626E+00  0.1607348868953E+00
-0.1947612618057E+00 -0.1282427661917E+01 -0.2954377891469E+00  0.1916550311002E+00
-0.1783673546165E+00 -0.1288680974876E+01 -0.2934096702706E+00  0.2165416055200E+00
-0.1640111886372E+00 -0.1293547464973E+01 -0.2915117350660E+00  0.2362817520558E+00
-0.1519268747769E+00 -0.1296822236929E+01 -0.2897498266588E+00  0.2517871567483E+00
-0.1422875210378E+00 -0.1298328102927E+01 -0.2881231290863E+00  0.2639401727484E+00
-0.1351941653872E+00 -0.1297919609305E+01 -0.2866227592094E+00  0.2735580851931E+00
-0.1306702620009E+00 -0.1295482822228E+01 -0.2852306210960E+00  0.2813742355620E+00
-0.1286603169557E+00 -0.1290932262961E+01 -0.2839185202141E+00  0.2880327851562E+00
-0.1290306831187E+00 -0.1284206782444E+01 -0.2826474973244E+00  0.2940930952873E+00
-0.1315705115630E+00 -0.1275266092276E+01 -0.2813673249604E+00  0.3000398332365E+00
-0.1359912399487E+00 -0.1264089274941E+01 -0.2800161071506E+00  0.3062955194359E+00
-0.1419236136491E+00 -0.1250676061958E+01 -0.2785199392718E+00  0.3132329536230E+00
-0.1489115583742E+00 -0.1235051750116E+01 -0.2767926658225E+00  0.3211854005702E+00
-0.1564033676751E+00 -0.1217274970011E+01 -0.2747356716311E+00  0.3304534402117E+00
-0.1637403180839E+00 -0.1197448843522E+01 -0.2722378363778E+00  0.3413072764022E+00
-0.1701436679611E+00 -0.1175735235348E+01 -0.2691757846729E+00  0.3539832968607E+00
-0.1747018258041E+00 -0.1152370254617E+01 -0.2654144200392E+00  0.3686750336589E+00
-0.1763591183567E+00 -0.1127681002396E+01 -0.2608080280369E+00  0.3855172760378E+00
-0.1739084884010E+00 -0.1102099007433E+01 -0.2552015029697E+00  0.4045637488173E+00
-0.1659897039433E+00 -0.1076160719571E+01 -0.2484300884047E+00  0.4257593169326E+00
-0.1510990953462E+00 -0.1050515804676E+01 -0.2403229835856E+00  0.4488988264296E+00
-0.1276183499877E+00 -0.1025945252385E+01 -0.2307127239123E+00  0.4735775326440E+00
-0.9386470320423E-01 -0.1003359665080E+01 -0.2194448769268E+00  0.4991359755208E+00
-0.4816475572129E-01 -0.9837706423751E+00 -0.2063870826947E+00  0.5246029794773E+00
 0.1104631893706E-01 -0.9682368152385E+00 -0.1914381021129E+00  0.5486422709297E+00
 0.8510046269352E-01 -0.9577873615507E+00 -0.1745373823722E+00  0.5695107381766E+00
 0.1749506318130E+00 -0.9533268498992E+00 -0.1556752459370E+00  0.5850398655629E+00
 0.2810115242604E+00 -0.9555273828701E+00 -0.1349031737322E+00  0.5926547731305E+00
 0.4030089299969E+00 -0.9647246335096E+00 -0.1123431423766E+00  0.5894457490046E+00
 0.5398708107008E+00 -0.9808304024585E+00 -0.8819191966571E-01  0.5723028286355E+00
 0.6896655878969E+00 -0.1003263022230E+01 -0.6271948780126E-01  0.5381070751238E+00
 0.8495948308031E+00 -0.1030920751821E+01 -0.3626518474389E-01  0.4839670549742E+00
 0.1016073409544E+01 -0.1062222206586E+01 -0.9229759545889E-02  0.4074802259543E+00
 0.1184895635081E+01 -0.1095206972278E+01  0.1793773282779E-01  0.3069792521261E+00
 0.1351476114757E+01 -0.1127690076490E+01  0.4475720832035E-01  0.1817225717425E+00
 0.1511108441495E+01 -0.1157446408521E+01  0.7073240764877E-01  0.3202483817961E-01
-0.3213672255273E+00 -0.1341737751077E+01 -0.3326210002772E+00 -0.3212069461385E-01
-0.2962503485878E+00 -0.1352814609142E+01 -0.3298129964605E+00  0.2868188679107E-01
-0.2716587519145E+00 -0.1363507335254E+01 -0.3270332223068E+00  0.8152346793583E-01
-0.2480012670131E+00 -0.1373546549656E+01 -0.3243095681665E+00  0.1264586995127E+00
-0.2256824567551E+00 -0.1382661138513E+01 -0.3216687238468E+00  0.1638541488379E+00
-0.2050902274767E+00 -0.1390585521240E+01 -0.3191351544988E+00  0.1943297492891E+00
-0.1865782905438E+00 -0.1397070098300E+01 -0.3167296824885E+00  0.2186828396213E+00
-0.1704476003438E+00 -0.1401891648107E+01 -0.3144678543761E+00  0.2378092460907E+00
-0.1569309328907E+00 -0.1404860763214E+01 -0.3123583438754E+00  0.2526323369958E+00
-0.1461828461198E+00 -0.1405824872855E+01 -0.3104015484203E+00  0.2640474312177E+00
-0.1382753814818E+00 -0.1404666862526E+01 -0.3085884533998E+00  0.2728844203513E+00
-0.1331984663959E+00 -0.1401300403109E+01 -0.3068997784741E+00  0.2798877362139E+00
-0.1308630608569E+00 -0.1395663700031E+01 -0.3053053567269E+00  0.2857106271509E+00
-0.1311049320422E+00 -0.1387713440094E+01 -0.3037636789537E+00  0.2909197141984E+00
-0.1336871899594E+00 -0.1377420455206E+01 -0.3022215335365E+00  0.2960058116223E+00
-0.1383002152406E+00 -0.1364768161304E+01 -0.3006136797883E+00  0.3013975533725E+00
-0.1445582455498E+00 -0.1349754311467E+01 -0.2988625158567E+00  0.3074750929555E+00
-0.1519921536466E+00 -0.1332396801243E+01 -0.2968777954018E+00  0.3145816431679E+00
-0.1600390812367E+00 -0.1312742520957E+01 -0.2945563248280E+00  0.3230315992091E+00
-0.1680291227835E+00 -0.1290879830102E+01 -0.2917817949250E+00  0.3331139925876E+00
-0.1751701006971E+00 -0.1266954352881E+01 -0.2884248950135E+00  0.3450899818720E+00
-0.1805322770244E+00 -0.1241186163081E+01 -0.2843436922580E+00  0.3591843698514E+00
-0.1830344316488E+00 -0.1213888511299E+01 -0.2793845927526E+00  0.3755698153711E+00
-0.1814337354248E+00 -0.1185484233179E+01 -0.2733835977944E+00  0.3943438963038E+00
-0.1743213013389E+00 -0.1156512397454E+01 -0.2661667437247E+00  0.4154995990873E+00
-0.1601289486400E+00 -0.1127639853951E+01 -0.2575537643560E+00  0.4388816506379E+00
-0.1371544961729E+00 -0.1099677551837E+01 -0.2473664132881E+00  0.4641337774156E+00
-0.1036089159966E+00 -0.1073578986217E+01 -0.2354375839510E+00  0.4906388535485E+00
-0.5768863476140E-01 -0.1050413954576E+01 -0.2216205211699E+00  0.5174553466103E+00
 0.2324097274481E-02 -0.1031317056986E+01 -0.2057985950090E+00  0.5432558898098E+00
 0.7793176784038E-01 -0.1017411556554E+01 -0.1878959605425E+00  0.5662768463214E+00
 0.1702651827505E+00 -0.1009710600379E+01 -0.1678890860275E+00  0.5842917540436E+00
 0.2799079393799E+00 -0.1009000697628E+01 -0.1458185538226E+00  0.5946249058193E+00
 0.4067238615291E+00 -0.1015721841629E+01 -0.1217995978350E+00  0.5942218920404E+00
 0.5497221485955E+00 -0.1029860265074E+01 -0.9602762472659E-01  0.5797893573257E+00
 0.7069699410778E+00 -0.1050863152905E+01 -0.6877864339039E-01  0.5479991500603E+00
 0.8755657841555E+00 -0.1077599717129E+01 -0.4040678719685E-01  0.4957452076392E+00
 0.1051713644461E+01 -0.1108394986947E+01 -0.1133626866620E-01  0.4204303676505E+00
 0.1230900293985E+01 -0.1141136209754E+01  0.1795281711363E-01  0.3202395625712E+00
 0.1408165467960E+01 -0.1173446506625E+01  0.4694379296670E-01  0.1943550669318E+00
 0.1578405661301E+01 -0.1202901139566E+01  0.7510090546596E-01  0.4310686809185E-01
-0.3456457501942E+00 -0.1445281852688E+01 -0.3581855259139E+00 -0.2767835593811E-01
-0.3175535846699E+00 -0.1457602828029E+01 -0.3550312878301E+00  0.3302652935092E-01
-0.2899435463653E+00 -0.1469457224616E+01 -0.3518801594398E+00  0.8565377591928E-01
-0.2633494772711E+00 -0.1480500892278E+01 -0.3487700791070E+00  0.1302586559556E+00
-0.2382840994621E+00 -0.1490402285622E+01 -0.3457372821687E+00  0.1672115302419E+00
-0.2152176215932E+00 -0.1498855325531E+01 -0.3428145945331E+00  0.1971404835358E+00
-0.1945562026319E+00 -0.1505591559564E+01 -0.3400295575060E+00  0.2208551736199E+00
-0.1766242648573E+00 -0.1510388636733E+01 -0.3374025853458E+00  0.2392666141073E+00
-0.1616536438012E+00 -0.1513073252524E+01 -0.3349453842561E+00  0.2533143567326E+00
-0.1497801107521E+00 -0.1513518510211E+01 -0.3326597291497E+00  0.2639090358982E+00
-0.1410460161565E+00 -0.1511636955251E+01 -0.3305365992069E+00  0.2718935835907E+00
-0.1354068601453E+00 -0.1507371228138E+01 -0.3285556225526E+00  0.2780224844630E+00
-0.1327392070237E+00 -0.1500684421556E+01 -0.3266847305840E+00  0.2829560632302E+00
-0.1328476537723E+00 -0.1491551938505E+01 -0.3248799232966E+00  0.2872656673295E+00
-0.1354691011383E+00 -0.1479956179981E+01 -0.3230850610381E+00  0.2914455580764E+00
-0.1402732091303E+00 -0.1465884847664E+01 -0.3212316161455E+00  0.2959278719639E+00
-0.1468585843006E+00 -0.1449333136559E+01 -0.3192383489288E+00  0.3010977666582E+00
-0.1547444579499E+00 -0.1430310407753E+01 -0.3170109778643E+00  0.3073064315119E+00
-0.1633587286757E+00 -0.1408850111857E+01 -0.3144417727921E+00  0.3148805676854E+00
-0.1720226470585E+00 -0.1385023571498E+01 -0.3114092483517E+00  0.3241270615329E+00
-0.1799332648083E+00 -0.1358957320339E+01 -0.3077781216157E+00  0.3353314877659E+00
-0.1861455430861E+00 -0.1330851995526E+01 -0.3033995122435E+00  0.3487502797633E+00
-0.1895555339762E+00 -0.1301003107203E+01 -0.2981117326781E+00  0.3645951640059E+00
-0.1888871446357E+00 -0.1269820559585E+01 -0.2917415451914E+00  0.3830097404243E+00
-0.1826846693959E+00 -0.1237841748292E+01 -0.2841052877711E+00  0.4040383115946E+00
-0.1693161611795E+00 -0.1205746705608E+01 -0.2750125774554E+00  0.4275798009409E+00
-0.1469947111971E+00 -0.1174372951408E+01 -0.2642735364591E+00  0.4533320612614E+00
-0.1138219321840E+00 -0.1144714540370E+01 -0.2517072982615E+00  0.4807273925750E+00
-0.6785806749262E-01 -0.1117898775739E+01 -0.2371513721802E+00  0.5088622180900E+00
-0.7222958188666E-02 -0.1095137811405E+01 -0.2204721572039E+00  0.5364269395996E+00
 0.6976962586912E-01 -0.1077653370826E+01 -0.2015767519950E+00  0.5616455869332E+00
 0.1644449012566E+00 -0.1066574509889E+01 -0.1804259244150E+00  0.5822395212184E+00
 0.2775741329165E+00 -0.1062812016310E+01 -0.1570475790188E+00  0.5954334579124E+00
 0.4091781408914E+00 -0.1066921453524E+01 -0.1315486644867E+00  0.5980230724546E+00
 0.5583636916052E+00 -0.1078974265747E+01 -0.1041221163799E+00  0.5865186658814E+00
 0.7232068877431E+00 -0.1098454584867E+01 -0.7504954054318E-01  0.5573621182933E+00
 0.9007041650022E+00 -0.1124205817947E+01 -0.4470033125508E-01  0.5072061549400E+00
 0.1086838082838E+01 -0.1154456265712E+01 -0.1352363677620E-01  0.4332307748373E+00
 0.1276765486126E+01 -0.1186930877183E+01  0.1796692205632E-01  0.3334487985389E+00
 0.1465118287831E+01 -0.1219044830549E+01  0.4921469218972E-01  0.2069509140612E+00
 0.1646355710111E+01 -0.1248153602436E+01  0.7964042272162E-01  0.5407893794161E-01
-0.3699079088574E+00 -0.1548867480219E+01 -0.3837550835336E+00 -0.2276088872918E-01
-0.3387922085872E+00 -0.1562454146044E+01 -0.3802492765924E+00  0.3782842578598E-01
-0.3081157518642E+00 -0.1575491796272E+01 -0.3767215152409E+00  0.9019411721270E-01
-0.2785387463955E+00 -0.1587560981261E+01 -0.3732199510928E+00  0.1343959280153E+00
-0.2506839206053E+00 -0.1598269068733E+01 -0.3697906033779E+00  0.1708146596721E+00
-0.2251055384545E+00 -0.1607269075082E+01 -0.3664749281681E+00  0.2000946314919E+00
-0.2022633997190E+00 -0.1614273811440E+01 -0.3633074476456E+00  0.2230658338421E+00
-0.1825057864224E+00 -0.1619062538153E+01 -0.3603136702842E+00  0.2406611778979E+00
-0.1660631852469E+00 -0.1621479346450E+01 -0.3575085116666E+00  0.2538410801750E+00
-0.1530515613112E+00 -0.1621424663121E+01 -0.3548952501749E+00  0.2635339514245E+00
-0.1434822310634E+00 -0.1618842453541E+01 -0.3524649421731E+00  0.2705962232790E+00
-0.1372749019920E+00 -0.1613705964918E+01 -0.3501961786003E+00  0.2757913404850E+00
-0.1342706111813E+00 -0.1606004509146E+01 -0.3480550292519E+00  0.2797845752580E+00
-0.1342420726784E+00 -0.1595733111781E+01 -0.3459950420477E+00  0.2831493075818E+00
-0.1368997965743E+00 -0.1582886156210E+01 -0.3439571956822E+00  0.2863803602020E+00
-0.1418931249040E+00 -0.1567455517832E+01 -0.3418697336414E+00  0.2899105613783E+00
-0.1488060289741E+00 -0.1549433181202E+01 -0.3396478470964E+00  0.2941275145257E+00
-0.1571476666157E+00 -0.1528818766886E+01 -0.3371932917249E+00  0.2993881973288E+00
-0.1663387893057E+00 -0.1505630511962E+01 -0.3343938652364E+00  0.3060298826072E+00
-0.1756943609255E+00 -0.1479920342619E+01 -0.3311229456431E+00  0.3143761063580E+00
-0.1844035851300E+00 -0.1451792740817E+01 -0.3272392700656E+00  0.3247362695115E+00
-0.1915092744323E+00 -0.1421425348382E+01 -0.3225869293698E+00  0.3373985686017E+00
-0.1958879419287E+00 -0.1389091816444E+01 -0.3169959563981E+00  0.3526147955264E+00
-0.1962331849473E+00 -0.1355184553867E+01 -0.3102835523864E+00  0.3705765980461E+00
-0.1910448403258E+00 -0.1320234554563E+01 -0.3022558834818E+00  0.3913827443276E+00
-0.1786285365729E+00 -0.1284930475405E+01 -0.2927118067574E+00  0.4149907674040E+00
-0.1571124209939E+00 -0.1250132335519E+01 -0.2814489554966E+00  0.4411585898426E+00
-0.1244862681103E+00 -0.1216871630719E+01 -0.2682715837633E+00  0.4693755608894E+00
-0.7866858719814E-01 -0.1186331667196E+01 -0.2530000546488E+00  0.4987851874030E+00
-0.1760742796077E-01 -0.1159803042797E+01 -0.2354820976605E+00  0.5281056008015E+00
 0.6058086574405E-01 -0.1138609935042E+01 -0.2156058170724E+00  0.5555579986382E+00
 0.1574337812067E+00 -0.1124004786006E+01 -0.1933142038405E+00  0.5788186812649E+00
 0.2739312467845E+00 -0.1117033375002E+01 -0.1686204281561E+00  0.5950151444082E+00
 0.4102731124250E+00 -0.1118379639653E+01 -0.1416213075560E+00  0.6007884657570E+00
 0.5656835775107E+00 -0.1128213080820E+01 -0.1125059023383E+00  0.5924392992165E+00
 0.7382612349239E+00 -0.1146065006358E+01 -0.8156075550220E-01  0.5661573835545E+00
 0.9249034288147E+00 -0.1170757829099E+01 -0.4917088078950E-01  0.5183252327737E+00
 0.1121360902440E+01 -0.1200420354916E+01 -0.1581189073074E-01  0.4458687397714E+00
 0.1322435930407E+01 -0.1232604149902E+01  0.1796635636874E-01  0.3466010871251E+00
 0.1522315445640E+01 -0.1264498012597E+01  0.5156348737706E-01  0.2195032837209E+00
 0.1714976036441E+01 -0.1293214455703E+01  0.8435231740454E-01  0.6492389091149E-01
-0.3941537086060E+00 -0.1652519402267E+01 -0.4093346282742E+00 -0.1735921049794E-01
-0.3599550529023E+00 -0.1667397730329E+01 -0.4054705626882E+00  0.4309662256149E-01
-0.3261537812281E+00 -0.1681643579969E+01 -0.4015594782232E+00  0.9515323839857E-01
-0.2935390678347E+00 -0.1694761006033E+01 -0.3976600206991E+00  0.1388786246374E+00
-0.2628463235057E+00 -0.1706295306160E+01 -0.3938283318016E+00  0.1746707704490E+00
-0.2347158833480E+00 -0.1715858272195E+01 -0.3901148369218E+00  0.2031985421658E+00
-0.2096621048999E+00 -0.1723144539330E+01 -0.3865613346061E+00  0.2253205574000E+00
-0.1880568642507E+00 -0.1727936378261E+01 -0.3831986542125E+00  0.2419985884027E+00
-0.1701280603033E+00 -0.1730097275126E+01 -0.3800450727491E+00  0.2542187671069E+00
-0.1559700149306E+00 -0.1729557250771E+01 -0.3771054587595E+00  0.2629298038593E+00
-0.1455609865572E+00 -0.1726293912234E+01 -0.3743709853368E+00  0.2690020509777E+00
-0.1387830345530E+00 -0.1720313037195E+01 -0.3718192198901E+00  0.2732067050945E+00
-0.1354402384931E+00 -0.1711631624811E+01 -0.3694143781655E+00  0.2762116922922E+00
-0.1352725787031E+00 -0.1700265258526E+01 -0.3671075729161E+00  0.2785895407925E+00
-0.1379639745711E+00 -0.1686220684037E+01 -0.3648369371581E+00  0.2808325481784E+00
-0.1431439153802E+00 -0.1669493778276E+01 -0.3625275441334E+00  0.2833712187977E+00
-0.1503828485838E+00 -0.1650072598383E+01 -0.3600910947592E+00  0.2865928347481E+00
-0.1591815783986E+00 -0.1627945758448E+01 -0.3574254726955E+00  0.2908577580782E+00
-0.1689559870858E+00 -0.1603114451396E+01 -0.3544140929776E+00  0.2965118723813E+00
-0.1790175231140E+00 -0.1575608783433E+01 -0.3509252665387E+00  0.3038939188107E+00
-0.1885507196882E+00 -0.1545508135225E+01 -0.3468117761505E+00  0.3133362848636E+00
-0.1965897025687E+00 -0.1512963458479E+01 -0.3419106373045E+00  0.3251588111910E+00
-0.2019950167610E+00 -0.1478222213801E+01 -0.3360434511198E+00  0.3396541166177E+00
-0.2034333757600E+00 -0.1441654429620E+01 -0.3290175659788E+00  0.3570637306608E+00
-0.1993630901711E+00 -0.1403779520081E+01 -0.3206285268282E+00  0.3775439321107E+00
-0.1880293714850E+00 -0.1365289616045E+01 -0.3106638021352E+00  0.4011153096243E+00
-0.1674759442851E+00 -0.1327062415632E+01 -0.2989076764376E+00  0.4276020270542E+00
-0.1355790031546E+00 -0.1290162851479E+01 -0.2851483751757E+00  0.4565585990094E+00
-0.9011036697394E-01 -0.1255827785129E+01 -0.2691876344318E+00  0.4871855660443E+00
-0.2883714559554E-01 -0.1225426297852E+01 -0.2508526924275E+00  0.5182399283593E+00
 0.5033582648548E-01 -0.1200388480802E+01 -0.2300105342907E+00  0.5479510339398E+00
 0.1491774690214E+00 -0.1182097676238E+01 -0.2065840445216E+00  0.5739588521206E+00
 0.2688997371867E+00 -0.1171746185099E+01 -0.1805692922732E+00  0.5932974542951E+00
 0.4099069175632E+00 -0.1170160771834E+01 -0.1520507731198E+00  0.6024494896500E+00
 0.5715644892796E+00 -0.1177624116603E+01 -0.1212119272709E+00  0.5974925060542E+00
 0.7520108541947E+00 -0.1193727350215E+01 -0.8834330052058E-01  0.5743404649136E+00
 0.9480498241503E+00 -0.1217278539388E+01 -0.5384574384996E-01  0.5290739075081E+00
 0.1155190254152E+01 -0.1246304770782E+01 -0.1822290359754E-01  0.4583297099852E+00
 0.1367852926929E+01 -0.1278172040195E+01  0.1793617761408E-01  0.3596900912248E+00
 0.1579738123710E+01 -0.1309821806208E+01  0.5398326430480E-01  0.2320051361198E+00
 0.1784288640420E+01 -0.1338097139090E+01  0.8923830159560E-01  0.7562328621831E-01
-0.4183831534618E+00 -0.1756262532467E+01 -0.4349291436667E+00 -0.1146240515107E-01
-0.3810308255785E+00 -0.1772462899386E+01 -0.4306987514108E+00  0.4884176449344E-01
-0.3440357506552E+00 -0.1787945230753E+01 -0.4263962026355E+00  0.1005409473493E+00
-0.3083199958482E+00 -0.1802135183038E+01 -0.4220910420668E+00  0.1437151752471E+00
-0.2747352238041E+00 -0.1814514648164E+01 -0.4178499806200E+00  0.1787866256763E+00
-0.2440101502953E+00 -0.1824653959807E+01 -0.4137328281855E+00  0.2064574107994E+00
-0.2167143248852E+00 -0.1832230606124E+01 -0.4097889923082E+00  0.2276234656433E+00
-0.1932422603804E+00 -0.1837031963866E+01 -0.4060548509000E+00  0.2432826901999E+00
-0.1738171519715E+00 -0.1838943659440E+01 -0.4025521682808E+00  0.2544519408456E+00
-0.1585089789238E+00 -0.1837928230937E+01 -0.3992874479220E+00  0.2621027618288E+00
-0.1472602021052E+00 -0.1833999629615E+01 -0.3962519722487E+00  0.2671197416501E+00
-0.1399128654687E+00 -0.1827198381198E+01 -0.3934222551958E+00  0.2702804415700E+00
-0.1362323512832E+00 -0.1817570775495E+01 -0.3907606311785E+00  0.2722529345210E+00
-0.1359249136201E+00 -0.1805153914396E+01 -0.3882157713881E+00  0.2736057917645E+00
-0.1386476617779E+00 -0.1789967250050E+01 -0.3857229881133E+00  0.2748254836702E+00
-0.1440107592752E+00 -0.1772010430576E+01 -0.3832042436804E+00  0.2763369666943E+00
-0.1515723539147E+00 -0.1751266812147E+01 -0.3805678388833E+00  0.2785242281822E+00
-0.1608267628754E+00 -0.1727712690940E+01 -0.3777078963914E+00  0.2817483980291E+00
-0.1711874519691E+00 -0.1701330348540E+01 -0.3745035656824E+00  0.2863617834490E+00
-0.1819653320037E+00 -0.1672125608507E+01 -0.3708181936277E+00  0.2927166414159E+00
-0.1923436921748E+00 -0.1640149639694E+01 -0.3664986718351E+00  0.3011672425244E+00
-0.2013517413594E+00 -0.1605522900135E+01 -0.3613749336838E+00  0.3120646756845E+00
-0.2078380163194E+00 -0.1568462138560E+01 -0.3552600362697E+00  0.3257428730194E+00
-0.2104462656123E+00 -0.1529309809809E+01 -0.3479512202692E+00  0.3424948338201E+00
-0.2075968155782E+00 -0.1488568116826E+01 -0.3392329915358E+00  0.3625372202795E+00
-0.1974772002863E+00 -0.1446926892430E+01 -0.3288808234440E+00  0.3859580790729E+00
-0.1780480790716E+00 -0.1405275882471E+01 -0.3166647970272E+00  0.4126541396698E+00
-0.1470711953230E+00 -0.1364708462401E+01 -0.3023559360503E+00  0.4422536352603E+00
-0.1021674766864E+00 -0.1326511508705E+01 -0.2857358013361E+00  0.4740249032718E+00
-0.4091434525019E-01 -0.1292131591515E+01 -0.2666091913259E+00  0.5067762003254E+00
 0.3900922523389E-01 -0.1263107448689E+01 -0.2448196483391E+00  0.5387576667437E+00
 0.1396240124161E+00 -0.1240960717128E+01 -0.2202673442246E+00  0.5675835768482E+00
 0.2623998487991E+00 -0.1227042503884E+01 -0.1929285338919E+00  0.5902001871469E+00
 0.4079745596213E+00 -0.1222338581801E+01 -0.1628728068630E+00  0.6029291176848E+00
 0.5758832501941E+00 -0.1227262448162E+01 -0.1302758415348E+00  0.6016114478530E+00
 0.7643258692375E+00 -0.1241480472898E+01 -0.9543092215422E-01  0.5818602468562E+00
 0.9700213680760E+00 -0.1263795219565E+01 -0.5875477117322E-01  0.5394191945081E+00
 0.1188227304911E+01 -0.1292130605650E+01 -0.2078066045752E-01  0.4705969431492E+00
 0.1412953735677E+01 -0.1323653793136E+01  0.1785998877424E-01  0.3727088946865E+00
 0.1637367706230E+01 -0.1355035241571E+01  0.5646649377319E-01  0.2444492598848E+00
 0.1854320553004E+01 -0.1382818460113E+01  0.9430041998351E-01  0.8615743936952E-01
-0.4425962181259E+00 -0.1860122099870E+01 -0.4605436704619E+00 -0.5057707230658E-02
-0.4020079592434E+00 -0.1877679334690E+01 -0.4559374655807E+00  0.5507610351610E-01
-0.3617392251233E+00 -0.1894429755296E+01 -0.4512338028078E+00  0.1063680952875E+00
-0.3228503378272E+00 -0.1909717956276E+01 -0.4465136654742E+00  0.1489142702395E+00
-0.2863137516771E+00 -0.1922960711049E+01 -0.4418548991294E+00  0.1831684134493E+00
-0.2529491888015E+00 -0.1933686761943E+01 -0.4373271966655E+00  0.2098751371492E+00
-0.2233817138054E+00 -0.1941557992369E+01 -0.4329879476868E+00  0.2299769019375E+00
-0.1980267676594E+00 -0.1946369735144E+01 -0.4288793069516E+00  0.2445153571973E+00
-0.1770997824247E+00 -0.1948033300352E+01 -0.4250266228888E+00  0.2545432370837E+00
-0.1606427776578E+00 -0.1946547353771E+01 -0.4214380325658E+00  0.2610574079447E+00
-0.1485589253166E+00 -0.1941965388981E+01 -0.4181048690897E+00  0.2649568312568E+00
-0.1406473572776E+00 -0.1934365190164E+01 -0.4150025156723E+00  0.2670237988612E+00
-0.1366327052174E+00 -0.1923824066926E+01 -0.4120913605694E+00  0.2679237596518E+00
-0.1361863657209E+00 -0.1910401614255E+01 -0.4093176020945E+00  0.2682179716282E+00
-0.1389384037681E+00 -0.1894130291798E+01 -0.4066137451722E+00  0.2683835476784E+00
-0.1444802481561E+00 -0.1875013229996E+01 -0.4038987016489E+00  0.2688364632390E+00
-0.1523590824178E+00 -0.1853028261748E+01 -0.4010774748097E+00  0.2699542362197E+00
-0.1620647442752E+00 -0.1828138024270E+01 -0.3980405596403E+00  0.2720959412053E+00
-0.1730109017699E+00 -0.1800304007099E+01 -0.3946629876548E+00  0.2756178982693E+00
-0.1845111016275E+00 -0.1769505278136E+01 -0.3908032817762E+00  0.2808839422201E+00
-0.1957510540771E+00 -0.1735761655655E+01 -0.3863025477028E+00  0.2882688463047E+00
-0.2057591220064E+00 -0.1699159225709E+01 -0.3809836752202E+00  0.2981542494965E+00
-0.2133761832034E+00 -0.1659879345452E+01 -0.3746511113137E+00  0.3109155673993E+00
-0.2172274468867E+00 -0.1618231417985E+01 -0.3670917784445E+00  0.3268985521847E+00
-0.2156994421376E+00 -0.1574694357156E+01 -0.3580787651946E+00  0.3463828735830E+00
-0.2069255607550E+00 -0.1529949285550E+01 -0.3473749744373E+00  0.3695283056969E+00
-0.1887856921615E+00 -0.1484891498621E+01 -0.3347354431445E+00  0.3963105281628E+00
-0.1589272738080E+00 -0.1440636726098E+01 -0.3199128047483E+00  0.4264404065622E+00
-0.1148170840777E+00 -0.1398517065031E+01 -0.3026668343319E+00  0.4592656216789E+00
-0.5383471798742E-01 -0.1360054333717E+01 -0.2827778145546E+00  0.4936593781376E+00
 0.2658114700319E-01 -0.1326897686254E+01 -0.2600633117253E+00  0.5279070871335E+00
 0.1287247461013E+00 -0.1300714118787E+01 -0.2343978780299E+00  0.5596101863819E+00
 0.2543522159142E+00 -0.1283026471926E+01 -0.2057348542680E+00  0.5856349694914E+00
 0.4043680552029E+00 -0.1274997495232E+01 -0.1741258906006E+00  0.6021411098215E+00
 0.5785104400673E+00 -0.1277191917569E+01 -0.1397362975826E+00  0.6047202811685E+00
 0.7750677910518E+00 -0.1289369960189E+01 -0.1028604353602E+00  0.5886580970561E+00
 0.9906867113866E+00 -0.1310340181344E+01 -0.6393069494417E-01  0.5493229796437E+00
 0.1220365145357E+01 -0.1337922962818E+01 -0.2351156384248E-01  0.4826511220871E+00
 0.1457670830515E+01 -0.1369072324586E+01  0.1771970144990E-01  0.3856498958712E+00
 0.1695185589092E+01 -0.1400161138722E+01  0.5900489095315E-01  0.2568283427016E+00
 0.1925104313824E+01 -0.1427399197039E+01  0.9954102484025E-01  0.9650549902380E-01
-0.4667928221943E+00 -0.1964123838748E+01 -0.4861833394332E+00  0.1869533476600E-02
-0.4228744522366E+00 -0.1983077314320E+01 -0.4811903604817E+00  0.6181352079134E-01
-0.3792409474727E+00 -0.2001130760499E+01 -0.4760743486885E+00  0.1126465581234E+00
-0.3370978264694E+00 -0.2017544216658E+01 -0.4709284156429E+00  0.1544847834838E+00
-0.2975439357428E+00 -0.2031667223132E+01 -0.4658422387166E+00  0.1878216096846E+00
-0.2614929586535E+00 -0.2042986927470E+01 -0.4608959840926E+00  0.2134541443370E+00
-0.2296254332808E+00 -0.2051151731970E+01 -0.4561554398475E+00  0.2323812313941E+00
-0.2023751814014E+00 -0.2055968608619E+01 -0.4516687647345E+00  0.2456962980712E+00
-0.1799457809083E+00 -0.2057378957129E+01 -0.4474649542751E+00  0.2544932331440E+00
-0.1623466902930E+00 -0.2055421905752E+01 -0.4435537258185E+00  0.2597966007959E+00
-0.1494375118820E+00 -0.2050194193413E+01 -0.4399263476143E+00  0.2625196123731E+00
-0.1409710270851E+00 -0.2041813655591E+01 -0.4365569430404E+00  0.2634473367515E+00
-0.1366287539952E+00 -0.2030390457073E+01 -0.4334038486719E+00  0.2632395119330E+00
-0.1360459723099E+00 -0.2016007655489E+01 -0.4304107319735E+00  0.2624464461119E+00
-0.1388254637446E+00 -0.1998710963337E+01 -0.4275072917867E+00  0.2615321261779E+00
-0.1445405830417E+00 -0.1978506643138E+01 -0.4246094515632E+00  0.2608999069035E+00
-0.1527289954812E+00 -0.1955366141091E+01 -0.4216190335970E+00  0.2609174695139E+00
-0.1628782015094E+00 -0.1929237082269E+01 -0.4184230629906E+00  0.2619388126759E+00
-0.1744048449763E+00 -0.1900058295875E+01 -0.4148926343527E+00  0.2643216404156E+00
-0.1866284640436E+00 -0.1867779643652E+01 -0.4108816276618E+00  0.2684391771716E+00
-0.1987410789317E+00 -0.1832386464359E+01 -0.4062255147114E+00  0.2746850297750E+00
-0.2097745656649E+00 -0.1793926560135E+01 -0.4007402311315E+00  0.2834703616421E+00
-0.2185668749422E+00 -0.1752541099160E+01 -0.3942216006949E+00  0.2952118834595E+00
-0.2237296144065E+00 -0.1708500704083E+01 -0.3864460694564E+00  0.3103090152883E+00
-0.2236203741369E+00 -0.1662254494992E+01 -0.3771749794460E+00  0.3291067252588E+00
-0.2163227921509E+00 -0.1614467825760E+01 -0.3661581290384E+00  0.3518405485179E+00
-0.1996393232807E+00 -0.1566034130204E+01 -0.3531346959590E+00  0.3785714476126E+00
-0.1711044181861E+00 -0.1518084206401E+01 -0.3378377299515E+00  0.4091020935407E+00
-0.1280286049788E+00 -0.1471989151400E+01 -0.3200035560441E+00  0.4428717832091E+00
-0.6758637401521E-01 -0.1429342303235E+01 -0.2993857399113E+00  0.4788336976263E+00
 0.1303816891527E-01 -0.1391903751679E+01 -0.2757731206621E+00  0.5153250041909E+00
 0.1164353370859E+00 -0.1361492312471E+01 -0.2490113987876E+00  0.5499497215827E+00
 0.2446786192129E+00 -0.1339815956166E+01 -0.2190274706544E+00  0.5795047608295E+00
 0.3989766990934E+00 -0.1328234186527E+01 -0.1858515002562E+00  0.5999891580698E+00
 0.5793100480503E+00 -0.1327486435155E+01 -0.1496352796507E+00  0.6067331003863E+00
 0.7840885988414E+00 -0.1337449093351E+01 -0.1106721005510E+00  0.5946668330331E+00
 0.1009903877315E+01 -0.1356951449283E+01 -0.6940951542786E-01  0.5587412269121E+00
 0.1251487544209E+01 -0.1383711469779E+01 -0.2644478550796E-01  0.4944699191615E+00
 0.1501931020822E+01 -0.1414454718208E+01  0.1749526078353E-01  0.3985047028816E+00
 0.1753172912271E+01 -0.1445226664542E+01  0.6158925046340E-01  0.2691350693185E+00
 0.1996678460473E+01 -0.1471864735907E+01  0.1049627464772E+00  0.1066455627334E+00
-0.4909728041611E+00 -0.2068294202481E+01 -0.5118534089556E+00  0.9335908470731E-02
-0.4436176972777E+00 -0.2088687974277E+01 -0.5064611418577E+00  0.6906956298751E-01
-0.3965165445998E+00 -0.2108082729718E+01 -0.5009198623278E+00  0.1193892163673E+00
-0.3510287651248E+00 -0.2125649543596E+01 -0.4953356691253E+00  0.1604356743335E+00
-0.3083863641344E+00 -0.2140668182912E+01 -0.4898109167080E+00  0.1927508048335E+00
-0.2696002715687E+00 -0.2152584374367E+01 -0.4844369364058E+00  0.2171951544372E+00
-0.2354060106214E+00 -0.2161035838623E+01 -0.4792883769908E+00  0.2348345996703E+00
-0.2062522784373E+00 -0.2165845805325E+01 -0.4744196238219E+00  0.2468228300613E+00
-0.1823255644286E+00 -0.2166991110007E+01 -0.4698633418887E+00  0.2543002576977E+00
-0.1635971028138E+00 -0.2164556441130E+01 -0.4656307157271E+00  0.2583213285529E+00
-0.1498778185627E+00 -0.2158685993080E+01 -0.4617127692086E+00  0.2598130292700E+00
-0.1408701568054E+00 -0.2149540706275E+01 -0.4580821794420E+00  0.2595608542936E+00
-0.1362098622171E+00 -0.2137265511577E+01 -0.4546950815344E+00  0.2582153746403E+00
-0.1354947289303E+00 -0.2121967865654E+01 -0.4514925256446E+00  0.2563120048556E+00
-0.1383000279319E+00 -0.2103706905314E+01 -0.4484013933309E+00  0.2542975929066E+00
-0.1441817791658E+00 -0.2082491608177E+01 -0.4453346841046E+00  0.2525590338371E+00
-0.1526696867886E+00 -0.2058286136782E+01 -0.4421911713032E+00  0.2514506253884E+00
-0.1632511835080E+00 -0.2031021757930E+01 -0.4388545948271E+00  0.2513180852819E+00
-0.1753488041958E+00 -0.2000612813600E+01 -0.4351923300441E+00  0.2525176631747E+00
-0.1882915985677E+00 -0.1966977568458E+01 -0.4310538398284E+00  0.2554295358622E+00
-0.2012819902807E+00 -0.1930063806298E+01 -0.4262691656677E+00  0.2604641765529E+00
-0.2133599967484E+00 -0.1889877148311E+01 -0.4206474352800E+00  0.2680608962418E+00
-0.2233657411167E+00 -0.1846513709145E+01 -0.4139758962211E+00  0.2786771110146E+00
-0.2299026750799E+00 -0.1800199398742E+01 -0.4060204208146E+00  0.2927663893930E+00
-0.2313049952017E+00 -0.1751346646626E+01 -0.3965303342742E+00  0.3107408632881E+00
-0.2256118770347E+00 -0.1700597342734E+01 -0.3852418496942E+00  0.3329155102097E+00
-0.2105528158301E+00 -0.1648834702022E+01 -0.3718775091119E+00  0.3594427232122E+00
-0.1835519348066E+00 -0.1597196011023E+01 -0.3561495944730E+00  0.3902262804601E+00
-0.1417628084856E+00 -0.1547083540004E+01 -0.3377692747311E+00  0.4248100028375E+00
-0.8214870835061E-01 -0.1500156660123E+01 -0.3164610784103E+00  0.4622434139161E+00
-0.1625367246714E-02 -0.1458285325508E+01 -0.2919821429017E+00  0.5009340829162E+00
 0.1027170151646E+00 -0.1423445678002E+01 -0.2641457365035E+00  0.5385069380280E+00
 0.2333029314188E+00 -0.1397544429977E+01 -0.2328483031814E+00  0.5717033631207E+00
 0.3916874742510E+00 -0.1382159395017E+01 -0.1980943871050E+00  0.5963659456470E+00
 0.5781391797073E+00 -0.1378231523822E+01 -0.1600184712074E+00  0.6075527230785E+00
 0.7912297614674E+00 -0.1385780004762E+01 -0.1189100504308E+00  0.5998095104764E+00
 0.1027518848480E+01 -0.1403673559990E+01 -0.7523094342299E-01  0.5676230471510E+00
 0.1281467519017E+01 -0.1429530877030E+01 -0.2961267204378E-01  0.5060274948265E+00
 0.1545654420293E+01 -0.1459832790690E+01  0.1716432617632E-01  0.4112640219864E+00
 0.1811310201570E+01 -0.1490263945059E+01  0.6420925225894E-01  0.2813622381270E+00
 0.2069088021327E+01 -0.1516245746349E+01  0.1105684566431E+00  0.1165548296578E+00
-0.5151358943920E+00 -0.2172660606350E+01 -0.5375593081586E+00  0.1736003040031E-01
-0.4642242923933E+00 -0.2194543600462E+01 -0.5317535864948E+00  0.7686149358054E-01
-0.4135402025664E+00 -0.2215321326942E+01 -0.5257723137363E+00  0.1266099322713E+00
-0.3646076379301E+00 -0.2234070464376E+01 -0.5197356282059E+00  0.1667758652002E+00
-0.3187998169820E+00 -0.2249998018926E+01 -0.5137595748371E+00  0.1979594890306E+00
-0.2772285178689E+00 -0.2262508717989E+01 -0.5079474547406E+00  0.2210969155341E+00
-0.2406831969198E+00 -0.2271233201768E+01 -0.5023832872237E+00  0.2373326472229E+00
-0.2096228074581E+00 -0.2276016640203E+01 -0.4971278969401E+00  0.2478896198217E+00
-0.1842102355933E+00 -0.2276877682258E+01 -0.4922175909049E+00  0.2539601818002E+00
-0.1643716779405E+00 -0.2273952475629E+01 -0.4876648379807E+00  0.2566305565267E+00
-0.1498634114479E+00 -0.2267437379894E+01 -0.4834601654724E+00  0.2568405755143E+00
-0.1403330147799E+00 -0.2257539719744E+01 -0.4795745540511E+00  0.2553733246656E+00
-0.1353675260961E+00 -0.2244441135035E+01 -0.4759617393187E+00  0.2528663288933E+00
-0.1345258042565E+00 -0.2228274347065E+01 -0.4725600373059E+00  0.2498358342101E+00
-0.1373554162283E+00 -0.2209111990547E+01 -0.4692934883481E+00  0.2467072913213E+00
-0.1433958774062E+00 -0.2186965266698E+01 -0.4660722357658E+00  0.2438471096942E+00
-0.1521706003976E+00 -0.2161790131655E+01 -0.4627921533067E+00  0.2415924953705E+00
-0.1631693387552E+00 -0.2133500175989E+01 -0.4593339097935E+00  0.2402775131122E+00
-0.1758235594972E+00 -0.2101983501113E+01 -0.4555614189104E+00  0.2402539229160E+00
-0.1894754876393E+00 -0.2067124484611E+01 -0.4513200011752E+00  0.2419061719307E+00
-0.2033422238337E+00 -0.2028830382618E+01 -0.4464345279428E+00  0.2456593276557E+00
-0.2164767984478E+00 -0.1987060809388E+01 -0.4407075281342E+00  0.2519790989286E+00
-0.2277269503585E+00 -0.1941861955260E+01 -0.4339177875896E+00  0.2613625744435E+00
-0.2356939132623E+00 -0.1893408942565E+01 -0.4258205775106E+00  0.2743174491449E+00
-0.2386947263383E+00 -0.1842070273022E+01 -0.4161530060732E+00  0.2913243598845E+00
-0.2347303347954E+00 -0.1788456069281E+01 -0.4046372868448E+00  0.3127809255125E+00
-0.2214629824620E+00 -0.1733430009511E+01 -0.3909786042207E+00  0.3389367758302E+00
-0.1962106363680E+00 -0.1678125909973E+01 -0.3748673148541E+00  0.3698060627893E+00
-0.1559708773222E+00 -0.1623967598415E+01 -0.3559877004521E+00  0.4050505411194E+00
-0.9749116003833E-01 -0.1572672937209E+01 -0.3340328244270E+00  0.4438337390861E+00
-0.1740591046516E-01 -0.1526218684491E+01 -0.3087249235916E+00  0.4846545581548E+00
 0.8753802698756E-01 -0.1486742423961E+01 -0.2798408835646E+00  0.5251804333963E+00
 0.2201523002283E+00 -0.1456363083482E+01 -0.2472421603348E+00  0.5621149608738E+00
 0.3823856533584E+00 -0.1436900011119E+01 -0.2109028746949E+00  0.5911521249297E+00
 0.5748478456550E+00 -0.1429526117969E+01 -0.1709356570099E+00  0.6070692981410E+00
 0.7963211928705E+00 -0.1434435023041E+01 -0.1276227679358E+00  0.6039979958241E+00
 0.1043363960791E+01 -0.1450558470467E+01 -0.8143890314873E-01  0.5759095897305E+00
 0.1310165665007E+01 -0.1475421714380E+01 -0.3305121036697E-01  0.5172939051428E+00
 0.1588753204887E+01 -0.1505243701065E+01  0.1670190101322E-01  0.4239175223654E+00
 0.1869576859549E+01 -0.1535310710170E+01  0.6685323087201E-01  0.2935028776995E+00
 0.2142384929341E+01 -0.1560578871904E+01  0.1163612132214E+00  0.1262097720535E+00
-0.5392816855398E+00 -0.2277251706774E+01 -0.5633066868567E+00  0.2596263627388E-01
-0.4846798295961E+00 -0.2300677965691E+01 -0.5570715673584E+00  0.8520835951785E-01
-0.4302843031807E+00 -0.2322883747048E+01 -0.5506336182508E+00  0.1343235214072E+00
-0.3777966778454E+00 -0.2342844751270E+01 -0.5441282939313E+00  0.1735140888455E+00
-0.3287408666938E+00 -0.2359691771641E+01 -0.5376865356791E+00  0.2034497880588E+00
-0.2843333790465E+00 -0.2372789304375E+01 -0.5314245446031E+00  0.2251558730223E+00
-0.2454158295621E+00 -0.2381765475519E+01 -0.5254362688459E+00  0.2398681738541E+00
-0.2124514969042E+00 -0.2386494300730E+01 -0.5197891672724E+00  0.2488883887509E+00
-0.1855717036114E+00 -0.2387043755902E+01 -0.5145230995696E+00  0.2534661906890E+00
-0.1646495473473E+00 -0.2383608183797E+01 -0.5096515538233E+00  0.2547210690253E+00
-0.1493797918201E+00 -0.2376441297956E+01 -0.5051642254827E+00  0.2536041941742E+00
-0.1393500891655E+00 -0.2365800261000E+01 -0.5010300774991E+00  0.2508928354002E+00
-0.1340956009477E+00 -0.2351905338713E+01 -0.4972001953410E+00  0.2472071160952E+00
-0.1331347587114E+00 -0.2334915263845E+01 -0.4936100118666E+00  0.2430394889132E+00
-0.1359872958384E+00 -0.2314916114910E+01 -0.4901806894539E+00  0.2387895091362E+00
-0.1421771601908E+00 -0.2291920740808E+01 -0.4868195874540E+00  0.2347989073320E+00
-0.1512232567849E+00 -0.2265875950992E+01 -0.4834198487588E+00  0.2313839522473E+00
-0.1626201580044E+00 -0.2236676393310E+01 -0.4798593174133E+00  0.2288635390456E+00
-0.1758114116681E+00 -0.2204182284265E+01 -0.4759987462795E+00  0.2275817223594E+00
-0.1901562007610E+00 -0.2168241970835E+01 -0.4716796413478E+00  0.2279243009241E+00
-0.2048907272051E+00 -0.2128719366331E+01 -0.4667220256620E+00  0.2303283562576E+00
-0.2190861164637E+00 -0.2085524386808E+01 -0.4609221075226E+00  0.2352838540118E+00
-0.2316034766858E+00 -0.2038648492908E+01 -0.4540504006847E+00  0.2433260401052E+00
-0.2410482256447E+00 -0.1988209877473E+01 -0.4458516272673E+00  0.2550161429900E+00
-0.2457271602387E+00 -0.1934525607674E+01 -0.4360505600802E+00  0.2709040177850E+00
-0.2436101909566E+00 -0.1878165178675E+01 -0.4243550802497E+00  0.2914724986550E+00
-0.2322993339016E+00 -0.1819962461973E+01 -0.4104523652911E+00  0.3170737371435E+00
-0.2090122550680E+00 -0.1761036399704E+01 -0.3940097368255E+00  0.3478412894795E+00
-0.1705934514371E+00 -0.1702820793996E+01 -0.3746828546699E+00  0.3835685731982E+00
-0.1135718845782E+00 -0.1647082082104E+01 -0.3521307985836E+00  0.4235519820865E+00
-0.3428908858015E-01 -0.1595898319023E+01 -0.3260374863791E+00  0.4664050451772E+00
 0.7087532862756E-01 -0.1551570718839E+01 -0.2961390824551E+00  0.5098629211185E+00
 0.2051586022920E+00 -0.1516443282221E+01 -0.2622569398936E+00  0.5506137093500E+00
 0.3709556356507E+00 -0.1492601566367E+01 -0.2243291894861E+00  0.5842152144291E+00
 0.5692788692337E+00 -0.1481484753360E+01 -0.1824411795439E+00  0.6051587142040E+00
 0.7991801577696E+00 -0.1483498327951E+01 -0.1368636360757E+00  0.6071312858926E+00
 0.1057256101877E+01 -0.1497666669817E+01 -0.8808211490053E-01  0.5835327275850E+00
 0.1337428249307E+01 -0.1521431084576E+01 -0.3680056760215E-01  0.5282344156511E+00
 0.1631130211003E+01 -0.1550730692192E+01  0.1607990400180E-01  0.4364536927042E+00
 0.1927950588428E+01 -0.1580411067528E+01  0.6950790521564E-01  0.3055503670525E+00
 0.2216628469402E+01 -0.1604907518536E+01  0.1223441919963E+00  0.1355863365773E+00
-0.5634096012069E+00 -0.2382097723846E+01 -0.5891014737888E+00  0.3516672228034E-01
-0.5049686543765E+00 -0.2407126713470E+01 -0.5824190822480E+00  0.9413107665618E-01
-0.4467190114801E+00 -0.2430809108003E+01 -0.5755056324722E+00  0.1425457185051E+00
-0.3905553820340E+00 -0.2452011743127E+01 -0.5685134335036E+00  0.1806587008659E+00
-0.3381634395924E+00 -0.2469785273337E+01 -0.5615897509542E+00  0.2092221436096E+00
-0.2908685253666E+00 -0.2483455214298E+01 -0.5548647562010E+00  0.2293657797498E+00
-0.2495617029053E+00 -0.2492652918363E+01 -0.5484429324262E+00  0.2424307516123E+00
-0.2147030864132E+00 -0.2497289567540E+01 -0.5423985388730E+00  0.2498075850378E+00
-0.1863828344076E+00 -0.2497491231012E+01 -0.5367748210824E+00  0.2528085420732E+00
-0.1644115306111E+00 -0.2493518048085E+01 -0.5315859236604E+00  0.2525873133916E+00
-0.1484146420095E+00 -0.2485686716090E+01 -0.5268202794701E+00  0.2501041893804E+00
-0.1379143336108E+00 -0.2474307792456E+01 -0.5224444329984E+00  0.2461265427435E+00
-0.1323905346193E+00 -0.2459641985462E+01 -0.5184065117410E+00  0.2412522123850E+00
-0.1313197651485E+00 -0.2441874608434E+01 -0.5146388823852E+00  0.2359448706375E+00
-0.1341938958350E+00 -0.2421104966367E+01 -0.5110597800557E+00  0.2305734532155E+00
-0.1405223697241E+00 -0.2397346883947E+01 -0.5075738582976E+00  0.2254506781655E+00
-0.1498214847433E+00 -0.2370537075322E+01 -0.5040717195243E+00  0.2208679246836E+00
-0.1615932281563E+00 -0.2340550056443E+01 -0.5004286643769E+00  0.2171252848339E+00
-0.1752964634963E+00 -0.2307216662429E+01 -0.4965026325835E+00  0.2145557327760E+00
-0.1903112047926E+00 -0.2270347262347E+01 -0.4921317007613E+00  0.2135432752749E+00
-0.2058972958379E+00 -0.2229759829103E+01 -0.4871314322470E+00  0.2145341201452E+00
-0.2211492102012E+00 -0.2185311095014E+01 -0.4812920682149E+00  0.2180399433687E+00
-0.2349474455508E+00 -0.2136933133348E+01 -0.4743761228486E+00  0.2246321145423E+00
-0.2459084277486E+00 -0.2084681089864E+01 -0.4661179104683E+00  0.2349241655287E+00
-0.2523362761255E+00 -0.2028812913066E+01 -0.4562298446367E+00  0.2495351488951E+00
-0.2521780288096E+00 -0.1969848131436E+01 -0.4444052386712E+00  0.2690349094068E+00
-0.2429838790000E+00 -0.1908579626284E+01 -0.4303127074689E+00  0.2938826804654E+00
-0.2218788964305E+00 -0.1846098577349E+01 -0.4135955009190E+00  0.3243399754799E+00
-0.1855596567791E+00 -0.1783835046099E+01 -0.3938789464448E+00  0.3603456817546E+00
-0.1303363302729E+00 -0.1723591420407E+01 -0.3707855556611E+00  0.4013489510267E+00
-0.5224790195350E-01 -0.1667538581744E+01 -0.3439573018649E+00  0.4461036163659E+00
 0.5271656548963E-01 -0.1618140987931E+01 -0.3130848891536E+00  0.4924417199861E+00
 0.1882602355929E+00 -0.1577979322728E+01 -0.2779438215686E+00  0.5370634257764E+00
 0.3572820898460E+00 -0.1549431106847E+01 -0.2384298069531E+00  0.5754084372843E+00
 0.5612679599182E+00 -0.1534240142193E+01 -0.1945944393547E+00  0.6016807866325E+00
 0.7996101192545E+00 -0.1533067896712E+01 -0.1466915576774E+00  0.6090935151828E+00
 0.1068994638758E+01 -0.1545068441895E+01 -0.9521476204634E-01  0.5904134695696E+00
 0.1363084956998E+01 -0.1567613517415E+01 -0.4090571269295E-01  0.5388086845568E+00
 0.1672677265029E+01 -0.1596343897555E+01  0.1526667372218E-01  0.4488596771737E+00
 0.1986406630971E+01 -0.1625616353080E+01  0.7215805665344E-01  0.3174985295439E+00
 0.2291885564492E+01 -0.1649282673839E+01  0.1285205800456E+00  0.1446601389642E+00
-0.5875188584772E+00 -0.2487230816282E+01 -0.6149499441153E+00  0.4499770671350E-01
-0.5250735871382E+00 -0.2513927801643E+01 -0.6078002868131E+00  0.1036525318813E+00
-0.4628118007557E+00 -0.2539138898344E+01 -0.6003901487665E+00  0.1512931294540E+00
-0.4028399625027E+00 -0.2561612701718E+01 -0.5928905416790E+00  0.1882174440242E+00
-0.3470183323494E+00 -0.2580315331422E+01 -0.5854667414784E+00  0.2152749221012E+00
-0.2967852988262E+00 -0.2594535239714E+01 -0.5782641163249E+00  0.2337172308609E+00
-0.2530774525807E+00 -0.2603914184595E+01 -0.5713983359496E+00  0.2450062761863E+00
-0.2163423893120E+00 -0.2608410480709E+01 -0.5649505824226E+00  0.2506320173187E+00
-0.1866176366031E+00 -0.2608218437277E+01 -0.5589672231053E+00  0.2519743092821E+00
-0.1636403853500E+00 -0.2603672474153E+01 -0.5534625801478E+00  0.2502212461208E+00
-0.1469580930688E+00 -0.2595158282309E+01 -0.5484232832476E+00  0.2463391489595E+00
-0.1360214248688E+00 -0.2583043379311E+01 -0.5438129689395E+00  0.2410806385929E+00
-0.1302516050573E+00 -0.2567630539383E+01 -0.5395764369284E+00  0.2350158118056E+00
-0.1290818290684E+00 -0.2549131977567E+01 -0.5356427693089E+00  0.2285742083107E+00
-0.1319762199382E+00 -0.2527659804025E+01 -0.5319272127189E+00  0.2220892180452E+00
-0.1384309260069E+00 -0.2503228038802E+01 -0.5283318008345E+00  0.2158401088980E+00
-0.1479616570204E+00 -0.2475762354604E+01 -0.5247448101442E+00  0.2100893497295E+00
-0.1600804957595E+00 -0.2445116052386E+01 -0.5210393173932E+00  0.2051145127126E+00
-0.1742649182368E+00 -0.2411089279734E+01 -0.5170708472992E+00  0.2012339827219E+00
-0.1899197006737E+00 -0.2373452730499E+01 -0.5126744938740E+00  0.1988266224692E+00
-0.2063329464534E+00 -0.2331976122122E+01 -0.5076618212798E+00  0.1983445762345E+00
-0.2226278546169E+00 -0.2286459801134E+01 -0.5018175386279E+00  0.2003182695520E+00
-0.2377105454913E+00 -0.2236772036157E+01 -0.4948965237041E+00  0.2053526141090E+00
-0.2502156416778E+00 -0.2182898939724E+01 -0.4866229235317E+00  0.2141115160361E+00
-0.2584527495938E+00 -0.2125031595231E+01 -0.4766968760683E+00  0.2272823642558E+00
-0.2603551432983E+00 -0.2063629854411E+01 -0.4647970064679E+00  0.2455228686395E+00
-0.2534310210566E+00 -0.1999433585871E+01 -0.4505729280995E+00  0.2694029534452E+00
-0.2347225617604E+00 -0.1933491831793E+01 -0.4336428851726E+00  0.2993198804688E+00
-0.2007861451924E+00 -0.1867214927540E+01 -0.4136002207096E+00  0.3353715845324E+00
-0.1477157343715E+00 -0.1802425543044E+01 -0.3900282612950E+00  0.3771806465682E+00
-0.7124071836439E-01 -0.1741375382261E+01 -0.3625232255271E+00  0.4236691901200E+00
 0.3306237317503E-01 -0.1686688415633E+01 -0.3307252134198E+00  0.4727995154418E+00
 0.1694043154804E+00 -0.1641191559346E+01 -0.2943574531594E+00  0.5213174328670E+00
 0.3412514892924E+00 -0.1607580559696E+01 -0.2532658178547E+00  0.5645695224779E+00
 0.5506440317870E+00 -0.1587946262276E+01 -0.2074604491892E+00  0.5964771979564E+00
 0.7973995637824E+00 -0.1583257855693E+01 -0.1571716607242E+00  0.6097515814096E+00
 0.1078359049107E+01 -0.1592845343902E+01 -0.1028972604924E+00  0.5964600242458E+00
 0.1386946242756E+01 -0.1614031907519E+01 -0.4541713362936E-01  0.5489697878433E+00
 0.1713273255568E+01 -0.1642141252094E+01  0.1422640090686E-01  0.4611211105050E+00
 0.2044916882945E+01 -0.1670986130400E+01  0.7478615162346E-01  0.3293416902031E+00
 0.2368230910154E+01 -0.1693763817076E+01  0.1348934206257E+00  0.1534066124353E+00
-0.6116084262990E+00 -0.2592685522298E+01 -0.6408587992689E+00  0.5548363288422E-01
-0.5449755995328E+00 -0.2621122024335E+01 -0.6332195342092E+00  0.1137977074148E+00
-0.4785269037496E+00 -0.2647917499232E+01 -0.6252888899139E+00  0.1605831690735E+00
-0.4146027223346E+00 -0.2671691218721E+01 -0.6172587974090E+00  0.1961971576324E+00
-0.3552526804488E+00 -0.2691319925590E+01 -0.6093145302872E+00  0.2216039429848E+00
-0.3020323866180E+00 -0.2706057839308E+01 -0.6016180541500E+00  0.2381971170298E+00
-0.2559184637851E+00 -0.2715566074618E+01 -0.5942969165363E+00  0.2475764563024E+00
-0.2173343976689E+00 -0.2719861963496E+01 -0.5874392809864E+00  0.2513424553536E+00
-0.1862514927581E+00 -0.2719219716858E+01 -0.5810942505821E+00  0.2509471185709E+00
-0.1623210942621E+00 -0.2714057399233E+01 -0.5752757072713E+00  0.2476121916229E+00
-0.1450030162336E+00 -0.2704835994045E+01 -0.5699678105489E+00  0.2423058878515E+00
-0.1336700313516E+00 -0.2691983429788E+01 -0.5651307006490E+00  0.2357603376517E+00
-0.1276811590871E+00 -0.2675845863946E+01 -0.5607054129619E+00  0.2285118233245E+00
-0.1264250044062E+00 -0.2656662404733E+01 -0.5566174901221E+00  0.2209500428735E+00
-0.1293382531746E+00 -0.2634557296931E+01 -0.5527791182583E+00  0.2133677481858E+00
-0.1359051403796E+00 -0.2609543854429E+01 -0.5490898071438E+00  0.2060062619571E+00
-0.1456429257881E+00 -0.2581535778015E+01 -0.5454357488883E+00  0.1990950995847E+00
-0.1580765367980E+00 -0.2550364208804E+01 -0.5416881571922E+00  0.1928855529178E+00
-0.1727053927314E+00 -0.2515797537184E+01 -0.5377005939955E+00  0.1876778055453E+00
-0.1889629851467E+00 -0.2477565392042E+01 -0.5333056833847E+00  0.1838420362250E+00
-0.2061703282155E+00 -0.2435387272034E+01 -0.5283115279223E+00  0.1818328441453E+00
-0.2234847953485E+00 -0.2389004303058E+01 -0.5224978274671E+00  0.1821960268463E+00
-0.2398445116655E+00 -0.2338216874463E+01 -0.5156122849090E+00  0.1855668862000E+00
-0.2539097766257E+00 -0.2282936333723E+01 -0.5073692296301E+00  0.1926570198868E+00
-0.2640043759335E+00 -0.2223279229430E+01 -0.4974567284855E+00  0.2042203495450E+00
-0.2680578241746E+00 -0.2159635797574E+01 -0.4855387315847E+00  0.2210021972061E+00
-0.2635475866190E+00 -0.2092680150317E+01 -0.4712455544093E+00  0.2436855897817E+00
-0.2474447832930E+00 -0.2023403375921E+01 -0.4541696386104E+00  0.2728102397508E+00
-0.2161761927469E+00 -0.1953177730726E+01 -0.4338707911598E+00  0.3086460978136E+00
-0.1656255807242E+00 -0.1883827130978E+01 -0.4098905484483E+00  0.3510102691010E+00
-0.9120909263492E-01 -0.1817667951675E+01 -0.3817754145509E+00  0.3990232777332E+00
 0.1192900705577E-01 -0.1757475703729E+01 -0.3491093445367E+00  0.4508154549427E+00
 0.1485493202722E+00 -0.1706329994956E+01 -0.3115561395793E+00  0.5032186164472E+00
 0.3227541155123E+00 -0.1667270732965E+01 -0.2689033274975E+00  0.5515195035732E+00
 0.5372298433813E+00 -0.1642782134092E+01 -0.2211104614370E+00  0.5893691726708E+00
 0.7923208308465E+00 -0.1634201402260E+01 -0.1683761167918E+00  0.6089523098042E+00
 0.1085106199746E+01 -0.1641091999602E+01 -0.1111971616281E+00  0.6015654188849E+00
 0.1408800194794E+01 -0.1660758560064E+01 -0.5039167380485E-01  0.5586630597084E+00
 0.1752781947537E+01 -0.1688189543046E+01  0.1291848109083E-01  0.4732220153479E+00
 0.2103448968952E+01 -0.1716589440340E+01  0.7737190687530E-01  0.3410747134943E+00
 0.2445746945663E+01 -0.1738419997519E+01  0.1414653917368E+00  0.1618010798763E+00
-0.6356769753425E+00 -0.2698499278030E+01 -0.6668352606111E+00  0.6665541400954E-01
-0.5646534302654E+00 -0.2728753615674E+01 -0.6586814190031E+00  0.1245938260320E+00
-0.4938246681604E+00 -0.2757192773302E+01 -0.6502034979812E+00  0.1704339735966E+00
-0.4257913381286E+00 -0.2782293648071E+01 -0.6416170068007E+00  0.2046034122490E+00
-0.3628093689484E+00 -0.2802838374007E+01 -0.6331295580255E+00  0.2282019042304E+00
-0.3065554861864E+00 -0.2818051011499E+01 -0.6249213088491E+00  0.2427879782119E+00
-0.2580388118633E+00 -0.2827623171443E+01 -0.6171324058573E+00  0.2501182317077E+00
-0.2176444403285E+00 -0.2831645325244E+01 -0.6098579622021E+00  0.2519151967570E+00
-0.1852614445924E+00 -0.2830484897668E+01 -0.6031492774396E+00  0.2497068854824E+00
-0.1604411944434E+00 -0.2824653810612E+01 -0.5970190099074E+00  0.2447467212789E+00
-0.1425453403344E+00 -0.2814694798028E+01 -0.5914480364857E+00  0.2379994204165E+00
-0.1308620925488E+00 -0.2801099379325E+01 -0.5863923031126E+00  0.2301698922718E+00
-0.1246848511581E+00 -0.2784257971513E+01 -0.5817885732035E+00  0.2217538883941E+00
-0.1233566032962E+00 -0.2764436145040E+01 -0.5775585582736E+00  0.2130952227575E+00
-0.1262871609423E+00 -0.2741769311080E+01 -0.5736113029519E+00  0.2044408011344E+00
-0.1329504234188E+00 -0.2716269043453E+01 -0.5698439018657E+00  0.1959895067558E+00
-0.1428674570555E+00 -0.2687836172717E+01 -0.5661407343906E+00  0.1879338908860E+00
-0.1555788320101E+00 -0.2656278909692E+01 -0.5623715567204E+00  0.1804952069017E+00
-0.1706092443130E+00 -0.2621333104405E+01 -0.5583884780643E+00  0.1739517572527E+00
-0.1874248362568E+00 -0.2582686299726E+01 -0.5540222354521E+00  0.1686613341980E+00
-0.2053841698652E+00 -0.2540006236780E+01 -0.5490780895110E+00  0.1650772342724E+00
-0.2236842549218E+00 -0.2492972441771E+01 -0.5433313474349E+00  0.1637568375196E+00
-0.2413016790008E+00 -0.2441313803431E+01 -0.5365231044811E+00  0.1653621010214E+00
-0.2569301005756E+00 -0.2384861564463E+01 -0.5283583408809E+00  0.1706488336731E+00
-0.2689166071039E+00 -0.2323650309451E+01 -0.5185133910373E+00  0.1804346495195E+00
-0.2751977713171E+00 -0.2257990669509E+01 -0.5066376957147E+00  0.1955509560079E+00
-0.2732329926582E+00 -0.2188477703505E+01 -0.4923421465692E+00  0.2167948357014E+00
-0.2599363794319E+00 -0.2116027394653E+01 -0.4751927618979E+00  0.2448536962192E+00
-0.2316188605468E+00 -0.2041953162920E+01 -0.4547144114691E+00  0.2801814045381E+00
-0.1839640100873E+00 -0.1968057480700E+01 -0.4304043045710E+00  0.3228106341871E+00
-0.1120753751544E+00 -0.1896700455710E+01 -0.4017551721594E+00  0.3720922097302E+00
-0.1064862174248E-01 -0.1830795902549E+01 -0.3682889103462E+00  0.4263667167691E+00
 0.1256683133566E+00 -0.1773678213269E+01 -0.3296019848940E+00  0.4825998308032E+00
 0.3016866947624E+00 -0.1728755899808E+01 -0.2854138452621E+00  0.5360616056871E+00
 0.5208431191305E+00 -0.1698956300038E+01 -0.2356226396926E+00  0.5801548917395E+00
 0.7841290254981E+00 -0.1686054324758E+01 -0.1803850625400E+00  0.6065190508424E+00
 0.1088967187969E+01 -0.1689918157148E+01 -0.1201901956269E+00  0.6056044988920E+00
 0.1428408688172E+01 -0.1707876165731E+01 -0.5589349634475E-01  0.5678246397749E+00
 0.1791049368216E+01 -0.1734565411754E+01  0.1129679146080E-01  0.4851448005395E+00
 0.2161965211906E+01 -0.1762506228995E+01  0.7989179777264E-01  0.3526930179023E+00
 0.2524523295836E+01 -0.1783331001565E+01  0.1482384610631E+00  0.1698186019327E+00
-0.6597228166486E+00 -0.2804713034992E+01 -0.6928871806530E+00  0.7854712557820E-01
-0.5840831282201E+00 -0.2836870973007E+01 -0.6841908304406E+00  0.1360705192668E+00
-0.5086607978923E+00 -0.2867016764715E+01 -0.6751355225818E+00  0.1808642786231E+00
-0.4363480351264E+00 -0.2893469608631E+01 -0.6659635386752E+00  0.2134400507618E+00
-0.3696263840617E+00 -0.2914911511808E+01 -0.6569075889625E+00  0.2350576838929E+00
-0.3102969723095E+00 -0.2930542130944E+01 -0.6481678303091E+00  0.2474672428719E+00
-0.2593912516958E+00 -0.2940097419594E+01 -0.6398977437932E+00  0.2526031144860E+00
-0.2172384097732E+00 -0.2943757716097E+01 -0.6321992345945E+00  0.2523216028640E+00
-0.1836265429691E+00 -0.2941998748936E+01 -0.6251250676962E+00  0.2482295573611E+00
-0.1579911534237E+00 -0.2935437284758E+01 -0.6186856968556E+00  0.2416085594803E+00
-0.1395843941158E+00 -0.2924704246730E+01 -0.6128577373015E+00  0.2334129649282E+00
-0.1276031044928E+00 -0.2910357459563E+01 -0.6075921218649E+00  0.2243126335471E+00
-0.1212718751017E+00 -0.2892831877071E+01 -0.6028207594172E+00  0.2147554126814E+00
-0.1198873919182E+00 -0.2872418576121E+01 -0.5984612025257E+00  0.2050328990707E+00
-0.1228334724020E+00 -0.2849262818540E+01 -0.5944192670459E+00  0.1953408952819E+00
-0.1295754793744E+00 -0.2823373263342E+01 -0.5905897573438E+00  0.1858314223287E+00
-0.1396406567838E+00 -0.2794637025612E+01 -0.5868555452239E+00  0.1766561528857E+00
-0.1525880413227E+00 -0.2762838830472E+01 -0.5830853830477E+00  0.1680025981550E+00
-0.1679709062096E+00 -0.2727681544945E+01 -0.5791304988606E+00  0.1601234717075E+00
-0.1852919189091E+00 -0.2688810037855E+01 -0.5748203999184E+00  0.1533603435576E+00
-0.2039517614071E+00 -0.2645839254162E+01 -0.5699582116069E+00  0.1481611951415E+00
-0.2231924921297E+00 -0.2598385289019E+01 -0.5643155646386E+00  0.1450908003993E+00
-0.2420356124352E+00 -0.2546102479574E+01 -0.5576276267112E+00  0.1448334523044E+00
-0.2592159186577E+00 -0.2488737167249E+01 -0.5495906253708E+00  0.1481848629955E+00
-0.2731132290736E+00 -0.2426234971611E+01 -0.5398696481815E+00  0.1560223811692E+00
-0.2816826837549E+00 -0.2358817097205E+01 -0.5280999640612E+00  0.1692605396673E+00
-0.2823796116090E+00 -0.2286985924320E+01 -0.5138731148431E+00  0.1888097006627E+00
-0.2720774086606E+00 -0.2211564025575E+01 -0.4967282942489E+00  0.2155083477088E+00
-0.2469883125030E+00 -0.2133782867449E+01 -0.4761542430857E+00  0.2500045576644E+00
-0.2026102831161E+00 -0.2055396910989E+01 -0.4516014455504E+00  0.2925669564865E+00
-0.1337401957789E+00 -0.1978783634176E+01 -0.4225047722868E+00  0.3428098421619E+00
-0.3461355141737E-01 -0.1906975513855E+01 -0.3883178188409E+00  0.3993305935132E+00
 0.1007527563076E+00 -0.1843557900975E+01 -0.3485610341275E+00  0.4592847167323E+00
 0.2779557511744E+00 -0.1792329285493E+01 -0.3028747113768E+00  0.5179802738349E+00
 0.5012982817323E+00 -0.1756712395447E+01 -0.2510828264843E+00  0.5686066397735E+00
 0.7725611188569E+00 -0.1738999540487E+01 -0.1932876872063E+00  0.6022475979183E+00
 0.1089643722259E+01 -0.1739451340581E+01 -0.1299615256010E+00  0.6084301053241E+00
 0.1445502681752E+01 -0.1755478815276E+01 -0.6199522762864E-01  0.5763796157874E+00
 0.1827900817654E+01 -0.1781356336861E+01  0.9308896297260E-02  0.4968705299452E+00
 0.2220421931190E+01 -0.1808829189898E+01  0.8231854948503E-01  0.3641927219353E+00
 0.2604655840733E+01 -0.1828588861626E+01  0.1552133981342E+00  0.1774334786468E+00
-0.6837438297685E+00 -0.2911371998009E+01 -0.7190231762699E+00  0.9119636278264E-01
-0.6032375026883E+00 -0.2945527509272E+01 -0.7097530129681E+00  0.1482600229877E+00
-0.5229854520181E+00 -0.2977446502726E+01 -0.7000864013810E+00  0.1918932520323E+00
-0.4462086331280E+00 -0.3005272521974E+01 -0.6902962413067E+00  0.2227086122412E+00
-0.3756361003266E+00 -0.3027581817270E+01 -0.6806435936617E+00  0.2421554927398E+00
-0.3131955769140E+00 -0.3043557661080E+01 -0.6713506576027E+00  0.2522063376172E+00
-0.2599272747719E+00 -0.3052997546544E+01 -0.6625849741365E+00  0.2549964533872E+00
-0.2160830764255E+00 -0.3056191429399E+01 -0.6544549109170E+00  0.2525276160351E+00
-0.1813282760012E+00 -0.3053740313874E+01 -0.6470137276162E+00  0.2464868815191E+00
-0.1549647989671E+00 -0.3046377439993E+01 -0.6402684573327E+00  0.2381785382543E+00
-0.1361232755527E+00 -0.3034828099615E+01 -0.6341902844838E+00  0.2285380009618E+00
-0.1239024104540E+00 -0.3019718432908E+01 -0.6287241780411E+00  0.2181910575689E+00
-0.1174551869023E+00 -0.3001527427627E+01 -0.6237965322011E+00  0.2075296294763E+00
-0.1160317703125E+00 -0.2980570076191E+01 -0.6193203785292E+00  0.1967865375040E+00
-0.1189912464559E+00 -0.2956999779146E+01 -0.6151982142875E+00  0.1861012604099E+00
-0.1257924859031E+00 -0.2930820961515E+01 -0.6113226985930E+00  0.1755746899870E+00
-0.1359713878561E+00 -0.2901906257253E+01 -0.6075755380754E+00  0.1653138749517E+00
-0.1491082767193E+00 -0.2870016611249E+01 -0.6038249865913E+00  0.1554689933416E+00
-0.1647882305836E+00 -0.2834821863559E+01 -0.5999220277681E+00  0.1462634785092E+00
-0.1825542090250E+00 -0.2795924121217E+01 -0.5956956749249E+00  0.1380187426239E+00
-0.2018534679311E+00 -0.2752885071777E+01 -0.5909477167473E+00  0.1311732110387E+00
-0.2219784110974E+00 -0.2705256189320E+01 -0.5854469288073E+00  0.1262944852417E+00
-0.2420018100508E+00 -0.2652614900088E+01 -0.5789233506544E+00  0.1240843023872E+00
-0.2607073542585E+00 -0.2594618552773E+01 -0.5710651899157E+00  0.1253731298403E+00
-0.2765171776138E+00 -0.2531117439338E+01 -0.5615269317578E+00  0.1310929140165E+00
-0.2874170247052E+00 -0.2462233940591E+01 -0.5499302012539E+00  0.1422367749348E+00
-0.2908733430246E+00 -0.2388364091373E+01 -0.5358474948643E+00  0.1598255793880E+00
-0.2837373381898E+00 -0.2310217861475E+01 -0.5187910476635E+00  0.1848499692701E+00
-0.2621433104877E+00 -0.2228919438119E+01 -0.4982125571454E+00  0.2181603009355E+00
-0.2214233107169E+00 -0.2146144703803E+01 -0.4735136099599E+00  0.2602801194779E+00
-0.1560798124054E+00 -0.2064256125411E+01 -0.4440671941804E+00  0.3111209049606E+00
-0.5988295256631E-01 -0.1986377564295E+01 -0.4092521094706E+00  0.3695872944877E+00
 0.7381705158001E-01 -0.1916333741316E+01 -0.3685033434383E+00  0.4330891529254E+00
 0.2514818910729E+00 -0.1858329355027E+01 -0.3213694975797E+00  0.4970405283857E+00
 0.4784090483368E+00 -0.1816335835518E+01 -0.2675853614236E+00  0.5544677689734E+00
 0.7573354284395E+00 -0.1793252776699E+01 -0.2071834727392E+00  0.5959013291491E+00
 0.1086803980471E+01 -0.1789840174706E+01 -0.1406072409422E+00  0.6098681151348E+00
 0.1459776214764E+01 -0.1803672799337E+01 -0.6877931793952E-01  0.5842394442926E+00
 0.1863137089719E+01 -0.1828661074104E+01  0.6895203225754E-02  0.5083795813670E+00
 0.2278769195121E+01 -0.1855665797172E+01  0.8462068085071E-01  0.3755711780229E+00
 0.2686244822479E+01 -0.1874299595238E+01  0.1623890478678E+00  0.1846180998132E+00
-0.7077373689305E+00 -0.3018526512720E+01 -0.7452527874353E+00  0.1046446610129E+00
-0.6220854532963E+00 -0.3054782671984E+01 -0.7353736360140E+00  0.1611973949335E+00
-0.5367421639542E+00 -0.3088544940583E+01 -0.7250574317117E+00  0.2035402549818E+00
-0.4553014367030E+00 -0.3117760200480E+01 -0.7146123380852E+00  0.2324075961754E+00
-0.3807644989242E+00 -0.3140893482975E+01 -0.7043316068753E+00  0.2494738351711E+00
-0.3151860964427E+00 -0.3157122732114E+01 -0.6944617760595E+00  0.2569696380643E+00
-0.2595972566934E+00 -0.3166328321820E+01 -0.6851851259127E+00  0.2572566099105E+00
-0.2141465103232E+00 -0.3168933061955E+01 -0.6766159245381E+00  0.2524932605222E+00
-0.1783510869966E+00 -0.3165682147087E+01 -0.6688066567827E+00  0.2444462066438E+00
-0.1513598058763E+00 -0.3157437345214E+01 -0.6617594400789E+00  0.2344346069653E+00
-0.1321692453551E+00 -0.3145023922199E+01 -0.6554386432777E+00  0.2233643816224E+00
-0.1197734908720E+00 -0.3129137352435E+01 -0.6497821783438E+00  0.2118069534745E+00
-0.1132517114287E+00 -0.3110299171460E+01 -0.6447101861848E+00  0.2000896867575E+00
-0.1118079292377E+00 -0.3088845946918E+01 -0.6401307847699E+00  0.1883799353170E+00
-0.1147782140140E+00 -0.3064937065706E+01 -0.6359430654203E+00  0.1767557762974E+00
-0.1216172535496E+00 -0.3038571258697E+01 -0.6320377118674E+00  0.1652629592568E+00
-0.1318721730794E+00 -0.3009606026063E+01 -0.6282956491908E+00  0.1539604145512E+00
-0.1451473693669E+00 -0.2977778550326E+01 -0.6245851932456E+00  0.1429575727826E+00
-0.1610628355675E+00 -0.2942726061786E+01 -0.6207577887207E+00  0.1324449602917E+00
-0.1792054331050E+00 -0.2904008388050E+01 -0.6166427734197E+00  0.1227198326271E+00
-0.1990732728867E+00 -0.2861134153526E+01 -0.6120414944027E+00  0.1142066206012E+00
-0.2200142183295E+00 -0.2813589755850E+01 -0.6067208038767E+00  0.1074708391438E+00
-0.2411584795596E+00 -0.2760874165128E+01 -0.6004065378842E+00  0.1032262321522E+00
-0.2613462376161E+00 -0.2702552520136E+01 -0.5927797603835E+00  0.1023320429802E+00
-0.2790515047235E+00 -0.2638374290567E+01 -0.5834851677526E+00  0.1057684632203E+00
-0.2923029864274E+00 -0.2568354356345E+01 -0.5721314770798E+00  0.1146009624193E+00
-0.2985944319621E+00 -0.2492769050873E+01 -0.5582727048860E+00  0.1299558802118E+00
-0.2947754875205E+00 -0.2412196029758E+01 -0.5413943115232E+00  0.1529743497972E+00
-0.2769269667723E+00 -0.2327624950582E+01 -0.5209103912330E+00  0.1847141651180E+00
-0.2402403419178E+00 -0.2240618572224E+01 -0.4961717902218E+00  0.2259704276407E+00
-0.1789434010576E+00 -0.2153485453084E+01 -0.4664857777795E+00  0.2769850481412E+00
-0.8634391453045E-01 -0.2069404646665E+01 -0.4311497186638E+00  0.3370235913766E+00
 0.4490388348591E-01 -0.1992418748024E+01 -0.3895029787116E+00  0.4038235159034E+00
 0.2222052016652E+00 -0.1927147090068E+01 -0.3409883827617E+00  0.4729878194837E+00
 0.4519921694247E+00 -0.1878161944275E+01 -0.2852339592204E+00  0.5374495759595E+00
 0.7381517854482E+00 -0.1849069868230E+01 -0.2221836198672E+00  0.5872055027161E+00
 0.1080078060575E+01 -0.1841258915723E+01 -0.1522361732981E+00  0.6097109629310E+00
 0.1470878691774E+01 -0.1852577287890E+01 -0.7633972036063E-01  0.5912980934287E+00
 0.1896529447610E+01 -0.1876588948008E+01  0.3988099979870E-02  0.5196527970472E+00
 0.2336951756522E+01 -0.1903140279483E+01  0.8676229670076E-01  0.3868285373032E+00
 0.2769391848888E+01 -0.1920585257109E+01  0.1697613208854E+00  0.1913407592032E+00
-0.7317001497210E+00 -0.3126233145263E+01 -0.7715866704944E+00  0.1189380068653E+00
-0.6405911527588E+00 -0.3164703178794E+01 -0.7610588776513E+00  0.1749207615885E+00
-0.5498665445507E+00 -0.3200382070662E+01 -0.7500497342192E+00  0.2158245137261E+00
-0.4635459485510E+00 -0.3230995502867E+01 -0.7389083012941E+00  0.2425315312226E+00
-0.3849303244006E+00 -0.3254892425174E+01 -0.7279645607624E+00  0.2569842451636E+00
-0.3161991560605E+00 -0.3271260568663E+01 -0.7174919556362E+00  0.2617132475750E+00
-0.2583507304080E+00 -0.3280089647137E+01 -0.7076880860544E+00  0.2593340561038E+00
-0.2113986380747E+00 -0.3281962545694E+01 -0.6986722471648E+00  0.2521721523959E+00
-0.1746829972894E+00 -0.3277789491884E+01 -0.6904945081238E+00  0.2420703476559E+00
-0.1471782430702E+00 -0.3268572936871E+01 -0.6831502461680E+00  0.2303519240625E+00
-0.1277341400604E+00 -0.3255242746270E+01 -0.6765953873481E+00  0.2178805208919E+00
-0.1152342438907E+00 -0.3238563417097E+01 -0.6707595421927E+00  0.2051615867265E+00
-0.1086825230417E+00 -0.3219096341385E+01 -0.6655557828029E+00  0.1924487658323E+00
-0.1072379738354E+00 -0.3197196458622E+01 -0.6608868963395E+00  0.1798372472752E+00
-0.1102158866335E+00 -0.3173026513624E+01 -0.6566484898363E+00  0.1673389003231E+00
-0.1170693554759E+00 -0.3146577955151E+01 -0.6527294718519E+00  0.1549406855375E+00
-0.1273593751269E+00 -0.3117692651509E+01 -0.6490104149982E+00  0.1426502618312E+00
-0.1407171222983E+00 -0.3086084410892E+01 -0.6453603162547E+00  0.1305331439890E+00
-0.1568004479652E+00 -0.3051358799082E+01 -0.6416318589705E+00  0.1187434404457E+00
-0.1752435152157E+00 -0.3013034488939E+01 -0.6376556103327E+00  0.1075502273630E+00
-0.1955993433129E+00 -0.2970567969320E+01 -0.6332334719626E+00  0.9735933997411E-01
-0.2172761213250E+00 -0.2923380931528E+01 -0.6281314199306E+00  0.8872898295953E-01
-0.2394673842437E+00 -0.2870893278429E+01 -0.6220721418042E+00  0.8237896616274E-01
-0.2610771031768E+00 -0.2812575767697E+01 -0.6147305833349E+00  0.7919053193327E-01
-0.2806405062477E+00 -0.2748072663850E+01 -0.6057426430457E+00  0.8018454434198E-01
-0.2962416804419E+00 -0.2677283718990E+01 -0.5947050887481E+00  0.8649079816358E-01
-0.3054185817357E+00 -0.2600352938586E+01 -0.5811543127243E+00  0.9933358605786E-01
-0.3050418238633E+00 -0.2517705910893E+01 -0.5645495553638E+00  0.1199996664745E+00
-0.2911668638810E+00 -0.2430169032723E+01 -0.5442671874311E+00  0.1497557757514E+00
-0.2588759467453E+00 -0.2339153633030E+01 -0.5196059236978E+00  0.1896818144027E+00
-0.2021504285266E+00 -0.2246868621581E+01 -0.4898038173202E+00  0.2403816261721E+00
-0.1138489344479E+00 -0.2156501884224E+01 -0.4540701705006E+00  0.3015374351857E+00
 0.1409035841554E-01 -0.2072280069487E+01 -0.4116379483483E+00  0.3712959556897E+00
 0.1900919042380E+00 -0.1999234433542E+01 -0.3618285112524E+00  0.4455486064995E+00
 0.4218725681130E+00 -0.1942585877250E+01 -0.3041426663594E+00  0.5172282455725E+00
 0.7146927338176E+00 -0.1906756206332E+01 -0.2384126980556E+00  0.5758407253730E+00
 0.1069053280085E+01 -0.1893914012926E+01 -0.1649721490264E+00  0.6077092838578E+00
 0.1478404926792E+01 -0.1902325377582E+01 -0.8478409142126E-01  0.5974259475191E+00
 0.1927812224556E+01 -0.1925256930328E+01  0.5110588532408E-03  0.5306728954419E+00
 0.2394912228534E+01 -0.1951394454233E+01  0.8870355618196E-01  0.3979716957601E+00
 0.2854195564452E+01 -0.1967586072982E+01  0.1773219009364E+00  0.1975620244856E+00
-0.7556281028448E+00 -0.3234555999657E+01 -0.7980368323921E+00  0.1341274490506E+00
-0.6587130334385E+00 -0.3275364499948E+01 -0.7868155184017E+00  0.1894715859470E+00
-0.5622847072923E+00 -0.3313036211743E+01 -0.7750641953564E+00  0.2287646568018E+00
-0.4708513673795E+00 -0.3345046998854E+01 -0.7631796846190E+00  0.2530697791102E+00
-0.3880441811531E+00 -0.3369626121277E+01 -0.7515340716848E+00  0.2646497343925E+00
-0.3161610616105E+00 -0.3385991627434E+01 -0.7404305488421E+00  0.2663835703903E+00
-0.2561368238064E+00 -0.3394275332916E+01 -0.7300824422236E+00  0.2611703925820E+00
-0.2078119650328E+00 -0.3395251913860E+01 -0.7206127865164E+00  0.2515110373971E+00
-0.1703163498860E+00 -0.3390019268340E+01 -0.7120671342559E+00  0.2393175392990E+00
-0.1424271854610E+00 -0.3379732315881E+01 -0.7044319107653E+00  0.2259030535500E+00
-0.1228348030965E+00 -0.3365428656115E+01 -0.6976527022382E+00  0.2120736731509E+00
-0.1103072531873E+00 -0.3347939775071E+01 -0.6916494159581E+00  0.1982559499104E+00
-0.1037729976078E+00 -0.3327862790423E+01 -0.6863271678332E+00  0.1846202413153E+00
-0.1023480134188E+00 -0.3305566841223E+01 -0.6815829810847E+00  0.1711830299173E+00
-0.1053296326815E+00 -0.3281214903700E+01 -0.6773089173691E+00  0.1578855945612E+00
-0.1121722301319E+00 -0.3254789454317E+01 -0.6733923469242E+00  0.1446529520407E+00
-0.1224533572869E+00 -0.3226116436820E+01 -0.6697139688010E+00  0.1314387760819E+00
-0.1358335532709E+00 -0.3194887107585E+01 -0.6661441420976E+00  0.1182618168450E+00
-0.1520112463946E+00 -0.3160676912504E+01 -0.6625376416523E+00  0.1052364238423E+00
-0.1706710354778E+00 -0.3122965211119E+01 -0.6587272591352E+00  0.9259948792519E-01
-0.1914246193222E+00 -0.3081158094611E+01 -0.6545165525396E+00  0.8073352264872E-01
-0.2137450682708E+00 -0.3034613829833E+01 -0.6496717893017E+00  0.7018393455759E-01
-0.2368947545637E+00 -0.2982673689184E+01 -0.6439136983447E+00  0.6167021370343E-01
-0.2598482890143E+00 -0.2924713092813E+01 -0.6369122858561E+00  0.5608808768618E-01
-0.2812110027342E+00 -0.2860268080602E+01 -0.6282958260296E+00  0.5449033395922E-01
-0.2991345472103E+00 -0.2789117058879E+01 -0.6176503304215E+00  0.5806121928533E-01
-0.3112183623613E+00 -0.2711260290189E+01 -0.6044957395177E+00  0.6811279344268E-01
-0.3143781244246E+00 -0.2626952094092E+01 -0.5882660524692E+00  0.8606894955623E-01
-0.3046755749712E+00 -0.2536826024219E+01 -0.5683003283064E+00  0.1134024467238E+00
-0.2771213409026E+00 -0.2442100380570E+01 -0.5438443523984E+00  0.1514866278424E+00
-0.2254881433265E+00 -0.2344831776118E+01 -0.5140639915490E+00  0.2013154251272E+00
-0.1422110813956E+00 -0.2248159283965E+01 -0.4780740801959E+00  0.2630438587370E+00
-0.1850489459542E-01 -0.2156444824413E+01 -0.4349899502835E+00  0.3353171017278E+00
 0.1551426190594E+00 -0.2075113662299E+01 -0.3839942143698E+00  0.4144321076560E+00
 0.3878903791187E+00 -0.2010074370230E+01 -0.3244368030568E+00  0.4934421776906E+00
 0.6866263194555E+00 -0.1966678535366E+01 -0.2560104469970E+00  0.5614357467819E+00
 0.1053270022851E+01 -0.1948053417712E+01 -0.1789566816388E+00  0.6035615465977E+00
 0.1481882631563E+01 -0.1953066751594E+01 -0.9423682541031E-01  0.6024599327835E+00
 0.1956670610365E+01 -0.1974782824848E+01 -0.3622442950475E-02  0.5414246203628E+00
 0.2452597326757E+01 -0.2000583967467E+01  0.9040267320503E-01  0.4090228306682E+00
 0.2940745886277E+01 -0.2015460667364E+01  0.1850570465402E+00  0.2032296479851E+00
-0.7795161842073E+00 -0.3343568346024E+01 -0.8246169183340E+00  0.1502698296409E+00
-0.6764025262648E+00 -0.3386852684257E+01 -0.8126510542139E+00  0.2048949527797E+00
-0.5739113515875E+00 -0.3426595554622E+01 -0.8001013931644E+00  0.2423780689524E+00
-0.4771148403459E+00 -0.3459989696547E+01 -0.7874209191120E+00  0.2640049982263E+00
-0.3900075898937E+00 -0.3485143302177E+01 -0.7750301899631E+00  0.2724228904722E+00
-0.3149937905241E+00 -0.3501332477619E+01 -0.7632652650021E+00  0.2709156569320E+00
-0.2529049131257E+00 -0.3508871631146E+01 -0.7523553200653E+00  0.2626973016530E+00
-0.2033624949130E+00 -0.3508763921580E+01 -0.7424252943617E+00  0.2504493894453E+00
-0.1652486833446E+00 -0.3502319037559E+01 -0.7335135551108E+00  0.2361415099888E+00
-0.1371193831705E+00 -0.3490855123938E+01 -0.7255949122338E+00  0.2210582859032E+00
-0.1174935174249E+00 -0.3475518523805E+01 -0.7186024189540E+00  0.2059303104687E+00
-0.1050200235976E+00 -0.3457203515720E+01 -0.7124447184798E+00  0.1910910746245E+00
-0.9855291626284E-01 -0.3436537135655E+01 -0.7070180209189E+00  0.1766178671154E+00
-0.9716819845238E-01 -0.3413897492180E+01 -0.7022131485904E+00  0.1624422822934E+00
-0.1001487027130E+00 -0.3389444165932E+01 -0.6979185841287E+00  0.1484312251860E+00
-0.1069532388364E+00 -0.3363148909486E+01 -0.6940204400061E+00  0.1344452437110E+00
-0.1171786070482E+00 -0.3334821715659E+01 -0.6904000748292E+00  0.1203818562367E+00
-0.1305171098701E+00 -0.3304132616826E+01 -0.6869299555754E+00  0.1062105963217E+00
-0.1467101870645E+00 -0.3270629158822E+01 -0.6834678793618E+00  0.9200293926367E-01
-0.1654956824506E+00 -0.3233754022767E+01 -0.6798499511741E+00  0.7795964289374E-01
-0.1865474106374E+00 -0.3192865525793E+01 -0.6758825973576E+00  0.6443508634446E-01
-0.2094075127402E+00 -0.3147260783622E+01 -0.6713336692762E+00  0.5195617669123E-01
-0.2334122523460E+00 -0.3096204025773E+01 -0.6659232655468E+00  0.4123532732871E-01
-0.2576131317794E+00 -0.3038975751949E+01 -0.6593177865702E+00  0.3317459123665E-01
-0.2806937793539E+00 -0.2975002371742E+01 -0.6511392399219E+00  0.2884879191029E-01
-0.3008850120914E+00 -0.2903936514013E+01 -0.6409643147719E+00  0.2948500000452E-01
-0.3158649747201E+00 -0.2825625031805E+01 -0.6282980106674E+00  0.3647002454939E-01
-0.3226196142142E+00 -0.2740133035839E+01 -0.6125505391383E+00  0.5135240571248E-01
-0.3172517582317E+00 -0.2647871637950E+01 -0.5930246880731E+00  0.7580281745562E-01
-0.2947442963873E+00 -0.2549821995036E+01 -0.5689132667621E+00  0.1114907778005E+00
-0.2487094849361E+00 -0.2447829176103E+01 -0.5393077402442E+00  0.1598231952175E+00
-0.1711991236945E+00 -0.2344913669006E+01 -0.5032225660388E+00  0.2214821738994E+00
-0.5271384777185E-01 -0.2245506217277E+01 -0.4596440198590E+00  0.2957063690965E+00
 0.1174022853623E+00 -0.2155388073495E+01 -0.4075971637003E+00  0.3793335245219E+00
 0.3499102037024E+00 -0.2081180040112E+01 -0.3462539724414E+00  0.4656899632417E+00
 0.6536107494211E+00 -0.2029279982414E+01 -0.2751338506984E+00  0.5435595928102E+00
 0.1032219030222E+01 -0.2003979536629E+01 -0.1943521041775E+00  0.5969021095888E+00
 0.1480758481484E+01 -0.2004975628162E+01 -0.1048434308980E+00  0.6061886192343E+00
 0.1982719433993E+01 -0.2025275392670E+01 -0.8511191862215E-02  0.5518888555926E+00
 0.2509968555552E+01 -0.2050861200667E+01  0.9182147234539E-01  0.4200358189954E+00
 0.3029117305980E+01 -0.2064379266812E+01  0.1929476107087E+00  0.2082738628570E+00
-0.8033581347736E+00 -0.3453354649621E+01 -0.8513425695650E+00  0.1674286748621E+00
-0.6936024766050E+00 -0.3499266589173E+01 -0.8385738256513E+00  0.2212398633603E+00
-0.5846474174595E+00 -0.3541159969025E+01 -0.8251614895927E+00  0.2566799937415E+00
-0.4822194321786E+00 -0.3575905743556E+01 -0.8116250472410E+00  0.2753111641220E+00
-0.3907120361173E+00 -0.3601493330173E+01 -0.7984410851558E+00  0.2802435481286E+00
-0.3126151927528E+00 -0.3617294225645E+01 -0.7859818953916E+00  0.2752313035360E+00
-0.2486055605444E+00 -0.3623855337773E+01 -0.7744921912043E+00  0.2638354686151E+00
-0.1980308901441E+00 -0.3622450358766E+01 -0.7640962611679E+00  0.2489191264504E+00
-0.1594837527985E+00 -0.3614625796302E+01 -0.7548219210678E+00  0.2324917324755E+00
-0.1312739881077E+00 -0.3601871853705E+01 -0.7466291794881E+00  0.2157861289569E+00
-0.1117384331294E+00 -0.3585441735702E+01 -0.7394360447846E+00  0.1994366317154E+00
-0.9940517773719E-01 -0.3566285673668E+01 -0.7331381812057E+00  0.1836684311791E+00
-0.9305651664702E-01 -0.3545052913326E+01 -0.7276218968370E+00  0.1684560123516E+00
-0.9173270334695E-01 -0.3522124184642E+01 -0.7227713883680E+00  0.1536405075319E+00
-0.9470620504953E-01 -0.3497651568795E+01 -0.7184715654750E+00  0.1390114607902E+00
-0.1014436809804E+00 -0.3471594340082E+01 -0.7146076148610E+00  0.1243632028444E+00
-0.1115638265148E+00 -0.3443746851627E+01 -0.7110621462240E+00  0.1095355787265E+00
-0.1247928618170E+00 -0.3413759821851E+01 -0.7077105472794E+00  0.9444693018387E-01
-0.1409173176372E+00 -0.3381155871619E+01 -0.7044146483478E+00  0.7912302599920E-01
-0.1597307044226E+00 -0.3345344511314E+01 -0.7010150535932E+00  0.6372464248168E-01
-0.1809720032682E+00 -0.3305639867557E+01 -0.6973223845559E+00  0.4857316228713E-01
-0.2042562028656E+00 -0.3261281241224E+01 -0.6931074991460E+00  0.3417113171158E-01
-0.2289979821102E+00 -0.3211458645200E+01 -0.6880913357155E+00  0.2121684691202E-01
-0.2543312465999E+00 -0.3155359590363E+01 -0.6819381775543E+00  0.1061000141606E-01
-0.2790251705417E+00 -0.3092301302531E+01 -0.6742653046619E+00  0.3436616786215E-02
-0.3014003733281E+00 -0.3021808370270E+01 -0.6646417586236E+00  0.9531658612256E-03
-0.3192303638234E+00 -0.2943566897078E+01 -0.6525594619042E+00  0.4605373120064E-02
-0.3295970932281E+00 -0.2857436923136E+01 -0.6374068127708E+00  0.1604965438613E-01
-0.3286818743027E+00 -0.2763578556153E+01 -0.6184520953068E+00  0.3714059436643E-01
-0.3114897365982E+00 -0.2662690325252E+01 -0.5948360212338E+00  0.6983934161327E-01
-0.2715315345946E+00 -0.2556340714448E+01 -0.5655744582363E+00  0.1159811877591E+00
-0.2005327392642E+00 -0.2447349379958E+01 -0.5295764317357E+00  0.1768248141729E+00
-0.8831032316359E-01 -0.2340129132248E+01 -0.4856878983197E+00  0.2523004755842E+00
 0.7697196239518E-01 -0.2240753612411E+01 -0.4327563364518E+00  0.3399393572980E+00
 0.3078334661762E+00 -0.2156557818258E+01 -0.3697448759259E+00  0.4335298841526E+00
 0.6153014035927E+00 -0.2095099464781E+01 -0.2959596166477E+00  0.5217129166904E+00
 0.1005340434116E+01 -0.2062064514219E+01 -0.2113448191698E+00  0.5872882588946E+00
 0.1474387016842E+01 -0.2058267527278E+01 -0.1167761038273E+00  0.6083343104861E+00
 0.2005467760985E+01 -0.2076831963091E+01 -0.1427284063387E-01  0.5620198733896E+00
 0.2567010220340E+01 -0.2102326579862E+01  0.9293672948061E-01  0.4311173869390E+00
 0.3119373167142E+01 -0.2114478422261E+01  0.2009789519710E+00  0.2126176010961E+00
-0.8271461580740E+00 -0.3564013130914E+01 -0.8782318708843E+00  0.1856752550881E+00
-0.7102451291678E+00 -0.3612720618557E+01 -0.8645931624285E+00  0.2385595080399E+00
-0.5943771933007E+00 -0.3656843140330E+01 -0.8502440793957E+00  0.2716822755257E+00
-0.4860317633068E+00 -0.3692885067900E+01 -0.8357833786956E+00  0.2869509915420E+00
-0.3900380574992E+00 -0.3718725155263E+01 -0.8217526547976E+00  0.2880359243312E+00
-0.3089394907179E+00 -0.3733880382769E+01 -0.8085639867459E+00  0.2792368791459E+00
-0.2431918111211E+00 -0.3739191414590E+01 -0.7964766570107E+00  0.2644935031365E+00
-0.1918039106572E+00 -0.3736250068376E+01 -0.7856108075132E+00  0.2468444953489E+00
-0.1530327017164E+00 -0.3726864659375E+01 -0.7759794837812E+00  0.2283138926515E+00
-0.1249173228420E+00 -0.3712703171478E+01 -0.7675241103010E+00  0.2100539889647E+00
-0.1056039694736E+00 -0.3695119994276E+01 -0.7601448040769E+00  0.1925792047902E+00
-0.9350059493934E-01 -0.3675111328048E+01 -0.7537223958287E+00  0.1759904051165E+00
-0.8732247688429E-01 -0.3653338826688E+01 -0.7481322718626E+00  0.1601499297164E+00
-0.8607964387020E-01 -0.3630178357584E+01 -0.7432516113662E+00  0.1448037747401E+00
-0.8903902268914E-01 -0.3605769978364E+01 -0.7389618112221E+00  0.1296621475540E+00
-0.9567875926944E-01 -0.3580058806254E+01 -0.7351475240591E+00  0.1144523429346E+00
-0.1056419827871E+00 -0.3552824284703E+01 -0.7316932644012E+00  0.9895577737537E-01
-0.1186906641675E+00 -0.3523700392319E+01 -0.7284782221524E+00  0.8303818407402E-01
-0.1346580732891E+00 -0.3492188639171E+01 -0.7253693533009E+00  0.6667713451261E-01
-0.1533953536478E+00 -0.3457669827913E+01 -0.7222130470740E+00  0.4998971412048E-01
-0.1747092692788E+00 -0.3419418511802E+01 -0.7188255669275E+00  0.3325943172728E-01
-0.1982909856908E+00 -0.3376620638905E+01 -0.7149823355731E+00  0.1695850412618E-01
-0.2236375375162E+00 -0.3328396138940E+01 -0.7104067458772E+00  0.1763883644304E-02
-0.2499698781219E+00 -0.3273843094927E+01 -0.7047626051116E+00 -0.1143615439116E-01
-0.2761487767899E+00 -0.3212172061133E+01 -0.6976641779806E+00 -0.2155603827562E-01
-0.3005939168421E+00 -0.3142779862522E+01 -0.6886747661348E+00 -0.2732487030058E-01
-0.3211896947139E+00 -0.3065187438187E+01 -0.6772754366723E+00 -0.2725664270137E-01
-0.3351396033797E+00 -0.2979036880633E+01 -0.6628353066795E+00 -0.1960828299563E-01
-0.3387426423660E+00 -0.2884211035731E+01 -0.6445907452245E+00 -0.2361788373979E-02
-0.3270812144284E+00 -0.2781080504701E+01 -0.6216323530890E+00  0.2672245794061E-01
-0.2936348193522E+00 -0.2670867797412E+01 -0.5929005321877E+00  0.6991360344806E-01
-0.2298780777334E+00 -0.2556097388077E+01 -0.5571951014649E+00  0.1290879676634E+00
-0.1250007455881E+00 -0.2441054949954E+01 -0.5132111467559E+00  0.2049644796978E+00
 0.3402319029893E-01 -0.2332010997167E+01 -0.4595975682221E+00  0.2959358391126E+00
 0.2616130215658E+00 -0.2236984972895E+01 -0.3950743961529E+00  0.3964806242749E+00
 0.5713647603228E+00 -0.2164792967010E+01 -0.3186856460861E+00  0.4953218025347E+00
 0.9720169347686E+00 -0.2122778368506E+01 -0.2301522901771E+00  0.5741789625723E+00
 0.1462036876337E+01 -0.2113200092901E+01 -0.1302326452534E+00  0.6085487338059E+00
 0.2024264893715E+01 -0.2129606324664E+01 -0.2106828650369E-01  0.5716888856276E+00
 0.2623724403690E+01 -0.2154911128347E+01  0.9376265646583E-01  0.4424205399489E+00
 0.3211553886014E+01 -0.2165676588103E+01  0.2091754626991E+00  0.2162365308977E+00
-0.8508705231620E+00 -0.3675659090623E+01 -0.9053059362472E+00  0.2050898389080E+00
-0.7262495466587E+00 -0.3727348030211E+01 -0.8907195286467E+00  0.2569114951709E+00
-0.6029647576376E+00 -0.3773775202264E+01 -0.8753480050240E+00  0.2873916321428E+00
-0.4883992769551E+00 -0.3811025875856E+01 -0.8598850433756E+00  0.2988725645938E+00
-0.3878544737075E+00 -0.3836885731712E+01 -0.8449480536746E+00  0.2957051289098E+00
-0.3038782074884E+00 -0.3851084064867E+01 -0.8309924668539E+00  0.2828208894364E+00
-0.2366209500250E+00 -0.3854830107581E+01 -0.8182902237146E+00  0.2645669467572E+00
-0.1846761723946E+00 -0.3850086731927E+01 -0.8069525928888E+00  0.2441422244874E+00
-0.1459153812409E+00 -0.3838947546679E+01 -0.7969725974597E+00  0.2235506520410E+00
-0.1180836666375E+00 -0.3823259392405E+01 -0.7882686235545E+00  0.2038290860915E+00
-0.9913116157909E-01 -0.3804467340499E+01 -0.7807197120492E+00  0.1853457620644E+00
-0.8734946563546E-01 -0.3783599941890E+01 -0.7741898930415E+00  0.1680608565623E+00
-0.8139380988476E-01 -0.3761319232455E+01 -0.7685426199201E+00  0.1517160556908E+00
-0.8025090995692E-01 -0.3737987638013E+01 -0.7636477209731E+00  0.1359587779978E+00
-0.8318765376449E-01 -0.3713728344720E+01 -0.7593832110127E+00  0.1204191567477E+00
-0.8969747732208E-01 -0.3688470808922E+01 -0.7556336685085E+00  0.1047577147764E+00
-0.9945030010966E-01 -0.3661980802734E+01 -0.7522862317786E+00  0.8869755705605E-01
-0.1122452726761E+00 -0.3633878887953E+01 -0.7492248432901E+00  0.7205103247224E-01
-0.1279635358922E+00 -0.3603650203791E+01 -0.7463227590577E+00  0.5474542594770E-01
-0.1465153038875E+00 -0.3570652350169E+01 -0.7434335418893E+00  0.3685060039620E-01
-0.1677772585657E+00 -0.3534126032898E+01 -0.7403806693254E+00  0.1860732636378E-01
-0.1915196029889E+00 -0.3493209489490E+01 -0.7369458294772E+00  0.4514618547700E-03
-0.2173250561519E+00 -0.3446958053165E+01 -0.7328566327837E+00 -0.1696869464058E-01
-0.2445052941355E+00 -0.3394385648488E+01 -0.7277781993695E+00 -0.3278554055857E-01
-0.2720172870050E+00 -0.3334600910158E+01 -0.7213236501812E+00 -0.4592616672051E-01
-0.2983872406249E+00 -0.3266876052785E+01 -0.7130526693073E+00 -0.5512156155070E-01
-0.3216241966309E+00 -0.3190565951930E+01 -0.7024380401793E+00 -0.5886667738146E-01
-0.3390776886140E+00 -0.3105085822656E+01 -0.6888327125184E+00 -0.5535745441432E-01
-0.3472043698136E+00 -0.3010018757677E+01 -0.6714446355033E+00 -0.4243985743806E-01
-0.3412235489036E+00 -0.2905364306781E+01 -0.6493175808126E+00 -0.1761878942246E-01
-0.3146638617157E+00 -0.2791927476681E+01 -0.6213182769377E+00  0.2180172731444E-01
-0.2588443340783E+00 -0.2671832534377E+01 -0.5861353824251E+00  0.7834392468122E-01
-0.1624144605543E+00 -0.2549105007937E+01 -0.5423039017792E+00  0.1536058739163E+00
-0.1118665276528E-01 -0.2430078679936E+01 -0.4882530738158E+00  0.2470205601213E+00
 0.2112752450450E+00 -0.2323382942258E+01 -0.4224215457371E+00  0.3540266597183E+00
 0.5214856851997E+00 -0.2239165722361E+01 -0.3435360125512E+00  0.4637258912656E+00
 0.9316029802379E+00 -0.2186703682830E+01 -0.2510201442589E+00  0.5569325472141E+00
 0.1442805343805E+01 -0.2170147309917E+01 -0.1454683953901E+00  0.6063421176565E+00
 0.2038476083886E+01 -0.2183669816310E+01 -0.2903874691753E-01  0.5808188445790E+00
 0.2679717526631E+01 -0.2209025593459E+01  0.9413838803718E-01  0.4536523075280E+00
 0.3306167617402E+01 -0.2215669101057E+01  0.2180997065189E+00  0.2197354713559E+00
-0.8745173492927E+00 -0.3788430867539E+01 -0.9325896572630E+00  0.2257614175263E+00
-0.7415194008039E+00 -0.3843319085766E+01 -0.9169677109778E+00  0.2763592339935E+00
-0.6102495471074E+00 -0.3892128510319E+01 -0.9004756249034E+00  0.3038085408783E+00
-0.4891464663872E+00 -0.3930467631945E+01 -0.8839228328378E+00  0.3110066738870E+00
-0.3840157512768E+00 -0.3956059823774E+01 -0.8680151279447E+00  0.3031338487223E+00
-0.2973383703380E+00 -0.3968935457164E+01 -0.8532547782150E+00  0.2858509380733E+00
-0.2288525832922E+00 -0.3970762961249E+01 -0.8399231214241E+00  0.2639354791160E+00
-0.1766474499517E+00 -0.3963933828861E+01 -0.8281162681024E+00  0.2407183905937E+00
-0.1381566941545E+00 -0.3950846974667E+01 -0.8178007459504E+00  0.2181375562851E+00
-0.1108107795012E+00 -0.3933522780012E+01 -0.8088667239556E+00  0.1970730417871E+00
-0.9236258460261E-01 -0.3913480689458E+01 -0.8011686667504E+00  0.1777183727684E+00
-0.8099477330612E-01 -0.3891764032514E+01 -0.7945517730037E+00  0.1598769421842E+00
-0.7531195389394E-01 -0.3869021025224E+01 -0.7888666075786E+00  0.1431625918414E+00
-0.7428582085252E-01 -0.3845591166578E+01 -0.7839754091682E+00  0.1271222584742E+00
-0.7718932295105E-01 -0.3821575808954E+01 -0.7797530380003E+00  0.1113066632796E+00
-0.8353506576474E-01 -0.3796887608485E+01 -0.7760845464145E+00  0.9531097404553E-01
-0.9302185238329E-01 -0.3771280581770E+01 -0.7728604983472E+00  0.7880099044567E-01
-0.1054869717282E+00 -0.3744366107835E+01 -0.7699706273861E+00  0.6153552317659E-01
-0.1208600090705E+00 -0.3715618785529E+01 -0.7672957703535E+00  0.4338982635722E-01
-0.1391111599010E+00 -0.3684379718834E+01 -0.7646981871419E+00  0.2438308875281E-01
-0.1601887520070E+00 -0.3649862728735E+01 -0.7620103075032E+00  0.4708361296643E-02
-0.1839445753934E+00 -0.3611165230586E+01 -0.7590219725063E+00 -0.1524107011907E-01
-0.2100499547503E+00 -0.3567284797789E+01 -0.7554669617652E+00 -0.3485301663480E-01
-0.2379101630986E+00 -0.3517158133936E+01 -0.7510136705980E+00 -0.5328996829447E-01
-0.2665815854455E+00 -0.3459798924111E+01 -0.7452761130169E+00 -0.6950434404363E-01
-0.2947025139037E+00 -0.3394360861747E+01 -0.7378126861243E+00 -0.8224650948439E-01
-0.3204183919662E+00 -0.3320035566031E+01 -0.7280908024488E+00 -0.9001608065464E-01
-0.3412478712089E+00 -0.3236006793875E+01 -0.7154509436779E+00 -0.9097803043847E-01
-0.3538454294189E+00 -0.3141539901380E+01 -0.6990770765769E+00 -0.8287664893541E-01
-0.3536303997622E+00 -0.3036223617610E+01 -0.6779708135770E+00 -0.6299474781212E-01
-0.3342710031181E+00 -0.2920373217842E+01 -0.6509288538915E+00 -0.2823067449652E-01
-0.2870463772345E+00 -0.2795597848128E+01 -0.6165288542595E+00  0.2459595212206E-01
-0.2001873205610E+00 -0.2665504209075E+01 -0.5731383144675E+00  0.9804153577422E-01
-0.5841782153978E-01 -0.2536309939890E+01 -0.5189455600189E+00  0.1927655513173E+00
 0.1567910054077E+00 -0.2417121579261E+01 -0.4520661215070E+00  0.3054809089789E+00
 0.4652426490519E+00 -0.2319447268429E+01 -0.3708409294014E+00  0.4260588101435E+00
 0.8832254522677E+00 -0.2254798126541E+01 -0.2743145389423E+00  0.5346820598710E+00
 0.1415709019815E+01 -0.2229734008101E+01 -0.1628050000833E+00  0.6011468800797E+00
 0.2046925412412E+01 -0.2239567191153E+01 -0.3852835632226E-01  0.5889317735022E+00
 0.2735584343627E+01 -0.2264420490964E+01  0.9423277193665E-01  0.4659094393224E+00
 0.3405350490354E+01 -0.2267027767573E+01  0.2276645479487E+00  0.2164040224513E+00
-0.8980762643087E+00 -0.3902492388332E+01 -0.9601137448349E+00  0.2477992012102E+00
-0.7559391575718E+00 -0.3960820947034E+01 -0.9433520349783E+00  0.2969731605105E+00
-0.6160433569861E+00 -0.4012076797812E+01 -0.9256240447524E+00  0.3209246748353E+00
-0.4880746964436E+00 -0.4051326575337E+01 -0.9078802678846E+00  0.3232615252945E+00
-0.3783671766896E+00 -0.4076282859677E+01 -0.8909300205492E+00  0.3101786944296E+00
-0.2892318332489E+00 -0.4087394931341E+01 -0.8753253659613E+00  0.2881745404832E+00
-0.2198600262286E+00 -0.4086899217807E+01 -0.8613518616423E+00  0.2624689734079E+00
-0.1677344253404E+00 -0.4077676171425E+01 -0.8490821320054E+00  0.2364790882300E+00
-0.1297978808852E+00 -0.4062443354323E+01 -0.8384482595356E+00  0.2120173009315E+00
-0.1031505704956E+00 -0.4043380468735E+01 -0.8293062202037E+00  0.1897588978586E+00
-0.8535259616456E-01 -0.4022057899957E+01 -0.8214821114654E+00  0.1696926812107E+00
-0.7448943521485E-01 -0.3999511789568E+01 -0.8148002570981E+00  0.1514502911431E+00
-0.6912717576001E-01 -0.3976360146112E+01 -0.8090974764308E+00  0.1345125136147E+00
-0.6823216679526E-01 -0.3952909272505E+01 -0.8042282998440E+00  0.1183258766939E+00
-0.7109004008433E-01 -0.3929233727640E+01 -0.8000647654667E+00  0.1023640406818E+00
-0.7723642716790E-01 -0.3905228663862E+01 -0.7964930300747E+00  0.8615960188735E-01
-0.8640073269202E-01 -0.3880638968884E+01 -0.7934079521380E+00  0.6932313903770E-01
-0.9845873601316E-01 -0.3855072007072E+01 -0.7907061603995E+00  0.5156057779742E-01
-0.1133883140784E+00 -0.3827998799367E+01 -0.7882774344353E+00  0.3269392366495E-01
-0.1312198406219E+00 -0.3798751934785E+01 -0.7859943667936E+00  0.1268847767865E-01
-0.1519744311181E+00 -0.3766526640265E+01 -0.7837002259547E+00 -0.8315394658904E-02
-0.1755875530115E+00 -0.3730387730866E+01 -0.7811950684161E+00 -0.2997324130965E-01
-0.2018215035537E+00 -0.3689283291893E+01 -0.7782209706857E+00 -0.5171638464871E-01
-0.2301769928890E+00 -0.3642081549159E+01 -0.7744517199498E+00 -0.7274667528782E-01
-0.2598112110422E+00 -0.3587710697804E+01 -0.7695043932358E+00 -0.9205455075539E-01
-0.2894774742657E+00 -0.3525215441224E+01 -0.7629385944666E+00 -0.1084279544746E+00
-0.3174663252793E+00 -0.3453631566965E+01 -0.7542195896877E+00 -0.1203969102807E+00
-0.3414857452252E+00 -0.3371912718902E+01 -0.7426797038922E+00 -0.1261295540439E+00
-0.3584264884542E+00 -0.3278995638992E+01 -0.7274844363296E+00 -0.1233100543240E+00
-0.3639722459224E+00 -0.3174025809599E+01 -0.7075996216482E+00 -0.1090442333727E+00
-0.3520289171098E+00 -0.3056761291231E+01 -0.6817580518271E+00 -0.7986356708916E-01
-0.3139715004751E+00 -0.2928177292618E+01 -0.6484297682810E+00 -0.3194050712966E-01
-0.2377728780664E+00 -0.2791280805611E+01 -0.6058107457627E+00  0.3829589520557E-01
-0.1072032767482E+00 -0.2651943908032E+01 -0.5518294451789E+00  0.1329111177984E+00
 0.9837101571958E-01 -0.2519540216700E+01 -0.4842338474118E+00  0.2502433559571E+00
 0.4023786291136E+00 -0.2406893881445E+01 -0.4009030564403E+00  0.3814276349093E+00
 0.8260954963713E+00 -0.2328038266919E+01 -0.3003885585857E+00  0.5064503202532E+00
 0.1379407200290E+01 -0.2292591006996E+01 -0.1826367640626E+00  0.5921715335149E+00
 0.2049031591068E+01 -0.2297685539260E+01 -0.4973079037943E-01  0.5958853537455E+00
 0.2788399962344E+01 -0.2321460811949E+01  0.9338783147075E-01  0.4778174095753E+00
 0.3523182491285E+01 -0.2322095486620E+01  0.2402174045124E+00  0.2126109849673E+00
-0.9215239104249E+00 -0.4018035776236E+01 -0.9879119520533E+00  0.2713188485116E+00
-0.7693600311963E+00 -0.4080061868096E+01 -0.9698843943109E+00  0.3188210894178E+00
-0.6201136869282E+00 -0.4133796200721E+01 -0.9507819916976E+00  0.3387065987304E+00
-0.4849508130390E+00 -0.4173692032790E+01 -0.9317285830496E+00  0.3355038542235E+00
-0.3707399365521E+00 -0.4197533832603E+01 -0.9136547674456E+00  0.3166529786391E+00
-0.2794751395473E+00 -0.4206345648446E+01 -0.8971641709675E+00  0.2896059405420E+00
-0.2096322315562E+00 -0.4203060537458E+01 -0.8825385669537E+00  0.2600180610137E+00
-0.1579728985174E+00 -0.4191107500756E+01 -0.8698160928160E+00  0.2313231802769E+00
-0.1208983590892E+00 -0.4173525013852E+01 -0.8588846873866E+00  0.2051331656633E+00
-0.9517057999190E-01 -0.4152626063423E+01 -0.8495593413425E+00  0.1818643008625E+00
-0.7816868399320E-01 -0.4130000200369E+01 -0.8416337894138E+00  0.1612704111871E+00
-0.6789772683183E-01 -0.4106649820161E+01 -0.8349095218396E+00  0.1427986790437E+00
-0.6290022154140E-01 -0.4083144348028E+01 -0.8292089262701E+00  0.1257943704083E+00
-0.6214819086979E-01 -0.4059746090682E+01 -0.8243788685945E+00  0.1096061131028E+00
-0.6494700343140E-01 -0.4036498038521E+01 -0.8202890206137E+00  0.9363482040899E-01
-0.7085905950620E-01 -0.4013277662961E+01 -0.8168273566650E+00  0.7735486046787E-01
-0.7964561450267E-01 -0.3989824083121E+01 -0.8138939516527E+00  0.6032493209601E-01
-0.9122056718976E-01 -0.3965746748321E+01 -0.8113934751928E+00  0.4219973305777E-01
-0.1056090469072E+00 -0.3940521209024E+01 -0.8092260632446E+00  0.2274753920816E-01
-0.1229008870734E+00 -0.3913480843948E+01 -0.8072763582335E+00  0.1876993212292E-02
-0.1431903421413E+00 -0.3883811976346E+01 -0.8054004756989E+00 -0.2032899585177E-01
-0.1664980163785E+00 -0.3850556427787E+01 -0.8034109008049E+00 -0.4358093612260E-01
-0.1926788359613E+00 -0.3812622514398E+01 -0.8010602820085E+00 -0.6736073991274E-01
-0.2213295003194E+00 -0.3768820543365E+01 -0.7980300206284E+00 -0.9091830414347E-01
-0.2517070827357E+00 -0.3718005265666E+01 -0.7939424815110E+00 -0.1132941967843E+00
-0.2826794376517E+00 -0.3659125693964E+01 -0.7883610380707E+00 -0.1333321057035E+00
-0.3126866424936E+00 -0.3591074569500E+01 -0.7807522540328E+00 -0.1496193874841E+00
-0.3396416061554E+00 -0.3512584151205E+01 -0.7704451629525E+00 -0.1603646735947E+00
-0.3607055531947E+00 -0.3422261432102E+01 -0.7565934083335E+00 -0.1632400452601E+00
-0.3718885005434E+00 -0.3318787988847E+01 -0.7381353088772E+00 -0.1552312974736E+00
-0.3674353706248E+00 -0.3201308639391E+01 -0.7137488126388E+00 -0.1325619081561E+00
-0.3389690536227E+00 -0.3070050502714E+01 -0.6818039214270E+00 -0.9079840479935E-01
-0.2744061160702E+00 -0.2927225444872E+01 -0.6403263217300E+00 -0.2533610826252E-01
-0.1567717620251E+00 -0.2778079933585E+01 -0.5869703478686E+00  0.6744838642524E-01
 0.3658218698103E-01 -0.2631949832970E+01 -0.5190735369325E+00  0.1878872311778E+00
 0.3329838667964E+00 -0.2502816019474E+01 -0.4339664370021E+00  0.3289789038232E+00
 0.7595709762366E+00 -0.2407475631404E+01 -0.3295809359446E+00  0.4711523012380E+00
 0.1332775099765E+01 -0.2359354970006E+01 -0.2053159771076E+00  0.5784687184985E+00
 0.2042880720452E+01 -0.2358365878401E+01 -0.6309703252995E-01  0.6012472422536E+00
 0.2840764286114E+01 -0.2380930796728E+01  0.9196669924764E-01  0.4891201684375E+00
 0.3643222099176E+01 -0.2382367538437E+01  0.2521709159055E+00  0.2107922334021E+00
-0.9448344679107E+00 -0.4135299419468E+01 -0.1016026792616E+01  0.2964572752732E+00
-0.7816027823075E+00 -0.4201309454444E+01 -0.9965824622004E+00  0.3419776538050E+00
-0.6221856670761E+00 -0.4257517544268E+01 -0.9759406568115E+00  0.3571021434314E+00
-0.4795109866999E+00 -0.4297690298880E+01 -0.9554402713532E+00  0.3475633187219E+00
-0.3609567944115E+00 -0.4319812457274E+01 -0.9361538642868E+00  0.3223324945072E+00
-0.2679939699431E+00 -0.4325687467352E+01 -0.9187363011492E+00  0.2899339648819E+00
-0.1981744866355E+00 -0.4319093759806E+01 -0.9034536627508E+00  0.2564222388343E+00
-0.1474140974922E+00 -0.4304062067741E+01 -0.8902952463131E+00  0.2251484053951E+00
-0.1115283825064E+00 -0.4283937468916E+01 -0.8790931833840E+00  0.1974317915853E+00
-0.8694409734957E-01 -0.4261125488287E+01 -0.8696139300855E+00  0.1733706648907E+00
-0.7087992068575E-01 -0.4237194015610E+01 -0.8616148000982E+00  0.1524552298362E+00
-0.6128255557085E-01 -0.4213080877519E+01 -0.8548726993565E+00  0.1339390798191E+00
-0.5668855166628E-01 -0.4189287131275E+01 -0.8491951492423E+00  0.1170329454376E+00
-0.5608769700197E-01 -0.4166020260740E+01 -0.8444216041312E+00  0.1009927934362E+00
-0.5881235664633E-01 -0.4143287450305E+01 -0.8404199739134E+00  0.8515314876473E-01
-0.6445517684534E-01 -0.4120949058547E+01 -0.8370808595520E+00  0.6893604770448E-01
-0.7280995140143E-01 -0.4098742661158E+01 -0.8343105349440E+00  0.5185288010451E-01
-0.8382754054429E-01 -0.4076286919729E+01 -0.8320229044529E+00  0.3350975537111E-01
-0.9757834573262E-01 -0.4053071275864E+01 -0.8301299366893E+00  0.1362144933618E-01
-0.1142099949343E+00 -0.4028440667574E+01 -0.8285301448478E+00 -0.7962452666008E-02
-0.1338894921421E+00 -0.4001583740720E+01 -0.8270946588971E+00 -0.3122121919012E-01
-0.1567236090017E+00 -0.3971530363674E+01 -0.8256508068384E+00 -0.5592649845286E-01
-0.1826611974533E+00 -0.3937160135727E+01 -0.8239642789141E+00 -0.8161767380426E-01
-0.2113945904495E+00 -0.3897237548902E+01 -0.8217264401150E+00 -0.1076007372351E+00
-0.2422777576913E+00 -0.3850558187690E+01 -0.8185672012738E+00 -0.1329776457513E+00
-0.2742892106638E+00 -0.3795992067821E+01 -0.8140562678274E+00 -0.1566654964167E+00
-0.3060185558726E+00 -0.3732306731281E+01 -0.8076650694658E+00 -0.1773364162016E+00
-0.3355941502455E+00 -0.3658029135692E+01 -0.7987246690895E+00 -0.1932790997359E+00
-0.3604765581224E+00 -0.3571445798729E+01 -0.7863844830884E+00 -0.2022067314613E+00
-0.3770595038061E+00 -0.3470767588173E+01 -0.7695654298632E+00 -0.2010524725695E+00
-0.3800275998109E+00 -0.3354485976374E+01 -0.7469027263667E+00 -0.1858102170263E+00
-0.3614148108058E+00 -0.3221977977759E+01 -0.7166785683922E+00 -0.1515146663026E+00
-0.3093201437385E+00 -0.3074459197518E+01 -0.6767558783357E+00 -0.9255443339235E-01
-0.2063135345334E+00 -0.2916223737831E+01 -0.6245074637788E+00 -0.3641277186012E-02
-0.2794558895741E-01 -0.2756155293053E+01 -0.5568201846993E+00  0.1179166907405E+00
 0.2571617669061E+00 -0.2609078805832E+01 -0.4703834147944E+00  0.2676901121863E+00
 0.6829514107079E+00 -0.2494687208326E+01 -0.3623471649231E+00  0.4274275972992E+00
 0.1274224663671E+01 -0.2431098665802E+01 -0.2313748038740E+00  0.5588724762609E+00
 0.2027201433380E+01 -0.2422194126384E+01 -0.7899853977788E-01  0.6042932273227E+00
 0.2890744429775E+01 -0.2444189472308E+01  0.8931099282413E-01  0.5009582333406E+00
 0.3768271324235E+01 -0.2446295552802E+01  0.2643951582264E+00  0.2095563415199E+00
-0.9679740895830E+00 -0.4254577112813E+01 -0.1044510256044E+01  0.3233734919743E+00
-0.7924434025833E+00 -0.4324888538012E+01 -0.1023466403370E+01  0.3665189812147E+00
-0.6219270989646E+00 -0.4383508000964E+01 -0.1001087034903E+01  0.3760250499792E+00
-0.4714541219874E+00 -0.4423446816292E+01 -0.9789802022439E+00  0.3592142274642E+00
-0.3488348328778E+00 -0.4443086144342E+01 -0.9583842097250E+00  0.3269422282044E+00
-0.2547306670316E+00 -0.4445275313425E+01 -0.9400012100984E+00  0.2889164459387E+00
-0.1855164546910E+00 -0.4434804598293E+01 -0.9240642243665E+00  0.2515102247111E+00
-0.1361314479161E+00 -0.4416344205683E+01 -0.9104951442873E+00  0.2178548490954E+00
-0.1017745467792E+00 -0.4393507768949E+01 -0.8990564765427E+00  0.1888679069996E+00
-0.7855499717612E-01 -0.4368734854103E+01 -0.8894579835098E+00  0.1642684117688E+00
-0.6356166521833E-01 -0.4343521485137E+01 -0.8814166432051E+00  0.1432583779441E+00
-0.5471036998991E-01 -0.4318706500542E+01 -0.8746833871401E+00  0.1248937682538E+00
-0.5055166903040E-01 -0.4294702148756E+01 -0.8690507765071E+00  0.1082559442153E+00
-0.5010595185357E-01 -0.4271650791005E+01 -0.8643513614516E+00  0.9251647072567E-01
-0.5273980721147E-01 -0.4249520437144E+01 -0.8604520616927E+00  0.7695197611137E-01
-0.5807919263990E-01 -0.4228155805577E+01 -0.8572470124174E+00  0.6093964038198E-01
-0.6595047669365E-01 -0.4207298069215E+01 -0.8546497219170E+00  0.4394938421993E-01
-0.7633945522452E-01 -0.4186583268418E+01 -0.8525845574330E+00  0.2554243320301E-01
-0.8935876686089E-01 -0.4165525394544E+01 -0.8509768449615E+00  0.5381116585309E-02
-0.1052110736591E+00 -0.4143493298864E+01 -0.8497408871667E+00 -0.1674597721040E-01
-0.1241348812234E+00 -0.4119690885738E+01 -0.8487651660398E+00 -0.4088496671295E-01
-0.1463237476760E+00 -0.4093148671217E+01 -0.8478944964132E+00 -0.6687495606868E-01
-0.1718215694261E+00 -0.4062729897644E+01 -0.8469103060340E+00 -0.9431952539574E-01
-0.2004152606200E+00 -0.4027166694883E+01 -0.8455164036999E+00 -0.1225880184484E+00
-0.2315506698831E+00 -0.3985211702058E+01 -0.8433524869551E+00 -0.1508537782709E+00
-0.2643094445480E+00 -0.3935675753948E+01 -0.8399970522162E+00 -0.1781238474915E+00
-0.2974257574247E+00 -0.3877223977664E+01 -0.8349299594591E+00 -0.2031822143774E+00
-0.3292479893820E+00 -0.3808201749342E+01 -0.8274899600753E+00 -0.2244382317344E+00
-0.3575580032403E+00 -0.3726595993668E+01 -0.8168308115535E+00 -0.2397028916490E+00
-0.3791829981521E+00 -0.3630156950454E+01 -0.8018680016700E+00 -0.2459327049059E+00
-0.3893419832859E+00 -0.3516704805597E+01 -0.7812093694176E+00 -0.2389889704522E+00
-0.3806466658529E+00 -0.3384687445918E+01 -0.7530668335757E+00 -0.2134842330367E+00
-0.3416478052684E+00 -0.3234132423256E+01 -0.7151560563616E+00 -0.1628850454664E+00
-0.2548339247790E+00 -0.3068019902436E+01 -0.6645707753458E+00 -0.8020234348530E-01
-0.9432588198995E-01 -0.2894249139623E+01 -0.5977150132292E+00  0.3994317872282E-01
 0.1752749563196E+00 -0.2727967390883E+01 -0.5105384945203E+00  0.1964872755887E+00
 0.5955985179337E+00 -0.2591714071972E+01 -0.3992231167566E+00  0.3736879215433E+00
 0.1202077145223E+01 -0.2509196963374E+01 -0.2614239675257E+00  0.5318210832054E+00
 0.1999895575536E+01 -0.2490110559081E+01 -0.9804299816996E-01  0.6043962699401E+00
 0.2936975726745E+01 -0.2511514560730E+01  0.8509223447096E-01  0.5136421401073E+00
 0.3899465008966E+01 -0.2514337888188E+01  0.2770254282834E+00  0.2085438362873E+00
-0.9908977332845E+00 -0.4376235288058E+01 -0.1073426620264E+01  0.3522534668665E+00
-0.8015988290674E+00 -0.4451197096453E+01 -0.1050559200759E+01  0.3925190636196E+00
-0.6189344778290E+00 -0.4512075916725E+01 -0.1026202094202E+01  0.3953398117862E+00
-0.4604389219804E+00 -0.4551077179521E+01 -0.1002303235236E+01  0.3701583859258E+00
-0.3341923097745E+00 -0.4567274323519E+01 -0.9802933412663E+00  0.3301468415404E+00
-0.2396537432983E+00 -0.4564905624824E+01 -0.9609118879431E+00  0.2862796598186E+00
-0.1717192697495E+00 -0.4549950012409E+01 -0.9443338705033E+00  0.2451043520009E+00
-0.1242241322962E+00 -0.4527725858672E+01 -0.9303900120575E+00  0.2093502483632E+00
-0.9174077760365E-01 -0.4502044946311E+01 -0.9187571584734E+00  0.1794085574837E+00
-0.7009739242222E-01 -0.4475302067670E+01 -0.9090799055648E+00  0.1545597511235E+00
-0.5629470014358E-01 -0.4448862307468E+01 -0.9010314149488E+00  0.1337002738798E+00
-0.4825018733981E-01 -0.4423428728700E+01 -0.8943357965345E+00  0.1156911141714E+00
-0.4455019905245E-01 -0.4399304699554E+01 -0.8887709929649E+00  0.9949425786184E-01
-0.4425886513378E-01 -0.4376558347057E+01 -0.8841634556132E+00  0.8420832953034E-01
-0.4678391341513E-01 -0.4355116366027E+01 -0.8803800690072E+00  0.6906268840311E-01
-0.5178711757512E-01 -0.4334810358363E+01 -0.8773195082607E+00  0.5339868027085E-01
-0.5912673475412E-01 -0.4315391164581E+01 -0.8749035929041E+00  0.3665187180505E-01
-0.6882054525479E-01 -0.4296521372740E+01 -0.8730683966086E+00  0.1834345469865E-01
-0.8101923004182E-01 -0.4277751482719E+01 -0.8717541555423E+00 -0.1914668924760E-02
-0.9597645629564E-01 -0.4258488315094E+01 -0.8708929672551E+00 -0.2439625693595E-01
-0.1139999573848E+00 -0.4237965903144E+01 -0.8703931850755E+00 -0.4921888511721E-01
-0.1353702750707E+00 -0.4215229776010E+01 -0.8701200231819E+00 -0.7629569140239E-01
-0.1602275157991E+00 -0.4189140499976E+01 -0.8698736161171E+00 -0.1053011544814E+00
-0.1884517429279E+00 -0.4158412403370E+01 -0.8693728422142E+00 -0.1356743568891E+00
-0.2195737825003E+00 -0.4121772914620E+01 -0.8682693523623E+00 -0.1666683835619E+00
-0.2527671125154E+00 -0.4077996119622E+01 -0.8661526593342E+00 -0.1973949862437E+00
-0.2869001698578E+00 -0.4025672003802E+01 -0.8625144475845E+00 -0.2267758176159E+00
-0.3205393296998E+00 -0.3962995583376E+01 -0.8567069953811E+00 -0.2533810800203E+00
-0.3518014486866E+00 -0.3887687388889E+01 -0.8478977801499E+00 -0.2751776409786E+00
-0.3779864010455E+00 -0.3797066552025E+01 -0.8350106030567E+00 -0.2892270671940E+00
-0.3949304024054E+00 -0.3688292362571E+01 -0.8166445651643E+00 -0.2913708333260E+00
-0.3959830553995E+00 -0.3558839927570E+01 -0.7909646083802E+00 -0.2759445755384E+00
-0.3704341358524E+00 -0.3407386592389E+01 -0.7555641569070E+00 -0.2356444295573E+00
-0.3011448189392E+00 -0.3235225686313E+01 -0.7072741115897E+00 -0.1618437655470E+00
-0.1613618329604E+00 -0.3048625082259E+01 -0.6419973926105E+00 -0.4623907633528E-01
 0.8802991583794E-01 -0.2862273196378E+01 -0.5548486643759E+00  0.1143056443733E+00
 0.4970711777870E+00 -0.2701185419688E+01 -0.4408228549490E+00  0.3080752256318E+00
 0.1114430372641E+01 -0.2595537611649E+01 -0.2962214522158E+00  0.4953508013245E+00
 0.1958305630498E+01 -0.2563103805992E+01 -0.1209596369014E+00  0.6005539839045E+00
 0.2977829774031E+01 -0.2583369444421E+01  0.7889206709768E-01  0.5273082564242E+00
 0.4038110158206E+01 -0.2587022531315E+01  0.2902175297027E+00  0.2076014404578E+00
-0.1013544475067E+01 -0.4500737190271E+01 -0.1102856349501E+01  0.3833163762511E+00
-0.8087071090536E+00 -0.4580727272328E+01 -0.1077886892338E+01  0.4200432253324E+00
-0.6127155955659E+00 -0.4643574761791E+01 -0.1051258087136E+01  0.4148394835042E+00
-0.4460829152860E+00 -0.4680671932700E+01 -0.1025350984876E+01  0.3800027595517E+00
-0.3168598681781E+00 -0.4692226466612E+01 -0.1001817281886E+01  0.3315407500780E+00
-0.2227705122811E+00 -0.4684299721311E+01 -0.9814140613426E+00  0.2817203038371E+00
-0.1568836361603E+00 -0.4664230415543E+01 -0.9642228247088E+00  0.2370276772580E+00
-0.1118203679865E+00 -0.4637945166661E+01 -0.9499531210850E+00  0.1995569657912E+00
-0.8154867709769E-01 -0.4609341580301E+01 -0.9381780654596E+00  0.1690380456089E+00
-0.6167472479677E-01 -0.4580669244104E+01 -0.9284688076155E+00  0.1442616437463E+00
-0.4916397726753E-01 -0.4553096088903E+01 -0.9204520269499E+00  0.1238120883824E+00
-0.4197236857347E-01 -0.4527152119525E+01 -0.9138249112368E+00  0.1063662879640E+00
-0.3874480580589E-01 -0.4503013407595E+01 -0.9083516562156E+00  0.9078213942961E-01
-0.3860205340713E-01 -0.4480666667159E+01 -0.9038537575818E+00  0.7610002377714E-01
-0.4099927269739E-01 -0.4459996733299E+01 -0.9001992146132E+00  0.6151469227588E-01
-0.4563585742925E-01 -0.4440825786658E+01 -0.8972923421881E+00  0.4634212213766E-01
-0.5240050289363E-01 -0.4422921301270E+01 -0.8950643741703E+00  0.2999188252142E-01
-0.6133907736957E-01 -0.4405982482240E+01 -0.8934643252356E+00  0.1195120128140E-01
-0.7263486607745E-01 -0.4389609538128E+01 -0.8924488941397E+00 -0.8215281938291E-02
-0.8658704738581E-01 -0.4373263117743E+01 -0.8919700463171E+00 -0.3084423309076E-01
-0.1035690450224E+00 -0.4356224476011E+01 -0.8919587174980E+00 -0.5612916757038E-01
-0.1239480902453E+00 -0.4337570608357E+01 -0.8923037530168E+00 -0.8406426262348E-01
-0.1479619668401E+00 -0.4316174509550E+01 -0.8928273085823E+00 -0.1144018236905E+00
-0.1755825113928E+00 -0.4290748112356E+01 -0.8932661380604E+00 -0.1466562343990E+00
-0.2064170218844E+00 -0.4260012299522E+01 -0.8932858775923E+00 -0.1801667286987E+00
-0.2397156950731E+00 -0.4222728669803E+01 -0.8924888862744E+00 -0.2141621377960E+00
-0.2744653788130E+00 -0.4177442981870E+01 -0.8903816854043E+00 -0.2477253145086E+00
-0.3094414315429E+00 -0.4122237966930E+01 -0.8863358929021E+00 -0.2796254900472E+00
-0.3431001812131E+00 -0.4054613331785E+01 -0.8795427157057E+00 -0.3080422272211E+00
-0.3732402223234E+00 -0.3971507808623E+01 -0.8689496191376E+00 -0.3302256906267E+00
-0.3963798274029E+00 -0.3869463970149E+01 -0.8531687722237E+00 -0.3421212081682E+00
-0.4067481113220E+00 -0.3744988693542E+01 -0.8303473733460E+00 -0.3379646925951E+00
-0.3946604429875E+00 -0.3595301701375E+01 -0.7979924407635E+00 -0.3099050735156E+00
-0.3438677853507E+00 -0.3419662218471E+01 -0.7527060119806E+00 -0.2478687732301E+00
-0.2274995433481E+00 -0.3221972310228E+01 -0.6898943809955E+00 -0.1405485322497E+00
-0.3400266728354E-02 -0.3015374970946E+01 -0.6037550565316E+00  0.2018015802682E-01
 0.3872569095520E+00 -0.2826515624854E+01 -0.4878517503299E+00  0.2284780165781E+00
 0.1009219642649E+01 -0.2692672183513E+01 -0.3366905131899E+00  0.4469344369779E+00
 0.1899107446236E+01 -0.2642460497490E+01 -0.1486706124661E+00  0.5912285332744E+00
 0.3011222843072E+01 -0.2660386889194E+01  0.7016719182122E-01  0.5419607946504E+00
 0.4185685454135E+01 -0.2665070157186E+01  0.3041230639217E+00  0.2067317290494E+00
-0.1035830394140E+01 -0.4628677400690E+01 -0.1132901575848E+01  0.4168226390349E+00
-0.8132994987016E+00 -0.4714093445037E+01 -0.1105478605221E+01  0.4491365722433E+00
-0.6026681958622E+00 -0.4778404359069E+01 -0.1076214527023E+01  0.4342130028829E+00
-0.4279654790671E+00 -0.4812271546870E+01 -0.1048047420805E+01  0.3882307297636E+00
-0.2966980595010E+00 -0.4817691675206E+01 -0.1022877962183E+01  0.3306390758130E+00
-0.2041433839753E+00 -0.4803084131537E+01 -0.1001445518025E+01  0.2749117020968E+00
-0.1411585437723E+00 -0.4777282631885E+01 -0.9836882497895E+00  0.2271146650148E+00
-0.9907989382480E-01 -0.4746706851258E+01 -0.9691573634582E+00  0.1884207650942E+00
-0.7133691956553E-01 -0.4715176841116E+01 -0.9573027664012E+00  0.1577634421356E+00
-0.5339816174029E-01 -0.4684676057789E+01 -0.9476148580265E+00  0.1334087970632E+00
-0.4225693036114E-01 -0.4656105238455E+01 -0.9396724477654E+00  0.1136371861100E+00
-0.3594713511363E-01 -0.4629786079068E+01 -0.9331466567413E+00  0.9696181494575E-01
-0.3319495070115E-01 -0.4605752088397E+01 -0.9277894216448E+00  0.8215725939798E-01
-0.3318979587338E-01 -0.4583904109826E+01 -0.9234187948999E+00  0.6822343352934E-01
-0.3543961677798E-01 -0.4564086522197E+01 -0.9199052415026E+00  0.5433495235539E-01
-0.3968240952568E-01 -0.4546117033123E+01 -0.9171599021964E+00  0.3979415178043E-01
-0.4583509204270E-01 -0.4529787518041E+01 -0.9151245356532E+00  0.2399411761640E-01
-0.5396681303508E-01 -0.4514844583287E+01 -0.9137622928805E+00  0.6395465468544E-02
-0.6428673950034E-01 -0.4500952436639E+01 -0.9130478488333E+00 -0.1347989590231E-01
-0.7713239054968E-01 -0.4487643272456E+01 -0.9129551462052E+00 -0.3603102093460E-01
-0.9293774838675E-01 -0.4474265238416E+01 -0.9134406109719E+00 -0.6153157553495E-01
-0.1121557742996E+00 -0.4459945835511E+01 -0.9144203355880E+00 -0.9006439686769E-01
-0.1351239553665E+00 -0.4443587284817E+01 -0.9157422616824E+00 -0.1214671730874E+00
-0.1619051455318E+00 -0.4423915142225E+01 -0.9171640712182E+00 -0.1553345552419E+00
-0.1921734413535E+00 -0.4399662598427E+01 -0.9183672216408E+00 -0.1910962103261E+00
-0.2252369588025E+00 -0.4369603730984E+01 -0.9189681516510E+00 -0.2281074867737E+00
-0.2601795485647E+00 -0.4332273293472E+01 -0.9184905820939E+00 -0.2656327396442E+00
-0.2959695452271E+00 -0.4285685404454E+01 -0.9163310035906E+00 -0.3026746654511E+00
-0.3313976043125E+00 -0.4227176161017E+01 -0.9117147666514E+00 -0.3376781100210E+00
-0.3647720457058E+00 -0.4153376431119E+01 -0.9036297088300E+00 -0.3681624139050E+00
-0.3933345261152E+00 -0.4060294028264E+01 -0.8907257241487E+00 -0.3903043670415E+00
-0.4123038081262E+00 -0.3943532154131E+01 -0.8711672054328E+00 -0.3984411940125E+00
-0.4132821254900E+00 -0.3798827962420E+01 -0.8424220301350E+00 -0.3844664794967E+00
-0.3814575921835E+00 -0.3623136812358E+01 -0.8009188928430E+00 -0.3371987598012E+00
-0.2907924474884E+00 -0.3417233132459E+01 -0.7416051270402E+00 -0.2424829107437E+00
-0.9723770637891E-01 -0.3191313047487E+01 -0.6577101605739E+00 -0.8660334941220E-01
 0.2665811014325E+00 -0.2972131724814E+01 -0.5411101327395E+00  0.1325804587332E+00
 0.8843340023843E+00 -0.2804125534432E+01 -0.3839583121309E+00  0.3833244709566E+00
 0.1818169680870E+01 -0.2729999061413E+01 -0.1823658788261E+00  0.5741186507151E+00
 0.3034327177318E+01 -0.2743435088224E+01  0.5817841868573E-01  0.5574401017928E+00
 0.4343968420413E+01 -0.2749403417665E+01  0.3189130053016E+00  0.2060584532738E+00
-0.1057637522907E+01 -0.4760832236149E+01 -0.1163693969152E+01  0.4530842666133E+00
-0.8147606892996E+00 -0.4852069908473E+01 -0.1133366136443E+01  0.4798036730222E+00
-0.5880545334177E+00 -0.4917005765439E+01 -0.1101012076178E+01  0.4529967590304E+00
-0.4056383343466E+00 -0.4945825878332E+01 -0.1070292858484E+01  0.3941659282818E+00
-0.2736238073616E+00 -0.4943277323403E+01 -0.1043380241701E+01  0.3268719996676E+00
-0.1839100961278E+00 -0.4920768618960E+01 -0.1020935758231E+01  0.2655166615147E+00
-0.1247497789362E+00 -0.4888675101498E+01 -0.1002684991028E+01  0.2152263284847E+00
-0.8619495328314E-01 -0.4853685302032E+01 -0.9879760657851E+00  0.1759213148953E+00
-0.6125936226308E-01 -0.4819321331584E+01 -0.9761161533146E+00  0.1456203956431E+00
-0.4538419296794E-01 -0.4787164092385E+01 -0.9665096714726E+00  0.1220564903853E+00
-0.3566133627576E-01 -0.4757778386151E+01 -0.9586879587709E+00  0.1032323156062E+00
-0.3024283761230E-01 -0.4731247458702E+01 -0.9522980734533E+00  0.8752791511474E-01
-0.2795751127788E-01 -0.4707451753628E+01 -0.9470818670939E+00  0.7366061078142E-01
-0.2807389884553E-01 -0.4686205285875E+01 -0.9428558509938E+00  0.6061033228510E-01
-0.3015682592090E-01 -0.4667315638421E+01 -0.9394945068680E+00  0.4754748700995E-01
-0.3398296241741E-01 -0.4650602276657E+01 -0.9369170617761E+00  0.3377349181559E-01
-0.3949451855228E-01 -0.4635889887062E+01 -0.9350768950566E+00  0.1867547764567E-01
-0.4677831165240E-01 -0.4622983690090E+01 -0.9339524142654E+00  0.1696115622006E-02
-0.5606141405392E-01 -0.4611626991100E+01 -0.9335376949415E+00 -0.1767925484691E-01
-0.6771063299644E-01 -0.4601443066717E+01 -0.9338307538579E+00 -0.3991005096262E-01
-0.8221333663934E-01 -0.4591869620937E+01 -0.9348166054450E+00 -0.6535372913719E-01
-0.1001062477705E+00 -0.4582107028502E+01 -0.9364426692086E+00 -0.9419018834123E-01
-0.1218293496545E+00 -0.4571105783166E+01 -0.9385870405501E+00 -0.1263512664910E+00
-0.1475370723799E+00 -0.4557621581439E+01 -0.9410317447862E+00 -0.1615167478577E+00
-0.1769600861507E+00 -0.4540418069653E+01 -0.9434756452195E+00 -0.1992089414409E+00
-0.2094422236024E+00 -0.4518305929314E+01 -0.9455496446731E+00 -0.2389158391869E+00
-0.2441376186043E+00 -0.4489842494516E+01 -0.9467960367324E+00 -0.2800994711908E+00
-0.2801849909119E+00 -0.4453020587489E+01 -0.9466411297863E+00 -0.3220248871653E+00
-0.3166948331222E+00 -0.4405079973328E+01 -0.9443549753621E+00 -0.3634473269448E+00
-0.3524802851810E+00 -0.4342437310306E+01 -0.9389835330894E+00 -0.4022274422730E+00
-0.3855198839376E+00 -0.4260687178263E+01 -0.9292414262869E+00 -0.4348961877877E+00
-0.4120882959139E+00 -0.4154662558712E+01 -0.9133501845351E+00 -0.4561042564559E+00
-0.4252821259176E+00 -0.4018702353665E+01 -0.8887969091606E+00 -0.4578373267034E+00
-0.4122535068305E+00 -0.3847329353964E+01 -0.8519165848534E+00 -0.4282994309588E+00
-0.3488943547859E+00 -0.3637505850812E+01 -0.7972800530000E+00 -0.3509556328611E+00
-0.1909506027230E+00 -0.3394823593638E+01 -0.7171548499587E+00 -0.2062805889738E+00
 0.1363041306404E+00 -0.3143751601866E+01 -0.6014895032080E+00  0.1799683238575E-01
 0.7378399978827E+00 -0.2934850959794E+01 -0.4394021989298E+00  0.3004015141722E+00
 0.1710384276404E+01 -0.2828418489575E+01 -0.2236068459662E+00  0.5458226454257E+00
 0.3043182924458E+01 -0.2833718858786E+01  0.4189281375864E-01  0.5732905211331E+00
 0.4515150805823E+01 -0.2841200886075E+01  0.3347899889384E+00  0.2058360140306E+00
-0.1078796260495E+01 -0.4898235213104E+01 -0.1195406312533E+01  0.4924781457119E+00
-0.8122713556512E+00 -0.4995641437443E+01 -0.1161582575928E+01  0.5119726894483E+00
-0.5679727291307E+00 -0.5059842695813E+01 -0.1125563101761E+01  0.4705024213758E+00
-0.3786493610774E+00 -0.5081129284689E+01 -0.1091955745425E+01  0.3969285685686E+00
-0.2476491053816E+00 -0.5068394313174E+01 -0.1063208699554E+01  0.3195871679349E+00
-0.1623074609773E+00 -0.5036724065306E+01 -0.1039806320751E+01  0.2532102338725E+00
-0.1079267609676E+00 -0.4997907633079E+01 -0.1021166894026E+01  0.2012704615238E+00
-0.7338886775209E-01 -0.4958531364336E+01 -0.1006384061414E+01  0.1620839867702E+00
-0.5148155995941E-01 -0.4921543962587E+01 -0.9946051193301E+00  0.1326788044708E+00
-0.3775136469796E-01 -0.4887982194408E+01 -0.9851467265009E+00  0.1102829779533E+00
-0.2946273381731E-01 -0.4858014275895E+01 -0.9774954165083E+00  0.9266841326844E-01
-0.2492400364761E-01 -0.4831463361698E+01 -0.9712774875423E+00  0.7812255941494E-01
-0.2308528775982E-01 -0.4808052703024E+01 -0.9662276125546E+00  0.6533623226158E-01
-0.2330249213488E-01 -0.4787512732428E+01 -0.9621630592500E+00  0.5329195487793E-01
-0.2519987976203E-01 -0.4769620388069E+01 -0.9589640678558E+00  0.4117282750387E-01
-0.2859190786892E-01 -0.4754204374344E+01 -0.9565592706964E+00  0.2829271327471E-01
-0.3344254162983E-01 -0.4741131011959E+01 -0.9549147249472E+00  0.1404411799715E-01
-0.3985004785751E-01 -0.4730275379219E+01 -0.9540250996313E+00 -0.2138261695875E-02
-0.4805031556905E-01 -0.4721475324676E+01 -0.9539051422634E+00 -0.2079757514815E-01
-0.5842834768731E-01 -0.4714466350182E+01 -0.9545789537982E+00 -0.4244948120151E-01
-0.7151511118764E-01 -0.4708801801009E+01 -0.9560633966857E+00 -0.6753774653255E-01
-0.8792751038348E-01 -0.4703781688642E+01 -0.9583418540856E+00 -0.9634857333697E-01
-0.1082116571151E+00 -0.4698427094885E+01 -0.9613277647250E+00 -0.1289187122221E+00
-0.1326162417992E+00 -0.4691541033122E+01 -0.9648314693613E+00 -0.1650187211254E+00
-0.1609185531283E+00 -0.4681934025967E+01 -0.9685705302518E+00 -0.2042640896250E+00
-0.1924730177983E+00 -0.4668474559640E+01 -0.9721895299744E+00 -0.2462781660595E+00
-0.2264725688524E+00 -0.4649773768803E+01 -0.9752492820633E+00 -0.2907319332200E+00
-0.2621980336925E+00 -0.4623851391449E+01 -0.9772098995900E+00 -0.3371742659610E+00
-0.2990569232937E+00 -0.4587925794480E+01 -0.9773965581191E+00 -0.3847050356543E+00
-0.3363467749311E+00 -0.4538312072376E+01 -0.9749317839891E+00 -0.4315840911596E+00
-0.3727663490836E+00 -0.4470351621415E+01 -0.9686236085334E+00 -0.4748042091018E+00
-0.4056585803354E+00 -0.4378313677266E+01 -0.9567944657777E+00 -0.5095359484990E+00
-0.4297397125156E+00 -0.4255353251063E+01 -0.9370186066784E+00 -0.5282357102653E+00
-0.4345664043817E+00 -0.4093639580156E+01 -0.9056412104026E+00 -0.5191217938660E+00
-0.3991034200488E+00 -0.3885867928346E+01 -0.8569942824492E+00 -0.4641115747914E+00
-0.2811175614250E+00 -0.3631289256891E+01 -0.7824813753230E+00 -0.3382831732416E+00
-0.1078087128858E-02 -0.3348688302977E+01 -0.6699532880043E+00 -0.1174454744818E+00
 0.5683840915712E+00 -0.3091884416646E+01 -0.5047000725356E+00  0.1930670038657E+00
 0.1569512424170E+01 -0.2941867305563E+01 -0.2744709803684E+00  0.5013383282755E+00
 0.3032125530249E+01 -0.2932976867777E+01  0.1982973278976E-01  0.5884847491204E+00
 0.4701984430169E+01 -0.2941992952558E+01  0.3519983007674E+00  0.2064844563524E+00
-0.1099056670560E+01 -0.5042293359184E+01 -0.1228270024252E+01  0.5354628148549E+00
-0.8047241318693E+00 -0.5146070544548E+01 -0.1190158953018E+01  0.5454314046441E+00
-0.5413283308759E+00 -0.5207355576883E+01 -0.1149736798684E+01  0.4857090864970E+00
-0.3465894060057E+00 -0.5217718008205E+01 -0.1112861499425E+01  0.3953868328381E+00
-0.2189355903336E+00 -0.5192187794443E+01 -0.1082224693082E+01  0.3080682953982E+00
-0.1396967580256E+00 -0.5150164891152E+01 -0.1057972345600E+01  0.2377163235595E+00
-0.9102536206120E-01 -0.5104418868367E+01 -0.1039088861569E+01  0.1852268642375E+00
-0.6091119814847E-01 -0.5060883722568E+01 -0.1024358999407E+01  0.1469919956674E+00
-0.4217547544140E-01 -0.5021620946699E+01 -0.1012759299519E+01  0.1190477707209E+00
-0.3061615430325E-01 -0.4986992783201E+01 -0.1003521802455E+01  0.9819118959189E-01
-0.2374144096628E-01 -0.4956726072933E+01 -0.9960935176227E+00  0.8203088029550E-01
-0.2004920812220E-01 -0.4930374113749E+01 -0.9900846791276E+00  0.6881117517660E-01
-0.1862543315127E-01 -0.4907506678064E+01 -0.9852264369241E+00  0.5723072075655E-01
-0.1891878442957E-01 -0.4887778618755E+01 -0.9813394952601E+00  0.4629845825170E-01
-0.2061376465414E-01 -0.4870944999092E+01 -0.9783117673272E+00  0.3522744741662E-01
-0.2356077668494E-01 -0.4856852393768E+01 -0.9760826486354E+00  0.2335757457572E-01
-0.2774156195623E-01 -0.4845417705527E+01 -0.9746318680198E+00  0.1009856062032E-01
-0.3325930915055E-01 -0.4836596637427E+01 -0.9739712038289E+00 -0.5111693594821E-02
-0.4034882517227E-01 -0.4830336688483E+01 -0.9741371172468E+00 -0.2283455016727E-01
-0.4940014149935E-01 -0.4826507827279E+01 -0.9751816082870E+00 -0.4363491991637E-01
-0.6097473365546E-01 -0.4824808884360E+01 -0.9771567381638E+00 -0.6804334646519E-01
-0.7576351996463E-01 -0.4824672127127E+01 -0.9800871440228E+00 -0.9646220547763E-01
-0.9442300462165E-01 -0.4825216564054E+01 -0.9839279283968E+00 -0.1290468923720E+00
-0.1173018280641E+00 -0.4825311063814E+01 -0.9885225931058E+00 -0.1656665621815E+00
-0.1442152605727E+00 -0.4823826637169E+01 -0.9936083943542E+00 -0.2060297243348E+00
-0.1745010136277E+00 -0.4819705043165E+01 -0.9988412262424E+00 -0.2498947388338E+00
-0.2073555169806E+00 -0.4811636268058E+01 -0.1003798371966E+01 -0.2971473470560E+00
-0.2421691869655E+00 -0.4797712401048E+01 -0.1007976332623E+01 -0.3476323136516E+00
-0.2786171421203E+00 -0.4775209916736E+01 -0.1010765426833E+01 -0.4008140020921E+00
-0.3164471355201E+00 -0.4740470622364E+01 -0.1011383566648E+01 -0.4553894227401E+00
-0.3550316540099E+00 -0.4688777030564E+01 -0.1008761751947E+01 -0.5088952409465E+00
-0.3927344978442E+00 -0.4614111821387E+01 -0.1001369278768E+01 -0.5572027132478E+00
-0.4259113235233E+00 -0.4508800115645E+01 -0.9869423025403E+00 -0.5936142857230E+00
-0.4468063609148E+00 -0.4362998851843E+01 -0.9619610568860E+00 -0.6070761705681E+00
-0.4384860518497E+00 -0.4165096063876E+01 -0.9207164368649E+00 -0.5791462451529E+00
-0.3633538901577E+00 -0.3906534797963E+01 -0.8539777503494E+00 -0.4808027454055E+00
-0.1413301387433E+00 -0.3596115021513E+01 -0.7474890431897E+00 -0.2751831920597E+00
 0.3758855324272E+00 -0.3285261992246E+01 -0.5818753006344E+00  0.5527494883736E-01
 0.1388132512515E+01 -0.3076910342451E+01 -0.3377555710202E+00  0.4333470387298E+00
 0.2992919830163E+01 -0.3043873695290E+01 -0.1019077317715E-01  0.6008906963766E+00
 0.4907958597187E+01 -0.3053841731753E+01  0.3708233786125E+00  0.2086464118401E+00
-0.1118040404393E+01 -0.5194972552466E+01 -0.1262602610186E+01  0.5825987015009E+00
-0.7905993734126E+00 -0.5304984470011E+01 -0.1219116786851E+01  0.5797112975454E+00
-0.5068151796023E+00 -0.5359860840341E+01 -0.1173335221473E+01  0.4971024252366E+00
-0.3091777240449E+00 -0.5354710297294E+01 -0.1132777621148E+01  0.3881122606576E+00
-0.1878678396843E+00 -0.5313456416033E+01 -0.1100264867539E+01  0.2915834567355E+00
-0.1165862031452E+00 -0.5260144667248E+01 -0.1075346190103E+01  0.2188619066786E+00
-0.7444341755688E-01 -0.5207605056428E+01 -0.1056409710539E+01  0.1671759215996E+00
-0.4902866281038E-01 -0.5160385224646E+01 -0.1041882793016E+01  0.1307973433144E+00
-0.3351238210669E-01 -0.5119346730732E+01 -0.1030571837924E+01  0.1048791941079E+00
-0.2408806656749E-01 -0.5084078951673E+01 -0.1021633418872E+01  0.8590944533774E-01
-0.1856925159052E-01 -0.5053845938167E+01 -0.1014483053068E+01  0.7141919708598E-01
-0.1566883368322E-01 -0.5027936286445E+01 -0.1008721039057E+01  0.5966594527731E-01
-0.1461785544287E-01 -0.5005778994802E+01 -0.1004079385011E+01  0.4939251404448E-01
-0.1495981381291E-01 -0.4986966417000E+01 -0.1000385261069E+01  0.3965827399061E-01
-0.1643836618460E-01 -0.4971243127241E+01 -0.9975363135496E+00  0.2972317419607E-01
-0.1893712071999E-01 -0.4958483180356E+01 -0.9954840750492E+00  0.1896641468025E-01
-0.2245138997740E-01 -0.4948662800950E+01 -0.9942228530005E+00  0.6826911417515E-02
-0.2708284752343E-01 -0.4941828013403E+01 -0.9937821869937E+00 -0.7242054015514E-02
-0.3305502347373E-01 -0.4938049794422E+01 -0.9942209783942E+00 -0.2380739629811E-01
-0.4074794503776E-01 -0.4937354950286E+01 -0.9956205939007E+00 -0.4347248450889E-01
-0.5073646984172E-01 -0.4939621426926E+01 -0.9980715942259E+00 -0.6685156827816E-01
-0.6377528939952E-01 -0.4944454104641E+01 -0.1001645893734E+01 -0.9447293215536E-01
-0.8063547065407E-01 -0.4951105164605E+01 -0.1006348142048E+01 -0.1266283878046E+00
-0.1017751368737E+00 -0.4958530950079E+01 -0.1012061232471E+01 -0.1632978405079E+00
-0.1270415065009E+00 -0.4965672765396E+01 -0.1018542869557E+01 -0.2042838359927E+00
-0.1557271532410E+00 -0.4971551540499E+01 -0.1025455754029E+01 -0.2494774515879E+00
-0.1869944029902E+00 -0.4974949639358E+01 -0.1032388823853E+01 -0.2989791906240E+00
-0.2203085923784E+00 -0.4974069361206E+01 -0.1038875606197E+01 -0.3529300535670E+00
-0.2555787463190E+00 -0.4966325903890E+01 -0.1044380945604E+01 -0.4111606610552E+00
-0.2929578506569E+00 -0.4948227693384E+01 -0.1048237124428E+01 -0.4728181968676E+00
-0.3324192175299E+00 -0.4915219426611E+01 -0.1049527744467E+01 -0.5360300691398E+00
-0.3732400190678E+00 -0.4861335019262E+01 -0.1046915023266E+01 -0.5975025170640E+00
-0.4133163836042E+00 -0.4778558108968E+01 -0.1038374913987E+01 -0.6517150812835E+00
-0.4476473069773E+00 -0.4655661082930E+01 -0.1020661693190E+01 -0.6890603066108E+00
-0.4641109918363E+00 -0.4477271827036E+01 -0.9882765785009E+00 -0.6921743099096E+00
-0.4323839808825E+00 -0.4226367378052E+01 -0.9317502856710E+00 -0.6302625493933E+00
-0.2779134325257E+00 -0.3897142785958E+01 -0.8350112561395E+00 -0.4550337644981E+00
 0.1626776967381E+00 -0.3529244286653E+01 -0.6733133280161E+00 -0.1195958682963E+00
 0.1157880398335E+01 -0.3244192463537E+01 -0.4172624192580E+00  0.3312507829294E+00
 0.2913441035241E+01 -0.3170803094804E+01 -0.5147241267949E-01  0.6062585089166E+00
 0.5137499171136E+01 -0.3179695148406E+01  0.3915608103807E+00  0.2132449426350E+00
-0.1135158068444E+01 -0.5359104577307E+01 -0.1298852548505E+01  0.6345695174537E+00
-0.7677799904434E+00 -0.5474479678677E+01 -0.1248451952427E+01  0.6138730012527E+00
-0.4629271994968E+00 -0.5517341065304E+01 -0.1196053670783E+01  0.5024375766523E+00
-0.2664104610354E+00 -0.5490563460576E+01 -0.1151394801479E+01  0.3733625178777E+00
-0.1551443935584E+00 -0.5430573968254E+01 -0.1117143689009E+01  0.2694838122579E+00
-0.9364138575579E-01 -0.5365578947524E+01 -0.1091844082926E+01  0.1966499877606E+00
-0.5862508081895E-01 -0.5306852847768E+01 -0.1073095601708E+01  0.1473263156306E+00
-0.3801161575966E-01 -0.5256703557745E+01 -0.1058943050480E+01  0.1137286567400E+00
-0.2565420191422E-01 -0.5214546531092E+01 -0.1048040162218E+01  0.9036942399118E-01
-0.1826409766800E-01 -0.5179152124743E+01 -0.1039483259972E+01  0.7359089718404E-01
-0.1400593684501E-01 -0.5149329694328E+01 -0.1032667141623E+01  0.6094575404394E-01
-0.1182280712664E-01 -0.5124125674882E+01 -0.1027189711708E+01  0.5076465916507E-01
-0.1109364749054E-01 -0.5102850596493E+01 -0.1022788864038E+01  0.4187092928136E-01
-0.1145523352240E-01 -0.5085052500873E+01 -0.1019301562068E+01  0.3339735331778E-01
-0.1270737867687E-01 -0.5070479320872E+01 -0.1016637355059E+01  0.2466659373429E-01
-0.1476336916655E-01 -0.5059042937413E+01 -0.1014761276437E+01  0.1510962502861E-01
-0.1762790317252E-01 -0.5050787077625E+01 -0.1013683011265E+01  0.4206235438341E-02
-0.2139526679642E-01 -0.5045856088168E+01 -0.1013450286094E+01 -0.8562102485578E-02
-0.2626798639355E-01 -0.5044455789465E+01 -0.1014144770284E+01 -0.2375283006744E-01
-0.3259981693351E-01 -0.5046790695043E+01 -0.1015878117533E+01 -0.4199218907886E-01
-0.4095723903708E-01 -0.5052954590175E+01 -0.1018782381023E+01 -0.6396931456199E-01
-0.5214227714880E-01 -0.5062775243890E+01 -0.1022983519451E+01 -0.9034620358009E-01
-0.6704301970312E-01 -0.5075685746328E+01 -0.1028545768533E+01 -0.1215737943085E+00
-0.8624100332491E-01 -0.5090758189629E+01 -0.1035399854020E+01 -0.1577623739531E+00
-0.1096134602434E+00 -0.5107009559271E+01 -0.1043324619450E+01 -0.1988140682771E+00
-0.1363798639178E+00 -0.5123530899574E+01 -0.1051982168374E+01 -0.2447507872109E+00
-0.1656309616593E+00 -0.5139191235439E+01 -0.1060964455229E+01 -0.2958819588543E+00
-0.1968731101517E+00 -0.5152327099399E+01 -0.1069840057852E+01 -0.3526303981441E+00
-0.2302138332164E+00 -0.5160570755660E+01 -0.1078156933841E+01 -0.4151723487583E+00
-0.2661591136049E+00 -0.5160745231426E+01 -0.1085380885180E+01 -0.4830892266819E+00
-0.3051904913084E+00 -0.5148695450243E+01 -0.1090777204564E+01 -0.5551039919152E+00
-0.3473375449097E+00 -0.5118885708114E+01 -0.1093244666895E+01 -0.6288259096199E+00
-0.3918179773993E+00 -0.5063558950412E+01 -0.1091075401821E+01 -0.7001549525212E+00
-0.4362115979140E+00 -0.4971000616764E+01 -0.1081442459050E+01 -0.7615588048325E+00
-0.4734103567782E+00 -0.4823295400895E+01 -0.1059341167320E+01 -0.7982181396984E+00
-0.4823876516151E+00 -0.4595749920621E+01 -0.1015627529581E+01 -0.7807818138733E+00
-0.4015077867168E+00 -0.4264416737316E+01 -0.9331849187121E+00 -0.6538255404939E+00
-0.6470976863207E-01 -0.3843781187340E+01 -0.7816982028427E+00 -0.3376381004651E+00
 0.8703842469025E+00 -0.3461297698958E+01 -0.5181826981327E+00  0.1800374263278E+00
 0.2775687482208E+01 -0.3321581810198E+01 -0.1091788672250E+00  0.5963116005841E+00
 0.5396138176496E+01 -0.3324138629258E+01  0.4143999156226E+00  0.2214584035646E+00
-0.1149463798519E+01 -0.5538920013384E+01 -0.1337676782313E+01  0.6921950272207E+00
-0.7332748270687E+00 -0.5657221712146E+01 -0.1278099326888E+01  0.6460987966350E+00
-0.4080500093106E+00 -0.5679016639415E+01 -0.1217413347886E+01  0.4984007907337E+00
-0.2188078250300E+00 -0.5622722389306E+01 -0.1168306060276E+01  0.3491460981656E+00
-0.1218744403003E+00 -0.5541451251740E+01 -0.1132665155286E+01  0.2413804172403E+00
-0.7166804923927E-01 -0.5465313639952E+01 -0.1107396354340E+01  0.1713441934658E+00
-0.4403123967023E-01 -0.5401584938740E+01 -0.1089123251911E+01  0.1260345627765E+00
-0.2811709216919E-01 -0.5349554751472E+01 -0.1075534384755E+01  0.9609442846864E-01
-0.1874365654578E-01 -0.5307090096646E+01 -0.1065166766511E+01  0.7575849371482E-01
-0.1322278291303E-01 -0.5272159872701E+01 -0.1057076546874E+01  0.6141140699642E-01
-0.1009573376845E-01 -0.5243161353864E+01 -0.1050651433182E+01  0.5073382968993E-01
-0.8538410174143E-02 -0.5218940102029E+01 -0.1045495718020E+01  0.4218909582310E-01
-0.8073607844080E-02 -0.5198719939614E+01 -0.1041358725009E+01  0.3471495620662E-01
-0.8426177813994E-02 -0.5182027612446E+01 -0.1038090773521E+01  0.2753831368340E-01
-0.9447267815086E-02 -0.5168630393457E+01 -0.1035615547686E+01  0.2005846259315E-01
-0.1107569542507E-01 -0.5158488766039E+01 -0.1033912907699E+01  0.1176922542011E-01
-0.1332163020360E-01 -0.5151721237938E+01 -0.1033008589021E+01  0.2202142961577E-02
-0.1626715419478E-01 -0.5148576209163E+01 -0.1032968688064E+01 -0.9120208663895E-02
-0.2008553022051E-01 -0.5149401941223E+01 -0.1033897509695E+01 -0.2272878858175E-01
-0.2508801709997E-01 -0.5154597560344E+01 -0.1035937130925E+01 -0.3925156716019E-01
-0.3180624862154E-01 -0.5164510398530E+01 -0.1039263344917E+01 -0.5943496074354E-01
-0.4106412720661E-01 -0.5179253301122E+01 -0.1044063501223E+01 -0.8407694485607E-01
-0.5386441090980E-01 -0.5198507544737E+01 -0.1050474406783E+01 -0.1138153139198E+00
-0.7093015220200E-01 -0.5221502862070E+01 -0.1058486618627E+01 -0.1489223028070E+00
-0.9217235266810E-01 -0.5247333288901E+01 -0.1067901144227E+01 -0.1894155051999E+00
-0.1167122501767E+00 -0.5275128109981E+01 -0.1078368088100E+01 -0.2354506672723E+00
-0.1435356031002E+00 -0.5303806599130E+01 -0.1089468456680E+01 -0.2875347267258E+00
-0.1721607305976E+00 -0.5331841470689E+01 -0.1100800456661E+01 -0.3463385565071E+00
-0.2028589934808E+00 -0.5357155490008E+01 -0.1112002913268E+01 -0.4123353590528E+00
-0.2364329022430E+00 -0.5377040799068E+01 -0.1122694756992E+01 -0.4854929843470E+00
-0.2737690414269E+00 -0.5387987694253E+01 -0.1132351364009E+01 -0.5650907591669E+00
-0.3154506765797E+00 -0.5385282783250E+01 -0.1140146708955E+01 -0.6496288568405E+00
-0.3616884425571E+00 -0.5362098227707E+01 -0.1144757351111E+01 -0.7365390251780E+00
-0.4122415283687E+00 -0.5307350337678E+01 -0.1143918390255E+01 -0.8208157626833E+00
-0.4646410032909E+00 -0.5202390061210E+01 -0.1133406229789E+01 -0.8913966384201E+00
-0.5077776695144E+00 -0.5017551571519E+01 -0.1105065864673E+01 -0.9238413017005E+00
-0.4999662693179E+00 -0.4710716692533E+01 -0.1042136607899E+01 -0.8635055417436E+00
-0.2929808060722E+00 -0.4255809095615E+01 -0.9097579938939E+00 -0.6018803020123E+00
 0.5197125460136E+00 -0.3757575185309E+01 -0.6475725375087E+00 -0.4061253424116E-01
 0.2552893868559E+01 -0.3511117592230E+01 -0.1916447475899E+00  0.5551975836434E+00
 0.5690503887966E+01 -0.3495115528916E+01  0.4390776783527E+00  0.2343272529067E+00
-0.1159394777782E+01 -0.5741027288293E+01 -0.1380084433780E+01  0.7564011630266E+00
-0.6828089200938E+00 -0.5856450902732E+01 -0.1307851984054E+01  0.6728941534563E+00
-0.3407407603748E+00 -0.5842477315644E+01 -0.1236643633631E+01  0.4801657821149E+00
-0.1678044903064E+00 -0.5747166123053E+01 -0.1182994140300E+01  0.3134878083667E+00
-0.8964132938939E-01 -0.5643622355210E+01 -0.1146652754006E+01  0.2074229984050E+00
-0.5154527470262E-01 -0.5558251141666E+01 -0.1121959299992E+01  0.1435396406015E+00
-0.3109816895204E-01 -0.5491309852088E+01 -0.1104481620666E+01  0.1038083726347E+00
-0.1957058790780E-01 -0.5438728605109E+01 -0.1091659854870E+01  0.7828170272610E-01
-0.1289342405863E-01 -0.5396906120046E+01 -0.1081959924943E+01  0.6132623736560E-01
-0.9018225859976E-02 -0.5363093239788E+01 -0.1074422309140E+01  0.4956566144570E-01
-0.6864040204492E-02 -0.5335357289120E+01 -0.1068444281786E+01  0.4091472546608E-01
-0.5828264087379E-02 -0.5312401881477E+01 -0.1063646044962E+01  0.3402292986995E-01
-0.5566925753654E-02 -0.5293404606308E+01 -0.1059794322205E+01  0.2797182110077E-01
-0.5884254256207E-02 -0.5277898115479E+01 -0.1056756489694E+01  0.2209950079737E-01
-0.6676326260106E-02 -0.5265686627209E+01 -0.1054472606407E+01  0.1589314275957E-01
-0.7902937279872E-02 -0.5256790082619E+01 -0.1052938619670E+01  0.8918564543261E-02
-0.9576319970168E-02 -0.5251407828710E+01 -0.1052196845415E+01  0.7686274305159E-03
-0.1176301206941E-01 -0.5249895344728E+01 -0.1052331687040E+01 -0.8980639625970E-02
-0.1460133245654E-01 -0.5252745985512E+01 -0.1053469479292E+01 -0.2081561250414E-01
-0.1834600691410E-01 -0.5260563172816E+01 -0.1055781851678E+01 -0.3533926735315E-01
-0.2346379639348E-01 -0.5273981885633E+01 -0.1059489152193E+01 -0.5332527665204E-01
-0.3076273435340E-01 -0.5293474613979E+01 -0.1064847485534E+01 -0.7569774459812E-01
-0.4134762858832E-01 -0.5319068048352E+01 -0.1072083151363E+01 -0.1033118678241E+00
-0.5610329586400E-01 -0.5350218310428E+01 -0.1081264337371E+01 -0.1366513326090E+00
-0.7498531615952E-01 -0.5386096562832E+01 -0.1092216392074E+01 -0.1758855436144E+00
-0.9699811398401E-01 -0.5425803493543E+01 -0.1104560337965E+01 -0.2213201232445E+00
-0.1209996676413E+00 -0.5468224002447E+01 -0.1117844750675E+01 -0.2736429280569E+00
-0.1465018624346E+00 -0.5511935964456E+01 -0.1131687582242E+01 -0.3337123717000E+00
-0.1739076489804E+00 -0.5555220132147E+01 -0.1145825573300E+01 -0.4022136669805E+00
-0.2042564094171E+00 -0.5596001462899E+01 -0.1160051591749E+01 -0.4794194025590E+00
-0.2387349325860E+00 -0.5631660944568E+01 -0.1174079192926E+01 -0.5650863052008E+00
-0.2782696726723E+00 -0.5658678877795E+01 -0.1187389727787E+01 -0.6585124329024E+00
-0.3236538957629E+00 -0.5671820706693E+01 -0.1199094938359E+01 -0.7585999976920E+00
-0.3762214198434E+00 -0.5661898259464E+01 -0.1207623953857E+01 -0.8630604428093E+00
-0.4373338827140E+00 -0.5611741010469E+01 -0.1209814996664E+01 -0.9653492439109E+00
-0.5045100745274E+00 -0.5491038848058E+01 -0.1199109802385E+01 -0.1048523182091E+01
-0.5594044073231E+00 -0.5245837428140E+01 -0.1161048384394E+01 -0.1069036911751E+01
-0.4988874572957E+00 -0.4799088493927E+01 -0.1059595206034E+01 -0.9072166649206E+00
 0.1079275363110E+00 -0.4181897828790E+01 -0.8147940706372E+00 -0.3556287232539E+00
 0.2205704268705E+01 -0.3769536333398E+01 -0.3127664175992E+00  0.4530823424975E+00
 0.6027749442212E+01 -0.3708156595114E+01  0.4639185763325E+00  0.2510958556223E+00
-0.1162304336776E+01 -0.5976346904431E+01 -0.1427730269516E+01  0.8280317044863E+00
-0.6102349845534E+00 -0.6075575389273E+01 -0.1337162094691E+01  0.6874654634116E+00
-0.2604358799173E+00 -0.6001929428298E+01 -0.1252473080306E+01  0.4409510565563E+00
-0.1163131779469E+00 -0.5858006551506E+01 -0.1194863963695E+01  0.2651353339477E+00
-0.6043620623132E-01 -0.5734604895849E+01 -0.1159008237687E+01  0.1686555764443E+00
-0.3409155538923E-01 -0.5643506164711E+01 -0.1135519560941E+01  0.1141668353629E+00
-0.2019770165994E-01 -0.5575663411023E+01 -0.1119172239214E+01  0.8129512425062E-01
-0.1254732741848E-01 -0.5524118419361E+01 -0.1107333165856E+01  0.6075083167425E-01
-0.8174430383431E-02 -0.5483995140148E+01 -0.1098433930474E+01  0.4738389106784E-01
-0.5674900942642E-02 -0.5451993209143E+01 -0.1091533638282E+01  0.3826182001655E-01
-0.4314424239962E-02 -0.5425969851245E+01 -0.1086056871280E+01  0.3162402854216E-01
-0.3688620423957E-02 -0.5404559782990E+01 -0.1081649696801E+01  0.2634918514170E-01
-0.3570100241074E-02 -0.5386942601532E+01 -0.1078102556420E+01  0.2168535339957E-01
-0.3830704072595E-02 -0.5372687000782E+01 -0.1075303556994E+01  0.1709397890218E-01
-0.4403862345199E-02 -0.5361652790264E+01 -0.1073211346514E+01  0.1215807247206E-01
-0.5265612099346E-02 -0.5353929888181E+01 -0.1071839116028E+01  0.6522158853213E-02
-0.6427562634479E-02 -0.5349803061607E+01 -0.1071246140811E+01 -0.1518224807088E-03
-0.7939106361600E-02 -0.5349734929623E+01 -0.1071534823164E+01 -0.8223319684018E-02
-0.9901444849133E-02 -0.5354360974299E+01 -0.1072852499816E+01 -0.1811632362187E-01
-0.1250393586112E-01 -0.5364487925963E+01 -0.1075398388390E+01 -0.3037803630003E-01
-0.1611846271180E-01 -0.5381060580206E+01 -0.1079435824668E+01 -0.4576375034044E-01
-0.2148437315247E-01 -0.5404993777858E+01 -0.1085295646374E+01 -0.6529070516106E-01
-0.2977661694644E-01 -0.5436801055731E+01 -0.1093315550827E+01 -0.9005715439839E-01
-0.4205824009735E-01 -0.5476285728616E+01 -0.1103668810189E+01 -0.1208330267149E+00
-0.5834757476049E-01 -0.5522702785855E+01 -0.1116210088756E+01 -0.1580143070080E+00
-0.7752652799974E-01 -0.5575002321525E+01 -0.1130505786751E+01 -0.2021002763826E+00
-0.9832421404509E-01 -0.5631874341788E+01 -0.1146039728244E+01 -0.2539376462907E+00
-0.1202468497639E+00 -0.5691924150404E+01 -0.1162434217355E+01 -0.3144726883091E+00
-0.1437991543452E+00 -0.5753853174987E+01 -0.1179530483443E+01 -0.3844685963347E+00
-0.1701913398774E+00 -0.5816402075153E+01 -0.1197318700847E+01 -0.4643850032304E+00
-0.2008104936653E+00 -0.5878087802307E+01 -0.1215779677311E+01 -0.5543489008075E+00
-0.2367321270199E+00 -0.5936904196303E+01 -0.1234727283063E+01 -0.6542983362986E+00
-0.2789093530856E+00 -0.5989767189967E+01 -0.1253735327293E+01 -0.7643625543697E+00
-0.3294495855198E+00 -0.6030636717739E+01 -0.1272017279606E+01 -0.8847694360692E+00
-0.3925224252026E+00 -0.6046367314981E+01 -0.1287777967226E+01 -0.1013783724465E+01
-0.4717212431465E+00 -0.6010747109445E+01 -0.1296493689838E+01 -0.1142755786750E+01
-0.5675859684477E+00 -0.5871250936820E+01 -0.1287767400243E+01 -0.1247306525621E+01
-0.6467183423366E+00 -0.5509311699302E+01 -0.1231206026674E+01 -0.1231550230501E+01
-0.3433500254404E+00 -0.4813627488324E+01 -0.1031395518122E+01 -0.7885262066730E+00
 0.1678263062972E+01 -0.4160553817654E+01 -0.4964581583342E+00  0.2353300337393E+00
 0.6413638964142E+01 -0.3997493729291E+01  0.4832290541708E+00  0.2635700415395E+00
-0.1153667930934E+01 -0.6264321719189E+01 -0.1483597952132E+01  0.9070852437044E+00
-0.5067534609871E+00 -0.6316195071178E+01 -0.1364589726767E+01  0.6762875816965E+00
-0.1691236246229E+00 -0.6144747996434E+01 -0.1262774343028E+01  0.3721246854633E+00
-0.6937407884127E-01 -0.5947814567576E+01 -0.1203437747216E+01  0.2051187512238E+00
-0.3625785619999E-01 -0.5812661720837E+01 -0.1169783932839E+01  0.1272350763553E+00
-0.1989722141181E-01 -0.5720463369306E+01 -0.1148072135251E+01  0.8437525853307E-01
-0.1162195777513E-01 -0.5654461091130E+01 -0.1133216626667E+01  0.5928209899942E-01
-0.7145703536551E-02 -0.5605752454923E+01 -0.1122579648420E+01  0.4401830731501E-01
-0.4606473762956E-02 -0.5568437302019E+01 -0.1114608771765E+01  0.3426179294967E-01
-0.3183590527535E-02 -0.5538957121274E+01 -0.1108428158877E+01  0.2771527501142E-01
-0.2425962432772E-02 -0.5515089651889E+01 -0.1103503139308E+01  0.2299677338812E-01
-0.2098202871322E-02 -0.5495490531813E+01 -0.1099517763321E+01  0.1924743515176E-01
-0.2066101464811E-02 -0.5479393198186E+01 -0.1096291876266E+01  0.1589414918152E-01
-0.2255793628152E-02 -0.5466434598719E+01 -0.1093738094767E+01  0.1252849045625E-01
-0.2629553148277E-02 -0.5456548909772E+01 -0.1091835708854E+01  0.8833282326768E-02
-0.3175075660100E-02 -0.5449905821551E+01 -0.1090616195694E+01  0.4535681270648E-02
-0.3901526658651E-02 -0.5446878440022E+01 -0.1090156009581E+01 -0.6278235957522E-03
-0.4841410946655E-02 -0.5448033521059E+01 -0.1090575002652E+01 -0.6943051702700E-02
-0.6060437302193E-02 -0.5454140118169E+01 -0.1092040127367E+01 -0.1475564623162E-01
-0.7682186808736E-02 -0.5466194626751E+01 -0.1094775379025E+01 -0.2452597345797E-01
-0.9961321711693E-02 -0.5485449551433E+01 -0.1099082191006E+01 -0.3692983408628E-01
-0.1350107927594E-01 -0.5513337042380E+01 -0.1105367640802E+01 -0.5300504542547E-01
-0.1948147468092E-01 -0.5551059146504E+01 -0.1114108140838E+01 -0.7409345956487E-01
-0.2914219459957E-01 -0.5598988207646E+01 -0.1125626097222E+01 -0.1013580614698E+00
-0.4258711463041E-01 -0.5656496087911E+01 -0.1139816657493E+01 -0.1355679741437E+00
-0.5859437674346E-01 -0.5722168155127E+01 -0.1156152523602E+01 -0.1775144538285E+00
-0.7580422341960E-01 -0.5794218142978E+01 -0.1174004490773E+01 -0.2281717786467E+00
-0.9374848150894E-01 -0.5871139095229E+01 -0.1192977533124E+01 -0.2884137583585E+00
-0.1130053248592E+00 -0.5952116557892E+01 -0.1213024394626E+01 -0.3588809221377E+00
-0.1348698103895E+00 -0.6036923834862E+01 -0.1234358747444E+01 -0.4400583120860E+00
-0.1608402441286E+00 -0.6125483154289E+01 -0.1257264698418E+01 -0.5323335211259E+00
-0.1919808056242E+00 -0.6217527893245E+01 -0.1281901758876E+01 -0.6360876238408E+00
-0.2290657853468E+00 -0.6312504807360E+01 -0.1308314138037E+01 -0.7523055054959E+00
-0.2741213163547E+00 -0.6408419570204E+01 -0.1336508197227E+01 -0.8830238824786E+00
-0.3326351627870E+00 -0.6499022759899E+01 -0.1366331604897E+01 -0.1030883905939E+01
-0.4126537497610E+00 -0.6566773690177E+01 -0.1395885508788E+01 -0.1195424984504E+01
-0.5208216847614E+00 -0.6574084171183E+01 -0.1418981192333E+01 -0.1369982392907E+01
-0.6908939081581E+00 -0.6407751431514E+01 -0.1419729089090E+01 -0.1523544930950E+01
-0.7708538249740E+00 -0.5772273432650E+01 -0.1308625471025E+01 -0.1340767472549E+01
 0.8985171374971E+00 -0.4823260485516E+01 -0.7849486813005E+00 -0.1925882205234E+00
 0.6847527551371E+01 -0.4448117463167E+01  0.4798820247918E+00  0.2379870915752E+00
-0.1126089688228E+01 -0.6643422047186E+01 -0.1553902370238E+01  0.9896991297268E+00
-0.3600596604807E+00 -0.6569907975174E+01 -0.1385993547784E+01  0.6115574297933E+00
-0.7524523776153E-01 -0.6245596444499E+01 -0.1264168355290E+01  0.2660760790760E+00
-0.3427514775606E-01 -0.6010852071448E+01 -0.1209025461857E+01  0.1394555064091E+00
-0.1806449621459E-01 -0.5877393026177E+01 -0.1179091522048E+01  0.8581782468195E-01
-0.9346690758646E-02 -0.5788637882889E+01 -0.1159596932009E+01  0.5544733324962E-01
-0.5561008398087E-02 -0.5727851823974E+01 -0.1146682583561E+01  0.3871562156119E-01
-0.3347284541038E-02 -0.5683779573162E+01 -0.1137425388490E+01  0.2860651719329E-01
-0.2161494884403E-02 -0.5650409734835E+01 -0.1130514262790E+01  0.2230478253151E-01
-0.1494217439090E-02 -0.5624139652541E+01 -0.1125126790762E+01  0.1813749360557E-01
-0.1152935184382E-02 -0.5602847718097E+01 -0.1120800147357E+01  0.1516305272560E-01
-0.1017080347906E-02 -0.5585299365267E+01 -0.1117263305772E+01  0.1279042031642E-01
-0.1024028007753E-02 -0.5570837403485E+01 -0.1114372302904E+01  0.1062970102801E-01
-0.1138416511990E-02 -0.5559198964756E+01 -0.1112067492825E+01  0.8402379441982E-02
-0.1343009834705E-02 -0.5550410809360E+01 -0.1110350780384E+01  0.5890976433417E-02
-0.1632872418992E-02 -0.5544730990955E+01 -0.1109272789204E+01  0.2906087262545E-02
-0.2013869173746E-02 -0.5542622128944E+01 -0.1108927216148E+01 -0.7383981917393E-03
-0.2503798295211E-02 -0.5544749229952E+01 -0.1109450622182E+01 -0.5248258589529E-02
-0.3137791223164E-02 -0.5552001022000E+01 -0.1111027779200E+01 -0.1087775717967E-01
-0.3982938390581E-02 -0.5565538884749E+01 -0.1113904381226E+01 -0.1797431679697E-01
-0.5174833550822E-02 -0.5586885041308E+01 -0.1118411991637E+01 -0.2706694003483E-01
-0.7109139916917E-02 -0.5618015767575E+01 -0.1125024998263E+01 -0.3908352357360E-01
-0.1085380168063E-01 -0.5661088130850E+01 -0.1134388403410E+01 -0.5553707366305E-01
-0.1777326023798E-01 -0.5717465675869E+01 -0.1147047804314E+01 -0.7812028469062E-01
-0.2807354512322E-01 -0.5786744675546E+01 -0.1162963661463E+01 -0.1082601188502E+00
-0.4049560863524E-01 -0.5866762998575E+01 -0.1181451739047E+01 -0.1472424997731E+00
-0.5370631785844E-01 -0.5954782067871E+01 -0.1201697695052E+01 -0.1961126330723E+00
-0.6733874566208E-01 -0.6048971409339E+01 -0.1223262049228E+01 -0.2554140997996E+00
-0.8201172501283E-01 -0.6149077159348E+01 -0.1246217795442E+01 -0.3253756964812E+00
-0.9898634933507E-01 -0.6256174404151E+01 -0.1271032169637E+01 -0.4062903733763E+00
-0.1197528914673E+00 -0.6371924748459E+01 -0.1298335547332E+01 -0.4987033857565E+00
-0.1453359926082E+00 -0.6497972924520E+01 -0.1328661803224E+01 -0.6033223498579E+00
-0.1759683990044E+00 -0.6636237088917E+01 -0.1362441117886E+01 -0.7214247080690E+00
-0.2133553393236E+00 -0.6789423687769E+01 -0.1400555826288E+01 -0.8560340004057E+00
-0.2616326663313E+00 -0.6959735616581E+01 -0.1444273678104E+01 -0.1011732096041E+01
-0.3328481881287E+00 -0.7146100192957E+01 -0.1495789698506E+01 -0.1197311593062E+01
-0.4325186041073E+00 -0.7327671816774E+01 -0.1552038107303E+01 -0.1414061054848E+01
-0.5963071842348E+00 -0.7466459177919E+01 -0.1612553296460E+01 -0.1696577474017E+01
-0.1032472433317E+01 -0.7199279586976E+01 -0.1646350428591E+01 -0.1935953028593E+01
-0.2034562735192E+00 -0.6066579720202E+01 -0.1254007217430E+01 -0.9723647735953E+00
 0.7317452073064E+01 -0.5296334852166E+01  0.4042234502029E+00  0.5833885408546E-01
-0.1070968630058E+01 -0.7203200288122E+01 -0.1654833808295E+01  0.1054792611450E+01
-0.1534536426697E+00 -0.6781581436256E+01 -0.1387007036453E+01  0.4345737021585E+00
-0.3422053713430E-02 -0.6265006292321E+01 -0.1253685687888E+01  0.1304929553498E+00
-0.1705443276077E-01 -0.6052756729163E+01 -0.1213962250474E+01  0.8024972514788E-01
-0.4436600018801E-02 -0.5926788631568E+01 -0.1186245063994E+01  0.4532728880945E-01
-0.3342602595548E-02 -0.5848712070262E+01 -0.1170410952012E+01  0.2953825080993E-01
-0.1732638257168E-02 -0.5796106554444E+01 -0.1159567855819E+01  0.2037906764917E-01
-0.1118943532423E-02 -0.5758540846587E+01 -0.1151931975189E+01  0.1508930288932E-01
-0.7249328372336E-03 -0.5730175921088E+01 -0.1146180187864E+01  0.1183675643272E-01
-0.5238903293168E-03 -0.5707757496632E+01 -0.1141656294404E+01  0.9731479679525E-02
-0.4216479432038E-03 -0.5689414826836E+01 -0.1137967311913E+01  0.8241298359766E-02
-0.3872055932930E-03 -0.5674120129284E+01 -0.1134901483887E+01  0.7040990189505E-02
-0.3988733802249E-03 -0.5661377789064E+01 -0.1132355349362E+01  0.5914367746817E-02
-0.4460522557754E-03 -0.5651055883416E+01 -0.1130300403977E+01  0.4706567235319E-02
-0.5235533505978E-03 -0.5643290307870E+01 -0.1128762789064E+01  0.3295184390390E-02
-0.6303091119340E-03 -0.5638434480871E+01 -0.1127812974802E+01  0.1571877976455E-02
-0.7689542910230E-03 -0.5637039915386E+01 -0.1127561790737E+01 -0.5720330113428E-03
-0.9463956585658E-03 -0.5639861603697E+01 -0.1128161616682E+01 -0.3259126700000E-02
-0.1175446056895E-02 -0.5647889395157E+01 -0.1129812985078E+01 -0.6643508202029E-02
-0.1481304765393E-02 -0.5662416271145E+01 -0.1132779532062E+01 -0.1094038103839E-01
-0.1912674958582E-02 -0.5685167389129E+01 -0.1137416029766E+01 -0.1648243904234E-01
-0.2619326057399E-02 -0.5718566527072E+01 -0.1144237187676E+01 -0.2390120843342E-01
-0.4369742126147E-02 -0.5765990132664E+01 -0.1154071992155E+01 -0.3462894831230E-01
-0.8478697697558E-02 -0.5830631087214E+01 -0.1167821974384E+01 -0.5101059517805E-01
-0.1523384381364E-01 -0.5912617395782E+01 -0.1185570265585E+01 -0.7570122807452E-01
-0.2350392450095E-01 -0.6008299870020E+01 -0.1206360776880E+01 -0.1108820301248E+00
-0.3223807565413E-01 -0.6113207744467E+01 -0.1229089182339E+01 -0.1575316789724E+00
-0.4129752070985E-01 -0.6224916016357E+01 -0.1253242726088E+01 -0.2154476397270E+00
-0.5129566404889E-01 -0.6343848293859E+01 -0.1279028810641E+01 -0.2840517895724E+00
-0.6328394582463E-01 -0.6472707349979E+01 -0.1307198278639E+01 -0.3631513326249E+00
-0.7857099967199E-01 -0.6615357615274E+01 -0.1338785742939E+01 -0.4533454402342E+00
-0.9811429091997E-01 -0.6775591014108E+01 -0.1374741081491E+01 -0.5557274554770E+00
-0.1218620627046E+00 -0.6957201454466E+01 -0.1415812724531E+01 -0.6714977232117E+00
-0.1499945957853E+00 -0.7167037071303E+01 -0.1463406355224E+01 -0.8028499621853E+00
-0.1873234674838E+00 -0.7418046510552E+01 -0.1521074018273E+01 -0.9550085721269E+00
-0.2354376468106E+00 -0.7726968563121E+01 -0.1592481265716E+01 -0.1137069468413E+01
-0.3301100255302E+00 -0.8112226362916E+01 -0.1688467302849E+01 -0.1375360345150E+01
-0.3973698886804E+00 -0.8572125596888E+01 -0.1793899123845E+01 -0.1663441685976E+01
-0.8806345017617E+00 -0.9128395578712E+01 -0.2001806045924E+01 -0.2310783739279E+01
-0.1588647339889E+01 -0.8516518375109E+01 -0.2021033173115E+01 -0.2199100100531E+01
 0.7778264325033E+01 -0.7360703746323E+01  0.8351211698635E-01 -0.6770393723359E+00
-0.1010686040358E+01 -0.8215901821091E+01 -0.1845317599787E+01  0.9904624652023E+00
 0.1430579571566E+00 -0.6646299136281E+01 -0.1300648255206E+01  0.2787811891090E-01
-0.2787552637373E-01 -0.6250040596380E+01 -0.1255583243260E+01  0.4652296308245E-01
 0.4478516649607E-02 -0.6065422317712E+01 -0.1212188778275E+01  0.1961020992233E-01
-0.1583298537626E-02 -0.5963502550638E+01 -0.1193017187613E+01  0.1208313887860E-01
-0.3244228767008E-04 -0.5901210906565E+01 -0.1180248687358E+01  0.7616253221388E-02
-0.2802772321291E-03 -0.5859939767031E+01 -0.1172044026317E+01  0.5289745479455E-02
-0.1635590964686E-03 -0.5830500725273E+01 -0.1166132874251E+01  0.3952403443141E-02
-0.1585928745429E-03 -0.5808101327532E+01 -0.1161652001391E+01  0.3167662968621E-02
-0.1410488195785E-03 -0.5790084036049E+01 -0.1158045034230E+01  0.2676458487116E-02
-0.1350651864962E-03 -0.5775001172561E+01 -0.1155027264761E+01  0.2333840483432E-02
-0.1318986924579E-03 -0.5762114052060E+01 -0.1152449207323E+01  0.2048463064991E-02
-0.1321457682335E-03 -0.5751137846194E+01 -0.1150254015532E+01  0.1759510204100E-02
-0.1349294879605E-03 -0.5742098438238E+01 -0.1148446690658E+01  0.1422540202393E-02
-0.1402474992147E-03 -0.5735255017481E+01 -0.1147079070089E+01  0.1001527157861E-02
-0.1483002245242E-03 -0.5731061588298E+01 -0.1146241994785E+01  0.4634539464349E-03
-0.1593501381734E-03 -0.5730155585311E+01 -0.1146063004168E+01 -0.2255368868987E-03
-0.1746315901443E-03 -0.5733372907491E+01 -0.1146709524904E+01 -0.1105345909289E-02
-0.1950672015951E-03 -0.5741781702194E+01 -0.1148395370992E+01 -0.2226557942405E-02
-0.2234684815174E-03 -0.5756767359417E+01 -0.1151398182737E+01 -0.3660855471877E-02
-0.2649473038301E-03 -0.5780178876454E+01 -0.1156088781979E+01 -0.5521990350048E-02
-0.3253132792549E-03 -0.5814667852001E+01 -0.1162998650386E+01 -0.8013779166627E-02
-0.6249114828794E-03 -0.5864674894389E+01 -0.1173059978654E+01 -0.1184868532081E-01
-0.1965032995753E-02 -0.5936991075912E+01 -0.1187791239481E+01 -0.1990152765717E-01
-0.4579329734053E-02 -0.6033174200590E+01 -0.1207550724059E+01 -0.3730475512832E-01
-0.7840660540254E-02 -0.6146391654389E+01 -0.1230846481327E+01 -0.6789805219709E-01
-0.1150575652235E-01 -0.6269316699380E+01 -0.1256164509899E+01 -0.1121906506957E+00
-0.1581637272612E-01 -0.6398631491678E+01 -0.1282889591997E+01 -0.1685995753467E+00
-0.2128751821233E-01 -0.6535632012311E+01 -0.1311383925646E+01 -0.2352082190274E+00
-0.2856047831790E-01 -0.6685073541624E+01 -0.1342726823996E+01 -0.3109930520549E+00
-0.3839147706895E-01 -0.6853523545949E+01 -0.1378383025143E+01 -0.3963787378540E+00
-0.5168778965035E-01 -0.7047732130143E+01 -0.1419884005117E+01 -0.4932248182412E+00
-0.6851350497064E-01 -0.7272022375586E+01 -0.1468107197988E+01 -0.6029195662681E+00
-0.8872191240168E-01 -0.7534837671621E+01 -0.1524711939524E+01 -0.7245728358085E+00
-0.1123183724499E+00 -0.7861303180557E+01 -0.1594724334365E+01 -0.8597248049243E+00
-0.1482376050843E+00 -0.8290435236738E+01 -0.1687734593514E+01 -0.1017667334818E+01
-0.1757412306552E+00 -0.8874985913581E+01 -0.1810145455821E+01 -0.1218071109772E+01
-0.3354944436513E+00 -0.9704905577141E+01 -0.2008080034081E+01 -0.1506313299034E+01
-0.9345746991762E-02 -0.1097219984682E+02 -0.2196309151491E+01 -0.1905631589089E+01
-0.2978959678590E+01 -0.1315792468115E+02 -0.3227376920040E+01 -0.3420437907858E+01
 0.9024099047622E+01 -0.1361651106159E+02 -0.9184824164791E+00 -0.3168784527734E+01
-0.2731842754957E+00 -0.4122442809174E+00 -0.3221514206970E+00 -0.2266119030806E+00
-0.2717184010974E+00 -0.4195064332088E+00 -0.3248756712999E+00 -0.1404676654623E+00
-0.2641338916100E+00 -0.4261641200501E+00 -0.3244400646574E+00 -0.6799858656921E-01
-0.2544984331429E+00 -0.4351421628724E+00 -0.3241310793051E+00 -0.7398166595319E-02
-0.2428578418293E+00 -0.4454168911727E+00 -0.3234891236905E+00  0.4309326944726E-01
-0.2301233484617E+00 -0.4564047423939E+00 -0.3226682018837E+00  0.8465005484665E-01
-0.2166031782094E+00 -0.4673079315886E+00 -0.3214382207897E+00  0.1179999092360E+00
-0.2027640229566E+00 -0.4779019778656E+00 -0.3199130195750E+00  0.1439152529683E+00
-0.1889657198450E+00 -0.4879299078884E+00 -0.3181409442278E+00  0.1632086252049E+00
-0.1755199498413E+00 -0.4971369714550E+00 -0.3161487522074E+00  0.1766270312439E+00
-0.1627079719507E+00 -0.5053821617937E+00 -0.3140023620634E+00  0.1848512962346E+00
-0.1507045350717E+00 -0.5125425281764E+00 -0.3117261189360E+00  0.1885086693131E+00
-0.1396249744537E+00 -0.5184510137235E+00 -0.3092957136588E+00  0.1881842445797E+00
-0.1295302035584E+00 -0.5228324418941E+00 -0.3066104425850E+00  0.1843932662187E+00
-0.1204458966657E+00 -0.5253519879707E+00 -0.3035250050093E+00  0.1775739467551E+00
-0.1123314163582E+00 -0.5256371783070E+00 -0.2998452387321E+00  0.1681188841346E+00
-0.1055651850108E+00 -0.5236651799771E+00 -0.2957382707942E+00  0.1564711555754E+00
-0.1004826284208E+00 -0.5197736892099E+00 -0.2915204685470E+00  0.1427631970861E+00
-0.9468832732946E-01 -0.5126901714477E+00 -0.2854678937012E+00  0.1277573817515E+00
-0.1038895533762E+00 -0.5182500022559E+00 -0.2924055904054E+00  0.1151121287465E+00
-0.3202727715959E+00 -0.4666727465289E+00 -0.3698643925805E+00 -0.2209772298117E+00
-0.3084190965626E+00 -0.4724939648857E+00 -0.3670291379498E+00 -0.1335892663800E+00
-0.2954693705225E+00 -0.4811056965308E+00 -0.3649902805893E+00 -0.6047246064034E-01
-0.2803289771856E+00 -0.4908453707443E+00 -0.3624519426078E+00  0.7433855305686E-03
-0.2640476781744E+00 -0.5016998591519E+00 -0.3599013416305E+00  0.5158157760774E-01
-0.2470663308511E+00 -0.5129601893413E+00 -0.3572124635844E+00  0.9318024902115E-01
-0.2298230385547E+00 -0.5241585954661E+00 -0.3543713670910E+00  0.1263594893410E+00
-0.2126228606888E+00 -0.5349079371680E+00 -0.3513394741016E+00  0.1519464523620E+00
-0.1958106571253E+00 -0.5449378103842E+00 -0.3481517788464E+00  0.1707375363648E+00
-0.1796893585409E+00 -0.5540355843921E+00 -0.3448507223039E+00  0.1834705366329E+00
-0.1644962254428E+00 -0.5620604328174E+00 -0.3414816285162E+00  0.1908274434236E+00
-0.1503902245736E+00 -0.5689114625196E+00 -0.3380717920763E+00  0.1934381221513E+00
-0.1374608471726E+00 -0.5744416744259E+00 -0.3345941843027E+00  0.1918888871024E+00
-0.1257550874371E+00 -0.5784254663336E+00 -0.3309648594328E+00  0.1867067063388E+00
-0.1152841312613E+00 -0.5805827347046E+00 -0.3270574261744E+00  0.1783683833083E+00
-0.1061288497251E+00 -0.5806843390798E+00 -0.3228021979196E+00  0.1673610943515E+00
-0.9865082469480E-01 -0.5786079264223E+00 -0.3183116122177E+00  0.1542047955279E+00
-0.9276941333566E-01 -0.5741020459697E+00 -0.3134295850786E+00  0.1393443054840E+00
-0.9196040756438E-01 -0.5693879170355E+00 -0.3108337117735E+00  0.1239172430067E+00
-0.9149606787394E-01 -0.5584217793928E+00 -0.3054613874406E+00  0.1068451726118E+00
-0.3652790945014E+00 -0.5180865215786E+00 -0.4151818385046E+00 -0.2146260284949E+00
-0.3461026104273E+00 -0.5260237118813E+00 -0.4098993704454E+00 -0.1264566012534E+00
-0.3264917107828E+00 -0.5354788680813E+00 -0.4051261710386E+00 -0.5260262455290E-01
-0.3060825423118E+00 -0.5462761642997E+00 -0.4006085910913E+00  0.9062998327571E-02
-0.2850047431834E+00 -0.5577598320332E+00 -0.3960993493471E+00  0.6012005424970E-01
-0.2637689314297E+00 -0.5694952887971E+00 -0.3916341825133E+00  0.1016904774039E+00
-0.2426918452869E+00 -0.5810256739191E+00 -0.3871472330449E+00  0.1346493151100E+00
-0.2220655661767E+00 -0.5920035252999E+00 -0.3826124720235E+00  0.1598440442376E+00
-0.2021821545552E+00 -0.6021412878830E+00 -0.3780320169871E+00  0.1780742375719E+00
-0.1833152501142E+00 -0.6112378581402E+00 -0.3734399599324E+00  0.1900752234902E+00
-0.1656771372060E+00 -0.6191700627332E+00 -0.3688781830358E+00  0.1965298836081E+00
-0.1494039496058E+00 -0.6258500325436E+00 -0.3643693706860E+00  0.1980727216220E+00
-0.1345717251841E+00 -0.6311564478061E+00 -0.3598922403926E+00  0.1952963806439E+00
-0.1212206755703E+00 -0.6348980246210E+00 -0.3553757881885E+00  0.1887462953925E+00
-0.1093936935227E+00 -0.6368413261853E+00 -0.3507304583732E+00  0.1789406069245E+00
-0.9922989727212E-01 -0.6367571258706E+00 -0.3459138999997E+00  0.1664131090985E+00
-0.9100230839879E-01 -0.6343488377225E+00 -0.3409150378123E+00  0.1517249404977E+00
-0.8555107941793E-01 -0.6297028602047E+00 -0.3361693507700E+00  0.1353726352478E+00
-0.8267177485925E-01 -0.6213262569091E+00 -0.3308790740919E+00  0.1175011460032E+00
-0.8039532531747E-01 -0.6081899350357E+00 -0.3236350715451E+00  0.9712017244574E-01
-0.4099555986031E+00 -0.5687668476992E+00 -0.4599995485953E+00 -0.2073393078758E+00
-0.3835177010884E+00 -0.5787069395507E+00 -0.4522455799533E+00 -0.1187535231299E+00
-0.3575937982968E+00 -0.5896038426761E+00 -0.4451828901281E+00 -0.4440324256351E-01
-0.3316499208100E+00 -0.6013709911938E+00 -0.4385198275295E+00  0.1759743874415E-01
-0.3057568519078E+00 -0.6136369871104E+00 -0.4321151032426E+00  0.6875876712556E-01
-0.2801847610899E+00 -0.6259386829441E+00 -0.4258780176158E+00  0.1102236128851E+00
-0.2552161112203E+00 -0.6378985487624E+00 -0.4197638891272E+00  0.1428998426576E+00
-0.2310943620565E+00 -0.6491837717225E+00 -0.4137307218268E+00  0.1676471086590E+00
-0.2080775490924E+00 -0.6595240684660E+00 -0.4077727592182E+00  0.1852670832526E+00
-0.1864039299872E+00 -0.6687284130112E+00 -0.4019122001898E+00  0.1964972748887E+00
-0.1662599290704E+00 -0.6766870653080E+00 -0.3961850863529E+00  0.2020232796272E+00
-0.1477643568386E+00 -0.6833273504081E+00 -0.3906131014152E+00  0.2024852616649E+00
-0.1309837243854E+00 -0.6885475464277E+00 -0.3851796963052E+00  0.1984844511502E+00
-0.1159632846956E+00 -0.6921806977793E+00 -0.3798276707998E+00  0.1905837003160E+00
-0.1027719917199E+00 -0.6940039487631E+00 -0.3744846910772E+00  0.1793246024931E+00
-0.9155398145544E-01 -0.6937343770911E+00 -0.3690855275808E+00  0.1652510552561E+00
-0.8268370446293E-01 -0.6910636339399E+00 -0.3636612481270E+00  0.1488884659867E+00
-0.7632666722918E-01 -0.6853564524181E+00 -0.3579910653262E+00  0.1305120653889E+00
-0.7224404887125E-01 -0.6757904296095E+00 -0.3515762039942E+00  0.1100819412086E+00
-0.6864329187269E-01 -0.6618605408938E+00 -0.3433368005294E+00  0.8706965994205E-01
-0.4542306302487E+00 -0.6188055729364E+00 -0.5043270142179E+00 -0.1991638723427E+00
-0.4207542064790E+00 -0.6308311985683E+00 -0.4942451391187E+00 -0.1104182165436E+00
-0.3885462906580E+00 -0.6432724442980E+00 -0.4849548041993E+00 -0.3579905276143E-01
-0.3570719776449E+00 -0.6561843150185E+00 -0.4762304563439E+00  0.2637835167185E-01
-0.3262711033146E+00 -0.6693050532178E+00 -0.4679207923834E+00  0.7753904832569E-01
-0.2963102262316E+00 -0.6822757138194E+00 -0.4599353906574E+00  0.1188182116574E+00
-0.2673881397698E+00 -0.6947509725785E+00 -0.4522053816567E+00  0.1511484057662E+00
-0.2397122370857E+00 -0.7064316135274E+00 -0.4446876086602E+00  0.1753955250074E+00
-0.2135020670419E+00 -0.7170666431690E+00 -0.4373672926898E+00  0.1923628866365E+00
-0.1889638941901E+00 -0.7264815276081E+00 -0.4302593471538E+00  0.2027907500304E+00
-0.1662588765891E+00 -0.7345795518689E+00 -0.4233940603014E+00  0.2073685704792E+00
-0.1454903957366E+00 -0.7413010810440E+00 -0.4167919930298E+00  0.2067423078814E+00
-0.1267189620492E+00 -0.7465592380678E+00 -0.4104407530140E+00  0.2015206937337E+00
-0.1099944556727E+00 -0.7501991507509E+00 -0.4042909939937E+00  0.1922765677459E+00
-0.9539173005826E-01 -0.7519881610802E+00 -0.3982685478249E+00  0.1795561364694E+00
-0.8306605652807E-01 -0.7516181652725E+00 -0.3923015832513E+00  0.1638818464025E+00
-0.7321694051779E-01 -0.7486295977769E+00 -0.3862678720188E+00  0.1456891155676E+00
-0.6587118666663E-01 -0.7424454359464E+00 -0.3799088116646E+00  0.1251690064391E+00
-0.6061020078021E-01 -0.7324517799433E+00 -0.3727391299947E+00  0.1023030309465E+00
-0.5602408532310E-01 -0.7184625521127E+00 -0.3640087186716E+00  0.7691712800902E-01
-0.4981245781793E+00 -0.6683363704256E+00 -0.5482366444538E+00 -0.1901244719460E+00
-0.4577416409636E+00 -0.6824498591726E+00 -0.5358900037048E+00 -0.1014312104675E+00
-0.4193125365492E+00 -0.6965262379422E+00 -0.5244442226807E+00 -0.2674713803526E-01
-0.3822915318873E+00 -0.7106822639161E+00 -0.5136976827247E+00  0.3544932455368E-01
-0.3465416478367E+00 -0.7247615712791E+00 -0.5035125117073E+00  0.8649766529358E-01
-0.3121346103072E+00 -0.7384853319529E+00 -0.4937913716098E+00  0.1275113146958E+00
-0.2792071128098E+00 -0.7515619867933E+00 -0.4844614755847E+00  0.1594324057792E+00
-0.2479221895867E+00 -0.7637228367223E+00 -0.4754731611593E+00  0.1831297275014E+00
-0.2184640137675E+00 -0.7747425210146E+00 -0.4668070701636E+00  0.1994070282540E+00
-0.1910075145179E+00 -0.7844649955418E+00 -0.4584720785652E+00  0.2090070109345E+00
-0.1656902627252E+00 -0.7928075218325E+00 -0.4504939575995E+00  0.2126227568469E+00
-0.1426009965108E+00 -0.7997218463316E+00 -0.4428917350126E+00  0.2109049180966E+00
-0.1217937655345E+00 -0.8051317337770E+00 -0.4356549835714E+00  0.2044664233636E+00
-0.1033157920258E+00 -0.8088874768275E+00 -0.4287355352736E+00  0.1938816912281E+00
-0.8723821696147E-01 -0.8107517842712E+00 -0.4220552995089E+00  0.1796872623096E+00
-0.7366622924289E-01 -0.8103833663702E+00 -0.4155033088843E+00  0.1623675140943E+00
-0.6270240367105E-01 -0.8073300461432E+00 -0.4089152503755E+00  0.1422981020337E+00
-0.5425639215284E-01 -0.8010848642728E+00 -0.4020103895004E+00  0.1196531411346E+00
-0.4787852354402E-01 -0.7912156290456E+00 -0.3943742507168E+00  0.9448680116018E-01
-0.4241646459797E-01 -0.7775883636771E+00 -0.3854022683118E+00  0.6685805814449E-01
-0.5416193304876E+00 -0.7174248390153E+00 -0.5917507581655E+00 -0.1802450317719E+00
-0.4944424314353E+00 -0.7336255590492E+00 -0.5771919540638E+00 -0.9178697198449E-01
-0.4498438405232E+00 -0.7493868812991E+00 -0.5636384378269E+00 -0.1722001956969E-01
-0.4072784974105E+00 -0.7648684643438E+00 -0.5509090706272E+00  0.4484582229060E-01
-0.3665483325147E+00 -0.7799911947984E+00 -0.5388735764704E+00  0.9567061089226E-01
-0.3276529106402E+00 -0.7945509118062E+00 -0.5274357952120E+00  0.1363378695481E+00
-0.2906726792955E+00 -0.8083079967459E+00 -0.5165209164294E+00  0.1677882838044E+00
-0.2557300471371E+00 -0.8210301618234E+00 -0.5060772969278E+00  0.1908890504810E+00
-0.2229739206424E+00 -0.8325193294523E+00 -0.4960818262863E+00  0.2064430682992E+00
-0.1925496927322E+00 -0.8426402089176E+00 -0.4865392525414E+00  0.2151945107845E+00
-0.1645721539111E+00 -0.8513245813191E+00 -0.4774714643471E+00  0.2178390748736E+00
-0.1391150907803E+00 -0.8585349616470E+00 -0.4688955234515E+00  0.2150301271033E+00
-0.1162229361365E+00 -0.8642040096306E+00 -0.4608006633418E+00  0.2073810666162E+00
-0.9593400756644E-01 -0.8681887911359E+00 -0.4531377142408E+00  0.1954615291723E+00
-0.7829771625622E-01 -0.8702526528397E+00 -0.4458186723443E+00  0.1797912220907E+00
-0.6337301780600E-01 -0.8700638091910E+00 -0.4387153075758E+00  0.1608220491174E+00
-0.5118187325381E-01 -0.8672107028406E+00 -0.4316445096696E+00  0.1388967788532E+00
-0.4157047601333E-01 -0.8612760727969E+00 -0.4243378768645E+00  0.1142030535590E+00
-0.3408351655996E-01 -0.8519289662847E+00 -0.4164258658808E+00  0.8686610862913E-01
-0.2776642296393E-01 -0.8390311197121E+00 -0.4073948440244E+00  0.5708371785404E-01
-0.5846958235360E+00 -0.7661198548111E+00 -0.6348833672129E+00 -0.1695450142810E+00
-0.5308203907929E+00 -0.7844007343994E+00 -0.6181539272725E+00 -0.8148582126192E-01
-0.4801044741373E+00 -0.8018795646638E+00 -0.6025324967083E+00 -0.7199699954073E-02
-0.4320045524266E+00 -0.8187465028680E+00 -0.5878529944975E+00  0.5459618252372E-01
-0.3862758767993E+00 -0.8349845722358E+00 -0.5739924095907E+00  0.1050898062506E+00
-0.3428591982639E+00 -0.8504535339973E+00 -0.5608569827402E+00  0.1453308121097E+00
-0.3017868974121E+00 -0.8649644699413E+00 -0.5483731412652E+00  0.1762505906250E+00
-0.2631434233801E+00 -0.8783228579062E+00 -0.5364891508438E+00  0.1987109148901E+00
-0.2270445789955E+00 -0.8903601622300E+00 -0.5251802270439E+00  0.2135121335330E+00
-0.1936074046955E+00 -0.9009631210298E+00 -0.5144481457861E+00  0.2213986527933E+00
-0.1629244119427E+00 -0.9100789767054E+00 -0.5043115913855E+00  0.2230673869105E+00
-0.1350531375075E+00 -0.9176814957382E+00 -0.4947852763705E+00  0.2191723308447E+00
-0.1100250648577E+00 -0.9237137463452E+00 -0.4858572400331E+00  0.2103244619434E+00
-0.8786264815235E-01 -0.9280439720275E+00 -0.4774761102735E+00  0.1970853432962E+00
-0.6858914817295E-01 -0.9304516143442E+00 -0.4695491571921E+00  0.1799581484349E+00
-0.5221906252554E-01 -0.9306353302017E+00 -0.4619415634101E+00  0.1593717626243E+00
-0.3871464591291E-01 -0.9282423407288E+00 -0.4544697825689E+00  0.1356546458539E+00
-0.2787960802474E-01 -0.9229337278748E+00 -0.4468822667393E+00  0.1090178003044E+00
-0.1926815711350E-01 -0.9144476964514E+00 -0.4388464500624E+00  0.7964303973244E-01
-0.1207820629614E-01 -0.9026413164591E+00 -0.4299181746045E+00  0.4780658397097E-01
-0.6273326810697E+00 -0.8144575427286E+00 -0.6776414034664E+00 -0.1580410387954E+00
-0.5668449980768E+00 -0.8348081989141E+00 -0.6587770009148E+00 -0.7053077645298E-01
-0.5100642681655E+00 -0.8540242137790E+00 -0.6411215848878E+00  0.3325845350707E-02
-0.4564470643700E+00 -0.8723211420643E+00 -0.6245210554401E+00  0.6472281437114E-01
-0.4057112190750E+00 -0.8897328909471E+00 -0.6088587301661E+00  0.1147829076562E+00
-0.3577496210409E+00 -0.9061747143534E+00 -0.5940444361286E+00  0.1545201917122E+00
-0.3125531672144E+00 -0.9215050916610E+00 -0.5800073802004E+00  0.1848515336416E+00
-0.2701719030050E+00 -0.9355675925792E+00 -0.5666975614872E+00  0.2066302655786E+00
-0.2306907395471E+00 -0.9482242969915E+00 -0.5540900657678E+00  0.2206525517817E+00
-0.1941997256464E+00 -0.9593852434041E+00 -0.5421849340786E+00  0.2276617127946E+00
-0.1607691864385E+00 -0.9690143526610E+00 -0.5309982620300E+00  0.2283545158997E+00
-0.1304389819998E+00 -0.9770983969349E+00 -0.5205425667790E+00  0.2233839475047E+00
-0.1032244322305E+00 -0.9835940688791E+00 -0.5108046942259E+00  0.2133570073898E+00
-0.7912854546196E-01 -0.9883880399180E+00 -0.5017327938560E+00  0.1988268462961E+00
-0.5814658178752E-01 -0.9912874820902E+00 -0.4932340087715E+00  0.1802833925927E+00
-0.4025354763542E-01 -0.9920347650642E+00 -0.4851755057382E+00  0.1581413908575E+00
-0.2536481919928E-01 -0.9903401662254E+00 -0.4773813419388E+00  0.1327260781365E+00
-0.1325500523087E-01 -0.9859354652559E+00 -0.4696195199377E+00  0.1042731702741E+00
-0.3492617804865E-02 -0.9786157530267E+00 -0.4615909331201E+00  0.7300725869260E-01
 0.4610132546270E-02 -0.9682494671142E+00 -0.4529104860982E+00  0.3924689772454E-01
-0.6695078051707E+00 -0.8624659845498E+00 -0.7200276793424E+00 -0.1457477503135E+00
-0.6024895787574E+00 -0.8848727526478E+00 -0.6990602939873E+00 -0.5892636233423E-01
-0.5396983212072E+00 -0.9058362759895E+00 -0.6794012589592E+00  0.1436456105383E-01
-0.4805875165160E+00 -0.9255954502756E+00 -0.6609059927157E+00  0.7524337327247E-01
-0.4248442675976E+00 -0.9442272983298E+00 -0.6434636343538E+00  0.1247734266649E+00
-0.3723221543408E+00 -0.9616954253164E+00 -0.6269882608486E+00  0.1639327778065E+00
-0.3229765757102E+00 -0.9779022106004E+00 -0.6114130280152E+00  0.1936204250876E+00
-0.2768267256578E+00 -0.9927285701899E+00 -0.5966909875350E+00  0.2146791113658E+00
-0.2339290452931E+00 -0.1006067726240E+01 -0.5827984811421E+00  0.2278994802142E+00
-0.1943478984061E+00 -0.1017854105220E+01 -0.5697349402593E+00  0.2340226456330E+00
-0.1581315020174E+00 -0.1028069931561E+01 -0.5575146723676E+00  0.2337441817949E+00
-0.1253007576122E+00 -0.1036717489403E+01 -0.5461485747120E+00  0.2277151410956E+00
-0.9585268422783E-01 -0.1043771367995E+01 -0.5356233031864E+00  0.2165383125413E+00
-0.6976887426183E-01 -0.1049143372877E+01 -0.5258887548214E+00  0.2007598067891E+00
-0.4701680169090E-01 -0.1052677085146E+01 -0.5168561255023E+00  0.1808604975291E+00
-0.2753630602004E-01 -0.1054165656597E+01 -0.5083999211407E+00  0.1572480281098E+00
-0.1120521177151E-01 -0.1053383682051E+01 -0.5003567788275E+00  0.1302509037053E+00
 0.2222722046231E-02 -0.1050129629720E+01 -0.4925162453577E+00  0.1001280618623E+00
 0.1316466332642E-01 -0.1044252952230E+01 -0.4846114945554E+00  0.6713659750139E-01
 0.2222588777779E-01 -0.1035651251897E+01 -0.4763099199278E+00  0.3161818362716E-01
-0.7111988161843E+00 -0.9101675636931E+00 -0.7620421966096E+00 -0.1326786131956E+00
-0.6377308456598E+00 -0.9346133436232E+00 -0.7390017670886E+00 -0.4667807692692E-01
-0.5689860452410E+00 -0.9573270768165E+00 -0.7173671655475E+00  0.2592143945665E-01
-0.5044112051419E+00 -0.9785705296523E+00 -0.6970014135854E+00  0.8617167244067E-01
-0.4436676711326E+00 -0.9984581509999E+00 -0.6777991346831E+00  0.1350810792567E+00
-0.3865767877222E+00 -0.1016996034163E+01 -0.6596792246129E+00  0.1735919305840E+00
-0.3330638522240E+00 -0.1034126977158E+01 -0.6425796881797E+00  0.2025833648388E+00
-0.2831207748991E+00 -0.1049768026313E+01 -0.6264577349806E+00  0.2228861816162E+00
-0.2367779723033E+00 -0.1063843657484E+01 -0.6112921644494E+00  0.2352846145493E+00
-0.1940754714725E+00 -0.1076313703806E+01 -0.5970829108665E+00  0.2405168302876E+00
-0.1550395650993E+00 -0.1087180531471E+01 -0.5838434439073E+00  0.2392766473003E+00
-0.1196713682825E+00 -0.1096464832687E+01 -0.5715840130059E+00  0.2322129999493E+00
-0.8794830695605E-01 -0.1104163347154E+01 -0.5602924760106E+00  0.2199251920204E+00
-0.5982978667602E-01 -0.1110218646030E+01 -0.5499227619772E+00  0.2029545121517E+00
-0.3525642102503E-01 -0.1114516663957E+01 -0.5403933485709E+00  0.1817769076931E+00
-0.1413668764621E-01 -0.1116905451430E+01 -0.5315898040173E+00  0.1567983370885E+00
 0.3682426858581E-02 -0.1117224436388E+01 -0.5233647431512E+00  0.1283545636379E+00
 0.1846263697520E-01 -0.1115337811048E+01 -0.5155313305064E+00  0.9672575227900E-01
 0.3060731100133E-01 -0.1111152016981E+01 -0.5078560105225E+00  0.6219446509764E-01
 0.4066540287582E-01 -0.1104605294670E+01 -0.5000517478751E+00  0.2511758292578E-01
-0.7523832579280E+00 -0.9575804546035E+00 -0.8036829428514E+00 -0.1188465382958E+00
-0.6725483016846E+00 -0.9840444012180E+00 -0.7785985683894E+00 -0.3379217708614E-01
-0.5979104827463E+00 -0.1008504481066E+01 -0.7550150310766E+00  0.3799919933238E-01
-0.5279066816266E+00 -0.1031245442443E+01 -0.7328014964540E+00  0.9751832460245E-01
-0.4621765712792E+00 -0.1052414777902E+01 -0.7118579323095E+00  0.1457220968694E+00
-0.4005153650627E+00 -0.1072056138808E+01 -0.6921086050636E+00  0.1835175605643E+00
-0.3428232700035E+00 -0.1090149464280E+01 -0.6734971834048E+00  0.2117629903673E+00
-0.2890684438566E+00 -0.1106646491460E+01 -0.6559860179351E+00  0.2312765977960E+00
-0.2392577456587E+00 -0.1121502844930E+01 -0.6395574759544E+00  0.2428358297640E+00
-0.1934082754973E+00 -0.1134704711437E+01 -0.6242131022758E+00  0.2471756418842E+00
-0.1515247975612E+00 -0.1146276503350E+01 -0.6099666098810E+00  0.2449880661369E+00
-0.1135882630718E+00 -0.1156260200480E+01 -0.5968287763554E+00  0.2369203648486E+00
-0.7955591100404E-01 -0.1164678513896E+01 -0.5847901782200E+00  0.2235696921046E+00
-0.4936490008757E-01 -0.1171509179250E+01 -0.5738108158334E+00  0.2054750468967E+00
-0.2293026403864E-01 -0.1176684552781E+01 -0.5638189624753E+00  0.1831112089560E+00
-0.1323574586038E-03 -0.1180110067506E+01 -0.5547139383266E+00  0.1568867015086E+00
 0.1920773709509E-01 -0.1181690476351E+01 -0.5463668860647E+00  0.1271473182866E+00
 0.3536368491555E-01 -0.1181356482332E+01 -0.5386166134195E+00  0.9419296757183E-01
 0.4872585344333E-01 -0.1179076244905E+01 -0.5312646826395E+00  0.5832696701230E-01
 0.5979789461979E-01 -0.1174841174745E+01 -0.5240703403297E+00  0.1991743143203E-01
-0.7930388709425E+00 -0.1004719798751E+01 -0.8449465726130E+00 -0.1042643939599E+00
-0.7069238656418E+00 -0.1033176993278E+01 -0.8178474016179E+00 -0.2027562965576E-01
-0.6264577695429E+00 -0.1059373642047E+01 -0.7923407614378E+00  0.5059869408973E-01
-0.5510653193007E+00 -0.1083617543082E+01 -0.7683009433712E+00  0.1092911907256E+00
-0.4803683146636E+00 -0.1106085576580E+01 -0.7456333269934E+00  0.1567094894873E+00
-0.4141414091623E+00 -0.1126854684527E+01 -0.7242681621970E+00  0.1937261442136E+00
-0.3522644979800E+00 -0.1145938895634E+01 -0.7041555932126E+00  0.2211783116958E+00
-0.2946855025440E+00 -0.1163323134882E+01 -0.6852640578522E+00  0.2398716028595E+00
-0.2413902125813E+00 -0.1178993956780E+01 -0.6675805579068E+00  0.2505768290378E+00
-0.1923742991595E+00 -0.1192964776818E+01 -0.6511093640579E+00  0.2540259729168E+00
-0.1476216149381E+00 -0.1205283882120E+01 -0.6358655820047E+00  0.2509097506664E+00
-0.1070929690769E+00 -0.1216017186506E+01 -0.6218617715467E+00  0.2418746817580E+00
-0.7072533156141E-01 -0.1225216589208E+01 -0.6090927012170E+00  0.2275174480810E+00
-0.3843402057110E-01 -0.1232898316637E+01 -0.5975261969722E+00  0.2083773221611E+00
-0.1010993321937E-01 -0.1239043879379E+01 -0.5871022904322E+00  0.1849312440311E+00
 0.1439189101964E-01 -0.1243617574106E+01 -0.5777360695853E+00  0.1575937633352E+00
 0.3527253982514E-01 -0.1246589855390E+01 -0.5693191368716E+00  0.1267229792690E+00
 0.5281537802264E-01 -0.1247959213204E+01 -0.5617176011107E+00  0.9263804800974E-01
 0.6739893982716E-01 -0.1247760542631E+01 -0.5547699519109E+00  0.5566094799877E-01
 0.7948319327721E-01 -0.1246052181538E+01 -0.5482874230919E+00  0.1616883797375E-01
-0.8331438809926E+00 -0.1051598689127E+01 -0.8858290057095E+00 -0.8894537513761E-01
-0.7408416141557E+00 -0.1082019856258E+01 -0.8567448889214E+00 -0.6136083976893E-02
-0.6546166943460E+00 -0.1109937811386E+01 -0.8293406155905E+00  0.6371920393660E-01
-0.5738808932968E+00 -0.1135682999278E+01 -0.8034950274722E+00  0.1214957196468E+00
-0.4982421264605E+00 -0.1159458347003E+01 -0.7791192205516E+00  0.1680532636949E+00
-0.4274598643900E+00 -0.1181370247789E+01 -0.7561501508062E+00  0.2042307540765E+00
-0.3613983780885E+00 -0.1201463973092E+01 -0.7345453031918E+00  0.2308445782344E+00
-0.2999888829605E+00 -0.1219756144606E+01 -0.7142801611444E+00  0.2486883042461E+00
-0.2431986191290E+00 -0.1236263975322E+01 -0.6953474176284E+00  0.2585267714482E+00
-0.1910034141778E+00 -0.1251028901863E+01 -0.6777551868203E+00  0.2610897072078E+00
-0.1433670223440E+00 -0.1264124759374E+01 -0.6615211357295E+00  0.2570674157451E+00
-0.1002304468556E+00 -0.1275643709342E+01 -0.6466608517725E+00  0.2471069460614E+00
-0.6151067759738E-01 -0.1285669446290E+01 -0.6331746566211E+00  0.2318063411322E+00
-0.2710190608630E-01 -0.1294259122307E+01 -0.6210396817697E+00  0.2117075901410E+00
 0.3127569826250E-02 -0.1301445144665E+01 -0.6102092586265E+00  0.1872926986879E+00
 0.2934550292945E-01 -0.1307251379413E+01 -0.6006157604239E+00  0.1589851453708E+00
 0.5177212185013E-01 -0.1311713966523E+01 -0.5921726654941E+00  0.1271574184775E+00
 0.7069889258894E-01 -0.1314899939037E+01 -0.5847744903476E+00  0.9214843422649E-01
 0.8649367302674E-01 -0.1316914603244E+01 -0.5782978357354E+00  0.5429900826856E-01
 0.9957796796099E-01 -0.1317890952652E+01 -0.5726071013526E+00  0.1399531797024E-01
-0.8726772353769E+00 -0.1098228930695E+01 -0.9263258957045E+00 -0.7290331794719E-01
-0.7742875521580E+00 -0.1130580244455E+01 -0.8952878621373E+00  0.8618093174443E-02
-0.6823782748000E+00 -0.1160199063335E+01 -0.8660113467271E+00  0.7735860038174E-01
-0.5963491442441E+00 -0.1187437324714E+01 -0.8383796382837E+00  0.1341351622424E+00
-0.5157987312803E+00 -0.1212520672099E+01 -0.8123101175280E+00  0.1797605591343E+00
-0.4404767743021E+00 -0.1235581352746E+01 -0.7877473177148E+00  0.2150410562824E+00
-0.3702366351277E+00 -0.1256693196176E+01 -0.7646570187732E+00  0.2407731397514E+00
-0.3049963980625E+00 -0.1275903076228E+01 -0.7430227510320E+00  0.2577394152489E+00
-0.2447073076053E+00 -0.1293258573377E+01 -0.7228439622282E+00  0.2666998945213E+00
-0.1893270045406E+00 -0.1308829853928E+01 -0.7041337216944E+00  0.2683831997410E+00
-0.1388001068915E+00 -0.1322717788203E+01 -0.6869134089522E+00  0.2634804793508E+00
-0.9304837631881E-01 -0.1335042750320E+01 -0.6712028278179E+00  0.2526408082251E+00
-0.5196936756665E-01 -0.1345922284274E+01 -0.6570090746988E+00  0.2364654502214E+00
-0.1543706334641E-01 -0.1355456172973E+01 -0.6443198194357E+00  0.2155013462441E+00
 0.1670123903703E-01 -0.1363728674221E+01 -0.6331028929307E+00  0.1902380567123E+00
 0.4463372095343E-01 -0.1370823226850E+01 -0.6233090661905E+00  0.1611104244323E+00
 0.6859708662136E-01 -0.1376840976740E+01 -0.6148746267960E+00  0.1285072407477E+00
 0.8888944857498E-01 -0.1381917132407E+01 -0.6077230098597E+00  0.9278828822439E-01
 0.1058696976215E+00 -0.1386228162752E+01 -0.6017684770851E+00  0.5431457575523E-01
 0.1199295469887E+00 -0.1389983930794E+01 -0.5969255588744E+00  0.1348335832195E-01
-0.9116189625355E+00 -0.1144621843202E+01 -0.9664331762454E+00 -0.5615290889927E-01
-0.8072495030719E+00 -0.1178864809187E+01 -0.9334737243941E+00  0.2397780145496E-01
-0.7097354344240E+00 -0.1210159115373E+01 -0.9023504361160E+00  0.9151347162295E-01
-0.6184673944192E+00 -0.1238876065780E+01 -0.8729514240795E+00  0.1472107318461E+00
-0.5330399839562E+00 -0.1265260481658E+01 -0.8452012166948E+00  0.1918357489274E+00
-0.4531989399323E+00 -0.1289466964281E+01 -0.8190529729029E+00  0.2261632995071E+00
-0.3787915507721E+00 -0.1311595335781E+01 -0.7944818346649E+00  0.2509713170625E+00
-0.3097264108005E+00 -0.1331721339351E+01 -0.7714804406147E+00  0.2670330138296E+00
-0.2459413500652E+00 -0.1349922635945E+01 -0.7500560715223E+00  0.2751051615390E+00
-0.1873775203401E+00 -0.1366298757803E+01 -0.7302278488750E+00  0.2759168032504E+00
-0.1339614582515E+00 -0.1380978918364E+01 -0.7120219752033E+00  0.2701614598723E+00
-0.8559639293744E-01 -0.1394113350092E+01 -0.6954635774599E+00  0.2584918538256E+00
-0.4216114907918E-01 -0.1405855028130E+01 -0.6805676015619E+00  0.2415142621654E+00
-0.3510541332430E-02 -0.1416347472776E+01 -0.6673332649386E+00  0.2197825426463E+00
 0.3052750110350E-01 -0.1425727088087E+01 -0.6557438042189E+00  0.1937958695622E+00
 0.6015931987454E-01 -0.1434136214246E+01 -0.6457691387166E+00  0.1640024157469E+00
 0.8563560734693E-01 -0.1441739523481E+01 -0.6373688389663E+00  0.1308088933380E+00
 0.1072597514095E+00 -0.1448738605851E+01 -0.6304950599882E+00  0.9459714522184E-01
 0.1253834481438E+00 -0.1455379238327E+01 -0.6250980198008E+00  0.5575009666085E-01
 0.1403774475769E+00 -0.1461946441479E+01 -0.6211374255584E+00  0.1467954861833E-01
-0.9499504791964E+00 -0.1190788940258E+01 -0.1006147524592E+01 -0.3870983285513E-01
-0.8397170051165E+00 -0.1226880393660E+01 -0.9713007749614E+00  0.3993320101630E-01
-0.7366826722283E+00 -0.1259820096686E+01 -0.9383562990096E+00  0.1061792129061E+00
-0.6402341385706E+00 -0.1289995480081E+01 -0.9072079184655E+00  0.1607217128479E+00
-0.5499684550529E+00 -0.1317666633483E+01 -0.8777884893856E+00  0.2042804961959E+00
-0.4656335217956E+00 -0.1343007003589E+01 -0.8500610447745E+00  0.2376002789604E+00
-0.3870755770154E+00 -0.1366139924562E+01 -0.8240112836514E+00  0.2614422649074E+00
-0.3141974412970E+00 -0.1387168698724E+01 -0.7996420837819E+00  0.2765723077312E+00
-0.2469261200894E+00 -0.1406200808055E+01 -0.7769696542574E+00  0.2837459325352E+00
-0.1851879749136E+00 -0.1423365739469E+01 -0.7560202438422E+00  0.2836944479456E+00
-0.1288925466665E+00 -0.1438822209689E+01 -0.7368259336183E+00  0.2771154735347E+00
-0.7792530570446E-01 -0.1452751689538E+01 -0.7194181859393E+00  0.2646670444361E+00
-0.3214712597423E-01 -0.1465343780756E+01 -0.7038207243779E+00  0.2469621027523E+00
 0.8605255382520E-02 -0.1476786359768E+01 -0.6900451173110E+00  0.2245630668768E+00
 0.4452165170144E-01 -0.1487267715083E+01 -0.6780906480694E+00  0.1979803225089E+00
 0.7582438026959E-01 -0.1496987791737E+01 -0.6679468016956E+00  0.1676768212542E+00
 0.1027757726835E+00 -0.1506172499354E+01 -0.6595964598624E+00  0.1340783647528E+00
 0.1256831182005E+00 -0.1515086755682E+01 -0.6530197079601E+00  0.9758978878510E-01
 0.1448921696472E+00 -0.1524041918159E+01 -0.6482003801567E+00  0.5861753895809E-01
 0.1607593322384E+00 -0.1533393789647E+01 -0.6451381933456E+00  0.1759191719629E-01
-0.9876549691690E+00 -0.1236742634641E+01 -0.1045466871139E+01 -0.2059086284269E-01
-0.8716812617036E+00 -0.1274634834102E+01 -0.1008768562470E+01  0.5647370638540E-01
-0.7632157783498E+00 -0.1309185348247E+01 -0.9740285270301E+00  0.1213500797484E+00
-0.6616486561567E+00 -0.1340793268616E+01 -0.9411477022562E+00  0.1746655184140E+00
-0.5665870165223E+00 -0.1369729562534E+01 -0.9100687898483E+00  0.2170937654561E+00
-0.4777876274843E+00 -0.1396182932720E+01 -0.8807661610623E+00  0.2493512718635E+00
-0.3951009274649E+00 -0.1420297809985E+01 -0.8532374044373E+00  0.2721848250729E+00
-0.3184277485342E+00 -0.1442203832876E+01 -0.8274968411640E+00  0.2863554094823E+00
-0.2476868399594E+00 -0.1462038101463E+01 -0.8035707204304E+00  0.2926196692443E+00
-0.1827914240832E+00 -0.1479960634864E+01 -0.7814934657232E+00  0.2917132881295E+00
-0.1236350973996E+00 -0.1496160712554E+01 -0.7613040287474E+00  0.2843398422487E+00
-0.7008633232850E-01 -0.1510852223542E+01 -0.7430411193744E+00  0.2711643192585E+00
-0.2198882506787E-01 -0.1524262292055E+01 -0.7267380232043E+00  0.2528077779628E+00
 0.2083769637965E-01 -0.1536623381194E+01 -0.7124192700558E+00  0.2298424745001E+00
 0.5859922214885E-01 -0.1548174940597E+01 -0.7001005858949E+00  0.2027911053835E+00
 0.9153196956023E-01 -0.1559172684670E+01 -0.6897911343520E+00  0.1721322793201E+00
 0.1199076808223E+00 -0.1569900788579E+01 -0.6814967589171E+00  0.1383114959280E+00
 0.1440360787557E+00 -0.1580683487577E+01 -0.6752242804333E+00  0.1017570565350E+00
 0.1642574023689E+00 -0.1591892694120E+01 -0.6709885854209E+00  0.6290013422168E-01
 0.1809171927781E+00 -0.1603948851781E+01 -0.6688248780352E+00  0.2219321202092E-01
-0.1024717769168E+01 -0.1282496941193E+01 -0.1084390911119E+01 -0.1813869080912E-02
-0.9031351165837E+00 -0.1322137775180E+01 -0.1045878256476E+01  0.7358802637819E-01
-0.7893315596156E+00 -0.1358260251164E+01 -0.1009368148506E+01  0.1370192501563E+00
-0.6827106164004E+00 -0.1391269355493E+01 -0.9747705843177E+00  0.1890377353037E+00
-0.5828984036664E+00 -0.1421441989873E+01 -0.9420399825744E+00  0.2302718160574E+00
-0.4896678651650E+00 -0.1448978403046E+01 -0.9111637437480E+00  0.2614119612206E+00
-0.4028791298668E+00 -0.1474041769878E+01 -0.8821528206424E+00  0.2831933792291E+00
-0.3224348733733E+00 -0.1496786953187E+01 -0.8550342563148E+00  0.2963751263068E+00
-0.2482480939759E+00 -0.1517380561495E+01 -0.8298454659667E+00  0.3017176754154E+00
-0.1802204218947E+00 -0.1536013758343E+01 -0.8066300626660E+00  0.2999634116599E+00
-0.1182304580705E+00 -0.1552907401569E+01 -0.7854347920385E+00  0.2918237987162E+00
-0.6213034879939E-01 -0.1568308849385E+01 -0.7663064212030E+00  0.2779723325103E+00
-0.1174730185933E-01 -0.1582483430612E+01 -0.7492884423610E+00  0.2590393898343E+00
 0.3311498892406E-01 -0.1595708132068E+01 -0.7344187754149E+00  0.2356079360493E+00
 0.7267724254805E-01 -0.1608272479252E+01 -0.7217297594201E+00  0.2082135482577E+00
 0.1071876486878E+00 -0.1620485694685E+01 -0.7112500798148E+00  0.1773507643419E+00
 0.1369252366493E+00 -0.1632686752531E+01 -0.7030079106816E+00  0.1434847650264E+00
 0.1622005381450E+00 -0.1645254538660E+01 -0.6970353784739E+00  0.1070672020014E+00
 0.1833478641866E+00 -0.1658615547504E+01 -0.6933758094003E+00  0.6855456500999E-01
 0.2007027874090E+00 -0.1673247284724E+01 -0.6920959119825E+00  0.2842423500634E-01
-0.1061126747719E+01 -0.1328068152209E+01 -0.1122921600118E+01  0.1760221039558E-01
-0.9340730237505E+00 -0.1369401458834E+01 -0.1082633004069E+01  0.9126420534102E-01
-0.8150275568951E+00 -0.1407053038349E+01 -0.1044377877116E+01  0.1531788604740E+00
-0.7034196681094E+00 -0.1441426661638E+01 -0.1008077772424E+01  0.2038321285334E+00
-0.5989047565947E+00 -0.1472799633503E+01 -0.9737010608764E+00  0.2438081555761E+00
-0.5012798749877E+00 -0.1501379908221E+01 -0.9412500957209E+00  0.2737743299445E+00
-0.4104205590537E+00 -0.1527347131503E+01 -0.9107508122515E+00  0.2944576881671E+00
-0.3262351681002E+00 -0.1550880424175E+01 -0.8822443261314E+00  0.3066187566395E+00
-0.2486333381603E+00 -0.1572175932294E+01 -0.8557803549431E+00  0.3110248683977E+00
-0.1775064868412E+00 -0.1591456664431E+01 -0.8314126789889E+00  0.3084276101639E+00
-0.1127189950884E+00 -0.1608976091538E+01 -0.8091966886618E+00  0.2995482859241E+00
-0.5410719093092E-01 -0.1625016037309E+01 -0.7891879152709E+00  0.2850703211293E+00
-0.1482325208761E-02 -0.1639880587867E+01 -0.7714405671888E+00  0.2656343192339E+00
 0.4536712824311E-01 -0.1653890989585E+01 -0.7560062129134E+00  0.2418343889568E+00
 0.8667534411215E-01 -0.1667385495595E+01 -0.7429337693127E+00  0.2142190068484E+00
 0.1227007385169E+00 -0.1680724273728E+01 -0.7322710596920E+00  0.1832982908337E+00
 0.1537276462853E+00 -0.1694297294102E+01 -0.7240677326373E+00  0.1495564373942E+00
 0.1800655990282E+00 -0.1708533099229E+01 -0.7183797232724E+00  0.1134676439473E+00
 0.2020418815861E+00 -0.1723906141505E+01 -0.7152762003476E+00  0.7551343007236E-01
 0.2199818509701E+00 -0.1740941972383E+01 -0.7148512552508E+00  0.3619735348179E-01
-0.1096872712342E+01 -0.1373475553799E+01 -0.1161063682141E+01  0.3763747033192E-01
-0.9644910357888E+00 -0.1416441552304E+01 -0.1119038313565E+01  0.1094897024605E+00
-0.8403017705220E+00 -0.1455575650745E+01 -0.1079062385258E+01  0.1698200485728E+00
-0.7237750263723E+00 -0.1491271928005E+01 -0.1041072065917E+01  0.2190406339201E+00
-0.6146071503020E+00 -0.1523801970556E+01 -0.1005052284254E+01  0.2576934747020E+00
-0.5126278453547E+00 -0.1553377486495E+01 -0.9710225035064E+00  0.2864265405528E+00
-0.4177339554604E+00 -0.1580192434735E+01 -0.9390254010103E+00  0.3059627273228E+00
-0.3298433165179E+00 -0.1604449420561E+01 -0.9091175841214E+00  0.3170678985805E+00
-0.2488644098230E+00 -0.1626374349476E+01 -0.8813622146352E+00  0.3205195827659E+00
-0.1746795818227E+00 -0.1646222924113E+01 -0.8558241756191E+00  0.3170812053615E+00
-0.1071395223926E+00 -0.1664282349186E+01 -0.8325682775304E+00  0.3074858398395E+00
-0.4606501147566E-01 -0.1680869930172E+01 -0.8116594205156E+00  0.2924280844504E+00
 0.8748353525768E-02 -0.1696329016405E+01 -0.7931629095415E+00  0.2725593499938E+00
 0.5752672743327E-01 -0.1711024736765E+01 -0.7771440624147E+00  0.2484848606201E+00
 0.1005166889148E+00 -0.1725342557227E+01 -0.7636681561698E+00  0.2207654481450E+00
 0.1379853577836E+00 -0.1739690828443E+01 -0.7528015693004E+00  0.1899258422217E+00
 0.1702205566769E+00 -0.1754506535519E+01 -0.7446144081671E+00  0.1564679488339E+00
 0.1975290854949E+00 -0.1770262679203E+01 -0.7391847871678E+00  0.1208870042270E+00
 0.2202293723596E+00 -0.1787475234320E+01 -0.7366055532529E+00  0.8368816115721E-01
 0.2386358260395E+00 -0.1806707802820E+01 -0.7369938272176E+00  0.4540078385054E-01
-0.1131949809433E+01 -0.1418742150876E+01 -0.1198825218304E+01  0.5827119567749E-01
-0.9943867817228E+00 -0.1463277988735E+01 -0.1155102439185E+01  0.1282514971244E+00
-0.8651523687093E+00 -0.1503844608172E+01 -0.1113428576310E+01  0.1869329950275E+00
-0.7437750385266E+00 -0.1540816555017E+01 -0.1073758046242E+01  0.2346533303830E+00
-0.6300051034031E+00 -0.1574453014846E+01 -0.1036095312949E+01  0.2719155557547E+00
-0.5237140106530E+00 -0.1604965434794E+01 -0.1000479336822E+01  0.2993527924951E+00
-0.4248259311948E+00 -0.1632560101122E+01 -0.9669714327362E+00  0.3176885105851E+00
-0.3332718509871E+00 -0.1657462582297E+01 -0.9356451812706E+00  0.3276982620867E+00
-0.2489610469164E+00 -0.1679929020380E+01 -0.9065783293301E+00  0.3301733969817E+00
-0.1717676203922E+00 -0.1700248874615E+01 -0.8798477504219E+00  0.3258919206420E+00
-0.1015287768526E+00 -0.1718744358650E+01 -0.8555283715162E+00  0.3156005414230E+00
-0.3804970848548E-01 -0.1735769369961E+01 -0.8336949647552E+00  0.3000060580027E+00
 0.1888963113529E-01 -0.1751707059588E+01 -0.8144241893073E+00  0.2797709117156E+00
 0.6952971112421E-01 -0.1766966033003E+01 -0.7977950692594E+00  0.2555109329894E+00
 0.1141287244711E+00 -0.1781977372036E+01 -0.7838888623672E+00  0.2277981955486E+00
 0.1529612124932E+00 -0.1797194742991E+01 -0.7727897573740E+00  0.1971704643578E+00
 0.1863169030490E+00 -0.1813098058548E+01 -0.7645871411455E+00  0.1641454449573E+00
 0.2144982121592E+00 -0.1830199639309E+01 -0.7593796688345E+00  0.1292372936148E+00
 0.2378131734789E+00 -0.1849050508501E+01 -0.7572815455395E+00  0.9297261409541E-01
 0.2565600791929E+00 -0.1870245432569E+01 -0.7584321141631E+00  0.5590488106416E-01
-0.1166355916856E+01 -0.1463895411483E+01 -0.1236218121184E+01  0.7948207708296E-01
-0.1023759428583E+01 -0.1509935828374E+01 -0.1190836767749E+01  0.1475362215815E+00
-0.8895773739366E+00 -0.1551881900864E+01 -0.1147485856246E+01  0.2045069629980E+00
-0.7634167266755E+00 -0.1590077460223E+01 -0.1106142265037E+01  0.2506583918864E+00
-0.6450960662308E+00 -0.1624762107935E+01 -0.1066833339152E+01  0.2864591536088E+00
-0.5345381341290E+00 -0.1656143029513E+01 -0.1029620144300E+01  0.3125331547763E+00
-0.4317004696865E+00 -0.1684437101133E+01 -0.9945846557625E+00  0.3296098989452E+00
-0.3365306742374E+00 -0.1709892657487E+01 -0.9618189634710E+00  0.3384794801539E+00
-0.2489404263203E+00 -0.1732796879561E+01 -0.9314165314019E+00  0.3399509765336E+00
-0.1687960092701E+00 -0.1753474328107E+01 -0.9034670562757E+00  0.3348197886910E+00
-0.9592095073888E-01 -0.1772283724215E+01 -0.8780561950014E+00  0.3238480251381E+00
-0.3010443510175E-01 -0.1789616832710E+01 -0.8552689937021E+00  0.3077554640778E+00
 0.2888957339853E-01 -0.1805897252570E+01 -0.8351936070923E+00  0.2872154184597E+00
 0.8131586884430E-01 -0.1821576708155E+01 -0.8179225924016E+00  0.2628533193113E+00
 0.1274437579171E+00 -0.1837130295462E+01 -0.8035526706081E+00  0.2352507958070E+00
 0.1675541794967E+00 -0.1853054087980E+01 -0.7921849549779E+00  0.2049564765498E+00
 0.2019373907051E+00 -0.1869866826992E+01 -0.7839268330664E+00  0.1725013960793E+00
 0.2308900333902E+00 -0.1888115029263E+01 -0.7788957460845E+00  0.1384160025847E+00
 0.2547079502844E+00 -0.1908378878070E+01 -0.7772253340880E+00  0.1032456082825E+00
 0.2736696415687E+00 -0.1931276487623E+01 -0.7790752156696E+00  0.6756446782755E-01
-0.1200093034059E+01 -0.1508968049542E+01 -0.1273258706063E+01  0.1012484922920E+00
-0.1052609625516E+01 -0.1556446157670E+01 -0.1226256214987E+01  0.1673303271363E+00
-0.9135743245614E+00 -0.1599715915844E+01 -0.1181246409994E+01  0.2225303410392E+00
-0.7826953056841E+00 -0.1639077964786E+01 -0.1138233434234E+01  0.2670420210220E+00
-0.6598748893892E+00 -0.1674744729803E+01 -0.1097271218237E+01  0.3013058490690E+00
-0.5450969791587E+00 -0.1706915256268E+01 -0.1058445747966E+01  0.3259433723223E+00
-0.4383584236913E+00 -0.1735815618603E+01 -0.1021861797287E+01  0.3416963908848E+00
-0.3396265918301E+00 -0.1761717129406E+01 -0.9876315464758E+00  0.3493749141645E+00
-0.2488167276265E+00 -0.1784939213290E+01 -0.9558652898064E+00  0.3498099265838E+00
-0.1657872339835E+00 -0.1805843231115E+01 -0.9266663162460E+00  0.3438170853106E+00
-0.9034728799485E-01 -0.1824826200384E+01 -0.9001315372551E+00  0.3321755302584E+00
-0.2226919709540E-01 -0.1842319260363E+01 -0.8763565727828E+00  0.3156185205947E+00
 0.3869982186461E-01 -0.1858787280960E+01 -0.8554411036049E+00  0.2948296793679E+00
 0.9282926499213E-01 -0.1874724867229E+01 -0.8374909309271E+00  0.2704425233279E+00
 0.1403993628229E+00 -0.1890649588773E+01 -0.8226176041099E+00  0.2430459727400E+00
 0.1816966750206E+00 -0.1907097037020E+01 -0.8109381680827E+00  0.2131967609387E+00
 0.2170108299850E+00 -0.1924620681910E+01 -0.8025766283693E+00  0.1814362500104E+00
 0.2466314849736E+00 -0.1943796235793E+01 -0.7976674308620E+00  0.1483081037072E+00
 0.2708411555127E+00 -0.1965227185130E+01 -0.7963614319005E+00  0.1143729514579E+00
 0.2898968978079E+00 -0.1989547374299E+01 -0.7988357219249E+00  0.8022099589052E-01
-0.1233167661586E+01 -0.1553998851318E+01 -0.1309968257742E+01  0.1235488580401E+00
-0.1080939417979E+01 -0.1602847029469E+01 -0.1261379627101E+01  0.1876202872004E+00
-0.9371399010682E+00 -0.1647382401716E+01 -0.1214725479228E+01  0.2409906898905E+00
-0.8016036678931E+00 -0.1687848708153E+01 -0.1170042613774E+01  0.2837883625654E+00
-0.6743332680728E+00 -0.1724423325078E+01 -0.1127415595921E+01  0.3164338711698E+00
-0.5553837673793E+00 -0.1757293541246E+01 -0.1086958332297E+01  0.3395546413013E+00
-0.4447970125133E+00 -0.1786693702486E+01 -0.1048800633389E+01  0.3539118885271E+00
-0.3425628577800E+00 -0.1812918815922E+01 -0.1013076384070E+01  0.3603414460573E+00
-0.2486007259151E+00 -0.1836322240353E+01 -0.9799137916606E+00  0.3597006450183E+00
-0.1627604914569E+00 -0.1857304261700E+01 -0.9494304315756E+00  0.3528282778084E+00
-0.8483574799356E-01 -0.1876302336711E+01 -0.9217348974731E+00  0.3405219797544E+00
-0.1458054108258E-01 -0.1893788777420E+01 -0.8969335774215E+00  0.3235286883557E+00
 0.4827588441975E-01 -0.1910270785662E+01 -0.8751376013640E+00  0.3025413560094E+00
 0.1040185083429E+00 -0.1926285792453E+01 -0.8564656213594E+00  0.2781995507781E+00
 0.1529386188277E+00 -0.1942392424633E+01 -0.8410432865951E+00  0.2510966345581E+00
 0.1953278570888E+00 -0.1959162962896E+01 -0.8290024976267E+00  0.2217940965528E+00
 0.2314742401995E+00 -0.1977181533499E+01 -0.8204824257698E+00  0.1908401094728E+00
 0.2616595592679E+00 -0.1997048078886E+01 -0.8156326021519E+00  0.1587880673940E+00
 0.2861528139111E+00 -0.2019383778067E+01 -0.8146185510872E+00  0.1262100333833E+00
 0.3051902200193E+00 -0.2044831637912E+01 -0.8176314643357E+00  0.9370631790755E-01
-0.1265591122400E+01 -0.1599033499705E+01 -0.1346373568974E+01  0.1463620405291E+00
-0.1108752100666E+01 -0.1649184416005E+01 -0.1296230159548E+01  0.2083928266954E+00
-0.9602694839587E+00 -0.1694925437487E+01 -0.1247941609914E+01  0.2598747802944E+00
-0.8201318106129E+00 -0.1736428556361E+01 -0.1201583369430E+01  0.3008793828239E+00
-0.6884591455536E+00 -0.1773828107693E+01 -0.1157275006091E+01  0.3318178738123E+00
-0.5653876138417E+00 -0.1807296445628E+01 -0.1115161505122E+01  0.3533333392428E+00
-0.4510093136082E+00 -0.1837075866830E+01 -0.1075400032078E+01  0.3662144257968E+00
-0.3453387321704E+00 -0.1863486402724E+01 -0.1038147810767E+01  0.3713292436730E+00
-0.2482994147247E+00 -0.1886917612247E+01 -0.1003552000131E+01  0.3695661618775E+00
-0.1597313719373E+00 -0.1907811330507E+01 -0.9717450676840E+00  0.3617899726199E+00
-0.7941073938971E-01 -0.1926648007540E+01 -0.9428476086656E+00  0.3488180687134E+00
-0.7071335870981E-02 -0.1943943266958E+01 -0.9169768610038E+00  0.3314109344377E+00
 0.5757730828483E-01 -0.1960247991871E+01 -0.8942552190173E+00  0.3102694390469E+00
 0.1148368793399E+00 -0.1976142624884E+01 -0.8748136981870E+00  0.2860366413351E+00
 0.1650101940764E+00 -0.1992225617123E+01 -0.8587912466535E+00  0.2593069013904E+00
 0.2083936481927E+00 -0.2009103222223E+01 -0.8463334976476E+00  0.2306425115767E+00
 0.2452728047892E+00 -0.2027386181859E+01 -0.8375932850983E+00  0.2005944193906E+00
 0.2759210336422E+00 -0.2047693752008E+01 -0.8327331755198E+00  0.1697219370883E+00
 0.3005946828297E+00 -0.2070659602672E+01 -0.8319305102160E+00  0.1386044890314E+00
 0.3195125173374E+00 -0.2096930756185E+01 -0.8353865701397E+00  0.1078462545169E+00
-0.1297379924115E+01 -0.1644125528245E+01 -0.1382507559102E+01  0.1696678633332E+00
-0.1136052054376E+01 -0.1695513266305E+01 -0.1330835697344E+01  0.2296352034932E+00
-0.9829566892869E+00 -0.1742398502127E+01 -0.1280916936716E+01  0.2791686407633E+00
-0.8382662431760E+00 -0.1784865591189E+01 -0.1232871959025E+01  0.3182947275219E+00
-0.7022361089518E+00 -0.1822997923226E+01 -0.1186859992113E+01  0.3474286757807E+00
-0.5750929680448E+00 -0.1856950393670E+01 -0.1143060377107E+01  0.3672407170800E+00
-0.4569837731185E+00 -0.1886973701536E+01 -0.1101660010294E+01  0.3785558643242E+00
-0.3479490709731E+00 -0.1913414965630E+01 -0.1062841094508E+01  0.3822815038508E+00
-0.2479156750536E+00 -0.1936702882142E+01 -0.1026770719278E+01  0.3793419686382E+00
-0.1567116016008E+00 -0.1957324030983E+01 -0.9935967447943E+00  0.3706308639548E+00
-0.7409293115254E-01 -0.1975804869615E+01 -0.9634519639170E+00  0.3569863610649E+00
 0.2293495748233E-03 -0.1992706847473E+01 -0.9364644216368E+00  0.3391820057366E+00
 0.6656773377857E-01 -0.2008626202009E+01 -0.9127674777532E+00  0.3179247322078E+00
 0.1252423155426E+00 -0.2024186860009E+01 -0.8925039336355E+00  0.2938580031702E+00
 0.1765682651468E+00 -0.2040026107671E+01 -0.8758251837649E+00  0.2675731336947E+00
 0.2208465940793E+00 -0.2056781629040E+01 -0.8628894642431E+00  0.2396286411301E+00
 0.2583596114020E+00 -0.2075086820732E+01 -0.8538617862192E+00  0.2105736741321E+00
 0.2893719024210E+00 -0.2095575393817E+01 -0.8489156388031E+00  0.1809694100036E+00
 0.3141290581581E+00 -0.2118888712433E+01 -0.8482370353577E+00  0.1513987293847E+00
 0.3328391359670E+00 -0.2145674285404E+01 -0.8520325180743E+00  0.1224638261031E+00
-0.1328556000412E+01 -0.1689337242741E+01 -0.1418409820685E+01  0.1934476887389E+00
-0.1162844471303E+01 -0.1741898565387E+01 -0.1365229223781E+01  0.2513355294802E+00
-0.1005192782225E+01 -0.1789865533309E+01 -0.1313677404969E+01  0.2988575986823E+00
-0.8559892919525E+00 -0.1833218072439E+01 -0.1263927458058E+01  0.3360115368512E+00
-0.7156427107582E+00 -0.1871981061403E+01 -0.1216183169831E+01  0.3632329398418E+00
-0.5844790080919E+00 -0.1906290328645E+01 -0.1170661585297E+01  0.3812325276783E+00
-0.4627036935774E+00 -0.1936406390889E+01 -0.1127581736839E+01  0.3908815309075E+00
-0.3503839151129E+00 -0.1962706383198E+01 -0.1087152437449E+01  0.3931341466018E+00
-0.2474479639364E+00 -0.1985661850069E+01 -0.1049561609920E+01  0.3889558104405E+00
-0.1537088236042E+00 -0.2005807955122E+01 -0.1014972883427E+01  0.3792716557947E+00
-0.6889912101424E-01 -0.2023720675400E+01 -0.9835313018203E+00  0.3649413644787E+00
 0.7296289418329E-02 -0.2040010191378E+01 -0.9553755314979E+00  0.3467506775399E+00
 0.7521484445066E-01 -0.2055320105384E+01 -0.9306494702784E+00  0.3254103009707E+00
 0.1351972657429E+00 -0.2070318619300E+01 -0.9095070338650E+00  0.3015604991891E+00
 0.1875722805700E+00 -0.2085681167948E+01 -0.8921111748051E+00  0.2757849037844E+00
 0.2326455459324E+00 -0.2102074576032E+01 -0.8786316419184E+00  0.2486330340485E+00
 0.2706952260606E+00 -0.2120151099124E+01 -0.8692442581353E+00  0.2206470924383E+00
 0.3019766374330E+00 -0.2140554171416E+01 -0.8641314387801E+00  0.1923858644664E+00
 0.3267272751549E+00 -0.2163928315244E+01 -0.8634844866519E+00  0.1644322922251E+00
 0.3451549728797E+00 -0.2190919563311E+01 -0.8675093553025E+00  0.1373821721628E+00
-0.1359146954450E+01 -0.1734740746470E+01 -0.1454127215744E+01  0.2176850862899E+00
-0.1189135018862E+01 -0.1788416478403E+01 -0.1399449200165E+01  0.2734831265488E+00
-0.1026966025421E+01 -0.1837402066741E+01 -0.1346252999901E+01  0.3189263033497E+00
-0.8732783558716E+00 -0.1881555456965E+01 -0.1294771888749E+01  0.3540042039387E+00
-0.7286517692788E+00 -0.1920836095206E+01 -0.1245259293149E+01  0.3791927784798E+00
-0.5935190397073E+00 -0.1955360365313E+01 -0.1197973317321E+01  0.3952585824584E+00
-0.4681467473310E+00 -0.1985401201239E+01 -0.1153167532903E+01  0.4031297924994E+00
-0.3526281229251E+00 -0.2011369694542E+01 -0.1111078971391E+01  0.4038154608595E+00
-0.2468900609663E+00 -0.2033784834874E+01 -0.1071917198326E+01  0.3983274466198E+00
-0.1507264486265E+00 -0.2053234924481E+01 -0.1035861842733E+01  0.3876249668531E+00
-0.6384218415721E-01 -0.2070349495249E+01 -0.1003070086777E+01  0.3725895950763E+00
 0.1410805030538E-01 -0.2085790744824E+01 -0.9736908639541E+00  0.3540179870828E+00
 0.8349020364271E-01 -0.2100251971176E+01 -0.9478780283366E+00  0.3326218900702E+00
 0.1446684043107E+00 -0.2114446767273E+01 -0.9257958282441E+00  0.3090342798904E+00
 0.1979865555709E+00 -0.2129088384398E+01 -0.9076178572465E+00  0.2838258954221E+00
 0.2437551464465E+00 -0.2144870847717E+01 -0.8935243773307E+00  0.2575313820689E+00
 0.2822470840653E+00 -0.2162461736439E+01 -0.8837008843743E+00  0.2306802332793E+00
 0.3137074071472E+00 -0.2182509729884E+01 -0.8783370894585E+00  0.2038243720072E+00
 0.3383679722290E+00 -0.2205658397336E+01 -0.8776264975741E+00  0.1775441235096E+00
 0.3564502862249E+00 -0.2232551228027E+01 -0.8817674404107E+00  0.1524272946878E+00
-0.1389186245868E+01 -0.1780419056095E+01 -0.1489714488144E+01  0.2423666370405E+00
-0.1214929407047E+01 -0.1835155597795E+01 -0.1433539948640E+01  0.2960689697019E+00
-0.1048260914436E+01 -0.1885096469616E+01 -0.1378677967008E+01  0.3393587697476E+00
-0.8901050670051E+00 -0.1929959484491E+01 -0.1325430335841E+01  0.3722440994453E+00
-0.7412296076142E+00 -0.1969632750159E+01 -0.1274105304922E+01  0.3952652973112E+00
-0.6021798640405E+00 -0.2004214435751E+01 -0.1225005317795E+01  0.4092622394053E+00
-0.4732844828154E+00 -0.2033993928176E+01 -0.1178420850177E+01  0.4152315657409E+00
-0.3546610157099E+00 -0.2059421386566E+01 -0.1134618726192E+01  0.4142456944276E+00
-0.2462308438126E+00 -0.2081068853261E+01 -0.1093830854850E+01  0.4073683703297E+00
-0.1477635451642E+00 -0.2099583117311E+01 -0.1056252928684E+01  0.3955952088797E+00
-0.5893106992579E-01 -0.2115651835723E+01 -0.1022053963063E+01  0.3798296209215E+00
 0.2064688144957E-01 -0.2129992847975E+01 -0.9913926017526E+00  0.3608774358729E+00
 0.9136901198629E-01 -0.2143351737589E+01 -0.9644318785873E+00  0.3394482827897E+00
 0.1536262367908E+00 -0.2156488895346E+01 -0.9413454471334E+00  0.3161633196410E+00
 0.2077797196016E+00 -0.2170155445265E+01 -0.9223165887227E+00  0.2915746682940E+00
 0.2541451394587E+00 -0.2185071124703E+01 -0.9075352107631E+00  0.2661955863329E+00
 0.2929886495346E+00 -0.2201915700272E+01 -0.8971957115708E+00  0.2405364344760E+00
 0.3245431189313E+00 -0.2221338898331E+01 -0.8914940140569E+00  0.2151376016712E+00
 0.3490356086229E+00 -0.2243980012734E+01 -0.8906238676732E+00  0.1905750050773E+00
 0.3667138226391E+00 -0.2270480788312E+01 -0.8947704715968E+00  0.1674311269824E+00
-0.1418713233735E+01 -0.1826467185907E+01 -0.1525234793363E+01  0.2674828127033E+00
-0.1240232784606E+01 -0.1882218191416E+01 -0.1467551955008E+01  0.3190861547673E+00
-0.1069057231366E+01 -0.1933051165365E+01 -0.1410990942885E+01  0.3601383751163E+00
-0.9064343090010E+00 -0.1978525229567E+01 -0.1355930979688E+01  0.3906991937869E+00
-0.7533352046663E+00 -0.2018452700531E+01 -0.1302740312138E+01  0.4114020117950E+00
-0.6104211053214E+00 -0.2052916824191E+01 -0.1251768823696E+01  0.4231797663525E+00
-0.4780818271425E+00 -0.2082229197501E+01 -0.1203346178530E+01  0.4271097131001E+00
-0.3564560492873E+00 -0.2106885504299E+01 -0.1157770527249E+01  0.4243365489383E+00
-0.2454541107406E+00 -0.2127517601034E+01 -0.1115296701705E+01  0.4159814587266E+00
-0.1448147875730E+00 -0.2144836994097E+01 -0.1076136334655E+01  0.4030784213594E+00
-0.5417085960305E-01 -0.2159594571854E+01 -0.1040469750146E+01  0.3865520768440E+00
 0.2689853960037E-01 -0.2172567698118E+01 -0.1008464501945E+01  0.3672151567766E+00
 0.9882978577729E-01 -0.2184556969592E+01 -0.9802917739066E+00  0.3457715918602E+00
 0.1620445964866E+00 -0.2196371172889E+01 -0.9561334884841E+00  0.3228258294275E+00
 0.2169240188720E+00 -0.2208799739241E+01 -0.9361815861991E+00  0.2989052373177E+00
 0.2637894907531E+00 -0.2222587198190E+01 -0.9206349201604E+00  0.2744945858274E+00
 0.3028983905564E+00 -0.2238422908142E+01 -0.9096965209581E+00  0.2500779660511E+00
 0.3344679322735E+00 -0.2256953871265E+01 -0.9035683890342E+00  0.2261793466804E+00
 0.3587184115791E+00 -0.2278811848842E+01 -0.9024439132245E+00  0.2033698440564E+00
 0.3759256709096E+00 -0.2304641130674E+01 -0.9064962637903E+00  0.1822353690526E+00
-0.1447773256035E+01 -0.1872993465511E+01 -0.1560760355168E+01  0.2930290461465E+00
-0.1265049048751E+01 -0.1929721657650E+01 -0.1501542228200E+01  0.3425304871270E+00
-0.1089328995826E+01 -0.1981384073842E+01 -0.1443235139084E+01  0.3812478813867E+00
-0.9222231521646E+00 -0.2027362329049E+01 -0.1386305172654E+01  0.4093336267173E+00
-0.7649193117488E+00 -0.2067390490004E+01 -0.1331185603447E+01  0.4275481721936E+00
-0.6181945422153E+00 -0.2101542770831E+01 -0.1278276533890E+01  0.4369396063681E+00
-0.4824966208016E+00 -0.2130160782584E+01 -0.1227948976477E+01  0.4386783458675E+00
-0.3579805388888E+00 -0.2153793725268E+01 -0.1180533901159E+01  0.4339905965602E+00
-0.2445384698007E+00 -0.2173141358118E+01 -0.1136309516240E+01  0.4240605727657E+00
-0.1418704699648E+00 -0.2188987128801E+01 -0.1095503068641E+01  0.4099620889612E+00
-0.4956287779592E-01 -0.2202150797569E+01 -0.1058305424737E+01  0.3926396857667E+00
 0.3285207382232E-01 -0.2213473271539E+01 -0.1024891960327E+01  0.3729100854215E+00
 0.1058539954311E+00 -0.2223812826196E+01 -0.9954406479345E+00  0.3514675148169E+00
 0.1699000774822E+00 -0.2234028234116E+01 -0.9701402311574E+00  0.3288945566697E+00
 0.2253945090560E+00 -0.2244947952847E+01 -0.9491901161745E+00  0.3056874427422E+00
 0.2726653861583E+00 -0.2257341040183E+01 -0.9327975550257E+00  0.2822948908354E+00
 0.3119586159070E+00 -0.2271904636991E+01 -0.9211746275732E+00  0.2591668001956E+00
 0.3434700653555E+00 -0.2289279680830E+01 -0.9145305169535E+00  0.2368053763923E+00
 0.3674055497398E+00 -0.2310086940984E+01 -0.9130602515688E+00  0.2157776080455E+00
 0.3840588954010E+00 -0.2334973613229E+01 -0.9169299150534E+00  0.1966869473354E+00
-0.1476417429529E+01 -0.1920120739264E+01 -0.1596372935284E+01  0.3190069360209E+00
-0.1289379883932E+01 -0.1977799974600E+01 -0.1535574529615E+01  0.3664011596316E+00
-0.1109043106638E+01 -0.2030230037293E+01 -0.1475458373905E+01  0.4026694391727E+00
-0.9374195438749E+00 -0.2076596180498E+01 -0.1416587386862E+01  0.4281071676812E+00
-0.7759234021468E+00 -0.2116554373406E+01 -0.1359464551061E+01  0.4436419346834E+00
-0.6254433462356E+00 -0.2150178958254E+01 -0.1304542479801E+01  0.4504614839704E+00
-0.4864791073762E+00 -0.2177851754985E+01 -0.1252235502133E+01  0.4498419724591E+00
-0.3591953844104E+00 -0.2200185222869E+01 -0.1202908882370E+01  0.4431005592633E+00
-0.2434572559042E+00 -0.2217956644302E+01 -0.1156864530162E+01  0.4314900563758E+00
-0.1389165558335E+00 -0.2232029783535E+01 -0.1114344776677E+01  0.4161249075601E+00
-0.4510482313303E-01 -0.2243299452293E+01 -0.1075550006722E+01  0.3979672717518E+00
 0.3849961900456E-01 -0.2252674100188E+01 -0.1040662003517E+01  0.3778341377196E+00
 0.1124257268986E+00 -0.2261071997484E+01 -0.1009863744614E+01  0.3564055582812E+00
 0.1771714738872E+00 -0.2269403136380E+01 -0.9833488788773E+00  0.3342369552839E+00
 0.2331682020331E+00 -0.2278535763631E+01 -0.9613227515129E+00  0.3117870478518E+00
 0.2807521288299E+00 -0.2289263868387E+01 -0.9440005151974E+00  0.2894607060548E+00
 0.3201544118658E+00 -0.2302291612279E+01 -0.9316044818312E+00  0.2676648766951E+00
 0.3515411958171E+00 -0.2318251338144E+01 -0.9243537645491E+00  0.2468736321501E+00
 0.3750898116655E+00 -0.2337747925333E+01 -0.9224493110841E+00  0.2276495411816E+00
 0.3910882618116E+00 -0.2361424615050E+01 -0.9260580836734E+00  0.2106269182719E+00
-0.1504702502050E+01 -0.1967987785526E+01 -0.1632164431021E+01  0.3454256350446E+00
-0.1313223639027E+01 -0.2026605316687E+01 -0.1569719605204E+01  0.3907015413771E+00
-0.1128157827527E+01 -0.2079742468718E+01 -0.1507713135411E+01  0.4243845701038E+00
-0.9519608591375E+00 -0.2126369282817E+01 -0.1446815163049E+01  0.4469745479701E+00
-0.7862785957002E+00 -0.2166067265533E+01 -0.1387602551260E+01  0.4596133574331E+00
-0.6321013418037E+00 -0.2198924011816E+01 -0.1330581912826E+01  0.4636553354957E+00
-0.4899715087204E+00 -0.2225374590437E+01 -0.1276212663367E+01  0.4604944784584E+00
-0.3600549082823E+00 -0.2246106382812E+01 -0.1224895803708E+01  0.4515484414728E+00
-0.2421785949553E+00 -0.2261985659541E+01 -0.1176957196628E+01  0.4381441405254E+00
-0.1359348705302E+00 -0.2273966222331E+01 -0.1132653510772E+01  0.4214365265817E+00
-0.4079100579697E-01 -0.2283024698245E+01 -0.1092193378130E+01  0.4024018220156E+00
 0.4383614283537E-01 -0.2290140881463E+01 -0.1055763224477E+01  0.3818524805651E+00
 0.1185313597550E+00 -0.2296294623914E+01 -0.1023548731558E+01  0.3604493367659E+00
 0.1838392329751E+00 -0.2302447505673E+01 -0.9957458856423E+00  0.3387153133535E+00
 0.2402231805711E+00 -0.2309507826741E+01 -0.9725637812329E+00  0.3170655885787E+00
 0.2880299246930E+00 -0.2318295442886E+01 -0.9542247911306E+00  0.2958535786263E+00
 0.3274724490776E+00 -0.2329522094780E+01 -0.9409633310933E+00  0.2754337777543E+00
 0.3586766083341E+00 -0.2343810425216E+01 -0.9330128915680E+00  0.2562441105845E+00
 0.3817714523209E+00 -0.2361743529175E+01 -0.9305868737613E+00  0.2388392567145E+00
 0.3970037807166E+00 -0.2383944604042E+01 -0.9338621845942E+00  0.2238930687502E+00
-0.1532690376322E+01 -0.2016750662805E+01 -0.1668237284158E+01  0.3723035411935E+00
-0.1336573946637E+01 -0.2076309888488E+01 -0.1604055398440E+01  0.4154401950971E+00
-0.1146620789433E+01 -0.2130095054552E+01 -0.1540056442767E+01  0.4463742006225E+00
-0.9657721768938E+00 -0.2176842764669E+01 -0.1477029018788E+01  0.4658846945399E+00
-0.7959042954008E+00 -0.2216067681313E+01 -0.1415626825465E+01  0.4753832188816E+00
-0.6380921806038E+00 -0.2247889068015E+01 -0.1356411183410E+01  0.4764200408171E+00
-0.4929074981039E+00 -0.2272811173792E+01 -0.1299887772494E+01  0.4705178845943E+00
-0.3605067035771E+00 -0.2291610370325E+01 -0.1246495021572E+01  0.4592044489645E+00
-0.2406654966128E+00 -0.2305255445561E+01 -0.1196582839787E+01  0.4438861843035E+00
-0.1329033571478E+00 -0.2314801714933E+01 -0.1150421380960E+01  0.4257572190780E+00
-0.3661261419959E-01 -0.2321314993196E+01 -0.1108225972665E+01  0.4058025775732E+00
 0.4885926522791E-01 -0.2325849852402E+01 -0.1070185573258E+01  0.3848239232217E+00
 0.1241594046062E+00 -0.2329448211120E+01 -0.1036485736433E+01  0.3634570225075E+00
 0.1898851598080E+00 -0.2333121973762E+01 -0.1007321300003E+01  0.3421869352863E+00
 0.2465378187788E+00 -0.2337818467117E+01 -0.9829019022259E+00  0.3213800010459E+00
 0.2944787071565E+00 -0.2344384027602E+01 -0.9634554981656E+00  0.3013314781246E+00
 0.3338996059932E+00 -0.2353540425178E+01 -0.9492311826094E+00  0.2823336097957E+00
 0.3648747456693E+00 -0.2365901964629E+01 -0.9404827905259E+00  0.2647782153193E+00
 0.3874609551495E+00 -0.2382025121150E+01 -0.9374451556427E+00  0.2492033362487E+00
 0.4018134760050E+00 -0.2402491096209E+01 -0.9403184791111E+00  0.2363219181591E+00
-0.1560447869996E+01 -0.2066584443074E+01 -0.1704705182819E+01  0.3996701750813E+00
-0.1359417683755E+01 -0.2127107454909E+01 -0.1638666811016E+01  0.4406320553946E+00
-0.1164367018883E+01 -0.2181484021376E+01 -0.1572549984933E+01  0.4686186455701E+00
-0.9787638874614E+00 -0.2228197520271E+01 -0.1507271857811E+01  0.4847797736305E+00
-0.8047070101622E+00 -0.2266711057542E+01 -0.1443566488160E+01  0.4908616053751E+00
-0.6433283009102E+00 -0.2297198106977E+01 -0.1382047408202E+01  0.4886418873508E+00
-0.4952118866934E+00 -0.2320252857577E+01 -0.1323268426451E+01  0.4797808308235E+00
-0.3604915440699E+00 -0.2336756341040E+01 -0.1267706502786E+01  0.4659256305907E+00
-0.2388761908845E+00 -0.2347796677483E+01 -0.1215736245049E+01  0.4485677291686E+00
-0.1297965563111E+00 -0.2354544050667E+01 -0.1167640082318E+01  0.4289374848783E+00
-0.3255819063439E-01 -0.2358161688492E+01 -0.1123638340339E+01  0.4080211984055E+00
 0.5356896119980E-01 -0.2359781763936E+01 -0.1083920014537E+01  0.3866015213802E+00
 0.1293005450835E+00 -0.2360507212878E+01 -0.1048667131204E+01  0.3652821453181E+00
 0.1952923305139E+00 -0.2361396962658E+01 -0.1018069174525E+01  0.3445046485669E+00
 0.2520904238114E+00 -0.2363433163328E+01 -0.9923310850557E+00  0.3245822711985E+00
 0.3000766359054E+00 -0.2367488061822E+01 -0.9716833677161E+00  0.3057472822225E+00
 0.3394215144958E+00 -0.2374296149931E+01 -0.9563910762289E+00  0.2882209003318E+00
 0.3701355174134E+00 -0.2384471762079E+01 -0.9467380325915E+00  0.2723373571476E+00
 0.3921795535945E+00 -0.2398542871901E+01 -0.9429907572124E+00  0.2586023743259E+00
 0.4055531496142E+00 -0.2417024189935E+01 -0.9453913865528E+00  0.2477521815409E+00
-0.1588044667305E+01 -0.2117683459286E+01 -0.1741692215080E+01  0.4275688304064E+00
-0.1381734692884E+01 -0.2179217805484E+01 -0.1673647669988E+01  0.4662998908169E+00
-0.1181314171308E+01 -0.2234128032808E+01 -0.1605257831863E+01  0.4910976256436E+00
-0.9908307705000E+00 -0.2280637726288E+01 -0.1537590189591E+01  0.5035941853078E+00
-0.8125774407106E+00 -0.2318169661710E+01 -0.1471451134406E+01  0.5059462607167E+00
-0.6477107828172E+00 -0.2346989747011E+01 -0.1407509245449E+01  0.5001928344520E+00
-0.4967997188846E+00 -0.2367800071276E+01 -0.1346361897961E+01  0.4881366407567E+00
-0.3599435568384E+00 -0.2381608734418E+01 -0.1288529573622E+01  0.4715541693915E+00
-0.2367645101269E+00 -0.2389642025383E+01 -0.1234411068559E+01  0.4520272708471E+00
-0.1265863243013E+00 -0.2393201655381E+01 -0.1184300347447E+01  0.4308175333496E+00
-0.2861428071727E-01 -0.2393557143484E+01 -0.1138420566487E+01  0.4089019782686E+00
 0.5796716781092E-01 -0.2391920416274E+01 -0.1096958023995E+01  0.3870334119782E+00
 0.1339476571104E+00 -0.2389452358860E+01 -0.1060087207134E+01  0.3657748273264E+00
 0.2000461767690E+00 -0.2387252816201E+01 -0.1027987117926E+01  0.3455180782154E+00
 0.2568588727002E+00 -0.2386332122468E+01 -0.1000852424852E+01  0.3265195759537E+00
 0.3047997311951E+00 -0.2387579471968E+01 -0.9789064756802E+00  0.3089468828123E+00
 0.3440187452625E+00 -0.2391747271372E+01 -0.9624324048306E+00  0.2929448225465E+00
 0.3744597774829E+00 -0.2399460935188E+01 -0.9517505417074E+00  0.2787801202564E+00
 0.3959569670822E+00 -0.2411242412441E+01 -0.9471841569162E+00  0.2669011271978E+00
 0.4082997184057E+00 -0.2427501349741E+01 -0.9490247643204E+00  0.2580263857574E+00
-0.1615562280088E+01 -0.2170273968683E+01 -0.1779343032410E+01  0.4560582715735E+00
-0.1403485000161E+01 -0.2232877416057E+01 -0.1709090331287E+01  0.4924759957087E+00
-0.1197369338863E+01 -0.2288282105219E+01 -0.1638256174564E+01  0.5137902279975E+00
-0.1001840120746E+01 -0.2334382044939E+01 -0.1568024413895E+01  0.5222531416401E+00
-0.8193945084596E+00 -0.2370640869638E+01 -0.1499316623903E+01  0.5205213328400E+00
-0.6511252996454E+00 -0.2397415343213E+01 -0.1432814098509E+01  0.5109280728556E+00
-0.4975770474472E+00 -0.2415563707347E+01 -0.1369176151280E+01  0.4954210357839E+00
-0.3587899859217E+00 -0.2426235657318E+01 -0.1308962049002E+01  0.4759150574472E+00
-0.2342805341373E+00 -0.2430823775539E+01 -0.1252599022371E+01  0.4540887067779E+00
-0.1232429759917E+00 -0.2430781130628E+01 -0.1200391327067E+01  0.4312266344516E+00
-0.2476662070513E-01 -0.2427492300753E+01 -0.1152561690162E+01  0.4082820319601E+00
 0.6205734557863E-01 -0.2422250101843E+01 -0.1109290592631E+01  0.3859638970304E+00
 0.1380955976121E+00 -0.2416269483082E+01 -0.1070741723455E+01  0.3647835210394E+00
 0.2041348526983E+00 -0.2410680062267E+01 -0.1037076245867E+01  0.3450756994045E+00
 0.2608257953397E+00 -0.2406509730083E+01 -0.1008471446772E+01  0.3270365050286E+00
 0.3086167355585E+00 -0.2404657919841E+01 -0.9851393541139E+00  0.3107675136360E+00
 0.3476675886236E+00 -0.2405862860313E+01 -0.9673517752405E+00  0.2963409620545E+00
 0.3778378849607E+00 -0.2410809888072E+01 -0.9554968390387E+00  0.2839552273378E+00
 0.3988425833244E+00 -0.2420040151453E+01 -0.9499628546108E+00  0.2739698120503E+00
 0.4101703595890E+00 -0.2433892314691E+01 -0.9511493164855E+00  0.2669993671969E+00
-0.1643036652512E+01 -0.2224558571746E+01 -0.1817769750791E+01  0.4852257498561E+00
-0.1424671970330E+01 -0.2288423693018E+01 -0.1745154957347E+01  0.5192026855690E+00
-0.1212361105073E+01 -0.2344163465030E+01 -0.1671566543709E+01  0.5366723256931E+00
-0.1011671022916E+01 -0.2389713142005E+01 -0.1598650553458E+01  0.5406753434896E+00
-0.8250010324665E+00 -0.2424325952749E+01 -0.1527183679178E+01  0.5344533129428E+00
-0.6534492234403E+00 -0.2448649401068E+01 -0.1457986349821E+01  0.5206846630768E+00
-0.4974389987002E+00 -0.2463664924637E+01 -0.1391718840438E+01  0.5014484254727E+00
-0.3569508907917E+00 -0.2470705930661E+01 -0.1328998702712E+01  0.4788128581562E+00
-0.2313714882825E+00 -0.2471370314041E+01 -0.1270288643870E+01  0.4545595281824E+00
-0.1197368613688E+00 -0.2467284203813E+01 -0.1215899897552E+01  0.4299824313062E+00
-0.2100207542551E-01 -0.2459954056287E+01 -0.1166049378947E+01  0.4059913324401E+00
 0.6584303979929E-01 -0.2450752295335E+01 -0.1120907347259E+01  0.3832344478872E+00
 0.1417427911135E+00 -0.2440944749629E+01 -0.1080624917761E+01  0.3621577344322E+00
 0.2075477001677E+00 -0.2431681794202E+01 -0.1045343021545E+01  0.3430277057471E+00
 0.2639782121255E+00 -0.2423976734721E+01 -0.1015199303045E+01  0.3259781114455E+00
 0.3115166783278E+00 -0.2418736621281E+01 -0.9903933706760E+00  0.3110442674464E+00
 0.3502958952482E+00 -0.2416693875078E+01 -0.9712070480569E+00  0.2982205204982E+00
 0.3802704366787E+00 -0.2418424477404E+01 -0.9579323967111E+00  0.2876828953054E+00
 0.4008743859447E+00 -0.2424820768743E+01 -0.9512547975025E+00  0.2796814888914E+00
 0.4113991355787E+00 -0.2436108475634E+01 -0.9516133874125E+00  0.2745636418346E+00
-0.1670961875281E+01 -0.2281290987858E+01 -0.1857558840964E+01  0.5151256424838E+00
-0.1444882532567E+01 -0.2345737958526E+01 -0.1781591626295E+01  0.5465069234307E+00
-0.1226358523808E+01 -0.2402315945307E+01 -0.1705476996158E+01  0.5597438432549E+00
-0.1020051947917E+01 -0.2446811698032E+01 -0.1629425909463E+01  0.5587525570467E+00
-0.8292500990621E+00 -0.2479476163724E+01 -0.1555101339565E+01  0.5475990422970E+00
-0.6545461874353E+00 -0.2500897550637E+01 -0.1483058553133E+01  0.5292779820730E+00
-0.4962675960691E+00 -0.2512234578141E+01 -0.1413996018292E+01  0.5060051915015E+00
-0.3543382341208E+00 -0.2515082878420E+01 -0.1348627919474E+01  0.4800273849568E+00
-0.2279824673820E+00 -0.2511300613492E+01 -0.1287463044745E+01  0.4532293663899E+00
-0.1160416573066E+00 -0.2502706420185E+01 -0.1230811593299E+01  0.4268904478125E+00
-0.1731046785163E-01 -0.2490922277289E+01 -0.1178869387226E+01  0.4018523511237E+00
 0.6932514336024E-01 -0.2477402459840E+01 -0.1131796335875E+01  0.3786840141753E+00
 0.1448889075706E+00 -0.2463459575989E+01 -0.1089728211393E+01  0.3577505531434E+00
 0.2102880302938E+00 -0.2450259784132E+01 -0.1052786721634E+01  0.3392333347826E+00
 0.2662887081167E+00 -0.2438789103113E+01 -0.1021075183059E+01  0.3231912251862E+00
 0.3135027750149E+00 -0.2429839297848E+01 -0.9946781632086E+00  0.3096138681948E+00
 0.3519471411713E+00 -0.2424253643279E+01 -0.9739840535203E+00  0.2984034901854E+00
 0.3814360005797E+00 -0.2422607004447E+01 -0.9593503693846E+00  0.2896887781897E+00
 0.4023140959004E+00 -0.2425052004876E+01 -0.9506868148073E+00  0.2838576682400E+00
 0.4123672155794E+00 -0.2433972247316E+01 -0.9501543625064E+00  0.2807012096820E+00
 0.5168923174907E+00  0.1044587017148E+01  0.7338952854186E+00 -0.2154666609201E-01
 0.4552092949533E-01  0.8645467801194E+00  0.4277318224340E+00 -0.2277567736265E+00
 0.7846004173775E-01  0.9366563428757E+00  0.4771046995582E+00 -0.2571379724545E+00
 0.1015270210710E+00  0.9182940133087E+00  0.4793158849427E+00 -0.2794371486768E+00
 0.1217608525713E+00  0.8276184642783E+00  0.4462082777876E+00 -0.2902096014841E+00
 0.1121929339938E+00  0.6859816056517E+00  0.3751420326819E+00 -0.2735305246507E+00
 0.8768787363059E-01  0.5679477077942E+00  0.3081487224881E+00 -0.2310239375050E+00
 0.6282465452641E-01  0.4984475841257E+00  0.2637979514974E+00 -0.1849733303432E+00
 0.4406123439658E-01  0.4510473849637E+00  0.2327010505091E+00 -0.1455455388544E+00
 0.3045585673275E-01  0.4079457415263E+00  0.2060487506591E+00 -0.1124285027003E+00
 0.1999540469322E-01  0.3643125065610E+00  0.1806247178313E+00 -0.8373591784095E-01
 0.1243030569758E-01  0.3201833255676E+00  0.1563284062981E+00 -0.5862006489999E-01
 0.7365032763981E-02  0.2751655098872E+00  0.1327893547093E+00 -0.3702233575330E-01
 0.4092350841294E-02  0.2288530761763E+00  0.1094843504206E+00 -0.1891543847017E-01
 0.2450325412131E-02  0.1826412948783E+00  0.8699306131588E-01 -0.4437116312792E-02
 0.2808902023950E-02  0.1381451164640E+00  0.6624838852131E-01  0.5861809217137E-02
 0.2568377118670E-02  0.9306458880238E-01  0.4494749386889E-01  0.1220347676782E-01
 0.3876028468276E-03  0.5264280395344E-01  0.2492429113291E-01  0.1593230589847E-01
 0.1721251278753E-02  0.2514930545566E-01  0.1262916163314E-01  0.1804110821661E-01
 0.1154954039937E-01  0.1080430757231E-01  0.1050630852004E-01  0.1807336925424E-01
 0.4202453329877E+00  0.8719412515886E+00  0.6073276932105E+00 -0.3139029663760E-01
 0.1223694868510E+00  0.8793972969758E+00  0.4708303872044E+00 -0.2007127819953E+00
 0.6097808863595E-01  0.8428623457854E+00  0.4248050031006E+00 -0.2382985684191E+00
 0.8163846123702E-01  0.8302186986334E+00  0.4285728640521E+00 -0.2419381788019E+00
 0.9200614777230E-01  0.7684287099531E+00  0.4044043821052E+00 -0.2403838661972E+00
 0.8922556041842E-01  0.6754415973973E+00  0.3593935632618E+00 -0.2277776810165E+00
 0.7048014730134E-01  0.5797131883761E+00  0.3055908669933E+00 -0.2003743229022E+00
 0.4548553860430E-01  0.5040214858879E+00  0.2582683008563E+00 -0.1655380127358E+00
 0.2661169427011E-01  0.4489912806828E+00  0.2235333976609E+00 -0.1304402054069E+00
 0.1421125217511E-01  0.4036152552380E+00  0.1963784579861E+00 -0.9825076067057E-01
 0.5571866866451E-02  0.3609440278641E+00  0.1722624700864E+00 -0.6956816499406E-01
-0.4520143476441E-03  0.3185482105364E+00  0.1495052118295E+00 -0.4421646428538E-01
-0.4041668014355E-02  0.2757716652669E+00  0.1277130983848E+00 -0.2210774548421E-01
-0.5341018756358E-02  0.2325095296376E+00  0.1067691998434E+00 -0.3346940793542E-02
-0.4657249938879E-02  0.1891842570570E+00  0.8672769312555E-01  0.1179539761009E-01
-0.2474721070677E-02  0.1462512863566E+00  0.6757498551300E-01  0.2300906265915E-01
 0.8286389608197E-03  0.1046549065336E+00  0.4957726625664E-01  0.3008925655249E-01
 0.3721123717006E-02  0.6720507469391E-01  0.3333531316858E-01  0.3369337460272E-01
 0.8711830765646E-02  0.3800064769114E-01  0.2195486481901E-01  0.3509251812279E-01
 0.2071483889929E-01  0.1867707627944E-01  0.1851420008704E-01  0.3445781727825E-01
 0.3939007500523E+00  0.7721525763178E+00  0.5480450620039E+00 -0.5558208341065E-01
 0.1320051754160E+00  0.8066474522478E+00  0.4411667338830E+00 -0.1803938909918E+00
 0.6844097763588E-01  0.7838263742925E+00  0.4005656543903E+00 -0.2115921923096E+00
 0.6232052800058E-01  0.7524366766256E+00  0.3829358852030E+00 -0.2098424391307E+00
 0.6891895439413E-01  0.7098841328655E+00  0.3660374500836E+00 -0.1999879785665E+00
 0.6632797157768E-01  0.6461805477203E+00  0.3348790032207E+00 -0.1872324633782E+00
 0.5147052294800E-01  0.5728518462674E+00  0.2934315127870E+00 -0.1674966406811E+00
 0.2937141483819E-01  0.5036299999903E+00  0.2505106643340E+00 -0.1412280400026E+00
 0.1061925749444E-01  0.4461074769654E+00  0.2146615646517E+00 -0.1119040712796E+00
-0.1554215133881E-02  0.3984336651839E+00  0.1865333410504E+00 -0.8255905489132E-01
-0.9171504194485E-02  0.3557225130680E+00  0.1628789737574E+00 -0.5499911774503E-01
-0.1383807884206E-01  0.3147776401111E+00  0.1414415934377E+00 -0.2996032597967E-01
-0.1599958576679E-01  0.2742110123189E+00  0.1213593701717E+00 -0.7740996333504E-02
-0.1568724302221E-01  0.2336126593638E+00  0.1024249454208E+00  0.1141495957782E-01
-0.1313950023322E-01  0.1929877423137E+00  0.8452867356344E-01  0.2720431214338E-01
-0.8615736592930E-02  0.1527309769148E+00  0.6773416277949E-01  0.3923192930597E-01
-0.2417953952758E-02  0.1137006177763E+00  0.5230285186443E-01  0.4694117196504E-01
 0.4754841297716E-02  0.7794413594572E-01  0.3886851920583E-01  0.5089689250467E-01
 0.1405922894086E-01  0.4781475305473E-01  0.2908077146417E-01  0.5239459205310E-01
 0.2925275274778E-01  0.2503026794005E-01  0.2551301965857E-01  0.5169752007321E-01
 0.3700211165955E+00  0.6820049208205E+00  0.4944522363314E+00 -0.7993014976334E-01
 0.1354420173475E+00  0.7282134259013E+00  0.4059180572974E+00 -0.1653833476373E+00
 0.6708789013586E-01  0.7154152495282E+00  0.3677764747093E+00 -0.1857040354511E+00
 0.5056251144452E-01  0.6868901078695E+00  0.3466027301985E+00 -0.1797030609639E+00
 0.4880870366688E-01  0.6515632292197E+00  0.3291748076218E+00 -0.1657502167530E+00
 0.4560382127584E-01  0.6072339457078E+00  0.3068337497041E+00 -0.1515736698447E+00
 0.3269109017828E-01  0.5520977727633E+00  0.2748507648854E+00 -0.1353654869480E+00
 0.1345075581526E-01  0.4933215603088E+00  0.2381829879742E+00 -0.1146883824974E+00
-0.4236104649800E-02  0.4387348291740E+00  0.2042144000084E+00 -0.9056624807038E-01
-0.1637826816918E-01  0.3909315562338E+00  0.1760400449439E+00 -0.6493771588182E-01
-0.2360219196060E-01  0.3483627921945E+00  0.1526374817228E+00 -0.3954687641070E-01
-0.2738340420646E-01  0.3086156276595E+00  0.1321791446877E+00 -0.1557996343143E-01
-0.2840677653100E-01  0.2700807139755E+00  0.1135867503108E+00  0.6246460349924E-02
-0.2679084282086E-01  0.2320080432906E+00  0.9645208397614E-01  0.2546515311012E-01
-0.2264540813909E-01  0.1941350143844E+00  0.8060011473086E-01  0.4168587781216E-01
-0.1610100824416E-01  0.1566059687378E+00  0.6603733126450E-01  0.5441966092060E-01
-0.7315261621106E-02  0.1200961860190E+00  0.5300703433257E-01  0.6288725768799E-01
 0.3571852878491E-02  0.8588211729610E-01  0.4204336587542E-01  0.6757363080066E-01
 0.1710179215751E-01  0.5531735214176E-01  0.3403699773433E-01  0.6969803521227E-01
 0.3588913391919E-01  0.3012720062519E-01  0.3102767715716E-01  0.6945135626670E-01
 0.3444400979951E+00  0.5971426892723E+00  0.4425439088932E+00 -0.1028271404063E+00
 0.1335704982890E+00  0.6483490772097E+00  0.3675021995523E+00 -0.1541322354725E+00
 0.6276903657919E-01  0.6446127830176E+00  0.3324694543672E+00 -0.1626127046084E+00
 0.3942136411912E-01  0.6224288085936E+00  0.3110695803860E+00 -0.1521065470349E+00
 0.3221959473992E-01  0.5946481185716E+00  0.2946278245092E+00 -0.1354718076462E+00
 0.2688708268066E-01  0.5624325991647E+00  0.2769802497648E+00 -0.1199895218493E+00
 0.1503676275364E-01  0.5214167638290E+00  0.2521331568543E+00 -0.1051436361312E+00
-0.1980141336889E-02  0.4733751956839E+00  0.2215556749812E+00 -0.8780480918878E-01
-0.1830206634381E-01  0.4246252845716E+00  0.1909719120827E+00 -0.6767379355555E-01
-0.3018979565140E-01  0.3792294388647E+00  0.1640486318942E+00 -0.4569193860543E-01
-0.3732426881512E-01  0.3378921371786E+00  0.1412668977725E+00 -0.2303660279431E-01
-0.4068073671726E-01  0.2995642781099E+00  0.1216752641459E+00 -0.8227011517426E-03
-0.4097383574959E-01  0.2630079477523E+00  0.1043560323766E+00  0.2004005680747E-01
-0.3840791402604E-01  0.2274040254200E+00  0.8882817212985E-01  0.3889086061215E-01
-0.3304325358763E-01  0.1922817375615E+00  0.7484208727788E-01  0.5523277032499E-01
-0.2489036084302E-01  0.1575534505471E+00  0.6235165200277E-01  0.6849687741314E-01
-0.1399045692913E-01  0.1236401918811E+00  0.5153537529670E-01  0.7777674149075E-01
 0.3448581743232E-04  0.9121144407098E-01  0.4288558693878E-01  0.8346968669049E-01
 0.1739781749340E-01  0.6082010713955E-01  0.3676242448425E-01  0.8661398957761E-01
 0.3970037479115E-01  0.3419899220860E-01  0.3473270240179E-01  0.8721799291737E-01
 0.3161208486770E+00  0.5160752001742E+00  0.3911321419680E+00 -0.1237541745981E+00
 0.1274273380531E+00  0.5691274949160E+00  0.3273807706651E+00 -0.1459093112905E+00
 0.5614403725521E-01  0.5727498680505E+00  0.2955801347440E+00 -0.1426982697941E+00
 0.2838575511696E-01  0.5575896016027E+00  0.2754084169597E+00 -0.1273848898061E+00
 0.1734453218784E-01  0.5369715827518E+00  0.2605285733608E+00 -0.1083998003883E+00
 0.1018968537100E-01  0.5138637330134E+00  0.2463051060159E+00 -0.9167811296863E-01
-0.1309166079360E-02  0.4834443830404E+00  0.2266035513970E+00 -0.7716268154508E-01
-0.1663429308734E-01  0.4450781200802E+00  0.2013685981759E+00 -0.6167158928466E-01
-0.3160716119587E-01  0.4032113102685E+00  0.1746539496212E+00 -0.4435188108974E-01
-0.4304871637833E-01  0.3619680055618E+00  0.1498920655360E+00 -0.2548711234814E-01
-0.5015255114688E-01  0.3231636908992E+00  0.1283152353581E+00 -0.5649840008414E-02
-0.5339960593518E-01  0.2868665629738E+00  0.1097294695299E+00  0.1438769134041E-01
-0.5335565229232E-01  0.2524786269975E+00  0.9358779787408E-01  0.3377691642662E-01
-0.5024318007071E-01  0.2193776113556E+00  0.7949318250228E-01  0.5179039665580E-01
-0.4409342196079E-01  0.1870372015492E+00  0.6718357623614E-01  0.6786574085076E-01
-0.3483335086891E-01  0.1551968965131E+00  0.5657086630930E-01  0.8138680224471E-01
-0.2239341267554E-01  0.1240620885911E+00  0.4778427755911E-01  0.9139551446658E-01
-0.5931001626668E-02  0.9379444027924E-01  0.4129581606197E-01  0.9820386298957E-01
 0.1463556558673E-01  0.6426388784902E-01  0.3708274302075E-01  0.1025959344589E+00
 0.3997201840355E-01  0.3711415481149E-01  0.3623050131918E-01  0.1043050165198E+00
 0.2851791659464E+00  0.4383525358838E+00  0.3400598989977E+00 -0.1425956419339E+00
 0.1174366878597E+00  0.4912362785679E+00  0.2860762934954E+00 -0.1401764110006E+00
 0.4749902924724E-01  0.5006063198584E+00  0.2576095134262E+00 -0.1259145033706E+00
 0.1709006635436E-01  0.4919199155205E+00  0.2392346908744E+00 -0.1056117114408E+00
 0.3451818100319E-02  0.4778122714834E+00  0.2261941215306E+00 -0.8422859464916E-01
-0.5054776416827E-02  0.4619921205892E+00  0.2147605512163E+00 -0.6617998323106E-01
-0.1635688598775E-01  0.4398644952258E+00  0.1990485758370E+00 -0.5141843790982E-01
-0.3039553587604E-01  0.4097294581850E+00  0.1782869430330E+00 -0.3685247638312E-01
-0.4411588115154E-01  0.3747394441666E+00  0.1553930742229E+00 -0.2141018418438E-01
-0.5498712703480E-01  0.3385264012764E+00  0.1332634585556E+00 -0.5016095526722E-02
-0.6201901407659E-01  0.3032670028423E+00  0.1133865544323E+00  0.1222242023211E-01
-0.6531759022810E-01  0.2697121412983E+00  0.9606543875933E-01  0.2993422707475E-01
-0.6524092425262E-01  0.2378561889966E+00  0.8112917422391E-01  0.4749034163166E-01
-0.6196300907468E-01  0.2074074941878E+00  0.6835890782979E-01  0.6423366133854E-01
-0.5547921920103E-01  0.1779274429410E+00  0.5755066501182E-01  0.7961617412398E-01
-0.4565147538115E-01  0.1490870028634E+00  0.4861469779335E-01  0.9302908182798E-01
-0.3231783035092E-01  0.1209500327394E+00  0.4165713501691E-01  0.1035309356241E+00
-0.1422515815490E-01  0.9326034514675E-01  0.3714653779195E-01  0.1113670742270E+00
 0.8701037964194E-02  0.6526553108813E-01  0.3476428736642E-01  0.1170317798830E+00
 0.3629360250119E-01  0.3840527519327E-01  0.3510847242735E-01  0.1199200785032E+00
 0.2519076848163E+00  0.3636929420307E+00  0.2893322938842E+00 -0.1593676510906E+00
 0.1039410006486E+00  0.4149922083797E+00  0.2438986076247E+00 -0.1364834980035E+00
 0.3688474995377E-01  0.4285921516841E+00  0.2187741432149E+00 -0.1120530028583E+00
 0.5293664389594E-02  0.4254171381918E+00  0.2024340766998E+00 -0.8672334510054E-01
-0.9935073916883E-02  0.4169432572456E+00  0.1912938456793E+00 -0.6279119962304E-01
-0.1928737591140E-01  0.4070770857443E+00  0.1822611631592E+00 -0.4324700696440E-01
-0.3032663823306E-01  0.3915897596402E+00  0.1697936666307E+00 -0.2785029001469E-01
-0.4326504909044E-01  0.3683723125261E+00  0.1528004134272E+00 -0.1361486342021E-01
-0.5582073798521E-01  0.3397440288629E+00  0.1334439463740E+00  0.6298251275539E-03
-0.6602977579460E-01  0.3087932444800E+00  0.1140988299927E+00  0.1514916647264E-01
-0.7290281748343E-01  0.2776640122672E+00  0.9623776130428E-01  0.3013962406899E-01
-0.7629983614251E-01  0.2474266643257E+00  0.8042960904210E-01  0.4557752573254E-01
-0.7638082533909E-01  0.2184974510027E+00  0.6679481389250E-01  0.6110865693893E-01
-0.7324240784807E-01  0.1909155009028E+00  0.5530635359547E-01  0.7623853891524E-01
-0.6683470442166E-01  0.1644136237839E+00  0.4586209198393E-01  0.9051202042116E-01
-0.5696583931142E-01  0.1386929512110E+00  0.3841174249540E-01  0.1033907436443E+00
-0.4339995940085E-01  0.1137674876128E+00  0.3307273817571E-01  0.1140150682695E+00
-0.2454993629760E-01  0.8903954340003E-01  0.3031011526127E-01  0.1225959051139E+00
-0.2554901477913E-03  0.6318015078089E-01  0.2957459042255E-01  0.1293432622237E+00
 0.2862452229224E-01  0.3730454071457E-01  0.3098665953460E-01  0.1332907307281E+00
 0.2166144079351E+00  0.2918534256564E+00  0.2389798811819E+00 -0.1741410609053E+00
 0.8723358875485E-01  0.3405282103143E+00  0.2010480450526E+00 -0.1344334908289E+00
 0.2429842793477E-01  0.3569750088491E+00  0.1791985148339E+00 -0.1008397691543E+00
-0.7222543136834E-02  0.3582113335896E+00  0.1649647310944E+00 -0.7057999891211E-01
-0.2316540261715E-01  0.3543984220101E+00  0.1556795187198E+00 -0.4395843858810E-01
-0.3287117371897E-01  0.3493469122338E+00  0.1487435967247E+00 -0.2273356395653E-01
-0.4347018875699E-01  0.3392070910580E+00  0.1389963437289E+00 -0.6405369904094E-02
-0.5534650956819E-01  0.3217603829919E+00  0.1252145201915E+00  0.7911511460197E-02
-0.6676121072843E-01  0.2987955132214E+00  0.1090561218951E+00  0.2145011928284E-01
-0.7621725039701E-01  0.2729334126439E+00  0.9245659602155E-01  0.3458834595063E-01
-0.8281420916070E-01  0.2461344757323E+00  0.7676052509395E-01  0.4770637519440E-01
-0.8627252565184E-01  0.2195543668274E+00  0.6264246519361E-01  0.6103916083297E-01
-0.8659225225186E-01  0.1938558965256E+00  0.5041391268078E-01  0.7449374591073E-01
-0.8379322522916E-01  0.1693405453238E+00  0.4020724034248E-01  0.8777572708973E-01
-0.7778375714430E-01  0.1459330346526E+00  0.3203016034765E-01  0.1005739723575E+00
-0.6833165074851E-01  0.1234323051892E+00  0.2589730752145E-01  0.1124734521101E+00
-0.5514782216081E-01  0.1018857675070E+00  0.2196683425699E-01  0.1227534853691E+00
-0.3641420960161E-01  0.8041881774272E-01  0.2068216577387E-01  0.1316302269772E+00
-0.1180724092245E-01  0.5717227024666E-01  0.2132156372830E-01  0.1390744816775E+00
 0.1731748135095E-01  0.3283525793385E-01  0.2357178740407E-01  0.1437834352154E+00
 0.1795792629309E+00  0.2225996328017E+00  0.1890240805149E+00 -0.1870086393378E+00
 0.6758065075234E-01  0.2678818767261E+00  0.1576673875150E+00 -0.1336724803753E+00
 0.9727769770339E-02  0.2859434692193E+00  0.1389654819727E+00 -0.9197570907185E-01
-0.2065612554843E-01  0.2904806347655E+00  0.1268175190104E+00 -0.5699769139133E-01
-0.3653210844479E-01  0.2903293356575E+00  0.1192846964874E+00 -0.2760274965057E-01
-0.4611547292989E-01  0.2890498802047E+00  0.1141791711295E+00 -0.4535764710268E-02
-0.5603993233629E-01  0.2831565054347E+00  0.1067447890855E+00  0.1295880886616E-01
-0.6679294720280E-01  0.2704643948987E+00  0.9572558017426E-01  0.2766259919260E-01
-0.7702645452010E-01  0.2524091249900E+00  0.8242985491177E-01  0.4085992465866E-01
-0.8561750299777E-01  0.2312345887752E+00  0.6844003014179E-01  0.5301224728755E-01
-0.9179341536015E-01  0.2086773767526E+00  0.5493546171511E-01  0.6460873193862E-01
-0.9521056976986E-01  0.1858531095049E+00  0.4260199356742E-01  0.7605965364324E-01
-0.9575313239866E-01  0.1635362812407E+00  0.3185807987495E-01  0.8748721408958E-01
-0.9338000102436E-01  0.1422049385817E+00  0.2294772059377E-01  0.9879197851331E-01
-0.8797280548356E-01  0.1219561652076E+00  0.1597217902979E-01  0.1098238609743E+00
-0.7928018305775E-01  0.1027193893755E+00  0.1101642694140E-01  0.1203211702334E+00
-0.6698592496376E-01  0.8463683591031E-01  0.8295928123833E-02  0.1297434412418E+00
-0.4917180951288E-01  0.6661011504091E-01  0.8196003577387E-02  0.1383516985536E+00
-0.2528272997827E-01  0.4630801864991E-01  0.9881885650603E-02  0.1459561611803E+00
 0.3076397242257E-02  0.2392792288268E-01  0.1269203042653E-01  0.1509921559004E+00
 0.1410483265965E+00  0.1557043593577E+00  0.1394737620447E+00 -0.1980699754350E+00
 0.4522849284562E-01  0.1970354874021E+00  0.1138640704276E+00 -0.1338855708357E+00
-0.6831402880492E-02  0.2156360364362E+00  0.9813817752225E-01 -0.8515689868671E-01
-0.3518219706489E-01  0.2224138155300E+00  0.8799886045539E-01 -0.4576597427757E-01
-0.5029397499705E-01  0.2249414407951E+00  0.8208430871689E-01 -0.1358523466735E-01
-0.5929810907522E-01  0.2264532488896E+00  0.7856291551352E-01  0.1144062492712E-01
-0.6828156743852E-01  0.2238147470528E+00  0.7310059423328E-01  0.3028447001689E-01
-0.7778382799660E-01  0.2149489006979E+00  0.6446758400611E-01  0.4561150361377E-01
-0.8674239540415E-01  0.2010407415179E+00  0.5372022253720E-01  0.5874817810326E-01
-0.9432969390768E-01  0.1840280580595E+00  0.4215823104442E-01  0.7023094996776E-01
-0.9991233191919E-01  0.1654272384171E+00  0.3079200597590E-01  0.8061669027785E-01
-0.1031334298313E+00  0.1462542989993E+00  0.2026680845755E-01  0.9042687390630E-01
-0.1038000757757E+00  0.1273050298482E+00  0.1104732838608E-01  0.9994479616318E-01
-0.1018298130387E+00  0.1091561825845E+00  0.3443393677811E-02  0.1092358723191E+00
-0.9709752710477E-01  0.9203965066621E-01 -0.2377201920095E-02  0.1182989749000E+00
-0.8935999048439E-01  0.7602146562913E-01 -0.6269106666071E-02  0.1270286787292E+00
-0.7830775116273E-01  0.6137597210196E-01 -0.7957936138379E-02  0.1350837400128E+00
-0.6207819529392E-01  0.4682827211413E-01 -0.7167463876320E-02  0.1428026455274E+00
-0.3983140840694E-01  0.2965301120420E-01 -0.4783846673154E-02  0.1499382697565E+00
-0.1313567210408E-01  0.9536300132494E-02 -0.1691704822354E-02  0.1547835467850E+00
 0.1012360912855E+00  0.9095003458291E-01  0.9032747892903E-01 -0.2074237947996E+00
 0.2040718768128E-01  0.1279377941208E+00  0.6972214127015E-01 -0.1347940326388E+00
-0.2536958815870E-01  0.1461548239680E+00  0.5676906068639E-01 -0.8008564212237E-01
-0.5095181796440E-01  0.1541940512737E+00  0.4852384953231E-01 -0.3665900992907E-01
-0.6468398638269E-01  0.1584613617523E+00  0.4407536631192E-01 -0.1751860347400E-02
-0.7267610984402E-01  0.1618359674876E+00  0.4190513298618E-01  0.2529645656170E-01
-0.8043537407436E-01  0.1615306491540E+00  0.3811477919076E-01  0.4562349360868E-01
-0.8851435719398E-01  0.1556209524107E+00  0.3154009967186E-01  0.6175899971722E-01
-0.9606222632062E-01  0.1451026689840E+00  0.2304900799333E-01  0.7505757724824E-01
-0.1024816760005E+00  0.1316576397705E+00  0.1371270293710E-01  0.8612754523668E-01
-0.1072750730472E+00  0.1165989160175E+00  0.4382206184934E-02  0.9557310659589E-01
-0.1101040522631E+00  0.1008186418383E+00 -0.4364142888589E-02  0.1039833788856E+00
-0.1107286518052E+00  0.8507631921863E-01 -0.1205659628508E-01  0.1117540607725E+00
-0.1090407618590E+00  0.6998405440924E-01 -0.1835665245483E-01  0.1190754644307E+00
-0.1049256073956E+00  0.5586518496251E-01 -0.2305839848504E-01  0.1260638676150E+00
-0.9817536674497E-01  0.4291116198684E-01 -0.2597417617044E-01  0.1327477502598E+00
-0.8852818220864E-01  0.3154530286162E-01 -0.2678195322517E-01  0.1389776212411E+00
-0.7435333752525E-01  0.2036725970356E-01 -0.2537345651184E-01  0.1451883087225E+00
-0.5450496619892E-01  0.6361724664150E-02 -0.2262732346395E-01  0.1511930682504E+00
-0.3021371706277E-01 -0.1126619113961E-01 -0.1949555680567E-01  0.1553000258923E+00
 0.6032926304850E-01  0.2813078478296E-01  0.4157622237534E-01 -0.2151638456373E+00
-0.6667608841471E-02  0.6051651840538E-01  0.2530898743084E-01 -0.1361526499218E+00
-0.4586243891879E-01  0.7757351015428E-01  0.1490420344288E-01 -0.7647692405853E-01
-0.6809163291946E-01  0.8599142478469E-01  0.8412902155320E-02 -0.2944324636899E-01
-0.7991216965271E-01  0.9111992865935E-01  0.5267646719759E-02  0.8066292298484E-02
-0.8649045438834E-01  0.9548159638095E-01  0.4225836725806E-02  0.3714685365313E-01
-0.9273757866731E-01  0.9664048146909E-01  0.1834364312182E-02  0.5904438688897E-01
-0.9919077645642E-01  0.9285798156187E-01 -0.2976413592890E-02  0.7613161598114E-01
-0.1051599823727E+00  0.8498084019794E-01 -0.9484196798066E-02  0.8977182199891E-01
-0.1102261745322E+00  0.7447032040551E-01 -0.1680525139694E-01  0.1006405675169E+00
-0.1140160690615E+00  0.6245572357056E-01 -0.2423336231930E-01  0.1093805439288E+00
-0.1162276181218E+00  0.4969930370620E-01 -0.3126830769603E-01  0.1166226042883E+00
-0.1165941219983E+00  0.3688850740270E-01 -0.3746163876491E-01  0.1228380502625E+00
-0.1149899074605E+00  0.2461963956150E-01 -0.4247402580478E-01  0.1283037682996E+00
-0.1113172398028E+00  0.1326256796752E-01 -0.4608569564571E-01  0.1332132681311E+00
-0.1054228684289E+00  0.3108797218535E-02 -0.4808761334691E-01  0.1376865558007E+00
-0.9713290492426E-01 -0.5268484424963E-02 -0.4812865287206E-01  0.1417290166355E+00
-0.8524154783732E-01 -0.1333280906456E-01 -0.4632994762637E-01  0.1458679017107E+00
-0.6833635708986E-01 -0.2425055182120E-01 -0.4351584707782E-01  0.1500968918636E+00
-0.4702793611780E-01 -0.3921774521475E-01 -0.4053547012349E-01  0.1529308179214E+00
 0.1849036091565E-01 -0.3294674816090E-01 -0.6794501988033E-02 -0.2213765959101E+00
-0.3579353121568E-01 -0.5314121837215E-02 -0.1932059688586E-01 -0.1377471482732E+00
-0.6827148073127E-01  0.9942652096260E-02 -0.2741454938892E-01 -0.7406241400280E-01
-0.8670436312755E-01  0.1795994316504E-01 -0.3230987730043E-01 -0.2388322707227E-01
-0.9616668655547E-01  0.2314315317675E-01 -0.3432106060095E-01  0.1605087053086E-01
-0.1009677675019E+00  0.2767311620120E-01 -0.3444848602396E-01  0.4712398250651E-01
-0.1054208105364E+00  0.2947447373980E-01 -0.3569477820389E-01  0.7063628061530E-01
-0.1100277174113E+00  0.2702374173957E-01 -0.3901186846674E-01  0.8878222056054E-01
-0.1142262465184E+00  0.2104851986783E-01 -0.4379353141470E-01  0.1029102150664E+00
-0.1177366133282E+00  0.1281606073368E-01 -0.4931265959433E-01  0.1137541035587E+00
-0.1202961567960E+00  0.3291879917375E-02 -0.5499200999348E-01  0.1219911756705E+00
-0.1216477207676E+00 -0.6886328383914E-02 -0.6041100294798E-01  0.1282815920180E+00
-0.1215102380032E+00 -0.1712325845382E-01 -0.6515774316953E-01  0.1331500527792E+00
-0.1197383522978E+00 -0.2687819350109E-01 -0.6890977635069E-01  0.1369324212906E+00
-0.1162445347671E+00 -0.3578373182046E-01 -0.7145328511491E-01  0.1398621582964E+00
-0.1109266349534E+00 -0.4348613745868E-01 -0.7257400284962E-01  0.1420976022754E+00
-0.1037287084224E+00 -0.4928584802010E-01 -0.7191684134557E-01  0.1437310326944E+00
-0.9406350155915E-01 -0.5462781333390E-01 -0.6988491782248E-01  0.1453406768283E+00
-0.8040282236159E-01 -0.6265551361052E-01 -0.6723741773635E-01  0.1472021547390E+00
-0.6251979468383E-01 -0.7482530803971E-01 -0.6455219811634E-01  0.1482638664470E+00
-0.2413926242652E-01 -0.9246391339431E-01 -0.5480349249679E-01 -0.2261398331392E+00
-0.6678072923863E-01 -0.6964915549955E-01 -0.6412204566430E-01 -0.1393918648321E+00
-0.9254538405372E-01 -0.5670605449154E-01 -0.7014817593835E-01 -0.7259323277394E-01
-0.1068700708582E+00 -0.4976304456755E-01 -0.7361756406338E-01 -0.1974632266284E-01
-0.1136143938926E+00 -0.4525221026434E-01 -0.7466730376438E-01  0.2239318932002E-01
-0.1163208785239E+00 -0.4131075143971E-01 -0.7408686589497E-01  0.5537697190086E-01
-0.1187138486674E+00 -0.3964051385866E-01 -0.7442655019848E-01  0.8051041432525E-01
-0.1212465107547E+00 -0.4152244855184E-01 -0.7650141068002E-01  0.9979079951835E-01
-0.1234651738812E+00 -0.4632309175674E-01 -0.7980048464745E-01  0.1145259498887E+00
-0.1252030757017E+00 -0.5294816223054E-01 -0.8373108161576E-01  0.1254937144440E+00
-0.1262966221617E+00 -0.6057569226361E-01 -0.8782998755712E-01  0.1334019810596E+00
-0.1265387383538E+00 -0.6867816444112E-01 -0.9175194408089E-01  0.1389360168399E+00
-0.1256415417590E+00 -0.7675613658337E-01 -0.9512690857966E-01  0.1426659497802E+00
-0.1234321710631E+00 -0.8435179322790E-01 -0.9765846296906E-01  0.1449764828234E+00
-0.1198035952272E+00 -0.9114340375415E-01 -0.9914508926976E-01  0.1461211343571E+00
-0.1146797690885E+00 -0.9678340681965E-01 -0.9938769242474E-01  0.1462472499020E+00
-0.1080962489146E+00 -0.1004866241686E+00 -0.9803395010044E-01  0.1454418890942E+00
-0.1002725835761E+00 -0.1036207531996E+00 -0.9582986804154E-01  0.1442312355479E+00
-0.8985656791094E-01 -0.1090651064766E+00 -0.9349318672500E-01  0.1432137564610E+00
-0.7576256885203E-01 -0.1183455024291E+00 -0.9123079327074E-01  0.1420326521745E+00
-0.6743794037576E-01 -0.1505931049837E+00 -0.1024745910590E+00 -0.2295217721783E+00
-0.9945022742590E-01 -0.1325900133511E+00 -0.1090589128886E+00 -0.1409280429776E+00
-0.1186221622496E+00 -0.1223567911454E+00 -0.1132601078084E+00 -0.7184238298637E-01
-0.1286470096116E+00 -0.1170544100580E+00 -0.1154796669518E+00 -0.1680685306845E-01
-0.1324021818448E+00 -0.1138609918530E+00 -0.1157436913444E+00  0.2729091828463E-01
-0.1327486378409E+00 -0.1111976000789E+00 -0.1146547315315E+00  0.6207017885622E-01
-0.1328414769038E+00 -0.1103806251920E+00 -0.1143143876951E+00  0.8879960153310E-01
-0.1330741929846E+00 -0.1124202723804E+00 -0.1153823984289E+00  0.1092641696440E+00
-0.1330931292304E+00 -0.1167564217488E+00 -0.1174292886624E+00  0.1247054579151E+00
-0.1328293589512E+00 -0.1224510625019E+00 -0.1199817977786E+00  0.1359259529902E+00
-0.1322124113629E+00 -0.1288071782846E+00 -0.1226792068231E+00  0.1436558562208E+00
-0.1310927667481E+00 -0.1353859675547E+00 -0.1252450048047E+00  0.1486025395803E+00
-0.1291871540871E+00 -0.1417703404237E+00 -0.1273500220971E+00  0.1513825630375E+00
-0.1262846456205E+00 -0.1475860001843E+00 -0.1287192032018E+00  0.1524388974621E+00
-0.1222272651429E+00 -0.1525927357133E+00 -0.1291654000748E+00  0.1520562019108E+00
-0.1168670233966E+00 -0.1564989527625E+00 -0.1284820084689E+00  0.1503583681633E+00
-0.1102880146194E+00 -0.1585971186006E+00 -0.1263760122929E+00  0.1473306602434E+00
-0.1035076385028E+00 -0.1600707150008E+00 -0.1238818258325E+00  0.1432719585512E+00
-0.9594553539641E-01 -0.1633955702770E+00 -0.1218903193574E+00  0.1389854591578E+00
-0.8594255817782E-01 -0.1697542681057E+00 -0.1201775080484E+00  0.1350746431904E+00
-0.1113001022775E+00 -0.2075002450873E+00 -0.1498361628814E+00 -0.2315796734784E+00
-0.1336368487986E+00 -0.1942499554549E+00 -0.1541067976083E+00 -0.1422238191634E+00
-0.1464256819109E+00 -0.1869992954583E+00 -0.1567097389660E+00 -0.7160792629677E-01
-0.1520771403543E+00 -0.1838051762981E+00 -0.1578646884262E+00 -0.1484958111703E-01
-0.1526556599695E+00 -0.1824862748833E+00 -0.1575167089813E+00  0.3094499151203E-01
-0.1504378041089E+00 -0.1817250377431E+00 -0.1561165352745E+00  0.6738095473454E-01
-0.1480233645165E+00 -0.1824251686119E+00 -0.1553108101764E+00  0.9565607184785E-01
-0.1457437449755E+00 -0.1853064624365E+00 -0.1555935970890E+00  0.1173339478023E+00
-0.1433395078401E+00 -0.1898612261355E+00 -0.1566043445713E+00  0.1335664848251E+00
-0.1408335027220E+00 -0.1952973070514E+00 -0.1579814801928E+00  0.1451583032472E+00
-0.1382478726482E+00 -0.2010296302051E+00 -0.1594604259366E+00  0.1528468789549E+00
-0.1355047642995E+00 -0.2066868206991E+00 -0.1608300445414E+00  0.1573517650291E+00
-0.1323488101109E+00 -0.2119063481601E+00 -0.1617999239770E+00  0.1593337104900E+00
-0.1285414019981E+00 -0.2163684417647E+00 -0.1621076261574E+00  0.1593126998397E+00
-0.1238324082341E+00 -0.2198887898508E+00 -0.1615489626902E+00  0.1576508307042E+00
-0.1179492000747E+00 -0.2223061084919E+00 -0.1599199946207E+00  0.1545043842084E+00
-0.1106524265954E+00 -0.2229963996245E+00 -0.1568149479256E+00  0.1497627646306E+00
-0.1038474495074E+00 -0.2234030452329E+00 -0.1538077321378E+00  0.1432414643298E+00
-0.9791451211550E-01 -0.2250296300543E+00 -0.1517837464348E+00  0.1355621182498E+00
-0.9228217452839E-01 -0.2287597319933E+00 -0.1508896956825E+00  0.1283437976500E+00
-0.1556649739671E+00 -0.2633873916462E+00 -0.1969546113387E+00 -0.2323626724647E+00
-0.1691614722310E+00 -0.2547266261203E+00 -0.1992274057198E+00 -0.1431787515505E+00
-0.1758901962501E+00 -0.2506472428856E+00 -0.2004725958853E+00 -0.7171807485600E-01
-0.1771681149459E+00 -0.2498874069925E+00 -0.2007160948019E+00 -0.1367309342092E-01
-0.1744948973332E+00 -0.2509528909097E+00 -0.1999604599670E+00  0.3355940780144E-01
-0.1695575753018E+00 -0.2526371178306E+00 -0.1984315052689E+00  0.7149671729113E-01
-0.1644748348865E+00 -0.2554601617451E+00 -0.1973694479162E+00  0.1012486850462E+00
-0.1594938761819E+00 -0.2598156064302E+00 -0.1970754563278E+00  0.1241525934786E+00
-0.1544502210594E+00 -0.2652326821046E+00 -0.1972509639867E+00  0.1412529037274E+00
-0.1494542081973E+00 -0.2710583711755E+00 -0.1976409118039E+00  0.1533349049254E+00
-0.1446222763520E+00 -0.2768178911793E+00 -0.1980768782373E+00  0.1611233881243E+00
-0.1399659376688E+00 -0.2821979616788E+00 -0.1984170321901E+00  0.1653281768153E+00
-0.1352971665462E+00 -0.2868666658514E+00 -0.1984170007236E+00  0.1666330343882E+00
-0.1303945367961E+00 -0.2905092274148E+00 -0.1978247686774E+00  0.1656340184319E+00
-0.1249478639426E+00 -0.2929235300705E+00 -0.1963995546880E+00  0.1628221306149E+00
-0.1184452729241E+00 -0.2939592727968E+00 -0.1938301359972E+00  0.1585105503419E+00
-0.1103679055372E+00 -0.2933393271274E+00 -0.1897423988711E+00  0.1526839463354E+00
-0.1016531948495E+00 -0.2920243334962E+00 -0.1850284378532E+00  0.1447801037467E+00
-0.9558013657174E-01 -0.2930030385551E+00 -0.1826340918464E+00  0.1342019151974E+00
-0.9331753227624E-01 -0.2941760797276E+00 -0.1821219971799E+00  0.1230082679069E+00
-0.2003982469163E+00 -0.3183894938077E+00 -0.2438302375218E+00 -0.2318907459036E+00
-0.2060018710865E+00 -0.3143210652031E+00 -0.2445517794358E+00 -0.1437456652369E+00
-0.2067866449448E+00 -0.3131006829818E+00 -0.2443470435058E+00 -0.7204851410996E-01
-0.2040016388483E+00 -0.3152530683608E+00 -0.2440497117693E+00 -0.1307452485960E-01
-0.1980017905527E+00 -0.3190762523533E+00 -0.2430266795494E+00  0.3533702760096E-01
-0.1902690129528E+00 -0.3236939609437E+00 -0.2415625971187E+00  0.7461336360967E-01
-0.1823998499299E+00 -0.3291754605555E+00 -0.2404403953183E+00  0.1057604309330E+00
-0.1745698064675E+00 -0.3355878157955E+00 -0.2397740818554E+00  0.1298890045906E+00
-0.1666913915127E+00 -0.3424572737681E+00 -0.2392998720750E+00  0.1479252267658E+00
-0.1589622247110E+00 -0.3492701040282E+00 -0.2388691939016E+00  0.1606231374693E+00
-0.1515913826770E+00 -0.3556762191865E+00 -0.2384157722711E+00  0.1686772546334E+00
-0.1446871273756E+00 -0.3614298793389E+00 -0.2378749925525E+00  0.1727584794695E+00
-0.1381690731994E+00 -0.3662333055151E+00 -0.2370691173945E+00  0.1735286863570E+00
-0.1319079777567E+00 -0.3697556978685E+00 -0.2357819269458E+00  0.1716099491585E+00
-0.1256581233651E+00 -0.3717018016424E+00 -0.2337591641606E+00  0.1675963552360E+00
-0.1188120202060E+00 -0.3717657541067E+00 -0.2305715533421E+00  0.1620495796722E+00
-0.1102530946790E+00 -0.3695482106853E+00 -0.2255066129492E+00  0.1553332144511E+00
-0.1009500843804E+00 -0.3666082292499E+00 -0.2197524068489E+00  0.1472209328428E+00
-0.8726753287240E-01 -0.3616648943421E+00 -0.2109982402557E+00  0.1363942525391E+00
-0.8733617606931E-01 -0.3646164246648E+00 -0.2124177218062E+00  0.1211169222969E+00
-0.2470163037528E+00 -0.3746058403919E+00 -0.2921624070070E+00 -0.2304028610723E+00
-0.2429275092951E+00 -0.3718018629020E+00 -0.2889228041998E+00 -0.1441325413302E+00
-0.2394510237233E+00 -0.3746158056913E+00 -0.2886114090928E+00 -0.7241142219342E-01
-0.2325255537335E+00 -0.3797606108243E+00 -0.2877744966123E+00 -0.1286156290463E-01
-0.2232952017309E+00 -0.3867369553394E+00 -0.2867151130958E+00  0.3647538139339E-01
-0.2126830685160E+00 -0.3946182946510E+00 -0.2854316399645E+00  0.7693162665348E-01
-0.2020000009407E+00 -0.4032785118740E+00 -0.2844809003014E+00  0.1093928776800E+00
-0.1912187824896E+00 -0.4122839358057E+00 -0.2836462768794E+00  0.1347255985249E+00
-0.1803458249781E+00 -0.4211275244247E+00 -0.2826924735023E+00  0.1537482567658E+00
-0.1696720041324E+00 -0.4294488097846E+00 -0.2815867818268E+00  0.1671890627283E+00
-0.1594768150760E+00 -0.4370357326426E+00 -0.2803608967166E+00  0.1757080864561E+00
-0.1499623828445E+00 -0.4437522814437E+00 -0.2790458915077E+00  0.1799155174187E+00
-0.1411605206372E+00 -0.4493584384400E+00 -0.2775439100623E+00  0.1804033306529E+00
-0.1330766602954E+00 -0.4535409044070E+00 -0.2757102547108E+00  0.1777417339124E+00
-0.1256585323864E+00 -0.4559534533184E+00 -0.2733576325879E+00  0.1724932187334E+00
-0.1186229467260E+00 -0.4561847093110E+00 -0.2701595976522E+00  0.1652811090000E+00
-0.1107752835656E+00 -0.4533549628432E+00 -0.2651412151397E+00  0.1568970135615E+00
-0.1020041107126E+00 -0.4478369873941E+00 -0.2584253154547E+00  0.1478266679613E+00
-0.9107282550692E-01 -0.4412967878464E+00 -0.2502137176414E+00  0.1383217259374E+00
-0.5465028144104E-01 -0.4144116651050E+00 -0.2204591143175E+00  0.1249441619340E+00
-0.1678182241401E+01 -0.2328815524563E+01 -0.1883288945226E+01  0.5433221353206E+00
-0.1448151266696E+01 -0.2404036900186E+01 -0.1810528433842E+01  0.5707694208318E+00
-0.1219169004394E+01 -0.2463724012013E+01 -0.1730959713321E+01  0.5782086155401E+00
-0.1004625928984E+01 -0.2509401067389E+01 -0.1651592684107E+01  0.5708608502501E+00
-0.8075734836290E+00 -0.2541196727352E+01 -0.1573921995169E+01  0.5534594673623E+00
-0.6291224234879E+00 -0.2560465196039E+01 -0.1499106177375E+01  0.5295479039289E+00
-0.4686884767412E+00 -0.2567976022496E+01 -0.1427232311021E+01  0.5015583100167E+00
-0.3259353209172E+00 -0.2565744274395E+01 -0.1359089406350E+01  0.4719135435185E+00
-0.1999364424313E+00 -0.2556260918980E+01 -0.1295412756577E+01  0.4425577524109E+00
-0.8918704949576E-01 -0.2541707866461E+01 -0.1236520607364E+01  0.4147053909286E+00
 0.7824044755063E-02 -0.2523921515009E+01 -0.1182565808020E+01  0.3890875152527E+00
 0.9241934542552E-01 -0.2504504396285E+01 -0.1133679971029E+01  0.3661606697021E+00
 0.1656851241561E+00 -0.2484950098265E+01 -0.1090054535066E+01  0.3461907763863E+00
 0.2285719734326E+00 -0.2466536567551E+01 -0.1051843356568E+01  0.3292677168895E+00
 0.2818566582782E+00 -0.2450313567423E+01 -0.1019174744713E+01  0.3153575457248E+00
 0.3261191139275E+00 -0.2437160730573E+01 -0.9921895573066E+00  0.3043252022839E+00
 0.3619240008443E+00 -0.2427690615721E+01 -0.9709103065295E+00  0.2958328917851E+00
 0.3893089426722E+00 -0.2422112334087E+01 -0.9554175915415E+00  0.2897681888948E+00
 0.4081032624515E+00 -0.2421278436036E+01 -0.9461923291848E+00  0.2863591205450E+00
 0.4217387305740E+00 -0.2423980673454E+01 -0.9410537107669E+00  0.2856928466826E+00
-0.1704428165748E+01 -0.2400977488241E+01 -0.1929540652481E+01  0.5765513643507E+00
-0.1449929132486E+01 -0.2477767784103E+01 -0.1846017546115E+01  0.6019711034650E+00
-0.1205581469268E+01 -0.2541462641078E+01 -0.1761110727396E+01  0.6023479963034E+00
-0.9778309968245E+00 -0.2587486117871E+01 -0.1675699039657E+01  0.5863515723816E+00
-0.7712826893023E+00 -0.2617121669936E+01 -0.1592550044803E+01  0.5601288330968E+00
-0.5863971633630E+00 -0.2631658507351E+01 -0.1512486161399E+01  0.5278123212841E+00
-0.4219626020176E+00 -0.2632084298864E+01 -0.1435402039774E+01  0.4921092969400E+00
-0.2774413175442E+00 -0.2621175350461E+01 -0.1362349830507E+01  0.4560243654209E+00
-0.1514395728258E+00 -0.2602176462710E+01 -0.1294199533419E+01  0.4218773693832E+00
-0.4195981408689E-01 -0.2577897607371E+01 -0.1231332984962E+01  0.3909258439221E+00
 0.5282361726754E-01 -0.2550677805605E+01 -0.1173991465541E+01  0.3638134643690E+00
 0.1344260550216E+00 -0.2522480432115E+01 -0.1122385554387E+01  0.3408743211174E+00
 0.2041047692196E+00 -0.2494995730451E+01 -0.1076718749048E+01  0.3221992677738E+00
 0.2629541418717E+00 -0.2469595339382E+01 -0.1037121360199E+01  0.3076551837797E+00
 0.3118531971340E+00 -0.2447379623536E+01 -0.1003697417863E+01  0.2969747132816E+00
 0.3515561711635E+00 -0.2429222894588E+01 -0.9765033575327E+00  0.2897639541337E+00
 0.3829774215514E+00 -0.2415747417164E+01 -0.9554018955148E+00  0.2854074598336E+00
 0.4052305429776E+00 -0.2407865455434E+01 -0.9412384064673E+00  0.2839853346185E+00
 0.4182669162963E+00 -0.2406499388571E+01 -0.9344692595988E+00  0.2859564278648E+00
 0.4237187239324E+00 -0.2412025277075E+01 -0.9345040776066E+00  0.2912750450320E+00
-0.1727745806646E+01 -0.2473465565797E+01 -0.1974569340040E+01  0.6107564000514E+00
-0.1450786404422E+01 -0.2557447431475E+01 -0.1883869898093E+01  0.6320733586734E+00
-0.1187956884608E+01 -0.2622943465600E+01 -0.1791123160055E+01  0.6239664415168E+00
-0.9469901800323E+00 -0.2667803088608E+01 -0.1698952831952E+01  0.5975507349297E+00
-0.7312501705527E+00 -0.2692900325539E+01 -0.1609350729081E+01  0.5609023181489E+00
-0.5407870272216E+00 -0.2700223591492E+01 -0.1523274986932E+01  0.5189145956323E+00
-0.3735389739420E+00 -0.2691113597873E+01 -0.1440386705100E+01  0.4747806401453E+00
-0.2285766913554E+00 -0.2669137038510E+01 -0.1361925449582E+01  0.4321839128794E+00
-0.1039081535281E+00 -0.2638478192444E+01 -0.1288921579338E+01  0.3936934613998E+00
 0.3047420017644E-02 -0.2602691616810E+01 -0.1221832769393E+01  0.3604434517199E+00
 0.9447486978631E-01 -0.2564622864104E+01 -0.1160969554385E+01  0.3328556371922E+00
 0.1721094024561E+00 -0.2526556878497E+01 -0.1106590310932E+01  0.3110284630836E+00
 0.2374042344483E+00 -0.2490357232726E+01 -0.1058887906505E+01  0.2947823735275E+00
 0.2915978761844E+00 -0.2457487219961E+01 -0.1017967988993E+01  0.2837084873511E+00
 0.3356635773125E+00 -0.2429105427943E+01 -0.9839176673006E+00  0.2772999292004E+00
 0.3704601932865E+00 -0.2406136248898E+01 -0.9567677437106E+00  0.2749536365371E+00
 0.3970729486964E+00 -0.2389187661134E+01 -0.9362939124708E+00  0.2758742280733E+00
 0.4133243012765E+00 -0.2379788757705E+01 -0.9242382921774E+00  0.2804034347604E+00
 0.4186083478979E+00 -0.2379547342654E+01 -0.9216413251978E+00  0.2888894389310E+00
 0.4154825657265E+00 -0.2388533539351E+01 -0.9273339552513E+00  0.3000135702237E+00
-0.1750780114982E+01 -0.2550352812675E+01 -0.2021532470872E+01  0.6464828463936E+00
-0.1448592794682E+01 -0.2641646818459E+01 -0.1922412613300E+01  0.6613467533705E+00
-0.1166514700567E+01 -0.2708720761999E+01 -0.1821360662786E+01  0.6423770956774E+00
-0.9118986357469E+00 -0.2750164580775E+01 -0.1721169707400E+01  0.6035232405632E+00
-0.6876732855563E+00 -0.2768099782091E+01 -0.1624213337675E+01  0.5547981068524E+00
-0.4927687638432E+00 -0.2765273183112E+01 -0.1531279711185E+01  0.5020069249284E+00
-0.3241463054552E+00 -0.2743749384149E+01 -0.1441910970457E+01  0.4489673702431E+00
-0.1802850374971E+00 -0.2708122132578E+01 -0.1357551366492E+01  0.4000912109658E+00
-0.5838007958027E-01 -0.2663642503401E+01 -0.1279350610756E+01  0.3580196236949E+00
 0.4481101395025E-01 -0.2614658106875E+01 -0.1207828130611E+01  0.3235450712298E+00
 0.1318367728212E+00 -0.2564501786889E+01 -0.1143352553712E+01  0.2967067231330E+00
 0.2046439459183E+00 -0.2515732726375E+01 -0.1086211724060E+01  0.2772581086085E+00
 0.2648793263604E+00 -0.2470329714510E+01 -0.1036561679801E+01  0.2646747958616E+00
 0.3138954666154E+00 -0.2429795724043E+01 -0.9944731184684E+00  0.2582396035284E+00
 0.3526982241381E+00 -0.2395309818716E+01 -0.9600274470168E+00  0.2572092537775E+00
 0.3821605517866E+00 -0.2367790987047E+01 -0.9332463022052E+00  0.2607864946154E+00
 0.4034055559768E+00 -0.2347693356265E+01 -0.9138152638176E+00  0.2679854851480E+00
 0.4126897613222E+00 -0.2337230814368E+01 -0.9045342926373E+00  0.2792836050719E+00
 0.4096871785139E+00 -0.2338627587523E+01 -0.9066019899346E+00  0.2945109892528E+00
 0.3988494723805E+00 -0.2352184245003E+01 -0.9180673408039E+00  0.3109849305206E+00
-0.1773462151127E+01 -0.2632554865395E+01 -0.2070827992513E+01  0.6839224380660E+00
-0.1443091865095E+01 -0.2731460734345E+01 -0.1962039716760E+01  0.6895367601075E+00
-0.1140636113634E+01 -0.2798791762253E+01 -0.1851531096971E+01  0.6568879538459E+00
-0.8725686177282E+00 -0.2834423715123E+01 -0.1742286392021E+01  0.6032539752717E+00
-0.6408228477137E+00 -0.2841993186201E+01 -0.1636923531788E+01  0.5407911517623E+00
-0.4429627593163E+00 -0.2825613509520E+01 -0.1536230842457E+01  0.4762431376052E+00
-0.2746805564328E+00 -0.2788466237564E+01 -0.1439678989527E+01  0.4141557802784E+00
-0.1336170769327E+00 -0.2736483671627E+01 -0.1348947348402E+01  0.3596258426797E+00
-0.1592609022232E-01 -0.2676091976232E+01 -0.1265248488025E+01  0.3150957943292E+00
 0.8233232676043E-01 -0.2612422157001E+01 -0.1189142217197E+01  0.2807538850228E+00
 0.1640293654688E+00 -0.2549222008303E+01 -0.1121040539289E+01  0.2560864364195E+00
 0.2312847743620E+00 -0.2489230349870E+01 -0.1061234417797E+01  0.2403992908045E+00
 0.2859114944337E+00 -0.2434435500320E+01 -0.1009806280205E+01  0.2327613240496E+00
 0.3293247347913E+00 -0.2386280181969E+01 -0.9667690577214E+00  0.2321215564552E+00
 0.3624987477110E+00 -0.2345874981279E+01 -0.9321868274124E+00  0.2374919244220E+00
 0.3862546512609E+00 -0.2314041913067E+01 -0.9060600107507E+00  0.2478624606067E+00
 0.4016576866682E+00 -0.2290983333332E+01 -0.8879830516799E+00  0.2619988828502E+00
 0.4035117444568E+00 -0.2279633045955E+01 -0.8817770094677E+00  0.2803792823881E+00
 0.3923115961341E+00 -0.2283227383486E+01 -0.8887304178014E+00  0.3021933356541E+00
 0.3747259804850E+00 -0.2302735282877E+01 -0.9061643698261E+00  0.3235868233375E+00
-0.1795828235034E+01 -0.2721195397175E+01 -0.2123001101753E+01  0.7233287326696E+00
-0.1433745681265E+01 -0.2827759947174E+01 -0.2002907640286E+01  0.7162078314074E+00
-0.1109968804309E+01 -0.2893507748251E+01 -0.1881633974930E+01  0.6665997544470E+00
-0.8289694769584E+00 -0.2920199347187E+01 -0.1762109342879E+01  0.5956226226373E+00
-0.5911281887963E+00 -0.2913609550600E+01 -0.1647226733338E+01  0.5178050144034E+00
-0.3921456574703E+00 -0.2879748704167E+01 -0.1537790346069E+01  0.4408278883610E+00
-0.2261827121693E+00 -0.2823499664734E+01 -0.1433350713509E+01  0.3699926385325E+00
-0.8970557126162E-01 -0.2752447947052E+01 -0.1335812150219E+01  0.3109063557557E+00
 0.2237867023745E-01 -0.2674248561467E+01 -0.1246378845716E+01  0.2654307384159E+00
 0.1146690405326E+00 -0.2594728138604E+01 -0.1165627773137E+01  0.2328510036001E+00
 0.1902692601161E+00 -0.2517901820826E+01 -0.1093987300759E+01  0.2119327857557E+00
 0.2514096335868E+00 -0.2446530823295E+01 -0.1031706956546E+01  0.2014438862675E+00
 0.3000265083421E+00 -0.2382457758496E+01 -0.9787426850898E+00  0.1999983787371E+00
 0.3375423387579E+00 -0.2326928293593E+01 -0.9350113964010E+00  0.2061933514993E+00
 0.3648488794302E+00 -0.2280876986966E+01 -0.9005332082578E+00  0.2187853908815E+00
 0.3826737816346E+00 -0.2244952014639E+01 -0.8752707672922E+00  0.2365297659117E+00
 0.3920053473681E+00 -0.2219036770654E+01 -0.8587047667665E+00  0.2579012274664E+00
 0.3863548512052E+00 -0.2206929700084E+01 -0.8556701768029E+00  0.2833213818918E+00
 0.3673641690773E+00 -0.2213291776402E+01 -0.8675859732420E+00  0.3113757254506E+00
 0.3438266163951E+00 -0.2240188204592E+01 -0.8912899441918E+00  0.3372721010755E+00
-0.1817861377324E+01 -0.2817508787392E+01 -0.2178623971891E+01  0.7649882153718E+00
-0.1420005269850E+01 -0.2931549967071E+01 -0.2045230956165E+01  0.7407593547766E+00
-0.1074166109767E+01 -0.2993161372433E+01 -0.1911643911785E+01  0.6704041198964E+00
-0.7812084172819E+00 -0.3006959877599E+01 -0.1780439094078E+01  0.5793550600718E+00
-0.5391615924576E+00 -0.2981653747945E+01 -0.1654783205792E+01  0.4847269943068E+00
-0.3412674773943E+00 -0.2925861190631E+01 -0.1535550470077E+01  0.3950678695017E+00
-0.1798215881546E+00 -0.2846849439039E+01 -0.1422535379173E+01  0.3163558886449E+00
-0.4972821799130E-01 -0.2754153556110E+01 -0.1317824430485E+01  0.2543513942177E+00
 0.5549823615176E-01 -0.2656602593491E+01 -0.1222519044849E+01  0.2098375135938E+00
 0.1409789574055E+00 -0.2560518581023E+01 -0.1137183620216E+01  0.1808802361485E+00
 0.2099133054862E+00 -0.2469942513475E+01 -0.1062213725060E+01  0.1653762436383E+00
 0.2645653995088E+00 -0.2387434366637E+01 -0.9977484120198E+00  0.1614887607464E+00
 0.3069460395946E+00 -0.2314496352022E+01 -0.9435486444477E+00  0.1673515376308E+00
 0.3384336603042E+00 -0.2252023723114E+01 -0.8993873272395E+00  0.1812089980877E+00
 0.3598015749581E+00 -0.2200673250507E+01 -0.8652096853133E+00  0.2015651267924E+00
 0.3716676257160E+00 -0.2160865609246E+01 -0.8409230501260E+00  0.2269384491449E+00
 0.3749416672321E+00 -0.2132145223259E+01 -0.8258856692378E+00  0.2555126991694E+00
 0.3620170681556E+00 -0.2119339783188E+01 -0.8259416739702E+00  0.2876559956983E+00
 0.3357792819843E+00 -0.2128965221295E+01 -0.8427973893383E+00  0.3214629653246E+00
 0.3069022816422E+00 -0.2164585809900E+01 -0.8731112560665E+00  0.3514202365955E+00
-0.1839557004232E+01 -0.2922967816277E+01 -0.2238386659962E+01  0.8092239389476E+00
-0.1401274594308E+01 -0.3043951814214E+01 -0.2089256406706E+01  0.7623969215733E+00
-0.1032941315589E+01 -0.3097977977019E+01 -0.1941532062601E+01  0.6669520357082E+00
-0.7295285638066E+00 -0.3093899560239E+01 -0.1797011213744E+01  0.5530117725544E+00
-0.4856820808313E+00 -0.3044452775492E+01 -0.1659163378264E+01  0.4404328026360E+00
-0.2914474370237E+00 -0.2961771821026E+01 -0.1529013047405E+01  0.3384403696598E+00
-0.1368679081377E+00 -0.2856301456509E+01 -0.1406789597816E+01  0.2534344861768E+00
-0.1485860713281E-01 -0.2739721461716E+01 -0.1294652629075E+01  0.1907391173476E+00
 0.8248921887811E-01 -0.2621810796059E+01 -0.1193481138248E+01  0.1494569549444E+00
 0.1605691416615E+00 -0.2509034416879E+01 -0.1103778676553E+01  0.1261350165203E+00
 0.2225026495419E+00 -0.2405112411794E+01 -0.1025826585656E+01  0.1176978945488E+00
 0.2705074174165E+00 -0.2312122700193E+01 -0.9595591804714E+00  0.1216783613325E+00
 0.3066194193751E+00 -0.2231013436302E+01 -0.9044651856617E+00  0.1357393060497E+00
 0.3321291996806E+00 -0.2162181082175E+01 -0.8601243825909E+00  0.1577992843272E+00
 0.3476705660271E+00 -0.2105921717553E+01 -0.8263780391212E+00  0.1861357238014E+00
 0.3537472174887E+00 -0.2062402712324E+01 -0.8030680805357E+00  0.2190577843467E+00
 0.3511957367731E+00 -0.2030835075612E+01 -0.7894304872518E+00  0.2544987587740E+00
 0.3314558111427E+00 -0.2017253929321E+01 -0.7923251135340E+00  0.2928127476152E+00
 0.2985854209415E+00 -0.2030465541173E+01 -0.8139836544443E+00  0.3317534286458E+00
 0.2648355240138E+00 -0.2075942792984E+01 -0.8512204142568E+00  0.3652900429598E+00
-0.1860947967763E+01 -0.3039369245271E+01 -0.2303149084284E+01  0.8563887806912E+00
-0.1376927893941E+01 -0.3166241681966E+01 -0.2135289695261E+01  0.7800793989568E+00
-0.9860871499105E+00 -0.3208051356281E+01 -0.1971245092910E+01  0.6546074011643E+00
-0.6743450835807E+00 -0.3179835370331E+01 -0.1811464808744E+01  0.5149804439537E+00
-0.4316495980409E+00 -0.3099853118378E+01 -0.1659806272507E+01  0.3838350765859E+00
-0.2439669798629E+00 -0.2984910758117E+01 -0.1517572533002E+01  0.2706840790475E+00
-0.9865098832191E-01 -0.2849478447939E+01 -0.1385620831528E+01  0.1818197205948E+00
 0.1379450485936E-01 -0.2707367102554E+01 -0.1265979117705E+01  0.1212602629898E+00
 0.1025595549424E+00 -0.2568828212071E+01 -0.1159146265910E+01  0.8576167075917E-01
 0.1729448262683E+00 -0.2439930273443E+01 -0.1065483157469E+01  0.7012129955923E-01
 0.2278014423540E+00 -0.2323626306688E+01 -0.9850376837383E+00  0.7026776327580E-01
 0.2692271532883E+00 -0.2221201731729E+01 -0.9174280495404E+00  0.8313717338706E-01
 0.2992373668270E+00 -0.2132848188020E+01 -0.8617970837748E+00  0.1059756926472E+00
 0.3190007578882E+00 -0.2058340448614E+01 -0.8174896525675E+00  0.1364341504256E+00
 0.3290037183441E+00 -0.1997557938495E+01 -0.7842204814820E+00  0.1726138327387E+00
 0.3296395216575E+00 -0.1950411348494E+01 -0.7617627566810E+00  0.2126690526783E+00
 0.3216763000119E+00 -0.1915801481666E+01 -0.7492388334771E+00  0.2543551755250E+00
 0.2957650477810E+00 -0.1901157839551E+01 -0.7545346102180E+00  0.2980699583233E+00
 0.2569387061981E+00 -0.1918023160246E+01 -0.7807096914225E+00  0.3413982410357E+00
 0.2186767162380E+00 -0.1974211592781E+01 -0.8251013898823E+00  0.3779988822853E+00
-0.1882153444174E+01 -0.3168958603553E+01 -0.2374022656410E+01  0.9068537574738E+00
-0.1346330926393E+01 -0.3299889038567E+01 -0.2183723377993E+01  0.7924398001623E+00
-0.9335119899004E+00 -0.3323261872544E+01 -0.2000683710275E+01  0.6313829576139E+00
-0.6162745329260E+00 -0.3263052895251E+01 -0.1823283886619E+01  0.4634764188805E+00
-0.3782330621477E+00 -0.3145098837343E+01 -0.1655965988560E+01  0.3139608575908E+00
-0.2002432850470E+00 -0.2992305113209E+01 -0.1500497743375E+01  0.1919204810171E+00
-0.6649957636762E-01 -0.2823945836212E+01 -0.1358509340467E+01  0.1026053434658E+00
 0.3525740866736E-01 -0.2655568639801E+01 -0.1231546275509E+01  0.4755449531753E-01
 0.1151276374244E+00 -0.2497071646981E+01 -0.1119513681652E+01  0.2052833174123E-01
 0.1778537087885E+00 -0.2353387674170E+01 -0.1022500961136E+01  0.1448796467974E-01
 0.2258266969468E+00 -0.2226197868771E+01 -0.9401744483729E+00  0.2446054063812E-01
 0.2609665504604E+00 -0.2115706590689E+01 -0.8717278166963E+00  0.4689295526757E-01
 0.2852299113825E+00 -0.2021193812405E+01 -0.8159030314109E+00  0.7871333329126E-01
 0.2996430855669E+00 -0.1941730270299E+01 -0.7717809748667E+00  0.1173881138028E+00
 0.3045512532792E+00 -0.1876749427141E+01 -0.7389331398408E+00  0.1609102083010E+00
 0.3002471045993E+00 -0.1825917265469E+01 -0.7170649737899E+00  0.2073535660040E+00
 0.2874358115064E+00 -0.1787857229983E+01 -0.7051980648953E+00  0.2543917851322E+00
 0.2561667793642E+00 -0.1771588073295E+01 -0.7122480063407E+00  0.3025309680548E+00
 0.2121473116214E+00 -0.1791848482833E+01 -0.7424595485865E+00  0.3493779913433E+00
 0.1696650543804E+00 -0.1859258656805E+01 -0.7941089911253E+00  0.3885074630150E+00
-0.1903463343391E+01 -0.3314615995968E+01 -0.2452497283278E+01  0.9609854913945E+00
-0.1308881878483E+01 -0.3446606955908E+01 -0.2235079746495E+01  0.7976686361652E+00
-0.8752829758057E+00 -0.3443138619367E+01 -0.2029658144583E+01  0.5948538636728E+00
-0.5561584278874E+00 -0.3341081259018E+01 -0.1831702648200E+01  0.3965591522872E+00
-0.3267988892558E+00 -0.3176684678093E+01 -0.1646637272477E+01  0.2300735335685E+00
-0.1617827463802E+00 -0.2980618613965E+01 -0.1476928635616E+01  0.1028122526038E+00
-0.4166747425065E-01 -0.2777406250912E+01 -0.1324964647466E+01  0.1748659944228E-01
 0.4876416977546E-01 -0.2583303315952E+01 -0.1191233395682E+01 -0.2828965053712E-01
 0.1198767265561E+00 -0.2406596807025E+01 -0.1074758435094E+01 -0.4423875226536E-01
 0.1753224040586E+00 -0.2250194440253E+01 -0.9751898545381E+00 -0.3908185736800E-01
 0.2168664252053E+00 -0.2114038853049E+01 -0.8916710388251E+00 -0.1844733578685E-01
 0.2462167536758E+00 -0.1997058763554E+01 -0.8228957425555E+00  0.1379995736990E-01
 0.2652484378423E+00 -0.1897541882143E+01 -0.7671779168755E+00  0.5439644180219E-01
 0.2748447170837E+00 -0.1813812369100E+01 -0.7233147946130E+00  0.1007166871881E+00
 0.2752312211765E+00 -0.1744845692238E+01 -0.6907187996470E+00  0.1507197231055E+00
 0.2666147196274E+00 -0.1690081565342E+01 -0.6690294157889E+00  0.2024865146672E+00
 0.2496455048240E+00 -0.1647901926528E+01 -0.6571805165339E+00  0.2537240981328E+00
 0.2140098082981E+00 -0.1629112933149E+01 -0.6650984669930E+00  0.3051111882756E+00
 0.1656947797115E+00 -0.1652120390045E+01 -0.6986200350848E+00  0.3544864228013E+00
 0.1192541974333E+00 -0.1730849952724E+01 -0.7574500030654E+00  0.3956007666639E+00
-0.1925492176810E+01 -0.3480151967311E+01 -0.2540652741293E+01  0.1019103309858E+01
-0.1264083163837E+01 -0.3608414730813E+01 -0.2290074004677E+01  0.7933371892747E+00
-0.8116734071434E+00 -0.3566618651384E+01 -0.2057797262289E+01  0.5420416198672E+00
-0.4950647233747E+00 -0.3410352146458E+01 -0.1835545924166E+01  0.3121830051461E+00
-0.2788695059253E+00 -0.3190199370473E+01 -0.1630462367772E+01  0.1318643561351E+00
-0.1301145678160E+00 -0.2946302780877E+01 -0.1445916150218E+01  0.4761917656829E-02
-0.2525469765646E-01 -0.2708030204054E+01 -0.1284643900545E+01 -0.7116666560015E-01
 0.5382225908521E-01 -0.2490345158760E+01 -0.1145165759943E+01 -0.1038032238659E+00
 0.1168009628651E+00 -0.2298242052159E+01 -0.1025277309368E+01 -0.1064505430165E+00
 0.1656832823972E+00 -0.2131742433791E+01 -0.9240477988112E+00 -0.8901515813477E-01
 0.2014814845098E+00 -0.1988784807683E+01 -0.8400325597609E+00 -0.5738253778552E-01
 0.2256970122104E+00 -0.1866981513551E+01 -0.7714037136735E+00 -0.1552030533930E-01
 0.2401315683081E+00 -0.1763611740455E+01 -0.7160356790928E+00  0.3323500843048E-01
 0.2455515530443E+00 -0.1676225588964E+01 -0.6724167951767E+00  0.8624954157253E-01
 0.2420969970996E+00 -0.1603333848965E+01 -0.6397813187541E+00  0.1415231625351E+00
 0.2299038774490E+00 -0.1544171398822E+01 -0.6177057334786E+00  0.1972407316900E+00
 0.2095795542852E+00 -0.1496912764850E+01 -0.6050466074311E+00  0.2512752740964E+00
 0.1707750994297E+00 -0.1474340599400E+01 -0.6126757834318E+00  0.3045338682758E+00
 0.1192708294117E+00 -0.1498999402332E+01 -0.6484724276277E+00  0.3553161675144E+00
 0.6915556770824E-01 -0.1588651315918E+01 -0.7141629998473E+00  0.3978613081031E+00
-0.1949469374037E+01 -0.3670804546618E+01 -0.2641528736008E+01  0.1081396456624E+01
-0.1211666654014E+01 -0.3787708922503E+01 -0.2349706515003E+01  0.7761187358278E+00
-0.7431972423700E+00 -0.3691605242789E+01 -0.2084357162738E+01  0.4692599323183E+00
-0.4342363408251E+00 -0.3465678077047E+01 -0.1832959771751E+01  0.2083206101128E+00
-0.2360396316416E+00 -0.3180211641682E+01 -0.1605638094390E+01  0.1975227523395E-01
-0.1067223909645E+00 -0.2885973829625E+01 -0.1406567220109E+01 -0.9986027568077E-01
-0.1814644323008E-01 -0.2614968170354E+01 -0.1237563865246E+01 -0.1603149116617E+00
 0.5026197229325E-01 -0.2377566570885E+01 -0.1093833158564E+01 -0.1763181510316E+00
 0.1062469915521E+00 -0.2173644259476E+01 -0.9716767134596E+00 -0.1641488150834E+00
 0.1495884470909E+00 -0.1999894519848E+01 -0.8696438519902E+00 -0.1340029703015E+00
 0.1804826300976E+00 -0.1852355087639E+01 -0.7857800530513E+00 -0.9154923982626E-01
 0.2003083471248E+00 -0.1727407414742E+01 -0.7177365599596E+00 -0.4070129418314E-01
 0.2108586437310E+00 -0.1621290829142E+01 -0.6629031254618E+00  0.1520467913200E-01
 0.2128308564123E+00 -0.1530738346107E+01 -0.6194165185856E+00  0.7359816636498E-01
 0.2063127252957E+00 -0.1453800416837E+01 -0.5863192135372E+00  0.1325994424772E+00
 0.1913772854871E+00 -0.1389542666998E+01 -0.5631377278816E+00  0.1906021088576E+00
 0.1686075020662E+00 -0.1335959785668E+01 -0.5486555719015E+00  0.2457910828450E+00
 0.1280887906465E+00 -0.1307962711348E+01 -0.5545407413231E+00  0.2993354208343E+00
 0.7481625732059E-01 -0.1332676044148E+01 -0.5911940983094E+00  0.3502462986295E+00
 0.2141071030247E-01 -0.1432253815401E+01 -0.6630962577147E+00  0.3936339209077E+00
-0.1977815999428E+01 -0.3894128622082E+01 -0.2759813965110E+01  0.1147759491904E+01
-0.1151809363933E+01 -0.3987315079189E+01 -0.2415388482141E+01  0.7413267643741E+00
-0.6705785768234E+00 -0.3814119562301E+01 -0.2107808120042E+01  0.3719183591692E+00
-0.3749213692017E+00 -0.3499456310358E+01 -0.1820957504774E+01  0.8323980370447E-01
-0.1998616345231E+00 -0.3140361971108E+01 -0.1569905090665E+01 -0.1046539829104E+00
-0.9302868853866E-01 -0.2797209022021E+01 -0.1358411720518E+01 -0.2075108971863E+00
-0.2100706450298E-01 -0.2499038311712E+01 -0.1184421323817E+01 -0.2464287941182E+00
 0.3828603215125E-01 -0.2247063640111E+01 -0.1038125473108E+01 -0.2433037911233E+00
 0.8896082200336E-01 -0.2034996322423E+01 -0.9146366828775E+00 -0.2157601518734E+00
 0.1280013230037E+00 -0.1856716249920E+01 -0.8124960135901E+00 -0.1731017907533E+00
 0.1548637794917E+00 -0.1706821344596E+01 -0.7294200537492E+00 -0.1204340364394E+00
 0.1710652281183E+00 -0.1580430906185E+01 -0.6624018670110E+00 -0.6161258167258E-01
 0.1785032080909E+00 -0.1472600992974E+01 -0.6082259573525E+00  0.6022468630452E-04
 0.1778466186407E+00 -0.1379202138526E+01 -0.5646370929141E+00  0.6216771515012E-01
 0.1691407110742E+00 -0.1297888701117E+01 -0.5305115539745E+00  0.1230465571905E+00
 0.1523924321925E+00 -0.1227631192936E+01 -0.5053622162674E+00  0.1814016981965E+00
 0.1281930880519E+00 -0.1166252591159E+01 -0.4878879652230E+00  0.2358747240458E+00
 0.8774341506049E-01 -0.1130848650718E+01 -0.4902594595155E+00  0.2878855617161E+00
 0.3458699665310E-01 -0.1153471882114E+01 -0.5258758948330E+00  0.3374356753921E+00
-0.2149407788989E-01 -0.1261239193277E+01 -0.6028846359193E+00  0.3809837155848E+00
-0.2015363240664E+01 -0.4161707308420E+01 -0.2903223150706E+01  0.1217450263970E+01
-0.1085510151702E+01 -0.4210426846896E+01 -0.2489090383028E+01  0.6821029179051E+00
-0.5944762870968E+00 -0.3926560280683E+01 -0.2124887181467E+01  0.2443061286352E+00
-0.3179900120508E+00 -0.3500536442157E+01 -0.1794707428926E+01 -0.6389103240548E-01
-0.1717818229947E+00 -0.3064077237397E+01 -0.1520853754527E+01 -0.2378756965500E+00
-0.9059400320732E-01 -0.2680072619248E+01 -0.1302213309251E+01 -0.3134452326615E+00
-0.3430246743904E-01 -0.2363319332255E+01 -0.1126882242998E+01 -0.3259936406489E+00
 0.1856894456757E-01 -0.2101763844944E+01 -0.9791016006935E+00 -0.3028426695112E+00
 0.6616385415026E-01 -0.1884445434618E+01 -0.8545923406524E+00 -0.2602680821943E+00
 0.1021023483037E+00 -0.1704247791406E+01 -0.7530083563483E+00 -0.2056923932523E+00
 0.1256917696051E+00 -0.1554403161100E+01 -0.6714943522992E+00 -0.1437344293467E+00
 0.1390258718900E+00 -0.1428335757025E+01 -0.6059756444766E+00 -0.7833154736791E-01
 0.1442074434990E+00 -0.1319665495844E+01 -0.5524652832011E+00 -0.1266512109302E-01
 0.1418522995367E+00 -0.1223476842217E+01 -0.5083635337704E+00  0.5116458948920E-01
 0.1319374846906E+00 -0.1137237107970E+01 -0.4724908217428E+00  0.1118176430040E+00
 0.1143989461172E+00 -0.1059953450013E+01 -0.4444106157038E+00  0.1683768213382E+00
 0.8989851374886E-01 -0.9892302266220E+00 -0.4226859039783E+00  0.2200537920745E+00
 0.5172710551293E-01 -0.9442145362571E+00 -0.4194690913858E+00  0.2684323788776E+00
 0.1241364879924E-02 -0.9620197585275E+00 -0.4515658438690E+00  0.3148304835557E+00
-0.5645401478897E-01 -0.1075307624887E+01 -0.5319279692983E+00  0.3576516834478E+00
-0.2072241223896E+01 -0.4492849353295E+01 -0.3085592563454E+01  0.1288315618136E+01
-0.1015117331607E+01 -0.4459964501313E+01 -0.2573288454946E+01  0.5878885308684E+00
-0.5145378535233E+00 -0.4014028877511E+01 -0.2128426358188E+01  0.7948201042899E-01
-0.2631002746705E+00 -0.3452793000087E+01 -0.1746469834706E+01 -0.2316788982132E+00
-0.1537054700371E+00 -0.2947210562394E+01 -0.1457430531546E+01 -0.3736961638664E+00
-0.1015862634944E+00 -0.2539341465072E+01 -0.1241236029278E+01 -0.4122465242711E+00
-0.5826888963774E-01 -0.2212907161007E+01 -0.1067452741095E+01 -0.3964759669997E+00
-0.7316470490956E-02 -0.1943890437595E+01 -0.9170672444745E+00 -0.3540273108993E+00
 0.3942669662699E-01 -0.1723600557765E+01 -0.7915617127272E+00 -0.2970712470346E+00
 0.7310806666977E-01 -0.1544584274396E+01 -0.6915938158770E+00 -0.2312754528376E+00
 0.9398223324359E-01 -0.1397664668287E+01 -0.6127307429163E+00 -0.1612837430647E+00
 0.1052645699423E+00 -0.1273632989558E+01 -0.5491331558266E+00 -0.9117018404977E-01
 0.1091902401800E+00 -0.1164605754992E+01 -0.4960452907036E+00 -0.2369488753557E-01
 0.1061916504619E+00 -0.1065296612895E+01 -0.4507793312003E+00  0.3961056314754E-01
 0.9614164378026E-01 -0.9734020314954E+00 -0.4123123811803E+00  0.9779092401871E-01
 0.7893852245069E-01 -0.8881195868638E+00 -0.3803150993095E+00  0.1502781481889E+00
 0.5539472487705E-01 -0.8067094547213E+00 -0.3531179221312E+00  0.1968961428866E+00
 0.2226205197317E-01 -0.7498959314768E+00 -0.3419879224993E+00  0.2391891562532E+00
-0.2205197001198E-01 -0.7595683659683E+00 -0.3673615569790E+00  0.2802023160086E+00
-0.7948857699268E-01 -0.8745022639351E+00 -0.4483756940988E+00  0.3210166566174E+00
-0.2171067844802E+01 -0.4923199455920E+01 -0.3334305622882E+01  0.1354918761757E+01
-0.9453406581261E+00 -0.4736345026234E+01 -0.2670392264876E+01  0.4412359374228E+00
-0.4253483446433E+00 -0.4044907557720E+01 -0.2101020268782E+01 -0.1301305573779E+00
-0.2086906978078E+00 -0.3336082164925E+01 -0.1666043241259E+01 -0.4136324106561E+00
-0.1496627996651E+00 -0.2794236081955E+01 -0.1383632470852E+01 -0.5025715950090E+00
-0.1302559754879E+00 -0.2387190199958E+01 -0.1183199699459E+01 -0.4997096135333E+00
-0.9095392362943E-01 -0.2050485071431E+01 -0.1006476325126E+01 -0.4574834887555E+00
-0.3713591862418E-01 -0.1773827147812E+01 -0.8511526390661E+00 -0.3966205380428E+00
 0.1042418960079E-01 -0.1553690187170E+01 -0.7253350170178E+00 -0.3254681086615E+00
 0.4201642989948E-01 -0.1380477124972E+01 -0.6290765250885E+00 -0.2492613913779E+00
 0.6064749915220E-01 -0.1239772358818E+01 -0.5541886826374E+00 -0.1731188544122E+00
 0.7092403873824E-01 -0.1118930002490E+01 -0.4925628017140E+00 -0.1008034892668E+00
 0.7477472482683E-01 -0.1009296104823E+01 -0.4392250474842E+00 -0.3405176832276E-01
 0.7226069478989E-01 -0.9061106529210E+00 -0.3919094793276E+00  0.2640044038673E-01
 0.6325182027830E-01 -0.8077740869408E+00 -0.3499254644438E+00  0.7989277013346E-01
 0.4763840651404E-01 -0.7138733024161E+00 -0.3131304002798E+00  0.1260350866286E+00
 0.2650375475394E-01 -0.6210668135723E+00 -0.2794446369358E+00  0.1651954785652E+00
 0.1834869519197E-02 -0.5507730335324E+00 -0.2580009364318E+00  0.1984989155255E+00
-0.3149687705373E-01 -0.5484887115380E+00 -0.2725932259467E+00  0.2312512892789E+00
-0.8536538784561E-01 -0.6595987295751E+00 -0.3501331342997E+00  0.2680833004942E+00
-0.2373500767135E+01 -0.5533496155376E+01 -0.3716288544154E+01  0.1402394722926E+01
-0.8768941559145E+00 -0.5020373544863E+01 -0.2771715812335E+01  0.2108271242095E+00
-0.3102131248752E+00 -0.3954915856918E+01 -0.2004610616359E+01 -0.3892015275423E+00
-0.1497518045800E+00 -0.3130742364135E+01 -0.1541832255386E+01 -0.5919814812574E+00
-0.1801660472316E+00 -0.2641568579111E+01 -0.1326215271017E+01 -0.6137598701401E+00
-0.1731374091061E+00 -0.2228305143251E+01 -0.1128677996745E+01 -0.5767337457848E+00
-0.1295366287426E+00 -0.1874293674502E+01 -0.9418002401363E+00 -0.5100880740096E+00
-0.6801467132893E-01 -0.1589973961987E+01 -0.7792546556818E+00 -0.4298777884533E+00
-0.1957314911442E-01 -0.1376992424755E+01 -0.6563858180538E+00 -0.3440805701188E+00
 0.9390946931888E-02 -0.1216265879698E+01 -0.5672312169612E+00 -0.2590770171157E+00
 0.2664605986017E-01 -0.1084343661455E+01 -0.4971178714887E+00 -0.1798123344510E+00
 0.3734623124185E-01 -0.9664313939744E+00 -0.4366700253768E+00 -0.1084294722957E+00
 0.4231302420982E-01 -0.8551005408935E+00 -0.3820101318724E+00 -0.4501684485279E-01
 0.4145042958923E-01 -0.7469281162835E+00 -0.3315745119053E+00  0.1043662972525E-01
 0.3473109126000E-01 -0.6415894436322E+00 -0.2852234248915E+00  0.5726657651425E-01
 0.2229153346265E-01 -0.5390244435306E+00 -0.2428644671160E+00  0.9497164358422E-01
 0.5214544585762E-02 -0.4354805766798E+00 -0.2022250345713E+00  0.1242666702903E+00
-0.6747351005364E-02 -0.3513091326596E+00 -0.1682865468957E+00  0.1451464284678E+00
-0.2263359348997E-01 -0.3331681978289E+00 -0.1672268414957E+00  0.1658723875013E+00
-0.6705860850030E-01 -0.4328458441317E+00 -0.2349550921411E+00  0.1955613674544E+00
-0.2842306674599E+01 -0.6517567879313E+01 -0.4399141029181E+01  0.1389904792542E+01
-0.8197145621394E+00 -0.5250554451050E+01 -0.2853026428962E+01 -0.1702664036237E+00
-0.4824055656467E-01 -0.3531984322162E+01 -0.1682705688734E+01 -0.6784066511229E+00
-0.1821587829993E+00 -0.2964551746948E+01 -0.1478953945324E+01 -0.7288023323671E+00
-0.2316698203499E+00 -0.2497492382340E+01 -0.1282706232011E+01 -0.7100176928002E+00
-0.2282441714701E+00 -0.2060606639855E+01 -0.1075759878594E+01 -0.6482285280173E+00
-0.1688517426426E+00 -0.1675953760175E+01 -0.8670585841250E+00 -0.5544832663254E+00
-0.9701389440768E-01 -0.1391091786202E+01 -0.6994096681128E+00 -0.4510514391476E+00
-0.5067232232762E-01 -0.1199901003945E+01 -0.5877694618574E+00 -0.3508435283308E+00
-0.2437603560080E-01 -0.1057906166645E+01 -0.5086726337653E+00 -0.2609613238016E+00
-0.6584744123682E-02 -0.9342761241555E+00 -0.4422046069696E+00 -0.1829239766691E+00
 0.6014320907860E-02 -0.8173548302535E+00 -0.3813300384253E+00 -0.1157236655446E+00
 0.1307226274119E-01 -0.7027161492196E+00 -0.3241326258227E+00 -0.5790971565749E-01
 0.1477893962712E-01 -0.5886095701620E+00 -0.2697003956673E+00 -0.9224443644283E-02
 0.1235381806116E-01 -0.4753830707751E+00 -0.2176237482236E+00  0.2943949887427E-01
 0.4498214776762E-02 -0.3658281295491E+00 -0.1698250595122E+00  0.5711372962937E-01
-0.6018776716761E-02 -0.2537440788879E+00 -0.1220885418245E+00  0.7433552079747E-01
-0.3776809956038E-03 -0.1581011401312E+00 -0.7448504574068E-01  0.7899081384146E-01
 0.9424997490648E-02 -0.1215441990237E+00 -0.5269602458689E-01  0.8286478464849E-01
-0.1514057801681E-01 -0.1996729542890E+00 -0.1009623599277E+00  0.1003167014259E+00
-0.4989770892818E+01 -0.9275337563940E+01 -0.6704600957671E+01  0.1035056456134E+01
 0.2624436629060E+00 -0.3965389380479E+01 -0.1740384482845E+01 -0.8171076600154E+00
-0.1218153013142E+00 -0.3300578741582E+01 -0.1608525196082E+01 -0.8486844088204E+00
-0.2303439667600E+00 -0.2826198547428E+01 -0.1436574978025E+01 -0.8277787248813E+00
-0.3106780518329E+00 -0.2373719725413E+01 -0.1261666952106E+01 -0.8042477250351E+00
-0.2891180553799E+00 -0.1868284035983E+01 -0.1013978980369E+01 -0.7195887999586E+00
-0.1988187207616E+00 -0.1438480542166E+01 -0.7695306516242E+00 -0.5866194342023E+00
-0.1251681162622E+00 -0.1186319556505E+01 -0.6163992046371E+00 -0.4542888870635E+00
-0.8427568832280E-01 -0.1034294921292E+01 -0.5257281851854E+00 -0.3448324447584E+00
-0.5773605988133E-01 -0.9099972958054E+00 -0.4548346760192E+00 -0.2572130780595E+00
-0.3717859732355E-01 -0.7903918167254E+00 -0.3889580936165E+00 -0.1849682772593E+00
-0.2154573660195E-01 -0.6715458729655E+00 -0.3257530556705E+00 -0.1243658443365E+00
-0.1235190942814E-01 -0.5529075532174E+00 -0.2656719467696E+00 -0.7376945540492E-01
-0.6764166281001E-02 -0.4316551999632E+00 -0.2060571016121E+00 -0.3329972768899E-01
-0.3179442372730E-02 -0.3100895106862E+00 -0.1472364075642E+00 -0.3867864522099E-02
-0.9490275203745E-03 -0.1924152407354E+00 -0.9088120584968E-01  0.1376813229992E-01
-0.8357454063156E-02 -0.8589219416404E-01 -0.4429733455443E-01  0.1754526988620E-01
 0.2569834115050E-01  0.2109924871615E-01  0.2199486718154E-01  0.6527002118811E-03
 0.7207189170701E-01  0.7911375144679E-01  0.7105725210206E-01 -0.1689646876759E-01
 0.7579322453407E-01  0.2203492916656E-01  0.4597923212268E-01 -0.1681328513023E-01
-0.1053754841333E+00 -0.4840625089202E+00 -0.2770358560325E+00  0.1030744015970E+00
-0.8268054378994E-01 -0.3780240687118E+00 -0.2165311673266E+00  0.1085737054495E+00
-0.8043906731686E-01 -0.3063162625391E+00 -0.1817750045713E+00  0.1141354381828E+00
-0.7531645050084E-01 -0.2417687397015E+00 -0.1490300390171E+00  0.1212125395923E+00
-0.6778320392797E-01 -0.1845975825263E+00 -0.1186189693326E+00  0.1293890013906E+00
-0.5696743477209E-01 -0.1346868205213E+00 -0.9007749975944E-01  0.1378231201674E+00
-0.4311905541885E-01 -0.9241029919951E-01 -0.6369879650906E-01  0.1455977437778E+00
-0.2680663046787E-01 -0.5784002352043E-01 -0.3978392727359E-01  0.1517881676658E+00
-0.8937000088516E-02 -0.3077428608300E-01 -0.1866430445327E-01  0.1555364354242E+00
 0.9345235957437E-02 -0.1071556718218E-01 -0.6440556739972E-03  0.1561272681850E+00
 0.2674876912890E-01  0.3103037778755E-02  0.1403034921101E-01  0.1530657273386E+00
 0.4196274157341E-01  0.1167294091744E-01  0.2520877070676E-01  0.1461458630296E+00
 0.5380863530860E-01  0.1613499590352E-01  0.3287350658632E-01  0.1354969667318E+00
 0.6140090317646E-01  0.1767192138312E-01  0.3716422744874E-01  0.1215905524595E+00
 0.6428592541070E-01  0.1737388033046E-01  0.3838010860100E-01  0.1051924248784E+00
 0.6252280176597E-01  0.1609870449419E-01  0.3695210784855E-01  0.8725467279963E-01
 0.5668569213824E-01  0.1436850706966E-01  0.3339547354301E-01  0.6876474838172E-01
 0.4777890536099E-01  0.1232504922907E-01  0.2824885858568E-01  0.5059258604192E-01
 0.3721557986049E-01  0.9841486557236E-02  0.2211682116024E-01  0.3340401027333E-01
 0.2603994080499E-01  0.6015062565723E-02  0.1506585154602E-01  0.1753395198415E-01
-0.8651096916270E-01 -0.5205245948676E+00 -0.2853067143706E+00  0.9013173963119E-01
-0.8157720389859E-01 -0.4390844952777E+00 -0.2447109979922E+00  0.9671960584277E-01
-0.7521541633701E-01 -0.3565705834556E+00 -0.2029394193878E+00  0.1037820185038E+00
-0.7103034986963E-01 -0.2865055104918E+00 -0.1680418539437E+00  0.1111475449942E+00
-0.6372661808534E-01 -0.2242787158557E+00 -0.1353625066090E+00  0.1198474337496E+00
-0.5302100482378E-01 -0.1698324127065E+00 -0.1047411059736E+00  0.1293001139043E+00
-0.3879228524826E-01 -0.1231823280725E+00 -0.7612806806765E-01  0.1385803263144E+00
-0.2151470098354E-01 -0.8448000867506E-01 -0.4981751341319E-01  0.1466220899774E+00
-0.2023122323725E-02 -0.5364632259290E-01 -0.2616463904445E-01  0.1523743425805E+00
 0.1851066577385E-01 -0.3031706504740E-01 -0.5549007644495E-02  0.1549052569479E+00
 0.3866379817639E-01 -0.1381926995496E-01  0.1167692823445E-01  0.1535055654700E+00
 0.5688402785457E-01 -0.3194210974110E-02  0.2523421386981E-01  0.1477861176992E+00
 0.7166221150156E-01  0.2744679303846E-02  0.3497123858984E-01  0.1377566140020E+00
 0.8174190358520E-01  0.5311953326631E-02  0.4091531264479E-01  0.1238627810249E+00
 0.8633343939125E-01  0.5806870702511E-02  0.4330594563423E-01  0.1069560275759E+00
 0.8527943163312E-01  0.5341841434982E-02  0.4259199823398E-01  0.8817860229285E-01
 0.7910956758705E-01  0.4680137136113E-02  0.3938116112000E-01  0.6877520958588E-01
 0.6897825531749E-01  0.4162344120669E-02  0.3437608164874E-01  0.4988696855089E-01
 0.5642173708453E-01  0.3682470072133E-02  0.2824897729198E-01  0.3240701055098E-01
 0.4374990633650E-01  0.3190991436606E-02  0.2206222189740E-01  0.1696764602419E-01
-0.7620986509995E-01 -0.5675166069578E+00 -0.3025514410998E+00  0.7947734274159E-01
-0.7268518150385E-01 -0.4893503313662E+00 -0.2641566903789E+00  0.8295493179316E-01
-0.6981003670738E-01 -0.4104041097807E+00 -0.2257006482769E+00  0.8979668994673E-01
-0.6555878997542E-01 -0.3358793087811E+00 -0.1886759059370E+00  0.9772912649763E-01
-0.5901640786158E-01 -0.2689773719240E+00 -0.1541570761082E+00  0.1069774779422E+00
-0.4874892383457E-01 -0.2095420573654E+00 -0.1213967608561E+00  0.1173350489403E+00
-0.3455731595271E-01 -0.1579017982211E+00 -0.9045578343228E-01  0.1280018206404E+00
-0.1667372065906E-01 -0.1142923566002E+00 -0.6155405615571E-01  0.1378913079357E+00
 0.4193539440000E-02 -0.7880944596133E-01 -0.3506947597608E-01  0.1458140866578E+00
 0.2692235401825E-01 -0.5126677642399E-01 -0.1144187850168E-01  0.1506274043135E+00
 0.5001899799263E-01 -0.3114873025857E-01  0.8869025812513E-02  0.1513710821683E+00
 0.7171987713148E-01 -0.1760138519120E-01  0.2543569114742E-01  0.1474019280695E+00
 0.9016222372168E-01 -0.9467006774657E-02  0.3792675186891E-01  0.1385168903097E+00
 0.1036293104652E+00 -0.5364918631215E-02  0.4618426404481E-01  0.1250404867403E+00
 0.1108449405688E+00 -0.3827586362397E-02  0.5029815634945E-01  0.1078396471197E+00
 0.1112511455177E+00 -0.3491576341410E-02  0.5064699738441E-01  0.8822854640864E-01
 0.1051729357675E+00 -0.3310476741639E-02  0.4787535562072E-01  0.6775243675859E-01
 0.9376524426504E-01 -0.2730693083481E-02  0.4278623894681E-01  0.4789922972283E-01
 0.7881158836056E-01 -0.1680006210632E-02  0.3625184351852E-01  0.2985688847152E-01
 0.6240158555274E-01 -0.4123980623820E-03  0.2913491804657E-01  0.1452641563490E-01
-0.6550310915452E-01 -0.6188119190877E+00 -0.3216280624581E+00  0.6879795910187E-01
-0.6406039758323E-01 -0.5426283213600E+00 -0.2851436971801E+00  0.6892870829739E-01
-0.6230868367983E-01 -0.4647585661629E+00 -0.2477216067978E+00  0.7388330298548E-01
-0.5935567280652E-01 -0.3892206210294E+00 -0.2108308575681E+00  0.8132931755413E-01
-0.5359614420596E-01 -0.3185448165167E+00 -0.1749062510960E+00  0.9071508600064E-01
-0.4413612734290E-01 -0.2543509113963E+00 -0.1402889078516E+00  0.1016662051751E+00
-0.3039004471929E-01 -0.1973761556640E+00 -0.1070501139086E+00  0.1134804013508E+00
-0.1236527651666E-01 -0.1482112979559E+00 -0.7547098981068E-01  0.1251032241153E+00
 0.9459051016772E-02 -0.1072164411869E+00 -0.4594597326341E-01  0.1352714541075E+00
 0.3410760813479E-01 -0.7446819398337E-01 -0.1896947530072E-01  0.1426618896381E+00
 0.6012155287787E-01 -0.4968801220742E-01  0.4903764102675E-02  0.1460490892013E+00
 0.8561186349976E-01 -0.3221062675972E-01  0.2509858120416E-01  0.1444731643917E+00
 0.1083975184136E+00 -0.2099080373760E-01  0.4108115579351E-01  0.1374124479586E+00
 0.1262526940845E+00 -0.1465812238253E-01  0.5244944856690E-01  0.1249380920207E+00
 0.1372638314446E+00 -0.1163224177873E-01  0.5904684699318E-01  0.1078065190291E+00
 0.1402422191859E+00 -0.1031110565715E-01  0.6106762320362E-01  0.8742820994300E-01
 0.1350584605339E+00 -0.9326933575067E-02  0.5909381752079E-01  0.6566046911395E-01
 0.1227316172478E+00 -0.7804461618761E-02  0.5401576300867E-01  0.4443615097480E-01
 0.1051332270305E+00 -0.5529353226525E-02  0.4681382056912E-01  0.2535935928344E-01
 0.8427059146254E-01 -0.2950255579921E-02  0.3822055776789E-01  0.9482890839659E-02
-0.5388902133418E-01 -0.6739168713346E+00 -0.3420687686867E+00  0.5789737825581E-01
-0.5433405806130E-01 -0.5992170427015E+00 -0.3071690165794E+00  0.5468134271919E-01
-0.5393121209574E-01 -0.5225196058655E+00 -0.2709318837546E+00  0.5696978301573E-01
-0.5208118429021E-01 -0.4464381447597E+00 -0.2343040840592E+00  0.6282568057861E-01
-0.4752940252238E-01 -0.3733440760178E+00 -0.1978105344122E+00  0.7146508375624E-01
-0.3918700756051E-01 -0.3050147967869E+00 -0.1617748476330E+00  0.8235796411923E-01
-0.2637107222124E-01 -0.2428010132868E+00 -0.1265108798679E+00  0.9481036492819E-01
-0.8790530525575E-02 -0.1876886802862E+00 -0.9234522884732E-01  0.1078237952754E+00
 0.1336083728296E-01 -0.1404149353209E+00 -0.5971542592636E-01  0.1201223811097E+00
 0.3937018329230E-01 -0.1014132098918E+00 -0.2916022242782E-01  0.1302600840795E+00
 0.6795567839480E-01 -0.7074947057976E-01 -0.1313082323598E-02  0.1367669946854E+00
 0.9725666452620E-01 -0.4806490708492E-01  0.2312012593876E-01  0.1383301478304E+00
 0.1249002265102E+00 -0.3255102772173E-01  0.4340412332050E-01  0.1340044522317E+00
 0.1481957720226E+00 -0.2296836993990E-01  0.5885687882957E-01  0.1234376505777E+00
 0.1644989740377E+00 -0.1772420769541E-01  0.6898414000593E-01  0.1070676332372E+00
 0.1717377128307E+00 -0.1503087403051E-01  0.7365221404927E-01  0.8621422103688E-01
 0.1689827321378E+00 -0.1316297124645E-01  0.7323528743320E-01  0.6296140761725E-01
 0.1568024936759E+00 -0.1079906647013E-01  0.6862161061266E-01  0.3976209408194E-01
 0.1371186611500E+00 -0.7337219023388E-02  0.6099727764479E-01  0.1883903983778E-01
 0.1124611038388E+00 -0.3015352696517E-02  0.5143950290642E-01  0.1626502305123E-02
-0.4096926896598E-01 -0.7323890836395E+00 -0.3634784248027E+00  0.4690098368890E-01
-0.4323005251272E-01 -0.6594441078502E+00 -0.3302568545329E+00  0.4045394727769E-01
-0.4424928456061E-01 -0.5841833645360E+00 -0.2953633443262E+00  0.3962184668212E-01
-0.4371196570400E-01 -0.5083366600740E+00 -0.2594628534576E+00  0.4302800988636E-01
-0.4056426969111E-01 -0.4337928327085E+00 -0.2229478375623E+00  0.4994560937353E-01
-0.3374015054732E-01 -0.3623097621377E+00 -0.1861434584898E+00  0.5985246680165E-01
-0.2237668316915E-01 -0.2954179964287E+00 -0.1493634990321E+00  0.7211726597509E-01
-0.5934093035528E-02 -0.2344410962807E+00 -0.1129763386921E+00  0.8584061194113E-01
 0.1573060888516E-01 -0.1804758794041E+00 -0.7743027694749E-01  0.9981403454290E-01
 0.4226320191328E-01 -0.1343552197877E+00 -0.4328324829120E-01  0.1125616932278E+00
 0.7271629642370E-01 -0.9656789087665E-01 -0.1121024936445E-01  0.1224447111247E+00
 0.1054630652884E+00 -0.6717770132930E-01  0.1799412101512E-01  0.1278214606147E+00
 0.1381634050702E+00 -0.4576073462242E-01  0.4342925500029E-01  0.1272656086778E+00
 0.1678425573695E+00 -0.3137950611030E-01  0.6413763392916E-01  0.1198384690060E+00
 0.1911650761316E+00 -0.2260932961402E-01  0.7922120066231E-01  0.1053913155595E+00
 0.2049784347382E+00 -0.1763776072492E-01  0.8805011656290E-01  0.8482766050542E-01
 0.2071023547901E+00 -0.1447095532290E-01  0.9053675751997E-01  0.6018742075656E-01
 0.1971171055443E+00 -0.1127703471094E-01  0.8734483307014E-01  0.3437590335614E-01
 0.1766673791842E+00 -0.6834925411748E-02  0.7982125307060E-01  0.1046044038336E-01
 0.1489683933455E+00 -0.8423140198927E-03  0.6961925710646E-01 -0.9248338592258E-02
-0.2671439376845E-01 -0.7941076461317E+00 -0.3857863577746E+00  0.3601898937416E-01
-0.3056387942948E-01 -0.7234173804952E+00 -0.3543711912658E+00  0.2650882603614E-01
-0.3302878778700E-01 -0.6501494186984E+00 -0.3210937562337E+00  0.2233259979579E-01
-0.3390823690318E-01 -0.5753428844180E+00 -0.2863480262947E+00  0.2265644885452E-01
-0.3235244259467E-01 -0.5004139889379E+00 -0.2504002221852E+00  0.2696536019134E-01
-0.2733798414365E-01 -0.4268759619772E+00 -0.2134805541353E+00  0.3486984890647E-01
-0.1790507012836E-01 -0.3562363069297E+00 -0.1758464467713E+00  0.4589080825814E-01
-0.3282399869289E-02 -0.2899439593210E+00 -0.1378163884699E+00  0.5930860881056E-01
 0.1700474303302E-01 -0.2293486234108E+00 -0.9980162352444E-01  0.7408309567395E-01
 0.4302071779530E-01 -0.1756326302757E+00 -0.6232759870770E-01  0.8883682820397E-01
 0.7428294456074E-01 -0.1297205737843E+00 -0.2605568566900E-01  0.1018981274163E+00
 0.1096131678956E+00 -0.9217208523900E-01  0.8197308827797E-02  0.1114079568030E+00
 0.1469977955386E+00 -0.6307879910124E-01  0.3944192822551E-01  0.1155012805501E+00
 0.1835096443929E+00 -0.4198495830697E-01  0.6651660229166E-01  0.1125763665919E+00
 0.2153864767451E+00 -0.2785084412612E-01  0.8814174710736E-01  0.1016569491250E+00
 0.2384167719069E+00 -0.1907446892640E-01  0.1030908821394E+00  0.8281791478525E-01
 0.2487776741572E+00 -0.1360027160156E-01  0.1105333789208E+00  0.5755847921111E-01
 0.2442622593772E+00 -0.9174618698724E-02  0.1104911908387E+00  0.2887143623932E-01
 0.2253871382797E+00 -0.3805343004491E-02  0.1041434435152E+00  0.7063689639099E-03
 0.1954595378158E+00  0.3586792661474E-02  0.9355177508702E-01 -0.2321692634263E-01
-0.1111265411874E-01 -0.8588857865437E+00 -0.4088992660742E+00  0.2551708629146E-01
-0.1625308537398E-01 -0.7911153328410E+00 -0.3794631555986E+00  0.1315912341703E-01
-0.2004417025750E-01 -0.7205528058814E+00 -0.3480805779024E+00  0.5590785420605E-02
-0.2233983745730E-01 -0.6477289705440E+00 -0.3149323389618E+00  0.2425602025740E-02
-0.2244935193563E-01 -0.5735965447609E+00 -0.2801415707368E+00  0.3405320850401E-02
-0.1943416501798E-01 -0.4993310772641E+00 -0.2438196632541E+00  0.8338371178923E-02
-0.1229577945481E-01 -0.4262365509290E+00 -0.2061101947576E+00  0.1696062567920E-01
-0.9909511673545E-04 -0.3556970683935E+00 -0.1672241964257E+00  0.2880541291636E-01
 0.1792424172590E-01 -0.2891311322563E+00 -0.1274672382260E+00  0.4310408539801E-01
 0.4225888812623E-01 -0.2279298200500E+00 -0.8726533778283E-01  0.5872284454545E-01
 0.7296062413753E-01 -0.1733667211145E+00 -0.4719086545949E-01  0.7414145834443E-01
 0.1094738324001E+00 -0.1264824297947E+00 -0.7994040755213E-02  0.8748454670615E-01
 0.1504151864797E+00 -0.8795278256687E-01  0.2935732976456E-01  0.9662377710576E-01
 0.1933462254768E+00 -0.5795851084241E-01  0.6363222571677E-01  0.9937822208810E-01
 0.2346015960362E+00 -0.3607799604600E-01  0.9330609175876E-01  0.9384746122828E-01
 0.2693262892507E+00 -0.2122333396284E-01  0.1166083886896E+00  0.7890705616476E-01
 0.2920222200508E+00 -0.1162048730878E-01  0.1317888140545E+00  0.5484583932906E-01
 0.2978998112920E+00 -0.4886996872018E-02  0.1377160224281E+00  0.2394913144302E-01
 0.2848579347171E+00  0.1659532427094E-02  0.1346632092162E+00 -0.9449309445917E-02
 0.2550403717149E+00  0.1033767597758E-01  0.1247276820991E+00 -0.3996193194648E-01
 0.5794657708804E-02 -0.9264999577949E+00 -0.4327314899429E+00  0.1567991184723E-01
-0.2636775947344E-03 -0.8623770396172E+00 -0.4054411360613E+00  0.7382859330648E-03
-0.5131860115128E-02 -0.7953307814100E+00 -0.3762174405626E+00 -0.1012090175220E-01
-0.8694546358093E-02 -0.7255192370094E+00 -0.3450804773075E+00 -0.1695951162466E-01
-0.1039586657605E-01 -0.6534859318408E+00 -0.3120244444645E+00 -0.1980462512123E-01
-0.9405140516736E-02 -0.5800294805351E+00 -0.2770342711917E+00 -0.1864734269510E-01
-0.4750119132110E-02 -0.5061407396452E+00 -0.2401187030163E+00 -0.1352426604702E-01
 0.4587592953930E-02 -0.4329721190120E+00 -0.2013407267366E+00 -0.4619142052523E-02
 0.1958828817180E-01 -0.3618137209676E+00 -0.1608459530061E+00  0.7637011746876E-02
 0.4109830534341E-01 -0.2940565222299E+00 -0.1188903616351E+00  0.2247579236925E-01
 0.6970299269097E-01 -0.2311306779035E+00 -0.7587101185743E-01  0.3871826461774E-01
 0.1055520591474E+00 -0.1744117556722E+00 -0.3236405728456E-01  0.5472940492047E-01
 0.1481214721947E+00 -0.1250947959868E+00  0.1082253779026E-01  0.6841825200261E-01
 0.1959010805860E+00 -0.8404334465847E-01  0.5257313575258E-01  0.7731399506656E-01
 0.2460164487524E+00 -0.5162979111160E-01  0.9136172885946E-01  0.7876673171502E-01
 0.2938550341399E+00 -0.2759109914608E-01  0.1251440491297E+00  0.7034674521209E-01
 0.3329385748168E+00 -0.1091275222534E-01  0.1513521362341E+00  0.5053755548604E-01
 0.3557179925105E+00  0.3487749729063E-03  0.1673513802927E+00  0.1976366253691E-01
 0.3558682161174E+00  0.9122131434093E-02  0.1715454629141E+00 -0.1859885599249E-01
 0.3315855814019E+00  0.1895414745590E-01  0.1647536721453E+00 -0.5818492819753E-01
 0.2391135495137E-01 -0.9966945365447E+00 -0.4572080941892E+00  0.6782061202616E-02
 0.1736960987710E-01 -0.9369604644587E+00 -0.4322077005571E+00 -0.1043718784972E-01
 0.1179053853173E-01 -0.8742719755458E+00 -0.4053662743684E+00 -0.2436252402200E-01
 0.7258560267772E-02 -0.8085332809146E+00 -0.3765991177488E+00 -0.3484786281078E-01
 0.4214531011582E-02 -0.7399536819054E+00 -0.3457974000430E+00 -0.4175286047834E-01
 0.3364394341435E-02 -0.6689733542750E+00 -0.3128362103753E+00 -0.4491244993869E-01
 0.5598580868935E-02 -0.5962261256748E+00 -0.2775949453547E+00 -0.4417457660992E-01
 0.1193081104796E-01 -0.5225283026281E+00 -0.2399808204340E+00 -0.3946879342284E-01
 0.2344484858292E-01 -0.4488775844405E+00 -0.1999533853459E+00 -0.3088976667238E-01
 0.4123319910203E-01 -0.3764484229241E+00 -0.1575511547967E+00 -0.1878963844936E-01
 0.6631126465403E-01 -0.3065717398321E+00 -0.1129224230473E+00 -0.3875843537375E-02
 0.9948781208860E-01 -0.2406889172704E+00 -0.6636451926712E-01  0.1269046530440E-01
 0.1411672817859E+00 -0.1802718762325E+00 -0.1837915934328E-01  0.2920512458452E-01
 0.1910504709270E+00 -0.1267047824760E+00  0.3024247349529E-01  0.4336024853110E-01
 0.2476890656816E+00 -0.8113049087717E-01  0.7828252995953E-01  0.5224997300612E-01
 0.3078502747348E+00 -0.4427611709615E-01  0.1238798537760E+00  0.5251628983270E-01
 0.3656982798664E+00 -0.1629143884264E-01  0.1642212148646E+00  0.4077569042630E-01
 0.4121319999259E+00  0.3425184008605E-02  0.1953118759539E+00  0.1459029865227E-01
 0.4360907383545E+00  0.1698228552519E-01  0.2129443206833E+00 -0.2572430437702E-01
 0.4286320862862E+00  0.2836559711318E-01  0.2147889106529E+00 -0.7518829874841E-01
 0.4309797863630E-01 -0.1069177135247E+01 -0.4822572023836E+00 -0.9211566263176E-03
 0.3656626954352E-01 -0.1014538544432E+01 -0.4596469680320E+00 -0.2008940204035E-01
 0.3072861596612E-01 -0.9570278738051E+00 -0.4353606500801E+00 -0.3676329810958E-01
 0.2565168621428E-01 -0.8963900010901E+00 -0.4092470069536E+00 -0.5068365031846E-01
 0.2167968420754E-01 -0.8325895725651E+00 -0.3811276465614E+00 -0.6161694459614E-01
 0.1938936114211E-01 -0.7657694398806E+00 -0.3507986361173E+00 -0.6930952947012E-01
 0.1954991546035E-01 -0.6962293062804E+00 -0.3180393128788E+00 -0.7349375611354E-01
 0.2309373571093E-01 -0.6244242762509E+00 -0.2826253533370E+00 -0.7392395092258E-01
 0.3109441911877E-01 -0.5509761629056E+00 -0.2443444189601E+00 -0.7043210863564E-01
 0.4474355918191E-01 -0.4766895718203E+00 -0.2030146254251E+00 -0.6300052479935E-01
 0.6531511282914E-01 -0.4025648444733E+00 -0.1585073734707E+00 -0.5185216711887E-01
 0.9410254899211E-01 -0.3297995448776E+00 -0.1107775877852E+00 -0.3756084173413E-01
 0.1323068236629E+00 -0.2597695596451E+00 -0.5990748575968E-01 -0.2118267978646E-01
 0.1808393866259E+00 -0.1939806397982E+00 -0.6176388975329E-02 -0.4407568231155E-02
 0.2399790626197E+00 -0.1339826435452E+00  0.4981831683866E-01  0.1027866593937E-01
 0.3087707656551E+00 -0.8125015642110E-01  0.1069346860688E+00  0.1945019646824E-01
 0.3839839340578E+00 -0.3704936053442E-01  0.1630592491424E+00  0.1869699192501E-01
 0.4582809687783E+00 -0.2427402757026E-02  0.2142511754866E+00  0.2900074400065E-02
 0.5178118619266E+00  0.2178344052603E-01  0.2536097915095E+00 -0.3247870720462E-01
 0.5452567211715E+00  0.3796992544996E-01  0.2741165232168E+00 -0.8782477385468E-01
 0.6315766329038E-01 -0.1143625457698E+01 -0.5078198620834E+00 -0.7209525839201E-02
 0.5712604906468E-01 -0.1094753466722E+01 -0.4876848850621E+00 -0.2799553367281E-01
 0.5150688681273E-01 -0.1043203622679E+01 -0.4660974646749E+00 -0.4703611146082E-01
 0.4637352620073E-01 -0.9886375514581E+00 -0.4428640907477E+00 -0.6403032110250E-01
 0.4199661685813E-01 -0.9308644615741E+00 -0.4177678859569E+00 -0.7871531729072E-01
 0.3883561875700E-01 -0.8698140669974E+00 -0.3905598696824E+00 -0.9081483621766E-01
 0.3752578140282E-01 -0.8055221446689E+00 -0.3609582898195E+00 -0.1000256247928E+00
 0.3887183922708E-01 -0.7381294986426E+00 -0.3286510990917E+00 -0.1060272684359E+00
 0.4384957212656E-01 -0.6678926008783E+00 -0.2933002227694E+00 -0.1085088876998E+00
 0.5361269370188E-01 -0.5952026938343E+00 -0.2545472994166E+00 -0.1072115147023E+00
 0.6950037816893E-01 -0.5206097556561E+00 -0.2120214068812E+00 -0.1019886975733E+00
 0.9303837285283E-01 -0.4448472735604E+00 -0.1653501829132E+00 -0.9289084746409E-01
 0.1259222199738E+00 -0.3688528408575E+00 -0.1141773915257E+00 -0.8028177967000E-01
 0.1699619749546E+00 -0.2937780362833E+00 -0.5819354867685E-01 -0.6499942613809E-01
 0.2269469935174E+00 -0.2209802430419E+00  0.2804372716344E-02 -0.4857732088774E-01
 0.2983461530004E+00 -0.1519882524348E+00  0.6878821309139E-01 -0.3354894247490E-01
 0.3846286004550E+00 -0.8846450212409E-01  0.1391971258625E+00 -0.2386059702644E-01
 0.4837686077306E+00 -0.3219726256135E-01  0.2122385316913E+00 -0.2539555281060E-01
 0.5869685443329E+00  0.1399358407759E-01  0.2824521996365E+00 -0.4648373002149E-01
 0.6699988521074E+00  0.4441194422991E-01  0.3357730734269E+00 -0.9655535681421E-01
 0.8388869105485E-01 -0.1219626569123E+01 -0.5337968013381E+00 -0.1187459030612E-01
 0.7877424372545E-01 -0.1177126644816E+01 -0.5162256272030E+00 -0.3393446836813E-01
 0.7381513516709E-01 -0.1132240502170E+01 -0.4974599212298E+00 -0.5489918912154E-01
 0.6910171083053E-01 -0.1084616006791E+01 -0.4772917178909E+00 -0.7447490486899E-01
 0.6485658728600E-01 -0.1033989612219E+01 -0.4554925205631E+00 -0.9241236120658E-01
 0.6144621668800E-01 -0.9801708834583E+00 -0.4318005922868E+00 -0.1084596738768E+00
 0.5938424862664E-01 -0.9230306435273E+00 -0.4059138045738E+00 -0.1223402991951E+00
 0.5933830768872E-01 -0.8624964914581E+00 -0.3774843454142E+00 -0.1337471750180E+00
 0.6214449244293E-01 -0.7985560038507E+00 -0.3461134094838E+00 -0.1423482853154E+00
 0.6883096553682E-01 -0.7312667881819E+00 -0.3113448358535E+00 -0.1478023807642E+00
 0.8065110629245E-01 -0.6607720813949E+00 -0.2726568576066E+00 -0.1497864671467E+00
 0.9912647220639E-01 -0.5873202802044E+00 -0.2294510891771E+00 -0.1480395283526E+00
 0.1260996580600E+00 -0.5112861183751E+00 -0.1810376358889E+00 -0.1424305149000E+00
 0.1637961185698E+00 -0.4331898703464E+00 -0.1266150630139E+00 -0.1330640419232E+00
 0.2148912815295E+00 -0.3537076477452E+00 -0.6524369195590E-01 -0.1204466058541E+00
 0.2825657322380E+00 -0.2736633451376E+00  0.4184121926605E-02 -0.1057539827548E+00
 0.3705114586040E+00 -0.1939730739078E+00  0.8297304059677E-01 -0.9127755555699E-01
 0.4826402162393E+00 -0.1155884747274E+00  0.1725143180730E+00 -0.8121387977734E-01
 0.6222530053840E+00 -0.3913930171180E-01  0.2740634400308E+00 -0.8319424516981E-01
 0.7813628161166E+00  0.3027334617330E-01  0.3814689953087E+00 -0.1118555770788E+00
 0.1050941003303E+00 -0.1296700305231E+01 -0.5600549148828E+00 -0.1473372609739E-01
 0.1012208419537E+00 -0.1261056964883E+01 -0.5451229763939E+00 -0.3769769761013E-01
 0.9728687126358E-01 -0.1223401092336E+01 -0.5292736825618E+00 -0.6008825483633E-01
 0.9339993912600E-01 -0.1183418245914E+01 -0.5123086028910E+00 -0.8164284950354E-01
 0.8975493259871E-01 -0.1140842111857E+01 -0.4940109729986E+00 -0.1021446487583E+00
 0.8665271933617E-01 -0.1095448434202E+01 -0.4741339847845E+00 -0.1213851938880E+00
 0.8451139652428E-01 -0.1047046952537E+01 -0.4523917101783E+00 -0.1391424182021E+00
 0.8387911278743E-01 -0.9954760312112E+00 -0.4284505505725E+00 -0.1551691705264E+00
 0.8545335363641E-01 -0.9406013972209E+00 -0.4019195794653E+00 -0.1691888676800E+00
 0.9010988498763E-01 -0.8823191302737E+00 -0.3723383443401E+00 -0.1808966695912E+00
 0.9894450999527E-01 -0.8205625937359E+00 -0.3391604984979E+00 -0.1899662349313E+00
 0.1133320192141E+00 -0.7553127708073E+00 -0.3017309524835E+00 -0.1960638351845E+00
 0.1350093319629E+00 -0.6866111539177E+00 -0.2592528556612E+00 -0.1988737966817E+00
 0.1661949083260E+00 -0.6145733405483E+00 -0.2107378626100E+00 -0.1981426468371E+00
 0.2097657089659E+00 -0.5393994620562E+00 -0.1549278635595E+00 -0.1937554436970E+00
 0.2695353930537E+00 -0.4613691519744E+00 -0.9016186646404E-01 -0.1858699870743E+00
 0.3507126096000E+00 -0.3808004738764E+00 -0.1414129617405E-01 -0.1751612915009E+00
 0.4608096305130E+00 -0.2978371252210E+00  0.7659707729295E-01 -0.1632982150190E+00
 0.6113231147050E+00 -0.2120176779402E+00  0.1876735548035E+00 -0.1539594441189E+00
 0.8265069377299E+00 -0.1170445149996E+00  0.3334473378375E+00 -0.1558709024576E+00
 0.1265699714939E+00 -0.1374341643871E+01 -0.5864526845297E+00 -0.1565830030479E-01
 0.1241657961467E+00 -0.1345890988525E+01 -0.5742108389616E+00 -0.3913557498460E-01
 0.1215215559126E+00 -0.1315861453241E+01 -0.5613397503204E+00 -0.6242072380896E-01
 0.1187579704741E+00 -0.1284005366533E+01 -0.5476662747588E+00 -0.8528510319217E-01
 0.1160534768210E+00 -0.1250100367705E+01 -0.5330020373637E+00 -0.1075418486933E+00
 0.1136636257817E+00 -0.1213949796097E+01 -0.5171344987367E+00 -0.1290181711016E+00
 0.1119349010696E+00 -0.1175379582475E+01 -0.4998189989926E+00 -0.1495366176143E+00
 0.1113192630633E+00 -0.1134235634532E+01 -0.4807706933711E+00 -0.1689029377298E+00
 0.1123935292205E+00 -0.1090383555184E+01 -0.4596553110371E+00 -0.1868982948032E+00
 0.1158868975203E+00 -0.1043711512396E+01 -0.4360775678855E+00 -0.2032741976157E+00
 0.1227202238512E+00 -0.9941367336204E+00 -0.4095657585527E+00 -0.2177491819078E+00
 0.1340620858116E+00 -0.9416160932631E+00 -0.3795503825395E+00 -0.2300068256577E+00
 0.1514096395718E+00 -0.8861613743761E+00 -0.3453333144821E+00 -0.2396951356840E+00
 0.1767078495003E+00 -0.8278599168681E+00 -0.3060414708866E+00 -0.2464277059873E+00
 0.2125320923682E+00 -0.7669006799405E+00 -0.2605532354981E+00 -0.2497872630218E+00
 0.2623809827761E+00 -0.7036049934922E+00 -0.2073752845106E+00 -0.2493318171306E+00
 0.3311875972332E+00 -0.6384468755040E+00 -0.1444118604210E+00 -0.2446015509544E+00
 0.4262650650266E+00 -0.5720486018215E+00 -0.6851826211980E-01 -0.2351097874867E+00
 0.5595311867758E+00 -0.5048487332999E+00  0.2570075306851E-01 -0.2202642874855E+00
 0.7533843157771E+00 -0.4359946734261E+00  0.1491731315266E+00 -0.1983621564476E+00
 0.1481108775252E+00 -0.1452038829185E+01 -0.6128461357258E+00 -0.1458095707787E-01
 0.1473109573504E+00 -0.1430964434290E+01 -0.6033171326315E+00 -0.3817553378210E-01
 0.1461133950317E+00 -0.1408777392507E+01 -0.5934520773083E+00 -0.6182197369969E-01
 0.1446439049051E+00 -0.1385307611013E+01 -0.5831119403917E+00 -0.8531593492760E-01
 0.1430657715593E+00 -0.1360398899300E+01 -0.5721465685870E+00 -0.1084868530764E+00
 0.1415967140822E+00 -0.1333912892219E+01 -0.5603886023032E+00 -0.1311765948988E+00
 0.1405219841745E+00 -0.1305729780675E+01 -0.5476476629664E+00 -0.1532231395388E+00
 0.1402075550162E+00 -0.1275748738227E+01 -0.5337043547556E+00 -0.1744479516874E+00
 0.1411162856024E+00 -0.1243889713749E+01 -0.5183035099142E+00 -0.1946453657779E+00
 0.1438295038271E+00 -0.1210097616980E+01 -0.5011460119106E+00 -0.2135723281255E+00
 0.1490765904632E+00 -0.1174349708884E+01 -0.4818783644355E+00 -0.2309368404179E+00
 0.1577758782251E+00 -0.1136667108911E+01 -0.4600788772556E+00 -0.2463831907046E+00
 0.1710916271582E+00 -0.1097131714014E+01 -0.4352388397181E+00 -0.2594713138727E+00
 0.1905143996649E+00 -0.1055910488249E+01 -0.4067361606029E+00 -0.2696459719273E+00
 0.2179761439230E+00 -0.1013290541673E+01 -0.3737977659946E+00 -0.2761879294532E+00
 0.2560187825303E+00 -0.9697303188020E+00 -0.3354444211969E+00 -0.2781317351369E+00
 0.3080408093321E+00 -0.9259419911531E+00 -0.2904135547192E+00 -0.2741166222639E+00
 0.3786547652601E+00 -0.8830345571720E+00 -0.2370585015973E+00 -0.2620941103781E+00
 0.4740739443949E+00 -0.8428764784000E+00 -0.1733371905427E+00 -0.2386647796409E+00
 0.5994919860600E+00 -0.8108964874577E+00 -0.9936011540492E-01 -0.1975048986533E+00
 0.1695193137921E+00 -0.1529283927138E+01 -0.6390893666515E+00 -0.1149113087641E-01
 0.1703751746586E+00 -0.1515623524915E+01 -0.6322667230170E+00 -0.3481891023117E-01
 0.1706807661561E+00 -0.1501322350265E+01 -0.6254015429447E+00 -0.5831830249316E-01
 0.1705570830465E+00 -0.1486287069747E+01 -0.6183930921809E+00 -0.8179694073332E-01
 0.1701465201036E+00 -0.1470432842575E+01 -0.6111345700117E+00 -0.1050866643752E+00
 0.1696261824443E+00 -0.1453688589034E+01 -0.6035093295662E+00 -0.1280256540825E+00
 0.1692182245079E+00 -0.1435999825727E+01 -0.5953873510630E+00 -0.1504433862107E+00
 0.1691994566549E+00 -0.1417330875247E+01 -0.5866217652503E+00 -0.1721473223753E+00
 0.1699118702452E+00 -0.1397667692251E+01 -0.5770452348789E+00 -0.1929099142164E+00
 0.1717753247760E+00 -0.1377022162752E+01 -0.5664660124117E+00 -0.2124543222146E+00
 0.1753033849100E+00 -0.1355438582424E+01 -0.5546635414246E+00 -0.2304369873105E+00
 0.1811230901782E+00 -0.1333003076416E+01 -0.5413835921587E+00 -0.2464246739740E+00
 0.1899990689678E+00 -0.1309857010566E+01 -0.5263332312162E+00 -0.2598626082703E+00
 0.2028613471437E+00 -0.1286216122441E+01 -0.5091767430985E+00 -0.2700285089573E+00
 0.2208333425850E+00 -0.1262398437597E+01 -0.4895355934139E+00 -0.2759640098757E+00
 0.2452479131640E+00 -0.1238867672070E+01 -0.4670012855015E+00 -0.2763688857606E+00
 0.2776153279763E+00 -0.1216307397431E+01 -0.4411852715246E+00 -0.2694327822121E+00
 0.3194383341690E+00 -0.1195764674349E+01 -0.4118733788402E+00 -0.2525596982488E+00
 0.3714159048816E+00 -0.1179071676050E+01 -0.3795982114862E+00 -0.2219342728600E+00
 0.4323787059945E+00 -0.1168751455643E+01 -0.3460951914568E+00 -0.1721687182932E+00
 0.1906129894971E+00 -0.1605580229897E+01 -0.6650346013013E+00 -0.6426659919729E-02
 0.1931037784801E+00 -0.1599235294723E+01 -0.6608818109580E+00 -0.2912796959122E-01
 0.1948823418223E+00 -0.1592701919125E+01 -0.6569751996659E+00 -0.5201264573448E-01
 0.1960549269351E+00 -0.1585955718801E+01 -0.6532533705202E+00 -0.7488951119969E-01
 0.1967342527254E+00 -0.1578977367182E+01 -0.6496542621468E+00 -0.9758242957660E-01
 0.1970490945960E+00 -0.1571757962052E+01 -0.6461131660657E+00 -0.1199143303531E+00
 0.1971509317834E+00 -0.1564302467239E+01 -0.6425612200344E+00 -0.1416930221434E+00
 0.1972188658197E+00 -0.1556632240300E+01 -0.6389242843853E+00 -0.1626977584868E+00
 0.1974634914520E+00 -0.1548787413703E+01 -0.6351222418472E+00 -0.1826653332237E+00
 0.1981298994555E+00 -0.1540829677561E+01 -0.6310688941089E+00 -0.2012743495902E+00
 0.1994994551663E+00 -0.1532845820491E+01 -0.6266727901133E+00 -0.2181261167360E+00
 0.2018891914226E+00 -0.1524952310318E+01 -0.6218396643036E+00 -0.2327202975068E+00
 0.2056462850259E+00 -0.1517301219996E+01 -0.6164778178725E+00 -0.2444229114765E+00
 0.2111325299298E+00 -0.1510087949619E+01 -0.6105090457053E+00 -0.2524235641876E+00
 0.2186886658979E+00 -0.1503561599986E+01 -0.6038902774896E+00 -0.2556779089573E+00
 0.2285582785467E+00 -0.1498039679202E+01 -0.5966562567948E+00 -0.2528309368576E+00
 0.2407324938095E+00 -0.1493928975882E+01 -0.5890023450802E+00 -0.2421187997353E+00
 0.2546329550230E+00 -0.1491760345255E+01 -0.5814498719345E+00 -0.2212602054282E+00
 0.2686685671403E+00 -0.1492103559225E+01 -0.5750144448215E+00 -0.1874073065236E+00
 0.2799494712948E+00 -0.1495149942258E+01 -0.5711442199039E+00 -0.1372270521970E+00
 0.2112289691521E+00 -0.1680450238747E+01 -0.6905339949581E+00  0.5328491972226E-03
 0.2152733542184E+00 -0.1681197067008E+01 -0.6889841432638E+00 -0.2121610987807E-01
 0.2184231969320E+00 -0.1682166223087E+01 -0.6879592205481E+00 -0.4306893234656E-01
 0.2207608593603E+00 -0.1683390362447E+01 -0.6874358647073E+00 -0.6482795573267E-01
 0.2223604685550E+00 -0.1684903115351E+01 -0.6873950422509E+00 -0.8630297165246E-01
 0.2232940052848E+00 -0.1686744117549E+01 -0.6878215510195E+00 -0.1072964865004E+00
 0.2236342774068E+00 -0.1688962126958E+01 -0.6887040875423E+00 -0.1275906020280E+00
 0.2234552810186E+00 -0.1691616710472E+01 -0.6900358700927E+00 -0.1469344813555E+00
 0.2228299109040E+00 -0.1694779077851E+01 -0.6918161067105E+00 -0.1650313890106E+00
 0.2218246452214E+00 -0.1698532269058E+01 -0.6940525814429E+00 -0.1815243675855E+00
 0.2204901790020E+00 -0.1702970707627E+01 -0.6967658466864E+00 -0.1959796392109E+00
 0.2188461372904E+00 -0.1708198928705E+01 -0.6999958101896E+00 -0.2078668546341E+00
 0.2168567527843E+00 -0.1714329072665E+01 -0.7038119885586E+00 -0.2165354474494E+00
 0.2143925274484E+00 -0.1721476421592E+01 -0.7083294284510E+00 -0.2211867924643E+00
 0.2111702112946E+00 -0.1729751673034E+01 -0.7137332852071E+00 -0.2208430949439E+00
 0.2066606347218E+00 -0.1739246976892E+01 -0.7203155789932E+00 -0.2143170159411E+00
 0.1999525002704E+00 -0.1750009518558E+01 -0.7285267967474E+00 -0.2001932843280E+00
 0.1895892027002E+00 -0.1761972977325E+01 -0.7390203721993E+00 -0.1768494041766E+00
 0.1734338662435E+00 -0.1774818638357E+01 -0.7526508409845E+00 -0.1425535075195E+00
 0.1483025773786E+00 -0.1788014759770E+01 -0.7706647237691E+00 -0.9566878106553E-01
 0.2312261370621E+00 -0.1753443119152E+01 -0.7154419797677E+00  0.9271624161550E-02
 0.2366940697373E+00 -0.1760944797564E+01 -0.7163978402615E+00 -0.1124000159426E-01
 0.2410564064354E+00 -0.1769020704044E+01 -0.7181432180548E+00 -0.3170091047369E-01
 0.2443647556826E+00 -0.1777746013615E+01 -0.7206891894002E+00 -0.5190323332942E-01
 0.2466473190948E+00 -0.1787190970380E+01 -0.7240555142675E+00 -0.7164097923083E-01
 0.2479123562904E+00 -0.1797425982918E+01 -0.7282714026680E+00 -0.9069653784425E-01
 0.2481486245416E+00 -0.1808523621322E+01 -0.7333762466265E+00 -0.1088292918282E+00
 0.2473221359199E+00 -0.1820558968855E+01 -0.7394213096042E+00 -0.1257651099862E+00
 0.2453693835816E+00 -0.1833608496781E+01 -0.7464723813103E+00 -0.1411860207966E+00
 0.2421865226350E+00 -0.1847747526476E+01 -0.7546136698914E+00 -0.1547196052498E+00
 0.2376135414249E+00 -0.1863046084343E+01 -0.7639532932337E+00 -0.1659278729296E+00
 0.2314119424138E+00 -0.1879562730887E+01 -0.7746308686174E+00 -0.1742956956628E+00
 0.2232339587687E+00 -0.1897335658971E+01 -0.7868277970995E+00 -0.1792193930583E+00
 0.2125810404361E+00 -0.1916369934646E+01 -0.8007807782477E+00 -0.1799969902171E+00
 0.1987499277049E+00 -0.1936618960861E+01 -0.8167984435118E+00 -0.1758233066653E+00
 0.1807674451398E+00 -0.1957956922378E+01 -0.8352790521832E+00 -0.1657957672324E+00
 0.1573256974269E+00 -0.1980134956825E+01 -0.8567203497444E+00 -0.1489407479929E+00
 0.1267443551481E+00 -0.2002715372884E+01 -0.8817063760997E+00 -0.1242720868928E+00
 0.8698319945672E-01 -0.2025000406862E+01 -0.9108680851701E+00 -0.9088930272761E-01
 0.3592695116106E-01 -0.2045831506625E+01 -0.9446551386721E+00 -0.4815145068943E-01
 0.2504841739491E+00 -0.1824140080237E+01 -0.7396182740792E+00  0.1964403098182E-01
 0.2572052038045E+00 -0.1837960073200E+01 -0.7429547867313E+00  0.6103631180450E-03
 0.2625758870672E+00 -0.1852635358956E+01 -0.7473279498921E+00 -0.1815802395412E-01
 0.2666131176168E+00 -0.1868266087662E+01 -0.7527768940118E+00 -0.3644361080305E-01
 0.2692931258786E+00 -0.1884941978306E+01 -0.7593549587150E+00 -0.5402661570930E-01
 0.2705562665852E+00 -0.1902745248247E+01 -0.7671288194354E+00 -0.7067383083538E-01
 0.2703056426302E+00 -0.1921751721586E+01 -0.7761796551405E+00 -0.8612968361817E-01
 0.2684018668109E+00 -0.1942029823329E+01 -0.7866051375684E+00 -0.1001086637154E+00
 0.2646540543818E+00 -0.1963637824612E+01 -0.7985223699827E+00 -0.1122887666577E+00
 0.2588068723102E+00 -0.1986619315368E+01 -0.8120718461776E+00 -0.1223059050075E+00
 0.2505231685654E+00 -0.2010996731634E+01 -0.8274225725435E+00 -0.1297495432822E+00
 0.2393616266896E+00 -0.2036762587821E+01 -0.8447784495892E+00 -0.1341601932930E+00
 0.2247491001899E+00 -0.2063867882200E+01 -0.8643858253524E+00 -0.1350299190031E+00
 0.2059480956988E+00 -0.2092206910070E+01 -0.8865416405059E+00 -0.1318076812019E+00
 0.1820217867783E+00 -0.2121597469724E+01 -0.9116005686721E+00 -0.1239121487264E+00
 0.1518029721424E+00 -0.2151755074729E+01 -0.9399774858313E+00 -0.1107551707916E+00
 0.1138785406782E+00 -0.2182261081245E+01 -0.9721397916008E+00 -0.9177819768531E-01
 0.6660487679657E-01 -0.2212528422508E+01 -0.1008584063926E+01 -0.6649967106161E-01
 0.8187679037702E-02 -0.2241760854277E+01 -0.1049779389700E+01 -0.3456454659678E-01
-0.6307346335647E-01 -0.2268871308127E+01 -0.1096014039817E+01  0.4255563222898E-02
 0.2688981529966E+00 -0.1892156921184E+01 -0.7629316191130E+00  0.3148574122393E-01
 0.2766630805088E+00 -0.1911777502705E+01 -0.7685037764832E+00  0.1412963759799E-01
 0.2828034871363E+00 -0.1932450296926E+01 -0.7753339986346E+00 -0.2702050724022E-02
 0.2872930993066E+00 -0.1954286489014E+01 -0.7834868911751E+00 -0.1878533177052E-01
 0.2900527047097E+00 -0.1977378109969E+01 -0.7930429384606E+00 -0.3389165442747E-01
 0.2909534429651E+00 -0.2001801131982E+01 -0.8040984117983E+00 -0.4777990988345E-01
 0.2898150945334E+00 -0.2027615659438E+01 -0.8167662634335E+00 -0.6019041317877E-01
 0.2864004507757E+00 -0.2054864152750E+01 -0.8311779378198E+00 -0.7084074081290E-01
 0.2804064388467E+00 -0.2083567849415E+01 -0.8474858608177E+00 -0.7942336933649E-01
 0.2714521898800E+00 -0.2113721505865E+01 -0.8658665763167E+00 -0.8560531105831E-01
 0.2590642083968E+00 -0.2145286454561E+01 -0.8865244534486E+00 -0.8903020803261E-01
 0.2426589749913E+00 -0.2178181910498E+01 -0.9096957773809E+00 -0.8932362450811E-01
 0.2215238127663E+00 -0.2212274428755E+01 -0.9356527871417E+00 -0.8610253826471E-01
 0.1947977705505E+00 -0.2247365455407E+01 -0.9647068094359E+00 -0.7899017608115E-01
 0.1614557195561E+00 -0.2283177083879E+01 -0.9972090387024E+00 -0.6763713757604E-01
 0.1203002563950E+00 -0.2319336875308E+01 -0.1033547208268E+01 -0.5174873631645E-01
 0.6996622759196E-01 -0.2355364035995E+01 -0.1074136967225E+01 -0.3111605976878E-01
 0.8939880430995E-02 -0.2390661193885E+01 -0.1119409014484E+01 -0.5644228494442E-02
-0.6441287161077E-01 -0.2424517338428E+01 -0.1169797195751E+01  0.2463728216640E-01
-0.1520018934650E+00 -0.2456249525154E+01 -0.1225878163642E+01  0.5960994893352E-01
 0.2863853346001E+00 -0.1957149757570E+01 -0.7852592768041E+00  0.4461617166712E-01
 0.2949654450827E+00 -0.1981978594846E+01 -0.7928961783779E+00  0.2909886516702E-01
 0.3016158486562E+00 -0.2007967304208E+01 -0.8019851820751E+00  0.1439496402513E-01
 0.3062630738205E+00 -0.2035222918183E+01 -0.8126111247895E+00  0.7303227622081E-03
 0.3087708070413E+00 -0.2063824321466E+01 -0.8248751496873E+00 -0.1166518891627E-01
 0.3089425955866E+00 -0.2093824929473E+01 -0.8388946947987E+00 -0.2255249710989E-01
 0.3065205288843E+00 -0.2125252838044E+01 -0.8548041831369E+00 -0.3168030953995E-01
 0.3011808816267E+00 -0.2158109018201E+01 -0.8727562219765E+00 -0.3878436599311E-01
 0.2925273998700E+00 -0.2192363954879E+01 -0.8929231785896E+00 -0.4358903806740E-01
 0.2800828421835E+00 -0.2227952997634E+01 -0.9154989707397E+00 -0.4581150430943E-01
 0.2632794339815E+00 -0.2264770684090E+01 -0.9407008851653E+00 -0.4516889883119E-01
 0.2414491271787E+00 -0.2302664309310E+01 -0.9687711331447E+00 -0.4138895192077E-01
 0.2138149212896E+00 -0.2341427088248E+01 -0.9999777159340E+00 -0.3422463855282E-01
 0.1794849199625E+00 -0.2380791412275E+01 -0.1034614048763E+01 -0.2347311072717E-01
 0.1374509486862E+00 -0.2420423028153E+01 -0.1072996874628E+01 -0.8998546761831E-02
 0.8659292442977E-01 -0.2459917433211E+01 -0.1115462516298E+01  0.9242631874787E-02
 0.2568762153431E-01 -0.2498800531740E+01 -0.1162363064849E+01  0.3117730402213E-01
-0.4658424544364E-01 -0.2536535690279E+01 -0.1214066366711E+01  0.5659655788967E-01
-0.1316663266029E+00 -0.2572553071141E+01 -0.1270983113716E+01  0.8514520751048E-01
-0.2311506639034E+00 -0.2606240474235E+01 -0.1333573831543E+01  0.1162976809623E+00
 0.3028806148585E+00 -0.2018816500516E+01 -0.8064898642134E+00  0.5884088345513E-01
 0.3120375278340E+00 -0.2048200674772E+01 -0.8159966769913E+00  0.4528466275800E-01
 0.3189282733659E+00 -0.2078759695533E+01 -0.8271207663206E+00  0.3284861135598E-01
 0.3234315474064E+00 -0.2110582945687E+01 -0.8399611550616E+00  0.2175391538174E-01
 0.3253549941195E+00 -0.2143722093596E+01 -0.8546325345863E+00  0.1222253609610E-01
 0.3244384295906E+00 -0.2178193956261E+01 -0.8712650953252E+00  0.4480235219703E-02
 0.3203542082060E+00 -0.2213981303277E+01 -0.8900047324261E+00 -0.1243094527114E-02
 0.3127054951382E+00 -0.2251031934981E+01 -0.9110134244155E+00 -0.4715731455961E-02
 0.3010232463725E+00 -0.2289256490525E+01 -0.9344696223816E+00 -0.5708993950451E-02
 0.2847627642731E+00 -0.2328525485444E+01 -0.9605684765142E+00 -0.4004729024742E-02
 0.2633008121550E+00 -0.2368666092083E+01 -0.9895216790565E+00  0.5944287666210E-03
 0.2359343959619E+00 -0.2409459220017E+01 -0.1021556664715E+01  0.8251866105611E-02
 0.2018823874702E+00 -0.2450637531787E+01 -0.1056914915148E+01  0.1908083111987E-01
 0.1602909817596E+00 -0.2491885160832E+01 -0.1095849261385E+01  0.3312556988921E-01
 0.1102432931334E+00 -0.2532840035716E+01 -0.1138620466126E+01  0.5034049748153E-01
 0.5077183094774E-01 -0.2573099817788E+01 -0.1185494150808E+01  0.7056865733451E-01
-0.1912940270513E-01 -0.2612231902712E+01 -0.1236739810409E+01  0.9352093132847E-01
-0.1005005590004E+00 -0.2649788464157E+01 -0.1292635837605E+01  0.1187564362074E+00
-0.1944101786565E+00 -0.2685312614681E+01 -0.1353469709436E+01  0.1456592282164E+00
-0.3019237361424E+00 -0.2718326993763E+01 -0.1419517839455E+01  0.1734054933168E+00
 0.3183334432242E+00 -0.2076897156528E+01 -0.8265249431564E+00  0.7395715045285E-01
 0.3278248315859E+00 -0.2110136903918E+01 -0.8376866718712E+00  0.6244573584270E-01
 0.3346836840143E+00 -0.2144473289004E+01 -0.8506011121879E+00  0.5236979472248E-01
 0.3387428742858E+00 -0.2179966574303E+01 -0.8653751368132E+00  0.4393701876412E-01
 0.3397570202583E+00 -0.2216628885090E+01 -0.8821297742335E+00  0.3735070788748E-01
 0.3374076095298E+00 -0.2254428575959E+01 -0.9009998519366E+00  0.3281136812347E-01
 0.3313063927375E+00 -0.2293292682158E+01 -0.9221335536886E+00  0.3051475777764E-01
 0.3209974381293E+00 -0.2333107664207E+01 -0.9456918038577E+00  0.3064704283373E-01
 0.3059587164752E+00 -0.2373719078925E+01 -0.9718473678867E+00  0.3337754072089E-01
 0.2856042916055E+00 -0.2414930902664E+01 -0.1000783504659E+01  0.3884933450223E-01
 0.2592882712391E+00 -0.2456505235146E+01 -0.1032691970417E+01  0.4716793865074E-01
 0.2263116600926E+00 -0.2498163104331E+01 -0.1067770176084E+01  0.5838820737455E-01
 0.1859330822701E+00 -0.2539587108246E+01 -0.1106217389403E+01  0.7249977525822E-01
 0.1373838875472E+00 -0.2580426652414E+01 -0.1148230096575E+01  0.8941144742081E-01
 0.7988727132566E-01 -0.2620306554331E+01 -0.1193997059984E+01  0.1089349856118E+00
 0.1267983272558E-01 -0.2658839594494E+01 -0.1243695084877E+01  0.1307684651870E+00
-0.6496763891484E-01 -0.2695643433551E+01 -0.1297487200768E+01  0.1544785973098E+00
-0.1537301192353E+00 -0.2730358518403E+01 -0.1355521656252E+01  0.1794801559351E+00
-0.2542064651629E+00 -0.2762664584074E+01 -0.1417929389545E+01  0.2050113914208E+00
-0.3668957316754E+00 -0.2792297422888E+01 -0.1484820778879E+01  0.2301112730434E+00
 0.3327060571996E+00 -0.2131172246764E+01 -0.8452791069513E+00  0.8975852849526E-01
 0.3422893250283E+00 -0.2167532915896E+01 -0.8578644855318E+00  0.8033947437097E-01
 0.3488464614952E+00 -0.2204822090717E+01 -0.8723085435215E+00  0.7267307801495E-01
 0.3521686202016E+00 -0.2243060738685E+01 -0.8887192934330E+00  0.6694200507005E-01
 0.3519613477664E+00 -0.2282210456325E+01 -0.9072170787213E+00  0.6331885287575E-01
 0.3478537138912E+00 -0.2322181274002E+01 -0.9279339508987E+00  0.6196680490144E-01
 0.3394061761265E+00 -0.2362836790268E+01 -0.9510123862343E+00  0.6303553610394E-01
 0.3261172241898E+00 -0.2403997146416E+01 -0.9766035609691E+00  0.6665420255851E-01
 0.3074298440972E+00 -0.2445440839653E+01 -0.1004865165362E+01  0.7292261553776E-01
 0.2827390838676E+00 -0.2486906377969E+01 -0.1035958625600E+01  0.8190128266732E-01
 0.2514019950704E+00 -0.2528094649543E+01 -0.1070045544888E+01  0.9360082441473E-01
 0.2127510867331E+00 -0.2568672759290E+01 -0.1107283183293E+01  0.1079712456743E+00
 0.1661121884573E+00 -0.2608279990098E+01 -0.1147818863860E+01  0.1248915550260E+00
 0.1108272660105E+00 -0.2646536477801E+01 -0.1191783326519E+01  0.1441601529372E+00
 0.4628233698348E-01 -0.2683055116703E+01 -0.1239283203325E+01  0.1654860911833E+00
-0.2805986461102E-01 -0.2717457311554E+01 -0.1290393069525E+01  0.1884805545121E+00
-0.1126228290038E+00 -0.2749393053539E+01 -0.1345147461383E+01  0.2126466510980E+00
-0.2076784488560E+00 -0.2778568327456E+01 -0.1403535981307E+01  0.2373645095587E+00
-0.3133137645455E+00 -0.2804780128692E+01 -0.1465504126105E+01  0.2618703913852E+00
-0.4294197955052E+00 -0.2827962624104E+01 -0.1530969733333E+01  0.2852319958811E+00
 0.3459711633960E+00 -0.2181459975092E+01 -0.8626797393091E+00  0.1060387259406E+00
 0.3554050845330E+00 -0.2220183123866E+01 -0.8764456762636E+00  0.9872827722485E-01
 0.3613964691945E+00 -0.2259584000539E+01 -0.8921481374692E+00  0.9348472562426E-01
 0.3636997312779E+00 -0.2299633880607E+01 -0.9098890478767E+00  0.9045101459424E-01
 0.3619748790238E+00 -0.2340233467665E+01 -0.9297815343030E+00  0.8975619286761E-01
 0.3558039923533E+00 -0.2381226358483E+01 -0.9519485096663E+00  0.9151456094399E-01
 0.3447050265927E+00 -0.2422407642820E+01 -0.9765202271500E+00  0.9581893146418E-01
 0.3281434125072E+00 -0.2463529224455E+01 -0.1003631329070E+01  0.1027314688281E+00
 0.3055429783545E+00 -0.2504303578521E+01 -0.1033417479457E+01  0.1122738593177E+00
 0.2762978068611E+00 -0.2544407248570E+01 -0.1066011434900E+01  0.1244178168584E+00
 0.2397864115197E+00 -0.2583485020558E+01 -0.1101538343454E+01  0.1390766682340E+00
 0.1953893601450E+00 -0.2621155422350E+01 -0.1140110046345E+01  0.1560987042599E+00
 0.1425112869886E+00 -0.2657017965456E+01 -0.1181818135882E+01  0.1752629636110E+00
 0.8060823616816E-01 -0.2690662353393E+01 -0.1226725431984E+01  0.1962780078292E+00
 0.9221614542760E-02 -0.2721679790853E+01 -0.1274855339632E+01  0.2187839310374E+00
-0.7197890054963E-01 -0.2749676491500E+01 -0.1326178030900E+01  0.2423572045266E+00
-0.1631403602056E+00 -0.2774290667064E+01 -0.1380592579315E+01  0.2665167899709E+00
-0.2641563924957E+00 -0.2795216425858E+01 -0.1437905220979E+01  0.2907275970076E+00
-0.3746020185858E+00 -0.2812256241987E+01 -0.1497823378670E+01  0.3143917098959E+00
-0.4936890139605E+00 -0.2825398217516E+01 -0.1559970994837E+01  0.3368162881478E+00
 0.3581090422230E+00 -0.2227612201230E+01 -0.8786664825048E+00  0.1225953137179E+00
 0.3671537667289E+00 -0.2267926962554E+01 -0.8933633997719E+00  0.1173862198865E+00
 0.3723239057971E+00 -0.2308596931375E+01 -0.9100483197133E+00  0.1145505923998E+00
 0.3733403032386E+00 -0.2349530828380E+01 -0.9288095444605E+00  0.1141739397600E+00
 0.3698189532082E+00 -0.2390557998828E+01 -0.9497473490324E+00  0.1163291588105E+00
 0.3612991638471E+00 -0.2431449296811E+01 -0.9729705600250E+00  0.1210714459133E+00
 0.3472645354984E+00 -0.2471929035482E+01 -0.9985923124596E+00  0.1284274495386E+00
 0.3271591782924E+00 -0.2511682186603E+01 -0.1026725811302E+01  0.1383835320762E+00
 0.3004019325757E+00 -0.2550359404701E+01 -0.1057480009217E+01  0.1508751734708E+00
 0.2664006842721E+00 -0.2587581444187E+01 -0.1090954954393E+01  0.1657785845721E+00
 0.2245682164552E+00 -0.2622943884928E+01 -0.1127236561323E+01  0.1829053256430E+00
 0.1743406138913E+00 -0.2656022570966E+01 -0.1166390516867E+01  0.2020007056870E+00
 0.1151990769693E+00 -0.2686379759747E+01 -0.1208454917840E+01  0.2227468022918E+00
 0.4669624999391E-01 -0.2713570632011E+01 -0.1253430956369E+01  0.2447710254028E+00
-0.3151080719086E-01 -0.2737149421769E+01 -0.1301270304311E+01  0.2676612642823E+00
-0.1196168184893E+00 -0.2756674190057E+01 -0.1351856770588E+01  0.2909888526422E+00
-0.2176044291798E+00 -0.2771708239401E+01 -0.1404976950669E+01  0.3143407864755E+00
-0.3251438690665E+00 -0.2781817492542E+01 -0.1460271836252E+01  0.3373615547618E+00
-0.4414158535028E+00 -0.2786559802917E+01 -0.1517148554669E+01  0.3597966572282E+00
-0.5649435519780E+00 -0.2785594622317E+01 -0.1574752937924E+01  0.3814943304785E+00
 0.3691040647158E+00 -0.2269509899826E+01 -0.8931907402364E+00  0.1392344281760E+00
 0.3775209881757E+00 -0.2310645969513E+01 -0.9085687389241E+00  0.1361071180968E+00
 0.3816267472350E+00 -0.2351755401013E+01 -0.9259604649272E+00  0.1356442559658E+00
 0.3811056838258E+00 -0.2392666240430E+01 -0.9454334592061E+00  0.1378553196814E+00
 0.3755276543144E+00 -0.2433126201702E+01 -0.9670713148193E+00  0.1427465799699E+00
 0.3643923092653E+00 -0.2472829353033E+01 -0.9909654080573E+00  0.1503061833417E+00
 0.3471571112104E+00 -0.2511430213608E+01 -0.1017208355547E+01  0.1604869548729E+00
 0.3232568479237E+00 -0.2548551787592E+01 -0.1045888618991E+01  0.1731913347262E+00
 0.2921192897031E+00 -0.2583790749753E+01 -0.1077085583492E+01  0.1882599692376E+00
 0.2531795184349E+00 -0.2616721620217E+01 -0.1110864785020E+01  0.2054646672190E+00
 0.2058942967127E+00 -0.2646900702642E+01 -0.1147273007877E+01  0.2245062716630E+00
 0.1497571053497E+00 -0.2673869818618E+01 -0.1186332972227E+01  0.2450180995572E+00
 0.8431413015008E-01 -0.2697159270110E+01 -0.1228037212666E+01  0.2665758392636E+00
 0.9181583237886E-02 -0.2716288874785E+01 -0.1272340423800E+01  0.2887151991690E+00
-0.7593460001175E-01 -0.2730765263824E+01 -0.1319148932657E+01  0.3109593500634E+00
-0.1712134616599E+00 -0.2740072158423E+01 -0.1368304237968E+01  0.3328596822438E+00
-0.2766808014626E+00 -0.2743648400288E+01 -0.1419554721222E+01  0.3540562481941E+00
-0.3921308668288E+00 -0.2740836442945E+01 -0.1472494631859E+01  0.3743702334826E+00
-0.5169297536427E+00 -0.2730763324030E+01 -0.1526415742635E+01  0.3939521861426E+00
-0.6493348696779E+00 -0.2711977972476E+01 -0.1579817031805E+01  0.4135044036682E+00
 0.3789404284025E+00 -0.2307060711432E+01 -0.9062165307255E+00  0.1557793049646E+00
 0.3864956670507E+00 -0.2348264055124E+01 -0.9220311400559E+00  0.1547154480407E+00
 0.3893163546186E+00 -0.2389003897519E+01 -0.9398531427792E+00  0.1565756373792E+00
 0.3870343276190E+00 -0.2429006504991E+01 -0.9597269209305E+00  0.1612794928608E+00
 0.3791679772213E+00 -0.2467928983912E+01 -0.9817176706545E+00  0.1687605275218E+00
 0.3651809971640E+00 -0.2505387426366E+01 -0.1005897019174E+01  0.1789349018034E+00
 0.3445148422066E+00 -0.2540971436107E+01 -0.1032334596515E+01  0.1916755635908E+00
 0.3166092996640E+00 -0.2574251265267E+01 -0.1061091721142E+01  0.2067930729457E+00
 0.2809170810512E+00 -0.2604781828934E+01 -0.1092216428735E+01  0.2240232584058E+00
 0.2369153631806E+00 -0.2632105522777E+01 -0.1125739372155E+01  0.2430214878769E+00
 0.1841152871740E+00 -0.2655754407913E+01 -0.1161670383801E+01  0.2633634437517E+00
 0.1220692419604E+00 -0.2675251339150E+01 -0.1199995582635E+01  0.2845525717478E+00
 0.5037493687773E-01 -0.2690108844563E+01 -0.1240674933465E+01  0.3060347724830E+00
-0.3132545526881E-01 -0.2699823873771E+01 -0.1283640181393E+01  0.3272215131385E+00
-0.1233535852059E+00 -0.2703865582072E+01 -0.1328793005250E+01  0.3475236012698E+00
-0.2260150674906E+00 -0.2701652235654E+01 -0.1376003628988E+01  0.3663999122677E+00
-0.3396367039223E+00 -0.2692508463603E+01 -0.1425108225122E+01  0.3834298509910E+00
-0.4646380050194E+00 -0.2675592866344E+01 -0.1475908505797E+01  0.3984288906065E+00
-0.6016313601273E+00 -0.2649732785702E+01 -0.1528141144664E+01  0.4116617335993E+00
-0.7513377195163E+00 -0.2612875603986E+01 -0.1581180258036E+01  0.4243464014632E+00
 0.3875915736777E+00 -0.2340210074969E+01 -0.9177306932791E+00  0.1720851870313E+00
 0.3940812271970E+00 -0.2380745046668E+01 -0.9337319927831E+00  0.1730774773955E+00
 0.3954460313372E+00 -0.2420308204892E+01 -0.9516852191571E+00  0.1771961741850E+00
 0.3912391003010E+00 -0.2458505601537E+01 -0.9716152531165E+00  0.1842680615689E+00
 0.3809239528981E+00 -0.2494896073478E+01 -0.9935668941525E+00  0.1941535993527E+00
 0.3639362666409E+00 -0.2529020347896E+01 -0.1017589515609E+01  0.2066955339666E+00
 0.3397171736828E+00 -0.2560412634776E+01 -0.1043726864066E+01  0.2216825698583E+00
 0.3077315005247E+00 -0.2588604833711E+01 -0.1072010463879E+01  0.2388258061763E+00
 0.2674784032451E+00 -0.2613128065216E+01 -0.1102455338330E+01  0.2577457590644E+00
 0.2184972809580E+00 -0.2633513609339E+01 -0.1135057671460E+01  0.2779681775275E+00
 0.1603692970507E+00 -0.2649293537307E+01 -0.1169794389954E+01  0.2989273831156E+00
 0.9271310818427E-01 -0.2660000171434E+01 -0.1206624916667E+01  0.3199763725349E+00
 0.1517189447172E-01 -0.2665162763830E+01 -0.1245495705439E+01  0.3404033936189E+00
-0.7261305296414E-01 -0.2664299220476E+01 -0.1286348765254E+01  0.3594551808153E+00
-0.1710502847951E+00 -0.2656900415521E+01 -0.1329136825778E+01  0.3763675780923E+00
-0.2806819619722E+00 -0.2642404079790E+01 -0.1373850436144E+01  0.3904049440514E+00
-0.4023370990732E+00 -0.2620159371795E+01 -0.1420573337705E+01  0.4009105605956E+00
-0.5374174784978E+00 -0.2589377916568E+01 -0.1469593831954E+01  0.4073724849438E+00
-0.6885925926527E+00 -0.2549169245340E+01 -0.1521748059997E+01  0.4095081091574E+00
-0.8618550576560E+00 -0.2498934902418E+01 -0.1579571277228E+01  0.4074296000466E+00
 0.3950262735565E+00 -0.2368933852835E+01 -0.9277365599078E+00  0.1880316660566E+00
 0.4003222103191E+00 -0.2408054374586E+01 -0.9436341148121E+00  0.1910755362524E+00
 0.4001441968189E+00 -0.2445594527178E+01 -0.9613616528304E+00  0.1973620513914E+00
 0.3939516139039E+00 -0.2481019564818E+01 -0.9809219344415E+00  0.2066336823672E+00
 0.3811558660919E+00 -0.2513788002712E+01 -0.1002337101669E+01  0.2186850417241E+00
 0.3611811622557E+00 -0.2543374779343E+01 -0.1025630997430E+01  0.2332887302593E+00
 0.3334926973759E+00 -0.2569276099667E+01 -0.1050818196412E+01  0.2501479371324E+00
 0.2976086406171E+00 -0.2591007933563E+01 -0.1077897664951E+01  0.2688694126599E+00
 0.2531038462301E+00 -0.2608103904732E+01 -0.1106850024688E+01  0.2889512598255E+00
 0.1996077843939E+00 -0.2620114576297E+01 -0.1137638189309E+01  0.3097814070580E+00
 0.1367960059981E+00 -0.2626607906614E+01 -0.1170211590321E+01  0.3306438189832E+00
 0.6437226818908E-01 -0.2627169520663E+01 -0.1204514705608E+01  0.3507303389800E+00
-0.1796351727127E-01 -0.2621400931968E+01 -0.1240501287996E+01  0.3691564970709E+00
-0.1105690201187E+00 -0.2608913881492E+01 -0.1278156960515E+01  0.3849795721901E+00
-0.2139466595988E+00 -0.2589319374126E+01 -0.1317535032509E+01  0.3972163403290E+00
-0.3288852546685E+00 -0.2562212659788E+01 -0.1358816016348E+01  0.4048552908760E+00
-0.4566920107570E+00 -0.2527159078504E+01 -0.1402410008396E+01  0.4068506208136E+00
-0.5996223133406E+00 -0.2483729621936E+01 -0.1449175405904E+01  0.4020635108845E+00
-0.7616086711991E+00 -0.2431601438546E+01 -0.1500808747774E+01  0.3890531053658E+00
-0.9505234520098E+00 -0.2371775126784E+01 -0.1561480328072E+01  0.3652271613811E+00
 0.4012367592092E+00 -0.2393204353362E+01 -0.9362247668774E+00  0.2034916986624E+00
 0.4052925379109E+00 -0.2430142338521E+01 -0.9516794038728E+00  0.2085580331986E+00
 0.4035722925774E+00 -0.2464758171978E+01 -0.9687573608611E+00  0.2168739532571E+00
 0.3954340905419E+00 -0.2496363091106E+01 -0.9874366277606E+00  0.2281184673442E+00
 0.3802495334100E+00 -0.2524324893351E+01 -0.1007715416617E+01  0.2420373943736E+00
 0.3574568392092E+00 -0.2548075994302E+01 -0.1029591000282E+01  0.2583431937790E+00
 0.3265776161030E+00 -0.2567104661418E+01 -0.1053047708627E+01  0.2766577165799E+00
 0.2872184598048E+00 -0.2580943889453E+01 -0.1078050949201E+01  0.2964845554333E+00
 0.2390654012856E+00 -0.2589164217140E+01 -0.1104546440650E+01  0.3172004387547E+00
 0.1818728354466E+00 -0.2591371380072E+01 -0.1132464313102E+01  0.3380582396539E+00
 0.1154448897150E+00 -0.2587207273557E+01 -0.1161728317459E+01  0.3581964704086E+00
 0.3960518900340E-01 -0.2576351576864E+01 -0.1192270799271E+01  0.3766514316519E+00
-0.4585092065116E-01 -0.2558521494293E+01 -0.1224055031919E+01  0.3923684602451E+00
-0.1412296435985E+00 -0.2533467526401E+01 -0.1257107666711E+01  0.4042078043831E+00
-0.2470481127628E+00 -0.2500964220375E+01 -0.1291565793299E+01  0.4109380307560E+00
-0.3641916850277E+00 -0.2460795913279E+01 -0.1327744167836E+01  0.4112039415096E+00
-0.4941317099077E+00 -0.2412744577557E+01 -0.1366231851643E+01  0.4034427616651E+00
-0.6391610356700E+00 -0.2356574816252E+01 -0.1407995846832E+01  0.3856878087457E+00
-0.8026503274225E+00 -0.2292165245253E+01 -0.1454563315468E+01  0.3551130430846E+00
-0.9864763663811E+00 -0.2218203807797E+01 -0.1506199678044E+01  0.3070188230071E+00
 0.4062294909841E+00 -0.2413025837879E+01 -0.9431942806486E+00  0.2183327834816E+00
 0.4090782427820E+00 -0.2446986557719E+01 -0.9578169055912E+00  0.2253357736214E+00
 0.4058988280335E+00 -0.2477709787700E+01 -0.9737511485733E+00  0.2354688590004E+00
 0.3959478356955E+00 -0.2504354706495E+01 -0.9909512267622E+00  0.2483855759842E+00
 0.3785794466612E+00 -0.2526226999011E+01 -0.1009394347044E+01  0.2638113290986E+00
 0.3532795045914E+00 -0.2542756877188E+01 -0.1029054362510E+01  0.2814154438578E+00
 0.3196639844413E+00 -0.2553466169302E+01 -0.1049887024221E+01  0.3007484132038E+00
 0.2774666010420E+00 -0.2557942805536E+01 -0.1071823813394E+01  0.3212189639790E+00
 0.2265234122999E+00 -0.2555826684755E+01 -0.1094772535277E+01  0.3420930584950E+00
 0.1667537329686E+00 -0.2546805315942E+01 -0.1118624241160E+01  0.3625031894021E+00
 0.9813438446098E-01 -0.2530614125408E+01 -0.1143265475345E+01  0.3814604546910E+00
 0.2066259531586E-01 -0.2507036789653E+01 -0.1168595868374E+01  0.3978638955461E+00
-0.6569760669977E-01 -0.2475901879469E+01 -0.1194551755470E+01  0.4105016106080E+00
-0.1610908658741E+00 -0.2437073528120E+01 -0.1221137262080E+01  0.4180364035310E+00
-0.2658711688627E+00 -0.2390434595443E+01 -0.1248463706057E+01  0.4189650721314E+00
-0.3807225007827E+00 -0.2335860713906E+01 -0.1276794107665E+01  0.4115347038231E+00
-0.5067582210996E+00 -0.2273175745525E+01 -0.1306568961000E+01  0.3935909694229E+00
-0.6454555655954E+00 -0.2202060850499E+01 -0.1338332712170E+01  0.3623298889298E+00
-0.7977664552274E+00 -0.2121687046324E+01 -0.1372143142249E+01  0.3139212959225E+00
-0.9626640936928E+00 -0.2030770338042E+01 -0.1406914179347E+01  0.2434321865256E+00
 0.4100326636301E+00 -0.2428432911318E+01 -0.9486481140073E+00  0.2324097821834E+00
 0.4117734946691E+00 -0.2458591592856E+01 -0.9620045037076E+00  0.2411735380413E+00
 0.4072801695708E+00 -0.2484381950638E+01 -0.9762378346256E+00  0.2528159401824E+00
 0.3957169541313E+00 -0.2504839384518E+01 -0.9912875397676E+00  0.2670241291401E+00
 0.3764524350744E+00 -0.2519263386371E+01 -0.1007121144555E+01  0.2835411225238E+00
 0.3490597170777E+00 -0.2527139244956E+01 -0.1023697375506E+01  0.3020139705299E+00
 0.3132882221532E+00 -0.2528069630260E+01 -0.1040947259170E+01  0.3219349431972E+00
 0.2690369171336E+00 -0.2521729306649E+01 -0.1058765420387E+01  0.3426315111679E+00
 0.2163299737904E+00 -0.2507844994340E+01 -0.1077012056927E+01  0.3632773786932E+00
 0.1552933480414E+00 -0.2486189240468E+01 -0.1095521066662E+01  0.3829085617015E+00
 0.8612732663040E-01 -0.2456578901054E+01 -0.1114112237153E+01  0.4004356181485E+00
 0.9071694073729E-02 -0.2418870477663E+01 -0.1132605425414E+01  0.4146459522719E+00
-0.7563934378570E-01 -0.2372948866896E+01 -0.1150836456102E+01  0.4241897730539E+00
-0.1678325275175E+00 -0.2318708032468E+01 -0.1168674060229E+01  0.4275409014484E+00
-0.2674556061998E+00 -0.2256023063770E+01 -0.1186034971878E+01  0.4229203864674E+00
-0.3746236078457E+00 -0.2184712491205E+01 -0.1202887963503E+01  0.4081686902470E+00
-0.4895997302416E+00 -0.2104482147521E+01 -0.1219218479456E+01  0.3805591759935E+00
-0.6125921344872E+00 -0.2014821967314E+01 -0.1234884624715E+01  0.3365863975287E+00
-0.7429843425196E+00 -0.1914663378453E+01 -0.1249094425689E+01  0.2719719893868E+00
-0.8784281591626E+00 -0.1802265645448E+01 -0.1259926084971E+01  0.1822291567446E+00
 0.4126930063771E+00 -0.2439505383198E+01 -0.9526018146896E+00  0.2455597464972E+00
 0.4134781100667E+00 -0.2464993144519E+01 -0.9642120637469E+00  0.2557829220849E+00
 0.4078599145007E+00 -0.2484719546858E+01 -0.9761240247323E+00  0.2685149736002E+00
 0.3949318767993E+00 -0.2497673148621E+01 -0.9882883952498E+00  0.2835552462060E+00
 0.3741204624188E+00 -0.2503233107838E+01 -0.1000682940809E+01  0.3007046883276E+00
 0.3451246078440E+00 -0.2501011925899E+01 -0.1013267036916E+01  0.3196051175637E+00
 0.3078625410370E+00 -0.2490732867280E+01 -0.1025949050732E+01  0.3397015197394E+00
 0.2624295774428E+00 -0.2472170753317E+01 -0.1038578350026E+01  0.3602559360691E+00
 0.2090700318949E+00 -0.2445130931930E+01 -0.1050948620351E+01  0.3803738246880E+00
 0.1481528805793E+00 -0.2409447003336E+01 -0.1062808235000E+01  0.3990249766137E+00
 0.8015002832670E-01 -0.2364976397365E+01 -0.1073868390724E+01  0.4150521567341E+00
 0.5613735508030E-02 -0.2311588458828E+01 -0.1083808117212E+01  0.4271633364801E+00
-0.7484519689722E-01 -0.2249143479372E+01 -0.1092274675076E+01  0.4339016089554E+00
-0.1605723100071E+00 -0.2177463480281E+01 -0.1098876818648E+01  0.4335841725613E+00
-0.2508652448615E+00 -0.2096297061504E+01 -0.1103166281194E+01  0.4241995879132E+00
-0.3449310682027E+00 -0.2005281937306E+01 -0.1104600109787E+01  0.4032539699356E+00
-0.4418005787124E+00 -0.1903920959800E+01 -0.1102489120305E+01  0.3675710043790E+00
-0.5402514220231E+00 -0.1791590271175E+01 -0.1095965593023E+01  0.3131078131624E+00
-0.6395280663524E+00 -0.1667919603058E+01 -0.1084500401872E+01  0.2350397841033E+00
-0.7385857902659E+00 -0.1531104235524E+01 -0.1066754309416E+01  0.1288861201606E+00
 0.4142692269689E+00 -0.2446372689140E+01 -0.9550886247979E+00  0.2575851525946E+00
 0.4142955591961E+00 -0.2466228718886E+01 -0.9644085826079E+00  0.2688040199151E+00
 0.4077593790153E+00 -0.2478650504127E+01 -0.9733188263337E+00  0.2820881945667E+00
 0.3937476315792E+00 -0.2482702129024E+01 -0.9818086113088E+00  0.2974340227167E+00
 0.3717830545319E+00 -0.2477976188545E+01 -0.9899107704752E+00  0.3147275482181E+00
 0.3417245645071E+00 -0.2464280791978E+01 -0.9976014243810E+00  0.3336067756613E+00
 0.3036790576411E+00 -0.2441478069239E+01 -0.1004765532902E+01  0.3534732907043E+00
 0.2579591024177E+00 -0.2409421837777E+01 -0.1011187483054E+01  0.3735417402826E+00
 0.2050461218544E+00 -0.2367964552380E+01 -0.1016571659769E+01  0.3928793090503E+00
 0.1455730011447E+00 -0.2316959595029E+01 -0.1020551696537E+01  0.4104254723637E+00
 0.8031341968786E-01 -0.2256252991496E+01 -0.1022691596156E+01  0.4249937794713E+00
 0.1017920173579E-01 -0.2185663224892E+01 -0.1022477488290E+01  0.4352544994331E+00
-0.6376848931212E-01 -0.2104951920768E+01 -0.1019298590152E+01  0.4396936109976E+00
-0.1402820255873E+00 -0.2013788489982E+01 -0.1012413139750E+01  0.4365408960130E+00
-0.2178468199889E+00 -0.1911712987221E+01 -0.1000893106850E+01  0.4236584500668E+00
-0.2945445568892E+00 -0.1798107588025E+01 -0.9835465056150E+00  0.3983818478590E+00
-0.3678750378827E+00 -0.1672192945070E+01 -0.9588319495558E+00  0.3573101429253E+00
-0.4347758888683E+00 -0.1533151221533E+01 -0.9249257395427E+00  0.2960446940384E+00
-0.4924869363909E+00 -0.1380412758032E+01 -0.8802628541459E+00  0.2087806136747E+00
-0.5464783147414E+00 -0.1217137527564E+01 -0.8288994437812E+00  0.8831127255699E-01
 0.4148529035918E+00 -0.2449227000628E+01 -0.9561558231819E+00  0.2682472578072E+00
 0.4142125375137E+00 -0.2462527965423E+01 -0.9627082486755E+00  0.2798345472580E+00
 0.4068800779776E+00 -0.2466424159428E+01 -0.9679857158265E+00  0.2930631807733E+00
 0.3919855493178E+00 -0.2460312125451E+01 -0.9721134883168E+00  0.3081904845211E+00
 0.3691893150403E+00 -0.2444148128643E+01 -0.9752306399196E+00  0.3251710582097E+00
 0.3385004476431E+00 -0.2417990634932E+01 -0.9773603855470E+00  0.3436072763647E+00
 0.3002351075358E+00 -0.2381777589236E+01 -0.9783249639176E+00  0.3628550029995E+00
 0.2549200671772E+00 -0.2335392147803E+01 -0.9778218754139E+00  0.3821045191166E+00
 0.2032688821837E+00 -0.2278688109818E+01 -0.9754470345138E+00  0.4004165114200E+00
 0.1461713505176E+00 -0.2211492955781E+01 -0.9707011520118E+00  0.4167332791351E+00
 0.8469644502840E-01 -0.2133590073999E+01 -0.9629800031739E+00  0.4298723525961E+00
 0.2011038641123E-01 -0.2044689190012E+01 -0.9515520352787E+00  0.4385028815825E+00
-0.4607947519722E-01 -0.1944389516715E+01 -0.9355204238261E+00  0.4411011978444E+00
-0.1120384663832E+00 -0.1832139568002E+01 -0.9137636738434E+00  0.4358801083267E+00
-0.1754545482671E+00 -0.1707198668817E+01 -0.8848470097854E+00  0.4206852893462E+00
-0.2332998749983E+00 -0.1568604870926E+01 -0.8468952284366E+00  0.3928490469952E+00
-0.2815040190421E+00 -0.1415161189202E+01 -0.7974326458520E+00  0.3489774872447E+00
-0.3145286920532E+00 -0.1245378565376E+01 -0.7331564091323E+00  0.2845687490827E+00
-0.3249870429606E+00 -0.1057299991383E+01 -0.6496749044935E+00  0.1930494604561E+00
-0.3061792938314E+00 -0.8486869833511E+00 -0.5427871488991E+00  0.6210432600936E-01
 0.4144331983899E+00 -0.2448521116624E+01 -0.9560213191453E+00  0.2772810193494E+00
 0.4131294280365E+00 -0.2454285952875E+01 -0.9593435642410E+00  0.2884397710515E+00
 0.4050383578077E+00 -0.2448389126713E+01 -0.9603748589495E+00  0.3010186030493E+00
 0.3894807935891E+00 -0.2430954838968E+01 -0.9594927988943E+00  0.3154962649504E+00
 0.3660818128600E+00 -0.2402605116817E+01 -0.9571659504322E+00  0.3317661511781E+00
 0.3350840961186E+00 -0.2363416612132E+01 -0.9533162801086E+00  0.3493424048846E+00
 0.2969863403177E+00 -0.2313312860694E+01 -0.9476734621731E+00  0.3675517313642E+00
 0.2525066861362E+00 -0.2252152072970E+01 -0.9398333294283E+00  0.3855877265022E+00
 0.2025575302695E+00 -0.2179754971253E+01 -0.9292827949054E+00  0.4025274488140E+00
 0.1482441334657E+00 -0.2095889155652E+01 -0.9153931581059E+00  0.4173300804726E+00
 0.9087602205971E-01 -0.2000238025065E+01 -0.8974001391363E+00  0.4288230599447E+00
 0.3199873804171E-01 -0.1892361474797E+01 -0.8743704840574E+00  0.4356741697195E+00
-0.2654237492152E-01 -0.1771652954502E+01 -0.8451518026856E+00  0.4363464126276E+00
-0.8248836901272E-01 -0.1637296677103E+01 -0.8082989696243E+00  0.4290320078666E+00
-0.1329769958193E+00 -0.1488228947728E+01 -0.7619667915347E+00  0.4115609413979E+00
-0.1742398892074E+00 -0.1323106857832E+01 -0.7037529693236E+00  0.3812746874922E+00
-0.2011024695650E+00 -0.1140262064013E+01 -0.6304413291826E+00  0.3348319770078E+00
-0.2060778236580E+00 -0.9375756483720E+00 -0.5375171304908E+00  0.2678309484338E+00
-0.1770018396039E+00 -0.7118035965697E+00 -0.4177385539421E+00  0.1738396196120E+00
-0.8465269787235E-01 -0.4526999546468E+00 -0.2525557460435E+00  0.4023227152956E-01
 0.4127367059974E+00 -0.2445075594155E+01 -0.9551992750114E+00  0.2843051116485E+00
 0.4106950717842E+00 -0.2441765433575E+01 -0.9546030676203E+00  0.2940368631269E+00
 0.4023876221536E+00 -0.2424104942972E+01 -0.9502071383746E+00  0.3056129596814E+00
 0.3863121044116E+00 -0.2394759382348E+01 -0.9439702182360E+00  0.3191478573364E+00
 0.3625731216556E+00 -0.2353947133673E+01 -0.9359457832743E+00  0.3342898216854E+00
 0.3315569653383E+00 -0.2301593351257E+01 -0.9259170990332E+00  0.3505119326515E+00
 0.2939217806281E+00 -0.2237551451635E+01 -0.9135059430561E+00  0.3671592764109E+00
 0.2505331150539E+00 -0.2161657151735E+01 -0.8982282949617E+00  0.3834566068142E+00
 0.2024516539338E+00 -0.2073707388329E+01 -0.8794901929348E+00  0.3985064773677E+00
 0.1509324159139E+00 -0.1973427378361E+01 -0.8565726301777E+00  0.4112796676032E+00
 0.9743957547037E-01 -0.1860433692589E+01 -0.8286072329439E+00  0.4205957306048E+00
 0.4368200335569E-01 -0.1734198468563E+01 -0.7945427366321E+00  0.4250909354107E+00
-0.8319594827253E-02 -0.1594018965281E+01 -0.7530991213406E+00  0.4231713107442E+00
-0.5611803229773E-01 -0.1438998894566E+01 -0.7027049538437E+00  0.4129492048523E+00
-0.9665321947780E-01 -0.1268050801538E+01 -0.6414108882506E+00  0.3921623141164E+00
-0.1259495566863E+00 -0.1079929614211E+01 -0.5667632088841E+00  0.3580724337497E+00
-0.1385988246879E+00 -0.8733112324148E+00 -0.4755977256320E+00  0.3073335798487E+00
-0.1267272854549E+00 -0.6469211720396E+00 -0.3636147741002E+00  0.2357973581393E+00
-0.7768260899630E-01 -0.3999541614255E+00 -0.2244892815289E+00  0.1382533620704E+00
 0.3495044330364E-01 -0.1339824507442E+00 -0.4654504337901E-01  0.9142729099969E-02
</DataArray>
<DataArray type="Float64" Name="S_Mises" NumberOfComponents="1" ComponentName0="S_Mises" format="ascii">
 0.2794415062835E+01
 0.2656046982891E+01
 0.2527309812828E+01
 0.2506674491348E+01
 0.2487155457227E+01
 0.2471664107074E+01
 0.2453783324249E+01
 0.2432780650450E+01
 0.2408116373860E+01
 0.2379784702296E+01
 0.2347886240750E+01
 0.2312570323765E+01
 0.2273974612701E+01
 0.2232205094496E+01
 0.2187326937251E+01
 0.2139364480336E+01
 0.2088306692835E+01
 0.2034121114510E+01
 0.1976765769059E+01
 0.1916220182076E+01
 0.1852522977759E+01
 0.1785854568841E+01
 0.1716722986732E+01
 0.1645945633303E+01
 0.1572871084818E+01
 0.1495118142745E+01
 0.1410908931282E+01
 0.1320186538274E+01
 0.1224523223900E+01
 0.1126600956916E+01
 0.1029710154440E+01
 0.9374466847414E+00
 0.8535598101122E+00
 0.7827140483866E+00
 0.7313831949989E+00
 0.7063437019922E+00
 0.7178073474630E+00
 0.7670429024172E+00
 0.9253906809383E+00
 0.9542011941747E+00
 0.2128876045744E+01
 0.2411950630423E+01
 0.2572770446335E+01
 0.2471309541082E+01
 0.2421569111634E+01
 0.2396366318552E+01
 0.2374469520531E+01
 0.2353330545482E+01
 0.2330314476128E+01
 0.2304659239909E+01
 0.2276005632167E+01
 0.2244275013397E+01
 0.2209487251574E+01
 0.2171697468576E+01
 0.2130957762544E+01
 0.2087300693446E+01
 0.2040733668940E+01
 0.1991240949046E+01
 0.1938792600093E+01
 0.1883357933872E+01
 0.1824927203897E+01
 0.1763546384037E+01
 0.1699364717841E+01
 0.1632576845618E+01
 0.1563162850719E+01
 0.1490621728634E+01
 0.1414089480468E+01
 0.1332932367715E+01
 0.1247337321240E+01
 0.1158472009212E+01
 0.1068315369920E+01
 0.9793961711994E+00
 0.8946157742623E+00
 0.8172476269519E+00
 0.7510633992095E+00
 0.7001771404358E+00
 0.6693160843444E+00
 0.6605341011055E+00
 0.6828316943281E+00
 0.7045784332902E+00
 0.6275613504133E+00
 0.1527345942845E+01
 0.2172634549091E+01
 0.2395505947433E+01
 0.2384205734991E+01
 0.2332948850492E+01
 0.2302480849478E+01
 0.2277368243723E+01
 0.2253544134036E+01
 0.2228948913194E+01
 0.2202434382734E+01
 0.2173508411833E+01
 0.2141947837877E+01
 0.2107677954565E+01
 0.2070685007819E+01
 0.2030974698307E+01
 0.1988549507597E+01
 0.1943399367856E+01
 0.1895500208127E+01
 0.1844820070297E+01
 0.1791329061231E+01
 0.1735014792989E+01
 0.1675903603523E+01
 0.1614046012194E+01
 0.1549373868275E+01
 0.1481609422167E+01
 0.1410490582169E+01
 0.1335919344694E+01
 0.1257948443653E+01
 0.1176961342356E+01
 0.1093865815527E+01
 0.1010116491959E+01
 0.9276234599142E+00
 0.8486729601761E+00
 0.7758755935084E+00
 0.7119218791005E+00
 0.6593663018808E+00
 0.6199062889307E+00
 0.5939145043094E+00
 0.5774504086756E+00
 0.5221361742548E+00
 0.5171912367621E+00
 0.1244966192832E+01
 0.1995094731673E+01
 0.2218429816183E+01
 0.2265999738871E+01
 0.2236353576219E+01
 0.2205625445291E+01
 0.2179297476120E+01
 0.2154001713600E+01
 0.2128306193406E+01
 0.2101189660324E+01
 0.2072101773564E+01
 0.2040760367266E+01
 0.2007028277363E+01
 0.1970843174993E+01
 0.1932174080964E+01
 0.1890997871182E+01
 0.1847287620682E+01
 0.1801008843958E+01
 0.1752122859381E+01
 0.1700592601475E+01
 0.1646391157250E+01
 0.1589503366848E+01
 0.1529873011184E+01
 0.1467289069287E+01
 0.1401441504631E+01
 0.1332276759542E+01
 0.1260102510372E+01
 0.1185347439691E+01
 0.1108515058353E+01
 0.1030329493704E+01
 0.9518459422874E+00
 0.8744670307853E+00
 0.7999100647876E+00
 0.7300802300393E+00
 0.6667358770441E+00
 0.6110524298667E+00
 0.5630634020246E+00
 0.5210842042213E+00
 0.4738707348941E+00
 0.4087569259983E+00
 0.4815575808454E+00
 0.1042429474146E+01
 0.1849476988255E+01
 0.2055980098285E+01
 0.2135115277590E+01
 0.2130115340234E+01
 0.2105481094707E+01
 0.2079875523623E+01
 0.2054294261083E+01
 0.2028105646558E+01
 0.2000698565815E+01
 0.1971613784121E+01
 0.1940576190931E+01
 0.1907427704705E+01
 0.1872078691921E+01
 0.1834473524580E+01
 0.1794569219376E+01
 0.1752323790620E+01
 0.1707691195577E+01
 0.1660622311062E+01
 0.1611066755058E+01
 0.1558973881409E+01
 0.1504278391686E+01
 0.1446841703957E+01
 0.1386396235177E+01
 0.1322679958403E+01
 0.1255792280193E+01
 0.1186248453481E+01
 0.1114659921810E+01
 0.1041577310524E+01
 0.9675781910736E+00
 0.8934049852966E+00
 0.8200384167631E+00
 0.7486816826494E+00
 0.6806094960996E+00
 0.6168097688013E+00
 0.5575331392308E+00
 0.5019998868979E+00
 0.4472467124482E+00
 0.3867378479619E+00
 0.3390676456509E+00
 0.4547378293127E+00
 0.8744731228220E+00
 0.1722360340930E+01
 0.1908152270957E+01
 0.2001840993105E+01
 0.2017193305149E+01
 0.2001829772526E+01
 0.1978998643712E+01
 0.1954174697934E+01
 0.1928125907250E+01
 0.1900776650015E+01
 0.1871892029325E+01
 0.1841270163695E+01
 0.1808771079262E+01
 0.1774300623787E+01
 0.1737791297717E+01
 0.1699186991296E+01
 0.1658433310634E+01
 0.1615472387241E+01
 0.1570242084002E+01
 0.1522674312104E+01
 0.1472689530856E+01
 0.1420174915011E+01
 0.1364938716115E+01
 0.1306705524905E+01
 0.1245279625867E+01
 0.1180858850270E+01
 0.1114048483615E+01
 0.1045523771416E+01
 0.9758258956946E+00
 0.9054030660093E+00
 0.8347459655607E+00
 0.7644846376187E+00
 0.6953848534169E+00
 0.6282085626045E+00
 0.5633951300881E+00
 0.5007409955522E+00
 0.4392748996005E+00
 0.3771238689435E+00
 0.3162406694331E+00
 0.2896994709404E+00
 0.4169032848292E+00
 0.7273653512002E+00
 0.1606885071629E+01
 0.1772441088246E+01
 0.1870838013905E+01
 0.1900895737298E+01
 0.1895288379755E+01
 0.1876687475437E+01
 0.1853544386736E+01
 0.1828214394353E+01
 0.1801278801599E+01
 0.1772806912234E+01
 0.1742729653762E+01
 0.1710960149409E+01
 0.1677421538737E+01
 0.1642047338483E+01
 0.1604775455978E+01
 0.1565542350019E+01
 0.1524278827379E+01
 0.1480908270305E+01
 0.1435342314363E+01
 0.1387471365789E+01
 0.1337142970681E+01
 0.1284135415852E+01
 0.1228187745481E+01
 0.1169162937307E+01
 0.1107311023586E+01
 0.1043254477031E+01
 0.9776592626871E+00
 0.9110177465906E+00
 0.8436577508618E+00
 0.7758637488322E+00
 0.7079806748144E+00
 0.6404263779671E+00
 0.5735906973028E+00
 0.5076118360078E+00
 0.4422269828536E+00
 0.3770013224963E+00
 0.3126767838430E+00
 0.2576865563563E+00
 0.2466639548472E+00
 0.3659071680666E+00
 0.5948088229135E+00
 0.1499217030678E+01
 0.1646341554977E+01
 0.1743926041174E+01
 0.1783686683876E+01
 0.1786850132369E+01
 0.1773156319368E+01
 0.1752401634719E+01
 0.1728287604785E+01
 0.1702097771486E+01
 0.1674251912621E+01
 0.1644855528446E+01
 0.1613904460188E+01
 0.1581358397910E+01
 0.1547164023964E+01
 0.1511260363944E+01
 0.1473578323879E+01
 0.1434038513381E+01
 0.1392549364421E+01
 0.1349001379604E+01
 0.1303256498591E+01
 0.1255131389525E+01
 0.1204389383670E+01
 0.1150790074510E+01
 0.1094237929234E+01
 0.1034998404598E+01
 0.9736650673438E+00
 0.9108502303320E+00
 0.8469724130688E+00
 0.7822460295359E+00
 0.7167867534155E+00
 0.6507172661287E+00
 0.5842027066305E+00
 0.5174109838640E+00
 0.4504137688020E+00
 0.3832471774867E+00
 0.3166114336051E+00
 0.2540506643076E+00
 0.2066552026347E+00
 0.2032652855448E+00
 0.3044523128159E+00
 0.4729426903671E+00
 0.1397062667317E+01
 0.1527819249964E+01
 0.1621592026296E+01
 0.1667147835944E+01
 0.1677503395320E+01
 0.1668757388881E+01
 0.1650825188889E+01
 0.1628317569326E+01
 0.1603162209679E+01
 0.1576142559628E+01
 0.1547562369089E+01
 0.1517521879923E+01
 0.1486033180335E+01
 0.1453066787864E+01
 0.1418569493885E+01
 0.1382470322631E+01
 0.1344681267290E+01
 0.1305096177752E+01
 0.1263584899840E+01
 0.1219983816146E+01
 0.1174086045067E+01
 0.1125647828275E+01
 0.1074446397185E+01
 0.1020408376092E+01
 0.9637864477968E+00
 0.9051160790774E+00
 0.8449298773141E+00
 0.7835585000275E+00
 0.7211109316091E+00
 0.6575676663489E+00
 0.5928899706005E+00
 0.5270866736885E+00
 0.4602516320153E+00
 0.3926076697357E+00
 0.3248109739237E+00
 0.2590544650884E+00
 0.2010974192241E+00
 0.1609752907450E+00
 0.1576376680820E+00
 0.2358685103997E+00
 0.3590709043408E+00
 0.1298972865339E+01
 0.1415311004211E+01
 0.1503729586047E+01
 0.1552200003284E+01
 0.1568065231575E+01
 0.1563891459068E+01
 0.1548952725557E+01
 0.1528319662471E+01
 0.1504431657501E+01
 0.1478414799295E+01
 0.1450777983063E+01
 0.1421738743041E+01
 0.1391373248411E+01
 0.1359684557989E+01
 0.1326633068423E+01
 0.1292149437034E+01
 0.1256138891295E+01
 0.1218481689088E+01
 0.1179028334530E+01
 0.1137592809594E+01
 0.1093949802825E+01
 0.1047851065828E+01
 0.9990841006852E+00
 0.9475795134483E+00
 0.8935561924903E+00
 0.8374734010740E+00
 0.7797698833238E+00
 0.7206825669623E+00
 0.6602251204385E+00
 0.5982748997091E+00
 0.5346908480173E+00
 0.4694204019483E+00
 0.4026270620569E+00
 0.3348977780129E+00
 0.2678208252846E+00
 0.2053763679557E+00
 0.1549545318043E+00
 0.1222554955329E+00
 0.1121145228964E+00
 0.1632578827877E+00
 0.2512461825894E+00
 0.1203989066316E+01
 0.1307631841242E+01
 0.1389992060943E+01
 0.1439322356422E+01
 0.1459144245151E+01
 0.1458941015356E+01
 0.1446953541023E+01
 0.1428340886022E+01
 0.1405890602560E+01
 0.1381022541197E+01
 0.1354442480507E+01
 0.1326489657861E+01
 0.1297311504153E+01
 0.1266950049750E+01
 0.1235384071589E+01
 0.1202549017323E+01
 0.1168345288071E+01
 0.1132640916443E+01
 0.1095268756074E+01
 0.1056023147475E+01
 0.1014663277597E+01
 0.9709355194699E+00
 0.9246285494362E+00
 0.8756612185879E+00
 0.8242033698819E+00
 0.7706274213423E+00
 0.7152719150755E+00
 0.6582800686502E+00
 0.5995826545005E+00
 0.5389855090235E+00
 0.4763032520997E+00
 0.4115166854835E+00
 0.3450089369335E+00
 0.2779808514153E+00
 0.2134066212322E+00
 0.1578136088339E+00
 0.1203981478339E+00
 0.9903152429548E-01
 0.7809234109160E-01
 0.9104554811019E-01
 0.1481817427686E+00
 0.1111451662915E+01
 0.1203881373502E+01
 0.1279957981125E+01
 0.1328715629839E+01
 0.1351159867842E+01
 0.1354234298869E+01
 0.1345003746799E+01
 0.1328448104595E+01
 0.1307542431886E+01
 0.1283934716035E+01
 0.1258506997664E+01
 0.1231717054881E+01
 0.1203786356630E+01
 0.1174799927205E+01
 0.1144758472758E+01
 0.1113604872080E+01
 0.1081236559145E+01
 0.1047510848515E+01
 0.1012244654186E+01
 0.9752147384739E+00
 0.9361658870323E+00
 0.8948361205909E+00
 0.8510060106137E+00
 0.8045696726694E+00
 0.7556371733861E+00
 0.7044885251970E+00
 0.6513608854889E+00
 0.5963079513009E+00
 0.5391921396939E+00
 0.4797798905450E+00
 0.4179006382760E+00
 0.3536713144742E+00
 0.2878831084571E+00
 0.2227588917466E+00
 0.1637067058706E+00
 0.1220471542192E+00
 0.1079985811179E+00
 0.1050062142561E+00
 0.8380246020323E-01
 0.4562027624375E-01
 0.5067011579791E-01
 0.1020890768298E+01
 0.1103369138426E+01
 0.1173205931885E+01
 0.1220412234126E+01
 0.1244379299676E+01
 0.1250032387441E+01
 0.1243268381990E+01
 0.1228717325381E+01
 0.1209403633480E+01
 0.1187132218375E+01
 0.1162932229819E+01
 0.1137370587200E+01
 0.1110741584956E+01
 0.1083174901847E+01
 0.1054695425030E+01
 0.1025255477441E+01
 0.9947511608898E+00
 0.9630305207354E+00
 0.9298960260433E+00
 0.8951081557889E+00
 0.8583970233188E+00
 0.8194882423129E+00
 0.7781456265921E+00
 0.7342281958786E+00
 0.6877789719254E+00
 0.6389834513296E+00
 0.5879795897847E+00
 0.5347386682953E+00
 0.4790712881330E+00
 0.4207386410909E+00
 0.3596509722094E+00
 0.2961937918230E+00
 0.2318789687986E+00
 0.1708710241318E+00
 0.1238229168048E+00
 0.1093050797670E+00
 0.1249917611183E+00
 0.1390664745502E+00
 0.1291944841740E+00
 0.9451134089094E-01
 0.5527165680156E-01
 0.9319611828995E+00
 0.1005559123781E+01
 0.1069345813941E+01
 0.1114347199311E+01
 0.1138955040176E+01
 0.1146529911556E+01
 0.1141890862018E+01
 0.1129225091824E+01
 0.1111498592900E+01
 0.1090604994463E+01
 0.1067686941391E+01
 0.1043406485851E+01
 0.1018126175301E+01
 0.9920198348593E+00
 0.9651375005136E+00
 0.9374422614749E+00
 0.9088301880940E+00
 0.8791412988157E+00
 0.8481647645891E+00
 0.8156453604344E+00
 0.7812973106663E+00
 0.7448293527344E+00
 0.7059808742610E+00
 0.6645677216798E+00
 0.6205611818340E+00
 0.5740524081346E+00
 0.5250844682290E+00
 0.4735554030968E+00
 0.4192428504966E+00
 0.3619421868987E+00
 0.3017306807177E+00
 0.2394795528528E+00
 0.1781037161119E+00
 0.1262010484035E+00
 0.1048914972691E+00
 0.1265600870268E+00
 0.1633043927607E+00
 0.1884336050107E+00
 0.1901813103468E+00
 0.1713832469230E+00
 0.1489250744056E+00
 0.8444021996488E+00
 0.9100295573948E+00
 0.9680293901574E+00
 0.1010402690935E+01
 0.1034956888930E+01
 0.1043862514002E+01
 0.1040988351352E+01
 0.1030042435848E+01
 0.1013855307524E+01
 0.9943494789142E+00
 0.9727466069106E+00
 0.9497869781875E+00
 0.9258942173091E+00
 0.9012839189609E+00
 0.8760310372164E+00
 0.8501100425059E+00
 0.8234178684890E+00
 0.7957874460490E+00
 0.7669953918866E+00
 0.7367707487362E+00
 0.7048100331077E+00
 0.6708006277504E+00
 0.6344508938495E+00
 0.5955272914339E+00
 0.5539265136477E+00
 0.5096469458605E+00
 0.4626423374233E+00
 0.4127482978268E+00
 0.3597319085932E+00
 0.3034747114465E+00
 0.2443598832397E+00
 0.1842012429467E+00
 0.1291675657377E+00
 0.9854952838567E-01
 0.1171439254341E+00
 0.1648424110059E+00
 0.2125444041632E+00
 0.2454052249350E+00
 0.2574131091903E+00
 0.2524267742309E+00
 0.2432025799603E+00
 0.7580119378029E+00
 0.8164439563446E+00
 0.8689513428076E+00
 0.9084354555408E+00
 0.9323971937655E+00
 0.9421168906503E+00
 0.9406513121177E+00
 0.9312313456450E+00
 0.9165022737366E+00
 0.8983666032325E+00
 0.8780923800092E+00
 0.8564799451088E+00
 0.8340050244590E+00
 0.8109211043363E+00
 0.7873267697523E+00
 0.7632078065409E+00
 0.7384624670526E+00
 0.7129171801347E+00
 0.6863363435602E+00
 0.6584327493786E+00
 0.6288830330448E+00
 0.5973489442057E+00
 0.5635022008026E+00
 0.5270550766412E+00
 0.4878279836333E+00
 0.4457287924794E+00
 0.4006281062493E+00
 0.3523115579472E+00
 0.3005647597047E+00
 0.2454371311543E+00
 0.1878989473479E+00
 0.1319264556198E+00
 0.9255618019172E-01
 0.1022328080993E+00
 0.1531425185004E+00
 0.2134208660514E+00
 0.2674548220149E+00
 0.3067254942331E+00
 0.3279578187330E+00
 0.3349184204479E+00
 0.3368698108147E+00
 0.6726304795046E+00
 0.7245302622122E+00
 0.7718463539783E+00
 0.8082935425934E+00
 0.8312500497473E+00
 0.8413412282239E+00
 0.8409457715509E+00
 0.8328434670823E+00
 0.8194667056389E+00
 0.8026606012038E+00
 0.7837106173902E+00
 0.7634590419449E+00
 0.7424237058283E+00
 0.7208910082037E+00
 0.6989810047787E+00
 0.6766901137430E+00
 0.6539179235120E+00
 0.6304845774639E+00
 0.6061422019473E+00
 0.5805864301569E+00
 0.5534716410384E+00
 0.5244299332931E+00
 0.4930915485748E+00
 0.4591107076121E+00
 0.4222303826321E+00
 0.3822701558836E+00
 0.3390236680840E+00
 0.2922412699235E+00
 0.2417702554748E+00
 0.1879856443972E+00
 0.1331737034352E+00
 0.8759934584454E-01
 0.8518461464086E-01
 0.1343580791348E+00
 0.2004641404156E+00
 0.2670343003328E+00
 0.3257353756408E+00
 0.3708957702374E+00
 0.4005799626866E+00
 0.4181269723281E+00
 0.4300154952206E+00
 0.5881285152414E+00
 0.6340657688802E+00
 0.6764849478816E+00
 0.7098265378727E+00
 0.7314658266715E+00
 0.7415552004673E+00
 0.7419174283368E+00
 0.7349208542719E+00
 0.7227743287390E+00
 0.7072389968102E+00
 0.6895933905675E+00
 0.6707047473672E+00
 0.6511226893182E+00
 0.6311608552061E+00
 0.6109579498551E+00
 0.5905198188522E+00
 0.5697469977249E+00
 0.5484532023412E+00
 0.5263778758089E+00
 0.5031982602498E+00
 0.4785439606746E+00
 0.4520136051722E+00
 0.4231916106421E+00
 0.3916706639436E+00
 0.3571149264332E+00
 0.3192569753780E+00
 0.2778188278037E+00
 0.2325338623261E+00
 0.1833871868382E+00
 0.1314689225041E+00
 0.8297859037220E-01
 0.6793263598288E-01
 0.1123963688095E+00
 0.1800847946377E+00
 0.2528571108293E+00
 0.3234442401138E+00
 0.3862758055267E+00
 0.4371189205168E+00
 0.4746243434849E+00
 0.5016761296741E+00
 0.5227954891289E+00
 0.5043995536060E+00
 0.5448662741008E+00
 0.5826695532119E+00
 0.6128922525520E+00
 0.6329826557425E+00
 0.6427596577524E+00
 0.6435974364547E+00
 0.6374989891264E+00
 0.6264513380388E+00
 0.6121145630783E+00
 0.5957408861966E+00
 0.5782073369201E+00
 0.5600853000735E+00
 0.5417096834813E+00
 0.5232345929742E+00
 0.5046737006713E+00
 0.4859277536193E+00
 0.4668035671674E+00
 0.4470271520112E+00
 0.4262558216564E+00
 0.4040917159043E+00
 0.3800961924040E+00
 0.3538035638849E+00
 0.3247411892515E+00
 0.2924917633184E+00
 0.2566995387994E+00
 0.2170172378055E+00
 0.1731852964878E+00
 0.1254949772587E+00
 0.7714393789252E-01
 0.5124272742712E-01
 0.8995957549757E-01
 0.1567565184045E+00
 0.2313253778442E+00
 0.3077763442506E+00
 0.3816122318559E+00
 0.4484593995715E+00
 0.5049062455641E+00
 0.5497731998301E+00
 0.5851853760171E+00
 0.6152716435502E+00
 0.4213545558974E+00
 0.4567784618845E+00
 0.4902318983567E+00
 0.5173623033621E+00
 0.5357369323287E+00
 0.5449472126639E+00
 0.5460108153036E+00
 0.5406132808869E+00
 0.5305300985945E+00
 0.5173111295189E+00
 0.5021678253557E+00
 0.4859741722870E+00
 0.4693140904203E+00
 0.4525378859111E+00
 0.4358116612869E+00
 0.4191550880894E+00
 0.4024681388416E+00
 0.3855499700425E+00
 0.3681120834811E+00
 0.3497899897468E+00
 0.3301553824373E+00
 0.3087282890613E+00
 0.2849881678139E+00
 0.2583919852891E+00
 0.2284351944731E+00
 0.1946659635353E+00
 0.1566595117127E+00
 0.1141917527814E+00
 0.6840019151300E-01
 0.3472576508691E-01
 0.6938959823427E-01
 0.1340323599252E+00
 0.2072464510501E+00
 0.2849952792221E+00
 0.3641047815990E+00
 0.4409843405773E+00
 0.5119096595167E+00
 0.5739005196229E+00
 0.6259236877733E+00
 0.6685729960734E+00
 0.7067704062590E+00
 0.3389200966287E+00
 0.3696859642148E+00
 0.3990510402735E+00
 0.4231554027141E+00
 0.4397101210985E+00
 0.4481588278492E+00
 0.4492404371449E+00
 0.4443699046034E+00
 0.4351272120345E+00
 0.4229493545024E+00
 0.4089972390771E+00
 0.3941316307332E+00
 0.3789410290269E+00
 0.3637857915696E+00
 0.3488407872761E+00
 0.3341298693924E+00
 0.3195511506798E+00
 0.3048951670540E+00
 0.2898575387813E+00
 0.2740497603251E+00
 0.2570097800433E+00
 0.2382119117257E+00
 0.2170753847512E+00
 0.1929799069291E+00
 0.1653225693982E+00
 0.1335327918872E+00
 0.9705984802279E-01
 0.5568726041298E-01
 0.1707580579930E-01
 0.5382648671365E-01
 0.1152274904491E+00
 0.1844902842408E+00
 0.2599464017514E+00
 0.3396913411921E+00
 0.4211270886745E+00
 0.5010631221586E+00
 0.5761560636326E+00
 0.6437420630725E+00
 0.7024249461617E+00
 0.7530913280480E+00
 0.7929468166938E+00
 0.2570318652359E+00
 0.2834895001834E+00
 0.3090257676288E+00
 0.3302031861763E+00
 0.3448859055854E+00
 0.3524295254716E+00
 0.3533597712425E+00
 0.3488657623231E+00
 0.3403519262642E+00
 0.3291452167495E+00
 0.3163508187022E+00
 0.3028092657095E+00
 0.2891077184826E+00
 0.2756125830844E+00
 0.2625052119665E+00
 0.2498125058236E+00
 0.2374300880356E+00
 0.2251391680031E+00
 0.2126182826272E+00
 0.1994530485476E+00
 0.1851453437740E+00
 0.1691216128189E+00
 0.1507398508597E+00
 0.1293034384158E+00
 0.1041124106958E+00
 0.7447178785378E-01
 0.3966275139673E-01
 0.3593886081924E-02
 0.4913524686859E-01
 0.1041164391258E+00
 0.1667905348040E+00
 0.2368870273461E+00
 0.3134670937807E+00
 0.3948205494261E+00
 0.4785230271259E+00
 0.5616129444743E+00
 0.6410141053223E+00
 0.7141549211174E+00
 0.7796647097742E+00
 0.8368007167123E+00
 0.8858921547592E+00
 0.1756359589182E+00
 0.1981228120671E+00
 0.2201114299868E+00
 0.2385073220967E+00
 0.2513240656250E+00
 0.2578754629237E+00
 0.2585312888423E+00
 0.2542984790209E+00
 0.2464297218313E+00
 0.2361504674492E+00
 0.2245106205953E+00
 0.2123283806141E+00
 0.2001879290807E+00
 0.1884615890207E+00
 0.1773384850222E+00
 0.1668506936175E+00
 0.1568937268395E+00
 0.1472419357314E+00
 0.1375601322700E+00
 0.1274147608028E+00
 0.1162870766325E+00
 0.1035914686798E+00
 0.8870915117876E-01
 0.7108508537073E-01
 0.5061890667750E-01
 0.2998327226076E-01
 0.2932367978420E-01
 0.6028669159273E-01
 0.1044223307638E+00
 0.1577725886822E+00
 0.2197829419610E+00
 0.2899763911176E+00
 0.3673500076551E+00
 0.4502146377802E+00
 0.5362425651325E+00
 0.6226363252467E+00
 0.7064829457307E+00
 0.7852978962303E+00
 0.8574087707893E+00
 0.9218593908075E+00
 0.9793774917013E+00
 0.9470813084949E-01
 0.1136737568851E+00
 0.1325460126773E+00
 0.1484507381343E+00
 0.1595415638193E+00
 0.1651389781915E+00
 0.1655183403592E+00
 0.1615555095315E+00
 0.1543860908272E+00
 0.1451560009940E+00
 0.1348758057484E+00
 0.1243568365608E+00
 0.1141983167469E+00
 0.1047995184022E+00
 0.9637988229950E-01
 0.8899862770135E-01
 0.8257243523726E-01
 0.7689512866104E-01
 0.7166585653969E-01
 0.6653651358979E-01
 0.6119775708387E-01
 0.5555308190042E-01
 0.5010528822976E-01
 0.4673924958635E-01
 0.4934397499967E-01
 0.6176341150028E-01
 0.8481215507873E-01
 0.1177397379326E+00
 0.1601269721384E+00
 0.2119357835291E+00
 0.2731046789722E+00
 0.3432210450269E+00
 0.4212968567388E+00
 0.5056838790820E+00
 0.5941411068854E+00
 0.6839938046286E+00
 0.7724422684754E+00
 0.8569991830649E+00
 0.9357884056775E+00
 0.1007775258760E+01
 0.1072902665635E+01
 0.1484090263366E-01
 0.3212590920454E-01
 0.4907582043455E-01
 0.6321856673080E-01
 0.7308956468312E-01
 0.7820170977238E-01
 0.7888767309004E-01
 0.7603346057237E-01
 0.7081031126701E-01
 0.6446976760888E-01
 0.5820851784822E-01
 0.5306185326362E-01
 0.4976840377977E-01
 0.4861502151997E-01
 0.4939945694450E-01
 0.5161255709159E-01
 0.5470747221248E-01
 0.5826942406451E-01
 0.6206265199267E-01
 0.6602732820612E-01
 0.7028684558936E-01
 0.7519115547286E-01
 0.8139174807785E-01
 0.8990293914493E-01
 0.1020499558516E+00
 0.1193157144952E+00
 0.1431746642674E+00
 0.1749411055305E+00
 0.2156639012880E+00
 0.2660488489652E+00
 0.3263713626950E+00
 0.3963692660525E+00
 0.4751369302374E+00
 0.5610995022843E+00
 0.6521033932694E+00
 0.7455707477008E+00
 0.8387675040031E+00
 0.9291639446153E+00
 0.1014731018068E+01
 0.1094170065229E+01
 0.1166558233920E+01
 0.6648476272326E-01
 0.5741815721927E-01
 0.5093343505582E-01
 0.4842782168212E-01
 0.4922559035268E-01
 0.5177935235327E-01
 0.5516322458926E-01
 0.5927682997062E-01
 0.6433249865811E-01
 0.7039710798379E-01
 0.7725088989684E-01
 0.8448733845514E-01
 0.9167268490612E-01
 0.9845607816413E-01
 0.1046156820247E+00
 0.1100633611790E+00
 0.1148303320894E+00
 0.1190473472049E+00
 0.1229276432132E+00
 0.1267582629698E+00
 0.1309059317433E+00
 0.1358434156987E+00
 0.1421982088196E+00
 0.1508076187981E+00
 0.1627296055251E+00
 0.1792373647166E+00
 0.2017901529387E+00
 0.2319023622623E+00
 0.2709436424166E+00
 0.3199402562115E+00
 0.3794178159938E+00
 0.4492864345402E+00
 0.5287611369541E+00
 0.6163647083338E+00
 0.7100326603554E+00
 0.8072629037313E+00
 0.9053498415743E+00
 0.1001698321846E+01
 0.1094102258851E+01
 0.1180889970466E+01
 0.1260422827274E+01
 0.1463446628161E+00
 0.1395585133481E+00
 0.1334688823014E+00
 0.1293619495496E+00
 0.1278812213646E+00
 0.1291015537757E+00
 0.1327376222491E+00
 0.1383191793086E+00
 0.1452855741751E+00
 0.1530420191003E+00
 0.1610134818636E+00
 0.1686968584048E+00
 0.1756995625913E+00
 0.1817589474281E+00
 0.1867451538852E+00
 0.1906533350629E+00
 0.1935907738748E+00
 0.1957627828228E+00
 0.1974605026190E+00
 0.1990532261985E+00
 0.2009891133886E+00
 0.2038089192769E+00
 0.2081765450992E+00
 0.2149180324990E+00
 0.2250339136399E+00
 0.2397240136009E+00
 0.2604094291478E+00
 0.2886494579724E+00
 0.3259533050246E+00
 0.3735470566142E+00
 0.4321637060829E+00
 0.5018926038248E+00
 0.5820924597722E+00
 0.6714007560808E+00
 0.7678427903195E+00
 0.8689743920475E+00
 0.9720898474313E+00
 0.1074501981655E+01
 0.1173788527724E+01
 0.1267870344619E+01
 0.1354544071724E+01
 0.2260112806812E+00
 0.2222014290559E+00
 0.2186582665130E+00
 0.2165110673537E+00
 0.2164479842960E+00
 0.2186888518444E+00
 0.2230644189479E+00
 0.2291375065719E+00
 0.2363236216261E+00
 0.2439942284817E+00
 0.2515571700669E+00
 0.2585121195564E+00
 0.2644821516139E+00
 0.2692258547197E+00
 0.2726361362027E+00
 0.2747316001042E+00
 0.2756449197877E+00
 0.2756110832228E+00
 0.2749575121269E+00
 0.2740976911956E+00
 0.2735308359583E+00
 0.2738507750496E+00
 0.2757676228054E+00
 0.2801363342135E+00
 0.2879647568186E+00
 0.3004451971677E+00
 0.3189967375163E+00
 0.3452139684135E+00
 0.3807033374598E+00
 0.4268477159525E+00
 0.4845675548616E+00
 0.5541361088689E+00
 0.6350717969837E+00
 0.7261395185735E+00
 0.8254544563625E+00
 0.9306156417022E+00
 0.1038892981951E+01
 0.1147478960222E+01
 0.1253703123109E+01
 0.1355081239029E+01
 0.1448952710957E+01
 0.3054606755192E+00
 0.3046748738306E+00
 0.3039411195219E+00
 0.3042067487248E+00
 0.3060778681873E+00
 0.3097663594482E+00
 0.3151295173020E+00
 0.3217641589344E+00
 0.3291181063394E+00
 0.3365934616187E+00
 0.3436279173926E+00
 0.3497495785236E+00
 0.3546073010713E+00
 0.3579821383962E+00
 0.3597864725706E+00
 0.3600566102903E+00
 0.3589429982533E+00
 0.3567007308404E+00
 0.3536818905879E+00
 0.3503309751655E+00
 0.3471851779177E+00
 0.3448816296457E+00
 0.3441746656052E+00
 0.3459581932496E+00
 0.3512704085220E+00
 0.3613261028815E+00
 0.3775672048204E+00
 0.4016320653017E+00
 0.4352151627679E+00
 0.4798405371667E+00
 0.5366083953668E+00
 0.6059814275349E+00
 0.6876508440931E+00
 0.7805195753867E+00
 0.8827931048587E+00
 0.9921016618918E+00
 0.1105669406894E+01
 0.1220542225269E+01
 0.1333779458956E+01
 0.1442505752182E+01
 0.1543668525426E+01
 0.3847142156415E+00
 0.3869225449137E+00
 0.3890482456782E+00
 0.3918533391058E+00
 0.3958283017190E+00
 0.4011341014484E+00
 0.4076237541006E+00
 0.4149174909262E+00
 0.4225001969688E+00
 0.4298156709001E+00
 0.4363423803520E+00
 0.4416450656693E+00
 0.4454036260404E+00
 0.4474244658869E+00
 0.4476404892558E+00
 0.4461051903955E+00
 0.4429847583535E+00
 0.4385507749375E+00
 0.4331747375073E+00
 0.4273254848158E+00
 0.4215707956429E+00
 0.4165844597979E+00
 0.4131614196582E+00
 0.4122365638676E+00
 0.4148877109786E+00
 0.4223671881998E+00
 0.4361554449345E+00
 0.4579443697240E+00
 0.4895172932489E+00
 0.5325353146024E+00
 0.5882775265142E+00
 0.6574031021318E+00
 0.7397882365412E+00
 0.8344839612642E+00
 0.9397875431757E+00
 0.1053350945511E+01
 0.1172334070928E+01
 0.1293613669981E+01
 0.1413963815984E+01
 0.1530131006399E+01
 0.1638704254386E+01
 0.4637982414800E+00
 0.4689596824436E+00
 0.4739467501543E+00
 0.4793400300694E+00
 0.4855028896461E+00
 0.4925267114618E+00
 0.5002432873011E+00
 0.5082857602094E+00
 0.5161721147422E+00
 0.5233882634356E+00
 0.5294559960894E+00
 0.5339798535434E+00
 0.5366737341894E+00
 0.5373717154760E+00
 0.5360286750556E+00
 0.5327157211656E+00
 0.5276140694023E+00
 0.5210098444314E+00
 0.5132907589020E+00
 0.5049456491698E+00
 0.4965677712998E+00
 0.4888625112029E+00
 0.4826617296127E+00
 0.4789406698384E+00
 0.4788206029568E+00
 0.4835995804320E+00
 0.4948068044662E+00
 0.5141962072036E+00
 0.5436441297228E+00
 0.5849499477999E+00
 0.6395747595564E+00
 0.7083827922847E+00
 0.7914476441996E+00
 0.8879790526472E+00
 0.9963692126717E+00
 0.1114284983805E+01
 0.1238806538931E+01
 0.1366622639919E+01
 0.1494210350056E+01
 0.1617944860980E+01
 0.1734068362590E+01
 0.5427393951967E+00
 0.5508174970460E+00
 0.5586571087931E+00
 0.5666633556238E+00
 0.5750685011948E+00
 0.5838842011984E+00
 0.5929096317193E+00
 0.6017816545711E+00
 0.6100456520322E+00
 0.6172272030814E+00
 0.6228913398674E+00
 0.6266837189436E+00
 0.6283541228299E+00
 0.6277661334369E+00
 0.6248979450914E+00
 0.6198388520103E+00
 0.6127847265580E+00
 0.6040348342933E+00
 0.5939906517272E+00
 0.5831575945763E+00
 0.5721502638533E+00
 0.5617013226231E+00
 0.5526759252597E+00
 0.5460879235060E+00
 0.5431033111577E+00
 0.5450704938526E+00
 0.5535743630159E+00
 0.5704379083037E+00
 0.5976356432147E+00
 0.6371090130215E+00
 0.6905066541569E+00
 0.7589078132107E+00
 0.8425967923754E+00
 0.9409539410116E+00
 0.1052471694014E+01
 0.1174827796775E+01
 0.1305010287015E+01
 0.1439503989471E+01
 0.1574477782520E+01
 0.1705934789777E+01
 0.1829766837146E+01
 0.6215636946066E+00
 0.6325313539933E+00
 0.6432159455288E+00
 0.6538532716912E+00
 0.6645434153016E+00
 0.6752120207687E+00
 0.6856172858410E+00
 0.6953920425925E+00
 0.7041034541020E+00
 0.7113136710583E+00
 0.7166300532154E+00
 0.7197399617688E+00
 0.7204304240805E+00
 0.7185960251629E+00
 0.7142394368245E+00
 0.7074686455856E+00
 0.6984938466136E+00
 0.6876261829856E+00
 0.6752786914083E+00
 0.6619702960951E+00
 0.6483332022089E+00
 0.6351233319210E+00
 0.6232354883608E+00
 0.6137197587666E+00
 0.6077867023406E+00
 0.6068376180924E+00
 0.6125178705700E+00
 0.6267251886644E+00
 0.6515374943274E+00
 0.6890433094791E+00
 0.7410858330897E+00
 0.8089705544947E+00
 0.8932070824990E+00
 0.9933601637452E+00
 0.1108030402954E+01
 0.1234905467135E+01
 0.1370871798815E+01
 0.1512196324577E+01
 0.1654727378205E+01
 0.1794087727718E+01
 0.1925804569581E+01
 0.7002963610370E+00
 0.7141373812766E+00
 0.7276652718744E+00
 0.7409520199177E+00
 0.7539655588156E+00
 0.7665412469919E+00
 0.7783899092889E+00
 0.7891339728772E+00
 0.7983574533206E+00
 0.8056561567503E+00
 0.8106787505346E+00
 0.8131546706936E+00
 0.8129093139395E+00
 0.8098695558453E+00
 0.8040635344610E+00
 0.7956183056106E+00
 0.7847579694845E+00
 0.7718042500753E+00
 0.7571795632273E+00
 0.7414133457554E+00
 0.7251517659511E+00
 0.7091700403166E+00
 0.6943888537752E+00
 0.6818916881542E+00
 0.6729325619946E+00
 0.6689668101974E+00
 0.6717035116579E+00
 0.6831196506937E+00
 0.7054014488026E+00
 0.7407899875669E+00
 0.7913309699628E+00
 0.8585684909198E+00
 0.9432536555768E+00
 0.1045151734398E+01
 0.1162982467892E+01
 0.1294445742015E+01
 0.1436319719020E+01
 0.1584640673703E+01
 0.1734921856961E+01
 0.1882390445724E+01
 0.2022186608456E+01
 0.7789618494896E+00
 0.7956713695329E+00
 0.8120487361481E+00
 0.8280066513944E+00
 0.8433811981422E+00
 0.8579142946982E+00
 0.8712644084138E+00
 0.8830384489610E+00
 0.8928332689907E+00
 0.9002759607650E+00
 0.9050557348292E+00
 0.9069445306115E+00
 0.9058071799052E+00
 0.9016040171979E+00
 0.8943894924563E+00
 0.8843099626617E+00
 0.8716028813566E+00
 0.8565991427543E+00
 0.8397282715740E+00
 0.8215271553934E+00
 0.8026522257147E+00
 0.7838939343537E+00
 0.7661948728376E+00
 0.7506686465631E+00
 0.7386108835359E+00
 0.7315310372579E+00
 0.7312039242638E+00
 0.7396892461349E+00
 0.7592858516180E+00
 0.7923928992058E+00
 0.8412670666935E+00
 0.9077044470211E+00
 0.9927156182585E+00
 0.1096285231585E+01
 0.1217266566267E+01
 0.1353377515392E+01
 0.1501283922244E+01
 0.1656779309686E+01
 0.1815024621618E+01
 0.1970829867471E+01
 0.2118919044041E+01
 0.8575839439572E+00
 0.8771684513573E+00
 0.8964102210608E+00
 0.9150660630370E+00
 0.9328403342716E+00
 0.9493789866990E+00
 0.9642842167696E+00
 0.9771434609304E+00
 0.9875633943353E+00
 0.9952007627149E+00
 0.9997850182071E+00
 0.1001131264725E+01
 0.9991448983583E+00
 0.9938208337802E+00
 0.9852405672494E+00
 0.9735698456913E+00
 0.9590587701101E+00
 0.9420458406228E+00
 0.9229652729515E+00
 0.9023582005687E+00
 0.8808874678221E+00
 0.8593545157749E+00
 0.8387195905928E+00
 0.8201227108704E+00
 0.8048985998568E+00
 0.7946100113016E+00
 0.7910984707102E+00
 0.7965088611408E+00
 0.8132562848515E+00
 0.8439032333863E+00
 0.8909260687544E+00
 0.9563871898275E+00
 0.1041576548108E+01
 0.1146720103787E+01
 0.1270822918223E+01
 0.1411630445088E+01
 0.1565694789295E+01
 0.1728554947882E+01
 0.1894999421389E+01
 0.2059393586889E+01
 0.2216010001267E+01
 0.9361858738553E+00
 0.9586630761456E+00
 0.9807933427036E+00
 0.1002179763663E+01
 0.1022394662269E+01
 0.1040985823640E+01
 0.1057496108621E+01
 0.1071490595598E+01
 0.1082583806426E+01
 0.1090461356656E+01
 0.1094893235885E+01
 0.1095738726832E+01
 0.1092945072781E+01
 0.1086542900136E+01
 0.1076641404163E+01
 0.1063425676409E+01
 0.1047157599094E+01
 0.1028181541944E+01
 0.1006933816046E+01
 0.9839564103097E+00
 0.9599145269632E+00
 0.9356161028813E+00
 0.9120344563318E+00
 0.8903318417608E+00
 0.8718789171808E+00
 0.8582900810918E+00
 0.8514735603193E+00
 0.8536608989504E+00
 0.8673862688432E+00
 0.8953802651282E+00
 0.9403476363639E+00
 0.1004632178481E+01
 0.1089825123008E+01
 0.1196419045667E+01
 0.1323593297418E+01
 0.1469134561787E+01
 0.1629482513062E+01
 0.1799910046377E+01
 0.1974810089631E+01
 0.2148070289809E+01
 0.2313470478623E+01
 0.1014790439845E+01
 0.1040189114431E+01
 0.1065241345358E+01
 0.1089397398434E+01
 0.1112096654408E+01
 0.1132786658048E+01
 0.1150948568683E+01
 0.1166123231806E+01
 0.1177932102830E+01
 0.1186089810558E+01
 0.1190407872260E+01
 0.1190791206491E+01
 0.1187230409031E+01
 0.1179793005164E+01
 0.1168616485680E+01
 0.1153905118288E+01
 0.1135931540899E+01
 0.1115044078213E+01
 0.1091678349780E+01
 0.1066373602140E+01
 0.1039793104821E+01
 0.1012746510710E+01
 0.9862152556245E+00
 0.9613791521293E+00
 0.9396409733746E+00
 0.9226642807435E+00
 0.9124230313442E+00
 0.9112359038720E+00
 0.9217580428831E+00
 0.9468922382959E+00
 0.9895800885976E+00
 0.1052462498213E+01
 0.1137455918916E+01
 0.1245348506138E+01
 0.1375521132425E+01
 0.1525819949476E+01
 0.1692576497648E+01
 0.1870786231594E+01
 0.2054420371896E+01
 0.2236850164755E+01
 0.2411315194720E+01
 0.1093420145134E+01
 0.1121780026737E+01
 0.1149797190340E+01
 0.1176768643310E+01
 0.1201999190665E+01
 0.1224834052882E+01
 0.1244690922427E+01
 0.1261085513511E+01
 0.1273646391299E+01
 0.1282118332642E+01
 0.1286356143228E+01
 0.1286312346095E+01
 0.1282022669549E+01
 0.1273592815024E+01
 0.1261189129240E+01
 0.1245034774958E+01
 0.1225411965741E+01
 0.1202670889390E+01
 0.1177243493168E+01
 0.1149662468331E+01
 0.1120584610541E+01
 0.1090816199216E+01
 0.1061341430786E+01
 0.1033352464957E+01
 0.1008279683199E+01
 0.9878324815333E+00
 0.9740485912944E+00
 0.9693332446196E+00
 0.9764634403969E+00
 0.9985173897751E+00
 0.1038681527752E+01
 0.1099909994625E+01
 0.1184470404312E+01
 0.1293479366894E+01
 0.1426551742050E+01
 0.1581616535517E+01
 0.1754904868702E+01
 0.1941123841310E+01
 0.2133793839866E+01
 0.2325725355156E+01
 0.2509563500433E+01
 0.1172097332149E+01
 0.1203469064626E+01
 0.1234503741467E+01
 0.1264343283971E+01
 0.1292155461462E+01
 0.1317180978709E+01
 0.1338772839493E+01
 0.1356421700075E+01
 0.1369764539342E+01
 0.1378578469786E+01
 0.1382764181072E+01
 0.1382324334902E+01
 0.1377341885262E+01
 0.1367962101149E+01
 0.1354380723433E+01
 0.1336839424647E+01
 0.1315628666023E+01
 0.1291098235513E+01
 0.1263673238926E+01
 0.1233875787016E+01
 0.1202351407331E+01
 0.1169897596305E+01
 0.1137495531959E+01
 0.1106343948492E+01
 0.1077895607570E+01
 0.1053901527377E+01
 0.1036460225502E+01
 0.1028061779885E+01
 0.1031604783411E+01
 0.1050345039467E+01
 0.1087721072299E+01
 0.1147016545279E+01
 0.1230878077187E+01
 0.1340787739831E+01
 0.1476632644245E+01
 0.1636453907029E+01
 0.1816393975872E+01
 0.2010861430079E+01
 0.2212893724597E+01
 0.2414690295406E+01
 0.2608240207926E+01
 0.1250844327164E+01
 0.1285289499066E+01
 0.1319404017194E+01
 0.1352171412778E+01
 0.1382619038420E+01
 0.1409880716051E+01
 0.1433244061552E+01
 0.1452175743899E+01
 0.1466323643070E+01
 0.1475500512204E+01
 0.1479656412504E+01
 0.1478847285598E+01
 0.1473205742850E+01
 0.1462918139736E+01
 0.1448210134282E+01
 0.1429341424873E+01
 0.1406609251686E+01
 0.1380360578750E+01
 0.1351010324703E+01
 0.1319065793887E+01
 0.1285156206621E+01
 0.1250064548194E+01
 0.1214762768432E+01
 0.1180449820490E+01
 0.1148594862637E+01
 0.1120985391155E+01
 0.1099776625610E+01
 0.1087540564171E+01
 0.1087295855248E+01
 0.1102476805816E+01
 0.1136780263269E+01
 0.1193835544069E+01
 0.1276697833223E+01
 0.1387255981907E+01
 0.1525714038745E+01
 0.1690261246489E+01
 0.1876967970006E+01
 0.2079935319436E+01
 0.2291682773531E+01
 0.2503742074370E+01
 0.2707376503875E+01
 0.1329683595243E+01
 0.1367274871353E+01
 0.1404541488660E+01
 0.1440303699826E+01
 0.1473444044215E+01
 0.1502986872796E+01
 0.1528154250536E+01
 0.1548390985153E+01
 0.1563359605055E+01
 0.1572912997867E+01
 0.1577055028238E+01
 0.1575898696262E+01
 0.1569629053300E+01
 0.1558475189898E+01
 0.1542693188336E+01
 0.1522560192159E+01
 0.1498378618231E+01
 0.1470490034470E+01
 0.1439295667632E+01
 0.1405283608570E+01
 0.1369061504561E+01
 0.1331391795762E+01
 0.1293230566255E+01
 0.1255770038233E+01
 0.1220488997834E+01
 0.1189205292991E+01
 0.1164125588432E+01
 0.1147899550293E+01
 0.1143662911789E+01
 0.1155027911824E+01
 0.1185954616822E+01
 0.1240433582567E+01
 0.1321959560838E+01
 0.1432873927319E+01
 0.1573749453924E+01
 0.1742967354149E+01
 0.1936548395234E+01
 0.2148279114541E+01
 0.2370123051284E+01
 0.2592880752602E+01
 0.2807010869663E+01
 0.1408637908855E+01
 0.1449459268546E+01
 0.1489960418601E+01
 0.1528791721214E+01
 0.1564685390786E+01
 0.1596553473603E+01
 0.1623552906008E+01
 0.1645109909172E+01
 0.1660906767814E+01
 0.1670842266881E+01
 0.1674979498949E+01
 0.1673492956900E+01
 0.1666623264215E+01
 0.1654644014883E+01
 0.1637842197632E+01
 0.1616511721387E+01
 0.1590958450735E+01
 0.1561515852960E+01
 0.1528567822076E+01
 0.1492578674296E+01
 0.1454129019161E+01
 0.1413954436270E+01
 0.1372988094387E+01
 0.1332407941011E+01
 0.1293694815110E+01
 0.1258689758335E+01
 0.1229644367958E+01
 0.1209280275442E+01
 0.1200845722376E+01
 0.1208128578571E+01
 0.1235355329545E+01
 0.1286892348627E+01
 0.1366705998276E+01
 0.1477640380337E+01
 0.1620696594635E+01
 0.1794500773473E+01
 0.1995053789074E+01
 0.2215823169601E+01
 0.2448175672055E+01
 0.2682109630916E+01
 0.2907190013882E+01
 0.1487730534205E+01
 0.1531877628618E+01
 0.1575706243625E+01
 0.1617688340325E+01
 0.1656399072759E+01
 0.1690635099689E+01
 0.1719489324273E+01
 0.1742373937076E+01
 0.1758997574739E+01
 0.1769312041119E+01
 0.1773446117208E+01
 0.1771640884215E+01
 0.1764196002756E+01
 0.1751431435400E+01
 0.1733665516605E+01
 0.1711208135015E+01
 0.1684366753572E+01
 0.1653463920489E+01
 0.1618862448080E+01
 0.1580998197198E+01
 0.1540419113540E+01
 0.1497827355588E+01
 0.1454125744762E+01
 0.1410469831372E+01
 0.1368334117051E+01
 0.1329574605300E+01
 0.1296479971965E+01
 0.1271836524928E+01
 0.1258998638617E+01
 0.1261925511232E+01
 0.1285111152143E+01
 0.1333310773488E+01
 0.1410994901912E+01
 0.1521564929284E+01
 0.1666518446292E+01
 0.1844790052910E+01
 0.2052399299386E+01
 0.2282494001623E+01
 0.2525800471814E+01
 0.2771435489017E+01
 0.3007969843344E+01
 0.1566985439786E+01
 0.1614566081648E+01
 0.1661826004898E+01
 0.1707048142147E+01
 0.1748642508502E+01
 0.1785287063573E+01
 0.1816012578126E+01
 0.1840223226028E+01
 0.1857662235525E+01
 0.1868343008839E+01
 0.1872467548583E+01
 0.1870349271073E+01
 0.1862350638147E+01
 0.1848839905458E+01
 0.1830167121944E+01
 0.1806657252972E+01
 0.1778617395890E+01
 0.1746356268674E+01
 0.1710211778156E+01
 0.1670586571452E+01
 0.1627990190031E+01
 0.1583084614180E+01
 0.1536734548125E+01
 0.1490064475653E+01
 0.1444533363226E+01
 0.1402002839737E+01
 0.1364789381798E+01
 0.1335734953944E+01
 0.1318291675890E+01
 0.1316583470240E+01
 0.1335370436419E+01
 0.1379807450141E+01
 0.1454901570118E+01
 0.1564670141365E+01
 0.1711184690323E+01
 0.1893764172310E+01
 0.2108496314444E+01
 0.2348213635023E+01
 0.2602955611073E+01
 0.2860868792339E+01
 0.3109416469528E+01
 0.1646427531898E+01
 0.1697562332285E+01
 0.1748368830504E+01
 0.1796927917772E+01
 0.1841474916623E+01
 0.1880565596744E+01
 0.1913171487300E+01
 0.1938696444701E+01
 0.1956928360329E+01
 0.1967952379216E+01
 0.1972052358294E+01
 0.1969620418245E+01
 0.1961085831762E+01
 0.1946867078246E+01
 0.1927346181612E+01
 0.1902862147530E+01
 0.1873719634841E+01
 0.1840210551562E+01
 0.1802644039104E+01
 0.1761384744141E+01
 0.1716898006155E+01
 0.1669798734934E+01
 0.1620905470593E+01
 0.1571302465484E+01
 0.1522423173256E+01
 0.1476124393975E+01
 0.1434739630120E+01
 0.1401155603897E+01
 0.1378911549794E+01
 0.1372286880299E+01
 0.1386303324006E+01
 0.1426523313929E+01
 0.1498521741646E+01
 0.1606994179363E+01
 0.1754673469241E+01
 0.1941353137328E+01
 0.2163252061767E+01
 0.2412898805725E+01
 0.2679597037965E+01
 0.2950423794795E+01
 0.3211607156916E+01
 0.1726082924818E+01
 0.1780906098914E+01
 0.1835386489488E+01
 0.1887387219317E+01
 0.1934957745115E+01
 0.1976528063887E+01
 0.2011014592158E+01
 0.2037830539051E+01
 0.2056820583608E+01
 0.2068153435528E+01
 0.2072204550390E+01
 0.2069451692949E+01
 0.2060395125728E+01
 0.2045505418214E+01
 0.2025196673360E+01
 0.1999820746832E+01
 0.1969677682925E+01
 0.1935039558980E+01
 0.1896182899093E+01
 0.1853429591218E+01
 0.1807194984218E+01
 0.1758039963914E+01
 0.1706728660117E+01
 0.1654295506086E+01
 0.1602137737657E+01
 0.1552095764630E+01
 0.1506507786817E+01
 0.1468292360330E+01
 0.1441062715442E+01
 0.1429241531033E+01
 0.1438104142701E+01
 0.1473624672112E+01
 0.1541974986683E+01
 0.1648593990374E+01
 0.1796973660653E+01
 0.1987488873746E+01
 0.2216569265508E+01
 0.2476460105078E+01
 0.2755677933447E+01
 0.3040118692781E+01
 0.3314631383218E+01
 0.1805979251329E+01
 0.1864639615313E+01
 0.1922934020082E+01
 0.1978488978883E+01
 0.2029155133343E+01
 0.2073233169886E+01
 0.2109590085733E+01
 0.2137660436944E+01
 0.2157360123547E+01
 0.2168955032440E+01
 0.2172923064820E+01
 0.2169835058923E+01
 0.2160266513011E+01
 0.2144741799521E+01
 0.2123706989318E+01
 0.2097525419599E+01
 0.2066490247675E+01
 0.2030850689972E+01
 0.1990846859449E+01
 0.1946753219591E+01
 0.1898929425040E+01
 0.1847875409764E+01
 0.1794292543213E+01
 0.1739155525667E+01
 0.1683814024171E+01
 0.1630079430695E+01
 0.1580280729271E+01
 0.1537353227515E+01
 0.1504968289619E+01
 0.1487676261812E+01
 0.1490993923304E+01
 0.1521306525490E+01
 0.1585408575820E+01
 0.1689549094693E+01
 0.1838087699456E+01
 0.2032106412491E+01
 0.2268345764155E+01
 0.2538800904906E+01
 0.2831147988277E+01
 0.3129975685843E+01
 0.3418591782319E+01
 0.1886146024486E+01
 0.1948808212239E+01
 0.2011070452770E+01
 0.2070300208382E+01
 0.2124134415083E+01
 0.2170741158978E+01
 0.2208945698786E+01
 0.2238218687046E+01
 0.2258564277498E+01
 0.2270361044792E+01
 0.2274201246801E+01
 0.2270756598088E+01
 0.2260682013239E+01
 0.2244557117914E+01
 0.2222859555583E+01
 0.2195962571130E+01
 0.2164150074618E+01
 0.2127645417839E+01
 0.2086648622983E+01
 0.2041382227165E+01
 0.1992144657063E+01
 0.1939368091447E+01
 0.1883682798633E+01
 0.1825993627668E+01
 0.1767590794290E+01
 0.1710243057991E+01
 0.1656254694339E+01
 0.1608560410826E+01
 0.1570870846583E+01
 0.1547844629333E+01
 0.1545223052614E+01
 0.1569796227146E+01
 0.1629001919823E+01
 0.1729966127361E+01
 0.1878035134132E+01
 0.2075145513818E+01
 0.2318474139327E+01
 0.2599816052080E+01
 0.2905952557637E+01
 0.3220021053019E+01
 0.3523605028885E+01
 0.1966615061640E+01
 0.2033461000299E+01
 0.2099859653356E+01
 0.2162892801207E+01
 0.2219966673560E+01
 0.2269114007573E+01
 0.2309128535594E+01
 0.2339535032785E+01
 0.2360445862251E+01
 0.2372369786562E+01
 0.2376026316311E+01
 0.2372196059057E+01
 0.2361617294877E+01
 0.2344925960469E+01
 0.2322630513946E+01
 0.2295112299809E+01
 0.2262643544346E+01
 0.2225418798929E+01
 0.2183594492001E+01
 0.2137336974530E+01
 0.2086878174323E+01
 0.2032575946314E+01
 0.1974981256566E+01
 0.1914918928422E+01
 0.1853607463465E+01
 0.1792758511469E+01
 0.1734634620059E+01
 0.1682150202991E+01
 0.1639033077417E+01
 0.1610026551190E+01
 0.1601074070360E+01
 0.1619357515123E+01
 0.1672971669797E+01
 0.1769984297684E+01
 0.1916857139261E+01
 0.2116552921673E+01
 0.2366841415243E+01
 0.2659390284188E+01
 0.2980031727235E+01
 0.3310285412562E+01
 0.3629802719496E+01
 0.2047420983931E+01
 0.2118651667286E+01
 0.2189371293785E+01
 0.2256344426112E+01
 0.2316727314154E+01
 0.2368415552996E+01
 0.2410184787002E+01
 0.2441635840953E+01
 0.2463012517495E+01
 0.2474973318888E+01
 0.2478378756120E+01
 0.2474126348214E+01
 0.2463041254802E+01
 0.2445816238112E+01
 0.2422989363774E+01
 0.2394948004922E+01
 0.2361950207351E+01
 0.2324158901864E+01
 0.2281683666057E+01
 0.2234630732040E+01
 0.2183160620902E+01
 0.2127550649862E+01
 0.2068264567760E+01
 0.2006037116283E+01
 0.1942002630833E+01
 0.1877800489208E+01
 0.1815633078468E+01
 0.1758372466093E+01
 0.1709738103526E+01
 0.1674529728116E+01
 0.1658864440476E+01
 0.1670294794655E+01
 0.1717577425625E+01
 0.1809781818392E+01
 0.1954622125516E+01
 0.2156285363431E+01
 0.2413328739811E+01
 0.2717396032945E+01
 0.3053318984632E+01
 0.3400804043262E+01
 0.3737331859265E+01
 0.2128601812327E+01
 0.2204439432357E+01
 0.2279682004121E+01
 0.2350739564280E+01
 0.2414496695773E+01
 0.2468711592737E+01
 0.2512159359763E+01
 0.2544543439136E+01
 0.2566265947716E+01
 0.2578156744155E+01
 0.2581231734459E+01
 0.2576513095053E+01
 0.2564915699538E+01
 0.2547188935782E+01
 0.2523898728446E+01
 0.2495436119204E+01
 0.2462042438716E+01
 0.2423846347755E+01
 0.2380907638099E+01
 0.2333268908497E+01
 0.2281014834641E+01
 0.2224336464727E+01
 0.2163602861917E+01
 0.2099448949021E+01
 0.2032912486896E+01
 0.1965544971396E+01
 0.1899468971335E+01
 0.1837489856165E+01
 0.1783289568834E+01
 0.1741690957425E+01
 0.1718949412604E+01
 0.1722957808799E+01
 0.1763128249190E+01
 0.1849583613632E+01
 0.1991432894826E+01
 0.2194313787396E+01
 0.2457811353595E+01
 0.2773690605740E+01
 0.3125739573372E+01
 0.3491617851357E+01
 0.3846355305769E+01
 0.2210199679261E+01
 0.2290890179296E+01
 0.2370876718316E+01
 0.2446170673493E+01
 0.2513360766189E+01
 0.2570069866737E+01
 0.2615095316833E+01
 0.2648275252510E+01
 0.2670200995820E+01
 0.2681897382260E+01
 0.2684550457886E+01
 0.2679314182747E+01
 0.2667195011500E+01
 0.2648997854256E+01
 0.2625314110322E+01
 0.2596535819907E+01
 0.2562885056456E+01
 0.2524453795459E+01
 0.2481249513722E+01
 0.2433248177300E+01
 0.2380454757536E+01
 0.2322968918016E+01
 0.2261058185515E+01
 0.2195248468970E+01
 0.2126468865005E+01
 0.2056167232616E+01
 0.1986365715927E+01
 0.1919776495693E+01
 0.1860011200677E+01
 0.1811877028949E+01
 0.1781724690638E+01
 0.1777746466326E+01
 0.1809989841257E+01
 0.1889670316624E+01
 0.2027435544275E+01
 0.2230629142180E+01
 0.2500158912127E+01
 0.2828112168566E+01
 0.3197207724783E+01
 0.3582774903966E+01
 0.3957051552985E+01
 0.2292261689223E+01
 0.2378077821088E+01
 0.2463050269024E+01
 0.2542739512900E+01
 0.2613411702929E+01
 0.2672559902677E+01
 0.2719033107374E+01
 0.2752842734180E+01
 0.2774804564523E+01
 0.2786163865001E+01
 0.2788291504453E+01
 0.2782479302651E+01
 0.2769825863875E+01
 0.2751189410394E+01
 0.2727183703565E+01
 0.2698198790344E+01
 0.2664434978306E+01
 0.2625945449749E+01
 0.2582683334748E+01
 0.2534555584809E+01
 0.2481484301133E+01
 0.2423473398174E+01
 0.2360682811378E+01
 0.2293521025805E+01
 0.2222797018403E+01
 0.2149839483122E+01
 0.2076548961178E+01
 0.2005516101406E+01
 0.1940245813186E+01
 0.1885485155835E+01
 0.1847628863991E+01
 0.1835115816375E+01
 0.1858592449987E+01
 0.1930388786266E+01
 0.2062830594586E+01
 0.2265250410118E+01
 0.2540236792556E+01
 0.2880474297743E+01
 0.3267621857962E+01
 0.3674332955897E+01
 0.4069613799430E+01
 0.2374840965456E+01
 0.2466085959485E+01
 0.2556309294921E+01
 0.2640558660704E+01
 0.2714748549970E+01
 0.2776252689519E+01
 0.2824009554828E+01
 0.2858250080676E+01
 0.2880054406126E+01
 0.2890915193516E+01
 0.2892402198205E+01
 0.2885949602924E+01
 0.2872747059271E+01
 0.2853702574098E+01
 0.2829448345990E+01
 0.2800369116156E+01
 0.2766641004549E+01
 0.2728276683556E+01
 0.2685173501937E+01
 0.2637167739563E+01
 0.2584096269339E+01
 0.2525863777076E+01
 0.2462517527007E+01
 0.2394341211429E+01
 0.2322013218067E+01
 0.2246728215269E+01
 0.2170243878724E+01
 0.2094999567290E+01
 0.2024353702070E+01
 0.1962942846783E+01
 0.1917145493626E+01
 0.1895581085391E+01
 0.1909439499972E+01
 0.1972164307643E+01
 0.2097886795783E+01
 0.2298235689794E+01
 0.2577909415388E+01
 0.2930559129627E+01
 0.3336855858724E+01
 0.3766362974621E+01
 0.4184247900526E+01
 0.2457997932300E+01
 0.2555009899921E+01
 0.2650774500570E+01
 0.2739753200688E+01
 0.2817477750252E+01
 0.2881220029884E+01
 0.2930056442322E+01
 0.2964492584862E+01
 0.2985917650230E+01
 0.2996099637556E+01
 0.2996819902238E+01
 0.2989657298830E+01
 0.2975889345959E+01
 0.2956468780897E+01
 0.2932041434090E+01
 0.2902983126311E+01
 0.2869443523287E+01
 0.2831393557446E+01
 0.2788674067299E+01
 0.2741049840935E+01
 0.2688271086639E+01
 0.2630140795924E+01
 0.2566589631510E+01
 0.2497770427056E+01
 0.2424221878319E+01
 0.2346990942182E+01
 0.2267671685589E+01
 0.2188521617282E+01
 0.2112709995967E+01
 0.2044706746156E+01
 0.1990804377010E+01
 0.1959722354629E+01
 0.1963116632906E+01
 0.2015514399956E+01
 0.2132957918180E+01
 0.2329696979722E+01
 0.2613046910000E+01
 0.2978110013245E+01
 0.3404742884513E+01
 0.3858951434779E+01
 0.4301167434141E+01
 0.2541801906109E+01
 0.2644959144528E+01
 0.2746583393721E+01
 0.2840462650731E+01
 0.2921713586323E+01
 0.2987533565043E+01
 0.3037198721775E+01
 0.3071554711674E+01
 0.3092349213227E+01
 0.3101653664228E+01
 0.3101471446278E+01
 0.3093525479113E+01
 0.3079175460265E+01
 0.3059412082315E+01
 0.3034889078119E+01
 0.3005969471804E+01
 0.2972774448222E+01
 0.2935232564118E+01
 0.2893128241911E+01
 0.2846154911769E+01
 0.2793975715402E+01
 0.2736290617869E+01
 0.2672911061751E+01
 0.2603854516553E+01
 0.2529512649277E+01
 0.2450772758571E+01
 0.2369045797775E+01
 0.2286376868019E+01
 0.2205701217299E+01
 0.2131260594227E+01
 0.2069182064633E+01
 0.2028188922354E+01
 0.2020301255863E+01
 0.2061064470267E+01
 0.2168503261929E+01
 0.2359819681949E+01
 0.2645536800856E+01
 0.3022827986735E+01
 0.3471048816824E+01
 0.3952195112748E+01
 0.4420582004069E+01
 0.2626333080499E+01
 0.2736060469585E+01
 0.2843893565759E+01
 0.2942843082841E+01
 0.3027578354394E+01
 0.3095263240586E+01
 0.3145452125531E+01
 0.3179407715959E+01
 0.3199289943111E+01
 0.3207500762659E+01
 0.3206272549138E+01
 0.3197467951896E+01
 0.3182520218089E+01
 0.3162449336744E+01
 0.3137910281091E+01
 0.3109249208242E+01
 0.3076557138046E+01
 0.3039720329951E+01
 0.2998467834144E+01
 0.2952422933311E+01
 0.2901162445512E+01
 0.2844283217660E+01
 0.2781476306998E+01
 0.2712621114721E+01
 0.2637957111614E+01
 0.2558202338448E+01
 0.2474567194019E+01
 0.2388854821880E+01
 0.2303720487091E+01
 0.2223111642243E+01
 0.2152900893697E+01
 0.2101702625181E+01
 0.2081771982744E+01
 0.2109564994096E+01
 0.2205111936316E+01
 0.2388888204524E+01
 0.2675299937603E+01
 0.3064378987005E+01
 0.3535440090615E+01
 0.4046166506042E+01
 0.4542662771267E+01
 0.2711685043825E+01
 0.2828461754824E+01
 0.2942886663545E+01
 0.3047069442276E+01
 0.3135202143148E+01
 0.3204475055911E+01
 0.3254820078946E+01
 0.3288006785537E+01
 0.3306664548635E+01
 0.3313550247194E+01
 0.3311127327932E+01
 0.3301389219948E+01
 0.3285830741107E+01
 0.3265490524059E+01
 0.3241017225568E+01
 0.3212735969273E+01
 0.3180706388805E+01
 0.3144773369837E+01
 0.3104612719634E+01
 0.3059779989597E+01
 0.3009767671083E+01
 0.2954070733183E+01
 0.2892260249140E+01
 0.2824076859700E+01
 0.2749605231127E+01
 0.2669387525212E+01
 0.2584419122239E+01
 0.2496233865027E+01
 0.2407161341631E+01
 0.2320785342233E+01
 0.2242626200930E+01
 0.2181059726975E+01
 0.2148417571454E+01
 0.2161910182962E+01
 0.2243531242843E+01
 0.2417318873789E+01
 0.2702314034948E+01
 0.3102402417001E+01
 0.3597496808570E+01
 0.4140808965708E+01
 0.4667376459627E+01
 0.2797968036363E+01
 0.2922336713902E+01
 0.3043773293702E+01
 0.3153338025293E+01
 0.3244722039621E+01
 0.3315227902984E+01
 0.3365289817986E+01
 0.3397287734473E+01
 0.3414379421317E+01
 0.3419696185504E+01
 0.3415928048971E+01
 0.3405184737870E+01
 0.3389006967782E+01
 0.3368439335595E+01
 0.3344115825550E+01
 0.3316336396926E+01
 0.3285128675718E+01
 0.3250298082562E+01
 0.3211470540789E+01
 0.3168137629939E+01
 0.3119710875462E+01
 0.3065586015648E+01
 0.3005216183739E+01
 0.2938204744003E+01
 0.2864481863646E+01
 0.2784410810177E+01
 0.2698761427393E+01
 0.2608774488776E+01
 0.2516410254609E+01
 0.2424818198181E+01
 0.2339061376537E+01
 0.2267130796267E+01
 0.2221244970303E+01
 0.2219157237983E+01
 0.2284701072369E+01
 0.2445697316550E+01
 0.2726655887807E+01
 0.3136508014941E+01
 0.3656745043295E+01
 0.4236129902507E+01
 0.4793228284584E+01
 0.2885315702231E+01
 0.3017902894718E+01
 0.3146819639908E+01
 0.3261899366702E+01
 0.3356320477541E+01
 0.3427618292176E+01
 0.3476884998232E+01
 0.3507228358067E+01
 0.3522392786411E+01
 0.3525895957702E+01
 0.3520641685831E+01
 0.3508835256834E+01
 0.3492043814031E+01
 0.3471303384067E+01
 0.3447224368979E+01
 0.3420077705951E+01
 0.3389859205154E+01
 0.3356337912811E+01
 0.3319094639823E+01
 0.3277562244269E+01
 0.3231076078904E+01
 0.3178936661579E+01
 0.3120482738763E+01
 0.3055183927009E+01
 0.2982819095640E+01
 0.2903573376676E+01
 0.2817984886641E+01
 0.2726981752209E+01
 0.2632114170183E+01
 0.2536026356745E+01
 0.2443212493882E+01
 0.2361115294181E+01
 0.2301616262712E+01
 0.2282738945791E+01
 0.2329933040514E+01
 0.2474934378037E+01
 0.2748582002884E+01
 0.3166477293854E+01
 0.3712661324062E+01
 0.4332437632892E+01
 0.4924279277148E+01
 0.2973882729445E+01
 0.3115406033431E+01
 0.3252312556498E+01
 0.3372999804187E+01
 0.3470142200049E+01
 0.3541676117436E+01
 0.3589544513651E+01
 0.3617713271289E+01
 0.3630566770501E+01
 0.3632009564528E+01
 0.3625135907113E+01
 0.3612218718476E+01
 0.3594828114753E+01
 0.3573975265100E+01
 0.3550237686261E+01
 0.3523853846699E+01
 0.3494788860010E+01
 0.3462779794264E+01
 0.3427368696144E+01
 0.3387936651218E+01
 0.3343749285639E+01
 0.3294017465606E+01
 0.3237970808144E+01
 0.3174951063952E+01
 0.3104592478013E+01
 0.3026907580460E+01
 0.2942202479453E+01
 0.2851079662380E+01
 0.2754644927143E+01
 0.2654970710261E+01
 0.2555869607891E+01
 0.2464059965920E+01
 0.2390829771291E+01
 0.2354132331374E+01
 0.2380688940647E+01
 0.2506119779154E+01
 0.2768473357512E+01
 0.3191822292058E+01
 0.3765106499018E+01
 0.4427485826563E+01
 0.5074967081273E+01
 0.3063857331622E+01
 0.3215133013695E+01
 0.3360571810746E+01
 0.3486886087293E+01
 0.3586291242429E+01
 0.3657357911395E+01
 0.3703116169336E+01
 0.3728530009903E+01
 0.3738666013265E+01
 0.3737799966143E+01
 0.3729180289084E+01
 0.3715111717345E+01
 0.3697139948424E+01
 0.3676233509749E+01
 0.3652927568000E+01
 0.3627425237400E+01
 0.3599663072916E+01
 0.3569351952203E+01
 0.3536003215978E+01
 0.3498955022721E+01
 0.3457411592404E+01
 0.3410501448733E+01
 0.3357352178317E+01
 0.3297186112475E+01
 0.3229503482453E+01
 0.3154155426758E+01
 0.3071223236225E+01
 0.2980979900102E+01
 0.2884062898626E+01
 0.2781916746904E+01
 0.2677566487990E+01
 0.2576825892565E+01
 0.2490105980435E+01
 0.2434880753771E+01
 0.2438653590342E+01
 0.2540680259139E+01
 0.2786941196742E+01
 0.3212275875123E+01
 0.3812766252657E+01
 0.4524224228382E+01
 0.5232004944373E+01
 0.3155471175185E+01
 0.3317445182745E+01
 0.3471997070735E+01
 0.3603861622653E+01
 0.3704897792279E+01
 0.3774629673851E+01
 0.3817459341294E+01
 0.3839492066728E+01
 0.3846499572119E+01
 0.3843092049440E+01
 0.3832621154463E+01
 0.3817379781363E+01
 0.3798858524335E+01
 0.3777964641390E+01
 0.3755181808161E+01
 0.3730675770302E+01
 0.3704357868030E+01
 0.3675920102358E+01
 0.3644853016892E+01
 0.3610462739641E+01
 0.3571902373688E+01
 0.3528227058851E+01
 0.3478470954505E+01
 0.3421747496628E+01
 0.3357437008047E+01
 0.3285245851180E+01
 0.3205045142862E+01
 0.3116784091234E+01
 0.3020619767246E+01
 0.2917326148490E+01
 0.2809047026850E+01
 0.2700514682440E+01
 0.2600959843270E+01
 0.2526901556566E+01
 0.2505983983027E+01
 0.2580569218978E+01
 0.2805076680422E+01
 0.3227617991750E+01
 0.3855111200165E+01
 0.4622130117602E+01
 0.5396565286678E+01
 0.3249011114325E+01
 0.3422786026968E+01
 0.3587061801179E+01
 0.3724256921405E+01
 0.3826067943553E+01
 0.3893405109288E+01
 0.3932378447490E+01
 0.3950369478119E+01
 0.3953847642538E+01
 0.3947693909124E+01
 0.3935296225296E+01
 0.3918884659942E+01
 0.3899861626243E+01
 0.3879054383394E+01
 0.3856886775321E+01
 0.3833486288859E+01
 0.3808743711655E+01
 0.3782341078449E+01
 0.3753760019038E+01
 0.3722287799403E+01
 0.3687038913455E+01
 0.3647005837097E+01
 0.3601139268806E+01
 0.3548456044523E+01
 0.3488233932477E+01
 0.3420056536359E+01
 0.3343607255498E+01
 0.3258527819121E+01
 0.3164496951211E+01
 0.3061593753959E+01
 0.2951007756009E+01
 0.2836228555399E+01
 0.2724997028981E+01
 0.2632343759666E+01
 0.2585250457864E+01
 0.2628321434525E+01
 0.2824504223694E+01
 0.3237890861118E+01
 0.3891239427477E+01
 0.4720257022404E+01
 0.5570037938999E+01
 0.3344836802671E+01
 0.3531705457538E+01
 0.3706327932142E+01
 0.3848424014819E+01
 0.3949864709394E+01
 0.4013526379964E+01
 0.4047610747097E+01
 0.4060883898440E+01
 0.4060461200726E+01
 0.4051398548506E+01
 0.4037036929740E+01
 0.4019486599724E+01
 0.4000027650755E+01
 0.3979389438090E+01
 0.3957928966434E+01
 0.3935735940567E+01
 0.3912686641539E+01
 0.3888463653739E+01
 0.3862553631718E+01
 0.3834240655872E+01
 0.3802615668731E+01
 0.3766621164798E+01
 0.3725135572570E+01
 0.3677092766287E+01
 0.3621688103544E+01
 0.3558409560411E+01
 0.3486783069570E+01
 0.3406170292101E+01
 0.3315789635789E+01
 0.3215023767009E+01
 0.3104064827616E+01
 0.2985029966651E+01
 0.2863875659461E+01
 0.2753571381205E+01
 0.2679473497587E+01
 0.2687172239896E+01
 0.2847606837681E+01
 0.3243505496870E+01
 0.3919856852439E+01
 0.4817593430942E+01
 0.5754024360275E+01
 0.3443405570940E+01
 0.3644892631859E+01
 0.3830462388920E+01
 0.3976723957886E+01
 0.4076280135123E+01
 0.4134739721455E+01
 0.4162813215076E+01
 0.4170704828517E+01
 0.4166063131783E+01
 0.4153986728182E+01
 0.4137671459443E+01
 0.4119047084500E+01
 0.4099237937107E+01
 0.4078859468923E+01
 0.4058196734452E+01
 0.4037303713749E+01
 0.4016049610444E+01
 0.3994129601484E+01
 0.3971051367686E+01
 0.3946114225177E+01
 0.3918403612187E+01
 0.3886827038482E+01
 0.3850202997045E+01
 0.3807396845418E+01
 0.3757543765544E+01
 0.3700067716395E+01
 0.3634374707801E+01
 0.3559584728062E+01
 0.3474490889092E+01
 0.3377804371766E+01
 0.3268715827641E+01
 0.3147889812634E+01
 0.3019248272735E+01
 0.2893122491160E+01
 0.2792140288128E+01
 0.2761188883805E+01
 0.2877802789239E+01
 0.3245468138119E+01
 0.3939430311341E+01
 0.4912885653475E+01
 0.5950440631560E+01
 0.3545308240785E+01
 0.3763220901315E+01
 0.3960254296442E+01
 0.4109502681706E+01
 0.4205195098973E+01
 0.4256665528338E+01
 0.4277549602387E+01
 0.4279448052694E+01
 0.4270351405924E+01
 0.4255231184150E+01
 0.4237028646864E+01
 0.4217432052998E+01
 0.4197379386174E+01
 0.4177359284208E+01
 0.4157582196532E+01
 0.4138070179746E+01
 0.4118694087428E+01
 0.4099175063996E+01
 0.4079059772796E+01
 0.4057684137426E+01
 0.4034149696640E+01
 0.4007346872512E+01
 0.3976047768113E+01
 0.3939063869167E+01
 0.3895493544716E+01
 0.3844731772936E+01
 0.3786108376993E+01
 0.3718550124377E+01
 0.3640476811443E+01
 0.3549982009060E+01
 0.3445297754094E+01
 0.3325624424601E+01
 0.3192680512372E+01
 0.3053632749243E+01
 0.2927187101303E+01
 0.2855396222676E+01
 0.2919888001430E+01
 0.3245805642185E+01
 0.3948317126758E+01
 0.5004449843526E+01
 0.6161637801729E+01
 0.3651321867891E+01
 0.3887809981614E+01
 0.4096629837219E+01
 0.4247047489665E+01
 0.4336322530438E+01
 0.4378763350877E+01
 0.4391279645744E+01
 0.4386677632303E+01
 0.4373004841885E+01
 0.4354902350553E+01
 0.4334942655559E+01
 0.4314515544168E+01
 0.4294347309499E+01
 0.4274791166270E+01
 0.4255983274121E+01
 0.4237919404356E+01
 0.4220481902494E+01
 0.4203432246867E+01
 0.4186375713000E+01
 0.4168709267973E+01
 0.4149576417816E+01
 0.4127872226034E+01
 0.4102337524076E+01
 0.4071744172880E+01
 0.4035176977579E+01
 0.3992038829921E+01
 0.3941631448266E+01
 0.3882745008529E+01
 0.3813493662009E+01
 0.3731436769919E+01
 0.3633943138863E+01
 0.3518823063222E+01
 0.3385544489370E+01
 0.3237711178833E+01
 0.3088923589919E+01
 0.2975869868845E+01
 0.2980453122662E+01
 0.3248216632142E+01
 0.3945002909286E+01
 0.5089934154277E+01
 0.6390549460429E+01
 0.3762489447417E+01
 0.4020112618038E+01
 0.4240657893854E+01
 0.4389511872423E+01
 0.4469129311714E+01
 0.4500294042515E+01
 0.4503353604587E+01
 0.4491913041641E+01
 0.4473691905597E+01
 0.4452775637879E+01
 0.4431258431869E+01
 0.4410183697988E+01
 0.4390048441402E+01
 0.4371067289592E+01
 0.4353305819110E+01
 0.4336740996592E+01
 0.4321277327963E+01
 0.4306731474590E+01
 0.4292788101118E+01
 0.4278932636943E+01
 0.4264381493502E+01
 0.4248061350720E+01
 0.4228699342688E+01
 0.4205041118143E+01
 0.4176179538352E+01
 0.4141561943425E+01
 0.4100511570242E+01
 0.4051743831473E+01
 0.3993148020111E+01
 0.3921860671569E+01
 0.3834537130728E+01
 0.3727769641353E+01
 0.3598888414143E+01
 0.3447757356898E+01
 0.3281864282767E+01
 0.3129754176375E+01
 0.3068347231983E+01
 0.3259033446124E+01
 0.3928601851659E+01
 0.5166015844472E+01
 0.6640901592803E+01
 0.3880243914542E+01
 0.4162035871796E+01
 0.4393531681539E+01
 0.4536789268744E+01
 0.4602733006332E+01
 0.4620284666429E+01
 0.4613016741371E+01
 0.4594643008515E+01
 0.4572082778506E+01
 0.4548640222206E+01
 0.4525837832842E+01
 0.4504339037107E+01
 0.4484404063942E+01
 0.4466112198351E+01
 0.4449465812046E+01
 0.4434432296645E+01
 0.4420949427210E+01
 0.4408903695834E+01
 0.4398080231094E+01
 0.4388082884978E+01
 0.4378237791562E+01
 0.4367537513778E+01
 0.4354717275198E+01
 0.4338509096124E+01
 0.4318032139718E+01
 0.4292811291545E+01
 0.4262238373139E+01
 0.4225016806359E+01
 0.4178901171905E+01
 0.4120740875411E+01
 0.4046679162018E+01
 0.3952364576017E+01
 0.3833289651460E+01
 0.3685716081680E+01
 0.3510425009179E+01
 0.3325127610074E+01
 0.3195124189138E+01
 0.3288586825306E+01
 0.3899888859662E+01
 0.5228038897941E+01
 0.6917520928327E+01
 0.4006607501009E+01
 0.4316110210496E+01
 0.4556495249030E+01
 0.4688306264534E+01
 0.4735773939640E+01
 0.4737507397385E+01
 0.4719429468223E+01
 0.4694346999606E+01
 0.4667864538745E+01
 0.4642309134161E+01
 0.4618566234659E+01
 0.4596904877494E+01
 0.4577353132791E+01
 0.4559865254975E+01
 0.4544391556836E+01
 0.4530900635522E+01
 0.4519374621775E+01
 0.4509783448564E+01
 0.4502032842287E+01
 0.4495876537212E+01
 0.4490793640614E+01
 0.4485886955554E+01
 0.4479928959074E+01
 0.4471650759895E+01
 0.4460210844484E+01
 0.4445237019774E+01
 0.4426228239497E+01
 0.4401933853026E+01
 0.4370068646370E+01
 0.4327349681267E+01
 0.4269653064194E+01
 0.4192054069779E+01
 0.4088704184657E+01
 0.3952780413128E+01
 0.3778445268608E+01
 0.3570586682169E+01
 0.3375339138793E+01
 0.3353021813634E+01
 0.3863344008258E+01
 0.5269675620571E+01
 0.7226808472496E+01
 0.4144524492022E+01
 0.4485720557128E+01
 0.4730649992116E+01
 0.4842693284606E+01
 0.4866275815031E+01
 0.4850491932407E+01
 0.4821708491297E+01
 0.4790523972182E+01
 0.4760758971923E+01
 0.4733630325417E+01
 0.4709359368170E+01
 0.4687829713681E+01
 0.4668855308293E+01
 0.4652282995994E+01
 0.4638025824666E+01
 0.4626065624831E+01
 0.4616439444873E+01
 0.4609212311198E+01
 0.4604428101207E+01
 0.4602021435525E+01
 0.4601673873125E+01
 0.4602656440686E+01
 0.4603820777292E+01
 0.4603912793596E+01
 0.4602136438087E+01
 0.4598234014429E+01
 0.4591832833001E+01
 0.4581773454446E+01
 0.4565825746629E+01
 0.4540742897944E+01
 0.4502409758112E+01
 0.4445775247421E+01
 0.4364329857399E+01
 0.4249076192061E+01
 0.4088530682545E+01
 0.3874362544881E+01
 0.3626420519092E+01
 0.3476478491695E+01
 0.3831025486017E+01
 0.5282929080833E+01
 0.7577519848881E+01
 0.4298441268419E+01
 0.4675403700630E+01
 0.4916505982936E+01
 0.4997282478961E+01
 0.4991538116096E+01
 0.4957599668612E+01
 0.4918989975230E+01
 0.4882726279537E+01
 0.4850542388967E+01
 0.4822498182402E+01
 0.4798170035692E+01
 0.4777091388868E+01
 0.4758893765549E+01
 0.4743341306984E+01
 0.4730327873303E+01
 0.4719861401224E+01
 0.4712043394701E+01
 0.4707042782491E+01
 0.4705054638356E+01
 0.4706221829558E+01
 0.4710482191067E+01
 0.4717350443437E+01
 0.4725820742045E+01
 0.4734679041772E+01
 0.4743173199719E+01
 0.4751148851306E+01
 0.4758352219774E+01
 0.4763737248363E+01
 0.4765219587847E+01
 0.4759767319408E+01
 0.4743565990310E+01
 0.4711926433260E+01
 0.4658500778382E+01
 0.4573379869747E+01
 0.4441291618682E+01
 0.4242779645559E+01
 0.3967546322352E+01
 0.3693269562809E+01
 0.3829481771210E+01
 0.5259449932190E+01
 0.7982197614032E+01
 0.4475370541417E+01
 0.4891165623822E+01
 0.5112995745562E+01
 0.5147404789919E+01
 0.5108165716825E+01
 0.5057187014303E+01
 0.5010505243539E+01
 0.4970596328965E+01
 0.4937066768866E+01
 0.4908864607362E+01
 0.4884994346221E+01
 0.4864700821871E+01
 0.4847477631562E+01
 0.4833037307588E+01
 0.4821275242048E+01
 0.4812238718336E+01
 0.4806101747171E+01
 0.4803142417320E+01
 0.4803713647197E+01
 0.4808185723589E+01
 0.4816805878562E+01
 0.4829428278378E+01
 0.4845287879082E+01
 0.4863259039602E+01
 0.4882625761676E+01
 0.4903289243867E+01
 0.4925053697197E+01
 0.4946971290372E+01
 0.4967187779251E+01
 0.4983076881389E+01
 0.4991420385453E+01
 0.4988372938753E+01
 0.4968629642835E+01
 0.4922914249511E+01
 0.4834675212783E+01
 0.4678065461507E+01
 0.4416453977212E+01
 0.4049069781144E+01
 0.3910972036794E+01
 0.5195933655348E+01
 0.8460209557332E+01
 0.4686969706558E+01
 0.5140570460231E+01
 0.5315365536561E+01
 0.5285603720847E+01
 0.5212443553878E+01
 0.5147845138039E+01
 0.5095648037616E+01
 0.5053907592604E+01
 0.5020280138937E+01
 0.4992748740965E+01
 0.4969877209980E+01
 0.4950705051308E+01
 0.4934643959872E+01
 0.4921390884303E+01
 0.4910865276628E+01
 0.4903166831675E+01
 0.4898548236567E+01
 0.4897398014105E+01
 0.4900225883786E+01
 0.4907635189623E+01
 0.4920224754712E+01
 0.4938302333937E+01
 0.4961496481748E+01
 0.4988868815414E+01
 0.5019732505877E+01
 0.5053936825257E+01
 0.5091198139682E+01
 0.5130595555354E+01
 0.5170583796196E+01
 0.5209156241733E+01
 0.5243984989270E+01
 0.5272495788255E+01
 0.5291227679723E+01
 0.5293223381432E+01
 0.5263630738557E+01
 0.5176158925334E+01
 0.4982762523014E+01
 0.4598294692303E+01
 0.4169056600215E+01
 0.5111105162122E+01
 0.9045394472404E+01
 0.4953935591992E+01
 0.5431569311346E+01
 0.5510799637049E+01
 0.5401447694697E+01
 0.5301322341082E+01
 0.5228575075486E+01
 0.5174034189761E+01
 0.5132612826574E+01
 0.5100240541578E+01
 0.5074245807321E+01
 0.5052916358920E+01
 0.5035189447909E+01
 0.5020459110924E+01
 0.5008445784042E+01
 0.4999116308132E+01
 0.4992635078287E+01
 0.4989337471898E+01
 0.4989719557218E+01
 0.4994438928751E+01
 0.5004319929069E+01
 0.5020327391832E+01
 0.5043340284696E+01
 0.5073612781064E+01
 0.5110598307867E+01
 0.5153653059102E+01
 0.5202364874567E+01
 0.5256076282486E+01
 0.5313743615031E+01
 0.5374209545483E+01
 0.5436347535312E+01
 0.5499030031005E+01
 0.5561274616836E+01
 0.5622051742748E+01
 0.5678140801669E+01
 0.5720025473059E+01
 0.5726168942558E+01
 0.5657904380294E+01
 0.5389528158932E+01
 0.4755394282321E+01
 0.5093169865533E+01
 0.9808763551028E+01
 0.5316351690405E+01
 0.5765749093705E+01
 0.5670158639838E+01
 0.5484389155315E+01
 0.5373720852465E+01
 0.5298646167931E+01
 0.5245659264412E+01
 0.5206859922446E+01
 0.5177129669380E+01
 0.5153533185066E+01
 0.5134264540662E+01
 0.5118279032174E+01
 0.5105019422665E+01
 0.5094270251920E+01
 0.5086068459024E+01
 0.5080654111257E+01
 0.5078446988288E+01
 0.5080043771254E+01
 0.5086233710841E+01
 0.5098032949417E+01
 0.5116739059653E+01
 0.5143878648635E+01
 0.5180660594857E+01
 0.5227354691875E+01
 0.5283446774158E+01
 0.5347864722917E+01
 0.5419058509770E+01
 0.5495614562320E+01
 0.5576857928133E+01
 0.5662874678359E+01
 0.5754129707778E+01
 0.5851411514819E+01
 0.5956329112909E+01
 0.6070173669187E+01
 0.6192073291300E+01
 0.6312639880492E+01
 0.6409149962755E+01
 0.6422614679627E+01
 0.5883934861194E+01
 0.5414828156610E+01
 0.1094067446609E+02
 0.5862146972270E+01
 0.6105537035283E+01
 0.5739509148548E+01
 0.5535170392223E+01
 0.5428797203212E+01
 0.5358026413651E+01
 0.5310971783745E+01
 0.5276984124367E+01
 0.5251270953314E+01
 0.5230868894817E+01
 0.5214131184013E+01
 0.5200138163922E+01
 0.5188451214315E+01
 0.5178957058375E+01
 0.5171783983161E+01
 0.5167256671191E+01
 0.5165878695819E+01
 0.5168337046419E+01
 0.5175529710317E+01
 0.5188623582450E+01
 0.5209164733502E+01
 0.5239266773701E+01
 0.5281471088776E+01
 0.5337758148448E+01
 0.5408040064119E+01
 0.5489788333667E+01
 0.5579662122993E+01
 0.5675538925323E+01
 0.5777367206425E+01
 0.5886871631316E+01
 0.6006660102793E+01
 0.6139529759915E+01
 0.6289004769121E+01
 0.6461243645710E+01
 0.6664702950319E+01
 0.6913629193690E+01
 0.7199692689387E+01
 0.7573680707338E+01
 0.7748253570410E+01
 0.6722115835015E+01
 0.1311132936869E+02
 0.6826275983567E+01
 0.6194983483116E+01
 0.5708205000201E+01
 0.5562277017276E+01
 0.5464500273559E+01
 0.5408525766212E+01
 0.5370521673723E+01
 0.5343624395709E+01
 0.5323098584823E+01
 0.5306598098084E+01
 0.5292778734251E+01
 0.5280969773456E+01
 0.5270909736700E+01
 0.5262622977884E+01
 0.5256347049609E+01
 0.5252497909433E+01
 0.5251659586831E+01
 0.5254597307004E+01
 0.5262289378798E+01
 0.5276003508552E+01
 0.5297430649240E+01
 0.5328996847797E+01
 0.5374613321268E+01
 0.5439927251739E+01
 0.5526198432455E+01
 0.5627616542115E+01
 0.5737641853750E+01
 0.5853059822429E+01
 0.5974688318201E+01
 0.6106425623776E+01
 0.6253749522797E+01
 0.6422198681780E+01
 0.6615694745955E+01
 0.6842087348656E+01
 0.7124405358616E+01
 0.7492032068616E+01
 0.8008124184797E+01
 0.8655187201499E+01
 0.1004945860341E+02
 0.1005705768316E+02
 0.1965568726551E+02
 0.1221723984371E+00
 0.1296571997812E+00
 0.1418421885080E+00
 0.1578041874872E+00
 0.1766323194784E+00
 0.1970447682665E+00
 0.2180839655366E+00
 0.2391498406668E+00
 0.2597057147117E+00
 0.2792585756544E+00
 0.2974405996237E+00
 0.3139919695983E+00
 0.3286664474178E+00
 0.3411715219056E+00
 0.3511937592395E+00
 0.3584446166554E+00
 0.3625769465071E+00
 0.3635931674006E+00
 0.3624585135816E+00
 0.3593317243001E+00
 0.1289653808711E+00
 0.1440113347749E+00
 0.1624450557722E+00
 0.1837745980751E+00
 0.2070909262770E+00
 0.2313969194018E+00
 0.2559037017345E+00
 0.2800065624146E+00
 0.3031685411766E+00
 0.3249397478118E+00
 0.3449899569505E+00
 0.3630918278084E+00
 0.3790386619550E+00
 0.3925928389697E+00
 0.4035008059905E+00
 0.4114932873230E+00
 0.4161513259995E+00
 0.4173260994109E+00
 0.4139401086835E+00
 0.4048393125372E+00
 0.1349625270725E+00
 0.1579976139236E+00
 0.1828261959919E+00
 0.2095795694073E+00
 0.2375620568130E+00
 0.2659442621607E+00
 0.2940459049919E+00
 0.3213051631778E+00
 0.3472142334000E+00
 0.3713576471107E+00
 0.3934415608270E+00
 0.4132693665955E+00
 0.4306680807414E+00
 0.4454355825218E+00
 0.4573313175096E+00
 0.4660355676993E+00
 0.4710547835341E+00
 0.4717375327605E+00
 0.4669663159325E+00
 0.4575501035562E+00
 0.1406338066125E+00
 0.1714859113980E+00
 0.2029259978854E+00
 0.2352563859687E+00
 0.2680548261602E+00
 0.3006630749580E+00
 0.3324940217142E+00
 0.3630378307355E+00
 0.3918295921123E+00
 0.4184923015268E+00
 0.4427656262386E+00
 0.4644808200492E+00
 0.4834899483333E+00
 0.4996075133834E+00
 0.5125795421461E+00
 0.5220353740270E+00
 0.5273835610208E+00
 0.5279300185955E+00
 0.5231680182691E+00
 0.5142084214645E+00
 0.1461162206152E+00
 0.1846469759047E+00
 0.2227605104118E+00
 0.2608163383176E+00
 0.2985737310207E+00
 0.3355426734009E+00
 0.3712309035092E+00
 0.4051862555554E+00
 0.4369923616283E+00
 0.4663133506825E+00
 0.4929215469095E+00
 0.5166725644081E+00
 0.5374363489930E+00
 0.5550337633780E+00
 0.5691971559893E+00
 0.5795243477240E+00
 0.5854439185754E+00
 0.5864320713640E+00
 0.5823181117216E+00
 0.5741588528893E+00
 0.1515044843966E+00
 0.1975863623388E+00
 0.2423967075326E+00
 0.2862786881585E+00
 0.3291210331736E+00
 0.3705733739782E+00
 0.4102384449939E+00
 0.4477262711252E+00
 0.4826718829474E+00
 0.5147817288536E+00
 0.5438601739152E+00
 0.5697850766925E+00
 0.5924410147736E+00
 0.6116555036769E+00
 0.6271599947834E+00
 0.6385667502129E+00
 0.6453944571514E+00
 0.6472812548866E+00
 0.6442408016101E+00
 0.6371526175661E+00
 0.1568673188831E+00
 0.2103895491691E+00
 0.2618947573981E+00
 0.3116720617681E+00
 0.3597003585944E+00
 0.4057446425856E+00
 0.4494960780296E+00
 0.4906288170542E+00
 0.5288306567622E+00
 0.5638507921619E+00
 0.5955254100758E+00
 0.6237543491504E+00
 0.6484380294941E+00
 0.6694174091102E+00
 0.6864431799290E+00
 0.6991757279971E+00
 0.7072385654992E+00
 0.7104023985099E+00
 0.7087735188977E+00
 0.7030569040826E+00
 0.1622597983814E+00
 0.2231234390842E+00
 0.2813068458965E+00
 0.3370236529791E+00
 0.3903164735223E+00
 0.4410448991913E+00
 0.4889804818448E+00
 0.5338604249570E+00
 0.5754254133515E+00
 0.6134674875908E+00
 0.6478550458717E+00
 0.6785114483903E+00
 0.7053571486835E+00
 0.7282563782419E+00
 0.7469962899628E+00
 0.7613020143407E+00
 0.7708995688044E+00
 0.7756642634284E+00
 0.7757541160477E+00
 0.7717383174185E+00
 0.1677279603444E+00
 0.2358418461785E+00
 0.3006759001331E+00
 0.3623568668476E+00
 0.4209727926475E+00
 0.4764612435429E+00
 0.5286657210677E+00
 0.5773837500658E+00
 0.6224079540306E+00
 0.6635731609909E+00
 0.7007809617802E+00
 0.7339809935567E+00
 0.7631193091142E+00
 0.7880927951513E+00
 0.8087367529741E+00
 0.8248482719315E+00
 0.8362485015267E+00
 0.8428991644877E+00
 0.8449952247614E+00
 0.8430169578635E+00
 0.1733115510662E+00
 0.2485884447535E+00
 0.3200365054851E+00
 0.3876901616700E+00
 0.4516702014200E+00
 0.5119787907181E+00
 0.5685233043626E+00
 0.6211579364002E+00
 0.6697256452193E+00
 0.7141038754474E+00
 0.7542287583715E+00
 0.7900794910031E+00
 0.8216332771084E+00
 0.8488271759599E+00
 0.8715519768526E+00
 0.8896791213163E+00
 0.9031179256211E+00
 0.9119059174490E+00
 0.9162727973131E+00
 0.9166528022811E+00
 0.1790457151008E+00
 0.2613990302185E+00
 0.3394160225186E+00
 0.4130370567704E+00
 0.4824065834547E+00
 0.5475804368793E+00
 0.6085223238944E+00
 0.6651390377228E+00
 0.7173218878472E+00
 0.7649906691260E+00
 0.8081174949805E+00
 0.8467143513114E+00
 0.8807943989498E+00
 0.9103404192889E+00
 0.9353030441556E+00
 0.9556283485551E+00
 0.9713084604642E+00
 0.9824512271209E+00
 0.9893238052001E+00
 0.9923469652084E+00
 0.1849621465600E+00
 0.2743031801851E+00
 0.3588357366664E+00
 0.4384065363226E+00
 0.5131768153778E+00
 0.5832468417465E+00
 0.6486296326924E+00
 0.7092803509506E+00
 0.7651364675466E+00
 0.8161597460398E+00
 0.8623595982201E+00
 0.9037836248335E+00
 0.9404847712565E+00
 0.9724954075550E+00
 0.9998284289491E+00
 0.1022503898389E+01
 0.1040592916994E+01
 0.1054271285617E+01
 0.1063848399646E+01
 0.1069751940010E+01
 0.1910899114048E+00
 0.2873255707123E+00
 0.3783119605518E+00
 0.4638037006499E+00
 0.5439730888836E+00
 0.6189566720663E+00
 0.6888101620526E+00
 0.7535328212200E+00
 0.8131059759134E+00
 0.8675328385962E+00
 0.9168611790518E+00
 0.9611764918895E+00
 0.1000574368562E+01
 0.1035139301431E+01
 0.1064947571410E+01
 0.1090092086509E+01
 0.1110720019168E+01
 0.1127074281002E+01
 0.1139511858862E+01
 0.1148480656083E+01
 0.1974560881613E+00
 0.3004870819967E+00
 0.3978571066135E+00
 0.4892305721797E+00
 0.5747854745045E+00
 0.6546870632063E+00
 0.7290273917776E+00
 0.7978455516670E+00
 0.8611643455356E+00
 0.9190277675547E+00
 0.9715227011139E+00
 0.1018774253739E+01
 0.1060922675416E+01
 0.1098106075733E+01
 0.1130464303434E+01
 0.1158161542540E+01
 0.1181418403069E+01
 0.1200544178439E+01
 0.1215947628246E+01
 0.1228108083053E+01
 0.2040862556067E+00
 0.3138057223634E+00
 0.4174806724060E+00
 0.5146869269720E+00
 0.6056025730556E+00
 0.6904141669743E+00
 0.7692438734021E+00
 0.8421663447869E+00
 0.9092434344160E+00
 0.9705591167343E+00
 0.1026239854199E+01
 0.1076451586823E+01
 0.1121380534919E+01
 0.1161219111191E+01
 0.1196170177614E+01
 0.1226467153733E+01
 0.1252401193009E+01
 0.1274346392331E+01
 0.1292765409823E+01
 0.1308178415672E+01
 0.2110049068805E+00
 0.3272974750005E+00
 0.4371902231053E+00
 0.5401712155676E+00
 0.6364123186113E+00
 0.7261138702964E+00
 0.8094219191765E+00
 0.8864424072242E+00
 0.9572737923590E+00
 0.1022039129514E+01
 0.1080904690268E+01
 0.1134078064932E+01
 0.1181792207934E+01
 0.1224293895838E+01
 0.1261847849481E+01
 0.1294754180862E+01
 0.1323371153110E+01
 0.1348134924605E+01
 0.1369561974959E+01
 0.1388219461882E+01
 0.2182357952042E+00
 0.3409770662445E+00
 0.4569923357254E+00
 0.5656814993444E+00
 0.6672028363738E+00
 0.7617625828590E+00
 0.8495243585872E+00
 0.9306211214691E+00
 0.1005185504069E+01
 0.1073378699813E+01
 0.1135406864664E+01
 0.1191519770834E+01
 0.1241997471709E+01
 0.1287140702528E+01
 0.1327274411294E+01
 0.1362762389909E+01
 0.1394025995757E+01
 0.1421559612763E+01
 0.1445931392164E+01
 0.1467757409536E+01
 0.2258022351564E+00
 0.3548586929553E+00
 0.4768935316548E+00
 0.5912164155852E+00
 0.6979633599866E+00
 0.7973380975818E+00
 0.8895153688950E+00
 0.9746508899267E+00
 0.1052909104996E+01
 0.1124488435341E+01
 0.1189634938962E+01
 0.1248640939256E+01
 0.1301833699305E+01
 0.1349567190584E+01
 0.1392224608297E+01
 0.1430230038881E+01
 0.1464063430869E+01
 0.1494272648219E+01
 0.1521473529006E+01
 0.1546328753889E+01
 0.2337273888010E+00
 0.3689567410766E+00
 0.4969012255042E+00
 0.6167761903623E+00
 0.7286852215709E+00
 0.8328205363423E+00
 0.9293613937137E+00
 0.1018482065138E+01
 0.1100376578904E+01
 0.1175279793226E+01
 0.1243477736401E+01
 0.1305305617735E+01
 0.1361137907882E+01
 0.1411380918598E+01
 0.1456473900570E+01
 0.1496897608420E+01
 0.1533185741067E+01
 0.1565934192554E+01
 0.1595800952789E+01
 0.1623489514397E+01
 0.2420345275461E+00
 0.3832864860600E+00
 0.5170246670382E+00
 0.6423636597772E+00
 0.7593628614795E+00
 0.8681933190418E+00
 0.9690320818789E+00
 0.1062067892991E+01
 0.1147522357456E+01
 0.1225666201019E+01
 0.1296825657053E+01
 0.1361379249973E+01
 0.1419748680399E+01
 0.1472391669207E+01
 0.1519801254227E+01
 0.1562511127919E+01
 0.1601103730164E+01
 0.1636217092586E+01
 0.1668544666662E+01
 0.1698822730196E+01
 0.2507472988159E+00
 0.3978648117506E+00
 0.5372759151129E+00
 0.6679853370939E+00
 0.7899948926547E+00
 0.9034441887483E+00
 0.1008501277237E+01
 0.1105365496191E+01
 0.1194284343864E+01
 0.1275564178612E+01
 0.1349571961550E+01
 0.1416730184517E+01
 0.1477507957317E+01
 0.1532413573887E+01
 0.1581991638228E+01
 0.1626825070436E+01
 0.1667540029687E+01
 0.1704810682729E+01
 0.1739358782589E+01
 0.1771944097599E+01
 0.2598900004366E+00
 0.4127109496408E+00
 0.5576708392701E+00
 0.6936525120727E+00
 0.8205851969506E+00
 0.9385662632665E+00
 0.1047748024463E+01
 0.1148336858755E+01
 0.1240604917481E+01
 0.1324894414592E+01
 0.1401613974532E+01
 0.1471231058555E+01
 0.1534262647571E+01
 0.1591266987313E+01
 0.1642838182630E+01
 0.1689604788623E+01
 0.1732231773441E+01
 0.1771423557489E+01
 0.1807923255488E+01
 0.1842503689605E+01
 0.2694878726159E+00
 0.4278472504694E+00
 0.5782301585606E+00
 0.7193823865564E+00
 0.8511440511675E+00
 0.9735591055095E+00
 0.1086757579013E+01
 0.1190949796038E+01
 0.1286431900694E+01
 0.1373582775749E+01
 0.1452854184462E+01
 0.1524760031999E+01
 0.1589866033177E+01
 0.1648780087497E+01
 0.1702143981533E+01
 0.1750628500596E+01
 0.1794932680435E+01
 0.1835785553129E+01
 0.1873944939221E+01
 0.1910186762881E+01
 0.2795674206269E+00
 0.4433000041831E+00
 0.5989805322102E+00
 0.7451992563899E+00
 0.8816892871164E+00
 0.1008429811801E+01
 0.1125522416169E+01
 0.1233178901864E+01
 0.1331719477000E+01
 0.1421561236667E+01
 0.1503201225368E+01
 0.1577201856439E+01
 0.1644178951878E+01
 0.1704790187790E+01
 0.1759723535480E+01
 0.1809688836396E+01
 0.1855414640459E+01
 0.1897649211921E+01
 0.1937159019761E+01
 0.1974715061219E+01
 0.2901567804451E+00
 0.4591003217589E+00
 0.6199557143482E+00
 0.7711357466762E+00
 0.9122474862403E+00
 0.1043194113035E+01
 0.1164043229870E+01
 0.1275006460449E+01
 0.1376429046215E+01
 0.1468768714839E+01
 0.1552570726399E+01
 0.1628448765854E+01
 0.1697070745999E+01
 0.1759144751821E+01
 0.1815403830261E+01
 0.1866593963111E+01
 0.1913468836902E+01
 0.1956790883613E+01
 0.1997330196424E+01
 0.2035847677706E+01
 0.3012861291651E+00
 0.4752850813867E+00
 0.6411977714476E+00
 0.7972340910847E+00
 0.9428551909391E+00
 0.1077877463785E+01
 0.1202329891610E+01
 0.1316423290657E+01
 0.1420529983788E+01
 0.1515151779860E+01
 0.1600886001078E+01
 0.1678401164957E+01
 0.1748419957241E+01
 0.1811702094367E+01
 0.1869025040940E+01
 0.1921168284517E+01
 0.1968906419234E+01
 0.2013011305235E+01
 0.2054252901165E+01
 0.2093380487364E+01
 0.3129881707031E+00
 0.4918979795263E+00
 0.6627584067189E+00
 0.8235474991129E+00
 0.9735601727332E+00
 0.1112516155644E+01
 0.1240402402410E+01
 0.1357429553031E+01
 0.1464000333291E+01
 0.1560665266143E+01
 0.1648078607307E+01
 0.1726968148036E+01
 0.1798114800451E+01
 0.1862331798348E+01
 0.1920440883774E+01
 0.1973252729382E+01
 0.2021558714691E+01
 0.2066135605074E+01
 0.2107750707724E+01
 0.2147144457023E+01
 0.3252986949377E+00
 0.5089906800796E+00
 0.6847003805805E+00
 0.8501415883246E+00
 0.1004422721500E+01
 0.1147158408634E+01
 0.1278291784663E+01
 0.1398035462446E+01
 0.1506827374755E+01
 0.1605272735863E+01
 0.1694088732707E+01
 0.1774067812474E+01
 0.1846053388933E+01
 0.1910914824067E+01
 0.1969518587567E+01
 0.2022704581640E+01
 0.2071276913297E+01
 0.2116012735072E+01
 0.2157675075081E+01
 0.2197002890829E+01
 0.3382572248054E+00
 0.5266240908595E+00
 0.7070990577713E+00
 0.8770959088877E+00
 0.1035516976245E+01
 0.1181865455608E+01
 0.1316040925139E+01
 0.1438261915845E+01
 0.1549008079488E+01
 0.1648946808430E+01
 0.1738865431578E+01
 0.1819627405519E+01
 0.1892143760415E+01
 0.1957343363658E+01
 0.2016138529785E+01
 0.2069396873988E+01
 0.2117931207444E+01
 0.2162514318233E+01
 0.2203903519487E+01
 0.2242847388950E+01
 0.3519077898547E+00
 0.5448698129973E+00
 0.7300441338804E+00
 0.9045056082796E+00
 0.1066932335360E+01
 0.1216712648004E+01
 0.1353705389147E+01
 0.1478141047535E+01
 0.1590549459327E+01
 0.1691669365551E+01
 0.1782366730338E+01
 0.1863583333532E+01
 0.1936303744647E+01
 0.2001520486038E+01
 0.2060193574194E+01
 0.2113217361140E+01
 0.2161409352369E+01
 0.2205532698789E+01
 0.2246336849756E+01
 0.2284591529809E+01
 0.3662997969525E+00
 0.5638117395930E+00
 0.7536415119129E+00
 0.9324831899027E+00
 0.1098774879891E+01
 0.1251790500347E+01
 0.1391354111335E+01
 0.1517716608795E+01
 0.1631468703897E+01
 0.1733431531693E+01
 0.1824559518919E+01
 0.1905880978708E+01
 0.1978460648675E+01
 0.2043359572465E+01
 0.2101588119801E+01
 0.2154067078663E+01
 0.2201614654595E+01
 0.2244978080098E+01
 0.2284894415322E+01
 0.2322159928294E+01
 0.3814890734425E+00
 0.5835479092369E+00
 0.7780154549978E+00
 0.9611604964291E+00
 0.1131168934839E+01
 0.1287205791620E+01
 0.1429070073104E+01
 0.1557044270305E+01
 0.1671793194212E+01
 0.1774233515911E+01
 0.1865419324886E+01
 0.1946474445293E+01
 0.2018550915833E+01
 0.2082783728169E+01
 0.2140237053718E+01
 0.2191858670623E+01
 0.2238463587396E+01
 0.2280775301812E+01
 0.2319508814075E+01
 0.2355478464967E+01
 0.3975390490332E+00
 0.6041925889117E+00
 0.8033109945075E+00
 0.9906908798555E+00
 0.1164258706790E+01
 0.1323082645464E+01
 0.1466950874558E+01
 0.1596191741500E+01
 0.1711560276201E+01
 0.1814084200438E+01
 0.1904929876883E+01
 0.1985326187496E+01
 0.2056519778360E+01
 0.2119725261210E+01
 0.2176064747260E+01
 0.2226514625422E+01
 0.2271883215207E+01
 0.2312860844274E+01
 0.2350124095643E+01
 0.2384478843701E+01
 0.4145220878638E+00
 0.6258786432066E+00
 0.8296966672394E+00
 0.1021251616744E+01
 0.1198210036742E+01
 0.1359563604293E+01
 0.1505109194227E+01
 0.1635238665433E+01
 0.1750816720509E+01
 0.1853000379743E+01
 0.1943082359689E+01
 0.2022406452547E+01
 0.2092320909048E+01
 0.2154125335563E+01
 0.2209004278537E+01
 0.2257965615732E+01
 0.2301808503624E+01
 0.2341180002863E+01
 0.2376696047254E+01
 0.2409109499328E+01
 0.4325210401065E+00
 0.6487603155618E+00
 0.8573677177457E+00
 0.1053046724007E+01
 0.1233212394656E+01
 0.1396810836737E+01
 0.1543673249554E+01
 0.1674276375565E+01
 0.1789617916075E+01
 0.1891005676172E+01
 0.1979874380152E+01
 0.2057692582216E+01
 0.2125916206759E+01
 0.2185934094386E+01
 0.2238997357954E+01
 0.2286149448442E+01
 0.2328179867468E+01
 0.2365683787060E+01
 0.2399191593639E+01
 0.2429340556702E+01
 0.4516309344541E+00
 0.6730163157071E+00
 0.8865497705354E+00
 0.1086310012914E+01
 0.1269481045405E+01
 0.1435007326874E+01
 0.1582787119979E+01
 0.1713407290420E+01
 0.1828026532480E+01
 0.1928128837527E+01
 0.2015308341106E+01
 0.2091167867009E+01
 0.2157275471268E+01
 0.2215111264711E+01
 0.2265995304017E+01
 0.2311011214540E+01
 0.2350941155212E+01
 0.2386325154693E+01
 0.2417585921286E+01
 0.2445168407853E+01
 0.4719609277404E+00
 0.6988539414601E+00
 0.9175028566524E+00
 0.1121308942120E+01
 0.1307259489286E+01
 0.1474358557947E+01
 0.1622611191363E+01
 0.1752744153117E+01
 0.1866110770406E+01
 0.1964401484698E+01
 0.2049389245971E+01
 0.2122819937105E+01
 0.2186375837345E+01
 0.2241627209240E+01
 0.2289961826912E+01
 0.2332505842400E+01
 0.2370039165612E+01
 0.2403053819029E+01
 0.2431857624424E+01
 0.2456622728783E+01
 0.4936376146684E+00
 0.7265119779225E+00
 0.9505276366884E+00
 0.1158347239001E+01
 0.1346823169043E+01
 0.1515094362707E+01
 0.1663322690106E+01
 0.1792408835823E+01
 0.1903941743306E+01
 0.1999854991497E+01
 0.2082121571148E+01
 0.2152638167284E+01
 0.2213200576789E+01
 0.2265463470810E+01
 0.2310877034333E+01
 0.2350605999911E+01
 0.2385426586843E+01
 0.2415809797868E+01
 0.2441976990117E+01
 0.2463778658324E+01
 0.5168058354151E+00
 0.7562794796141E+00
 0.9859596430502E+00
 0.1197773991673E+01
 0.1388482072086E+01
 0.1557471821027E+01
 0.1705117185796E+01
 0.1832530042262E+01
 0.1941589654638E+01
 0.2034516479273E+01
 0.2113505311833E+01
 0.2180609564769E+01
 0.2237736333192E+01
 0.2286613508781E+01
 0.2328739011095E+01
 0.2365313646990E+01
 0.2397085165920E+01
 0.2424512029581E+01
 0.2447876948251E+01
 0.2466761885621E+01
 0.5416959412684E+00
 0.7884080784875E+00
 0.1024210644539E+01
 0.1239979745180E+01
 0.1432580696395E+01
 0.1601786864935E+01
 0.1748209979393E+01
 0.1873238715103E+01
 0.1979118395251E+01
 0.2068404838423E+01
 0.2143531816103E+01
 0.2206713634982E+01
 0.2259966714821E+01
 0.2305081718965E+01
 0.2343572541253E+01
 0.2376652117817E+01
 0.2405064054409E+01
 0.2429144421806E+01
 0.2449322686569E+01
 0.2465748253986E+01
 0.4593916282980E+00
 0.7098224489016E+00
 0.7438434537493E+00
 0.7080023101863E+00
 0.6119537687166E+00
 0.4974921649372E+00
 0.4163820402923E+00
 0.3776361032665E+00
 0.3527731769468E+00
 0.3271802809156E+00
 0.2984101595173E+00
 0.2667086604934E+00
 0.2320768468052E+00
 0.1947739072835E+00
 0.1561487179821E+00
 0.1172808570801E+00
 0.7842451367548E-01
 0.4528228719777E-01
 0.2030529773424E-01
 0.9307277141425E-03
 0.3930962653504E+00
 0.6562937696404E+00
 0.6776743159659E+00
 0.6488664069412E+00
 0.5863675684699E+00
 0.5081960013875E+00
 0.4414399096801E+00
 0.3974458119141E+00
 0.3660696172186E+00
 0.3374666343579E+00
 0.3079576758739E+00
 0.2764270686553E+00
 0.2424625323406E+00
 0.2060973253375E+00
 0.1679629202324E+00
 0.1288727026801E+00
 0.8997185382052E-01
 0.5501987365622E-01
 0.2540354203466E-01
 0.2123889866597E-02
 0.3294382271019E+00
 0.5849355632970E+00
 0.6200692889019E+00
 0.5981577303392E+00
 0.5555836128585E+00
 0.5026217853733E+00
 0.4519177622490E+00
 0.4110311249414E+00
 0.3773926752964E+00
 0.3466042271528E+00
 0.3161784634121E+00
 0.2847327276964E+00
 0.2514490987505E+00
 0.2159990123566E+00
 0.1785929476309E+00
 0.1397972236975E+00
 0.1006170337186E+00
 0.6343232494199E-01
 0.2929201439145E-01
 0.4003000796391E-02
 0.2720229835111E+00
 0.5140085289221E+00
 0.5619584982839E+00
 0.5515197732149E+00
 0.5224234224753E+00
 0.4867801094618E+00
 0.4501613673704E+00
 0.4158583029526E+00
 0.3838454720333E+00
 0.3529195814212E+00
 0.3222784271222E+00
 0.2911059849505E+00
 0.2585994047918E+00
 0.2242109504057E+00
 0.1878078313350E+00
 0.1496280134354E+00
 0.1103934116079E+00
 0.7133327788239E-01
 0.3316687878399E-01
 0.5368635539798E-02
 0.2206623441433E+00
 0.4464280428364E+00
 0.5043381396670E+00
 0.5052895223056E+00
 0.4874403042012E+00
 0.4641328668745E+00
 0.4388331497106E+00
 0.4119126294605E+00
 0.3837799725825E+00
 0.3547220433069E+00
 0.3250720234667E+00
 0.2947631612160E+00
 0.2633402034660E+00
 0.2302697069606E+00
 0.1951956324675E+00
 0.1580510923183E+00
 0.1192370218419E+00
 0.7900899648535E-01
 0.3767794671136E-01
 0.5254894188175E-02
 0.1749560010371E+00
 0.3830939065504E+00
 0.4477914080538E+00
 0.4586409966224E+00
 0.4503173808550E+00
 0.4364777525920E+00
 0.4200579858609E+00
 0.4000612104035E+00
 0.3767288255949E+00
 0.3508852338833E+00
 0.3234050772809E+00
 0.2947623711058E+00
 0.2649276122973E+00
 0.2335535788407E+00
 0.2002109224699E+00
 0.1646106309930E+00
 0.1268708526687E+00
 0.8640498138716E-01
 0.4304451637259E-01
 0.3387268656156E-02
 0.1344161794284E+00
 0.3242345370851E+00
 0.3927467888494E+00
 0.4114981425333E+00
 0.4110618365021E+00
 0.4047067031568E+00
 0.3953035344463E+00
 0.3813292705922E+00
 0.3628749349497E+00
 0.3408988527361E+00
 0.3164297491615E+00
 0.2902090456503E+00
 0.2625408758152E+00
 0.2333225015099E+00
 0.2021694750971E+00
 0.1686770144389E+00
 0.1327604929688E+00
 0.9311536914043E-01
 0.4903652067766E-01
 0.2892455991698E-02
 0.9855468301188E-01
 0.2698277281904E+00
 0.3395158587085E+00
 0.3640669726286E+00
 0.3698890675852E+00
 0.3694256804908E+00
 0.3655510156513E+00
 0.3566218072076E+00
 0.3426750133524E+00
 0.3246879472533E+00
 0.3036619189597E+00
 0.2804023738903E+00
 0.2554076659322E+00
 0.2287946958058E+00
 0.2002883208154E+00
 0.1694632205546E+00
 0.1361273713515E+00
 0.9839039812026E-01
 0.5496930022233E-01
 0.7772967090111E-02
 0.6692060925651E-01
 0.2197346266235E+00
 0.2883333368123E+00
 0.3166501421462E+00
 0.3271308225161E+00
 0.3311467048499E+00
 0.3315269817904E+00
 0.3266819325186E+00
 0.3166579301838E+00
 0.3024309287306E+00
 0.2849200486629E+00
 0.2648840383416E+00
 0.2428965377600E+00
 0.2192352979241E+00
 0.1937552117773E+00
 0.1660806839214E+00
 0.1360023058816E+00
 0.1011889814849E+00
 0.5975350958974E-01
 0.1352275157908E-01
 0.3916168098015E-01
 0.1737576399747E+00
 0.2393742129099E+00
 0.2695738998093E+00
 0.2831726937124E+00
 0.2903531916032E+00
 0.2938317397680E+00
 0.2921373306456E+00
 0.2853480926177E+00
 0.2744367321429E+00
 0.2602389639543E+00
 0.2434234752837E+00
 0.2245604264316E+00
 0.2040278003463E+00
 0.1818066801125E+00
 0.1576178217436E+00
 0.1313102304107E+00
 0.1002714526927E+00
 0.6200261545593E-01
 0.1807611410611E-01
 0.1550340025546E-01
 0.1316694549010E+00
 0.1927642617491E+00
 0.2231553929264E+00
 0.2384184391893E+00
 0.2475187380639E+00
 0.2530058580730E+00
 0.2535473736198E+00
 0.2492510945296E+00
 0.2410799033051E+00
 0.2297992138208E+00
 0.2159799827229E+00
 0.2001441346098E+00
 0.1827193642446E+00
 0.1637976710313E+00
 0.1432251013067E+00
 0.1209707192897E+00
 0.9431687699788E-01
 0.6017604728065E-01
 0.1963480083305E-01
 0.1061104051384E-01
 0.9323051594184E-01
 0.1485886877709E+00
 0.1776885303353E+00
 0.1932700172630E+00
 0.2031110295960E+00
 0.2095628452218E+00
 0.2114369646319E+00
 0.2088601075221E+00
 0.2027724845869E+00
 0.1938807635519E+00
 0.1826646237294E+00
 0.1695738253570E+00
 0.1550444662469E+00
 0.1392566889347E+00
 0.1221957657266E+00
 0.1040007389714E+00
 0.8204643015808E-01
 0.5273188349724E-01
 0.1645615625186E-01
 0.2801069732403E-01
 0.5820558349680E-01
 0.1069029006884E+00
 0.1334409227558E+00
 0.1481185236297E+00
 0.1575926495826E+00
 0.1640062527929E+00
 0.1663192117169E+00
 0.1646678954256E+00
 0.1599554533763E+00
 0.1528368830439E+00
 0.1437107892810E+00
 0.1329413623852E+00
 0.1209358066171E+00
 0.1079293733215E+00
 0.9404128449334E-01
 0.7961621226918E-01
 0.6234496970940E-01
 0.3828033140380E-01
 0.7241809013098E-02
 0.4454795428579E-01
 0.2642473561630E-01
 0.6775802504310E-01
 0.9066540671539E-01
 0.1033485732164E+00
 0.1114279705264E+00
 0.1168449586069E+00
 0.1187161637520E+00
 0.1171847289374E+00
 0.1131057382250E+00
 0.1070879223615E+00
 0.9946105664618E-01
 0.9049739470095E-01
 0.8053945362801E-01
 0.6983020080324E-01
 0.5858860386046E-01
 0.4737183654132E-01
 0.3444239142891E-01
 0.1595757958261E-01
 0.1142569713763E-01
 0.5927419437602E-01
 0.4787766216805E-02
 0.3135907447471E-01
 0.4967886754082E-01
 0.5939491436773E-01
 0.6513257505542E-01
 0.6864410174111E-01
 0.6921552523233E-01
 0.6700090206537E-01
 0.6280241611618E-01
 0.5719142949960E-01
 0.5044980860298E-01
 0.4276921171241E-01
 0.3441385927395E-01
 0.2561452141613E-01
 0.1674678617915E-01
 0.9087680019827E-02
 0.6769263353403E-02
 0.1767311001178E-01
 0.3733483394526E-01
 0.7231092474305E-01
 0.2953205831356E-01
 0.7919871481073E-02
 0.1245486035613E-01
 0.1767520281976E-01
 0.2004729946942E-01
 0.2077519412188E-01
 0.1934370985169E-01
 0.1601088165226E-01
 0.1180817796164E-01
 0.8367485743834E-02
 0.8816660887526E-02
 0.1359516849784E-01
 0.2019443989384E-01
 0.2755938655356E-01
 0.3528843203549E-01
 0.4260746934699E-01
 0.4961917387209E-01
 0.5892930032709E-01
 0.7298729222083E-01
 0.8385893458697E-01
 0.5340618234204E-01
 0.3653380063931E-01
 0.2926664388491E-01
 0.2772160353379E-01
 0.2886983178694E-01
 0.3139888073346E-01
 0.3567269660908E-01
 0.4151051877562E-01
 0.4823292468583E-01
 0.5531509849253E-01
 0.6249439531746E-01
 0.6966858586490E-01
 0.7676104620462E-01
 0.8382392964559E-01
 0.9095036869950E-01
 0.9780626564921E-01
 0.1040025911086E+00
 0.1105104227707E+00
 0.1185847962060E+00
 0.9413359582078E-01
 0.7518483684135E-01
 0.6599396031113E-01
 0.6426671274308E-01
 0.6743347712905E-01
 0.7305533057802E-01
 0.7979635424965E-01
 0.8778710372584E-01
 0.9676303857521E-01
 0.1060652021133E+00
 0.1151807756560E+00
 0.1238259327659E+00
 0.1318726086938E+00
 0.1392371344415E+00
 0.1460103529637E+00
 0.1525022717340E+00
 0.1589200661573E+00
 0.1652887220291E+00
 0.1713702100046E+00
 0.1743366090164E+00
 0.1033618760686E+00
 0.9509704644283E-01
 0.9338233549500E-01
 0.9759776304597E-01
 0.1059948193383E+00
 0.1165736021720E+00
 0.1280345589795E+00
 0.1402830504165E+00
 0.1529821661807E+00
 0.1655152162374E+00
 0.1773966002102E+00
 0.1883178281439E+00
 0.1980882382884E+00
 0.2065312404671E+00
 0.2136018467578E+00
 0.2195581780197E+00
 0.2250170132865E+00
 0.2304938983276E+00
 0.2380164286186E+00
 0.2405142142337E+00
 0.1120584227247E+00
 0.1131218470109E+00
 0.1184968733942E+00
 0.1288255660449E+00
 0.1427229149541E+00
 0.1586103822551E+00
 0.1752555423350E+00
 0.1923022244071E+00
 0.2093023250903E+00
 0.2256901476948E+00
 0.2410382937702E+00
 0.2550522021209E+00
 0.2674945023835E+00
 0.2780875887029E+00
 0.2865754636585E+00
 0.2928452170525E+00
 0.2971650150247E+00
 0.2999539575948E+00
 0.3037230540024E+00
 0.3118801165453E+00
 0.5761451041228E+00
 0.8358489263028E+00
 0.1083464446617E+01
 0.1307430575944E+01
 0.1504719242888E+01
 0.1675326774634E+01
 0.1820317375798E+01
 0.1941670348296E+01
 0.2042311372229E+01
 0.2125411305132E+01
 0.2193854907879E+01
 0.2250165778220E+01
 0.2296571662970E+01
 0.2334997895736E+01
 0.2367022938593E+01
 0.2393908409196E+01
 0.2416671871512E+01
 0.2435525868785E+01
 0.2451060624290E+01
 0.2465197207254E+01
 0.6156741347742E+00
 0.8978994064948E+00
 0.1162355447146E+01
 0.1398099619111E+01
 0.1601772241404E+01
 0.1773877326288E+01
 0.1916213171609E+01
 0.2031595110774E+01
 0.2124007448025E+01
 0.2197592468285E+01
 0.2255943282224E+01
 0.2302063549251E+01
 0.2338499731478E+01
 0.2367383015021E+01
 0.2390424385988E+01
 0.2409031794894E+01
 0.2424533868788E+01
 0.2436953285238E+01
 0.2447046437983E+01
 0.2456550641931E+01
 0.6579959194027E+00
 0.9659106156281E+00
 0.1247982584850E+01
 0.1494208103984E+01
 0.1701941780648E+01
 0.1872652781999E+01
 0.2009183164781E+01
 0.2115374240425E+01
 0.2196543324578E+01
 0.2257983454650E+01
 0.2304038202206E+01
 0.2338180671588E+01
 0.2363277424299E+01
 0.2381664044047E+01
 0.2395183706636E+01
 0.2405378438346E+01
 0.2413712453592E+01
 0.2419626149776E+01
 0.2423987872343E+01
 0.2429070475626E+01
 0.7043700345068E+00
 0.1040476084790E+01
 0.1340639906132E+01
 0.1595771255772E+01
 0.1804682503160E+01
 0.1970472178452E+01
 0.2097458004361E+01
 0.2190885412665E+01
 0.2257700752869E+01
 0.2304457790156E+01
 0.2336237850695E+01
 0.2356935287183E+01
 0.2369684363700E+01
 0.2376954005256E+01
 0.2380633568802E+01
 0.2382272770934E+01
 0.2383235437073E+01
 0.2382200842111E+01
 0.2380813783178E+01
 0.2383185651805E+01
 0.7556466816738E+00
 0.1122766653918E+01
 0.1440859916920E+01
 0.1702652102252E+01
 0.1909130732014E+01
 0.2065764672123E+01
 0.2178940894132E+01
 0.2255792457962E+01
 0.2305186363720E+01
 0.2334959853053E+01
 0.2350833893092E+01
 0.2357008780774E+01
 0.2356771174529E+01
 0.2352592295191E+01
 0.2346275046824E+01
 0.2339240449187E+01
 0.2332584262885E+01
 0.2324353097748E+01
 0.2317779029614E+01
 0.2319470760918E+01
 0.8127677665116E+00
 0.1214002149366E+01
 0.1549252534812E+01
 0.1814547441869E+01
 0.2014074136119E+01
 0.2156562415665E+01
 0.2251202350093E+01
 0.2307578335271E+01
 0.2336702375808E+01
 0.2347586085747E+01
 0.2346384247972E+01
 0.2337412829035E+01
 0.2323939381655E+01
 0.2308270933861E+01
 0.2291986707573E+01
 0.2276276403774E+01
 0.2261893000618E+01
 0.2246514325952E+01
 0.2235599592012E+01
 0.2238545513299E+01
 0.8768176553795E+00
 0.1315529535894E+01
 0.1666372093005E+01
 0.1930904547222E+01
 0.2117895765777E+01
 0.2240468748811E+01
 0.2311497962892E+01
 0.2343611078093E+01
 0.2350044117157E+01
 0.2340691237180E+01
 0.2321813379020E+01
 0.2297581986663E+01
 0.2271034432179E+01
 0.2244136300668E+01
 0.2218123852898E+01
 0.2193894834843E+01
 0.2171840808042E+01
 0.2149564661231E+01
 0.2135209138304E+01
 0.2141096898672E+01
 0.9490772996783E+00
 0.1428837069806E+01
 0.1792662923081E+01
 0.2050815545090E+01
 0.2218489636820E+01
 0.2314627255001E+01
 0.2356809766444E+01
 0.2361246942397E+01
 0.2343231159578E+01
 0.2313017754030E+01
 0.2276523246114E+01
 0.2237461757719E+01
 0.2198412687833E+01
 0.2160833639541E+01
 0.2125527845773E+01
 0.2093074990522E+01
 0.2063514517284E+01
 0.2034670933512E+01
 0.2017686362195E+01
 0.2027901488193E+01
 0.1031076781859E+01
 0.1555573600414E+01
 0.1928386740278E+01
 0.2172896780817E+01
 0.2313159501772E+01
 0.2375702566339E+01
 0.2383927663650E+01
 0.2357980103980E+01
 0.2314672478932E+01
 0.2263838005711E+01
 0.2210495623819E+01
 0.2157569514071E+01
 0.2106966071296E+01
 0.2059499012289E+01
 0.2015483198484E+01
 0.1975180545983E+01
 0.1938302667128E+01
 0.1903200511575E+01
 0.1884231307980E+01
 0.1899827114378E+01
 0.1124661282389E+01
 0.1697563135421E+01
 0.2073520313100E+01
 0.2295129852251E+01
 0.2398506232065E+01
 0.2419892573791E+01
 0.2389592353260E+01
 0.2331649211542E+01
 0.2263359255185E+01
 0.2193090708947E+01
 0.2124363361055E+01
 0.2059011284500E+01
 0.1998100350095E+01
 0.1941711280230E+01
 0.1889650528634E+01
 0.1841881130549E+01
 0.1797820081151E+01
 0.1756675598554E+01
 0.1736158192255E+01
 0.1757830430801E+01
 0.1232079289412E+01
 0.1856813019196E+01
 0.2227598672231E+01
 0.2414646146346E+01
 0.2470310449181E+01
 0.2443003060717E+01
 0.2370728253125E+01
 0.2280705140377E+01
 0.2189065455198E+01
 0.2101481276721E+01
 0.2019425388397E+01
 0.1943443512902E+01
 0.1873671374616E+01
 0.1809419215441E+01
 0.1749993383491E+01
 0.1695086692747E+01
 0.1643859574213E+01
 0.1596755568439E+01
 0.1574905555483E+01
 0.1602966481807E+01
 0.1356106260584E+01
 0.2035506076089E+01
 0.2389465415665E+01
 0.2527430043209E+01
 0.2523432618676E+01
 0.2440636177014E+01
 0.2324798287066E+01
 0.2204525769276E+01
 0.2092512219882E+01
 0.1990503087427E+01
 0.1897583945737E+01
 0.1812981520221E+01
 0.1735894388601E+01
 0.1664861160332E+01
 0.1598711645366E+01
 0.1536900089055E+01
 0.1478370227881E+01
 0.1425248610501E+01
 0.1402074246675E+01
 0.1436426374135E+01
 0.1500224921665E+01
 0.2235953870076E+01
 0.2556859994189E+01
 0.2627911271407E+01
 0.2551786690704E+01
 0.2408576244945E+01
 0.2250300485637E+01
 0.2103720107029E+01
 0.1975417628252E+01
 0.1862334298246E+01
 0.1761203432869E+01
 0.1670079301256E+01
 0.1587252076832E+01
 0.1510492755773E+01
 0.1438187170228E+01
 0.1369588610671E+01
 0.1303464032034E+01
 0.1244160692839E+01
 0.1219508066497E+01
 0.1259621707319E+01
 0.1668898533030E+01
 0.2460455046909E+01
 0.2725708845902E+01
 0.2708421804689E+01
 0.2548518796723E+01
 0.2343493457258E+01
 0.2147369253968E+01
 0.1980279821742E+01
 0.1840327093900E+01
 0.1719598061521E+01
 0.1612938728274E+01
 0.1517429310365E+01
 0.1430425122951E+01
 0.1348925332932E+01
 0.1270935929577E+01
 0.1195570754523E+01
 0.1121455314838E+01
 0.1055795543105E+01
 0.1029436563223E+01
 0.1074340182458E+01
 0.1868003004852E+01
 0.2710916914949E+01
 0.2888855067528E+01
 0.2758545697598E+01
 0.2506681726776E+01
 0.2244094151752E+01
 0.2018269902447E+01
 0.1837325252891E+01
 0.1690157679456E+01
 0.1565083321624E+01
 0.1455636055783E+01
 0.1357925971822E+01
 0.1268241506368E+01
 0.1182854881024E+01
 0.1099551124169E+01
 0.1017414531434E+01
 0.9349422691030E+00
 0.8629262400972E+00
 0.8347064032201E+00
 0.8830061184196E+00
 0.2105539874480E+01
 0.2987843350661E+01
 0.3033691677918E+01
 0.2764603378328E+01
 0.2421034311750E+01
 0.2112644046439E+01
 0.1867215032419E+01
 0.1678143478783E+01
 0.1527662142764E+01
 0.1401657982861E+01
 0.1292396026131E+01
 0.1194674615149E+01
 0.1103593987744E+01
 0.1014946529404E+01
 0.9266258048726E+00
 0.8378486359334E+00
 0.7469442675609E+00
 0.6690646228492E+00
 0.6391382190784E+00
 0.6890966264295E+00
 0.2392899302721E+01
 0.3287527792820E+01
 0.3137497656287E+01
 0.2710487394461E+01
 0.2291969845185E+01
 0.1956020923294E+01
 0.1698219339368E+01
 0.1504999650463E+01
 0.1355353769623E+01
 0.1232569780862E+01
 0.1126752038935E+01
 0.1030923355298E+01
 0.9392513880876E+00
 0.8476636395077E+00
 0.7546611692606E+00
 0.6597912883654E+00
 0.5610961463554E+00
 0.4788557410171E+00
 0.4480660249018E+00
 0.4978025938941E+00
 0.2746897647355E+01
 0.3592717088384E+01
 0.3158997577988E+01
 0.2583488729544E+01
 0.2133317319622E+01
 0.1781284942314E+01
 0.1512199280561E+01
 0.1318993591981E+01
 0.1176305943797E+01
 0.1062067269524E+01
 0.9626684125522E+00
 0.8697436519119E+00
 0.7775653614735E+00
 0.6830837998516E+00
 0.5859936423015E+00
 0.4863610090769E+00
 0.3818713898896E+00
 0.2985925317932E+00
 0.2691426030959E+00
 0.3171358389501E+00
 0.3195231638696E+01
 0.3841538746753E+01
 0.3018921856944E+01
 0.2411471451941E+01
 0.1963967261959E+01
 0.1588357364155E+01
 0.1306361491047E+01
 0.1121593155002E+01
 0.9959681030942E+00
 0.8956520530901E+00
 0.8038999749710E+00
 0.7134739066288E+00
 0.6202361130071E+00
 0.5228332657415E+00
 0.4226208833507E+00
 0.3208951610140E+00
 0.2146778937704E+00
 0.1366752397333E+00
 0.1134725141672E+00
 0.1599396098254E+00
 0.3736001240816E+01
 0.3663095659319E+01
 0.2754803851568E+01
 0.2249945323908E+01
 0.1788460539961E+01
 0.1369128497059E+01
 0.1074701701760E+01
 0.9198259533162E+00
 0.8234248523912E+00
 0.7386506398996E+00
 0.6527740811118E+00
 0.5633005160393E+00
 0.4684419595652E+00
 0.3682014167246E+00
 0.2659580159055E+00
 0.1659160446462E+00
 0.6720655949453E-01
 0.4223121067054E-02
 0.7600146834584E-02
 0.4664846250618E-01
 0.3284289733172E+00
 0.2561481449593E+00
 0.1959591850832E+00
 0.1444654358605E+00
 0.1014471574036E+00
 0.6755209405913E-01
 0.4288066489415E-01
 0.2699541005814E-01
 0.1894913144292E-01
 0.1737321377817E-01
 0.2049737728867E-01
 0.2628104118623E-01
 0.3269373380727E-01
 0.3794463265580E-01
 0.4070081660324E-01
 0.4027357462641E-01
 0.3670969822485E-01
 0.3075683945153E-01
 0.2374865615229E-01
 0.1736869547098E-01
 0.3763077377066E+00
 0.3100041569170E+00
 0.2440048007647E+00
 0.1869149735717E+00
 0.1393103888622E+00
 0.1013823260896E+00
 0.7324528445984E-01
 0.5462219211042E-01
 0.4473818596158E-01
 0.4228753864712E-01
 0.4545778102733E-01
 0.5205420657897E-01
 0.5972606156798E-01
 0.6624178069422E-01
 0.6979281519085E-01
 0.6928134481388E-01
 0.6450677275757E-01
 0.5617509547073E-01
 0.4570912357679E-01
 0.3515326850587E-01
 0.4259221541193E+00
 0.3612363227596E+00
 0.2953147254029E+00
 0.2344140022897E+00
 0.1820975748269E+00
 0.1394663638862E+00
 0.1069753824100E+00
 0.8463146852992E-01
 0.7191753937465E-01
 0.6771771168122E-01
 0.7029559417506E-01
 0.7737151838661E-01
 0.8631539969015E-01
 0.9443779320037E-01
 0.9936120353591E-01
 0.9942268391990E-01
 0.9399907689688E-01
 0.8361254693362E-01
 0.6974616083164E-01
 0.5443028382165E-01
 0.4796190548215E+00
 0.4148514280545E+00
 0.3488903134942E+00
 0.2859882194885E+00
 0.2297237237085E+00
 0.1822714367184E+00
 0.1447755526250E+00
 0.1177446920678E+00
 0.1010864912736E+00
 0.9403719840317E-01
 0.9509838805714E-01
 0.1020498453271E+00
 0.1120842512254E+00
 0.1220782604010E+00
 0.1290028504872E+00
 0.1304412572847E+00
 0.1250982977515E+00
 0.1131001252932E+00
 0.9588317809226E-01
 0.7557485571870E-01
 0.5374036028867E+00
 0.4722896530526E+00
 0.4061777666202E+00
 0.3418504476963E+00
 0.2824461402601E+00
 0.2304450857496E+00
 0.1876076965315E+00
 0.1550424285989E+00
 0.1332282614558E+00
 0.1219362015607E+00
 0.1201222118877E+00
 0.1258608248341E+00
 0.1363849281705E+00
 0.1482800941915E+00
 0.1578713226685E+00
 0.1618146473912E+00
 0.1578120551981E+00
 0.1452132828798E+00
 0.1251630332373E+00
 0.1000594300730E+00
 0.5992364265985E+00
 0.5340732135298E+00
 0.4679765409744E+00
 0.4027174715633E+00
 0.3408431314992E+00
 0.2847975811637E+00
 0.2366528326043E+00
 0.1980242159728E+00
 0.1699916657980E+00
 0.1529809890460E+00
 0.1466061528763E+00
 0.1495157012358E+00
 0.1593070974565E+00
 0.1725799318638E+00
 0.1852031110744E+00
 0.1928731830496E+00
 0.1919751155461E+00
 0.1805607131985E+00
 0.1589993100683E+00
 0.1298159590898E+00
 0.6650381017782E+00
 0.6004549270855E+00
 0.5348349877031E+00
 0.4692522524289E+00
 0.4056681703779E+00
 0.3462782495209E+00
 0.2932183537053E+00
 0.2484119980689E+00
 0.2134433573646E+00
 0.1894011412206E+00
 0.1766800572242E+00
 0.1747519386421E+00
 0.1819490859286E+00
 0.1953302029887E+00
 0.2107248166522E+00
 0.2230910223970E+00
 0.2273354732306E+00
 0.2195960563388E+00
 0.1985977939309E+00
 0.1662739313606E+00
 0.7346568387066E+00
 0.6714873687161E+00
 0.6070649857881E+00
 0.5419758009875E+00
 0.4776422979434E+00
 0.4158942058333E+00
 0.3587245479118E+00
 0.3081418030338E+00
 0.2660421956823E+00
 0.2340565740315E+00
 0.2133470037540E+00
 0.2043447543121E+00
 0.2064412214107E+00
 0.2176741824921E+00
 0.2344910480977E+00
 0.2517334150155E+00
 0.2630968128345E+00
 0.2623683655917E+00
 0.2454075881745E+00
 0.2120682435874E+00
 0.8078631481000E+00
 0.7470604533053E+00
 0.6847535453387E+00
 0.6211790327883E+00
 0.5572883357843E+00
 0.4944914488100E+00
 0.4344874270853E+00
 0.3791556911572E+00
 0.3304633502557E+00
 0.2903517830364E+00
 0.2605746074201E+00
 0.2424645761727E+00
 0.2366132373819E+00
 0.2424622070710E+00
 0.2578351617546E+00
 0.2784950974312E+00
 0.2979406516511E+00
 0.3079440952148E+00
 0.3004904850413E+00
 0.2709509188368E+00
 0.8843522860216E+00
 0.8269343993042E+00
 0.7677887541502E+00
 0.7069052858841E+00
 0.6448464373508E+00
 0.5826038688092E+00
 0.5214965866492E+00
 0.4631085693234E+00
 0.4092422928747E+00
 0.3618626609136E+00
 0.3230065848655E+00
 0.2946321424698E+00
 0.2783769485486E+00
 0.2751908921641E+00
 0.2848099246279E+00
 0.3050528988156E+00
 0.3309788294359E+00
 0.3541699663172E+00
 0.3632129803406E+00
 0.3469119614188E+00
 0.9637502276989E+00
 0.9107561607447E+00
 0.8558734659159E+00
 0.7989386845004E+00
 0.7402187445002E+00
 0.6803360434794E+00
 0.6202153063556E+00
 0.5610571454533E+00
 0.5043291298227E+00
 0.4517602264647E+00
 0.4053222230343E+00
 0.3671780721405E+00
 0.3395696391556E+00
 0.3246039041351E+00
 0.3238759484369E+00
 0.3378369855588E+00
 0.3647740445995E+00
 0.3992194571200E+00
 0.4298781140394E+00
 0.4396715340440E+00
 0.1045607381142E+01
 0.9980424930013E+00
 0.9485138064036E+00
 0.8967915162204E+00
 0.8429442958723E+00
 0.7873084918117E+00
 0.7304643665882E+00
 0.6732298080673E+00
 0.6166710447107E+00
 0.5621254691830E+00
 0.5112295250180E+00
 0.4659421842077E+00
 0.4285497455111E+00
 0.4016278076698E+00
 0.3879164072073E+00
 0.3900257505756E+00
 0.4098069724188E+00
 0.4470448629679E+00
 0.4965382852986E+00
 0.5421979149947E+00
 0.1129391400580E+01
 0.1088141085366E+01
 0.1044957361894E+01
 0.9996132108951E+00
 0.9520727517526E+00
 0.9024878320843E+00
 0.8511906730478E+00
 0.7986958773501E+00
 0.7457158171861E+00
 0.6931899095903E+00
 0.6423271314257E+00
 0.5946607081465E+00
 0.5521132155276E+00
 0.5170681956193E+00
 0.4924387269151E+00
 0.4817085853666E+00
 0.4888866328784E+00
 0.5181982529055E+00
 0.5730496116138E+00
 0.6509181376147E+00
 0.1214515788086E+01
 0.1180280185038E+01
 0.1144248156173E+01
 0.1106240405265E+01
 0.1066194691545E+01
 0.1024176866994E+01
 0.9803836240422E+00
 0.9351489471010E+00
 0.8889597371247E+00
 0.8424835181034E+00
 0.7966107234962E+00
 0.7525149525490E+00
 0.7117366122722E+00
 0.6762989226287E+00
 0.6488714300092E+00
 0.6330080652184E+00
 0.6335095565377E+00
 0.6570255543165E+00
 0.7131346618874E+00
 0.8174166692901E+00
 0.1300366486301E+01
 0.1273633999204E+01
 0.1245325756325E+01
 0.1215331541671E+01
 0.1183612986323E+01
 0.1150220681105E+01
 0.1115303437576E+01
 0.1079118609969E+01
 0.1042048633312E+01
 0.1004627357250E+01
 0.9675797267946E+00
 0.9318795994533E+00
 0.8988331774461E+00
 0.8702004924519E+00
 0.8483766903352E+00
 0.8366731085310E+00
 0.8397786764884E+00
 0.8645760583193E+00
 0.9217815098216E+00
 0.1030076428010E+01
 0.1386322299586E+01
 0.1367368969458E+01
 0.1347107608667E+01
 0.1325499548357E+01
 0.1302550660223E+01
 0.1278329341328E+01
 0.1252978477023E+01
 0.1226727221829E+01
 0.1199906543059E+01
 0.1172971534754E+01
 0.1146533446481E+01
 0.1121405096527E+01
 0.1098664929630E+01
 0.1079747780879E+01
 0.1066575131358E+01
 0.1061745774816E+01
 0.1068821213127E+01
 0.1092759771793E+01
 0.1140566186533E+01
 0.1221448712535E+01
 0.1471772197896E+01
 0.1460675335304E+01
 0.1448547328340E+01
 0.1435411941210E+01
 0.1421318808053E+01
 0.1406359509595E+01
 0.1390678972221E+01
 0.1374485692715E+01
 0.1358063293663E+01
 0.1341785229118E+01
 0.1326134109053E+01
 0.1311726984216E+01
 0.1299347862662E+01
 0.1289988401000E+01
 0.1284896399499E+01
 0.1285627416877E+01
 0.1294081473749E+01
 0.1312467626607E+01
 0.1342980223635E+01
 0.1386795358465E+01
 0.1556128041086E+01
 0.1552784273618E+01
 0.1548661237083E+01
 0.1543829685576E+01
 0.1538370356698E+01
 0.1532386910965E+01
 0.1526014662714E+01
 0.1519427023984E+01
 0.1512840915845E+01
 0.1506521777614E+01
 0.1500788175251E+01
 0.1496015249134E+01
 0.1492635077211E+01
 0.1491129944437E+01
 0.1492010486720E+01
 0.1495762616733E+01
 0.1502731267465E+01
 0.1512876269004E+01
 0.1525315041134E+01
 0.1537713395619E+01
 0.1638835079981E+01
 0.1642980244310E+01
 0.1646544380529E+01
 0.1649627007339E+01
 0.1652321370654E+01
 0.1654724067864E+01
 0.1656940319318E+01
 0.1659085741540E+01
 0.1661285088835E+01
 0.1663667817711E+01
 0.1666359598231E+01
 0.1669467989961E+01
 0.1673059234004E+01
 0.1677121227799E+01
 0.1681504921686E+01
 0.1685832513531E+01
 0.1689356775643E+01
 0.1690760585866E+01
 0.1687919979239E+01
 0.1677621355740E+01
 0.1719380549115E+01
 0.1730610236169E+01
 0.1741381262139E+01
 0.1751803386492E+01
 0.1761961857770E+01
 0.1771924824811E+01
 0.1781745447159E+01
 0.1791459395161E+01
 0.1801078017075E+01
 0.1810576784048E+01
 0.1819878011171E+01
 0.1828826212247E+01
 0.1837153772229E+01
 0.1844434004748E+01
 0.1850018483099E+01
 0.1852956826960E+01
 0.1851902780070E+01
 0.1845024766980E+01
 0.1829955295878E+01
 0.1803863756607E+01
 0.1797297443619E+01
 0.1815085965185E+01
 0.1832447658698E+01
 0.1849483895319E+01
 0.1866251845908E+01
 0.1882771160485E+01
 0.1899023739436E+01
 0.1914948333576E+01
 0.1930430370400E+01
 0.1945286836357E+01
 0.1959245654562E+01
 0.1971918777571E+01
 0.1982768239460E+01
 0.1991064915628E+01
 0.1995841180533E+01
 0.1995841823476E+01
 0.1989483163671E+01
 0.1974836939195E+01
 0.1949664398428E+01
 0.1911557550575E+01
 0.1872162051625E+01
 0.1895879843013E+01
 0.1919104269492E+01
 0.1941908923854E+01
 0.1964305025968E+01
 0.1986246952357E+01
 0.2007630924878E+01
 0.2028288607545E+01
 0.2047976337478E+01
 0.2066360261427E+01
 0.2082997511767E+01
 0.2097313655380E+01
 0.2108577053328E+01
 0.2115871604719E+01
 0.2118070747033E+01
 0.2113817444100E+01
 0.2101516334651E+01
 0.2079343483908E+01
 0.2045273848998E+01
 0.1997070489370E+01
 0.1943604792886E+01
 0.1972540755716E+01
 0.2000812641644E+01
 0.2028449619834E+01
 0.2055402132099E+01
 0.2081546554677E+01
 0.2106684193182E+01
 0.2130535959022E+01
 0.2152733663271E+01
 0.2172808691292E+01
 0.2190178855802E+01
 0.2204134440278E+01
 0.2213824825044E+01
 0.2218247585067E+01
 0.2216242366434E+01
 0.2206491707187E+01
 0.2187529425214E+01
 0.2157753207957E+01
 0.2115426103074E+01
 0.2058648686774E+01
 0.2011307563311E+01
 0.2044689735931E+01
 0.2077129751206E+01
 0.2108600112344E+01
 0.2138979210293E+01
 0.2168056598172E+01
 0.2195534013640E+01
 0.2221023099084E+01
 0.2244040908965E+01
 0.2264004389757E+01
 0.2280225130494E+01
 0.2291905828580E+01
 0.2298140041780E+01
 0.2297916755926E+01
 0.2290130823846E+01
 0.2273599073465E+01
 0.2247079679994E+01
 0.2209289319852E+01
 0.2158914017039E+01
 0.2094627234439E+01
 0.2075001328051E+01
 0.2112013740664E+01
 0.2147699298658E+01
 0.2181965641181E+01
 0.2214611039494E+01
 0.2245332621688E+01
 0.2273731443995E+01
 0.2299314930535E+01
 0.2321497983050E+01
 0.2339604321371E+01
 0.2352869686890E+01
 0.2360448524103E+01
 0.2361425618271E+01
 0.2354833796879E+01
 0.2339678050431E+01
 0.2314965222923E+01
 0.2279736877153E+01
 0.2233102461081E+01
 0.2174272973026E+01
 0.2102596602957E+01
 0.2134463224176E+01
 0.2174259442607E+01
 0.2212242637494E+01
 0.2248250318554E+01
 0.2281994543338E+01
 0.2313076587598E+01
 0.2340998212658E+01
 0.2365170011695E+01
 0.2384918600986E+01
 0.2399494635682E+01
 0.2408083510789E+01
 0.2409820385226E+01
 0.2403810877745E+01
 0.2389158419049E+01
 0.2364998840632E+01
 0.2330542436722E+01
 0.2285123614764E+01
 0.2228257610642E+01
 0.2159699919439E+01
 0.2079496396349E+01
 0.2189512100298E+01
 0.2231226259729E+01
 0.2270549883093E+01
 0.2307245653012E+01
 0.2340933492926E+01
 0.2371116500412E+01
 0.2397200358245E+01
 0.2418508004868E+01
 0.2434292371223E+01
 0.2443749710193E+01
 0.2446035530330E+01
 0.2440284674205E+01
 0.2425636719786E+01
 0.2401267718343E+01
 0.2366429494289E+01
 0.2320498622547E+01
 0.2263038907158E+01
 0.2193882963121E+01
 0.2113234261598E+01
 0.2021772876534E+01
 0.2240002522262E+01
 0.2282759181890E+01
 0.2322472096616E+01
 0.2358820721446E+01
 0.2391325100431E+01
 0.2419388340697E+01
 0.2442325136551E+01
 0.2459382066357E+01
 0.2469754285291E+01
 0.2472601784490E+01
 0.2467067259180E+01
 0.2452296819288E+01
 0.2427464285487E+01
 0.2391799728761E+01
 0.2344623459447E+01
 0.2285388245193E+01
 0.2213736004334E+01
 0.2129582554848E+01
 0.2033261653724E+01
 0.1925765270848E+01
 0.2285817824930E+01
 0.2328743109394E+01
 0.2367916118187E+01
 0.2402914845436E+01
 0.2433148721943E+01
 0.2457920061184E+01
 0.2476460536896E+01
 0.2487955058564E+01
 0.2491559852569E+01
 0.2486418530289E+01
 0.2471678001425E+01
 0.2446504809982E+01
 0.2410101651696E+01
 0.2361723417462E+01
 0.2300692112912E+01
 0.2226410626799E+01
 0.2138377188555E+01
 0.2036209063164E+01
 0.1919710152101E+01
 0.1789145329359E+01
 0.2326864301094E+01
 0.2369102516880E+01
 0.2406843668190E+01
 0.2439532160851E+01
 0.2466454430994E+01
 0.2486814175035E+01
 0.2499773045000E+01
 0.2504474666929E+01
 0.2500060791727E+01
 0.2485683784348E+01
 0.2460516818515E+01
 0.2423761269295E+01
 0.2374649425356E+01
 0.2312439429842E+01
 0.2236397879726E+01
 0.2145762953861E+01
 0.2039676114649E+01
 0.1917059204811E+01
 0.1776387857356E+01
 0.1615295208454E+01
 0.2363071692343E+01
 0.2403809016478E+01
 0.2439271202545E+01
 0.2468730418910E+01
 0.2491340524439E+01
 0.2506215735068E+01
 0.2512469506140E+01
 0.2509233999845E+01
 0.2495670668398E+01
 0.2470976257004E+01
 0.2434384768686E+01
 0.2385163446578E+01
 0.2322598892904E+01
 0.2245967389257E+01
 0.2154480385045E+01
 0.2047190394360E+01
 0.1922829597784E+01
 0.1779523923625E+01
 0.1614231675656E+01
 0.1421333258825E+01
 0.2394392065955E+01
 0.2432871178643E+01
 0.2465245858853E+01
 0.2490585217683E+01
 0.2507911144920E+01
 0.2516270988155E+01
 0.2514766166436E+01
 0.2502561287388E+01
 0.2478885590092E+01
 0.2443030620310E+01
 0.2394343362092E+01
 0.2332211190717E+01
 0.2256032889811E+01
 0.2165167733414E+01
 0.2058851408107E+01
 0.1936062002333E+01
 0.1795310123683E+01
 0.1634304627861E+01
 0.1449425339470E+01
 0.1234868877305E+01
 0.2420794702244E+01
 0.2456309878497E+01
 0.2484816568528E+01
 0.2505162812584E+01
 0.2516257499544E+01
 0.2517123301779E+01
 0.2506903629597E+01
 0.2484854423375E+01
 0.2450333191486E+01
 0.2402787490501E+01
 0.2341739777499E+01
 0.2266762873602E+01
 0.2177438756734E+01
 0.2073292109401E+01
 0.1953688762383E+01
 0.1817689320937E+01
 0.1663854392461E+01
 0.1490036764952E+01
 0.1293294673924E+01
 0.1071030973271E+01
 0.2442288878430E+01
 0.2474180141393E+01
 0.2498051670291E+01
 0.2512531983692E+01
 0.2516461109664E+01
 0.2508901049032E+01
 0.2489105973155E+01
 0.2456489444737E+01
 0.2410598916387E+01
 0.2351095535135E+01
 0.2277732273215E+01
 0.2190322347736E+01
 0.2088690315239E+01
 0.1972599356689E+01
 0.1841650802937E+01
 0.1695159554958E+01
 0.1532034067204E+01
 0.1350763682177E+01
 0.1149889206458E+01
 0.9293561197310E+00
 0.2458928966241E+01
 0.2486567376918E+01
 0.2505027999849E+01
 0.2512752248683E+01
 0.2508587264608E+01
 0.2491718278543E+01
 0.2461584970191E+01
 0.2417819109843E+01
 0.2360206109665E+01
 0.2288659535085E+01
 0.2203196168577E+01
 0.2103902043715E+01
 0.1990884052365E+01
 0.1864205909859E+01
 0.1723813084582E+01
 0.1569462170891E+01
 0.1400692775530E+01
 0.1216922081697E+01
 0.1017831324537E+01
 0.8040984290867E+00
 0.2470824540914E+01
 0.2493588862553E+01
 0.2505822014201E+01
 0.2505863572484E+01
 0.2492679779899E+01
 0.2465674946537E+01
 0.2424539260459E+01
 0.2369161009208E+01
 0.2299584101342E+01
 0.2215985103970E+01
 0.2118650706693E+01
 0.2007948025956E+01
 0.1884287822308E+01
 0.1748086744175E+01
 0.1599741290523E+01
 0.1439633601945E+01
 0.1268187358228E+01
 0.1085946786933E+01
 0.8932993609250E+00
 0.6897104163748E+00
 0.2478138541219E+01
 0.2495366601221E+01
 0.2500476202942E+01
 0.2491866725383E+01
 0.2468772620657E+01
 0.2430906058702E+01
 0.2378240716354E+01
 0.2310921184967E+01
 0.2229237165972E+01
 0.2133610442072E+01
 0.2024578520943E+01
 0.1902774928870E+01
 0.1768913611336E+01
 0.1623790587556E+01
 0.1468321649765E+01
 0.1303636304903E+01
 0.1131229239452E+01
 0.9530512799595E+00
 0.7710163271567E+00
 0.5832127757394E+00
 0.2481116700960E+01
 0.2492088075833E+01
 0.2489121427425E+01
 0.2470941459599E+01
 0.2437216770827E+01
 0.2388006316583E+01
 0.2323530420876E+01
 0.2244144281522E+01
 0.2150339394465E+01
 0.2042737069278E+01
 0.1922075565442E+01
 0.1789200099427E+01
 0.1645068852877E+01
 0.1490792640014E+01
 0.1327731141160E+01
 0.1157670829289E+01
 0.9830944717283E+00
 0.8074968078946E+00
 0.6355559272458E+00
 0.4711011457137E+00
 0.2480141995931E+01
 0.2484009443073E+01
 0.2471900900418E+01
 0.2443336596336E+01
 0.2398531461264E+01
 0.2337762236442E+01
 0.2261394581838E+01
 0.2169927498436E+01
 0.2063995644427E+01
 0.1944354559690E+01
 0.1811863561573E+01
 0.1667479093235E+01
 0.1512272580342E+01
 0.1347491577315E+01
 0.1174689902865E+01
 0.9959615084986E+00
 0.8143309468160E+00
 0.6344241087019E+00
 0.4639188151926E+00
 0.3191456728845E+00
 0.2475688938193E+01
 0.2471054617648E+01
 0.2448565656187E+01
 0.2409232125712E+01
 0.2353333962042E+01
 0.2281140807062E+01
 0.2193095408592E+01
 0.2089804672267E+01
 0.1972010757508E+01
 0.1840561800371E+01
 0.1696392682721E+01
 0.1540524680378E+01
 0.1374097016317E+01
 0.1198449601253E+01
 0.1015285869563E+01
 0.8269626308589E+00
 0.6370033809890E+00
 0.4510985906817E+00
 0.2794629462758E+00
 0.1463303407496E+00
</DataArray>
<DataArray type="Float64" Name="S_Hyd" NumberOfComponents="1" ComponentName0="S_Hyd" format="ascii">
-0.1501671681102E+01
-0.1116498773335E+01
-0.1110767436270E+01
-0.1092540741292E+01
-0.1085849718893E+01
-0.1078683109564E+01
-0.1070972637319E+01
-0.1061786677382E+01
-0.1051029118219E+01
-0.1038663845664E+01
-0.1024742560695E+01
-0.1009328479436E+01
-0.9924821159184E+00
-0.9742495967766E+00
-0.9546593856453E+00
-0.9337221615196E+00
-0.9114328923881E+00
-0.8877778762911E+00
-0.8627385382130E+00
-0.8363064154226E+00
-0.8084990708202E+00
-0.7793960346600E+00
-0.7492644669427E+00
-0.7185997706263E+00
-0.6870952862736E+00
-0.6535192909901E+00
-0.6170199950214E+00
-0.5776062447859E+00
-0.5360373142897E+00
-0.4935540864523E+00
-0.4516532534400E+00
-0.4119650395949E+00
-0.3761262622891E+00
-0.3462147860455E+00
-0.3251604546427E+00
-0.3167279993412E+00
-0.3238690834536E+00
-0.3582657604146E+00
-0.4028491449389E+00
-0.6474903984053E+00
-0.1111530866490E+00
-0.1349040437256E+01
-0.1156680205937E+01
-0.1076171844978E+01
-0.1059426084948E+01
-0.1045559263262E+01
-0.1036093703474E+01
-0.1026666431620E+01
-0.1016617958577E+01
-0.1005425654484E+01
-0.9929417061545E+00
-0.9791145349236E+00
-0.9639497738262E+00
-0.9474689839134E+00
-0.9296943159184E+00
-0.9106401858080E+00
-0.8903106158217E+00
-0.8687001504810E+00
-0.8457979674758E+00
-0.8215936599444E+00
-0.7960881218803E+00
-0.7693102717177E+00
-0.7413533060272E+00
-0.7124466771386E+00
-0.6827802878407E+00
-0.6520501564014E+00
-0.6195119374669E+00
-0.5846222520413E+00
-0.5474488145859E+00
-0.5086481508826E+00
-0.4692883031014E+00
-0.4306813354581E+00
-0.3942556235229E+00
-0.3615515861169E+00
-0.3344210641040E+00
-0.3152541447446E+00
-0.3063989565284E+00
-0.3117544312707E+00
-0.3292509570357E+00
-0.3820479104988E+00
-0.3969093439106E+00
 0.5771900186674E-01
-0.1255111878312E+01
-0.1131185706423E+01
-0.1052550389786E+01
-0.1021943531687E+01
-0.1005685356020E+01
-0.9932989631490E+00
-0.9825032102457E+00
-0.9716029546114E+00
-0.9600145323768E+00
-0.9474201094996E+00
-0.9336919187886E+00
-0.9187782592208E+00
-0.9026651957586E+00
-0.8853518881048E+00
-0.8668392700298E+00
-0.8471248927563E+00
-0.8262021407163E+00
-0.8040630593277E+00
-0.7807034106850E+00
-0.7561318310347E+00
-0.7303851669148E+00
-0.7035576870080E+00
-0.6758037171476E+00
-0.6471754578688E+00
-0.6174231845043E+00
-0.5860873542893E+00
-0.5528597128963E+00
-0.5178646755200E+00
-0.4816835490014E+00
-0.4452424002707E+00
-0.4096826645588E+00
-0.3762662149371E+00
-0.3463709185294E+00
-0.3215884114152E+00
-0.3036400529875E+00
-0.2944487893715E+00
-0.2946940588567E+00
-0.3058643292508E+00
-0.3215527013707E+00
-0.2511571815047E+00
 0.7729084754352E-01
-0.1179339345691E+01
-0.1089085519618E+01
-0.1020825570916E+01
-0.9846767874338E+00
-0.9647564259507E+00
-0.9504670683279E+00
-0.9383231217111E+00
-0.9267005500876E+00
-0.9147504881607E+00
-0.9020703677944E+00
-0.8884521779164E+00
-0.8737965644595E+00
-0.8580563831122E+00
-0.8412097362750E+00
-0.8232448788020E+00
-0.8041531342918E+00
-0.7839265303463E+00
-0.7625594492073E+00
-0.7400525888903E+00
-0.7164204871351E+00
-0.6917045282978E+00
-0.6659865216924E+00
-0.6393617311906E+00
-0.6118219118589E+00
-0.5831802519107E+00
-0.5531656119126E+00
-0.5216361065883E+00
-0.4887644189079E+00
-0.4550741322276E+00
-0.4213707207892E+00
-0.3886454154868E+00
-0.3579995955790E+00
-0.3306291512063E+00
-0.3078040321004E+00
-0.2907989192119E+00
-0.2805047575843E+00
-0.2768885895797E+00
-0.2777427019119E+00
-0.2639074087357E+00
-0.1713915185833E+00
 0.5928416085414E-01
-0.1111364128143E+01
-0.1041124840318E+01
-0.9826416081284E+00
-0.9457136735688E+00
-0.9232161003442E+00
-0.9073055085021E+00
-0.8941005460318E+00
-0.8818453585567E+00
-0.8695989658241E+00
-0.8568636606075E+00
-0.8433740912317E+00
-0.8289875847988E+00
-0.8136282971682E+00
-0.7972552223128E+00
-0.7798450853847E+00
-0.7613834037092E+00
-0.7418608099300E+00
-0.7212735509335E+00
-0.6996262467529E+00
-0.6769377862984E+00
-0.6532501025976E+00
-0.6286294747639E+00
-0.6031324423352E+00
-0.5767287862350E+00
-0.5492911225157E+00
-0.5206801879834E+00
-0.4908710219761E+00
-0.4600722439442E+00
-0.4287601649596E+00
-0.3976367847913E+00
-0.3675583631844E+00
-0.3394719688052E+00
-0.3143742359524E+00
-0.2932453938655E+00
-0.2768732702552E+00
-0.2654652672442E+00
-0.2579581047706E+00
-0.2488031074708E+00
-0.2182662737721E+00
-0.1277377527677E+00
 0.3673087059787E-01
-0.1047540679393E+01
-0.9906115622291E+00
-0.9402480897916E+00
-0.9046391672952E+00
-0.8809049909170E+00
-0.8637803227467E+00
-0.8497539582726E+00
-0.8369982715461E+00
-0.8245240832640E+00
-0.8117745921082E+00
-0.7984372309720E+00
-0.7843348803973E+00
-0.7693669217892E+00
-0.7534757780074E+00
-0.7366279390262E+00
-0.7188037249012E+00
-0.6999924609932E+00
-0.6801919048922E+00
-0.6594098139227E+00
-0.6376679642505E+00
-0.6150065648466E+00
-0.5914785126153E+00
-0.5671177357542E+00
-0.5418917767711E+00
-0.5157255428925E+00
-0.4885747671428E+00
-0.4604966454176E+00
-0.4317237121878E+00
-0.4026910781093E+00
-0.3740103393768E+00
-0.3464154957250E+00
-0.3207040339040E+00
-0.2976791536132E+00
-0.2780414982757E+00
-0.2621645786974E+00
-0.2497000835735E+00
-0.2385740765484E+00
-0.2219927939218E+00
-0.1839909308675E+00
-0.1030580029216E+00
 0.1755515228203E-01
-0.9862624970637E+00
-0.9388516463815E+00
-0.8951222417902E+00
-0.8616709287825E+00
-0.8377058658193E+00
-0.8198491379041E+00
-0.8052366165755E+00
-0.7921200035752E+00
-0.7794966470027E+00
-0.7667794123771E+00
-0.7536227190926E+00
-0.7398226957945E+00
-0.7252586362002E+00
-0.7098590029185E+00
-0.6935815554421E+00
-0.6764021535265E+00
-0.6583090265629E+00
-0.6393012305162E+00
-0.6193890528040E+00
-0.5985961086948E+00
-0.5769603009924E+00
-0.5545249684685E+00
-0.5313128166814E+00
-0.5072991345089E+00
-0.4824532930748E+00
-0.4568004527060E+00
-0.4304552402218E+00
-0.4036639602947E+00
-0.3768240444649E+00
-0.3504668976202E+00
-0.3252147958024E+00
-0.3017241980142E+00
-0.2806150763547E+00
-0.2623354612510E+00
-0.2469184195809E+00
-0.2335537913537E+00
-0.2195607288519E+00
-0.1983868441086E+00
-0.1583873436164E+00
-0.8838323693109E-01
 0.3064811436292E-02
-0.9267036091757E+00
-0.8864556402211E+00
-0.8481838921411E+00
-0.8171611438351E+00
-0.7936228882588E+00
-0.7754781182529E+00
-0.7605178758913E+00
-0.7471798385341E+00
-0.7344912877771E+00
-0.7218571786647E+00
-0.7089130850521E+00
-0.6954361607110E+00
-0.6812902886129E+00
-0.6663927500177E+00
-0.6506941797460E+00
-0.6341668292516E+00
-0.6167981539983E+00
-0.5985884325078E+00
-0.5795500792463E+00
-0.5597080289147E+00
-0.5390983648749E+00
-0.5177587496388E+00
-0.4957083135559E+00
-0.4729347923783E+00
-0.4494446216291E+00
-0.4253139830849E+00
-0.4006971097244E+00
-0.3758460516467E+00
-0.3511228164580E+00
-0.3269867692803E+00
-0.3039583318866E+00
-0.2825634536210E+00
-0.2632544262441E+00
-0.2462614785567E+00
-0.2313431187681E+00
-0.2173633984569E+00
-0.2014639380502E+00
-0.1780099368233E+00
-0.1389651790939E+00
-0.7903823053694E-01
-0.7337304177418E-02
-0.8683911230086E+00
-0.8337432239947E+00
-0.8000180703945E+00
-0.7714399301841E+00
-0.7487321419512E+00
-0.7306599380791E+00
-0.7155780358725E+00
-0.7021554194244E+00
-0.6894869762306E+00
-0.6769896001770E+00
-0.6642924733016E+00
-0.6511613569950E+00
-0.6374492979039E+00
-0.6230652038107E+00
-0.6079542584589E+00
-0.5920860370238E+00
-0.5754476416608E+00
-0.5580406275942E+00
-0.5398793573623E+00
-0.5209900210707E+00
-0.5014078927712E+00
-0.4811682945624E+00
-0.4602917351852E+00
-0.4387801928062E+00
-0.4166705964627E+00
-0.3940765821606E+00
-0.3711790079424E+00
-0.3482295857785E+00
-0.3255566154259E+00
-0.3035543526438E+00
-0.2826509147695E+00
-0.2632537788533E+00
-0.2456668144320E+00
-0.2299386559531E+00
-0.2156200701190E+00
-0.2013973306793E+00
-0.1845323246643E+00
-0.1604732965971E+00
-0.1238567902020E+00
-0.7258870160078E-01
-0.1462887819628E-01
-0.8110322979974E+00
-0.7808951772973E+00
-0.7510090991657E+00
-0.7247798572991E+00
-0.7031376988797E+00
-0.6854117695819E+00
-0.6704085449540E+00
-0.6570314514180E+00
-0.6444671060522E+00
-0.6321610264287E+00
-0.6197466886307E+00
-0.6069853932577E+00
-0.5937237194892E+00
-0.5798649464343E+00
-0.5653504975842E+00
-0.5501482565272E+00
-0.5342454741389E+00
-0.5176451590961E+00
-0.5003636525216E+00
-0.4824286576280E+00
-0.4638758203910E+00
-0.4447407690544E+00
-0.4250484840090E+00
-0.4048154022894E+00
-0.3841033063198E+00
-0.3630531410868E+00
-0.3418628921984E+00
-0.3207794959492E+00
-0.3000991530927E+00
-0.2801572440391E+00
-0.2612989665459E+00
-0.2438264029254E+00
-0.2279157970307E+00
-0.2134701554027E+00
-0.1998983590769E+00
-0.1858333151204E+00
-0.1688141050071E+00
-0.1452916640517E+00
-0.1117621509237E+00
-0.6776963363290E-01
-0.1971122568070E-01
-0.7544347288267E+00
-0.7280192759788E+00
-0.7014172549350E+00
-0.6773966687174E+00
-0.6569472736354E+00
-0.6397668318493E+00
-0.6250111272043E+00
-0.6117988855306E+00
-0.5994191761287E+00
-0.5873584074001E+00
-0.5752631959362E+00
-0.5628964466415E+00
-0.5501022971341E+00
-0.5367810113358E+00
-0.5228719133748E+00
-0.5083422053271E+00
-0.4931798526302E+00
-0.4773896026898E+00
-0.4609899771783E+00
-0.4440106451122E+00
-0.4264887826054E+00
-0.4084623268797E+00
-0.3899625724570E+00
-0.3710198128717E+00
-0.3517159501400E+00
-0.3322115976452E+00
-0.3127149316211E+00
-0.2934650330611E+00
-0.2747277292118E+00
-0.2567853668780E+00
-0.2399094778817E+00
-0.2243102319167E+00
-0.2100571597922E+00
-0.1969420565058E+00
-0.1842903629259E+00
-0.1707685328518E+00
-0.1542483031107E+00
-0.1320138223172E+00
-0.1018045436535E+00
-0.6392828832151E-01
-0.2330145160234E-01
-0.6984656458547E+00
-0.6751820656344E+00
-0.6514234242833E+00
-0.6294587586427E+00
-0.6102610405352E+00
-0.5937664941055E+00
-0.5793955795304E+00
-0.5664541287774E+00
-0.5543343703621E+00
-0.5425711524405E+00
-0.5308310807408E+00
-0.5188837671686E+00
-0.5065744885764E+00
-0.4938029152710E+00
-0.4805078638003E+00
-0.4666568641716E+00
-0.4522392077295E+00
-0.4372617541725E+00
-0.4217455333613E+00
-0.4057227312445E+00
-0.3892330985276E+00
-0.3723183502914E+00
-0.3550171178833E+00
-0.3373725727077E+00
-0.3194828337077E+00
-0.3015224239617E+00
-0.2837046915976E+00
-0.2662588880302E+00
-0.2494224022231E+00
-0.2334301541025E+00
-0.2184890567797E+00
-0.2047306894302E+00
-0.1921379348795E+00
-0.1804225300391E+00
-0.1688730394108E+00
-0.1562407795391E+00
-0.1407256672602E+00
-0.1202637839507E+00
-0.9340045887397E-01
-0.6073292820826E-01
-0.2593660899184E-01
-0.6430295308298E+00
-0.6224254549479E+00
-0.6011560047201E+00
-0.5810971851962E+00
-0.5631674836358E+00
-0.5474546908922E+00
-0.5335772093537E+00
-0.5209980902651E+00
-0.5092071031067E+00
-0.4977909280976E+00
-0.4864409759664E+00
-0.4749376612751E+00
-0.4631304767495E+00
-0.4509206811687E+00
-0.4382480737856E+00
-0.4250814981122E+00
-0.4114122094710E+00
-0.3972496183654E+00
-0.3826176730923E+00
-0.3675516610837E+00
-0.3520948080620E+00
-0.3362936616324E+00
-0.3201946925525E+00
-0.3038528533403E+00
-0.2873793165693E+00
-0.2709581992122E+00
-0.2548044620619E+00
-0.2391364433243E+00
-0.2241652546599E+00
-0.2100838177027E+00
-0.1970431436091E+00
-0.1851089440077E+00
-0.1741959113644E+00
-0.1639622198896E+00
-0.1536931585276E+00
-0.1422489132411E+00
-0.1281234692855E+00
-0.1097440422921E+00
-0.8616292215611E-01
-0.5801980807795E-01
-0.2800713212562E-01
-0.5880550677539E+00
-0.5697759356266E+00
-0.5507076769815E+00
-0.5324141126650E+00
-0.5157426421667E+00
-0.5008744774893E+00
-0.4875745524078E+00
-0.4754351415896E+00
-0.4640345336182E+00
-0.4530114243638E+00
-0.4420849626213E+00
-0.4310494596240E+00
-0.4197611708479E+00
-0.4081248549321E+00
-0.3960826572591E+00
-0.3836056765466E+00
-0.3706877786020E+00
-0.3573414048991E+00
-0.3435938794298E+00
-0.3294841695328E+00
-0.3150597343600E+00
-0.3003727026030E+00
-0.2854775729892E+00
-0.2704400127551E+00
-0.2553817313805E+00
-0.2404932476829E+00
-0.2259886994204E+00
-0.2120751379240E+00
-0.1989397565083E+00
-0.1867387254652E+00
-0.1755754120577E+00
-0.1654614532330E+00
-0.1562596443785E+00
-0.1475958035814E+00
-0.1387738906371E+00
-0.1287686275747E+00
-0.1163230463638E+00
-0.1002250327077E+00
-0.7983477991018E-01
-0.5571279965445E-01
-0.2979238956316E-01
-0.5334871804981E+00
-0.5172499683159E+00
-0.5001461968269E+00
-0.4834894358324E+00
-0.4680508503332E+00
-0.4540661248470E+00
-0.4414075981799E+00
-0.4297721175206E+00
-0.4188160634544E+00
-0.4082281003459E+00
-0.3977564482237E+00
-0.3872114668938E+00
-0.3764581932140E+00
-0.3654065107822E+00
-0.3540021298401E+00
-0.3422192856699E+00
-0.3300550927368E+00
-0.3175255242604E+00
-0.3046617571614E+00
-0.2915069896025E+00
-0.2781135478263E+00
-0.2645396737518E+00
-0.2508479088557E+00
-0.2371136812981E+00
-0.2234672802591E+00
-0.2101033199096E+00
-0.1972335509580E+00
-0.1850539225552E+00
-0.1737302166215E+00
-0.1633868845699E+00
-0.1540873384862E+00
-0.1457997721497E+00
-0.1383489120083E+00
-0.1313442415476E+00
-0.1241210585283E+00
-0.1157632892361E+00
-0.1052172440782E+00
-0.9153122231339E-01
-0.7424412749059E-01
-0.5378173992384E-01
-0.3149097309996E-01
-0.4792819931558E+00
-0.4648572654611E+00
-0.4495215382548E+00
-0.4343858467743E+00
-0.4201460398363E+00
-0.4070662144494E+00
-0.3950965308090E+00
-0.3840174500580E+00
-0.3735528529075E+00
-0.3634379281377E+00
-0.3534500381240E+00
-0.3434169050507E+00
-0.3332138622291E+00
-0.3227572550100E+00
-0.3119974220932E+00
-0.3009125436705E+00
-0.2895035982466E+00
-0.2777905945397E+00
-0.2658090403797E+00
-0.2536068787500E+00
-0.2412418346817E+00
-0.2287786498810E+00
-0.2162878437504E+00
-0.2038538060407E+00
-0.1916139292060E+00
-0.1797653200742E+00
-0.1685164573997E+00
-0.1580528043619E+00
-0.1485213288012E+00
-0.1400195393563E+00
-0.1325779307653E+00
-0.1261305922172E+00
-0.1204755004363E+00
-0.1152172310645E+00
-0.1097283071966E+00
-0.1031908362273E+00
-0.9471253834678E-01
-0.8352777766160E-01
-0.6927471816253E-01
-0.5222183357214E-01
-0.3324587867318E-01
-0.4254035425873E+00
-0.4126028657291E+00
-0.3988707390539E+00
-0.3851526774402E+00
-0.3720731609437E+00
-0.3599073354940E+00
-0.3486608935681E+00
-0.3381804645136E+00
-0.3282473757335E+00
-0.3186391379493E+00
-0.3091613969996E+00
-0.2996598435878E+00
-0.2900211620798E+00
-0.2801692173904E+00
-0.2700598814644E+00
-0.2596760059508E+00
-0.2490230143304E+00
-0.2381254436745E+00
-0.2270235986062E+00
-0.2157706419125E+00
-0.2044301502642E+00
-0.1930736602119E+00
-0.1817795867101E+00
-0.1706406534668E+00
-0.1598002907541E+00
-0.1494570579031E+00
-0.1398158063165E+00
-0.1310524555989E+00
-0.1232977909310E+00
-0.1166268604460E+00
-0.1110435789726E+00
-0.1064559486486E+00
-0.1026441428160E+00
-0.9921552784849E-01
-0.9558102152955E-01
-0.9100780979149E-01
-0.8472882446017E-01
-0.7610919455514E-01
-0.6484482993274E-01
-0.5104598210410E-01
-0.3516572635645E-01
-0.3718215805686E+00
-0.3604884873279E+00
-0.3482212621040E+00
-0.3358288161114E+00
-0.3238695299519E+00
-0.3126181284704E+00
-0.3021190757871E+00
-0.2922708397806E+00
-0.2829030319483E+00
-0.2738309779109E+00
-0.2648871098606E+00
-0.2559351240390E+00
-0.2468737054935E+00
-0.2376350357959E+00
-0.2281812682658E+00
-0.2185005657251E+00
-0.2086033344405E+00
-0.1985191115192E+00
-0.1882934441872E+00
-0.1779851530230E+00
-0.1676640612385E+00
-0.1574087439165E+00
-0.1473054513373E+00
-0.1374547876063E+00
-0.1280055051671E+00
-0.1191570268702E+00
-0.1111106334202E+00
-0.1040338829000E+00
-0.9804399455125E-01
-0.9319771648851E-01
-0.8947801135407E-01
-0.8677352715206E-01
-0.8485352689451E-01
-0.8333284227449E-01
-0.8165941741260E-01
-0.7917091195646E-01
-0.7519899161828E-01
-0.6919069193455E-01
-0.6088933623665E-01
-0.5028059730618E-01
-0.3736272896103E-01
-0.3185100780527E+00
-0.3085134315287E+00
-0.2975933785056E+00
-0.2864449337375E+00
-0.2755660317429E+00
-0.2652235186835E+00
-0.2554880350575E+00
-0.2462982196767E+00
-0.2375238316444E+00
-0.2290135031529E+00
-0.2206245551978E+00
-0.2122382902366E+00
-0.2037657003128E+00
-0.1951478447031E+00
-0.1863537564983E+00
-0.1773774609640E+00
-0.1682348360229E+00
-0.1589608622387E+00
-0.1496067507195E+00
-0.1402373848416E+00
-0.1309291889522E+00
-0.1217679979285E+00
-0.1128478834996E+00
-0.1042770443191E+00
-0.9620913596143E-01
-0.8884421827518E-01
-0.8238037718879E-01
-0.7697816131890E-01
-0.7274378663336E-01
-0.6971952824523E-01
-0.6787232947684E-01
-0.6707705918569E-01
-0.6709716943643E-01
-0.6755765978803E-01
-0.6793977698774E-01
-0.6764045124499E-01
-0.6605965528826E-01
-0.6272169699935E-01
-0.5731421083984E-01
-0.4999146013751E-01
-0.3995635861681E-01
-0.2654462177853E+00
-0.2566751614396E+00
-0.2470019158750E+00
-0.2370251790106E+00
-0.2271881615865E+00
-0.2177450362485E+00
-0.2087831777474E+00
-0.2002719439871E+00
-0.1921141424604E+00
-0.1841873915523E+00
-0.1763717864995E+00
-0.1685655187880E+00
-0.1606919129085E+00
-0.1527012594141E+00
-0.1445699303915E+00
-0.1362982777219E+00
-0.1279080876875E+00
-0.1194401950374E+00
-0.1109518695022E+00
-0.1025144339524E+00
-0.9421124234957E-01
-0.8613560839915E-01
-0.7838947121103E-01
-0.7108849477104E-01
-0.6439106914488E-01
-0.5849795614740E-01
-0.5360466880421E-01
-0.4986621331015E-01
-0.4738028346969E-01
-0.4617817479610E-01
-0.4621510241834E-01
-0.4735668819500E-01
-0.4936432954609E-01
-0.5187412895629E-01
-0.5439712108887E-01
-0.5637550007386E-01
-0.5726826904555E-01
-0.5661542886026E-01
-0.5420413566684E-01
-0.4970417735153E-01
-0.4428443965593E-01
-0.2126110703620E+00
-0.2049762419399E+00
-0.1964675022130E+00
-0.1876022618358E+00
-0.1787741652414E+00
-0.1702218432868E+00
-0.1620423438381E+00
-0.1542281322226E+00
-0.1467089463472E+00
-0.1393873622584E+00
-0.1321640431603E+00
-0.1249531226047E+00
-0.1176900476923E+00
-0.1103345019206E+00
-0.1028705139147E+00
-0.9530512601587E-01
-0.8766639824929E-01
-0.8000137483569E-01
-0.7237372944109E-01
-0.6486155283435E-01
-0.5755541397025E-01
-0.5055630535127E-01
-0.4397411203209E-01
-0.3793194244669E-01
-0.3259293273500E-01
-0.2815881650331E-01
-0.2482331871416E-01
-0.2273742337394E-01
-0.2199267110671E-01
-0.2261254907933E-01
-0.2454424983067E-01
-0.2764782987240E-01
-0.3168521365612E-01
-0.3630380184056E-01
-0.4103932316730E-01
-0.4537178704176E-01
-0.4879206602655E-01
-0.5089061774344E-01
-0.5132775415386E-01
-0.5027381173040E-01
-0.4647544513820E-01
-0.1599858958460E+00
-0.1534116988357E+00
-0.1459972661139E+00
-0.1381908942123E+00
-0.1303412965826E+00
-0.1226698934019E+00
-0.1152780990995E+00
-0.1081753528014E+00
-0.1013130960991E+00
-0.9461519213574E-01
-0.8800068756346E-01
-0.8139858264727E-01
-0.7475607522978E-01
-0.6804226077338E-01
-0.6124903397804E-01
-0.5439041639569E-01
-0.4750105672062E-01
-0.4063452992830E-01
-0.3386123370273E-01
-0.2726633598154E-01
-0.2094789930475E-01
-0.1501481470726E-01
-0.9585059187706E-02
-0.4789291709487E-02
-0.7955824150133E-03
 0.2192906225036E-02
 0.3983312462099E-02
 0.4427120382155E-02
 0.3436694907860E-02
 0.9935031464631E-03
-0.2844799224412E-02
-0.7935619032755E-02
-0.1404322207441E-01
-0.2082552616298E-01
-0.2783930980975E-01
-0.3459073336422E-01
-0.4060263888022E-01
-0.4545140988653E-01
-0.4889589421714E-01
-0.5058142292458E-01
-0.5156769048705E-01
-0.1075520877549E+00
-0.1019698230914E+00
-0.9558602659484E-01
-0.8878880995837E-01
-0.8188630713796E-01
-0.7508181818204E-01
-0.6847714474458E-01
-0.6209375058737E-01
-0.5590033268960E-01
-0.4983873792036E-01
-0.4384429467721E-01
-0.3785973203927E-01
-0.3184351699498E-01
-0.2577407060891E-01
-0.1965128166634E-01
-0.1349638474789E-01
-0.7350899817161E-02
-0.1275238159324E-02
 0.4653162011322E-02
 0.1034173824990E-01
 0.1568463083293E-01
 0.2056477629844E-01
 0.2485586236780E-01
 0.2841942627432E-01
 0.3108209633842E-01
 0.3263864909668E-01
 0.3289603388448E-01
 0.3170661448998E-01
 0.2898451221648E-01
 0.2471355132611E-01
 0.1895349146961E-01
 0.1184719704503E-01
 0.3626886687767E-02
-0.5375109956549E-02
-0.1473200986422E-01
-0.2397140963804E-01
-0.3262751968994E-01
-0.4029911847667E-01
-0.4664876194084E-01
-0.5157810065601E-01
-0.5527326978003E-01
-0.5529360947435E-01
-0.5064461156095E-01
-0.4523646953918E-01
-0.3940472605710E-01
-0.3342061183486E-01
-0.2746899008639E-01
-0.2164906040282E-01
-0.1599032901464E-01
-0.1047497871152E-01
-0.5059895772847E-02
 0.3052956612880E-03
 0.5665299865437E-02
 0.1105094496901E-01
 0.1647466345196E-01
 0.2192852553844E-01
 0.2738391307963E-01
 0.3279219894796E-01
 0.3808586373658E-01
 0.4318013583731E-01
 0.4797475435604E-01
 0.5235575706124E-01
 0.5619760807702E-01
 0.5936535581049E-01
 0.6171238169372E-01
 0.6305952163364E-01
 0.6319873893389E-01
 0.6193566010891E-01
 0.5912193247604E-01
 0.5467138012909E-01
 0.4856780687482E-01
 0.4087066817291E-01
 0.3172116012736E-01
 0.2134713478380E-01
 0.1007236947257E-01
-0.1689691619911E-02
-0.1347986595002E-01
-0.2484367652080E-01
-0.3536542531960E-01
-0.4471153864580E-01
-0.5270052810497E-01
-0.5918889387825E-01
-0.3195454214251E-02
 0.5704346835296E-03
 0.5050292326792E-02
 0.9954847231621E-02
 0.1504655402640E-01
 0.2015897129508E-01
 0.2519773410877E-01
 0.3012850480448E-01
 0.3495880118057E-01
 0.3971930242277E-01
 0.4444793595013E-01
 0.4917799018617E-01
 0.5393020328127E-01
 0.5870811021785E-01
 0.6349576018597E-01
 0.6825703645003E-01
 0.7293601183639E-01
 0.7745781901938E-01
 0.8173008245770E-01
 0.8564455050832E-01
 0.8907884963628E-01
 0.9189864568733E-01
 0.9395998828143E-01
 0.9510766524351E-01
 0.9515612571396E-01
 0.9389367023088E-01
 0.9112340531135E-01
 0.8669466407178E-01
 0.8051900275192E-01
 0.7257800453900E-01
 0.6292868106526E-01
 0.5170891350906E-01
 0.3914163750755E-01
 0.2554308497775E-01
 0.1131687440163E-01
-0.3086926076566E-02
-0.1721490800613E-01
-0.3064189734717E-01
-0.4300877314328E-01
-0.5403625781195E-01
-0.6340151611953E-01
 0.4875656378049E-01
 0.5168215247990E-01
 0.5527442900644E-01
 0.5928519442727E-01
 0.6350778618037E-01
 0.6779396271030E-01
 0.7205586604649E-01
 0.7625692007076E-01
 0.8039703458104E-01
 0.8449674611147E-01
 0.8858323158415E-01
 0.9267947763166E-01
 0.9679677230100E-01
 0.1009300519256E+00
 0.1050554182783E+00
 0.1091291888307E+00
 0.1130879824917E+00
 0.1168493742653E+00
 0.1203131352611E+00
 0.1233627414074E+00
 0.1258670951588E+00
 0.1276827140083E+00
 0.1286562398519E+00
 0.1286233550572E+00
 0.1273914408435E+00
 0.1247442059697E+00
 0.1204809893988E+00
 0.1144472122087E+00
 0.1065502580819E+00
 0.9676742768767E-01
 0.8515134188322E-01
 0.7183513742932E-01
 0.5703638047695E-01
 0.4106482043742E-01
 0.2431688881674E-01
 0.7238332809890E-02
-0.9713922913114E-02
-0.2609982472356E-01
-0.4152174462896E-01
-0.5561690266768E-01
-0.6796385900916E-01
 0.1005759463574E+00
 0.1026976182777E+00
 0.1054371316157E+00
 0.1085830591708E+00
 0.1119571982245E+00
 0.1154291678641E+00
 0.1189188735835E+00
 0.1223896016482E+00
 0.1258359273949E+00
 0.1292702534450E+00
 0.1327105524753E+00
 0.1361705693825E+00
 0.1396527868282E+00
 0.1431438743276E+00
 0.1466121015906E+00
 0.1500061935319E+00
 0.1532551962426E+00
 0.1562689453550E+00
 0.1589391293957E+00
 0.1611406804819E+00
 0.1627334610849E+00
 0.1635644688164E+00
 0.1634704858036E+00
 0.1622775137748E+00
 0.1597851120281E+00
 0.1557714028353E+00
 0.1500306682137E+00
 0.1424028167573E+00
 0.1327892022813E+00
 0.1211608783150E+00
 0.1075642610424E+00
 0.9212643145687E-01
 0.7505919303725E-01
 0.5666668278328E-01
 0.3734053268053E-01
 0.1752588914666E-01
-0.2312614016979E-02
-0.2171439712614E-01
-0.4023973065358E-01
-0.5745886378138E-01
-0.7288770938742E-01
 0.1522756138887E+00
 0.1536240762650E+00
 0.1555404021158E+00
 0.1578463707854E+00
 0.1603901594648E+00
 0.1630588556381E+00
 0.1657810780279E+00
 0.1685216855280E+00
 0.1712718418177E+00
 0.1740375714504E+00
 0.1768290406178E+00
 0.1796517473914E+00
 0.1825000031373E+00
 0.1853525612553E+00
 0.1881700059315E+00
 0.1908934763537E+00
 0.1934443579783E+00
 0.1957245915415E+00
 0.1976175733166E+00
 0.1989894308446E+00
 0.1996906688976E+00
 0.1995583757763E+00
 0.1984189852054E+00
 0.1960881895008E+00
 0.1923569108787E+00
 0.1869966353078E+00
 0.1797952617453E+00
 0.1705855781162E+00
 0.1592610782728E+00
 0.1457846636166E+00
 0.1301948053431E+00
 0.1126112712122E+00
 0.9323967478902E-01
 0.7237924059975E-01
 0.5041878517178E-01
 0.2780591623477E-01
 0.5016798260033E-02
-0.1746341432150E-01
-0.3915311289047E-01
-0.5956686184144E-01
-0.7817441985351E-01
 0.2038679869518E+00
 0.2044688869049E+00
 0.2055868910763E+00
 0.2070740287541E+00
 0.2088030852671E+00
 0.2106782164901E+00
 0.2126374806722E+00
 0.2146487106656E+00
 0.2167012882312E+00
 0.2187963919121E+00
 0.2209376372693E+00
 0.2231231987207E+00
 0.2253398281331E+00
 0.2275587207599E+00
 0.2297329438088E+00
 0.2317960849567E+00
 0.2336618086896E+00
 0.2352240298530E+00
 0.2363576621049E+00
 0.2369197791552E+00
 0.2367512108548E+00
 0.2356787329889E+00
 0.2335179122148E+00
 0.2300734579383E+00
 0.2251267887981E+00
 0.2184416575950E+00
 0.2097982199403E+00
 0.1990205200567E+00
 0.1859923686115E+00
 0.1706666330960E+00
 0.1530721223936E+00
 0.1333200241577E+00
 0.1116092489965E+00
 0.8823459866192E-01
 0.6358366874731E-01
 0.3810910428792E-01
 0.1230182914757E-01
-0.1332572318269E-01
-0.3825094407752E-01
-0.6193930494282E-01
-0.8382062160442E-01
 0.2553650505249E+00
 0.2552394794035E+00
 0.2555797552393E+00
 0.2562657086949E+00
 0.2571932386937E+00
 0.2582831933207E+00
 0.2594836371586E+00
 0.2607665351823E+00
 0.2621208729416E+00
 0.2635443182617E+00
 0.2650350584543E+00
 0.2665847923734E+00
 0.2681732932555E+00
 0.2697645540180E+00
 0.2713043075851E+00
 0.2727186462363E+00
 0.2739134774387E+00
 0.2747745823666E+00
 0.2751682211699E+00
 0.2749421774387E+00
 0.2739272922458E+00
 0.2719396164999E+00
 0.2687833076888E+00
 0.2642513822852E+00
 0.2581148459414E+00
 0.2501285805819E+00
 0.2400636047628E+00
 0.2277335729277E+00
 0.2130107759877E+00
 0.1958361552396E+00
 0.1762271166242E+00
 0.1542849389324E+00
 0.1302011843864E+00
 0.1042664827686E+00
 0.7686844445891E-01
 0.4846688851854E-01
 0.1957013286239E-01
-0.9280112699549E-02
-0.3752064578751E-01
-0.6457088256587E-01
-0.8982162545929E-01
 0.3067784082457E+00
 0.3059433197397E+00
 0.3055225501678E+00
 0.3054217129790E+00
 0.3055585764607E+00
 0.3058703508129E+00
 0.3063155636394E+00
 0.3068712800345E+00
 0.3075272723922E+00
 0.3082788607710E+00
 0.3091198023330E+00
 0.3100360922459E+00
 0.3110010687609E+00
 0.3119718685181E+00
 0.3128870803551E+00
 0.3136653744044E+00
 0.3142048866123E+00
 0.3143831789733E+00
 0.3140577072839E+00
 0.3130667436533E+00
 0.3112308332826E+00
 0.3083548856905E+00
 0.3042310902648E+00
 0.2986400316676E+00
 0.2913413576031E+00
 0.2820799054263E+00
 0.2706161290564E+00
 0.2567516152682E+00
 0.2403452657226E+00
 0.2213241612890E+00
 0.1996924992815E+00
 0.1755402128419E+00
 0.1490506968733E+00
 0.1205104010559E+00
 0.9030784334208E-01
 0.5891174473833E-01
 0.2684998878434E-01
-0.5304693559741E-02
-0.3694811093697E-01
-0.6745415801125E-01
-0.9617275792144E-01
 0.3581193284090E+00
 0.3565878826991E+00
 0.3554191372420E+00
 0.3545428381774E+00
 0.3538976068842E+00
 0.3534367475163E+00
 0.3531296356214E+00
 0.3529592569888E+00
 0.3529171859396E+00
 0.3529974069781E+00
 0.3531901301066E+00
 0.3534763427474E+00
 0.3538234500411E+00
 0.3541820625679E+00
 0.3544838172196E+00
 0.3546400483294E+00
 0.3545411251308E+00
 0.3540563266807E+00
 0.3530341746472E+00
 0.3513032256823E+00
 0.3486734326850E+00
 0.3449381484947E+00
 0.3398770253368E+00
 0.3332574556872E+00
 0.3248267554675E+00
 0.3143185118201E+00
 0.3014811514969E+00
 0.2861024751079E+00
 0.2680260740237E+00
 0.2471631633015E+00
 0.2235028228462E+00
 0.1971220535080E+00
 0.1681950537351E+00
 0.1370038070485E+00
 0.1039382945509E+00
 0.6947749870841E-01
 0.3417072042631E-01
-0.1376536236346E-02
-0.3651788052511E-01
-0.7058046940218E-01
-0.1028699372623E+00
 0.4093987837930E+00
 0.4071806301271E+00
 0.4052736064705E+00
 0.4036302623348E+00
 0.4022092658105E+00
 0.4009798204428E+00
 0.3999224929307E+00
 0.3990268974158E+00
 0.3982872861227E+00
 0.3976971881948E+00
 0.3972440429682E+00
 0.3969044511667E+00
 0.3966403416182E+00
 0.3963961083289E+00
 0.3960966257107E+00
 0.3956459883916E+00
 0.3949268212833E+00
 0.3938000784215E+00
 0.3921052401097E+00
 0.3896609638869E+00
 0.3862663289522E+00
 0.3817027231442E+00
 0.3757366891823E+00
 0.3681216527191E+00
 0.3585916015170E+00
 0.3468676385595E+00
 0.3326846647366E+00
 0.3158149269964E+00
 0.2960847163951E+00
 0.2733872785497E+00
 0.2476945288871E+00
 0.2190687606550E+00
 0.1876737018963E+00
 0.1537862849763E+00
 0.1177981733420E+00
 0.8019964295241E-01
 0.4156305482260E-01
 0.2528572743299E-02
-0.3621327186468E-01
-0.7394042898234E-01
-0.1099099148428E+00
 0.4606274891823E+00
 0.4577289981377E+00
 0.4550902175898E+00
 0.4526854556276E+00
 0.4504928164457E+00
 0.4484972910968E+00
 0.4466909627125E+00
 0.4450706963882E+00
 0.4436341829370E+00
 0.4423752602022E+00
 0.4412792745271E+00
 0.4403189874081E+00
 0.4394512605963E+00
 0.4386145563046E+00
 0.4377271694382E+00
 0.4366860580366E+00
 0.4353661414444E+00
 0.4336200286338E+00
 0.4312780757598E+00
 0.4281488813053E+00
 0.4240203892170E+00
 0.4186616270949E+00
 0.4118254596041E+00
 0.4032505639619E+00
 0.3926565871232E+00
 0.3797508892989E+00
 0.3642533097041E+00
 0.3459187174707E+00
 0.3245540282290E+00
 0.3000322910783E+00
 0.2723060385508E+00
 0.2414208552057E+00
 0.2075284453219E+00
 0.1708997819853E+00
 0.1319280895064E+00
 0.9111567275599E-01
 0.4905945765320E-01
 0.6436341246547E-02
-0.3601642934358E-01
-0.7752418605160E-01
-0.1172903588882E+00
 0.5118159355289E+00
 0.5082403845079E+00
 0.5048733443380E+00
 0.5017100937916E+00
 0.4987477482544E+00
 0.4959870646137E+00
 0.4934319689044E+00
 0.4910871371921E+00
 0.4889543636878E+00
 0.4870284559947E+00
 0.4852932527867E+00
 0.4837181514294E+00
 0.4822553062576E+00
 0.4808375044656E+00
 0.4793766347789E+00
 0.4777626266441E+00
 0.4758627482330E+00
 0.4735212662812E+00
 0.4705593568293E+00
 0.4667754269330E+00
 0.4619460488574E+00
 0.4558275143474E+00
 0.4481584526830E+00
 0.4386620116193E+00
 0.4270424749131E+00
 0.4129921807502E+00
 0.3962143334807E+00
 0.3764445370795E+00
 0.3534681570082E+00
 0.3271356719268E+00
 0.2973778102545E+00
 0.2642211845498E+00
 0.2278036065619E+00
 0.1883888304107E+00
 0.1463711674259E+00
 0.1022654054964E+00
 0.5669443934794E-01
 0.1037417268334E-01
-0.3590830361133E-01
-0.8132153321259E-01
-0.1250098538651E+00
 0.5629744241084E+00
 0.5587221444140E+00
 0.5546274334880E+00
 0.5507059904671E+00
 0.5469736961373E+00
 0.5434471486748E+00
 0.5401424602865E+00
 0.5370726335178E+00
 0.5342441504649E+00
 0.5316533570206E+00
 0.5292830822363E+00
 0.5270997628504E+00
 0.5250511540301E+00
 0.5230645938780E+00
 0.5210457259975E+00
 0.5188775624848E+00
 0.5164197901210E+00
 0.5135083603689E+00
 0.5099552428134E+00
 0.5055485525906E+00
 0.5000532847073E+00
 0.4932126460357E+00
 0.4847504921990E+00
 0.4743736690308E+00
 0.4617700719868E+00
 0.4466157220626E+00
 0.4285955789471E+00
 0.4074240258150E+00
 0.3828625907454E+00
 0.3547366394804E+00
 0.3229524419558E+00
 0.2875150764344E+00
 0.2485462393182E+00
 0.2063008204069E+00
 0.1611733703900E+00
 0.1136913310708E+00
 0.6450488001981E-01
 0.1437139491674E-01
-0.3586856599159E-01
-0.8532192263374E-01
-0.1330678880580E+00
 0.6141131009697E+00
 0.6091815884486E+00
 0.6043569680282E+00
 0.5996750335225E+00
 0.5951703615346E+00
 0.5908755709565E+00
 0.5868193332543E+00
 0.5830234628922E+00
 0.5794996461216E+00
 0.5762462510170E+00
 0.5732455113004E+00
 0.5704612351083E+00
 0.5678370333769E+00
 0.5652949876292E+00
 0.5627346429330E+00
 0.5600322073469E+00
 0.5570398716264E+00
 0.5535853247708E+00
 0.5494713364391E+00
 0.5444756659945E+00
 0.5383515626608E+00
 0.5308288334867E+00
 0.5216160495966E+00
 0.5104029996014E+00
 0.4968601706395E+00
 0.4806459612026E+00
 0.4614254420949E+00
 0.4388897484035E+00
 0.4127741602637E+00
 0.3828761994715E+00
 0.3490747604098E+00
 0.3113504880077E+00
 0.2698063441140E+00
 0.2246862819631E+00
 0.1763838371411E+00
 0.1254389740449E+00
 0.7253036858712E-01
 0.1845951886255E-01
-0.3587546521008E-01
-0.8951441552914E-01
-0.1414648135409E+00
 0.6652419922937E+00
 0.6596259847300E+00
 0.6540664364916E+00
 0.6486191282786E+00
 0.6433374397048E+00
 0.6382703010718E+00
 0.6334593571109E+00
 0.6289357009424E+00
 0.6247166799934E+00
 0.6208030891317E+00
 0.6171768991358E+00
 0.6137995493263E+00
 0.6106107058715E+00
 0.6075273503633E+00
 0.6044430595673E+00
 0.6012273521109E+00
 0.5977250242910E+00
 0.5937555834307E+00
 0.5891126423407E+00
 0.5835635826034E+00
 0.5768497828638E+00
 0.5686873774543E+00
 0.5587691785666E+00
 0.5467671887993E+00
 0.5323334808392E+00
 0.5151075223157E+00
 0.4947328204327E+00
 0.4708751620549E+00
 0.4432410368357E+00
 0.4115971849069E+00
 0.3757919164186E+00
 0.3357781678854E+00
 0.2916371040237E+00
 0.2435991926451E+00
 0.1920552470683E+00
 0.1375572850726E+00
 0.8081357339018E-01
 0.2267253705087E-01
-0.3590563378140E-01
-0.9388758476755E-01
-0.1502018090668E+00
 0.7163710429321E+00
 0.7100625668429E+00
 0.7037603101405E+00
 0.6975401495522E+00
 0.6914745557510E+00
 0.6856291805523E+00
 0.6800591065673E+00
 0.6748051623122E+00
 0.6698907601937E+00
 0.6653194500376E+00
 0.6610731902049E+00
 0.6571112369454E+00
 0.6533694530547E+00
 0.6497598385248E+00
 0.6461701140524E+00
 0.6424632243132E+00
 0.6384766899293E+00
 0.6340219478556E+00
 0.6288835377749E+00
 0.6228184889696E+00
 0.6155562355877E+00
 0.6067990169520E+00
 0.5962234579524E+00
 0.5834830831374E+00
 0.5682105684864E+00
 0.5500251480808E+00
 0.5285470663548E+00
 0.5034145902719E+00
 0.4743027384707E+00
 0.4409443089324E+00
 0.4031534989838E+00
 0.3608518443490E+00
 0.3140951541373E+00
 0.2630973257064E+00
 0.2082442301739E+00
 0.1500990792225E+00
 0.8940066140001E-01
 0.2704727321654E-01
-0.3593384366642E-01
-0.9842938315719E-01
-0.1592808434653E+00
 0.7675101575365E+00
 0.7604985437412E+00
 0.7534430211258E+00
 0.7464398929165E+00
 0.7395811975719E+00
 0.7329498472348E+00
 0.7266148862683E+00
 0.7206273316199E+00
 0.7150170144543E+00
 0.7097904915359E+00
 0.7049298755926E+00
 0.7003923485033E+00
 0.6961100498598E+00
 0.6919900755025E+00
 0.6879143828222E+00
 0.6837394587924E+00
 0.6792956857576E+00
 0.6743865750755E+00
 0.6687877221680E+00
 0.6622458830626E+00
 0.6544785320041E+00
 0.6451738507281E+00
 0.6339919049235E+00
 0.6205670970668E+00
 0.6045117594569E+00
 0.5854236062453E+00
 0.5628979040033E+00
 0.5365431608641E+00
 0.5060001030143E+00
 0.4709641894727E+00
 0.4312116287902E+00
 0.3866284028801E+00
 0.3372408521244E+00
 0.2832426115948E+00
 0.2250118018825E+00
 0.1631215089788E+00
 0.9834176035782E-01
 0.3162378106878E-01
-0.3593271229128E-01
-0.1031269734735E+00
-0.1687046327142E+00
 0.8186692463825E+00
 0.8109411153065E+00
 0.8031189464736E+00
 0.7953200315222E+00
 0.7876566538223E+00
 0.7802296641551E+00
 0.7731226596119E+00
 0.7663972989081E+00
 0.7600901360596E+00
 0.7542109081535E+00
 0.7487419613760E+00
 0.7436384305460E+00
 0.7388287471565E+00
 0.7342151367149E+00
 0.7296738652553E+00
 0.7250550792633E+00
 0.7201821805754E+00
 0.7148509365142E+00
 0.7088281771531E+00
 0.7018505243620E+00
 0.6936235436878E+00
 0.6838212661175E+00
 0.6720868938939E+00
 0.6580351237864E+00
 0.6412570456936E+00
 0.6213275965549E+00
 0.5978153454517E+00
 0.5702967432696E+00
 0.5383752621783E+00
 0.5017053786249E+00
 0.4600210628690E+00
 0.4131680839126E+00
 0.3611385800619E+00
 0.3041015424634E+00
 0.2424238515315E+00
 0.1766865988471E+00
 0.1076914863626E+00
 0.3644580674252E-01
-0.3587235478270E-01
-0.1079665272689E+00
-0.1784766009749E+00
 0.8698582765319E+00
 0.8613974921252E+00
 0.8527923946814E+00
 0.8441820736508E+00
 0.8356999508627E+00
 0.8274656460959E+00
 0.8195779744392E+00
 0.8121096917156E+00
 0.8051043265640E+00
 0.7985748859276E+00
 0.7925039346564E+00
 0.7868445006208E+00
 0.7815212526524E+00
 0.7764315331348E+00
 0.7714459666471E+00
 0.7664084778437E+00
 0.7611356683151E+00
 0.7554157834024E+00
 0.7490071220638E+00
 0.7416363780461E+00
 0.7329973345681E+00
 0.7227498583928E+00
 0.7105200637164E+00
 0.6959024318969E+00
 0.6784659746467E+00
 0.6577616387203E+00
 0.6333295861899E+00
 0.6047118645915E+00
 0.5714715955758E+00
 0.5332183760304E+00
 0.4896392905981E+00
 0.4405346829787E+00
 0.3858570629924E+00
 0.3257456096809E+00
 0.2605516798342E+00
 0.1908618419384E+00
 0.1175095408873E+00
 0.4156132039895E-01
-0.3571997710492E-01
-0.1129329861440E+00
-0.1886008376251E+00
 0.9210873294861E+00
 0.9118749198381E+00
 0.9024675944091E+00
 0.8930273198591E+00
 0.8837097872853E+00
 0.8746543824698E+00
 0.8659758846203E+00
 0.8577586032518E+00
 0.8500532352220E+00
 0.8428760546650E+00
 0.8362097277957E+00
 0.8300050210379E+00
 0.8241827109043E+00
 0.8186351940234E+00
 0.8132274802460E+00
 0.8077973932670E+00
 0.8021549396585E+00
 0.7960811093951E+00
 0.7893259655080E+00
 0.7816065538467E+00
 0.7726050858117E+00
 0.7619673409786E+00
 0.7493022133229E+00
 0.7341835477722E+00
 0.7161575214961E+00
 0.6947499402474E+00
 0.6694708779757E+00
 0.6398256015515E+00
 0.6053336611470E+00
 0.5655556220863E+00
 0.5201266169919E+00
 0.4687957502384E+00
 0.4114697034265E+00
 0.3482517768767E+00
 0.2794725916947E+00
 0.2057208681658E+00
 0.1278613883006E+00
 0.4702312710104E-01
-0.3543940245973E-01
-0.1180097804409E+00
-0.1990820472084E+00
 0.9723666667919E+00
 0.9623807090129E+00
 0.9521486855535E+00
 0.9418568195902E+00
 0.9316844658639E+00
 0.9217919567386E+00
 0.9123108683663E+00
 0.9033375182518E+00
 0.8949298974374E+00
 0.8871074406212E+00
 0.8798526843030E+00
 0.8731138752388E+00
 0.8668076865800E+00
 0.8608214532575E+00
 0.8550145729561E+00
 0.8492188925811E+00
 0.8432380567230E+00
 0.8368461155896E+00
 0.8297852584015E+00
 0.8217632451192E+00
 0.8124510193341E+00
 0.8014804523106E+00
 0.7884431915991E+00
 0.7728921293152E+00
 0.7543499495249E+00
 0.7323162489832E+00
 0.7062693831479E+00
 0.6756754515127E+00
 0.6400071041409E+00
 0.5987714723873E+00
 0.5515462344753E+00
 0.4980227913910E+00
 0.4380549358692E+00
 0.3717029958967E+00
 0.2992705555852E+00
 0.2213441983534E+00
 0.1388190291319E+00
 0.5288957035915E-01
-0.3499052113256E-01
-0.1231784993972E+00
-0.2099254903476E+00
 0.1023706805199E+01
 0.1012922271137E+01
 0.1001839712215E+01
 0.9906713259487E+00
 0.9796218212514E+00
 0.9688738607804E+00
 0.9585767420784E+00
 0.9488392358614E+00
 0.9397266721082E+00
 0.9312614198902E+00
 0.9234255269505E+00
 0.9161643475075E+00
 0.9093901517763E+00
 0.9029850400762E+00
 0.8968027755257E+00
 0.8906693571493E+00
 0.8843823316245E+00
 0.8777091787551E+00
 0.8703846492801E+00
 0.8621076689514E+00
 0.8525383207489E+00
 0.8412948601131E+00
 0.8279517821610E+00
 0.8120408315456E+00
 0.7930606587005E+00
 0.7704836898209E+00
 0.7437550089880E+00
 0.7122991801009E+00
 0.6755385410737E+00
 0.6329221489611E+00
 0.5839642785520E+00
 0.5282914664469E+00
 0.4656966005800E+00
 0.3961887692902E+00
 0.3200369384408E+00
 0.2378200979085E+00
 0.1504618849776E+00
 0.5922534335212E-01
-0.3432865192636E-01
-0.1284185029232E+00
-0.2211369105403E+00
 0.1075118602967E+01
 0.1063507159783E+01
 0.1051544614415E+01
 0.1039471243504E+01
 0.1027519136915E+01
 0.1015894896866E+01
 0.1004766561971E+01
 0.9942557815339E+00
 0.9844351695854E+00
 0.9753296638501E+00
 0.9669203189380E+00
 0.9591490961918E+00
 0.9519234668167E+00
 0.9451200628757E+00
 0.9385869650411E+00
 0.9321444599566E+00
 0.9255842951199E+00
 0.9186678081794E+00
 0.9111228265068E+00
 0.9026399911418E+00
 0.8928690447983E+00
 0.8814150453233E+00
 0.8678355644028E+00
 0.8516411444458E+00
 0.8323060018112E+00
 0.8092745636403E+00
 0.7819571987314E+00
 0.7497346203983E+00
 0.7119753920632E+00
 0.6680656405582E+00
 0.6174498395160E+00
 0.5596817601793E+00
 0.4944843145294E+00
 0.4218057441520E+00
 0.3418713097746E+00
 0.2552455327020E+00
 0.1628778042749E+00
 0.6610241991311E-01
-0.3340380161165E-01
-0.1337064600837E+00
-0.2327224235530E+00
 0.1126613359724E+01
 0.1114143120882E+01
 0.1101267222827E+01
 0.1088256574349E+01
 0.1075373058005E+01
 0.1062849076008E+01
 0.1050872524642E+01
 0.1039578321636E+01
 0.1029046186361E+01
 0.1019303094989E+01
 0.1010328438420E+01
 0.1002060142555E+01
 0.9944003783338E+00
 0.9872200114742E+00
 0.9803613667340E+00
 0.9736391628177E+00
 0.9668396855118E+00
 0.9597186229093E+00
 0.9519974807375E+00
 0.9433592709814E+00
 0.9334440397328E+00
 0.9218442035980E+00
 0.9081007900929E+00
 0.8917032434617E+00
 0.8721011093309E+00
 0.8487101499604E+00
 0.8209047203886E+00
 0.7880194638657E+00
 0.7493657000344E+00
 0.7042615884220E+00
 0.6520749646609E+00
 0.5922781575555E+00
 0.5245138732741E+00
 0.4486583734009E+00
 0.3648823545568E+00
 0.2737272687524E+00
 0.1761642276135E+00
 0.7360113429036E-01
-0.3215980760426E-01
-0.1390158087050E+00
-0.2446883809542E+00
 0.1178202932947E+01
 0.1164838150031E+01
 0.1151011250652E+01
 0.1137026852888E+01
 0.1123179487961E+01
 0.1109729498622E+01
 0.1096885851232E+01
 0.1084797064275E+01
 0.1073549628834E+01
 0.1063171834119E+01
 0.1053640545857E+01
 0.1044888853022E+01
 0.1036813010607E+01
 0.1029277751989E+01
 0.1022119547419E+01
 0.1015147703989E+01
 0.1008143426530E+01
 0.1000857316326E+01
 0.9930052528363E+00
 0.9842633893003E+00
 0.9742628523961E+00
 0.9625841244768E+00
 0.9487522339159E+00
 0.9322358093603E+00
 0.9124596779428E+00
 0.8888104663055E+00
 0.8606254042509E+00
 0.8271909915662E+00
 0.7877578831075E+00
 0.7415711021136E+00
 0.6879145951874E+00
 0.6261697705317E+00
 0.5558876362345E+00
 0.4768596079847E+00
 0.3891888738766E+00
 0.2933831117118E+00
 0.1904295217280E+00
 0.8181142436999E-01
-0.3053334706521E-01
-0.1443161115148E+00
-0.2570411568994E+00
 0.1229899872958E+01
 0.1215600558531E+01
 0.1200780282622E+01
 0.1185781068633E+01
 0.1170933468416E+01
 0.1156528218288E+01
 0.1142796657708E+01
 0.1129901150814E+01
 0.1117934432328E+01
 0.1106925146550E+01
 0.1096846552875E+01
 0.1087625924373E+01
 0.1079152860456E+01
 0.1071285525315E+01
 0.1063854412227E+01
 0.1056663588548E+01
 0.1049489607256E+01
 0.1042078621846E+01
 0.1034141681757E+01
 0.1025348975016E+01
 0.1015323629952E+01
 0.1003635064793E+01
 0.9897930351173E+00
 0.9732458349779E+00
 0.9533937402977E+00
 0.9295940013924E+00
 0.9011458450089E+00
 0.8672857595755E+00
 0.8272004311474E+00
 0.7800565129035E+00
 0.7250464420509E+00
 0.6614504186259E+00
 0.5887148990083E+00
 0.5065316294194E+00
 0.4149208932260E+00
 0.3143433175450E+00
 0.2057945184293E+00
 0.9083426613078E-01
-0.2845280146040E-01
-0.1495723013896E+00
-0.2697868379013E+00
 0.1281717582622E+01
 0.1266439052692E+01
 0.1250577764299E+01
 0.1234517579488E+01
 0.1218629045442E+01
 0.1203236093359E+01
 0.1188593818313E+01
 0.1174878547384E+01
 0.1162188486733E+01
 0.1150551400255E+01
 0.1139935606942E+01
 0.1130261387263E+01
 0.1121410811998E+01
 0.1113234966421E+01
 0.1105558222788E+01
 0.1098179600651E+01
 0.1090871484231E+01
 0.1083376300931E+01
 0.1075401174637E+01
 0.1066611353525E+01
 0.1056623042724E+01
 0.1044995641958E+01
 0.1031224557013E+01
 0.1014738446660E+01
 0.9949134446165E+00
 0.9710774511109E+00
 0.9424910971151E+00
 0.9083392659413E+00
 0.8677415715444E+00
 0.8197810867168E+00
 0.7635508196203E+00
 0.6982186804032E+00
 0.6231122714210E+00
 0.5378066483167E+00
 0.4422209173826E+00
 0.3367522294018E+00
 0.2223943204945E+00
 0.1007833463582E+00
-0.2583696186082E-01
-0.1547438118290E+00
-0.2829307799602E+00
 0.1333670504661E+01
 0.1317362821648E+01
 0.1300406979814E+01
 0.1283233997667E+01
 0.1266259100327E+01
 0.1249842602178E+01
 0.1234264796388E+01
 0.1219715909258E+01
 0.1206298539900E+01
 0.1194038004988E+01
 0.1182896058283E+01
 0.1172784591662E+01
 0.1163577131958E+01
 0.1155117102203E+01
 0.1147222591658E+01
 0.1139687789579E+01
 0.1132281454721E+01
 0.1124743099474E+01
 0.1116776942261E+01
 0.1108044457145E+01
 0.1098156165385E+01
 0.1086662681376E+01
 0.1073046195638E+01
 0.1056716668640E+01
 0.1037026769197E+01
 0.1013275378847E+01
 0.9846842809109E+00
 0.9503855119943E+00
 0.9094288116453E+00
 0.8608085984528E+00
 0.8035103343411E+00
 0.7365778115459E+00
 0.6592039616021E+00
 0.5708276834358E+00
 0.4712452735335E+00
 0.3607701206000E+00
 0.2403803882689E+00
 0.1117869913014E+00
-0.2259358264105E-01
-0.1597835935612E+00
-0.2964769184447E+00
 0.1385774344098E+01
 0.1368381643889E+01
 0.1350271028397E+01
 0.1331927060811E+01
 0.1313815161611E+01
 0.1296335644521E+01
 0.1279795471694E+01
 0.1264398453488E+01
 0.1250250119867E+01
 0.1237371378346E+01
 0.1225715459382E+01
 0.1215184228640E+01
 0.1205641503863E+01
 0.1196922390188E+01
 0.1188838519329E+01
 0.1181179500020E+01
 0.1173711075873E+01
 0.1166170751614E+01
 0.1158260983338E+01
 0.1149640785561E+01
 0.1139916409059E+01
 0.1128631115262E+01
 0.1115255239574E+01
 0.1099181237092E+01
 0.1079739282955E+01
 0.1056199915007E+01
 0.1027746216924E+01
 0.9934565761615E+00
 0.9523084743460E+00
 0.9032028798851E+00
 0.8450095340805E+00
 0.7766356280379E+00
 0.6971220595984E+00
 0.6057494152317E+00
 0.5021656467329E+00
 0.3865753696122E+00
 0.2599230479743E+00
 0.1239904537176E+00
-0.1861779236333E-01
-0.1646370969257E+00
-0.3104267924137E+00
 0.1438046334683E+01
 0.1419506008309E+01
 0.1400172785375E+01
 0.1380592465470E+01
 0.1361287170419E+01
 0.1342701298532E+01
 0.1325169931818E+01
 0.1308909805580E+01
 0.1294027439164E+01
 0.1280536898764E+01
 0.1268380553217E+01
 0.1257448340468E+01
 0.1247593048910E+01
 0.1238640741677E+01
 0.1230396413296E+01
 0.1222645382004E+01
 0.1215151061061E+01
 0.1207649958186E+01
 0.1199844040637E+01
 0.1191391335056E+01
 0.1181895418818E+01
 0.1170893843075E+01
 0.1157846686931E+01
 0.1142130365649E+01
 0.1123053849570E+01
 0.1099860388850E+01
 0.1071694976421E+01
 0.1037582082443E+01
 0.9964251019175E+00
 0.9470272081599E+00
 0.8881343773323E+00
 0.8185042087772E+00
 0.7370066777248E+00
 0.6427389871780E+00
 0.5351707162016E+00
 0.4143669403329E+00
 0.2812144783923E+00
 0.1375586341709E+00
-0.1379040628026E-01
-0.1692413595998E+00
-0.3247780917027E+00
 0.1490505556362E+01
 0.1470747253765E+01
 0.1450114845416E+01
 0.1429224658423E+01
 0.1408663196258E+01
 0.1388923534872E+01
 0.1370370234809E+01
 0.1353231832272E+01
 0.1337613296955E+01
 0.1323518863723E+01
 0.1310877270277E+01
 0.1299564340550E+01
 0.1289420356358E+01
 0.1280261553642E+01
 0.1271886115047E+01
 0.1264075408038E+01
 0.1256591282778E+01
 0.1249170370979E+01
 0.1241515562025E+01
 0.1233285531525E+01
 0.1224082973605E+01
 0.1213441592685E+01
 0.1200813060857E+01
 0.1185559506045E+01
 0.1166970321014E+01
 0.1144262939951E+01
 0.1116545395907E+01
 0.1082788609601E+01
 0.1041820769529E+01
 0.9923435681211E+00
 0.9329715439737E+00
 0.8622994266199E+00
 0.7790059477498E+00
 0.6819767570549E+00
 0.5704679113569E+00
 0.4443672342165E+00
 0.3044723428154E+00
 0.1526794388253E+00
-0.7976199860695E-02
-0.1735245912467E+00
-0.3395226375547E+00
 0.1543173321826E+01
 0.1522117736401E+01
 0.1500099449811E+01
 0.1477816584237E+01
 0.1455929103446E+01
 0.1434983893453E+01
 0.1415376154533E+01
 0.1397344476978E+01
 0.1380988999099E+01
 0.1366300475370E+01
 0.1353190757893E+01
 0.1341519067727E+01
 0.1331111549077E+01
 0.1321773776266E+01
 0.1313296963365E+01
 0.1305458927493E+01
 0.1298020813878E+01
 0.1290720616482E+01
 0.1283263702006E+01
 0.1275311204829E+01
 0.1266466928199E+01
 0.1256262824261E+01
 0.1244144268159E+01
 0.1229461151403E+01
 0.1211485271048E+01
 0.1189410162727E+01
 0.1162308611016E+01
 0.1129099096707E+01
 0.1088534361345E+01
 0.1039211834491E+01
 0.9796076224759E+00
 0.9081403297242E+00
 0.8232758864734E+00
 0.7236570135187E+00
 0.6082853251653E+00
 0.4768253901901E+00
 0.3299442939557E+00
 0.1695681807369E+00
-0.1022117693789E-02
-0.1774071101609E+00
-0.3546437974689E+00
 0.1596073644965E+01
 0.1573631017263E+01
 0.1550128371464E+01
 0.1526359350284E+01
 0.1503068124705E+01
 0.1480861079295E+01
 0.1460164866315E+01
 0.1441225555136E+01
 0.1424134250827E+01
 0.1408863804036E+01
 0.1395305387150E+01
 0.1383298814739E+01
 0.1372654318621E+01
 0.1363165945242E+01
 0.1354617817917E+01
 0.1346784677124E+01
 0.1339427920969E+01
 0.1332288267651E+01
 0.1325075266850E+01
 0.1317454501911E+01
 0.1309033088824E+01
 0.1299343562469E+01
 0.1287827380698E+01
 0.1273824555894E+01
 0.1256591636455E+01
 0.1235300645504E+01
 0.1208991464023E+01
 0.1176532090329E+01
 0.1136600642499E+01
 0.1087688691290E+01
 0.1028127970331E+01
 0.9561481485187E+00
 0.8699798897638E+00
 0.7679884192030E+00
 0.6488735980562E+00
 0.5120208876359E+00
 0.3579133588331E+00
 0.1884736484802E+00
 0.7244885810986E-02
-0.1808053441649E+00
-0.3701140884844E+00
 0.1649233816188E+01
 0.1625302088245E+01
 0.1600202766458E+01
 0.1574841818668E+01
 0.1550060360678E+01
 0.1526530511048E+01
 0.1504710621446E+01
 0.1484850570285E+01
 0.1467027092005E+01
 0.1451189806447E+01
 0.1437204820061E+01
 0.1424889419266E+01
 0.1414036024279E+01
 0.1404426279741E+01
 0.1395837150924E+01
 0.1388040862776E+01
 0.1380800132512E+01
 0.1373859894091E+01
 0.1366935741749E+01
 0.1359699885464E+01
 0.1351765177929E+01
 0.1342667321880E+01
 0.1331846514555E+01
 0.1318635556766E+01
 0.1302278463673E+01
 0.1281928613625E+01
 0.1256596005731E+01
 0.1225101063064E+01
 0.1186049361418E+01
 0.1137826519395E+01
 0.1078615467095E+01
 0.1006445119580E+01
 0.9192880283025E+00
 0.8151943172777E+00
 0.6925079362836E+00
 0.5502676945638E+00
 0.3887042035283E+00
 0.2096868591921E+00
 0.1702238351305E-01
-0.1836429424104E+00
-0.3858952166255E+00
 0.1702685117987E+01
 0.1677147630476E+01
 0.1650322958692E+01
 0.1623250074325E+01
 0.1596882150482E+01
 0.1571963771263E+01
 0.1548984363174E+01
 0.1528192503359E+01
 0.1509643823389E+01
 0.1493258340434E+01
 0.1478872071205E+01
 0.1466276344204E+01
 0.1455243775603E+01
 0.1445542758786E+01
 0.1436943113106E+01
 0.1429215211975E+01
 0.1422124274789E+01
 0.1415421076983E+01
 0.1408829279201E+01
 0.1402030089777E+01
 0.1394644751794E+01
 0.1386214981078E+01
 0.1376182654342E+01
 0.1363876338172E+01
 0.1348530592578E+01
 0.1329283500741E+01
 0.1305118907602E+01
 0.1274813609712E+01
 0.1236904175254E+01
 0.1189672027695E+01
 0.1131148902426E+01
 0.1059152850319E+01
 0.9713757845772E+00
 0.8655126621559E+00
 0.7394897426691E+00
 0.5919192259453E+00
 0.4226896330908E+00
 0.2335522047545E+00
 0.2854568091327E-01
-0.1858734566531E+00
-0.4019578989506E+00
 0.1756463719958E+01
 0.1729186303385E+01
 0.1700488137675E+01
 0.1671566736634E+01
 0.1643505289187E+01
 0.1617127953411E+01
 0.1592953294241E+01
 0.1571221595516E+01
 0.1551958948291E+01
 0.1535048201540E+01
 0.1520289589275E+01
 0.1507444772939E+01
 0.1496264525145E+01
 0.1486503204273E+01
 0.1477923604092E+01
 0.1470295029861E+01
 0.1463386510631E+01
 0.1456956426213E+01
 0.1450738688587E+01
 0.1444426076212E+01
 0.1437651116003E+01
 0.1429964653389E+01
 0.1420813474111E+01
 0.1409525192720E+01
 0.1395328338635E+01
 0.1377349515166E+01
 0.1354550856524E+01
 0.1325670596897E+01
 0.1289181474440E+01
 0.1243264690740E+01
 0.1185801049651E+01
 0.1114390189092E+01
 0.1026422280766E+01
 0.9191951250300E+00
 0.7901487824940E+00
 0.6373712842576E+00
 0.4603045746383E+00
 0.2604652872724E+00
 0.4213657248414E-01
-0.1875253106030E+00
-0.4183509202033E+00
 0.1810611850011E+01
 0.1781439035172E+01
 0.1750695988308E+01
 0.1719770065396E+01
 0.1689896086365E+01
 0.1661984913070E+01
 0.1636580427107E+01
 0.1613905165737E+01
 0.1593945175126E+01
 0.1576537227532E+01
 0.1561439404709E+01
 0.1548379766856E+01
 0.1537085220753E+01
 0.1527295422981E+01
 0.1518766403166E+01
 0.1511267318251E+01
 0.1504572444874E+01
 0.1498449667973E+01
 0.1492645499580E+01
 0.1486867065315E+01
 0.1480761320263E+01
 0.1473891640652E+01
 0.1465713247367E+01
 0.1455556380665E+01
 0.1442647282448E+01
 0.1426105320906E+01
 0.1404876062913E+01
 0.1377665407929E+01
 0.1342889254331E+01
 0.1298635145499E+01
 0.1242636538445E+01
 0.1172270750293E+01
 0.1084607790090E+01
 0.9765061355057E+00
 0.8448430809832E+00
 0.6870720165707E+00
 0.5020402822837E+00
 0.2909367871674E+00
 0.5807749311387E-01
-0.1882767737364E+00
-0.4361994076212E+00
 0.1865179291365E+01
 0.1833935399182E+01
 0.1800951227443E+01
 0.1767845643723E+01
 0.1736030234332E+01
 0.1706509535239E+01
 0.1679846221988E+01
 0.1656232515638E+01
 0.1635601471590E+01
 0.1617733427823E+01
 0.1602337313603E+01
 0.1589103526275E+01
 0.1577733195566E+01
 0.1567950798866E+01
 0.1559506056635E+01
 0.1552169073555E+01
 0.1545720977500E+01
 0.1539941235650E+01
 0.1534591521651E+01
 0.1529396355292E+01
 0.1524020596082E+01
 0.1518043926162E+01
 0.1510933904768E+01
 0.1502027322544E+01
 0.1490552207525E+01
 0.1475625353925E+01
 0.1456181586815E+01
 0.1430901869587E+01
 0.1398154135792E+01
 0.1355941610316E+01
 0.1301857691617E+01
 0.1233057693207E+01
 0.1146276614701E+01
 0.1037891107150E+01
 0.9041322317868E+00
 0.7416818495928E+00
 0.5486290710719E+00
 0.3256099961232E+00
 0.7705671168766E-01
-0.1884655415330E+00
-0.4553290902434E+00
 0.1920227465825E+01
 0.1886704046528E+01
 0.1851248066517E+01
 0.1815760513222E+01
 0.1781860018972E+01
 0.1750650710184E+01
 0.1722703701893E+01
 0.1698164242924E+01
 0.1676896498248E+01
 0.1658612419811E+01
 0.1642964202529E+01
 0.1629600493960E+01
 0.1618194932768E+01
 0.1608456579715E+01
 0.1600129511064E+01
 0.1592986040368E+01
 0.1586815884571E+01
 0.1581412301162E+01
 0.1576554849294E+01
 0.1571988714067E+01
 0.1567400432446E+01
 0.1562390117431E+01
 0.1556441922044E+01
 0.1548903420666E+01
 0.1539008767361E+01
 0.1525877169985E+01
 0.1508439160644E+01
 0.1485359389340E+01
 0.1454968854592E+01
 0.1415199225723E+01
 0.1363516086723E+01
 0.1296859520458E+01
 0.1211621476480E+01
 0.1103658876653E+01
 0.9684676827975E+00
 0.8018061029240E+00
 0.6007771097112E+00
 0.3652735235894E+00
 0.9946157952377E-01
-0.1867756606222E+00
-0.4804348030590E+00
 0.1975823879572E+01
 0.1939768764534E+01
 0.1901563959782E+01
 0.1863457142959E+01
 0.1827309512200E+01
 0.1794328319654E+01
 0.1765077111989E+01
 0.1739632164030E+01
 0.1717769353443E+01
 0.1699118661586E+01
 0.1683267557925E+01
 0.1669819022944E+01
 0.1658417831947E+01
 0.1648757716715E+01
 0.1640578020855E+01
 0.1633654693044E+01
 0.1627787883092E+01
 0.1622786930235E+01
 0.1618452106392E+01
 0.1614552696418E+01
 0.1610800931395E+01
 0.1606821781657E+01
 0.1602120544123E+01
 0.1596060021438E+01
 0.1587884943304E+01
 0.1576722056562E+01
 0.1561504488675E+01
 0.1540890306771E+01
 0.1513186797877E+01
 0.1476270599423E+01
 0.1427497607552E+01
 0.1363607825921E+01
 0.1280652627557E+01
 0.1173940681160E+01
 0.1038147060974E+01
 0.8679328632265E+00
 0.6591618637039E+00
 0.4106319491161E+00
 0.1261940634929E+00
-0.1839333962113E+00
-0.5043418255483E+00
 0.2032053559998E+01
 0.1993164899651E+01
 0.1951881289385E+01
 0.1910880518978E+01
 0.1872307705324E+01
 0.1837472579481E+01
 0.1806907303064E+01
 0.1780590470516E+01
 0.1758186344935E+01
 0.1739227838574E+01
 0.1723229578798E+01
 0.1709745377482E+01
 0.1698390277395E+01
 0.1688843187291E+01
 0.1680839926955E+01
 0.1674161698315E+01
 0.1668621049168E+01
 0.1664045788242E+01
 0.1660259852762E+01
 0.1657060269119E+01
 0.1654189297253E+01
 0.1651301593172E+01
 0.1647928537365E+01
 0.1643452859822E+01
 0.1637134382218E+01
 0.1628112515438E+01
 0.1615330118873E+01
 0.1597449318343E+01
 0.1572768946647E+01
 0.1539130840614E+01
 0.1493805434184E+01
 0.1433357118986E+01
 0.1353511739864E+01
 0.1249014912048E+01
 0.1113640355570E+01
 0.9407668179067E+00
 0.7246943208471E+00
 0.4627496020017E+00
 0.1579970775938E+00
-0.1786219834302E+00
-0.5287903098865E+00
 0.2089020486147E+01
 0.2046932781322E+01
 0.2002174044944E+01
 0.1957960380174E+01
 0.1916768395648E+01
 0.1880002396852E+01
 0.1848128425784E+01
 0.1820990265962E+01
 0.1798112930757E+01
 0.1778915944930E+01
 0.1762833264520E+01
 0.1749366752557E+01
 0.1738101531431E+01
 0.1728702701437E+01
 0.1720904102016E+01
 0.1714494003545E+01
 0.1709299422608E+01
 0.1705169093692E+01
 0.1701953668789E+01
 0.1699481753230E+01
 0.1697530311000E+01
 0.1695788971769E+01
 0.1693820591035E+01
 0.1691032786401E+01
 0.1686704952965E+01
 0.1679994083571E+01
 0.1669859898182E+01
 0.1654979899600E+01
 0.1633661602821E+01
 0.1603735983425E+01
 0.1562418719434E+01
 0.1506133648449E+01
 0.1430312094962E+01
 0.1329141534187E+01
 0.1195430011614E+01
 0.1021076976361E+01
 0.7984462235985E+00
 0.5228479285588E+00
 0.1960859939050E+00
-0.1701844668286E+00
-0.5540508496869E+00
 0.2146853213869E+01
 0.2101118375426E+01
 0.2052404162919E+01
 0.2004606445579E+01
 0.1960586658187E+01
 0.1921823752022E+01
 0.1888667717554E+01
 0.1860780001009E+01
 0.1837514294129E+01
 0.1818159788552E+01
 0.1802062807520E+01
 0.1788671570858E+01
 0.1777541963857E+01
 0.1768326889268E+01
 0.1760760116150E+01
 0.1754638994733E+01
 0.1749807164080E+01
 0.1746136771534E+01
 0.1743508289434E+01
 0.1741785912881E+01
 0.1740786348535E+01
 0.1740240024754E+01
 0.1739747210631E+01
 0.1738745662837E+01
 0.1736538683161E+01
 0.1732305297157E+01
 0.1725028873748E+01
 0.1713413969486E+01
 0.1695795539242E+01
 0.1670021185376E+01
 0.1633289110047E+01
 0.1581929197117E+01
 0.1511128295049E+01
 0.1414548205614E+01
 0.1283994769277E+01
 0.1109697314972E+01
 0.8816456989501E+00
 0.5924428970748E+00
 0.2419192707987E+00
-0.1577841322360E+00
-0.5804350521977E+00
 0.2205712671613E+01
 0.2155773757906E+01
 0.2102516148164E+01
 0.2050701944287E+01
 0.2003634538892E+01
 0.1962828098311E+01
 0.1928445625471E+01
 0.1899906218578E+01
 0.1876356107619E+01
 0.1856937592172E+01
 0.1840904031040E+01
 0.1827649799779E+01
 0.1816703289872E+01
 0.1807707492716E+01
 0.1800398406870E+01
 0.1794584662092E+01
 0.1790128726111E+01
 0.1786928628282E+01
 0.1784897766115E+01
 0.1783940070482E+01
 0.1783917412844E+01
 0.1784607483873E+01
 0.1785654594991E+01
 0.1786532253936E+01
 0.1786571733000E+01
 0.1784977750384E+01
 0.1780763348696E+01
 0.1772671763792E+01
 0.1759085409568E+01
 0.1737899216695E+01
 0.1706337523259E+01
 0.1660694726070E+01
 0.1595984861709E+01
 0.1505412005268E+01
 0.1379788744857E+01
 0.1207510098069E+01
 0.9757034885439E+00
 0.6733810180180E+00
 0.2973412212400E+00
-0.1403343818998E+00
-0.6082461202904E+00
 0.2265803123559E+01
 0.2210957182986E+01
 0.2152429027318E+01
 0.2096094815581E+01
 0.2045755898964E+01
 0.2002891011179E+01
 0.1967376475149E+01
 0.1938314702847E+01
 0.1914605509028E+01
 0.1895229692519E+01
 0.1879344872194E+01
 0.1866293290308E+01
 0.1855578820248E+01
 0.1846837566866E+01
 0.1839810460159E+01
 0.1834319781615E+01
 0.1830249048579E+01
 0.1827524563068E+01
 0.1826095674991E+01
 0.1825910269737E+01
 0.1826881199258E+01
 0.1828840648466E+01
 0.1831484500622E+01
 0.1834328119658E+01
 0.1836734420474E+01
 0.1837936280479E+01
 0.1836981141377E+01
 0.1832661984424E+01
 0.1823429510660E+01
 0.1807259395218E+01
 0.1781451426176E+01
 0.1742334389230E+01
 0.1684844039348E+01
 0.1601837765795E+01
 0.1483210235663E+01
 0.1315420304813E+01
 0.1082220252040E+01
 0.7679166147261E+00
 0.3647317531230E+00
-0.1163568359266E+00
-0.6378260026830E+00
 0.2327387909403E+01
 0.2266732244738E+01
 0.2202024125012E+01
 0.2140585690388E+01
 0.2086760457488E+01
 0.2041871491106E+01
 0.2005369957154E+01
 0.1975952107033E+01
 0.1952232282387E+01
 0.1933019318942E+01
 0.1917375893733E+01
 0.1904596123256E+01
 0.1894163710667E+01
 0.1885711678572E+01
 0.1878988990403E+01
 0.1873834100284E+01
 0.1870153766890E+01
 0.1867904805336E+01
 0.1867075366698E+01
 0.1867661484524E+01
 0.1869633187674E+01
 0.1872885315160E+01
 0.1877174057790E+01
 0.1882063466202E+01
 0.1886951267008E+01
 0.1891099265863E+01
 0.1893592049951E+01
 0.1893282236062E+01
 0.1888709927271E+01
 0.1877967042859E+01
 0.1858482829496E+01
 0.1826700346387E+01
 0.1777593796248E+01
 0.1703833148549E+01
 0.1594560086199E+01
 0.1434309682107E+01
 0.1202978991478E+01
 0.8788043869470E+00
 0.4472136863790E+00
-0.8378562647686E-01
-0.6695799695622E+00
 0.2390812595377E+01
 0.2323165123007E+01
 0.2251126175568E+01
 0.2183911463730E+01
 0.2126417372703E+01
 0.2079612615678E+01
 0.2042333762691E+01
 0.2012768097834E+01
 0.1989210213959E+01
 0.1970293428535E+01
 0.1954990808740E+01
 0.1942554950963E+01
 0.1932455201113E+01
 0.1924326094604E+01
 0.1917928111896E+01
 0.1913118517636E+01
 0.1909829426179E+01
 0.1908050175569E+01
 0.1907810260836E+01
 0.1909157883889E+01
 0.1912126769627E+01
 0.1916683684370E+01
 0.1922655505575E+01
 0.1929662914761E+01
 0.1937141036449E+01
 0.1944379035804E+01
 0.1950498539906E+01
 0.1954419774911E+01
 0.1954793091964E+01
 0.1949863543765E+01
 0.1937247193011E+01
 0.1913588907793E+01
 0.1874037190086E+01
 0.1811282398313E+01
 0.1713988543615E+01
 0.1564962731213E+01
 0.1339906559370E+01
 0.1009400132537E+01
 0.5489419539203E+00
-0.3965946508705E-01
-0.7039965927928E+00
 0.2456540017999E+01
 0.2380317876478E+01
 0.2299473568814E+01
 0.2225722971212E+01
 0.2164449359286E+01
 0.2115944664926E+01
 0.2078177697333E+01
 0.2048717973375E+01
 0.2025518573887E+01
 0.2007043579986E+01
 0.1992187010507E+01
 0.1980169333666E+01
 0.1970452849380E+01
 0.1962678966148E+01
 0.1956623510358E+01
 0.1952165273030E+01
 0.1949263711834E+01
 0.1947942383469E+01
 0.1948274210301E+01
 0.1950363192355E+01
 0.1954313452060E+01
 0.1960174263705E+01
 0.1967855832357E+01
 0.1977045161661E+01
 0.1987216764032E+01
 0.1997682427678E+01
 0.2007596719001E+01
 0.2015952640212E+01
 0.2021530828563E+01
 0.2022767108177E+01
 0.2017523478840E+01
 0.2002738532666E+01
 0.1973884580570E+01
 0.1923922089881E+01
 0.1841432850864E+01
 0.1707955479490E+01
 0.1494978067815E+01
 0.1163750586818E+01
 0.6755111336521E+00
 0.2038154610120E-01
-0.7416467480155E+00
 0.2525205189015E+01
 0.2438233543425E+01
 0.2346670413805E+01
 0.2265555214162E+01
 0.2200529707752E+01
 0.2150692353499E+01
 0.2112819394841E+01
 0.2083765560158E+01
 0.2061143650254E+01
 0.2043266812371E+01
 0.2028966080942E+01
 0.2017442053062E+01
 0.2008158745085E+01
 0.2000770497294E+01
 0.1995072602325E+01
 0.1990968125375E+01
 0.1988445681309E+01
 0.1987564349307E+01
 0.1988441932097E+01
 0.1991241163075E+01
 0.1996143163664E+01
 0.2003291762591E+01
 0.2012696259102E+01
 0.2024122439808E+01
 0.2037085713818E+01
 0.2050911482590E+01
 0.2064777622067E+01
 0.2077751186594E+01
 0.2088761865271E+01
 0.2096474222823E+01
 0.2099055462869E+01
 0.2093830020532E+01
 0.2076749802186E+01
 0.2041323361033E+01
 0.1976553132458E+01
 0.1863500548202E+01
 0.1670022491541E+01
 0.1346626639310E+01
 0.8345248281531E+00
 0.1029448240806E+00
-0.7831216110369E+00
 0.2597705064752E+01
 0.2496903873849E+01
 0.2392107311861E+01
 0.2302789574364E+01
 0.2234287350274E+01
 0.2183688138735E+01
 0.2146191176765E+01
 0.2117886074662E+01
 0.2096080298408E+01
 0.2078966494127E+01
 0.2065334257599E+01
 0.2054379397906E+01
 0.2045577702674E+01
 0.2038603098821E+01
 0.2033274684869E+01
 0.2029522527672E+01
 0.2027365997354E+01
 0.2026900547019E+01
 0.2028289515381E+01
 0.2031756209836E+01
 0.2037564736745E+01
 0.2045967013497E+01
 0.2057091511521E+01
 0.2070799682325E+01
 0.2086649212988E+01
 0.2103964310622E+01
 0.2121928884109E+01
 0.2139680089134E+01
 0.2156313840906E+01
 0.2170761743404E+01
 0.2181554382039E+01
 0.2186489306640E+01
 0.2182150776544E+01
 0.2162884891243E+01
 0.2118682308331E+01
 0.2031255033939E+01
 0.1866369814248E+01
 0.1563396386272E+01
 0.1036365383396E+01
 0.2183577317385E+00
-0.8287998209535E+00
 0.2675353531405E+01
 0.2556198622034E+01
 0.2434826665537E+01
 0.2336612091538E+01
 0.2265330282442E+01
 0.2214792681177E+01
 0.2178246476774E+01
 0.2151068742799E+01
 0.2130333506567E+01
 0.2114153067496E+01
 0.2101302840272E+01
 0.2090991410074E+01
 0.2082717424156E+01
 0.2076181521260E+01
 0.2071231069653E+01
 0.2067825789721E+01
 0.2066017152388E+01
 0.2065937350474E+01
 0.2067794993713E+01
 0.2071874236123E+01
 0.2078526664023E+01
 0.2088126976517E+01
 0.2100948787477E+01
 0.2116973210966E+01
 0.2135802261932E+01
 0.2156736149419E+01
 0.2178936886303E+01
 0.2201600885983E+01
 0.2224005798919E+01
 0.2245389486101E+01
 0.2264702699896E+01
 0.2280293389595E+01
 0.2289514673792E+01
 0.2287836752100E+01
 0.2266812431430E+01
 0.2210131701902E+01
 0.2084273189917E+01
 0.1819515965194E+01
 0.1295145058935E+01
 0.3832894904203E+00
-0.8781553458008E+00
 0.2760168833285E+01
 0.2615703935626E+01
 0.2473287236550E+01
 0.2365988251220E+01
 0.2293305479535E+01
 0.2243918572120E+01
 0.2208963213902E+01
 0.2183319682629E+01
 0.2163919823016E+01
 0.2148844591596E+01
 0.2136888537037E+01
 0.2127292063509E+01
 0.2119588618089E+01
 0.2113512953143E+01
 0.2108945186625E+01
 0.2105877213189E+01
 0.2104393664699E+01
 0.2104663347946E+01
 0.2106938932420E+01
 0.2111563677136E+01
 0.2118978278073E+01
 0.2129694944622E+01
 0.2144166276101E+01
 0.2162528647888E+01
 0.2184432757022E+01
 0.2209120648497E+01
 0.2235689473588E+01
 0.2263375136377E+01
 0.2291651118142E+01
 0.2320103154689E+01
 0.2348158356693E+01
 0.2374779426085E+01
 0.2398189846938E+01
 0.2415247877721E+01
 0.2419629963283E+01
 0.2398219574990E+01
 0.2322096739952E+01
 0.2119190385752E+01
 0.1629588121039E+01
 0.6255328274308E+00
-0.9278371411435E+00
 0.2855460503575E+01
 0.2674324156172E+01
 0.2504946129507E+01
 0.2389727897716E+01
 0.2318016446589E+01
 0.2271039093680E+01
 0.2238344450632E+01
 0.2214666304212E+01
 0.2196867833668E+01
 0.2183067249456E+01
 0.2172113715588E+01
 0.2163299366738E+01
 0.2156205086064E+01
 0.2150607087283E+01
 0.2146422666374E+01
 0.2143678205436E+01
 0.2142492255018E+01
 0.2143069619716E+01
 0.2145704972988E+01
 0.2150796750071E+01
 0.2158871622529E+01
 0.2170591265795E+01
 0.2186631074501E+01
 0.2207337592967E+01
 0.2232420149790E+01
 0.2261011545425E+01
 0.2292079428026E+01
 0.2324868405841E+01
 0.2359060937592E+01
 0.2394637371959E+01
 0.2431559324428E+01
 0.2469454535462E+01
 0.2507470623448E+01
 0.2544034527622E+01
 0.2575555902470E+01
 0.2592987347476E+01
 0.2575534768503E+01
 0.2462412022771E+01
 0.2062791010629E+01
 0.9929163043388E+00
-0.9664580963404E+00
 0.2967195867419E+01
 0.2729179419644E+01
 0.2525548654695E+01
 0.2406875464545E+01
 0.2339567836625E+01
 0.2296144241990E+01
 0.2266433225191E+01
 0.2245159268960E+01
 0.2229217515849E+01
 0.2216856290226E+01
 0.2207006251210E+01
 0.2199035499335E+01
 0.2192583725305E+01
 0.2187476162371E+01
 0.2183671390591E+01
 0.2181232364302E+01
 0.2180311992087E+01
 0.2181149978219E+01
 0.2184080227613E+01
 0.2189550730862E+01
 0.2198164354717E+01
 0.2210735254153E+01
 0.2228216254008E+01
 0.2251252166489E+01
 0.2279633286678E+01
 0.2312305018491E+01
 0.2348008952390E+01
 0.2385955036621E+01
 0.2426048759126E+01
 0.2468717464232E+01
 0.2514529365612E+01
 0.2563803485915E+01
 0.2616628243581E+01
 0.2673016361262E+01
 0.2732663175861E+01
 0.2791770982909E+01
 0.2837962349426E+01
 0.2839458142921E+01
 0.2617250909550E+01
 0.1569897343107E+01
-0.9597640376655E+00
 0.3107804701884E+01
 0.2771987061146E+01
 0.2528336679184E+01
 0.2418050893687E+01
 0.2358183014813E+01
 0.2319193835219E+01
 0.2293365138644E+01
 0.2274850748731E+01
 0.2261028497503E+01
 0.2250253553581E+01
 0.2241600266879E+01
 0.2234526583796E+01
 0.2228744578132E+01
 0.2224134958031E+01
 0.2220701533193E+01
 0.2218545550860E+01
 0.2217854404755E+01
 0.2218901216810E+01
 0.2222055530808E+01
 0.2227808734789E+01
 0.2236823955499E+01
 0.2250049968585E+01
 0.2268776778647E+01
 0.2294095580140E+01
 0.2325927294044E+01
 0.2362903448752E+01
 0.2403395360261E+01
 0.2446524068077E+01
 0.2492435559934E+01
 0.2542064307708E+01
 0.2596671062419E+01
 0.2657323573451E+01
 0.2724882201936E+01
 0.2801111617794E+01
 0.2888547320339E+01
 0.2991579359864E+01
 0.3104076176062E+01
 0.3225106552871E+01
 0.3292700816295E+01
 0.2508014403717E+01
-0.8084468903669E+00
 0.3309667575492E+01
 0.2774014038459E+01
 0.2507371344641E+01
 0.2427924470799E+01
 0.2372490098527E+01
 0.2340821874957E+01
 0.2319135682840E+01
 0.2303863921770E+01
 0.2292360347263E+01
 0.2283312560455E+01
 0.2275934595564E+01
 0.2269802939588E+01
 0.2264710670602E+01
 0.2260600779883E+01
 0.2257525550095E+01
 0.2255625921595E+01
 0.2255123553472E+01
 0.2256323205346E+01
 0.2259625942097E+01
 0.2265559035991E+01
 0.2274832031285E+01
 0.2288474346935E+01
 0.2308143955649E+01
 0.2335643919765E+01
 0.2371140501727E+01
 0.2412721523800E+01
 0.2458178334154E+01
 0.2506485421052E+01
 0.2558057589516E+01
 0.2614396524814E+01
 0.2677571452628E+01
 0.2749482128840E+01
 0.2831625413901E+01
 0.2926812674104E+01
 0.3042147998770E+01
 0.3184962491883E+01
 0.3376934563765E+01
 0.3587798203138E+01
 0.4003612042133E+01
 0.4042066296038E+01
-0.1670242318987E+00
 0.3690635153745E+01
 0.2601296478110E+01
 0.2511166455338E+01
 0.2424377526446E+01
 0.2386034345596E+01
 0.2360497345403E+01
 0.2344088023527E+01
 0.2332265719540E+01
 0.2323303973933E+01
 0.2316090039699E+01
 0.2310054500836E+01
 0.2304898386025E+01
 0.2300508002498E+01
 0.2296893352795E+01
 0.2294158111690E+01
 0.2292483961103E+01
 0.2292125979872E+01
 0.2293419021328E+01
 0.2296790713462E+01
 0.2302796336878E+01
 0.2312177535246E+01
 0.2325997271889E+01
 0.2346119928175E+01
 0.2375582449463E+01
 0.2415101418128E+01
 0.2461692932085E+01
 0.2512328988600E+01
 0.2565779152134E+01
 0.2622767818723E+01
 0.2685453614646E+01
 0.2756766016054E+01
 0.2839767974970E+01
 0.2936214359515E+01
 0.3049423841182E+01
 0.3189448629124E+01
 0.3375469145112E+01
 0.3620290866686E+01
 0.4016160018291E+01
 0.4392618248435E+01
 0.6454753759927E+01
 0.1836964810147E+01
 0.3358599923700E+00
 0.3387001685354E+00
 0.3382460254392E+00
 0.3379238917735E+00
 0.3372546188975E+00
 0.3363987642464E+00
 0.3351164435292E+00
 0.3335263401324E+00
 0.3316788573204E+00
 0.3296018911679E+00
 0.3273641652693E+00
 0.3249910607280E+00
 0.3224572339454E+00
 0.3196576960125E+00
 0.3164409632152E+00
 0.3126046111324E+00
 0.3083228785940E+00
 0.3039255953926E+00
 0.2976154641594E+00
 0.3048483820125E+00
 0.3856033035684E+00
 0.3826473997994E+00
 0.3805217825475E+00
 0.3778754301792E+00
 0.3752162929856E+00
 0.3724129945923E+00
 0.3694510003706E+00
 0.3662900906528E+00
 0.3629667487853E+00
 0.3595252217456E+00
 0.3560127622588E+00
 0.3524578263899E+00
 0.3488322353004E+00
 0.3450484710678E+00
 0.3409747640468E+00
 0.3365384622415E+00
 0.3318567877783E+00
 0.3267670147946E+00
 0.3240606787911E+00
 0.3184597449024E+00
 0.4328491515282E+00
 0.4273418975847E+00
 0.4223655833009E+00
 0.4176557659009E+00
 0.4129546415212E+00
 0.4082994675800E+00
 0.4036215840836E+00
 0.3988938545000E+00
 0.3941184864751E+00
 0.3893310227289E+00
 0.3845751276583E+00
 0.3798744509451E+00
 0.3752068044609E+00
 0.3704981627933E+00
 0.3656551593604E+00
 0.3606336410475E+00
 0.3554220613112E+00
 0.3504744301309E+00
 0.3449590352867E+00
 0.3374067772994E+00
 0.4795739982992E+00
 0.4714900735308E+00
 0.4641268437003E+00
 0.4571802465111E+00
 0.4505029807536E+00
 0.4440004872166E+00
 0.4376261830366E+00
 0.4313362852019E+00
 0.4251247922589E+00
 0.4190148477294E+00
 0.4130440269104E+00
 0.4072349362206E+00
 0.4015703223728E+00
 0.3959905510916E+00
 0.3904202105201E+00
 0.3847912953758E+00
 0.3791361955099E+00
 0.3732247283245E+00
 0.3665368941583E+00
 0.3579468777653E+00
 0.5257877391343E+00
 0.5152768480553E+00
 0.5055911797184E+00
 0.4964955830025E+00
 0.4878323163053E+00
 0.4795071102361E+00
 0.4714481646683E+00
 0.4636104864244E+00
 0.4559786676336E+00
 0.4485682563173E+00
 0.4414108295865E+00
 0.4345278232701E+00
 0.4279063177103E+00
 0.4214948668058E+00
 0.4152161463211E+00
 0.4089952683506E+00
 0.4027048034378E+00
 0.3960751447592E+00
 0.3886003702394E+00
 0.3794984520358E+00
 0.5715658643529E+00
 0.5586938346137E+00
 0.5467609990574E+00
 0.5355571595094E+00
 0.5249385769410E+00
 0.5148037712899E+00
 0.5050768583960E+00
 0.4957060624894E+00
 0.4866712016486E+00
 0.4779815295416E+00
 0.4696639140524E+00
 0.4617381926183E+00
 0.4541934942943E+00
 0.4469796013756E+00
 0.4400151002472E+00
 0.4331843014991E+00
 0.4263159000632E+00
 0.4191172153087E+00
 0.4111561344355E+00
 0.4018023655289E+00
 0.6169316425562E+00
 0.6017533148494E+00
 0.5876230532164E+00
 0.5743520107938E+00
 0.5618043679278E+00
 0.5498798725528E+00
 0.5385005308236E+00
 0.5276125019628E+00
 0.5171916921270E+00
 0.5072430513971E+00
 0.4977893998591E+00
 0.4888485252930E+00
 0.4804092030363E+00
 0.4724201709810E+00
 0.4647896804801E+00
 0.4573840448576E+00
 0.4500123619213E+00
 0.4423948085582E+00
 0.4341461162418E+00
 0.4247307955668E+00
 0.6618996818533E+00
 0.6444583508216E+00
 0.6281721785031E+00
 0.6128680165974E+00
 0.5984176195419E+00
 0.5847232383338E+00
 0.5717081695396E+00
 0.5593184773767E+00
 0.5475283227565E+00
 0.5363395571705E+00
 0.5257716600112E+00
 0.5158399698721E+00
 0.5065320170787E+00
 0.4977942434844E+00
 0.4895299732364E+00
 0.4815986520458E+00
 0.4738089230702E+00
 0.4658985342130E+00
 0.4575207678758E+00
 0.4482125657866E+00
 0.7064772090882E+00
 0.6868100659686E+00
 0.6684033556107E+00
 0.6510964206248E+00
 0.6347676133961E+00
 0.6193229238409E+00
 0.6046885463586E+00
 0.5908123523572E+00
 0.5776683674355E+00
 0.5652566343764E+00
 0.5535939337098E+00
 0.5426933152379E+00
 0.5325410651119E+00
 0.5230831264120E+00
 0.5142226908831E+00
 0.5058212728126E+00
 0.4976954424545E+00
 0.4896033301415E+00
 0.4812331013172E+00
 0.4721832735554E+00
 0.7506671563543E+00
 0.7288075417975E+00
 0.7083119520519E+00
 0.6890296531691E+00
 0.6708450667604E+00
 0.6536686135019E+00
 0.6374306047753E+00
 0.6220820944609E+00
 0.6075984175583E+00
 0.5939789812952E+00
 0.5812387019819E+00
 0.5693889405758E+00
 0.5584157851365E+00
 0.5482670006534E+00
 0.5388500041130E+00
 0.5300339612527E+00
 0.5216485575500E+00
 0.5134743843439E+00
 0.5052332611529E+00
 0.4965784280156E+00
 0.7944695254957E+00
 0.7704486521238E+00
 0.7478934292017E+00
 0.7266610494599E+00
 0.7066416522719E+00
 0.6877506821661E+00
 0.6699235058539E+00
 0.6531155120641E+00
 0.6373045980788E+00
 0.6224906953817E+00
 0.6086878468259E+00
 0.5959067379918E+00
 0.5841347100402E+00
 0.5733237315612E+00
 0.5633888111843E+00
 0.5542106476977E+00
 0.5456355842267E+00
 0.5374688348596E+00
 0.5294669055008E+00
 0.5213305465565E+00
 0.8378822184609E+00
 0.8117304237640E+00
 0.7871433316296E+00
 0.7639845401745E+00
 0.7421497604968E+00
 0.7215600363114E+00
 0.7021566392293E+00
 0.6839003177507E+00
 0.6667726888476E+00
 0.6507753630700E+00
 0.6359226369307E+00
 0.6222257466356E+00
 0.6096748677068E+00
 0.5982282983904E+00
 0.5878112597651E+00
 0.5783187877639E+00
 0.5696165417736E+00
 0.5615364702785E+00
 0.5538716913671E+00
 0.5463712068183E+00
 0.8809017474356E+00
 0.8526494201792E+00
 0.8260573910094E+00
 0.8009946019180E+00
 0.7773624060791E+00
 0.7550880852955E+00
 0.7341196622756E+00
 0.7144242317594E+00
 0.6959882424228E+00
 0.6788161466785E+00
 0.6629236930210E+00
 0.6483239757098E+00
 0.6350115406623E+00
 0.6229528447267E+00
 0.6120853676769E+00
 0.6023205842239E+00
 0.5935454841455E+00
 0.5856204787641E+00
 0.5783771849050E+00
 0.5716188037843E+00
 0.9235238586097E+00
 0.8932021197784E+00
 0.8646317071075E+00
 0.8376863066824E+00
 0.8122732313383E+00
 0.7883267543284E+00
 0.7658025514575E+00
 0.7446750629035E+00
 0.7249366706932E+00
 0.7065958342872E+00
 0.6896709724824E+00
 0.6741783359899E+00
 0.6601182601695E+00
 0.6474669033877E+00
 0.6361756111551E+00
 0.6261738789692E+00
 0.6173715033889E+00
 0.6096585122653E+00
 0.6029062553176E+00
 0.5969733620146E+00
 0.9657440205923E+00
 0.9333852195834E+00
 0.9028628949542E+00
 0.8740553690805E+00
 0.8468765069692E+00
 0.8212684815877E+00
 0.7971956166922E+00
 0.7746407417742E+00
 0.7536032810701E+00
 0.7340968600544E+00
 0.7161437680156E+00
 0.6997646514856E+00
 0.6849669088465E+00
 0.6717376852516E+00
 0.6600434427049E+00
 0.6498328573624E+00
 0.6410395056380E+00
 0.6335835645640E+00
 0.6273756474052E+00
 0.6223266475598E+00
 0.1007557993994E+01
 0.9731960122177E+00
 0.9407483286378E+00
 0.9100982947596E+00
 0.8811672274363E+00
 0.8539062923721E+00
 0.8282895737394E+00
 0.8043093969222E+00
 0.7819733525108E+00
 0.7613013756726E+00
 0.7423207839396E+00
 0.7250577734965E+00
 0.7095279262569E+00
 0.6957304263491E+00
 0.6836477970673E+00
 0.6732486776959E+00
 0.6644909183667E+00
 0.6573246381431E+00
 0.6516979366615E+00
 0.6475688064867E+00
 0.1048962314682E+01
 0.1012632724579E+01
 0.9782863559746E+00
 0.9458125123725E+00
 0.9151411926406E+00
 0.8862338567195E+00
 0.8590755950762E+00
 0.8336694079345E+00
 0.8100321941341E+00
 0.7881913194082E+00
 0.7681802299913E+00
 0.7500317270606E+00
 0.7337705437026E+00
 0.7194087405655E+00
 0.7069455704836E+00
 0.6963700710544E+00
 0.6876643955111E+00
 0.6808077818139E+00
 0.6757833762230E+00
 0.6725908835846E+00
 0.1089954824983E+01
 0.1051694886092E+01
 0.1015476551209E+01
 0.9811965423430E+00
 0.9487951229682E+00
 0.9182455737557E+00
 0.8895453806290E+00
 0.8627094741914E+00
 0.8377652206176E+00
 0.8147485082236E+00
 0.7936999462338E+00
 0.7746598917482E+00
 0.7576630467756E+00
 0.7427349849567E+00
 0.7298921014476E+00
 0.7191439498206E+00
 0.7104966222245E+00
 0.7039572297515E+00
 0.6995412923905E+00
 0.6972855123462E+00
 0.1130535207160E+01
 0.1090383716080E+01
 0.1052319986429E+01
 0.1016250185404E+01
 0.9821267920381E+00
 0.9499366706529E+00
 0.9196912401289E+00
 0.8914186942918E+00
 0.8651580404793E+00
 0.8409547476347E+00
 0.8188575505594E+00
 0.7989152064624E+00
 0.7811730582775E+00
 0.7656706395196E+00
 0.7524416653746E+00
 0.7415160419374E+00
 0.7329231421879E+00
 0.7266964596628E+00
 0.7228811642391E+00
 0.7215468030991E+00
 0.1170705500015E+01
 0.1128702495551E+01
 0.1088819490787E+01
 0.1050974700724E+01
 0.1015135150325E+01
 0.9813032929766E+00
 0.9495061676026E+00
 0.9197866394687E+00
 0.8921965417992E+00
 0.8667919434202E+00
 0.8436305917626E+00
 0.8227703811702E+00
 0.8042678267547E+00
 0.7881766914186E+00
 0.7745479735986E+00
 0.7634315316344E+00
 0.7548791268180E+00
 0.7489490744911E+00
 0.7457134867554E+00
 0.7452704588878E+00
 0.1210470649428E+01
 0.1166656967219E+01
 0.1124979935508E+01
 0.1085373006765E+01
 0.1047820468371E+01
 0.1012342611785E+01
 0.9789839304020E+00
 0.9478034404002E+00
 0.9188669913115E+00
 0.8922422271850E+00
 0.8679967163698E+00
 0.8461981207210E+00
 0.8269145241403E+00
 0.8102140239154E+00
 0.7961646748274E+00
 0.7848356799865E+00
 0.7763001290030E+00
 0.7706394602918E+00
 0.7679504717376E+00
 0.7683552679994E+00
 0.1249839059537E+01
 0.1204255736548E+01
 0.1160808517730E+01
 0.1119449879929E+01
 0.1080184477066E+01
 0.1043052927423E+01
 0.1008119155018E+01
 0.9754598715184E+00
 0.9451561322090E+00
 0.9172880818098E+00
 0.8919338356729E+00
 0.8691713477338E+00
 0.8490805392534E+00
 0.8317437970460E+00
 0.8172458366440E+00
 0.8056744292906E+00
 0.7971227655483E+00
 0.7916936986615E+00
 0.7895062935204E+00
 0.7907058225131E+00
 0.1288823149841E+01
 0.1241510674902E+01
 0.1196315043682E+01
 0.1153212150645E+01
 0.1112230504439E+01
 0.1073433769314E+01
 0.1036907408861E+01
 0.1002747431732E+01
 0.9710512790945E+00
 0.9419124645509E+00
 0.9154202899852E+00
 0.8916634205045E+00
 0.8707337620880E+00
 0.8527278105709E+00
 0.8377464027178E+00
 0.8258949544871E+00
 0.8172854231176E+00
 0.8120402473190E+00
 0.8102987539580E+00
 0.8122273539080E+00
 0.1327439929888E+01
 0.1278437332724E+01
 0.1231512216800E+01
 0.1186668901568E+01
 0.1143963612476E+01
 0.1103485994464E+01
 0.1065345279860E+01
 0.1029658422570E+01
 0.9965404102410E+00
 0.9660989271148E+00
 0.9384350085447E+00
 0.9136483434138E+00
 0.8918428542333E+00
 0.8731288443880E+00
 0.8576226100199E+00
 0.8454461766939E+00
 0.8367288267649E+00
 0.8316107272272E+00
 0.8302491538394E+00
 0.8328287328055E+00
 0.1365711590215E+01
 0.1315055358183E+01
 0.1266415927337E+01
 0.1219831663273E+01
 0.1175390729691E+01
 0.1133211880307E+01
 0.1093430449463E+01
 0.1056186019258E+01
 0.1021612252643E+01
 0.9898317282441E+00
 0.9609576607257E+00
 0.9351009653082E+00
 0.9123775008687E+00
 0.8929109684898E+00
 0.8768323641334E+00
 0.8642792011446E+00
 0.8553965730231E+00
 0.8503403739234E+00
 0.8492831717477E+00
 0.8524242940761E+00
 0.1403666063693E+01
 0.1351388892073E+01
 0.1301045510453E+01
 0.1252714578801E+01
 0.1206520753112E+01
 0.1162615188197E+01
 0.1121161737505E+01
 0.1082324315221E+01
 0.1046256342368E+01
 0.1013095923376E+01
 0.9829687851984E+00
 0.9559971546109E+00
 0.9323086342011E+00
 0.9120398145772E+00
 0.8953355565666E+00
 0.8823476905593E+00
 0.8732355540560E+00
 0.8681686312952E+00
 0.8673318100196E+00
 0.8709349363293E+00
 0.1441337670487E+01
 0.1387467006008E+01
 0.1335424042710E+01
 0.1285334597797E+01
 0.1237364674764E+01
 0.1191701246274E+01
 0.1148539161649E+01
 0.1108068377037E+01
 0.1070463092158E+01
 0.1035877459126E+01
 0.1004449921561E+01
 0.9763139731782E+00
 0.9516086486612E+00
 0.9304828260340E+00
 0.9130943420963E+00
 0.8996081664014E+00
 0.8901963318496E+00
 0.8850397100665E+00
 0.8843322298775E+00
 0.8882892225037E+00
 0.1478767687946E+01
 0.1423324086824E+01
 0.1369578573501E+01
 0.1317711607483E+01
 0.1267935647331E+01
 0.1220476974011E+01
 0.1175563940435E+01
 0.1133414245253E+01
 0.1094223807975E+01
 0.1058163220718E+01
 0.1025383699412E+01
 0.9960298111525E+00
 0.9702515770707E+00
 0.9482094624740E+00
 0.9300733540611E+00
 0.9160202240061E+00
 0.9062333770664E+00
 0.9009029909210E+00
 0.9002285089138E+00
 0.9044246485780E+00
 0.1516004972222E+01
 0.1459000232477E+01
 0.1403540364021E+01
 0.1349868567195E+01
 0.1298249052545E+01
 0.1248950907447E+01
 0.1202238493825E+01
 0.1158358929619E+01
 0.1117530698055E+01
 0.1079941071947E+01
 0.1045753922061E+01
 0.1015124519491E+01
 0.9882132652901E+00
 0.9651913970687E+00
 0.9462398953577E+00
 0.9315466928670E+00
 0.9213051789160E+00
 0.9157131373984E+00
 0.9149723075602E+00
 0.9192894607378E+00
 0.1553106596702E+01
 0.1494541651160E+01
 0.1437345117020E+01
 0.1381831629112E+01
 0.1328322554232E+01
 0.1277133205862E+01
 0.1228566420389E+01
 0.1182900376156E+01
 0.1140376850641E+01
 0.1101199863720E+01
 0.1065545622904E+01
 0.1033579522760E+01
 0.1005471534730E+01
 0.9814027018962E+00
 0.9615641047955E+00
 0.9461537320025E+00
 0.9353742541027E+00
 0.9294299311523E+00
 0.9285227572613E+00
 0.9328458124232E+00
 0.1590138404335E+01
 0.1530000977010E+01
 0.1471033113205E+01
 0.1413630172752E+01
 0.1358176072445E+01
 0.1305035584403E+01
 0.1254552401058E+01
 0.1207037360279E+01
 0.1162756137827E+01
 0.1121929372108E+01
 0.1084745060534E+01
 0.1051377886821E+01
 0.1022006319240E+01
 0.9968200216289E+00
 0.9760191021895E+00
 0.9598108758658E+00
 0.9484070128480E+00
 0.9420181093418E+00
 0.9408457834957E+00
 0.9450705745184E+00
 0.1627175692238E+01
 0.1565437644867E+01
 0.1504649402917E+01
 0.1445296884623E+01
 0.1387831801733E+01
 0.1332671282312E+01
 0.1280202126621E+01
 0.1230769388439E+01
 0.1184663114720E+01
 0.1142120222469E+01
 0.1103339700034E+01
 0.1068504386015E+01
 0.1037799826233E+01
 0.1011422795931E+01
 0.9895811866553E+00
 0.9724910696835E+00
 0.9603735495526E+00
 0.9534467108094E+00
 0.9519138809376E+00
 0.9559482109604E+00
 0.1664303701359E+01
 0.1600918129382E+01
 0.1538243839279E+01
 0.1476867703745E+01
 0.1417314108871E+01
 0.1360054928097E+01
 0.1305522121498E+01
 0.1254096496550E+01
 0.1206092810123E+01
 0.1161763705349E+01
 0.1121318094049E+01
 0.1084945494900E+01
 0.1052836671733E+01
 0.1025193513790E+01
 0.1002230104370E+01
 0.9841707515848E+00
 0.9712472274147E+00
 0.9636879689587E+00
 0.9617024749172E+00
 0.9654648123040E+00
 0.1701618239532E+01
 0.1636516186973E+01
 0.1571871143885E+01
 0.1508381768335E+01
 0.1446649470831E+01
 0.1387202422149E+01
 0.1330519587508E+01
 0.1277019031601E+01
 0.1227040483708E+01
 0.1180851534544E+01
 0.1138669694057E+01
 0.1100689321035E+01
 0.1067103998572E+01
 0.1038118052780E+01
 0.1013949475801E+01
 0.9948301031079E+00
 0.9810043255984E+00
 0.9727155694833E+00
 0.9701863168719E+00
 0.9736010026398E+00
 0.1739226107761E+01
 0.1672313077855E+01
 0.1605590762251E+01
 0.1539881320117E+01
 0.1475866267393E+01
 0.1414130810676E+01
 0.1355202148130E+01
 0.1299537365158E+01
 0.1247501260653E+01
 0.1199375484347E+01
 0.1155384526687E+01
 0.1115725386811E+01
 0.1080591514316E+01
 0.1050186037986E+01
 0.1024727516855E+01
 0.1004453606204E+01
 0.9896240005982E+00
 0.9805033364954E+00
 0.9773364405478E+00
 0.9803320331052E+00
 0.1777245831963E+01
 0.1708397316560E+01
 0.1639467008397E+01
 0.1571411088515E+01
 0.1504994851955E+01
 0.1440857938696E+01
 0.1379577723574E+01
 0.1321651462632E+01
 0.1267469704472E+01
 0.1217326896432E+01
 0.1171452739822E+01
 0.1130044272424E+01
 0.1093291266333E+01
 0.1061391268890E+01
 0.1034557941524E+01
 0.1013031597877E+01
 0.9970885705548E+00
 0.9870247590856E+00
 0.9831180251731E+00
 0.9856208089578E+00
 0.1815806780557E+01
 0.1744866722785E+01
 0.1673566678660E+01
 0.1603019562126E+01
 0.1534066078942E+01
 0.1467403258426E+01
 0.1403653896041E+01
 0.1343360621626E+01
 0.1286939201356E+01
 0.1234696109043E+01
 0.1186863996896E+01
 0.1143637090819E+01
 0.1105197302961E+01
 0.1071731252453E+01
 0.1043441891540E+01
 0.1020562072151E+01
 0.1003386976980E+01
 0.9922505664708E+00
 0.9874898674250E+00
 0.9894087985518E+00
 0.1855059760394E+01
 0.1781817582502E+01
 0.1707969206215E+01
 0.1634748859860E+01
 0.1563117334000E+01
 0.1493784913789E+01
 0.1427438968691E+01
 0.1364662564081E+01
 0.1305901110682E+01
 0.1251471811229E+01
 0.1201606870540E+01
 0.1156494449632E+01
 0.1116305202975E+01
 0.1081207151812E+01
 0.1051385127172E+01
 0.1027060179465E+01
 0.1008515682310E+01
 0.9961562807166E+00
 0.9903868075797E+00
 0.9916237571959E+00
 0.1895121658350E+01
 0.1819416873565E+01
 0.1742697037938E+01
 0.1666678239459E+01
 0.1592170221464E+01
 0.1520028324776E+01
 0.1450940921258E+01
 0.1385551841388E+01
 0.1324343482064E+01
 0.1267640320911E+01
 0.1215668503553E+01
 0.1168605534265E+01
 0.1126608958759E+01
 0.1089825705193E+01
 0.1058399275213E+01
 0.1032537771210E+01
 0.1012535009296E+01
 0.9986954791454E+00
 0.9917337267670E+00
 0.9921075758227E+00
 0.1936603901368E+01
 0.1857404039129E+01
 0.1778050488424E+01
 0.1698763185137E+01
 0.1621275867451E+01
 0.1546167430402E+01
 0.1474166064167E+01
 0.1406016344005E+01
 0.1342248708540E+01
 0.1283186556931E+01
 0.1229034044122E+01
 0.1179957884118E+01
 0.1136099626604E+01
 0.1097586158491E+01
 0.1064525192685E+01
 0.1037004895347E+01
 0.1015430185209E+01
 0.1000173791084E+01
 0.9911415745944E+00
 0.9905864647478E+00
-0.7651248733523E+00
-0.4459331773496E+00
-0.4974070280572E+00
-0.4997123064408E+00
-0.4651958648791E+00
-0.3911055241091E+00
-0.3212614346376E+00
-0.2750233967165E+00
-0.2426032232898E+00
-0.2148167829727E+00
-0.1883108763619E+00
-0.1629806791878E+00
-0.1384399657868E+00
-0.1141432591460E+00
-0.9069489386878E-01
-0.6906746900309E-01
-0.4686015326331E-01
-0.2598489931106E-01
-0.1316657278918E-01
-0.1095338549724E-01
-0.6331714259289E+00
-0.4908657236771E+00
-0.4428818125073E+00
-0.4468100079742E+00
-0.4216130799435E+00
-0.3746869070259E+00
-0.3185947342236E+00
-0.2692584417828E+00
-0.2330454575379E+00
-0.2047349884664E+00
-0.1795927882723E+00
-0.1558671360061E+00
-0.1331476985458E+00
-0.1113125702415E+00
-0.9041823341456E-01
-0.7045051693299E-01
-0.5168693725036E-01
-0.3475383719316E-01
-0.2288911442527E-01
-0.1930203842192E-01
-0.5713661294580E+00
-0.4599397871822E+00
-0.4176110021062E+00
-0.3992310299431E+00
-0.3816135124478E+00
-0.3491291741729E+00
-0.3059179606674E+00
-0.2611706930542E+00
-0.2237960997039E+00
-0.1944709303668E+00
-0.1698099942103E+00
-0.1474603849023E+00
-0.1265235989079E+00
-0.1067834539208E+00
-0.8812563854798E-01
-0.7061646770046E-01
-0.5452850522934E-01
-0.4052249881642E-01
-0.3031825115325E-01
-0.2659868011546E-01
-0.5154927579158E+00
-0.4231911668488E+00
-0.3834265381245E+00
-0.3613517831708E+00
-0.3431822468361E+00
-0.3198905055626E+00
-0.2865465426090E+00
-0.2483184346994E+00
-0.2129043748442E+00
-0.1835311110028E+00
-0.1591326939855E+00
-0.1378037893803E+00
-0.1184202292518E+00
-0.1005564281486E+00
-0.8402990699205E-01
-0.6884743058604E-01
-0.5526265291016E-01
-0.4383244535000E-01
-0.3548538067787E-01
-0.3234800390051E-01
-0.4613755653869E+00
-0.3831405916837E+00
-0.3466170913214E+00
-0.3243065843662E+00
-0.3071651792736E+00
-0.2887666438701E+00
-0.2628622278123E+00
-0.2309835764427E+00
-0.1990983767702E+00
-0.1710294250358E+00
-0.1472782553787E+00
-0.1268529351795E+00
-0.1087967147931E+00
-0.9260809450793E-01
-0.7802685708391E-01
-0.6500491390228E-01
-0.5372837008288E-01
-0.4471050560906E-01
-0.3832678303907E-01
-0.3621068980051E-01
-0.4077760636064E+00
-0.3413118678781E+00
-0.3081580133499E+00
-0.2871279245598E+00
-0.2716148961002E+00
-0.2567861748001E+00
-0.2362462561193E+00
-0.2099374750563E+00
-0.1820860328979E+00
-0.1562704515732E+00
-0.1337754583701E+00
-0.1143988088562E+00
-0.9757025752644E-01
-0.8287587126239E-01
-0.7004245194151E-01
-0.5897813731784E-01
-0.4981765115822E-01
-0.4305308490485E-01
-0.3866073215216E-01
-0.3777222484474E-01
-0.3545305336093E+00
-0.2982497533077E+00
-0.2685716208439E+00
-0.2494148909164E+00
-0.2358194037048E+00
-0.2238992984629E+00
-0.2075187283584E+00
-0.1858736217807E+00
-0.1620055457460E+00
-0.1389342442657E+00
-0.1182115143993E+00
-0.1001533299432E+00
-0.8458147965598E-01
-0.7126779764764E-01
-0.5999962958394E-01
-0.5068340842519E-01
-0.4342977913512E-01
-0.3872724159460E-01
-0.3624361880625E-01
-0.3660245004060E-01
-0.3016443069104E+00
-0.2542772722176E+00
-0.2280836816176E+00
-0.2110482930937E+00
-0.1994340096693E+00
-0.1900169576640E+00
-0.1770189293459E+00
-0.1593025589543E+00
-0.1391224124172E+00
-0.1189540995594E+00
-0.1003329853627E+00
-0.8385214574177E-01
-0.6963714651872E-01
-0.5765981555008E-01
-0.4781367044872E-01
-0.4004628479834E-01
-0.3448008879587E-01
-0.3159990745457E-01
-0.3083308368522E-01
-0.3230524084713E-01
-0.2491492382578E+00
-0.2096032813739E+00
-0.1868239838726E+00
-0.1719845071824E+00
-0.1623041793709E+00
-0.1550731117465E+00
-0.1449110820100E+00
-0.1305427978717E+00
-0.1136968081293E+00
-0.9639091942282E-01
-0.8002693055518E-01
-0.6530810212304E-01
-0.5255918565150E-01
-0.4191818681236E-01
-0.3339314595198E-01
-0.2699932065405E-01
-0.2290159320106E-01
-0.2156225797166E-01
-0.2222886435084E-01
-0.2457484222962E-01
-0.1970676587491E+00
-0.1643766383311E+00
-0.1448789069875E+00
-0.1322140094092E+00
-0.1243606412334E+00
-0.1190378594681E+00
-0.1112871207280E+00
-0.9979900929004E-01
-0.8593750846055E-01
-0.7135237197307E-01
-0.5727314103585E-01
-0.4441484443416E-01
-0.3321374290566E-01
-0.2392421938372E-01
-0.1665184625128E-01
-0.1148521108639E-01
-0.8648946356792E-02
-0.8544769701806E-02
-0.1030239144075E-01
-0.1323211685049E-01
-0.1454088159996E+00
-0.1187093502251E+00
-0.1023142703593E+00
-0.9174349297349E-01
-0.8557725817165E-01
-0.8190601844265E-01
-0.7621125794917E-01
-0.6721088556914E-01
-0.5600618955031E-01
-0.4395219839874E-01
-0.3210230415792E-01
-0.2112922587517E-01
-0.1151742748621E-01
-0.3589921074550E-02
 0.2478359452885E-02
 0.6535877173776E-02
 0.8296571733051E-02
 0.7472462352036E-02
 0.4987414625298E-02
 0.1763692264647E-02
-0.9417120159913E-01
-0.7268904102409E-01
-0.5918476549857E-01
-0.5058869428054E-01
-0.4595091389384E-01
-0.4368833020991E-01
-0.3973668475680E-01
-0.3288223162952E-01
-0.2402981688557E-01
-0.1429622223568E-01
-0.4568683051750E-02
 0.4549851104464E-02
 0.1256964295720E-01
 0.1913778663487E-01
 0.2403960697269E-01
 0.2707946030953E-01
 0.2792161085740E-01
 0.2645317811118E-01
 0.2359018833291E-01
 0.2032515500268E-01
-0.4334542340227E-01
-0.2638596566492E-01
-0.1553842489279E-01
-0.8770898006850E-02
-0.5491801908799E-02
-0.4405659572804E-02
-0.1912422371320E-02
 0.3103069495814E-02
 0.9887779657598E-02
 0.1752036850789E-01
 0.2526456927010E-01
 0.3259887403722E-01
 0.3905575112017E-01
 0.4428143123458E-01
 0.4804678916035E-01
 0.5013389485243E-01
 0.5017668074043E-01
 0.4830143484275E-01
 0.4536758532963E-01
 0.4226038381868E-01
 0.7083629744427E-02
 0.2014274997958E-01
 0.2858112600798E-01
 0.3368476575431E-01
 0.3578153132656E-01
 0.3591437910823E-01
 0.3721370500018E-01
 0.4067194804614E-01
 0.4565708602176E-01
 0.5141107072960E-01
 0.5733209562404E-01
 0.6298168403316E-01
 0.6793041320884E-01
 0.7184210738319E-01
 0.7449385056748E-01
 0.7566225842058E-01
 0.7497713259602E-01
 0.7285874423851E-01
 0.7009858456949E-01
 0.6729910027996E-01
 0.5713555610587E-01
 0.6685064346749E-01
 0.7313320482787E-01
 0.7675022649638E-01
 0.7784463597378E-01
 0.7723949861951E-01
 0.7759363757485E-01
 0.7975678999551E-01
 0.8319625009514E-01
 0.8729410651599E-01
 0.9156743399414E-01
 0.9565628229193E-01
 0.9917486230736E-01
 0.1018141424200E+00
 0.1033640294170E+00
 0.1036169561110E+00
 0.1022056077279E+00
 0.9990773493910E-01
 0.9747162037084E-01
 0.9511295485063E-01
 0.1068352121395E+00
 0.1136997178885E+00
 0.1180796870678E+00
 0.1203936955405E+00
 0.1206689550140E+00
 0.1195336564838E+00
 0.1191788299303E+00
 0.1202922879313E+00
 0.1224262798805E+00
 0.1250874064106E+00
 0.1278995988235E+00
 0.1305745797025E+00
 0.1327691722026E+00
 0.1341966163355E+00
 0.1346618003103E+00
 0.1339493282093E+00
 0.1317537151709E+00
 0.1291533931120E+00
 0.1270771416769E+00
 0.1252914447773E+00
 0.1562121700821E+00
 0.1606645339539E+00
 0.1633782387784E+00
 0.1645823350262E+00
 0.1642195479447E+00
 0.1627597923755E+00
 0.1619197811016E+00
 0.1622146015003E+00
 0.1632683595156E+00
 0.1647040966554E+00
 0.1662459762633E+00
 0.1676738765134E+00
 0.1686850274160E+00
 0.1690058233067E+00
 0.1684233869250E+00
 0.1667251010624E+00
 0.1634879247151E+00
 0.1603527422927E+00
 0.1582426295349E+00
 0.1573105340680E+00
 0.2053356589840E+00
 0.2077051680237E+00
 0.2090033450070E+00
 0.2092572055801E+00
 0.2084694160700E+00
 0.2068753994671E+00
 0.2057681481826E+00
 0.2054616463133E+00
 0.2056446223836E+00
 0.2060511637255E+00
 0.2065056819229E+00
 0.2068603105125E+00
 0.2068602777071E+00
 0.2062428442961E+00
 0.2047569829004E+00
 0.2020782272394E+00
 0.1978165438452E+00
 0.1929019887329E+00
 0.1904057556577E+00
 0.1898718697279E+00
 0.2542059927486E+00
 0.2549582385751E+00
 0.2547447904775E+00
 0.2544348063262E+00
 0.2533682408185E+00
 0.2518418570050E+00
 0.2506719019345E+00
 0.2499772347061E+00
 0.2494828457853E+00
 0.2490338408803E+00
 0.2485611247115E+00
 0.2479973330890E+00
 0.2471571653696E+00
 0.2458152008570E+00
 0.2437063630561E+00
 0.2403831092182E+00
 0.2351026394378E+00
 0.2291035734930E+00
 0.2199768891567E+00
 0.2214567741801E+00
 0.3045948503839E+00
 0.3012173921323E+00
 0.3008927461691E+00
 0.3000202203901E+00
 0.2989157567220E+00
 0.2975776677105E+00
 0.2965864710387E+00
 0.2957163317249E+00
 0.2947219409684E+00
 0.2935691985813E+00
 0.2922911481451E+00
 0.2909201852653E+00
 0.2893542897132E+00
 0.2874426064711E+00
 0.2849898727642E+00
 0.2816557512297E+00
 0.2764238205162E+00
 0.2694221378538E+00
 0.2608611103316E+00
 0.2298403536212E+00
 0.1963428903730E+01
 0.1887572200241E+01
 0.1804617576576E+01
 0.1721873226827E+01
 0.1640897402050E+01
 0.1562897932301E+01
 0.1487965603419E+01
 0.1416923000554E+01
 0.1350536705996E+01
 0.1289138507774E+01
 0.1232887759425E+01
 0.1181921673963E+01
 0.1136439836392E+01
 0.1096602650229E+01
 0.1062543884619E+01
 0.1034410391317E+01
 0.1012225640469E+01
 0.9960736609853E+00
 0.9864558342564E+00
 0.9810985512157E+00
 0.2011648768823E+01
 0.1924571487568E+01
 0.1836051612580E+01
 0.1747005384784E+01
 0.1660318134680E+01
 0.1576847277371E+01
 0.1496482980219E+01
 0.1420322166171E+01
 0.1349271856318E+01
 0.1283730135473E+01
 0.1223948551293E+01
 0.1170146643827E+01
 0.1122536570093E+01
 0.1081254185903E+01
 0.1046407948088E+01
 0.1018056693652E+01
 0.9960572970425E+00
 0.9812911063080E+00
 0.9742339106244E+00
 0.9742702102496E+00
 0.2058593570828E+01
 0.1964034577997E+01
 0.1867341170088E+01
 0.1771248700197E+01
 0.1677833741724E+01
 0.1588095201882E+01
 0.1501679758972E+01
 0.1419879726483E+01
 0.1343769308437E+01
 0.1273825655395E+01
 0.1210372516234E+01
 0.1153679262324E+01
 0.1103946968261E+01
 0.1061285777590E+01
 0.1025786505977E+01
 0.9974812664407E+00
 0.9761362083027E+00
 0.9635675828688E+00
 0.9608601066513E+00
 0.9667949762918E+00
 0.2107555132843E+01
 0.2004217408814E+01
 0.1898865375117E+01
 0.1794410974640E+01
 0.1693328801774E+01
 0.1596440552713E+01
 0.1503268886687E+01
 0.1415319512189E+01
 0.1333791064579E+01
 0.1259225074512E+01
 0.1192005855926E+01
 0.1132433501506E+01
 0.1080670689317E+01
 0.1036791125299E+01
 0.1000879680532E+01
 0.9729589124885E+00
 0.9527010213686E+00
 0.9430251152277E+00
 0.9451807996478E+00
 0.9571340378087E+00
 0.2158948336345E+01
 0.2045530772067E+01
 0.1930319657619E+01
 0.1816426241624E+01
 0.1706579855234E+01
 0.1601602370431E+01
 0.1500941927841E+01
 0.1406349365654E+01
 0.1319088851493E+01
 0.1239744015813E+01
 0.1168744394041E+01
 0.1106393331102E+01
 0.1052776762030E+01
 0.1007908168300E+01
 0.9718543536600E+00
 0.9446157575189E+00
 0.9257695661147E+00
 0.9192994369887E+00
 0.9265487350512E+00
 0.9447245574061E+00
 0.2213341577987E+01
 0.2088137756242E+01
 0.1961703509163E+01
 0.1837092722341E+01
 0.1717321490912E+01
 0.1603228235902E+01
 0.1494344363471E+01
 0.1392655222844E+01
 0.1299416245649E+01
 0.1215228957070E+01
 0.1140539953823E+01
 0.1075609382085E+01
 0.1020391311748E+01
 0.9747991170787E+00
 0.9388537719312E+00
 0.9125163334323E+00
 0.8952453966842E+00
 0.8920816752273E+00
 0.9045045268555E+00
 0.9292171774628E+00
 0.2271331378869E+01
 0.2132262064362E+01
 0.1992990464661E+01
 0.1856202462986E+01
 0.1725199515398E+01
 0.1600893046034E+01
 0.1483068802122E+01
 0.1373902068195E+01
 0.1274541134063E+01
 0.1185574414611E+01
 0.1107414311016E+01
 0.1040205793049E+01
 0.9836996522917E+00
 0.9376591300165E+00
 0.9020271202873E+00
 0.8767070112185E+00
 0.8610297417549E+00
 0.8610881296674E+00
 0.8786611095496E+00
 0.9102649281080E+00
 0.2333637160157E+01
 0.2178160938409E+01
 0.2024150451736E+01
 0.1873479779263E+01
 0.1729766078196E+01
 0.1594077435152E+01
 0.1466652987487E+01
 0.1349744232641E+01
 0.1244267571809E+01
 0.1150747983923E+01
 0.1069478782636E+01
 0.1000391487749E+01
 0.9429530675296E+00
 0.8967254216952E+00
 0.8615430635490E+00
 0.8372411917903E+00
 0.8230232753635E+00
 0.8260410772373E+00
 0.8486212582254E+00
 0.8874425610755E+00
 0.2401155432439E+01
 0.2226153090389E+01
 0.2055127866367E+01
 0.1888548420885E+01
 0.1730436329642E+01
 0.1582150090327E+01
 0.1444583422597E+01
 0.1319850571800E+01
 0.1208471641013E+01
 0.1110822868215E+01
 0.1026954182691E+01
 0.9564675426605E+00
 0.8984693016559E+00
 0.8522764477643E+00
 0.8175915672111E+00
 0.7941781945058E+00
 0.7811213383771E+00
 0.7866424673292E+00
 0.8139313818236E+00
 0.8602120888084E+00
 0.2475044901379E+01
 0.2276647780984E+01
 0.2085819190906E+01
 0.1900870438265E+01
 0.1726432629350E+01
 0.1564348713877E+01
 0.1416318251015E+01
 0.1283952502214E+01
 0.1167152563736E+01
 0.1066011642172E+01
 0.9801818733992E+00
 0.9088226189749E+00
 0.8506223108110E+00
 0.8046227198664E+00
 0.7703771045675E+00
 0.7475783782198E+00
 0.7352064944573E+00
 0.7425564334237E+00
 0.7740535732661E+00
 0.8279008645165E+00
 0.2556858874212E+01
 0.2330189526962E+01
 0.2116026579919E+01
 0.1909647445035E+01
 0.1716706946609E+01
 0.1539776665320E+01
 0.1381346124209E+01
 0.1241924180620E+01
 0.1120492838521E+01
 0.1016687296911E+01
 0.9296144888897E+00
 0.8579125841445E+00
 0.7998237870588E+00
 0.7540941488764E+00
 0.7201110902362E+00
 0.6974987538345E+00
 0.6851456460792E+00
 0.6934005306147E+00
 0.7283485484727E+00
 0.7896819194519E+00
 0.2648765628471E+01
 0.2387523966442E+01
 0.2145363106939E+01
 0.1913654264666E+01
 0.1699843748057E+01
 0.1507444499637E+01
 0.1339309600752E+01
 0.1193896219873E+01
 0.1068906132887E+01
 0.9633689834015E+00
 0.8757786276448E+00
 0.8042294050047E+00
 0.7465052837465E+00
 0.7010302770321E+00
 0.6670060568732E+00
 0.6439910849506E+00
 0.6307932726654E+00
 0.6387470944672E+00
 0.6760670001826E+00
 0.7445529160191E+00
 0.2753934218888E+01
 0.2449694030506E+01
 0.2173053215966E+01
 0.1910958063207E+01
 0.1673963122571E+01
 0.1466421146900E+01
 0.1290226159610E+01
 0.1140379252385E+01
 0.1013024660461E+01
 0.9066499749158E+00
 0.8192175035308E+00
 0.7482785425255E+00
 0.6911117702909E+00
 0.6457746694269E+00
 0.6112689683594E+00
 0.5871010364640E+00
 0.5720026185013E+00
 0.5781382206748E+00
 0.6163512950456E+00
 0.6913131209379E+00
 0.2877252862207E+01
 0.2518170975087E+01
 0.2197502086389E+01
 0.1898445061445E+01
 0.1636709565432E+01
 0.1416216477026E+01
 0.1234822233344E+01
 0.1082301027022E+01
 0.9535573944325E+00
 0.8470703135023E+00
 0.7604592062847E+00
 0.6905891816924E+00
 0.6341079140786E+00
 0.5886642042666E+00
 0.5530865146724E+00
 0.5268669923368E+00
 0.5086491561102E+00
 0.5111215650577E+00
 0.5482535934314E+00
 0.6285393023621E+00
 0.3026764566597E+01
 0.2595009127209E+01
 0.2215307916416E+01
 0.1871077961045E+01
 0.1585570938306E+01
 0.1357626643902E+01
 0.1174834680897E+01
 0.1020765500357E+01
 0.8909579737068E+00
 0.7850512664837E+00
 0.7000685812645E+00
 0.6317618432040E+00
 0.5759744451821E+00
 0.5299960254836E+00
 0.4925968150073E+00
 0.4633217065331E+00
 0.4406725389505E+00
 0.4373188407100E+00
 0.4707814125055E+00
 0.5545632029913E+00
 0.3216894380215E+01
 0.2682790095955E+01
 0.2218997696407E+01
 0.1820787703154E+01
 0.1519448854659E+01
 0.1294054585948E+01
 0.1112876263913E+01
 0.9560913841869E+00
 0.8252451912884E+00
 0.7210233412010E+00
 0.6388043926533E+00
 0.5725005251475E+00
 0.5171536018386E+00
 0.4699614312112E+00
 0.4298575896318E+00
 0.3964987212409E+00
 0.3681442173251E+00
 0.3565406006676E+00
 0.3829939643198E+00
 0.4674555116755E+00
 0.3476190974535E+01
 0.2784025983079E+01
 0.2190425390382E+01
 0.1736938701331E+01
 0.1442510450824E+01
 0.1233548624968E+01
 0.1049305106729E+01
 0.8873719018341E+00
 0.7562003381956E+00
 0.6558457400537E+00
 0.5777711807678E+00
 0.5135229218219E+00
 0.4579154758268E+00
 0.4085864791529E+00
 0.3648159103688E+00
 0.3264550987273E+00
 0.2913358985847E+00
 0.2689797001484E+00
 0.2841929381795E+00
 0.3650324172401E+00
 0.3874428488889E+01
 0.2889661171038E+01
 0.2089913199384E+01
 0.1607442141367E+01
 0.1382649965787E+01
 0.1176706849701E+01
 0.9818768477937E+00
 0.8124144296657E+00
 0.6843171306410E+00
 0.5913687165756E+00
 0.5182718243612E+00
 0.4552517293698E+00
 0.3982658828520E+00
 0.3456840661999E+00
 0.2973605924212E+00
 0.2531991257280E+00
 0.2108303555551E+00
 0.1754476768535E+00
 0.1743428776049E+00
 0.2449531815910E+00
 0.4586338527697E+01
 0.2974431814050E+01
 0.1754310189153E+01
 0.1541888158424E+01
 0.1337289478234E+01
 0.1121536896640E+01
 0.9039546956475E+00
 0.7291717829076E+00
 0.6127809293767E+00
 0.5303182786703E+00
 0.4610218250829E+00
 0.3975568492570E+00
 0.3379255041004E+00
 0.2811770087340E+00
 0.2268843336459E+00
 0.1770516580949E+00
 0.1272837991431E+00
 0.7765462228917E-01
 0.5493840870666E-01
 0.1052586307445E+00
 0.6989903138143E+01
 0.1814443400139E+01
 0.1676973079659E+01
 0.1497705830738E+01
 0.1315354909784E+01
 0.1057127023910E+01
 0.8022766381839E+00
 0.6426289591348E+00
 0.5480995982667E+00
 0.4741893439020E+00
 0.4055095025551E+00
 0.3396148884126E+00
 0.2769771364717E+00
 0.2148254892854E+00
 0.1535017868744E+00
 0.9474849136847E-01
 0.4618232759388E-01
-0.2293081901606E-01
-0.7408096508529E-01
-0.4793579527444E-01
 0.2888246163620E+00
 0.2257452599428E+00
 0.1895101114758E+00
 0.1553717430731E+00
 0.1236665852623E+00
 0.9391058501762E-01
 0.6640938370914E-01
 0.4147686042063E-01
 0.1945853020826E-01
 0.6714622995812E-03
-0.1462738537289E-01
-0.2628148439920E-01
-0.3427237926614E-01
-0.3874568400277E-01
-0.4001330478072E-01
-0.3852453803623E-01
-0.3481655758364E-01
-0.2945093772525E-01
-0.2305796252599E-01
-0.1570695163891E-01
 0.2974474261336E+00
 0.2551242323895E+00
 0.2115751397268E+00
 0.1751925714350E+00
 0.1411226135167E+00
 0.1091981745013E+00
 0.7936756046279E-01
 0.5193740769060E-01
 0.2727802798702E-01
 0.5785135639348E-02
-0.1217381881862E-01
-0.2630801025009E-01
-0.3645937646508E-01
-0.4265638985221E-01
-0.4514875190933E-01
-0.4440442376736E-01
-0.4105695528106E-01
-0.3583889369563E-01
-0.2945106148288E-01
-0.2300103989017E-01
 0.3154259710525E+00
 0.2753974010830E+00
 0.2353049315883E+00
 0.1967046682312E+00
 0.1607169519646E+00
 0.1265625806854E+00
 0.9430496586871E-01
 0.6417337780497E-01
 0.3656179416580E-01
 0.1192876696914E-01
-0.9246431182190E-02
-0.2651806102924E-01
-0.3954065627198E-01
-0.4814955195958E-01
-0.5243850351862E-01
-0.5280218885357E-01
-0.4991260488219E-01
-0.4460693004279E-01
-0.3779447522281E-01
-0.3037470184564E-01
 0.3353143635668E+00
 0.2972774720411E+00
 0.2582629522135E+00
 0.2198023838014E+00
 0.1823490706062E+00
 0.1462586488636E+00
 0.1116054380973E+00
 0.7868252142775E-01
 0.4790112114451E-01
 0.1977668704977E-01
-0.5112434924375E-02
-0.2616660598140E-01
-0.4282929015649E-01
-0.5468134008962E-01
-0.6155947888634E-01
-0.6366624557746E-01
-0.6160844815989E-01
-0.5631430621259E-01
-0.4880589812436E-01
-0.3984696455017E-01
 0.3566248871185E+00
 0.3202400391141E+00
 0.2824609005720E+00
 0.2442744710364E+00
 0.2062280043175E+00
 0.1686588839935E+00
 0.1318943217920E+00
 0.9627481321970E-01
 0.6225650798809E-01
 0.3040108300912E-01
 0.1368958169517E-02
-0.2410396112668E-01
-0.4525110736966E-01
-0.6136142697075E-01
-0.7191963544942E-01
-0.7678635094982E-01
-0.7635168277487E-01
-0.7154167927281E-01
-0.6359290659047E-01
-0.5362841801625E-01
 0.3789455924694E+00
 0.3443103382986E+00
 0.3079319978076E+00
 0.2705038264118E+00
 0.2324349799873E+00
 0.1940644570583E+00
 0.1557193928767E+00
 0.1177838426694E+00
 0.8072518248879E-01
 0.4512508872188E-01
 0.1168728127247E-01
-0.1875982832473E-01
-0.4527730848268E-01
-0.6686689506279E-01
-0.8259231572662E-01
-0.9179693019205E-01
-0.9438938566240E-01
-0.9106163463450E-01
-0.8321790228102E-01
-0.7258177881070E-01
 0.4022027992249E+00
 0.3694508170635E+00
 0.3347573209064E+00
 0.2985330492053E+00
 0.2610555512393E+00
 0.2225648334187E+00
 0.1833292746098E+00
 0.1436809158867E+00
 0.1040485013007E+00
 0.6497983706270E-01
 0.2716443829753E-01
-0.8546130494790E-02
-0.4112030822095E-01
-0.6934709612585E-01
-0.9189245990878E-01
-0.1074777283733E+00
-0.1152369271588E+00
-0.1151929438391E+00
-0.1085750795968E+00
-0.9753270185475E-01
 0.4262992355789E+00
 0.3956105246045E+00
 0.3628925180138E+00
 0.3283337156544E+00
 0.2920624891445E+00
 0.2541949685121E+00
 0.2148808417138E+00
 0.1743401199786E+00
 0.1328913762521E+00
 0.9097875656887E-01
 0.4919898747883E-01
 0.8334212716624E-02
-0.3060657789246E-01
-0.6633998011705E-01
-0.9727656391634E-01
-0.1215704479925E+00
-0.1373968489322E+00
-0.1435762789494E+00
-0.1403935587868E+00
-0.1300352432639E+00
 0.4511455966763E+00
 0.4226939510911E+00
 0.3922266940292E+00
 0.3597647535583E+00
 0.3253020809604E+00
 0.2888229640812E+00
 0.2503365205979E+00
 0.2099084175982E+00
 0.1676904619339E+00
 0.1239495261739E+00
 0.7909956568997E-01
 0.3374125126978E-01
-0.1128307133271E-01
-0.5481029056002E-01
-0.9524946216676E-01
-0.1304693280412E+00
-0.1577926529419E+00
-0.1744727159254E+00
-0.1788452701552E+00
-0.1717644670010E+00
 0.4766637585942E+00
 0.4505995183796E+00
 0.4226159037942E+00
 0.3926246127986E+00
 0.3605121836456E+00
 0.3261483901030E+00
 0.2894074967202E+00
 0.2501927706714E+00
 0.2084620404012E+00
 0.1642554595396E+00
 0.1177276327418E+00
 0.6918854148298E-01
 0.1916125126329E-01
-0.3152938731545E-01
-0.8161370158798E-01
-0.1291513371382E+00
-0.1712093519628E+00
-0.2036230199628E+00
-0.2220057815210E+00
-0.2239288646841E+00
 0.5027787863313E+00
 0.4792064143070E+00
 0.4538866359730E+00
 0.4266617739431E+00
 0.3973458449730E+00
 0.3657262382853E+00
 0.3315729012329E+00
 0.2946519646257E+00
 0.2547420542490E+00
 0.2116535460211E+00
 0.1652523683716E+00
 0.1154915278902E+00
 0.6245674058062E-01
 0.6439214049220E-02
-0.5193824530439E-01
-0.1114850984343E+00
-0.1699979408886E+00
-0.2233682471693E+00
-0.2644016979874E+00
-0.2857810566128E+00
 0.5294292188302E+00
 0.5084374342399E+00
 0.4859314001803E+00
 0.4617093720017E+00
 0.4355452435576E+00
 0.4071794393076E+00
 0.3763182176952E+00
 0.3426362528358E+00
 0.3057810838404E+00
 0.2653790998497E+00
 0.2210435947894E+00
 0.1723863612069E+00
 0.1190360041365E+00
 0.6066987000182E-01
-0.2923707730595E-02
-0.7171537121901E-01
-0.1451204080645E+00
-0.2212699589535E+00
-0.2944714426823E+00
-0.3500612899214E+00
 0.5565115598021E+00
 0.5381926760977E+00
 0.5186284294110E+00
 0.4976020046171E+00
 0.4748751818319E+00
 0.4501750863524E+00
 0.4231867331581E+00
 0.3935475097279E+00
 0.3608416402972E+00
 0.3245935528328E+00
 0.2842592775697E+00
 0.2392149657251E+00
 0.1887413654014E+00
 0.1320029382635E+00
 0.6802001939053E-01
-0.4362169675689E-02
-0.8650380843099E-01
-0.1798553531950E+00
-0.2857257145676E+00
-0.3977017191995E+00
 0.5838870399278E+00
 0.5683196997743E+00
 0.5517959678782E+00
 0.5341089698930E+00
 0.5150327174191E+00
 0.4943098998835E+00
 0.4716424220635E+00
 0.4466824896654E+00
 0.4190225410166E+00
 0.3881825298754E+00
 0.3535928607462E+00
 0.3145705680256E+00
 0.2702848925387E+00
 0.2197054316108E+00
 0.1615205388832E+00
 0.9399854179491E-01
 0.1474305348349E-01
-0.7985652752831E-01
-0.1956596638561E+00
-0.3476365868560E+00
 0.6114081189689E+00
 0.5986453437801E+00
 0.5852265492162E+00
 0.5709712236061E+00
 0.5556829760826E+00
 0.5391402230174E+00
 0.5210878934658E+00
 0.5012290216134E+00
 0.4792151123336E+00
 0.4546340609204E+00
 0.4269940894406E+00
 0.3957014633303E+00
 0.3600283497621E+00
 0.3190645127515E+00
 0.2716406076902E+00
 0.2161997650755E+00
 0.1505570462306E+00
 0.7143393297155E-01
-0.2679440218149E-01
-0.1555209246259E+00
 0.6389246957952E+00
 0.6289902031905E+00
 0.6187053582613E+00
 0.6079252154998E+00
 0.5964932321093E+00
 0.5842349268135E+00
 0.5709518198224E+00
 0.5564151793222E+00
 0.5403589793535E+00
 0.5224713750211E+00
 0.5023838276187E+00
 0.4796567026472E+00
 0.4537596421911E+00
 0.4240440830623E+00
 0.3897040545816E+00
 0.3497186524895E+00
 0.3027715788467E+00
 0.2471460978364E+00
 0.1807132415159E+00
 0.1035882056009E+00
 0.6662846599990E+00
 0.6591716910913E+00
 0.6520143756844E+00
 0.6447076929606E+00
 0.6371402974945E+00
 0.6291905787185E+00
 0.6207229840941E+00
 0.6115843946141E+00
 0.6016003522948E+00
 0.5905709501291E+00
 0.5782662463128E+00
 0.5644211927989E+00
 0.5487303909382E+00
 0.5308438394654E+00
 0.5103668961419E+00
 0.4868736814693E+00
 0.4599591136597E+00
 0.4293999063402E+00
 0.3957513275515E+00
 0.3608226470350E+00
 0.6933339472338E+00
 0.6890044424003E+00
 0.6849315923228E+00
 0.6810513874621E+00
 0.6772991255344E+00
 0.6736073445074E+00
 0.6699042518300E+00
 0.6661125529553E+00
 0.6621487213661E+00
 0.6579228907381E+00
 0.6533397184795E+00
 0.6483009277330E+00
 0.6427109176143E+00
 0.6364881551314E+00
 0.6295877371925E+00
 0.6220458858168E+00
 0.6140662757176E+00
 0.6061924207223E+00
 0.5994831456355E+00
 0.5954482302889E+00
 0.7199184215176E+00
 0.7183026186846E+00
 0.7172340822345E+00
 0.7166884559314E+00
 0.7166458963491E+00
 0.7170905544278E+00
 0.7180106456978E+00
 0.7193990998485E+00
 0.7212550912193E+00
 0.7235867350932E+00
 0.7264154584371E+00
 0.7297828672015E+00
 0.7337614361463E+00
 0.7384711075316E+00
 0.7441049156487E+00
 0.7509673070546E+00
 0.7595279383450E+00
 0.7704680489414E+00
 0.7846785376995E+00
 0.8034589687200E+00
 0.7458863206193E+00
 0.7468828560294E+00
 0.7487025052213E+00
 0.7513568157775E+00
 0.7548663885175E+00
 0.7592616764320E+00
 0.7645837478022E+00
 0.7708860475132E+00
 0.7782371648365E+00
 0.7867248912442E+00
 0.7964619453838E+00
 0.8075938856967E+00
 0.8203098324340E+00
 0.8348565574859E+00
 0.8515558255561E+00
 0.8708228431403E+00
 0.8931765363810E+00
 0.9192257979453E+00
 0.9496284308584E+00
 0.9848532313787E+00
 0.7710913934556E+00
 0.7745698853755E+00
 0.7791291405935E+00
 0.7848099546856E+00
 0.7916679370476E+00
 0.7997726003658E+00
 0.8092085780320E+00
 0.8200776980288E+00
 0.8325020467375E+00
 0.8466280964119E+00
 0.8626320452040E+00
 0.8807264702403E+00
 0.9011682024542E+00
 0.9242668182924E+00
 0.9503920838725E+00
 0.9799765294725E+00
 0.1013507444056E+01
 0.1051502536546E+01
 0.1094450854980E+01
 0.1142652937100E+01
 0.7953967957668E+00
 0.8012060662266E+00
 0.8083269361414E+00
 0.8168267602941E+00
 0.8267894479067E+00
 0.8383153669383E+00
 0.8515222761127E+00
 0.8665472132648E+00
 0.8835490904621E+00
 0.9027119641005E+00
 0.9242488998709E+00
 0.9484062376293E+00
 0.9754678010436E+00
 0.1005758164764E+01
 0.1039643467675E+01
 0.1077527942394E+01
 0.1119844925209E+01
 0.1167043442646E+01
 0.1219575801930E+01
 0.1278043194087E+01
 0.8186745665913E+00
 0.8266364427139E+00
 0.8361122125422E+00
 0.8471903230508E+00
 0.8599762213706E+00
 0.8745923428949E+00
 0.8911788307655E+00
 0.9098947861837E+00
 0.9309199111997E+00
 0.9544563753967E+00
 0.9807307117581E+00
 0.1009995438425E+01
 0.1042529960964E+01
 0.1078640180359E+01
 0.1118656318031E+01
 0.1162929008360E+01
 0.1211825325018E+01
 0.1265728767478E+01
 0.1325067503820E+01
 0.1390321656560E+01
 0.8408085832903E+00
 0.8507199413099E+00
 0.8623173961625E+00
 0.8757041844475E+00
 0.8909998780209E+00
 0.9083402073319E+00
 0.9278772758325E+00
 0.9497799547528E+00
 0.9742342888448E+00
 0.1001443732562E+01
 0.1031628986328E+01
 0.1065027162923E+01
 0.1101890019822E+01
 0.1142481146819E+01
 0.1187072402903E+01
 0.1235940712549E+01
 0.1289367038609E+01
 0.1347641620254E+01
 0.1411064167591E+01
 0.1479922856453E+01
 0.8616962188201E+00
 0.8733329147343E+00
 0.8867969057260E+00
 0.9021996122768E+00
 0.9196672130218E+00
 0.9393402727887E+00
 0.9613732810363E+00
 0.9859340099784E+00
 0.1013202576779E+01
 0.1043370038573E+01
 0.1076636311441E+01
 0.1113207206774E+01
 0.1153290471793E+01
 0.1197090953814E+01
 0.1244805447663E+01
 0.1296618282215E+01
 0.1352699424411E+01
 0.1413203431297E+01
 0.1478266812927E+01
 0.1548004644481E+01
 0.8812484321718E+00
 0.8943693587997E+00
 0.9094280575810E+00
 0.9265371373054E+00
 0.9458220624265E+00
 0.9674205036700E+00
 0.9914810001252E+00
 0.1018161161065E+01
 0.1047625386973E+01
 0.1080041973234E+01
 0.1115579399787E+01
 0.1154401618617E+01
 0.1196662221834E+01
 0.1242497512770E+01
 0.1292018661015E+01
 0.1345303415230E+01
 0.1402387781308E+01
 0.1463260919206E+01
 0.1527866006448E+01
 0.1596117384314E+01
 0.8993895170018E+00
 0.9137412385323E+00
 0.9301118896047E+00
 0.9486077324019E+00
 0.9693467076480E+00
 0.9924569585986E+00
 0.1018074281126E+01
 0.1046339047006E+01
 0.1077392693208E+01
 0.1111373625536E+01
 0.1148412317498E+01
 0.1188625369517E+01
 0.1232108271450E+01
 0.1278926516403E+01
 0.1329104505314E+01
 0.1382611140983E+01
 0.1439341202195E+01
 0.1499092679778E+01
 0.1561560546414E+01
 0.1626352742104E+01
 0.9160565471707E+00
 0.9313788651990E+00
 0.9487737817637E+00
 0.9683333565338E+00
 0.9901621315508E+00
 0.1014373564329E+01
 0.1041085604148E+01
 0.1070416273204E+01
 0.1102479160448E+01
 0.1137378571436E+01
 0.1175204076599E+01
 0.1216024157981E+01
 0.1259878533539E+01
 0.1306768446128E+01
 0.1356643511090E+01
 0.1409382593045E+01
 0.1464763206417E+01
 0.1522411065954E+01
 0.1581708070363E+01
 0.1641763704073E+01
 0.9311988584490E+00
 0.9472312400872E+00
 0.9653630395685E+00
 0.9856646719368E+00
 0.1008223287402E+01
 0.1033134150608E+01
 0.1060493819315E+01
 0.1090394519553E+01
 0.1122919014514E+01
 0.1158135628934E+01
 0.1196093137935E+01
 0.1236815228498E+01
 0.1280294117542E+01
 0.1326482571782E+01
 0.1375282932164E+01
 0.1426529952684E+01
 0.1479961307658E+01
 0.1535153980544E+01
 0.1591369606769E+01
 0.1647043291320E+01
 0.9447789379184E+00
 0.9612665093764E+00
 0.9798468952264E+00
 0.1000566366101E+01
 0.1023492892448E+01
 0.1048701149459E+01
 0.1076263730138E+01
 0.1106244562248E+01
 0.1138693725539E+01
 0.1173643177251E+01
 0.1211103168180E+01
 0.1251059226608E+01
 0.1293469613717E+01
 0.1338263170144E+01
 0.1385337390843E+01
 0.1434556977378E+01
 0.1485751130883E+01
 0.1538713125720E+01
 0.1593168430164E+01
 0.1648464527180E+01
 0.9567830648567E+00
 0.9734652707514E+00
 0.9921824642375E+00
 0.1012960584784E+01
 0.1035846338244E+01
 0.1060891198955E+01
 0.1088140775053E+01
 0.1117627932355E+01
 0.1149368333434E+01
 0.1183357999947E+01
 0.1219572876737E+01
 0.1257970659972E+01
 0.1298495524933E+01
 0.1341087012898E+01
 0.1385695842031E+01
 0.1432312159302E+01
 0.1481023269524E+01
 0.1532129742340E+01
 0.1586503299330E+01
 0.1646787079101E+01
 0.9672147130621E+00
 0.9837887596930E+00
 0.1002270661063E+01
 0.1022663295118E+01
 0.1044989746096E+01
 0.1069274871506E+01
 0.1095533866234E+01
 0.1123765652632E+01
 0.1153950027730E+01
 0.1186048327071E+01
 0.1220007830312E+01
 0.1255770652694E+01
 0.1293288579079E+01
 0.1332546620709E+01
 0.1373600355411E+01
 0.1416637976935E+01
 0.1462087032552E+01
 0.1510842447060E+01
 0.1564672952506E+01
 0.1627926302289E+01
 0.9760641203435E+00
 0.9921764014942E+00
 0.1009981080087E+01
 0.1029455209442E+01
 0.1050596925519E+01
 0.1073403385125E+01
 0.1097858251314E+01
 0.1123925459616E+01
 0.1151548418835E+01
 0.1180654285909E+01
 0.1211163567100E+01
 0.1243005729044E+01
 0.1276142482288E+01
 0.1310601612237E+01
 0.1346526042146E+01
 0.1384243922048E+01
 0.1424369379703E+01
 0.1467910566252E+01
 0.1516459629381E+01
 0.1570293284074E+01
 0.9833302091813E+00
 0.9985750735096E+00
 0.1015187369413E+01
 0.1033119365854E+01
 0.1052347299798E+01
 0.1072843911702E+01
 0.1094563069694E+01
 0.1117433339296E+01
 0.1141358602578E+01
 0.1166225274711E+01
 0.1191915072097E+01
 0.1218323354237E+01
 0.1245383747213E+01
 0.1273100552025E+01
 0.1301589823454E+01
 0.1331125774118E+01
 0.1362167642541E+01
 0.1395283042755E+01
 0.1430532214600E+01
 0.1466782870361E+01
 0.9890161205652E+00
 0.1002940867298E+01
 0.1017779871898E+01
 0.1033469990052E+01
 0.1049977365284E+01
 0.1067258967795E+01
 0.1085242889092E+01
 0.1103819269968E+01
 0.1122842359159E+01
 0.1142138986363E+01
 0.1161521270526E+01
 0.1180801403001E+01
 0.1199808222261E+01
 0.1218404873405E+01
 0.1236504547283E+01
 0.1254074687518E+01
 0.1271100119073E+01
 0.1287432908839E+01
 0.1302247382221E+01
 0.1313539963194E+01
 0.9931380638368E+00
 0.1005242366066E+01
 0.1017661219030E+01
 0.1030343222357E+01
 0.1043265195409E+01
 0.1056384784990E+01
 0.1069606458992E+01
 0.1082773175300E+01
 0.1095669840128E+01
 0.1108034119252E+01
 0.1119564919921E+01
 0.1129927613511E+01
 0.1138754450449E+01
 0.1145637536312E+01
 0.1150109529186E+01
 0.1151604371765E+01
 0.1149403552939E+01
 0.1142602428741E+01
 0.1130649357094E+01
 0.1112148111735E+01
 0.9957306956563E+00
 0.1005447247432E+01
 0.1014736650482E+01
 0.1023587702918E+01
 0.1032034634829E+01
 0.1040052550617E+01
 0.1047521514833E+01
 0.1054216739471E+01
 0.1059830030098E+01
 0.1063979430141E+01
 0.1066210389321E+01
 0.1065987170482E+01
 0.1062673000077E+01
 0.1055494551773E+01
 0.1043484304686E+01
 0.1025399550176E+01
 0.9996333108361E+00
 0.9642842833147E+00
 0.9177208495228E+00
 0.8641717620289E+00
 0.9968433067394E+00
 0.1003674558862E+01
 0.1009176599092E+01
 0.1013480021483E+01
 0.1016729817841E+01
 0.1018950190945E+01
 0.1019955815206E+01
 0.1019431318680E+01
 0.1016955420716E+01
 0.1012007585758E+01
 0.1003957877382E+01
 0.9920436129597E+00
 0.9753298052462E+00
 0.9526472360762E+00
 0.9225000756233E+00
 0.8829333247871E+00
 0.8313659513653E+00
 0.7643545555206E+00
 0.6773206462789E+00
 0.5658844753605E+00
 0.9967030791265E+00
 0.1000166696360E+01
 0.1001241875952E+01
 0.1000322281424E+01
 0.9978964181298E+00
 0.9938829320408E+00
 0.9879999941831E+00
 0.9798262387542E+00
 0.9688267452964E+00
 0.9543460600975E+00
 0.9355873807138E+00
 0.9115777402710E+00
 0.8811157107032E+00
 0.8426946719134E+00
 0.7943909116941E+00
 0.7336999054544E+00
 0.6572686209202E+00
 0.5603902008403E+00
 0.4355146633719E+00
 0.2633027995209E+00
 0.9958460543897E+00
 0.9952244764702E+00
 0.9906414863977E+00
 0.9841391653909E+00
 0.9757732650972E+00
 0.9653178283172E+00
 0.9523785380208E+00
 0.9364507772141E+00
 0.9169153091099E+00
 0.8930225308751E+00
 0.8638671166874E+00
 0.8283530672798E+00
 0.7851458938162E+00
 0.7326072935692E+00
 0.6687049697555E+00
 0.5908807932604E+00
 0.4958359275782E+00
 0.3790877438649E+00
 0.2340420173169E+00
 0.4852568360652E-01
</DataArray>
<DataArray type="Float64" Name="S_Oct" NumberOfComponents="1" ComponentName0="S_Oct" format="ascii">
 0.1317299893587E+01
 0.1252072555168E+01
 0.1191385271207E+01
 0.1181657687373E+01
 0.1172456326447E+01
 0.1165153633952E+01
 0.1156724552093E+01
 0.1146823796715E+01
 0.1135196945228E+01
 0.1121841267171E+01
 0.1106804188193E+01
 0.1090156105270E+01
 0.1071961912592E+01
 0.1052271572878E+01
 0.1031115806668E+01
 0.1008506087650E+01
 0.9844372158005E+00
 0.9588938892165E+00
 0.9318563200793E+00
 0.9033148566615E+00
 0.8732877065848E+00
 0.8418599172269E+00
 0.8092709768916E+00
 0.7759062125152E+00
 0.7414585400047E+00
 0.7048054516067E+00
 0.6651088486309E+00
 0.6223419024297E+00
 0.5772457835603E+00
 0.5310847842175E+00
 0.4854100219072E+00
 0.4419166051876E+00
 0.4023719532524E+00
 0.3689749408961E+00
 0.3447773445531E+00
 0.3329736143514E+00
 0.3383776286511E+00
 0.3615874918401E+00
 0.4362333504922E+00
 0.4498147566782E+00
 0.1003561792168E+01
 0.1137004431106E+01
 0.1212815619360E+01
 0.1164986489940E+01
 0.1141538626632E+01
 0.1129657916037E+01
 0.1119335666459E+01
 0.1109370658056E+01
 0.1098520778911E+01
 0.1086426784576E+01
 0.1072919344349E+01
 0.1057961387214E+01
 0.1041562279022E+01
 0.1023748004477E+01
 0.1004543122878E+01
 0.9839629831408E+00
 0.9620110772690E+00
 0.9386799853647E+00
 0.9139555965599E+00
 0.8878234442951E+00
 0.8602789340317E+00
 0.8313437380597E+00
 0.8010882104632E+00
 0.7696041055633E+00
 0.7368820345615E+00
 0.7026858216675E+00
 0.6666081738958E+00
 0.6283503440493E+00
 0.5880004521838E+00
 0.5461089423524E+00
 0.5036086950106E+00
 0.4616917827488E+00
 0.4217259203582E+00
 0.3852542259509E+00
 0.3540546817880E+00
 0.3300666693560E+00
 0.3155186279981E+00
 0.3113787613978E+00
 0.3218899476457E+00
 0.3321414587049E+00
 0.2958352576585E+00
 0.7199977822690E+00
 0.1024189748468E+01
 0.1129252333202E+01
 0.1123925361971E+01
 0.1099762634896E+01
 0.1085399881479E+01
 0.1073561685597E+01
 0.1062330892587E+01
 0.1050736594292E+01
 0.1038237524767E+01
 0.1024601691315E+01
 0.1009723894074E+01
 0.9935689161533E+00
 0.9761302738200E+00
 0.9574106543940E+00
 0.9374112276978E+00
 0.9161272477100E+00
 0.8935473672712E+00
 0.8696565211842E+00
 0.8444406176885E+00
 0.8178938170544E+00
 0.7900285351107E+00
 0.7608685869128E+00
 0.7303818459005E+00
 0.6984373796563E+00
 0.6649116369678E+00
 0.6297584185011E+00
 0.5930025832599E+00
 0.5548248975828E+00
 0.5156532905780E+00
 0.4761734808350E+00
 0.4372858925954E+00
 0.4000682701001E+00
 0.3657512623513E+00
 0.3356031922580E+00
 0.3108282555639E+00
 0.2922266270687E+00
 0.2799739822948E+00
 0.2722127331823E+00
 0.2461373530122E+00
 0.2438062871231E+00
 0.5868826915332E+00
 0.9404966759171E+00
 0.1045777844406E+01
 0.1068202521015E+01
 0.1054227185917E+01
 0.1039741806082E+01
 0.1027330682391E+01
 0.1015406145583E+01
 0.1003293161199E+01
 0.9905103049162E+00
 0.9767981435974E+00
 0.9620236629805E+00
 0.9461222033045E+00
 0.9290643824619E+00
 0.9108355967219E+00
 0.8914249452815E+00
 0.8708197355908E+00
 0.8490037110266E+00
 0.8259586368934E+00
 0.8016670403591E+00
 0.7761162345180E+00
 0.7492990729449E+00
 0.7211890537083E+00
 0.6916867005691E+00
 0.6606458609071E+00
 0.6280412873930E+00
 0.5940180200496E+00
 0.5587781417784E+00
 0.5225590098724E+00
 0.4857019812365E+00
 0.4487044802909E+00
 0.4122277115949E+00
 0.3770812207671E+00
 0.3441631209807E+00
 0.3143023066122E+00
 0.2880528778795E+00
 0.2654306332064E+00
 0.2456414495827E+00
 0.2233848066996E+00
 0.1926898628203E+00
 0.2270084206317E+00
 0.4914059667182E+00
 0.8718518133624E+00
 0.9691983129879E+00
 0.1006502994266E+01
 0.1004146001193E+01
 0.9925333064847E+00
 0.9804627245184E+00
 0.9684036017098E+00
 0.9560581704292E+00
 0.9431383486652E+00
 0.9294276510885E+00
 0.9147963893445E+00
 0.8991700430798E+00
 0.8825063586482E+00
 0.8647791127584E+00
 0.8459680428864E+00
 0.8260533567877E+00
 0.8050133497099E+00
 0.7828248647611E+00
 0.7594641516304E+00
 0.7349073354915E+00
 0.7091236343691E+00
 0.6820477201142E+00
 0.6535534528700E+00
 0.6235173119507E+00
 0.5919861580574E+00
 0.5592028837522E+00
 0.5254557262857E+00
 0.4910042529345E+00
 0.4561207334909E+00
 0.4211551489661E+00
 0.3865698168845E+00
 0.3529319298344E+00
 0.3208423933547E+00
 0.2907669134810E+00
 0.2628236423242E+00
 0.2366450161203E+00
 0.2108341221570E+00
 0.1823099698902E+00
 0.1598380210138E+00
 0.2143654685127E+00
 0.4122305834085E+00
 0.8119284511454E+00
 0.8995116068870E+00
 0.9436768940546E+00
 0.9509140433564E+00
 0.9436716046229E+00
 0.9329089072850E+00
 0.9212067870217E+00
 0.9089272693322E+00
 0.8960347058313E+00
 0.8824183650566E+00
 0.8679830791636E+00
 0.8526628638401E+00
 0.8364133352957E+00
 0.8192026739350E+00
 0.8010044293662E+00
 0.7817929600631E+00
 0.7615409865583E+00
 0.7402192171347E+00
 0.7177955544183E+00
 0.6942325025672E+00
 0.6694768752502E+00
 0.6434382813791E+00
 0.6159868917828E+00
 0.5870304452828E+00
 0.5566622004334E+00
 0.5251674915566E+00
 0.4928646324399E+00
 0.4600087387354E+00
 0.4268110984549E+00
 0.3935030218774E+00
 0.3603815142488E+00
 0.3278075635903E+00
 0.2961403564114E+00
 0.2655870113152E+00
 0.2360515690487E+00
 0.2070761735417E+00
 0.1777778967182E+00
 0.1490772812287E+00
 0.1365656402721E+00
 0.1965300932011E+00
 0.3428833148225E+00
 0.7574928871575E+00
 0.8355367418347E+00
 0.8819214974224E+00
 0.8960908441148E+00
 0.8934475104194E+00
 0.8846789600330E+00
 0.8737692033944E+00
 0.8618285304730E+00
 0.8491309702790E+00
 0.8357091929165E+00
 0.8215306372998E+00
 0.8065543493246E+00
 0.7907440966326E+00
 0.7740685387140E+00
 0.7564984048023E+00
 0.7380037412889E+00
 0.7185519301726E+00
 0.6981068534988E+00
 0.6766268558734E+00
 0.6540602743012E+00
 0.6303352413228E+00
 0.6053472403404E+00
 0.5789732556001E+00
 0.5511486941876E+00
 0.5219914224401E+00
 0.4917948768081E+00
 0.4608729962239E+00
 0.4294578842637E+00
 0.3977040777566E+00
 0.3657456787174E+00
 0.3337452907402E+00
 0.3018998898075E+00
 0.2703932477922E+00
 0.2392905143011E+00
 0.2084677989330E+00
 0.1777201277690E+00
 0.1473972494500E+00
 0.1214746076134E+00
 0.1162785034311E+00
 0.1724902932164E+00
 0.2803955681278E+00
 0.7067376859083E+00
 0.7760928517824E+00
 0.8220946197348E+00
 0.8408379664539E+00
 0.8423292303749E+00
 0.8358739050193E+00
 0.8260900528480E+00
 0.8147225901226E+00
 0.8023765843071E+00
 0.7892499205528E+00
 0.7753923321578E+00
 0.7608018586573E+00
 0.7454594977659E+00
 0.7293401153018E+00
 0.7124149676555E+00
 0.6946514836164E+00
 0.6760122381965E+00
 0.6564540658128E+00
 0.6359253488989E+00
 0.6143610051861E+00
 0.5916746112087E+00
 0.5677546002549E+00
 0.5424876436052E+00
 0.5158287066617E+00
 0.4879029269388E+00
 0.4589901144821E+00
 0.4293789163420E+00
 0.3992666245059E+00
 0.3687543146941E+00
 0.3378965160032E+00
 0.3067510610098E+00
 0.2753957969640E+00
 0.2439098769004E+00
 0.2123270868398E+00
 0.1806644520476E+00
 0.1492520611356E+00
 0.1197606316646E+00
 0.9741819676697E-01
 0.9582017452571E-01
 0.1435201966267E+00
 0.2229473223141E+00
 0.6585816572017E+00
 0.7202209013847E+00
 0.7644258120745E+00
 0.7859010266910E+00
 0.7907826841959E+00
 0.7866597772219E+00
 0.7782064570779E+00
 0.7675962634638E+00
 0.7557379132039E+00
 0.7430007280196E+00
 0.7295278969947E+00
 0.7153666745952E+00
 0.7005227592555E+00
 0.6849822528103E+00
 0.6687200724738E+00
 0.6517027599478E+00
 0.6338888284237E+00
 0.6152282382592E+00
 0.5956596341879E+00
 0.5751058862233E+00
 0.5534694694423E+00
 0.5306354750676E+00
 0.5064988889805E+00
 0.4810251215426E+00
 0.4543332885685E+00
 0.4266758115177E+00
 0.3983037639173E+00
 0.3693730192172E+00
 0.3399349531523E+00
 0.3099803706429E+00
 0.2794910124728E+00
 0.2484710408255E+00
 0.2169647000335E+00
 0.1850770304106E+00
 0.1531173615102E+00
 0.1221194459738E+00
 0.9479823254165E-01
 0.7588447979284E-01
 0.7431110938079E-01
 0.1111894821147E+00
 0.1692676475908E+00
 0.6123416811057E+00
 0.6671840057105E+00
 0.7088649249099E+00
 0.7317140987199E+00
 0.7391930390599E+00
 0.7372255038313E+00
 0.7301833173192E+00
 0.7204567981027E+00
 0.7091958845670E+00
 0.6969314199920E+00
 0.6839032998801E+00
 0.6702140708532E+00
 0.6558996394086E+00
 0.6409614474857E+00
 0.6253808258853E+00
 0.6091250861555E+00
 0.5921495520981E+00
 0.5743977767371E+00
 0.5557992870382E+00
 0.5362663932620E+00
 0.5156928825699E+00
 0.4939617295468E+00
 0.4709727617134E+00
 0.4466932664485E+00
 0.4212264287208E+00
 0.3947887473085E+00
 0.3675870481756E+00
 0.3397330201213E+00
 0.3112331065145E+00
 0.2820294923987E+00
 0.2520556829809E+00
 0.2212868996300E+00
 0.1898002172464E+00
 0.1578723265581E+00
 0.1262519478011E+00
 0.9681534831796E-01
 0.7304626680961E-01
 0.5763179328575E-01
 0.5285129293970E-01
 0.7696050400088E-01
 0.1184385863041E+00
 0.5675658888445E+00
 0.6164235614920E+00
 0.6552485413922E+00
 0.6785030656929E+00
 0.6878471936505E+00
 0.6877513902064E+00
 0.6821004406130E+00
 0.6733263509012E+00
 0.6627431857842E+00
 0.6510202692348E+00
 0.6384903084624E+00
 0.6253132214983E+00
 0.6115585079318E+00
 0.5972459810686E+00
 0.5823656362604E+00
 0.5668870432389E+00
 0.5507632506413E+00
 0.5339320484442E+00
 0.5163146430946E+00
 0.4978140857799E+00
 0.4783168561399E+00
 0.4577033932747E+00
 0.4358740782567E+00
 0.4127906571237E+00
 0.3885331946135E+00
 0.3632772502663E+00
 0.3371824143615E+00
 0.3103162003083E+00
 0.2826459739194E+00
 0.2540802055945E+00
 0.2245315063073E+00
 0.1939908259179E+00
 0.1626387725838E+00
 0.1310414300505E+00
 0.1006008460156E+00
 0.7439404864665E-01
 0.5675623118375E-01
 0.4668390825372E-01
 0.3681308262973E-01
 0.4291928297704E-01
 0.6985354343980E-01
 0.5239433385390E+00
 0.5675151219648E+00
 0.6033779787251E+00
 0.6263625547516E+00
 0.6369428700120E+00
 0.6383921706970E+00
 0.6340408467218E+00
 0.6262364421423E+00
 0.6163814135172E+00
 0.6052526295397E+00
 0.5932658881458E+00
 0.5806369880065E+00
 0.5674703305820E+00
 0.5538059967093E+00
 0.5396443192719E+00
 0.5249583710734E+00
 0.5096998020257E+00
 0.4938013495676E+00
 0.4771767061297E+00
 0.4597206364586E+00
 0.4413128313574E+00
 0.4218297926137E+00
 0.4011680806236E+00
 0.3792777809877E+00
 0.3562107796119E+00
 0.3320990756233E+00
 0.3070544660859E+00
 0.2811022640269E+00
 0.2541776122267E+00
 0.2261704093875E+00
 0.1970002501248E+00
 0.1667222565173E+00
 0.1357093987860E+00
 0.1050095486157E+00
 0.7717208123119E-01
 0.5753358024861E-01
 0.5091101937800E-01
 0.4950040411150E-01
 0.3950485859321E-01
 0.2150560446104E-01
 0.2388612165614E-01
 0.4812525234094E+00
 0.5201331999553E+00
 0.5530545801092E+00
 0.5753078443958E+00
 0.5866060274459E+00
 0.5892709185750E+00
 0.5860823358268E+00
 0.5792229019587E+00
 0.5701183402835E+00
 0.5596194945185E+00
 0.5482115105104E+00
 0.5361616366206E+00
 0.5236086045790E+00
 0.5106135455380E+00
 0.4971881914168E+00
 0.4833100670313E+00
 0.4689301943056E+00
 0.4539769411344E+00
 0.4383571905424E+00
 0.4219580312358E+00
 0.4046522374260E+00
 0.3863104621614E+00
 0.3668213662093E+00
 0.3461184908294E+00
 0.3242221166706E+00
 0.3012196876674E+00
 0.2771762367574E+00
 0.2520782256762E+00
 0.2258363710071E+00
 0.1983380974817E+00
 0.1695410942064E+00
 0.1396270924956E+00
 0.1093087941680E+00
 0.8054937324792E-01
 0.5837068275930E-01
 0.5152690874758E-01
 0.5892168125280E-01
 0.6555656479344E-01
 0.6090286390089E-01
 0.4455307336201E-01
 0.2605530888786E-01
 0.4393307148206E+00
 0.4740251168731E+00
 0.5040944509806E+00
 0.5253083074858E+00
 0.5369085549166E+00
 0.5404793835296E+00
 0.5382925146053E+00
 0.5323218132766E+00
 0.5239654615458E+00
 0.5141161247871E+00
 0.5033124509612E+00
 0.4918665344530E+00
 0.4799492817726E+00
 0.4676426348670E+00
 0.4549701809270E+00
 0.4419145200398E+00
 0.4284266592989E+00
 0.4144311826758E+00
 0.3998287044030E+00
 0.3844989102710E+00
 0.3683070843300E+00
 0.3511159240969E+00
 0.3328025757187E+00
 0.3132802283717E+00
 0.2925353465440E+00
 0.2706109003656E+00
 0.2475271921203E+00
 0.2232361578649E+00
 0.1976329750334E+00
 0.1706211831690E+00
 0.1422372069517E+00
 0.1128917438518E+00
 0.8395889694483E-01
 0.5949174474599E-01
 0.4944632600517E-01
 0.5966099717614E-01
 0.7698242901243E-01
 0.8882845327099E-01
 0.8965232946745E-01
 0.8079083738735E-01
 0.7020395333395E-01
 0.3980550142803E+00
 0.4289920474093E+00
 0.4563334307788E+00
 0.4763083963260E+00
 0.4878833562654E+00
 0.4920815081847E+00
 0.4907266149183E+00
 0.4855666608652E+00
 0.4779359753947E+00
 0.4687408396064E+00
 0.4585571480818E+00
 0.4477338753060E+00
 0.4364707198138E+00
 0.4248693139144E+00
 0.4129649912971E+00
 0.4007457172071E+00
 0.3881629057058E+00
 0.3751377996562E+00
 0.3615650951612E+00
 0.3473170617408E+00
 0.3322506359058E+00
 0.3162184484710E+00
 0.2990830195806E+00
 0.2807342574364E+00
 0.2611234627195E+00
 0.2402498742860E+00
 0.2180916893707E+00
 0.1945714135444E+00
 0.1695792479836E+00
 0.1430593509216E+00
 0.1151923536592E+00
 0.8683329866042E-01
 0.6089017442832E-01
 0.4645669320283E-01
 0.5522217603285E-01
 0.7770745776625E-01
 0.1001943929914E+00
 0.1156851324601E+00
 0.1213457033832E+00
 0.1189951225412E+00
 0.1146467956613E+00
 0.3573302542939E+00
 0.3848753719934E+00
 0.4096275913469E+00
 0.4282405805888E+00
 0.4395362523139E+00
 0.4441181613662E+00
 0.4434272810203E+00
 0.4389866662394E+00
 0.4320433151547E+00
 0.4234940780915E+00
 0.4139367176085E+00
 0.4037485180911E+00
 0.3931537388924E+00
 0.3822718745890E+00
 0.3711493986010E+00
 0.3597796103064E+00
 0.3481145454031E+00
 0.3360723816651E+00
 0.3235420551374E+00
 0.3103881746939E+00
 0.2964583048261E+00
 0.2815929927883E+00
 0.2656374849340E+00
 0.2484561458345E+00
 0.2299643168531E+00
 0.2101185678215E+00
 0.1888579004419E+00
 0.1660812611433E+00
 0.1416875865153E+00
 0.1157001731961E+00
 0.8857641323168E-01
 0.6219072759110E-01
 0.4363140176952E-01
 0.4819300791116E-01
 0.7219207554644E-01
 0.1006075610878E+00
 0.1260794122052E+00
 0.1445917846233E+00
 0.1546007983795E+00
 0.1578820574953E+00
 0.1588019517361E+00
 0.3170810488603E+00
 0.3415468410567E+00
 0.3638518606214E+00
 0.3810332301047E+00
 0.3918550313587E+00
 0.3966120585126E+00
 0.3964256384492E+00
 0.3926061754939E+00
 0.3863003096759E+00
 0.3783778360683E+00
 0.3694447280297E+00
 0.3598980438116E+00
 0.3499818912699E+00
 0.3398312802648E+00
 0.3295028055998E+00
 0.3189947787930E+00
 0.3082598653699E+00
 0.2972132801055E+00
 0.2857381742402E+00
 0.2736910678859E+00
 0.2609090337151E+00
 0.2472186413925E+00
 0.2324455851620E+00
 0.2164268631119E+00
 0.1990413111881E+00
 0.1802038796470E+00
 0.1598172897899E+00
 0.1377638558037E+00
 0.1139715914236E+00
 0.8861728261268E-01
 0.6277868584986E-01
 0.4129472764946E-01
 0.4015641244354E-01
 0.6333700590895E-01
 0.9449970204840E-01
 0.1258811763832E+00
 0.1535531286586E+00
 0.1748419428322E+00
 0.1888352053488E+00
 0.1971069450201E+00
 0.2027112484572E+00
 0.2772464408909E+00
 0.2989014699289E+00
 0.3188980626785E+00
 0.3346154389307E+00
 0.3448162974971E+00
 0.3495724739164E+00
 0.3497432297716E+00
 0.3464450131274E+00
 0.3407190860793E+00
 0.3333956603760E+00
 0.3250774418211E+00
 0.3161732500249E+00
 0.3069421793342E+00
 0.2975320804905E+00
 0.2880083395749E+00
 0.2783737122236E+00
 0.2685813104346E+00
 0.2585433190260E+00
 0.2481369103007E+00
 0.2372099347360E+00
 0.2255877864592E+00
 0.2130812569372E+00
 0.1994944384175E+00
 0.1846353216442E+00
 0.1683455907626E+00
 0.1504991814872E+00
 0.1309650513875E+00
 0.1096175139375E+00
 0.8644954893067E-01
 0.6197504441195E-01
 0.3911648263032E-01
 0.3202375171158E-01
 0.5298415637727E-01
 0.8489278631794E-01
 0.1191979851591E+00
 0.1524730770135E+00
 0.1820921609975E+00
 0.2060598352549E+00
 0.2237400611963E+00
 0.2364923955013E+00
 0.2464481570245E+00
 0.2377762298548E+00
 0.2568524248377E+00
 0.2746730615114E+00
 0.2889201786108E+00
 0.2983908854993E+00
 0.3029998084466E+00
 0.3033947411143E+00
 0.3005199054739E+00
 0.2953119928071E+00
 0.2885535722771E+00
 0.2808349469731E+00
 0.2725695525787E+00
 0.2640267424833E+00
 0.2553643937494E+00
 0.2466551525623E+00
 0.2379054640208E+00
 0.2290685398340E+00
 0.2200533118841E+00
 0.2107306203744E+00
 0.2009389213423E+00
 0.1904906616915E+00
 0.1791790634347E+00
 0.1667845994873E+00
 0.1530844647002E+00
 0.1378819395224E+00
 0.1210093230750E+00
 0.1023029069911E+00
 0.8164033169891E-01
 0.5915889961633E-01
 0.3636600107416E-01
 0.2415605336681E-01
 0.4240735057799E-01
 0.7389573143933E-01
 0.1090478288894E+00
 0.1450871600723E+00
 0.1798937312860E+00
 0.2114057883492E+00
 0.2380150867346E+00
 0.2591655718097E+00
 0.2758590317553E+00
 0.2900418342841E+00
 0.1986284425059E+00
 0.2153274319323E+00
 0.2310975331213E+00
 0.2438869286917E+00
 0.2525488118545E+00
 0.2568905796422E+00
 0.2573919667349E+00
 0.2548475446097E+00
 0.2500942868932E+00
 0.2438628051107E+00
 0.2367241830685E+00
 0.2290904218038E+00
 0.2212367838951E+00
 0.2133284052477E+00
 0.2054435873441E+00
 0.1975916034379E+00
 0.1897253001243E+00
 0.1817499988689E+00
 0.1735297003108E+00
 0.1648925824941E+00
 0.1556367398444E+00
 0.1455359111596E+00
 0.1343447106794E+00
 0.1218071500014E+00
 0.1076853833824E+00
 0.9176641525467E-01
 0.7385000204626E-01
 0.5383050849820E-01
 0.3224415950220E-01
 0.1636988264990E-01
 0.3271057030351E-01
 0.6318346040101E-01
 0.9769691394292E-01
 0.1343480630294E+00
 0.1716406400874E+00
 0.2078820117462E+00
 0.2413165277328E+00
 0.2705392994346E+00
 0.2950632560865E+00
 0.3151683328278E+00
 0.3331747646718E+00
 0.1597684657377E+00
 0.1742716348038E+00
 0.1881144644113E+00
 0.1994773698366E+00
 0.2072813389234E+00
 0.2112640974805E+00
 0.2117739729922E+00
 0.2094779819335E+00
 0.2051209348722E+00
 0.1993802377781E+00
 0.1928031474920E+00
 0.1857954325144E+00
 0.1786345141965E+00
 0.1714902667454E+00
 0.1644451241583E+00
 0.1575103309629E+00
 0.1506378570544E+00
 0.1437289601166E+00
 0.1366401541669E+00
 0.1291882959390E+00
 0.1211555721999E+00
 0.1122941720938E+00
 0.1023303177241E+00
 0.9097160054819E-01
 0.7793380660308E-01
 0.6294796176949E-01
 0.4575445114523E-01
 0.2625122630915E-01
 0.8049612049941E-02
 0.2537404917511E-01
 0.5431875991713E-01
 0.8696955403316E-01
 0.1225399089490E+00
 0.1601320339115E+00
 0.1985212134287E+00
 0.2362034209872E+00
 0.2716025730776E+00
 0.3034629187557E+00
 0.3311262951370E+00
 0.3550106566103E+00
 0.3737987141363E+00
 0.1211659832596E+00
 0.1336382319832E+00
 0.1456761439011E+00
 0.1556592747431E+00
 0.1625807750501E+00
 0.1661368715676E+00
 0.1665753936294E+00
 0.1644568975083E+00
 0.1604434367009E+00
 0.1551605431724E+00
 0.1491292060922E+00
 0.1427456567929E+00
 0.1362866854883E+00
 0.1299250176529E+00
 0.1237461436522E+00
 0.1177627445954E+00
 0.1119256168718E+00
 0.1061316216038E+00
 0.1002292196333E+00
 0.9402306877090E-01
 0.8727835205846E-01
 0.7972469284629E-01
 0.7105944715862E-01
 0.6095422542304E-01
 0.4907906107246E-01
 0.3510633746566E-01
 0.1869720031543E-01
 0.1694174146227E-02
 0.2316257750404E-01
 0.4908096009259E-01
 0.7862581213177E-01
 0.1116696156077E+00
 0.1477698051274E+00
 0.1861201919007E+00
 0.2255779182897E+00
 0.2647468809599E+00
 0.3021769471397E+00
 0.3366558583599E+00
 0.3675374688888E+00
 0.3944716408594E+00
 0.4176135666868E+00
 0.8279558504749E-01
 0.9339598928028E-01
 0.1037615231736E+00
 0.1124334298781E+00
 0.1184753007192E+00
 0.1215636590233E+00
 0.1218728183262E+00
 0.1198774526407E+00
 0.1161680849286E+00
 0.1113223979425E+00
 0.1058353215142E+00
 0.1000925585137E+00
 0.9436949477645E-01
 0.8884164505984E-01
 0.8359816354969E-01
 0.7865417126841E-01
 0.7396041211589E-01
 0.6941051415382E-01
 0.6484646823269E-01
 0.6006389425796E-01
 0.5481825363413E-01
 0.4883348665102E-01
 0.4181789490120E-01
 0.3350983060458E-01
 0.2386198144527E-01
 0.1413425009183E-01
 0.1382331521650E-01
 0.2841941896035E-01
 0.4922515879361E-01
 0.7437471156170E-01
 0.1036066724332E+00
 0.1366961816955E+00
 0.1731704543212E+00
 0.2122332155759E+00
 0.2527871694441E+00
 0.2935135785300E+00
 0.3330392544792E+00
 0.3701929784506E+00
 0.4041863707159E+00
 0.4345686843603E+00
 0.4616829771490E+00
 0.4464584103812E-01
 0.5358632289091E-01
 0.6248278958891E-01
 0.6998034907128E-01
 0.7520861443849E-01
 0.7784726087831E-01
 0.7802609391917E-01
 0.7615799755184E-01
 0.7277830116321E-01
 0.6842719508851E-01
 0.6358106457513E-01
 0.5862237494603E-01
 0.5383360278122E-01
 0.4940296675152E-01
 0.4543391222929E-01
 0.4195435544262E-01
 0.3892501926357E-01
 0.3624871127762E-01
 0.3378360875917E-01
 0.3136561330390E-01
 0.2884889935161E-01
 0.2618797395173E-01
 0.2361985938705E-01
 0.2203309355339E-01
 0.2326097288865E-01
 0.2911555140071E-01
 0.3998083332214E-01
 0.5550304473818E-01
 0.7548457856664E-01
 0.9990748647299E-01
 0.1287427803167E+00
 0.1617959522563E+00
 0.1986012428617E+00
 0.2383816666904E+00
 0.2800808037736E+00
 0.3224377716950E+00
 0.3641327774094E+00
 0.4039932892110E+00
 0.4411348849402E+00
 0.4750698129207E+00
 0.5057711669492E+00
 0.6996068594128E-02
 0.1514429883354E-01
 0.2313456361438E-01
 0.2980151815483E-01
 0.3445475121427E-01
 0.3686463952029E-01
 0.3718800572933E-01
 0.3584251704520E-01
 0.3338030084989E-01
 0.3039133990517E-01
 0.2743975846220E-01
 0.2501359751002E-01
 0.2346105053434E-01
 0.2291734092287E-01
 0.2328712732826E-01
 0.2433039274256E-01
 0.2578934972201E-01
 0.2746846992790E-01
 0.2925661472163E-01
 0.3112558101212E-01
 0.3313353676296E-01
 0.3544545061341E-01
 0.3836843799898E-01
 0.4238065194532E-01
 0.4810681053498E-01
 0.5624596721444E-01
 0.6749318399841E-01
 0.8246802801928E-01
 0.1016649380386E+00
 0.1254166301534E+00
 0.1538529358312E+00
 0.1868502639198E+00
 0.2239816969087E+00
 0.2645048419904E+00
 0.3074044876104E+00
 0.3514654210357E+00
 0.3953987932797E+00
 0.4380120840477E+00
 0.4783487893043E+00
 0.5157967152630E+00
 0.5499208252361E+00
 0.3134121771146E-01
 0.2706717888865E-01
 0.2401025154473E-01
 0.2282909407302E-01
 0.2320516583086E-01
 0.2440902078296E-01
 0.2600419345279E-01
 0.2794336562631E-01
 0.3032663070122E-01
 0.3318551495417E-01
 0.3641641873250E-01
 0.3982771329736E-01
 0.4321491809780E-01
 0.4641264034593E-01
 0.4931630545207E-01
 0.5188436603322E-01
 0.5413153767087E-01
 0.5611945766059E-01
 0.5794864674088E-01
 0.5975441821160E-01
 0.6170964802216E-01
 0.6403720028006E-01
 0.6703287848595E-01
 0.7109139327113E-01
 0.7671147171109E-01
 0.8449330402205E-01
 0.9512479034643E-01
 0.1093198219526E+00
 0.1277240579148E+00
 0.1508212831611E+00
 0.1788592737282E+00
 0.2117956563723E+00
 0.2492603903788E+00
 0.2905571099646E+00
 0.3347126060008E+00
 0.3805473822858E+00
 0.4267860082156E+00
 0.4722051173872E+00
 0.5157647510301E+00
 0.5566768706344E+00
 0.5941690188850E+00
 0.6898753564517E-01
 0.6578851410715E-01
 0.6291783450182E-01
 0.6098180783600E-01
 0.6028378587553E-01
 0.6085905609102E-01
 0.6257311520727E-01
 0.6520428643817E-01
 0.6848827647188E-01
 0.7214469967485E-01
 0.7590248325882E-01
 0.7952446169527E-01
 0.8282556810656E-01
 0.8568198951180E-01
 0.8803250977730E-01
 0.8987484405255E-01
 0.9125956598802E-01
 0.9228346082532E-01
 0.9308377361227E-01
 0.9383459070803E-01
 0.9474717668115E-01
 0.9607644592469E-01
 0.9813536448240E-01
 0.1013133321195E+00
 0.1060820042212E+00
 0.1130069837537E+00
 0.1227581821569E+00
 0.1360706594121E+00
 0.1536558615554E+00
 0.1760917712161E+00
 0.2037239247693E+00
 0.2365944423946E+00
 0.2744010170550E+00
 0.3165013516790E+00
 0.3619645626134E+00
 0.4096384568628E+00
 0.4582475486942E+00
 0.5065250917512E+00
 0.5533292184216E+00
 0.5976798122304E+00
 0.6385381990214E+00
 0.1065427394629E+00
 0.1047467581832E+00
 0.1030764953426E+00
 0.1020642959518E+00
 0.1020345583132E+00
 0.1030909134060E+00
 0.1051535755197E+00
 0.1080164564808E+00
 0.1114040236042E+00
 0.1150199823532E+00
 0.1185851872069E+00
 0.1218637818382E+00
 0.1246780819393E+00
 0.1269142850287E+00
 0.1285219071369E+00
 0.1295097182933E+00
 0.1299402613210E+00
 0.1299243106113E+00
 0.1296162142421E+00
 0.1292108907680E+00
 0.1289436726465E+00
 0.1290944933805E+00
 0.1299981040782E+00
 0.1320575343861E+00
 0.1357478881928E+00
 0.1416312241948E+00
 0.1503765041828E+00
 0.1627354253503E+00
 0.1794652743588E+00
 0.2012179429894E+00
 0.2284273359904E+00
 0.2612222668543E+00
 0.2993757161250E+00
 0.3423054517806E+00
 0.3891229624364E+00
 0.4386964206173E+00
 0.4897388483097E+00
 0.5409267693614E+00
 0.5910013199634E+00
 0.6387914221172E+00
 0.6830428583578E+00
 0.1439955433636E+00
 0.1436251128952E+00
 0.1432792177969E+00
 0.1434044366040E+00
 0.1442864907776E+00
 0.1460252622328E+00
 0.1485534790909E+00
 0.1516810791502E+00
 0.1551477632026E+00
 0.1586716794758E+00
 0.1619877537289E+00
 0.1648735324608E+00
 0.1671634848305E+00
 0.1687543984024E+00
 0.1696049696892E+00
 0.1697323138315E+00
 0.1692073520829E+00
 0.1681503370876E+00
 0.1667272421450E+00
 0.1651476054662E+00
 0.1636646624220E+00
 0.1625787593528E+00
 0.1622454933080E+00
 0.1630862563026E+00
 0.1655904585974E+00
 0.1703307583782E+00
 0.1779868872548E+00
 0.1893311712779E+00
 0.2051623952456E+00
 0.2261989984792E+00
 0.2529596234703E+00
 0.2856623844554E+00
 0.3241617166312E+00
 0.3679404564032E+00
 0.4161526605536E+00
 0.4676812085001E+00
 0.5212175569103E+00
 0.5753691228082E+00
 0.6287496666901E+00
 0.6800037328455E+00
 0.7276923214888E+00
 0.1813560204660E+00
 0.1823970368683E+00
 0.1833991018185E+00
 0.1847214355415E+00
 0.1865952508874E+00
 0.1890964288662E+00
 0.1921556804649E+00
 0.1955939809779E+00
 0.1991685028862E+00
 0.2026170503691E+00
 0.2056937707106E+00
 0.2081934805416E+00
 0.2099652828922E+00
 0.2109179159316E+00
 0.2110197503243E+00
 0.2102960035008E+00
 0.2088250177294E+00
 0.2067348179019E+00
 0.2042005295534E+00
 0.2014431653914E+00
 0.1987303788995E+00
 0.1963797976400E+00
 0.1947661610433E+00
 0.1943301798425E+00
 0.1955799425760E+00
 0.1991058019512E+00
 0.2056056485097E+00
 0.2158770461587E+00
 0.2307606650429E+00
 0.2510395547845E+00
 0.2773166854786E+00
 0.3099027943270E+00
 0.3487395191335E+00
 0.3933795118675E+00
 0.4430200964361E+00
 0.4965543976932E+00
 0.5526435809128E+00
 0.6098153321860E+00
 0.6665489350900E+00
 0.7213106738188E+00
 0.7724925937569E+00
 0.2186365877686E+00
 0.2210697143726E+00
 0.2234206406370E+00
 0.2259630571708E+00
 0.2288682570363E+00
 0.2321793183934E+00
 0.2358169471291E+00
 0.2396082052164E+00
 0.2433258683957E+00
 0.2467275935125E+00
 0.2495879501165E+00
 0.2517205169717E+00
 0.2529904244867E+00
 0.2533194560206E+00
 0.2526863406948E+00
 0.2511245992539E+00
 0.2487196575492E+00
 0.2456063960416E+00
 0.2419675842266E+00
 0.2380336617724E+00
 0.2340842922698E+00
 0.2304519978263E+00
 0.2275289213522E+00
 0.2257747969525E+00
 0.2257181968817E+00
 0.2279710284683E+00
 0.2332541645436E+00
 0.2423944166494E+00
 0.2562763004529E+00
 0.2757480498294E+00
 0.3014984330387E+00
 0.3339348507336E+00
 0.3730919974451E+00
 0.4185973397856E+00
 0.4696929512304E+00
 0.5252789788151E+00
 0.5839790028377E+00
 0.6442320906730E+00
 0.7043775140289E+00
 0.7627065218565E+00
 0.8174476654854E+00
 0.2558498045071E+00
 0.2596578582383E+00
 0.2633534866571E+00
 0.2671276676077E+00
 0.2710898912277E+00
 0.2752456520634E+00
 0.2795002808130E+00
 0.2836825924939E+00
 0.2875782782569E+00
 0.2909636938878E+00
 0.2936337935751E+00
 0.2954215382161E+00
 0.2962089741597E+00
 0.2959317933017E+00
 0.2945797163491E+00
 0.2921948369996E+00
 0.2888694903711E+00
 0.2847447516011E+00
 0.2800098785318E+00
 0.2749031264169E+00
 0.2697142209522E+00
 0.2647885428188E+00
 0.2605339296998E+00
 0.2574283158901E+00
 0.2560213561363E+00
 0.2569486949519E+00
 0.2609574573197E+00
 0.2689070088049E+00
 0.2817281439972E+00
 0.3003360689750E+00
 0.3255079584058E+00
 0.3577525740112E+00
 0.3972039371298E+00
 0.4435699416490E+00
 0.4961399145627E+00
 0.5538191345508E+00
 0.6151877489776E+00
 0.6785886883334E+00
 0.7422159445652E+00
 0.8041853720756E+00
 0.8625603590243E+00
 0.2930079355971E+00
 0.2981781398145E+00
 0.3032149045672E+00
 0.3082293882092E+00
 0.3132687702351E+00
 0.3182979990828E+00
 0.3232030880779E+00
 0.3278109526002E+00
 0.3319175513682E+00
 0.3353164802373E+00
 0.3378226468204E+00
 0.3392886717718E+00
 0.3396141588270E+00
 0.3387494148843E+00
 0.3366956994463E+00
 0.3335039178469E+00
 0.3292731570384E+00
 0.3241500912737E+00
 0.3183294279237E+00
 0.3120557902086E+00
 0.3056272025002E+00
 0.2994000099274E+00
 0.2937960267307E+00
 0.2893102687814E+00
 0.2865133991600E+00
 0.2860659965548E+00
 0.2887436932520E+00
 0.2954410872300E+00
 0.3071377202908E+00
 0.3248181311092E+00
 0.3493512120127E+00
 0.3813523765756E+00
 0.4210618566926E+00
 0.4682744719632E+00
 0.5223305411266E+00
 0.5821400199569E+00
 0.6462351633863E+00
 0.7128561837293E+00
 0.7800459667625E+00
 0.8457410655422E+00
 0.9078329802604E+00
 0.3301228704864E+00
 0.3366475899997E+00
 0.3430246987842E+00
 0.3492881318784E+00
 0.3554227729464E+00
 0.3613510092048E+00
 0.3669365221769E+00
 0.3720013223241E+00
 0.3763493127025E+00
 0.3797899544952E+00
 0.3821576279112E+00
 0.3833247878673E+00
 0.3832091255842E+00
 0.3817761698765E+00
 0.3790391851481E+00
 0.3750580660889E+00
 0.3699384545418E+00
 0.3638320126512E+00
 0.3569378691559E+00
 0.3495056029639E+00
 0.3418398207289E+00
 0.3343059630148E+00
 0.3273380448565E+00
 0.3214468244857E+00
 0.3172234519118E+00
 0.3153539785862E+00
 0.3166440720267E+00
 0.3220256915782E+00
 0.3325294319381E+00
 0.3492117490958E+00
 0.3730369966824E+00
 0.4047330680283E+00
 0.4446540374916E+00
 0.4926892525080E+00
 0.5482351929649E+00
 0.6102075747046E+00
 0.6770876088472E+00
 0.7470067774132E+00
 0.8178500065908E+00
 0.8873673660080E+00
 0.9532679091093E+00
 0.3672061373731E+00
 0.3750830806618E+00
 0.3828034453228E+00
 0.3903260787124E+00
 0.3975737095544E+00
 0.4044246769720E+00
 0.4107179809306E+00
 0.4162683168725E+00
 0.4208856393149E+00
 0.4243941578641E+00
 0.4266473649664E+00
 0.4275377518370E+00
 0.4270015995723E+00
 0.4250202096704E+00
 0.4216192500919E+00
 0.4168677141793E+00
 0.4108775386060E+00
 0.4038047084001E+00
 0.3958517034560E+00
 0.3872716150050E+00
 0.3783738878249E+00
 0.3695311444750E+00
 0.3611877268625E+00
 0.3538685936059E+00
 0.3481845096043E+00
 0.3448470380623E+00
 0.3446928355181E+00
 0.3486928546085E+00
 0.3579307830254E+00
 0.3735375949283E+00
 0.3965770984319E+00
 0.4278959798679E+00
 0.4679706303069E+00
 0.5167938142456E+00
 0.5738249623462E+00
 0.6379882790926E+00
 0.7077120279366E+00
 0.7810132565392E+00
 0.8556108119779E+00
 0.9290581092359E+00
 0.9988680165512E+00
 0.4042689481392E+00
 0.4135011734651E+00
 0.4225718306914E+00
 0.4313662789381E+00
 0.4397451507518E+00
 0.4475415462739E+00
 0.4545679391126E+00
 0.4606298449440E+00
 0.4655418486574E+00
 0.4691421386385E+00
 0.4713031774020E+00
 0.4719378040968E+00
 0.4710014220114E+00
 0.4684916339003E+00
 0.4644468574681E+00
 0.4589452265647E+00
 0.4521046399342E+00
 0.4440846680620E+00
 0.4350900022025E+00
 0.4253757351209E+00
 0.4152543346395E+00
 0.4051036036985E+00
 0.3953762066815E+00
 0.3866095535077E+00
 0.3794328387509E+00
 0.3745827515934E+00
 0.3729273954836E+00
 0.3754778779919E+00
 0.3833726892407E+00
 0.3978197993285E+00
 0.4199865765014E+00
 0.4508452449113E+00
 0.4910038935278E+00
 0.5405690410070E+00
 0.5990716687752E+00
 0.6654489735008E+00
 0.7380756018529E+00
 0.8148486168674E+00
 0.8933112941391E+00
 0.9708074469474E+00
 0.1044637132716E+01
 0.4413222532361E+00
 0.4519181080105E+00
 0.4623504157122E+00
 0.4724320712360E+00
 0.4819614658261E+00
 0.4907254233433E+00
 0.4985084463227E+00
 0.5051055107501E+00
 0.5103349004842E+00
 0.5140484132757E+00
 0.5161376211797E+00
 0.5165361894343E+00
 0.5152192482851E+00
 0.5122012351573E+00
 0.5075336251932E+00
 0.5013036713846E+00
 0.4936348261938E+00
 0.4846894270663E+00
 0.4746731530214E+00
 0.4638415000813E+00
 0.4525080475834E+00
 0.4410536606231E+00
 0.4299371658320E+00
 0.4197064552102E+00
 0.4110076631414E+00
 0.4046018243768E+00
 0.4013884856685E+00
 0.4024196069878E+00
 0.4088898084047E+00
 0.4220863048085E+00
 0.4432841268971E+00
 0.4735881506683E+00
 0.5137484898574E+00
 0.5639973468878E+00
 0.6239478640917E+00
 0.6925566740769E+00
 0.7681454232075E+00
 0.8484857328792E+00
 0.9309344039560E+00
 0.1012610045593E+01
 0.1090580442339E+01
 0.4783768009982E+00
 0.4903498510202E+00
 0.5021595859352E+00
 0.5135468585599E+00
 0.5242473904444E+00
 0.5340007516957E+00
 0.5425623584752E+00
 0.5497157632729E+00
 0.5552825184592E+00
 0.5591280987611E+00
 0.5611636525688E+00
 0.5613443580582E+00
 0.5596657820377E+00
 0.5561597562321E+00
 0.5508910944203E+00
 0.5439560893249E+00
 0.5354832636887E+00
 0.5256368193507E+00
 0.5146221093358E+00
 0.5026933369010E+00
 0.4901631703000E+00
 0.4774132835638E+00
 0.4649063299745E+00
 0.4531984785080E+00
 0.4429510027693E+00
 0.4349481131149E+00
 0.4301203418495E+00
 0.4295607245923E+00
 0.4345209084906E+00
 0.4463692818346E+00
 0.4664925274497E+00
 0.4961355796207E+00
 0.5362018623776E+00
 0.5870629157540E+00
 0.6484268802689E+00
 0.7192784220960E+00
 0.7978882127759E+00
 0.8818970870070E+00
 0.9684630509169E+00
 0.1054461279998E+01
 0.1136704883843E+01
 0.5154431995401E+00
 0.5288121759370E+00
 0.5420195935193E+00
 0.5547340583814E+00
 0.5666278524665E+00
 0.5773923097474E+00
 0.5867529278198E+00
 0.5944814121732E+00
 0.6004026667476E+00
 0.6043963781965E+00
 0.6063941012651E+00
 0.6063734550987E+00
 0.6043512821820E+00
 0.6003774106493E+00
 0.5945302570963E+00
 0.5869150214573E+00
 0.5776647404816E+00
 0.5669444942821E+00
 0.5549579047512E+00
 0.5419560849550E+00
 0.5282486513377E+00
 0.5142156876627E+00
 0.5003211485753E+00
 0.4871270235512E+00
 0.4753076008818E+00
 0.4656686975790E+00
 0.4591709094063E+00
 0.4569480736667E+00
 0.4603092801903E+00
 0.4707056116285E+00
 0.4896391678443E+00
 0.5185025439296E+00
 0.5583647033360E+00
 0.6097520211036E+00
 0.6724829403448E+00
 0.7455811850006E+00
 0.8272700886644E+00
 0.9150545542087E+00
 0.1005880062549E+01
 0.1096357446539E+01
 0.1183019579316E+01
 0.5525319811820E+00
 0.5673207576968E+00
 0.5819506446610E+00
 0.5960171398958E+00
 0.6091279260982E+00
 0.6209250680633E+00
 0.6311035688492E+00
 0.6394233215143E+00
 0.6457131962652E+00
 0.6498681229221E+00
 0.6518412861453E+00
 0.6516339406722E+00
 0.6492851913874E+00
 0.6448635187522E+00
 0.6384611958984E+00
 0.6301921483503E+00
 0.6201933008453E+00
 0.6086295450062E+00
 0.5957012776323E+00
 0.5816546240942E+00
 0.5667938889953E+00
 0.5514950157609E+00
 0.5362205361451E+00
 0.5215355388688E+00
 0.5081248623492E+00
 0.4968139444740E+00
 0.4885920359216E+00
 0.4846329706904E+00
 0.4863031585696E+00
 0.4951373999951E+00
 0.5127566308412E+00
 0.5407087848667E+00
 0.5802414901284E+00
 0.6320534019777E+00
 0.6960913040448E+00
 0.7714317698396E+00
 0.8562563317636E+00
 0.9479291688236E+00
 0.1043168105805E+01
 0.1138295921565E+01
 0.1229536225325E+01
 0.5896536706307E+00
 0.6058912803849E+00
 0.6219730184550E+00
 0.6374197168678E+00
 0.6517728652429E+00
 0.6646241433224E+00
 0.6756377300124E+00
 0.6845622106571E+00
 0.6912315942861E+00
 0.6955576118825E+00
 0.6975167220719E+00
 0.6971352959905E+00
 0.6944758472347E+00
 0.6896262246189E+00
 0.6826928043559E+00
 0.6737980094392E+00
 0.6630819602314E+00
 0.6507082171444E+00
 0.6368723747003E+00
 0.6218135784590E+00
 0.6058284457236E+00
 0.5892860792994E+00
 0.5726446607275E+00
 0.5564693819459E+00
 0.5414528108043E+00
 0.5284375811311E+00
 0.5184396731730E+00
 0.5126715384940E+00
 0.5125561816013E+00
 0.5197125503287E+00
 0.5358833552509E+00
 0.5627794725553E+00
 0.6018411302657E+00
 0.6539587413655E+00
 0.7192284952988E+00
 0.7967967929130E+00
 0.8848111864408E+00
 0.9804909125350E+00
 0.1080309619661E+01
 0.1180275332753E+01
 0.1276269523410E+01
 0.6268188580194E+00
 0.6445395555200E+00
 0.6621072073931E+00
 0.6789656754099E+00
 0.6945881835756E+00
 0.7085148065255E+00
 0.7203788221688E+00
 0.7299185103530E+00
 0.7369747854448E+00
 0.7414782980056E+00
 0.7434308698475E+00
 0.7428857697268E+00
 0.7399302316904E+00
 0.7346722500587E+00
 0.7272325431752E+00
 0.7177417577602E+00
 0.7063424544906E+00
 0.6931956500271E+00
 0.6784904844768E+00
 0.6624570460735E+00
 0.6453817824911E+00
 0.6276241114663E+00
 0.6096347353577E+00
 0.5919756730969E+00
 0.5753440311546E+00
 0.5605967512644E+00
 0.5487740651554E+00
 0.5411250374220E+00
 0.5391278668783E+00
 0.5444853792738E+00
 0.5590643678230E+00
 0.5847459985633E+00
 0.6231777132822E+00
 0.6754632470618E+00
 0.7418726071721E+00
 0.8216426903370E+00
 0.9128976682439E+00
 0.1012708486516E+01
 0.1117286721207E+01
 0.1222295708649E+01
 0.1323237613869E+01
 0.6640382783918E+00
 0.6832816518949E+00
 0.7023740771282E+00
 0.7206793287283E+00
 0.7375997668321E+00
 0.7526225251411E+00
 0.7653501796354E+00
 0.7755122483816E+00
 0.7829589589600E+00
 0.7876425981366E+00
 0.7895929080370E+00
 0.7888921453947E+00
 0.7856537412064E+00
 0.7800066689157E+00
 0.7720862163059E+00
 0.7620309333734E+00
 0.7499850060671E+00
 0.7361056323721E+00
 0.7205737816626E+00
 0.7036083346994E+00
 0.6854829934459E+00
 0.6665445134503E+00
 0.6472327946862E+00
 0.6281031269304E+00
 0.6098535843668E+00
 0.5933520423527E+00
 0.5796599140205E+00
 0.5700601887469E+00
 0.5660841023004E+00
 0.5695172736353E+00
 0.5823520871306E+00
 0.6066468709142E+00
 0.6442713861797E+00
 0.6965663553942E+00
 0.7640037015414E+00
 0.8459357771781E+00
 0.9404773753906E+00
 0.1044549059423E+01
 0.1154081079497E+01
 0.1264358605271E+01
 0.1370462515342E+01
 0.7013228995429E+00
 0.7221340394291E+00
 0.7427950466833E+00
 0.7625855968602E+00
 0.7808340111325E+00
 0.7969730290013E+00
 0.8105750409143E+00
 0.8213629508463E+00
 0.8291994087924E+00
 0.8340616948735E+00
 0.8360105170311E+00
 0.8351595220371E+00
 0.8316499712605E+00
 0.8256326965033E+00
 0.8172577620669E+00
 0.8066712508606E+00
 0.7940181023038E+00
 0.7794503670832E+00
 0.7631390765636E+00
 0.7452896975218E+00
 0.7261605340358E+00
 0.7060825867886E+00
 0.6854814498792E+00
 0.6649018549481E+00
 0.6450388887307E+00
 0.6267674796673E+00
 0.6111665198993E+00
 0.5995494875582E+00
 0.5934976499139E+00
 0.5948773908962E+00
 0.6058072068392E+00
 0.6285287262415E+00
 0.6651493755742E+00
 0.7172725863416E+00
 0.7856043295639E+00
 0.8696423708520E+00
 0.9675103081989E+00
 0.1075977991043E+01
 0.1190673761029E+01
 0.1306467218603E+01
 0.1417970582556E+01
 0.7386840203289E+00
 0.7611137500048E+00
 0.7833922914770E+00
 0.8047102114162E+00
 0.8243179837550E+00
 0.8415923926782E+00
 0.8560765391419E+00
 0.8674895480142E+00
 0.8757103759293E+00
 0.8807453407552E+00
 0.8826896674363E+00
 0.8816911018421E+00
 0.8779205101207E+00
 0.8715514896519E+00
 0.8627490550874E+00
 0.8516663965711E+00
 0.8384482811801E+00
 0.8232402399645E+00
 0.8062015637330E+00
 0.7875220621555E+00
 0.7674419353839E+00
 0.7462732439193E+00
 0.7244236132418E+00
 0.7024231300927E+00
 0.6809595578584E+00
 0.6609104768141E+00
 0.6433678845071E+00
 0.6296714958679E+00
 0.6214486557355E+00
 0.6206433998697E+00
 0.6294996606588E+00
 0.6504474698178E+00
 0.6858471774598E+00
 0.7375925781860E+00
 0.8066601989267E+00
 0.8927289921389E+00
 0.9939546947003E+00
 0.1106958523333E+01
 0.1227045042478E+01
 0.1348626482098E+01
 0.1465792980758E+01
 0.7761333816913E+00
 0.8002385577638E+00
 0.8241889707098E+00
 0.8470799439733E+00
 0.8680796006194E+00
 0.8865071239491E+00
 0.9018776881619E+00
 0.9139102684737E+00
 0.9225048759235E+00
 0.9277016482637E+00
 0.9296343969366E+00
 0.9284879694028E+00
 0.9244647267521E+00
 0.9177619420644E+00
 0.9085597031412E+00
 0.8970178187877E+00
 0.8832799065589E+00
 0.8674835732138E+00
 0.8497745494109E+00
 0.8303247312406E+00
 0.8093534818384E+00
 0.7871506724592E+00
 0.7641021666127E+00
 0.7407190857595E+00
 0.7176771664298E+00
 0.6958517125699E+00
 0.6763427477965E+00
 0.6605110860085E+00
 0.6500251383441E+00
 0.6469022391952E+00
 0.6535096541242E+00
 0.6724695392001E+00
 0.7064099235157E+00
 0.7575443210367E+00
 0.8271610059124E+00
 0.9151626453885E+00
 0.1019766801527E+01
 0.1137451405230E+01
 0.1263174157595E+01
 0.1390843115116E+01
 0.1513966132775E+01
 0.8136832940195E+00
 0.8395271861326E+00
 0.8652094885432E+00
 0.8897228676693E+00
 0.9121478285870E+00
 0.9317442647866E+00
 0.9480013701201E+00
 0.9606425287145E+00
 0.9695945215689E+00
 0.9749368791972E+00
 0.9768465930575E+00
 0.9755488836149E+00
 0.9712795768838E+00
 0.9642605014485E+00
 0.9546868673127E+00
 0.9427245408282E+00
 0.9285149642318E+00
 0.9121863960126E+00
 0.8938691908790E+00
 0.8737150882681E+00
 0.8519198855112E+00
 0.8287479867202E+00
 0.8045596061428E+00
 0.7798423802933E+00
 0.7552549724612E+00
 0.7316649601471E+00
 0.7101745813123E+00
 0.6921596565026E+00
 0.6793234788029E+00
 0.6737509190312E+00
 0.6779287942376E+00
 0.6946733323829E+00
 0.7268939796692E+00
 0.7771546600111E+00
 0.8471015073742E+00
 0.9369112401059E+00
 0.1044900772407E+01
 0.1167414489093E+01
 0.1299039035671E+01
 0.1433125695518E+01
 0.1562532218805E+01
 0.8513467835313E+00
 0.8789995443047E+00
 0.9064797902497E+00
 0.9326686489808E+00
 0.9565529032444E+00
 0.9773314889383E+00
 0.9944703034303E+00
 0.1007702793891E+01
 0.1016989315215E+01
 0.1022455207685E+01
 0.1024325756087E+01
 0.1022870056147E+01
 0.1018359400347E+01
 0.1011040980224E+01
 0.1001125075600E+01
 0.9887829652732E+00
 0.9741528449246E+00
 0.9573521963043E+00
 0.9384942097469E+00
 0.9177082685799E+00
 0.8951639156270E+00
 0.8710968220214E+00
 0.8458376164923E+00
 0.8198457771583E+00
 0.7937575431655E+00
 0.7684268128782E+00
 0.7449514798971E+00
 0.7247152615033E+00
 0.7094488553734E+00
 0.7012973152917E+00
 0.7028612759176E+00
 0.7171507736250E+00
 0.7473687699422E+00
 0.7964610813366E+00
 0.8664828511340E+00
 0.9579441495768E+00
 0.1069308447940E+01
 0.1196802223961E+01
 0.1334615960702E+01
 0.1475484688272E+01
 0.1611539620924E+01
 0.8891377628146E+00
 0.9186770014043E+00
 0.9480277030652E+00
 0.9759488776261E+00
 0.1001326566038E+01
 0.1023297195810E+01
 0.1041306988590E+01
 0.1055106407593E+01
 0.1064697410909E+01
 0.1070258460343E+01
 0.1072068748931E+01
 0.1070444925955E+01
 0.1065695721112E+01
 0.1058094372558E+01
 0.1047866043585E+01
 0.1035186683519E+01
 0.1020190128845E+01
 0.1002981668610E+01
 0.9836555941765E+00
 0.9623168105481E+00
 0.9391059974091E+00
 0.9142268857861E+00
 0.8879765870119E+00
 0.8607816510185E+00
 0.8332502913370E+00
 0.8062163091887E+00
 0.7807659504928E+00
 0.7582826496290E+00
 0.7405156186581E+00
 0.7296609557499E+00
 0.7284251326327E+00
 0.7400090381972E+00
 0.7679188693821E+00
 0.8155138532531E+00
 0.8853142524343E+00
 0.9782329765132E+00
 0.1092939190616E+01
 0.1225565040176E+01
 0.1369879172874E+01
 0.1517932481435E+01
 0.1661043340098E+01
 0.9270712307129E+00
 0.9585827083930E+00
 0.9898833336186E+00
 0.1019597444475E+01
 0.1046502325922E+01
 0.1069670601360E+01
 0.1088533630767E+01
 0.1102867391004E+01
 0.1112724850548E+01
 0.1118345842373E+01
 0.1120069547027E+01
 0.1118263946442E+01
 0.1113277069183E+01
 0.1105408698685E+01
 0.1094898524401E+01
 0.1081926313853E+01
 0.1066620395743E+01
 0.1049072482469E+01
 0.1029356315104E+01
 0.1007550312247E+01
 0.9837638057160E+00
 0.9581654899436E+00
 0.9310150928230E+00
 0.9027014398065E+00
 0.8737989380493E+00
 0.8451144669930E+00
 0.8177146018162E+00
 0.7929732103396E+00
 0.7726476024206E+00
 0.7589737948244E+00
 0.7547535548891E+00
 0.7633724534059E+00
 0.7886464082977E+00
 0.8343785996575E+00
 0.9036151211581E+00
 0.9977526157699E+00
 0.1115739743141E+01
 0.1253648602514E+01
 0.1404800428319E+01
 0.1560483508590E+01
 0.1711105411550E+01
 0.9651635077873E+00
 0.9987419739399E+00
 0.1032079525580E+01
 0.1063650962931E+01
 0.1092115729332E+01
 0.1116481798794E+01
 0.1136172004534E+01
 0.1150998173551E+01
 0.1161075235512E+01
 0.1166713611361E+01
 0.1168318949867E+01
 0.1166314345556E+01
 0.1161088782408E+01
 0.1152968831670E+01
 0.1142208139912E+01
 0.1128989316580E+01
 0.1113434005629E+01
 0.1095619013375E+01
 0.1075595995194E+01
 0.1053415029382E+01
 0.1029151786306E+01
 0.1002936994557E+01
 0.9749892674341E+00
 0.9456549654903E+00
 0.9154688195629E+00
 0.8852036397565E+00
 0.8558976412878E+00
 0.8289047297505E+00
 0.8059782713708E+00
 0.7893808840328E+00
 0.7819961966196E+00
 0.7873845172540E+00
 0.8096737632482E+00
 0.8531393308353E+00
 0.9214177064066E+00
 0.1016482668437E+01
 0.1137654078102E+01
 0.1280992774710E+01
 0.1439348372772E+01
 0.1603154400318E+01
 0.1761795134154E+01
 0.1003432517295E+01
 0.1039182714223E+01
 0.1074652402709E+01
 0.1108149257804E+01
 0.1138204657822E+01
 0.1163761805345E+01
 0.1184243279140E+01
 0.1199509280558E+01
 0.1209749369305E+01
 0.1215354744503E+01
 0.1216804308833E+01
 0.1214579920885E+01
 0.1209112856210E+01
 0.1200756379636E+01
 0.1189777270608E+01
 0.1176359867938E+01
 0.1160617935990E+01
 0.1142612126034E+01
 0.1122370624186E+01
 0.1099913511686E+01
 0.1075280705041E+01
 0.1048562265233E+01
 0.1019932170304E+01
 0.9896897257387E+00
 0.9583241366953E+00
 0.9265667853339E+00
 0.8954182601898E+00
 0.8662010251038E+00
 0.8406507646279E+00
 0.8210409911512E+00
 0.8103205241124E+00
 0.8122101002002E+00
 0.8311466274025E+00
 0.8719020770470E+00
 0.9387704694729E+00
 0.1034409439413E+01
 0.1158623383336E+01
 0.1307530290821E+01
 0.1473487765703E+01
 0.1645964440004E+01
 0.1813189279708E+01
 0.1041898120655E+01
 0.1079935987156E+01
 0.1117642003253E+01
 0.1153135914111E+01
 0.1184809627560E+01
 0.1211542553929E+01
 0.1232767754654E+01
 0.1248408926332E+01
 0.1258744820850E+01
 0.1264258550295E+01
 0.1265509222139E+01
 0.1263040818366E+01
 0.1257327786252E+01
 0.1248749564062E+01
 0.1237584940102E+01
 0.1224018723900E+01
 0.1208155601881E+01
 0.1190038931707E+01
 0.1169672237979E+01
 0.1147044190986E+01
 0.1122157134241E+01
 0.1095058049610E+01
 0.1065873050424E+01
 0.1034850052532E+01
 0.1002427036285E+01
 0.9692865289576E+00
 0.9363817784322E+00
 0.9049913189781E+00
 0.8768176887213E+00
 0.8541270225640E+00
 0.8399130739719E+00
 0.8380377210464E+00
 0.8532373937544E+00
 0.8907991300611E+00
 0.9557422811837E+00
 0.1051528661832E+01
 0.1178586213872E+01
 0.1333184861566E+01
 0.1507178175371E+01
 0.1688936286706E+01
 0.1865371991080E+01
 0.1080582523136E+01
 0.1121036635654E+01
 0.1161093031753E+01
 0.1198658901575E+01
 0.1231974091449E+01
 0.1259856820207E+01
 0.1281764498997E+01
 0.1297702509919E+01
 0.1308055416028E+01
 0.1313410241626E+01
 0.1314413220482E+01
 0.1311673322277E+01
 0.1305708434035E+01
 0.1296923125612E+01
 0.1285606726888E+01
 0.1271943107761E+01
 0.1256026694127E+01
 0.1237882556362E+01
 0.1217488599772E+01
 0.1194800960875E+01
 0.1169782917826E+01
 0.1142436315916E+01
 0.1112836549437E+01
 0.1081176180094E+01
 0.1047836563276E+01
 0.1013444051319E+01
 0.9788945679433E+00
 0.9454093567218E+00
 0.9146406477819E+00
 0.8888262263450E+00
 0.8709805992296E+00
 0.8650818920144E+00
 0.8761488832318E+00
 0.9099940007301E+00
 0.9724276679138E+00
 0.1067849284053E+01
 0.1197479107891E+01
 0.1357868605978E+01
 0.1540371716079E+01
 0.1732097166301E+01
 0.1918434342925E+01
 0.1119510767276E+01
 0.1162524069960E+01
 0.1205055758166E+01
 0.1244771290070E+01
 0.1279744739267E+01
 0.1308738068698E+01
 0.1331250870903E+01
 0.1347392009582E+01
 0.1357670667172E+01
 0.1362790491447E+01
 0.1363491472180E+01
 0.1360449689593E+01
 0.1354225950830E+01
 0.1345248294423E+01
 0.1333814741644E+01
 0.1320106661239E+01
 0.1304207076950E+01
 0.1286121962597E+01
 0.1265802927922E+01
 0.1243172794514E+01
 0.1218154663526E+01
 0.1190703603416E+01
 0.1160841894758E+01
 0.1128703271384E+01
 0.1094607528333E+01
 0.1059117837666E+01
 0.1023062775650E+01
 0.9875922670756E+00
 0.9542894868359E+00
 0.9253401320280E+00
 0.9037510527097E+00
 0.8935854931791E+00
 0.9001184124639E+00
 0.9296871703655E+00
 0.9889533196401E+00
 0.1083398694012E+01
 0.1215238152604E+01
 0.1381478822151E+01
 0.1573008937030E+01
 0.1775480533176E+01
 0.1972473376418E+01
 0.1158711337381E+01
 0.1204443217489E+01
 0.1249587083166E+01
 0.1291532044656E+01
 0.1328171748697E+01
 0.1358220147481E+01
 0.1381241853084E+01
 0.1397475206355E+01
 0.1407575079028E+01
 0.1412374913884E+01
 0.1412714449911E+01
 0.1409337966284E+01
 0.1402847691059E+01
 0.1393692748892E+01
 0.1382177587176E+01
 0.1368479369523E+01
 0.1352668649032E+01
 0.1334731723118E+01
 0.1314593562337E+01
 0.1292143286730E+01
 0.1267263143353E+01
 0.1239860261515E+01
 0.1209901955309E+01
 0.1177460271212E+01
 0.1142789152840E+01
 0.1106382140400E+01
 0.1068990684256E+01
 0.1031678984236E+01
 0.9959410432192E+00
 0.9638840038298E+00
 0.9384741833331E+00
 0.9238219774675E+00
 0.9254220555918E+00
 0.9501225998587E+00
 0.1005486005287E+01
 0.1098229688314E+01
 0.1231802126413E+01
 0.1403894523657E+01
 0.1605011187891E+01
 0.1819127151868E+01
 0.2027589773133E+01
 0.1198216909495E+01
 0.1246845698038E+01
 0.1294751828530E+01
 0.1339006934693E+01
 0.1377308993049E+01
 0.1408336828576E+01
 0.1431749207985E+01
 0.1447944776940E+01
 0.1457747398980E+01
 0.1462133559245E+01
 0.1462047660880E+01
 0.1458301896036E+01
 0.1451537232278E+01
 0.1442220686566E+01
 0.1430660431525E+01
 0.1417027598368E+01
 0.1401379314184E+01
 0.1383681900298E+01
 0.1363833732465E+01
 0.1341690292279E+01
 0.1317092783221E+01
 0.1289899767462E+01
 0.1260022358182E+01
 0.1227468790585E+01
 0.1192423698267E+01
 0.1155305357822E+01
 0.1116778899032E+01
 0.1077808391816E+01
 0.1039777525349E+01
 0.1004685879103E+01
 0.9754217796079E+00
 0.9560974270158E+00
 0.9523791453734E+00
 0.9715951089256E+00
 0.1022242241024E+01
 0.1112429666323E+01
 0.1247118007843E+01
 0.1424974778520E+01
 0.1636268104137E+01
 0.1863082643198E+01
 0.2083882341245E+01
 0.1238065287250E+01
 0.1289791274520E+01
 0.1340624283547E+01
 0.1387269533230E+01
 0.1427214123310E+01
 0.1459121084651E+01
 0.1482780351907E+01
 0.1498787170741E+01
 0.1508159742504E+01
 0.1512030359958E+01
 0.1511451374552E+01
 0.1507300847608E+01
 0.1500254418316E+01
 0.1490792914114E+01
 0.1479225092343E+01
 0.1465714133031E+01
 0.1450302943347E+01
 0.1432937905479E+01
 0.1413491292462E+01
 0.1391785518050E+01
 0.1367621092364E+01
 0.1340807967215E+01
 0.1311200505592E+01
 0.1278741856673E+01
 0.1243544908068E+01
 0.1205948147443E+01
 0.1166522162262E+01
 0.1126116962548E+01
 0.1085984252254E+01
 0.1047984878376E+01
 0.1014887214104E+01
 0.9907521188686E+00
 0.9813567239218E+00
 0.9944584751195E+00
 0.1039499735629E+01
 0.1126132699277E+01
 0.1261148485058E+01
 0.1444562107891E+01
 0.1666622441702E+01
 0.1907381182822E+01
 0.2141431766804E+01
 0.1278300588620E+01
 0.1333349658109E+01
 0.1387290077371E+01
 0.1436402310253E+01
 0.1477948463874E+01
 0.1510604028119E+01
 0.1534336899577E+01
 0.1549981263094E+01
 0.1558776616966E+01
 0.1562022566395E+01
 0.1560880391302E+01
 0.1556289803174E+01
 0.1548955465912E+01
 0.1539366995642E+01
 0.1527830172094E+01
 0.1514498260023E+01
 0.1499399370992E+01
 0.1482460383404E+01
 0.1463528471341E+01
 0.1442394119722E+01
 0.1418818086679E+01
 0.1392562298359E+01
 0.1363424556749E+01
 0.1331282598724E+01
 0.1296176336344E+01
 0.1258361347128E+01
 0.1218306857842E+01
 0.1176735928925E+01
 0.1134746738718E+01
 0.1094028702114E+01
 0.1057184129563E+01
 0.1028161415411E+01
 0.1012773755730E+01
 0.1019134233793E+01
 0.1057610770412E+01
 0.1139535045298E+01
 0.1273883052671E+01
 0.1462486524687E+01
 0.1695876259091E+01
 0.1951996066167E+01
 0.2200222363302E+01
 0.1318974781370E+01
 0.1377602738207E+01
 0.1434848490914E+01
 0.1486497800705E+01
 0.1529576638187E+01
 0.1562813420919E+01
 0.1586412833971E+01
 0.1601496796459E+01
 0.1609553894905E+01
 0.1612060241578E+01
 0.1610283924982E+01
 0.1605219479561E+01
 0.1597593205605E+01
 0.1587897530810E+01
 0.1576431318213E+01
 0.1563335969975E+01
 0.1548624509114E+01
 0.1532205210038E+01
 0.1513901731315E+01
 0.1493474401241E+01
 0.1470645810254E+01
 0.1445131106650E+01
 0.1416672494969E+01
 0.1385082999333E+01
 0.1350329700247E+01
 0.1312583843657E+01
 0.1272208337410E+01
 0.1229788087733E+01
 0.1186247170188E+01
 0.1143070260719E+01
 0.1102644107307E+01
 0.1068735706585E+01
 0.1047104920785E+01
 0.1046120754331E+01
 0.1077018414171E+01
 0.1152912771508E+01
 0.1285357912154E+01
 0.1478564057741E+01
 0.1723806144789E+01
 0.1996930786700E+01
 0.2259549482537E+01
 0.1360150865941E+01
 0.1422653067878E+01
 0.1483425004366E+01
 0.1537674107829E+01
 0.1582184646336E+01
 0.1615794758478E+01
 0.1639019306437E+01
 0.1653323303439E+01
 0.1660471883516E+01
 0.1662123294300E+01
 0.1659646406786E+01
 0.1654080802782E+01
 0.1646165240735E+01
 0.1636388108287E+01
 0.1625037151718E+01
 0.1612240092042E+01
 0.1597994954154E+01
 0.1582192865401E+01
 0.1564636218146E+01
 0.1545057659122E+01
 0.1523143870615E+01
 0.1498565113577E+01
 0.1471009670103E+01
 0.1440227515040E+01
 0.1406114406387E+01
 0.1368757616213E+01
 0.1328410815083E+01
 0.1285511526106E+01
 0.1240790519062E+01
 0.1195494289415E+01
 0.1151741414869E+01
 0.1113040423786E+01
 0.1084992311369E+01
 0.1076093458832E+01
 0.1098340968439E+01
 0.1166695254468E+01
 0.1295693981924E+01
 0.1492691711305E+01
 0.1750165332329E+01
 0.2042330686190E+01
 0.2321327512885E+01
 0.1401901762963E+01
 0.1468616488259E+01
 0.1533154842159E+01
 0.1590047356321E+01
 0.1635840720891E+01
 0.1669562132937E+01
 0.1692127511316E+01
 0.1705406391011E+01
 0.1711465588648E+01
 0.1712145728275E+01
 0.1708905455095E+01
 0.1702816233976E+01
 0.1694618224761E+01
 0.1684788097163E+01
 0.1673598095186E+01
 0.1661160633941E+01
 0.1647459267819E+01
 0.1632370049520E+01
 0.1615677097780E+01
 0.1597088653538E+01
 0.1576258529642E+01
 0.1552814724851E+01
 0.1526394077149E+01
 0.1496686284837E+01
 0.1463518929349E+01
 0.1426897917445E+01
 0.1386967549897E+01
 0.1344011841981E+01
 0.1298552071830E+01
 0.1251565195385E+01
 0.1204848487712E+01
 0.1161569007435E+01
 0.1127047962628E+01
 0.1109748623550E+01
 0.1122267529218E+01
 0.1181396193537E+01
 0.1305070856421E+01
 0.1504639458038E+01
 0.1774888224897E+01
 0.2087136834380E+01
 0.2392362424978E+01
 0.1444316197185E+01
 0.1515628237600E+01
 0.1584188744028E+01
 0.1643733865033E+01
 0.1690593904554E+01
 0.1724095053582E+01
 0.1745665703239E+01
 0.1757645902574E+01
 0.1762424060381E+01
 0.1762015801852E+01
 0.1757952447119E+01
 0.1751320458800E+01
 0.1742848485684E+01
 0.1732993095979E+01
 0.1722006569677E+01
 0.1709984655742E+01
 0.1696897445897E+01
 0.1682608646563E+01
 0.1666887901544E+01
 0.1649423215755E+01
 0.1629839454895E+01
 0.1607725801097E+01
 0.1582670994746E+01
 0.1554308439310E+01
 0.1522402541539E+01
 0.1486883127452E+01
 0.1447788517915E+01
 0.1405247401295E+01
 0.1359560288658E+01
 0.1311408130955E+01
 0.1262216947157E+01
 0.1214727375046E+01
 0.1173847216426E+01
 0.1147813794915E+01
 0.1149592327130E+01
 0.1197688160043E+01
 0.1313776679323E+01
 0.1514281369561E+01
 0.1797355248222E+01
 0.2132739754331E+01
 0.2466390783578E+01
 0.1487503377208E+01
 0.1563858656622E+01
 0.1636715115318E+01
 0.1698876661224E+01
 0.1746505568349E+01
 0.1779377492565E+01
 0.1799567591422E+01
 0.1809953917797E+01
 0.1813257287517E+01
 0.1811650965922E+01
 0.1806714938693E+01
 0.1799530086511E+01
 0.1790799082217E+01
 0.1780949611340E+01
 0.1770209680759E+01
 0.1758657423726E+01
 0.1746251045617E+01
 0.1732845354318E+01
 0.1718200189782E+01
 0.1701988457614E+01
 0.1683810926781E+01
 0.1663222185920E+01
 0.1639766933394E+01
 0.1613027238916E+01
 0.1582710983864E+01
 0.1548679746156E+01
 0.1510872769684E+01
 0.1469266110937E+01
 0.1423933813870E+01
 0.1375240735020E+01
 0.1324197467572E+01
 0.1273034829765E+01
 0.1226104228514E+01
 0.1191192817359E+01
 0.1181332178629E+01
 0.1216491996040E+01
 0.1322325828316E+01
 0.1521513712698E+01
 0.1817316847910E+01
 0.2178893033122E+01
 0.2543965272884E+01
 0.1531598527393E+01
 0.1613516806813E+01
 0.1690957149432E+01
 0.1755631549338E+01
 0.1803625725444E+01
 0.1835368769789E+01
 0.1853740977608E+01
 0.1862222030780E+01
 0.1863861653211E+01
 0.1860960755460E+01
 0.1855116431256E+01
 0.1847379945155E+01
 0.1838412401070E+01
 0.1828603772726E+01
 0.1818153862065E+01
 0.1807122766959E+01
 0.1795459004208E+01
 0.1783012683554E+01
 0.1769539442939E+01
 0.1754703296324E+01
 0.1738086812135E+01
 0.1719215038959E+01
 0.1697593331313E+01
 0.1672758221217E+01
 0.1644369245346E+01
 0.1612230112600E+01
 0.1576191575991E+01
 0.1536084745057E+01
 0.1491758168830E+01
 0.1443249136442E+01
 0.1391118397072E+01
 0.1337010963012E+01
 0.1284575918604E+01
 0.1240898748583E+01
 0.1218698753214E+01
 0.1239002606327E+01
 0.1331484060043E+01
 0.1526356389759E+01
 0.1834347857593E+01
 0.2225150499657E+01
 0.2625741065422E+01
 0.1576771190087E+01
 0.1664861918786E+01
 0.1747179742746E+01
 0.1814164478506E+01
 0.1861984080521E+01
 0.1891994479829E+01
 0.1908062004584E+01
 0.1914319028132E+01
 0.1914119766519E+01
 0.1909847591292E+01
 0.1903077459280E+01
 0.1894804154369E+01
 0.1885631117855E+01
 0.1875902171104E+01
 0.1865785607747E+01
 0.1855323715023E+01
 0.1844458171260E+01
 0.1833039345304E+01
 0.1820825243790E+01
 0.1807478378979E+01
 0.1792570217070E+01
 0.1775602245193E+01
 0.1756045749469E+01
 0.1733398153395E+01
 0.1707280144906E+01
 0.1677450353604E+01
 0.1643685302013E+01
 0.1605684074280E+01
 0.1563078224303E+01
 0.1515576738219E+01
 0.1463270192567E+01
 0.1407156620976E+01
 0.1350043932853E+01
 0.1298045997421E+01
 0.1263115920102E+01
 0.1266745142031E+01
 0.1342374736718E+01
 0.1529003154435E+01
 0.1847838241093E+01
 0.2271035322679E+01
 0.2712473096175E+01
 0.1623236953058E+01
 0.1718218864456E+01
 0.1805697286857E+01
 0.1874645651686E+01
 0.1921576883708E+01
 0.1949134996988E+01
 0.1962368968795E+01
 0.1966089111048E+01
 0.1963900994223E+01
 0.1958208122971E+01
 0.1950517031530E+01
 0.1941737416984E+01
 0.1932399295350E+01
 0.1922792793322E+01
 0.1913052286880E+01
 0.1903203222468E+01
 0.1893183942084E+01
 0.1882850750765E+01
 0.1871971567020E+01
 0.1860216085306E+01
 0.1847153177069E+01
 0.1832267837473E+01
 0.1815003098770E+01
 0.1794824085375E+01
 0.1771323118147E+01
 0.1744228648742E+01
 0.1713260667506E+01
 0.1678004332947E+01
 0.1637890712565E+01
 0.1592312251198E+01
 0.1540887418331E+01
 0.1483929488628E+01
 0.1423287285158E+01
 0.1363831021535E+01
 0.1316227554506E+01
 0.1301636922583E+01
 0.1356609244792E+01
 0.1529928352393E+01
 0.1857065258107E+01
 0.2315956507178E+01
 0.2805064614416E+01
 0.1671274332304E+01
 0.1773999345615E+01
 0.1866881778825E+01
 0.1937238142359E+01
 0.1982347980464E+01
 0.2006611373554E+01
 0.2016456220473E+01
 0.2017351158530E+01
 0.2013062958119E+01
 0.2005935217219E+01
 0.1997354458853E+01
 0.1988116535912E+01
 0.1978663618118E+01
 0.1969226051544E+01
 0.1959903043005E+01
 0.1950704990083E+01
 0.1941571012569E+01
 0.1932369656681E+01
 0.1922887217473E+01
 0.1912810646325E+01
 0.1901716404544E+01
 0.1889081432080E+01
 0.1874326892770E+01
 0.1856892515610E+01
 0.1836353267691E+01
 0.1812423938991E+01
 0.1784788605120E+01
 0.1752941339419E+01
 0.1716137226749E+01
 0.1673477567798E+01
 0.1624128936751E+01
 0.1567714388210E+01
 0.1505044026974E+01
 0.1439496282829E+01
 0.1379889232755E+01
 0.1346046688019E+01
 0.1376448404077E+01
 0.1530087453335E+01
 0.1861254543070E+01
 0.2359120280310E+01
 0.2904623915212E+01
 0.1721249635387E+01
 0.1832731201309E+01
 0.1931169825272E+01
 0.2002077386642E+01
 0.2044162044456E+01
 0.2064168839077E+01
 0.2070069077061E+01
 0.2067899667120E+01
 0.2061454251906E+01
 0.2052920655654E+01
 0.2043511565200E+01
 0.2033882132544E+01
 0.2024374735545E+01
 0.2015155881217E+01
 0.2006289755832E+01
 0.1997774365961E+01
 0.1989554248753E+01
 0.1981516964012E+01
 0.1973476436838E+01
 0.1965148394786E+01
 0.1956129082726E+01
 0.1945897628600E+01
 0.1933860454660E+01
 0.1919438610600E+01
 0.1902200669423E+01
 0.1881865151598E+01
 0.1858102884005E+01
 0.1830343550099E+01
 0.1797698152279E+01
 0.1759016162386E+01
 0.1713057223958E+01
 0.1658789099867E+01
 0.1595960977628E+01
 0.1526271686718E+01
 0.1456132544666E+01
 0.1402838509459E+01
 0.1404999076028E+01
 0.1531224004901E+01
 0.1859692205971E+01
 0.2399417970855E+01
 0.3012533905985E+01
 0.1773654534941E+01
 0.1895099262232E+01
 0.1999065302291E+01
 0.2069235740726E+01
 0.2106767761542E+01
 0.2121458956531E+01
 0.2122901247923E+01
 0.2117508114830E+01
 0.2108918588925E+01
 0.2099058565764E+01
 0.2088915257576E+01
 0.2078980532750E+01
 0.2069488681769E+01
 0.2060540880996E+01
 0.2052168043514E+01
 0.2044359311293E+01
 0.2037069667994E+01
 0.2030212686955E+01
 0.2023639717665E+01
 0.2017108189215E+01
 0.2010248714415E+01
 0.2002555325327E+01
 0.1993427987209E+01
 0.1982275393205E+01
 0.1968669914014E+01
 0.1952351023267E+01
 0.1932999691768E+01
 0.1910010359243E+01
 0.1882388028868E+01
 0.1848782850490E+01
 0.1807618138566E+01
 0.1757287461401E+01
 0.1696532268249E+01
 0.1625288404632E+01
 0.1547085659519E+01
 0.1475380267708E+01
 0.1446432756514E+01
 0.1536323099912E+01
 0.1851960673260E+01
 0.2435283223562E+01
 0.3130551032976E+01
 0.1829164523087E+01
 0.1962002525659E+01
 0.2071130696916E+01
 0.2138662971162E+01
 0.2169749147179E+01
 0.2178023079096E+01
 0.2174596946367E+01
 0.2165935485635E+01
 0.2155300491219E+01
 0.2144249564200E+01
 0.2133500414769E+01
 0.2123365785268E+01
 0.2113968348796E+01
 0.2105345480663E+01
 0.2097498298903E+01
 0.2090411431780E+01
 0.2084055546175E+01
 0.2078377133949E+01
 0.2073274903739E+01
 0.2068562109585E+01
 0.2063921088041E+01
 0.2058876928719E+01
 0.2052833410295E+01
 0.2045192801406E+01
 0.2035539871584E+01
 0.2023650649737E+01
 0.2009238437787E+01
 0.1991692022936E+01
 0.1969952904375E+01
 0.1942535877677E+01
 0.1907622851166E+01
 0.1863162528949E+01
 0.1807030071200E+01
 0.1737463223256E+01
 0.1654830219225E+01
 0.1567480187596E+01
 0.1506195987248E+01
 0.1550254696463E+01
 0.1838425239027E+01
 0.2464521171361E+01
 0.3260950638280E+01
 0.1888732889011E+01
 0.2034633865460E+01
 0.2147952459356E+01
 0.2210088767954E+01
 0.2232465244591E+01
 0.2233282404408E+01
 0.2224760386875E+01
 0.2212936397776E+01
 0.2200452446005E+01
 0.2188405512753E+01
 0.2177213002591E+01
 0.2167001740897E+01
 0.2157784960055E+01
 0.2149541095393E+01
 0.2142246724137E+01
 0.2135887042840E+01
 0.2130453627853E+01
 0.2125932305442E+01
 0.2122278634604E+01
 0.2119376524560E+01
 0.2116980424125E+01
 0.2114667390606E+01
 0.2111858764130E+01
 0.2107956383613E+01
 0.2102563555771E+01
 0.2095504827109E+01
 0.2086544002152E+01
 0.2075091518539E+01
 0.2060070116066E+01
 0.2039932202793E+01
 0.2012733756670E+01
 0.1976153239894E+01
 0.1927433636825E+01
 0.1863358556443E+01
 0.1781176181183E+01
 0.1683190703851E+01
 0.1591150129230E+01
 0.1580629641258E+01
 0.1821197830864E+01
 0.2484148910640E+01
 0.3406750184826E+01
 0.1953747582068E+01
 0.2114588949636E+01
 0.2230049792563E+01
 0.2282867507168E+01
 0.2293984418622E+01
 0.2286543824997E+01
 0.2272975180734E+01
 0.2258274657444E+01
 0.2244243301761E+01
 0.2231454735155E+01
 0.2220013296185E+01
 0.2209864119728E+01
 0.2200919499249E+01
 0.2193107236311E+01
 0.2186386341293E+01
 0.2180748249021E+01
 0.2176210424271E+01
 0.2172803520784E+01
 0.2170548222566E+01
 0.2169413709484E+01
 0.2169249866997E+01
 0.2169713053788E+01
 0.2170261927327E+01
 0.2170305304229E+01
 0.2169467922211E+01
 0.2167628302057E+01
 0.2164610756193E+01
 0.2159868719666E+01
 0.2152350898105E+01
 0.2140526729840E+01
 0.2122456314428E+01
 0.2095758550055E+01
 0.2057364825001E+01
 0.2003033726123E+01
 0.1927351847145E+01
 0.1826392018841E+01
 0.1709511026989E+01
 0.1638827677418E+01
 0.1805962733374E+01
 0.2490396651723E+01
 0.3572077113146E+01
 0.2026304646288E+01
 0.2204006441000E+01
 0.2317663146852E+01
 0.2355741552252E+01
 0.2353033633628E+01
 0.2337034896056E+01
 0.2318834112049E+01
 0.2301739241959E+01
 0.2286567610448E+01
 0.2273347444691E+01
 0.2261879046349E+01
 0.2251942476944E+01
 0.2243364035044E+01
 0.2236032535767E+01
 0.2229897944299E+01
 0.2224964002044E+01
 0.2221278558426E+01
 0.2218921247223E+01
 0.2217984027090E+01
 0.2218534246299E+01
 0.2220542599975E+01
 0.2223780325192E+01
 0.2227773262248E+01
 0.2231949104786E+01
 0.2235953289243E+01
 0.2239713047457E+01
 0.2243108747917E+01
 0.2245647274739E+01
 0.2246346056273E+01
 0.2243775832282E+01
 0.2236138452503E+01
 0.2221223422274E+01
 0.2196038327038E+01
 0.2155911945893E+01
 0.2093644947198E+01
 0.2000065505637E+01
 0.1870319272805E+01
 0.1741023968408E+01
 0.1805235019235E+01
 0.2479328474908E+01
 0.3762844041102E+01
 0.2109709905439E+01
 0.2305717587007E+01
 0.2410289309243E+01
 0.2426509888309E+01
 0.2408012411861E+01
 0.2383980821028E+01
 0.2361974823251E+01
 0.2343161580501E+01
 0.2327355594291E+01
 0.2314060967861E+01
 0.2302808418847E+01
 0.2293241959726E+01
 0.2285122869952E+01
 0.2278315635949E+01
 0.2272770945079E+01
 0.2268511086949E+01
 0.2265618090998E+01
 0.2264223049528E+01
 0.2264492329874E+01
 0.2266600486903E+01
 0.2270664066927E+01
 0.2276614323263E+01
 0.2284090610733E+01
 0.2292562297046E+01
 0.2301691857385E+01
 0.2311432716305E+01
 0.2321692577997E+01
 0.2332024630505E+01
 0.2341554774757E+01
 0.2349044969336E+01
 0.2352978134871E+01
 0.2351541554720E+01
 0.2342234475769E+01
 0.2320684032686E+01
 0.2279087751862E+01
 0.2205261207111E+01
 0.2081936370723E+01
 0.1908749799829E+01
 0.1843649898832E+01
 0.2449386614861E+01
 0.3988181032166E+01
 0.2209458708482E+01
 0.2423288154398E+01
 0.2505687343592E+01
 0.2491657489117E+01
 0.2457169455666E+01
 0.2426717470404E+01
 0.2402111521292E+01
 0.2382434886814E+01
 0.2366582753132E+01
 0.2353604327665E+01
 0.2342822584561E+01
 0.2333784742290E+01
 0.2326213471178E+01
 0.2319965911440E+01
 0.2315004092398E+01
 0.2311375010644E+01
 0.2309197784030E+01
 0.2308655563962E+01
 0.2309988634514E+01
 0.2313481414781E+01
 0.2319416192679E+01
 0.2327938045251E+01
 0.2338871871385E+01
 0.2351775313220E+01
 0.2366324596432E+01
 0.2382448667218E+01
 0.2400013819289E+01
 0.2418585939144E+01
 0.2437436576656E+01
 0.2455619801860E+01
 0.2472038230902E+01
 0.2485478350435E+01
 0.2494308648756E+01
 0.2495249431564E+01
 0.2481299325931E+01
 0.2440064717735E+01
 0.2348896779377E+01
 0.2167656905881E+01
 0.1965312128775E+01
 0.2409398079663E+01
 0.4264039846629E+01
 0.2335307633772E+01
 0.2560466328358E+01
 0.2597815862079E+01
 0.2546266862097E+01
 0.2499067317756E+01
 0.2464773927880E+01
 0.2439063107781E+01
 0.2419536889917E+01
 0.2404276448422E+01
 0.2392022413176E+01
 0.2381967614774E+01
 0.2373611068784E+01
 0.2366667121336E+01
 0.2361003984734E+01
 0.2356606027613E+01
 0.2353550746564E+01
 0.2351996240005E+01
 0.2352176356752E+01
 0.2354401089828E+01
 0.2359059038048E+01
 0.2366605028361E+01
 0.2377453410093E+01
 0.2391724001737E+01
 0.2409159146275E+01
 0.2429455350649E+01
 0.2452418320675E+01
 0.2477738121186E+01
 0.2504922762450E+01
 0.2533426675419E+01
 0.2562718804737E+01
 0.2592267616581E+01
 0.2621609995737E+01
 0.2650260607653E+01
 0.2676701243595E+01
 0.2696445867040E+01
 0.2699341926335E+01
 0.2667161703074E+01
 0.2540647939051E+01
 0.2241714362830E+01
 0.2400943299769E+01
 0.4623895481325E+01
 0.2506152220972E+01
 0.2718000188519E+01
 0.2672938416422E+01
 0.2585365841593E+01
 0.2533196303321E+01
 0.2497805757635E+01
 0.2472827491773E+01
 0.2454537306567E+01
 0.2440522330867E+01
 0.2429398841487E+01
 0.2420315515405E+01
 0.2412779874437E+01
 0.2406529234570E+01
 0.2401462026886E+01
 0.2397595664637E+01
 0.2395043316622E+01
 0.2394002868876E+01
 0.2394755599586E+01
 0.2397673565090E+01
 0.2403235779497E+01
 0.2412053924428E+01
 0.2424847649367E+01
 0.2442186825100E+01
 0.2464198633528E+01
 0.2490640694697E+01
 0.2521007606962E+01
 0.2554568679937E+01
 0.2590657549203E+01
 0.2628956039131E+01
 0.2669504724051E+01
 0.2712522757464E+01
 0.2758381841094E+01
 0.2807840471144E+01
 0.2861507309641E+01
 0.2918971342588E+01
 0.2975806977790E+01
 0.3021302266870E+01
 0.3027649595275E+01
 0.2773713493607E+01
 0.2552574472332E+01
 0.5157483403816E+01
 0.2763442584270E+01
 0.2878177760290E+01
 0.2705630559747E+01
 0.2609304346243E+01
 0.2559159544052E+01
 0.2525797873913E+01
 0.2503616108651E+01
 0.2487594172369E+01
 0.2475472867291E+01
 0.2465855244682E+01
 0.2457965012141E+01
 0.2451368639211E+01
 0.2445859358332E+01
 0.2441383770301E+01
 0.2438002350217E+01
 0.2435868154887E+01
 0.2435218571067E+01
 0.2436377448654E+01
 0.2439768102932E+01
 0.2445940613450E+01
 0.2455623804918E+01
 0.2469814042753E+01
 0.2489709347676E+01
 0.2516243322068E+01
 0.2549374534845E+01
 0.2587911038677E+01
 0.2630277949265E+01
 0.2675474707323E+01
 0.2723477019379E+01
 0.2775097900319E+01
 0.2831566727312E+01
 0.2894202084355E+01
 0.2964665279440E+01
 0.3045859464520E+01
 0.3141771100510E+01
 0.3259116056978E+01
 0.3393967682083E+01
 0.3570267324467E+01
 0.3652561761327E+01
 0.3168835793907E+01
 0.6180739937979E+01
 0.3217937358821E+01
 0.2920343220167E+01
 0.2690873642697E+01
 0.2622082531836E+01
 0.2575990132820E+01
 0.2549603497007E+01
 0.2531688195999E+01
 0.2519008697546E+01
 0.2509332737502E+01
 0.2501554333458E+01
 0.2495039822873E+01
 0.2489473025368E+01
 0.2484730678562E+01
 0.2480824262993E+01
 0.2477865762032E+01
 0.2476051259952E+01
 0.2475656070888E+01
 0.2477040925458E+01
 0.2480667002876E+01
 0.2487131905641E+01
 0.2497232756629E+01
 0.2512113205333E+01
 0.2533617017149E+01
 0.2564406299244E+01
 0.2605074923847E+01
 0.2652883879231E+01
 0.2704750308538E+01
 0.2759158860753E+01
 0.2816495083517E+01
 0.2878596644922E+01
 0.2948045796941E+01
 0.3027453492009E+01
 0.3118668411417E+01
 0.3225390907804E+01
 0.3358476893999E+01
 0.3531777787057E+01
 0.3775065943769E+01
 0.4080094375079E+01
 0.4737360217149E+01
 0.4740942457699E+01
 0.9265779836218E+01
 0.5759262093914E-01
 0.6112099012996E-01
 0.6686504890158E-01
 0.7438960738120E-01
 0.8326527391995E-01
 0.9288779455906E-01
 0.1028057672660E+00
 0.1127363160368E+00
 0.1224264479903E+00
 0.1316437550331E+00
 0.1402148433294E+00
 0.1480172339607E+00
 0.1549348491451E+00
 0.1608297977914E+00
 0.1655543257791E+00
 0.1689724127445E+00
 0.1709204117181E+00
 0.1713994628414E+00
 0.1708645819015E+00
 0.1693905992987E+00
 0.6079486356816E-01
 0.6788759425803E-01
 0.7657733367115E-01
 0.8663217633917E-01
 0.9762359886180E-01
 0.1090815539031E+00
 0.1206341618848E+00
 0.1319963593734E+00
 0.1429150208723E+00
 0.1531780661032E+00
 0.1626298253340E+00
 0.1711631290912E+00
 0.1786805388002E+00
 0.1850700391205E+00
 0.1902121040867E+00
 0.1939797959192E+00
 0.1961756164094E+00
 0.1967294099064E+00
 0.1951332385701E+00
 0.1908430821240E+00
 0.6362194539936E-01
 0.7448078947780E-01
 0.8618509530962E-01
 0.9879675648405E-01
 0.1119878275501E+00
 0.1253673274610E+00
 0.1386145689333E+00
 0.1514647064755E+00
 0.1636783593077E+00
 0.1750596736783E+00
 0.1854701304409E+00
 0.1948170477176E+00
 0.2030188802219E+00
 0.2099803473220E+00
 0.2155880505733E+00
 0.2196912734628E+00
 0.2220573544982E+00
 0.2223792055701E+00
 0.2201300323877E+00
 0.2156911873048E+00
 0.6629541221316E-01
 0.8083923388497E-01
 0.9566023278921E-01
 0.1109009238906E+00
 0.1263622568718E+00
 0.1417339327701E+00
 0.1567391849721E+00
 0.1711376746269E+00
 0.1847102411014E+00
 0.1972791628560E+00
 0.2087217178597E+00
 0.2189583583919E+00
 0.2279193474013E+00
 0.2355172404301E+00
 0.2416323134327E+00
 0.2460898353292E+00
 0.2486109948561E+00
 0.2488685974272E+00
 0.2466237689453E+00
 0.2424001745072E+00
 0.6887984695890E-01
 0.8704341919186E-01
 0.1050103116619E+00
 0.1229500009791E+00
 0.1407490065926E+00
 0.1581763331595E+00
 0.1749999261716E+00
 0.1910066326312E+00
 0.2060001748227E+00
 0.2198222216169E+00
 0.2323654456084E+00
 0.2435617826307E+00
 0.2533499245527E+00
 0.2616454252480E+00
 0.2683221125548E+00
 0.2731903974256E+00
 0.2759809098861E+00
 0.2764467295778E+00
 0.2745073904041E+00
 0.2706610789042E+00
 0.7141989886465E-01
 0.9314310445315E-01
 0.1142669037557E+00
 0.1349530678040E+00
 0.1551491429255E+00
 0.1746899637781E+00
 0.1933882575724E+00
 0.2110601882853E+00
 0.2275337076801E+00
 0.2426704342022E+00
 0.2563781446618E+00
 0.2685992610321E+00
 0.2792793726663E+00
 0.2883371696000E+00
 0.2956460568002E+00
 0.3010232528772E+00
 0.3042418647946E+00
 0.3051313097768E+00
 0.3036980263570E+00
 0.3003566243545E+00
 0.7394796328587E-01
 0.9917858460549E-01
 0.1234583726089E+00
 0.1469236189217E+00
 0.1695643751716E+00
 0.1912698588016E+00
 0.2118944832610E+00
 0.2312846423897E+00
 0.2492931623306E+00
 0.2658018124767E+00
 0.2807333705556E+00
 0.2940406200526E+00
 0.3056766185564E+00
 0.3155663929508E+00
 0.3235924182847E+00
 0.3295945990052E+00
 0.3333954570541E+00
 0.3348869022384E+00
 0.3341190410253E+00
 0.3314242029579E+00
 0.7649000249964E-01
 0.1051813978787E+00
 0.1326093188851E+00
 0.1588744736279E+00
 0.1839969501576E+00
 0.2079105593506E+00
 0.2305076097202E+00
 0.2516642177961E+00
 0.2712581412319E+00
 0.2891913470086E+00
 0.3054017974412E+00
 0.3198533641797E+00
 0.3325085486617E+00
 0.3433033489982E+00
 0.3521374281026E+00
 0.3588812112475E+00
 0.3634055418102E+00
 0.3656516403962E+00
 0.3656939973271E+00
 0.3638009316988E+00
 0.7906771876942E-01
 0.1111769124803E+00
 0.1417399786156E+00
 0.1708166651717E+00
 0.1984484775841E+00
 0.2246059841878E+00
 0.2492154108986E+00
 0.2721813100123E+00
 0.2934059233063E+00
 0.3128113879667E+00
 0.3303513134675E+00
 0.3460019585373E+00
 0.3597378922194E+00
 0.3715105064372E+00
 0.3812421614818E+00
 0.3888372043552E+00
 0.3942113241244E+00
 0.3973464767105E+00
 0.3983345689993E+00
 0.3974020050404E+00
 0.8169984867791E-01
 0.1171857166732E+00
 0.1508666555038E+00
 0.1827588948774E+00
 0.2129193748560E+00
 0.2413491164936E+00
 0.2680044558516E+00
 0.2928166593443E+00
 0.3157116968461E+00
 0.3366317952003E+00
 0.3555468464069E+00
 0.3724470438431E+00
 0.3873216412613E+00
 0.4001409681178E+00
 0.4108535419927E+00
 0.4193987598419E+00
 0.4257338729452E+00
 0.4298765720216E+00
 0.4319351389312E+00
 0.4321142749911E+00
 0.8440295952679E-01
 0.1232246845754E+00
 0.1600022474442E+00
 0.1947075358158E+00
 0.2274086442999E+00
 0.2581318934416E+00
 0.2868601744861E+00
 0.3135495493371E+00
 0.3381487807935E+00
 0.3606200597890E+00
 0.3809502404641E+00
 0.3991449730269E+00
 0.4152104615524E+00
 0.4291385891116E+00
 0.4409060833246E+00
 0.4504875237049E+00
 0.4578791993454E+00
 0.4631319499215E+00
 0.4663717142975E+00
 0.4677968455925E+00
 0.8719199206362E-01
 0.1293077592066E+00
 0.1691567884859E+00
 0.2066668231668E+00
 0.2419138707342E+00
 0.2749451979364E+00
 0.3057669411702E+00
 0.3343579639464E+00
 0.3606887898236E+00
 0.3847413939708E+00
 0.4065202131485E+00
 0.4260476865634E+00
 0.4433487729054E+00
 0.4584387315699E+00
 0.4713236414220E+00
 0.4820129602270E+00
 0.4905402053741E+00
 0.4969882501799E+00
 0.5015029450295E+00
 0.5042859006458E+00
 0.9008064811376E-01
 0.1354465729727E+00
 0.1783379684734E+00
 0.2186391612460E+00
 0.2564313732884E+00
 0.2917789733858E+00
 0.3247082243584E+00
 0.3552187784875E+00
 0.3833018329278E+00
 0.4089589020489E+00
 0.4322125047428E+00
 0.4531029435548E+00
 0.4716752807278E+00
 0.4879693463432E+00
 0.5020210995681E+00
 0.5138743376588E+00
 0.5235984383689E+00
 0.5313079113317E+00
 0.5371710417625E+00
 0.5413989733185E+00
 0.9308169261696E-01
 0.1416509688926E+00
 0.1875516386864E+00
 0.2306255034347E+00
 0.2709564711664E+00
 0.3086224412988E+00
 0.3436668082644E+00
 0.3761079999488E+00
 0.4059567656295E+00
 0.4332338443578E+00
 0.4579801933562E+00
 0.4802547888779E+00
 0.5001237454010E+00
 0.5176521684084E+00
 0.5329059832319E+00
 0.5459625869597E+00
 0.5569259761524E+00
 0.5659419531255E+00
 0.5732032090002E+00
 0.5789357023712E+00
 0.9620718352432E-01
 0.1479294361722E+00
 0.1968022763151E+00
 0.2426257441666E+00
 0.2854837907411E+00
 0.3254643595299E+00
 0.3626250395125E+00
 0.3970010221906E+00
 0.4286214654833E+00
 0.4575259553235E+00
 0.4837741066854E+00
 0.5074441444410E+00
 0.5286238536878E+00
 0.5474039386445E+00
 0.5638800293626E+00
 0.5781621608712E+00
 0.5903875842285E+00
 0.6007326503986E+00
 0.6094154585128E+00
 0.6166812191492E+00
 0.9946866701257E-01
 0.1542895093587E+00
 0.2060934476175E+00
 0.2546391530197E+00
 0.3000076440804E+00
 0.3422933610668E+00
 0.3815651519272E+00
 0.4178729581864E+00
 0.4512631933528E+00
 0.4817938660782E+00
 0.5095433575366E+00
 0.5346095267387E+00
 0.5571021894558E+00
 0.5771376772748E+00
 0.5948407807960E+00
 0.6103529741714E+00
 0.6238431442604E+00
 0.6355168980953E+00
 0.6456177064991E+00
 0.6544129301814E+00
 0.1028773404577E+00
 0.1607381305137E+00
 0.2154282530278E+00
 0.2666648161188E+00
 0.3145224333512E+00
 0.3590983253292E+00
 0.4004696231601E+00
 0.4386990038041E+00
 0.4738489908519E+00
 0.5059955716124E+00
 0.5352359289400E+00
 0.5616878065831E+00
 0.5854832229748E+00
 0.6067639460658E+00
 0.6256831578145E+00
 0.6424123513673E+00
 0.6571501565001E+00
 0.6701296280306E+00
 0.6816185950196E+00
 0.6919074782798E+00
 0.1064441944575E+00
 0.1672819921011E+00
 0.2248097667581E+00
 0.2787020910727E+00
 0.3290230832442E+00
 0.3758687837990E+00
 0.4193215662102E+00
 0.4594548357044E+00
 0.4963461120771E+00
 0.5300889319969E+00
 0.5607992883177E+00
 0.5886149836102E+00
 0.6136902911704E+00
 0.6361920747524E+00
 0.6563009743078E+00
 0.6742169060998E+00
 0.6901661200362E+00
 0.7044068816647E+00
 0.7172294998374E+00
 0.7289463652124E+00
 0.1101801477135E+00
 0.1739278757198E+00
 0.2342414840893E+00
 0.2907510844530E+00
 0.3435055076822E+00
 0.3925953658394E+00
 0.4381051624453E+00
 0.4801170498507E+00
 0.5187224938680E+00
 0.5540322077210E+00
 0.5861810264427E+00
 0.6153269692142E+00
 0.6416465631957E+00
 0.6653313455851E+00
 0.6865883811426E+00
 0.7056442997705E+00
 0.7227506895512E+00
 0.7381884576311E+00
 0.7522677834275E+00
 0.7653202965436E+00
 0.1140961704727E+00
 0.1806829822868E+00
 0.2437277654023E+00
 0.3028131332108E+00
 0.3579670858222E+00
 0.4092702555169E+00
 0.4568061041893E+00
 0.5006636061431E+00
 0.5409472270137E+00
 0.5777845881411E+00
 0.6113294774128E+00
 0.6417603329483E+00
 0.6692759463271E+00
 0.6940920892394E+00
 0.7164411819465E+00
 0.7365748094871E+00
 0.7547675366547E+00
 0.7713201344406E+00
 0.7865594990060E+00
 0.8008327150371E+00
 0.1182034102380E+00
 0.1875552709229E+00
 0.2532742952964E+00
 0.3148913077282E+00
 0.3724071637993E+00
 0.4258876748583E+00
 0.4754120613131E+00
 0.5210742920309E+00
 0.5629910388074E+00
 0.6013067203570E+00
 0.6361943238077E+00
 0.6678530137224E+00
 0.6965039305841E+00
 0.7223866864519E+00
 0.7457580101141E+00
 0.7668926927396E+00
 0.7860859085947E+00
 0.8036554629312E+00
 0.8199415933900E+00
 0.8353024581970E+00
 0.1225133211142E+00
 0.1945538074406E+00
 0.2628885547453E+00
 0.3269909300491E+00
 0.3868275715367E+00
 0.4424443795658E+00
 0.4939131553820E+00
 0.5413311866080E+00
 0.5848267666162E+00
 0.6245612166093E+00
 0.6607271639980E+00
 0.6935449721308E+00
 0.7232583481459E+00
 0.7501304516051E+00
 0.7744413462200E+00
 0.7964873357073E+00
 0.8165818890580E+00
 0.8350570732362E+00
 0.8522631958802E+00
 0.8685645688541E+00
 0.1270378014495E+00
 0.2016891280793E+00
 0.2725803108032E+00
 0.3391201092001E+00
 0.4012331535647E+00
 0.4589401635944E+00
 0.5123024357508E+00
 0.5614191178875E+00
 0.6064298136772E+00
 0.6475131301686E+00
 0.6848820306057E+00
 0.7187787722059E+00
 0.7494700354917E+00
 0.7772423870363E+00
 0.8023983679318E+00
 0.8252541894063E+00
 0.8461393800725E+00
 0.8653976089477E+00
 0.8833861160620E+00
 0.9004706755773E+00
 0.1317893459494E+00
 0.2089736260386E+00
 0.2823621307497E+00
 0.3512902983523E+00
 0.4156323158797E+00
 0.4753783721835E+00
 0.5305763552337E+00
 0.5813261092830E+00
 0.6277785818833E+00
 0.6701303935463E+00
 0.7086158532969E+00
 0.7435000853252E+00
 0.7750733909046E+00
 0.8036458015245E+00
 0.8295416299674E+00
 0.8530954987020E+00
 0.8746508494545E+00
 0.8945604173753E+00
 0.9131855194064E+00
 0.9308896071330E+00
 0.1367812180400E+00
 0.2164219671738E+00
 0.2922499264340E+00
 0.3635168771267E+00
 0.4300375890939E+00
 0.4917664209472E+00
 0.5487352409568E+00
 0.6010438094933E+00
 0.6488548749340E+00
 0.6923842121715E+00
 0.7318888592722E+00
 0.7676581101001E+00
 0.8000068217660E+00
 0.8292687887343E+00
 0.8557895726464E+00
 0.8799208326919E+00
 0.9020178601084E+00
 0.9224400687778E+00
 0.9415504841065E+00
 0.9597077989123E+00
 0.1420276433400E+00
 0.2240515360302E+00
 0.3022635281815E+00
 0.3758197546661E+00
 0.4444661994600E+00
 0.5081163092869E+00
 0.5667837463870E+00
 0.6205678904902E+00
 0.6696442562770E+00
 0.7142493987107E+00
 0.7546648981792E+00
 0.7912058968617E+00
 0.8242130720845E+00
 0.8540445576111E+00
 0.8810668537707E+00
 0.9056474145214E+00
 0.9281513870415E+00
 0.9489426296911E+00
 0.9683841044575E+00
 0.9868290254792E+00
 0.1475440386235E+00
 0.2318829313167E+00
 0.3124273091195E+00
 0.3882240141680E+00
 0.4589406666886E+00
 0.5244451452234E+00
 0.5847313000960E+00
 0.6398984279542E+00
 0.6901363755531E+00
 0.7357046619012E+00
 0.7769117061034E+00
 0.8141005922465E+00
 0.8476394458340E+00
 0.8779116289540E+00
 0.9053045145230E+00
 0.9302002572937E+00
 0.9529719171497E+00
 0.9739856647994E+00
 0.9936032123216E+00
 0.1012173603832E+01
 0.1533472754011E+00
 0.2399405076300E+00
 0.3227708547930E+00
 0.4007605880487E+00
 0.4734894117004E+00
 0.5407756598937E+00
 0.6025925261800E+00
 0.6590402372233E+00
 0.7103252365113E+00
 0.7567328247886E+00
 0.7986010872191E+00
 0.8363035869900E+00
 0.8702379131647E+00
 0.9008138869117E+00
 0.9284399659610E+00
 0.9535120840100E+00
 0.9764093007382E+00
 0.9974979693644E+00
 0.1017137784791E+01
 0.1035677094928E+01
 0.1594559849635E+00
 0.2482529771886E+00
 0.3333296924805E+00
 0.4134669766170E+00
 0.4881473839577E+00
 0.5571367187405E+00
 0.6203876416567E+00
 0.6780031692109E+00
 0.7302094114123E+00
 0.7773209800381E+00
 0.8197090254931E+00
 0.8577805851167E+00
 0.8919651226462E+00
 0.9227005103687E+00
 0.9504168174818E+00
 0.9755230417088E+00
 0.9984023459137E+00
 0.1019419025891E+01
 0.1038930082474E+01
 0.1057288398596E+01
 0.1658909230391E+00
 0.2568540930895E+00
 0.3441461050882E+00
 0.4263880328239E+00
 0.5029567262670E+00
 0.5735638427725E+00
 0.6381428402629E+00
 0.6968023721749E+00
 0.7497922056685E+00
 0.7974605866042E+00
 0.8402157343889E+00
 0.8785016082980E+00
 0.9127823388513E+00
 0.9435258055741E+00
 0.9711845645795E+00
 0.9961802174557E+00
 0.1018898139987E+01
 0.1039698084962E+01
 0.1058933346194E+01
 0.1076966775313E+01
 0.1726753802482E+00
 0.2657834029192E+00
 0.3552700157715E+00
 0.4395767912818E+00
 0.5179674457121E+00
 0.5900997009470E+00
 0.6558906181046E+00
 0.7154584706657E+00
 0.7690817225460E+00
 0.8171474605219E+00
 0.8601056056708E+00
 0.8984409094525E+00
 0.9326552939925E+00
 0.9632489400616E+00
 0.9906981405148E+00
 0.1015436958969E+01
 0.1037851101216E+01
 0.1058292816035E+01
 0.1077109556913E+01
 0.1094676688198E+01
 0.1798356738532E+00
 0.2750871225124E+00
 0.3667600027313E+00
 0.4530954032224E+00
 0.5332381496614E+00
 0.6067946293579E+00
 0.6736700929883E+00
 0.7339977080935E+00
 0.7880908695792E+00
 0.8363817003396E+00
 0.8793671029220E+00
 0.9175768531152E+00
 0.9515540271705E+00
 0.9818336652889E+00
 0.1008917422687E+01
 0.1033252086267E+01
 0.1055221854725E+01
 0.1075167788183E+01
 0.1093426940969E+01
 0.1110383197011E+01
 0.1874017049052E+00
 0.2848191178414E+00
 0.3786844344120E+00
 0.4670161594703E+00
 0.5488368177510E+00
 0.6237071404519E+00
 0.6915272740449E+00
 0.7524520029925E+00
 0.8068372518074E+00
 0.8551674931818E+00
 0.8979925557523E+00
 0.9358917400306E+00
 0.9694527206149E+00
 0.9992480709693E+00
 0.1025806759392E+01
 0.1049589060031E+01
 0.1070976018358E+01
 0.1090293057952E+01
 0.1107859123106E+01
 0.1124054106651E+01
 0.1954075861867E+00
 0.2950420218741E+00
 0.3911227598219E+00
 0.4814226289983E+00
 0.5648416281774E+00
 0.6409044293669E+00
 0.7095152784425E+00
 0.7708588994572E+00
 0.8253429171245E+00
 0.8735127560382E+00
 0.9159778086265E+00
 0.9533715446078E+00
 0.9863295354710E+00
 0.1015464421535E+01
 0.1041334603349E+01
 0.1064415199047E+01
 0.1085082934604E+01
 0.1103642837335E+01
 0.1120385261222E+01
 0.1135665109064E+01
 0.2038923736434E+00
 0.3058285456656E+00
 0.4041670181256E+00
 0.4964109863011E+00
 0.5813418979362E+00
 0.6584629431275E+00
 0.7276945484638E+00
 0.7892614524948E+00
 0.8436339761263E+00
 0.8914286245890E+00
 0.9333217334022E+00
 0.9700055856550E+00
 0.1002166510689E+01
 0.1030459214245E+01
 0.1055473476579E+01
 0.1077701185200E+01
 0.1097514514739E+01
 0.1115194031982E+01
 0.1130989763485E+01
 0.1145202120971E+01
 0.2129008642307E+00
 0.3172629337905E+00
 0.4179235697366E+00
 0.5120914510681E+00
 0.5984391038625E+00
 0.6764689412567E+00
 0.7461330038081E+00
 0.8077079426604E+00
 0.8617399715370E+00
 0.9089286506776E+00
 0.9500254627850E+00
 0.9857859862408E+00
 0.1016949409747E+01
 0.1044213464240E+01
 0.1068200430405E+01
 0.1089421134133E+01
 0.1108244288680E+01
 0.1124924466000E+01
 0.1139660932695E+01
 0.1152663441557E+01
 0.2224845149736E+00
 0.3294429073769E+00
 0.4325149944646E+00
 0.5285901045188E+00
 0.6162480330965E+00
 0.6950192894833E+00
 0.7649062510947E+00
 0.8262515175693E+00
 0.8796930534664E+00
 0.9260277405354E+00
 0.9660913554113E+00
 0.1000706915176E+01
 0.1030667453873E+01
 0.1056713200364E+01
 0.1079498357645E+01
 0.1099553798879E+01
 0.1117247177121E+01
 0.1132810433995E+01
 0.1146388678074E+01
 0.1158063060226E+01
 0.2327030031872E+00
 0.3424810308015E+00
 0.4480830250717E+00
 0.5460501251108E+00
 0.6348985305931E+00
 0.7142223320053E+00
 0.7840978356504E+00
 0.8449496283126E+00
 0.8975267451170E+00
 0.9427406839183E+00
 0.9815215214756E+00
 0.1014763363685E+01
 0.1043312757316E+01
 0.1067949721827E+01
 0.1089357880977E+01
 0.1108086294957E+01
 0.1124500877053E+01
 0.1138823660086E+01
 0.1151158992809E+01
 0.1161436397763E+01
 0.2436246071859E+00
 0.3565135656716E+00
 0.4647858330514E+00
 0.5646360745605E+00
 0.6545367258186E+00
 0.7341992574368E+00
 0.8037999498626E+00
 0.8638629464076E+00
 0.9152741407173E+00
 0.9590802659532E+00
 0.9963159587138E+00
 0.1027949206912E+01
 0.1054879023805E+01
 0.1077919945341E+01
 0.1097778097573E+01
 0.1115019546280E+01
 0.1129996783936E+01
 0.1142925931457E+01
 0.1153940259746E+01
 0.1162842704597E+01
 0.2553579156081E+00
 0.3716591324272E+00
 0.4828175280780E+00
 0.5845320575673E+00
 0.6753250166788E+00
 0.7550895694738E+00
 0.8241140875778E+00
 0.8830531988202E+00
 0.9329653587021E+00
 0.9750553916585E+00
 0.1010470588570E+01
 0.1040254783622E+01
 0.1065358526204E+01
 0.1086625943113E+01
 0.1104770690748E+01
 0.1120364552687E+01
 0.1133758068040E+01
 0.1145109662094E+01
 0.1154621787325E+01
 0.1162364874062E+01
 0.2165592903932E+00
 0.3346135113712E+00
 0.3506511668582E+00
 0.3337554897523E+00
 0.2884777730881E+00
 0.2345200556095E+00
 0.1962843761700E+00
 0.1780193662937E+00
 0.1662988704265E+00
 0.1542342635373E+00
 0.1406718982464E+00
 0.1257276682907E+00
 0.1094020747549E+00
 0.9181730042558E-01
 0.7360921157247E-01
 0.5528672622980E-01
 0.3696967028746E-01
 0.2134627489679E-01
 0.9572009147927E-02
 0.4387492520723E-03
 0.1853073565923E+00
 0.3093798499755E+00
 0.3194587361703E+00
 0.3058785576215E+00
 0.2764163226220E+00
 0.2395658925020E+00
 0.2080967690808E+00
 0.1873577525058E+00
 0.1725668724811E+00
 0.1590832970524E+00
 0.1451726406193E+00
 0.1303089698331E+00
 0.1142979338678E+00
 0.9715521088703E-01
 0.7917847992280E-01
 0.6075117464997E-01
 0.4241313863495E-01
 0.2593661717490E-01
 0.1197534455924E-01
 0.1001211284776E-02
 0.1552986695772E+00
 0.2757412689096E+00
 0.2923034659920E+00
 0.2819742582280E+00
 0.2619046267789E+00
 0.2369381818730E+00
 0.2130360761500E+00
 0.1937619304832E+00
 0.1779046132482E+00
 0.1633907996051E+00
 0.1490479570292E+00
 0.1342242950532E+00
 0.1185342418998E+00
 0.1018229109113E+00
 0.8418952289459E-01
 0.6590104324506E-01
 0.4743132456354E-01
 0.2990228474194E-01
 0.1380838800720E-01
 0.1887032672149E-02
 0.1282328641862E+00
 0.2423059442590E+00
 0.2649097765880E+00
 0.2599889143991E+00
 0.2462727631220E+00
 0.2294703442314E+00
 0.2122081036639E+00
 0.1960374840204E+00
 0.1809464908017E+00
 0.1663678861576E+00
 0.1519235074988E+00
 0.1372286773350E+00
 0.1219049284927E+00
 0.1056940556321E+00
 0.8853346073126E-01
 0.7053532197043E-01
 0.5203995329753E-01
 0.3362682967660E-01
 0.1563501659930E-01
 0.2530799063940E-02
 0.1040212265975E+00
 0.2104481976010E+00
 0.2377472790464E+00
 0.2381957651232E+00
 0.2297815630162E+00
 0.2187943316924E+00
 0.2068679306466E+00
 0.1941774756986E+00
 0.1809156140644E+00
 0.1672175748391E+00
 0.1532404214449E+00
 0.1389526867599E+00
 0.1241397624199E+00
 0.1085501808624E+00
 0.9201610358382E-01
 0.7450599943480E-01
 0.5620887114195E-01
 0.3724519812635E-01
 0.1776155441386E-01
 0.2477180876584E-02
 0.8247504982839E-01
 0.1805921994354E+00
 0.2110908941279E+00
 0.2162054392279E+00
 0.2122816491258E+00
 0.2057575857966E+00
 0.1980172335292E+00
 0.1885906631773E+00
 0.1775916714977E+00
 0.1654088855314E+00
 0.1524546154770E+00
 0.1389523142984E+00
 0.1248880741193E+00
 0.1100982129125E+00
 0.9438033396407E-01
 0.7759819562035E-01
 0.5980749350464E-01
 0.4073169884477E-01
 0.2029137961330E-01
 0.1596773757646E-02
 0.6336439464999E-01
 0.1528456265785E+00
 0.1851426117898E+00
 0.1939820846873E+00
 0.1937764080517E+00
 0.1907805694625E+00
 0.1863478732227E+00
 0.1797603420671E+00
 0.1710608848170E+00
 0.1607012603123E+00
 0.1491664142675E+00
 0.1368058560940E+00
 0.1237629557517E+00
 0.1099892820141E+00
 0.9530360452673E-01
 0.7951510716004E-01
 0.6258389656796E-01
 0.4389500596792E-01
 0.2311603753131E-01
 0.1363516830676E-02
 0.4645912311693E-01
 0.1271980109037E+00
 0.1600493106755E+00
 0.1716228167678E+00
 0.1743673786508E+00
 0.1741489358797E+00
 0.1723224013578E+00
 0.1681131321303E+00
 0.1615385504564E+00
 0.1530593661816E+00
 0.1431476013897E+00
 0.1321829466924E+00
 0.1204003283651E+00
 0.1078548539359E+00
 0.9441681989400E-01
 0.7988572827726E-01
 0.6417105825848E-01
 0.4638167847632E-01
 0.2591277662952E-01
 0.3664211826238E-02
 0.3154667773761E-01
 0.1035838963646E+00
 0.1359216384681E+00
 0.1492703085168E+00
 0.1542109486242E+00
 0.1561040537113E+00
 0.1562833179802E+00
 0.1539993398500E+00
 0.1492739798330E+00
 0.1425673070306E+00
 0.1343125990037E+00
 0.1248675331596E+00
 0.1145025259845E+00
 0.1033485105584E+00
 0.9133708275865E-01
 0.7829118521660E-01
 0.6411210183058E-01
 0.4770094332623E-01
 0.2816807455373E-01
 0.6374686227914E-02
 0.1846099345582E-01
 0.8191013700608E-01
 0.1128420861265E+00
 0.1270783550574E+00
 0.1334888879806E+00
 0.1368738071479E+00
 0.1385136104785E+00
 0.1377148583581E+00
 0.1345143808591E+00
 0.1293707162033E+00
 0.1226778240940E+00
 0.1147509267154E+00
 0.1058588002106E+00
 0.9617962745030E-01
 0.8570449091505E-01
 0.7430175372719E-01
 0.6190023624173E-01
 0.4726841610562E-01
 0.2922831322679E-01
 0.8521161907953E-02
 0.7308372968059E-02
 0.6206957629041E-01
 0.9086994443549E-01
 0.1051964610644E+00
 0.1123915300738E+00
 0.1166814521038E+00
 0.1192681052822E+00
 0.1195233781591E+00
 0.1174980927733E+00
 0.1136461562899E+00
 0.1083283882693E+00
 0.1018139402560E+00
 0.9434884986486E-01
 0.8613473434098E-01
 0.7721496261921E-01
 0.6751696024671E-01
 0.5702614395650E-01
 0.4446140220369E-01
 0.2836726073143E-01
 0.9255933877532E-02
 0.5002092468521E-02
 0.4394928669066E-01
 0.7004537915360E-01
 0.8376317649279E-01
 0.9110835987116E-01
 0.9574745757408E-01
 0.9878887262739E-01
 0.9967234098982E-01
 0.9845759889883E-01
 0.9558786592627E-01
 0.9139626843278E-01
 0.8610892941462E-01
 0.7993786788113E-01
 0.7308866231241E-01
 0.6564623271423E-01
 0.5760363638504E-01
 0.4902641851674E-01
 0.3867705809128E-01
 0.2485804827042E-01
 0.7757506451971E-02
 0.1320436934906E-01
 0.2743837519567E-01
 0.5039451067017E-01
 0.6290465424560E-01
 0.6982374165195E-01
 0.7428988745667E-01
 0.7731328900455E-01
 0.7840362829776E-01
 0.7762519033278E-01
 0.7540372384674E-01
 0.7204799761052E-01
 0.6774591575351E-01
 0.6266915922850E-01
 0.5700968596481E-01
 0.5087839450988E-01
 0.4433148665115E-01
 0.3753144239195E-01
 0.2938970056959E-01
 0.1804552128113E-01
 0.3413821507479E-02
 0.2100010704232E-01
 0.1245673983023E-01
 0.3194143932519E-01
 0.4274008260499E-01
 0.4871898463150E-01
 0.5252764904873E-01
 0.5508124171895E-01
 0.5596333628368E-01
 0.5524141098876E-01
 0.5331855632669E-01
 0.5048173072335E-01
 0.4688639174566E-01
 0.4266088098184E-01
 0.3796666254228E-01
 0.3291827234639E-01
 0.2761893272665E-01
 0.2233129790375E-01
 0.1623629902644E-01
 0.7522475156124E-02
 0.5386125283870E-02
 0.2794212319510E-01
 0.2256974639092E-02
 0.1478280947520E-01
 0.2341884274652E-01
 0.2799903114494E-01
 0.3070379033189E-01
 0.3235913988640E-01
 0.3262851150345E-01
 0.3158452813069E-01
 0.2960534287377E-01
 0.2696029841661E-01
 0.2378226784849E-01
 0.2016159975190E-01
 0.1622284883961E-01
 0.1207480119346E-01
 0.7894510713572E-02
 0.4283973444849E-02
 0.3191061347219E-02
 0.8331183955989E-02
 0.1759980950478E-01
 0.3408769682646E-01
 0.1392154579728E-01
 0.3733463220262E-02
 0.5871277477700E-02
 0.8332170515132E-02
 0.9450387599537E-02
 0.9793520429363E-02
 0.9118712272957E-02
 0.7547601992727E-02
 0.5566428473420E-02
 0.3944470607298E-02
 0.4156213800661E-02
 0.6408823890798E-02
 0.9519750260800E-02
 0.1299161941157E-01
 0.1663512639316E-01
 0.2008535366963E-01
 0.2339070288122E-01
 0.2777953858124E-01
 0.3440653951319E-01
 0.3953148087302E-01
 0.2517591579423E-01
 0.1722219878305E-01
 0.1379642823573E-01
 0.1306808922941E-01
 0.1360936921884E-01
 0.1480157432553E-01
 0.1681627045033E-01
 0.1956824621121E-01
 0.2273721874787E-01
 0.2607578749738E-01
 0.2946014047675E-01
 0.3284208633383E-01
 0.3618550420151E-01
 0.3951497938540E-01
 0.4287441497256E-01
 0.4610631578873E-01
 0.4902729162259E-01
 0.5209511288864E-01
 0.5590140902860E-01
 0.4437500262823E-01
 0.3544247198195E-01
 0.3110985123557E-01
 0.3029561892347E-01
 0.3178844597129E-01
 0.3443861310236E-01
 0.3761636213593E-01
 0.4138323756351E-01
 0.4561453382983E-01
 0.4999961577483E-01
 0.5429673835244E-01
 0.5837210449703E-01
 0.6216534390677E-01
 0.6563701463770E-01
 0.6882994046937E-01
 0.7189026032631E-01
 0.7491563763094E-01
 0.7791785080030E-01
 0.8078469172510E-01
 0.8218306562972E-01
 0.4872525565619E-01
 0.4482917760703E-01
 0.4402085511437E-01
 0.4600802671896E-01
 0.4996643701650E-01
 0.5495332306876E-01
 0.6035606992043E-01
 0.6613006415670E-01
 0.7211648473800E-01
 0.7802462119399E-01
 0.8362555931206E-01
 0.8877387553258E-01
 0.9337969104468E-01
 0.9735976044076E-01
 0.1006928762110E+00
 0.1035007176951E+00
 0.1060740373181E+00
 0.1086558656864E+00
 0.1122020204734E+00
 0.1133794879043E+00
 0.5282484706515E-01
 0.5332615008118E-01
 0.5585996181765E-01
 0.6072895422704E-01
 0.6728022732984E-01
 0.7476965123944E-01
 0.8261625495039E-01
 0.9065213794370E-01
 0.9866606225962E-01
 0.1063913559213E+00
 0.1136265413670E+00
 0.1202327611175E+00
 0.1260981177103E+00
 0.1310917464904E+00
 0.1350929691164E+00
 0.1380485592106E+00
 0.1400849315036E+00
 0.1413996516394E+00
 0.1431764207252E+00
 0.1470216968843E+00
 0.2715974067151E+00
 0.3940229625575E+00
 0.5107500382518E+00
 0.6163286841203E+00
 0.7093314536187E+00
 0.7897566153649E+00
 0.8581058402256E+00
 0.9153121800725E+00
 0.9627548137315E+00
 0.1001928497780E+01
 0.1034193121534E+01
 0.1060738320382E+01
 0.1082614264245E+01
 0.1100728564088E+01
 0.1115825314069E+01
 0.1128499246455E+01
 0.1139230045499E+01
 0.1148117905049E+01
 0.1155441059023E+01
 0.1162105108141E+01
 0.2902315704667E+00
 0.4232738394372E+00
 0.5479396125506E+00
 0.6590704809651E+00
 0.7550826758756E+00
 0.8362137909410E+00
 0.9033115518957E+00
 0.9577031196357E+00
 0.1001266713193E+01
 0.1035955024406E+01
 0.1063461861889E+01
 0.1085203164265E+01
 0.1102379345287E+01
 0.1115995055725E+01
 0.1126856862164E+01
 0.1135628478843E+01
 0.1142936226557E+01
 0.1148790795618E+01
 0.1153548753451E+01
 0.1158029078158E+01
 0.3101822510685E+00
 0.4553346308871E+00
 0.5883046323670E+00
 0.7043764552208E+00
 0.8023030495205E+00
 0.8827769873064E+00
 0.9471380269748E+00
 0.9971969801011E+00
 0.1035460453320E+01
 0.1064423608393E+01
 0.1086134024595E+01
 0.1102228939013E+01
 0.1114059661698E+01
 0.1122727197369E+01
 0.1129100427433E+01
 0.1133906270050E+01
 0.1137834962513E+01
 0.1140622705629E+01
 0.1142678841365E+01
 0.1145074803530E+01
 0.3320432185762E+00
 0.4904851301447E+00
 0.6319837125037E+00
 0.7522537841192E+00
 0.8507354905821E+00
 0.9288894930151E+00
 0.9887511854249E+00
 0.1032793288066E+01
 0.1064290341496E+01
 0.1086331820252E+01
 0.1101313084461E+01
 0.1111069949590E+01
 0.1117079921896E+01
 0.1120506863790E+01
 0.1122241426680E+01
 0.1123014153976E+01
 0.1123467959145E+01
 0.1122980246404E+01
 0.1122326380552E+01
 0.1123444490145E+01
 0.3562152618618E+00
 0.5292772764505E+00
 0.6792278786626E+00
 0.8026378983360E+00
 0.8999728578524E+00
 0.9738108053291E+00
 0.1027162588030E+01
 0.1063390762649E+01
 0.1086675273123E+01
 0.1100710630595E+01
 0.1108193724832E+01
 0.1111104594801E+01
 0.1110992586143E+01
 0.1109022643531E+01
 0.1106044664092E+01
 0.1102728522964E+01
 0.1099590766650E+01
 0.1095710558193E+01
 0.1092611512755E+01
 0.1093409002539E+01
 0.3831423994868E+00
 0.5722861014613E+00
 0.7303246487574E+00
 0.8553858672866E+00
 0.9494436529747E+00
 0.1016613272113E+01
 0.1061226965049E+01
 0.1087802859326E+01
 0.1101532063699E+01
 0.1106662693767E+01
 0.1106096142007E+01
 0.1101866974562E+01
 0.1095515530556E+01
 0.1088129353433E+01
 0.1080452895543E+01
 0.1073046987309E+01
 0.1066266586037E+01
 0.1059017009276E+01
 0.1053871754353E+01
 0.1055260474966E+01
 0.4133358066553E+00
 0.6201465704547E+00
 0.7855353379628E+00
 0.9102371327762E+00
 0.9983856385515E+00
 0.1056167096881E+01
 0.1089650589507E+01
 0.1104788857189E+01
 0.1107821420886E+01
 0.1103412430983E+01
 0.1094513323303E+01
 0.1083090535401E+01
 0.1070575898201E+01
 0.1057895997406E+01
 0.1045633611931E+01
 0.1034211943285E+01
 0.1023815575350E+01
 0.1013314499037E+01
 0.1006547240631E+01
 0.1009322757486E+01
 0.4473993296485E+00
 0.6735602541805E+00
 0.8450694061950E+00
 0.9667637192638E+00
 0.1045806044125E+01
 0.1091125751954E+01
 0.1111010778546E+01
 0.1113102483350E+01
 0.1104609761883E+01
 0.1090367025920E+01
 0.1073163349904E+01
 0.1054749587686E+01
 0.1036341679609E+01
 0.1018626746357E+01
 0.1001983435564E+01
 0.9866850128867E+00
 0.9727500721657E+00
 0.9591530763797E+00
 0.9511464726769E+00
 0.9559619292529E+00
 0.4860542562511E+00
 0.7333044276583E+00
 0.9090502272006E+00
 0.1024313365690E+01
 0.1090433846446E+01
 0.1119916929827E+01
 0.1123794277884E+01
 0.1111562480952E+01
 0.1091147070719E+01
 0.1067183470231E+01
 0.1042037630257E+01
 0.1017088022854E+01
 0.9932333311620E+00
 0.9708571449577E+00
 0.9501078913439E+00
 0.9311090387549E+00
 0.9137246399453E+00
 0.8971773251283E+00
 0.8882351567976E+00
 0.8955870904392E+00
 0.5301704128769E+00
 0.8002389363657E+00
 0.9774668495473E+00
 0.1081934588154E+01
 0.1130666680941E+01
 0.1140748299114E+01
 0.1126464638174E+01
 0.1099149979220E+01
 0.1066957785068E+01
 0.1033832874702E+01
 0.1001434492204E+01
 0.9706272278728E+00
 0.9419135380290E+00
 0.9153314755715E+00
 0.8907898019131E+00
 0.8682710917005E+00
 0.8475005138237E+00
 0.8281048187215E+00
 0.8184328206374E+00
 0.8286492118634E+00
 0.5808077470018E+00
 0.8753100515125E+00
 0.1050100084598E+01
 0.1138275109498E+01
 0.1164515513501E+01
 0.1151642687128E+01
 0.1117572016090E+01
 0.1075134713765E+01
 0.1031935351888E+01
 0.9906477742040E+00
 0.9519662574906E+00
 0.9161480578839E+00
 0.8832571564709E+00
 0.8529683981652E+00
 0.8249547923320E+00
 0.7990715300938E+00
 0.7749228348294E+00
 0.7527177935605E+00
 0.7424175986736E+00
 0.7556456462005E+00
 0.6392746219122E+00
 0.9595467663662E+00
 0.1126404799218E+01
 0.1191441948352E+01
 0.1189557544356E+01
 0.1150526927450E+01
 0.1095920422450E+01
 0.1039223413837E+01
 0.9864197202629E+00
 0.9383321540614E+00
 0.8945296506008E+00
 0.8546476847428E+00
 0.8183084624023E+00
 0.7848230774700E+00
 0.7536398970667E+00
 0.7245016499846E+00
 0.6969104088261E+00
 0.6718686382411E+00
 0.6609441383671E+00
 0.6771378865507E+00
 0.7072128102761E+00
 0.1054038762634E+01
 0.1205315360290E+01
 0.1238809253579E+01
 0.1202923782092E+01
 0.1135413730537E+01
 0.1060801822067E+01
 0.9917031689323E+00
 0.9312208004083E+00
 0.8779128074172E+00
 0.8302392602874E+00
 0.7872829326918E+00
 0.7482378046538E+00
 0.7120531136934E+00
 0.6779679337891E+00
 0.6456302626941E+00
 0.6144588373894E+00
 0.5865029751950E+00
 0.5748816156880E+00
 0.5937913673169E+00
 0.7867263132119E+00
 0.1159869632316E+01
 0.1284911472318E+01
 0.1276762282939E+01
 0.1201383282096E+01
 0.1104733410196E+01
 0.1012279574128E+01
 0.9335128604005E+00
 0.8675385117989E+00
 0.8106263001446E+00
 0.7603466082673E+00
 0.7153230368867E+00
 0.6743088696123E+00
 0.6358895001538E+00
 0.5991249428382E+00
 0.5635974586075E+00
 0.5286591052796E+00
 0.4977067920508E+00
 0.4852810497711E+00
 0.5064488188779E+00
 0.8805850613384E+00
 0.1277938489196E+01
 0.1361819338743E+01
 0.1300390912656E+01
 0.1181661098186E+01
 0.1057876128217E+01
 0.9514215561899E+00
 0.8661234303765E+00
 0.7967479709453E+00
 0.7377873532281E+00
 0.6861934173227E+00
 0.6401324420163E+00
 0.5978547795567E+00
 0.5576031383544E+00
 0.5183333707744E+00
 0.4796138096367E+00
 0.4407360123338E+00
 0.4067873306910E+00
 0.3934843720112E+00
 0.4162530761091E+00
 0.9925610155359E+00
 0.1408482862917E+01
 0.1430095971657E+01
 0.1303246530738E+01
 0.1141286519549E+01
 0.9959099543135E+00
 0.8802136075714E+00
 0.7910844224341E+00
 0.7201468403403E+00
 0.6607479097235E+00
 0.6092413293704E+00
 0.5631750144557E+00
 0.5202391949404E+00
 0.4784503823222E+00
 0.4368155934986E+00
 0.3949656347176E+00
 0.3521129045071E+00
 0.3154000879125E+00
 0.3012926458839E+00
 0.3248432649607E+00
 0.1128023549101E+01
 0.1549755463761E+01
 0.1479030579145E+01
 0.1277736011296E+01
 0.1080444946537E+01
 0.9220771060026E+00
 0.8005482738729E+00
 0.7094636390171E+00
 0.6389198942714E+00
 0.5810389668890E+00
 0.5311560049643E+00
 0.4859819302766E+00
 0.4427673505038E+00
 0.3995924717741E+00
 0.3557506868549E+00
 0.3110285961140E+00
 0.2645032599903E+00
 0.2257347611222E+00
 0.2112203497516E+00
 0.2346663932232E+00
 0.1294899969114E+01
 0.1693623077388E+01
 0.1489165739431E+01
 0.1217868266520E+01
 0.1005655428751E+01
 0.8397057746238E+00
 0.7128575771933E+00
 0.6217795421545E+00
 0.5545159397392E+00
 0.5006633122379E+00
 0.4538062416998E+00
 0.4100010894406E+00
 0.3665478266091E+00
 0.3220087913292E+00
 0.2762400521357E+00
 0.2292727784154E+00
 0.1800158995547E+00
 0.1407578693617E+00
 0.1268750398369E+00
 0.1494992681859E+00
 0.1506246639456E+01
 0.1810918732013E+01
 0.1423133411278E+01
 0.1136778544203E+01
 0.9258230459729E+00
 0.7487588420944E+00
 0.6158247126667E+00
 0.5287240837562E+00
 0.4695038663623E+00
 0.4222144268824E+00
 0.3789620824651E+00
 0.3363348250512E+00
 0.2923821076294E+00
 0.2464659650905E+00
 0.1992253949922E+00
 0.1512714296020E+00
 0.1012001296373E+00
 0.6442932589046E-01
 0.5349145616396E-01
 0.7539625512526E-01
 0.1761167874602E+01
 0.1726799853893E+01
 0.1298626989522E+01
 0.1060634397223E+01
 0.8430883837939E+00
 0.6454133630573E+00
 0.5066192407116E+00
 0.4336101127342E+00
 0.3881661979489E+00
 0.3482032509339E+00
 0.3077206528913E+00
 0.2655424098249E+00
 0.2208256574672E+00
 0.1735718124057E+00
 0.1253738110385E+00
 0.7821357351800E-01
 0.3168147597253E-01
 0.1990798362857E-02
 0.3582743576498E-02
 0.2199029611336E-01
 0.1548229027805E+00
 0.1207493935261E+00
 0.9237604573874E-01
 0.6810165956267E-01
 0.4782264862145E-01
 0.3184436252837E-01
 0.2021413928563E-01
 0.1272575834201E-01
 0.8932706227254E-02
 0.8189811515698E-02
 0.9662556318240E-02
 0.1238900162628E-01
 0.1541197391829E-01
 0.1788727137370E-01
 0.1918654894666E-01
 0.1898514514730E-01
 0.1730511770007E-01
 0.1449891316269E-01
 0.1119522387290E-01
 0.8187681565262E-02
 0.1773931687636E+00
 0.1461373610347E+00
 0.1150249661752E+00
 0.8811256354524E-01
 0.6567154710278E-01
 0.4779208684696E-01
 0.3452815822099E-01
 0.2574914829637E-01
 0.2108978311428E-01
 0.1993453689138E-01
 0.2142900348141E-01
 0.2453858830752E-01
 0.2815513543219E-01
 0.3122667488450E-01
 0.3290064859970E-01
 0.3265953915175E-01
 0.3040878429956E-01
 0.2648119396077E-01
 0.2154748749550E-01
 0.1657140969425E-01
 0.2007816289569E+00
 0.1702884356228E+00
 0.1392126966111E+00
 0.1105038204161E+00
 0.8584161999847E-01
 0.6574507443426E-01
 0.5042867888142E-01
 0.3989565686619E-01
 0.3390225318538E-01
 0.3192243542415E-01
 0.3313766088582E-01
 0.3647328354791E-01
 0.4068946962782E-01
 0.4451840264818E-01
 0.4683932053806E-01
 0.4686830266902E-01
 0.4431158979937E-01
 0.3941533261936E-01
 0.3287865552386E-01
 0.2565868186146E-01
 0.2260945907004E+00
 0.1955628386415E+00
 0.1644684710414E+00
 0.1348161395599E+00
 0.1082928018892E+00
 0.8592357928014E-01
 0.6824785000743E-01
 0.5550538013991E-01
 0.4765262897727E-01
 0.4432956044978E-01
 0.4482981005008E-01
 0.4810675843323E-01
 0.5283702273713E-01
 0.5754824384334E-01
 0.6081252691457E-01
 0.6149059838168E-01
 0.5897190310333E-01
 0.5331591036525E-01
 0.4519976362050E-01
 0.3562632864392E-01
 0.2533344878902E+00
 0.2226394775718E+00
 0.1914740354296E+00
 0.1611498464785E+00
 0.1331463873986E+00
 0.1086328552164E+00
 0.8843911628015E-01
 0.7308770175595E-01
 0.6280440474738E-01
 0.5748127666378E-01
 0.5662615373127E-01
 0.5933136181728E-01
 0.6429247170735E-01
 0.6989990674520E-01
 0.7442125520917E-01
 0.7628015631043E-01
 0.7439331625571E-01
 0.6845419802847E-01
 0.5900241970397E-01
 0.4716846768417E-01
 0.2824827605212E+00
 0.2517645272913E+00
 0.2206062570395E+00
 0.1898428366965E+00
 0.1606749930693E+00
 0.1342548672709E+00
 0.1115592151477E+00
 0.9334951063570E-01
 0.8013483975397E-01
 0.7211592983138E-01
 0.6911080324168E-01
 0.7048237749181E-01
 0.7509808593509E-01
 0.8135496007842E-01
 0.8730558382506E-01
 0.9092129042893E-01
 0.9049793734782E-01
 0.8511713647901E-01
 0.7495299356886E-01
 0.6119582998575E-01
 0.3135019676765E+00
 0.2830571671594E+00
 0.2521236310805E+00
 0.2212076331864E+00
 0.1912338094572E+00
 0.1632371322757E+00
 0.1382244575156E+00
 0.1171025389084E+00
 0.1006181635945E+00
 0.8928455421435E-01
 0.8328777770911E-01
 0.8237885389290E-01
 0.8577162166056E-01
 0.9207954073589E-01
 0.9933663121273E-01
 0.1051661165058E+00
 0.1071669698171E+00
 0.1035185737060E+00
 0.9361989787813E-01
 0.7838228293310E-01
 0.3463205549964E+00
 0.3165421812668E+00
 0.2861731787145E+00
 0.2554898427448E+00
 0.2251627385715E+00
 0.1960544088006E+00
 0.1691043736044E+00
 0.1452594389949E+00
 0.1254134937658E+00
 0.1103353271193E+00
 0.1005727420668E+00
 0.9632904098266E-01
 0.9731732505061E-01
 0.1026125936863E+00
 0.1105401401583E+00
 0.1186682698725E+00
 0.1240250269759E+00
 0.1236816336525E+00
 0.1156862465019E+00
 0.9996992874332E-01
 0.3808303401948E+00
 0.3521676749923E+00
 0.3227959169003E+00
 0.2928266042770E+00
 0.2627082408728E+00
 0.2331055044615E+00
 0.2048193373549E+00
 0.1787357068951E+00
 0.1557819172663E+00
 0.1368731431431E+00
 0.1228360479412E+00
 0.1142988973395E+00
 0.1115405497808E+00
 0.1142977805343E+00
 0.1215446608700E+00
 0.1312838479472E+00
 0.1404505701157E+00
 0.1451662386352E+00
 0.1416525731031E+00
 0.1277274880521E+00
 0.4168876656024E+00
 0.3898206142296E+00
 0.3619390897189E+00
 0.3332383475369E+00
 0.3039835257832E+00
 0.2746420975870E+00
 0.2458358485235E+00
 0.2183114731961E+00
 0.1929186669600E+00
 0.1705836942601E+00
 0.1522667643509E+00
 0.1388909239306E+00
 0.1312281520298E+00
 0.1297262306467E+00
 0.1342606860358E+00
 0.1438033155821E+00
 0.1560249164822E+00
 0.1669573232503E+00
 0.1712202409425E+00
 0.1635358669293E+00
 0.4543162142507E+00
 0.4293345715133E+00
 0.4034626210578E+00
 0.3766233077083E+00
 0.3489424625317E+00
 0.3207134865533E+00
 0.2923722992798E+00
 0.2644848747888E+00
 0.2377430317650E+00
 0.2129618130690E+00
 0.1910707283155E+00
 0.1730894031423E+00
 0.1600746630213E+00
 0.1530197478757E+00
 0.1526765862686E+00
 0.1592578822828E+00
 0.1719561336914E+00
 0.1881938568741E+00
 0.2026464863473E+00
 0.2072631488115E+00
 0.4929040464428E+00
 0.4704817431424E+00
 0.4471336963713E+00
 0.4227515749533E+00
 0.3973677518492E+00
 0.3711407822972E+00
 0.3443442046865E+00
 0.3173635750542E+00
 0.2907015183176E+00
 0.2649884874247E+00
 0.2409959092554E+00
 0.2196472520628E+00
 0.2020202874178E+00
 0.1893291642109E+00
 0.1828655480465E+00
 0.1838599020463E+00
 0.1931848594499E+00
 0.2107389693995E+00
 0.2340703924356E+00
 0.2555945482920E+00
 0.5324002119760E+00
 0.5129546269001E+00
 0.4925976244308E+00
 0.4712221866584E+00
 0.4488113992981E+00
 0.4254368440035E+00
 0.4012551313299E+00
 0.3765088473200E+00
 0.3515338074469E+00
 0.3267728571476E+00
 0.3027959135808E+00
 0.2803257461571E+00
 0.2602686657882E+00
 0.2437482849722E+00
 0.2321378420803E+00
 0.2270796048456E+00
 0.2304633688932E+00
 0.2442809990857E+00
 0.2701381775523E+00
 0.3068457527365E+00
 0.5725282330760E+00
 0.5563894150271E+00
 0.5394037537265E+00
 0.5214867281234E+00
 0.5026089976379E+00
 0.4828016051905E+00
 0.4621572724830E+00
 0.4408334412764E+00
 0.4190596388818E+00
 0.3971505391259E+00
 0.3755258963667E+00
 0.3547389505944E+00
 0.3355158566376E+00
 0.3188103695333E+00
 0.3058809255185E+00
 0.2984028636412E+00
 0.2986392689162E+00
 0.3097248165800E+00
 0.3361749035465E+00
 0.3853339132733E+00
 0.6129986403276E+00
 0.6003968250579E+00
 0.5870521913889E+00
 0.5729127830038E+00
 0.5579605126197E+00
 0.5422192289804E+00
 0.5257590825272E+00
 0.5087013912091E+00
 0.4912264366273E+00
 0.4735858779182E+00
 0.4561214574367E+00
 0.4392922560152E+00
 0.4237140232851E+00
 0.4102164461364E+00
 0.3999286071577E+00
 0.3944114857858E+00
 0.3958754645606E+00
 0.4075650624594E+00
 0.4345319709115E+00
 0.4855826849243E+00
 0.6535185992981E+00
 0.6445839137918E+00
 0.6350326167175E+00
 0.6248464794018E+00
 0.6140282697885E+00
 0.6026102305618E+00
 0.5906597185227E+00
 0.5782847581474E+00
 0.5656413689249E+00
 0.5529440842423E+00
 0.5404810499090E+00
 0.5286354321408E+00
 0.5179156146622E+00
 0.5089979852204E+00
 0.5027883386856E+00
 0.5005117581792E+00
 0.5038471517855E+00
 0.5151318965619E+00
 0.5376680565931E+00
 0.5757964450034E+00
 0.6938000676629E+00
 0.6885689564701E+00
 0.6828517591591E+00
 0.6766596782837E+00
 0.6700161116016E+00
 0.6629642306807E+00
 0.6555723544741E+00
 0.6479387693085E+00
 0.6401971761533E+00
 0.6325236229368E+00
 0.6251456141826E+00
 0.6183540304032E+00
 0.6125184565390E+00
 0.6081063639996E+00
 0.6057059714720E+00
 0.6060505763686E+00
 0.6100358569971E+00
 0.6187031725744E+00
 0.6330869487543E+00
 0.6537416013925E+00
 0.7335657934976E+00
 0.7319895263970E+00
 0.7300459083347E+00
 0.7277682931120E+00
 0.7251947407982E+00
 0.7223741174297E+00
 0.7193702107968E+00
 0.7162647681179E+00
 0.7131600469671E+00
 0.7101811766375E+00
 0.7074783305632E+00
 0.7052283516140E+00
 0.7036349232887E+00
 0.7029253968946E+00
 0.7033404885073E+00
 0.7051092595582E+00
 0.7083943130171E+00
 0.7131767126058E+00
 0.7190404060209E+00
 0.7248850463759E+00
 0.7725542655341E+00
 0.7745083147382E+00
 0.7761884646645E+00
 0.7776416288788E+00
 0.7789117639258E+00
 0.7800444062529E+00
 0.7810891572074E+00
 0.7821005189419E+00
 0.7831373011996E+00
 0.7842605303636E+00
 0.7855294478697E+00
 0.7869947577837E+00
 0.7886876864606E+00
 0.7906025286992E+00
 0.7926690218151E+00
 0.7947090681750E+00
 0.7963704212671E+00
 0.7970321837524E+00
 0.7956931089470E+00
 0.7908382912714E+00
 0.8105237638129E+00
 0.8158174890574E+00
 0.8208949993931E+00
 0.8258080359292E+00
 0.8305967852143E+00
 0.8352933729177E+00
 0.8399228586894E+00
 0.8445020576925E+00
 0.8490363195464E+00
 0.8535140812395E+00
 0.8578987217541E+00
 0.8621169441942E+00
 0.8660425936168E+00
 0.8694745281391E+00
 0.8721070764798E+00
 0.8734922250598E+00
 0.8729953425906E+00
 0.8697530161257E+00
 0.8626491993226E+00
 0.8503495297558E+00
 0.8472541401282E+00
 0.8556397296127E+00
 0.8638241104233E+00
 0.8718550693836E+00
 0.8797595570958E+00
 0.8875468366678E+00
 0.8952083758596E+00
 0.9027153015289E+00
 0.9100136036790E+00
 0.9170170088938E+00
 0.9235972589006E+00
 0.9295714263796E+00
 0.9346859117621E+00
 0.9385970024153E+00
 0.9408485552841E+00
 0.9408488583703E+00
 0.9378513573924E+00
 0.9309470609615E+00
 0.9190806114441E+00
 0.9011168710934E+00
 0.8825456547895E+00
 0.8937263288728E+00
 0.9046744285081E+00
 0.9154246456693E+00
 0.9259822694536E+00
 0.9363257927485E+00
 0.9464062940675E+00
 0.9561444190654E+00
 0.9654253039603E+00
 0.9740915688198E+00
 0.9819344438436E+00
 0.9886831386627E+00
 0.9939927553752E+00
 0.9974314398781E+00
 0.9984681255067E+00
 0.9964630992756E+00
 0.9906643006706E+00
 0.9802119185917E+00
 0.9641513386731E+00
 0.9414280570272E+00
 0.9162240859976E+00
 0.9298646296891E+00
 0.9431921245270E+00
 0.9562203209867E+00
 0.9689258571150E+00
 0.9812504561118E+00
 0.9931004525451E+00
 0.1004344282791E+01
 0.1014808380925E+01
 0.1024271839889E+01
 0.1032460213966E+01
 0.1039038939578E+01
 0.1043607030765E+01
 0.1045691939834E+01
 0.1044746670706E+01
 0.1040150165856E+01
 0.1031211260409E+01
 0.1017174616982E+01
 0.9972214283882E+00
 0.9704562976657E+00
 0.9481394780459E+00
 0.9638759851330E+00
 0.9791683549879E+00
 0.9940036254997E+00
 0.1008324469610E+01
 0.1022031681709E+01
 0.1034984659580E+01
 0.1047000329689E+01
 0.1057851029326E+01
 0.1067261904422E+01
 0.1074908434936E+01
 0.1080414768820E+01
 0.1083353605106E+01
 0.1083248347145E+01
 0.1079578023564E+01
 0.1071784881697E+01
 0.1059283519727E+01
 0.1041468973114E+01
 0.1017721827631E+01
 0.9874167476867E+00
 0.9781650066907E+00
 0.9956128253217E+00
 0.1012435158687E+01
 0.1028588467463E+01
 0.1043977655811E+01
 0.1058459948544E+01
 0.1071847281764E+01
 0.1083907452976E+01
 0.1094364644217E+01
 0.1102900053956E+01
 0.1109153407232E+01
 0.1112726105357E+01
 0.1113186711965E+01
 0.1110079297560E+01
 0.1102934810169E+01
 0.1091285071560E+01
 0.1074678270104E+01
 0.1052694595543E+01
 0.1024962108918E+01
 0.9911735440338E+00
 0.1006195613339E+01
 0.1024955730617E+01
 0.1042861180401E+01
 0.1059835364036E+01
 0.1075742544150E+01
 0.1090394760330E+01
 0.1103557140611E+01
 0.1114951835952E+01
 0.1124261410223E+01
 0.1131132618874E+01
 0.1135181453428E+01
 0.1136000223890E+01
 0.1133167314895E+01
 0.1126260079625E+01
 0.1114871145139E+01
 0.1098628240566E+01
 0.1077217602566E+01
 0.1050410711144E+01
 0.1018092305576E+01
 0.9802840022078E+00
 0.1032145902407E+01
 0.1051810145744E+01
 0.1070347479572E+01
 0.1087646031405E+01
 0.1103526631437E+01
 0.1117755037616E+01
 0.1130051086119E+01
 0.1140095607064E+01
 0.1147536428722E+01
 0.1151994661067E+01
 0.1153072207013E+01
 0.1150361227438E+01
 0.1143456115504E+01
 0.1131968458056E+01
 0.1115545561741E+01
 0.1093893541158E+01
 0.1066806771560E+01
 0.1034206346901E+01
 0.9961881844078E+00
 0.9530728740110E+00
 0.1055947315578E+01
 0.1076102998220E+01
 0.1094823845756E+01
 0.1111958751825E+01
 0.1127281463024E+01
 0.1140510601354E+01
 0.1151323110612E+01
 0.1159363824433E+01
 0.1164253335329E+01
 0.1165595659325E+01
 0.1162986659073E+01
 0.1156023806934E+01
 0.1144317638238E+01
 0.1127505204964E+01
 0.1105266098336E+01
 0.1077342350547E+01
 0.1043565160281E+01
 0.1003894843753E+01
 0.9584887355167E+00
 0.9078144546599E+00
 0.1077544856377E+01
 0.1097780029529E+01
 0.1116246362967E+01
 0.1132744921214E+01
 0.1146997307281E+01
 0.1158674628585E+01
 0.1167414692653E+01
 0.1172833262132E+01
 0.1174532578322E+01
 0.1172108935757E+01
 0.1165160183811E+01
 0.1153293427562E+01
 0.1136132814175E+01
 0.1113327095850E+01
 0.1084556662975E+01
 0.1049540034610E+01
 0.1008040673841E+01
 0.9598781576510E+00
 0.9049600443088E+00
 0.8434111966121E+00
 0.1096894350803E+01
 0.1116805636674E+01
 0.1134596986022E+01
 0.1150006489240E+01
 0.1162697769096E+01
 0.1172295444479E+01
 0.1178404314364E+01
 0.1180620680197E+01
 0.1178539959473E+01
 0.1171762573198E+01
 0.1159898751730E+01
 0.1142572019664E+01
 0.1119420474407E+01
 0.1090094401283E+01
 0.1054248070791E+01
 0.1011522356996E+01
 0.9615125413952E+00
 0.9037103757718E+00
 0.8373972666361E+00
 0.7614574636774E+00
 0.1113962678724E+01
 0.1133166437486E+01
 0.1149883472315E+01
 0.1163770680089E+01
 0.1174429186051E+01
 0.1181441427589E+01
 0.1184389483544E+01
 0.1182864251250E+01
 0.1176470435488E+01
 0.1164829378319E+01
 0.1147579985303E+01
 0.1124376831542E+01
 0.1094883618099E+01
 0.1058759180845E+01
 0.1015631793466E+01
 0.9650548068215E+00
 0.9064305651061E+00
 0.8388756224524E+00
 0.7609561095083E+00
 0.6700229237606E+00
 0.1128727244437E+01
 0.1146866472114E+01
 0.1162128042724E+01
 0.1174073131031E+01
 0.1182240651458E+01
 0.1186181519352E+01
 0.1185472139590E+01
 0.1179718704431E+01
 0.1168557873693E+01
 0.1151655678845E+01
 0.1128704285216E+01
 0.1099414898743E+01
 0.1063504103310E+01
 0.1020669857802E+01
 0.9705518614186E+00
 0.9126683804316E+00
 0.8463173085259E+00
 0.7704185899234E+00
 0.6832656575752E+00
 0.5821227713458E+00
 0.1141173566545E+01
 0.1157915581187E+01
 0.1171353763741E+01
 0.1180945075170E+01
 0.1186175160759E+01
 0.1186583303847E+01
 0.1181765704179E+01
 0.1171371608686E+01
 0.1155098143911E+01
 0.1132684885522E+01
 0.1103906717629E+01
 0.1068562266177E+01
 0.1026454473670E+01
 0.9773592732918E+00
 0.9209777148060E+00
 0.8568669632834E+00
 0.7843484825442E+00
 0.7024100671431E+00
 0.6096649560026E+00
 0.5048888427069E+00
 0.1151306018370E+01
 0.1166339703904E+01
 0.1177592850545E+01
 0.1184418935744E+01
 0.1186271143490E+01
 0.1182707296731E+01
 0.1173375808473E+01
 0.1158000229525E+01
 0.1136367226999E+01
 0.1108317064074E+01
 0.1073733290745E+01
 0.1032527856712E+01
 0.9846180571361E+00
 0.9298922544529E+00
 0.8681625142230E+00
 0.7991058776693E+00
 0.7222077852858E+00
 0.6367561062984E+00
 0.5420629703333E+00
 0.4381026762660E+00
 0.1159150230990E+01
 0.1172179102731E+01
 0.1180881523837E+01
 0.1184522769657E+01
 0.1182559377335E+01
 0.1174607261043E+01
 0.1160402283259E+01
 0.1139770858835E+01
 0.1112611830095E+01
 0.1078884451390E+01
 0.1038596634057E+01
 0.9917889347087E+00
 0.9385117426557E+00
 0.8787950935927E+00
 0.8126132810706E+00
 0.7398515625683E+00
 0.6602929066240E+00
 0.5736625707625E+00
 0.4798102877894E+00
 0.3790556346325E+00
 0.1164757858668E+01
 0.1175489062802E+01
 0.1181255825792E+01
 0.1181275416555E+01
 0.1175060517129E+01
 0.1162330316599E+01
 0.1142938768216E+01
 0.1116833210222E+01
 0.1084034341312E+01
 0.1044625396017E+01
 0.9987415211120E+00
 0.9465557769490E+00
 0.8882617979074E+00
 0.8240559939389E+00
 0.7541252764487E+00
 0.6786497882394E+00
 0.5978292538788E+00
 0.5119202246989E+00
 0.4211053571598E+00
 0.3251326083157E+00
 0.1168205711477E+01
 0.1176327096846E+01
 0.1178735786197E+01
 0.1174677239554E+01
 0.1163790574183E+01
 0.1145940105690E+01
 0.1121113425219E+01
 0.1089378693785E+01
 0.1050872477955E+01
 0.1005793608000E+01
 0.9543954674687E+00
 0.8969767035170E+00
 0.8338738732724E+00
 0.7654622237920E+00
 0.6921734636746E+00
 0.6145400475987E+00
 0.5332665775289E+00
 0.4492726819186E+00
 0.3634605822254E+00
 0.2749291390666E+00
 0.1169609629443E+01
 0.1174781585157E+01
 0.1173383093686E+01
 0.1164812974665E+01
 0.1148915003916E+01
 0.1125716973315E+01
 0.1095322744596E+01
 0.1057899759617E+01
 0.1013679711786E+01
 0.9629554892449E+00
 0.9060751108512E+00
 0.8434370154696E+00
 0.7754928942588E+00
 0.7027663900646E+00
 0.6258984623378E+00
 0.5457312625149E+00
 0.4634351783374E+00
 0.3806576457658E+00
 0.2996039373192E+00
 0.2220792098393E+00
 0.1169150149086E+01
 0.1170973281152E+01
 0.1165265259405E+01
 0.1151799917327E+01
 0.1130678574099E+01
 0.1102031686793E+01
 0.1066031629171E+01
 0.1022913632552E+01
 0.9729768776757E+00
 0.9165775294584E+00
 0.8541206739819E+00
 0.7860571828757E+00
 0.7128921310414E+00
 0.6352136212744E+00
 0.5537541307382E+00
 0.4695007576401E+00
 0.3838792897491E+00
 0.2990703929409E+00
 0.2186934267618E+00
 0.1504467129887E+00
 0.1167050957537E+01
 0.1164866317881E+01
 0.1154264919780E+01
 0.1135722915696E+01
 0.1109372268638E+01
 0.1075340089010E+01
 0.1033835090136E+01
 0.9851433700768E+00
 0.9296147861377E+00
 0.8676491534904E+00
 0.7996871796714E+00
 0.7262102987203E+00
 0.6477555454973E+00
 0.5649545599709E+00
 0.4786103488072E+00
 0.3898339227121E+00
 0.3002862735574E+00
 0.2126499149698E+00
 0.1317400962680E+00
 0.6898078415823E-01
</DataArray>
<DataArray type="Float64" Name="OI" NumberOfComponents="1" ComponentName0="OI" format="ascii">
 0.1317299893587E+01
 0.1252072555168E+01
 0.1191385271207E+01
 0.1181657687373E+01
 0.1172456326447E+01
 0.1165153633952E+01
 0.1156724552093E+01
 0.1146823796715E+01
 0.1135196945228E+01
 0.1121841267171E+01
 0.1106804188193E+01
 0.1090156105270E+01
 0.1071961912592E+01
 0.1052271572878E+01
 0.1031115806668E+01
 0.1008506087650E+01
 0.9844372158005E+00
 0.9588938892165E+00
 0.9318563200793E+00
 0.9033148566615E+00
 0.8732877065848E+00
 0.8418599172269E+00
 0.8092709768916E+00
 0.7759062125152E+00
 0.7414585400047E+00
 0.7048054516067E+00
 0.6651088486309E+00
 0.6223419024297E+00
 0.5772457835603E+00
 0.5310847842175E+00
 0.4854100219072E+00
 0.4419166051876E+00
 0.4023719532524E+00
 0.3689749408961E+00
 0.3447773445531E+00
 0.3329736143514E+00
 0.3383776286511E+00
 0.3615874918401E+00
 0.4362333504922E+00
 0.4498147566782E+00
 0.1003561792168E+01
 0.1137004431106E+01
 0.1212815619360E+01
 0.1164986489940E+01
 0.1141538626632E+01
 0.1129657916037E+01
 0.1119335666459E+01
 0.1109370658056E+01
 0.1098520778911E+01
 0.1086426784576E+01
 0.1072919344349E+01
 0.1057961387214E+01
 0.1041562279022E+01
 0.1023748004477E+01
 0.1004543122878E+01
 0.9839629831408E+00
 0.9620110772690E+00
 0.9386799853647E+00
 0.9139555965599E+00
 0.8878234442951E+00
 0.8602789340317E+00
 0.8313437380597E+00
 0.8010882104632E+00
 0.7696041055633E+00
 0.7368820345615E+00
 0.7026858216675E+00
 0.6666081738958E+00
 0.6283503440493E+00
 0.5880004521838E+00
 0.5461089423524E+00
 0.5036086950106E+00
 0.4616917827488E+00
 0.4217259203582E+00
 0.3852542259509E+00
 0.3540546817880E+00
 0.3300666693560E+00
 0.3155186279981E+00
 0.3113787613978E+00
 0.3218899476457E+00
 0.3321414587049E+00
 0.2958352576585E+00
 0.7199977822690E+00
 0.1024189748468E+01
 0.1129252333202E+01
 0.1123925361971E+01
 0.1099762634896E+01
 0.1085399881479E+01
 0.1073561685597E+01
 0.1062330892587E+01
 0.1050736594292E+01
 0.1038237524767E+01
 0.1024601691315E+01
 0.1009723894074E+01
 0.9935689161533E+00
 0.9761302738200E+00
 0.9574106543940E+00
 0.9374112276978E+00
 0.9161272477100E+00
 0.8935473672712E+00
 0.8696565211842E+00
 0.8444406176885E+00
 0.8178938170544E+00
 0.7900285351107E+00
 0.7608685869128E+00
 0.7303818459005E+00
 0.6984373796563E+00
 0.6649116369678E+00
 0.6297584185011E+00
 0.5930025832599E+00
 0.5548248975828E+00
 0.5156532905780E+00
 0.4761734808350E+00
 0.4372858925954E+00
 0.4000682701001E+00
 0.3657512623513E+00
 0.3356031922580E+00
 0.3108282555639E+00
 0.2922266270687E+00
 0.2799739822948E+00
 0.2722127331823E+00
 0.2461373530122E+00
 0.2438062871231E+00
 0.5868826915332E+00
 0.9404966759171E+00
 0.1045777844406E+01
 0.1068202521015E+01
 0.1054227185917E+01
 0.1039741806082E+01
 0.1027330682391E+01
 0.1015406145583E+01
 0.1003293161199E+01
 0.9905103049162E+00
 0.9767981435974E+00
 0.9620236629805E+00
 0.9461222033045E+00
 0.9290643824619E+00
 0.9108355967219E+00
 0.8914249452815E+00
 0.8708197355908E+00
 0.8490037110266E+00
 0.8259586368934E+00
 0.8016670403591E+00
 0.7761162345180E+00
 0.7492990729449E+00
 0.7211890537083E+00
 0.6916867005691E+00
 0.6606458609071E+00
 0.6280412873930E+00
 0.5940180200496E+00
 0.5587781417784E+00
 0.5225590098724E+00
 0.4857019812365E+00
 0.4487044802909E+00
 0.4122277115949E+00
 0.3770812207671E+00
 0.3441631209807E+00
 0.3143023066122E+00
 0.2880528778795E+00
 0.2654306332064E+00
 0.2456414495827E+00
 0.2233848066996E+00
 0.1926898628203E+00
 0.2270084206317E+00
 0.4914059667182E+00
 0.8718518133624E+00
 0.9691983129879E+00
 0.1006502994266E+01
 0.1004146001193E+01
 0.9925333064847E+00
 0.9804627245184E+00
 0.9684036017098E+00
 0.9560581704292E+00
 0.9431383486652E+00
 0.9294276510885E+00
 0.9147963893445E+00
 0.8991700430798E+00
 0.8825063586482E+00
 0.8647791127584E+00
 0.8459680428864E+00
 0.8260533567877E+00
 0.8050133497099E+00
 0.7828248647611E+00
 0.7594641516304E+00
 0.7349073354915E+00
 0.7091236343691E+00
 0.6820477201142E+00
 0.6535534528700E+00
 0.6235173119507E+00
 0.5919861580574E+00
 0.5592028837522E+00
 0.5254557262857E+00
 0.4910042529345E+00
 0.4561207334909E+00
 0.4211551489661E+00
 0.3865698168845E+00
 0.3529319298344E+00
 0.3208423933547E+00
 0.2907669134810E+00
 0.2628236423242E+00
 0.2366450161203E+00
 0.2108341221570E+00
 0.1823099698902E+00
 0.1598380210138E+00
 0.2143654685127E+00
 0.4122305834085E+00
 0.8119284511454E+00
 0.8995116068870E+00
 0.9436768940546E+00
 0.9509140433564E+00
 0.9436716046229E+00
 0.9329089072850E+00
 0.9212067870217E+00
 0.9089272693322E+00
 0.8960347058313E+00
 0.8824183650566E+00
 0.8679830791636E+00
 0.8526628638401E+00
 0.8364133352957E+00
 0.8192026739350E+00
 0.8010044293662E+00
 0.7817929600631E+00
 0.7615409865583E+00
 0.7402192171347E+00
 0.7177955544183E+00
 0.6942325025672E+00
 0.6694768752502E+00
 0.6434382813791E+00
 0.6159868917828E+00
 0.5870304452828E+00
 0.5566622004334E+00
 0.5251674915566E+00
 0.4928646324399E+00
 0.4600087387354E+00
 0.4268110984549E+00
 0.3935030218774E+00
 0.3603815142488E+00
 0.3278075635903E+00
 0.2961403564114E+00
 0.2655870113152E+00
 0.2360515690487E+00
 0.2070761735417E+00
 0.1777778967182E+00
 0.1490772812287E+00
 0.1365656402721E+00
 0.1965300932011E+00
 0.3428833148225E+00
 0.7574928871575E+00
 0.8355367418347E+00
 0.8819214974224E+00
 0.8960908441148E+00
 0.8934475104194E+00
 0.8846789600330E+00
 0.8737692033944E+00
 0.8618285304730E+00
 0.8491309702790E+00
 0.8357091929165E+00
 0.8215306372998E+00
 0.8065543493246E+00
 0.7907440966326E+00
 0.7740685387140E+00
 0.7564984048023E+00
 0.7380037412889E+00
 0.7185519301726E+00
 0.6981068534988E+00
 0.6766268558734E+00
 0.6540602743012E+00
 0.6303352413228E+00
 0.6053472403404E+00
 0.5789732556001E+00
 0.5511486941876E+00
 0.5219914224401E+00
 0.4917948768081E+00
 0.4608729962239E+00
 0.4294578842637E+00
 0.3977040777566E+00
 0.3657456787174E+00
 0.3337452907402E+00
 0.3018998898075E+00
 0.2703932477922E+00
 0.2392905143011E+00
 0.2084677989330E+00
 0.1777201277690E+00
 0.1473972494500E+00
 0.1214746076134E+00
 0.1162785034311E+00
 0.1724902932164E+00
 0.2803955681278E+00
 0.7067376859083E+00
 0.7760928517824E+00
 0.8220946197348E+00
 0.8408379664539E+00
 0.8423292303749E+00
 0.8358739050193E+00
 0.8260900528480E+00
 0.8147225901226E+00
 0.8023765843071E+00
 0.7892499205528E+00
 0.7753923321578E+00
 0.7608018586573E+00
 0.7454594977659E+00
 0.7293401153018E+00
 0.7124149676555E+00
 0.6946514836164E+00
 0.6760122381965E+00
 0.6564540658128E+00
 0.6359253488989E+00
 0.6143610051861E+00
 0.5916746112087E+00
 0.5677546002549E+00
 0.5424876436052E+00
 0.5158287066617E+00
 0.4879029269388E+00
 0.4589901144821E+00
 0.4293789163420E+00
 0.3992666245059E+00
 0.3687543146941E+00
 0.3378965160032E+00
 0.3067510610098E+00
 0.2753957969640E+00
 0.2439098769004E+00
 0.2123270868398E+00
 0.1806644520476E+00
 0.1492520611356E+00
 0.1197606316646E+00
 0.9741819676697E-01
 0.9582017452571E-01
 0.1435201966267E+00
 0.2229473223141E+00
 0.6585816572017E+00
 0.7202209013847E+00
 0.7644258120745E+00
 0.7859010266910E+00
 0.7907826841959E+00
 0.7866597772219E+00
 0.7782064570779E+00
 0.7675962634638E+00
 0.7557379132039E+00
 0.7430007280196E+00
 0.7295278969947E+00
 0.7153666745952E+00
 0.7005227592555E+00
 0.6849822528103E+00
 0.6687200724738E+00
 0.6517027599478E+00
 0.6338888284237E+00
 0.6152282382592E+00
 0.5956596341879E+00
 0.5751058862233E+00
 0.5534694694423E+00
 0.5306354750676E+00
 0.5064988889805E+00
 0.4810251215426E+00
 0.4543332885685E+00
 0.4266758115177E+00
 0.3983037639173E+00
 0.3693730192172E+00
 0.3399349531523E+00
 0.3099803706429E+00
 0.2794910124728E+00
 0.2484710408255E+00
 0.2169647000335E+00
 0.1850770304106E+00
 0.1531173615102E+00
 0.1221194459738E+00
 0.9479823254165E-01
 0.7588447979284E-01
 0.7431110938079E-01
 0.1111894821147E+00
 0.1692676475908E+00
 0.6123416811057E+00
 0.6671840057105E+00
 0.7088649249099E+00
 0.7317140987199E+00
 0.7391930390599E+00
 0.7372255038313E+00
 0.7301833173192E+00
 0.7204567981027E+00
 0.7091958845670E+00
 0.6969314199920E+00
 0.6839032998801E+00
 0.6702140708532E+00
 0.6558996394086E+00
 0.6409614474857E+00
 0.6253808258853E+00
 0.6091250861555E+00
 0.5921495520981E+00
 0.5743977767371E+00
 0.5557992870382E+00
 0.5362663932620E+00
 0.5156928825699E+00
 0.4939617295468E+00
 0.4709727617134E+00
 0.4466932664485E+00
 0.4212264287208E+00
 0.3947887473085E+00
 0.3675870481756E+00
 0.3397330201213E+00
 0.3112331065145E+00
 0.2820294923987E+00
 0.2520556829809E+00
 0.2212868996300E+00
 0.1898002172464E+00
 0.1578723265581E+00
 0.1262519478011E+00
 0.9681534831796E-01
 0.7304626680961E-01
 0.5763179328575E-01
 0.5285129293970E-01
 0.7696050400088E-01
 0.1184385863041E+00
 0.5675658888445E+00
 0.6164235614920E+00
 0.6552485413922E+00
 0.6785030656929E+00
 0.6878471936505E+00
 0.6877513902064E+00
 0.6821004406130E+00
 0.6733263509012E+00
 0.6627431857842E+00
 0.6510202692348E+00
 0.6384903084624E+00
 0.6253132214983E+00
 0.6115585079318E+00
 0.5972459810686E+00
 0.5823656362604E+00
 0.5668870432389E+00
 0.5507632506413E+00
 0.5339320484442E+00
 0.5163146430946E+00
 0.4978140857799E+00
 0.4783168561399E+00
 0.4577033932747E+00
 0.4358740782567E+00
 0.4127906571237E+00
 0.3885331946135E+00
 0.3632772502663E+00
 0.3371824143615E+00
 0.3103162003083E+00
 0.2826459739194E+00
 0.2540802055945E+00
 0.2245315063073E+00
 0.1939908259179E+00
 0.1626387725838E+00
 0.1310414300505E+00
 0.1006008460156E+00
 0.7439404864665E-01
 0.5675623118375E-01
 0.4668390825372E-01
 0.3681308262973E-01
 0.4291928297704E-01
 0.6985354343980E-01
 0.5239433385390E+00
 0.5675151219648E+00
 0.6033779787251E+00
 0.6263625547516E+00
 0.6369428700120E+00
 0.6383921706970E+00
 0.6340408467218E+00
 0.6262364421423E+00
 0.6163814135172E+00
 0.6052526295397E+00
 0.5932658881458E+00
 0.5806369880065E+00
 0.5674703305820E+00
 0.5538059967093E+00
 0.5396443192719E+00
 0.5249583710734E+00
 0.5096998020257E+00
 0.4938013495676E+00
 0.4771767061297E+00
 0.4597206364586E+00
 0.4413128313574E+00
 0.4218297926137E+00
 0.4011680806236E+00
 0.3792777809877E+00
 0.3562107796119E+00
 0.3320990756233E+00
 0.3070544660859E+00
 0.2811022640269E+00
 0.2541776122267E+00
 0.2261704093875E+00
 0.1970002501248E+00
 0.1667222565173E+00
 0.1357093987860E+00
 0.1050095486157E+00
 0.7717208123119E-01
 0.5753358024861E-01
 0.5091101937800E-01
 0.4950040411150E-01
 0.3950485859321E-01
 0.2150560446104E-01
 0.2388612165614E-01
 0.4812525234094E+00
 0.5201331999553E+00
 0.5530545801092E+00
 0.5753078443958E+00
 0.5866060274459E+00
 0.5892709185750E+00
 0.5860823358268E+00
 0.5792229019587E+00
 0.5701183402835E+00
 0.5596194945185E+00
 0.5482115105104E+00
 0.5361616366206E+00
 0.5236086045790E+00
 0.5106135455380E+00
 0.4971881914168E+00
 0.4833100670313E+00
 0.4689301943056E+00
 0.4539769411344E+00
 0.4383571905424E+00
 0.4219580312358E+00
 0.4046522374260E+00
 0.3863104621614E+00
 0.3668213662093E+00
 0.3461184908294E+00
 0.3242221166706E+00
 0.3012196876674E+00
 0.2771762367574E+00
 0.2520782256762E+00
 0.2258363710071E+00
 0.1983380974817E+00
 0.1695410942064E+00
 0.1396270924956E+00
 0.1093087941680E+00
 0.8054937324792E-01
 0.5837068275930E-01
 0.5152690874758E-01
 0.5892168125280E-01
 0.6555656479344E-01
 0.6090286390089E-01
 0.4455307336201E-01
 0.2605530888786E-01
 0.4393307148206E+00
 0.4740251168731E+00
 0.5040944509806E+00
 0.5253083074858E+00
 0.5369085549166E+00
 0.5404793835296E+00
 0.5382925146053E+00
 0.5323218132766E+00
 0.5239654615458E+00
 0.5141161247871E+00
 0.5033124509612E+00
 0.4918665344530E+00
 0.4799492817726E+00
 0.4676426348670E+00
 0.4549701809270E+00
 0.4419145200398E+00
 0.4284266592989E+00
 0.4144311826758E+00
 0.3998287044030E+00
 0.3844989102710E+00
 0.3683070843300E+00
 0.3511159240969E+00
 0.3328025757187E+00
 0.3132802283717E+00
 0.2925353465440E+00
 0.2706109003656E+00
 0.2475271921203E+00
 0.2232361578649E+00
 0.1976329750334E+00
 0.1706211831690E+00
 0.1422372069517E+00
 0.1128917438518E+00
 0.8395889694483E-01
 0.5949174474599E-01
 0.4944632600517E-01
 0.5966099717614E-01
 0.7698242901243E-01
 0.8882845327099E-01
 0.8965232946745E-01
 0.8079083738735E-01
 0.7020395333395E-01
 0.3980550142803E+00
 0.4289920474093E+00
 0.4563334307788E+00
 0.4763083963260E+00
 0.4878833562654E+00
 0.4920815081847E+00
 0.4907266149183E+00
 0.4855666608652E+00
 0.4779359753947E+00
 0.4687408396064E+00
 0.4585571480818E+00
 0.4477338753060E+00
 0.4364707198138E+00
 0.4248693139144E+00
 0.4129649912971E+00
 0.4007457172071E+00
 0.3881629057058E+00
 0.3751377996562E+00
 0.3615650951612E+00
 0.3473170617408E+00
 0.3322506359058E+00
 0.3162184484710E+00
 0.2990830195806E+00
 0.2807342574364E+00
 0.2611234627195E+00
 0.2402498742860E+00
 0.2180916893707E+00
 0.1945714135444E+00
 0.1695792479836E+00
 0.1430593509216E+00
 0.1151923536592E+00
 0.8683329866042E-01
 0.6089017442832E-01
 0.4645669320283E-01
 0.5522217603285E-01
 0.7770745776625E-01
 0.1001943929914E+00
 0.1156851324601E+00
 0.1213457033832E+00
 0.1189951225412E+00
 0.1146467956613E+00
 0.3573302542939E+00
 0.3848753719934E+00
 0.4096275913469E+00
 0.4282405805888E+00
 0.4395362523139E+00
 0.4441181613662E+00
 0.4434272810203E+00
 0.4389866662394E+00
 0.4320433151547E+00
 0.4234940780915E+00
 0.4139367176085E+00
 0.4037485180911E+00
 0.3931537388924E+00
 0.3822718745890E+00
 0.3711493986010E+00
 0.3597796103064E+00
 0.3481145454031E+00
 0.3360723816651E+00
 0.3235420551374E+00
 0.3103881746939E+00
 0.2964583048261E+00
 0.2815929927883E+00
 0.2656374849340E+00
 0.2484561458345E+00
 0.2299643168531E+00
 0.2101185678215E+00
 0.1888579004419E+00
 0.1660812611433E+00
 0.1416875865153E+00
 0.1157001731961E+00
 0.8857641323168E-01
 0.6219072759110E-01
 0.4363140176952E-01
 0.4819300791116E-01
 0.7219207554644E-01
 0.1006075610878E+00
 0.1260794122052E+00
 0.1445917846233E+00
 0.1546007983795E+00
 0.1578820574953E+00
 0.1588019517361E+00
 0.3170810488603E+00
 0.3415468410567E+00
 0.3638518606214E+00
 0.3810332301047E+00
 0.3918550313587E+00
 0.3966120585126E+00
 0.3964256384492E+00
 0.3926061754939E+00
 0.3863003096759E+00
 0.3783778360683E+00
 0.3694447280297E+00
 0.3598980438116E+00
 0.3499818912699E+00
 0.3398312802648E+00
 0.3295028055998E+00
 0.3189947787930E+00
 0.3082598653699E+00
 0.2972132801055E+00
 0.2857381742402E+00
 0.2736910678859E+00
 0.2609090337151E+00
 0.2472186413925E+00
 0.2324455851620E+00
 0.2164268631119E+00
 0.1990413111881E+00
 0.1802038796470E+00
 0.1598172897899E+00
 0.1377638558037E+00
 0.1139715914236E+00
 0.8861728261268E-01
 0.6277868584986E-01
 0.4129472764946E-01
 0.4015641244354E-01
 0.6333700590895E-01
 0.9449970204840E-01
 0.1258811763832E+00
 0.1535531286586E+00
 0.1748419428322E+00
 0.1888352053488E+00
 0.1971069450201E+00
 0.2027112484572E+00
 0.2772464408909E+00
 0.2989014699289E+00
 0.3188980626785E+00
 0.3346154389307E+00
 0.3448162974971E+00
 0.3495724739164E+00
 0.3497432297716E+00
 0.3464450131274E+00
 0.3407190860793E+00
 0.3333956603760E+00
 0.3250774418211E+00
 0.3161732500249E+00
 0.3069421793342E+00
 0.2975320804905E+00
 0.2880083395749E+00
 0.2783737122236E+00
 0.2685813104346E+00
 0.2585433190260E+00
 0.2481369103007E+00
 0.2372099347360E+00
 0.2255877864592E+00
 0.2130812569372E+00
 0.1994944384175E+00
 0.1846353216442E+00
 0.1683455907626E+00
 0.1504991814872E+00
 0.1309650513875E+00
 0.1096175139375E+00
 0.8644954893067E-01
 0.6197504441195E-01
 0.3911648263032E-01
 0.3202375171158E-01
 0.5298415637727E-01
 0.8489278631794E-01
 0.1191979851591E+00
 0.1524730770135E+00
 0.1820921609975E+00
 0.2060598352549E+00
 0.2237400611963E+00
 0.2364923955013E+00
 0.2464481570245E+00
 0.2377762298548E+00
 0.2568524248377E+00
 0.2746730615114E+00
 0.2889201786108E+00
 0.2983908854993E+00
 0.3029998084466E+00
 0.3033947411143E+00
 0.3005199054739E+00
 0.2953119928071E+00
 0.2885535722771E+00
 0.2808349469731E+00
 0.2725695525787E+00
 0.2640267424833E+00
 0.2553643937494E+00
 0.2466551525623E+00
 0.2379054640208E+00
 0.2290685398340E+00
 0.2200533118841E+00
 0.2107306203744E+00
 0.2009389213423E+00
 0.1904906616915E+00
 0.1791790634347E+00
 0.1667845994873E+00
 0.1530844647002E+00
 0.1378819395224E+00
 0.1210093230750E+00
 0.1023029069911E+00
 0.8164033169891E-01
 0.5915889961633E-01
 0.3636600107416E-01
 0.2415605336681E-01
 0.4240735057799E-01
 0.7389573143933E-01
 0.1090478288894E+00
 0.1450871600723E+00
 0.1798937312860E+00
 0.2114057883492E+00
 0.2380150867346E+00
 0.2591655718097E+00
 0.2758590317553E+00
 0.2900418342841E+00
 0.1986284425059E+00
 0.2153274319323E+00
 0.2310975331213E+00
 0.2438869286917E+00
 0.2525488118545E+00
 0.2568905796422E+00
 0.2573919667349E+00
 0.2548475446097E+00
 0.2500942868932E+00
 0.2438628051107E+00
 0.2367241830685E+00
 0.2290904218038E+00
 0.2212367838951E+00
 0.2133284052477E+00
 0.2054435873441E+00
 0.1975916034379E+00
 0.1897253001243E+00
 0.1817499988689E+00
 0.1735297003108E+00
 0.1648925824941E+00
 0.1556367398444E+00
 0.1455359111596E+00
 0.1343447106794E+00
 0.1218071500014E+00
 0.1076853833824E+00
 0.9176641525467E-01
 0.7385000204626E-01
 0.5383050849820E-01
 0.3224415950220E-01
 0.1636988264990E-01
 0.3271057030351E-01
 0.6318346040101E-01
 0.9769691394292E-01
 0.1343480630294E+00
 0.1716406400874E+00
 0.2078820117462E+00
 0.2413165277328E+00
 0.2705392994346E+00
 0.2950632560865E+00
 0.3151683328278E+00
 0.3331747646718E+00
 0.1597684657377E+00
 0.1742716348038E+00
 0.1881144644113E+00
 0.1994773698366E+00
 0.2072813389234E+00
 0.2112640974805E+00
 0.2117739729922E+00
 0.2094779819335E+00
 0.2051209348722E+00
 0.1993802377781E+00
 0.1928031474920E+00
 0.1857954325144E+00
 0.1786345141965E+00
 0.1714902667454E+00
 0.1644451241583E+00
 0.1575103309629E+00
 0.1506378570544E+00
 0.1437289601166E+00
 0.1366401541669E+00
 0.1291882959390E+00
 0.1211555721999E+00
 0.1122941720938E+00
 0.1023303177241E+00
 0.9097160054819E-01
 0.7793380660308E-01
 0.6294796176949E-01
 0.4575445114523E-01
 0.2625122630915E-01
 0.8049612049941E-02
 0.2537404917511E-01
 0.5431875991713E-01
 0.8696955403316E-01
 0.1225399089490E+00
 0.1601320339115E+00
 0.1985212134287E+00
 0.2362034209872E+00
 0.2716025730776E+00
 0.3034629187557E+00
 0.3311262951370E+00
 0.3550106566103E+00
 0.3737987141363E+00
 0.1211659832596E+00
 0.1336382319832E+00
 0.1456761439011E+00
 0.1556592747431E+00
 0.1625807750501E+00
 0.1661368715676E+00
 0.1665753936294E+00
 0.1644568975083E+00
 0.1604434367009E+00
 0.1551605431724E+00
 0.1491292060922E+00
 0.1427456567929E+00
 0.1362866854883E+00
 0.1299250176529E+00
 0.1237461436522E+00
 0.1177627445954E+00
 0.1119256168718E+00
 0.1061316216038E+00
 0.1002292196333E+00
 0.9402306877090E-01
 0.8727835205846E-01
 0.7972469284629E-01
 0.7105944715862E-01
 0.6095422542304E-01
 0.4907906107246E-01
 0.3510633746566E-01
 0.1869720031543E-01
 0.1694174146227E-02
 0.2316257750404E-01
 0.4908096009259E-01
 0.7862581213177E-01
 0.1116696156077E+00
 0.1477698051274E+00
 0.1861201919007E+00
 0.2255779182897E+00
 0.2647468809599E+00
 0.3021769471397E+00
 0.3366558583599E+00
 0.3675374688888E+00
 0.3944716408594E+00
 0.4176135666868E+00
 0.8279558504749E-01
 0.9339598928028E-01
 0.1037615231736E+00
 0.1124334298781E+00
 0.1184753007192E+00
 0.1215636590233E+00
 0.1218728183262E+00
 0.1198774526407E+00
 0.1161680849286E+00
 0.1113223979425E+00
 0.1058353215142E+00
 0.1000925585137E+00
 0.9436949477645E-01
 0.8884164505984E-01
 0.8359816354969E-01
 0.7865417126841E-01
 0.7396041211589E-01
 0.6941051415382E-01
 0.6484646823269E-01
 0.6006389425796E-01
 0.5481825363413E-01
 0.4883348665102E-01
 0.4181789490120E-01
 0.3350983060458E-01
 0.2386198144527E-01
 0.1413425009183E-01
 0.1382331521650E-01
 0.2841941896035E-01
 0.4922515879361E-01
 0.7437471156170E-01
 0.1036066724332E+00
 0.1366961816955E+00
 0.1731704543212E+00
 0.2122332155759E+00
 0.2527871694441E+00
 0.2935135785300E+00
 0.3330392544792E+00
 0.3701929784506E+00
 0.4041863707159E+00
 0.4345686843603E+00
 0.4616829771490E+00
 0.4464584103812E-01
 0.5358632289091E-01
 0.6248278958891E-01
 0.6998034907128E-01
 0.7520861443849E-01
 0.7784726087831E-01
 0.7802609391917E-01
 0.7615799755184E-01
 0.7277830116321E-01
 0.6842719508851E-01
 0.6358106457513E-01
 0.5862237494603E-01
 0.5383360278122E-01
 0.4940296675152E-01
 0.4543391222929E-01
 0.4195435544262E-01
 0.3892501926357E-01
 0.3624871127762E-01
 0.3378360875917E-01
 0.3136561330390E-01
 0.2884889935161E-01
 0.2618797395173E-01
 0.2361985938705E-01
 0.2203309355339E-01
 0.2326097288865E-01
 0.2911555140071E-01
 0.3998083332214E-01
 0.5550304473818E-01
 0.7548457856664E-01
 0.9990748647299E-01
 0.1287427803167E+00
 0.1617959522563E+00
 0.1986012428617E+00
 0.2383816666904E+00
 0.2800808037736E+00
 0.3224377716950E+00
 0.3641327774094E+00
 0.4039932892110E+00
 0.4411348849402E+00
 0.4750698129207E+00
 0.5057711669492E+00
 0.6996068594128E-02
 0.1514429883354E-01
 0.2313456361438E-01
 0.2980151815483E-01
 0.3445475121427E-01
 0.3686463952029E-01
 0.3718800572933E-01
 0.3584251704520E-01
 0.3338030084989E-01
 0.3039133990517E-01
 0.2743975846220E-01
 0.2501359751002E-01
 0.2346105053434E-01
 0.2291734092287E-01
 0.2328712732826E-01
 0.2433039274256E-01
 0.2578934972201E-01
 0.2746846992790E-01
 0.2925661472163E-01
 0.3112558101212E-01
 0.3313353676296E-01
 0.3544545061341E-01
 0.3836843799898E-01
 0.4238065194532E-01
 0.4810681053498E-01
 0.5624596721444E-01
 0.6749318399841E-01
 0.8246802801928E-01
 0.1016649380386E+00
 0.1254166301534E+00
 0.1538529358312E+00
 0.1868502639198E+00
 0.2239816969087E+00
 0.2645048419904E+00
 0.3074044876104E+00
 0.3514654210357E+00
 0.3953987932797E+00
 0.4380120840477E+00
 0.4783487893043E+00
 0.5157967152630E+00
 0.5499208252361E+00
 0.3134121771146E-01
 0.2706717888865E-01
 0.2401025154473E-01
 0.2282909407302E-01
 0.2320516583086E-01
 0.2440902078296E-01
 0.2600419345279E-01
 0.2794336562631E-01
 0.3032663070122E-01
 0.3318551495417E-01
 0.3641641873250E-01
 0.3982771329736E-01
 0.4321491809780E-01
 0.4641264034593E-01
 0.4931630545207E-01
 0.5188436603322E-01
 0.5413153767087E-01
 0.5611945766059E-01
 0.5794864674088E-01
 0.5975441821160E-01
 0.6170964802216E-01
 0.6403720028006E-01
 0.6703287848595E-01
 0.7109139327113E-01
 0.7671147171109E-01
 0.8449330402205E-01
 0.9512479034643E-01
 0.1093198219526E+00
 0.1277240579148E+00
 0.1508212831611E+00
 0.1788592737282E+00
 0.2117956563723E+00
 0.2492603903788E+00
 0.2905571099646E+00
 0.3347126060008E+00
 0.3805473822858E+00
 0.4267860082156E+00
 0.4722051173872E+00
 0.5157647510301E+00
 0.5566768706344E+00
 0.5941690188850E+00
 0.6898753564517E-01
 0.6578851410715E-01
 0.6291783450182E-01
 0.6098180783600E-01
 0.6028378587553E-01
 0.6085905609102E-01
 0.6257311520727E-01
 0.6520428643817E-01
 0.6848827647188E-01
 0.7214469967485E-01
 0.7590248325882E-01
 0.7952446169527E-01
 0.8282556810656E-01
 0.8568198951180E-01
 0.8803250977730E-01
 0.8987484405255E-01
 0.9125956598802E-01
 0.9228346082532E-01
 0.9308377361227E-01
 0.9383459070803E-01
 0.9474717668115E-01
 0.9607644592469E-01
 0.9813536448240E-01
 0.1013133321195E+00
 0.1060820042212E+00
 0.1130069837537E+00
 0.1227581821569E+00
 0.1360706594121E+00
 0.1536558615554E+00
 0.1760917712161E+00
 0.2037239247693E+00
 0.2365944423946E+00
 0.2744010170550E+00
 0.3165013516790E+00
 0.3619645626134E+00
 0.4096384568628E+00
 0.4582475486942E+00
 0.5065250917512E+00
 0.5533292184216E+00
 0.5976798122304E+00
 0.6385381990214E+00
 0.1065427394629E+00
 0.1047467581832E+00
 0.1030764953426E+00
 0.1020642959518E+00
 0.1020345583132E+00
 0.1030909134060E+00
 0.1051535755197E+00
 0.1080164564808E+00
 0.1114040236042E+00
 0.1150199823532E+00
 0.1185851872069E+00
 0.1218637818382E+00
 0.1246780819393E+00
 0.1269142850287E+00
 0.1285219071369E+00
 0.1295097182933E+00
 0.1299402613210E+00
 0.1299243106113E+00
 0.1296162142421E+00
 0.1292108907680E+00
 0.1289436726465E+00
 0.1290944933805E+00
 0.1299981040782E+00
 0.1320575343861E+00
 0.1357478881928E+00
 0.1416312241948E+00
 0.1503765041828E+00
 0.1627354253503E+00
 0.1794652743588E+00
 0.2012179429894E+00
 0.2284273359904E+00
 0.2612222668543E+00
 0.2993757161250E+00
 0.3423054517806E+00
 0.3891229624364E+00
 0.4386964206173E+00
 0.4897388483097E+00
 0.5409267693614E+00
 0.5910013199634E+00
 0.6387914221172E+00
 0.6830428583578E+00
 0.1439955433636E+00
 0.1436251128952E+00
 0.1432792177969E+00
 0.1434044366040E+00
 0.1442864907776E+00
 0.1460252622328E+00
 0.1485534790909E+00
 0.1516810791502E+00
 0.1551477632026E+00
 0.1586716794758E+00
 0.1619877537289E+00
 0.1648735324608E+00
 0.1671634848305E+00
 0.1687543984024E+00
 0.1696049696892E+00
 0.1697323138315E+00
 0.1692073520829E+00
 0.1681503370876E+00
 0.1667272421450E+00
 0.1651476054662E+00
 0.1636646624220E+00
 0.1625787593528E+00
 0.1622454933080E+00
 0.1630862563026E+00
 0.1655904585974E+00
 0.1703307583782E+00
 0.1779868872548E+00
 0.1893311712779E+00
 0.2051623952456E+00
 0.2261989984792E+00
 0.2529596234703E+00
 0.2856623844554E+00
 0.3241617166312E+00
 0.3679404564032E+00
 0.4161526605536E+00
 0.4676812085001E+00
 0.5212175569103E+00
 0.5753691228082E+00
 0.6287496666901E+00
 0.6800037328455E+00
 0.7276923214888E+00
 0.1813560204660E+00
 0.1823970368683E+00
 0.1833991018185E+00
 0.1847214355415E+00
 0.1865952508874E+00
 0.1890964288662E+00
 0.1921556804649E+00
 0.1955939809779E+00
 0.1991685028862E+00
 0.2026170503691E+00
 0.2056937707106E+00
 0.2081934805416E+00
 0.2099652828922E+00
 0.2109179159316E+00
 0.2110197503243E+00
 0.2102960035008E+00
 0.2088250177294E+00
 0.2067348179019E+00
 0.2042005295534E+00
 0.2014431653914E+00
 0.1987303788995E+00
 0.1963797976400E+00
 0.1947661610433E+00
 0.1943301798425E+00
 0.1955799425760E+00
 0.1991058019512E+00
 0.2056056485097E+00
 0.2158770461587E+00
 0.2307606650429E+00
 0.2510395547845E+00
 0.2773166854786E+00
 0.3099027943270E+00
 0.3487395191335E+00
 0.3933795118675E+00
 0.4430200964361E+00
 0.4965543976932E+00
 0.5526435809128E+00
 0.6098153321860E+00
 0.6665489350900E+00
 0.7213106738188E+00
 0.7724925937569E+00
 0.2186365877686E+00
 0.2210697143726E+00
 0.2234206406370E+00
 0.2259630571708E+00
 0.2288682570363E+00
 0.2321793183934E+00
 0.2358169471291E+00
 0.2396082052164E+00
 0.2433258683957E+00
 0.2467275935125E+00
 0.2495879501165E+00
 0.2517205169717E+00
 0.2529904244867E+00
 0.2533194560206E+00
 0.2526863406948E+00
 0.2511245992539E+00
 0.2487196575492E+00
 0.2456063960416E+00
 0.2419675842266E+00
 0.2380336617724E+00
 0.2340842922698E+00
 0.2304519978263E+00
 0.2275289213522E+00
 0.2257747969525E+00
 0.2257181968817E+00
 0.2279710284683E+00
 0.2332541645436E+00
 0.2423944166494E+00
 0.2562763004529E+00
 0.2757480498294E+00
 0.3014984330387E+00
 0.3339348507336E+00
 0.3730919974451E+00
 0.4185973397856E+00
 0.4696929512304E+00
 0.5252789788151E+00
 0.5839790028377E+00
 0.6442320906730E+00
 0.7043775140289E+00
 0.7627065218565E+00
 0.8174476654854E+00
 0.2558498045071E+00
 0.2596578582383E+00
 0.2633534866571E+00
 0.2671276676077E+00
 0.2710898912277E+00
 0.2752456520634E+00
 0.2795002808130E+00
 0.2836825924939E+00
 0.2875782782569E+00
 0.2909636938878E+00
 0.2936337935751E+00
 0.2954215382161E+00
 0.2962089741597E+00
 0.2959317933017E+00
 0.2945797163491E+00
 0.2921948369996E+00
 0.2888694903711E+00
 0.2847447516011E+00
 0.2800098785318E+00
 0.2749031264169E+00
 0.2697142209522E+00
 0.2647885428188E+00
 0.2605339296998E+00
 0.2574283158901E+00
 0.2560213561363E+00
 0.2569486949519E+00
 0.2609574573197E+00
 0.2689070088049E+00
 0.2817281439972E+00
 0.3003360689750E+00
 0.3255079584058E+00
 0.3577525740112E+00
 0.3972039371298E+00
 0.4435699416490E+00
 0.4961399145627E+00
 0.5538191345508E+00
 0.6151877489776E+00
 0.6785886883334E+00
 0.7422159445652E+00
 0.8041853720756E+00
 0.8625603590243E+00
 0.2930079355971E+00
 0.2981781398145E+00
 0.3032149045672E+00
 0.3082293882092E+00
 0.3132687702351E+00
 0.3182979990828E+00
 0.3232030880779E+00
 0.3278109526002E+00
 0.3319175513682E+00
 0.3353164802373E+00
 0.3378226468204E+00
 0.3392886717718E+00
 0.3396141588270E+00
 0.3387494148843E+00
 0.3366956994463E+00
 0.3335039178469E+00
 0.3292731570384E+00
 0.3241500912737E+00
 0.3183294279237E+00
 0.3120557902086E+00
 0.3056272025002E+00
 0.2994000099274E+00
 0.2937960267307E+00
 0.2893102687814E+00
 0.2865133991600E+00
 0.2860659965548E+00
 0.2887436932520E+00
 0.2954410872300E+00
 0.3071377202908E+00
 0.3248181311092E+00
 0.3493512120127E+00
 0.3813523765756E+00
 0.4210618566926E+00
 0.4682744719632E+00
 0.5223305411266E+00
 0.5821400199569E+00
 0.6462351633863E+00
 0.7128561837293E+00
 0.7800459667625E+00
 0.8457410655422E+00
 0.9078329802604E+00
 0.3301228704864E+00
 0.3366475899997E+00
 0.3430246987842E+00
 0.3492881318784E+00
 0.3554227729464E+00
 0.3613510092048E+00
 0.3669365221769E+00
 0.3720013223241E+00
 0.3763493127025E+00
 0.3797899544952E+00
 0.3821576279112E+00
 0.3833247878673E+00
 0.3832091255842E+00
 0.3817761698765E+00
 0.3790391851481E+00
 0.3750580660889E+00
 0.3699384545418E+00
 0.3638320126512E+00
 0.3569378691559E+00
 0.3495056029639E+00
 0.3418398207289E+00
 0.3343059630148E+00
 0.3273380448565E+00
 0.3214468244857E+00
 0.3172234519118E+00
 0.3153539785862E+00
 0.3166440720267E+00
 0.3220256915782E+00
 0.3325294319381E+00
 0.3492117490958E+00
 0.3730369966824E+00
 0.4047330680283E+00
 0.4446540374916E+00
 0.4926892525080E+00
 0.5482351929649E+00
 0.6102075747046E+00
 0.6770876088472E+00
 0.7470067774132E+00
 0.8178500065908E+00
 0.8873673660080E+00
 0.9532679091093E+00
 0.3672061373731E+00
 0.3750830806618E+00
 0.3828034453228E+00
 0.3903260787124E+00
 0.3975737095544E+00
 0.4044246769720E+00
 0.4107179809306E+00
 0.4162683168725E+00
 0.4208856393149E+00
 0.4243941578641E+00
 0.4266473649664E+00
 0.4275377518370E+00
 0.4270015995723E+00
 0.4250202096704E+00
 0.4216192500919E+00
 0.4168677141793E+00
 0.4108775386060E+00
 0.4038047084001E+00
 0.3958517034560E+00
 0.3872716150050E+00
 0.3783738878249E+00
 0.3695311444750E+00
 0.3611877268625E+00
 0.3538685936059E+00
 0.3481845096043E+00
 0.3448470380623E+00
 0.3446928355181E+00
 0.3486928546085E+00
 0.3579307830254E+00
 0.3735375949283E+00
 0.3965770984319E+00
 0.4278959798679E+00
 0.4679706303069E+00
 0.5167938142456E+00
 0.5738249623462E+00
 0.6379882790926E+00
 0.7077120279366E+00
 0.7810132565392E+00
 0.8556108119779E+00
 0.9290581092359E+00
 0.9988680165512E+00
 0.4042689481392E+00
 0.4135011734651E+00
 0.4225718306914E+00
 0.4313662789381E+00
 0.4397451507518E+00
 0.4475415462739E+00
 0.4545679391126E+00
 0.4606298449440E+00
 0.4655418486574E+00
 0.4691421386385E+00
 0.4713031774020E+00
 0.4719378040968E+00
 0.4710014220114E+00
 0.4684916339003E+00
 0.4644468574681E+00
 0.4589452265647E+00
 0.4521046399342E+00
 0.4440846680620E+00
 0.4350900022025E+00
 0.4253757351209E+00
 0.4152543346395E+00
 0.4051036036985E+00
 0.3953762066815E+00
 0.3866095535077E+00
 0.3794328387509E+00
 0.3745827515934E+00
 0.3729273954836E+00
 0.3754778779919E+00
 0.3833726892407E+00
 0.3978197993285E+00
 0.4199865765014E+00
 0.4508452449113E+00
 0.4910038935278E+00
 0.5405690410070E+00
 0.5990716687752E+00
 0.6654489735008E+00
 0.7380756018529E+00
 0.8148486168674E+00
 0.8933112941391E+00
 0.9708074469474E+00
 0.1044637132716E+01
 0.4413222532361E+00
 0.4519181080105E+00
 0.4623504157122E+00
 0.4724320712360E+00
 0.4819614658261E+00
 0.4907254233433E+00
 0.4985084463227E+00
 0.5051055107501E+00
 0.5103349004842E+00
 0.5140484132757E+00
 0.5161376211797E+00
 0.5165361894343E+00
 0.5152192482851E+00
 0.5122012351573E+00
 0.5075336251932E+00
 0.5013036713846E+00
 0.4936348261938E+00
 0.4846894270663E+00
 0.4746731530214E+00
 0.4638415000813E+00
 0.4525080475834E+00
 0.4410536606231E+00
 0.4299371658320E+00
 0.4197064552102E+00
 0.4110076631414E+00
 0.4046018243768E+00
 0.4013884856685E+00
 0.4024196069878E+00
 0.4088898084047E+00
 0.4220863048085E+00
 0.4432841268971E+00
 0.4735881506683E+00
 0.5137484898574E+00
 0.5639973468878E+00
 0.6239478640917E+00
 0.6925566740769E+00
 0.7681454232075E+00
 0.8484857328792E+00
 0.9309344039560E+00
 0.1012610045593E+01
 0.1090580442339E+01
 0.4783768009982E+00
 0.4903498510202E+00
 0.5021595859352E+00
 0.5135468585599E+00
 0.5242473904444E+00
 0.5340007516957E+00
 0.5425623584752E+00
 0.5497157632729E+00
 0.5552825184592E+00
 0.5591280987611E+00
 0.5611636525688E+00
 0.5613443580582E+00
 0.5596657820377E+00
 0.5561597562321E+00
 0.5508910944203E+00
 0.5439560893249E+00
 0.5354832636887E+00
 0.5256368193507E+00
 0.5146221093358E+00
 0.5026933369010E+00
 0.4901631703000E+00
 0.4774132835638E+00
 0.4649063299745E+00
 0.4531984785080E+00
 0.4429510027693E+00
 0.4349481131149E+00
 0.4301203418495E+00
 0.4295607245923E+00
 0.4345209084906E+00
 0.4463692818346E+00
 0.4664925274497E+00
 0.4961355796207E+00
 0.5362018623776E+00
 0.5870629157540E+00
 0.6484268802689E+00
 0.7192784220960E+00
 0.7978882127759E+00
 0.8818970870070E+00
 0.9684630509169E+00
 0.1054461279998E+01
 0.1136704883843E+01
 0.5154431995401E+00
 0.5288121759370E+00
 0.5420195935193E+00
 0.5547340583814E+00
 0.5666278524665E+00
 0.5773923097474E+00
 0.5867529278198E+00
 0.5944814121732E+00
 0.6004026667476E+00
 0.6043963781965E+00
 0.6063941012651E+00
 0.6063734550987E+00
 0.6043512821820E+00
 0.6003774106493E+00
 0.5945302570963E+00
 0.5869150214573E+00
 0.5776647404816E+00
 0.5669444942821E+00
 0.5549579047512E+00
 0.5419560849550E+00
 0.5282486513377E+00
 0.5142156876627E+00
 0.5003211485753E+00
 0.4871270235512E+00
 0.4753076008818E+00
 0.4656686975790E+00
 0.4591709094063E+00
 0.4569480736667E+00
 0.4603092801903E+00
 0.4707056116285E+00
 0.4896391678443E+00
 0.5185025439296E+00
 0.5583647033360E+00
 0.6097520211036E+00
 0.6724829403448E+00
 0.7455811850006E+00
 0.8272700886644E+00
 0.9150545542087E+00
 0.1005880062549E+01
 0.1096357446539E+01
 0.1183019579316E+01
 0.5525319811820E+00
 0.5673207576968E+00
 0.5819506446610E+00
 0.5960171398958E+00
 0.6091279260982E+00
 0.6209250680633E+00
 0.6311035688492E+00
 0.6394233215143E+00
 0.6457131962652E+00
 0.6498681229221E+00
 0.6518412861453E+00
 0.6516339406722E+00
 0.6492851913874E+00
 0.6448635187522E+00
 0.6384611958984E+00
 0.6301921483503E+00
 0.6201933008453E+00
 0.6086295450062E+00
 0.5957012776323E+00
 0.5816546240942E+00
 0.5667938889953E+00
 0.5514950157609E+00
 0.5362205361451E+00
 0.5215355388688E+00
 0.5081248623492E+00
 0.4968139444740E+00
 0.4885920359216E+00
 0.4846329706904E+00
 0.4863031585696E+00
 0.4951373999951E+00
 0.5127566308412E+00
 0.5407087848667E+00
 0.5802414901284E+00
 0.6320534019777E+00
 0.6960913040448E+00
 0.7714317698396E+00
 0.8562563317636E+00
 0.9479291688236E+00
 0.1043168105805E+01
 0.1138295921565E+01
 0.1229536225325E+01
 0.5896536706307E+00
 0.6058912803849E+00
 0.6219730184550E+00
 0.6374197168678E+00
 0.6517728652429E+00
 0.6646241433224E+00
 0.6756377300124E+00
 0.6845622106571E+00
 0.6912315942861E+00
 0.6955576118825E+00
 0.6975167220719E+00
 0.6971352959905E+00
 0.6944758472347E+00
 0.6896262246189E+00
 0.6826928043559E+00
 0.6737980094392E+00
 0.6630819602314E+00
 0.6507082171444E+00
 0.6368723747003E+00
 0.6218135784590E+00
 0.6058284457236E+00
 0.5892860792994E+00
 0.5726446607275E+00
 0.5564693819459E+00
 0.5414528108043E+00
 0.5284375811311E+00
 0.5184396731730E+00
 0.5126715384940E+00
 0.5125561816013E+00
 0.5197125503287E+00
 0.5358833552509E+00
 0.5627794725553E+00
 0.6018411302657E+00
 0.6539587413655E+00
 0.7192284952988E+00
 0.7967967929130E+00
 0.8848111864408E+00
 0.9804909125350E+00
 0.1080309619661E+01
 0.1180275332753E+01
 0.1276269523410E+01
 0.6268188580194E+00
 0.6445395555200E+00
 0.6621072073931E+00
 0.6789656754099E+00
 0.6945881835756E+00
 0.7085148065255E+00
 0.7203788221688E+00
 0.7299185103530E+00
 0.7369747854448E+00
 0.7414782980056E+00
 0.7434308698475E+00
 0.7428857697268E+00
 0.7399302316904E+00
 0.7346722500587E+00
 0.7272325431752E+00
 0.7177417577602E+00
 0.7063424544906E+00
 0.6931956500271E+00
 0.6784904844768E+00
 0.6624570460735E+00
 0.6453817824911E+00
 0.6276241114663E+00
 0.6096347353577E+00
 0.5919756730969E+00
 0.5753440311546E+00
 0.5605967512644E+00
 0.5487740651554E+00
 0.5411250374220E+00
 0.5391278668783E+00
 0.5444853792738E+00
 0.5590643678230E+00
 0.5847459985633E+00
 0.6231777132822E+00
 0.6754632470618E+00
 0.7418726071721E+00
 0.8216426903370E+00
 0.9128976682439E+00
 0.1012708486516E+01
 0.1117286721207E+01
 0.1222295708649E+01
 0.1323237613869E+01
 0.6640382783918E+00
 0.6832816518949E+00
 0.7023740771282E+00
 0.7206793287283E+00
 0.7375997668321E+00
 0.7526225251411E+00
 0.7653501796354E+00
 0.7755122483816E+00
 0.7829589589600E+00
 0.7876425981366E+00
 0.7895929080370E+00
 0.7888921453947E+00
 0.7856537412064E+00
 0.7800066689157E+00
 0.7720862163059E+00
 0.7620309333734E+00
 0.7499850060671E+00
 0.7361056323721E+00
 0.7205737816626E+00
 0.7036083346994E+00
 0.6854829934459E+00
 0.6665445134503E+00
 0.6472327946862E+00
 0.6281031269304E+00
 0.6098535843668E+00
 0.5933520423527E+00
 0.5796599140205E+00
 0.5700601887469E+00
 0.5660841023004E+00
 0.5695172736353E+00
 0.5823520871306E+00
 0.6066468709142E+00
 0.6442713861797E+00
 0.6965663553942E+00
 0.7640037015414E+00
 0.8459357771781E+00
 0.9404773753906E+00
 0.1044549059423E+01
 0.1154081079497E+01
 0.1264358605271E+01
 0.1370462515342E+01
 0.7013228995429E+00
 0.7221340394291E+00
 0.7427950466833E+00
 0.7625855968602E+00
 0.7808340111325E+00
 0.7969730290013E+00
 0.8105750409143E+00
 0.8213629508463E+00
 0.8291994087924E+00
 0.8340616948735E+00
 0.8360105170311E+00
 0.8351595220371E+00
 0.8316499712605E+00
 0.8256326965033E+00
 0.8172577620669E+00
 0.8066712508606E+00
 0.7940181023038E+00
 0.7794503670832E+00
 0.7631390765636E+00
 0.7452896975218E+00
 0.7261605340358E+00
 0.7060825867886E+00
 0.6854814498792E+00
 0.6649018549481E+00
 0.6450388887307E+00
 0.6267674796673E+00
 0.6111665198993E+00
 0.5995494875582E+00
 0.5934976499139E+00
 0.5948773908962E+00
 0.6058072068392E+00
 0.6285287262415E+00
 0.6651493755742E+00
 0.7172725863416E+00
 0.7856043295639E+00
 0.8696423708520E+00
 0.9675103081989E+00
 0.1075977991043E+01
 0.1190673761029E+01
 0.1306467218603E+01
 0.1417970582556E+01
 0.7386840203289E+00
 0.7611137500048E+00
 0.7833922914770E+00
 0.8047102114162E+00
 0.8243179837550E+00
 0.8415923926782E+00
 0.8560765391419E+00
 0.8674895480142E+00
 0.8757103759293E+00
 0.8807453407552E+00
 0.8826896674363E+00
 0.8816911018421E+00
 0.8779205101207E+00
 0.8715514896519E+00
 0.8627490550874E+00
 0.8516663965711E+00
 0.8384482811801E+00
 0.8232402399645E+00
 0.8062015637330E+00
 0.7875220621555E+00
 0.7674419353839E+00
 0.7462732439193E+00
 0.7244236132418E+00
 0.7024231300927E+00
 0.6809595578584E+00
 0.6609104768141E+00
 0.6433678845071E+00
 0.6296714958679E+00
 0.6214486557355E+00
 0.6206433998697E+00
 0.6294996606588E+00
 0.6504474698178E+00
 0.6858471774598E+00
 0.7375925781860E+00
 0.8066601989267E+00
 0.8927289921389E+00
 0.9939546947003E+00
 0.1106958523333E+01
 0.1227045042478E+01
 0.1348626482098E+01
 0.1465792980758E+01
 0.7761333816913E+00
 0.8002385577638E+00
 0.8241889707098E+00
 0.8470799439733E+00
 0.8680796006194E+00
 0.8865071239491E+00
 0.9018776881619E+00
 0.9139102684737E+00
 0.9225048759235E+00
 0.9277016482637E+00
 0.9296343969366E+00
 0.9284879694028E+00
 0.9244647267521E+00
 0.9177619420644E+00
 0.9085597031412E+00
 0.8970178187877E+00
 0.8832799065589E+00
 0.8674835732138E+00
 0.8497745494109E+00
 0.8303247312406E+00
 0.8093534818384E+00
 0.7871506724592E+00
 0.7641021666127E+00
 0.7407190857595E+00
 0.7176771664298E+00
 0.6958517125699E+00
 0.6763427477965E+00
 0.6605110860085E+00
 0.6500251383441E+00
 0.6469022391952E+00
 0.6535096541242E+00
 0.6724695392001E+00
 0.7064099235157E+00
 0.7575443210367E+00
 0.8271610059124E+00
 0.9151626453885E+00
 0.1019766801527E+01
 0.1137451405230E+01
 0.1263174157595E+01
 0.1390843115116E+01
 0.1513966132775E+01
 0.8136832940195E+00
 0.8395271861326E+00
 0.8652094885432E+00
 0.8897228676693E+00
 0.9121478285870E+00
 0.9317442647866E+00
 0.9480013701201E+00
 0.9606425287145E+00
 0.9695945215689E+00
 0.9749368791972E+00
 0.9768465930575E+00
 0.9755488836149E+00
 0.9712795768838E+00
 0.9642605014485E+00
 0.9546868673127E+00
 0.9427245408282E+00
 0.9285149642318E+00
 0.9121863960126E+00
 0.8938691908790E+00
 0.8737150882681E+00
 0.8519198855112E+00
 0.8287479867202E+00
 0.8045596061428E+00
 0.7798423802933E+00
 0.7552549724612E+00
 0.7316649601471E+00
 0.7101745813123E+00
 0.6921596565026E+00
 0.6793234788029E+00
 0.6737509190312E+00
 0.6779287942376E+00
 0.6946733323829E+00
 0.7268939796692E+00
 0.7771546600111E+00
 0.8471015073742E+00
 0.9369112401059E+00
 0.1044900772407E+01
 0.1167414489093E+01
 0.1299039035671E+01
 0.1433125695518E+01
 0.1562532218805E+01
 0.8513467835313E+00
 0.8789995443047E+00
 0.9064797902497E+00
 0.9326686489808E+00
 0.9565529032444E+00
 0.9773314889383E+00
 0.9944703034303E+00
 0.1007702793891E+01
 0.1016989315215E+01
 0.1022455207685E+01
 0.1024325756087E+01
 0.1022870056147E+01
 0.1018359400347E+01
 0.1011040980224E+01
 0.1001125075600E+01
 0.9887829652732E+00
 0.9741528449246E+00
 0.9573521963043E+00
 0.9384942097469E+00
 0.9177082685799E+00
 0.8951639156270E+00
 0.8710968220214E+00
 0.8458376164923E+00
 0.8198457771583E+00
 0.7937575431655E+00
 0.7684268128782E+00
 0.7449514798971E+00
 0.7247152615033E+00
 0.7094488553734E+00
 0.7012973152917E+00
 0.7028612759176E+00
 0.7171507736250E+00
 0.7473687699422E+00
 0.7964610813366E+00
 0.8664828511340E+00
 0.9579441495768E+00
 0.1069308447940E+01
 0.1196802223961E+01
 0.1334615960702E+01
 0.1475484688272E+01
 0.1611539620924E+01
 0.8891377628146E+00
 0.9186770014043E+00
 0.9480277030652E+00
 0.9759488776261E+00
 0.1001326566038E+01
 0.1023297195810E+01
 0.1041306988590E+01
 0.1055106407593E+01
 0.1064697410909E+01
 0.1070258460343E+01
 0.1072068748931E+01
 0.1070444925955E+01
 0.1065695721112E+01
 0.1058094372558E+01
 0.1047866043585E+01
 0.1035186683519E+01
 0.1020190128845E+01
 0.1002981668610E+01
 0.9836555941765E+00
 0.9623168105481E+00
 0.9391059974091E+00
 0.9142268857861E+00
 0.8879765870119E+00
 0.8607816510185E+00
 0.8332502913370E+00
 0.8062163091887E+00
 0.7807659504928E+00
 0.7582826496290E+00
 0.7405156186581E+00
 0.7296609557499E+00
 0.7284251326327E+00
 0.7400090381972E+00
 0.7679188693821E+00
 0.8155138532531E+00
 0.8853142524343E+00
 0.9782329765132E+00
 0.1092939190616E+01
 0.1225565040176E+01
 0.1369879172874E+01
 0.1517932481435E+01
 0.1661043340098E+01
 0.9270712307129E+00
 0.9585827083930E+00
 0.9898833336186E+00
 0.1019597444475E+01
 0.1046502325922E+01
 0.1069670601360E+01
 0.1088533630767E+01
 0.1102867391004E+01
 0.1112724850548E+01
 0.1118345842373E+01
 0.1120069547027E+01
 0.1118263946442E+01
 0.1113277069183E+01
 0.1105408698685E+01
 0.1094898524401E+01
 0.1081926313853E+01
 0.1066620395743E+01
 0.1049072482469E+01
 0.1029356315104E+01
 0.1007550312247E+01
 0.9837638057160E+00
 0.9581654899436E+00
 0.9310150928230E+00
 0.9027014398065E+00
 0.8737989380493E+00
 0.8451144669930E+00
 0.8177146018162E+00
 0.7929732103396E+00
 0.7726476024206E+00
 0.7589737948244E+00
 0.7547535548891E+00
 0.7633724534059E+00
 0.7886464082977E+00
 0.8343785996575E+00
 0.9036151211581E+00
 0.9977526157699E+00
 0.1115739743141E+01
 0.1253648602514E+01
 0.1404800428319E+01
 0.1560483508590E+01
 0.1711105411550E+01
 0.9651635077873E+00
 0.9987419739399E+00
 0.1032079525580E+01
 0.1063650962931E+01
 0.1092115729332E+01
 0.1116481798794E+01
 0.1136172004534E+01
 0.1150998173551E+01
 0.1161075235512E+01
 0.1166713611361E+01
 0.1168318949867E+01
 0.1166314345556E+01
 0.1161088782408E+01
 0.1152968831670E+01
 0.1142208139912E+01
 0.1128989316580E+01
 0.1113434005629E+01
 0.1095619013375E+01
 0.1075595995194E+01
 0.1053415029382E+01
 0.1029151786306E+01
 0.1002936994557E+01
 0.9749892674341E+00
 0.9456549654903E+00
 0.9154688195629E+00
 0.8852036397565E+00
 0.8558976412878E+00
 0.8289047297505E+00
 0.8059782713708E+00
 0.7893808840328E+00
 0.7819961966196E+00
 0.7873845172540E+00
 0.8096737632482E+00
 0.8531393308353E+00
 0.9214177064066E+00
 0.1016482668437E+01
 0.1137654078102E+01
 0.1280992774710E+01
 0.1439348372772E+01
 0.1603154400318E+01
 0.1761795134154E+01
 0.1003432517295E+01
 0.1039182714223E+01
 0.1074652402709E+01
 0.1108149257804E+01
 0.1138204657822E+01
 0.1163761805345E+01
 0.1184243279140E+01
 0.1199509280558E+01
 0.1209749369305E+01
 0.1215354744503E+01
 0.1216804308833E+01
 0.1214579920885E+01
 0.1209112856210E+01
 0.1200756379636E+01
 0.1189777270608E+01
 0.1176359867938E+01
 0.1160617935990E+01
 0.1142612126034E+01
 0.1122370624186E+01
 0.1099913511686E+01
 0.1075280705041E+01
 0.1048562265233E+01
 0.1019932170304E+01
 0.9896897257387E+00
 0.9583241366953E+00
 0.9265667853339E+00
 0.8954182601898E+00
 0.8662010251038E+00
 0.8406507646279E+00
 0.8210409911512E+00
 0.8103205241124E+00
 0.8122101002002E+00
 0.8311466274025E+00
 0.8719020770470E+00
 0.9387704694729E+00
 0.1034409439413E+01
 0.1158623383336E+01
 0.1307530290821E+01
 0.1473487765703E+01
 0.1645964440004E+01
 0.1813189279708E+01
 0.1041898120655E+01
 0.1079935987156E+01
 0.1117642003253E+01
 0.1153135914111E+01
 0.1184809627560E+01
 0.1211542553929E+01
 0.1232767754654E+01
 0.1248408926332E+01
 0.1258744820850E+01
 0.1264258550295E+01
 0.1265509222139E+01
 0.1263040818366E+01
 0.1257327786252E+01
 0.1248749564062E+01
 0.1237584940102E+01
 0.1224018723900E+01
 0.1208155601881E+01
 0.1190038931707E+01
 0.1169672237979E+01
 0.1147044190986E+01
 0.1122157134241E+01
 0.1095058049610E+01
 0.1065873050424E+01
 0.1034850052532E+01
 0.1002427036285E+01
 0.9692865289576E+00
 0.9363817784322E+00
 0.9049913189781E+00
 0.8768176887213E+00
 0.8541270225640E+00
 0.8399130739719E+00
 0.8380377210464E+00
 0.8532373937544E+00
 0.8907991300611E+00
 0.9557422811837E+00
 0.1051528661832E+01
 0.1178586213872E+01
 0.1333184861566E+01
 0.1507178175371E+01
 0.1688936286706E+01
 0.1865371991080E+01
 0.1080582523136E+01
 0.1121036635654E+01
 0.1161093031753E+01
 0.1198658901575E+01
 0.1231974091449E+01
 0.1259856820207E+01
 0.1281764498997E+01
 0.1297702509919E+01
 0.1308055416028E+01
 0.1313410241626E+01
 0.1314413220482E+01
 0.1311673322277E+01
 0.1305708434035E+01
 0.1296923125612E+01
 0.1285606726888E+01
 0.1271943107761E+01
 0.1256026694127E+01
 0.1237882556362E+01
 0.1217488599772E+01
 0.1194800960875E+01
 0.1169782917826E+01
 0.1142436315916E+01
 0.1112836549437E+01
 0.1081176180094E+01
 0.1047836563276E+01
 0.1013444051319E+01
 0.9788945679433E+00
 0.9454093567218E+00
 0.9146406477819E+00
 0.8888262263450E+00
 0.8709805992296E+00
 0.8650818920144E+00
 0.8761488832318E+00
 0.9099940007301E+00
 0.9724276679138E+00
 0.1067849284053E+01
 0.1197479107891E+01
 0.1357868605978E+01
 0.1540371716079E+01
 0.1732097166301E+01
 0.1918434342925E+01
 0.1119510767276E+01
 0.1162524069960E+01
 0.1205055758166E+01
 0.1244771290070E+01
 0.1279744739267E+01
 0.1308738068698E+01
 0.1331250870903E+01
 0.1347392009582E+01
 0.1357670667172E+01
 0.1362790491447E+01
 0.1363491472180E+01
 0.1360449689593E+01
 0.1354225950830E+01
 0.1345248294423E+01
 0.1333814741644E+01
 0.1320106661239E+01
 0.1304207076950E+01
 0.1286121962597E+01
 0.1265802927922E+01
 0.1243172794514E+01
 0.1218154663526E+01
 0.1190703603416E+01
 0.1160841894758E+01
 0.1128703271384E+01
 0.1094607528333E+01
 0.1059117837666E+01
 0.1023062775650E+01
 0.9875922670756E+00
 0.9542894868359E+00
 0.9253401320280E+00
 0.9037510527097E+00
 0.8935854931791E+00
 0.9001184124639E+00
 0.9296871703655E+00
 0.9889533196401E+00
 0.1083398694012E+01
 0.1215238152604E+01
 0.1381478822151E+01
 0.1573008937030E+01
 0.1775480533176E+01
 0.1972473376418E+01
 0.1158711337381E+01
 0.1204443217489E+01
 0.1249587083166E+01
 0.1291532044656E+01
 0.1328171748697E+01
 0.1358220147481E+01
 0.1381241853084E+01
 0.1397475206355E+01
 0.1407575079028E+01
 0.1412374913884E+01
 0.1412714449911E+01
 0.1409337966284E+01
 0.1402847691059E+01
 0.1393692748892E+01
 0.1382177587176E+01
 0.1368479369523E+01
 0.1352668649032E+01
 0.1334731723118E+01
 0.1314593562337E+01
 0.1292143286730E+01
 0.1267263143353E+01
 0.1239860261515E+01
 0.1209901955309E+01
 0.1177460271212E+01
 0.1142789152840E+01
 0.1106382140400E+01
 0.1068990684256E+01
 0.1031678984236E+01
 0.9959410432192E+00
 0.9638840038298E+00
 0.9384741833331E+00
 0.9238219774675E+00
 0.9254220555918E+00
 0.9501225998587E+00
 0.1005486005287E+01
 0.1098229688314E+01
 0.1231802126413E+01
 0.1403894523657E+01
 0.1605011187891E+01
 0.1819127151868E+01
 0.2027589773133E+01
 0.1198216909495E+01
 0.1246845698038E+01
 0.1294751828530E+01
 0.1339006934693E+01
 0.1377308993049E+01
 0.1408336828576E+01
 0.1431749207985E+01
 0.1447944776940E+01
 0.1457747398980E+01
 0.1462133559245E+01
 0.1462047660880E+01
 0.1458301896036E+01
 0.1451537232278E+01
 0.1442220686566E+01
 0.1430660431525E+01
 0.1417027598368E+01
 0.1401379314184E+01
 0.1383681900298E+01
 0.1363833732465E+01
 0.1341690292279E+01
 0.1317092783221E+01
 0.1289899767462E+01
 0.1260022358182E+01
 0.1227468790585E+01
 0.1192423698267E+01
 0.1155305357822E+01
 0.1116778899032E+01
 0.1077808391816E+01
 0.1039777525349E+01
 0.1004685879103E+01
 0.9754217796079E+00
 0.9560974270158E+00
 0.9523791453734E+00
 0.9715951089256E+00
 0.1022242241024E+01
 0.1112429666323E+01
 0.1247118007843E+01
 0.1424974778520E+01
 0.1636268104137E+01
 0.1863082643198E+01
 0.2083882341245E+01
 0.1238065287250E+01
 0.1289791274520E+01
 0.1340624283547E+01
 0.1387269533230E+01
 0.1427214123310E+01
 0.1459121084651E+01
 0.1482780351907E+01
 0.1498787170741E+01
 0.1508159742504E+01
 0.1512030359958E+01
 0.1511451374552E+01
 0.1507300847608E+01
 0.1500254418316E+01
 0.1490792914114E+01
 0.1479225092343E+01
 0.1465714133031E+01
 0.1450302943347E+01
 0.1432937905479E+01
 0.1413491292462E+01
 0.1391785518050E+01
 0.1367621092364E+01
 0.1340807967215E+01
 0.1311200505592E+01
 0.1278741856673E+01
 0.1243544908068E+01
 0.1205948147443E+01
 0.1166522162262E+01
 0.1126116962548E+01
 0.1085984252254E+01
 0.1047984878376E+01
 0.1014887214104E+01
 0.9907521188686E+00
 0.9813567239218E+00
 0.9944584751195E+00
 0.1039499735629E+01
 0.1126132699277E+01
 0.1261148485058E+01
 0.1444562107891E+01
 0.1666622441702E+01
 0.1907381182822E+01
 0.2141431766804E+01
 0.1278300588620E+01
 0.1333349658109E+01
 0.1387290077371E+01
 0.1436402310253E+01
 0.1477948463874E+01
 0.1510604028119E+01
 0.1534336899577E+01
 0.1549981263094E+01
 0.1558776616966E+01
 0.1562022566395E+01
 0.1560880391302E+01
 0.1556289803174E+01
 0.1548955465912E+01
 0.1539366995642E+01
 0.1527830172094E+01
 0.1514498260023E+01
 0.1499399370992E+01
 0.1482460383404E+01
 0.1463528471341E+01
 0.1442394119722E+01
 0.1418818086679E+01
 0.1392562298359E+01
 0.1363424556749E+01
 0.1331282598724E+01
 0.1296176336344E+01
 0.1258361347128E+01
 0.1218306857842E+01
 0.1176735928925E+01
 0.1134746738718E+01
 0.1094028702114E+01
 0.1057184129563E+01
 0.1028161415411E+01
 0.1012773755730E+01
 0.1019134233793E+01
 0.1057610770412E+01
 0.1139535045298E+01
 0.1273883052671E+01
 0.1462486524687E+01
 0.1695876259091E+01
 0.1951996066167E+01
 0.2200222363302E+01
 0.1318974781370E+01
 0.1377602738207E+01
 0.1434848490914E+01
 0.1486497800705E+01
 0.1529576638187E+01
 0.1562813420919E+01
 0.1586412833971E+01
 0.1601496796459E+01
 0.1609553894905E+01
 0.1612060241578E+01
 0.1610283924982E+01
 0.1605219479561E+01
 0.1597593205605E+01
 0.1587897530810E+01
 0.1576431318213E+01
 0.1563335969975E+01
 0.1548624509114E+01
 0.1532205210038E+01
 0.1513901731315E+01
 0.1493474401241E+01
 0.1470645810254E+01
 0.1445131106650E+01
 0.1416672494969E+01
 0.1385082999333E+01
 0.1350329700247E+01
 0.1312583843657E+01
 0.1272208337410E+01
 0.1229788087733E+01
 0.1186247170188E+01
 0.1143070260719E+01
 0.1102644107307E+01
 0.1068735706585E+01
 0.1047104920785E+01
 0.1046120754331E+01
 0.1077018414171E+01
 0.1152912771508E+01
 0.1285357912154E+01
 0.1478564057741E+01
 0.1723806144789E+01
 0.1996930786700E+01
 0.2259549482537E+01
 0.1360150865941E+01
 0.1422653067878E+01
 0.1483425004366E+01
 0.1537674107829E+01
 0.1582184646336E+01
 0.1615794758478E+01
 0.1639019306437E+01
 0.1653323303439E+01
 0.1660471883516E+01
 0.1662123294300E+01
 0.1659646406786E+01
 0.1654080802782E+01
 0.1646165240735E+01
 0.1636388108287E+01
 0.1625037151718E+01
 0.1612240092042E+01
 0.1597994954154E+01
 0.1582192865401E+01
 0.1564636218146E+01
 0.1545057659122E+01
 0.1523143870615E+01
 0.1498565113577E+01
 0.1471009670103E+01
 0.1440227515040E+01
 0.1406114406387E+01
 0.1368757616213E+01
 0.1328410815083E+01
 0.1285511526106E+01
 0.1240790519062E+01
 0.1195494289415E+01
 0.1151741414869E+01
 0.1113040423786E+01
 0.1084992311369E+01
 0.1076093458832E+01
 0.1098340968439E+01
 0.1166695254468E+01
 0.1295693981924E+01
 0.1492691711305E+01
 0.1750165332329E+01
 0.2042330686190E+01
 0.2321327512885E+01
 0.1401901762963E+01
 0.1468616488259E+01
 0.1533154842159E+01
 0.1590047356321E+01
 0.1635840720891E+01
 0.1669562132937E+01
 0.1692127511316E+01
 0.1705406391011E+01
 0.1711465588648E+01
 0.1712145728275E+01
 0.1708905455095E+01
 0.1702816233976E+01
 0.1694618224761E+01
 0.1684788097163E+01
 0.1673598095186E+01
 0.1661160633941E+01
 0.1647459267819E+01
 0.1632370049520E+01
 0.1615677097780E+01
 0.1597088653538E+01
 0.1576258529642E+01
 0.1552814724851E+01
 0.1526394077149E+01
 0.1496686284837E+01
 0.1463518929349E+01
 0.1426897917445E+01
 0.1386967549897E+01
 0.1344011841981E+01
 0.1298552071830E+01
 0.1251565195385E+01
 0.1204848487712E+01
 0.1161569007435E+01
 0.1127047962628E+01
 0.1109748623550E+01
 0.1122267529218E+01
 0.1181396193537E+01
 0.1305070856421E+01
 0.1504639458038E+01
 0.1774888224897E+01
 0.2087136834380E+01
 0.2392362424978E+01
 0.1444316197185E+01
 0.1515628237600E+01
 0.1584188744028E+01
 0.1643733865033E+01
 0.1690593904554E+01
 0.1724095053582E+01
 0.1745665703239E+01
 0.1757645902574E+01
 0.1762424060381E+01
 0.1762015801852E+01
 0.1757952447119E+01
 0.1751320458800E+01
 0.1742848485684E+01
 0.1732993095979E+01
 0.1722006569677E+01
 0.1709984655742E+01
 0.1696897445897E+01
 0.1682608646563E+01
 0.1666887901544E+01
 0.1649423215755E+01
 0.1629839454895E+01
 0.1607725801097E+01
 0.1582670994746E+01
 0.1554308439310E+01
 0.1522402541539E+01
 0.1486883127452E+01
 0.1447788517915E+01
 0.1405247401295E+01
 0.1359560288658E+01
 0.1311408130955E+01
 0.1262216947157E+01
 0.1214727375046E+01
 0.1173847216426E+01
 0.1147813794915E+01
 0.1149592327130E+01
 0.1197688160043E+01
 0.1313776679323E+01
 0.1514281369561E+01
 0.1797355248222E+01
 0.2132739754331E+01
 0.2466390783578E+01
 0.1487503377208E+01
 0.1563858656622E+01
 0.1636715115318E+01
 0.1698876661224E+01
 0.1746505568349E+01
 0.1779377492565E+01
 0.1799567591422E+01
 0.1809953917797E+01
 0.1813257287517E+01
 0.1811650965922E+01
 0.1806714938693E+01
 0.1799530086511E+01
 0.1790799082217E+01
 0.1780949611340E+01
 0.1770209680759E+01
 0.1758657423726E+01
 0.1746251045617E+01
 0.1732845354318E+01
 0.1718200189782E+01
 0.1701988457614E+01
 0.1683810926781E+01
 0.1663222185920E+01
 0.1639766933394E+01
 0.1613027238916E+01
 0.1582710983864E+01
 0.1548679746156E+01
 0.1510872769684E+01
 0.1469266110937E+01
 0.1423933813870E+01
 0.1375240735020E+01
 0.1324197467572E+01
 0.1273034829765E+01
 0.1226104228514E+01
 0.1191192817359E+01
 0.1181332178629E+01
 0.1216491996040E+01
 0.1322325828316E+01
 0.1521513712698E+01
 0.1817316847910E+01
 0.2178893033122E+01
 0.2543965272884E+01
 0.1531598527393E+01
 0.1613516806813E+01
 0.1690957149432E+01
 0.1755631549338E+01
 0.1803625725444E+01
 0.1835368769789E+01
 0.1853740977608E+01
 0.1862222030780E+01
 0.1863861653211E+01
 0.1860960755460E+01
 0.1855116431256E+01
 0.1847379945155E+01
 0.1838412401070E+01
 0.1828603772726E+01
 0.1818153862065E+01
 0.1807122766959E+01
 0.1795459004208E+01
 0.1783012683554E+01
 0.1769539442939E+01
 0.1754703296324E+01
 0.1738086812135E+01
 0.1719215038959E+01
 0.1697593331313E+01
 0.1672758221217E+01
 0.1644369245346E+01
 0.1612230112600E+01
 0.1576191575991E+01
 0.1536084745057E+01
 0.1491758168830E+01
 0.1443249136442E+01
 0.1391118397072E+01
 0.1337010963012E+01
 0.1284575918604E+01
 0.1240898748583E+01
 0.1218698753214E+01
 0.1239002606327E+01
 0.1331484060043E+01
 0.1526356389759E+01
 0.1834347857593E+01
 0.2225150499657E+01
 0.2625741065422E+01
 0.1576771190087E+01
 0.1664861918786E+01
 0.1747179742746E+01
 0.1814164478506E+01
 0.1861984080521E+01
 0.1891994479829E+01
 0.1908062004584E+01
 0.1914319028132E+01
 0.1914119766519E+01
 0.1909847591292E+01
 0.1903077459280E+01
 0.1894804154369E+01
 0.1885631117855E+01
 0.1875902171104E+01
 0.1865785607747E+01
 0.1855323715023E+01
 0.1844458171260E+01
 0.1833039345304E+01
 0.1820825243790E+01
 0.1807478378979E+01
 0.1792570217070E+01
 0.1775602245193E+01
 0.1756045749469E+01
 0.1733398153395E+01
 0.1707280144906E+01
 0.1677450353604E+01
 0.1643685302013E+01
 0.1605684074280E+01
 0.1563078224303E+01
 0.1515576738219E+01
 0.1463270192567E+01
 0.1407156620976E+01
 0.1350043932853E+01
 0.1298045997421E+01
 0.1263115920102E+01
 0.1266745142031E+01
 0.1342374736718E+01
 0.1529003154435E+01
 0.1847838241093E+01
 0.2271035322679E+01
 0.2712473096175E+01
 0.1623236953058E+01
 0.1718218864456E+01
 0.1805697286857E+01
 0.1874645651686E+01
 0.1921576883708E+01
 0.1949134996988E+01
 0.1962368968795E+01
 0.1966089111048E+01
 0.1963900994223E+01
 0.1958208122971E+01
 0.1950517031530E+01
 0.1941737416984E+01
 0.1932399295350E+01
 0.1922792793322E+01
 0.1913052286880E+01
 0.1903203222468E+01
 0.1893183942084E+01
 0.1882850750765E+01
 0.1871971567020E+01
 0.1860216085306E+01
 0.1847153177069E+01
 0.1832267837473E+01
 0.1815003098770E+01
 0.1794824085375E+01
 0.1771323118147E+01
 0.1744228648742E+01
 0.1713260667506E+01
 0.1678004332947E+01
 0.1637890712565E+01
 0.1592312251198E+01
 0.1540887418331E+01
 0.1483929488628E+01
 0.1423287285158E+01
 0.1363831021535E+01
 0.1316227554506E+01
 0.1301636922583E+01
 0.1356609244792E+01
 0.1529928352393E+01
 0.1857065258107E+01
 0.2315956507178E+01
 0.2805064614416E+01
 0.1671274332304E+01
 0.1773999345615E+01
 0.1866881778825E+01
 0.1937238142359E+01
 0.1982347980464E+01
 0.2006611373554E+01
 0.2016456220473E+01
 0.2017351158530E+01
 0.2013062958119E+01
 0.2005935217219E+01
 0.1997354458853E+01
 0.1988116535912E+01
 0.1978663618118E+01
 0.1969226051544E+01
 0.1959903043005E+01
 0.1950704990083E+01
 0.1941571012569E+01
 0.1932369656681E+01
 0.1922887217473E+01
 0.1912810646325E+01
 0.1901716404544E+01
 0.1889081432080E+01
 0.1874326892770E+01
 0.1856892515610E+01
 0.1836353267691E+01
 0.1812423938991E+01
 0.1784788605120E+01
 0.1752941339419E+01
 0.1716137226749E+01
 0.1673477567798E+01
 0.1624128936751E+01
 0.1567714388210E+01
 0.1505044026974E+01
 0.1439496282829E+01
 0.1379889232755E+01
 0.1346046688019E+01
 0.1376448404077E+01
 0.1530087453335E+01
 0.1861254543070E+01
 0.2359120280310E+01
 0.2904623915212E+01
 0.1721249635387E+01
 0.1832731201309E+01
 0.1931169825272E+01
 0.2002077386642E+01
 0.2044162044456E+01
 0.2064168839077E+01
 0.2070069077061E+01
 0.2067899667120E+01
 0.2061454251906E+01
 0.2052920655654E+01
 0.2043511565200E+01
 0.2033882132544E+01
 0.2024374735545E+01
 0.2015155881217E+01
 0.2006289755832E+01
 0.1997774365961E+01
 0.1989554248753E+01
 0.1981516964012E+01
 0.1973476436838E+01
 0.1965148394786E+01
 0.1956129082726E+01
 0.1945897628600E+01
 0.1933860454660E+01
 0.1919438610600E+01
 0.1902200669423E+01
 0.1881865151598E+01
 0.1858102884005E+01
 0.1830343550099E+01
 0.1797698152279E+01
 0.1759016162386E+01
 0.1713057223958E+01
 0.1658789099867E+01
 0.1595960977628E+01
 0.1526271686718E+01
 0.1456132544666E+01
 0.1402838509459E+01
 0.1404999076028E+01
 0.1531224004901E+01
 0.1859692205971E+01
 0.2399417970855E+01
 0.3012533905985E+01
 0.1773654534941E+01
 0.1895099262232E+01
 0.1999065302291E+01
 0.2069235740726E+01
 0.2106767761542E+01
 0.2121458956531E+01
 0.2122901247923E+01
 0.2117508114830E+01
 0.2108918588925E+01
 0.2099058565764E+01
 0.2088915257576E+01
 0.2078980532750E+01
 0.2069488681769E+01
 0.2060540880996E+01
 0.2052168043514E+01
 0.2044359311293E+01
 0.2037069667994E+01
 0.2030212686955E+01
 0.2023639717665E+01
 0.2017108189215E+01
 0.2010248714415E+01
 0.2002555325327E+01
 0.1993427987209E+01
 0.1982275393205E+01
 0.1968669914014E+01
 0.1952351023267E+01
 0.1932999691768E+01
 0.1910010359243E+01
 0.1882388028868E+01
 0.1848782850490E+01
 0.1807618138566E+01
 0.1757287461401E+01
 0.1696532268249E+01
 0.1625288404632E+01
 0.1547085659519E+01
 0.1475380267708E+01
 0.1446432756514E+01
 0.1536323099912E+01
 0.1851960673260E+01
 0.2435283223562E+01
 0.3130551032976E+01
 0.1829164523087E+01
 0.1962002525659E+01
 0.2071130696916E+01
 0.2138662971162E+01
 0.2169749147179E+01
 0.2178023079096E+01
 0.2174596946367E+01
 0.2165935485635E+01
 0.2155300491219E+01
 0.2144249564200E+01
 0.2133500414769E+01
 0.2123365785268E+01
 0.2113968348796E+01
 0.2105345480663E+01
 0.2097498298903E+01
 0.2090411431780E+01
 0.2084055546175E+01
 0.2078377133949E+01
 0.2073274903739E+01
 0.2068562109585E+01
 0.2063921088041E+01
 0.2058876928719E+01
 0.2052833410295E+01
 0.2045192801406E+01
 0.2035539871584E+01
 0.2023650649737E+01
 0.2009238437787E+01
 0.1991692022936E+01
 0.1969952904375E+01
 0.1942535877677E+01
 0.1907622851166E+01
 0.1863162528949E+01
 0.1807030071200E+01
 0.1737463223256E+01
 0.1654830219225E+01
 0.1567480187596E+01
 0.1506195987248E+01
 0.1550254696463E+01
 0.1838425239027E+01
 0.2464521171361E+01
 0.3260950638280E+01
 0.1888732889011E+01
 0.2034633865460E+01
 0.2147952459356E+01
 0.2210088767954E+01
 0.2232465244591E+01
 0.2233282404408E+01
 0.2224760386875E+01
 0.2212936397776E+01
 0.2200452446005E+01
 0.2188405512753E+01
 0.2177213002591E+01
 0.2167001740897E+01
 0.2157784960055E+01
 0.2149541095393E+01
 0.2142246724137E+01
 0.2135887042840E+01
 0.2130453627853E+01
 0.2125932305442E+01
 0.2122278634604E+01
 0.2119376524560E+01
 0.2116980424125E+01
 0.2114667390606E+01
 0.2111858764130E+01
 0.2107956383613E+01
 0.2102563555771E+01
 0.2095504827109E+01
 0.2086544002152E+01
 0.2075091518539E+01
 0.2060070116066E+01
 0.2039932202793E+01
 0.2012733756670E+01
 0.1976153239894E+01
 0.1927433636825E+01
 0.1863358556443E+01
 0.1781176181183E+01
 0.1683190703851E+01
 0.1591150129230E+01
 0.1580629641258E+01
 0.1821197830864E+01
 0.2484148910640E+01
 0.3406750184826E+01
 0.1953747582068E+01
 0.2114588949636E+01
 0.2230049792563E+01
 0.2282867507168E+01
 0.2293984418622E+01
 0.2286543824997E+01
 0.2272975180734E+01
 0.2258274657444E+01
 0.2244243301761E+01
 0.2231454735155E+01
 0.2220013296185E+01
 0.2209864119728E+01
 0.2200919499249E+01
 0.2193107236311E+01
 0.2186386341293E+01
 0.2180748249021E+01
 0.2176210424271E+01
 0.2172803520784E+01
 0.2170548222566E+01
 0.2169413709484E+01
 0.2169249866997E+01
 0.2169713053788E+01
 0.2170261927327E+01
 0.2170305304229E+01
 0.2169467922211E+01
 0.2167628302057E+01
 0.2164610756193E+01
 0.2159868719666E+01
 0.2152350898105E+01
 0.2140526729840E+01
 0.2122456314428E+01
 0.2095758550055E+01
 0.2057364825001E+01
 0.2003033726123E+01
 0.1927351847145E+01
 0.1826392018841E+01
 0.1709511026989E+01
 0.1638827677418E+01
 0.1805962733374E+01
 0.2490396651723E+01
 0.3572077113146E+01
 0.2026304646288E+01
 0.2204006441000E+01
 0.2317663146852E+01
 0.2355741552252E+01
 0.2353033633628E+01
 0.2337034896056E+01
 0.2318834112049E+01
 0.2301739241959E+01
 0.2286567610448E+01
 0.2273347444691E+01
 0.2261879046349E+01
 0.2251942476944E+01
 0.2243364035044E+01
 0.2236032535767E+01
 0.2229897944299E+01
 0.2224964002044E+01
 0.2221278558426E+01
 0.2218921247223E+01
 0.2217984027090E+01
 0.2218534246299E+01
 0.2220542599975E+01
 0.2223780325192E+01
 0.2227773262248E+01
 0.2231949104786E+01
 0.2235953289243E+01
 0.2239713047457E+01
 0.2243108747917E+01
 0.2245647274739E+01
 0.2246346056273E+01
 0.2243775832282E+01
 0.2236138452503E+01
 0.2221223422274E+01
 0.2196038327038E+01
 0.2155911945893E+01
 0.2093644947198E+01
 0.2000065505637E+01
 0.1870319272805E+01
 0.1741023968408E+01
 0.1805235019235E+01
 0.2479328474908E+01
 0.3762844041102E+01
 0.2109709905439E+01
 0.2305717587007E+01
 0.2410289309243E+01
 0.2426509888309E+01
 0.2408012411861E+01
 0.2383980821028E+01
 0.2361974823251E+01
 0.2343161580501E+01
 0.2327355594291E+01
 0.2314060967861E+01
 0.2302808418847E+01
 0.2293241959726E+01
 0.2285122869952E+01
 0.2278315635949E+01
 0.2272770945079E+01
 0.2268511086949E+01
 0.2265618090998E+01
 0.2264223049528E+01
 0.2264492329874E+01
 0.2266600486903E+01
 0.2270664066927E+01
 0.2276614323263E+01
 0.2284090610733E+01
 0.2292562297046E+01
 0.2301691857385E+01
 0.2311432716305E+01
 0.2321692577997E+01
 0.2332024630505E+01
 0.2341554774757E+01
 0.2349044969336E+01
 0.2352978134871E+01
 0.2351541554720E+01
 0.2342234475769E+01
 0.2320684032686E+01
 0.2279087751862E+01
 0.2205261207111E+01
 0.2081936370723E+01
 0.1908749799829E+01
 0.1843649898832E+01
 0.2449386614861E+01
 0.3988181032166E+01
 0.2209458708482E+01
 0.2423288154398E+01
 0.2505687343592E+01
 0.2491657489117E+01
 0.2457169455666E+01
 0.2426717470404E+01
 0.2402111521292E+01
 0.2382434886814E+01
 0.2366582753132E+01
 0.2353604327665E+01
 0.2342822584561E+01
 0.2333784742290E+01
 0.2326213471178E+01
 0.2319965911440E+01
 0.2315004092398E+01
 0.2311375010644E+01
 0.2309197784030E+01
 0.2308655563962E+01
 0.2309988634514E+01
 0.2313481414781E+01
 0.2319416192679E+01
 0.2327938045251E+01
 0.2338871871385E+01
 0.2351775313220E+01
 0.2366324596432E+01
 0.2382448667218E+01
 0.2400013819289E+01
 0.2418585939144E+01
 0.2437436576656E+01
 0.2455619801860E+01
 0.2472038230902E+01
 0.2485478350435E+01
 0.2494308648756E+01
 0.2495249431564E+01
 0.2481299325931E+01
 0.2440064717735E+01
 0.2348896779377E+01
 0.2167656905881E+01
 0.1965312128775E+01
 0.2409398079663E+01
 0.4264039846629E+01
 0.2335307633772E+01
 0.2560466328358E+01
 0.2597815862079E+01
 0.2546266862097E+01
 0.2499067317756E+01
 0.2464773927880E+01
 0.2439063107781E+01
 0.2419536889917E+01
 0.2404276448422E+01
 0.2392022413176E+01
 0.2381967614774E+01
 0.2373611068784E+01
 0.2366667121336E+01
 0.2361003984734E+01
 0.2356606027613E+01
 0.2353550746564E+01
 0.2351996240005E+01
 0.2352176356752E+01
 0.2354401089828E+01
 0.2359059038048E+01
 0.2366605028361E+01
 0.2377453410093E+01
 0.2391724001737E+01
 0.2409159146275E+01
 0.2429455350649E+01
 0.2452418320675E+01
 0.2477738121186E+01
 0.2504922762450E+01
 0.2533426675419E+01
 0.2562718804737E+01
 0.2592267616581E+01
 0.2621609995737E+01
 0.2650260607653E+01
 0.2676701243595E+01
 0.2696445867040E+01
 0.2699341926335E+01
 0.2667161703074E+01
 0.2540647939051E+01
 0.2241714362830E+01
 0.2400943299769E+01
 0.4623895481325E+01
 0.2506152220972E+01
 0.2718000188519E+01
 0.2672938416422E+01
 0.2585365841593E+01
 0.2533196303321E+01
 0.2497805757635E+01
 0.2472827491773E+01
 0.2454537306567E+01
 0.2440522330867E+01
 0.2429398841487E+01
 0.2420315515405E+01
 0.2412779874437E+01
 0.2406529234570E+01
 0.2401462026886E+01
 0.2397595664637E+01
 0.2395043316622E+01
 0.2394002868876E+01
 0.2394755599586E+01
 0.2397673565090E+01
 0.2403235779497E+01
 0.2412053924428E+01
 0.2424847649367E+01
 0.2442186825100E+01
 0.2464198633528E+01
 0.2490640694697E+01
 0.2521007606962E+01
 0.2554568679937E+01
 0.2590657549203E+01
 0.2628956039131E+01
 0.2669504724051E+01
 0.2712522757464E+01
 0.2758381841094E+01
 0.2807840471144E+01
 0.2861507309641E+01
 0.2918971342588E+01
 0.2975806977790E+01
 0.3021302266870E+01
 0.3027649595275E+01
 0.2773713493607E+01
 0.2552574472332E+01
 0.5157483403816E+01
 0.2763442584270E+01
 0.2878177760290E+01
 0.2705630559747E+01
 0.2609304346243E+01
 0.2559159544052E+01
 0.2525797873913E+01
 0.2503616108651E+01
 0.2487594172369E+01
 0.2475472867291E+01
 0.2465855244682E+01
 0.2457965012141E+01
 0.2451368639211E+01
 0.2445859358332E+01
 0.2441383770301E+01
 0.2438002350217E+01
 0.2435868154887E+01
 0.2435218571067E+01
 0.2436377448654E+01
 0.2439768102932E+01
 0.2445940613450E+01
 0.2455623804918E+01
 0.2469814042753E+01
 0.2489709347676E+01
 0.2516243322068E+01
 0.2549374534845E+01
 0.2587911038677E+01
 0.2630277949265E+01
 0.2675474707323E+01
 0.2723477019379E+01
 0.2775097900319E+01
 0.2831566727312E+01
 0.2894202084355E+01
 0.2964665279440E+01
 0.3045859464520E+01
 0.3141771100510E+01
 0.3259116056978E+01
 0.3393967682083E+01
 0.3570267324467E+01
 0.3652561761327E+01
 0.3168835793907E+01
 0.6180739937979E+01
 0.3217937358821E+01
 0.2920343220167E+01
 0.2690873642697E+01
 0.2622082531836E+01
 0.2575990132820E+01
 0.2549603497007E+01
 0.2531688195999E+01
 0.2519008697546E+01
 0.2509332737502E+01
 0.2501554333458E+01
 0.2495039822873E+01
 0.2489473025368E+01
 0.2484730678562E+01
 0.2480824262993E+01
 0.2477865762032E+01
 0.2476051259952E+01
 0.2475656070888E+01
 0.2477040925458E+01
 0.2480667002876E+01
 0.2487131905641E+01
 0.2497232756629E+01
 0.2512113205333E+01
 0.2533617017149E+01
 0.2564406299244E+01
 0.2605074923847E+01
 0.2652883879231E+01
 0.2704750308538E+01
 0.2759158860753E+01
 0.2816495083517E+01
 0.2878596644922E+01
 0.2948045796941E+01
 0.3027453492009E+01
 0.3118668411417E+01
 0.3225390907804E+01
 0.3358476893999E+01
 0.3531777787057E+01
 0.3775065943769E+01
 0.4080094375079E+01
 0.4737360217149E+01
 0.4740942457699E+01
 0.9265779836218E+01
 0.5759262093914E-01
 0.6112099012996E-01
 0.6686504890158E-01
 0.7438960738120E-01
 0.8326527391995E-01
 0.9288779455906E-01
 0.1028057672660E+00
 0.1127363160368E+00
 0.1224264479903E+00
 0.1316437550331E+00
 0.1402148433294E+00
 0.1480172339607E+00
 0.1549348491451E+00
 0.1608297977914E+00
 0.1655543257791E+00
 0.1689724127445E+00
 0.1709204117181E+00
 0.1713994628414E+00
 0.1708645819015E+00
 0.1693905992987E+00
 0.6079486356816E-01
 0.6788759425803E-01
 0.7657733367115E-01
 0.8663217633917E-01
 0.9762359886180E-01
 0.1090815539031E+00
 0.1206341618848E+00
 0.1319963593734E+00
 0.1429150208723E+00
 0.1531780661032E+00
 0.1626298253340E+00
 0.1711631290912E+00
 0.1786805388002E+00
 0.1850700391205E+00
 0.1902121040867E+00
 0.1939797959192E+00
 0.1961756164094E+00
 0.1967294099064E+00
 0.1951332385701E+00
 0.1908430821240E+00
 0.6362194539936E-01
 0.7448078947780E-01
 0.8618509530962E-01
 0.9879675648405E-01
 0.1119878275501E+00
 0.1253673274610E+00
 0.1386145689333E+00
 0.1514647064755E+00
 0.1636783593077E+00
 0.1750596736783E+00
 0.1854701304409E+00
 0.1948170477176E+00
 0.2030188802219E+00
 0.2099803473220E+00
 0.2155880505733E+00
 0.2196912734628E+00
 0.2220573544982E+00
 0.2223792055701E+00
 0.2201300323877E+00
 0.2156911873048E+00
 0.6629541221316E-01
 0.8083923388497E-01
 0.9566023278921E-01
 0.1109009238906E+00
 0.1263622568718E+00
 0.1417339327701E+00
 0.1567391849721E+00
 0.1711376746269E+00
 0.1847102411014E+00
 0.1972791628560E+00
 0.2087217178597E+00
 0.2189583583919E+00
 0.2279193474013E+00
 0.2355172404301E+00
 0.2416323134327E+00
 0.2460898353292E+00
 0.2486109948561E+00
 0.2488685974272E+00
 0.2466237689453E+00
 0.2424001745072E+00
 0.6887984695890E-01
 0.8704341919186E-01
 0.1050103116619E+00
 0.1229500009791E+00
 0.1407490065926E+00
 0.1581763331595E+00
 0.1749999261716E+00
 0.1910066326312E+00
 0.2060001748227E+00
 0.2198222216169E+00
 0.2323654456084E+00
 0.2435617826307E+00
 0.2533499245527E+00
 0.2616454252480E+00
 0.2683221125548E+00
 0.2731903974256E+00
 0.2759809098861E+00
 0.2764467295778E+00
 0.2745073904041E+00
 0.2706610789042E+00
 0.7141989886465E-01
 0.9314310445315E-01
 0.1142669037557E+00
 0.1349530678040E+00
 0.1551491429255E+00
 0.1746899637781E+00
 0.1933882575724E+00
 0.2110601882853E+00
 0.2275337076801E+00
 0.2426704342022E+00
 0.2563781446618E+00
 0.2685992610321E+00
 0.2792793726663E+00
 0.2883371696000E+00
 0.2956460568002E+00
 0.3010232528772E+00
 0.3042418647946E+00
 0.3051313097768E+00
 0.3036980263570E+00
 0.3003566243545E+00
 0.7394796328587E-01
 0.9917858460549E-01
 0.1234583726089E+00
 0.1469236189217E+00
 0.1695643751716E+00
 0.1912698588016E+00
 0.2118944832610E+00
 0.2312846423897E+00
 0.2492931623306E+00
 0.2658018124767E+00
 0.2807333705556E+00
 0.2940406200526E+00
 0.3056766185564E+00
 0.3155663929508E+00
 0.3235924182847E+00
 0.3295945990052E+00
 0.3333954570541E+00
 0.3348869022384E+00
 0.3341190410253E+00
 0.3314242029579E+00
 0.7649000249964E-01
 0.1051813978787E+00
 0.1326093188851E+00
 0.1588744736279E+00
 0.1839969501576E+00
 0.2079105593506E+00
 0.2305076097202E+00
 0.2516642177961E+00
 0.2712581412319E+00
 0.2891913470086E+00
 0.3054017974412E+00
 0.3198533641797E+00
 0.3325085486617E+00
 0.3433033489982E+00
 0.3521374281026E+00
 0.3588812112475E+00
 0.3634055418102E+00
 0.3656516403962E+00
 0.3656939973271E+00
 0.3638009316988E+00
 0.7906771876942E-01
 0.1111769124803E+00
 0.1417399786156E+00
 0.1708166651717E+00
 0.1984484775841E+00
 0.2246059841878E+00
 0.2492154108986E+00
 0.2721813100123E+00
 0.2934059233063E+00
 0.3128113879667E+00
 0.3303513134675E+00
 0.3460019585373E+00
 0.3597378922194E+00
 0.3715105064372E+00
 0.3812421614818E+00
 0.3888372043552E+00
 0.3942113241244E+00
 0.3973464767105E+00
 0.3983345689993E+00
 0.3974020050404E+00
 0.8169984867791E-01
 0.1171857166732E+00
 0.1508666555038E+00
 0.1827588948774E+00
 0.2129193748560E+00
 0.2413491164936E+00
 0.2680044558516E+00
 0.2928166593443E+00
 0.3157116968461E+00
 0.3366317952003E+00
 0.3555468464069E+00
 0.3724470438431E+00
 0.3873216412613E+00
 0.4001409681178E+00
 0.4108535419927E+00
 0.4193987598419E+00
 0.4257338729452E+00
 0.4298765720216E+00
 0.4319351389312E+00
 0.4321142749911E+00
 0.8440295952679E-01
 0.1232246845754E+00
 0.1600022474442E+00
 0.1947075358158E+00
 0.2274086442999E+00
 0.2581318934416E+00
 0.2868601744861E+00
 0.3135495493371E+00
 0.3381487807935E+00
 0.3606200597890E+00
 0.3809502404641E+00
 0.3991449730269E+00
 0.4152104615524E+00
 0.4291385891116E+00
 0.4409060833246E+00
 0.4504875237049E+00
 0.4578791993454E+00
 0.4631319499215E+00
 0.4663717142975E+00
 0.4677968455925E+00
 0.8719199206362E-01
 0.1293077592066E+00
 0.1691567884859E+00
 0.2066668231668E+00
 0.2419138707342E+00
 0.2749451979364E+00
 0.3057669411702E+00
 0.3343579639464E+00
 0.3606887898236E+00
 0.3847413939708E+00
 0.4065202131485E+00
 0.4260476865634E+00
 0.4433487729054E+00
 0.4584387315699E+00
 0.4713236414220E+00
 0.4820129602270E+00
 0.4905402053741E+00
 0.4969882501799E+00
 0.5015029450295E+00
 0.5042859006458E+00
 0.9008064811376E-01
 0.1354465729727E+00
 0.1783379684734E+00
 0.2186391612460E+00
 0.2564313732884E+00
 0.2917789733858E+00
 0.3247082243584E+00
 0.3552187784875E+00
 0.3833018329278E+00
 0.4089589020489E+00
 0.4322125047428E+00
 0.4531029435548E+00
 0.4716752807278E+00
 0.4879693463432E+00
 0.5020210995681E+00
 0.5138743376588E+00
 0.5235984383689E+00
 0.5313079113317E+00
 0.5371710417625E+00
 0.5413989733185E+00
 0.9308169261696E-01
 0.1416509688926E+00
 0.1875516386864E+00
 0.2306255034347E+00
 0.2709564711664E+00
 0.3086224412988E+00
 0.3436668082644E+00
 0.3761079999488E+00
 0.4059567656295E+00
 0.4332338443578E+00
 0.4579801933562E+00
 0.4802547888779E+00
 0.5001237454010E+00
 0.5176521684084E+00
 0.5329059832319E+00
 0.5459625869597E+00
 0.5569259761524E+00
 0.5659419531255E+00
 0.5732032090002E+00
 0.5789357023712E+00
 0.9620718352432E-01
 0.1479294361722E+00
 0.1968022763151E+00
 0.2426257441666E+00
 0.2854837907411E+00
 0.3254643595299E+00
 0.3626250395125E+00
 0.3970010221906E+00
 0.4286214654833E+00
 0.4575259553235E+00
 0.4837741066854E+00
 0.5074441444410E+00
 0.5286238536878E+00
 0.5474039386445E+00
 0.5638800293626E+00
 0.5781621608712E+00
 0.5903875842285E+00
 0.6007326503986E+00
 0.6094154585128E+00
 0.6166812191492E+00
 0.9946866701257E-01
 0.1542895093587E+00
 0.2060934476175E+00
 0.2546391530197E+00
 0.3000076440804E+00
 0.3422933610668E+00
 0.3815651519272E+00
 0.4178729581864E+00
 0.4512631933528E+00
 0.4817938660782E+00
 0.5095433575366E+00
 0.5346095267387E+00
 0.5571021894558E+00
 0.5771376772748E+00
 0.5948407807960E+00
 0.6103529741714E+00
 0.6238431442604E+00
 0.6355168980953E+00
 0.6456177064991E+00
 0.6544129301814E+00
 0.1028773404577E+00
 0.1607381305137E+00
 0.2154282530278E+00
 0.2666648161188E+00
 0.3145224333512E+00
 0.3590983253292E+00
 0.4004696231601E+00
 0.4386990038041E+00
 0.4738489908519E+00
 0.5059955716124E+00
 0.5352359289400E+00
 0.5616878065831E+00
 0.5854832229748E+00
 0.6067639460658E+00
 0.6256831578145E+00
 0.6424123513673E+00
 0.6571501565001E+00
 0.6701296280306E+00
 0.6816185950196E+00
 0.6919074782798E+00
 0.1064441944575E+00
 0.1672819921011E+00
 0.2248097667581E+00
 0.2787020910727E+00
 0.3290230832442E+00
 0.3758687837990E+00
 0.4193215662102E+00
 0.4594548357044E+00
 0.4963461120771E+00
 0.5300889319969E+00
 0.5607992883177E+00
 0.5886149836102E+00
 0.6136902911704E+00
 0.6361920747524E+00
 0.6563009743078E+00
 0.6742169060998E+00
 0.6901661200362E+00
 0.7044068816647E+00
 0.7172294998374E+00
 0.7289463652124E+00
 0.1101801477135E+00
 0.1739278757198E+00
 0.2342414840893E+00
 0.2907510844530E+00
 0.3435055076822E+00
 0.3925953658394E+00
 0.4381051624453E+00
 0.4801170498507E+00
 0.5187224938680E+00
 0.5540322077210E+00
 0.5861810264427E+00
 0.6153269692142E+00
 0.6416465631957E+00
 0.6653313455851E+00
 0.6865883811426E+00
 0.7056442997705E+00
 0.7227506895512E+00
 0.7381884576311E+00
 0.7522677834275E+00
 0.7653202965436E+00
 0.1140961704727E+00
 0.1806829822868E+00
 0.2437277654023E+00
 0.3028131332108E+00
 0.3579670858222E+00
 0.4092702555169E+00
 0.4568061041893E+00
 0.5006636061431E+00
 0.5409472270137E+00
 0.5777845881411E+00
 0.6113294774128E+00
 0.6417603329483E+00
 0.6692759463271E+00
 0.6940920892394E+00
 0.7164411819465E+00
 0.7365748094871E+00
 0.7547675366547E+00
 0.7713201344406E+00
 0.7865594990060E+00
 0.8008327150371E+00
 0.1182034102380E+00
 0.1875552709229E+00
 0.2532742952964E+00
 0.3148913077282E+00
 0.3724071637993E+00
 0.4258876748583E+00
 0.4754120613131E+00
 0.5210742920309E+00
 0.5629910388074E+00
 0.6013067203570E+00
 0.6361943238077E+00
 0.6678530137224E+00
 0.6965039305841E+00
 0.7223866864519E+00
 0.7457580101141E+00
 0.7668926927396E+00
 0.7860859085947E+00
 0.8036554629312E+00
 0.8199415933900E+00
 0.8353024581970E+00
 0.1225133211142E+00
 0.1945538074406E+00
 0.2628885547453E+00
 0.3269909300491E+00
 0.3868275715367E+00
 0.4424443795658E+00
 0.4939131553820E+00
 0.5413311866080E+00
 0.5848267666162E+00
 0.6245612166093E+00
 0.6607271639980E+00
 0.6935449721308E+00
 0.7232583481459E+00
 0.7501304516051E+00
 0.7744413462200E+00
 0.7964873357073E+00
 0.8165818890580E+00
 0.8350570732362E+00
 0.8522631958802E+00
 0.8685645688541E+00
 0.1270378014495E+00
 0.2016891280793E+00
 0.2725803108032E+00
 0.3391201092001E+00
 0.4012331535647E+00
 0.4589401635944E+00
 0.5123024357508E+00
 0.5614191178875E+00
 0.6064298136772E+00
 0.6475131301686E+00
 0.6848820306057E+00
 0.7187787722059E+00
 0.7494700354917E+00
 0.7772423870363E+00
 0.8023983679318E+00
 0.8252541894063E+00
 0.8461393800725E+00
 0.8653976089477E+00
 0.8833861160620E+00
 0.9004706755773E+00
 0.1317893459494E+00
 0.2089736260386E+00
 0.2823621307497E+00
 0.3512902983523E+00
 0.4156323158797E+00
 0.4753783721835E+00
 0.5305763552337E+00
 0.5813261092830E+00
 0.6277785818833E+00
 0.6701303935463E+00
 0.7086158532969E+00
 0.7435000853252E+00
 0.7750733909046E+00
 0.8036458015245E+00
 0.8295416299674E+00
 0.8530954987020E+00
 0.8746508494545E+00
 0.8945604173753E+00
 0.9131855194064E+00
 0.9308896071330E+00
 0.1367812180400E+00
 0.2164219671738E+00
 0.2922499264340E+00
 0.3635168771267E+00
 0.4300375890939E+00
 0.4917664209472E+00
 0.5487352409568E+00
 0.6010438094933E+00
 0.6488548749340E+00
 0.6923842121715E+00
 0.7318888592722E+00
 0.7676581101001E+00
 0.8000068217660E+00
 0.8292687887343E+00
 0.8557895726464E+00
 0.8799208326919E+00
 0.9020178601084E+00
 0.9224400687778E+00
 0.9415504841065E+00
 0.9597077989123E+00
 0.1420276433400E+00
 0.2240515360302E+00
 0.3022635281815E+00
 0.3758197546661E+00
 0.4444661994600E+00
 0.5081163092869E+00
 0.5667837463870E+00
 0.6205678904902E+00
 0.6696442562770E+00
 0.7142493987107E+00
 0.7546648981792E+00
 0.7912058968617E+00
 0.8242130720845E+00
 0.8540445576111E+00
 0.8810668537707E+00
 0.9056474145214E+00
 0.9281513870415E+00
 0.9489426296911E+00
 0.9683841044575E+00
 0.9868290254792E+00
 0.1475440386235E+00
 0.2318829313167E+00
 0.3124273091195E+00
 0.3882240141680E+00
 0.4589406666886E+00
 0.5244451452234E+00
 0.5847313000960E+00
 0.6398984279542E+00
 0.6901363755531E+00
 0.7357046619012E+00
 0.7769117061034E+00
 0.8141005922465E+00
 0.8476394458340E+00
 0.8779116289540E+00
 0.9053045145230E+00
 0.9302002572937E+00
 0.9529719171497E+00
 0.9739856647994E+00
 0.9936032123216E+00
 0.1012173603832E+01
 0.1533472754011E+00
 0.2399405076300E+00
 0.3227708547930E+00
 0.4007605880487E+00
 0.4734894117004E+00
 0.5407756598937E+00
 0.6025925261800E+00
 0.6590402372233E+00
 0.7103252365113E+00
 0.7567328247886E+00
 0.7986010872191E+00
 0.8363035869900E+00
 0.8702379131647E+00
 0.9008138869117E+00
 0.9284399659610E+00
 0.9535120840100E+00
 0.9764093007382E+00
 0.9974979693644E+00
 0.1017137784791E+01
 0.1035677094928E+01
 0.1594559849635E+00
 0.2482529771886E+00
 0.3333296924805E+00
 0.4134669766170E+00
 0.4881473839577E+00
 0.5571367187405E+00
 0.6203876416567E+00
 0.6780031692109E+00
 0.7302094114123E+00
 0.7773209800381E+00
 0.8197090254931E+00
 0.8577805851167E+00
 0.8919651226462E+00
 0.9227005103687E+00
 0.9504168174818E+00
 0.9755230417088E+00
 0.9984023459137E+00
 0.1019419025891E+01
 0.1038930082474E+01
 0.1057288398596E+01
 0.1658909230391E+00
 0.2568540930895E+00
 0.3441461050882E+00
 0.4263880328239E+00
 0.5029567262670E+00
 0.5735638427725E+00
 0.6381428402629E+00
 0.6968023721749E+00
 0.7497922056685E+00
 0.7974605866042E+00
 0.8402157343889E+00
 0.8785016082980E+00
 0.9127823388513E+00
 0.9435258055741E+00
 0.9711845645795E+00
 0.9961802174557E+00
 0.1018898139987E+01
 0.1039698084962E+01
 0.1058933346194E+01
 0.1076966775313E+01
 0.1726753802482E+00
 0.2657834029192E+00
 0.3552700157715E+00
 0.4395767912818E+00
 0.5179674457121E+00
 0.5900997009470E+00
 0.6558906181046E+00
 0.7154584706657E+00
 0.7690817225460E+00
 0.8171474605219E+00
 0.8601056056708E+00
 0.8984409094525E+00
 0.9326552939925E+00
 0.9632489400616E+00
 0.9906981405148E+00
 0.1015436958969E+01
 0.1037851101216E+01
 0.1058292816035E+01
 0.1077109556913E+01
 0.1094676688198E+01
 0.1798356738532E+00
 0.2750871225124E+00
 0.3667600027313E+00
 0.4530954032224E+00
 0.5332381496614E+00
 0.6067946293579E+00
 0.6736700929883E+00
 0.7339977080935E+00
 0.7880908695792E+00
 0.8363817003396E+00
 0.8793671029220E+00
 0.9175768531152E+00
 0.9515540271705E+00
 0.9818336652889E+00
 0.1008917422687E+01
 0.1033252086267E+01
 0.1055221854725E+01
 0.1075167788183E+01
 0.1093426940969E+01
 0.1110383197011E+01
 0.1874017049052E+00
 0.2848191178414E+00
 0.3786844344120E+00
 0.4670161594703E+00
 0.5488368177510E+00
 0.6237071404519E+00
 0.6915272740449E+00
 0.7524520029925E+00
 0.8068372518074E+00
 0.8551674931818E+00
 0.8979925557523E+00
 0.9358917400306E+00
 0.9694527206149E+00
 0.9992480709693E+00
 0.1025806759392E+01
 0.1049589060031E+01
 0.1070976018358E+01
 0.1090293057952E+01
 0.1107859123106E+01
 0.1124054106651E+01
 0.1954075861867E+00
 0.2950420218741E+00
 0.3911227598219E+00
 0.4814226289983E+00
 0.5648416281774E+00
 0.6409044293669E+00
 0.7095152784425E+00
 0.7708588994572E+00
 0.8253429171245E+00
 0.8735127560382E+00
 0.9159778086265E+00
 0.9533715446078E+00
 0.9863295354710E+00
 0.1015464421535E+01
 0.1041334603349E+01
 0.1064415199047E+01
 0.1085082934604E+01
 0.1103642837335E+01
 0.1120385261222E+01
 0.1135665109064E+01
 0.2038923736434E+00
 0.3058285456656E+00
 0.4041670181256E+00
 0.4964109863011E+00
 0.5813418979362E+00
 0.6584629431275E+00
 0.7276945484638E+00
 0.7892614524948E+00
 0.8436339761263E+00
 0.8914286245890E+00
 0.9333217334022E+00
 0.9700055856550E+00
 0.1002166510689E+01
 0.1030459214245E+01
 0.1055473476579E+01
 0.1077701185200E+01
 0.1097514514739E+01
 0.1115194031982E+01
 0.1130989763485E+01
 0.1145202120971E+01
 0.2129008642307E+00
 0.3172629337905E+00
 0.4179235697366E+00
 0.5120914510681E+00
 0.5984391038625E+00
 0.6764689412567E+00
 0.7461330038081E+00
 0.8077079426604E+00
 0.8617399715370E+00
 0.9089286506776E+00
 0.9500254627850E+00
 0.9857859862408E+00
 0.1016949409747E+01
 0.1044213464240E+01
 0.1068200430405E+01
 0.1089421134133E+01
 0.1108244288680E+01
 0.1124924466000E+01
 0.1139660932695E+01
 0.1152663441557E+01
 0.2224845149736E+00
 0.3294429073769E+00
 0.4325149944646E+00
 0.5285901045188E+00
 0.6162480330965E+00
 0.6950192894833E+00
 0.7649062510947E+00
 0.8262515175693E+00
 0.8796930534664E+00
 0.9260277405354E+00
 0.9660913554113E+00
 0.1000706915176E+01
 0.1030667453873E+01
 0.1056713200364E+01
 0.1079498357645E+01
 0.1099553798879E+01
 0.1117247177121E+01
 0.1132810433995E+01
 0.1146388678074E+01
 0.1158063060226E+01
 0.2327030031872E+00
 0.3424810308015E+00
 0.4480830250717E+00
 0.5460501251108E+00
 0.6348985305931E+00
 0.7142223320053E+00
 0.7840978356504E+00
 0.8449496283126E+00
 0.8975267451170E+00
 0.9427406839183E+00
 0.9815215214756E+00
 0.1014763363685E+01
 0.1043312757316E+01
 0.1067949721827E+01
 0.1089357880977E+01
 0.1108086294957E+01
 0.1124500877053E+01
 0.1138823660086E+01
 0.1151158992809E+01
 0.1161436397763E+01
 0.2436246071859E+00
 0.3565135656716E+00
 0.4647858330514E+00
 0.5646360745605E+00
 0.6545367258186E+00
 0.7341992574368E+00
 0.8037999498626E+00
 0.8638629464076E+00
 0.9152741407173E+00
 0.9590802659532E+00
 0.9963159587138E+00
 0.1027949206912E+01
 0.1054879023805E+01
 0.1077919945341E+01
 0.1097778097573E+01
 0.1115019546280E+01
 0.1129996783936E+01
 0.1142925931457E+01
 0.1153940259746E+01
 0.1162842704597E+01
 0.2553579156081E+00
 0.3716591324272E+00
 0.4828175280780E+00
 0.5845320575673E+00
 0.6753250166788E+00
 0.7550895694738E+00
 0.8241140875778E+00
 0.8830531988202E+00
 0.9329653587021E+00
 0.9750553916585E+00
 0.1010470588570E+01
 0.1040254783622E+01
 0.1065358526204E+01
 0.1086625943113E+01
 0.1104770690748E+01
 0.1120364552687E+01
 0.1133758068040E+01
 0.1145109662094E+01
 0.1154621787325E+01
 0.1162364874062E+01
 0.2165592903932E+00
 0.3346135113712E+00
 0.3506511668582E+00
 0.3337554897523E+00
 0.2884777730881E+00
 0.2345200556095E+00
 0.1962843761700E+00
 0.1780193662937E+00
 0.1662988704265E+00
 0.1542342635373E+00
 0.1406718982464E+00
 0.1257276682907E+00
 0.1094020747549E+00
 0.9181730042558E-01
 0.7360921157247E-01
 0.5528672622980E-01
 0.3696967028746E-01
 0.2134627489679E-01
 0.9572009147927E-02
 0.4387492520723E-03
 0.1853073565923E+00
 0.3093798499755E+00
 0.3194587361703E+00
 0.3058785576215E+00
 0.2764163226220E+00
 0.2395658925020E+00
 0.2080967690808E+00
 0.1873577525058E+00
 0.1725668724811E+00
 0.1590832970524E+00
 0.1451726406193E+00
 0.1303089698331E+00
 0.1142979338678E+00
 0.9715521088703E-01
 0.7917847992280E-01
 0.6075117464997E-01
 0.4241313863495E-01
 0.2593661717490E-01
 0.1197534455924E-01
 0.1001211284776E-02
 0.1552986695772E+00
 0.2757412689096E+00
 0.2923034659920E+00
 0.2819742582280E+00
 0.2619046267789E+00
 0.2369381818730E+00
 0.2130360761500E+00
 0.1937619304832E+00
 0.1779046132482E+00
 0.1633907996051E+00
 0.1490479570292E+00
 0.1342242950532E+00
 0.1185342418998E+00
 0.1018229109113E+00
 0.8418952289459E-01
 0.6590104324506E-01
 0.4743132456354E-01
 0.2990228474194E-01
 0.1380838800720E-01
 0.1887032672149E-02
 0.1282328641862E+00
 0.2423059442590E+00
 0.2649097765880E+00
 0.2599889143991E+00
 0.2462727631220E+00
 0.2294703442314E+00
 0.2122081036639E+00
 0.1960374840204E+00
 0.1809464908017E+00
 0.1663678861576E+00
 0.1519235074988E+00
 0.1372286773350E+00
 0.1219049284927E+00
 0.1056940556321E+00
 0.8853346073126E-01
 0.7053532197043E-01
 0.5203995329753E-01
 0.3362682967660E-01
 0.1563501659930E-01
 0.2530799063940E-02
 0.1040212265975E+00
 0.2104481976010E+00
 0.2377472790464E+00
 0.2381957651232E+00
 0.2297815630162E+00
 0.2187943316924E+00
 0.2068679306466E+00
 0.1941774756986E+00
 0.1809156140644E+00
 0.1672175748391E+00
 0.1532404214449E+00
 0.1389526867599E+00
 0.1241397624199E+00
 0.1085501808624E+00
 0.9201610358382E-01
 0.7450599943480E-01
 0.5620887114195E-01
 0.3724519812635E-01
 0.1776155441386E-01
 0.2477180876584E-02
 0.8247504982839E-01
 0.1805921994354E+00
 0.2110908941279E+00
 0.2162054392279E+00
 0.2122816491258E+00
 0.2057575857966E+00
 0.1980172335292E+00
 0.1885906631773E+00
 0.1775916714977E+00
 0.1654088855314E+00
 0.1524546154770E+00
 0.1389523142984E+00
 0.1248880741193E+00
 0.1100982129125E+00
 0.9438033396407E-01
 0.7759819562035E-01
 0.5980749350464E-01
 0.4073169884477E-01
 0.2029137961330E-01
 0.1596773757646E-02
 0.6336439464999E-01
 0.1528456265785E+00
 0.1851426117898E+00
 0.1939820846873E+00
 0.1937764080517E+00
 0.1907805694625E+00
 0.1863478732227E+00
 0.1797603420671E+00
 0.1710608848170E+00
 0.1607012603123E+00
 0.1491664142675E+00
 0.1368058560940E+00
 0.1237629557517E+00
 0.1099892820141E+00
 0.9530360452673E-01
 0.7951510716004E-01
 0.6258389656796E-01
 0.4389500596792E-01
 0.2311603753131E-01
 0.1363516830676E-02
 0.4645912311693E-01
 0.1271980109037E+00
 0.1600493106755E+00
 0.1716228167678E+00
 0.1743673786508E+00
 0.1741489358797E+00
 0.1723224013578E+00
 0.1681131321303E+00
 0.1615385504564E+00
 0.1530593661816E+00
 0.1431476013897E+00
 0.1321829466924E+00
 0.1204003283651E+00
 0.1078548539359E+00
 0.9441681989400E-01
 0.7988572827726E-01
 0.6417105825848E-01
 0.4638167847632E-01
 0.2591277662952E-01
 0.3664211826238E-02
 0.3154667773761E-01
 0.1035838963646E+00
 0.1359216384681E+00
 0.1492703085168E+00
 0.1542109486242E+00
 0.1561040537113E+00
 0.1562833179802E+00
 0.1539993398500E+00
 0.1492739798330E+00
 0.1425673070306E+00
 0.1343125990037E+00
 0.1248675331596E+00
 0.1145025259845E+00
 0.1033485105584E+00
 0.9133708275865E-01
 0.7829118521660E-01
 0.6411210183058E-01
 0.4770094332623E-01
 0.2816807455373E-01
 0.6374686227914E-02
 0.1846099345582E-01
 0.8191013700608E-01
 0.1128420861265E+00
 0.1270783550574E+00
 0.1334888879806E+00
 0.1368738071479E+00
 0.1385136104785E+00
 0.1377148583581E+00
 0.1345143808591E+00
 0.1293707162033E+00
 0.1226778240940E+00
 0.1147509267154E+00
 0.1058588002106E+00
 0.9617962745030E-01
 0.8570449091505E-01
 0.7430175372719E-01
 0.6190023624173E-01
 0.4726841610562E-01
 0.2922831322679E-01
 0.8521161907953E-02
 0.7308372968059E-02
 0.6206957629041E-01
 0.9086994443549E-01
 0.1051964610644E+00
 0.1123915300738E+00
 0.1166814521038E+00
 0.1192681052822E+00
 0.1195233781591E+00
 0.1174980927733E+00
 0.1136461562899E+00
 0.1083283882693E+00
 0.1018139402560E+00
 0.9434884986486E-01
 0.8613473434098E-01
 0.7721496261921E-01
 0.6751696024671E-01
 0.5702614395650E-01
 0.4446140220369E-01
 0.2836726073143E-01
 0.9255933877532E-02
 0.5002092468521E-02
 0.4394928669066E-01
 0.7004537915360E-01
 0.8376317649279E-01
 0.9110835987116E-01
 0.9574745757408E-01
 0.9878887262739E-01
 0.9967234098982E-01
 0.9845759889883E-01
 0.9558786592627E-01
 0.9139626843278E-01
 0.8610892941462E-01
 0.7993786788113E-01
 0.7308866231241E-01
 0.6564623271423E-01
 0.5760363638504E-01
 0.4902641851674E-01
 0.3867705809128E-01
 0.2485804827042E-01
 0.7757506451971E-02
 0.1320436934906E-01
 0.2743837519567E-01
 0.5039451067017E-01
 0.6290465424560E-01
 0.6982374165195E-01
 0.7428988745667E-01
 0.7731328900455E-01
 0.7840362829776E-01
 0.7762519033278E-01
 0.7540372384674E-01
 0.7204799761052E-01
 0.6774591575351E-01
 0.6266915922850E-01
 0.5700968596481E-01
 0.5087839450988E-01
 0.4433148665115E-01
 0.3753144239195E-01
 0.2938970056959E-01
 0.1804552128113E-01
 0.3413821507479E-02
 0.2100010704232E-01
 0.1245673983023E-01
 0.3194143932519E-01
 0.4274008260499E-01
 0.4871898463150E-01
 0.5252764904873E-01
 0.5508124171895E-01
 0.5596333628368E-01
 0.5524141098876E-01
 0.5331855632669E-01
 0.5048173072335E-01
 0.4688639174566E-01
 0.4266088098184E-01
 0.3796666254228E-01
 0.3291827234639E-01
 0.2761893272665E-01
 0.2233129790375E-01
 0.1623629902644E-01
 0.7522475156124E-02
 0.5386125283870E-02
 0.2794212319510E-01
 0.2256974639092E-02
 0.1478280947520E-01
 0.2341884274652E-01
 0.2799903114494E-01
 0.3070379033189E-01
 0.3235913988640E-01
 0.3262851150345E-01
 0.3158452813069E-01
 0.2960534287377E-01
 0.2696029841661E-01
 0.2378226784849E-01
 0.2016159975190E-01
 0.1622284883961E-01
 0.1207480119346E-01
 0.7894510713572E-02
 0.4283973444849E-02
 0.3191061347219E-02
 0.8331183955989E-02
 0.1759980950478E-01
 0.3408769682646E-01
 0.1392154579728E-01
 0.3733463220262E-02
 0.5871277477700E-02
 0.8332170515132E-02
 0.9450387599537E-02
 0.9793520429363E-02
 0.9118712272957E-02
 0.7547601992727E-02
 0.5566428473420E-02
 0.3944470607298E-02
 0.4156213800661E-02
 0.6408823890798E-02
 0.9519750260800E-02
 0.1299161941157E-01
 0.1663512639316E-01
 0.2008535366963E-01
 0.2339070288122E-01
 0.2777953858124E-01
 0.3440653951319E-01
 0.3953148087302E-01
 0.2517591579423E-01
 0.1722219878305E-01
 0.1379642823573E-01
 0.1306808922941E-01
 0.1360936921884E-01
 0.1480157432553E-01
 0.1681627045033E-01
 0.1956824621121E-01
 0.2273721874787E-01
 0.2607578749738E-01
 0.2946014047675E-01
 0.3284208633383E-01
 0.3618550420151E-01
 0.3951497938540E-01
 0.4287441497256E-01
 0.4610631578873E-01
 0.4902729162259E-01
 0.5209511288864E-01
 0.5590140902860E-01
 0.4437500262823E-01
 0.3544247198195E-01
 0.3110985123557E-01
 0.3029561892347E-01
 0.3178844597129E-01
 0.3443861310236E-01
 0.3761636213593E-01
 0.4138323756351E-01
 0.4561453382983E-01
 0.4999961577483E-01
 0.5429673835244E-01
 0.5837210449703E-01
 0.6216534390677E-01
 0.6563701463770E-01
 0.6882994046937E-01
 0.7189026032631E-01
 0.7491563763094E-01
 0.7791785080030E-01
 0.8078469172510E-01
 0.8218306562972E-01
 0.4872525565619E-01
 0.4482917760703E-01
 0.4402085511437E-01
 0.4600802671896E-01
 0.4996643701650E-01
 0.5495332306876E-01
 0.6035606992043E-01
 0.6613006415670E-01
 0.7211648473800E-01
 0.7802462119399E-01
 0.8362555931206E-01
 0.8877387553258E-01
 0.9337969104468E-01
 0.9735976044076E-01
 0.1006928762110E+00
 0.1035007176951E+00
 0.1060740373181E+00
 0.1086558656864E+00
 0.1122020204734E+00
 0.1133794879043E+00
 0.5282484706515E-01
 0.5332615008118E-01
 0.5585996181765E-01
 0.6072895422704E-01
 0.6728022732984E-01
 0.7476965123944E-01
 0.8261625495039E-01
 0.9065213794370E-01
 0.9866606225962E-01
 0.1063913559213E+00
 0.1136265413670E+00
 0.1202327611175E+00
 0.1260981177103E+00
 0.1310917464904E+00
 0.1350929691164E+00
 0.1380485592106E+00
 0.1400849315036E+00
 0.1413996516394E+00
 0.1431764207252E+00
 0.1470216968843E+00
 0.2715974067151E+00
 0.3940229625575E+00
 0.5107500382518E+00
 0.6163286841203E+00
 0.7093314536187E+00
 0.7897566153649E+00
 0.8581058402256E+00
 0.9153121800725E+00
 0.9627548137315E+00
 0.1001928497780E+01
 0.1034193121534E+01
 0.1060738320382E+01
 0.1082614264245E+01
 0.1100728564088E+01
 0.1115825314069E+01
 0.1128499246455E+01
 0.1139230045499E+01
 0.1148117905049E+01
 0.1155441059023E+01
 0.1162105108141E+01
 0.2902315704667E+00
 0.4232738394372E+00
 0.5479396125506E+00
 0.6590704809651E+00
 0.7550826758756E+00
 0.8362137909410E+00
 0.9033115518957E+00
 0.9577031196357E+00
 0.1001266713193E+01
 0.1035955024406E+01
 0.1063461861889E+01
 0.1085203164265E+01
 0.1102379345287E+01
 0.1115995055725E+01
 0.1126856862164E+01
 0.1135628478843E+01
 0.1142936226557E+01
 0.1148790795618E+01
 0.1153548753451E+01
 0.1158029078158E+01
 0.3101822510685E+00
 0.4553346308871E+00
 0.5883046323670E+00
 0.7043764552208E+00
 0.8023030495205E+00
 0.8827769873064E+00
 0.9471380269748E+00
 0.9971969801011E+00
 0.1035460453320E+01
 0.1064423608393E+01
 0.1086134024595E+01
 0.1102228939013E+01
 0.1114059661698E+01
 0.1122727197369E+01
 0.1129100427433E+01
 0.1133906270050E+01
 0.1137834962513E+01
 0.1140622705629E+01
 0.1142678841365E+01
 0.1145074803530E+01
 0.3320432185762E+00
 0.4904851301447E+00
 0.6319837125037E+00
 0.7522537841192E+00
 0.8507354905821E+00
 0.9288894930151E+00
 0.9887511854249E+00
 0.1032793288066E+01
 0.1064290341496E+01
 0.1086331820252E+01
 0.1101313084461E+01
 0.1111069949590E+01
 0.1117079921896E+01
 0.1120506863790E+01
 0.1122241426680E+01
 0.1123014153976E+01
 0.1123467959145E+01
 0.1122980246404E+01
 0.1122326380552E+01
 0.1123444490145E+01
 0.3562152618618E+00
 0.5292772764505E+00
 0.6792278786626E+00
 0.8026378983360E+00
 0.8999728578524E+00
 0.9738108053291E+00
 0.1027162588030E+01
 0.1063390762649E+01
 0.1086675273123E+01
 0.1100710630595E+01
 0.1108193724832E+01
 0.1111104594801E+01
 0.1110992586143E+01
 0.1109022643531E+01
 0.1106044664092E+01
 0.1102728522964E+01
 0.1099590766650E+01
 0.1095710558193E+01
 0.1092611512755E+01
 0.1093409002539E+01
 0.3831423994868E+00
 0.5722861014613E+00
 0.7303246487574E+00
 0.8553858672866E+00
 0.9494436529747E+00
 0.1016613272113E+01
 0.1061226965049E+01
 0.1087802859326E+01
 0.1101532063699E+01
 0.1106662693767E+01
 0.1106096142007E+01
 0.1101866974562E+01
 0.1095515530556E+01
 0.1088129353433E+01
 0.1080452895543E+01
 0.1073046987309E+01
 0.1066266586037E+01
 0.1059017009276E+01
 0.1053871754353E+01
 0.1055260474966E+01
 0.4133358066553E+00
 0.6201465704547E+00
 0.7855353379628E+00
 0.9102371327762E+00
 0.9983856385515E+00
 0.1056167096881E+01
 0.1089650589507E+01
 0.1104788857189E+01
 0.1107821420886E+01
 0.1103412430983E+01
 0.1094513323303E+01
 0.1083090535401E+01
 0.1070575898201E+01
 0.1057895997406E+01
 0.1045633611931E+01
 0.1034211943285E+01
 0.1023815575350E+01
 0.1013314499037E+01
 0.1006547240631E+01
 0.1009322757486E+01
 0.4473993296485E+00
 0.6735602541805E+00
 0.8450694061950E+00
 0.9667637192638E+00
 0.1045806044125E+01
 0.1091125751954E+01
 0.1111010778546E+01
 0.1113102483350E+01
 0.1104609761883E+01
 0.1090367025920E+01
 0.1073163349904E+01
 0.1054749587686E+01
 0.1036341679609E+01
 0.1018626746357E+01
 0.1001983435564E+01
 0.9866850128867E+00
 0.9727500721657E+00
 0.9591530763797E+00
 0.9511464726769E+00
 0.9559619292529E+00
 0.4860542562511E+00
 0.7333044276583E+00
 0.9090502272006E+00
 0.1024313365690E+01
 0.1090433846446E+01
 0.1119916929827E+01
 0.1123794277884E+01
 0.1111562480952E+01
 0.1091147070719E+01
 0.1067183470231E+01
 0.1042037630257E+01
 0.1017088022854E+01
 0.9932333311620E+00
 0.9708571449577E+00
 0.9501078913439E+00
 0.9311090387549E+00
 0.9137246399453E+00
 0.8971773251283E+00
 0.8882351567976E+00
 0.8955870904392E+00
 0.5301704128769E+00
 0.8002389363657E+00
 0.9774668495473E+00
 0.1081934588154E+01
 0.1130666680941E+01
 0.1140748299114E+01
 0.1126464638174E+01
 0.1099149979220E+01
 0.1066957785068E+01
 0.1033832874702E+01
 0.1001434492204E+01
 0.9706272278728E+00
 0.9419135380290E+00
 0.9153314755715E+00
 0.8907898019131E+00
 0.8682710917005E+00
 0.8475005138237E+00
 0.8281048187215E+00
 0.8184328206374E+00
 0.8286492118634E+00
 0.5808077470018E+00
 0.8753100515125E+00
 0.1050100084598E+01
 0.1138275109498E+01
 0.1164515513501E+01
 0.1151642687128E+01
 0.1117572016090E+01
 0.1075134713765E+01
 0.1031935351888E+01
 0.9906477742040E+00
 0.9519662574906E+00
 0.9161480578839E+00
 0.8832571564709E+00
 0.8529683981652E+00
 0.8249547923320E+00
 0.7990715300938E+00
 0.7749228348294E+00
 0.7527177935605E+00
 0.7424175986736E+00
 0.7556456462005E+00
 0.6392746219122E+00
 0.9595467663662E+00
 0.1126404799218E+01
 0.1191441948352E+01
 0.1189557544356E+01
 0.1150526927450E+01
 0.1095920422450E+01
 0.1039223413837E+01
 0.9864197202629E+00
 0.9383321540614E+00
 0.8945296506008E+00
 0.8546476847428E+00
 0.8183084624023E+00
 0.7848230774700E+00
 0.7536398970667E+00
 0.7245016499846E+00
 0.6969104088261E+00
 0.6718686382411E+00
 0.6609441383671E+00
 0.6771378865507E+00
 0.7072128102761E+00
 0.1054038762634E+01
 0.1205315360290E+01
 0.1238809253579E+01
 0.1202923782092E+01
 0.1135413730537E+01
 0.1060801822067E+01
 0.9917031689323E+00
 0.9312208004083E+00
 0.8779128074172E+00
 0.8302392602874E+00
 0.7872829326918E+00
 0.7482378046538E+00
 0.7120531136934E+00
 0.6779679337891E+00
 0.6456302626941E+00
 0.6144588373894E+00
 0.5865029751950E+00
 0.5748816156880E+00
 0.5937913673169E+00
 0.7867263132119E+00
 0.1159869632316E+01
 0.1284911472318E+01
 0.1276762282939E+01
 0.1201383282096E+01
 0.1104733410196E+01
 0.1012279574128E+01
 0.9335128604005E+00
 0.8675385117989E+00
 0.8106263001446E+00
 0.7603466082673E+00
 0.7153230368867E+00
 0.6743088696123E+00
 0.6358895001538E+00
 0.5991249428382E+00
 0.5635974586075E+00
 0.5286591052796E+00
 0.4977067920508E+00
 0.4852810497711E+00
 0.5064488188779E+00
 0.8805850613384E+00
 0.1277938489196E+01
 0.1361819338743E+01
 0.1300390912656E+01
 0.1181661098186E+01
 0.1057876128217E+01
 0.9514215561899E+00
 0.8661234303765E+00
 0.7967479709453E+00
 0.7377873532281E+00
 0.6861934173227E+00
 0.6401324420163E+00
 0.5978547795567E+00
 0.5576031383544E+00
 0.5183333707744E+00
 0.4796138096367E+00
 0.4407360123338E+00
 0.4067873306910E+00
 0.3934843720112E+00
 0.4162530761091E+00
 0.9925610155359E+00
 0.1408482862917E+01
 0.1430095971657E+01
 0.1303246530738E+01
 0.1141286519549E+01
 0.9959099543135E+00
 0.8802136075714E+00
 0.7910844224341E+00
 0.7201468403403E+00
 0.6607479097235E+00
 0.6092413293704E+00
 0.5631750144557E+00
 0.5202391949404E+00
 0.4784503823222E+00
 0.4368155934986E+00
 0.3949656347176E+00
 0.3521129045071E+00
 0.3154000879125E+00
 0.3012926458839E+00
 0.3248432649607E+00
 0.1128023549101E+01
 0.1549755463761E+01
 0.1479030579145E+01
 0.1277736011296E+01
 0.1080444946537E+01
 0.9220771060026E+00
 0.8005482738729E+00
 0.7094636390171E+00
 0.6389198942714E+00
 0.5810389668890E+00
 0.5311560049643E+00
 0.4859819302766E+00
 0.4427673505038E+00
 0.3995924717741E+00
 0.3557506868549E+00
 0.3110285961140E+00
 0.2645032599903E+00
 0.2257347611222E+00
 0.2112203497516E+00
 0.2346663932232E+00
 0.1294899969114E+01
 0.1693623077388E+01
 0.1489165739431E+01
 0.1217868266520E+01
 0.1005655428751E+01
 0.8397057746238E+00
 0.7128575771933E+00
 0.6217795421545E+00
 0.5545159397392E+00
 0.5006633122379E+00
 0.4538062416998E+00
 0.4100010894406E+00
 0.3665478266091E+00
 0.3220087913292E+00
 0.2762400521357E+00
 0.2292727784154E+00
 0.1800158995547E+00
 0.1407578693617E+00
 0.1268750398369E+00
 0.1494992681859E+00
 0.1506246639456E+01
 0.1810918732013E+01
 0.1423133411278E+01
 0.1136778544203E+01
 0.9258230459729E+00
 0.7487588420944E+00
 0.6158247126667E+00
 0.5287240837562E+00
 0.4695038663623E+00
 0.4222144268824E+00
 0.3789620824651E+00
 0.3363348250512E+00
 0.2923821076294E+00
 0.2464659650905E+00
 0.1992253949922E+00
 0.1512714296020E+00
 0.1012001296373E+00
 0.6442932589046E-01
 0.5349145616396E-01
 0.7539625512526E-01
 0.1761167874602E+01
 0.1726799853893E+01
 0.1298626989522E+01
 0.1060634397223E+01
 0.8430883837939E+00
 0.6454133630573E+00
 0.5066192407116E+00
 0.4336101127342E+00
 0.3881661979489E+00
 0.3482032509339E+00
 0.3077206528913E+00
 0.2655424098249E+00
 0.2208256574672E+00
 0.1735718124057E+00
 0.1253738110385E+00
 0.7821357351800E-01
 0.3168147597253E-01
 0.1990798362857E-02
 0.3582743576498E-02
 0.2199029611336E-01
 0.1548229027805E+00
 0.1207493935261E+00
 0.9237604573874E-01
 0.6810165956267E-01
 0.4782264862145E-01
 0.3184436252837E-01
 0.2021413928563E-01
 0.1272575834201E-01
 0.8932706227254E-02
 0.8189811515698E-02
 0.9662556318240E-02
 0.1238900162628E-01
 0.1541197391829E-01
 0.1788727137370E-01
 0.1918654894666E-01
 0.1898514514730E-01
 0.1730511770007E-01
 0.1449891316269E-01
 0.1119522387290E-01
 0.8187681565262E-02
 0.1773931687636E+00
 0.1461373610347E+00
 0.1150249661752E+00
 0.8811256354524E-01
 0.6567154710278E-01
 0.4779208684696E-01
 0.3452815822099E-01
 0.2574914829637E-01
 0.2108978311428E-01
 0.1993453689138E-01
 0.2142900348141E-01
 0.2453858830752E-01
 0.2815513543219E-01
 0.3122667488450E-01
 0.3290064859970E-01
 0.3265953915175E-01
 0.3040878429956E-01
 0.2648119396077E-01
 0.2154748749550E-01
 0.1657140969425E-01
 0.2007816289569E+00
 0.1702884356228E+00
 0.1392126966111E+00
 0.1105038204161E+00
 0.8584161999847E-01
 0.6574507443426E-01
 0.5042867888142E-01
 0.3989565686619E-01
 0.3390225318538E-01
 0.3192243542415E-01
 0.3313766088582E-01
 0.3647328354791E-01
 0.4068946962782E-01
 0.4451840264818E-01
 0.4683932053806E-01
 0.4686830266902E-01
 0.4431158979937E-01
 0.3941533261936E-01
 0.3287865552386E-01
 0.2565868186146E-01
 0.2260945907004E+00
 0.1955628386415E+00
 0.1644684710414E+00
 0.1348161395599E+00
 0.1082928018892E+00
 0.8592357928014E-01
 0.6824785000743E-01
 0.5550538013991E-01
 0.4765262897727E-01
 0.4432956044978E-01
 0.4482981005008E-01
 0.4810675843323E-01
 0.5283702273713E-01
 0.5754824384334E-01
 0.6081252691457E-01
 0.6149059838168E-01
 0.5897190310333E-01
 0.5331591036525E-01
 0.4519976362050E-01
 0.3562632864392E-01
 0.2533344878902E+00
 0.2226394775718E+00
 0.1914740354296E+00
 0.1611498464785E+00
 0.1331463873986E+00
 0.1086328552164E+00
 0.8843911628015E-01
 0.7308770175595E-01
 0.6280440474738E-01
 0.5748127666378E-01
 0.5662615373127E-01
 0.5933136181728E-01
 0.6429247170735E-01
 0.6989990674520E-01
 0.7442125520917E-01
 0.7628015631043E-01
 0.7439331625571E-01
 0.6845419802847E-01
 0.5900241970397E-01
 0.4716846768417E-01
 0.2824827605212E+00
 0.2517645272913E+00
 0.2206062570395E+00
 0.1898428366965E+00
 0.1606749930693E+00
 0.1342548672709E+00
 0.1115592151477E+00
 0.9334951063570E-01
 0.8013483975397E-01
 0.7211592983138E-01
 0.6911080324168E-01
 0.7048237749181E-01
 0.7509808593509E-01
 0.8135496007842E-01
 0.8730558382506E-01
 0.9092129042893E-01
 0.9049793734782E-01
 0.8511713647901E-01
 0.7495299356886E-01
 0.6119582998575E-01
 0.3135019676765E+00
 0.2830571671594E+00
 0.2521236310805E+00
 0.2212076331864E+00
 0.1912338094572E+00
 0.1632371322757E+00
 0.1382244575156E+00
 0.1171025389084E+00
 0.1006181635945E+00
 0.8928455421435E-01
 0.8328777770911E-01
 0.8237885389290E-01
 0.8577162166056E-01
 0.9207954073589E-01
 0.9933663121273E-01
 0.1051661165058E+00
 0.1071669698171E+00
 0.1035185737060E+00
 0.9361989787813E-01
 0.7838228293310E-01
 0.3463205549964E+00
 0.3165421812668E+00
 0.2861731787145E+00
 0.2554898427448E+00
 0.2251627385715E+00
 0.1960544088006E+00
 0.1691043736044E+00
 0.1452594389949E+00
 0.1254134937658E+00
 0.1103353271193E+00
 0.1005727420668E+00
 0.9632904098266E-01
 0.9731732505061E-01
 0.1026125936863E+00
 0.1105401401583E+00
 0.1186682698725E+00
 0.1240250269759E+00
 0.1236816336525E+00
 0.1156862465019E+00
 0.9996992874332E-01
 0.3808303401948E+00
 0.3521676749923E+00
 0.3227959169003E+00
 0.2928266042770E+00
 0.2627082408728E+00
 0.2331055044615E+00
 0.2048193373549E+00
 0.1787357068951E+00
 0.1557819172663E+00
 0.1368731431431E+00
 0.1228360479412E+00
 0.1142988973395E+00
 0.1115405497808E+00
 0.1142977805343E+00
 0.1215446608700E+00
 0.1312838479472E+00
 0.1404505701157E+00
 0.1451662386352E+00
 0.1416525731031E+00
 0.1277274880521E+00
 0.4168876656024E+00
 0.3898206142296E+00
 0.3619390897189E+00
 0.3332383475369E+00
 0.3039835257832E+00
 0.2746420975870E+00
 0.2458358485235E+00
 0.2183114731961E+00
 0.1929186669600E+00
 0.1705836942601E+00
 0.1522667643509E+00
 0.1388909239306E+00
 0.1312281520298E+00
 0.1297262306467E+00
 0.1342606860358E+00
 0.1438033155821E+00
 0.1560249164822E+00
 0.1669573232503E+00
 0.1712202409425E+00
 0.1635358669293E+00
 0.4543162142507E+00
 0.4293345715133E+00
 0.4034626210578E+00
 0.3766233077083E+00
 0.3489424625317E+00
 0.3207134865533E+00
 0.2923722992798E+00
 0.2644848747888E+00
 0.2377430317650E+00
 0.2129618130690E+00
 0.1910707283155E+00
 0.1730894031423E+00
 0.1600746630213E+00
 0.1530197478757E+00
 0.1526765862686E+00
 0.1592578822828E+00
 0.1719561336914E+00
 0.1881938568741E+00
 0.2026464863473E+00
 0.2072631488115E+00
 0.4929040464428E+00
 0.4704817431424E+00
 0.4471336963713E+00
 0.4227515749533E+00
 0.3973677518492E+00
 0.3711407822972E+00
 0.3443442046865E+00
 0.3173635750542E+00
 0.2907015183176E+00
 0.2649884874247E+00
 0.2409959092554E+00
 0.2196472520628E+00
 0.2020202874178E+00
 0.1893291642109E+00
 0.1828655480465E+00
 0.1838599020463E+00
 0.1931848594499E+00
 0.2107389693995E+00
 0.2340703924356E+00
 0.2555945482920E+00
 0.5324002119760E+00
 0.5129546269001E+00
 0.4925976244308E+00
 0.4712221866584E+00
 0.4488113992981E+00
 0.4254368440035E+00
 0.4012551313299E+00
 0.3765088473200E+00
 0.3515338074469E+00
 0.3267728571476E+00
 0.3027959135808E+00
 0.2803257461571E+00
 0.2602686657882E+00
 0.2437482849722E+00
 0.2321378420803E+00
 0.2270796048456E+00
 0.2304633688932E+00
 0.2442809990857E+00
 0.2701381775523E+00
 0.3068457527365E+00
 0.5725282330760E+00
 0.5563894150271E+00
 0.5394037537265E+00
 0.5214867281234E+00
 0.5026089976379E+00
 0.4828016051905E+00
 0.4621572724830E+00
 0.4408334412764E+00
 0.4190596388818E+00
 0.3971505391259E+00
 0.3755258963667E+00
 0.3547389505944E+00
 0.3355158566376E+00
 0.3188103695333E+00
 0.3058809255185E+00
 0.2984028636412E+00
 0.2986392689162E+00
 0.3097248165800E+00
 0.3361749035465E+00
 0.3853339132733E+00
 0.6129986403276E+00
 0.6003968250579E+00
 0.5870521913889E+00
 0.5729127830038E+00
 0.5579605126197E+00
 0.5422192289804E+00
 0.5257590825272E+00
 0.5087013912091E+00
 0.4912264366273E+00
 0.4735858779182E+00
 0.4561214574367E+00
 0.4392922560152E+00
 0.4237140232851E+00
 0.4102164461364E+00
 0.3999286071577E+00
 0.3944114857858E+00
 0.3958754645606E+00
 0.4075650624594E+00
 0.4345319709115E+00
 0.4855826849243E+00
 0.6535185992981E+00
 0.6445839137918E+00
 0.6350326167175E+00
 0.6248464794018E+00
 0.6140282697885E+00
 0.6026102305618E+00
 0.5906597185227E+00
 0.5782847581474E+00
 0.5656413689249E+00
 0.5529440842423E+00
 0.5404810499090E+00
 0.5286354321408E+00
 0.5179156146622E+00
 0.5089979852204E+00
 0.5027883386856E+00
 0.5005117581792E+00
 0.5038471517855E+00
 0.5151318965619E+00
 0.5376680565931E+00
 0.5757964450034E+00
 0.6938000676629E+00
 0.6885689564701E+00
 0.6828517591591E+00
 0.6766596782837E+00
 0.6700161116016E+00
 0.6629642306807E+00
 0.6555723544741E+00
 0.6479387693085E+00
 0.6401971761533E+00
 0.6325236229368E+00
 0.6251456141826E+00
 0.6183540304032E+00
 0.6125184565390E+00
 0.6081063639996E+00
 0.6057059714720E+00
 0.6060505763686E+00
 0.6100358569971E+00
 0.6187031725744E+00
 0.6330869487543E+00
 0.6537416013925E+00
 0.7335657934976E+00
 0.7319895263970E+00
 0.7300459083347E+00
 0.7277682931120E+00
 0.7251947407982E+00
 0.7223741174297E+00
 0.7193702107968E+00
 0.7162647681179E+00
 0.7131600469671E+00
 0.7101811766375E+00
 0.7074783305632E+00
 0.7052283516140E+00
 0.7036349232887E+00
 0.7029253968946E+00
 0.7033404885073E+00
 0.7051092595582E+00
 0.7083943130171E+00
 0.7131767126058E+00
 0.7190404060209E+00
 0.7248850463759E+00
 0.7725542655341E+00
 0.7745083147382E+00
 0.7761884646645E+00
 0.7776416288788E+00
 0.7789117639258E+00
 0.7800444062529E+00
 0.7810891572074E+00
 0.7821005189419E+00
 0.7831373011996E+00
 0.7842605303636E+00
 0.7855294478697E+00
 0.7869947577837E+00
 0.7886876864606E+00
 0.7906025286992E+00
 0.7926690218151E+00
 0.7947090681750E+00
 0.7963704212671E+00
 0.7970321837524E+00
 0.7956931089470E+00
 0.7908382912714E+00
 0.8105237638129E+00
 0.8158174890574E+00
 0.8208949993931E+00
 0.8258080359292E+00
 0.8305967852143E+00
 0.8352933729177E+00
 0.8399228586894E+00
 0.8445020576925E+00
 0.8490363195464E+00
 0.8535140812395E+00
 0.8578987217541E+00
 0.8621169441942E+00
 0.8660425936168E+00
 0.8694745281391E+00
 0.8721070764798E+00
 0.8734922250598E+00
 0.8729953425906E+00
 0.8697530161257E+00
 0.8626491993226E+00
 0.8503495297558E+00
 0.8472541401282E+00
 0.8556397296127E+00
 0.8638241104233E+00
 0.8718550693836E+00
 0.8797595570958E+00
 0.8875468366678E+00
 0.8952083758596E+00
 0.9027153015289E+00
 0.9100136036790E+00
 0.9170170088938E+00
 0.9235972589006E+00
 0.9295714263796E+00
 0.9346859117621E+00
 0.9385970024153E+00
 0.9408485552841E+00
 0.9408488583703E+00
 0.9378513573924E+00
 0.9309470609615E+00
 0.9190806114441E+00
 0.9011168710934E+00
 0.8825456547895E+00
 0.8937263288728E+00
 0.9046744285081E+00
 0.9154246456693E+00
 0.9259822694536E+00
 0.9363257927485E+00
 0.9464062940675E+00
 0.9561444190654E+00
 0.9654253039603E+00
 0.9740915688198E+00
 0.9819344438436E+00
 0.9886831386627E+00
 0.9939927553752E+00
 0.9974314398781E+00
 0.9984681255067E+00
 0.9964630992756E+00
 0.9906643006706E+00
 0.9802119185917E+00
 0.9641513386731E+00
 0.9414280570272E+00
 0.9162240859976E+00
 0.9298646296891E+00
 0.9431921245270E+00
 0.9562203209867E+00
 0.9689258571150E+00
 0.9812504561118E+00
 0.9931004525451E+00
 0.1004344282791E+01
 0.1014808380925E+01
 0.1024271839889E+01
 0.1032460213966E+01
 0.1039038939578E+01
 0.1043607030765E+01
 0.1045691939834E+01
 0.1044746670706E+01
 0.1040150165856E+01
 0.1031211260409E+01
 0.1017174616982E+01
 0.9972214283882E+00
 0.9704562976657E+00
 0.9481394780459E+00
 0.9638759851330E+00
 0.9791683549879E+00
 0.9940036254997E+00
 0.1008324469610E+01
 0.1022031681709E+01
 0.1034984659580E+01
 0.1047000329689E+01
 0.1057851029326E+01
 0.1067261904422E+01
 0.1074908434936E+01
 0.1080414768820E+01
 0.1083353605106E+01
 0.1083248347145E+01
 0.1079578023564E+01
 0.1071784881697E+01
 0.1059283519727E+01
 0.1041468973114E+01
 0.1017721827631E+01
 0.9874167476867E+00
 0.9781650066907E+00
 0.9956128253217E+00
 0.1012435158687E+01
 0.1028588467463E+01
 0.1043977655811E+01
 0.1058459948544E+01
 0.1071847281764E+01
 0.1083907452976E+01
 0.1094364644217E+01
 0.1102900053956E+01
 0.1109153407232E+01
 0.1112726105357E+01
 0.1113186711965E+01
 0.1110079297560E+01
 0.1102934810169E+01
 0.1091285071560E+01
 0.1074678270104E+01
 0.1052694595543E+01
 0.1024962108918E+01
 0.9911735440338E+00
 0.1006195613339E+01
 0.1024955730617E+01
 0.1042861180401E+01
 0.1059835364036E+01
 0.1075742544150E+01
 0.1090394760330E+01
 0.1103557140611E+01
 0.1114951835952E+01
 0.1124261410223E+01
 0.1131132618874E+01
 0.1135181453428E+01
 0.1136000223890E+01
 0.1133167314895E+01
 0.1126260079625E+01
 0.1114871145139E+01
 0.1098628240566E+01
 0.1077217602566E+01
 0.1050410711144E+01
 0.1018092305576E+01
 0.9802840022078E+00
 0.1032145902407E+01
 0.1051810145744E+01
 0.1070347479572E+01
 0.1087646031405E+01
 0.1103526631437E+01
 0.1117755037616E+01
 0.1130051086119E+01
 0.1140095607064E+01
 0.1147536428722E+01
 0.1151994661067E+01
 0.1153072207013E+01
 0.1150361227438E+01
 0.1143456115504E+01
 0.1131968458056E+01
 0.1115545561741E+01
 0.1093893541158E+01
 0.1066806771560E+01
 0.1034206346901E+01
 0.9961881844078E+00
 0.9530728740110E+00
 0.1055947315578E+01
 0.1076102998220E+01
 0.1094823845756E+01
 0.1111958751825E+01
 0.1127281463024E+01
 0.1140510601354E+01
 0.1151323110612E+01
 0.1159363824433E+01
 0.1164253335329E+01
 0.1165595659325E+01
 0.1162986659073E+01
 0.1156023806934E+01
 0.1144317638238E+01
 0.1127505204964E+01
 0.1105266098336E+01
 0.1077342350547E+01
 0.1043565160281E+01
 0.1003894843753E+01
 0.9584887355167E+00
 0.9078144546599E+00
 0.1077544856377E+01
 0.1097780029529E+01
 0.1116246362967E+01
 0.1132744921214E+01
 0.1146997307281E+01
 0.1158674628585E+01
 0.1167414692653E+01
 0.1172833262132E+01
 0.1174532578322E+01
 0.1172108935757E+01
 0.1165160183811E+01
 0.1153293427562E+01
 0.1136132814175E+01
 0.1113327095850E+01
 0.1084556662975E+01
 0.1049540034610E+01
 0.1008040673841E+01
 0.9598781576510E+00
 0.9049600443088E+00
 0.8434111966121E+00
 0.1096894350803E+01
 0.1116805636674E+01
 0.1134596986022E+01
 0.1150006489240E+01
 0.1162697769096E+01
 0.1172295444479E+01
 0.1178404314364E+01
 0.1180620680197E+01
 0.1178539959473E+01
 0.1171762573198E+01
 0.1159898751730E+01
 0.1142572019664E+01
 0.1119420474407E+01
 0.1090094401283E+01
 0.1054248070791E+01
 0.1011522356996E+01
 0.9615125413952E+00
 0.9037103757718E+00
 0.8373972666361E+00
 0.7614574636774E+00
 0.1113962678724E+01
 0.1133166437486E+01
 0.1149883472315E+01
 0.1163770680089E+01
 0.1174429186051E+01
 0.1181441427589E+01
 0.1184389483544E+01
 0.1182864251250E+01
 0.1176470435488E+01
 0.1164829378319E+01
 0.1147579985303E+01
 0.1124376831542E+01
 0.1094883618099E+01
 0.1058759180845E+01
 0.1015631793466E+01
 0.9650548068215E+00
 0.9064305651061E+00
 0.8388756224524E+00
 0.7609561095083E+00
 0.6700229237606E+00
 0.1128727244437E+01
 0.1146866472114E+01
 0.1162128042724E+01
 0.1174073131031E+01
 0.1182240651458E+01
 0.1186181519352E+01
 0.1185472139590E+01
 0.1179718704431E+01
 0.1168557873693E+01
 0.1151655678845E+01
 0.1128704285216E+01
 0.1099414898743E+01
 0.1063504103310E+01
 0.1020669857802E+01
 0.9705518614186E+00
 0.9126683804316E+00
 0.8463173085259E+00
 0.7704185899234E+00
 0.6832656575752E+00
 0.5821227713458E+00
 0.1141173566545E+01
 0.1157915581187E+01
 0.1171353763741E+01
 0.1180945075170E+01
 0.1186175160759E+01
 0.1186583303847E+01
 0.1181765704179E+01
 0.1171371608686E+01
 0.1155098143911E+01
 0.1132684885522E+01
 0.1103906717629E+01
 0.1068562266177E+01
 0.1026454473670E+01
 0.9773592732918E+00
 0.9209777148060E+00
 0.8568669632834E+00
 0.7843484825442E+00
 0.7024100671431E+00
 0.6096649560026E+00
 0.5048888427069E+00
 0.1151306018370E+01
 0.1166339703904E+01
 0.1177592850545E+01
 0.1184418935744E+01
 0.1186271143490E+01
 0.1182707296731E+01
 0.1173375808473E+01
 0.1158000229525E+01
 0.1136367226999E+01
 0.1108317064074E+01
 0.1073733290745E+01
 0.1032527856712E+01
 0.9846180571361E+00
 0.9298922544529E+00
 0.8681625142230E+00
 0.7991058776693E+00
 0.7222077852858E+00
 0.6367561062984E+00
 0.5420629703333E+00
 0.4381026762660E+00
 0.1159150230990E+01
 0.1172179102731E+01
 0.1180881523837E+01
 0.1184522769657E+01
 0.1182559377335E+01
 0.1174607261043E+01
 0.1160402283259E+01
 0.1139770858835E+01
 0.1112611830095E+01
 0.1078884451390E+01
 0.1038596634057E+01
 0.9917889347087E+00
 0.9385117426557E+00
 0.8787950935927E+00
 0.8126132810706E+00
 0.7398515625683E+00
 0.6602929066240E+00
 0.5736625707625E+00
 0.4798102877894E+00
 0.3790556346325E+00
 0.1164757858668E+01
 0.1175489062802E+01
 0.1181255825792E+01
 0.1181275416555E+01
 0.1175060517129E+01
 0.1162330316599E+01
 0.1142938768216E+01
 0.1116833210222E+01
 0.1084034341312E+01
 0.1044625396017E+01
 0.9987415211120E+00
 0.9465557769490E+00
 0.8882617979074E+00
 0.8240559939389E+00
 0.7541252764487E+00
 0.6786497882394E+00
 0.5978292538788E+00
 0.5119202246989E+00
 0.4211053571598E+00
 0.3251326083157E+00
 0.1168205711477E+01
 0.1176327096846E+01
 0.1178735786197E+01
 0.1174677239554E+01
 0.1163790574183E+01
 0.1145940105690E+01
 0.1121113425219E+01
 0.1089378693785E+01
 0.1050872477955E+01
 0.1005793608000E+01
 0.9543954674687E+00
 0.8969767035170E+00
 0.8338738732724E+00
 0.7654622237920E+00
 0.6921734636746E+00
 0.6145400475987E+00
 0.5332665775289E+00
 0.4492726819186E+00
 0.3634605822254E+00
 0.2749291390666E+00
 0.1169609629443E+01
 0.1174781585157E+01
 0.1173383093686E+01
 0.1164812974665E+01
 0.1148915003916E+01
 0.1125716973315E+01
 0.1095322744596E+01
 0.1057899759617E+01
 0.1013679711786E+01
 0.9629554892449E+00
 0.9060751108512E+00
 0.8434370154696E+00
 0.7754928942588E+00
 0.7027663900646E+00
 0.6258984623378E+00
 0.5457312625149E+00
 0.4634351783374E+00
 0.3806576457658E+00
 0.2996039373192E+00
 0.2220792098393E+00
 0.1169150149086E+01
 0.1170973281152E+01
 0.1165265259405E+01
 0.1151799917327E+01
 0.1130678574099E+01
 0.1102031686793E+01
 0.1066031629171E+01
 0.1022913632552E+01
 0.9729768776757E+00
 0.9165775294584E+00
 0.8541206739819E+00
 0.7860571828757E+00
 0.7128921310414E+00
 0.6352136212744E+00
 0.5537541307382E+00
 0.4695007576401E+00
 0.3838792897491E+00
 0.2990703929409E+00
 0.2186934267618E+00
 0.1504467129887E+00
 0.1167050957537E+01
 0.1164866317881E+01
 0.1154264919780E+01
 0.1135722915696E+01
 0.1109372268638E+01
 0.1075340089010E+01
 0.1033835090136E+01
 0.9851433700768E+00
 0.9296147861377E+00
 0.8676491534904E+00
 0.7996871796714E+00
 0.7262102987203E+00
 0.6477555454973E+00
 0.5649545599709E+00
 0.4786103488072E+00
 0.3898339227121E+00
 0.3002862735574E+00
 0.2126499149698E+00
 0.1317400962680E+00
 0.6898078415823E-01
</DataArray>
<DataArray type="Float64" Name="CK" NumberOfComponents="1" ComponentName0="CK" format="ascii">
 0.0000000000000E+00
 0.0000000000000E+00
 0.0000000000000E+00
 0.0000000000000E+00
 0.0000000000000E+00
 0.0000000000000E+00
 0.0000000000000E+00
 0.0000000000000E+00
 0.0000000000000E+00
 0.0000000000000E+00
 0.0000000000000E+00
 0.0000000000000E+00
 0.0000000000000E+00
 0.0000000000000E+00
 0.0000000000000E+00
 0.0000000000000E+00
 0.0000000000000E+00
 0.0000000000000E+00
 0.0000000000000E+00
 0.0000000000000E+00
 0.0000000000000E+00
 0.0000000000000E+00
 0.0000000000000E+00
 0.0000000000000E+00
 0.0000000000000E+00
 0.0000000000000E+00
 0.0000000000000E+00
 0.0000000000000E+00
 0.0000000000000E+00
 0.0000000000000E+00
 0.0000000000000E+00
 0.0000000000000E+00
 0.0000000000000E+00
 0.0000000000000E+00
 0.0000000000000E+00
 0.0000000000000E+00
 0.0000000000000E+00
 0.0000000000000E+00
 0.0000000000000E+00
 0.0000000000000E+00
 0.0000000000000E+00
 0.0000000000000E+00
 0.0000000000000E+00
 0.0000000000000E+00
 0.0000000000000E+00
 0.0000000000000E+00
 0.0000000000000E+00
 0.0000000000000E+00
 0.0000000000000E+00
 0.0000000000000E+00
 0.0000000000000E+00
 0.0000000000000E+00
 0.0000000000000E+00
 0.0000000000000E+00
 0.0000000000000E+00
 0.0000000000000E+00
 0.0000000000000E+00
 0.0000000000000E+00
 0.0000000000000E+00
 0.0000000000000E+00
 0.0000000000000E+00
 0.0000000000000E+00
 0.0000000000000E+00
 0.0000000000000E+00
 0.0000000000000E+00
 0.0000000000000E+00
 0.0000000000000E+00
 0.0000000000000E+00
 0.0000000000000E+00
 0.0000000000000E+00
 0.0000000000000E+00
 0.0000000000000E+00
 0.0000000000000E+00
 0.0000000000000E+00
 0.0000000000000E+00
 0.0000000000000E+00
 0.0000000000000E+00
 0.0000000000000E+00
 0.0000000000000E+00
 0.0000000000000E+00
 0.0000000000000E+00
 0.0000000000000E+00
 0.0000000000000E+00
 0.0000000000000E+00
 0.0000000000000E+00
 0.0000000000000E+00
 0.0000000000000E+00
 0.0000000000000E+00
 0.0000000000000E+00
 0.0000000000000E+00
 0.0000000000000E+00
 0.0000000000000E+00
 0.0000000000000E+00
 0.0000000000000E+00
 0.0000000000000E+00
 0.0000000000000E+00
 0.0000000000000E+00
 0.0000000000000E+00
 0.0000000000000E+00
 0.0000000000000E+00
 0.0000000000000E+00
 0.0000000000000E+00
 0.0000000000000E+00
 0.0000000000000E+00
 0.0000000000000E+00
 0.0000000000000E+00
 0.0000000000000E+00
 0.0000000000000E+00
 0.0000000000000E+00
 0.0000000000000E+00
 0.0000000000000E+00
 0.0000000000000E+00
 0.0000000000000E+00
 0.0000000000000E+00
 0.0000000000000E+00
 0.0000000000000E+00
 0.0000000000000E+00
 0.0000000000000E+00
 0.0000000000000E+00
 0.0000000000000E+00
 0.0000000000000E+00
 0.0000000000000E+00
 0.0000000000000E+00
 0.0000000000000E+00
 0.0000000000000E+00
 0.0000000000000E+00
 0.0000000000000E+00
 0.0000000000000E+00
 0.0000000000000E+00
 0.0000000000000E+00
 0.0000000000000E+00
 0.0000000000000E+00
 0.0000000000000E+00
 0.0000000000000E+00
 0.0000000000000E+00
 0.0000000000000E+00
 0.0000000000000E+00
 0.0000000000000E+00
 0.0000000000000E+00
 0.0000000000000E+00
 0.0000000000000E+00
 0.0000000000000E+00
 0.0000000000000E+00
 0.0000000000000E+00
 0.0000000000000E+00
 0.0000000000000E+00
 0.0000000000000E+00
 0.0000000000000E+00
 0.0000000000000E+00
 0.0000000000000E+00
 0.0000000000000E+00
 0.0000000000000E+00
 0.0000000000000E+00
 0.0000000000000E+00
 0.0000000000000E+00
 0.0000000000000E+00
 0.0000000000000E+00
 0.0000000000000E+00
 0.0000000000000E+00
 0.0000000000000E+00
 0.0000000000000E+00
 0.0000000000000E+00
 0.0000000000000E+00
 0.0000000000000E+00
 0.0000000000000E+00
 0.0000000000000E+00
 0.0000000000000E+00
 0.0000000000000E+00
 0.0000000000000E+00
 0.0000000000000E+00
 0.0000000000000E+00
 0.0000000000000E+00
 0.0000000000000E+00
 0.0000000000000E+00
 0.0000000000000E+00
 0.0000000000000E+00
 0.0000000000000E+00
 0.0000000000000E+00
 0.0000000000000E+00
 0.0000000000000E+00
 0.0000000000000E+00
 0.0000000000000E+00
 0.0000000000000E+00
 0.0000000000000E+00
 0.0000000000000E+00
 0.0000000000000E+00
 0.0000000000000E+00
 0.0000000000000E+00
 0.0000000000000E+00
 0.0000000000000E+00
 0.0000000000000E+00
 0.0000000000000E+00
 0.0000000000000E+00
 0.0000000000000E+00
 0.0000000000000E+00
 0.0000000000000E+00
 0.0000000000000E+00
 0.0000000000000E+00
 0.0000000000000E+00
 0.0000000000000E+00
 0.0000000000000E+00
 0.0000000000000E+00
 0.0000000000000E+00
 0.0000000000000E+00
 0.0000000000000E+00
 0.0000000000000E+00
 0.0000000000000E+00
 0.0000000000000E+00
 0.0000000000000E+00
 0.0000000000000E+00
 0.0000000000000E+00
 0.0000000000000E+00
 0.0000000000000E+00
 0.0000000000000E+00
 0.0000000000000E+00
 0.0000000000000E+00
 0.0000000000000E+00
 0.0000000000000E+00
 0.0000000000000E+00
 0.0000000000000E+00
 0.0000000000000E+00
 0.0000000000000E+00
 0.0000000000000E+00
 0.0000000000000E+00
 0.0000000000000E+00
 0.0000000000000E+00
 0.0000000000000E+00
 0.0000000000000E+00
 0.0000000000000E+00
 0.0000000000000E+00
 0.0000000000000E+00
 0.0000000000000E+00
 0.0000000000000E+00
 0.0000000000000E+00
 0.0000000000000E+00
 0.0000000000000E+00
 0.0000000000000E+00
 0.0000000000000E+00
 0.0000000000000E+00
 0.0000000000000E+00
 0.0000000000000E+00
 0.0000000000000E+00
 0.0000000000000E+00
 0.0000000000000E+00
 0.0000000000000E+00
 0.0000000000000E+00
 0.0000000000000E+00
 0.0000000000000E+00
 0.0000000000000E+00
 0.0000000000000E+00
 0.0000000000000E+00
 0.0000000000000E+00
 0.0000000000000E+00
 0.0000000000000E+00
 0.0000000000000E+00
 0.0000000000000E+00
 0.0000000000000E+00
 0.0000000000000E+00
 0.0000000000000E+00
 0.0000000000000E+00
 0.0000000000000E+00
 0.0000000000000E+00
 0.0000000000000E+00
 0.0000000000000E+00
 0.0000000000000E+00
 0.0000000000000E+00
 0.0000000000000E+00
 0.0000000000000E+00
 0.0000000000000E+00
 0.0000000000000E+00
 0.0000000000000E+00
 0.0000000000000E+00
 0.0000000000000E+00
 0.0000000000000E+00
 0.0000000000000E+00
 0.0000000000000E+00
 0.0000000000000E+00
 0.0000000000000E+00
 0.0000000000000E+00
 0.0000000000000E+00
 0.0000000000000E+00
 0.0000000000000E+00
 0.0000000000000E+00
 0.0000000000000E+00
 0.0000000000000E+00
 0.0000000000000E+00
 0.0000000000000E+00
 0.0000000000000E+00
 0.0000000000000E+00
 0.0000000000000E+00
 0.0000000000000E+00
 0.0000000000000E+00
 0.0000000000000E+00
 0.0000000000000E+00
 0.0000000000000E+00
 0.0000000000000E+00
 0.0000000000000E+00
 0.0000000000000E+00
 0.0000000000000E+00
 0.0000000000000E+00
 0.0000000000000E+00
 0.0000000000000E+00
 0.0000000000000E+00
 0.0000000000000E+00
 0.0000000000000E+00
 0.0000000000000E+00
 0.0000000000000E+00
 0.0000000000000E+00
 0.0000000000000E+00
 0.0000000000000E+00
 0.0000000000000E+00
 0.0000000000000E+00
 0.0000000000000E+00
 0.0000000000000E+00
 0.0000000000000E+00
 0.0000000000000E+00
 0.0000000000000E+00
 0.0000000000000E+00
 0.0000000000000E+00
 0.0000000000000E+00
 0.0000000000000E+00
 0.0000000000000E+00
 0.0000000000000E+00
 0.0000000000000E+00
 0.0000000000000E+00
 0.0000000000000E+00
 0.0000000000000E+00
 0.0000000000000E+00
 0.0000000000000E+00
 0.0000000000000E+00
 0.0000000000000E+00
 0.0000000000000E+00
 0.0000000000000E+00
 0.0000000000000E+00
 0.0000000000000E+00
 0.0000000000000E+00
 0.0000000000000E+00
 0.0000000000000E+00
 0.0000000000000E+00
 0.0000000000000E+00
 0.0000000000000E+00
 0.0000000000000E+00
 0.0000000000000E+00
 0.0000000000000E+00
 0.0000000000000E+00
 0.0000000000000E+00
 0.0000000000000E+00
 0.0000000000000E+00
 0.0000000000000E+00
 0.0000000000000E+00
 0.0000000000000E+00
 0.0000000000000E+00
 0.0000000000000E+00
 0.0000000000000E+00
 0.0000000000000E+00
 0.0000000000000E+00
 0.0000000000000E+00
 0.0000000000000E+00
 0.0000000000000E+00
 0.0000000000000E+00
 0.0000000000000E+00
 0.0000000000000E+00
 0.0000000000000E+00
 0.0000000000000E+00
 0.0000000000000E+00
 0.0000000000000E+00
 0.0000000000000E+00
 0.0000000000000E+00
 0.0000000000000E+00
 0.0000000000000E+00
 0.0000000000000E+00
 0.0000000000000E+00
 0.0000000000000E+00
 0.0000000000000E+00
 0.0000000000000E+00
 0.0000000000000E+00
 0.0000000000000E+00
 0.0000000000000E+00
 0.0000000000000E+00
 0.0000000000000E+00
 0.0000000000000E+00
 0.0000000000000E+00
 0.0000000000000E+00
 0.0000000000000E+00
 0.0000000000000E+00
 0.0000000000000E+00
 0.0000000000000E+00
 0.0000000000000E+00
 0.0000000000000E+00
 0.0000000000000E+00
 0.0000000000000E+00
 0.0000000000000E+00
 0.0000000000000E+00
 0.0000000000000E+00
 0.0000000000000E+00
 0.0000000000000E+00
 0.0000000000000E+00
 0.0000000000000E+00
 0.0000000000000E+00
 0.0000000000000E+00
 0.0000000000000E+00
 0.0000000000000E+00
 0.0000000000000E+00
 0.0000000000000E+00
 0.0000000000000E+00
 0.0000000000000E+00
 0.0000000000000E+00
 0.0000000000000E+00
 0.0000000000000E+00
 0.0000000000000E+00
 0.0000000000000E+00
 0.0000000000000E+00
 0.0000000000000E+00
 0.0000000000000E+00
 0.0000000000000E+00
 0.0000000000000E+00
 0.0000000000000E+00
 0.0000000000000E+00
 0.0000000000000E+00
 0.0000000000000E+00
 0.0000000000000E+00
 0.0000000000000E+00
 0.0000000000000E+00
 0.0000000000000E+00
 0.0000000000000E+00
 0.0000000000000E+00
 0.0000000000000E+00
 0.0000000000000E+00
 0.0000000000000E+00
 0.0000000000000E+00
 0.0000000000000E+00
 0.0000000000000E+00
 0.0000000000000E+00
 0.0000000000000E+00
 0.0000000000000E+00
 0.0000000000000E+00
 0.0000000000000E+00
 0.0000000000000E+00
 0.0000000000000E+00
 0.0000000000000E+00
 0.0000000000000E+00
 0.0000000000000E+00
 0.0000000000000E+00
 0.0000000000000E+00
 0.0000000000000E+00
 0.0000000000000E+00
 0.0000000000000E+00
 0.0000000000000E+00
 0.0000000000000E+00
 0.0000000000000E+00
 0.0000000000000E+00
 0.0000000000000E+00
 0.0000000000000E+00
 0.0000000000000E+00
 0.0000000000000E+00
 0.0000000000000E+00
 0.0000000000000E+00
 0.0000000000000E+00
 0.0000000000000E+00
 0.0000000000000E+00
 0.0000000000000E+00
 0.0000000000000E+00
 0.0000000000000E+00
 0.0000000000000E+00
 0.0000000000000E+00
 0.0000000000000E+00
 0.0000000000000E+00
 0.0000000000000E+00
 0.0000000000000E+00
 0.0000000000000E+00
 0.0000000000000E+00
 0.0000000000000E+00
 0.0000000000000E+00
 0.0000000000000E+00
 0.0000000000000E+00
 0.0000000000000E+00
 0.0000000000000E+00
 0.0000000000000E+00
 0.0000000000000E+00
 0.0000000000000E+00
 0.0000000000000E+00
 0.0000000000000E+00
 0.0000000000000E+00
 0.0000000000000E+00
 0.0000000000000E+00
 0.0000000000000E+00
 0.0000000000000E+00
 0.0000000000000E+00
 0.0000000000000E+00
 0.0000000000000E+00
 0.0000000000000E+00
 0.0000000000000E+00
 0.0000000000000E+00
 0.0000000000000E+00
 0.0000000000000E+00
 0.0000000000000E+00
 0.0000000000000E+00
 0.0000000000000E+00
 0.0000000000000E+00
 0.0000000000000E+00
 0.0000000000000E+00
 0.0000000000000E+00
 0.0000000000000E+00
 0.0000000000000E+00
 0.0000000000000E+00
 0.0000000000000E+00
 0.0000000000000E+00
 0.0000000000000E+00
 0.0000000000000E+00
 0.0000000000000E+00
 0.0000000000000E+00
 0.0000000000000E+00
 0.0000000000000E+00
 0.0000000000000E+00
 0.0000000000000E+00
 0.0000000000000E+00
 0.0000000000000E+00
 0.0000000000000E+00
 0.0000000000000E+00
 0.0000000000000E+00
 0.0000000000000E+00
 0.0000000000000E+00
 0.0000000000000E+00
 0.0000000000000E+00
 0.0000000000000E+00
 0.0000000000000E+00
 0.0000000000000E+00
 0.0000000000000E+00
 0.0000000000000E+00
 0.0000000000000E+00
 0.0000000000000E+00
 0.0000000000000E+00
 0.0000000000000E+00
 0.0000000000000E+00
 0.0000000000000E+00
 0.0000000000000E+00
 0.0000000000000E+00
 0.0000000000000E+00
 0.0000000000000E+00
 0.0000000000000E+00
 0.0000000000000E+00
 0.0000000000000E+00
 0.0000000000000E+00
 0.0000000000000E+00
 0.0000000000000E+00
 0.0000000000000E+00
 0.0000000000000E+00
 0.0000000000000E+00
 0.0000000000000E+00
 0.0000000000000E+00
 0.0000000000000E+00
 0.0000000000000E+00
 0.0000000000000E+00
 0.0000000000000E+00
 0.0000000000000E+00
 0.0000000000000E+00
 0.0000000000000E+00
 0.0000000000000E+00
 0.0000000000000E+00
 0.0000000000000E+00
 0.0000000000000E+00
 0.0000000000000E+00
 0.0000000000000E+00
 0.0000000000000E+00
 0.0000000000000E+00
 0.0000000000000E+00
 0.0000000000000E+00
 0.0000000000000E+00
 0.0000000000000E+00
 0.0000000000000E+00
 0.0000000000000E+00
 0.0000000000000E+00
 0.0000000000000E+00
 0.0000000000000E+00
 0.0000000000000E+00
 0.0000000000000E+00
 0.0000000000000E+00
 0.0000000000000E+00
 0.0000000000000E+00
 0.0000000000000E+00
 0.0000000000000E+00
 0.0000000000000E+00
 0.0000000000000E+00
 0.0000000000000E+00
 0.0000000000000E+00
 0.0000000000000E+00
 0.0000000000000E+00
 0.0000000000000E+00
 0.0000000000000E+00
 0.0000000000000E+00
 0.0000000000000E+00
 0.0000000000000E+00
 0.0000000000000E+00
 0.0000000000000E+00
 0.0000000000000E+00
 0.0000000000000E+00
 0.0000000000000E+00
 0.0000000000000E+00
 0.0000000000000E+00
 0.0000000000000E+00
 0.0000000000000E+00
 0.0000000000000E+00
 0.0000000000000E+00
 0.0000000000000E+00
 0.0000000000000E+00
 0.0000000000000E+00
 0.0000000000000E+00
 0.0000000000000E+00
 0.0000000000000E+00
 0.0000000000000E+00
 0.0000000000000E+00
 0.0000000000000E+00
 0.0000000000000E+00
 0.0000000000000E+00
 0.0000000000000E+00
 0.0000000000000E+00
 0.0000000000000E+00
 0.0000000000000E+00
 0.0000000000000E+00
 0.0000000000000E+00
 0.0000000000000E+00
 0.0000000000000E+00
 0.0000000000000E+00
 0.0000000000000E+00
 0.0000000000000E+00
 0.0000000000000E+00
 0.0000000000000E+00
 0.0000000000000E+00
 0.0000000000000E+00
 0.0000000000000E+00
 0.0000000000000E+00
 0.0000000000000E+00
 0.0000000000000E+00
 0.0000000000000E+00
 0.0000000000000E+00
 0.0000000000000E+00
 0.0000000000000E+00
 0.0000000000000E+00
 0.0000000000000E+00
 0.0000000000000E+00
 0.0000000000000E+00
 0.0000000000000E+00
 0.0000000000000E+00
 0.0000000000000E+00
 0.0000000000000E+00
 0.0000000000000E+00
 0.0000000000000E+00
 0.0000000000000E+00
 0.0000000000000E+00
 0.0000000000000E+00
 0.0000000000000E+00
 0.0000000000000E+00
 0.0000000000000E+00
 0.0000000000000E+00
 0.0000000000000E+00
 0.0000000000000E+00
 0.0000000000000E+00
 0.0000000000000E+00
 0.0000000000000E+00
 0.0000000000000E+00
 0.0000000000000E+00
 0.0000000000000E+00
 0.0000000000000E+00
 0.0000000000000E+00
 0.0000000000000E+00
 0.0000000000000E+00
 0.0000000000000E+00
 0.0000000000000E+00
 0.0000000000000E+00
 0.0000000000000E+00
 0.0000000000000E+00
 0.0000000000000E+00
 0.0000000000000E+00
 0.0000000000000E+00
 0.0000000000000E+00
 0.0000000000000E+00
 0.0000000000000E+00
 0.0000000000000E+00
 0.0000000000000E+00
 0.0000000000000E+00
 0.0000000000000E+00
 0.0000000000000E+00
 0.0000000000000E+00
 0.0000000000000E+00
 0.0000000000000E+00
 0.0000000000000E+00
 0.0000000000000E+00
 0.0000000000000E+00
 0.0000000000000E+00
 0.0000000000000E+00
 0.0000000000000E+00
 0.0000000000000E+00
 0.0000000000000E+00
 0.0000000000000E+00
 0.0000000000000E+00
 0.0000000000000E+00
 0.0000000000000E+00
 0.0000000000000E+00
 0.0000000000000E+00
 0.0000000000000E+00
 0.0000000000000E+00
 0.0000000000000E+00
 0.0000000000000E+00
 0.0000000000000E+00
 0.0000000000000E+00
 0.0000000000000E+00
 0.0000000000000E+00
 0.0000000000000E+00
 0.0000000000000E+00
 0.0000000000000E+00
 0.0000000000000E+00
 0.0000000000000E+00
 0.0000000000000E+00
 0.0000000000000E+00
 0.0000000000000E+00
 0.0000000000000E+00
 0.0000000000000E+00
 0.0000000000000E+00
 0.0000000000000E+00
 0.0000000000000E+00
 0.0000000000000E+00
 0.0000000000000E+00
 0.0000000000000E+00
 0.0000000000000E+00
 0.0000000000000E+00
 0.0000000000000E+00
 0.0000000000000E+00
 0.0000000000000E+00
 0.0000000000000E+00
 0.0000000000000E+00
 0.0000000000000E+00
 0.0000000000000E+00
 0.0000000000000E+00
 0.0000000000000E+00
 0.0000000000000E+00
 0.0000000000000E+00
 0.0000000000000E+00
 0.0000000000000E+00
 0.0000000000000E+00
 0.0000000000000E+00
 0.0000000000000E+00
 0.0000000000000E+00
 0.0000000000000E+00
 0.0000000000000E+00
 0.0000000000000E+00
 0.0000000000000E+00
 0.0000000000000E+00
 0.0000000000000E+00
 0.0000000000000E+00
 0.0000000000000E+00
 0.0000000000000E+00
 0.0000000000000E+00
 0.0000000000000E+00
 0.0000000000000E+00
 0.0000000000000E+00
 0.0000000000000E+00
 0.0000000000000E+00
 0.0000000000000E+00
 0.0000000000000E+00
 0.0000000000000E+00
 0.0000000000000E+00
 0.0000000000000E+00
 0.0000000000000E+00
 0.0000000000000E+00
 0.0000000000000E+00
 0.0000000000000E+00
 0.0000000000000E+00
 0.0000000000000E+00
 0.0000000000000E+00
 0.0000000000000E+00
 0.0000000000000E+00
 0.0000000000000E+00
 0.0000000000000E+00
 0.0000000000000E+00
 0.0000000000000E+00
 0.0000000000000E+00
 0.0000000000000E+00
 0.0000000000000E+00
 0.0000000000000E+00
 0.0000000000000E+00
 0.0000000000000E+00
 0.0000000000000E+00
 0.0000000000000E+00
 0.0000000000000E+00
 0.0000000000000E+00
 0.0000000000000E+00
 0.0000000000000E+00
 0.0000000000000E+00
 0.0000000000000E+00
 0.0000000000000E+00
 0.0000000000000E+00
 0.0000000000000E+00
 0.0000000000000E+00
 0.0000000000000E+00
 0.0000000000000E+00
 0.0000000000000E+00
 0.0000000000000E+00
 0.0000000000000E+00
 0.0000000000000E+00
 0.0000000000000E+00
 0.0000000000000E+00
 0.0000000000000E+00
 0.0000000000000E+00
 0.0000000000000E+00
 0.0000000000000E+00
 0.0000000000000E+00
 0.0000000000000E+00
 0.0000000000000E+00
 0.0000000000000E+00
 0.0000000000000E+00
 0.0000000000000E+00
 0.0000000000000E+00
 0.0000000000000E+00
 0.0000000000000E+00
 0.0000000000000E+00
 0.0000000000000E+00
 0.0000000000000E+00
 0.0000000000000E+00
 0.0000000000000E+00
 0.0000000000000E+00
 0.0000000000000E+00
 0.0000000000000E+00
 0.0000000000000E+00
 0.0000000000000E+00
 0.0000000000000E+00
 0.0000000000000E+00
 0.0000000000000E+00
 0.0000000000000E+00
 0.0000000000000E+00
 0.0000000000000E+00
 0.0000000000000E+00
 0.0000000000000E+00
 0.0000000000000E+00
 0.0000000000000E+00
 0.0000000000000E+00
 0.0000000000000E+00
 0.0000000000000E+00
 0.0000000000000E+00
 0.0000000000000E+00
 0.0000000000000E+00
 0.0000000000000E+00
 0.0000000000000E+00
 0.0000000000000E+00
 0.0000000000000E+00
 0.0000000000000E+00
 0.0000000000000E+00
 0.0000000000000E+00
 0.0000000000000E+00
 0.0000000000000E+00
 0.0000000000000E+00
 0.0000000000000E+00
 0.0000000000000E+00
 0.0000000000000E+00
 0.0000000000000E+00
 0.0000000000000E+00
 0.0000000000000E+00
 0.0000000000000E+00
 0.0000000000000E+00
 0.0000000000000E+00
 0.0000000000000E+00
 0.0000000000000E+00
 0.0000000000000E+00
 0.0000000000000E+00
 0.0000000000000E+00
 0.0000000000000E+00
 0.0000000000000E+00
 0.0000000000000E+00
 0.0000000000000E+00
 0.0000000000000E+00
 0.0000000000000E+00
 0.0000000000000E+00
 0.0000000000000E+00
 0.0000000000000E+00
 0.0000000000000E+00
 0.0000000000000E+00
 0.0000000000000E+00
 0.0000000000000E+00
 0.0000000000000E+00
 0.0000000000000E+00
 0.0000000000000E+00
 0.0000000000000E+00
 0.0000000000000E+00
 0.0000000000000E+00
 0.0000000000000E+00
 0.0000000000000E+00
 0.0000000000000E+00
 0.0000000000000E+00
 0.0000000000000E+00
 0.0000000000000E+00
 0.0000000000000E+00
 0.0000000000000E+00
 0.0000000000000E+00
 0.0000000000000E+00
 0.0000000000000E+00
 0.0000000000000E+00
 0.0000000000000E+00
 0.0000000000000E+00
 0.0000000000000E+00
 0.0000000000000E+00
 0.0000000000000E+00
 0.0000000000000E+00
 0.0000000000000E+00
 0.0000000000000E+00
 0.0000000000000E+00
 0.0000000000000E+00
 0.0000000000000E+00
 0.0000000000000E+00
 0.0000000000000E+00
 0.0000000000000E+00
 0.0000000000000E+00
 0.0000000000000E+00
 0.0000000000000E+00
 0.0000000000000E+00
 0.0000000000000E+00
 0.0000000000000E+00
 0.0000000000000E+00
 0.0000000000000E+00
 0.0000000000000E+00
 0.0000000000000E+00
 0.0000000000000E+00
 0.0000000000000E+00
 0.0000000000000E+00
 0.0000000000000E+00
 0.0000000000000E+00
 0.0000000000000E+00
 0.0000000000000E+00
 0.0000000000000E+00
 0.0000000000000E+00
 0.0000000000000E+00
 0.0000000000000E+00
 0.0000000000000E+00
 0.0000000000000E+00
 0.0000000000000E+00
 0.0000000000000E+00
 0.0000000000000E+00
 0.0000000000000E+00
 0.0000000000000E+00
 0.0000000000000E+00
 0.0000000000000E+00
 0.0000000000000E+00
 0.0000000000000E+00
 0.0000000000000E+00
 0.0000000000000E+00
 0.0000000000000E+00
 0.0000000000000E+00
 0.0000000000000E+00
 0.0000000000000E+00
 0.0000000000000E+00
 0.0000000000000E+00
 0.0000000000000E+00
 0.0000000000000E+00
 0.0000000000000E+00
 0.0000000000000E+00
 0.0000000000000E+00
 0.0000000000000E+00
 0.0000000000000E+00
 0.0000000000000E+00
 0.0000000000000E+00
 0.0000000000000E+00
 0.0000000000000E+00
 0.0000000000000E+00
 0.0000000000000E+00
 0.0000000000000E+00
 0.0000000000000E+00
 0.0000000000000E+00
 0.0000000000000E+00
 0.0000000000000E+00
 0.0000000000000E+00
 0.0000000000000E+00
 0.0000000000000E+00
 0.0000000000000E+00
 0.0000000000000E+00
 0.0000000000000E+00
 0.0000000000000E+00
 0.0000000000000E+00
 0.0000000000000E+00
 0.0000000000000E+00
 0.0000000000000E+00
 0.0000000000000E+00
 0.0000000000000E+00
 0.0000000000000E+00
 0.0000000000000E+00
 0.0000000000000E+00
 0.0000000000000E+00
 0.0000000000000E+00
 0.0000000000000E+00
 0.0000000000000E+00
 0.0000000000000E+00
 0.0000000000000E+00
 0.0000000000000E+00
 0.0000000000000E+00
 0.0000000000000E+00
 0.0000000000000E+00
 0.0000000000000E+00
 0.0000000000000E+00
 0.0000000000000E+00
 0.0000000000000E+00
 0.0000000000000E+00
 0.0000000000000E+00
 0.0000000000000E+00
 0.0000000000000E+00
 0.0000000000000E+00
 0.0000000000000E+00
 0.0000000000000E+00
 0.0000000000000E+00
 0.0000000000000E+00
 0.0000000000000E+00
 0.0000000000000E+00
 0.0000000000000E+00
 0.0000000000000E+00
 0.0000000000000E+00
 0.0000000000000E+00
 0.0000000000000E+00
 0.0000000000000E+00
 0.0000000000000E+00
 0.0000000000000E+00
 0.0000000000000E+00
 0.0000000000000E+00
 0.0000000000000E+00
 0.0000000000000E+00
 0.0000000000000E+00
 0.0000000000000E+00
 0.0000000000000E+00
 0.0000000000000E+00
 0.0000000000000E+00
 0.0000000000000E+00
 0.0000000000000E+00
 0.0000000000000E+00
 0.0000000000000E+00
 0.0000000000000E+00
 0.0000000000000E+00
 0.0000000000000E+00
 0.0000000000000E+00
 0.0000000000000E+00
 0.0000000000000E+00
 0.0000000000000E+00
 0.0000000000000E+00
 0.0000000000000E+00
 0.0000000000000E+00
 0.0000000000000E+00
 0.0000000000000E+00
 0.0000000000000E+00
 0.0000000000000E+00
 0.0000000000000E+00
 0.0000000000000E+00
 0.0000000000000E+00
 0.0000000000000E+00
 0.0000000000000E+00
 0.0000000000000E+00
 0.0000000000000E+00
 0.0000000000000E+00
 0.0000000000000E+00
 0.0000000000000E+00
 0.0000000000000E+00
 0.0000000000000E+00
 0.0000000000000E+00
 0.0000000000000E+00
 0.0000000000000E+00
 0.0000000000000E+00
 0.0000000000000E+00
 0.0000000000000E+00
 0.0000000000000E+00
 0.0000000000000E+00
 0.0000000000000E+00
 0.0000000000000E+00
 0.0000000000000E+00
 0.0000000000000E+00
 0.0000000000000E+00
 0.0000000000000E+00
 0.0000000000000E+00
 0.0000000000000E+00
 0.0000000000000E+00
 0.0000000000000E+00
 0.0000000000000E+00
 0.0000000000000E+00
 0.0000000000000E+00
 0.0000000000000E+00
 0.0000000000000E+00
 0.0000000000000E+00
 0.0000000000000E+00
 0.0000000000000E+00
 0.0000000000000E+00
 0.0000000000000E+00
 0.0000000000000E+00
 0.0000000000000E+00
 0.0000000000000E+00
 0.0000000000000E+00
 0.0000000000000E+00
 0.0000000000000E+00
 0.0000000000000E+00
 0.0000000000000E+00
 0.0000000000000E+00
 0.0000000000000E+00
 0.0000000000000E+00
 0.0000000000000E+00
 0.0000000000000E+00
 0.0000000000000E+00
 0.0000000000000E+00
 0.0000000000000E+00
 0.0000000000000E+00
 0.0000000000000E+00
 0.0000000000000E+00
 0.0000000000000E+00
 0.0000000000000E+00
 0.0000000000000E+00
 0.0000000000000E+00
 0.0000000000000E+00
 0.0000000000000E+00
 0.0000000000000E+00
 0.0000000000000E+00
 0.0000000000000E+00
 0.0000000000000E+00
 0.0000000000000E+00
 0.0000000000000E+00
 0.0000000000000E+00
 0.0000000000000E+00
 0.0000000000000E+00
 0.0000000000000E+00
 0.0000000000000E+00
 0.0000000000000E+00
 0.0000000000000E+00
 0.0000000000000E+00
 0.0000000000000E+00
 0.0000000000000E+00
 0.0000000000000E+00
 0.0000000000000E+00
 0.0000000000000E+00
 0.0000000000000E+00
 0.0000000000000E+00
 0.0000000000000E+00
 0.0000000000000E+00
 0.0000000000000E+00
 0.0000000000000E+00
 0.0000000000000E+00
 0.0000000000000E+00
 0.0000000000000E+00
 0.0000000000000E+00
 0.0000000000000E+00
 0.0000000000000E+00
 0.0000000000000E+00
 0.0000000000000E+00
 0.0000000000000E+00
 0.0000000000000E+00
 0.0000000000000E+00
 0.0000000000000E+00
 0.0000000000000E+00
 0.0000000000000E+00
 0.0000000000000E+00
 0.0000000000000E+00
 0.0000000000000E+00
 0.0000000000000E+00
 0.0000000000000E+00
 0.0000000000000E+00
 0.0000000000000E+00
 0.0000000000000E+00
 0.0000000000000E+00
 0.0000000000000E+00
 0.0000000000000E+00
 0.0000000000000E+00
 0.0000000000000E+00
 0.0000000000000E+00
 0.0000000000000E+00
 0.0000000000000E+00
 0.0000000000000E+00
 0.0000000000000E+00
 0.0000000000000E+00
 0.0000000000000E+00
 0.0000000000000E+00
 0.0000000000000E+00
 0.0000000000000E+00
 0.0000000000000E+00
 0.0000000000000E+00
 0.0000000000000E+00
 0.0000000000000E+00
 0.0000000000000E+00
 0.0000000000000E+00
 0.0000000000000E+00
 0.0000000000000E+00
 0.0000000000000E+00
 0.0000000000000E+00
 0.0000000000000E+00
 0.0000000000000E+00
 0.0000000000000E+00
 0.0000000000000E+00
 0.0000000000000E+00
 0.0000000000000E+00
 0.0000000000000E+00
 0.0000000000000E+00
 0.0000000000000E+00
 0.0000000000000E+00
 0.0000000000000E+00
 0.0000000000000E+00
 0.0000000000000E+00
 0.0000000000000E+00
 0.0000000000000E+00
 0.0000000000000E+00
 0.0000000000000E+00
 0.0000000000000E+00
 0.0000000000000E+00
 0.0000000000000E+00
 0.0000000000000E+00
 0.0000000000000E+00
 0.0000000000000E+00
 0.0000000000000E+00
 0.0000000000000E+00
 0.0000000000000E+00
 0.0000000000000E+00
 0.0000000000000E+00
 0.0000000000000E+00
 0.0000000000000E+00
 0.0000000000000E+00
 0.0000000000000E+00
 0.0000000000000E+00
 0.0000000000000E+00
 0.0000000000000E+00
 0.0000000000000E+00
 0.0000000000000E+00
 0.0000000000000E+00
 0.0000000000000E+00
 0.0000000000000E+00
 0.0000000000000E+00
 0.0000000000000E+00
 0.0000000000000E+00
 0.0000000000000E+00
 0.0000000000000E+00
 0.0000000000000E+00
 0.0000000000000E+00
 0.0000000000000E+00
 0.0000000000000E+00
 0.0000000000000E+00
 0.0000000000000E+00
 0.0000000000000E+00
 0.0000000000000E+00
 0.0000000000000E+00
 0.0000000000000E+00
 0.0000000000000E+00
 0.0000000000000E+00
 0.0000000000000E+00
 0.0000000000000E+00
 0.0000000000000E+00
 0.0000000000000E+00
 0.0000000000000E+00
 0.0000000000000E+00
 0.0000000000000E+00
 0.0000000000000E+00
 0.0000000000000E+00
 0.0000000000000E+00
 0.0000000000000E+00
 0.0000000000000E+00
 0.0000000000000E+00
 0.0000000000000E+00
 0.0000000000000E+00
 0.0000000000000E+00
 0.0000000000000E+00
 0.0000000000000E+00
 0.0000000000000E+00
 0.0000000000000E+00
 0.0000000000000E+00
 0.0000000000000E+00
 0.0000000000000E+00
 0.0000000000000E+00
 0.0000000000000E+00
 0.0000000000000E+00
 0.0000000000000E+00
 0.0000000000000E+00
 0.0000000000000E+00
 0.0000000000000E+00
 0.0000000000000E+00
 0.0000000000000E+00
 0.0000000000000E+00
 0.0000000000000E+00
 0.0000000000000E+00
 0.0000000000000E+00
 0.0000000000000E+00
 0.0000000000000E+00
 0.0000000000000E+00
 0.0000000000000E+00
 0.0000000000000E+00
 0.0000000000000E+00
 0.0000000000000E+00
 0.0000000000000E+00
 0.0000000000000E+00
 0.0000000000000E+00
 0.0000000000000E+00
 0.0000000000000E+00
 0.0000000000000E+00
 0.0000000000000E+00
 0.0000000000000E+00
 0.0000000000000E+00
 0.0000000000000E+00
 0.0000000000000E+00
 0.0000000000000E+00
 0.0000000000000E+00
 0.0000000000000E+00
 0.0000000000000E+00
 0.0000000000000E+00
 0.0000000000000E+00
 0.0000000000000E+00
 0.0000000000000E+00
 0.0000000000000E+00
 0.0000000000000E+00
 0.0000000000000E+00
 0.0000000000000E+00
 0.0000000000000E+00
 0.0000000000000E+00
 0.0000000000000E+00
 0.0000000000000E+00
 0.0000000000000E+00
 0.0000000000000E+00
 0.0000000000000E+00
 0.0000000000000E+00
 0.0000000000000E+00
 0.0000000000000E+00
 0.0000000000000E+00
 0.0000000000000E+00
 0.0000000000000E+00
 0.0000000000000E+00
 0.0000000000000E+00
 0.0000000000000E+00
 0.0000000000000E+00
 0.0000000000000E+00
 0.0000000000000E+00
 0.0000000000000E+00
 0.0000000000000E+00
 0.0000000000000E+00
 0.0000000000000E+00
 0.0000000000000E+00
 0.0000000000000E+00
 0.0000000000000E+00
 0.0000000000000E+00
 0.0000000000000E+00
 0.0000000000000E+00
 0.0000000000000E+00
 0.0000000000000E+00
 0.0000000000000E+00
 0.0000000000000E+00
 0.0000000000000E+00
 0.0000000000000E+00
 0.0000000000000E+00
 0.0000000000000E+00
 0.0000000000000E+00
 0.0000000000000E+00
 0.0000000000000E+00
 0.0000000000000E+00
 0.0000000000000E+00
 0.0000000000000E+00
 0.0000000000000E+00
 0.0000000000000E+00
 0.0000000000000E+00
 0.0000000000000E+00
 0.0000000000000E+00
 0.0000000000000E+00
 0.0000000000000E+00
 0.0000000000000E+00
 0.0000000000000E+00
 0.0000000000000E+00
 0.0000000000000E+00
 0.0000000000000E+00
 0.0000000000000E+00
 0.0000000000000E+00
 0.0000000000000E+00
 0.0000000000000E+00
 0.0000000000000E+00
 0.0000000000000E+00
 0.0000000000000E+00
 0.0000000000000E+00
 0.0000000000000E+00
 0.0000000000000E+00
 0.0000000000000E+00
 0.0000000000000E+00
 0.0000000000000E+00
 0.0000000000000E+00
 0.0000000000000E+00
 0.0000000000000E+00
 0.0000000000000E+00
 0.0000000000000E+00
 0.0000000000000E+00
 0.0000000000000E+00
 0.0000000000000E+00
 0.0000000000000E+00
 0.0000000000000E+00
 0.0000000000000E+00
 0.0000000000000E+00
 0.0000000000000E+00
 0.0000000000000E+00
 0.0000000000000E+00
 0.0000000000000E+00
 0.0000000000000E+00
 0.0000000000000E+00
 0.0000000000000E+00
 0.0000000000000E+00
 0.0000000000000E+00
 0.0000000000000E+00
 0.0000000000000E+00
 0.0000000000000E+00
 0.0000000000000E+00
 0.0000000000000E+00
 0.0000000000000E+00
 0.0000000000000E+00
 0.0000000000000E+00
 0.0000000000000E+00
 0.0000000000000E+00
 0.0000000000000E+00
 0.0000000000000E+00
 0.0000000000000E+00
 0.0000000000000E+00
 0.0000000000000E+00
 0.0000000000000E+00
 0.0000000000000E+00
 0.0000000000000E+00
 0.0000000000000E+00
 0.0000000000000E+00
 0.0000000000000E+00
 0.0000000000000E+00
 0.0000000000000E+00
 0.0000000000000E+00
 0.0000000000000E+00
 0.0000000000000E+00
 0.0000000000000E+00
 0.0000000000000E+00
 0.0000000000000E+00
 0.0000000000000E+00
 0.0000000000000E+00
 0.0000000000000E+00
 0.0000000000000E+00
 0.0000000000000E+00
 0.0000000000000E+00
 0.0000000000000E+00
 0.0000000000000E+00
 0.0000000000000E+00
 0.0000000000000E+00
 0.0000000000000E+00
 0.0000000000000E+00
 0.0000000000000E+00
 0.0000000000000E+00
 0.0000000000000E+00
 0.0000000000000E+00
 0.0000000000000E+00
 0.0000000000000E+00
 0.0000000000000E+00
 0.0000000000000E+00
 0.0000000000000E+00
 0.0000000000000E+00
 0.0000000000000E+00
 0.0000000000000E+00
 0.0000000000000E+00
 0.0000000000000E+00
 0.0000000000000E+00
 0.0000000000000E+00
 0.0000000000000E+00
 0.0000000000000E+00
 0.0000000000000E+00
 0.0000000000000E+00
 0.0000000000000E+00
 0.0000000000000E+00
 0.0000000000000E+00
 0.0000000000000E+00
 0.0000000000000E+00
 0.0000000000000E+00
 0.0000000000000E+00
 0.0000000000000E+00
 0.0000000000000E+00
 0.0000000000000E+00
 0.0000000000000E+00
 0.0000000000000E+00
 0.0000000000000E+00
 0.0000000000000E+00
 0.0000000000000E+00
 0.0000000000000E+00
 0.0000000000000E+00
 0.0000000000000E+00
 0.0000000000000E+00
 0.0000000000000E+00
 0.0000000000000E+00
 0.0000000000000E+00
 0.0000000000000E+00
 0.0000000000000E+00
 0.0000000000000E+00
 0.0000000000000E+00
 0.0000000000000E+00
 0.0000000000000E+00
 0.0000000000000E+00
 0.0000000000000E+00
 0.0000000000000E+00
 0.0000000000000E+00
 0.0000000000000E+00
 0.0000000000000E+00
 0.0000000000000E+00
 0.0000000000000E+00
 0.0000000000000E+00
 0.0000000000000E+00
 0.0000000000000E+00
 0.0000000000000E+00
 0.0000000000000E+00
 0.0000000000000E+00
 0.0000000000000E+00
 0.0000000000000E+00
 0.0000000000000E+00
 0.0000000000000E+00
 0.0000000000000E+00
 0.0000000000000E+00
 0.0000000000000E+00
 0.0000000000000E+00
 0.0000000000000E+00
 0.0000000000000E+00
 0.0000000000000E+00
 0.0000000000000E+00
 0.0000000000000E+00
 0.0000000000000E+00
 0.0000000000000E+00
 0.0000000000000E+00
 0.0000000000000E+00
 0.0000000000000E+00
 0.0000000000000E+00
 0.0000000000000E+00
 0.0000000000000E+00
 0.0000000000000E+00
 0.0000000000000E+00
 0.0000000000000E+00
 0.0000000000000E+00
 0.0000000000000E+00
 0.0000000000000E+00
 0.0000000000000E+00
 0.0000000000000E+00
 0.0000000000000E+00
 0.0000000000000E+00
 0.0000000000000E+00
 0.0000000000000E+00
 0.0000000000000E+00
 0.0000000000000E+00
 0.0000000000000E+00
 0.0000000000000E+00
 0.0000000000000E+00
 0.0000000000000E+00
 0.0000000000000E+00
 0.0000000000000E+00
 0.0000000000000E+00
 0.0000000000000E+00
 0.0000000000000E+00
 0.0000000000000E+00
 0.0000000000000E+00
 0.0000000000000E+00
 0.0000000000000E+00
 0.0000000000000E+00
 0.0000000000000E+00
 0.0000000000000E+00
 0.0000000000000E+00
 0.0000000000000E+00
 0.0000000000000E+00
 0.0000000000000E+00
 0.0000000000000E+00
 0.0000000000000E+00
 0.0000000000000E+00
 0.0000000000000E+00
 0.0000000000000E+00
 0.0000000000000E+00
 0.0000000000000E+00
 0.0000000000000E+00
 0.0000000000000E+00
 0.0000000000000E+00
 0.0000000000000E+00
 0.0000000000000E+00
 0.0000000000000E+00
 0.0000000000000E+00
 0.0000000000000E+00
 0.0000000000000E+00
 0.0000000000000E+00
 0.0000000000000E+00
 0.0000000000000E+00
 0.0000000000000E+00
 0.0000000000000E+00
 0.0000000000000E+00
 0.0000000000000E+00
 0.0000000000000E+00
 0.0000000000000E+00
 0.0000000000000E+00
 0.0000000000000E+00
 0.0000000000000E+00
 0.0000000000000E+00
 0.0000000000000E+00
 0.0000000000000E+00
 0.0000000000000E+00
 0.0000000000000E+00
 0.0000000000000E+00
 0.0000000000000E+00
 0.0000000000000E+00
 0.0000000000000E+00
 0.0000000000000E+00
 0.0000000000000E+00
 0.0000000000000E+00
 0.0000000000000E+00
 0.0000000000000E+00
 0.0000000000000E+00
 0.0000000000000E+00
 0.0000000000000E+00
 0.0000000000000E+00
 0.0000000000000E+00
 0.0000000000000E+00
 0.0000000000000E+00
 0.0000000000000E+00
 0.0000000000000E+00
 0.0000000000000E+00
 0.0000000000000E+00
 0.0000000000000E+00
 0.0000000000000E+00
 0.0000000000000E+00
 0.0000000000000E+00
 0.0000000000000E+00
 0.0000000000000E+00
 0.0000000000000E+00
 0.0000000000000E+00
 0.0000000000000E+00
 0.0000000000000E+00
 0.0000000000000E+00
 0.0000000000000E+00
 0.0000000000000E+00
 0.0000000000000E+00
 0.0000000000000E+00
 0.0000000000000E+00
 0.0000000000000E+00
 0.0000000000000E+00
 0.0000000000000E+00
 0.0000000000000E+00
 0.0000000000000E+00
 0.0000000000000E+00
 0.0000000000000E+00
 0.0000000000000E+00
 0.0000000000000E+00
 0.0000000000000E+00
 0.0000000000000E+00
 0.0000000000000E+00
 0.0000000000000E+00
 0.0000000000000E+00
 0.0000000000000E+00
 0.0000000000000E+00
 0.0000000000000E+00
 0.0000000000000E+00
 0.0000000000000E+00
 0.0000000000000E+00
 0.0000000000000E+00
 0.0000000000000E+00
 0.0000000000000E+00
 0.0000000000000E+00
 0.0000000000000E+00
 0.0000000000000E+00
 0.0000000000000E+00
 0.0000000000000E+00
 0.0000000000000E+00
 0.0000000000000E+00
 0.0000000000000E+00
 0.0000000000000E+00
 0.0000000000000E+00
 0.0000000000000E+00
 0.0000000000000E+00
 0.0000000000000E+00
 0.0000000000000E+00
 0.0000000000000E+00
 0.0000000000000E+00
 0.0000000000000E+00
 0.0000000000000E+00
 0.0000000000000E+00
 0.0000000000000E+00
 0.0000000000000E+00
 0.0000000000000E+00
 0.0000000000000E+00
 0.0000000000000E+00
 0.0000000000000E+00
 0.0000000000000E+00
 0.0000000000000E+00
 0.0000000000000E+00
 0.0000000000000E+00
 0.0000000000000E+00
 0.0000000000000E+00
 0.0000000000000E+00
 0.0000000000000E+00
 0.0000000000000E+00
 0.0000000000000E+00
 0.0000000000000E+00
 0.0000000000000E+00
 0.0000000000000E+00
 0.0000000000000E+00
 0.0000000000000E+00
 0.0000000000000E+00
 0.0000000000000E+00
 0.0000000000000E+00
 0.0000000000000E+00
 0.0000000000000E+00
 0.0000000000000E+00
 0.0000000000000E+00
 0.0000000000000E+00
 0.0000000000000E+00
 0.0000000000000E+00
 0.0000000000000E+00
 0.0000000000000E+00
 0.0000000000000E+00
 0.0000000000000E+00
 0.0000000000000E+00
 0.0000000000000E+00
 0.0000000000000E+00
 0.0000000000000E+00
 0.0000000000000E+00
 0.0000000000000E+00
 0.0000000000000E+00
 0.0000000000000E+00
 0.0000000000000E+00
 0.0000000000000E+00
 0.0000000000000E+00
 0.0000000000000E+00
 0.0000000000000E+00
 0.0000000000000E+00
 0.0000000000000E+00
 0.0000000000000E+00
 0.0000000000000E+00
 0.0000000000000E+00
 0.0000000000000E+00
 0.0000000000000E+00
 0.0000000000000E+00
 0.0000000000000E+00
 0.0000000000000E+00
 0.0000000000000E+00
 0.0000000000000E+00
 0.0000000000000E+00
 0.0000000000000E+00
 0.0000000000000E+00
 0.0000000000000E+00
 0.0000000000000E+00
 0.0000000000000E+00
 0.0000000000000E+00
 0.0000000000000E+00
 0.0000000000000E+00
 0.0000000000000E+00
 0.0000000000000E+00
 0.0000000000000E+00
 0.0000000000000E+00
 0.0000000000000E+00
 0.0000000000000E+00
 0.0000000000000E+00
 0.0000000000000E+00
 0.0000000000000E+00
 0.0000000000000E+00
 0.0000000000000E+00
 0.0000000000000E+00
 0.0000000000000E+00
 0.0000000000000E+00
 0.0000000000000E+00
 0.0000000000000E+00
 0.0000000000000E+00
 0.0000000000000E+00
 0.0000000000000E+00
 0.0000000000000E+00
 0.0000000000000E+00
 0.0000000000000E+00
 0.0000000000000E+00
 0.0000000000000E+00
 0.0000000000000E+00
 0.0000000000000E+00
 0.0000000000000E+00
 0.0000000000000E+00
 0.0000000000000E+00
 0.0000000000000E+00
 0.0000000000000E+00
 0.0000000000000E+00
 0.0000000000000E+00
 0.0000000000000E+00
 0.0000000000000E+00
 0.0000000000000E+00
 0.0000000000000E+00
 0.0000000000000E+00
 0.0000000000000E+00
 0.0000000000000E+00
 0.0000000000000E+00
 0.0000000000000E+00
 0.0000000000000E+00
 0.0000000000000E+00
 0.0000000000000E+00
 0.0000000000000E+00
 0.0000000000000E+00
 0.0000000000000E+00
 0.0000000000000E+00
 0.0000000000000E+00
 0.0000000000000E+00
 0.0000000000000E+00
 0.0000000000000E+00
 0.0000000000000E+00
 0.0000000000000E+00
 0.0000000000000E+00
 0.0000000000000E+00
 0.0000000000000E+00
 0.0000000000000E+00
 0.0000000000000E+00
 0.0000000000000E+00
 0.0000000000000E+00
 0.0000000000000E+00
 0.0000000000000E+00
 0.0000000000000E+00
 0.0000000000000E+00
 0.0000000000000E+00
 0.0000000000000E+00
 0.0000000000000E+00
 0.0000000000000E+00
 0.0000000000000E+00
 0.0000000000000E+00
 0.0000000000000E+00
 0.0000000000000E+00
 0.0000000000000E+00
 0.0000000000000E+00
 0.0000000000000E+00
 0.0000000000000E+00
 0.0000000000000E+00
 0.0000000000000E+00
 0.0000000000000E+00
 0.0000000000000E+00
 0.0000000000000E+00
 0.0000000000000E+00
 0.0000000000000E+00
 0.0000000000000E+00
 0.0000000000000E+00
 0.0000000000000E+00
 0.0000000000000E+00
 0.0000000000000E+00
 0.0000000000000E+00
 0.0000000000000E+00
 0.0000000000000E+00
 0.0000000000000E+00
 0.0000000000000E+00
 0.0000000000000E+00
 0.0000000000000E+00
 0.0000000000000E+00
 0.0000000000000E+00
 0.0000000000000E+00
 0.0000000000000E+00
 0.0000000000000E+00
 0.0000000000000E+00
 0.0000000000000E+00
 0.0000000000000E+00
 0.0000000000000E+00
 0.0000000000000E+00
 0.0000000000000E+00
 0.0000000000000E+00
 0.0000000000000E+00
 0.0000000000000E+00
 0.0000000000000E+00
 0.0000000000000E+00
 0.0000000000000E+00
 0.0000000000000E+00
 0.0000000000000E+00
 0.0000000000000E+00
 0.0000000000000E+00
 0.0000000000000E+00
 0.0000000000000E+00
 0.0000000000000E+00
 0.0000000000000E+00
 0.0000000000000E+00
 0.0000000000000E+00
 0.0000000000000E+00
 0.0000000000000E+00
 0.0000000000000E+00
 0.0000000000000E+00
 0.0000000000000E+00
 0.0000000000000E+00
 0.0000000000000E+00
 0.0000000000000E+00
 0.0000000000000E+00
 0.0000000000000E+00
 0.0000000000000E+00
 0.0000000000000E+00
 0.0000000000000E+00
 0.0000000000000E+00
 0.0000000000000E+00
 0.0000000000000E+00
 0.0000000000000E+00
 0.0000000000000E+00
 0.0000000000000E+00
 0.0000000000000E+00
 0.0000000000000E+00
 0.0000000000000E+00
 0.0000000000000E+00
 0.0000000000000E+00
 0.0000000000000E+00
 0.0000000000000E+00
 0.0000000000000E+00
 0.0000000000000E+00
 0.0000000000000E+00
 0.0000000000000E+00
 0.0000000000000E+00
 0.0000000000000E+00
 0.0000000000000E+00
 0.0000000000000E+00
 0.0000000000000E+00
 0.0000000000000E+00
 0.0000000000000E+00
 0.0000000000000E+00
 0.0000000000000E+00
 0.0000000000000E+00
 0.0000000000000E+00
 0.0000000000000E+00
 0.0000000000000E+00
 0.0000000000000E+00
 0.0000000000000E+00
 0.0000000000000E+00
 0.0000000000000E+00
 0.0000000000000E+00
 0.0000000000000E+00
 0.0000000000000E+00
 0.0000000000000E+00
 0.0000000000000E+00
 0.0000000000000E+00
 0.0000000000000E+00
 0.0000000000000E+00
 0.0000000000000E+00
 0.0000000000000E+00
 0.0000000000000E+00
 0.0000000000000E+00
 0.0000000000000E+00
 0.0000000000000E+00
 0.0000000000000E+00
 0.0000000000000E+00
 0.0000000000000E+00
 0.0000000000000E+00
 0.0000000000000E+00
 0.0000000000000E+00
 0.0000000000000E+00
 0.0000000000000E+00
 0.0000000000000E+00
 0.0000000000000E+00
 0.0000000000000E+00
 0.0000000000000E+00
 0.0000000000000E+00
 0.0000000000000E+00
 0.0000000000000E+00
 0.0000000000000E+00
 0.0000000000000E+00
 0.0000000000000E+00
 0.0000000000000E+00
 0.0000000000000E+00
 0.0000000000000E+00
 0.0000000000000E+00
 0.0000000000000E+00
 0.0000000000000E+00
 0.0000000000000E+00
 0.0000000000000E+00
 0.0000000000000E+00
 0.0000000000000E+00
 0.0000000000000E+00
 0.0000000000000E+00
 0.0000000000000E+00
 0.0000000000000E+00
 0.0000000000000E+00
 0.0000000000000E+00
 0.0000000000000E+00
 0.0000000000000E+00
 0.0000000000000E+00
 0.0000000000000E+00
 0.0000000000000E+00
 0.0000000000000E+00
 0.0000000000000E+00
 0.0000000000000E+00
 0.0000000000000E+00
 0.0000000000000E+00
 0.0000000000000E+00
 0.0000000000000E+00
 0.0000000000000E+00
 0.0000000000000E+00
 0.0000000000000E+00
 0.0000000000000E+00
 0.0000000000000E+00
 0.0000000000000E+00
 0.0000000000000E+00
 0.0000000000000E+00
 0.0000000000000E+00
 0.0000000000000E+00
 0.0000000000000E+00
 0.0000000000000E+00
 0.0000000000000E+00
 0.0000000000000E+00
 0.0000000000000E+00
 0.0000000000000E+00
 0.0000000000000E+00
 0.0000000000000E+00
 0.0000000000000E+00
 0.0000000000000E+00
 0.0000000000000E+00
 0.0000000000000E+00
 0.0000000000000E+00
 0.0000000000000E+00
 0.0000000000000E+00
 0.0000000000000E+00
 0.0000000000000E+00
 0.0000000000000E+00
 0.0000000000000E+00
 0.0000000000000E+00
 0.0000000000000E+00
 0.0000000000000E+00
 0.0000000000000E+00
 0.0000000000000E+00
 0.0000000000000E+00
 0.0000000000000E+00
 0.0000000000000E+00
 0.0000000000000E+00
 0.0000000000000E+00
 0.0000000000000E+00
 0.0000000000000E+00
 0.0000000000000E+00
 0.0000000000000E+00
 0.0000000000000E+00
 0.0000000000000E+00
 0.0000000000000E+00
 0.0000000000000E+00
 0.0000000000000E+00
 0.0000000000000E+00
 0.0000000000000E+00
 0.0000000000000E+00
 0.0000000000000E+00
 0.0000000000000E+00
 0.0000000000000E+00
 0.0000000000000E+00
 0.0000000000000E+00
 0.0000000000000E+00
 0.0000000000000E+00
 0.0000000000000E+00
 0.0000000000000E+00
 0.0000000000000E+00
 0.0000000000000E+00
 0.0000000000000E+00
 0.0000000000000E+00
 0.0000000000000E+00
 0.0000000000000E+00
 0.0000000000000E+00
 0.0000000000000E+00
 0.0000000000000E+00
 0.0000000000000E+00
 0.0000000000000E+00
 0.0000000000000E+00
 0.0000000000000E+00
 0.0000000000000E+00
 0.0000000000000E+00
 0.0000000000000E+00
 0.0000000000000E+00
 0.0000000000000E+00
 0.0000000000000E+00
 0.0000000000000E+00
 0.0000000000000E+00
 0.0000000000000E+00
 0.0000000000000E+00
 0.0000000000000E+00
 0.0000000000000E+00
 0.0000000000000E+00
 0.0000000000000E+00
 0.0000000000000E+00
 0.0000000000000E+00
 0.0000000000000E+00
 0.0000000000000E+00
 0.0000000000000E+00
 0.0000000000000E+00
 0.0000000000000E+00
 0.0000000000000E+00
 0.0000000000000E+00
 0.0000000000000E+00
 0.0000000000000E+00
 0.0000000000000E+00
 0.0000000000000E+00
 0.0000000000000E+00
 0.0000000000000E+00
 0.0000000000000E+00
 0.0000000000000E+00
 0.0000000000000E+00
 0.0000000000000E+00
 0.0000000000000E+00
 0.0000000000000E+00
 0.0000000000000E+00
 0.0000000000000E+00
 0.0000000000000E+00
 0.0000000000000E+00
 0.0000000000000E+00
 0.0000000000000E+00
 0.0000000000000E+00
 0.0000000000000E+00
 0.0000000000000E+00
 0.0000000000000E+00
 0.0000000000000E+00
 0.0000000000000E+00
 0.0000000000000E+00
 0.0000000000000E+00
 0.0000000000000E+00
 0.0000000000000E+00
 0.0000000000000E+00
 0.0000000000000E+00
 0.0000000000000E+00
 0.0000000000000E+00
 0.0000000000000E+00
 0.0000000000000E+00
 0.0000000000000E+00
 0.0000000000000E+00
 0.0000000000000E+00
 0.0000000000000E+00
 0.0000000000000E+00
 0.0000000000000E+00
 0.0000000000000E+00
 0.0000000000000E+00
 0.0000000000000E+00
 0.0000000000000E+00
 0.0000000000000E+00
 0.0000000000000E+00
 0.0000000000000E+00
 0.0000000000000E+00
 0.0000000000000E+00
 0.0000000000000E+00
 0.0000000000000E+00
 0.0000000000000E+00
 0.0000000000000E+00
 0.0000000000000E+00
 0.0000000000000E+00
 0.0000000000000E+00
 0.0000000000000E+00
 0.0000000000000E+00
 0.0000000000000E+00
 0.0000000000000E+00
 0.0000000000000E+00
 0.0000000000000E+00
 0.0000000000000E+00
 0.0000000000000E+00
 0.0000000000000E+00
 0.0000000000000E+00
 0.0000000000000E+00
 0.0000000000000E+00
 0.0000000000000E+00
 0.0000000000000E+00
 0.0000000000000E+00
 0.0000000000000E+00
 0.0000000000000E+00
 0.0000000000000E+00
 0.0000000000000E+00
 0.0000000000000E+00
 0.0000000000000E+00
 0.0000000000000E+00
 0.0000000000000E+00
 0.0000000000000E+00
 0.0000000000000E+00
 0.0000000000000E+00
 0.0000000000000E+00
 0.0000000000000E+00
 0.0000000000000E+00
 0.0000000000000E+00
 0.0000000000000E+00
 0.0000000000000E+00
 0.0000000000000E+00
 0.0000000000000E+00
 0.0000000000000E+00
 0.0000000000000E+00
 0.0000000000000E+00
 0.0000000000000E+00
 0.0000000000000E+00
 0.0000000000000E+00
 0.0000000000000E+00
 0.0000000000000E+00
 0.0000000000000E+00
 0.0000000000000E+00
 0.0000000000000E+00
 0.0000000000000E+00
 0.0000000000000E+00
 0.0000000000000E+00
 0.0000000000000E+00
 0.0000000000000E+00
 0.0000000000000E+00
 0.0000000000000E+00
 0.0000000000000E+00
 0.0000000000000E+00
 0.0000000000000E+00
 0.0000000000000E+00
 0.0000000000000E+00
 0.0000000000000E+00
 0.0000000000000E+00
 0.0000000000000E+00
 0.0000000000000E+00
 0.0000000000000E+00
 0.0000000000000E+00
 0.0000000000000E+00
 0.0000000000000E+00
 0.0000000000000E+00
 0.0000000000000E+00
 0.0000000000000E+00
 0.0000000000000E+00
 0.0000000000000E+00
 0.0000000000000E+00
 0.0000000000000E+00
 0.0000000000000E+00
 0.0000000000000E+00
 0.0000000000000E+00
 0.0000000000000E+00
 0.0000000000000E+00
 0.0000000000000E+00
 0.0000000000000E+00
 0.0000000000000E+00
 0.0000000000000E+00
 0.0000000000000E+00
 0.0000000000000E+00
 0.0000000000000E+00
 0.0000000000000E+00
 0.0000000000000E+00
 0.0000000000000E+00
 0.0000000000000E+00
 0.0000000000000E+00
 0.0000000000000E+00
 0.0000000000000E+00
 0.0000000000000E+00
 0.0000000000000E+00
 0.0000000000000E+00
 0.0000000000000E+00
 0.0000000000000E+00
 0.0000000000000E+00
 0.0000000000000E+00
 0.0000000000000E+00
 0.0000000000000E+00
 0.0000000000000E+00
 0.0000000000000E+00
 0.0000000000000E+00
 0.0000000000000E+00
 0.0000000000000E+00
 0.0000000000000E+00
 0.0000000000000E+00
 0.0000000000000E+00
 0.0000000000000E+00
 0.0000000000000E+00
 0.0000000000000E+00
 0.0000000000000E+00
 0.0000000000000E+00
 0.0000000000000E+00
 0.0000000000000E+00
 0.0000000000000E+00
 0.0000000000000E+00
 0.0000000000000E+00
 0.0000000000000E+00
 0.0000000000000E+00
 0.0000000000000E+00
 0.0000000000000E+00
 0.0000000000000E+00
 0.0000000000000E+00
 0.0000000000000E+00
 0.0000000000000E+00
 0.0000000000000E+00
 0.0000000000000E+00
 0.0000000000000E+00
 0.0000000000000E+00
 0.0000000000000E+00
 0.0000000000000E+00
 0.0000000000000E+00
 0.0000000000000E+00
 0.0000000000000E+00
 0.0000000000000E+00
 0.0000000000000E+00
 0.0000000000000E+00
 0.0000000000000E+00
 0.0000000000000E+00
 0.0000000000000E+00
 0.0000000000000E+00
 0.0000000000000E+00
 0.0000000000000E+00
 0.0000000000000E+00
 0.0000000000000E+00
 0.0000000000000E+00
 0.0000000000000E+00
 0.0000000000000E+00
 0.0000000000000E+00
 0.0000000000000E+00
 0.0000000000000E+00
 0.0000000000000E+00
 0.0000000000000E+00
 0.0000000000000E+00
 0.0000000000000E+00
 0.0000000000000E+00
 0.0000000000000E+00
 0.0000000000000E+00
 0.0000000000000E+00
 0.0000000000000E+00
 0.0000000000000E+00
 0.0000000000000E+00
 0.0000000000000E+00
 0.0000000000000E+00
 0.0000000000000E+00
 0.0000000000000E+00
 0.0000000000000E+00
 0.0000000000000E+00
 0.0000000000000E+00
 0.0000000000000E+00
 0.0000000000000E+00
 0.0000000000000E+00
 0.0000000000000E+00
 0.0000000000000E+00
 0.0000000000000E+00
 0.0000000000000E+00
 0.0000000000000E+00
 0.0000000000000E+00
 0.0000000000000E+00
 0.0000000000000E+00
 0.0000000000000E+00
 0.0000000000000E+00
 0.0000000000000E+00
 0.0000000000000E+00
 0.0000000000000E+00
 0.0000000000000E+00
 0.0000000000000E+00
 0.0000000000000E+00
 0.0000000000000E+00
 0.0000000000000E+00
 0.0000000000000E+00
 0.0000000000000E+00
 0.0000000000000E+00
 0.0000000000000E+00
 0.0000000000000E+00
 0.0000000000000E+00
 0.0000000000000E+00
 0.0000000000000E+00
 0.0000000000000E+00
 0.0000000000000E+00
 0.0000000000000E+00
 0.0000000000000E+00
 0.0000000000000E+00
 0.0000000000000E+00
 0.0000000000000E+00
 0.0000000000000E+00
 0.0000000000000E+00
 0.0000000000000E+00
 0.0000000000000E+00
 0.0000000000000E+00
 0.0000000000000E+00
 0.0000000000000E+00
 0.0000000000000E+00
 0.0000000000000E+00
 0.0000000000000E+00
 0.0000000000000E+00
 0.0000000000000E+00
 0.0000000000000E+00
 0.0000000000000E+00
 0.0000000000000E+00
 0.0000000000000E+00
 0.0000000000000E+00
 0.0000000000000E+00
 0.0000000000000E+00
 0.0000000000000E+00
 0.0000000000000E+00
 0.0000000000000E+00
 0.0000000000000E+00
 0.0000000000000E+00
 0.0000000000000E+00
 0.0000000000000E+00
 0.0000000000000E+00
 0.0000000000000E+00
 0.0000000000000E+00
 0.0000000000000E+00
 0.0000000000000E+00
 0.0000000000000E+00
 0.0000000000000E+00
 0.0000000000000E+00
 0.0000000000000E+00
 0.0000000000000E+00
 0.0000000000000E+00
 0.0000000000000E+00
 0.0000000000000E+00
 0.0000000000000E+00
 0.0000000000000E+00
 0.0000000000000E+00
 0.0000000000000E+00
 0.0000000000000E+00
 0.0000000000000E+00
 0.0000000000000E+00
 0.0000000000000E+00
 0.0000000000000E+00
 0.0000000000000E+00
 0.0000000000000E+00
 0.0000000000000E+00
 0.0000000000000E+00
 0.0000000000000E+00
 0.0000000000000E+00
 0.0000000000000E+00
 0.0000000000000E+00
 0.0000000000000E+00
 0.0000000000000E+00
 0.0000000000000E+00
 0.0000000000000E+00
 0.0000000000000E+00
 0.0000000000000E+00
 0.0000000000000E+00
 0.0000000000000E+00
 0.0000000000000E+00
 0.0000000000000E+00
 0.0000000000000E+00
 0.0000000000000E+00
 0.0000000000000E+00
 0.0000000000000E+00
 0.0000000000000E+00
 0.0000000000000E+00
 0.0000000000000E+00
 0.0000000000000E+00
 0.0000000000000E+00
 0.0000000000000E+00
 0.0000000000000E+00
 0.0000000000000E+00
 0.0000000000000E+00
 0.0000000000000E+00
 0.0000000000000E+00
 0.0000000000000E+00
 0.0000000000000E+00
 0.0000000000000E+00
 0.0000000000000E+00
 0.0000000000000E+00
 0.0000000000000E+00
 0.0000000000000E+00
 0.0000000000000E+00
 0.0000000000000E+00
 0.0000000000000E+00
 0.0000000000000E+00
 0.0000000000000E+00
 0.0000000000000E+00
 0.0000000000000E+00
 0.0000000000000E+00
 0.0000000000000E+00
 0.0000000000000E+00
 0.0000000000000E+00
 0.0000000000000E+00
 0.0000000000000E+00
 0.0000000000000E+00
 0.0000000000000E+00
 0.0000000000000E+00
 0.0000000000000E+00
 0.0000000000000E+00
 0.0000000000000E+00
 0.0000000000000E+00
 0.0000000000000E+00
 0.0000000000000E+00
 0.0000000000000E+00
 0.0000000000000E+00
 0.0000000000000E+00
 0.0000000000000E+00
 0.0000000000000E+00
 0.0000000000000E+00
 0.0000000000000E+00
 0.0000000000000E+00
 0.0000000000000E+00
 0.0000000000000E+00
 0.0000000000000E+00
 0.0000000000000E+00
 0.0000000000000E+00
 0.0000000000000E+00
 0.0000000000000E+00
 0.0000000000000E+00
 0.0000000000000E+00
 0.0000000000000E+00
 0.0000000000000E+00
 0.0000000000000E+00
 0.0000000000000E+00
 0.0000000000000E+00
 0.0000000000000E+00
 0.0000000000000E+00
 0.0000000000000E+00
 0.0000000000000E+00
 0.0000000000000E+00
 0.0000000000000E+00
 0.0000000000000E+00
 0.0000000000000E+00
 0.0000000000000E+00
 0.0000000000000E+00
 0.0000000000000E+00
 0.0000000000000E+00
 0.0000000000000E+00
 0.0000000000000E+00
 0.0000000000000E+00
 0.0000000000000E+00
 0.0000000000000E+00
 0.0000000000000E+00
 0.0000000000000E+00
 0.0000000000000E+00
 0.0000000000000E+00
 0.0000000000000E+00
 0.0000000000000E+00
 0.0000000000000E+00
 0.0000000000000E+00
 0.0000000000000E+00
 0.0000000000000E+00
 0.0000000000000E+00
 0.0000000000000E+00
 0.0000000000000E+00
 0.0000000000000E+00
 0.0000000000000E+00
 0.0000000000000E+00
 0.0000000000000E+00
 0.0000000000000E+00
 0.0000000000000E+00
 0.0000000000000E+00
 0.0000000000000E+00
 0.0000000000000E+00
 0.0000000000000E+00
 0.0000000000000E+00
 0.0000000000000E+00
 0.0000000000000E+00
 0.0000000000000E+00
 0.0000000000000E+00
 0.0000000000000E+00
 0.0000000000000E+00
 0.0000000000000E+00
 0.0000000000000E+00
 0.0000000000000E+00
 0.0000000000000E+00
 0.0000000000000E+00
 0.0000000000000E+00
 0.0000000000000E+00
 0.0000000000000E+00
 0.0000000000000E+00
 0.0000000000000E+00
 0.0000000000000E+00
 0.0000000000000E+00
 0.0000000000000E+00
 0.0000000000000E+00
 0.0000000000000E+00
 0.0000000000000E+00
 0.0000000000000E+00
 0.0000000000000E+00
 0.0000000000000E+00
 0.0000000000000E+00
 0.0000000000000E+00
 0.0000000000000E+00
 0.0000000000000E+00
 0.0000000000000E+00
 0.0000000000000E+00
 0.0000000000000E+00
 0.0000000000000E+00
 0.0000000000000E+00
 0.0000000000000E+00
 0.0000000000000E+00
 0.0000000000000E+00
 0.0000000000000E+00
 0.0000000000000E+00
 0.0000000000000E+00
 0.0000000000000E+00
 0.0000000000000E+00
 0.0000000000000E+00
 0.0000000000000E+00
 0.0000000000000E+00
 0.0000000000000E+00
 0.0000000000000E+00
 0.0000000000000E+00
 0.0000000000000E+00
 0.0000000000000E+00
 0.0000000000000E+00
 0.0000000000000E+00
 0.0000000000000E+00
 0.0000000000000E+00
 0.0000000000000E+00
 0.0000000000000E+00
 0.0000000000000E+00
 0.0000000000000E+00
 0.0000000000000E+00
 0.0000000000000E+00
 0.0000000000000E+00
 0.0000000000000E+00
 0.0000000000000E+00
 0.0000000000000E+00
 0.0000000000000E+00
 0.0000000000000E+00
 0.0000000000000E+00
 0.0000000000000E+00
 0.0000000000000E+00
 0.0000000000000E+00
 0.0000000000000E+00
 0.0000000000000E+00
 0.0000000000000E+00
 0.0000000000000E+00
 0.0000000000000E+00
 0.0000000000000E+00
 0.0000000000000E+00
 0.0000000000000E+00
 0.0000000000000E+00
 0.0000000000000E+00
 0.0000000000000E+00
 0.0000000000000E+00
 0.0000000000000E+00
 0.0000000000000E+00
 0.0000000000000E+00
 0.0000000000000E+00
 0.0000000000000E+00
 0.0000000000000E+00
 0.0000000000000E+00
 0.0000000000000E+00
 0.0000000000000E+00
 0.0000000000000E+00
 0.0000000000000E+00
 0.0000000000000E+00
 0.0000000000000E+00
 0.0000000000000E+00
 0.0000000000000E+00
 0.0000000000000E+00
 0.0000000000000E+00
 0.0000000000000E+00
 0.0000000000000E+00
 0.0000000000000E+00
 0.0000000000000E+00
 0.0000000000000E+00
 0.0000000000000E+00
 0.0000000000000E+00
 0.0000000000000E+00
 0.0000000000000E+00
 0.0000000000000E+00
 0.0000000000000E+00
 0.0000000000000E+00
 0.0000000000000E+00
 0.0000000000000E+00
 0.0000000000000E+00
 0.0000000000000E+00
 0.0000000000000E+00
 0.0000000000000E+00
 0.0000000000000E+00
 0.0000000000000E+00
 0.0000000000000E+00
 0.0000000000000E+00
 0.0000000000000E+00
 0.0000000000000E+00
 0.0000000000000E+00
 0.0000000000000E+00
 0.0000000000000E+00
 0.0000000000000E+00
 0.0000000000000E+00
 0.0000000000000E+00
 0.0000000000000E+00
 0.0000000000000E+00
 0.0000000000000E+00
 0.0000000000000E+00
 0.0000000000000E+00
 0.0000000000000E+00
 0.0000000000000E+00
 0.0000000000000E+00
 0.0000000000000E+00
 0.0000000000000E+00
 0.0000000000000E+00
 0.0000000000000E+00
 0.0000000000000E+00
 0.0000000000000E+00
 0.0000000000000E+00
 0.0000000000000E+00
 0.0000000000000E+00
 0.0000000000000E+00
 0.0000000000000E+00
 0.0000000000000E+00
 0.0000000000000E+00
 0.0000000000000E+00
 0.0000000000000E+00
 0.0000000000000E+00
 0.0000000000000E+00
 0.0000000000000E+00
 0.0000000000000E+00
 0.0000000000000E+00
 0.0000000000000E+00
 0.0000000000000E+00
 0.0000000000000E+00
 0.0000000000000E+00
 0.0000000000000E+00
 0.0000000000000E+00
 0.0000000000000E+00
 0.0000000000000E+00
 0.0000000000000E+00
 0.0000000000000E+00
 0.0000000000000E+00
 0.0000000000000E+00
 0.0000000000000E+00
 0.0000000000000E+00
 0.0000000000000E+00
 0.0000000000000E+00
 0.0000000000000E+00
 0.0000000000000E+00
 0.0000000000000E+00
 0.0000000000000E+00
 0.0000000000000E+00
 0.0000000000000E+00
 0.0000000000000E+00
 0.0000000000000E+00
 0.0000000000000E+00
 0.0000000000000E+00
 0.0000000000000E+00
 0.0000000000000E+00
 0.0000000000000E+00
 0.0000000000000E+00
 0.0000000000000E+00
 0.0000000000000E+00
 0.0000000000000E+00
 0.0000000000000E+00
 0.0000000000000E+00
 0.0000000000000E+00
 0.0000000000000E+00
 0.0000000000000E+00
 0.0000000000000E+00
 0.0000000000000E+00
 0.0000000000000E+00
 0.0000000000000E+00
 0.0000000000000E+00
 0.0000000000000E+00
 0.0000000000000E+00
 0.0000000000000E+00
 0.0000000000000E+00
 0.0000000000000E+00
 0.0000000000000E+00
 0.0000000000000E+00
 0.0000000000000E+00
 0.0000000000000E+00
 0.0000000000000E+00
 0.0000000000000E+00
 0.0000000000000E+00
 0.0000000000000E+00
 0.0000000000000E+00
 0.0000000000000E+00
 0.0000000000000E+00
 0.0000000000000E+00
 0.0000000000000E+00
 0.0000000000000E+00
 0.0000000000000E+00
 0.0000000000000E+00
 0.0000000000000E+00
 0.0000000000000E+00
 0.0000000000000E+00
 0.0000000000000E+00
 0.0000000000000E+00
 0.0000000000000E+00
 0.0000000000000E+00
 0.0000000000000E+00
 0.0000000000000E+00
 0.0000000000000E+00
 0.0000000000000E+00
 0.0000000000000E+00
 0.0000000000000E+00
 0.0000000000000E+00
 0.0000000000000E+00
 0.0000000000000E+00
 0.0000000000000E+00
 0.0000000000000E+00
 0.0000000000000E+00
 0.0000000000000E+00
 0.0000000000000E+00
 0.0000000000000E+00
 0.0000000000000E+00
 0.0000000000000E+00
 0.0000000000000E+00
 0.0000000000000E+00
 0.0000000000000E+00
 0.0000000000000E+00
 0.0000000000000E+00
 0.0000000000000E+00
 0.0000000000000E+00
 0.0000000000000E+00
 0.0000000000000E+00
 0.0000000000000E+00
 0.0000000000000E+00
 0.0000000000000E+00
 0.0000000000000E+00
 0.0000000000000E+00
 0.0000000000000E+00
 0.0000000000000E+00
 0.0000000000000E+00
 0.0000000000000E+00
 0.0000000000000E+00
 0.0000000000000E+00
 0.0000000000000E+00
 0.0000000000000E+00
 0.0000000000000E+00
 0.0000000000000E+00
 0.0000000000000E+00
 0.0000000000000E+00
 0.0000000000000E+00
 0.0000000000000E+00
 0.0000000000000E+00
 0.0000000000000E+00
 0.0000000000000E+00
 0.0000000000000E+00
 0.0000000000000E+00
 0.0000000000000E+00
 0.0000000000000E+00
 0.0000000000000E+00
 0.0000000000000E+00
 0.0000000000000E+00
 0.0000000000000E+00
 0.0000000000000E+00
 0.0000000000000E+00
 0.0000000000000E+00
 0.0000000000000E+00
 0.0000000000000E+00
 0.0000000000000E+00
 0.0000000000000E+00
 0.0000000000000E+00
 0.0000000000000E+00
 0.0000000000000E+00
 0.0000000000000E+00
 0.0000000000000E+00
 0.0000000000000E+00
 0.0000000000000E+00
 0.0000000000000E+00
 0.0000000000000E+00
 0.0000000000000E+00
 0.0000000000000E+00
 0.0000000000000E+00
 0.0000000000000E+00
 0.0000000000000E+00
 0.0000000000000E+00
 0.0000000000000E+00
 0.0000000000000E+00
 0.0000000000000E+00
 0.0000000000000E+00
 0.0000000000000E+00
 0.0000000000000E+00
 0.0000000000000E+00
 0.0000000000000E+00
 0.0000000000000E+00
 0.0000000000000E+00
 0.0000000000000E+00
 0.0000000000000E+00
 0.0000000000000E+00
 0.0000000000000E+00
 0.0000000000000E+00
 0.0000000000000E+00
 0.0000000000000E+00
 0.0000000000000E+00
 0.0000000000000E+00
 0.0000000000000E+00
 0.0000000000000E+00
 0.0000000000000E+00
 0.0000000000000E+00
 0.0000000000000E+00
 0.0000000000000E+00
 0.0000000000000E+00
 0.0000000000000E+00
 0.0000000000000E+00
 0.0000000000000E+00
 0.0000000000000E+00
 0.0000000000000E+00
 0.0000000000000E+00
 0.0000000000000E+00
 0.0000000000000E+00
 0.0000000000000E+00
 0.0000000000000E+00
 0.0000000000000E+00
 0.0000000000000E+00
 0.0000000000000E+00
 0.0000000000000E+00
 0.0000000000000E+00
 0.0000000000000E+00
 0.0000000000000E+00
 0.0000000000000E+00
 0.0000000000000E+00
 0.0000000000000E+00
 0.0000000000000E+00
 0.0000000000000E+00
 0.0000000000000E+00
 0.0000000000000E+00
 0.0000000000000E+00
 0.0000000000000E+00
 0.0000000000000E+00
 0.0000000000000E+00
 0.0000000000000E+00
 0.0000000000000E+00
 0.0000000000000E+00
 0.0000000000000E+00
 0.0000000000000E+00
 0.0000000000000E+00
 0.0000000000000E+00
 0.0000000000000E+00
 0.0000000000000E+00
 0.0000000000000E+00
 0.0000000000000E+00
 0.0000000000000E+00
 0.0000000000000E+00
 0.0000000000000E+00
 0.0000000000000E+00
 0.0000000000000E+00
 0.0000000000000E+00
 0.0000000000000E+00
 0.0000000000000E+00
 0.0000000000000E+00
 0.0000000000000E+00
 0.0000000000000E+00
 0.0000000000000E+00
 0.0000000000000E+00
 0.0000000000000E+00
 0.0000000000000E+00
 0.0000000000000E+00
 0.0000000000000E+00
 0.0000000000000E+00
 0.0000000000000E+00
 0.0000000000000E+00
 0.0000000000000E+00
 0.0000000000000E+00
 0.0000000000000E+00
 0.0000000000000E+00
 0.0000000000000E+00
 0.0000000000000E+00
 0.0000000000000E+00
 0.0000000000000E+00
 0.0000000000000E+00
 0.0000000000000E+00
 0.0000000000000E+00
 0.0000000000000E+00
 0.0000000000000E+00
 0.0000000000000E+00
 0.0000000000000E+00
 0.0000000000000E+00
 0.0000000000000E+00
 0.0000000000000E+00
 0.0000000000000E+00
 0.0000000000000E+00
 0.0000000000000E+00
 0.0000000000000E+00
 0.0000000000000E+00
 0.0000000000000E+00
 0.0000000000000E+00
 0.0000000000000E+00
 0.0000000000000E+00
 0.0000000000000E+00
 0.0000000000000E+00
 0.0000000000000E+00
 0.0000000000000E+00
 0.0000000000000E+00
 0.0000000000000E+00
 0.0000000000000E+00
 0.0000000000000E+00
 0.0000000000000E+00
 0.0000000000000E+00
 0.0000000000000E+00
 0.0000000000000E+00
 0.0000000000000E+00
 0.0000000000000E+00
 0.0000000000000E+00
 0.0000000000000E+00
 0.0000000000000E+00
 0.0000000000000E+00
 0.0000000000000E+00
 0.0000000000000E+00
 0.0000000000000E+00
 0.0000000000000E+00
 0.0000000000000E+00
 0.0000000000000E+00
 0.0000000000000E+00
 0.0000000000000E+00
 0.0000000000000E+00
 0.0000000000000E+00
 0.0000000000000E+00
 0.0000000000000E+00
 0.0000000000000E+00
 0.0000000000000E+00
 0.0000000000000E+00
 0.0000000000000E+00
 0.0000000000000E+00
 0.0000000000000E+00
 0.0000000000000E+00
 0.0000000000000E+00
 0.0000000000000E+00
 0.0000000000000E+00
 0.0000000000000E+00
 0.0000000000000E+00
 0.0000000000000E+00
 0.0000000000000E+00
 0.0000000000000E+00
 0.0000000000000E+00
 0.0000000000000E+00
 0.0000000000000E+00
 0.0000000000000E+00
 0.0000000000000E+00
 0.0000000000000E+00
 0.0000000000000E+00
 0.0000000000000E+00
 0.0000000000000E+00
 0.0000000000000E+00
 0.0000000000000E+00
 0.0000000000000E+00
 0.0000000000000E+00
 0.0000000000000E+00
 0.0000000000000E+00
 0.0000000000000E+00
 0.0000000000000E+00
 0.0000000000000E+00
 0.0000000000000E+00
 0.0000000000000E+00
 0.0000000000000E+00
 0.0000000000000E+00
 0.0000000000000E+00
 0.0000000000000E+00
 0.0000000000000E+00
 0.0000000000000E+00
 0.0000000000000E+00
 0.0000000000000E+00
 0.0000000000000E+00
 0.0000000000000E+00
 0.0000000000000E+00
 0.0000000000000E+00
 0.0000000000000E+00
 0.0000000000000E+00
 0.0000000000000E+00
 0.0000000000000E+00
 0.0000000000000E+00
 0.0000000000000E+00
 0.0000000000000E+00
 0.0000000000000E+00
 0.0000000000000E+00
 0.0000000000000E+00
 0.0000000000000E+00
 0.0000000000000E+00
 0.0000000000000E+00
 0.0000000000000E+00
 0.0000000000000E+00
 0.0000000000000E+00
 0.0000000000000E+00
 0.0000000000000E+00
 0.0000000000000E+00
 0.0000000000000E+00
 0.0000000000000E+00
 0.0000000000000E+00
 0.0000000000000E+00
 0.0000000000000E+00
 0.0000000000000E+00
 0.0000000000000E+00
 0.0000000000000E+00
 0.0000000000000E+00
 0.0000000000000E+00
 0.0000000000000E+00
 0.0000000000000E+00
 0.0000000000000E+00
 0.0000000000000E+00
 0.0000000000000E+00
 0.0000000000000E+00
 0.0000000000000E+00
 0.0000000000000E+00
 0.0000000000000E+00
 0.0000000000000E+00
 0.0000000000000E+00
 0.0000000000000E+00
 0.0000000000000E+00
 0.0000000000000E+00
 0.0000000000000E+00
 0.0000000000000E+00
 0.0000000000000E+00
 0.0000000000000E+00
 0.0000000000000E+00
 0.0000000000000E+00
 0.0000000000000E+00
 0.0000000000000E+00
 0.0000000000000E+00
 0.0000000000000E+00
 0.0000000000000E+00
 0.0000000000000E+00
 0.0000000000000E+00
 0.0000000000000E+00
 0.0000000000000E+00
 0.0000000000000E+00
 0.0000000000000E+00
 0.0000000000000E+00
 0.0000000000000E+00
 0.0000000000000E+00
 0.0000000000000E+00
 0.0000000000000E+00
 0.0000000000000E+00
 0.0000000000000E+00
 0.0000000000000E+00
 0.0000000000000E+00
 0.0000000000000E+00
 0.0000000000000E+00
 0.0000000000000E+00
 0.0000000000000E+00
 0.0000000000000E+00
 0.0000000000000E+00
 0.0000000000000E+00
 0.0000000000000E+00
 0.0000000000000E+00
 0.0000000000000E+00
 0.0000000000000E+00
 0.0000000000000E+00
 0.0000000000000E+00
 0.0000000000000E+00
 0.0000000000000E+00
 0.0000000000000E+00
 0.0000000000000E+00
 0.0000000000000E+00
 0.0000000000000E+00
 0.0000000000000E+00
 0.0000000000000E+00
 0.0000000000000E+00
 0.0000000000000E+00
 0.0000000000000E+00
 0.0000000000000E+00
 0.0000000000000E+00
 0.0000000000000E+00
 0.0000000000000E+00
 0.0000000000000E+00
 0.0000000000000E+00
 0.0000000000000E+00
 0.0000000000000E+00
 0.0000000000000E+00
 0.0000000000000E+00
 0.0000000000000E+00
 0.0000000000000E+00
 0.0000000000000E+00
 0.0000000000000E+00
 0.0000000000000E+00
 0.0000000000000E+00
 0.0000000000000E+00
 0.0000000000000E+00
 0.0000000000000E+00
 0.0000000000000E+00
 0.0000000000000E+00
 0.0000000000000E+00
 0.0000000000000E+00
 0.0000000000000E+00
 0.0000000000000E+00
 0.0000000000000E+00
 0.0000000000000E+00
 0.0000000000000E+00
 0.0000000000000E+00
 0.0000000000000E+00
 0.0000000000000E+00
 0.0000000000000E+00
 0.0000000000000E+00
 0.0000000000000E+00
 0.0000000000000E+00
 0.0000000000000E+00
 0.0000000000000E+00
 0.0000000000000E+00
 0.0000000000000E+00
 0.0000000000000E+00
 0.0000000000000E+00
 0.0000000000000E+00
 0.0000000000000E+00
 0.0000000000000E+00
 0.0000000000000E+00
 0.0000000000000E+00
 0.0000000000000E+00
 0.0000000000000E+00
 0.0000000000000E+00
 0.0000000000000E+00
 0.0000000000000E+00
 0.0000000000000E+00
 0.0000000000000E+00
 0.0000000000000E+00
 0.0000000000000E+00
 0.0000000000000E+00
 0.0000000000000E+00
 0.0000000000000E+00
 0.0000000000000E+00
 0.0000000000000E+00
 0.0000000000000E+00
 0.0000000000000E+00
 0.0000000000000E+00
 0.0000000000000E+00
 0.0000000000000E+00
 0.0000000000000E+00
 0.0000000000000E+00
 0.0000000000000E+00
 0.0000000000000E+00
 0.0000000000000E+00
 0.0000000000000E+00
 0.0000000000000E+00
 0.0000000000000E+00
 0.0000000000000E+00
 0.0000000000000E+00
 0.0000000000000E+00
 0.0000000000000E+00
 0.0000000000000E+00
 0.0000000000000E+00
 0.0000000000000E+00
 0.0000000000000E+00
 0.0000000000000E+00
 0.0000000000000E+00
 0.0000000000000E+00
 0.0000000000000E+00
 0.0000000000000E+00
 0.0000000000000E+00
 0.0000000000000E+00
 0.0000000000000E+00
 0.0000000000000E+00
 0.0000000000000E+00
 0.0000000000000E+00
 0.0000000000000E+00
 0.0000000000000E+00
 0.0000000000000E+00
 0.0000000000000E+00
 0.0000000000000E+00
 0.0000000000000E+00
 0.0000000000000E+00
 0.0000000000000E+00
 0.0000000000000E+00
 0.0000000000000E+00
 0.0000000000000E+00
 0.0000000000000E+00
 0.0000000000000E+00
 0.0000000000000E+00
 0.0000000000000E+00
 0.0000000000000E+00
 0.0000000000000E+00
 0.0000000000000E+00
 0.0000000000000E+00
 0.0000000000000E+00
 0.0000000000000E+00
 0.0000000000000E+00
 0.0000000000000E+00
 0.0000000000000E+00
 0.0000000000000E+00
 0.0000000000000E+00
 0.0000000000000E+00
 0.0000000000000E+00
 0.0000000000000E+00
 0.0000000000000E+00
 0.0000000000000E+00
 0.0000000000000E+00
 0.0000000000000E+00
 0.0000000000000E+00
 0.0000000000000E+00
 0.0000000000000E+00
 0.0000000000000E+00
 0.0000000000000E+00
 0.0000000000000E+00
 0.0000000000000E+00
 0.0000000000000E+00
 0.0000000000000E+00
 0.0000000000000E+00
 0.0000000000000E+00
 0.0000000000000E+00
 0.0000000000000E+00
 0.0000000000000E+00
 0.0000000000000E+00
 0.0000000000000E+00
 0.0000000000000E+00
 0.0000000000000E+00
 0.0000000000000E+00
 0.0000000000000E+00
 0.0000000000000E+00
 0.0000000000000E+00
 0.0000000000000E+00
 0.0000000000000E+00
 0.0000000000000E+00
 0.0000000000000E+00
 0.0000000000000E+00
 0.0000000000000E+00
 0.0000000000000E+00
 0.0000000000000E+00
 0.0000000000000E+00
 0.0000000000000E+00
 0.0000000000000E+00
 0.0000000000000E+00
 0.0000000000000E+00
 0.0000000000000E+00
 0.0000000000000E+00
 0.0000000000000E+00
 0.0000000000000E+00
 0.0000000000000E+00
 0.0000000000000E+00
 0.0000000000000E+00
 0.0000000000000E+00
 0.0000000000000E+00
 0.0000000000000E+00
 0.0000000000000E+00
 0.0000000000000E+00
 0.0000000000000E+00
 0.0000000000000E+00
 0.0000000000000E+00
 0.0000000000000E+00
 0.0000000000000E+00
 0.0000000000000E+00
 0.0000000000000E+00
 0.0000000000000E+00
 0.0000000000000E+00
 0.0000000000000E+00
 0.0000000000000E+00
 0.0000000000000E+00
 0.0000000000000E+00
 0.0000000000000E+00
 0.0000000000000E+00
 0.0000000000000E+00
 0.0000000000000E+00
 0.0000000000000E+00
 0.0000000000000E+00
 0.0000000000000E+00
 0.0000000000000E+00
 0.0000000000000E+00
 0.0000000000000E+00
 0.0000000000000E+00
 0.0000000000000E+00
 0.0000000000000E+00
 0.0000000000000E+00
 0.0000000000000E+00
 0.0000000000000E+00
 0.0000000000000E+00
 0.0000000000000E+00
 0.0000000000000E+00
 0.0000000000000E+00
 0.0000000000000E+00
 0.0000000000000E+00
 0.0000000000000E+00
 0.0000000000000E+00
 0.0000000000000E+00
 0.0000000000000E+00
 0.0000000000000E+00
 0.0000000000000E+00
 0.0000000000000E+00
 0.0000000000000E+00
 0.0000000000000E+00
 0.0000000000000E+00
 0.0000000000000E+00
 0.0000000000000E+00
 0.0000000000000E+00
 0.0000000000000E+00
 0.0000000000000E+00
 0.0000000000000E+00
 0.0000000000000E+00
 0.0000000000000E+00
 0.0000000000000E+00
 0.0000000000000E+00
 0.0000000000000E+00
 0.0000000000000E+00
 0.0000000000000E+00
 0.0000000000000E+00
 0.0000000000000E+00
 0.0000000000000E+00
 0.0000000000000E+00
 0.0000000000000E+00
 0.0000000000000E+00
 0.0000000000000E+00
 0.0000000000000E+00
 0.0000000000000E+00
 0.0000000000000E+00
 0.0000000000000E+00
 0.0000000000000E+00
 0.0000000000000E+00
 0.0000000000000E+00
 0.0000000000000E+00
 0.0000000000000E+00
 0.0000000000000E+00
 0.0000000000000E+00
 0.0000000000000E+00
 0.0000000000000E+00
 0.0000000000000E+00
 0.0000000000000E+00
 0.0000000000000E+00
 0.0000000000000E+00
 0.0000000000000E+00
 0.0000000000000E+00
 0.0000000000000E+00
 0.0000000000000E+00
 0.0000000000000E+00
 0.0000000000000E+00
 0.0000000000000E+00
 0.0000000000000E+00
 0.0000000000000E+00
 0.0000000000000E+00
 0.0000000000000E+00
 0.0000000000000E+00
 0.0000000000000E+00
 0.0000000000000E+00
 0.0000000000000E+00
 0.0000000000000E+00
 0.0000000000000E+00
 0.0000000000000E+00
 0.0000000000000E+00
 0.0000000000000E+00
 0.0000000000000E+00
 0.0000000000000E+00
 0.0000000000000E+00
 0.0000000000000E+00
 0.0000000000000E+00
 0.0000000000000E+00
 0.0000000000000E+00
 0.0000000000000E+00
 0.0000000000000E+00
 0.0000000000000E+00
 0.0000000000000E+00
 0.0000000000000E+00
 0.0000000000000E+00
 0.0000000000000E+00
 0.0000000000000E+00
 0.0000000000000E+00
 0.0000000000000E+00
 0.0000000000000E+00
 0.0000000000000E+00
 0.0000000000000E+00
 0.0000000000000E+00
 0.0000000000000E+00
 0.0000000000000E+00
 0.0000000000000E+00
 0.0000000000000E+00
 0.0000000000000E+00
 0.0000000000000E+00
 0.0000000000000E+00
 0.0000000000000E+00
 0.0000000000000E+00
 0.0000000000000E+00
 0.0000000000000E+00
 0.0000000000000E+00
 0.0000000000000E+00
 0.0000000000000E+00
 0.0000000000000E+00
 0.0000000000000E+00
 0.0000000000000E+00
 0.0000000000000E+00
 0.0000000000000E+00
 0.0000000000000E+00
 0.0000000000000E+00
 0.0000000000000E+00
 0.0000000000000E+00
 0.0000000000000E+00
 0.0000000000000E+00
 0.0000000000000E+00
 0.0000000000000E+00
 0.0000000000000E+00
 0.0000000000000E+00
 0.0000000000000E+00
 0.0000000000000E+00
 0.0000000000000E+00
 0.0000000000000E+00
 0.0000000000000E+00
 0.0000000000000E+00
 0.0000000000000E+00
 0.0000000000000E+00
 0.0000000000000E+00
 0.0000000000000E+00
 0.0000000000000E+00
 0.0000000000000E+00
 0.0000000000000E+00
 0.0000000000000E+00
 0.0000000000000E+00
 0.0000000000000E+00
 0.0000000000000E+00
 0.0000000000000E+00
 0.0000000000000E+00
 0.0000000000000E+00
 0.0000000000000E+00
 0.0000000000000E+00
 0.0000000000000E+00
 0.0000000000000E+00
 0.0000000000000E+00
 0.0000000000000E+00
 0.0000000000000E+00
 0.0000000000000E+00
 0.0000000000000E+00
 0.0000000000000E+00
 0.0000000000000E+00
 0.0000000000000E+00
 0.0000000000000E+00
 0.0000000000000E+00
 0.0000000000000E+00
 0.0000000000000E+00
 0.0000000000000E+00
 0.0000000000000E+00
 0.0000000000000E+00
 0.0000000000000E+00
 0.0000000000000E+00
 0.0000000000000E+00
 0.0000000000000E+00
 0.0000000000000E+00
 0.0000000000000E+00
 0.0000000000000E+00
 0.0000000000000E+00
 0.0000000000000E+00
 0.0000000000000E+00
 0.0000000000000E+00
 0.0000000000000E+00
 0.0000000000000E+00
 0.0000000000000E+00
 0.0000000000000E+00
 0.0000000000000E+00
 0.0000000000000E+00
 0.0000000000000E+00
 0.0000000000000E+00
 0.0000000000000E+00
 0.0000000000000E+00
 0.0000000000000E+00
 0.0000000000000E+00
 0.0000000000000E+00
 0.0000000000000E+00
 0.0000000000000E+00
 0.0000000000000E+00
 0.0000000000000E+00
 0.0000000000000E+00
 0.0000000000000E+00
 0.0000000000000E+00
 0.0000000000000E+00
 0.0000000000000E+00
 0.0000000000000E+00
 0.0000000000000E+00
 0.0000000000000E+00
 0.0000000000000E+00
 0.0000000000000E+00
 0.0000000000000E+00
 0.0000000000000E+00
 0.0000000000000E+00
 0.0000000000000E+00
 0.0000000000000E+00
 0.0000000000000E+00
 0.0000000000000E+00
 0.0000000000000E+00
 0.0000000000000E+00
 0.0000000000000E+00
 0.0000000000000E+00
 0.0000000000000E+00
 0.0000000000000E+00
 0.0000000000000E+00
 0.0000000000000E+00
 0.0000000000000E+00
 0.0000000000000E+00
 0.0000000000000E+00
 0.0000000000000E+00
 0.0000000000000E+00
 0.0000000000000E+00
 0.0000000000000E+00
 0.0000000000000E+00
 0.0000000000000E+00
 0.0000000000000E+00
 0.0000000000000E+00
 0.0000000000000E+00
 0.0000000000000E+00
 0.0000000000000E+00
 0.0000000000000E+00
 0.0000000000000E+00
 0.0000000000000E+00
 0.0000000000000E+00
 0.0000000000000E+00
 0.0000000000000E+00
 0.0000000000000E+00
 0.0000000000000E+00
 0.0000000000000E+00
 0.0000000000000E+00
 0.0000000000000E+00
 0.0000000000000E+00
 0.0000000000000E+00
 0.0000000000000E+00
 0.0000000000000E+00
 0.0000000000000E+00
 0.0000000000000E+00
 0.0000000000000E+00
 0.0000000000000E+00
 0.0000000000000E+00
 0.0000000000000E+00
 0.0000000000000E+00
 0.0000000000000E+00
 0.0000000000000E+00
 0.0000000000000E+00
 0.0000000000000E+00
 0.0000000000000E+00
 0.0000000000000E+00
 0.0000000000000E+00
 0.0000000000000E+00
 0.0000000000000E+00
 0.0000000000000E+00
 0.0000000000000E+00
 0.0000000000000E+00
 0.0000000000000E+00
 0.0000000000000E+00
 0.0000000000000E+00
 0.0000000000000E+00
 0.0000000000000E+00
 0.0000000000000E+00
 0.0000000000000E+00
 0.0000000000000E+00
 0.0000000000000E+00
 0.0000000000000E+00
 0.0000000000000E+00
 0.0000000000000E+00
 0.0000000000000E+00
 0.0000000000000E+00
 0.0000000000000E+00
 0.0000000000000E+00
 0.0000000000000E+00
 0.0000000000000E+00
 0.0000000000000E+00
 0.0000000000000E+00
 0.0000000000000E+00
 0.0000000000000E+00
 0.0000000000000E+00
 0.0000000000000E+00
 0.0000000000000E+00
 0.0000000000000E+00
 0.0000000000000E+00
 0.0000000000000E+00
 0.0000000000000E+00
 0.0000000000000E+00
 0.0000000000000E+00
 0.0000000000000E+00
 0.0000000000000E+00
 0.0000000000000E+00
 0.0000000000000E+00
 0.0000000000000E+00
 0.0000000000000E+00
 0.0000000000000E+00
 0.0000000000000E+00
 0.0000000000000E+00
 0.0000000000000E+00
 0.0000000000000E+00
 0.0000000000000E+00
 0.0000000000000E+00
 0.0000000000000E+00
 0.0000000000000E+00
 0.0000000000000E+00
 0.0000000000000E+00
 0.0000000000000E+00
 0.0000000000000E+00
 0.0000000000000E+00
 0.0000000000000E+00
 0.0000000000000E+00
 0.0000000000000E+00
 0.0000000000000E+00
 0.0000000000000E+00
 0.0000000000000E+00
 0.0000000000000E+00
 0.0000000000000E+00
 0.0000000000000E+00
 0.0000000000000E+00
 0.0000000000000E+00
 0.0000000000000E+00
 0.0000000000000E+00
 0.0000000000000E+00
 0.0000000000000E+00
 0.0000000000000E+00
 0.0000000000000E+00
 0.0000000000000E+00
 0.0000000000000E+00
 0.0000000000000E+00
 0.0000000000000E+00
 0.0000000000000E+00
 0.0000000000000E+00
 0.0000000000000E+00
 0.0000000000000E+00
 0.0000000000000E+00
 0.0000000000000E+00
 0.0000000000000E+00
 0.0000000000000E+00
 0.0000000000000E+00
 0.0000000000000E+00
 0.0000000000000E+00
 0.0000000000000E+00
 0.0000000000000E+00
 0.0000000000000E+00
 0.0000000000000E+00
 0.0000000000000E+00
 0.0000000000000E+00
 0.0000000000000E+00
 0.0000000000000E+00
 0.0000000000000E+00
 0.0000000000000E+00
 0.0000000000000E+00
 0.0000000000000E+00
 0.0000000000000E+00
 0.0000000000000E+00
 0.0000000000000E+00
 0.0000000000000E+00
 0.0000000000000E+00
 0.0000000000000E+00
 0.0000000000000E+00
 0.0000000000000E+00
 0.0000000000000E+00
 0.0000000000000E+00
 0.0000000000000E+00
 0.0000000000000E+00
 0.0000000000000E+00
 0.0000000000000E+00
 0.0000000000000E+00
 0.0000000000000E+00
 0.0000000000000E+00
 0.0000000000000E+00
 0.0000000000000E+00
 0.0000000000000E+00
 0.0000000000000E+00
 0.0000000000000E+00
 0.0000000000000E+00
 0.0000000000000E+00
 0.0000000000000E+00
 0.0000000000000E+00
 0.0000000000000E+00
 0.0000000000000E+00
 0.0000000000000E+00
 0.0000000000000E+00
 0.0000000000000E+00
 0.0000000000000E+00
 0.0000000000000E+00
 0.0000000000000E+00
 0.0000000000000E+00
 0.0000000000000E+00
 0.0000000000000E+00
 0.0000000000000E+00
 0.0000000000000E+00
 0.0000000000000E+00
 0.0000000000000E+00
 0.0000000000000E+00
 0.0000000000000E+00
 0.0000000000000E+00
 0.0000000000000E+00
 0.0000000000000E+00
 0.0000000000000E+00
 0.0000000000000E+00
 0.0000000000000E+00
 0.0000000000000E+00
 0.0000000000000E+00
 0.0000000000000E+00
 0.0000000000000E+00
 0.0000000000000E+00
 0.0000000000000E+00
 0.0000000000000E+00
 0.0000000000000E+00
 0.0000000000000E+00
 0.0000000000000E+00
 0.0000000000000E+00
 0.0000000000000E+00
 0.0000000000000E+00
 0.0000000000000E+00
 0.0000000000000E+00
 0.0000000000000E+00
 0.0000000000000E+00
 0.0000000000000E+00
 0.0000000000000E+00
 0.0000000000000E+00
 0.0000000000000E+00
 0.0000000000000E+00
 0.0000000000000E+00
 0.0000000000000E+00
 0.0000000000000E+00
 0.0000000000000E+00
 0.0000000000000E+00
 0.0000000000000E+00
 0.0000000000000E+00
 0.0000000000000E+00
 0.0000000000000E+00
 0.0000000000000E+00
 0.0000000000000E+00
 0.0000000000000E+00
 0.0000000000000E+00
 0.0000000000000E+00
 0.0000000000000E+00
 0.0000000000000E+00
 0.0000000000000E+00
 0.0000000000000E+00
 0.0000000000000E+00
 0.0000000000000E+00
 0.0000000000000E+00
 0.0000000000000E+00
 0.0000000000000E+00
 0.0000000000000E+00
 0.0000000000000E+00
 0.0000000000000E+00
 0.0000000000000E+00
 0.0000000000000E+00
 0.0000000000000E+00
 0.0000000000000E+00
 0.0000000000000E+00
 0.0000000000000E+00
 0.0000000000000E+00
 0.0000000000000E+00
 0.0000000000000E+00
 0.0000000000000E+00
 0.0000000000000E+00
 0.0000000000000E+00
 0.0000000000000E+00
 0.0000000000000E+00
 0.0000000000000E+00
 0.0000000000000E+00
 0.0000000000000E+00
 0.0000000000000E+00
 0.0000000000000E+00
 0.0000000000000E+00
 0.0000000000000E+00
 0.0000000000000E+00
 0.0000000000000E+00
 0.0000000000000E+00
 0.0000000000000E+00
 0.0000000000000E+00
 0.0000000000000E+00
 0.0000000000000E+00
 0.0000000000000E+00
 0.0000000000000E+00
 0.0000000000000E+00
 0.0000000000000E+00
 0.0000000000000E+00
 0.0000000000000E+00
 0.0000000000000E+00
 0.0000000000000E+00
 0.0000000000000E+00
 0.0000000000000E+00
 0.0000000000000E+00
 0.0000000000000E+00
 0.0000000000000E+00
 0.0000000000000E+00
 0.0000000000000E+00
 0.0000000000000E+00
 0.0000000000000E+00
 0.0000000000000E+00
 0.0000000000000E+00
 0.0000000000000E+00
 0.0000000000000E+00
 0.0000000000000E+00
 0.0000000000000E+00
 0.0000000000000E+00
 0.0000000000000E+00
 0.0000000000000E+00
 0.0000000000000E+00
 0.0000000000000E+00
 0.0000000000000E+00
 0.0000000000000E+00
 0.0000000000000E+00
 0.0000000000000E+00
 0.0000000000000E+00
 0.0000000000000E+00
 0.0000000000000E+00
 0.0000000000000E+00
 0.0000000000000E+00
 0.0000000000000E+00
 0.0000000000000E+00
 0.0000000000000E+00
 0.0000000000000E+00
 0.0000000000000E+00
 0.0000000000000E+00
 0.0000000000000E+00
 0.0000000000000E+00
 0.0000000000000E+00
 0.0000000000000E+00
 0.0000000000000E+00
 0.0000000000000E+00
 0.0000000000000E+00
 0.0000000000000E+00
 0.0000000000000E+00
 0.0000000000000E+00
 0.0000000000000E+00
 0.0000000000000E+00
 0.0000000000000E+00
 0.0000000000000E+00
 0.0000000000000E+00
 0.0000000000000E+00
 0.0000000000000E+00
 0.0000000000000E+00
 0.0000000000000E+00
 0.0000000000000E+00
 0.0000000000000E+00
 0.0000000000000E+00
 0.0000000000000E+00
 0.0000000000000E+00
 0.0000000000000E+00
 0.0000000000000E+00
 0.0000000000000E+00
 0.0000000000000E+00
 0.0000000000000E+00
 0.0000000000000E+00
 0.0000000000000E+00
 0.0000000000000E+00
 0.0000000000000E+00
 0.0000000000000E+00
 0.0000000000000E+00
 0.0000000000000E+00
 0.0000000000000E+00
 0.0000000000000E+00
 0.0000000000000E+00
 0.0000000000000E+00
 0.0000000000000E+00
 0.0000000000000E+00
 0.0000000000000E+00
 0.0000000000000E+00
 0.0000000000000E+00
 0.0000000000000E+00
 0.0000000000000E+00
 0.0000000000000E+00
 0.0000000000000E+00
 0.0000000000000E+00
 0.0000000000000E+00
 0.0000000000000E+00
 0.0000000000000E+00
 0.0000000000000E+00
 0.0000000000000E+00
 0.0000000000000E+00
 0.0000000000000E+00
 0.0000000000000E+00
 0.0000000000000E+00
 0.0000000000000E+00
 0.0000000000000E+00
 0.0000000000000E+00
 0.0000000000000E+00
 0.0000000000000E+00
 0.0000000000000E+00
 0.0000000000000E+00
 0.0000000000000E+00
 0.0000000000000E+00
 0.0000000000000E+00
 0.0000000000000E+00
 0.0000000000000E+00
 0.0000000000000E+00
 0.0000000000000E+00
 0.0000000000000E+00
 0.0000000000000E+00
 0.0000000000000E+00
 0.0000000000000E+00
 0.0000000000000E+00
 0.0000000000000E+00
 0.0000000000000E+00
 0.0000000000000E+00
 0.0000000000000E+00
 0.0000000000000E+00
 0.0000000000000E+00
 0.0000000000000E+00
 0.0000000000000E+00
 0.0000000000000E+00
 0.0000000000000E+00
 0.0000000000000E+00
 0.0000000000000E+00
 0.0000000000000E+00
 0.0000000000000E+00
 0.0000000000000E+00
 0.0000000000000E+00
 0.0000000000000E+00
 0.0000000000000E+00
 0.0000000000000E+00
 0.0000000000000E+00
 0.0000000000000E+00
 0.0000000000000E+00
 0.0000000000000E+00
 0.0000000000000E+00
 0.0000000000000E+00
 0.0000000000000E+00
 0.0000000000000E+00
 0.0000000000000E+00
 0.0000000000000E+00
 0.0000000000000E+00
 0.0000000000000E+00
 0.0000000000000E+00
 0.0000000000000E+00
 0.0000000000000E+00
 0.0000000000000E+00
 0.0000000000000E+00
 0.0000000000000E+00
 0.0000000000000E+00
 0.0000000000000E+00
 0.0000000000000E+00
 0.0000000000000E+00
 0.0000000000000E+00
 0.0000000000000E+00
 0.0000000000000E+00
 0.0000000000000E+00
 0.0000000000000E+00
 0.0000000000000E+00
 0.0000000000000E+00
 0.0000000000000E+00
 0.0000000000000E+00
 0.0000000000000E+00
 0.0000000000000E+00
 0.0000000000000E+00
 0.0000000000000E+00
 0.0000000000000E+00
 0.0000000000000E+00
 0.0000000000000E+00
 0.0000000000000E+00
 0.0000000000000E+00
 0.0000000000000E+00
 0.0000000000000E+00
 0.0000000000000E+00
 0.0000000000000E+00
 0.0000000000000E+00
 0.0000000000000E+00
 0.0000000000000E+00
 0.0000000000000E+00
 0.0000000000000E+00
 0.0000000000000E+00
 0.0000000000000E+00
 0.0000000000000E+00
 0.0000000000000E+00
 0.0000000000000E+00
 0.0000000000000E+00
 0.0000000000000E+00
 0.0000000000000E+00
 0.0000000000000E+00
 0.0000000000000E+00
 0.0000000000000E+00
 0.0000000000000E+00
 0.0000000000000E+00
 0.0000000000000E+00
 0.0000000000000E+00
 0.0000000000000E+00
 0.0000000000000E+00
 0.0000000000000E+00
 0.0000000000000E+00
 0.0000000000000E+00
 0.0000000000000E+00
 0.0000000000000E+00
 0.0000000000000E+00
 0.0000000000000E+00
 0.0000000000000E+00
 0.0000000000000E+00
 0.0000000000000E+00
 0.0000000000000E+00
 0.0000000000000E+00
 0.0000000000000E+00
 0.0000000000000E+00
 0.0000000000000E+00
 0.0000000000000E+00
 0.0000000000000E+00
 0.0000000000000E+00
 0.0000000000000E+00
 0.0000000000000E+00
 0.0000000000000E+00
 0.0000000000000E+00
 0.0000000000000E+00
 0.0000000000000E+00
 0.0000000000000E+00
 0.0000000000000E+00
 0.0000000000000E+00
 0.0000000000000E+00
 0.0000000000000E+00
 0.0000000000000E+00
 0.0000000000000E+00
 0.0000000000000E+00
 0.0000000000000E+00
 0.0000000000000E+00
 0.0000000000000E+00
 0.0000000000000E+00
 0.0000000000000E+00
 0.0000000000000E+00
 0.0000000000000E+00
 0.0000000000000E+00
 0.0000000000000E+00
 0.0000000000000E+00
 0.0000000000000E+00
 0.0000000000000E+00
 0.0000000000000E+00
 0.0000000000000E+00
 0.0000000000000E+00
 0.0000000000000E+00
 0.0000000000000E+00
 0.0000000000000E+00
 0.0000000000000E+00
 0.0000000000000E+00
 0.0000000000000E+00
 0.0000000000000E+00
 0.0000000000000E+00
 0.0000000000000E+00
 0.0000000000000E+00
 0.0000000000000E+00
 0.0000000000000E+00
 0.0000000000000E+00
 0.0000000000000E+00
 0.0000000000000E+00
 0.0000000000000E+00
 0.0000000000000E+00
 0.0000000000000E+00
 0.0000000000000E+00
 0.0000000000000E+00
 0.0000000000000E+00
 0.0000000000000E+00
 0.0000000000000E+00
 0.0000000000000E+00
 0.0000000000000E+00
 0.0000000000000E+00
 0.0000000000000E+00
 0.0000000000000E+00
 0.0000000000000E+00
 0.0000000000000E+00
 0.0000000000000E+00
 0.0000000000000E+00
 0.0000000000000E+00
 0.0000000000000E+00
 0.0000000000000E+00
 0.0000000000000E+00
 0.0000000000000E+00
 0.0000000000000E+00
 0.0000000000000E+00
 0.0000000000000E+00
 0.0000000000000E+00
 0.0000000000000E+00
 0.0000000000000E+00
 0.0000000000000E+00
 0.0000000000000E+00
 0.0000000000000E+00
 0.0000000000000E+00
 0.0000000000000E+00
 0.0000000000000E+00
 0.0000000000000E+00
 0.0000000000000E+00
 0.0000000000000E+00
 0.0000000000000E+00
 0.0000000000000E+00
 0.0000000000000E+00
 0.0000000000000E+00
 0.0000000000000E+00
 0.0000000000000E+00
 0.0000000000000E+00
 0.0000000000000E+00
 0.0000000000000E+00
 0.0000000000000E+00
 0.0000000000000E+00
 0.0000000000000E+00
 0.0000000000000E+00
 0.0000000000000E+00
 0.0000000000000E+00
 0.0000000000000E+00
 0.0000000000000E+00
 0.0000000000000E+00
 0.0000000000000E+00
 0.0000000000000E+00
 0.0000000000000E+00
 0.0000000000000E+00
 0.0000000000000E+00
 0.0000000000000E+00
 0.0000000000000E+00
 0.0000000000000E+00
 0.0000000000000E+00
 0.0000000000000E+00
 0.0000000000000E+00
 0.0000000000000E+00
 0.0000000000000E+00
 0.0000000000000E+00
 0.0000000000000E+00
 0.0000000000000E+00
 0.0000000000000E+00
 0.0000000000000E+00
 0.0000000000000E+00
 0.0000000000000E+00
 0.0000000000000E+00
 0.0000000000000E+00
 0.0000000000000E+00
 0.0000000000000E+00
 0.0000000000000E+00
 0.0000000000000E+00
 0.0000000000000E+00
 0.0000000000000E+00
 0.0000000000000E+00
 0.0000000000000E+00
 0.0000000000000E+00
 0.0000000000000E+00
 0.0000000000000E+00
 0.0000000000000E+00
 0.0000000000000E+00
 0.0000000000000E+00
 0.0000000000000E+00
 0.0000000000000E+00
 0.0000000000000E+00
 0.0000000000000E+00
 0.0000000000000E+00
 0.0000000000000E+00
 0.0000000000000E+00
 0.0000000000000E+00
 0.0000000000000E+00
 0.0000000000000E+00
 0.0000000000000E+00
 0.0000000000000E+00
 0.0000000000000E+00
 0.0000000000000E+00
 0.0000000000000E+00
 0.0000000000000E+00
 0.0000000000000E+00
 0.0000000000000E+00
 0.0000000000000E+00
 0.0000000000000E+00
 0.0000000000000E+00
 0.0000000000000E+00
 0.0000000000000E+00
 0.0000000000000E+00
 0.0000000000000E+00
 0.0000000000000E+00
 0.0000000000000E+00
 0.0000000000000E+00
 0.0000000000000E+00
 0.0000000000000E+00
 0.0000000000000E+00
 0.0000000000000E+00
 0.0000000000000E+00
 0.0000000000000E+00
 0.0000000000000E+00
 0.0000000000000E+00
 0.0000000000000E+00
 0.0000000000000E+00
 0.0000000000000E+00
 0.0000000000000E+00
 0.0000000000000E+00
 0.0000000000000E+00
 0.0000000000000E+00
 0.0000000000000E+00
 0.0000000000000E+00
 0.0000000000000E+00
 0.0000000000000E+00
 0.0000000000000E+00
 0.0000000000000E+00
 0.0000000000000E+00
 0.0000000000000E+00
 0.0000000000000E+00
 0.0000000000000E+00
 0.0000000000000E+00
 0.0000000000000E+00
 0.0000000000000E+00
 0.0000000000000E+00
 0.0000000000000E+00
 0.0000000000000E+00
 0.0000000000000E+00
 0.0000000000000E+00
 0.0000000000000E+00
 0.0000000000000E+00
 0.0000000000000E+00
 0.0000000000000E+00
 0.0000000000000E+00
 0.0000000000000E+00
 0.0000000000000E+00
 0.0000000000000E+00
 0.0000000000000E+00
 0.0000000000000E+00
 0.0000000000000E+00
 0.0000000000000E+00
 0.0000000000000E+00
 0.0000000000000E+00
 0.0000000000000E+00
 0.0000000000000E+00
 0.0000000000000E+00
 0.0000000000000E+00
 0.0000000000000E+00
 0.0000000000000E+00
 0.0000000000000E+00
 0.0000000000000E+00
 0.0000000000000E+00
 0.0000000000000E+00
 0.0000000000000E+00
 0.0000000000000E+00
 0.0000000000000E+00
 0.0000000000000E+00
 0.0000000000000E+00
 0.0000000000000E+00
 0.0000000000000E+00
 0.0000000000000E+00
 0.0000000000000E+00
 0.0000000000000E+00
 0.0000000000000E+00
 0.0000000000000E+00
 0.0000000000000E+00
 0.0000000000000E+00
 0.0000000000000E+00
 0.0000000000000E+00
 0.0000000000000E+00
 0.0000000000000E+00
 0.0000000000000E+00
 0.0000000000000E+00
 0.0000000000000E+00
 0.0000000000000E+00
 0.0000000000000E+00
 0.0000000000000E+00
 0.0000000000000E+00
 0.0000000000000E+00
 0.0000000000000E+00
 0.0000000000000E+00
 0.0000000000000E+00
 0.0000000000000E+00
 0.0000000000000E+00
 0.0000000000000E+00
 0.0000000000000E+00
 0.0000000000000E+00
 0.0000000000000E+00
 0.0000000000000E+00
 0.0000000000000E+00
 0.0000000000000E+00
 0.0000000000000E+00
 0.0000000000000E+00
 0.0000000000000E+00
 0.0000000000000E+00
 0.0000000000000E+00
 0.0000000000000E+00
 0.0000000000000E+00
 0.0000000000000E+00
 0.0000000000000E+00
 0.0000000000000E+00
 0.0000000000000E+00
 0.0000000000000E+00
 0.0000000000000E+00
 0.0000000000000E+00
 0.0000000000000E+00
 0.0000000000000E+00
 0.0000000000000E+00
 0.0000000000000E+00
 0.0000000000000E+00
 0.0000000000000E+00
 0.0000000000000E+00
 0.0000000000000E+00
 0.0000000000000E+00
 0.0000000000000E+00
 0.0000000000000E+00
 0.0000000000000E+00
 0.0000000000000E+00
 0.0000000000000E+00
 0.0000000000000E+00
 0.0000000000000E+00
 0.0000000000000E+00
 0.0000000000000E+00
 0.0000000000000E+00
 0.0000000000000E+00
 0.0000000000000E+00
 0.0000000000000E+00
 0.0000000000000E+00
 0.0000000000000E+00
 0.0000000000000E+00
 0.0000000000000E+00
 0.0000000000000E+00
 0.0000000000000E+00
 0.0000000000000E+00
 0.0000000000000E+00
 0.0000000000000E+00
 0.0000000000000E+00
 0.0000000000000E+00
 0.0000000000000E+00
 0.0000000000000E+00
 0.0000000000000E+00
 0.0000000000000E+00
 0.0000000000000E+00
 0.0000000000000E+00
 0.0000000000000E+00
 0.0000000000000E+00
 0.0000000000000E+00
 0.0000000000000E+00
 0.0000000000000E+00
 0.0000000000000E+00
 0.0000000000000E+00
 0.0000000000000E+00
 0.0000000000000E+00
 0.0000000000000E+00
 0.0000000000000E+00
 0.0000000000000E+00
 0.0000000000000E+00
 0.0000000000000E+00
 0.0000000000000E+00
 0.0000000000000E+00
 0.0000000000000E+00
 0.0000000000000E+00
 0.0000000000000E+00
 0.0000000000000E+00
 0.0000000000000E+00
 0.0000000000000E+00
 0.0000000000000E+00
 0.0000000000000E+00
 0.0000000000000E+00
 0.0000000000000E+00
 0.0000000000000E+00
 0.0000000000000E+00
 0.0000000000000E+00
 0.0000000000000E+00
 0.0000000000000E+00
 0.0000000000000E+00
 0.0000000000000E+00
 0.0000000000000E+00
 0.0000000000000E+00
 0.0000000000000E+00
 0.0000000000000E+00
 0.0000000000000E+00
 0.0000000000000E+00
 0.0000000000000E+00
 0.0000000000000E+00
 0.0000000000000E+00
 0.0000000000000E+00
 0.0000000000000E+00
 0.0000000000000E+00
 0.0000000000000E+00
 0.0000000000000E+00
 0.0000000000000E+00
 0.0000000000000E+00
 0.0000000000000E+00
 0.0000000000000E+00
 0.0000000000000E+00
 0.0000000000000E+00
 0.0000000000000E+00
 0.0000000000000E+00
 0.0000000000000E+00
 0.0000000000000E+00
 0.0000000000000E+00
 0.0000000000000E+00
 0.0000000000000E+00
 0.0000000000000E+00
 0.0000000000000E+00
 0.0000000000000E+00
 0.0000000000000E+00
 0.0000000000000E+00
 0.0000000000000E+00
 0.0000000000000E+00
 0.0000000000000E+00
 0.0000000000000E+00
 0.0000000000000E+00
 0.0000000000000E+00
 0.0000000000000E+00
 0.0000000000000E+00
 0.0000000000000E+00
 0.0000000000000E+00
 0.0000000000000E+00
 0.0000000000000E+00
 0.0000000000000E+00
 0.0000000000000E+00
 0.0000000000000E+00
 0.0000000000000E+00
 0.0000000000000E+00
 0.0000000000000E+00
 0.0000000000000E+00
 0.0000000000000E+00
 0.0000000000000E+00
 0.0000000000000E+00
 0.0000000000000E+00
 0.0000000000000E+00
 0.0000000000000E+00
 0.0000000000000E+00
 0.0000000000000E+00
 0.0000000000000E+00
 0.0000000000000E+00
 0.0000000000000E+00
 0.0000000000000E+00
 0.0000000000000E+00
 0.0000000000000E+00
 0.0000000000000E+00
 0.0000000000000E+00
 0.0000000000000E+00
 0.0000000000000E+00
 0.0000000000000E+00
 0.0000000000000E+00
 0.0000000000000E+00
 0.0000000000000E+00
 0.0000000000000E+00
 0.0000000000000E+00
 0.0000000000000E+00
 0.0000000000000E+00
 0.0000000000000E+00
 0.0000000000000E+00
 0.0000000000000E+00
 0.0000000000000E+00
 0.0000000000000E+00
 0.0000000000000E+00
 0.0000000000000E+00
 0.0000000000000E+00
 0.0000000000000E+00
 0.0000000000000E+00
 0.0000000000000E+00
 0.0000000000000E+00
 0.0000000000000E+00
 0.0000000000000E+00
 0.0000000000000E+00
 0.0000000000000E+00
 0.0000000000000E+00
 0.0000000000000E+00
 0.0000000000000E+00
 0.0000000000000E+00
 0.0000000000000E+00
 0.0000000000000E+00
 0.0000000000000E+00
 0.0000000000000E+00
 0.0000000000000E+00
 0.0000000000000E+00
 0.0000000000000E+00
 0.0000000000000E+00
 0.0000000000000E+00
 0.0000000000000E+00
 0.0000000000000E+00
 0.0000000000000E+00
 0.0000000000000E+00
 0.0000000000000E+00
 0.0000000000000E+00
 0.0000000000000E+00
 0.0000000000000E+00
 0.0000000000000E+00
 0.0000000000000E+00
 0.0000000000000E+00
 0.0000000000000E+00
 0.0000000000000E+00
 0.0000000000000E+00
 0.0000000000000E+00
 0.0000000000000E+00
 0.0000000000000E+00
 0.0000000000000E+00
 0.0000000000000E+00
 0.0000000000000E+00
 0.0000000000000E+00
 0.0000000000000E+00
 0.0000000000000E+00
 0.0000000000000E+00
 0.0000000000000E+00
 0.0000000000000E+00
 0.0000000000000E+00
 0.0000000000000E+00
 0.0000000000000E+00
 0.0000000000000E+00
 0.0000000000000E+00
 0.0000000000000E+00
 0.0000000000000E+00
 0.0000000000000E+00
 0.0000000000000E+00
 0.0000000000000E+00
 0.0000000000000E+00
 0.0000000000000E+00
 0.0000000000000E+00
 0.0000000000000E+00
 0.0000000000000E+00
 0.0000000000000E+00
 0.0000000000000E+00
 0.0000000000000E+00
 0.0000000000000E+00
 0.0000000000000E+00
 0.0000000000000E+00
 0.0000000000000E+00
 0.0000000000000E+00
 0.0000000000000E+00
 0.0000000000000E+00
 0.0000000000000E+00
 0.0000000000000E+00
 0.0000000000000E+00
 0.0000000000000E+00
 0.0000000000000E+00
 0.0000000000000E+00
 0.0000000000000E+00
 0.0000000000000E+00
 0.0000000000000E+00
 0.0000000000000E+00
 0.0000000000000E+00
 0.0000000000000E+00
 0.0000000000000E+00
 0.0000000000000E+00
 0.0000000000000E+00
 0.0000000000000E+00
 0.0000000000000E+00
 0.0000000000000E+00
 0.0000000000000E+00
 0.0000000000000E+00
 0.0000000000000E+00
 0.0000000000000E+00
 0.0000000000000E+00
 0.0000000000000E+00
 0.0000000000000E+00
 0.0000000000000E+00
 0.0000000000000E+00
 0.0000000000000E+00
 0.0000000000000E+00
 0.0000000000000E+00
 0.0000000000000E+00
 0.0000000000000E+00
 0.0000000000000E+00
 0.0000000000000E+00
 0.0000000000000E+00
 0.0000000000000E+00
 0.0000000000000E+00
 0.0000000000000E+00
 0.0000000000000E+00
 0.0000000000000E+00
 0.0000000000000E+00
 0.0000000000000E+00
 0.0000000000000E+00
 0.0000000000000E+00
 0.0000000000000E+00
 0.0000000000000E+00
 0.0000000000000E+00
 0.0000000000000E+00
 0.0000000000000E+00
 0.0000000000000E+00
 0.0000000000000E+00
 0.0000000000000E+00
 0.0000000000000E+00
 0.0000000000000E+00
 0.0000000000000E+00
 0.0000000000000E+00
 0.0000000000000E+00
 0.0000000000000E+00
 0.0000000000000E+00
 0.0000000000000E+00
 0.0000000000000E+00
 0.0000000000000E+00
 0.0000000000000E+00
 0.0000000000000E+00
 0.0000000000000E+00
 0.0000000000000E+00
 0.0000000000000E+00
 0.0000000000000E+00
 0.0000000000000E+00
 0.0000000000000E+00
 0.0000000000000E+00
 0.0000000000000E+00
 0.0000000000000E+00
 0.0000000000000E+00
 0.0000000000000E+00
 0.0000000000000E+00
 0.0000000000000E+00
 0.0000000000000E+00
 0.0000000000000E+00
 0.0000000000000E+00
 0.0000000000000E+00
 0.0000000000000E+00
 0.0000000000000E+00
 0.0000000000000E+00
 0.0000000000000E+00
 0.0000000000000E+00
 0.0000000000000E+00
 0.0000000000000E+00
 0.0000000000000E+00
 0.0000000000000E+00
 0.0000000000000E+00
 0.0000000000000E+00
 0.0000000000000E+00
 0.0000000000000E+00
 0.0000000000000E+00
 0.0000000000000E+00
 0.0000000000000E+00
 0.0000000000000E+00
 0.0000000000000E+00
 0.0000000000000E+00
 0.0000000000000E+00
 0.0000000000000E+00
 0.0000000000000E+00
 0.0000000000000E+00
 0.0000000000000E+00
 0.0000000000000E+00
 0.0000000000000E+00
 0.0000000000000E+00
 0.0000000000000E+00
 0.0000000000000E+00
 0.0000000000000E+00
 0.0000000000000E+00
 0.0000000000000E+00
 0.0000000000000E+00
 0.0000000000000E+00
 0.0000000000000E+00
 0.0000000000000E+00
 0.0000000000000E+00
 0.0000000000000E+00
 0.0000000000000E+00
 0.0000000000000E+00
 0.0000000000000E+00
 0.0000000000000E+00
 0.0000000000000E+00
 0.0000000000000E+00
 0.0000000000000E+00
 0.0000000000000E+00
 0.0000000000000E+00
 0.0000000000000E+00
 0.0000000000000E+00
 0.0000000000000E+00
 0.0000000000000E+00
 0.0000000000000E+00
 0.0000000000000E+00
 0.0000000000000E+00
 0.0000000000000E+00
 0.0000000000000E+00
 0.0000000000000E+00
 0.0000000000000E+00
 0.0000000000000E+00
 0.0000000000000E+00
 0.0000000000000E+00
 0.0000000000000E+00
 0.0000000000000E+00
 0.0000000000000E+00
 0.0000000000000E+00
 0.0000000000000E+00
 0.0000000000000E+00
 0.0000000000000E+00
 0.0000000000000E+00
 0.0000000000000E+00
 0.0000000000000E+00
 0.0000000000000E+00
 0.0000000000000E+00
 0.0000000000000E+00
 0.0000000000000E+00
 0.0000000000000E+00
 0.0000000000000E+00
 0.0000000000000E+00
 0.0000000000000E+00
 0.0000000000000E+00
 0.0000000000000E+00
 0.0000000000000E+00
 0.0000000000000E+00
 0.0000000000000E+00
 0.0000000000000E+00
 0.0000000000000E+00
 0.0000000000000E+00
 0.0000000000000E+00
 0.0000000000000E+00
 0.0000000000000E+00
 0.0000000000000E+00
 0.0000000000000E+00
 0.0000000000000E+00
 0.0000000000000E+00
 0.0000000000000E+00
 0.0000000000000E+00
 0.0000000000000E+00
 0.0000000000000E+00
 0.0000000000000E+00
 0.0000000000000E+00
 0.0000000000000E+00
 0.0000000000000E+00
 0.0000000000000E+00
 0.0000000000000E+00
 0.0000000000000E+00
 0.0000000000000E+00
 0.0000000000000E+00
 0.0000000000000E+00
 0.0000000000000E+00
 0.0000000000000E+00
 0.0000000000000E+00
 0.0000000000000E+00
 0.0000000000000E+00
 0.0000000000000E+00
 0.0000000000000E+00
 0.0000000000000E+00
 0.0000000000000E+00
 0.0000000000000E+00
 0.0000000000000E+00
 0.0000000000000E+00
 0.0000000000000E+00
 0.0000000000000E+00
 0.0000000000000E+00
 0.0000000000000E+00
 0.0000000000000E+00
 0.0000000000000E+00
 0.0000000000000E+00
 0.0000000000000E+00
 0.0000000000000E+00
 0.0000000000000E+00
 0.0000000000000E+00
 0.0000000000000E+00
 0.0000000000000E+00
 0.0000000000000E+00
 0.0000000000000E+00
 0.0000000000000E+00
 0.0000000000000E+00
 0.0000000000000E+00
 0.0000000000000E+00
 0.0000000000000E+00
 0.0000000000000E+00
 0.0000000000000E+00
 0.0000000000000E+00
 0.0000000000000E+00
 0.0000000000000E+00
 0.0000000000000E+00
 0.0000000000000E+00
 0.0000000000000E+00
 0.0000000000000E+00
 0.0000000000000E+00
 0.0000000000000E+00
 0.0000000000000E+00
 0.0000000000000E+00
 0.0000000000000E+00
 0.0000000000000E+00
 0.0000000000000E+00
 0.0000000000000E+00
 0.0000000000000E+00
 0.0000000000000E+00
 0.0000000000000E+00
 0.0000000000000E+00
 0.0000000000000E+00
 0.0000000000000E+00
 0.0000000000000E+00
 0.0000000000000E+00
 0.0000000000000E+00
 0.0000000000000E+00
 0.0000000000000E+00
 0.0000000000000E+00
 0.0000000000000E+00
 0.0000000000000E+00
 0.0000000000000E+00
 0.0000000000000E+00
 0.0000000000000E+00
 0.0000000000000E+00
 0.0000000000000E+00
 0.0000000000000E+00
 0.0000000000000E+00
 0.0000000000000E+00
 0.0000000000000E+00
 0.0000000000000E+00
 0.0000000000000E+00
 0.0000000000000E+00
 0.0000000000000E+00
 0.0000000000000E+00
 0.0000000000000E+00
 0.0000000000000E+00
 0.0000000000000E+00
 0.0000000000000E+00
 0.0000000000000E+00
 0.0000000000000E+00
 0.0000000000000E+00
 0.0000000000000E+00
 0.0000000000000E+00
 0.0000000000000E+00
 0.0000000000000E+00
 0.0000000000000E+00
 0.0000000000000E+00
 0.0000000000000E+00
 0.0000000000000E+00
 0.0000000000000E+00
 0.0000000000000E+00
 0.0000000000000E+00
 0.0000000000000E+00
 0.0000000000000E+00
 0.0000000000000E+00
 0.0000000000000E+00
 0.0000000000000E+00
 0.0000000000000E+00
 0.0000000000000E+00
 0.0000000000000E+00
 0.0000000000000E+00
 0.0000000000000E+00
 0.0000000000000E+00
 0.0000000000000E+00
 0.0000000000000E+00
 0.0000000000000E+00
 0.0000000000000E+00
 0.0000000000000E+00
 0.0000000000000E+00
 0.0000000000000E+00
 0.0000000000000E+00
 0.0000000000000E+00
 0.0000000000000E+00
 0.0000000000000E+00
 0.0000000000000E+00
 0.0000000000000E+00
 0.0000000000000E+00
 0.0000000000000E+00
 0.0000000000000E+00
 0.0000000000000E+00
 0.0000000000000E+00
 0.0000000000000E+00
 0.0000000000000E+00
 0.0000000000000E+00
 0.0000000000000E+00
 0.0000000000000E+00
 0.0000000000000E+00
 0.0000000000000E+00
 0.0000000000000E+00
 0.0000000000000E+00
 0.0000000000000E+00
 0.0000000000000E+00
 0.0000000000000E+00
 0.0000000000000E+00
 0.0000000000000E+00
 0.0000000000000E+00
 0.0000000000000E+00
 0.0000000000000E+00
 0.0000000000000E+00
 0.0000000000000E+00
 0.0000000000000E+00
 0.0000000000000E+00
 0.0000000000000E+00
 0.0000000000000E+00
 0.0000000000000E+00
 0.0000000000000E+00
 0.0000000000000E+00
 0.0000000000000E+00
 0.0000000000000E+00
 0.0000000000000E+00
 0.0000000000000E+00
 0.0000000000000E+00
 0.0000000000000E+00
 0.0000000000000E+00
 0.0000000000000E+00
 0.0000000000000E+00
 0.0000000000000E+00
 0.0000000000000E+00
 0.0000000000000E+00
 0.0000000000000E+00
 0.0000000000000E+00
 0.0000000000000E+00
 0.0000000000000E+00
 0.0000000000000E+00
 0.0000000000000E+00
 0.0000000000000E+00
 0.0000000000000E+00
 0.0000000000000E+00
 0.0000000000000E+00
 0.0000000000000E+00
 0.0000000000000E+00
 0.0000000000000E+00
 0.0000000000000E+00
 0.0000000000000E+00
 0.0000000000000E+00
 0.0000000000000E+00
 0.0000000000000E+00
 0.0000000000000E+00
 0.0000000000000E+00
 0.0000000000000E+00
 0.0000000000000E+00
 0.0000000000000E+00
 0.0000000000000E+00
 0.0000000000000E+00
 0.0000000000000E+00
 0.0000000000000E+00
 0.0000000000000E+00
 0.0000000000000E+00
 0.0000000000000E+00
 0.0000000000000E+00
 0.0000000000000E+00
 0.0000000000000E+00
 0.0000000000000E+00
 0.0000000000000E+00
 0.0000000000000E+00
 0.0000000000000E+00
 0.0000000000000E+00
 0.0000000000000E+00
 0.0000000000000E+00
 0.0000000000000E+00
 0.0000000000000E+00
 0.0000000000000E+00
 0.0000000000000E+00
 0.0000000000000E+00
 0.0000000000000E+00
 0.0000000000000E+00
 0.0000000000000E+00
 0.0000000000000E+00
 0.0000000000000E+00
 0.0000000000000E+00
 0.0000000000000E+00
 0.0000000000000E+00
 0.0000000000000E+00
 0.0000000000000E+00
 0.0000000000000E+00
 0.0000000000000E+00
 0.0000000000000E+00
 0.0000000000000E+00
 0.0000000000000E+00
 0.0000000000000E+00
 0.0000000000000E+00
 0.0000000000000E+00
 0.0000000000000E+00
 0.0000000000000E+00
 0.0000000000000E+00
 0.0000000000000E+00
 0.0000000000000E+00
 0.0000000000000E+00
 0.0000000000000E+00
 0.0000000000000E+00
 0.0000000000000E+00
 0.0000000000000E+00
 0.0000000000000E+00
 0.0000000000000E+00
 0.0000000000000E+00
 0.0000000000000E+00
 0.0000000000000E+00
 0.0000000000000E+00
 0.0000000000000E+00
 0.0000000000000E+00
 0.0000000000000E+00
 0.0000000000000E+00
 0.0000000000000E+00
 0.0000000000000E+00
 0.0000000000000E+00
 0.0000000000000E+00
 0.0000000000000E+00
 0.0000000000000E+00
 0.0000000000000E+00
 0.0000000000000E+00
 0.0000000000000E+00
 0.0000000000000E+00
 0.0000000000000E+00
 0.0000000000000E+00
 0.0000000000000E+00
 0.0000000000000E+00
 0.0000000000000E+00
 0.0000000000000E+00
 0.0000000000000E+00
 0.0000000000000E+00
 0.0000000000000E+00
 0.0000000000000E+00
 0.0000000000000E+00
 0.0000000000000E+00
 0.0000000000000E+00
 0.0000000000000E+00
 0.0000000000000E+00
 0.0000000000000E+00
 0.0000000000000E+00
 0.0000000000000E+00
 0.0000000000000E+00
 0.0000000000000E+00
 0.0000000000000E+00
 0.0000000000000E+00
 0.0000000000000E+00
 0.0000000000000E+00
 0.0000000000000E+00
 0.0000000000000E+00
 0.0000000000000E+00
 0.0000000000000E+00
 0.0000000000000E+00
 0.0000000000000E+00
 0.0000000000000E+00
 0.0000000000000E+00
 0.0000000000000E+00
 0.0000000000000E+00
 0.0000000000000E+00
 0.0000000000000E+00
 0.0000000000000E+00
 0.0000000000000E+00
 0.0000000000000E+00
 0.0000000000000E+00
 0.0000000000000E+00
 0.0000000000000E+00
 0.0000000000000E+00
 0.0000000000000E+00
 0.0000000000000E+00
 0.0000000000000E+00
 0.0000000000000E+00
 0.0000000000000E+00
 0.0000000000000E+00
 0.0000000000000E+00
 0.0000000000000E+00
 0.0000000000000E+00
 0.0000000000000E+00
 0.0000000000000E+00
 0.0000000000000E+00
 0.0000000000000E+00
 0.0000000000000E+00
 0.0000000000000E+00
 0.0000000000000E+00
 0.0000000000000E+00
 0.0000000000000E+00
 0.0000000000000E+00
 0.0000000000000E+00
 0.0000000000000E+00
 0.0000000000000E+00
 0.0000000000000E+00
 0.0000000000000E+00
 0.0000000000000E+00
 0.0000000000000E+00
 0.0000000000000E+00
 0.0000000000000E+00
 0.0000000000000E+00
 0.0000000000000E+00
 0.0000000000000E+00
 0.0000000000000E+00
 0.0000000000000E+00
 0.0000000000000E+00
 0.0000000000000E+00
 0.0000000000000E+00
 0.0000000000000E+00
 0.0000000000000E+00
 0.0000000000000E+00
 0.0000000000000E+00
 0.0000000000000E+00
 0.0000000000000E+00
 0.0000000000000E+00
 0.0000000000000E+00
 0.0000000000000E+00
 0.0000000000000E+00
 0.0000000000000E+00
 0.0000000000000E+00
 0.0000000000000E+00
 0.0000000000000E+00
 0.0000000000000E+00
 0.0000000000000E+00
 0.0000000000000E+00
 0.0000000000000E+00
 0.0000000000000E+00
 0.0000000000000E+00
 0.0000000000000E+00
 0.0000000000000E+00
 0.0000000000000E+00
 0.0000000000000E+00
 0.0000000000000E+00
 0.0000000000000E+00
 0.0000000000000E+00
 0.0000000000000E+00
 0.0000000000000E+00
 0.0000000000000E+00
 0.0000000000000E+00
 0.0000000000000E+00
 0.0000000000000E+00
 0.0000000000000E+00
 0.0000000000000E+00
 0.0000000000000E+00
 0.0000000000000E+00
 0.0000000000000E+00
 0.0000000000000E+00
 0.0000000000000E+00
 0.0000000000000E+00
 0.0000000000000E+00
 0.0000000000000E+00
 0.0000000000000E+00
 0.0000000000000E+00
 0.0000000000000E+00
 0.0000000000000E+00
 0.0000000000000E+00
 0.0000000000000E+00
 0.0000000000000E+00
 0.0000000000000E+00
 0.0000000000000E+00
 0.0000000000000E+00
 0.0000000000000E+00
 0.0000000000000E+00
 0.0000000000000E+00
 0.0000000000000E+00
 0.0000000000000E+00
 0.0000000000000E+00
 0.0000000000000E+00
 0.0000000000000E+00
 0.0000000000000E+00
 0.0000000000000E+00
 0.0000000000000E+00
 0.0000000000000E+00
 0.0000000000000E+00
 0.0000000000000E+00
 0.0000000000000E+00
 0.0000000000000E+00
 0.0000000000000E+00
 0.0000000000000E+00
 0.0000000000000E+00
 0.0000000000000E+00
 0.0000000000000E+00
 0.0000000000000E+00
 0.0000000000000E+00
 0.0000000000000E+00
 0.0000000000000E+00
 0.0000000000000E+00
 0.0000000000000E+00
 0.0000000000000E+00
 0.0000000000000E+00
 0.0000000000000E+00
 0.0000000000000E+00
 0.0000000000000E+00
 0.0000000000000E+00
 0.0000000000000E+00
 0.0000000000000E+00
 0.0000000000000E+00
 0.0000000000000E+00
 0.0000000000000E+00
 0.0000000000000E+00
 0.0000000000000E+00
 0.0000000000000E+00
 0.0000000000000E+00
 0.0000000000000E+00
 0.0000000000000E+00
 0.0000000000000E+00
 0.0000000000000E+00
 0.0000000000000E+00
 0.0000000000000E+00
 0.0000000000000E+00
 0.0000000000000E+00
 0.0000000000000E+00
 0.0000000000000E+00
 0.0000000000000E+00
 0.0000000000000E+00
 0.0000000000000E+00
 0.0000000000000E+00
 0.0000000000000E+00
 0.0000000000000E+00
 0.0000000000000E+00
 0.0000000000000E+00
 0.0000000000000E+00
 0.0000000000000E+00
 0.0000000000000E+00
 0.0000000000000E+00
 0.0000000000000E+00
 0.0000000000000E+00
 0.0000000000000E+00
 0.0000000000000E+00
 0.0000000000000E+00
 0.0000000000000E+00
 0.0000000000000E+00
 0.0000000000000E+00
 0.0000000000000E+00
 0.0000000000000E+00
 0.0000000000000E+00
 0.0000000000000E+00
 0.0000000000000E+00
 0.0000000000000E+00
 0.0000000000000E+00
 0.0000000000000E+00
 0.0000000000000E+00
 0.0000000000000E+00
 0.0000000000000E+00
 0.0000000000000E+00
 0.0000000000000E+00
 0.0000000000000E+00
 0.0000000000000E+00
 0.0000000000000E+00
 0.0000000000000E+00
 0.0000000000000E+00
 0.0000000000000E+00
 0.0000000000000E+00
 0.0000000000000E+00
 0.0000000000000E+00
 0.0000000000000E+00
 0.0000000000000E+00
 0.0000000000000E+00
 0.0000000000000E+00
 0.0000000000000E+00
 0.0000000000000E+00
 0.0000000000000E+00
 0.0000000000000E+00
 0.0000000000000E+00
 0.0000000000000E+00
 0.0000000000000E+00
 0.0000000000000E+00
 0.0000000000000E+00
 0.0000000000000E+00
 0.0000000000000E+00
 0.0000000000000E+00
 0.0000000000000E+00
 0.0000000000000E+00
 0.0000000000000E+00
 0.0000000000000E+00
 0.0000000000000E+00
 0.0000000000000E+00
 0.0000000000000E+00
 0.0000000000000E+00
 0.0000000000000E+00
 0.0000000000000E+00
 0.0000000000000E+00
 0.0000000000000E+00
 0.0000000000000E+00
 0.0000000000000E+00
 0.0000000000000E+00
 0.0000000000000E+00
 0.0000000000000E+00
 0.0000000000000E+00
 0.0000000000000E+00
 0.0000000000000E+00
 0.0000000000000E+00
 0.0000000000000E+00
 0.0000000000000E+00
 0.0000000000000E+00
 0.0000000000000E+00
 0.0000000000000E+00
 0.0000000000000E+00
 0.0000000000000E+00
 0.0000000000000E+00
 0.0000000000000E+00
 0.0000000000000E+00
 0.0000000000000E+00
 0.0000000000000E+00
 0.0000000000000E+00
 0.0000000000000E+00
 0.0000000000000E+00
 0.0000000000000E+00
 0.0000000000000E+00
 0.0000000000000E+00
 0.0000000000000E+00
 0.0000000000000E+00
 0.0000000000000E+00
 0.0000000000000E+00
 0.0000000000000E+00
 0.0000000000000E+00
 0.0000000000000E+00
 0.0000000000000E+00
 0.0000000000000E+00
 0.0000000000000E+00
 0.0000000000000E+00
 0.0000000000000E+00
 0.0000000000000E+00
 0.0000000000000E+00
 0.0000000000000E+00
 0.0000000000000E+00
 0.0000000000000E+00
 0.0000000000000E+00
 0.0000000000000E+00
 0.0000000000000E+00
 0.0000000000000E+00
 0.0000000000000E+00
 0.0000000000000E+00
 0.0000000000000E+00
 0.0000000000000E+00
 0.0000000000000E+00
 0.0000000000000E+00
 0.0000000000000E+00
 0.0000000000000E+00
 0.0000000000000E+00
 0.0000000000000E+00
 0.0000000000000E+00
 0.0000000000000E+00
 0.0000000000000E+00
 0.0000000000000E+00
 0.0000000000000E+00
 0.0000000000000E+00
 0.0000000000000E+00
 0.0000000000000E+00
 0.0000000000000E+00
 0.0000000000000E+00
 0.0000000000000E+00
 0.0000000000000E+00
 0.0000000000000E+00
 0.0000000000000E+00
 0.0000000000000E+00
 0.0000000000000E+00
 0.0000000000000E+00
 0.0000000000000E+00
 0.0000000000000E+00
 0.0000000000000E+00
 0.0000000000000E+00
 0.0000000000000E+00
 0.0000000000000E+00
 0.0000000000000E+00
 0.0000000000000E+00
 0.0000000000000E+00
 0.0000000000000E+00
 0.0000000000000E+00
 0.0000000000000E+00
 0.0000000000000E+00
 0.0000000000000E+00
 0.0000000000000E+00
 0.0000000000000E+00
 0.0000000000000E+00
 0.0000000000000E+00
 0.0000000000000E+00
 0.0000000000000E+00
 0.0000000000000E+00
 0.0000000000000E+00
 0.0000000000000E+00
 0.0000000000000E+00
 0.0000000000000E+00
 0.0000000000000E+00
 0.0000000000000E+00
 0.0000000000000E+00
 0.0000000000000E+00
 0.0000000000000E+00
 0.0000000000000E+00
 0.0000000000000E+00
 0.0000000000000E+00
 0.0000000000000E+00
 0.0000000000000E+00
 0.0000000000000E+00
 0.0000000000000E+00
 0.0000000000000E+00
 0.0000000000000E+00
 0.0000000000000E+00
 0.0000000000000E+00
 0.0000000000000E+00
 0.0000000000000E+00
 0.0000000000000E+00
 0.0000000000000E+00
 0.0000000000000E+00
 0.0000000000000E+00
 0.0000000000000E+00
 0.0000000000000E+00
 0.0000000000000E+00
 0.0000000000000E+00
 0.0000000000000E+00
 0.0000000000000E+00
 0.0000000000000E+00
 0.0000000000000E+00
 0.0000000000000E+00
 0.0000000000000E+00
 0.0000000000000E+00
 0.0000000000000E+00
 0.0000000000000E+00
 0.0000000000000E+00
 0.0000000000000E+00
 0.0000000000000E+00
 0.0000000000000E+00
 0.0000000000000E+00
 0.0000000000000E+00
 0.0000000000000E+00
 0.0000000000000E+00
 0.0000000000000E+00
 0.0000000000000E+00
 0.0000000000000E+00
 0.0000000000000E+00
 0.0000000000000E+00
 0.0000000000000E+00
 0.0000000000000E+00
 0.0000000000000E+00
 0.0000000000000E+00
 0.0000000000000E+00
 0.0000000000000E+00
 0.0000000000000E+00
 0.0000000000000E+00
 0.0000000000000E+00
 0.0000000000000E+00
 0.0000000000000E+00
 0.0000000000000E+00
 0.0000000000000E+00
 0.0000000000000E+00
 0.0000000000000E+00
 0.0000000000000E+00
 0.0000000000000E+00
 0.0000000000000E+00
 0.0000000000000E+00
 0.0000000000000E+00
 0.0000000000000E+00
 0.0000000000000E+00
 0.0000000000000E+00
 0.0000000000000E+00
 0.0000000000000E+00
 0.0000000000000E+00
 0.0000000000000E+00
 0.0000000000000E+00
 0.0000000000000E+00
 0.0000000000000E+00
 0.0000000000000E+00
 0.0000000000000E+00
 0.0000000000000E+00
 0.0000000000000E+00
 0.0000000000000E+00
 0.0000000000000E+00
 0.0000000000000E+00
 0.0000000000000E+00
 0.0000000000000E+00
 0.0000000000000E+00
 0.0000000000000E+00
 0.0000000000000E+00
 0.0000000000000E+00
 0.0000000000000E+00
 0.0000000000000E+00
 0.0000000000000E+00
 0.0000000000000E+00
 0.0000000000000E+00
 0.0000000000000E+00
 0.0000000000000E+00
 0.0000000000000E+00
 0.0000000000000E+00
 0.0000000000000E+00
 0.0000000000000E+00
 0.0000000000000E+00
 0.0000000000000E+00
 0.0000000000000E+00
 0.0000000000000E+00
 0.0000000000000E+00
 0.0000000000000E+00
 0.0000000000000E+00
 0.0000000000000E+00
 0.0000000000000E+00
 0.0000000000000E+00
 0.0000000000000E+00
 0.0000000000000E+00
 0.0000000000000E+00
 0.0000000000000E+00
 0.0000000000000E+00
 0.0000000000000E+00
 0.0000000000000E+00
 0.0000000000000E+00
 0.0000000000000E+00
 0.0000000000000E+00
 0.0000000000000E+00
 0.0000000000000E+00
 0.0000000000000E+00
 0.0000000000000E+00
 0.0000000000000E+00
 0.0000000000000E+00
 0.0000000000000E+00
 0.0000000000000E+00
 0.0000000000000E+00
 0.0000000000000E+00
 0.0000000000000E+00
 0.0000000000000E+00
 0.0000000000000E+00
 0.0000000000000E+00
 0.0000000000000E+00
 0.0000000000000E+00
 0.0000000000000E+00
 0.0000000000000E+00
 0.0000000000000E+00
 0.0000000000000E+00
 0.0000000000000E+00
 0.0000000000000E+00
 0.0000000000000E+00
 0.0000000000000E+00
 0.0000000000000E+00
 0.0000000000000E+00
 0.0000000000000E+00
 0.0000000000000E+00
 0.0000000000000E+00
 0.0000000000000E+00
 0.0000000000000E+00
 0.0000000000000E+00
 0.0000000000000E+00
 0.0000000000000E+00
 0.0000000000000E+00
 0.0000000000000E+00
 0.0000000000000E+00
 0.0000000000000E+00
 0.0000000000000E+00
 0.0000000000000E+00
 0.0000000000000E+00
 0.0000000000000E+00
 0.0000000000000E+00
 0.0000000000000E+00
 0.0000000000000E+00
 0.0000000000000E+00
 0.0000000000000E+00
 0.0000000000000E+00
 0.0000000000000E+00
 0.0000000000000E+00
 0.0000000000000E+00
 0.0000000000000E+00
 0.0000000000000E+00
 0.0000000000000E+00
 0.0000000000000E+00
 0.0000000000000E+00
 0.0000000000000E+00
 0.0000000000000E+00
 0.0000000000000E+00
 0.0000000000000E+00
 0.0000000000000E+00
 0.0000000000000E+00
 0.0000000000000E+00
 0.0000000000000E+00
 0.0000000000000E+00
 0.0000000000000E+00
 0.0000000000000E+00
 0.0000000000000E+00
 0.0000000000000E+00
 0.0000000000000E+00
 0.0000000000000E+00
 0.0000000000000E+00
 0.0000000000000E+00
 0.0000000000000E+00
 0.0000000000000E+00
 0.0000000000000E+00
 0.0000000000000E+00
 0.0000000000000E+00
 0.0000000000000E+00
 0.0000000000000E+00
 0.0000000000000E+00
 0.0000000000000E+00
 0.0000000000000E+00
 0.0000000000000E+00
 0.0000000000000E+00
 0.0000000000000E+00
 0.0000000000000E+00
 0.0000000000000E+00
 0.0000000000000E+00
 0.0000000000000E+00
 0.0000000000000E+00
 0.0000000000000E+00
 0.0000000000000E+00
 0.0000000000000E+00
 0.0000000000000E+00
 0.0000000000000E+00
 0.0000000000000E+00
 0.0000000000000E+00
 0.0000000000000E+00
 0.0000000000000E+00
 0.0000000000000E+00
 0.0000000000000E+00
 0.0000000000000E+00
 0.0000000000000E+00
 0.0000000000000E+00
 0.0000000000000E+00
 0.0000000000000E+00
 0.0000000000000E+00
 0.0000000000000E+00
 0.0000000000000E+00
 0.0000000000000E+00
 0.0000000000000E+00
 0.0000000000000E+00
 0.0000000000000E+00
 0.0000000000000E+00
 0.0000000000000E+00
 0.0000000000000E+00
 0.0000000000000E+00
 0.0000000000000E+00
 0.0000000000000E+00
 0.0000000000000E+00
 0.0000000000000E+00
 0.0000000000000E+00
 0.0000000000000E+00
 0.0000000000000E+00
 0.0000000000000E+00
 0.0000000000000E+00
 0.0000000000000E+00
 0.0000000000000E+00
 0.0000000000000E+00
 0.0000000000000E+00
 0.0000000000000E+00
 0.0000000000000E+00
 0.0000000000000E+00
 0.0000000000000E+00
 0.0000000000000E+00
 0.0000000000000E+00
 0.0000000000000E+00
 0.0000000000000E+00
 0.0000000000000E+00
 0.0000000000000E+00
 0.0000000000000E+00
 0.0000000000000E+00
 0.0000000000000E+00
 0.0000000000000E+00
 0.0000000000000E+00
 0.0000000000000E+00
 0.0000000000000E+00
 0.0000000000000E+00
 0.0000000000000E+00
 0.0000000000000E+00
 0.0000000000000E+00
 0.0000000000000E+00
 0.0000000000000E+00
 0.0000000000000E+00
 0.0000000000000E+00
 0.0000000000000E+00
 0.0000000000000E+00
 0.0000000000000E+00
 0.0000000000000E+00
 0.0000000000000E+00
 0.0000000000000E+00
 0.0000000000000E+00
 0.0000000000000E+00
 0.0000000000000E+00
 0.0000000000000E+00
 0.0000000000000E+00
 0.0000000000000E+00
 0.0000000000000E+00
 0.0000000000000E+00
 0.0000000000000E+00
 0.0000000000000E+00
 0.0000000000000E+00
 0.0000000000000E+00
 0.0000000000000E+00
 0.0000000000000E+00
 0.0000000000000E+00
 0.0000000000000E+00
 0.0000000000000E+00
 0.0000000000000E+00
 0.0000000000000E+00
 0.0000000000000E+00
 0.0000000000000E+00
 0.0000000000000E+00
 0.0000000000000E+00
 0.0000000000000E+00
 0.0000000000000E+00
 0.0000000000000E+00
 0.0000000000000E+00
 0.0000000000000E+00
 0.0000000000000E+00
 0.0000000000000E+00
 0.0000000000000E+00
 0.0000000000000E+00
 0.0000000000000E+00
 0.0000000000000E+00
 0.0000000000000E+00
 0.0000000000000E+00
 0.0000000000000E+00
 0.0000000000000E+00
 0.0000000000000E+00
 0.0000000000000E+00
 0.0000000000000E+00
 0.0000000000000E+00
 0.0000000000000E+00
 0.0000000000000E+00
 0.0000000000000E+00
 0.0000000000000E+00
 0.0000000000000E+00
 0.0000000000000E+00
 0.0000000000000E+00
 0.0000000000000E+00
 0.0000000000000E+00
 0.0000000000000E+00
 0.0000000000000E+00
 0.0000000000000E+00
 0.0000000000000E+00
 0.0000000000000E+00
 0.0000000000000E+00
 0.0000000000000E+00
 0.0000000000000E+00
 0.0000000000000E+00
 0.0000000000000E+00
 0.0000000000000E+00
 0.0000000000000E+00
 0.0000000000000E+00
 0.0000000000000E+00
 0.0000000000000E+00
 0.0000000000000E+00
 0.0000000000000E+00
 0.0000000000000E+00
 0.0000000000000E+00
 0.0000000000000E+00
 0.0000000000000E+00
 0.0000000000000E+00
 0.0000000000000E+00
 0.0000000000000E+00
 0.0000000000000E+00
 0.0000000000000E+00
 0.0000000000000E+00
 0.0000000000000E+00
 0.0000000000000E+00
 0.0000000000000E+00
 0.0000000000000E+00
 0.0000000000000E+00
 0.0000000000000E+00
 0.0000000000000E+00
 0.0000000000000E+00
 0.0000000000000E+00
 0.0000000000000E+00
 0.0000000000000E+00
 0.0000000000000E+00
 0.0000000000000E+00
 0.0000000000000E+00
 0.0000000000000E+00
 0.0000000000000E+00
 0.0000000000000E+00
 0.0000000000000E+00
 0.0000000000000E+00
 0.0000000000000E+00
 0.0000000000000E+00
 0.0000000000000E+00
 0.0000000000000E+00
 0.0000000000000E+00
 0.0000000000000E+00
 0.0000000000000E+00
 0.0000000000000E+00
 0.0000000000000E+00
 0.0000000000000E+00
 0.0000000000000E+00
 0.0000000000000E+00
</DataArray>
<DataArray type="Int32" Name="Region" format="ascii">
           1
           1
           1
           1
           1
           1
           1
           1
           1
           1
           1
           1
           1
           1
           1
           1
           1
           1
           1
           1
           1
           1
           1
           1
           1
           1
           1
           1
           1
           1
           1
           1
           1
           1
           1
           1
           1
           1
           1
           1
           1
           1
           1
           1
           1
           1
           1
           1
           1
           1
           1
           1
           1
           1
           1
           1
           1
           1
           1
           1
           1
           1
           1
           1
           1
           1
           1
           1
           1
           1
           1
           1
           1
           1
           1
           1
           1
           1
           1
           1
           1
           1
           1
           1
           1
           1
           1
           1
           1
           1
           1
           1
           1
           1
           1
           1
           1
           1
           1
           1
           1
           1
           1
           1
           1
           1
           1
           1
           1
           1
           1
           1
           1
           1
           1
           1
           1
           1
           1
           1
           1
           1
           1
           1
           1
           1
           1
           1
           1
           1
           1
           1
           1
           1
           1
           1
           1
           1
           1
           1
           1
           1
           1
           1
           1
           1
           1
           1
           1
           1
           1
           1
           1
           1
           1
           1
           1
           1
           1
           1
           1
           1
           1
           1
           1
           1
           1
           1
           1
           1
           1
           1
           1
           1
           1
           1
           1
           1
           1
           1
           1
           1
           1
           1
           1
           1
           1
           1
           1
           1
           1
           1
           1
           1
           1
           1
           1
           1
           1
           1
           1
           1
           1
           1
           1
           1
           1
           1
           1
           1
           1
           1
           1
           1
           1
           1
           1
           1
           1
           1
           1
           1
           1
           1
           1
           1
           1
           1
           1
           1
           1
           1
           1
           1
           1
           1
           1
           1
           1
           1
           1
           1
           1
           1
           1
           1
           1
           1
           1
           1
           1
           1
           1
           1
           1
           1
           1
           1
           1
           1
           1
           1
           1
           1
           1
           1
           1
           1
           1
           1
           1
           1
           1
           1
           1
           1
           1
           1
           1
           1
           1
           1
           1
           1
           1
           1
           1
           1
           1
           1
           1
           1
           1
           1
           1
           1
           1
           1
           1
           1
           1
           1
           1
           1
           1
           1
           1
           1
           1
           1
           1
           1
           1
           1
           1
           1
           1
           1
           1
           1
           1
           1
           1
           1
           1
           1
           1
           1
           1
           1
           1
           1
           1
           1
           1
           1
           1
           1
           1
           1
           1
           1
           1
           1
           1
           1
           1
           1
           1
           1
           1
           1
           1
           1
           1
           1
           1
           1
           1
           1
           1
           1
           1
           1
           1
           1
           1
           1
           1
           1
           1
           1
           1
           1
           1
           1
           1
           1
           1
           1
           1
           1
           1
           1
           1
           1
           1
           1
           1
           1
           1
           1
           1
           1
           1
           1
           1
           1
           1
           1
           1
           1
           1
           1
           1
           1
           1
           1
           1
           1
           1
           1
           1
           1
           1
           1
           1
           1
           1
           1
           1
           1
           1
           1
           1
           1
           1
           1
           1
           1
           1
           1
           1
           1
           1
           1
           1
           1
           1
           1
           1
           1
           1
           1
           1
           1
           1
           1
           1
           1
           1
           1
           1
           1
           1
           1
           1
           1
           1
           1
           1
           1
           1
           1
           1
           1
           1
           1
           1
           1
           1
           1
           1
           1
           1
           1
           1
           1
           1
           1
           1
           1
           1
           1
           1
           1
           1
           1
           1
           1
           1
           1
           1
           1
           1
           1
           1
           1
           1
           1
           1
           1
           1
           1
           1
           1
           1
           1
           1
           1
           1
           1
           1
           1
           1
           1
           1
           1
           1
           1
           1
           1
           1
           1
           1
           1
           1
           1
           1
           1
           1
           1
           1
           1
           1
           1
           1
           1
           1
           1
           1
           1
           1
           1
           1
           1
           1
           1
           1
           1
           1
           1
           1
           1
           1
           1
           1
           1
           1
           1
           1
           1
           1
           1
           1
           1
           1
           1
           1
           1
           1
           1
           1
           1
           1
           1
           1
           1
           1
           1
           1
           1
           1
           1
           1
           1
           1
           1
           1
           1
           1
           1
           1
           1
           1
           1
           1
           1
           1
           1
           1
           1
           1
           1
           1
           1
           1
           1
           1
           1
           1
           1
           1
           1
           1
           1
           1
           1
           1
           1
           1
           1
           1
           1
           1
           1
           1
           1
           1
           1
           1
           1
           1
           1
           1
           1
           1
           1
           1
           1
           1
           1
           1
           1
           1
           1
           1
           1
           1
           1
           1
           1
           1
           1
           1
           1
           1
           1
           1
           1
           1
           1
           1
           1
           1
           1
           1
           1
           1
           1
           1
           1
           1
           1
           1
           1
           1
           1
           1
           1
           1
           1
           1
           1
           1
           1
           1
           1
           1
           1
           1
           1
           1
           1
           1
           1
           1
           1
           1
           1
           1
           1
           1
           1
           1
           1
           1
           1
           1
           1
           1
           1
           1
           1
           1
           1
           1
           1
           1
           1
           1
           1
           1
           1
           1
           1
           1
           1
           1
           1
           1
           1
           1
           1
           1
           1
           1
           1
           1
           1
           1
           1
           1
           1
           1
           1
           1
           1
           1
           1
           1
           1
           1
           1
           1
           1
           1
           1
           1
           1
           1
           1
           1
           1
           1
           1
           1
           1
           1
           1
           1
           1
           1
           1
           1
           1
           1
           1
           1
           1
           1
           1
           1
           1
           1
           1
           1
           1
           1
           1
           1
           1
           1
           1
           1
           1
           1
           1
           1
           1
           1
           1
           1
           1
           1
           1
           1
           1
           1
           1
           1
           1
           1
           1
           1
           1
           1
           1
           1
           1
           1
           1
           1
           1
           1
           1
           1
           1
           1
           1
           1
           1
           1
           1
           1
           1
           1
           1
           1
           1
           1
           1
           1
           1
           1
           1
           1
           1
           1
           1
           1
           1
           1
           1
           1
           1
           1
           1
           1
           1
           1
           1
           1
           1
           1
           1
           1
           1
           1
           1
           1
           1
           1
           1
           1
           1
           1
           1
           1
           1
           1
           1
           1
           1
           1
           1
           1
           1
           1
           1
           1
           1
           1
           1
           1
           1
           1
           1
           1
           1
           1
           1
           1
           1
           1
           1
           1
           1
           1
           1
           1
           1
           1
           1
           1
           1
           1
           1
           1
           1
           1
           1
           1
           1
           1
           1
           1
           1
           1
           1
           1
           1
           1
           1
           1
           1
           1
           1
           1
           1
           1
           1
           1
           1
           1
           1
           1
           1
           1
           1
           1
           1
           1
           1
           1
           1
           1
           1
           1
           1
           1
           1
           1
           1
           1
           1
           1
           1
           1
           1
           1
           1
           1
           1
           1
           1
           1
           1
           1
           1
           1
           1
           1
           1
           1
           1
           1
           1
           1
           1
           1
           1
           1
           1
           1
           1
           1
           1
           1
           1
           1
           1
           1
           1
           1
           1
           1
           1
           1
           1
           1
           1
           1
           1
           1
           1
           1
           1
           1
           1
           1
           1
           1
           1
           1
           1
           1
           1
           1
           1
           1
           1
           1
           1
           1
           1
           1
           1
           1
           1
           1
           1
           1
           1
           1
           1
           1
           1
           1
           1
           1
           1
           1
           1
           1
           1
           1
           1
           1
           1
           1
           1
           1
           1
           1
           1
           1
           1
           1
           1
           1
           1
           1
           1
           1
           1
           1
           1
           1
           1
           1
           1
           1
           1
           1
           1
           1
           1
           1
           1
           1
           1
           1
           1
           1
           1
           1
           1
           1
           1
           1
           1
           1
           1
           1
           1
           1
           1
           1
           1
           1
           1
           1
           1
           1
           1
           1
           1
           1
           1
           1
           1
           1
           1
           1
           1
           1
           1
           1
           1
           1
           1
           1
           1
           1
           1
           1
           1
           1
           1
           1
           1
           1
           1
           1
           1
           1
           1
           1
           1
           1
           1
           1
           1
           1
           1
           1
           1
           1
           1
           1
           1
           1
           1
           1
           1
           1
           1
           1
           1
           1
           1
           1
           1
           1
           1
           1
           1
           1
           1
           1
           1
           1
           1
           1
           1
           1
           1
           1
           1
           1
           1
           1
           1
           1
           1
           1
           1
           1
           1
           1
           1
           1
           1
           1
           1
           1
           1
           1
           1
           1
           1
           1
           1
           1
           1
           1
           1
           1
           1
           1
           1
           1
           1
           1
           1
           1
           1
           1
           1
           1
           1
           1
           1
           1
           1
           1
           1
           1
           1
           1
           1
           1
           1
           1
           1
           1
           1
           1
           1
           1
           1
           1
           1
           1
           1
           1
           1
           1
           1
           1
           1
           1
           1
           1
           1
           1
           1
           1
           1
           1
           1
           1
           1
           1
           1
           1
           1
           1
           1
           1
           1
           1
           1
           1
           1
           1
           1
           1
           1
           1
           1
           1
           1
           1
           1
           1
           1
           1
           1
           1
           1
           1
           1
           1
           1
           1
           1
           1
           1
           1
           1
           1
           1
           1
           1
           1
           1
           1
           1
           1
           1
           1
           1
           1
           1
           1
           1
           1
           1
           1
           1
           1
           1
           1
           1
           1
           1
           1
           1
           1
           1
           1
           1
           1
           1
           1
           1
           1
           1
           1
           1
           1
           1
           1
           1
           1
           1
           1
           1
           1
           1
           1
           1
           1
           1
           1
           1
           1
           1
           1
           1
           1
           1
           1
           1
           1
           1
           1
           1
           1
           1
           1
           1
           1
           1
           1
           1
           1
           1
           1
           1
           1
           1
           1
           1
           1
           1
           1
           1
           1
           1
           1
           1
           1
           1
           1
           1
           1
           1
           1
           1
           1
           1
           1
           1
           1
           1
           1
           1
           1
           1
           1
           1
           1
           1
           1
           1
           1
           1
           1
           1
           1
           1
           1
           1
           1
           1
           1
           1
           1
           1
           1
           1
           1
           1
           1
           1
           1
           1
           1
           1
           1
           1
           1
           1
           1
           1
           1
           1
           1
           1
           1
           1
           1
           1
           1
           1
           1
           1
           1
           1
           1
           1
           1
           1
           1
           1
           1
           1
           1
           1
           1
           1
           1
           1
           1
           1
           1
           1
           1
           1
           1
           1
           1
           1
           1
           1
           1
           1
           1
           1
           1
           1
           1
           1
           1
           1
           1
           1
           1
           1
           1
           1
           1
           1
           1
           1
           1
           1
           1
           1
           1
           1
           1
           1
           1
           1
           1
           1
           1
           1
           1
           1
           1
           1
           1
           1
           1
           1
           1
           1
           1
           1
           1
           1
           1
           1
           1
           1
           1
           1
           1
           1
           1
           1
           1
           1
           1
           1
           1
           1
           1
           1
           1
           1
           1
           1
           1
           1
           1
           1
           1
           1
           1
           1
           1
           1
           1
           1
           1
           1
           1
           1
           1
           1
           1
           1
           1
           1
           1
           1
           1
           1
           1
           1
           1
           1
           1
           1
           1
           1
           1
           1
           1
           1
           1
           1
           1
           1
           1
           1
           1
           1
           1
           1
           1
           1
           1
           1
           1
           1
           1
           1
           1
           1
           1
           1
           1
           1
           1
           1
           1
           1
           1
           1
           1
           1
           1
           1
           1
           1
           1
           1
           1
           1
           1
           1
           1
           1
           1
           1
           1
           1
           1
           1
           1
           1
           1
           1
           1
           1
           1
           1
           1
           1
           1
           1
           1
           1
           1
           1
           1
           1
           1
           1
           1
           1
           1
           1
           1
           1
           1
           1
           1
           1
           1
           1
           1
           1
           1
           1
           1
           1
           1
           1
           1
           1
           1
           1
           1
           1
           1
           1
           1
           1
           1
           1
           1
           1
           1
           1
           1
           1
           1
           1
           1
           1
           1
           1
           1
           1
           1
           1
           1
           1
           1
           1
           1
           1
           1
           1
           1
           1
           1
           1
           1
           1
           1
           1
           1
           1
           1
           1
           1
           1
           1
           1
           1
           1
           1
           1
           1
           1
           1
           1
           1
           1
           1
           1
           1
           1
           1
           1
           1
           1
           1
           1
           1
           1
           1
           1
           1
           1
           1
           1
           1
           1
           1
           1
           1
           1
           1
           1
           1
           1
           1
           1
           1
           1
           1
           1
           1
           1
           1
           1
           1
           1
           1
           1
           1
           1
           1
           1
           1
           1
           1
           1
           1
           1
           1
           1
           1
           1
           1
           1
           1
           1
           1
           1
           1
           1
           1
           1
           1
           1
           1
           1
           1
           1
           1
           1
           1
           1
           1
           1
           1
           1
           1
           1
           1
           1
           1
           1
           1
           1
           1
           1
           1
           1
           1
           1
           1
           1
           1
           1
           1
           1
           1
           1
           1
           1
           1
           1
           1
           1
           1
           1
           1
           1
           1
           1
           1
           1
           1
           1
           1
           1
           1
           1
           1
           1
           1
           1
           1
           1
           1
           1
           1
           1
           1
           1
           1
           1
           1
           1
           1
           1
           1
           1
           1
           1
           1
           1
           1
           1
           1
           1
           1
           1
           1
           1
           1
           1
           1
           1
           1
           1
           1
           1
           1
           1
           1
           1
           1
           1
           1
           1
           1
           1
           1
           1
           1
           1
           1
           1
           1
           1
           1
           1
           1
           1
           1
           1
           1
           1
           1
           1
           1
           1
           1
           1
           1
           1
           1
           1
           1
           1
           1
           1
           1
           1
           1
           1
           1
           1
           1
           1
           1
           1
           1
           1
           1
           1
           1
           1
           1
           1
           1
           1
           1
           1
           1
           1
           1
           1
           1
           1
           1
           1
           1
           1
           1
           1
           1
           1
           1
           1
           1
           1
           1
           1
           1
           1
           1
           1
           1
           1
           1
           1
           1
           1
           1
           1
           1
           1
           1
           1
           1
           1
           1
           1
           1
           1
           1
           1
           1
           1
           1
           1
           1
           1
           1
           1
           1
           1
           1
           1
           1
           1
           1
           1
           1
           1
           1
           1
           1
           1
           1
           1
           1
           1
           1
           1
           1
           1
           1
           1
           1
           1
           1
           1
           1
           1
           1
           1
           1
           1
           1
           1
           1
           1
           1
           1
           1
           1
           1
           1
           1
           1
           1
           1
           1
           1
           1
           1
           1
           1
           1
           1
           1
           1
           1
           1
           1
           1
           1
           1
           1
           1
           1
           1
           1
           1
           1
           1
           1
           1
           1
           1
           1
           1
           1
           1
           1
           1
           1
           1
           1
           1
           1
           1
           1
           1
           1
           1
           1
           1
           1
           1
           1
           1
           1
           1
           1
           1
           1
           1
           1
           1
           1
           1
           1
           1
           1
           1
           1
           1
           1
           1
           1
           1
           1
           1
           1
           1
           1
           1
           1
           1
           1
           1
           1
           1
           1
           1
           1
           1
           1
           1
           1
           1
           1
           1
           1
           1
           1
           1
           1
           1
           1
           1
           1
           1
           1
           1
           1
           1
           1
           1
           1
           1
           1
           1
           1
           1
           1
           1
           1
           1
           1
           1
           1
           1
           1
           1
           1
           1
           1
           1
           1
           1
           1
           1
           1
           1
           1
           1
           1
           1
           1
           1
           1
           1
           1
           1
           1
           1
           1
           1
           1
           1
           1
           1
           1
           1
           1
           1
           1
           1
           1
           1
           1
           1
           1
           1
           1
           1
           1
           1
           1
           1
           1
           1
           1
           1
           1
           1
           1
           1
           1
           1
           1
           1
           1
           1
           1
           1
           1
           1
           1
           1
           1
           1
           1
           1
           1
           1
           1
           1
           1
           1
           1
           1
           1
           1
           1
           1
           1
           1
           1
           1
           1
           1
           1
           1
           1
           1
           1
           1
           1
           1
           1
           1
           1
           1
           1
           1
           1
           1
           1
           1
           1
           1
           1
           1
           1
           1
           1
           1
           1
           1
           1
           1
           1
           1
           1
           1
           1
           1
           1
           1
           1
           1
           1
           1
           1
           1
           1
           1
           1
           1
           1
           1
           1
           1
           1
           1
           1
           1
           1
           1
           1
           1
           1
           1
           1
           1
           1
           1
           1
           1
           1
           1
           1
           1
           1
           1
           1
           1
           1
           1
           1
           1
           1
           1
           1
           1
           1
           1
           1
           1
           1
           1
           1
           1
           1
           1
           1
           1
           1
           1
           1
           1
           1
           1
           1
           1
           1
           1
           1
           1
           1
           1
           1
           1
           1
           1
           1
           1
           1
           1
           1
           1
           1
           1
           1
           1
           1
           1
           1
           1
           1
           1
           1
           1
           1
           1
           1
           1
           1
           1
           1
           1
           1
           1
           1
           1
           1
           1
           1
           1
           1
           1
           1
           1
           1
           1
           1
           1
           1
           1
           1
           1
           1
           1
           1
           1
           1
           1
           1
           1
           1
           1
           1
           1
           1
           1
           1
           1
           1
           1
           1
           1
           1
           1
           1
           1
           1
           1
           1
           1
           1
           1
           1
           1
           1
           1
           1
           1
           1
           1
           1
           1
           1
           1
           1
           1
           1
           1
           1
           1
           1
           1
           1
           1
           1
           1
           1
           1
           1
           1
           1
           1
           1
           1
           1
           1
           1
           1
           1
           1
           1
           1
           1
           1
           1
           1
           1
           1
           1
           1
           1
           1
           1
           1
           1
           1
           1
           1
           1
           1
           1
           1
           1
           1
           1
           1
           1
           1
           1
           1
           1
           1
           1
           1
           1
           1
           1
           1
           1
           1
           1
           1
           1
           1
           1
           1
           1
           1
           1
           1
           1
           1
           1
           1
           1
           1
           1
           1
           1
           1
           1
           1
           1
           1
           1
           1
           1
           1
           1
           1
           1
           1
           1
           1
           1
           1
           1
           1
           1
           1
           1
           1
           1
           1
           1
           1
           1
           1
           1
           1
           1
           1
           1
           1
           1
           1
           1
           1
           1
           1
           1
           1
           1
           1
           1
           1
           1
           1
           1
           1
           1
           1
           1
           1
           1
           1
           1
           1
           1
           1
           1
           1
           1
           1
           1
           1
           1
           1
           1
           1
           1
           1
           1
           1
           1
           1
           1
           1
           1
           1
           1
           1
           1
           1
           1
           1
           1
           1
           1
           1
           1
           1
           1
           1
           1
           1
           1
           1
           1
           1
           1
           1
           1
           1
           1
           1
           1
           1
           1
           1
           1
           1
           1
           1
           1
           1
           1
           1
           1
           1
           1
           1
           1
           1
           1
           1
           1
           1
           1
           1
           1
           1
           1
           1
           1
           1
           1
           1
           1
           1
           1
           1
           1
           1
           1
           1
           1
           1
           1
           1
           1
           1
           1
           1
           1
           1
           1
           1
           1
           1
           1
           1
           1
           1
           1
           1
           1
           1
           1
           1
           1
           1
           1
           1
           1
           1
           1
           1
           1
           1
           1
           1
           1
           1
           1
           1
           1
           1
           1
           1
           1
           1
           1
           1
           1
           1
           1
           1
           1
           1
           1
           1
           1
           1
           1
           1
           1
           1
           1
           1
           1
           1
           1
           1
           1
           1
           1
           1
           1
           1
           1
           1
           1
           1
           1
           1
           1
           1
           1
           1
           1
           1
           1
           1
           1
           1
           1
           1
           1
           1
           1
           1
           1
           1
           1
           1
           1
           1
           1
           1
           1
           1
           1
           1
           1
           1
           1
           1
           1
           1
           1
           1
           1
           1
           1
           1
           1
           1
           1
           1
           1
           1
           1
           1
           1
           1
           1
           1
           1
           1
           1
           1
           1
           1
           1
           1
           1
           1
           1
           1
           1
           1
           1
           1
           1
           1
           1
           1
           1
           1
           1
           1
           1
           1
           1
           1
           1
           1
           1
           1
           1
           1
           1
           1
           1
           1
           1
           1
           1
           1
           1
           1
           1
           1
           1
           1
           1
           1
           1
           1
           1
           1
           1
           1
           1
           1
           1
           1
           1
           1
           1
           1
           1
           1
           1
           1
           1
           1
           1
           1
           1
           1
           1
           1
           1
           1
           1
           1
           1
           1
           1
           1
           1
           1
           1
           1
           1
           1
           1
           1
           1
           1
           1
           1
           1
           1
           1
           1
           1
           1
           1
           1
           1
           1
           1
           1
           1
           1
           1
           1
           1
           1
           1
           1
           1
           1
           1
           1
           1
           1
           1
           1
           1
           1
           1
           1
           1
           1
           1
           1
           1
           1
           1
           1
           1
           1
           1
           1
           1
           1
           1
           1
           1
           1
           1
           1
           1
           1
           1
           1
           1
           1
           1
           1
           1
           1
           1
           1
           1
           1
           1
           1
           1
           1
           1
           1
           1
           1
           1
           1
           1
           1
           1
           1
           1
           1
           1
           1
           1
           1
           1
           1
           1
           1
           1
           1
           1
           1
           1
           1
           1
           1
           1
           1
           1
           1
           1
           1
           1
           1
           1
           1
           1
           1
           1
           1
           1
           1
           1
           1
           1
           1
           1
           1
           1
           1
           1
           1
           1
           1
           1
           1
           1
           1
           1
           1
           1
           1
           1
           1
           1
           1
           1
           1
           1
           1
           1
           1
           1
           1
           1
           1
           1
           1
           1
           1
           1
           1
           1
           1
           1
           1
           1
           1
           1
           1
           1
           1
           1
           1
           1
           1
           1
           1
           1
           1
           1
           1
           1
           1
           1
           1
           1
           1
           1
           1
           1
           1
           1
           1
           1
           1
           1
           1
           1
           1
           1
           1
           1
           1
           1
           1
           1
           1
           1
           1
           1
           1
           1
           1
           1
           1
           1
           1
           1
           1
           1
           1
           1
           1
           1
           1
           1
           1
           1
           1
           1
           1
           1
           1
           1
           1
           1
           1
           1
           1
           1
           1
           1
           1
           1
           1
           1
           1
           1
           1
           1
           1
           1
           1
           1
           1
           1
           1
           1
           1
           1
           1
           1
           1
           1
           1
           1
           1
           1
           1
           1
           1
           1
           1
           1
           1
           1
           1
           1
           1
           1
           1
           1
           1
           1
           1
           1
           1
           1
           1
           1
           1
           1
           1
           1
           1
           1
           1
           1
           1
           1
           1
           1
           1
           1
           1
           1
           1
           1
           1
           1
           1
           1
           1
           1
           1
           1
           1
           1
           1
           1
           1
           1
           1
           1
           1
           1
           1
           1
           1
           1
           1
           2
           2
           2
           2
           2
           2
           2
           2
           2
           2
           2
           2
           2
           2
           2
           2
           2
           2
           2
           2
           2
           2
           2
           2
           2
           2
           2
           2
           2
           2
           2
           2
           2
           2
           2
           2
           2
           2
           2
           2
           2
           2
           2
           2
           2
           2
           2
           2
           2
           2
           2
           2
           2
           2
           2
           2
           2
           2
           2
           2
           2
           2
           2
           2
           2
           2
           2
           2
           2
           2
           2
           2
           2
           2
           2
           2
           2
           2
           2
           2
           2
           2
           2
           2
           2
           2
           2
           2
           2
           2
           2
           2
           2
           2
           2
           2
           2
           2
           2
           2
           2
           2
           2
           2
           2
           2
           2
           2
           2
           2
           2
           2
           2
           2
           2
           2
           2
           2
           2
           2
           2
           2
           2
           2
           2
           2
           2
           2
           2
           2
           2
           2
           2
           2
           2
           2
           2
           2
           2
           2
           2
           2
           2
           2
           2
           2
           2
           2
           2
           2
           2
           2
           2
           2
           2
           2
           2
           2
           2
           2
           2
           2
           2
           2
           2
           2
           2
           2
           2
           2
           2
           2
           2
           2
           2
           2
           2
           2
           2
           2
           2
           2
           2
           2
           2
           2
           2
           2
           2
           2
           2
           2
           2
           2
           2
           2
           2
           2
           2
           2
           2
           2
           2
           2
           2
           2
           2
           2
           2
           2
           2
           2
           2
           2
           2
           2
           2
           2
           2
           2
           2
           2
           2
           2
           2
           2
           2
           2
           2
           2
           2
           2
           2
           2
           2
           2
           2
           2
           2
           2
           2
           2
           2
           2
           2
           2
           2
           2
           2
           2
           2
           2
           2
           2
           2
           2
           2
           2
           2
           2
           2
           2
           2
           2
           2
           2
           2
           2
           2
           2
           2
           2
           2
           2
           2
           2
           2
           2
           2
           2
           2
           2
           2
           2
           2
           2
           2
           2
           2
           2
           2
           2
           2
           2
           2
           2
           2
           2
           2
           2
           2
           2
           2
           2
           2
           2
           2
           2
           2
           2
           2
           2
           2
           2
           2
           2
           2
           2
           2
           2
           2
           2
           2
           2
           2
           2
           2
           2
           2
           2
           2
           2
           2
           2
           2
           2
           2
           2
           2
           2
           2
           2
           2
           2
           2
           2
           2
           2
           2
           2
           2
           2
           2
           2
           2
           2
           2
           2
           2
           2
           2
           2
           2
           2
           2
           2
           2
           2
           2
           2
           2
           2
           2
           2
           2
           2
           2
           2
           2
           2
           2
           2
           2
           2
           2
           2
           2
           2
           2
           2
           2
           2
           2
           2
           2
           2
           2
           2
           2
           2
           2
           2
           2
           2
           2
           2
           2
           2
           2
           2
           2
           2
           2
           2
           2
           2
           2
           2
           2
           2
           2
           2
           2
           2
           2
           2
           2
           2
           2
           2
           2
           2
           2
           2
           2
           2
           2
           2
           2
           2
           2
           2
           2
           2
           2
           2
           2
           2
           2
           2
           2
           2
           2
           2
           2
           2
           2
           2
           2
           2
           2
           2
           2
           2
           2
           2
           2
           2
           2
           2
           2
           2
           2
           2
           2
           2
           2
           2
           2
           2
           2
           2
           2
           2
           2
           2
           2
           2
           2
           2
           2
           2
           2
           2
           2
           2
           2
           2
           2
           2
           2
           2
           2
           2
           2
           2
           2
           2
           2
           2
           2
           2
           2
           2
           2
           2
           2
           2
           2
           2
           2
           2
           2
           2
           2
           2
           2
           2
           2
           2
           2
           2
           2
           2
           2
           2
           2
           2
           2
           2
           2
           2
           2
           2
           2
           2
           2
           2
           2
           2
           2
           2
           2
           2
           2
           2
           2
           2
           2
           2
           2
           2
           2
           2
           2
           2
           2
           2
           2
           2
           2
           2
           2
           2
           2
           2
           2
           2
           2
           2
           2
           2
           2
           2
           2
           2
           2
           2
           2
           2
           2
           2
           2
           2
           2
           2
           2
           2
           2
           2
           2
           2
           2
           2
           2
           2
           2
           2
           2
           2
           2
           2
           2
           2
           2
           2
           2
           2
           2
           2
           2
           2
           2
           2
           2
           2
           2
           2
           2
           2
           2
           2
           2
           2
           2
           2
           2
           2
           2
           2
           2
           2
           2
           2
           2
           2
           2
           2
           2
           2
           2
           2
           2
           2
           2
           2
           2
           2
           2
           2
           2
           2
           2
           2
           2
           2
           2
           2
           2
           2
           2
           2
           2
           2
           2
           2
           2
           2
           2
           2
           2
           2
           2
           2
           2
           2
           2
           2
           2
           2
           2
           2
           2
           2
           2
           2
           2
           2
           2
           2
           2
           2
           2
           2
           2
           2
           2
           2
           2
           2
           2
           2
           2
           2
           2
           2
           2
           2
           2
           2
           2
           2
           2
           2
           2
           2
           2
           2
           2
           2
           2
           2
           2
           2
           2
           2
           2
           2
           2
           2
           2
           2
           2
           2
           2
           2
           2
           2
           2
           2
           2
           2
           2
           2
           2
           2
           2
           2
           2
           2
           2
           2
           2
           2
           2
           2
           2
           2
           2
           2
           2
           2
           2
           2
           2
           2
           2
           2
           2
           2
           2
           2
           2
           2
           2
           2
           2
           2
           2
           2
           2
           2
           2
           2
           2
           2
           2
           2
           2
           2
           2
           2
           2
           2
           2
           2
           2
           2
           2
           2
           2
           2
           2
           2
           2
           2
           2
           2
           2
           2
           2
           2
           2
           2
           2
           2
           2
           2
           2
           2
           2
           2
           2
           2
           2
           2
           2
           2
           2
           2
           2
           2
           2
           2
           2
           2
           2
           2
           2
           2
           2
           2
           2
           2
           2
           2
           2
           2
           2
           2
           2
           2
           2
           2
           2
           2
           2
           2
           2
           2
           2
           2
           2
           2
           2
           2
           2
           2
           2
           2
           2
           2
           2
           2
           2
           2
           2
           2
           2
           2
           2
           2
           2
           2
           2
           2
           2
           2
           2
           2
           2
           2
           2
           2
           2
           2
           2
           2
           2
           2
           2
           2
           2
           2
           2
           2
           2
           2
           2
           2
           2
           2
           2
           2
           2
           2
           2
           2
           2
           2
           2
           2
           2
           2
           2
           2
           2
           2
           2
           2
           2
           2
           2
           2
           2
           2
           2
           2
           2
           2
           2
           2
           2
           2
           2
           2
           2
           2
           2
           2
           2
           2
           2
           2
           2
           2
           2
           2
           2
           2
           2
           2
           2
           2
           2
           2
           2
           2
           2
           2
           2
           2
           2
           2
           2
           2
           2
           2
           2
           2
           2
           2
           2
           2
           2
           2
           2
           2
           2
           2
           2
           2
           2
           2
           2
           2
           2
           2
           2
           2
           2
           2
           2
           2
           2
           2
           2
           2
           2
           2
           2
           2
           2
           2
           2
           2
           2
           2
           2
           2
           2
           2
           2
           2
           2
           2
           2
           2
           2
           2
           2
           2
           2
           2
           2
           2
           2
           2
           2
           2
           2
           2
           2
           2
           2
           2
           2
           2
           2
           2
           2
           2
           2
           2
           2
           2
           2
           2
           2
           2
           2
           2
           2
           2
           2
           2
           2
           2
           2
           2
           2
           2
           2
           2
           2
           2
           2
           2
           2
           2
           2
           2
           2
           2
           2
           2
           2
           2
           2
           2
           2
           2
           2
           2
           2
           2
           2
           2
           2
           2
           2
           2
           2
           2
           2
           2
           2
           2
           2
           2
           2
           2
           2
           2
           2
           2
           2
           2
           2
           2
           2
           2
           2
           2
           2
           2
           2
           2
           2
           2
           2
           2
           2
           2
           2
           2
           2
           2
           2
           2
           2
           2
           2
           2
           2
           2
           2
           2
           2
           2
           2
           2
           2
           2
           2
           2
           2
           2
           2
           2
           2
           2
           2
           2
           2
           2
           2
           2
           2
           2
           2
           2
           2
           2
           2
           2
           2
           2
           2
           2
           2
           2
           2
           2
           2
           2
           2
           2
           2
           2
           2
           2
           2
           2
           2
           2
           2
           2
           2
           2
           2
           2
           2
           2
           2
           2
           2
           2
           2
           2
           2
           2
           2
           2
           2
           2
           2
           2
           2
           2
           2
           2
           2
           2
           2
           2
           2
           2
           2
           2
           2
           2
           2
           2
           2
           2
           2
           2
           2
           2
           2
           2
           2
           2
           2
           2
           2
           2
           2
           2
           2
           2
           2
           2
           2
           2
           2
           2
           2
           2
           2
           2
           2
           2
           2
           2
           2
           2
           2
           2
           2
           2
           2
           2
           2
           2
           2
           2
           2
           2
           2
           2
           2
           2
           2
           2
           2
           2
           2
           2
           2
           2
           2
           2
           2
           2
           2
           2
           2
           2
           2
           2
           2
           2
           2
           2
           2
           2
           2
           2
           2
           2
           2
           2
           2
           2
           2
           2
           2
           2
           2
           2
           2
           2
           2
           2
           2
           2
           2
           2
           2
           2
           2
           2
           2
           2
           2
           2
           2
           2
           2
           2
           2
           2
           2
           2
           2
           2
           2
           2
           2
           2
           2
           2
           2
           2
           2
           2
           2
           2
           2
           2
           2
           2
           2
           2
           2
           2
           2
           2
           2
           2
           2
           2
           2
           2
           2
           2
           2
           2
           2
           2
           2
           2
           2
           2
           2
           2
           2
           2
           2
           2
           2
           2
           2
           2
           2
           2
           2
           2
           2
           2
           2
           2
           2
           2
           2
           2
           2
           2
           2
           2
           2
           2
           2
           2
           2
           2
           2
           2
           2
           2
           2
           2
           2
           2
           2
           2
           2
           2
           2
           2
           2
           2
           2
           2
           2
           2
           2
           2
           2
           2
           2
           2
           2
           2
           2
           2
           2
           2
           2
           2
           2
           2
           2
           2
           2
           2
           2
           2
           2
           2
           2
           2
           2
           2
           2
           2
           2
           2
           2
           2
           2
           2
           2
           2
           2
           2
           2
           2
           2
           2
           2
           2
           2
           2
           2
           2
           2
           2
           2
           2
           2
           2
           2
           2
           2
           2
           2
           2
           2
           2
           2
           2
           2
           2
           2
           2
           2
           2
           2
           2
           2
           2
           2
           2
           2
           2
           2
           2
           2
           2
           2
           2
           2
           2
           2
           2
           2
           2
           2
           2
           2
           2
           2
           2
           2
           2
           2
           2
           2
           2
           2
           2
           2
           2
           2
           2
           2
           2
           2
           2
           2
           2
           2
           2
           2
           2
           2
           2
           2
           2
           2
           2
           2
           2
           2
           2
           2
           2
           2
           2
           2
           2
           2
           2
           2
           2
           2
           2
           2
           2
           2
           2
           2
           2
           2
           2
           2
           2
           2
           2
           2
           2
           2
           2
           2
           2
           2
           2
           2
           2
           2
           2
           2
           2
           2
           2
           2
           2
           2
           2
           2
           2
           2
           2
           2
           2
           2
           2
           2
           2
           2
           2
           2
           2
           2
           2
           2
           2
           2
           2
           2
           2
           2
           2
           2
           2
           2
           2
           2
           2
           2
           2
           2
           2
           2
           2
           2
           2
           2
           2
           2
           2
           2
           2
           2
           2
           2
           2
           2
           2
           2
           2
           2
           2
           2
           2
           2
           2
           2
           2
           2
           2
           2
           2
           2
           2
           2
           2
           2
           2
           2
           2
           2
           2
           2
           2
           2
           2
           2
           2
           2
           2
           2
           2
           2
           2
           2
           2
           2
           2
           2
           2
           2
           2
           2
           2
           2
           2
           2
           2
           2
           2
           2
           2
           2
           2
           2
           2
           2
           2
           2
           2
           2
           2
           2
           2
           2
           2
           2
           2
           2
           2
           2
           2
           2
           2
           2
           2
           2
           2
           2
           2
           2
           2
           2
           2
           2
           2
           2
           2
           2
           2
           2
           2
           2
           2
           2
           2
           2
           2
           2
           2
           2
           2
           2
           2
           2
           2
           2
           2
           2
           2
           2
           2
           2
           2
           2
           2
           2
           2
           2
           2
           2
           2
           2
           2
           2
           2
           2
           2
           2
           2
           2
           2
           2
           2
           2
           2
           2
           2
           2
           2
           2
           2
           2
           2
           2
           2
           2
           2
           2
           2
           2
           2
           2
           2
           2
           2
           2
           2
           2
           2
           2
           2
           2
           2
           2
           2
           2
           2
           2
           2
           2
           2
           2
           2
           2
           2
           2
           2
           2
           2
           2
           2
           2
           2
           2
           2
           2
           2
           2
           2
           2
           2
           2
           2
           2
           2
           2
           2
           2
           2
           2
           2
           2
           2
           2
           2
           2
           2
           2
           2
           2
           2
           2
           2
           2
           2
           2
           2
           2
           2
           2
           2
           2
           2
           2
           2
           2
           2
           2
           2
           2
           2
           2
           2
           2
           2
           2
           2
           2
           2
           2
           2
           2
           2
           2
           2
           2
           2
           2
           2
           2
           2
           2
           2
           2
           2
           2
           2
           2
           2
           2
           2
           2
           2
           2
           2
           2
           2
           2
           2
           2
           2
           2
           2
           2
           2
           2
           2
           2
           2
           2
           2
           2
           2
           2
           2
           2
           2
           2
           2
           2
           2
           2
           2
           2
           2
           2
           2
           2
           2
           2
           2
           2
           2
           2
           2
           2
           2
           2
           2
           2
           2
           2
           2
           2
           2
           2
           2
           2
           2
           2
           2
           2
           2
           2
           2
           2
           2
           2
           2
           2
           2
           2
           2
           2
           2
           2
           2
           2
           2
           2
           2
           2
           2
           2
           2
           2
           2
           2
           2
           2
           2
           2
           2
           2
           2
           2
           2
           2
           2
           2
           2
           2
           2
           2
           2
           2
           2
           2
           2
           2
           2
           2
           2
           2
           2
           2
           2
           2
           2
           2
           2
           2
           2
           2
           2
           2
           2
           2
           2
           2
           2
           2
           2
           2
           2
           2
           2
           2
           2
           2
           2
           2
           2
           2
           2
           2
           2
           2
           2
           2
           2
           2
           2
           2
           2
           2
           2
           2
           2
           2
           2
           2
           2
           2
           2
           2
           2
           2
           2
           2
           2
           2
           2
           2
           2
           2
           2
           2
           2
           2
           2
           2
           2
           2
           2
           2
           2
           2
           2
           2
           2
           2
           2
           2
           2
           2
           2
           2
           2
           2
           2
           2
           2
           2
           2
           2
           2
           2
           2
           2
           2
           2
           2
           2
           2
           2
           2
           2
           2
           2
           2
           2
           2
           2
           2
           2
           2
           2
           2
           2
           2
           2
           2
           2
           2
           2
           2
           2
           2
           2
           2
           2
           2
           2
           2
           2
           2
           2
           2
           2
           2
           2
           2
           2
           2
           2
           2
           2
           2
           2
           2
           2
           2
           2
           2
           2
           2
           2
           2
           2
           2
           2
           2
           2
           2
           2
           2
           2
           2
           2
           2
           2
           2
           2
           2
           2
           2
           2
           2
           2
           2
           2
           2
           2
           2
           2
           2
           2
           2
           2
           2
           2
           2
           2
           2
           2
           2
           2
           2
           2
           2
           2
           2
           2
           2
           2
           2
           2
           2
           2
           2
           2
           2
           2
           2
           2
           2
           2
           2
           2
           2
           2
           2
           2
           2
           2
           2
           2
           2
           2
           2
           2
           2
           2
           2
           2
           2
           2
           2
           2
           2
           2
           2
           2
           2
           2
           2
           2
           2
           2
           2
           2
           2
           2
           2
           2
           2
           2
           2
           2
           2
           2
           2
           2
           2
           2
           2
           2
           2
           2
           2
           2
           2
           2
           2
           2
           2
           2
           2
           2
           2
           2
           2
           2
           2
           2
           2
           2
           2
           2
           2
           2
           2
           2
           2
           2
           2
           2
           2
           2
           2
           2
           2
           2
           2
           2
           2
           2
           2
           2
           2
           2
           2
           2
           2
           2
           2
           2
           2
           2
           2
           2
           2
           2
           2
           2
           2
           2
           2
           2
           2
           2
           2
           2
           2
           2
           2
           2
           2
           2
           2
           2
           2
           2
           2
           2
           2
           2
           2
           2
           2
           2
           2
           2
           2
</DataArray>
</CellData>
</Piece>
</UnstructuredGrid>
</VTKFile>
