<VTKFile type="UnstructuredGrid" version="1,0" byte_order="LittleEndian">
<UnstructuredGrid>
<Piece NumberOfPoints="1502" NumberOfCells="1440">
<Points>
<DataArray type="Float64" NumberOfComponents="3" format="ascii">
-0.1100000000000E+01 -0.4304044648606E+01  0.0000000000000E+00
 0.0000000000000E+00 -0.4304044648606E+01  0.0000000000000E+00
 0.1100000000000E+01 -0.4304044648606E+01  0.0000000000000E+00
-0.1426338184892E+01 -0.1495137730994E+01  0.0000000000000E+00
-0.7131690856113E+00 -0.1351817918288E+01  0.0000000000000E+00
 0.7131690992823E+00 -0.1351817920119E+01  0.0000000000000E+00
 0.1426338184892E+01 -0.1495137730994E+01  0.0000000000000E+00
-0.1297471036855E+01  0.8924645033579E+00  0.0000000000000E+00
 0.1297471037589E+01  0.8924645030013E+00  0.0000000000000E+00
-0.7500000000000E+00  0.3449934570704E+00  0.0000000000000E+00
 0.7500000000000E+00  0.3449934570704E+00  0.0000000000000E+00
-0.1045000000000E+01 -0.4304044648606E+01  0.0000000000000E+00
-0.9900000000000E+00 -0.4304044648606E+01  0.0000000000000E+00
-0.9350000000000E+00 -0.4304044648606E+01  0.0000000000000E+00
-0.8800000000000E+00 -0.4304044648606E+01  0.0000000000000E+00
-0.8250000000000E+00 -0.4304044648606E+01  0.0000000000000E+00
-0.7700000000000E+00 -0.4304044648606E+01  0.0000000000000E+00
-0.7150000000000E+00 -0.4304044648606E+01  0.0000000000000E+00
-0.6600000000000E+00 -0.4304044648606E+01  0.0000000000000E+00
-0.6050000000000E+00 -0.4304044648606E+01  0.0000000000000E+00
-0.5500000000000E+00 -0.4304044648606E+01  0.0000000000000E+00
-0.4950000000000E+00 -0.4304044648606E+01  0.0000000000000E+00
-0.4400000000000E+00 -0.4304044648606E+01  0.0000000000000E+00
-0.3850000000000E+00 -0.4304044648606E+01  0.0000000000000E+00
-0.3300000000000E+00 -0.4304044648606E+01  0.0000000000000E+00
-0.2750000000000E+00 -0.4304044648606E+01  0.0000000000000E+00
-0.2200000000000E+00 -0.4304044648606E+01  0.0000000000000E+00
-0.1650000000000E+00 -0.4304044648606E+01  0.0000000000000E+00
-0.1100000000000E+00 -0.4304044648606E+01  0.0000000000000E+00
-0.5500000000000E-01 -0.4304044648606E+01  0.0000000000000E+00
 0.5500000000000E-01 -0.4304044648606E+01  0.0000000000000E+00
 0.1100000000000E+00 -0.4304044648606E+01  0.0000000000000E+00
 0.1650000000000E+00 -0.4304044648606E+01  0.0000000000000E+00
 0.2200000000000E+00 -0.4304044648606E+01  0.0000000000000E+00
 0.2750000000000E+00 -0.4304044648606E+01  0.0000000000000E+00
 0.3300000000000E+00 -0.4304044648606E+01  0.0000000000000E+00
 0.3850000000000E+00 -0.4304044648606E+01  0.0000000000000E+00
 0.4400000000000E+00 -0.4304044648606E+01  0.0000000000000E+00
 0.4950000000000E+00 -0.4304044648606E+01  0.0000000000000E+00
 0.5500000000000E+00 -0.4304044648606E+01  0.0000000000000E+00
 0.6050000000000E+00 -0.4304044648606E+01  0.0000000000000E+00
 0.6600000000000E+00 -0.4304044648606E+01  0.0000000000000E+00
 0.7150000000000E+00 -0.4304044648606E+01  0.0000000000000E+00
 0.7700000000000E+00 -0.4304044648606E+01  0.0000000000000E+00
 0.8250000000000E+00 -0.4304044648606E+01  0.0000000000000E+00
 0.8800000000000E+00 -0.4304044648606E+01  0.0000000000000E+00
 0.9350000000000E+00 -0.4304044648606E+01  0.0000000000000E+00
 0.9900000000000E+00 -0.4304044648606E+01  0.0000000000000E+00
 0.1045000000000E+01 -0.4304044648606E+01  0.0000000000000E+00
-0.1355910848380E+01 -0.1476732672072E+01  0.0000000000000E+00
-0.1285259981017E+01 -0.1459205415754E+01  0.0000000000000E+00
-0.1214394584761E+01 -0.1442566916018E+01  0.0000000000000E+00
-0.1143323993112E+01 -0.1426827745365E+01  0.0000000000000E+00
-0.1072058114862E+01 -0.1411998118171E+01  0.0000000000000E+00
-0.1000607103274E+01 -0.1398087786375E+01  0.0000000000000E+00
-0.9289815514207E+00 -0.1385106053576E+01  0.0000000000000E+00
-0.8571924453329E+00 -0.1373061734396E+01  0.0000000000000E+00
-0.7852510794390E+00 -0.1361963112090E+01  0.0000000000000E+00
-0.6422126030433E+00 -0.1342784468384E+01  0.0000000000000E+00
-0.5711435255488E+00 -0.1334684768748E+01  0.0000000000000E+00
-0.4999736369017E+00 -0.1327524435880E+01  0.0000000000000E+00
-0.4287150862649E+00 -0.1321308491716E+01  0.0000000000000E+00
-0.3573801183139E+00 -0.1316041318931E+01  0.0000000000000E+00
-0.2859812157621E+00 -0.1311726660302E+01  0.0000000000000E+00
-0.2145309892672E+00 -0.1308367596678E+01  0.0000000000000E+00
-0.1430421463503E+00 -0.1305966536203E+01  0.0000000000000E+00
-0.7152752388590E-01 -0.1304525207180E+01  0.0000000000000E+00
 0.6896563986558E-08 -0.1304044648606E+01  0.0000000000000E+00
 0.7152753767778E-01 -0.1304525207365E+01  0.0000000000000E+00
 0.1430421601384E+00 -0.1305966536574E+01  0.0000000000000E+00
 0.2145310030492E+00 -0.1308367597233E+01  0.0000000000000E+00
 0.2859812295354E+00 -0.1311726661042E+01  0.0000000000000E+00
 0.3573801320760E+00 -0.1316041319855E+01  0.0000000000000E+00
 0.4287151000135E+00 -0.1321308492824E+01  0.0000000000000E+00
 0.4999736506343E+00 -0.1327524437170E+01  0.0000000000000E+00
 0.5711435392633E+00 -0.1334684770220E+01  0.0000000000000E+00
 0.6422126167371E+00 -0.1342784470036E+01  0.0000000000000E+00
 0.7852510917199E+00 -0.1361963113902E+01  0.0000000000000E+00
 0.8571924562271E+00 -0.1373061736151E+01  0.0000000000000E+00
 0.9289815609321E+00 -0.1385106055236E+01  0.0000000000000E+00
 0.1000607111408E+01 -0.1398087787904E+01  0.0000000000000E+00
 0.1072058121623E+01 -0.1411998119533E+01  0.0000000000000E+00
 0.1143323998507E+01 -0.1426827746523E+01  0.0000000000000E+00
 0.1214394588795E+01 -0.1442566916938E+01  0.0000000000000E+00
 0.1285259983698E+01 -0.1459205416402E+01  0.0000000000000E+00
 0.1355910849717E+01 -0.1476732672412E+01  0.0000000000000E+00
-0.1579712636672E+01 -0.1257117726587E+01  0.0000000000000E+00
-0.1733164540211E+01 -0.1019175933670E+01  0.0000000000000E+00
-0.1854662117542E+01 -0.7635066404071E+00  0.0000000000000E+00
-0.1941975481337E+01 -0.4942606593644E+00  0.0000000000000E+00
-0.1991516502432E+01 -0.2156092846034E+00  0.0000000000000E+00
-0.1998781287050E+01  0.6736447573279E-01  0.0000000000000E+00
-0.1925316867218E+01  0.3385059547416E+00  0.0000000000000E+00
-0.1756248887890E+01  0.5644442091257E+00  0.0000000000000E+00
-0.1540277150090E+01  0.7471961778048E+00  0.0000000000000E+00
-0.1173981215584E+01  0.9468055532948E+00  0.0000000000000E+00
-0.1048246390832E+01  0.9957805369659E+00  0.0000000000000E+00
-0.9216449825030E+00  0.1042480347406E+01  0.0000000000000E+00
-0.7946812217419E+00  0.1088183183765E+01  0.0000000000000E+00
-0.6661180574429E+00  0.1129122063103E+01  0.0000000000000E+00
-0.5354041844713E+00  0.1162549250252E+01  0.0000000000000E+00
-0.4029695874389E+00  0.1188340213072E+01  0.0000000000000E+00
-0.2693161135181E+00  0.1206817739605E+01  0.0000000000000E+00
-0.1348660417516E+00  0.1218121850014E+01  0.0000000000000E+00
 0.4058846663134E-09  0.1222022719718E+01  0.0000000000000E+00
 0.1348660425620E+00  0.1218121849962E+01  0.0000000000000E+00
 0.2693161143243E+00  0.1206817739504E+01  0.0000000000000E+00
 0.4029695882387E+00  0.1188340212925E+01  0.0000000000000E+00
 0.5354041852619E+00  0.1162549250060E+01  0.0000000000000E+00
 0.6661180582227E+00  0.1129122062868E+01  0.0000000000000E+00
 0.7946812225112E+00  0.1088183183495E+01  0.0000000000000E+00
 0.9216449832687E+00  0.1042480347127E+01  0.0000000000000E+00
 0.1048246391595E+01  0.9957805366789E+00  0.0000000000000E+00
 0.1173981216337E+01  0.9468055529829E+00  0.0000000000000E+00
 0.1540277150686E+01  0.7471961773831E+00  0.0000000000000E+00
 0.1756248888337E+01  0.5644442086587E+00  0.0000000000000E+00
 0.1925316867476E+01  0.3385059542402E+00  0.0000000000000E+00
 0.1998781287072E+01  0.6736447525390E-01  0.0000000000000E+00
 0.1991516502379E+01 -0.2156092849952E+00  0.0000000000000E+00
 0.1941975481197E+01 -0.4942606596555E+00  0.0000000000000E+00
 0.1854662117367E+01 -0.7635066405985E+00  0.0000000000000E+00
 0.1733164540072E+01 -0.1019175933786E+01  0.0000000000000E+00
 0.1579712636620E+01 -0.1257117726658E+01  0.0000000000000E+00
-0.1100000000000E+01 -0.4167858878309E+01  0.0000000000000E+00
-0.1100000000000E+01 -0.4031673085110E+01  0.0000000000000E+00
-0.1100000000000E+01 -0.3895487265942E+01  0.0000000000000E+00
-0.1100000000000E+01 -0.3759301447614E+01  0.0000000000000E+00
-0.1100000000000E+01 -0.3623115632099E+01  0.0000000000000E+00
-0.1100000000000E+01 -0.3486929673705E+01  0.0000000000000E+00
-0.1100000000000E+01 -0.3350743588902E+01  0.0000000000000E+00
-0.1100000000000E+01 -0.3214558196319E+01  0.0000000000000E+00
-0.1100000000000E+01 -0.3078372499853E+01  0.0000000000000E+00
-0.1100009219814E+01 -0.2942186831538E+01  0.0000000000000E+00
-0.1101425067002E+01 -0.2806011978909E+01  0.0000000000000E+00
-0.1107601577287E+01 -0.2669976600093E+01  0.0000000000000E+00
-0.1119747344921E+01 -0.2534345262128E+01  0.0000000000000E+00
-0.1137772499496E+01 -0.2399367495624E+01  0.0000000000000E+00
-0.1161564969771E+01 -0.2265287019052E+01  0.0000000000000E+00
-0.1191325563594E+01 -0.2132404467843E+01  0.0000000000000E+00
-0.1226713953463E+01 -0.2000906688008E+01  0.0000000000000E+00
-0.1267386994665E+01 -0.1870945985496E+01  0.0000000000000E+00
-0.1313508982080E+01 -0.1742820021577E+01  0.0000000000000E+00
-0.1365854654983E+01 -0.1617114507943E+01  0.0000000000000E+00
 0.1365854655064E+01 -0.1617114507984E+01  0.0000000000000E+00
 0.1313508982144E+01 -0.1742820021612E+01  0.0000000000000E+00
 0.1267386994709E+01 -0.1870945985522E+01  0.0000000000000E+00
 0.1226713953493E+01 -0.2000906688028E+01  0.0000000000000E+00
 0.1191325563615E+01 -0.2132404467860E+01  0.0000000000000E+00
 0.1161564969779E+01 -0.2265287019065E+01  0.0000000000000E+00
 0.1137772499496E+01 -0.2399367495636E+01  0.0000000000000E+00
 0.1119747344920E+01 -0.2534345262137E+01  0.0000000000000E+00
 0.1107601577287E+01 -0.2669976600103E+01  0.0000000000000E+00
 0.1101425067003E+01 -0.2806011978917E+01  0.0000000000000E+00
 0.1100009219814E+01 -0.2942186831546E+01  0.0000000000000E+00
 0.1100000000000E+01 -0.3078372499860E+01  0.0000000000000E+00
 0.1100000000000E+01 -0.3214558196326E+01  0.0000000000000E+00
 0.1100000000000E+01 -0.3350743588907E+01  0.0000000000000E+00
 0.1100000000000E+01 -0.3486929673709E+01  0.0000000000000E+00
 0.1100000000000E+01 -0.3623115632103E+01  0.0000000000000E+00
 0.1100000000000E+01 -0.3759301447617E+01  0.0000000000000E+00
 0.1100000000000E+01 -0.3895487265945E+01  0.0000000000000E+00
 0.1100000000000E+01 -0.4031673085112E+01  0.0000000000000E+00
 0.1100000000000E+01 -0.4167858878310E+01  0.0000000000000E+00
-0.6764636662017E+00  0.3637314849837E+00  0.0000000000000E+00
-0.6024837198702E+00  0.3806330875003E+00  0.0000000000000E+00
-0.5280996171512E+00  0.3956556459469E+00  0.0000000000000E+00
-0.4533537451325E+00  0.4087600740826E+00  0.0000000000000E+00
-0.3782916751723E+00  0.4199112310808E+00  0.0000000000000E+00
-0.3029616164712E+00  0.4290784607705E+00  0.0000000000000E+00
-0.2274141490083E+00  0.4362360171118E+00  0.0000000000000E+00
-0.1517018295911E+00  0.4413634482121E+00  0.0000000000000E+00
-0.7587874076696E-01  0.4444459110349E+00  0.0000000000000E+00
-0.3330669073875E-15  0.4454744042321E+00  0.0000000000000E+00
 0.7587874076696E-01  0.4444459110349E+00  0.0000000000000E+00
 0.1517018295911E+00  0.4413634482121E+00  0.0000000000000E+00
 0.2274141490083E+00  0.4362360171118E+00  0.0000000000000E+00
 0.3029616164712E+00  0.4290784607705E+00  0.0000000000000E+00
 0.3782916751723E+00  0.4199112310808E+00  0.0000000000000E+00
 0.4533537451325E+00  0.4087600740826E+00  0.0000000000000E+00
 0.5280996171512E+00  0.3956556459469E+00  0.0000000000000E+00
 0.6024837198702E+00  0.3806330875003E+00  0.0000000000000E+00
 0.6764636662017E+00  0.3637314849837E+00  0.0000000000000E+00
-0.7494610908407E+00  0.1752564208624E+00  0.0000000000000E+00
-0.7476230150202E+00  0.5528898378488E-02  0.0000000000000E+00
-0.7441028539882E+00 -0.1641717347835E+00  0.0000000000000E+00
-0.7386208425271E+00 -0.3338203224162E+00  0.0000000000000E+00
-0.7315845453817E+00 -0.5034122306519E+00  0.0000000000000E+00
-0.7245482478836E+00 -0.6730041388732E+00  0.0000000000000E+00
-0.7190662355151E+00 -0.8426527264768E+00  0.0000000000000E+00
-0.7155460732803E+00 -0.1012353359614E+01  0.0000000000000E+00
-0.7137079961342E+00 -0.1182080882084E+01  0.0000000000000E+00
 0.7494610908447E+00  0.1752564207090E+00  0.0000000000000E+00
 0.7476230150664E+00  0.5528898070996E-02  0.0000000000000E+00
 0.7441028541992E+00 -0.1641717352482E+00  0.0000000000000E+00
 0.7386208431973E+00 -0.3338203230495E+00  0.0000000000000E+00
 0.7315845470645E+00 -0.5034122314810E+00  0.0000000000000E+00
 0.7245482512846E+00 -0.6730041399270E+00  0.0000000000000E+00
 0.7190662411903E+00 -0.8426527277573E+00  0.0000000000000E+00
 0.7155460815261E+00 -0.1012353361101E+01  0.0000000000000E+00
 0.7137080070737E+00 -0.1182080883753E+01  0.0000000000000E+00
-0.8047471036855E+00  0.3997405616991E+00  0.0000000000000E+00
-0.8594942073710E+00  0.4544876663279E+00  0.0000000000000E+00
-0.9142413110566E+00  0.5092347709566E+00  0.0000000000000E+00
-0.9689884147421E+00  0.5639818755854E+00  0.0000000000000E+00
-0.1023735518428E+01  0.6187289802141E+00  0.0000000000000E+00
-0.1078482622113E+01  0.6734760848429E+00  0.0000000000000E+00
-0.1133229725799E+01  0.7282231894716E+00  0.0000000000000E+00
-0.1187976829484E+01  0.7829702941004E+00  0.0000000000000E+00
-0.1242723933170E+01  0.8377173987291E+00  0.0000000000000E+00
 0.8047471037588E+00  0.3997405616635E+00  0.0000000000000E+00
 0.8594942075177E+00  0.4544876662566E+00  0.0000000000000E+00
 0.9142413112766E+00  0.5092347708497E+00  0.0000000000000E+00
 0.9689884150354E+00  0.5639818754428E+00  0.0000000000000E+00
 0.1023735518794E+01  0.6187289800359E+00  0.0000000000000E+00
 0.1078482622553E+01  0.6734760846289E+00  0.0000000000000E+00
 0.1133229726312E+01  0.7282231892220E+00  0.0000000000000E+00
 0.1187976830071E+01  0.7829702938151E+00  0.0000000000000E+00
 0.1242723933830E+01  0.8377173984082E+00  0.0000000000000E+00
-0.1045046222997E+01 -0.4166982403859E+01  0.0000000000000E+00
-0.1045092446001E+01 -0.4029920136063E+01  0.0000000000000E+00
-0.1045138669014E+01 -0.3892857842130E+01  0.0000000000000E+00
-0.1045184892027E+01 -0.3755795549043E+01  0.0000000000000E+00
-0.1045231115039E+01 -0.3618733258786E+01  0.0000000000000E+00
-0.1045277338100E+01 -0.3481670824732E+01  0.0000000000000E+00
-0.1045323561203E+01 -0.3344608263454E+01  0.0000000000000E+00
-0.1045369784072E+01 -0.3207546398853E+01  0.0000000000000E+00
-0.1045416007044E+01 -0.3070484228411E+01  0.0000000000000E+00
-0.1045470986539E+01 -0.2933422086301E+01  0.0000000000000E+00
-0.1046861911460E+01 -0.2796370782116E+01  0.0000000000000E+00
-0.1052774281503E+01 -0.2659458994789E+01  0.0000000000000E+00
-0.1064355962771E+01 -0.2522951257624E+01  0.0000000000000E+00
-0.1081521601846E+01 -0.2387097079535E+01  0.0000000000000E+00
-0.1104164757923E+01 -0.2252140197233E+01  0.0000000000000E+00
-0.1132476148650E+01 -0.2118381244796E+01  0.0000000000000E+00
-0.1166132548346E+01 -0.1986007050998E+01  0.0000000000000E+00
-0.1204808054195E+01 -0.1855169932722E+01  0.0000000000000E+00
-0.1248658704703E+01 -0.1726167566747E+01  0.0000000000000E+00
-0.1298420308522E+01 -0.1599585687799E+01  0.0000000000000E+00
-0.9900818008859E+00 -0.4166147731587E+01  0.0000000000000E+00
-0.9901636017856E+00 -0.4028250791379E+01  0.0000000000000E+00
-0.9902454027008E+00 -0.3890353824875E+01  0.0000000000000E+00
-0.9903272036156E+00 -0.3752456859222E+01  0.0000000000000E+00
-0.9904090045286E+00 -0.3614559896416E+01  0.0000000000000E+00
-0.9904908055275E+00 -0.3476662788937E+01  0.0000000000000E+00
-0.9905726066023E+00 -0.3338765553460E+01  0.0000000000000E+00
-0.9906544072614E+00 -0.3200869018902E+01  0.0000000000000E+00
-0.9907362081029E+00 -0.3062972176641E+01  0.0000000000000E+00
-0.9908263021799E+00 -0.2925075362882E+01  0.0000000000000E+00
-0.9921816600285E+00 -0.2787189408229E+01  0.0000000000000E+00
-0.9978192456255E+00 -0.2649443011423E+01  0.0000000000000E+00
-0.1008826196536E+01 -0.2512100673648E+01  0.0000000000000E+00
-0.1025121676066E+01 -0.2375411883154E+01  0.0000000000000E+00
-0.1046604874068E+01 -0.2239620394023E+01  0.0000000000000E+00
-0.1073456417974E+01 -0.2105026839044E+01  0.0000000000000E+00
-0.1105370183713E+01 -0.1971818030576E+01  0.0000000000000E+00
-0.1142037510489E+01 -0.1840146295916E+01  0.0000000000000E+00
-0.1183606180628E+01 -0.1710309326612E+01  0.0000000000000E+00
-0.1230773072450E+01 -0.1582892879321E+01  0.0000000000000E+00
-0.9351071623717E+00 -0.4165355383137E+01  0.0000000000000E+00
-0.9352143247615E+00 -0.4026666094346E+01  0.0000000000000E+00
-0.9353214871716E+00 -0.3887976779108E+01  0.0000000000000E+00
-0.9354286495812E+00 -0.3749287464725E+01  0.0000000000000E+00
-0.9355358119885E+00 -0.3610598153207E+01  0.0000000000000E+00
-0.9356429745082E+00 -0.3471908696183E+01  0.0000000000000E+00
-0.9357501371274E+00 -0.3333219110427E+01  0.0000000000000E+00
-0.9358572992019E+00 -0.3194530229616E+01  0.0000000000000E+00
-0.9359644615155E+00 -0.3055841039335E+01  0.0000000000000E+00
-0.9360794537788E+00 -0.2917151877718E+01  0.0000000000000E+00
-0.9373890284398E+00 -0.2778473595312E+01  0.0000000000000E+00
-0.9427416140514E+00 -0.2639934909666E+01  0.0000000000000E+00
-0.9531636192662E+00 -0.2501800291468E+01  0.0000000000000E+00
-0.9685787238578E+00 -0.2364319209355E+01  0.0000000000000E+00
-0.9888917485491E+00 -0.2227735433899E+01  0.0000000000000E+00
-0.1014273230545E+01 -0.2092349596663E+01  0.0000000000000E+00
-0.1044434147173E+01 -0.1958348494428E+01  0.0000000000000E+00
-0.1079083079785E+01 -0.1825884464371E+01  0.0000000000000E+00
-0.1118359554707E+01 -0.1695255212063E+01  0.0000000000000E+00
-0.1162921520209E+01 -0.1567046514983E+01  0.0000000000000E+00
-0.8801227524380E+00 -0.4164605861986E+01  0.0000000000000E+00
-0.8802455048967E+00 -0.4025167051918E+01  0.0000000000000E+00
-0.8803682573788E+00 -0.3885728215260E+01  0.0000000000000E+00
-0.8804910098601E+00 -0.3746289379463E+01  0.0000000000000E+00
-0.8806137623389E+00 -0.3606850546545E+01  0.0000000000000E+00
-0.8807365149465E+00 -0.3467411567335E+01  0.0000000000000E+00
-0.8808592676680E+00 -0.3327972458697E+01  0.0000000000000E+00
-0.8809820197656E+00 -0.3188534058815E+01  0.0000000000000E+00
-0.8811047721371E+00 -0.3049095347789E+01  0.0000000000000E+00
-0.8812348911742E+00 -0.2909656665581E+01  0.0000000000000E+00
-0.8824889114589E+00 -0.2770228881603E+01  0.0000000000000E+00
-0.8875467262934E+00 -0.2630940731194E+01  0.0000000000000E+00
-0.8973740150205E+00 -0.2492056656196E+01  0.0000000000000E+00
-0.9118989736425E+00 -0.2353826106691E+01  0.0000000000000E+00
-0.9310320539568E+00 -0.2216492868851E+01  0.0000000000000E+00
-0.9549337029221E+00 -0.2080357573080E+01  0.0000000000000E+00
-0.9833319990803E+00 -0.1945607001420E+01  0.0000000000000E+00
-0.1015952766056E+01 -0.1812393500398E+01  0.0000000000000E+00
-0.1052927274348E+01 -0.1681014788849E+01  0.0000000000000E+00
-0.1094874542418E+01 -0.1552056663945E+01  0.0000000000000E+00
-0.8251290423813E+00 -0.4163899654558E+01  0.0000000000000E+00
-0.8252580847842E+00 -0.4023754636942E+01  0.0000000000000E+00
-0.8253871272118E+00 -0.3883609592602E+01  0.0000000000000E+00
-0.8255161696385E+00 -0.3743464549126E+01  0.0000000000000E+00
-0.8256452120626E+00 -0.3603319508545E+01  0.0000000000000E+00
-0.8257742546221E+00 -0.3463174320931E+01  0.0000000000000E+00
-0.8259032973014E+00 -0.3323029003233E+01  0.0000000000000E+00
-0.8260323393247E+00 -0.3182884397881E+01  0.0000000000000E+00
-0.8261613816360E+00 -0.3042739479809E+01  0.0000000000000E+00
-0.8262973273311E+00 -0.2902594590699E+01  0.0000000000000E+00
-0.8274864933868E+00 -0.2762460617739E+01  0.0000000000000E+00
-0.8322402381418E+00 -0.2622466313031E+01  0.0000000000000E+00
-0.8414635112943E+00 -0.2482876091236E+01  0.0000000000000E+00
-0.8550890248433E+00 -0.2343939384954E+01  0.0000000000000E+00
-0.8730328618520E+00 -0.2205899995056E+01  0.0000000000000E+00
-0.8954453790228E+00 -0.2069058550854E+01  0.0000000000000E+00
-0.9220717559223E+00 -0.1933601820502E+01  0.0000000000000E+00
-0.9526550585576E+00 -0.1799682159337E+01  0.0000000000000E+00
-0.9873183017666E+00 -0.1667597298689E+01  0.0000000000000E+00
-0.1026641574463E+01 -0.1537933054292E+01  0.0000000000000E+00
-0.7701265160660E+00 -0.4163237225252E+01  0.0000000000000E+00
-0.7702530321532E+00 -0.4022429778218E+01  0.0000000000000E+00
-0.7703795482645E+00 -0.3881622304334E+01  0.0000000000000E+00
-0.7705060643751E+00 -0.3740814831319E+01  0.0000000000000E+00
-0.7706325804831E+00 -0.3600007361211E+01  0.0000000000000E+00
-0.7707590967238E+00 -0.3459199743377E+01  0.0000000000000E+00
-0.7708856130819E+00 -0.3318391994843E+01  0.0000000000000E+00
-0.7710121287970E+00 -0.3177584962021E+01  0.0000000000000E+00
-0.7711386447943E+00 -0.3036777615003E+01  0.0000000000000E+00
-0.7712716008954E+00 -0.2895970297081E+01  0.0000000000000E+00
-0.7723870966897E+00 -0.2755173912119E+01  0.0000000000000E+00
-0.7768279557508E+00 -0.2614517227940E+01  0.0000000000000E+00
-0.7854383977895E+00 -0.2474264633712E+01  0.0000000000000E+00
-0.7981556505838E+00 -0.2334665545637E+01  0.0000000000000E+00
-0.8149014286464E+00 -0.2195963778370E+01  0.0000000000000E+00
-0.8358159984089E+00 -0.2058459960202E+01  0.0000000000000E+00
-0.8606616402904E+00 -0.1922340846260E+01  0.0000000000000E+00
-0.8891986627916E+00 -0.1787758800143E+01  0.0000000000000E+00
-0.9215418252451E+00 -0.1655011564905E+01  0.0000000000000E+00
-0.9582322872467E+00 -0.1524684973684E+01  0.0000000000000E+00
-0.7151156779294E+00 -0.4162619017118E+01  0.0000000000000E+00
-0.7152313558782E+00 -0.4021193361848E+01  0.0000000000000E+00
-0.7153470338491E+00 -0.3879767679609E+01  0.0000000000000E+00
-0.7154627118192E+00 -0.3738341998242E+01  0.0000000000000E+00
-0.7155783897870E+00 -0.3596916319797E+01  0.0000000000000E+00
-0.7156940678761E+00 -0.3455490492975E+01  0.0000000000000E+00
-0.7158097460726E+00 -0.3314064534880E+01  0.0000000000000E+00
-0.7159254236812E+00 -0.3172639295640E+01  0.0000000000000E+00
-0.7160411015478E+00 -0.3031213740824E+01  0.0000000000000E+00
-0.7161627562398E+00 -0.2889788215231E+01  0.0000000000000E+00
-0.7171962701658E+00 -0.2748373638284E+01  0.0000000000000E+00
-0.7213159323257E+00 -0.2607098792480E+01  0.0000000000000E+00
-0.7293052321208E+00 -0.2466228043196E+01  0.0000000000000E+00
-0.7411059129022E+00 -0.2326010791328E+01  0.0000000000000E+00
-0.7566453208056E+00 -0.2186690864400E+01  0.0000000000000E+00
-0.7760536319784E+00 -0.2048568889744E+01  0.0000000000000E+00
-0.7991102275296E+00 -0.1911831610333E+01  0.0000000000000E+00
-0.8255926585574E+00 -0.1776631397476E+01  0.0000000000000E+00
-0.8556074290363E+00 -0.1643266005168E+01  0.0000000000000E+00
-0.8896567694607E+00 -0.1512321282791E+01  0.0000000000000E+00
-0.6600970509584E+00 -0.4162045449923E+01  0.0000000000000E+00
-0.6601941019331E+00 -0.4020046227361E+01  0.0000000000000E+00
-0.6602911529263E+00 -0.3878046977720E+01  0.0000000000000E+00
-0.6603882039189E+00 -0.3736047728956E+01  0.0000000000000E+00
-0.6604852549095E+00 -0.3594048483124E+01  0.0000000000000E+00
-0.6605823060019E+00 -0.3452049088315E+01  0.0000000000000E+00
-0.6606793571844E+00 -0.3310049561700E+01  0.0000000000000E+00
-0.6607764078736E+00 -0.3168050756855E+01  0.0000000000000E+00
-0.6608734587794E+00 -0.3026051635154E+01  0.0000000000000E+00
-0.6609760232337E+00 -0.2884052542794E+01  0.0000000000000E+00
-0.6619197666746E+00 -0.2742064413634E+01  0.0000000000000E+00
-0.6657104437464E+00 -0.2600216043785E+01  0.0000000000000E+00
-0.6730708132532E+00 -0.2458771776549E+01  0.0000000000000E+00
-0.6839471339256E+00 -0.2317980998624E+01  0.0000000000000E+00
-0.6982723836829E+00 -0.2178087549471E+01  0.0000000000000E+00
-0.7161666483788E+00 -0.2039392055537E+01  0.0000000000000E+00
-0.7374264096551E+00 -0.1902081248514E+01  0.0000000000000E+00
-0.7618464613018E+00 -0.1766307506865E+01  0.0000000000000E+00
-0.7895250520744E+00 -0.1632368594737E+01  0.0000000000000E+00
-0.8209254835783E+00 -0.1500850376583E+01  0.0000000000000E+00
-0.6050711730871E+00 -0.4161516918125E+01  0.0000000000000E+00
-0.6051423461862E+00 -0.4018989163676E+01  0.0000000000000E+00
-0.6052135192989E+00 -0.3876461382048E+01  0.0000000000000E+00
-0.6052846924112E+00 -0.3733933601299E+01  0.0000000000000E+00
-0.6053558655219E+00 -0.3591405823494E+01  0.0000000000000E+00
-0.6054270387074E+00 -0.3448877896157E+01  0.0000000000000E+00
-0.6054982119589E+00 -0.3306349836524E+01  0.0000000000000E+00
-0.6055693848486E+00 -0.3163822501347E+01  0.0000000000000E+00
-0.6056405578972E+00 -0.3021294848134E+01  0.0000000000000E+00
-0.6057167812191E+00 -0.2878767224371E+01  0.0000000000000E+00
-0.6065635034711E+00 -0.2736250577219E+01  0.0000000000000E+00
-0.6100179451307E+00 -0.2593873715334E+01  0.0000000000000E+00
-0.6167421341316E+00 -0.2451900961678E+01  0.0000000000000E+00
-0.6266868444039E+00 -0.2310581689864E+01  0.0000000000000E+00
-0.6397906858014E+00 -0.2170159750353E+01  0.0000000000000E+00
-0.6561636538731E+00 -0.2030935768775E+01  0.0000000000000E+00
-0.6756193306500E+00 -0.1893096466429E+01  0.0000000000000E+00
-0.6979697527023E+00 -0.1756794228372E+01  0.0000000000000E+00
-0.7233049136956E+00 -0.1622326828101E+01  0.0000000000000E+00
-0.7520491865408E+00 -0.1490280143960E+01  0.0000000000000E+00
-0.5500385982869E+00 -0.4161033789916E+01  0.0000000000000E+00
-0.5500771965804E+00 -0.4018022907176E+01  0.0000000000000E+00
-0.5501157948812E+00 -0.3875011997166E+01  0.0000000000000E+00
-0.5501543931817E+00 -0.3732001088037E+01  0.0000000000000E+00
-0.5501929914815E+00 -0.3588990181862E+01  0.0000000000000E+00
-0.5502315898217E+00 -0.3445979125648E+01  0.0000000000000E+00
-0.5502701881978E+00 -0.3302967936690E+01  0.0000000000000E+00
-0.5503087863777E+00 -0.3159957474644E+01  0.0000000000000E+00
-0.5503473846437E+00 -0.3016946693484E+01  0.0000000000000E+00
-0.5503905699093E+00 -0.2873935941872E+01  0.0000000000000E+00
-0.5511335742212E+00 -0.2730936179131E+01  0.0000000000000E+00
-0.5542450840560E+00 -0.2588076225384E+01  0.0000000000000E+00
-0.5603263962216E+00 -0.2445620384998E+01  0.0000000000000E+00
-0.5693327996820E+00 -0.2303818019626E+01  0.0000000000000E+00
-0.5812085363640E+00 -0.2162912989786E+01  0.0000000000000E+00
-0.5960535115026E+00 -0.2023205920360E+01  0.0000000000000E+00
-0.6136984073852E+00 -0.1884883523146E+01  0.0000000000000E+00
-0.6339725034451E+00 -0.1748098189228E+01  0.0000000000000E+00
-0.6569575383771E+00 -0.1613147700654E+01  0.0000000000000E+00
-0.6830389565749E+00 -0.1480617948461E+01  0.0000000000000E+00
-0.4950519026787E+00 -0.4160603604494E+01  0.0000000000000E+00
-0.4951038053660E+00 -0.4017162536260E+01  0.0000000000000E+00
-0.4951557080633E+00 -0.3873721440673E+01  0.0000000000000E+00
-0.4952076107603E+00 -0.3730280345971E+01  0.0000000000000E+00
-0.4952595134562E+00 -0.3586839254232E+01  0.0000000000000E+00
-0.4953114162065E+00 -0.3443398012002E+01  0.0000000000000E+00
-0.4953633190051E+00 -0.3299956636628E+01  0.0000000000000E+00
-0.4954152215398E+00 -0.3156515990354E+01  0.0000000000000E+00
-0.4954671241903E+00 -0.3013075024005E+01  0.0000000000000E+00
-0.4955231551368E+00 -0.2869634087292E+01  0.0000000000000E+00
-0.4962090227682E+00 -0.2726204150367E+01  0.0000000000000E+00
-0.4990265444554E+00 -0.2582914043561E+01  0.0000000000000E+00
-0.5045168879682E+00 -0.2440028054687E+01  0.0000000000000E+00
-0.5126398137999E+00 -0.2297795534748E+01  0.0000000000000E+00
-0.5233451393291E+00 -0.2156460353215E+01  0.0000000000000E+00
-0.5367227792908E+00 -0.2016323134305E+01  0.0000000000000E+00
-0.5526203480869E+00 -0.1877570581358E+01  0.0000000000000E+00
-0.5708841969978E+00 -0.1740355090822E+01  0.0000000000000E+00
-0.5915878905426E+00 -0.1604974452359E+01  0.0000000000000E+00
-0.6150783282135E+00 -0.1472014568309E+01  0.0000000000000E+00
-0.4400598448564E+00 -0.4160217885556E+01  0.0000000000000E+00
-0.4401196897229E+00 -0.4016391098319E+01  0.0000000000000E+00
-0.4401795346009E+00 -0.3872564283656E+01  0.0000000000000E+00
-0.4402393794784E+00 -0.3728737469879E+01  0.0000000000000E+00
-0.4402992243547E+00 -0.3584910659074E+01  0.0000000000000E+00
-0.4403590692938E+00 -0.3441083697373E+01  0.0000000000000E+00
-0.4404189142884E+00 -0.3297256602171E+01  0.0000000000000E+00
-0.4404787589789E+00 -0.3153430238028E+01  0.0000000000000E+00
-0.4405386038029E+00 -0.3009603552950E+01  0.0000000000000E+00
-0.4406021182205E+00 -0.2865776897587E+01  0.0000000000000E+00
-0.4412254871236E+00 -0.2721961251799E+01  0.0000000000000E+00
-0.4437436589671E+00 -0.2578285455073E+01  0.0000000000000E+00
-0.4486376722979E+00 -0.2435013780377E+01  0.0000000000000E+00
-0.4558717590049E+00 -0.2292395569166E+01  0.0000000000000E+00
-0.4654013120275E+00 -0.2150674698937E+01  0.0000000000000E+00
-0.4773062555965E+00 -0.2010151793313E+01  0.0000000000000E+00
-0.4914511361163E+00 -0.1871013548046E+01  0.0000000000000E+00
-0.5076993767752E+00 -0.1733412364399E+01  0.0000000000000E+00
-0.5261163680144E+00 -0.1597646038857E+01  0.0000000000000E+00
-0.5470104645797E+00 -0.1464300483898E+01  0.0000000000000E+00
-0.3850629864597E+00 -0.4159876900567E+01  0.0000000000000E+00
-0.3851259729300E+00 -0.4015709128284E+01  0.0000000000000E+00
-0.3851889594123E+00 -0.3871541328509E+01  0.0000000000000E+00
-0.3852519458942E+00 -0.3727373529624E+01  0.0000000000000E+00
-0.3853149323749E+00 -0.3583205733716E+01  0.0000000000000E+00
-0.3853779189216E+00 -0.3439037786555E+01  0.0000000000000E+00
-0.3854409055267E+00 -0.3294869705576E+01  0.0000000000000E+00
-0.3855038918118E+00 -0.3150702357390E+01  0.0000000000000E+00
-0.3855668782373E+00 -0.3006534687509E+01  0.0000000000000E+00
-0.3856330755550E+00 -0.2862367047411E+01  0.0000000000000E+00
-0.3861891452633E+00 -0.2718210425541E+01  0.0000000000000E+00
-0.3884031669730E+00 -0.2574193669479E+01  0.0000000000000E+00
-0.3926960498090E+00 -0.2430581039070E+01  0.0000000000000E+00
-0.3990364969378E+00 -0.2287621867327E+01  0.0000000000000E+00
-0.4073854769611E+00 -0.2145560038844E+01  0.0000000000000E+00
-0.4178129235952E+00 -0.2004696176717E+01  0.0000000000000E+00
-0.4302003151572E+00 -0.1865216969994E+01  0.0000000000000E+00
-0.4444281468073E+00 -0.1727274824189E+01  0.0000000000000E+00
-0.4605536349915E+00 -0.1591167541823E+01  0.0000000000000E+00
-0.4788465898261E+00 -0.1457481044333E+01  0.0000000000000E+00
-0.3300619056673E+00 -0.4159580888679E+01  0.0000000000000E+00
-0.3301238113451E+00 -0.4015117104458E+01  0.0000000000000E+00
-0.3301857170347E+00 -0.3870653292689E+01  0.0000000000000E+00
-0.3302476227239E+00 -0.3726189481811E+01  0.0000000000000E+00
-0.3303095284118E+00 -0.3581725673917E+01  0.0000000000000E+00
-0.3303714341646E+00 -0.3437261714459E+01  0.0000000000000E+00
-0.3304333399749E+00 -0.3292797620909E+01  0.0000000000000E+00
-0.3304952454706E+00 -0.3148334261655E+01  0.0000000000000E+00
-0.3305571511044E+00 -0.3003870580046E+01  0.0000000000000E+00
-0.3306218089298E+00 -0.2859406928281E+01  0.0000000000000E+00
-0.3311063571750E+00 -0.2714954302256E+01  0.0000000000000E+00
-0.3330120067481E+00 -0.2570641556575E+01  0.0000000000000E+00
-0.3366995372036E+00 -0.2426732939691E+01  0.0000000000000E+00
-0.3421421228802E+00 -0.2283477777292E+01  0.0000000000000E+00
-0.3493063081284E+00 -0.2141119960130E+01  0.0000000000000E+00
-0.3582520361460E+00 -0.1999960110844E+01  0.0000000000000E+00
-0.3688777170754E+00 -0.1860184912661E+01  0.0000000000000E+00
-0.3810809180974E+00 -0.1721946774789E+01  0.0000000000000E+00
-0.3949106817397E+00 -0.1585543504984E+01  0.0000000000000E+00
-0.4105982736091E+00 -0.1451561032464E+01  0.0000000000000E+00
-0.2750571858516E+00 -0.4159330058600E+01  0.0000000000000E+00
-0.2751143717129E+00 -0.4014615444259E+01  0.0000000000000E+00
-0.2751715575851E+00 -0.3869900802322E+01  0.0000000000000E+00
-0.2752287434569E+00 -0.3725186161277E+01  0.0000000000000E+00
-0.2752859293275E+00 -0.3580471523221E+01  0.0000000000000E+00
-0.2753431152582E+00 -0.3435756733339E+01  0.0000000000000E+00
-0.2754003012419E+00 -0.3291041809131E+01  0.0000000000000E+00
-0.2754574869349E+00 -0.3146327620495E+01  0.0000000000000E+00
-0.2755146727556E+00 -0.3001613108943E+01  0.0000000000000E+00
-0.2755741520680E+00 -0.2856898627288E+01  0.0000000000000E+00
-0.2759835399151E+00 -0.2712195177736E+01  0.0000000000000E+00
-0.2775771785720E+00 -0.2567631620847E+01  0.0000000000000E+00
-0.2806557178774E+00 -0.2423472195421E+01  0.0000000000000E+00
-0.2851968032522E+00 -0.2279966220933E+01  0.0000000000000E+00
-0.2911725548721E+00 -0.2137357593360E+01  0.0000000000000E+00
-0.2986329254098E+00 -0.1995946934950E+01  0.0000000000000E+00
-0.3074932567632E+00 -0.1855920924000E+01  0.0000000000000E+00
-0.3176681881805E+00 -0.1717431972844E+01  0.0000000000000E+00
-0.3291985883348E+00 -0.1580777893680E+01  0.0000000000000E+00
-0.3422771784154E+00 -0.1446544622314E+01  0.0000000000000E+00
-0.2200494213304E+00 -0.4159124588568E+01  0.0000000000000E+00
-0.2200988426691E+00 -0.4014204504160E+01  0.0000000000000E+00
-0.2201482640172E+00 -0.3869284392117E+01  0.0000000000000E+00
-0.2201976853651E+00 -0.3724364280968E+01  0.0000000000000E+00
-0.2202471067119E+00 -0.3579444172811E+01  0.0000000000000E+00
-0.2202965281105E+00 -0.3434523912613E+01  0.0000000000000E+00
-0.2203459495550E+00 -0.3289603517898E+01  0.0000000000000E+00
-0.2203953707484E+00 -0.3144683859800E+01  0.0000000000000E+00
-0.2204447920520E+00 -0.2999763878328E+01  0.0000000000000E+00
-0.2204960481482E+00 -0.2854843926793E+01  0.0000000000000E+00
-0.2208272309758E+00 -0.2709935012576E+01  0.0000000000000E+00
-0.2221058142604E+00 -0.2565166001113E+01  0.0000000000000E+00
-0.2245723180114E+00 -0.2420801123295E+01  0.0000000000000E+00
-0.2282088586565E+00 -0.2277089693513E+01  0.0000000000000E+00
-0.2329931322596E+00 -0.2134275612017E+01  0.0000000000000E+00
-0.2389651009641E+00 -0.1992659500741E+01  0.0000000000000E+00
-0.2460570383625E+00 -0.1852428033938E+01  0.0000000000000E+00
-0.2542006558072E+00 -0.1713733626508E+01  0.0000000000000E+00
-0.2634286481713E+00 -0.1576874094283E+01  0.0000000000000E+00
-0.2738951923088E+00 -0.1442435378469E+01  0.0000000000000E+00
-0.1650392126324E+00 -0.4158964625296E+01  0.0000000000000E+00
-0.1650784252713E+00 -0.4013884577590E+01  0.0000000000000E+00
-0.1651176379177E+00 -0.3868804502217E+01  0.0000000000000E+00
-0.1651568505639E+00 -0.3723724427740E+01  0.0000000000000E+00
-0.1651960632093E+00 -0.3578644356259E+01  0.0000000000000E+00
-0.1652352758958E+00 -0.3433564132568E+01  0.0000000000000E+00
-0.1652744886187E+00 -0.3288483774212E+01  0.0000000000000E+00
-0.1653137011423E+00 -0.3143404153285E+01  0.0000000000000E+00
-0.1653529137534E+00 -0.2998324208628E+01  0.0000000000000E+00
-0.1653935024586E+00 -0.2853244293941E+01  0.0000000000000E+00
-0.1656440361591E+00 -0.2708175420631E+01  0.0000000000000E+00
-0.1666051201020E+00 -0.2563246457930E+01  0.0000000000000E+00
-0.1684571443782E+00 -0.2418721630574E+01  0.0000000000000E+00
-0.1711866963610E+00 -0.2274850248994E+01  0.0000000000000E+00
-0.1747770480530E+00 -0.2131876216768E+01  0.0000000000000E+00
-0.1792581710655E+00 -0.1990100155583E+01  0.0000000000000E+00
-0.1845792706359E+00 -0.1849708736549E+01  0.0000000000000E+00
-0.1906891302505E+00 -0.1710854376557E+01  0.0000000000000E+00
-0.1976122710256E+00 -0.1573834894273E+01  0.0000000000000E+00
-0.2054643255476E+00 -0.1439236235106E+01  0.0000000000000E+00
-0.1100271650341E+00 -0.4158850283464E+01  0.0000000000000E+00
-0.1100543300728E+00 -0.4013655893906E+01  0.0000000000000E+00
-0.1100814951167E+00 -0.3868461476660E+01  0.0000000000000E+00
-0.1101086601604E+00 -0.3723267060310E+01  0.0000000000000E+00
-0.1101358252036E+00 -0.3578072646959E+01  0.0000000000000E+00
-0.1101629902752E+00 -0.3432878081278E+01  0.0000000000000E+00
-0.1101901553721E+00 -0.3287683380826E+01  0.0000000000000E+00
-0.1102173203309E+00 -0.3142489418384E+01  0.0000000000000E+00
-0.1102444853503E+00 -0.2997295131957E+01  0.0000000000000E+00
-0.1102725677655E+00 -0.2852100875523E+01  0.0000000000000E+00
-0.1104406134806E+00 -0.2706917663368E+01  0.0000000000000E+00
-0.1110823592933E+00 -0.2561874367437E+01  0.0000000000000E+00
-0.1123180652995E+00 -0.2417235208066E+01  0.0000000000000E+00
-0.1141387897736E+00 -0.2273249492854E+01  0.0000000000000E+00
-0.1165333806953E+00 -0.2130161127761E+01  0.0000000000000E+00
-0.1195218191400E+00 -0.1988270734297E+01  0.0000000000000E+00
-0.1230702419557E+00 -0.1847764981321E+01  0.0000000000000E+00
-0.1271445047865E+00 -0.1708796287153E+01  0.0000000000000E+00
-0.1317609550242E+00 -0.1571662472481E+01  0.0000000000000E+00
-0.1369966810324E+00 -0.1436949485720E+01  0.0000000000000E+00
-0.5501388973120E-01 -0.4158781645376E+01  0.0000000000000E+00
-0.5502777946474E-01 -0.4013518617717E+01  0.0000000000000E+00
-0.5504166920092E-01 -0.3868255562359E+01  0.0000000000000E+00
-0.5505555893702E-01 -0.3722992507896E+01  0.0000000000000E+00
-0.5506944867283E-01 -0.3577729456434E+01  0.0000000000000E+00
-0.5508333842322E-01 -0.3432466252569E+01  0.0000000000000E+00
-0.5509722818649E-01 -0.3287202913870E+01  0.0000000000000E+00
-0.5511111787917E-01 -0.3141940313530E+01  0.0000000000000E+00
-0.5512500760284E-01 -0.2996677389052E+01  0.0000000000000E+00
-0.5513935602430E-01 -0.2851414494581E+01  0.0000000000000E+00
-0.5522368608569E-01 -0.2706162646130E+01  0.0000000000000E+00
-0.5554486617438E-01 -0.2561050717274E+01  0.0000000000000E+00
-0.5616302634812E-01 -0.2416342925707E+01  0.0000000000000E+00
-0.5707369575115E-01 -0.2272288577330E+01  0.0000000000000E+00
-0.5827129836579E-01 -0.2129131579530E+01  0.0000000000000E+00
-0.5976582473046E-01 -0.1987172553712E+01  0.0000000000000E+00
-0.6154034327819E-01 -0.1846598167384E+01  0.0000000000000E+00
-0.6357778182533E-01 -0.1707560839724E+01  0.0000000000000E+00
-0.6588631406154E-01 -0.1570358392634E+01  0.0000000000000E+00
-0.6850448416199E-01 -0.1435576776330E+01  0.0000000000000E+00
 0.2862823369523E-09 -0.4158758760510E+01  0.0000000000000E+00
 0.5725642989217E-09 -0.4013472847981E+01  0.0000000000000E+00
 0.8588466427077E-09 -0.3868186907748E+01  0.0000000000000E+00
 0.1145129137124E-08 -0.3722900968411E+01  0.0000000000000E+00
 0.1431411291690E-08 -0.3577615032075E+01  0.0000000000000E+00
 0.1717693957354E-08 -0.3432328943313E+01  0.0000000000000E+00
 0.2003976567042E-08 -0.3287042719694E+01  0.0000000000000E+00
 0.2290258229023E-08 -0.3141757234552E+01  0.0000000000000E+00
 0.2576540540582E-08 -0.2996471425219E+01  0.0000000000000E+00
 0.2862908882798E-08 -0.2851185645899E+01  0.0000000000000E+00
 0.3153507500703E-08 -0.2705910913180E+01  0.0000000000000E+00
 0.3456098328546E-08 -0.2560776101180E+01  0.0000000000000E+00
 0.3774700689739E-08 -0.2416045426712E+01  0.0000000000000E+00
 0.4110245087960E-08 -0.2271968195110E+01  0.0000000000000E+00
 0.4465088130623E-08 -0.2128788314238E+01  0.0000000000000E+00
 0.4838883325138E-08 -0.1986806405465E+01  0.0000000000000E+00
 0.5225485939100E-08 -0.1846209135851E+01  0.0000000000000E+00
 0.5628719591881E-08 -0.1707148924857E+01  0.0000000000000E+00
 0.6050320966622E-08 -0.1569923594790E+01  0.0000000000000E+00
 0.6487104863030E-08 -0.1435119096470E+01  0.0000000000000E+00
 0.5501389030371E-01 -0.4158781645385E+01  0.0000000000000E+00
 0.5502778060975E-01 -0.4013518617735E+01  0.0000000000000E+00
 0.5504167091844E-01 -0.3868255562385E+01  0.0000000000000E+00
 0.5505556122704E-01 -0.3722992507932E+01  0.0000000000000E+00
 0.5506945153536E-01 -0.3577729456478E+01  0.0000000000000E+00
 0.5508334185825E-01 -0.3432466252622E+01  0.0000000000000E+00
 0.5509723219403E-01 -0.3287202913932E+01  0.0000000000000E+00
 0.5511112245921E-01 -0.3141940313601E+01  0.0000000000000E+00
 0.5512501275539E-01 -0.2996677389131E+01  0.0000000000000E+00
 0.5513936174952E-01 -0.2851414494669E+01  0.0000000000000E+00
 0.5522369239205E-01 -0.2706162646227E+01  0.0000000000000E+00
 0.5554487308587E-01 -0.2561050717381E+01  0.0000000000000E+00
 0.5616303389675E-01 -0.2416342925823E+01  0.0000000000000E+00
 0.5707370397081E-01 -0.2272288577454E+01  0.0000000000000E+00
 0.5827130729508E-01 -0.2129131579663E+01  0.0000000000000E+00
 0.5976583440727E-01 -0.1987172553854E+01  0.0000000000000E+00
 0.6154035372815E-01 -0.1846598167536E+01  0.0000000000000E+00
 0.6357779308170E-01 -0.1707560839884E+01  0.0000000000000E+00
 0.6588632616105E-01 -0.1570358392803E+01  0.0000000000000E+00
 0.6850449713501E-01 -0.1435576776509E+01  0.0000000000000E+00
 0.1100271656065E+00 -0.4158850283482E+01  0.0000000000000E+00
 0.1100543312175E+00 -0.4013655893941E+01  0.0000000000000E+00
 0.1100814968337E+00 -0.3868461476714E+01  0.0000000000000E+00
 0.1101086624497E+00 -0.3723267060381E+01  0.0000000000000E+00
 0.1101358280652E+00 -0.3578072647048E+01  0.0000000000000E+00
 0.1101629937092E+00 -0.3432878081384E+01  0.0000000000000E+00
 0.1101901593784E+00 -0.3287683380950E+01  0.0000000000000E+00
 0.1102173249095E+00 -0.3142489418526E+01  0.0000000000000E+00
 0.1102444905012E+00 -0.2997295132116E+01  0.0000000000000E+00
 0.1102725734889E+00 -0.2852100875700E+01  0.0000000000000E+00
 0.1104406197850E+00 -0.2706917663563E+01  0.0000000000000E+00
 0.1110823662026E+00 -0.2561874367650E+01  0.0000000000000E+00
 0.1123180728459E+00 -0.2417235208296E+01  0.0000000000000E+00
 0.1141387979908E+00 -0.2273249493102E+01  0.0000000000000E+00
 0.1165333896219E+00 -0.2130161128027E+01  0.0000000000000E+00
 0.1195218288140E+00 -0.1988270734580E+01  0.0000000000000E+00
 0.1230702524027E+00 -0.1847764981623E+01  0.0000000000000E+00
 0.1271445160396E+00 -0.1708796287473E+01  0.0000000000000E+00
 0.1317609671203E+00 -0.1571662472820E+01  0.0000000000000E+00
 0.1369966940019E+00 -0.1436949486077E+01  0.0000000000000E+00
 0.1650392132044E+00 -0.4158964625323E+01  0.0000000000000E+00
 0.1650784264154E+00 -0.4013884577643E+01  0.0000000000000E+00
 0.1651176396338E+00 -0.3868804502297E+01  0.0000000000000E+00
 0.1651568528521E+00 -0.3723724427846E+01  0.0000000000000E+00
 0.1651960660695E+00 -0.3578644356392E+01  0.0000000000000E+00
 0.1652352793280E+00 -0.3433564132727E+01  0.0000000000000E+00
 0.1652744926230E+00 -0.3288483774398E+01  0.0000000000000E+00
 0.1653137057186E+00 -0.3143404153498E+01  0.0000000000000E+00
 0.1653529189017E+00 -0.2998324208867E+01  0.0000000000000E+00
 0.1653935081791E+00 -0.2853244294207E+01  0.0000000000000E+00
 0.1656440424602E+00 -0.2708175420923E+01  0.0000000000000E+00
 0.1666051270078E+00 -0.2563246458249E+01  0.0000000000000E+00
 0.1684571519207E+00 -0.2418721630920E+01  0.0000000000000E+00
 0.1711867045741E+00 -0.2274850249366E+01  0.0000000000000E+00
 0.1747770569752E+00 -0.2131876217167E+01  0.0000000000000E+00
 0.1792581807348E+00 -0.1990100156009E+01  0.0000000000000E+00
 0.1845792810779E+00 -0.1849708737001E+01  0.0000000000000E+00
 0.1906891414983E+00 -0.1710854377037E+01  0.0000000000000E+00
 0.1976122831161E+00 -0.1573834894781E+01  0.0000000000000E+00
 0.2054643385111E+00 -0.1439236235641E+01  0.0000000000000E+00
 0.2200494219020E+00 -0.4159124588604E+01  0.0000000000000E+00
 0.2200988438123E+00 -0.4014204504231E+01  0.0000000000000E+00
 0.2201482657321E+00 -0.3869284392223E+01  0.0000000000000E+00
 0.2201976876515E+00 -0.3724364281109E+01  0.0000000000000E+00
 0.2202471095699E+00 -0.3579444172988E+01  0.0000000000000E+00
 0.2202965315402E+00 -0.3434523912825E+01  0.0000000000000E+00
 0.2203459535564E+00 -0.3289603518146E+01  0.0000000000000E+00
 0.2203953753213E+00 -0.3144683860083E+01  0.0000000000000E+00
 0.2204447971965E+00 -0.2999763878646E+01  0.0000000000000E+00
 0.2204960538646E+00 -0.2854843927147E+01  0.0000000000000E+00
 0.2208272372724E+00 -0.2709935012966E+01  0.0000000000000E+00
 0.2221058211612E+00 -0.2565166001538E+01  0.0000000000000E+00
 0.2245723255485E+00 -0.2420801123755E+01  0.0000000000000E+00
 0.2282088668637E+00 -0.2277089694009E+01  0.0000000000000E+00
 0.2329931411755E+00 -0.2134275612548E+01  0.0000000000000E+00
 0.2389651106267E+00 -0.1992659501308E+01  0.0000000000000E+00
 0.2460570487974E+00 -0.1852428034541E+01  0.0000000000000E+00
 0.2542006670476E+00 -0.1713733627147E+01  0.0000000000000E+00
 0.2634286602540E+00 -0.1576874094959E+01  0.0000000000000E+00
 0.2738952052641E+00 -0.1442435379182E+01  0.0000000000000E+00
 0.2750571864227E+00 -0.4159330058645E+01  0.0000000000000E+00
 0.2751143728551E+00 -0.4014615444347E+01  0.0000000000000E+00
 0.2751715592983E+00 -0.3869900802454E+01  0.0000000000000E+00
 0.2752287457413E+00 -0.3725186161454E+01  0.0000000000000E+00
 0.2752859321830E+00 -0.3580471523442E+01  0.0000000000000E+00
 0.2753431186847E+00 -0.3435756733604E+01  0.0000000000000E+00
 0.2754003052395E+00 -0.3291041809440E+01  0.0000000000000E+00
 0.2754574915036E+00 -0.3146327620849E+01  0.0000000000000E+00
 0.2755146778954E+00 -0.3001613109341E+01  0.0000000000000E+00
 0.2755741577791E+00 -0.2856898627730E+01  0.0000000000000E+00
 0.2759835462059E+00 -0.2712195178222E+01  0.0000000000000E+00
 0.2775771854665E+00 -0.2567631621378E+01  0.0000000000000E+00
 0.2806557254076E+00 -0.2423472195995E+01  0.0000000000000E+00
 0.2851968114520E+00 -0.2279966221552E+01  0.0000000000000E+00
 0.2911725637801E+00 -0.2137357594023E+01  0.0000000000000E+00
 0.2986329350640E+00 -0.1995946935658E+01  0.0000000000000E+00
 0.3074932671891E+00 -0.1855920924753E+01  0.0000000000000E+00
 0.3176681994114E+00 -0.1717431973642E+01  0.0000000000000E+00
 0.3291986004074E+00 -0.1580777894524E+01  0.0000000000000E+00
 0.3422771913601E+00 -0.1446544623204E+01  0.0000000000000E+00
 0.3300619062378E+00 -0.4159580888732E+01  0.0000000000000E+00
 0.3301238124860E+00 -0.4015117104564E+01  0.0000000000000E+00
 0.3301857187460E+00 -0.3870653292848E+01  0.0000000000000E+00
 0.3302476250056E+00 -0.3726189482023E+01  0.0000000000000E+00
 0.3303095312640E+00 -0.3581725674181E+01  0.0000000000000E+00
 0.3303714375873E+00 -0.3437261714777E+01  0.0000000000000E+00
 0.3304333439680E+00 -0.3292797621279E+01  0.0000000000000E+00
 0.3304952500341E+00 -0.3148334262079E+01  0.0000000000000E+00
 0.3305571562384E+00 -0.3003870580523E+01  0.0000000000000E+00
 0.3306218146344E+00 -0.2859406928811E+01  0.0000000000000E+00
 0.3311063634587E+00 -0.2714954302838E+01  0.0000000000000E+00
 0.3330120136349E+00 -0.2570641557211E+01  0.0000000000000E+00
 0.3366995447255E+00 -0.2426732940380E+01  0.0000000000000E+00
 0.3421421310710E+00 -0.2283477778033E+01  0.0000000000000E+00
 0.3493063170268E+00 -0.2141119960924E+01  0.0000000000000E+00
 0.3582520457899E+00 -0.1999960111693E+01  0.0000000000000E+00
 0.3688777274904E+00 -0.1860184913564E+01  0.0000000000000E+00
 0.3810809293167E+00 -0.1721946775745E+01  0.0000000000000E+00
 0.3949106938001E+00 -0.1585543505997E+01  0.0000000000000E+00
 0.4105982865409E+00 -0.1451561033531E+01  0.0000000000000E+00
 0.3850629870294E+00 -0.4159876900628E+01  0.0000000000000E+00
 0.3851259740694E+00 -0.4015709128407E+01  0.0000000000000E+00
 0.3851889611214E+00 -0.3871541328694E+01  0.0000000000000E+00
 0.3852519481730E+00 -0.3727373529871E+01  0.0000000000000E+00
 0.3853149352233E+00 -0.3583205734024E+01  0.0000000000000E+00
 0.3853779223397E+00 -0.3439037786925E+01  0.0000000000000E+00
 0.3854409095145E+00 -0.3294869706008E+01  0.0000000000000E+00
 0.3855038963692E+00 -0.3150702357884E+01  0.0000000000000E+00
 0.3855668833645E+00 -0.3006534688064E+01  0.0000000000000E+00
 0.3856330812520E+00 -0.2862367048028E+01  0.0000000000000E+00
 0.3861891515386E+00 -0.2718210426220E+01  0.0000000000000E+00
 0.3884031738507E+00 -0.2574193670220E+01  0.0000000000000E+00
 0.3926960573210E+00 -0.2430581039871E+01  0.0000000000000E+00
 0.3990365051180E+00 -0.2287621868191E+01  0.0000000000000E+00
 0.4073854858481E+00 -0.2145560039770E+01  0.0000000000000E+00
 0.4178129332270E+00 -0.2004696177705E+01  0.0000000000000E+00
 0.4302003255592E+00 -0.1865216971045E+01  0.0000000000000E+00
 0.4444281580129E+00 -0.1727274825304E+01  0.0000000000000E+00
 0.4605536470375E+00 -0.1591167543002E+01  0.0000000000000E+00
 0.4788466027428E+00 -0.1457481045576E+01  0.0000000000000E+00
 0.4400598454253E+00 -0.4160217885626E+01  0.0000000000000E+00
 0.4401196908606E+00 -0.4016391098460E+01  0.0000000000000E+00
 0.4401795363073E+00 -0.3872564283867E+01  0.0000000000000E+00
 0.4402393817537E+00 -0.3728737470161E+01  0.0000000000000E+00
 0.4402992271988E+00 -0.3584910659426E+01  0.0000000000000E+00
 0.4403590727067E+00 -0.3441083697795E+01  0.0000000000000E+00
 0.4404189182702E+00 -0.3297256602663E+01  0.0000000000000E+00
 0.4404787635294E+00 -0.3153430238591E+01  0.0000000000000E+00
 0.4405386089222E+00 -0.3009603553584E+01  0.0000000000000E+00
 0.4406021239088E+00 -0.2865776898291E+01  0.0000000000000E+00
 0.4412254933894E+00 -0.2721961252573E+01  0.0000000000000E+00
 0.4437436658343E+00 -0.2578285455918E+01  0.0000000000000E+00
 0.4486376797985E+00 -0.2435013781291E+01  0.0000000000000E+00
 0.4558717671729E+00 -0.2292395570152E+01  0.0000000000000E+00
 0.4654013209015E+00 -0.2150674699993E+01  0.0000000000000E+00
 0.4773062652143E+00 -0.2010151794440E+01  0.0000000000000E+00
 0.4914511465035E+00 -0.1871013549246E+01  0.0000000000000E+00
 0.5076993879652E+00 -0.1733412365671E+01  0.0000000000000E+00
 0.5261163800438E+00 -0.1597646040203E+01  0.0000000000000E+00
 0.5470104774790E+00 -0.1464300485316E+01  0.0000000000000E+00
 0.4950519032465E+00 -0.4160603604573E+01  0.0000000000000E+00
 0.4951038065017E+00 -0.4017162536418E+01  0.0000000000000E+00
 0.4951557097668E+00 -0.3873721440910E+01  0.0000000000000E+00
 0.4952076130316E+00 -0.3730280346287E+01  0.0000000000000E+00
 0.4952595162954E+00 -0.3586839254627E+01  0.0000000000000E+00
 0.4953114196136E+00 -0.3443398012476E+01  0.0000000000000E+00
 0.4953633229799E+00 -0.3299956637182E+01  0.0000000000000E+00
 0.4954152260825E+00 -0.3156515990986E+01  0.0000000000000E+00
 0.4954671293008E+00 -0.3013075024716E+01  0.0000000000000E+00
 0.4955231608153E+00 -0.2869634088082E+01  0.0000000000000E+00
 0.4962090290232E+00 -0.2726204151236E+01  0.0000000000000E+00
 0.4990265513109E+00 -0.2582914044509E+01  0.0000000000000E+00
 0.5045168954561E+00 -0.2440028055714E+01  0.0000000000000E+00
 0.5126398219542E+00 -0.2297795535855E+01  0.0000000000000E+00
 0.5233451481883E+00 -0.2156460354401E+01  0.0000000000000E+00
 0.5367227888929E+00 -0.2016323135572E+01  0.0000000000000E+00
 0.5526203584575E+00 -0.1877570582705E+01  0.0000000000000E+00
 0.5708842081701E+00 -0.1740355092250E+01  0.0000000000000E+00
 0.5915879025534E+00 -0.1604974453869E+01  0.0000000000000E+00
 0.6150783410931E+00 -0.1472014569901E+01  0.0000000000000E+00
 0.5500385988537E+00 -0.4161033790003E+01  0.0000000000000E+00
 0.5500771977139E+00 -0.4018022907351E+01  0.0000000000000E+00
 0.5501157965814E+00 -0.3875011997428E+01  0.0000000000000E+00
 0.5501543954487E+00 -0.3732001088388E+01  0.0000000000000E+00
 0.5501929943152E+00 -0.3588990182300E+01  0.0000000000000E+00
 0.5502315932222E+00 -0.3445979126174E+01  0.0000000000000E+00
 0.5502701921651E+00 -0.3302967937304E+01  0.0000000000000E+00
 0.5503087909117E+00 -0.3159957475345E+01  0.0000000000000E+00
 0.5503473897445E+00 -0.3016946694273E+01  0.0000000000000E+00
 0.5503905755770E+00 -0.2873935942748E+01  0.0000000000000E+00
 0.5511335804643E+00 -0.2730936180095E+01  0.0000000000000E+00
 0.5542450908984E+00 -0.2588076226435E+01  0.0000000000000E+00
 0.5603264036954E+00 -0.2445620386136E+01  0.0000000000000E+00
 0.5693328078211E+00 -0.2303818020853E+01  0.0000000000000E+00
 0.5812085452069E+00 -0.2162912991101E+01  0.0000000000000E+00
 0.5960535210873E+00 -0.2023205921764E+01  0.0000000000000E+00
 0.6136984177373E+00 -0.1884883524639E+01  0.0000000000000E+00
 0.6339725145979E+00 -0.1748098190811E+01  0.0000000000000E+00
 0.6569575503672E+00 -0.1613147702329E+01  0.0000000000000E+00
 0.6830389694328E+00 -0.1480617950226E+01  0.0000000000000E+00
 0.6050711735961E+00 -0.4161516918212E+01  0.0000000000000E+00
 0.6051423472042E+00 -0.4018989163849E+01  0.0000000000000E+00
 0.6052135208259E+00 -0.3876461382308E+01  0.0000000000000E+00
 0.6052846944471E+00 -0.3733933601646E+01  0.0000000000000E+00
 0.6053558680668E+00 -0.3591405823928E+01  0.0000000000000E+00
 0.6054270417613E+00 -0.3448877896677E+01  0.0000000000000E+00
 0.6054982155217E+00 -0.3306349837131E+01  0.0000000000000E+00
 0.6055693889205E+00 -0.3163822502041E+01  0.0000000000000E+00
 0.6056405624780E+00 -0.3021294848915E+01  0.0000000000000E+00
 0.6057167863091E+00 -0.2878767225238E+01  0.0000000000000E+00
 0.6065635090779E+00 -0.2736250578173E+01  0.0000000000000E+00
 0.6100179512757E+00 -0.2593873716375E+01  0.0000000000000E+00
 0.6167421408437E+00 -0.2451900962805E+01  0.0000000000000E+00
 0.6266868517137E+00 -0.2310581691079E+01  0.0000000000000E+00
 0.6397906937444E+00 -0.2170159751654E+01  0.0000000000000E+00
 0.6561636624840E+00 -0.2030935770165E+01  0.0000000000000E+00
 0.6756193399513E+00 -0.1893096467907E+01  0.0000000000000E+00
 0.6979697627244E+00 -0.1756794229939E+01  0.0000000000000E+00
 0.7233049244723E+00 -0.1622326829760E+01  0.0000000000000E+00
 0.7520491980992E+00 -0.1490280145708E+01  0.0000000000000E+00
 0.6600970514097E+00 -0.4162045450007E+01  0.0000000000000E+00
 0.6601941028358E+00 -0.4020046227529E+01  0.0000000000000E+00
 0.6602911542804E+00 -0.3878046977972E+01  0.0000000000000E+00
 0.6603882057244E+00 -0.3736047729292E+01  0.0000000000000E+00
 0.6604852571663E+00 -0.3594048483544E+01  0.0000000000000E+00
 0.6605823087101E+00 -0.3452049088819E+01  0.0000000000000E+00
 0.6606793603440E+00 -0.3310049562288E+01  0.0000000000000E+00
 0.6607764114846E+00 -0.3168050757527E+01  0.0000000000000E+00
 0.6608734628417E+00 -0.3026051635910E+01  0.0000000000000E+00
 0.6609760277476E+00 -0.2884052543634E+01  0.0000000000000E+00
 0.6619197716469E+00 -0.2742064414558E+01  0.0000000000000E+00
 0.6657104491960E+00 -0.2600216044793E+01  0.0000000000000E+00
 0.6730708192057E+00 -0.2458771777641E+01  0.0000000000000E+00
 0.6839471404084E+00 -0.2317980999801E+01  0.0000000000000E+00
 0.6982723907284E+00 -0.2178087550732E+01  0.0000000000000E+00
 0.7161666560184E+00 -0.2039392056884E+01  0.0000000000000E+00
 0.7374264179084E+00 -0.1902081249946E+01  0.0000000000000E+00
 0.7618464701962E+00 -0.1766307508384E+01  0.0000000000000E+00
 0.7895250616408E+00 -0.1632368596345E+01  0.0000000000000E+00
 0.8209254938403E+00 -0.1500850378279E+01  0.0000000000000E+00
 0.7151156783233E+00 -0.4162619017198E+01  0.0000000000000E+00
 0.7152313566661E+00 -0.4021193362007E+01  0.0000000000000E+00
 0.7153470350309E+00 -0.3879767679848E+01  0.0000000000000E+00
 0.7154627133950E+00 -0.3738341998561E+01  0.0000000000000E+00
 0.7155783917567E+00 -0.3596916320194E+01  0.0000000000000E+00
 0.7156940702398E+00 -0.3455490493452E+01  0.0000000000000E+00
 0.7158097488303E+00 -0.3314064535437E+01  0.0000000000000E+00
 0.7159254268328E+00 -0.3172639296277E+01  0.0000000000000E+00
 0.7160411050934E+00 -0.3031213741540E+01  0.0000000000000E+00
 0.7161627601794E+00 -0.2889788216026E+01  0.0000000000000E+00
 0.7171962745057E+00 -0.2748373639159E+01  0.0000000000000E+00
 0.7213159370821E+00 -0.2607098793435E+01  0.0000000000000E+00
 0.7293052373161E+00 -0.2466228044230E+01  0.0000000000000E+00
 0.7411059185607E+00 -0.2326010792442E+01  0.0000000000000E+00
 0.7566453269564E+00 -0.2186690865594E+01  0.0000000000000E+00
 0.7760536386498E+00 -0.2048568891020E+01  0.0000000000000E+00
 0.7991102347380E+00 -0.1911831611690E+01  0.0000000000000E+00
 0.8255926663275E+00 -0.1776631398915E+01  0.0000000000000E+00
 0.8556074373960E+00 -0.1643266006692E+01  0.0000000000000E+00
 0.8896567784302E+00 -0.1512321284399E+01  0.0000000000000E+00
 0.7701265164027E+00 -0.4163237225325E+01  0.0000000000000E+00
 0.7702530328267E+00 -0.4022429778365E+01  0.0000000000000E+00
 0.7703795492748E+00 -0.3881622304554E+01  0.0000000000000E+00
 0.7705060657221E+00 -0.3740814831612E+01  0.0000000000000E+00
 0.7706325821669E+00 -0.3600007361578E+01  0.0000000000000E+00
 0.7707590987443E+00 -0.3459199743817E+01  0.0000000000000E+00
 0.7708856154392E+00 -0.3318391995356E+01  0.0000000000000E+00
 0.7710121314910E+00 -0.3177584962608E+01  0.0000000000000E+00
 0.7711386478251E+00 -0.3036777615663E+01  0.0000000000000E+00
 0.7712716042631E+00 -0.2895970297815E+01  0.0000000000000E+00
 0.7723871003997E+00 -0.2755173912926E+01  0.0000000000000E+00
 0.7768279598168E+00 -0.2614517228821E+01  0.0000000000000E+00
 0.7854384022306E+00 -0.2474264634665E+01  0.0000000000000E+00
 0.7981556554211E+00 -0.2334665546664E+01  0.0000000000000E+00
 0.8149014339060E+00 -0.2195963779472E+01  0.0000000000000E+00
 0.8358160041157E+00 -0.2058459961379E+01  0.0000000000000E+00
 0.8606616464579E+00 -0.1922340847513E+01  0.0000000000000E+00
 0.8891986694414E+00 -0.1787758801471E+01  0.0000000000000E+00
 0.9215418324023E+00 -0.1655011566313E+01  0.0000000000000E+00
 0.9582322949282E+00 -0.1524684975170E+01  0.0000000000000E+00
 0.8251290426611E+00 -0.4163899654623E+01  0.0000000000000E+00
 0.8252580853438E+00 -0.4023754637073E+01  0.0000000000000E+00
 0.8253871280512E+00 -0.3883609592798E+01  0.0000000000000E+00
 0.8255161707578E+00 -0.3743464549388E+01  0.0000000000000E+00
 0.8256452134617E+00 -0.3603319508872E+01  0.0000000000000E+00
 0.8257742563010E+00 -0.3463174321324E+01  0.0000000000000E+00
 0.8259032992601E+00 -0.3323029003691E+01  0.0000000000000E+00
 0.8260323415633E+00 -0.3182884398404E+01  0.0000000000000E+00
 0.8261613841544E+00 -0.3042739480398E+01  0.0000000000000E+00
 0.8262973301294E+00 -0.2902594591353E+01  0.0000000000000E+00
 0.8274864964698E+00 -0.2762460618459E+01  0.0000000000000E+00
 0.8322402415205E+00 -0.2622466313816E+01  0.0000000000000E+00
 0.8414635149845E+00 -0.2482876092086E+01  0.0000000000000E+00
 0.8550890288630E+00 -0.2343939385871E+01  0.0000000000000E+00
 0.8730328662242E+00 -0.2205899996038E+01  0.0000000000000E+00
 0.8954453837691E+00 -0.2069058551904E+01  0.0000000000000E+00
 0.9220717610531E+00 -0.1933601821620E+01  0.0000000000000E+00
 0.9526550640919E+00 -0.1799682160523E+01  0.0000000000000E+00
 0.9873183077263E+00 -0.1667597299948E+01  0.0000000000000E+00
 0.1026641580862E+01 -0.1537933055620E+01  0.0000000000000E+00
 0.8801227526612E+00 -0.4164605862042E+01  0.0000000000000E+00
 0.8802455053430E+00 -0.4025167052030E+01  0.0000000000000E+00
 0.8803682580483E+00 -0.3885728215428E+01  0.0000000000000E+00
 0.8804910107528E+00 -0.3746289379686E+01  0.0000000000000E+00
 0.8806137634548E+00 -0.3606850546824E+01  0.0000000000000E+00
 0.8807365162855E+00 -0.3467411567670E+01  0.0000000000000E+00
 0.8808592692302E+00 -0.3327972459088E+01  0.0000000000000E+00
 0.8809820215509E+00 -0.3188534059261E+01  0.0000000000000E+00
 0.8811047741456E+00 -0.3049095348291E+01  0.0000000000000E+00
 0.8812348934061E+00 -0.2909656666139E+01  0.0000000000000E+00
 0.8824889139179E+00 -0.2770228882217E+01  0.0000000000000E+00
 0.8875467289882E+00 -0.2630940731864E+01  0.0000000000000E+00
 0.8973740179636E+00 -0.2492056656920E+01  0.0000000000000E+00
 0.9118989768486E+00 -0.2353826107473E+01  0.0000000000000E+00
 0.9310320574458E+00 -0.2216492869689E+01  0.0000000000000E+00
 0.9549337067125E+00 -0.2080357573977E+01  0.0000000000000E+00
 0.9833320031794E+00 -0.1945607002375E+01  0.0000000000000E+00
 0.1015952770480E+01 -0.1812393501412E+01  0.0000000000000E+00
 0.1052927279116E+01 -0.1681014789925E+01  0.0000000000000E+00
 0.1094874547539E+01 -0.1552056665082E+01  0.0000000000000E+00
 0.9351071625386E+00 -0.4165355383182E+01  0.0000000000000E+00
 0.9352143250951E+00 -0.4026666094435E+01  0.0000000000000E+00
 0.9353214876721E+00 -0.3887976779241E+01  0.0000000000000E+00
 0.9354286502485E+00 -0.3749287464903E+01  0.0000000000000E+00
 0.9355358128226E+00 -0.3610598153429E+01  0.0000000000000E+00
 0.9356429755092E+00 -0.3471908696450E+01  0.0000000000000E+00
 0.9357501382952E+00 -0.3333219110738E+01  0.0000000000000E+00
 0.9358573005366E+00 -0.3194530229972E+01  0.0000000000000E+00
 0.9359644630170E+00 -0.3055841039736E+01  0.0000000000000E+00
 0.9360794554472E+00 -0.2917151878163E+01  0.0000000000000E+00
 0.9373890302784E+00 -0.2778473595801E+01  0.0000000000000E+00
 0.9427416160660E+00 -0.2639934910201E+01  0.0000000000000E+00
 0.9531636214662E+00 -0.2501800292046E+01  0.0000000000000E+00
 0.9685787262547E+00 -0.2364319209979E+01  0.0000000000000E+00
 0.9888917511598E+00 -0.2227735434568E+01  0.0000000000000E+00
 0.1014273233385E+01 -0.2092349597379E+01  0.0000000000000E+00
 0.1044434150246E+01 -0.1958348495191E+01  0.0000000000000E+00
 0.1079083083104E+01 -0.1825884465182E+01  0.0000000000000E+00
 0.1118359558289E+01 -0.1695255212926E+01  0.0000000000000E+00
 0.1162921524060E+01 -0.1567046515895E+01  0.0000000000000E+00
 0.9900818009967E+00 -0.4166147731619E+01  0.0000000000000E+00
 0.9901636020073E+00 -0.4028250791442E+01  0.0000000000000E+00
 0.9902454030334E+00 -0.3890353824970E+01  0.0000000000000E+00
 0.9903272040590E+00 -0.3752456859348E+01  0.0000000000000E+00
 0.9904090050829E+00 -0.3614559896574E+01  0.0000000000000E+00
 0.9904908061926E+00 -0.3476662789126E+01  0.0000000000000E+00
 0.9905726073782E+00 -0.3338765553681E+01  0.0000000000000E+00
 0.9906544081481E+00 -0.3200869019154E+01  0.0000000000000E+00
 0.9907362091005E+00 -0.3062972176925E+01  0.0000000000000E+00
 0.9908263032885E+00 -0.2925075363198E+01  0.0000000000000E+00
 0.9921816612505E+00 -0.2787189408576E+01  0.0000000000000E+00
 0.9978192469641E+00 -0.2649443011802E+01  0.0000000000000E+00
 0.1008826197998E+01 -0.2512100674057E+01  0.0000000000000E+00
 0.1025121677659E+01 -0.2375411883596E+01  0.0000000000000E+00
 0.1046604875805E+01 -0.2239620394497E+01  0.0000000000000E+00
 0.1073456419869E+01 -0.2105026839552E+01  0.0000000000000E+00
 0.1105370185765E+01 -0.1971818031119E+01  0.0000000000000E+00
 0.1142037512709E+01 -0.1840146296494E+01  0.0000000000000E+00
 0.1183606183030E+01 -0.1710309327229E+01  0.0000000000000E+00
 0.1230773075037E+01 -0.1582892879975E+01  0.0000000000000E+00
 0.1045046223052E+01 -0.4166982403876E+01  0.0000000000000E+00
 0.1045092446112E+01 -0.4029920136097E+01  0.0000000000000E+00
 0.1045138669180E+01 -0.3892857842181E+01  0.0000000000000E+00
 0.1045184892248E+01 -0.3755795549111E+01  0.0000000000000E+00
 0.1045231115316E+01 -0.3618733258871E+01  0.0000000000000E+00
 0.1045277338431E+01 -0.3481670824833E+01  0.0000000000000E+00
 0.1045323561590E+01 -0.3344608263573E+01  0.0000000000000E+00
 0.1045369784514E+01 -0.3207546398988E+01  0.0000000000000E+00
 0.1045416007541E+01 -0.3070484228564E+01  0.0000000000000E+00
 0.1045470987091E+01 -0.2933422086471E+01  0.0000000000000E+00
 0.1046861912070E+01 -0.2796370782303E+01  0.0000000000000E+00
 0.1052774282170E+01 -0.2659458994993E+01  0.0000000000000E+00
 0.1064355963499E+01 -0.2522951257843E+01  0.0000000000000E+00
 0.1081521602640E+01 -0.2387097079773E+01  0.0000000000000E+00
 0.1104164758793E+01 -0.2252140197489E+01  0.0000000000000E+00
 0.1132476149605E+01 -0.2118381245072E+01  0.0000000000000E+00
 0.1166132549384E+01 -0.1986007051293E+01  0.0000000000000E+00
 0.1204808055323E+01 -0.1855169933038E+01  0.0000000000000E+00
 0.1248658705933E+01 -0.1726167567089E+01  0.0000000000000E+00
 0.1298420309852E+01 -0.1599585688162E+01  0.0000000000000E+00
-0.6428079475289E+00 -0.1172076972089E+01  0.0000000000000E+00
-0.6445725414276E+00 -0.1001378991910E+01  0.0000000000000E+00
-0.6478510113258E+00 -0.8307079029823E+00  0.0000000000000E+00
-0.6528951459130E+00 -0.6600888595986E+00  0.0000000000000E+00
-0.6593381371986E+00 -0.4895264917391E+00  0.0000000000000E+00
-0.6657811281315E+00 -0.3189641238667E+00  0.0000000000000E+00
-0.6708252618112E+00 -0.1483450804569E+00  0.0000000000000E+00
-0.6741037305066E+00  0.2232600849347E-01  0.0000000000000E+00
-0.6758683230797E+00  0.1930239886852E+00  0.0000000000000E+00
-0.5717622019252E+00 -0.1163097080089E+01  0.0000000000000E+00
-0.5734202106823E+00 -0.9915189097050E+00  0.0000000000000E+00
-0.5764238865398E+00 -0.8199676323119E+00  0.0000000000000E+00
-0.5809970417873E+00 -0.6484684004727E+00  0.0000000000000E+00
-0.5868136252857E+00 -0.4770258406587E+00  0.0000000000000E+00
-0.5926302084314E+00 -0.3055832808331E+00  0.0000000000000E+00
-0.5972033627714E+00 -0.1340840489707E+00  0.0000000000000E+00
-0.6002070374260E+00  0.3746722844213E-01  0.0000000000000E+00
-0.6018650448575E+00  0.2090453988374E+00  0.0000000000000E+00
-0.5005853102949E+00 -0.1155150522808E+01  0.0000000000000E+00
-0.5021063992260E+00 -0.9827861299403E+00  0.0000000000000E+00
-0.5048049465676E+00 -0.8104486316177E+00  0.0000000000000E+00
-0.5088767881748E+00 -0.6381631788575E+00  0.0000000000000E+00
-0.5140366296026E+00 -0.4659343949968E+00  0.0000000000000E+00
-0.5191964706777E+00 -0.2937056111261E+00  0.0000000000000E+00
-0.5232683113774E+00 -0.1214201583456E+00  0.0000000000000E+00
-0.5259668575162E+00  0.5091733999426E-01  0.0000000000000E+00
-0.5274879451216E+00  0.2232817328716E+00  0.0000000000000E+00
-0.4292924458054E+00 -0.1148245728622E+01  0.0000000000000E+00
-0.4306493041388E+00 -0.9751924874222E+00  0.0000000000000E+00
-0.4330154122864E+00 -0.8021661421289E+00  0.0000000000000E+00
-0.4365586296214E+00 -0.6291918424054E+00  0.0000000000000E+00
-0.4410344182749E+00 -0.4562742088428E+00  0.0000000000000E+00
-0.4455102065756E+00 -0.2833565752716E+00  0.0000000000000E+00
-0.4490534230032E+00 -0.1103822755307E+00  0.0000000000000E+00
-0.4514195299479E+00  0.6264406977736E-01  0.0000000000000E+00
-0.4527763869556E+00  0.2356973109854E+00  0.0000000000000E+00
-0.3578991857854E+00 -0.1142390156027E+01  0.0000000000000E+00
-0.3590678354036E+00 -0.9687485164622E+00  0.0000000000000E+00
-0.3610775263391E+00 -0.7951337739660E+00  0.0000000000000E+00
-0.3640681414448E+00 -0.6215710770455E+00  0.0000000000000E+00
-0.3678358993193E+00 -0.4480650439469E+00  0.0000000000000E+00
-0.3716036568411E+00 -0.2745590108411E+00  0.0000000000000E+00
-0.3745942710393E+00 -0.1009963139061E+00  0.0000000000000E+00
-0.3766039607719E+00  0.7261842860244E-01  0.0000000000000E+00
-0.3777726090644E+00  0.2462600681747E+00  0.0000000000000E+00
-0.2864215855890E+00 -0.1137590239147E+01  0.0000000000000E+00
-0.2873816210134E+00 -0.9634633425220E+00  0.0000000000000E+00
-0.2890144893591E+00 -0.7893633439243E+00  0.0000000000000E+00
-0.2914320969289E+00 -0.6153153909072E+00  0.0000000000000E+00
-0.2944714186929E+00 -0.4413240997829E+00  0.0000000000000E+00
-0.2975107401042E+00 -0.2673328086529E+00  0.0000000000000E+00
-0.2999283467665E+00 -0.9328485562423E-01  0.0000000000000E+00
-0.3015612139093E+00  0.8081514298333E-01  0.0000000000000E+00
-0.3025212480080E+00  0.2549420396143E+00  0.0000000000000E+00
-0.2148760528319E+00 -0.1133851325356E+01  0.0000000000000E+00
-0.2156108655255E+00 -0.9593445794947E+00  0.0000000000000E+00
-0.2168503028290E+00 -0.7848647324114E+00  0.0000000000000E+00
-0.2186782944709E+00 -0.6104369309123E+00  0.0000000000000E+00
-0.2209725717140E+00 -0.4360657897959E+00  0.0000000000000E+00
-0.2232668486044E+00 -0.2616946486752E+00  0.0000000000000E+00
-0.2250948393388E+00 -0.8726684716740E-01  0.0000000000000E+00
-0.2263342754395E+00  0.8721299992331E-01  0.0000000000000E+00
-0.2270690868073E+00  0.2617197457887E+00  0.0000000000000E+00
-0.1432792800287E+00 -0.1131177627176E+01  0.0000000000000E+00
-0.1437762464154E+00 -0.9563982442783E+00  0.0000000000000E+00
-0.1446096291476E+00 -0.7816457606963E+00  0.0000000000000E+00
-0.1458353813581E+00 -0.6069453227008E+00  0.0000000000000E+00
-0.1473719905470E+00 -0.4323015440042E+00  0.0000000000000E+00
-0.1489085993831E+00 -0.2576577653047E+00  0.0000000000000E+00
-0.1501343506860E+00 -0.8295732730341E-01  0.0000000000000E+00
-0.1509677322153E+00  0.9179515628351E-01  0.0000000000000E+00
-0.1514646972764E+00  0.2665745391843E+00  0.0000000000000E+00
-0.7164822860673E-01 -0.1129572184387E+01  0.0000000000000E+00
-0.7189884966313E-01 -0.9546286881243E+00  0.0000000000000E+00
-0.7231767885223E-01 -0.7797120915013E+00  0.0000000000000E+00
-0.7293269270050E-01 -0.6048475404658E+00  0.0000000000000E+00
-0.7370313490275E-01 -0.4300396480768E+00  0.0000000000000E+00
-0.7447357675223E-01 -0.2552317556864E+00  0.0000000000000E+00
-0.7508858969298E-01 -0.8036720464800E-01  0.0000000000000E+00
-0.7550741767918E-01  0.9454939197745E-01  0.0000000000000E+00
-0.7575803740985E-01  0.2694928882412E+00  0.0000000000000E+00
 0.5524736011661E-08 -0.1129036832222E+01  0.0000000000000E+00
 0.4171790811275E-08 -0.9540385425029E+00  0.0000000000000E+00
 0.2880364772908E-08 -0.7790671525299E+00  0.0000000000000E+00
 0.1737109607311E-08 -0.6041478081441E+00  0.0000000000000E+00
 0.8719450676882E-09 -0.4292851221871E+00  0.0000000000000E+00
 0.3595448458221E-09 -0.2544224362301E+00  0.0000000000000E+00
 0.1238229648589E-09 -0.7950309184428E-01  0.0000000000000E+00
 0.3529816344305E-10  0.9546829812865E-01  0.0000000000000E+00
 0.8104325914218E-11  0.2704665878481E+00  0.0000000000000E+00
 0.7164823965508E-01 -0.1129572184556E+01  0.0000000000000E+00
 0.7189885800572E-01 -0.9546286882748E+00  0.0000000000000E+00
 0.7231768461208E-01 -0.7797120916309E+00  0.0000000000000E+00
 0.7293269617397E-01 -0.6048475405725E+00  0.0000000000000E+00
 0.7370313664601E-01 -0.4300396481608E+00  0.0000000000000E+00
 0.7447357747082E-01 -0.2552317557506E+00  0.0000000000000E+00
 0.7508858994025E-01 -0.8036720469512E-01  0.0000000000000E+00
 0.7550741774953E-01  0.9454939194626E-01  0.0000000000000E+00
 0.7575803742593E-01  0.2694928882256E+00  0.0000000000000E+00
 0.1432792910737E+00 -0.1131177627514E+01  0.0000000000000E+00
 0.1437762547550E+00 -0.9563982445790E+00  0.0000000000000E+00
 0.1446096349048E+00 -0.7816457609553E+00  0.0000000000000E+00
 0.1458353848293E+00 -0.6069453229140E+00  0.0000000000000E+00
 0.1473719922884E+00 -0.4323015441721E+00  0.0000000000000E+00
 0.1489086001002E+00 -0.2576577654331E+00  0.0000000000000E+00
 0.1501343509322E+00 -0.8295732739760E-01  0.0000000000000E+00
 0.1509677322849E+00  0.9179515622118E-01  0.0000000000000E+00
 0.1514646972921E+00  0.2665745391532E+00  0.0000000000000E+00
 0.2148760638713E+00 -0.1133851325862E+01  0.0000000000000E+00
 0.2156108738601E+00 -0.9593445799456E+00  0.0000000000000E+00
 0.2168503085819E+00 -0.7848647327997E+00  0.0000000000000E+00
 0.2186782979384E+00 -0.6104369312320E+00  0.0000000000000E+00
 0.2209725734523E+00 -0.4360657900476E+00  0.0000000000000E+00
 0.2232668493190E+00 -0.2616946488676E+00  0.0000000000000E+00
 0.2250948395831E+00 -0.8726684730858E-01  0.0000000000000E+00
 0.2263342755078E+00  0.8721299982987E-01  0.0000000000000E+00
 0.2270690868224E+00  0.2617197457421E+00  0.0000000000000E+00
 0.2864215966206E+00 -0.1137590239822E+01  0.0000000000000E+00
 0.2873816293411E+00 -0.9634633431226E+00  0.0000000000000E+00
 0.2890144951059E+00 -0.7893633444416E+00  0.0000000000000E+00
 0.2914321003912E+00 -0.6153153913331E+00  0.0000000000000E+00
 0.2944714204269E+00 -0.4413241001183E+00  0.0000000000000E+00
 0.2975107408153E+00 -0.2673328089091E+00  0.0000000000000E+00
 0.2999283470082E+00 -0.9328485581228E-01  0.0000000000000E+00
 0.3015612139760E+00  0.8081514285887E-01  0.0000000000000E+00
 0.3025212480222E+00  0.2549420395522E+00  0.0000000000000E+00
 0.3578991968070E+00 -0.1142390156869E+01  0.0000000000000E+00
 0.3590678437224E+00 -0.9687485172122E+00  0.0000000000000E+00
 0.3610775320781E+00 -0.7951337746119E+00  0.0000000000000E+00
 0.3640681449004E+00 -0.6215710775773E+00  0.0000000000000E+00
 0.3678359010477E+00 -0.4480650443656E+00  0.0000000000000E+00
 0.3716036575478E+00 -0.2745590111610E+00  0.0000000000000E+00
 0.3745942712777E+00 -0.1009963141409E+00  0.0000000000000E+00
 0.3766039608363E+00  0.7261842844706E-01  0.0000000000000E+00
 0.3777726090775E+00  0.2462600680972E+00  0.0000000000000E+00
 0.4292924568149E+00 -0.1148245729631E+01  0.0000000000000E+00
 0.4306493124468E+00 -0.9751924883211E+00  0.0000000000000E+00
 0.4330154180159E+00 -0.8021661429030E+00  0.0000000000000E+00
 0.4365586330689E+00 -0.6291918430427E+00  0.0000000000000E+00
 0.4410344199965E+00 -0.4562742093445E+00  0.0000000000000E+00
 0.4455102072769E+00 -0.2833565756550E+00  0.0000000000000E+00
 0.4490534232375E+00 -0.1103822758120E+00  0.0000000000000E+00
 0.4514195300096E+00  0.6264406959120E-01  0.0000000000000E+00
 0.4527763869673E+00  0.2356973108925E+00  0.0000000000000E+00
 0.5005853212899E+00 -0.1155150523983E+01  0.0000000000000E+00
 0.5021064075213E+00 -0.9827861309873E+00  0.0000000000000E+00
 0.5048049522860E+00 -0.8104486325194E+00  0.0000000000000E+00
 0.5088767916127E+00 -0.6381631795998E+00  0.0000000000000E+00
 0.5140366313163E+00 -0.4659343955811E+00  0.0000000000000E+00
 0.5191964713726E+00 -0.2937056115725E+00  0.0000000000000E+00
 0.5232683116069E+00 -0.1214201586732E+00  0.0000000000000E+00
 0.5259668575747E+00  0.5091733977747E-01  0.0000000000000E+00
 0.5274879451318E+00  0.2232817327634E+00  0.0000000000000E+00
 0.5717622129039E+00 -0.1163097081430E+01  0.0000000000000E+00
 0.5734202189629E+00 -0.9915189108996E+00  0.0000000000000E+00
 0.5764238922454E+00 -0.8199676333406E+00  0.0000000000000E+00
 0.5809970452143E+00 -0.6484684013195E+00  0.0000000000000E+00
 0.5868136269902E+00 -0.4770258413251E+00  0.0000000000000E+00
 0.5926302091190E+00 -0.3055832813422E+00  0.0000000000000E+00
 0.5972033629954E+00 -0.1340840493443E+00  0.0000000000000E+00
 0.6002070374809E+00  0.3746722819490E-01  0.0000000000000E+00
 0.6018650448658E+00  0.2090453987140E+00  0.0000000000000E+00
 0.6428079584890E+00 -0.1172076973595E+01  0.0000000000000E+00
 0.6445725496918E+00 -0.1001378993252E+01  0.0000000000000E+00
 0.6478510170170E+00 -0.8307079041373E+00  0.0000000000000E+00
 0.6528951493277E+00 -0.6600888605492E+00  0.0000000000000E+00
 0.6593381388929E+00 -0.4895264924872E+00  0.0000000000000E+00
 0.6657811288108E+00 -0.3189641244382E+00  0.0000000000000E+00
 0.6708252620291E+00 -0.1483450808761E+00  0.0000000000000E+00
 0.6741037305573E+00  0.2232600821599E-01  0.0000000000000E+00
 0.6758683230860E+00  0.1930239885468E+00  0.0000000000000E+00
-0.1493912699900E+01 -0.1245948640961E+01  0.0000000000000E+00
-0.1632114179481E+01 -0.1015235929788E+01  0.0000000000000E+00
-0.1741724987958E+01 -0.7685711016251E+00  0.0000000000000E+00
-0.1820766194995E+01 -0.5096924415063E+00  0.0000000000000E+00
-0.1865967729498E+01 -0.2423545704136E+00  0.0000000000000E+00
-0.1873120644158E+01  0.2887340610501E-01  0.0000000000000E+00
-0.1807462272798E+01  0.2894599333017E+00  0.0000000000000E+00
-0.1655564266959E+01  0.5093676183748E+00  0.0000000000000E+00
-0.1461284529476E+01  0.6904096839716E+00  0.0000000000000E+00
-0.1407911610363E+01 -0.1235569498233E+01  0.0000000000000E+00
-0.1530885042842E+01 -0.1011998013791E+01  0.0000000000000E+00
-0.1628631455275E+01 -0.7742498073865E+00  0.0000000000000E+00
-0.1699422876353E+01 -0.5256506283837E+00  0.0000000000000E+00
-0.1740307292582E+01 -0.2695384262787E+00  0.0000000000000E+00
-0.1747370706685E+01 -0.9968389857222E-02  0.0000000000000E+00
-0.1689540644756E+01  0.2401506118249E+00  0.0000000000000E+00
-0.1554834933667E+01  0.4541153997418E+00  0.0000000000000E+00
-0.1382269552347E+01  0.6335353740062E+00  0.0000000000000E+00
-0.1321717468671E+01 -0.1225990155986E+01  0.0000000000000E+00
-0.1429484329607E+01 -0.1009470946930E+01  0.0000000000000E+00
-0.1515387817702E+01 -0.7805504227981E+00  0.0000000000000E+00
-0.1577950922623E+01 -0.5421417890339E+00  0.0000000000000E+00
-0.1614539688037E+01 -0.2971663252531E+00  0.0000000000000E+00
-0.1621535070117E+01 -0.4916528912248E-01  0.0000000000000E+00
-0.1571554682145E+01  0.1905747042462E+00  0.0000000000000E+00
-0.1454062688287E+01  0.3986853612403E+00  0.0000000000000E+00
-0.1303233118844E+01  0.5765721518443E+00  0.0000000000000E+00
-0.1235338664721E+01 -0.1217220128470E+01  0.0000000000000E+00
-0.1327919486188E+01 -0.1007663185251E+01  0.0000000000000E+00
-0.1402000580163E+01 -0.7874803468363E+00  0.0000000000000E+00
-0.1456355899294E+01 -0.5591722661683E+00  0.0000000000000E+00
-0.1488669544153E+01 -0.3252435543734E+00  0.0000000000000E+00
-0.1495617427797E+01 -0.8872152318509E-01  0.0000000000000E+00
-0.1453507152202E+01  0.1407290302321E+00  0.0000000000000E+00
-0.1353249374514E+01  0.3430753791977E+00  0.0000000000000E+00
-0.1224176150134E+01  0.5195189545757E+00  0.0000000000000E+00
-0.1148784126122E+01 -0.1209268607751E+01  0.0000000000000E+00
-0.1226198458988E+01 -0.1006582898571E+01  0.0000000000000E+00
-0.1288476705889E+01 -0.7950467260992E+00  0.0000000000000E+00
-0.1334643784206E+01 -0.5767481823590E+00  0.0000000000000E+00
-0.1362701850985E+01 -0.3537752116567E+00  0.0000000000000E+00
-0.1369621779253E+01 -0.1286411651334E+00  0.0000000000000E+00
-0.1335401063674E+01  0.9061053604662E-01  0.0000000000000E+00
-0.1252397001676E+01  0.2872834192639E+00  0.0000000000000E+00
-0.1145099651710E+01  0.4623747661662E+00  0.0000000000000E+00
-0.1062062983396E+01 -0.1202144369658E+01  0.0000000000000E+00
-0.1124329355888E+01 -0.1006237886659E+01  0.0000000000000E+00
-0.1174823281550E+01 -0.8032563851118E+00  0.0000000000000E+00
-0.1212820644252E+01 -0.5948753874537E+00  0.0000000000000E+00
-0.1236641657216E+01 -0.3827661726965E+00  0.0000000000000E+00
-0.1243552156475E+01 -0.1689281163730E+00  0.0000000000000E+00
-0.1217239439725E+01  0.4021629028167E-01  0.0000000000000E+00
-0.1151507584842E+01  0.2313075245172E+00  0.0000000000000E+00
-0.1066004630648E+01  0.4051386074055E+00  0.0000000000000E+00
-0.9751847697070E+00 -0.1195855786589E+01  0.0000000000000E+00
-0.1022320650200E+01 -0.1006635590763E+01  0.0000000000000E+00
-0.1061047720681E+01 -0.8121158340625E+00  0.0000000000000E+00
-0.1090892833159E+01 -0.6135594605944E+00  0.0000000000000E+00
-0.1110494256751E+01 -0.4122210856250E+00  0.0000000000000E+00
-0.1117412793346E+01 -0.2095860939228E+00  0.0000000000000E+00
-0.1099025459080E+01 -0.1045649741365E-01  0.0000000000000E+00
-0.1050583244399E+01  0.1751458337972E+00  0.0000000000000E+00
-0.9868921472004E+00  0.3478095477247E+00  0.0000000000000E+00
-0.8881593748716E+00 -0.1190410790924E+01  0.0000000000000E+00
-0.9201811355569E+00 -0.1007783061068E+01  0.0000000000000E+00
-0.9471577202152E+00 -0.8216312407101E+00  0.0000000000000E+00
-0.9688669504882E+00 -0.6328056868796E+00  0.0000000000000E+00
-0.9842651510562E+00 -0.4421443527462E+00  0.0000000000000E+00
-0.9912080922863E+00 -0.2506186171164E+00  0.0000000000000E+00
-0.9807624287546E+00 -0.6141046782172E-01  0.0000000000000E+00
-0.9496261869906E+00  0.1187965864475E+00  0.0000000000000E+00
-0.9077633049796E+00  0.2903867071423E+00  0.0000000000000E+00
-0.8009969614158E+00 -0.1185816836835E+01  0.0000000000000E+00
-0.8179198426556E+00 -0.1009686922706E+01  0.0000000000000E+00
-0.8331611794591E+00 -0.8318084014129E+00  0.0000000000000E+00
-0.8467497645126E+00 -0.6526190340470E+00  0.0000000000000E+00
-0.8579599777782E+00 -0.4725401133079E+00  0.0000000000000E+00
-0.8649425605567E+00 -0.2920289966644E+00  0.0000000000000E+00
-0.8624537316589E+00 -0.1126481069538E+00  0.0000000000000E+00
-0.8486386687954E+00  0.6225812387342E-01  0.0000000000000E+00
-0.8286192320009E+00  0.2328692561765E+00  0.0000000000000E+00
 0.8009969712356E+00 -0.1185816838491E+01  0.0000000000000E+00
 0.8179198500446E+00 -0.1009686924186E+01  0.0000000000000E+00
 0.8331611845332E+00 -0.8318084026986E+00  0.0000000000000E+00
 0.8467497675458E+00 -0.6526190351224E+00  0.0000000000000E+00
 0.8579599792759E+00 -0.4725401141749E+00  0.0000000000000E+00
 0.8649425611529E+00 -0.2920289973475E+00  0.0000000000000E+00
 0.8624537318677E+00 -0.1126481074711E+00  0.0000000000000E+00
 0.8486386688771E+00  0.6225812351732E-01  0.0000000000000E+00
 0.8286192320618E+00  0.2328692559799E+00  0.0000000000000E+00
 0.8881593835745E+00 -0.1190410792534E+01  0.0000000000000E+00
 0.9201811420918E+00 -0.1007783062512E+01  0.0000000000000E+00
 0.9471577246905E+00 -0.8216312419750E+00  0.0000000000000E+00
 0.9688669531555E+00 -0.6328056879542E+00  0.0000000000000E+00
 0.9842651523705E+00 -0.4421443536322E+00  0.0000000000000E+00
 0.9912080928098E+00 -0.2506186178343E+00  0.0000000000000E+00
 0.9807624289621E+00 -0.6141046838041E-01  0.0000000000000E+00
 0.9496261871083E+00  0.1187965860503E+00  0.0000000000000E+00
 0.9077633050977E+00  0.2903867069063E+00  0.0000000000000E+00
 0.9751847772968E+00 -0.1195855788119E+01  0.0000000000000E+00
 0.1022320655883E+01 -0.1006635592141E+01  0.0000000000000E+00
 0.1061047724560E+01 -0.8121158352806E+00  0.0000000000000E+00
 0.1090892835463E+01 -0.6135594616459E+00  0.0000000000000E+00
 0.1110494257883E+01 -0.4122210865117E+00  0.0000000000000E+00
 0.1117412793798E+01 -0.2095860946607E+00  0.0000000000000E+00
 0.1099025459288E+01 -0.1045649800265E-01  0.0000000000000E+00
 0.1050583244554E+01  0.1751458333663E+00  0.0000000000000E+00
 0.9868921473761E+00  0.3478095474530E+00  0.0000000000000E+00
 0.1062062989877E+01 -0.1202144371075E+01  0.0000000000000E+00
 0.1124329360724E+01 -0.1006237887942E+01  0.0000000000000E+00
 0.1174823284836E+01 -0.8032563862574E+00  0.0000000000000E+00
 0.1212820646195E+01 -0.5948753884603E+00  0.0000000000000E+00
 0.1236641658170E+01 -0.3827661735655E+00  0.0000000000000E+00
 0.1243552156858E+01 -0.1689281171164E+00  0.0000000000000E+00
 0.1217239439933E+01  0.4021628967337E-01  0.0000000000000E+00
 0.1151507585035E+01  0.2313075240599E+00  0.0000000000000E+00
 0.1066004630881E+01  0.4051386071018E+00  0.0000000000000E+00
 0.1148784131499E+01 -0.1209268609022E+01  0.0000000000000E+00
 0.1226198462982E+01 -0.1006582899729E+01  0.0000000000000E+00
 0.1288476708587E+01 -0.7950467271470E+00  0.0000000000000E+00
 0.1334643785792E+01 -0.5767481832988E+00  0.0000000000000E+00
 0.1362701851763E+01 -0.3537752124899E+00  0.0000000000000E+00
 0.1369621779569E+01 -0.1286411658677E+00  0.0000000000000E+00
 0.1335401063885E+01  0.9061053542988E-01  0.0000000000000E+00
 0.1252397001908E+01  0.2872834187875E+00  0.0000000000000E+00
 0.1145099652002E+01  0.4623747658340E+00  0.0000000000000E+00
 0.1235338668999E+01 -0.1217220129564E+01  0.0000000000000E+00
 0.1327919489344E+01 -0.1007663186256E+01  0.0000000000000E+00
 0.1402000582276E+01 -0.7874803477613E+00  0.0000000000000E+00
 0.1456355900526E+01 -0.5591722670199E+00  0.0000000000000E+00
 0.1488669544757E+01 -0.3252435551529E+00  0.0000000000000E+00
 0.1495617428049E+01 -0.8872152389594E-01  0.0000000000000E+00
 0.1453507152418E+01  0.1407290296177E+00  0.0000000000000E+00
 0.1353249374785E+01  0.3430753787092E+00  0.0000000000000E+00
 0.1224176150486E+01  0.5195189542187E+00  0.0000000000000E+00
 0.1321717471856E+01 -0.1225990156871E+01  0.0000000000000E+00
 0.1429484331930E+01 -0.1009470947754E+01  0.0000000000000E+00
 0.1515387819235E+01 -0.7805504235757E+00  0.0000000000000E+00
 0.1577950923506E+01 -0.5421417897762E+00  0.0000000000000E+00
 0.1614539688471E+01 -0.2971663259614E+00  0.0000000000000E+00
 0.1621535070306E+01 -0.4916528979589E-01  0.0000000000000E+00
 0.1571554682369E+01  0.1905747036446E+00  0.0000000000000E+00
 0.1454062688600E+01  0.3986853607469E+00  0.0000000000000E+00
 0.1303233119256E+01  0.5765721514660E+00  0.0000000000000E+00
 0.1407911612462E+01 -0.1235569498876E+01  0.0000000000000E+00
 0.1530885044338E+01 -0.1011998014406E+01  0.0000000000000E+00
 0.1628631456233E+01 -0.7742498079925E+00  0.0000000000000E+00
 0.1699422876890E+01 -0.5256506289959E+00  0.0000000000000E+00
 0.1740307292850E+01 -0.2695384268984E+00  0.0000000000000E+00
 0.1747370706816E+01 -0.9968390479329E-02  0.0000000000000E+00
 0.1689540644988E+01  0.2401506112465E+00  0.0000000000000E+00
 0.1554834934023E+01  0.4541153992504E+00  0.0000000000000E+00
 0.1382269552819E+01  0.6335353736101E+00  0.0000000000000E+00
 0.1493912700920E+01 -0.1245948641334E+01  0.0000000000000E+00
 0.1632114180156E+01 -0.1015235930167E+01  0.0000000000000E+00
 0.1741724988346E+01 -0.7685711020355E+00  0.0000000000000E+00
 0.1820766195191E+01 -0.5096924419680E+00  0.0000000000000E+00
 0.1865967729603E+01 -0.2423545709277E+00  0.0000000000000E+00
 0.1873120644233E+01  0.2887340554782E-01  0.0000000000000E+00
 0.1807462273042E+01  0.2894599327568E+00  0.0000000000000E+00
 0.1655564267360E+01  0.5093676178923E+00  0.0000000000000E+00
 0.1461284530009E+01  0.6904096835610E+00  0.0000000000000E+00
-0.7262154211400E+00  0.4220388918148E+00  0.0000000000000E+00
-0.7759671760782E+00  0.4803462986459E+00  0.0000000000000E+00
-0.8257189310165E+00  0.5386537054770E+00  0.0000000000000E+00
-0.8754706859548E+00  0.5969611123081E+00  0.0000000000000E+00
-0.9252224408930E+00  0.6552685191392E+00  0.0000000000000E+00
-0.9749741958313E+00  0.7135759259704E+00  0.0000000000000E+00
-0.1024725950770E+01  0.7718833328015E+00  0.0000000000000E+00
-0.1074477705708E+01  0.8301907396326E+00  0.0000000000000E+00
-0.1124229460646E+01  0.8884981464637E+00  0.0000000000000E+00
-0.6470599869664E+00  0.4421478324469E+00  0.0000000000000E+00
-0.6916362540626E+00  0.5036625773935E+00  0.0000000000000E+00
-0.7362125211588E+00  0.5651773223400E+00  0.0000000000000E+00
-0.7807887882550E+00  0.6266920672866E+00  0.0000000000000E+00
-0.8253650553512E+00  0.6882068122331E+00  0.0000000000000E+00
-0.8699413224474E+00  0.7497215571797E+00  0.0000000000000E+00
-0.9145175895436E+00  0.8112363021263E+00  0.0000000000000E+00
-0.9590938566398E+00  0.8727510470728E+00  0.0000000000000E+00
-0.1003670123736E+01  0.9342657920194E+00  0.0000000000000E+00
-0.5674541536864E+00  0.4603381160929E+00  0.0000000000000E+00
-0.6068086902216E+00  0.5250205862388E+00  0.0000000000000E+00
-0.6461632267567E+00  0.5897030563848E+00  0.0000000000000E+00
-0.6855177632919E+00  0.6543855265307E+00  0.0000000000000E+00
-0.7248722998271E+00  0.7190679966767E+00  0.0000000000000E+00
-0.7642268363623E+00  0.7837504668226E+00  0.0000000000000E+00
-0.8035813728974E+00  0.8484329369686E+00  0.0000000000000E+00
-0.8429359094326E+00  0.9131154071145E+00  0.0000000000000E+00
-0.8822904459678E+00  0.9777978772605E+00  0.0000000000000E+00
-0.4874864927934E+00  0.4767023850508E+00  0.0000000000000E+00
-0.5216192404544E+00  0.5446446960190E+00  0.0000000000000E+00
-0.5557519881153E+00  0.6125870069873E+00  0.0000000000000E+00
-0.5898847357762E+00  0.6805293179555E+00  0.0000000000000E+00
-0.6240174834372E+00  0.7484716289237E+00  0.0000000000000E+00
-0.6581502310981E+00  0.8164139398920E+00  0.0000000000000E+00
-0.6922829787591E+00  0.8843562508602E+00  0.0000000000000E+00
-0.7264157264200E+00  0.9522985618284E+00  0.0000000000000E+00
-0.7605484740810E+00  0.1020240872797E+01  0.0000000000000E+00
-0.4070743133994E+00  0.4908323142830E+00  0.0000000000000E+00
-0.4358569516264E+00  0.5617533974853E+00  0.0000000000000E+00
-0.4646395898535E+00  0.6326744806875E+00  0.0000000000000E+00
-0.4934222280806E+00  0.7035955638897E+00  0.0000000000000E+00
-0.5222048663076E+00  0.7745166470919E+00  0.0000000000000E+00
-0.5509875045347E+00  0.8454377302941E+00  0.0000000000000E+00
-0.5797701427618E+00  0.9163588134963E+00  0.0000000000000E+00
-0.6085527809888E+00  0.9872798966986E+00  0.0000000000000E+00
-0.6373354192159E+00  0.1058200979901E+01  0.0000000000000E+00
-0.3262058732712E+00  0.5024255397187E+00  0.0000000000000E+00
-0.3494501300712E+00  0.5757726186668E+00  0.0000000000000E+00
-0.3726943868712E+00  0.6491196976150E+00  0.0000000000000E+00
-0.3959386436712E+00  0.7224667765632E+00  0.0000000000000E+00
-0.4191829004712E+00  0.7958138555114E+00  0.0000000000000E+00
-0.4424271572712E+00  0.8691609344596E+00  0.0000000000000E+00
-0.4656714140712E+00  0.9425080134077E+00  0.0000000000000E+00
-0.4889156708712E+00  0.1015855092356E+01  0.0000000000000E+00
-0.5121599276713E+00  0.1089202171304E+01  0.0000000000000E+00
-0.2449696928514E+00  0.5114464367078E+00  0.0000000000000E+00
-0.2625252366944E+00  0.5866568563038E+00  0.0000000000000E+00
-0.2800807805375E+00  0.6618672758998E+00  0.0000000000000E+00
-0.2976363243805E+00  0.7370776954957E+00  0.0000000000000E+00
-0.3151918682236E+00  0.8122881150917E+00  0.0000000000000E+00
-0.3327474120667E+00  0.8874985346877E+00  0.0000000000000E+00
-0.3503029559097E+00  0.9627089542837E+00  0.0000000000000E+00
-0.3678584997528E+00  0.1037919373880E+01  0.0000000000000E+00
-0.3854140435958E+00  0.1113129793476E+01  0.0000000000000E+00
-0.1634632579838E+00  0.5179088773513E+00  0.0000000000000E+00
-0.1752246863765E+00  0.5944543064906E+00  0.0000000000000E+00
-0.1869861147692E+00  0.6709997356298E+00  0.0000000000000E+00
-0.1987475431619E+00  0.7475451647691E+00  0.0000000000000E+00
-0.2105089715546E+00  0.8240905939083E+00  0.0000000000000E+00
-0.2222703999473E+00  0.9006360230476E+00  0.0000000000000E+00
-0.2340318283400E+00  0.9771814521868E+00  0.0000000000000E+00
-0.2457932567327E+00  0.1053726881326E+01  0.0000000000000E+00
-0.2575546851254E+00  0.1130272310465E+01  0.0000000000000E+00
-0.8177747086543E-01  0.5218135049328E+00  0.0000000000000E+00
-0.8767620096390E-01  0.5991810988308E+00  0.0000000000000E+00
-0.9357493106237E-01  0.6765486927287E+00  0.0000000000000E+00
-0.9947366116083E-01  0.7539162866266E+00  0.0000000000000E+00
-0.1053723912593E+00  0.8312838805245E+00  0.0000000000000E+00
-0.1112711213578E+00  0.9086514744224E+00  0.0000000000000E+00
-0.1171698514562E+00  0.9860190683204E+00  0.0000000000000E+00
-0.1230685815547E+00  0.1063386662218E+01  0.0000000000000E+00
-0.1289673116532E+00  0.1140754256116E+01  0.0000000000000E+00
 0.4058808316585E-10  0.5231292357807E+00  0.0000000000000E+00
 0.8117646714002E-10  0.6007840673293E+00  0.0000000000000E+00
 0.1217649898921E-09  0.6784388988780E+00  0.0000000000000E+00
 0.1623534571330E-09  0.7560937304266E+00  0.0000000000000E+00
 0.2029419521295E-09  0.8337485619753E+00  0.0000000000000E+00
 0.2435305581482E-09  0.9114033935239E+00  0.0000000000000E+00
 0.2841190531447E-09  0.9890582250725E+00  0.0000000000000E+00
 0.3247077701858E-09  0.1066713056621E+01  0.0000000000000E+00
 0.3652960431377E-09  0.1144367888170E+01  0.0000000000000E+00
 0.8177747094646E-01  0.5218135049277E+00  0.0000000000000E+00
 0.8767620112596E-01  0.5991810988204E+00  0.0000000000000E+00
 0.9357493130547E-01  0.6765486927132E+00  0.0000000000000E+00
 0.9947366148497E-01  0.7539162866059E+00  0.0000000000000E+00
 0.1053723916645E+00  0.8312838804987E+00  0.0000000000000E+00
 0.1112711218440E+00  0.9086514743914E+00  0.0000000000000E+00
 0.1171698520235E+00  0.9860190682842E+00  0.0000000000000E+00
 0.1230685822030E+00  0.1063386662177E+01  0.0000000000000E+00
 0.1289673123825E+00  0.1140754256070E+01  0.0000000000000E+00
 0.1634632580644E+00  0.5179088773413E+00  0.0000000000000E+00
 0.1752246865377E+00  0.5944543064706E+00  0.0000000000000E+00
 0.1869861150110E+00  0.6709997355998E+00  0.0000000000000E+00
 0.1987475434844E+00  0.7475451647290E+00  0.0000000000000E+00
 0.2105089719577E+00  0.8240905938582E+00  0.0000000000000E+00
 0.2222704004310E+00  0.9006360229875E+00  0.0000000000000E+00
 0.2340318289043E+00  0.9771814521167E+00  0.0000000000000E+00
 0.2457932573776E+00  0.1053726881246E+01  0.0000000000000E+00
 0.2575546858510E+00  0.1130272310375E+01  0.0000000000000E+00
 0.2449696929314E+00  0.5114464366931E+00  0.0000000000000E+00
 0.2625252368544E+00  0.5866568562744E+00  0.0000000000000E+00
 0.2800807807774E+00  0.6618672758557E+00  0.0000000000000E+00
 0.2976363247005E+00  0.7370776954370E+00  0.0000000000000E+00
 0.3151918686235E+00  0.8122881150183E+00  0.0000000000000E+00
 0.3327474125465E+00  0.8874985345996E+00  0.0000000000000E+00
 0.3503029564696E+00  0.9627089541809E+00  0.0000000000000E+00
 0.3678585003926E+00  0.1037919373762E+01  0.0000000000000E+00
 0.3854140443156E+00  0.1113129793344E+01  0.0000000000000E+00
 0.3262058733503E+00  0.5024255396995E+00  0.0000000000000E+00
 0.3494501302294E+00  0.5757726186284E+00  0.0000000000000E+00
 0.3726943871084E+00  0.6491196975574E+00  0.0000000000000E+00
 0.3959386439875E+00  0.7224667764863E+00  0.0000000000000E+00
 0.4191829008666E+00  0.7958138554153E+00  0.0000000000000E+00
 0.4424271577456E+00  0.8691609343443E+00  0.0000000000000E+00
 0.4656714146247E+00  0.9425080132732E+00  0.0000000000000E+00
 0.4889156715038E+00  0.1015855092202E+01  0.0000000000000E+00
 0.5121599283828E+00  0.1089202171131E+01  0.0000000000000E+00
 0.4070743134774E+00  0.4908323142595E+00  0.0000000000000E+00
 0.4358569517824E+00  0.5617533974382E+00  0.0000000000000E+00
 0.4646395900874E+00  0.6326744806169E+00  0.0000000000000E+00
 0.4934222283925E+00  0.7035955637956E+00  0.0000000000000E+00
 0.5222048666975E+00  0.7745166469743E+00  0.0000000000000E+00
 0.5509875050026E+00  0.8454377301529E+00  0.0000000000000E+00
 0.5797701433076E+00  0.9163588133316E+00  0.0000000000000E+00
 0.6085527816127E+00  0.9872798965103E+00  0.0000000000000E+00
 0.6373354199177E+00  0.1058200979689E+01  0.0000000000000E+00
 0.4874864928703E+00  0.4767023850238E+00  0.0000000000000E+00
 0.5216192406082E+00  0.5446446959651E+00  0.0000000000000E+00
 0.5557519883461E+00  0.6125870069063E+00  0.0000000000000E+00
 0.5898847360840E+00  0.6805293178476E+00  0.0000000000000E+00
 0.6240174838218E+00  0.7484716287888E+00  0.0000000000000E+00
 0.6581502315597E+00  0.8164139397300E+00  0.0000000000000E+00
 0.6922829792976E+00  0.8843562506713E+00  0.0000000000000E+00
 0.7264157270354E+00  0.9522985616125E+00  0.0000000000000E+00
 0.7605484747733E+00  0.1020240872554E+01  0.0000000000000E+00
 0.5674541537630E+00  0.4603381160649E+00  0.0000000000000E+00
 0.6068086903747E+00  0.5250205861830E+00  0.0000000000000E+00
 0.6461632269865E+00  0.5897030563010E+00  0.0000000000000E+00
 0.6855177635982E+00  0.6543855264191E+00  0.0000000000000E+00
 0.7248723002099E+00  0.7190679965371E+00  0.0000000000000E+00
 0.7642268368217E+00  0.7837504666552E+00  0.0000000000000E+00
 0.8035813734334E+00  0.8484329367732E+00  0.0000000000000E+00
 0.8429359100452E+00  0.9131154068912E+00  0.0000000000000E+00
 0.8822904466569E+00  0.9777978770093E+00  0.0000000000000E+00
 0.6470599870427E+00  0.4421478324182E+00  0.0000000000000E+00
 0.6916362542152E+00  0.5036625773361E+00  0.0000000000000E+00
 0.7362125213877E+00  0.5651773222539E+00  0.0000000000000E+00
 0.7807887885601E+00  0.6266920671718E+00  0.0000000000000E+00
 0.8253650557326E+00  0.6882068120896E+00  0.0000000000000E+00
 0.8699413229051E+00  0.7497215570075E+00  0.0000000000000E+00
 0.9145175900776E+00  0.8112363019254E+00  0.0000000000000E+00
 0.9590938572500E+00  0.8727510468432E+00  0.0000000000000E+00
 0.1003670124423E+01  0.9342657917611E+00  0.0000000000000E+00
 0.7262154212153E+00  0.4220388917836E+00  0.0000000000000E+00
 0.7759671762288E+00  0.4803462985835E+00  0.0000000000000E+00
 0.8257189312424E+00  0.5386537053834E+00  0.0000000000000E+00
 0.8754706862560E+00  0.5969611121833E+00  0.0000000000000E+00
 0.9252224412695E+00  0.6552685189833E+00  0.0000000000000E+00
 0.9749741962831E+00  0.7135759257832E+00  0.0000000000000E+00
 0.1024725951297E+01  0.7718833325831E+00  0.0000000000000E+00
 0.1074477706310E+01  0.8301907393830E+00  0.0000000000000E+00
 0.1124229461324E+01  0.8884981461829E+00  0.0000000000000E+00
</DataArray>
</Points>
<Cells>
<DataArray type="Int64" Name="connectivity" format="ascii">
0 11 218 123
123 218 219 124
124 219 220 125
125 220 221 126
126 221 222 127
127 222 223 128
128 223 224 129
129 224 225 130
130 225 226 131
131 226 227 132
132 227 228 133
133 228 229 134
134 229 230 135
135 230 231 136
136 231 232 137
137 232 233 138
138 233 234 139
139 234 235 140
140 235 236 141
141 236 237 142
142 237 49 3
11 12 238 218
218 238 239 219
219 239 240 220
220 240 241 221
221 241 242 222
222 242 243 223
223 243 244 224
224 244 245 225
225 245 246 226
226 246 247 227
227 247 248 228
228 248 249 229
229 249 250 230
230 250 251 231
231 251 252 232
232 252 253 233
233 253 254 234
234 254 255 235
235 255 256 236
236 256 257 237
237 257 50 49
12 13 258 238
238 258 259 239
239 259 260 240
240 260 261 241
241 261 262 242
242 262 263 243
243 263 264 244
244 264 265 245
245 265 266 246
246 266 267 247
247 267 268 248
248 268 269 249
249 269 270 250
250 270 271 251
251 271 272 252
252 272 273 253
253 273 274 254
254 274 275 255
255 275 276 256
256 276 277 257
257 277 51 50
13 14 278 258
258 278 279 259
259 279 280 260
260 280 281 261
261 281 282 262
262 282 283 263
263 283 284 264
264 284 285 265
265 285 286 266
266 286 287 267
267 287 288 268
268 288 289 269
269 289 290 270
270 290 291 271
271 291 292 272
272 292 293 273
273 293 294 274
274 294 295 275
275 295 296 276
276 296 297 277
277 297 52 51
14 15 298 278
278 298 299 279
279 299 300 280
280 300 301 281
281 301 302 282
282 302 303 283
283 303 304 284
284 304 305 285
285 305 306 286
286 306 307 287
287 307 308 288
288 308 309 289
289 309 310 290
290 310 311 291
291 311 312 292
292 312 313 293
293 313 314 294
294 314 315 295
295 315 316 296
296 316 317 297
297 317 53 52
15 16 318 298
298 318 319 299
299 319 320 300
300 320 321 301
301 321 322 302
302 322 323 303
303 323 324 304
304 324 325 305
305 325 326 306
306 326 327 307
307 327 328 308
308 328 329 309
309 329 330 310
310 330 331 311
311 331 332 312
312 332 333 313
313 333 334 314
314 334 335 315
315 335 336 316
316 336 337 317
317 337 54 53
16 17 338 318
318 338 339 319
319 339 340 320
320 340 341 321
321 341 342 322
322 342 343 323
323 343 344 324
324 344 345 325
325 345 346 326
326 346 347 327
327 347 348 328
328 348 349 329
329 349 350 330
330 350 351 331
331 351 352 332
332 352 353 333
333 353 354 334
334 354 355 335
335 355 356 336
336 356 357 337
337 357 55 54
17 18 358 338
338 358 359 339
339 359 360 340
340 360 361 341
341 361 362 342
342 362 363 343
343 363 364 344
344 364 365 345
345 365 366 346
346 366 367 347
347 367 368 348
348 368 369 349
349 369 370 350
350 370 371 351
351 371 372 352
352 372 373 353
353 373 374 354
354 374 375 355
355 375 376 356
356 376 377 357
357 377 56 55
18 19 378 358
358 378 379 359
359 379 380 360
360 380 381 361
361 381 382 362
362 382 383 363
363 383 384 364
364 384 385 365
365 385 386 366
366 386 387 367
367 387 388 368
368 388 389 369
369 389 390 370
370 390 391 371
371 391 392 372
372 392 393 373
373 393 394 374
374 394 395 375
375 395 396 376
376 396 397 377
377 397 57 56
19 20 398 378
378 398 399 379
379 399 400 380
380 400 401 381
381 401 402 382
382 402 403 383
383 403 404 384
384 404 405 385
385 405 406 386
386 406 407 387
387 407 408 388
388 408 409 389
389 409 410 390
390 410 411 391
391 411 412 392
392 412 413 393
393 413 414 394
394 414 415 395
395 415 416 396
396 416 417 397
397 417 4 57
20 21 418 398
398 418 419 399
399 419 420 400
400 420 421 401
401 421 422 402
402 422 423 403
403 423 424 404
404 424 425 405
405 425 426 406
406 426 427 407
407 427 428 408
408 428 429 409
409 429 430 410
410 430 431 411
411 431 432 412
412 432 433 413
413 433 434 414
414 434 435 415
415 435 436 416
416 436 437 417
417 437 58 4
21 22 438 418
418 438 439 419
419 439 440 420
420 440 441 421
421 441 442 422
422 442 443 423
423 443 444 424
424 444 445 425
425 445 446 426
426 446 447 427
427 447 448 428
428 448 449 429
429 449 450 430
430 450 451 431
431 451 452 432
432 452 453 433
433 453 454 434
434 454 455 435
435 455 456 436
436 456 457 437
437 457 59 58
22 23 458 438
438 458 459 439
439 459 460 440
440 460 461 441
441 461 462 442
442 462 463 443
443 463 464 444
444 464 465 445
445 465 466 446
446 466 467 447
447 467 468 448
448 468 469 449
449 469 470 450
450 470 471 451
451 471 472 452
452 472 473 453
453 473 474 454
454 474 475 455
455 475 476 456
456 476 477 457
457 477 60 59
23 24 478 458
458 478 479 459
459 479 480 460
460 480 481 461
461 481 482 462
462 482 483 463
463 483 484 464
464 484 485 465
465 485 486 466
466 486 487 467
467 487 488 468
468 488 489 469
469 489 490 470
470 490 491 471
471 491 492 472
472 492 493 473
473 493 494 474
474 494 495 475
475 495 496 476
476 496 497 477
477 497 61 60
24 25 498 478
478 498 499 479
479 499 500 480
480 500 501 481
481 501 502 482
482 502 503 483
483 503 504 484
484 504 505 485
485 505 506 486
486 506 507 487
487 507 508 488
488 508 509 489
489 509 510 490
490 510 511 491
491 511 512 492
492 512 513 493
493 513 514 494
494 514 515 495
495 515 516 496
496 516 517 497
497 517 62 61
25 26 518 498
498 518 519 499
499 519 520 500
500 520 521 501
501 521 522 502
502 522 523 503
503 523 524 504
504 524 525 505
505 525 526 506
506 526 527 507
507 527 528 508
508 528 529 509
509 529 530 510
510 530 531 511
511 531 532 512
512 532 533 513
513 533 534 514
514 534 535 515
515 535 536 516
516 536 537 517
517 537 63 62
26 27 538 518
518 538 539 519
519 539 540 520
520 540 541 521
521 541 542 522
522 542 543 523
523 543 544 524
524 544 545 525
525 545 546 526
526 546 547 527
527 547 548 528
528 548 549 529
529 549 550 530
530 550 551 531
531 551 552 532
532 552 553 533
533 553 554 534
534 554 555 535
535 555 556 536
536 556 557 537
537 557 64 63
27 28 558 538
538 558 559 539
539 559 560 540
540 560 561 541
541 561 562 542
542 562 563 543
543 563 564 544
544 564 565 545
545 565 566 546
546 566 567 547
547 567 568 548
548 568 569 549
549 569 570 550
550 570 571 551
551 571 572 552
552 572 573 553
553 573 574 554
554 574 575 555
555 575 576 556
556 576 577 557
557 577 65 64
28 29 578 558
558 578 579 559
559 579 580 560
560 580 581 561
561 581 582 562
562 582 583 563
563 583 584 564
564 584 585 565
565 585 586 566
566 586 587 567
567 587 588 568
568 588 589 569
569 589 590 570
570 590 591 571
571 591 592 572
572 592 593 573
573 593 594 574
574 594 595 575
575 595 596 576
576 596 597 577
577 597 66 65
29 1 598 578
578 598 599 579
579 599 600 580
580 600 601 581
581 601 602 582
582 602 603 583
583 603 604 584
584 604 605 585
585 605 606 586
586 606 607 587
587 607 608 588
588 608 609 589
589 609 610 590
590 610 611 591
591 611 612 592
592 612 613 593
593 613 614 594
594 614 615 595
595 615 616 596
596 616 617 597
597 617 67 66
1 30 618 598
598 618 619 599
599 619 620 600
600 620 621 601
601 621 622 602
602 622 623 603
603 623 624 604
604 624 625 605
605 625 626 606
606 626 627 607
607 627 628 608
608 628 629 609
609 629 630 610
610 630 631 611
611 631 632 612
612 632 633 613
613 633 634 614
614 634 635 615
615 635 636 616
616 636 637 617
617 637 68 67
30 31 638 618
618 638 639 619
619 639 640 620
620 640 641 621
621 641 642 622
622 642 643 623
623 643 644 624
624 644 645 625
625 645 646 626
626 646 647 627
627 647 648 628
628 648 649 629
629 649 650 630
630 650 651 631
631 651 652 632
632 652 653 633
633 653 654 634
634 654 655 635
635 655 656 636
636 656 657 637
637 657 69 68
31 32 658 638
638 658 659 639
639 659 660 640
640 660 661 641
641 661 662 642
642 662 663 643
643 663 664 644
644 664 665 645
645 665 666 646
646 666 667 647
647 667 668 648
648 668 669 649
649 669 670 650
650 670 671 651
651 671 672 652
652 672 673 653
653 673 674 654
654 674 675 655
655 675 676 656
656 676 677 657
657 677 70 69
32 33 678 658
658 678 679 659
659 679 680 660
660 680 681 661
661 681 682 662
662 682 683 663
663 683 684 664
664 684 685 665
665 685 686 666
666 686 687 667
667 687 688 668
668 688 689 669
669 689 690 670
670 690 691 671
671 691 692 672
672 692 693 673
673 693 694 674
674 694 695 675
675 695 696 676
676 696 697 677
677 697 71 70
33 34 698 678
678 698 699 679
679 699 700 680
680 700 701 681
681 701 702 682
682 702 703 683
683 703 704 684
684 704 705 685
685 705 706 686
686 706 707 687
687 707 708 688
688 708 709 689
689 709 710 690
690 710 711 691
691 711 712 692
692 712 713 693
693 713 714 694
694 714 715 695
695 715 716 696
696 716 717 697
697 717 72 71
34 35 718 698
698 718 719 699
699 719 720 700
700 720 721 701
701 721 722 702
702 722 723 703
703 723 724 704
704 724 725 705
705 725 726 706
706 726 727 707
707 727 728 708
708 728 729 709
709 729 730 710
710 730 731 711
711 731 732 712
712 732 733 713
713 733 734 714
714 734 735 715
715 735 736 716
716 736 737 717
717 737 73 72
35 36 738 718
718 738 739 719
719 739 740 720
720 740 741 721
721 741 742 722
722 742 743 723
723 743 744 724
724 744 745 725
725 745 746 726
726 746 747 727
727 747 748 728
728 748 749 729
729 749 750 730
730 750 751 731
731 751 752 732
732 752 753 733
733 753 754 734
734 754 755 735
735 755 756 736
736 756 757 737
737 757 74 73
36 37 758 738
738 758 759 739
739 759 760 740
740 760 761 741
741 761 762 742
742 762 763 743
743 763 764 744
744 764 765 745
745 765 766 746
746 766 767 747
747 767 768 748
748 768 769 749
749 769 770 750
750 770 771 751
751 771 772 752
752 772 773 753
753 773 774 754
754 774 775 755
755 775 776 756
756 776 777 757
757 777 75 74
37 38 778 758
758 778 779 759
759 779 780 760
760 780 781 761
761 781 782 762
762 782 783 763
763 783 784 764
764 784 785 765
765 785 786 766
766 786 787 767
767 787 788 768
768 788 789 769
769 789 790 770
770 790 791 771
771 791 792 772
772 792 793 773
773 793 794 774
774 794 795 775
775 795 796 776
776 796 797 777
777 797 76 75
38 39 798 778
778 798 799 779
779 799 800 780
780 800 801 781
781 801 802 782
782 802 803 783
783 803 804 784
784 804 805 785
785 805 806 786
786 806 807 787
787 807 808 788
788 808 809 789
789 809 810 790
790 810 811 791
791 811 812 792
792 812 813 793
793 813 814 794
794 814 815 795
795 815 816 796
796 816 817 797
797 817 5 76
39 40 818 798
798 818 819 799
799 819 820 800
800 820 821 801
801 821 822 802
802 822 823 803
803 823 824 804
804 824 825 805
805 825 826 806
806 826 827 807
807 827 828 808
808 828 829 809
809 829 830 810
810 830 831 811
811 831 832 812
812 832 833 813
813 833 834 814
814 834 835 815
815 835 836 816
816 836 837 817
817 837 77 5
40 41 838 818
818 838 839 819
819 839 840 820
820 840 841 821
821 841 842 822
822 842 843 823
823 843 844 824
824 844 845 825
825 845 846 826
826 846 847 827
827 847 848 828
828 848 849 829
829 849 850 830
830 850 851 831
831 851 852 832
832 852 853 833
833 853 854 834
834 854 855 835
835 855 856 836
836 856 857 837
837 857 78 77
41 42 858 838
838 858 859 839
839 859 860 840
840 860 861 841
841 861 862 842
842 862 863 843
843 863 864 844
844 864 865 845
845 865 866 846
846 866 867 847
847 867 868 848
848 868 869 849
849 869 870 850
850 870 871 851
851 871 872 852
852 872 873 853
853 873 874 854
854 874 875 855
855 875 876 856
856 876 877 857
857 877 79 78
42 43 878 858
858 878 879 859
859 879 880 860
860 880 881 861
861 881 882 862
862 882 883 863
863 883 884 864
864 884 885 865
865 885 886 866
866 886 887 867
867 887 888 868
868 888 889 869
869 889 890 870
870 890 891 871
871 891 892 872
872 892 893 873
873 893 894 874
874 894 895 875
875 895 896 876
876 896 897 877
877 897 80 79
43 44 898 878
878 898 899 879
879 899 900 880
880 900 901 881
881 901 902 882
882 902 903 883
883 903 904 884
884 904 905 885
885 905 906 886
886 906 907 887
887 907 908 888
888 908 909 889
889 909 910 890
890 910 911 891
891 911 912 892
892 912 913 893
893 913 914 894
894 914 915 895
895 915 916 896
896 916 917 897
897 917 81 80
44 45 918 898
898 918 919 899
899 919 920 900
900 920 921 901
901 921 922 902
902 922 923 903
903 923 924 904
904 924 925 905
905 925 926 906
906 926 927 907
907 927 928 908
908 928 929 909
909 929 930 910
910 930 931 911
911 931 932 912
912 932 933 913
913 933 934 914
914 934 935 915
915 935 936 916
916 936 937 917
917 937 82 81
45 46 938 918
918 938 939 919
919 939 940 920
920 940 941 921
921 941 942 922
922 942 943 923
923 943 944 924
924 944 945 925
925 945 946 926
926 946 947 927
927 947 948 928
928 948 949 929
929 949 950 930
930 950 951 931
931 951 952 932
932 952 953 933
933 953 954 934
934 954 955 935
935 955 956 936
936 956 957 937
937 957 83 82
46 47 958 938
938 958 959 939
939 959 960 940
940 960 961 941
941 961 962 942
942 962 963 943
943 963 964 944
944 964 965 945
945 965 966 946
946 966 967 947
947 967 968 948
948 968 969 949
949 969 970 950
950 970 971 951
951 971 972 952
952 972 973 953
953 973 974 954
954 974 975 955
955 975 976 956
956 976 977 957
957 977 84 83
47 48 978 958
958 978 979 959
959 979 980 960
960 980 981 961
961 981 982 962
962 982 983 963
963 983 984 964
964 984 985 965
965 985 986 966
966 986 987 967
967 987 988 968
968 988 989 969
969 989 990 970
970 990 991 971
971 991 992 972
972 992 993 973
973 993 994 974
974 994 995 975
975 995 996 976
976 996 997 977
977 997 85 84
48 2 162 978
978 162 161 979
979 161 160 980
980 160 159 981
981 159 158 982
982 158 157 983
983 157 156 984
984 156 155 985
985 155 154 986
986 154 153 987
987 153 152 988
988 152 151 989
989 151 150 990
990 150 149 991
991 149 148 992
992 148 147 993
993 147 146 994
994 146 145 995
995 145 144 996
996 144 143 997
997 143 6 85
4 58 998 190
190 998 999 189
189 999 1000 188
188 1000 1001 187
187 1001 1002 186
186 1002 1003 185
185 1003 1004 184
184 1004 1005 183
183 1005 1006 182
182 1006 163 9
58 59 1007 998
998 1007 1008 999
999 1008 1009 1000
1000 1009 1010 1001
1001 1010 1011 1002
1002 1011 1012 1003
1003 1012 1013 1004
1004 1013 1014 1005
1005 1014 1015 1006
1006 1015 164 163
59 60 1016 1007
1007 1016 1017 1008
1008 1017 1018 1009
1009 1018 1019 1010
1010 1019 1020 1011
1011 1020 1021 1012
1012 1021 1022 1013
1013 1022 1023 1014
1014 1023 1024 1015
1015 1024 165 164
60 61 1025 1016
1016 1025 1026 1017
1017 1026 1027 1018
1018 1027 1028 1019
1019 1028 1029 1020
1020 1029 1030 1021
1021 1030 1031 1022
1022 1031 1032 1023
1023 1032 1033 1024
1024 1033 166 165
61 62 1034 1025
1025 1034 1035 1026
1026 1035 1036 1027
1027 1036 1037 1028
1028 1037 1038 1029
1029 1038 1039 1030
1030 1039 1040 1031
1031 1040 1041 1032
1032 1041 1042 1033
1033 1042 167 166
62 63 1043 1034
1034 1043 1044 1035
1035 1044 1045 1036
1036 1045 1046 1037
1037 1046 1047 1038
1038 1047 1048 1039
1039 1048 1049 1040
1040 1049 1050 1041
1041 1050 1051 1042
1042 1051 168 167
63 64 1052 1043
1043 1052 1053 1044
1044 1053 1054 1045
1045 1054 1055 1046
1046 1055 1056 1047
1047 1056 1057 1048
1048 1057 1058 1049
1049 1058 1059 1050
1050 1059 1060 1051
1051 1060 169 168
64 65 1061 1052
1052 1061 1062 1053
1053 1062 1063 1054
1054 1063 1064 1055
1055 1064 1065 1056
1056 1065 1066 1057
1057 1066 1067 1058
1058 1067 1068 1059
1059 1068 1069 1060
1060 1069 170 169
65 66 1070 1061
1061 1070 1071 1062
1062 1071 1072 1063
1063 1072 1073 1064
1064 1073 1074 1065
1065 1074 1075 1066
1066 1075 1076 1067
1067 1076 1077 1068
1068 1077 1078 1069
1069 1078 171 170
66 67 1079 1070
1070 1079 1080 1071
1071 1080 1081 1072
1072 1081 1082 1073
1073 1082 1083 1074
1074 1083 1084 1075
1075 1084 1085 1076
1076 1085 1086 1077
1077 1086 1087 1078
1078 1087 172 171
67 68 1088 1079
1079 1088 1089 1080
1080 1089 1090 1081
1081 1090 1091 1082
1082 1091 1092 1083
1083 1092 1093 1084
1084 1093 1094 1085
1085 1094 1095 1086
1086 1095 1096 1087
1087 1096 173 172
68 69 1097 1088
1088 1097 1098 1089
1089 1098 1099 1090
1090 1099 1100 1091
1091 1100 1101 1092
1092 1101 1102 1093
1093 1102 1103 1094
1094 1103 1104 1095
1095 1104 1105 1096
1096 1105 174 173
69 70 1106 1097
1097 1106 1107 1098
1098 1107 1108 1099
1099 1108 1109 1100
1100 1109 1110 1101
1101 1110 1111 1102
1102 1111 1112 1103
1103 1112 1113 1104
1104 1113 1114 1105
1105 1114 175 174
70 71 1115 1106
1106 1115 1116 1107
1107 1116 1117 1108
1108 1117 1118 1109
1109 1118 1119 1110
1110 1119 1120 1111
1111 1120 1121 1112
1112 1121 1122 1113
1113 1122 1123 1114
1114 1123 176 175
71 72 1124 1115
1115 1124 1125 1116
1116 1125 1126 1117
1117 1126 1127 1118
1118 1127 1128 1119
1119 1128 1129 1120
1120 1129 1130 1121
1121 1130 1131 1122
1122 1131 1132 1123
1123 1132 177 176
72 73 1133 1124
1124 1133 1134 1125
1125 1134 1135 1126
1126 1135 1136 1127
1127 1136 1137 1128
1128 1137 1138 1129
1129 1138 1139 1130
1130 1139 1140 1131
1131 1140 1141 1132
1132 1141 178 177
73 74 1142 1133
1133 1142 1143 1134
1134 1143 1144 1135
1135 1144 1145 1136
1136 1145 1146 1137
1137 1146 1147 1138
1138 1147 1148 1139
1139 1148 1149 1140
1140 1149 1150 1141
1141 1150 179 178
74 75 1151 1142
1142 1151 1152 1143
1143 1152 1153 1144
1144 1153 1154 1145
1145 1154 1155 1146
1146 1155 1156 1147
1147 1156 1157 1148
1148 1157 1158 1149
1149 1158 1159 1150
1150 1159 180 179
75 76 1160 1151
1151 1160 1161 1152
1152 1161 1162 1153
1153 1162 1163 1154
1154 1163 1164 1155
1155 1164 1165 1156
1156 1165 1166 1157
1157 1166 1167 1158
1158 1167 1168 1159
1159 1168 181 180
76 5 199 1160
1160 199 198 1161
1161 198 197 1162
1162 197 196 1163
1163 196 195 1164
1164 195 194 1165
1165 194 193 1166
1166 193 192 1167
1167 192 191 1168
1168 191 10 181
3 49 1169 86
86 1169 1170 87
87 1170 1171 88
88 1171 1172 89
89 1172 1173 90
90 1173 1174 91
91 1174 1175 92
92 1175 1176 93
93 1176 1177 94
94 1177 208 7
49 50 1178 1169
1169 1178 1179 1170
1170 1179 1180 1171
1171 1180 1181 1172
1172 1181 1182 1173
1173 1182 1183 1174
1174 1183 1184 1175
1175 1184 1185 1176
1176 1185 1186 1177
1177 1186 207 208
50 51 1187 1178
1178 1187 1188 1179
1179 1188 1189 1180
1180 1189 1190 1181
1181 1190 1191 1182
1182 1191 1192 1183
1183 1192 1193 1184
1184 1193 1194 1185
1185 1194 1195 1186
1186 1195 206 207
51 52 1196 1187
1187 1196 1197 1188
1188 1197 1198 1189
1189 1198 1199 1190
1190 1199 1200 1191
1191 1200 1201 1192
1192 1201 1202 1193
1193 1202 1203 1194
1194 1203 1204 1195
1195 1204 205 206
52 53 1205 1196
1196 1205 1206 1197
1197 1206 1207 1198
1198 1207 1208 1199
1199 1208 1209 1200
1200 1209 1210 1201
1201 1210 1211 1202
1202 1211 1212 1203
1203 1212 1213 1204
1204 1213 204 205
53 54 1214 1205
1205 1214 1215 1206
1206 1215 1216 1207
1207 1216 1217 1208
1208 1217 1218 1209
1209 1218 1219 1210
1210 1219 1220 1211
1211 1220 1221 1212
1212 1221 1222 1213
1213 1222 203 204
54 55 1223 1214
1214 1223 1224 1215
1215 1224 1225 1216
1216 1225 1226 1217
1217 1226 1227 1218
1218 1227 1228 1219
1219 1228 1229 1220
1220 1229 1230 1221
1221 1230 1231 1222
1222 1231 202 203
55 56 1232 1223
1223 1232 1233 1224
1224 1233 1234 1225
1225 1234 1235 1226
1226 1235 1236 1227
1227 1236 1237 1228
1228 1237 1238 1229
1229 1238 1239 1230
1230 1239 1240 1231
1231 1240 201 202
56 57 1241 1232
1232 1241 1242 1233
1233 1242 1243 1234
1234 1243 1244 1235
1235 1244 1245 1236
1236 1245 1246 1237
1237 1246 1247 1238
1238 1247 1248 1239
1239 1248 1249 1240
1240 1249 200 201
57 4 190 1241
1241 190 189 1242
1242 189 188 1243
1243 188 187 1244
1244 187 186 1245
1245 186 185 1246
1246 185 184 1247
1247 184 183 1248
1248 183 182 1249
1249 182 9 200
5 77 1250 199
199 1250 1251 198
198 1251 1252 197
197 1252 1253 196
196 1253 1254 195
195 1254 1255 194
194 1255 1256 193
193 1256 1257 192
192 1257 1258 191
191 1258 209 10
77 78 1259 1250
1250 1259 1260 1251
1251 1260 1261 1252
1252 1261 1262 1253
1253 1262 1263 1254
1254 1263 1264 1255
1255 1264 1265 1256
1256 1265 1266 1257
1257 1266 1267 1258
1258 1267 210 209
78 79 1268 1259
1259 1268 1269 1260
1260 1269 1270 1261
1261 1270 1271 1262
1262 1271 1272 1263
1263 1272 1273 1264
1264 1273 1274 1265
1265 1274 1275 1266
1266 1275 1276 1267
1267 1276 211 210
79 80 1277 1268
1268 1277 1278 1269
1269 1278 1279 1270
1270 1279 1280 1271
1271 1280 1281 1272
1272 1281 1282 1273
1273 1282 1283 1274
1274 1283 1284 1275
1275 1284 1285 1276
1276 1285 212 211
80 81 1286 1277
1277 1286 1287 1278
1278 1287 1288 1279
1279 1288 1289 1280
1280 1289 1290 1281
1281 1290 1291 1282
1282 1291 1292 1283
1283 1292 1293 1284
1284 1293 1294 1285
1285 1294 213 212
81 82 1295 1286
1286 1295 1296 1287
1287 1296 1297 1288
1288 1297 1298 1289
1289 1298 1299 1290
1290 1299 1300 1291
1291 1300 1301 1292
1292 1301 1302 1293
1293 1302 1303 1294
1294 1303 214 213
82 83 1304 1295
1295 1304 1305 1296
1296 1305 1306 1297
1297 1306 1307 1298
1298 1307 1308 1299
1299 1308 1309 1300
1300 1309 1310 1301
1301 1310 1311 1302
1302 1311 1312 1303
1303 1312 215 214
83 84 1313 1304
1304 1313 1314 1305
1305 1314 1315 1306
1306 1315 1316 1307
1307 1316 1317 1308
1308 1317 1318 1309
1309 1318 1319 1310
1310 1319 1320 1311
1311 1320 1321 1312
1312 1321 216 215
84 85 1322 1313
1313 1322 1323 1314
1314 1323 1324 1315
1315 1324 1325 1316
1316 1325 1326 1317
1317 1326 1327 1318
1318 1327 1328 1319
1319 1328 1329 1320
1320 1329 1330 1321
1321 1330 217 216
85 6 122 1322
1322 122 121 1323
1323 121 120 1324
1324 120 119 1325
1325 119 118 1326
1326 118 117 1327
1327 117 116 1328
1328 116 115 1329
1329 115 114 1330
1330 114 8 217
9 163 1331 200
200 1331 1332 201
201 1332 1333 202
202 1333 1334 203
203 1334 1335 204
204 1335 1336 205
205 1336 1337 206
206 1337 1338 207
207 1338 1339 208
208 1339 95 7
163 164 1340 1331
1331 1340 1341 1332
1332 1341 1342 1333
1333 1342 1343 1334
1334 1343 1344 1335
1335 1344 1345 1336
1336 1345 1346 1337
1337 1346 1347 1338
1338 1347 1348 1339
1339 1348 96 95
164 165 1349 1340
1340 1349 1350 1341
1341 1350 1351 1342
1342 1351 1352 1343
1343 1352 1353 1344
1344 1353 1354 1345
1345 1354 1355 1346
1346 1355 1356 1347
1347 1356 1357 1348
1348 1357 97 96
165 166 1358 1349
1349 1358 1359 1350
1350 1359 1360 1351
1351 1360 1361 1352
1352 1361 1362 1353
1353 1362 1363 1354
1354 1363 1364 1355
1355 1364 1365 1356
1356 1365 1366 1357
1357 1366 98 97
166 167 1367 1358
1358 1367 1368 1359
1359 1368 1369 1360
1360 1369 1370 1361
1361 1370 1371 1362
1362 1371 1372 1363
1363 1372 1373 1364
1364 1373 1374 1365
1365 1374 1375 1366
1366 1375 99 98
167 168 1376 1367
1367 1376 1377 1368
1368 1377 1378 1369
1369 1378 1379 1370
1370 1379 1380 1371
1371 1380 1381 1372
1372 1381 1382 1373
1373 1382 1383 1374
1374 1383 1384 1375
1375 1384 100 99
168 169 1385 1376
1376 1385 1386 1377
1377 1386 1387 1378
1378 1387 1388 1379
1379 1388 1389 1380
1380 1389 1390 1381
1381 1390 1391 1382
1382 1391 1392 1383
1383 1392 1393 1384
1384 1393 101 100
169 170 1394 1385
1385 1394 1395 1386
1386 1395 1396 1387
1387 1396 1397 1388
1388 1397 1398 1389
1389 1398 1399 1390
1390 1399 1400 1391
1391 1400 1401 1392
1392 1401 1402 1393
1393 1402 102 101
170 171 1403 1394
1394 1403 1404 1395
1395 1404 1405 1396
1396 1405 1406 1397
1397 1406 1407 1398
1398 1407 1408 1399
1399 1408 1409 1400
1400 1409 1410 1401
1401 1410 1411 1402
1402 1411 103 102
171 172 1412 1403
1403 1412 1413 1404
1404 1413 1414 1405
1405 1414 1415 1406
1406 1415 1416 1407
1407 1416 1417 1408
1408 1417 1418 1409
1409 1418 1419 1410
1410 1419 1420 1411
1411 1420 104 103
172 173 1421 1412
1412 1421 1422 1413
1413 1422 1423 1414
1414 1423 1424 1415
1415 1424 1425 1416
1416 1425 1426 1417
1417 1426 1427 1418
1418 1427 1428 1419
1419 1428 1429 1420
1420 1429 105 104
173 174 1430 1421
1421 1430 1431 1422
1422 1431 1432 1423
1423 1432 1433 1424
1424 1433 1434 1425
1425 1434 1435 1426
1426 1435 1436 1427
1427 1436 1437 1428
1428 1437 1438 1429
1429 1438 106 105
174 175 1439 1430
1430 1439 1440 1431
1431 1440 1441 1432
1432 1441 1442 1433
1433 1442 1443 1434
1434 1443 1444 1435
1435 1444 1445 1436
1436 1445 1446 1437
1437 1446 1447 1438
1438 1447 107 106
175 176 1448 1439
1439 1448 1449 1440
1440 1449 1450 1441
1441 1450 1451 1442
1442 1451 1452 1443
1443 1452 1453 1444
1444 1453 1454 1445
1445 1454 1455 1446
1446 1455 1456 1447
1447 1456 108 107
176 177 1457 1448
1448 1457 1458 1449
1449 1458 1459 1450
1450 1459 1460 1451
1451 1460 1461 1452
1452 1461 1462 1453
1453 1462 1463 1454
1454 1463 1464 1455
1455 1464 1465 1456
1456 1465 109 108
177 178 1466 1457
1457 1466 1467 1458
1458 1467 1468 1459
1459 1468 1469 1460
1460 1469 1470 1461
1461 1470 1471 1462
1462 1471 1472 1463
1463 1472 1473 1464
1464 1473 1474 1465
1465 1474 110 109
178 179 1475 1466
1466 1475 1476 1467
1467 1476 1477 1468
1468 1477 1478 1469
1469 1478 1479 1470
1470 1479 1480 1471
1471 1480 1481 1472
1472 1481 1482 1473
1473 1482 1483 1474
1474 1483 111 110
179 180 1484 1475
1475 1484 1485 1476
1476 1485 1486 1477
1477 1486 1487 1478
1478 1487 1488 1479
1479 1488 1489 1480
1480 1489 1490 1481
1481 1490 1491 1482
1482 1491 1492 1483
1483 1492 112 111
180 181 1493 1484
1484 1493 1494 1485
1485 1494 1495 1486
1486 1495 1496 1487
1487 1496 1497 1488
1488 1497 1498 1489
1489 1498 1499 1490
1490 1499 1500 1491
1491 1500 1501 1492
1492 1501 113 112
181 10 209 1493
1493 209 210 1494
1494 210 211 1495
1495 211 212 1496
1496 212 213 1497
1497 213 214 1498
1498 214 215 1499
1499 215 216 1500
1500 216 217 1501
1501 217 8 113
</DataArray>
<DataArray type="Int64" Name="offsets" format="ascii">
4
8
12
16
20
24
28
32
36
40
44
48
52
56
60
64
68
72
76
80
84
88
92
96
100
104
108
112
116
120
124
128
132
136
140
144
148
152
156
160
164
168
172
176
180
184
188
192
196
200
204
208
212
216
220
224
228
232
236
240
244
248
252
256
260
264
268
272
276
280
284
288
292
296
300
304
308
312
316
320
324
328
332
336
340
344
348
352
356
360
364
368
372
376
380
384
388
392
396
400
404
408
412
416
420
424
428
432
436
440
444
448
452
456
460
464
468
472
476
480
484
488
492
496
500
504
508
512
516
520
524
528
532
536
540
544
548
552
556
560
564
568
572
576
580
584
588
592
596
600
604
608
612
616
620
624
628
632
636
640
644
648
652
656
660
664
668
672
676
680
684
688
692
696
700
704
708
712
716
720
724
728
732
736
740
744
748
752
756
760
764
768
772
776
780
784
788
792
796
800
804
808
812
816
820
824
828
832
836
840
844
848
852
856
860
864
868
872
876
880
884
888
892
896
900
904
908
912
916
920
924
928
932
936
940
944
948
952
956
960
964
968
972
976
980
984
988
992
996
1000
1004
1008
1012
1016
1020
1024
1028
1032
1036
1040
1044
1048
1052
1056
1060
1064
1068
1072
1076
1080
1084
1088
1092
1096
1100
1104
1108
1112
1116
1120
1124
1128
1132
1136
1140
1144
1148
1152
1156
1160
1164
1168
1172
1176
1180
1184
1188
1192
1196
1200
1204
1208
1212
1216
1220
1224
1228
1232
1236
1240
1244
1248
1252
1256
1260
1264
1268
1272
1276
1280
1284
1288
1292
1296
1300
1304
1308
1312
1316
1320
1324
1328
1332
1336
1340
1344
1348
1352
1356
1360
1364
1368
1372
1376
1380
1384
1388
1392
1396
1400
1404
1408
1412
1416
1420
1424
1428
1432
1436
1440
1444
1448
1452
1456
1460
1464
1468
1472
1476
1480
1484
1488
1492
1496
1500
1504
1508
1512
1516
1520
1524
1528
1532
1536
1540
1544
1548
1552
1556
1560
1564
1568
1572
1576
1580
1584
1588
1592
1596
1600
1604
1608
1612
1616
1620
1624
1628
1632
1636
1640
1644
1648
1652
1656
1660
1664
1668
1672
1676
1680
1684
1688
1692
1696
1700
1704
1708
1712
1716
1720
1724
1728
1732
1736
1740
1744
1748
1752
1756
1760
1764
1768
1772
1776
1780
1784
1788
1792
1796
1800
1804
1808
1812
1816
1820
1824
1828
1832
1836
1840
1844
1848
1852
1856
1860
1864
1868
1872
1876
1880
1884
1888
1892
1896
1900
1904
1908
1912
1916
1920
1924
1928
1932
1936
1940
1944
1948
1952
1956
1960
1964
1968
1972
1976
1980
1984
1988
1992
1996
2000
2004
2008
2012
2016
2020
2024
2028
2032
2036
2040
2044
2048
2052
2056
2060
2064
2068
2072
2076
2080
2084
2088
2092
2096
2100
2104
2108
2112
2116
2120
2124
2128
2132
2136
2140
2144
2148
2152
2156
2160
2164
2168
2172
2176
2180
2184
2188
2192
2196
2200
2204
2208
2212
2216
2220
2224
2228
2232
2236
2240
2244
2248
2252
2256
2260
2264
2268
2272
2276
2280
2284
2288
2292
2296
2300
2304
2308
2312
2316
2320
2324
2328
2332
2336
2340
2344
2348
2352
2356
2360
2364
2368
2372
2376
2380
2384
2388
2392
2396
2400
2404
2408
2412
2416
2420
2424
2428
2432
2436
2440
2444
2448
2452
2456
2460
2464
2468
2472
2476
2480
2484
2488
2492
2496
2500
2504
2508
2512
2516
2520
2524
2528
2532
2536
2540
2544
2548
2552
2556
2560
2564
2568
2572
2576
2580
2584
2588
2592
2596
2600
2604
2608
2612
2616
2620
2624
2628
2632
2636
2640
2644
2648
2652
2656
2660
2664
2668
2672
2676
2680
2684
2688
2692
2696
2700
2704
2708
2712
2716
2720
2724
2728
2732
2736
2740
2744
2748
2752
2756
2760
2764
2768
2772
2776
2780
2784
2788
2792
2796
2800
2804
2808
2812
2816
2820
2824
2828
2832
2836
2840
2844
2848
2852
2856
2860
2864
2868
2872
2876
2880
2884
2888
2892
2896
2900
2904
2908
2912
2916
2920
2924
2928
2932
2936
2940
2944
2948
2952
2956
2960
2964
2968
2972
2976
2980
2984
2988
2992
2996
3000
3004
3008
3012
3016
3020
3024
3028
3032
3036
3040
3044
3048
3052
3056
3060
3064
3068
3072
3076
3080
3084
3088
3092
3096
3100
3104
3108
3112
3116
3120
3124
3128
3132
3136
3140
3144
3148
3152
3156
3160
3164
3168
3172
3176
3180
3184
3188
3192
3196
3200
3204
3208
3212
3216
3220
3224
3228
3232
3236
3240
3244
3248
3252
3256
3260
3264
3268
3272
3276
3280
3284
3288
3292
3296
3300
3304
3308
3312
3316
3320
3324
3328
3332
3336
3340
3344
3348
3352
3356
3360
3364
3368
3372
3376
3380
3384
3388
3392
3396
3400
3404
3408
3412
3416
3420
3424
3428
3432
3436
3440
3444
3448
3452
3456
3460
3464
3468
3472
3476
3480
3484
3488
3492
3496
3500
3504
3508
3512
3516
3520
3524
3528
3532
3536
3540
3544
3548
3552
3556
3560
3564
3568
3572
3576
3580
3584
3588
3592
3596
3600
3604
3608
3612
3616
3620
3624
3628
3632
3636
3640
3644
3648
3652
3656
3660
3664
3668
3672
3676
3680
3684
3688
3692
3696
3700
3704
3708
3712
3716
3720
3724
3728
3732
3736
3740
3744
3748
3752
3756
3760
3764
3768
3772
3776
3780
3784
3788
3792
3796
3800
3804
3808
3812
3816
3820
3824
3828
3832
3836
3840
3844
3848
3852
3856
3860
3864
3868
3872
3876
3880
3884
3888
3892
3896
3900
3904
3908
3912
3916
3920
3924
3928
3932
3936
3940
3944
3948
3952
3956
3960
3964
3968
3972
3976
3980
3984
3988
3992
3996
4000
4004
4008
4012
4016
4020
4024
4028
4032
4036
4040
4044
4048
4052
4056
4060
4064
4068
4072
4076
4080
4084
4088
4092
4096
4100
4104
4108
4112
4116
4120
4124
4128
4132
4136
4140
4144
4148
4152
4156
4160
4164
4168
4172
4176
4180
4184
4188
4192
4196
4200
4204
4208
4212
4216
4220
4224
4228
4232
4236
4240
4244
4248
4252
4256
4260
4264
4268
4272
4276
4280
4284
4288
4292
4296
4300
4304
4308
4312
4316
4320
4324
4328
4332
4336
4340
4344
4348
4352
4356
4360
4364
4368
4372
4376
4380
4384
4388
4392
4396
4400
4404
4408
4412
4416
4420
4424
4428
4432
4436
4440
4444
4448
4452
4456
4460
4464
4468
4472
4476
4480
4484
4488
4492
4496
4500
4504
4508
4512
4516
4520
4524
4528
4532
4536
4540
4544
4548
4552
4556
4560
4564
4568
4572
4576
4580
4584
4588
4592
4596
4600
4604
4608
4612
4616
4620
4624
4628
4632
4636
4640
4644
4648
4652
4656
4660
4664
4668
4672
4676
4680
4684
4688
4692
4696
4700
4704
4708
4712
4716
4720
4724
4728
4732
4736
4740
4744
4748
4752
4756
4760
4764
4768
4772
4776
4780
4784
4788
4792
4796
4800
4804
4808
4812
4816
4820
4824
4828
4832
4836
4840
4844
4848
4852
4856
4860
4864
4868
4872
4876
4880
4884
4888
4892
4896
4900
4904
4908
4912
4916
4920
4924
4928
4932
4936
4940
4944
4948
4952
4956
4960
4964
4968
4972
4976
4980
4984
4988
4992
4996
5000
5004
5008
5012
5016
5020
5024
5028
5032
5036
5040
5044
5048
5052
5056
5060
5064
5068
5072
5076
5080
5084
5088
5092
5096
5100
5104
5108
5112
5116
5120
5124
5128
5132
5136
5140
5144
5148
5152
5156
5160
5164
5168
5172
5176
5180
5184
5188
5192
5196
5200
5204
5208
5212
5216
5220
5224
5228
5232
5236
5240
5244
5248
5252
5256
5260
5264
5268
5272
5276
5280
5284
5288
5292
5296
5300
5304
5308
5312
5316
5320
5324
5328
5332
5336
5340
5344
5348
5352
5356
5360
5364
5368
5372
5376
5380
5384
5388
5392
5396
5400
5404
5408
5412
5416
5420
5424
5428
5432
5436
5440
5444
5448
5452
5456
5460
5464
5468
5472
5476
5480
5484
5488
5492
5496
5500
5504
5508
5512
5516
5520
5524
5528
5532
5536
5540
5544
5548
5552
5556
5560
5564
5568
5572
5576
5580
5584
5588
5592
5596
5600
5604
5608
5612
5616
5620
5624
5628
5632
5636
5640
5644
5648
5652
5656
5660
5664
5668
5672
5676
5680
5684
5688
5692
5696
5700
5704
5708
5712
5716
5720
5724
5728
5732
5736
5740
5744
5748
5752
5756
5760
</DataArray>
<DataArray type="Int64" Name="types" format="ascii">
9
9
9
9
9
9
9
9
9
9
9
9
9
9
9
9
9
9
9
9
9
9
9
9
9
9
9
9
9
9
9
9
9
9
9
9
9
9
9
9
9
9
9
9
9
9
9
9
9
9
9
9
9
9
9
9
9
9
9
9
9
9
9
9
9
9
9
9
9
9
9
9
9
9
9
9
9
9
9
9
9
9
9
9
9
9
9
9
9
9
9
9
9
9
9
9
9
9
9
9
9
9
9
9
9
9
9
9
9
9
9
9
9
9
9
9
9
9
9
9
9
9
9
9
9
9
9
9
9
9
9
9
9
9
9
9
9
9
9
9
9
9
9
9
9
9
9
9
9
9
9
9
9
9
9
9
9
9
9
9
9
9
9
9
9
9
9
9
9
9
9
9
9
9
9
9
9
9
9
9
9
9
9
9
9
9
9
9
9
9
9
9
9
9
9
9
9
9
9
9
9
9
9
9
9
9
9
9
9
9
9
9
9
9
9
9
9
9
9
9
9
9
9
9
9
9
9
9
9
9
9
9
9
9
9
9
9
9
9
9
9
9
9
9
9
9
9
9
9
9
9
9
9
9
9
9
9
9
9
9
9
9
9
9
9
9
9
9
9
9
9
9
9
9
9
9
9
9
9
9
9
9
9
9
9
9
9
9
9
9
9
9
9
9
9
9
9
9
9
9
9
9
9
9
9
9
9
9
9
9
9
9
9
9
9
9
9
9
9
9
9
9
9
9
9
9
9
9
9
9
9
9
9
9
9
9
9
9
9
9
9
9
9
9
9
9
9
9
9
9
9
9
9
9
9
9
9
9
9
9
9
9
9
9
9
9
9
9
9
9
9
9
9
9
9
9
9
9
9
9
9
9
9
9
9
9
9
9
9
9
9
9
9
9
9
9
9
9
9
9
9
9
9
9
9
9
9
9
9
9
9
9
9
9
9
9
9
9
9
9
9
9
9
9
9
9
9
9
9
9
9
9
9
9
9
9
9
9
9
9
9
9
9
9
9
9
9
9
9
9
9
9
9
9
9
9
9
9
9
9
9
9
9
9
9
9
9
9
9
9
9
9
9
9
9
9
9
9
9
9
9
9
9
9
9
9
9
9
9
9
9
9
9
9
9
9
9
9
9
9
9
9
9
9
9
9
9
9
9
9
9
9
9
9
9
9
9
9
9
9
9
9
9
9
9
9
9
9
9
9
9
9
9
9
9
9
9
9
9
9
9
9
9
9
9
9
9
9
9
9
9
9
9
9
9
9
9
9
9
9
9
9
9
9
9
9
9
9
9
9
9
9
9
9
9
9
9
9
9
9
9
9
9
9
9
9
9
9
9
9
9
9
9
9
9
9
9
9
9
9
9
9
9
9
9
9
9
9
9
9
9
9
9
9
9
9
9
9
9
9
9
9
9
9
9
9
9
9
9
9
9
9
9
9
9
9
9
9
9
9
9
9
9
9
9
9
9
9
9
9
9
9
9
9
9
9
9
9
9
9
9
9
9
9
9
9
9
9
9
9
9
9
9
9
9
9
9
9
9
9
9
9
9
9
9
9
9
9
9
9
9
9
9
9
9
9
9
9
9
9
9
9
9
9
9
9
9
9
9
9
9
9
9
9
9
9
9
9
9
9
9
9
9
9
9
9
9
9
9
9
9
9
9
9
9
9
9
9
9
9
9
9
9
9
9
9
9
9
9
9
9
9
9
9
9
9
9
9
9
9
9
9
9
9
9
9
9
9
9
9
9
9
9
9
9
9
9
9
9
9
9
9
9
9
9
9
9
9
9
9
9
9
9
9
9
9
9
9
9
9
9
9
9
9
9
9
9
9
9
9
9
9
9
9
9
9
9
9
9
9
9
9
9
9
9
9
9
9
9
9
9
9
9
9
9
9
9
9
9
9
9
9
9
9
9
9
9
9
9
9
9
9
9
9
9
9
9
9
9
9
9
9
9
9
9
9
9
9
9
9
9
9
9
9
9
9
9
9
9
9
9
9
9
9
9
9
9
9
9
9
9
9
9
9
9
9
9
9
9
9
9
9
9
9
9
9
9
9
9
9
9
9
9
9
9
9
9
9
9
9
9
9
9
9
9
9
9
9
9
9
9
9
9
9
9
9
9
9
9
9
9
9
9
9
9
9
9
9
9
9
9
9
9
9
9
9
9
9
9
9
9
9
9
9
9
9
9
9
9
9
9
9
9
9
9
9
9
9
9
9
9
9
9
9
9
9
9
9
9
9
9
9
9
9
9
9
9
9
9
9
9
9
9
9
9
9
9
9
9
9
9
9
9
9
9
9
9
9
9
9
9
9
9
9
9
9
9
9
9
9
9
9
9
9
9
9
9
9
9
9
9
9
9
9
9
9
9
9
9
9
9
9
9
9
9
9
9
9
9
9
9
9
9
9
9
9
9
9
9
9
9
9
9
9
9
9
9
9
9
9
9
9
9
9
9
9
9
9
9
9
9
9
9
9
9
9
9
9
9
9
9
9
9
9
9
9
9
9
9
9
9
9
9
9
9
9
9
9
9
9
9
9
9
9
9
9
9
9
9
9
9
9
9
9
9
9
9
9
9
9
9
9
9
9
9
9
9
9
9
9
9
9
9
9
9
9
9
9
9
9
9
9
9
9
9
9
9
9
9
9
9
9
9
9
9
9
9
9
9
9
9
9
9
9
9
9
9
9
9
9
9
9
9
9
9
9
9
9
9
9
9
9
9
9
9
9
9
9
9
9
9
9
9
9
9
9
9
9
9
9
9
9
9
9
9
9
9
9
9
9
9
9
9
9
9
9
9
9
9
9
9
9
9
9
9
9
9
9
9
9
9
9
9
9
9
9
9
9
9
9
9
9
9
9
9
9
9
9
9
9
9
9
9
9
9
9
9
9
9
9
9
9
9
9
9
9
9
9
9
9
9
9
9
9
9
9
9
9
9
9
9
9
9
9
9
9
9
9
9
9
9
9
9
9
9
9
9
9
9
9
9
9
9
9
9
9
9
9
9
9
9
9
9
9
9
9
9
9
9
9
9
9
9
9
9
9
9
9
9
9
9
9
9
9
9
9
9
9
9
9
9
9
9
9
9
9
9
9
9
9
9
9
9
9
9
9
9
9
9
9
9
9
9
9
9
9
9
9
9
9
9
9
9
9
9
9
9
9
9
9
9
9
9
9
9
9
9
9
9
9
9
9
9
9
9
9
9
9
9
9
9
9
9
9
9
9
9
9
9
9
9
9
9
9
9
9
9
9
9
9
</DataArray>
</Cells>
<PointData Vectors="'U'">
<DataArray type="Float64" Name="U" NumberOfComponents="2" ComponentName0="U1" ComponentName1="U2" format="ascii">
-0.8907937620461E-37 -0.2323086307874E-36
-0.6700141930241E-37 -0.4872348001217E-37
-0.8726214322141E-37  0.2276884042566E-36
-0.1463428574973E-01 -0.3928223544810E-01
-0.7093173558675E-02 -0.1768394722978E-01
 0.7093173691786E-02 -0.1768394731376E-01
 0.1463428574630E-01 -0.3928223545386E-01
-0.2993513926404E+00 -0.3390962751310E+00
 0.2993513931347E+00 -0.3390962751018E+00
-0.3511913674208E+00 -0.5112197442032E+00
 0.3511913676795E+00 -0.5112197443200E+00
-0.1405839068149E-37 -0.2390169820723E-36
-0.2057965031241E-37 -0.2064347667632E-36
-0.2245322148846E-37 -0.1878901083630E-36
-0.2406386446109E-37 -0.1741651756429E-36
-0.2595342063380E-37 -0.1627052506739E-36
-0.2812787618482E-37 -0.1525275604156E-36
-0.3052267396665E-37 -0.1431709252484E-36
-0.3307832390264E-37 -0.1343892874352E-36
-0.3574968793526E-37 -0.1260387835571E-36
-0.3850500215109E-37 -0.1180297344035E-36
-0.4130608716537E-37 -0.1103361370414E-36
-0.4414343793785E-37 -0.1028903078711E-36
-0.4700570430115E-37 -0.9565630477161E-37
-0.4988178586153E-37 -0.8860510617247E-37
-0.5276256662414E-37 -0.8171078265420E-37
-0.5564037078121E-37 -0.7494873693345E-37
-0.5850859256287E-37 -0.6829455815705E-37
-0.6136145895223E-37 -0.6172325770844E-37
-0.6419388799646E-37 -0.5520875002079E-37
-0.6978019646097E-37 -0.4223814759832E-37
-0.7252699006980E-37 -0.3572147530509E-37
-0.7523925181466E-37 -0.2913998040883E-37
-0.7791519114301E-37 -0.2245771523623E-37
-0.8055386870184E-37 -0.1563592203978E-37
-0.8315529433587E-37 -0.8632566799097E-38
-0.8572051811171E-37 -0.1401670949487E-38
-0.8825169379797E-37  0.6107651586558E-38
-0.9075207811879E-37  0.1395253784957E-37
-0.9322439223869E-37  0.2219922105495E-37
-0.9569347907388E-37  0.3105857748943E-37
-0.9814850532608E-37  0.4049944944227E-37
-0.1005903036110E-36  0.5063301877128E-37
-0.1030166550747E-36  0.6159832841654E-37
-0.1054157890804E-36  0.7356636407196E-37
-0.1077643848919E-36  0.8673082060946E-37
-0.1100598543217E-36  0.1012244350881E-36
-0.1126041983749E-36  0.1166413655759E-36
-0.1183006077380E-36  0.1289841086898E-36
-0.1422546506547E-01 -0.3193420929814E-01
-0.1334605223106E-01 -0.2785462091160E-01
-0.1243804977690E-01 -0.2513684166116E-01
-0.1158427817254E-01 -0.2317169747140E-01
-0.1078041338333E-01 -0.2167700582282E-01
-0.1001129285502E-01 -0.2050309952813E-01
-0.9264180998526E-02 -0.1956290703067E-01
-0.8530772850763E-02 -0.1880184800358E-01
-0.7806938957497E-02 -0.1818368159686E-01
-0.6393437110660E-02 -0.1729011608466E-01
-0.5691041574987E-02 -0.1696640254555E-01
-0.4986840793493E-02 -0.1670344927086E-01
-0.4280474368648E-02 -0.1649247821688E-01
-0.3571793073328E-02 -0.1632592331344E-01
-0.2860804879922E-02 -0.1619762465006E-01
-0.2147703463883E-02 -0.1610270726077E-01
-0.1432851396538E-02 -0.1603748180122E-01
-0.7167504793650E-03 -0.1599936550899E-01
 0.6588619927417E-10 -0.1598682892513E-01
 0.7167506111209E-03 -0.1599936551357E-01
 0.1432851528249E-02 -0.1603748181058E-01
 0.2147703595533E-02 -0.1610270727533E-01
 0.2860805011519E-02 -0.1619762467045E-01
 0.3571793204908E-02 -0.1632592334051E-01
 0.4280474500285E-02 -0.1649247825174E-01
 0.4986840925304E-02 -0.1670344931491E-01
 0.5691041707130E-02 -0.1696640260053E-01
 0.6393437243316E-02 -0.1729011615268E-01
 0.7806939077777E-02 -0.1818368169000E-01
 0.8530772958117E-02 -0.1880184810545E-01
 0.9264181093154E-02 -0.1956290714072E-01
 0.1001129293714E-01 -0.2050309964549E-01
 0.1078041345305E-01 -0.2167700594617E-01
 0.1158427822964E-01 -0.2317169759871E-01
 0.1243804982031E-01 -0.2513684178890E-01
 0.1334605225805E-01 -0.2785462103254E-01
 0.1422546507225E-01 -0.3193420939554E-01
-0.2049652093381E+00 -0.1795713302517E+00
-0.3068437578664E+00 -0.2610929146484E+00
-0.3825162837186E+00 -0.2878987210976E+00
-0.4296146023693E+00 -0.2892842866629E+00
-0.4518784393988E+00 -0.2782294008805E+00
-0.4523555603741E+00 -0.2637572093556E+00
-0.4337088278445E+00 -0.2541091614481E+00
-0.4010215477490E+00 -0.2596622224587E+00
-0.3567631721873E+00 -0.2851164462066E+00
-0.2696520693739E+00 -0.3791876527090E+00
-0.2367399430462E+00 -0.4341668759456E+00
-0.1993876916052E+00 -0.5082211550623E+00
-0.1524581233913E+00 -0.6141719629763E+00
-0.9901514243427E-01 -0.7576204554976E+00
-0.5255661422467E-01 -0.9147192877538E+00
-0.2119017883889E-01 -0.1056755842187E+01
-0.4620795728374E-02 -0.1167895793310E+01
 0.7444320179312E-03 -0.1238314255204E+01
 0.1769184798661E-09 -0.1262443459394E+01
-0.7444316428394E-03 -0.1238314254919E+01
 0.4620796162603E-02 -0.1167895792764E+01
 0.2119017936160E-01 -0.1056755841429E+01
 0.5255661485043E-01 -0.9147192868646E+00
 0.9901514314397E-01 -0.7576204546020E+00
 0.1524581240815E+00 -0.6141719623114E+00
 0.1993876922061E+00 -0.5082211546801E+00
 0.2367399435999E+00 -0.4341668757194E+00
 0.2696520698938E+00 -0.3791876525933E+00
 0.3567631726073E+00 -0.2851164463263E+00
 0.4010215480974E+00 -0.2596622226691E+00
 0.4337088281213E+00 -0.2541091617127E+00
 0.4523555605725E+00 -0.2637572096341E+00
 0.4518784395405E+00 -0.2782294011389E+00
 0.4296146024889E+00 -0.2892842868961E+00
 0.3825162838494E+00 -0.2878987213341E+00
 0.3068437579973E+00 -0.2610929149442E+00
 0.2049652093895E+00 -0.1795713305682E+00
-0.6049095332608E-03 -0.1142498113942E-02
-0.9204702473589E-03 -0.1992844909476E-02
-0.1120795339292E-02 -0.2813560672356E-02
-0.1238394808286E-02 -0.3625771483752E-02
-0.1295091261033E-02 -0.4444522210631E-02
-0.1301996161249E-02 -0.5279366635602E-02
-0.1266969782510E-02 -0.6139016608392E-02
-0.1195515950528E-02 -0.7033621231981E-02
-0.1091781750422E-02 -0.7977257400879E-02
-0.9609369047369E-03 -0.8996095473275E-02
-0.8197726872312E-03 -0.1012874522530E-01
-0.6994229885674E-03 -0.1139458815455E-01
-0.6305156295645E-03 -0.1279307406104E-01
-0.6437813198435E-03 -0.1433370342991E-01
-0.7785874681975E-03 -0.1604384282281E-01
-0.1088006700570E-02 -0.1796292415878E-01
-0.1643393379961E-02 -0.2015084928384E-01
-0.2536497583010E-02 -0.2272421564963E-01
-0.3991360978234E-02 -0.2594636162998E-01
-0.6188426088349E-02 -0.3066313051021E-01
 0.6188426078148E-02 -0.3066313050249E-01
 0.3991360975508E-02 -0.2594636162507E-01
 0.2536497580132E-02 -0.2272421564696E-01
 0.1643393377262E-02 -0.2015084928147E-01
 0.1088006698012E-02 -0.1796292415670E-01
 0.7785874658043E-03 -0.1604384282082E-01
 0.6437813176761E-03 -0.1433370342789E-01
 0.6305156276680E-03 -0.1279307405908E-01
 0.6994229869410E-03 -0.1139458815268E-01
 0.8197726858539E-03 -0.1012874522357E-01
 0.9609369035739E-03 -0.8996095471703E-02
 0.1091781749441E-02 -0.7977257399464E-02
 0.1195515949707E-02 -0.7033621230717E-02
 0.1266969781836E-02 -0.6139016607274E-02
 0.1301996160708E-02 -0.5279366634632E-02
 0.1295091260609E-02 -0.4444522209809E-02
 0.1238394807966E-02 -0.3625771483080E-02
 0.1120795339058E-02 -0.2813560671836E-02
 0.9204702472073E-03 -0.1992844909113E-02
 0.6049095331537E-03 -0.1142498113740E-02
-0.3306409495711E+00 -0.5499306779859E+00
-0.3070457468154E+00 -0.5905817048434E+00
-0.2798789970185E+00 -0.6317663629597E+00
-0.2489546301317E+00 -0.6720000498347E+00
-0.2142906517904E+00 -0.7096465754175E+00
-0.1761339264672E+00 -0.7430211895701E+00
-0.1349456975584E+00 -0.7706073001041E+00
-0.9135368094346E-01 -0.7911937815630E+00
-0.4610049121197E-01 -0.8039008247797E+00
 0.1553617234862E-09 -0.8081956412438E+00
 0.4610049152188E-01 -0.8039008247861E+00
 0.9135368125097E-01 -0.7911937815762E+00
 0.1349456978620E+00 -0.7706073001246E+00
 0.1761339267655E+00 -0.7430211895989E+00
 0.2142906520825E+00 -0.7096465754561E+00
 0.2489546304169E+00 -0.6720000498857E+00
 0.2798789972966E+00 -0.6317663630251E+00
 0.3070457470868E+00 -0.5905817049251E+00
 0.3306409498361E+00 -0.5499306780850E+00
-0.3449422127939E+00 -0.4578182460959E+00
-0.3328541826017E+00 -0.4028994228467E+00
-0.3162367375230E+00 -0.3468728521337E+00
-0.2956478023978E+00 -0.2905091749648E+00
-0.2701492138274E+00 -0.2346333061423E+00
-0.2386704561573E+00 -0.1804597657596E+00
-0.1999152062536E+00 -0.1296838189357E+00
-0.1512879720698E+00 -0.8425895433675E-01
-0.8886875137573E-01 -0.4621595594078E-01
 0.3449422130335E+00 -0.4578182461739E+00
 0.3328541828224E+00 -0.4028994228739E+00
 0.3162367377506E+00 -0.3468728520908E+00
 0.2956478026997E+00 -0.2905091748316E+00
 0.2701492143214E+00 -0.2346333059204E+00
 0.2386704569541E+00 -0.1804597655118E+00
 0.1999152073357E+00 -0.1296838187769E+00
 0.1512879732442E+00 -0.8425895435222E-01
 0.8886875228384E-01 -0.4621595610173E-01
-0.3663847505534E+00 -0.5029145889946E+00
-0.3772844743097E+00 -0.4903739471380E+00
-0.3831834468718E+00 -0.4741964891299E+00
-0.3838012167523E+00 -0.4551367342444E+00
-0.3791252831120E+00 -0.4341067619322E+00
-0.3694319502896E+00 -0.4121830598397E+00
-0.3553532254729E+00 -0.3905732816624E+00
-0.3379492799980E+00 -0.3705236378305E+00
-0.3186709441011E+00 -0.3531160689852E+00
 0.3663847508302E+00 -0.5029145890778E+00
 0.3772844746025E+00 -0.4903739471887E+00
 0.3831834471790E+00 -0.4741964891507E+00
 0.3838012170736E+00 -0.4551367342395E+00
 0.3791252834487E+00 -0.4341067619075E+00
 0.3694319506454E+00 -0.4121830598021E+00
 0.3553532258535E+00 -0.3905732816195E+00
 0.3379492804108E+00 -0.3705236377889E+00
 0.3186709445529E+00 -0.3531160689492E+00
-0.4972275459897E-03 -0.9825515940815E-03
-0.8420249394421E-03 -0.1912699953991E-02
-0.1040051278433E-02 -0.2768866598226E-02
-0.1157908550892E-02 -0.3612150523920E-02
-0.1212224574138E-02 -0.4456734044565E-02
-0.1215749627877E-02 -0.5314339906242E-02
-0.1176072225684E-02 -0.6194572506649E-02
-0.1098569118453E-02 -0.7108130319802E-02
-0.9869338495732E-03 -0.8069349512031E-02
-0.8463670106051E-03 -0.9098247106448E-02
-0.6952372163440E-03 -0.1021487646985E-01
-0.5678332909442E-03 -0.1143126887587E-01
-0.4972424468845E-03 -0.1275431878291E-01
-0.5157385339997E-03 -0.1419317374556E-01
-0.6655827059772E-03 -0.1576439290767E-01
-0.1004561343282E-02 -0.1749548885013E-01
-0.1605596833325E-02 -0.1942641034895E-01
-0.2592668974846E-02 -0.2161847416240E-01
-0.4135135194949E-02 -0.2421262737444E-01
-0.7171765101039E-02 -0.2724885000796E-01
-0.4218158355889E-03 -0.9148956882424E-03
-0.7562495842210E-03 -0.1841912849463E-02
-0.9591036399671E-03 -0.2730141770141E-02
-0.1075504977622E-02 -0.3597373346542E-02
-0.1128041038846E-02 -0.4463974055181E-02
-0.1128399470551E-02 -0.5340673886539E-02
-0.1084478604808E-02 -0.6237433441413E-02
-0.1001461338009E-02 -0.7164608853519E-02
-0.8832744792273E-03 -0.8134545370125E-02
-0.7368706054026E-03 -0.9160371737790E-02
-0.5824299562633E-03 -0.1025235292996E-01
-0.4545869630715E-03 -0.1141868361745E-01
-0.3878705114116E-03 -0.1266667596315E-01
-0.4175732008216E-03 -0.1400318051989E-01
-0.5894812594930E-03 -0.1543735476947E-01
-0.9647308500044E-03 -0.1698503933589E-01
-0.1628099481331E-02 -0.1866317446110E-01
-0.2708229147496E-02 -0.2049515117333E-01
-0.4489462621522E-02 -0.2247008557853E-01
-0.7806592740692E-02 -0.2465214142924E-01
-0.3656637338257E-03 -0.8806838008516E-03
-0.6759828148842E-03 -0.1794014265425E-02
-0.8776177862097E-03 -0.2696391804691E-02
-0.9929133299943E-03 -0.3582899724972E-02
-0.1043370802077E-02 -0.4466891319523E-02
-0.1040946314916E-02 -0.5358923780310E-02
-0.9933566018428E-03 -0.6268030678689E-02
-0.9059079766408E-03 -0.7203414703838E-02
-0.7833858762889E-03 -0.8174441371315E-02
-0.6348492527592E-03 -0.9188700855436E-02
-0.4818051197302E-03 -0.1025072215319E-01
-0.3584708097199E-03 -0.1136600362266E-01
-0.3003771803853E-03 -0.1254012893031E-01
-0.3458591548512E-03 -0.1377695993145E-01
-0.5439630453275E-03 -0.1508003960265E-01
-0.9605473369300E-03 -0.1645500390748E-01
-0.1687164531413E-02 -0.1790382049081E-01
-0.2871607722095E-02 -0.1941603845115E-01
-0.4817386318002E-02 -0.2097008031844E-01
-0.8032422027971E-02 -0.2271388779947E-01
-0.3211468599525E-03 -0.8618853066158E-03
-0.6037403565837E-03 -0.1762707797014E-02
-0.7981093368174E-03 -0.2669550512285E-02
-0.9110210765995E-03 -0.3568949222232E-02
-0.9592428094869E-03 -0.4466224195286E-02
-0.9543240972910E-03 -0.5369715770513E-02
-0.9038521065307E-03 -0.6287098016863E-02
-0.8134214519602E-03 -0.7225705402436E-02
-0.6889948659847E-03 -0.8191839915551E-02
-0.5415393909553E-03 -0.9188904448545E-02
-0.3934303678439E-03 -0.1021776195622E-01
-0.2782813914330E-03 -0.1128177432408E-01
-0.2323542087584E-03 -0.1238432961874E-01
-0.2964687437848E-03 -0.1352651001207E-01
-0.5226556112725E-03 -0.1470765011961E-01
-0.9801841239103E-03 -0.1592697249105E-01
-0.1765661918306E-02 -0.1717709161832E-01
-0.3031793528353E-02 -0.1844143658149E-01
-0.5026352433703E-02 -0.1973219871047E-01
-0.7986338828591E-02 -0.2121603533657E-01
-0.2841021266651E-03 -0.8511400264930E-03
-0.5391141518270E-03 -0.1742249470850E-02
-0.7222011889604E-03 -0.2649026294313E-02
-0.8308682634037E-03 -0.3555945970406E-02
-0.8765236217840E-03 -0.4462485458926E-02
-0.8694300624023E-03 -0.5373802452045E-02
-0.8169832808272E-03 -0.6295655490970E-02
-0.7251803359002E-03 -0.7233213424886E-02
-0.6011818819744E-03 -0.8189957422637E-02
-0.4574990343657E-03 -0.9166163075485E-02
-0.3170052844081E-03 -0.1016021611812E-01
-0.2126519768286E-03 -0.1117375095734E-01
-0.1811331843612E-03 -0.1220816933993E-01
-0.2650729871411E-03 -0.1326241321328E-01
-0.5185651404289E-03 -0.1433337740011E-01
-0.1012581199478E-02 -0.1541724250156E-01
-0.1844081648344E-02 -0.1650511283236E-01
-0.3151774582197E-02 -0.1759091372135E-01
-0.5106349971510E-02 -0.1871537691085E-01
-0.7771543729175E-02 -0.2002613681425E-01
-0.2521758165159E-03 -0.8449079646511E-03
-0.4810551569795E-03 -0.1728756839113E-02
-0.6506103688114E-03 -0.2633445429551E-02
-0.7533359253855E-03 -0.3543979153141E-02
-0.7959783112800E-03 -0.4456169019368E-02
-0.7870446484363E-03 -0.5371998545814E-02
-0.7335903746535E-03 -0.6294960961787E-02
-0.6420223464895E-03 -0.7227986581586E-02
-0.5205516979626E-03 -0.8172094560534E-02
-0.3828339076142E-03 -0.9125225689923E-02
-0.2519272058475E-03 -0.1008405920694E-01
-0.1600377556098E-03 -0.1104887430880E-01
-0.1439427543477E-03 -0.1201955720226E-01
-0.2472650215414E-03 -0.1299380454986E-01
-0.5249354651590E-03 -0.1396777363635E-01
-0.1047391530443E-02 -0.1493776251323E-01
-0.1906054795562E-02 -0.1589930070842E-01
-0.3214585706101E-02 -0.1686054687863E-01
-0.5073736603448E-02 -0.1787619775416E-01
-0.7450344474980E-02 -0.1906319344749E-01
-0.2239708748185E-03 -0.8413045110119E-03
-0.4285265687221E-03 -0.1719719962006E-02
-0.5835136081770E-03 -0.2621460614651E-02
-0.6790346669795E-03 -0.3532904294362E-02
-0.7182396269869E-03 -0.4447730138182E-02
-0.7078047891535E-03 -0.5365179724006E-02
-0.6543095719258E-03 -0.6286418077131E-02
-0.5644830820626E-03 -0.7212207880150E-02
-0.4473533770476E-03 -0.8141477747907E-02
-0.3173299908014E-03 -0.9070435793454E-02
-0.1973646161682E-03 -0.9994607323065E-02
-0.1187760477593E-03 -0.1091327006904E-01
-0.1180119522260E-03 -0.1182535844381E-01
-0.2388217465549E-03 -0.1272825392609E-01
-0.5356096750152E-03 -0.1361887505685E-01
-0.1075843292226E-02 -0.1449607247385E-01
-0.1940841935072E-02 -0.1536242882989E-01
-0.3216261763892E-02 -0.1623784879777E-01
-0.4949352497522E-02 -0.1717978551009E-01
-0.7059268354692E-02 -0.1827498138705E-01
-0.1986155806798E-03 -0.8392576112463E-03
-0.3806582321736E-03 -0.1713523716210E-02
-0.5208083825990E-03 -0.2611987817789E-02
-0.6083221456185E-03 -0.3522508894774E-02
-0.6437793682403E-03 -0.4437589571019E-02
-0.6321895552925E-03 -0.5354258578075E-02
-0.5795736708612E-03 -0.6271498679150E-02
-0.4928416913273E-03 -0.7188075375821E-02
-0.3815669557663E-03 -0.8101174694820E-02
-0.2605438899497E-03 -0.9005741715684E-02
-0.1523311007186E-03 -0.9896570956870E-02
-0.8715878380528E-04 -0.1077227081672E-01
-0.1006834029009E-03 -0.1163138089330E-01
-0.2358983408127E-03 -0.1247180265466E-01
-0.5453255693814E-03 -0.1329238028150E-01
-0.1091370425413E-02 -0.1409590394533E-01
-0.1942861518886E-02 -0.1489216522299E-01
-0.3159517351460E-02 -0.1570870430777E-01
-0.4751682473962E-02 -0.1659956960096E-01
-0.6619999146267E-02 -0.1762609511749E-01
-0.1755376357248E-03 -0.8381308059735E-03
-0.3367520528949E-03 -0.1709128297218E-02
-0.4622589225090E-03 -0.2604231672778E-02
-0.5413550095801E-03 -0.3512612780933E-02
-0.5729029996578E-03 -0.4426153672579E-02
-0.5605160624552E-03 -0.5340157374438E-02
-0.5096262442459E-03 -0.6251681178600E-02
-0.4271644489132E-03 -0.7157724063855E-02
-0.3229687073293E-03 -0.8054045656887E-02
-0.2118719138080E-03 -0.8934701599738E-02
-0.1157525057256E-03 -0.9794089937114E-02
-0.6350581165281E-04 -0.1063044926109E-01
-0.8951236610006E-04 -0.1144241616860E-01
-0.2351678105283E-03 -0.1222907840057E-01
-0.5499168081142E-03 -0.1299195296573E-01
-0.1089675653688E-02 -0.1373820904420E-01
-0.1910302491831E-02 -0.1448372888985E-01
-0.3049949206758E-02 -0.1526002504762E-01
-0.4495456685583E-02 -0.1611506235184E-01
-0.6145605361516E-02 -0.1709130538009E-01
-0.1543406335051E-03 -0.8375368976813E-03
-0.2962490190971E-03 -0.1705867472914E-02
-0.4075700796865E-03 -0.2597645438593E-02
-0.4781386729780E-03 -0.3503109989833E-02
-0.5057605257337E-03 -0.4413829858338E-02
-0.4929453408653E-03 -0.5323785488551E-02
-0.4445415392464E-03 -0.6228404131857E-02
-0.3673437084908E-03 -0.7123175083967E-02
-0.2711824398422E-03 -0.8002714935590E-02
-0.1706054381115E-03 -0.8860489527835E-02
-0.8652525285782E-04 -0.9690764607485E-02
-0.4622955473054E-04 -0.1049166491253E-01
-0.8234273684151E-04 -0.1126231917862E-01
-0.2339094842248E-03 -0.1200346361336E-01
-0.5463686391409E-03 -0.1271962993716E-01
-0.1068434404828E-02 -0.1342215641083E-01
-0.1843814068552E-02 -0.1413148915576E-01
-0.2893990948945E-02 -0.1488048518225E-01
-0.4192298093725E-02 -0.1571029371346E-01
-0.5643327582360E-02 -0.1665043619705E-01
-0.1347413602329E-03 -0.8371988845938E-03
-0.2587483497136E-03 -0.1703246549986E-02
-0.3565497044558E-03 -0.2591780303387E-02
-0.4187760683638E-03 -0.3493867122530E-02
-0.4426532555710E-03 -0.4400926527278E-02
-0.4298482975154E-03 -0.5305940574597E-02
-0.3846415854333E-03 -0.6203009090858E-02
-0.3135389720296E-03 -0.7086384615668E-02
-0.2261031714693E-03 -0.7949807497156E-02
-0.1362946233435E-03 -0.8786407019897E-02
-0.6378895067034E-04 -0.9590530781973E-02
-0.3400612406325E-04 -0.1036040303523E-01
-0.7739807949848E-04 -0.1109592590344E-01
-0.2300837481976E-03 -0.1179971852163E-01
-0.5329583967488E-03 -0.1247929931031E-01
-0.1027557092910E-02 -0.1314955616155E-01
-0.1747150667452E-02 -0.1383399333084E-01
-0.2701331720525E-02 -0.1456512792914E-01
-0.3856977241221E-02 -0.1537787765581E-01
-0.5128060273799E-02 -0.1629187890397E-01
-0.1165058249127E-03 -0.8370229131934E-03
-0.2238051859195E-03 -0.1701099687285E-02
-0.3087272113324E-03 -0.2586552338604E-02
-0.3628438994315E-03 -0.3485069698049E-02
-0.3831565745415E-03 -0.4388003844593E-02
-0.3707180734705E-03 -0.5287582571687E-02
-0.3292700047536E-03 -0.6176839797133E-02
-0.2649023694882E-03 -0.7049027429731E-02
-0.1866832096842E-03 -0.7897219352075E-02
-0.1077170615307E-03 -0.8714387171225E-02
-0.4618553107000E-04 -0.9495100820734E-02
-0.2537750313201E-04 -0.1023782702010E-01
-0.7318406393401E-04 -0.1094340820635E-01
-0.2223251209316E-03 -0.1161641978908E-01
-0.5088227874519E-03 -0.1226716481778E-01
-0.9673381701217E-03 -0.1291341399084E-01
-0.1622447750358E-02 -0.1358057067409E-01
-0.2475598233401E-02 -0.1429992154277E-01
-0.3491725146419E-02 -0.1510087168823E-01
-0.4595785572115E-02 -0.1599610808398E-01
-0.9944477565389E-04 -0.8369246627681E-03
-0.1910825387523E-03 -0.1699278738517E-02
-0.2637677869310E-03 -0.2581860942417E-02
-0.3100874261459E-03 -0.3476816247086E-02
-0.3270712565988E-03 -0.4375466812039E-02
-0.3153419449754E-03 -0.5269472683431E-02
-0.2781304008389E-03 -0.6151028625168E-02
-0.2210003085477E-03 -0.7012596707673E-02
-0.1523234252342E-03 -0.7846760823824E-02
-0.8410604637597E-04 -0.8646468282691E-02
-0.3279782747709E-04 -0.9406603548650E-02
-0.1931200998274E-04 -0.1012596842879E-01
-0.6864760323714E-04 -0.1080641779710E-01
-0.2097830463165E-03 -0.1145442264256E-01
-0.4737575776209E-03 -0.1208274673689E-01
-0.8889081965478E-03 -0.1271138834609E-01
-0.1472852310752E-02 -0.1336678991487E-01
-0.2221898328862E-02 -0.1407860022217E-01
-0.3102041723411E-02 -0.1487160069117E-01
-0.4049409138711E-02 -0.1575344741729E-01
-0.8339196227219E-04 -0.8368580654526E-03
-0.1602739143947E-03 -0.1697706823503E-02
-0.2213318829382E-03 -0.2577676464642E-02
-0.2602017187155E-03 -0.3469239657869E-02
-0.2741190325375E-03 -0.4363704044782E-02
-0.2634184896610E-03 -0.5252304379199E-02
-0.2308432196834E-03 -0.6126587080327E-02
-0.1813357393062E-03 -0.6978405817948E-02
-0.1223956912738E-03 -0.7799998232242E-02
-0.6471671002523E-04 -0.8584379608702E-02
-0.2280271088210E-04 -0.9326797440668E-02
-0.1497362652024E-04 -0.1002643475556E-01
-0.6306604044483E-04 -0.1068615087011E-01
-0.1920897872487E-03 -0.1131415556415E-01
-0.4281500802218E-03 -0.1192529544730E-01
-0.7939223784961E-03 -0.1254122019565E-01
-0.1301646419890E-02 -0.1318882147278E-01
-0.1944823579128E-02 -0.1389602358954E-01
-0.2692428957079E-02 -0.1468386638870E-01
-0.3491361398663E-02 -0.1555645374892E-01
-0.6819429176513E-04 -0.8368012477741E-03
-0.1310914416814E-03 -0.1696352890073E-02
-0.1810747019016E-03 -0.2574014606745E-02
-0.2128420295091E-03 -0.3462489773585E-02
-0.2239573471675E-03 -0.4353076818742E-02
-0.2145734400774E-03 -0.5236694685131E-02
-0.1869621448678E-03 -0.6104398930904E-02
-0.1453644742674E-03 -0.6947586548680E-02
-0.9625788590350E-04 -0.7758261590272E-02
-0.4883817970662E-04 -0.8529562787325E-02
-0.1547751456873E-04 -0.9257110583748E-02
-0.1171643095928E-04 -0.9940474794851E-02
-0.5601755825046E-04 -0.1058344767228E-01
-0.1692876746300E-03 -0.1119575828842E-01
-0.3728454514818E-03 -0.1179394975451E-01
-0.6843828496865E-03 -0.1240085088330E-01
-0.1112119221380E-02 -0.1304343347769E-01
-0.1648502332507E-02 -0.1374800851738E-01
-0.2266673754254E-02 -0.1453268900322E-01
-0.2923662155034E-02 -0.1539914148839E-01
-0.5370570615098E-04 -0.8367470807457E-03
-0.1032578507768E-03 -0.1695213653182E-02
-0.1426456315723E-03 -0.2570916623985E-02
-0.1676319281040E-03 -0.3456718096550E-02
-0.1761922029833E-03 -0.4343908776958E-02
-0.1683740529639E-03 -0.5223176921121E-02
-0.1459884936881E-03 -0.6085215822420E-02
-0.1125084267190E-03 -0.6921089876753E-02
-0.7326456859231E-04 -0.7722653945398E-02
-0.3579990271839E-04 -0.8483193512455E-02
-0.1019886861559E-04 -0.9198678944114E-02
-0.9070001905882E-05 -0.9869038840113E-02
-0.4734334996198E-04 -0.1049887932478E-01
-0.1417559915076E-03 -0.1109919258635E-01
-0.3090343229035E-03 -0.1168784957456E-01
-0.5625140215689E-03 -0.1228849004636E-01
-0.9075027889677E-03 -0.1292796540673E-01
-0.1336677705914E-02 -0.1363119807291E-01
-0.1828048576800E-02 -0.1441409189869E-01
-0.2348122055831E-02 -0.1527666982111E-01
-0.3978347329493E-04 -0.8366966741816E-03
-0.7650127838132E-04 -0.1694300698650E-02
-0.1056880650342E-03 -0.2568434219960E-02
-0.1241699536555E-03 -0.3452065073731E-02
-0.1303892282643E-03 -0.4336476953665E-02
-0.1243417660798E-03 -0.5212194832496E-02
-0.1073834952833E-03 -0.6069654614704E-02
-0.8216592029709E-04 -0.6899688171791E-02
-0.5277370251367E-04 -0.7694061123771E-02
-0.2497278649971E-04 -0.8446201963614E-02
-0.6435119053939E-05 -0.9152380963290E-02
-0.6717961656851E-05 -0.9812831143029E-02
-0.3710520181381E-04 -0.1043281972608E-01
-0.1101417483699E-03 -0.1102432737209E-01
-0.2381614155355E-03 -0.1160621343059E-01
-0.4306775310454E-03 -0.1220265171100E-01
-0.6909475571951E-03 -0.1284029458669E-01
-0.1012786060412E-02 -0.1354295977097E-01
-0.1379471234536E-02 -0.1432495380307E-01
-0.1766415280678E-02 -0.1518522241718E-01
-0.2628607008373E-04 -0.8366548532440E-03
-0.5055213207314E-04 -0.1693631283751E-02
-0.6983978195973E-04 -0.2566618230139E-02
-0.8203537527263E-04 -0.3448649979097E-02
-0.8608335817877E-04 -0.4331004383816E-02
-0.8196334824257E-04 -0.5204098006684E-02
-0.7057873198677E-04 -0.6058195886200E-02
-0.5371953824024E-04 -0.6883978047830E-02
-0.3415007361239E-04 -0.7673161008617E-02
-0.1576604721550E-04 -0.8419291036397E-02
-0.3733645980294E-05 -0.9118867401479E-02
-0.4471633110546E-05 -0.9772353678576E-02
-0.2554110653616E-04 -0.1038550285938E-01
-0.7529629092070E-04 -0.1097100224835E-01
-0.1618526307515E-03 -0.1154839085973E-01
-0.2913164064922E-03 -0.1214217223477E-01
-0.4655213384755E-03 -0.1277880474881E-01
-0.6800326591035E-03 -0.1348131056924E-01
-0.9236145205671E-03 -0.1426292109453E-01
-0.1180133550579E-02 -0.1512191378608E-01
-0.1307211828692E-04 -0.8366270539545E-03
-0.2514140997184E-04 -0.1693221910639E-02
-0.3473386034429E-04 -0.2565510435473E-02
-0.4079339654159E-04 -0.3446563280884E-02
-0.4278743609213E-04 -0.4327654394913E-02
-0.4070076292056E-04 -0.5199138467197E-02
-0.3498501433969E-04 -0.6051183184169E-02
-0.2654192764760E-04 -0.6874383219617E-02
-0.1676600609792E-04 -0.7660431564571E-02
-0.7620620976178E-05 -0.8402951445944E-02
-0.1704290249031E-05 -0.9098585413589E-02
-0.2240402409610E-05 -0.9747940467138E-02
-0.1302051764067E-04 -0.1035706603893E-01
-0.3821797398637E-04 -0.1093907291373E-01
-0.8185708012811E-04 -0.1151389670072E-01
-0.1469196226282E-03 -0.1210621820544E-01
-0.2342224807343E-03 -0.1274236003515E-01
-0.3414586588176E-03 -0.1344486620546E-01
-0.4629878182839E-03 -0.1422634942285E-01
-0.5908217306312E-03 -0.1508472494289E-01
 0.6654654041358E-13 -0.8366172993191E-03
 0.2413017702318E-12 -0.1693084087093E-02
 0.4875193131137E-12 -0.2565138032508E-02
 0.7462446459383E-12 -0.3445861338305E-02
 0.9498938094432E-12 -0.4326526578138E-02
 0.1035663742266E-11 -0.5197468335298E-02
 0.9572707210248E-12 -0.6048822703930E-02
 0.6964810672638E-12 -0.6871156872071E-02
 0.2770318696665E-12 -0.7656156985825E-02
-0.2187035275103E-12 -0.8397472978373E-02
-0.6313664868696E-12 -0.9091796135825E-02
-0.7089988318665E-12 -0.9739782098547E-02
-0.9741513151695E-13 -0.1034757989718E-01
 0.1651279807335E-11 -0.1092844131869E-01
 0.5036304706607E-11 -0.1150243224066E-01
 0.1051198711410E-10 -0.1209428914607E-01
 0.1833353260872E-10 -0.1273028629610E-01
 0.2845674043628E-10 -0.1343280834929E-01
 0.4043474582938E-10 -0.1421426617709E-01
 0.5340795167230E-10 -0.1507246059887E-01
 0.1307211841982E-04 -0.8366270538980E-03
 0.2514141045568E-04 -0.1693221910535E-02
 0.3473386132345E-04 -0.2565510435336E-02
 0.4079339804212E-04 -0.3446563280740E-02
 0.4278743800469E-04 -0.4327654394792E-02
 0.4070076501005E-04 -0.5199138467140E-02
 0.3498501627810E-04 -0.6051183184230E-02
 0.2654192906951E-04 -0.6874383219861E-02
 0.1676600668369E-04 -0.7660431565078E-02
 0.7620620568357E-05 -0.8402951446797E-02
 0.1704289005817E-05 -0.9098585414866E-02
 0.2240400989673E-05 -0.9747940468908E-02
 0.1302051740777E-04 -0.1035706604123E-01
 0.3821797719882E-04 -0.1093907291655E-01
 0.8185709004680E-04 -0.1151389670399E-01
 0.1469196434347E-03 -0.1210621820904E-01
 0.2342225171406E-03 -0.1274236003898E-01
 0.3414587154684E-03 -0.1344486620943E-01
 0.4629878989407E-03 -0.1422634942698E-01
 0.5908218373267E-03 -0.1508472494724E-01
 0.2628607021601E-04 -0.8366548531310E-03
 0.5055213256069E-04 -0.1693631283542E-02
 0.6983978295117E-04 -0.2566618229865E-02
 0.8203537679717E-04 -0.3448649978805E-02
 0.8608336012944E-04 -0.4331004383569E-02
 0.8196335038627E-04 -0.5204098006562E-02
 0.7057873399650E-04 -0.6058195886309E-02
 0.5371953974889E-04 -0.6883978048304E-02
 0.3415007429348E-04 -0.7673161009613E-02
 0.1576604689714E-04 -0.8419291038081E-02
 0.3733644797055E-05 -0.9118867404012E-02
 0.4471631687132E-05 -0.9772353682098E-02
 0.2554110619226E-04 -0.1038550286398E-01
 0.7529629386658E-04 -0.1097100225400E-01
 0.1618526402116E-03 -0.1154839086630E-01
 0.2913164266474E-03 -0.1214217224205E-01
 0.4655213740972E-03 -0.1277880475655E-01
 0.6800327149611E-03 -0.1348131057730E-01
 0.9236146005808E-03 -0.1426292110292E-01
 0.1180133656912E-02 -0.1512191379494E-01
 0.3978347342613E-04 -0.8366966740120E-03
 0.7650127887491E-04 -0.1694300698335E-02
 0.1056880660459E-03 -0.2568434219547E-02
 0.1241699552196E-03 -0.3452065073289E-02
 0.1303892302777E-03 -0.4336476953284E-02
 0.1243417683129E-03 -0.5212194832294E-02
 0.1073834974110E-03 -0.6069654614839E-02
 0.8216592194984E-04 -0.6899688172462E-02
 0.5277370335412E-04 -0.7694061125214E-02
 0.2497278633266E-04 -0.8446201966082E-02
 0.6435117975285E-05 -0.9152380967032E-02
 0.6717960235318E-05 -0.9812831148265E-02
 0.3710520129572E-04 -0.1043281973295E-01
 0.1101417508841E-03 -0.1102432738058E-01
 0.2381614242423E-03 -0.1160621344052E-01
 0.4306775501188E-03 -0.1220265172205E-01
 0.6909475915019E-03 -0.1284029459850E-01
 0.1012786114931E-02 -0.1354295978331E-01
 0.1379471313460E-02 -0.1432495381597E-01
 0.1766415386400E-02 -0.1518522243085E-01
 0.5370570628050E-04 -0.8367470805195E-03
 0.1032578512786E-03 -0.1695213652761E-02
 0.1426456326119E-03 -0.2570916623431E-02
 0.1676319297225E-03 -0.3456718095951E-02
 0.1761922050831E-03 -0.4343908776430E-02
 0.1683740553201E-03 -0.5223176920818E-02
 0.1459884959789E-03 -0.6085215822546E-02
 0.1125084285724E-03 -0.6921089877573E-02
 0.7326456965688E-04 -0.7722653947228E-02
 0.3579990276762E-04 -0.8483193515639E-02
 0.1019886769284E-04 -0.9198678948995E-02
 0.9070000502952E-05 -0.9869038847005E-02
 0.4734334922282E-04 -0.1049887933390E-01
 0.1417559934443E-03 -0.1109919259771E-01
 0.3090343305792E-03 -0.1168784958795E-01
 0.5625140391374E-03 -0.1228849006136E-01
 0.9075028214195E-03 -0.1292796542285E-01
 0.1336677758521E-02 -0.1363119808985E-01
 0.1828048654157E-02 -0.1441409191648E-01
 0.2348122160682E-02 -0.1527666984010E-01
 0.6819429189227E-04 -0.8368012474910E-03
 0.1310914421934E-03 -0.1696352889545E-02
 0.1810747029764E-03 -0.2574014606047E-02
 0.2128420311961E-03 -0.3462489772822E-02
 0.2239573493754E-03 -0.4353076818053E-02
 0.2145734425883E-03 -0.5236694684698E-02
 0.1869621473649E-03 -0.6104398930977E-02
 0.1453644763768E-03 -0.6947586549585E-02
 0.9625788725759E-04 -0.7758261592407E-02
 0.4883818004110E-04 -0.8529562791129E-02
 0.1547751386213E-04 -0.9257110589670E-02
 0.1171642960722E-04 -0.9940474803314E-02
 0.5601755726612E-04 -0.1058344768359E-01
 0.1692876758714E-03 -0.1119575830265E-01
 0.3728454578749E-03 -0.1179394977146E-01
 0.6843828653391E-03 -0.1240085090247E-01
 0.1112119251424E-02 -0.1304343349847E-01
 0.1648502382593E-02 -0.1374800853936E-01
 0.2266673829522E-02 -0.1453268902645E-01
 0.2923662258736E-02 -0.1539914151335E-01
 0.8339196239605E-04 -0.8368580651126E-03
 0.1602739149187E-03 -0.1697706822868E-02
 0.2213318840548E-03 -0.2577676463798E-02
 0.2602017204837E-03 -0.3469239656935E-02
 0.2741190348735E-03 -0.4363704043912E-02
 0.2634184923552E-03 -0.5252304378602E-02
 0.2308432224268E-03 -0.6126587080291E-02
 0.1813357417248E-03 -0.6978405818859E-02
 0.1223956929832E-03 -0.7799998234578E-02
 0.6471671071841E-04 -0.8584379613005E-02
 0.2280271046263E-04 -0.9326797447502E-02
 0.1497362527059E-04 -0.1002643476548E-01
 0.6306603922047E-04 -0.1068615088355E-01
 0.1920897877141E-03 -0.1131415558128E-01
 0.4281500851174E-03 -0.1192529546794E-01
 0.7939223918428E-03 -0.1254122021927E-01
 0.1301646446961E-02 -0.1318882149864E-01
 0.1944823626033E-02 -0.1389602361711E-01
 0.2692429029674E-02 -0.1468386641805E-01
 0.3491361500902E-02 -0.1555645378070E-01
 0.9944477577338E-04 -0.8369246623712E-03
 0.1910825392897E-03 -0.1699278737773E-02
 0.2637677880958E-03 -0.2581860941423E-02
 0.3100874280066E-03 -0.3476816245971E-02
 0.3270712590799E-03 -0.4375466810968E-02
 0.3153419478781E-03 -0.5269472682629E-02
 0.2781304038650E-03 -0.6151028624957E-02
 0.2210003113262E-03 -0.7012596708493E-02
 0.1523234273645E-03 -0.7846760826236E-02
 0.8410604750583E-04 -0.8646468287341E-02
 0.3279782742760E-04 -0.9406603556233E-02
 0.1931200890937E-04 -0.1012596844001E-01
 0.6864760181331E-04 -0.1080641781255E-01
 0.2097830459728E-03 -0.1145442266255E-01
 0.4737575808547E-03 -0.1208274676135E-01
 0.8889082072315E-03 -0.1271138837448E-01
 0.1472852334276E-02 -0.1336678994633E-01
 0.2221898371864E-02 -0.1407860025604E-01
 0.3102041792657E-02 -0.1487160072750E-01
 0.4049409239118E-02 -0.1575344745699E-01
 0.1165058250265E-03 -0.8370229127396E-03
 0.2238051864719E-03 -0.1701099686434E-02
 0.3087272125511E-03 -0.2586552337459E-02
 0.3628439013942E-03 -0.3485069696746E-02
 0.3831565771814E-03 -0.4388003843299E-02
 0.3707180766021E-03 -0.5287582570636E-02
 0.3292700080937E-03 -0.6176839796671E-02
 0.2649023726729E-03 -0.7049027430349E-02
 0.1866832122998E-03 -0.7897219354413E-02
 0.1077170631793E-03 -0.8714387176041E-02
 0.4618553148561E-04 -0.9495100828865E-02
 0.2537750233339E-04 -0.1023782703242E-01
 0.7318406239213E-04 -0.1094340822366E-01
 0.2223251198038E-03 -0.1161641981189E-01
 0.5088227889262E-03 -0.1226716484618E-01
 0.9673381778365E-03 -0.1291341402434E-01
 0.1622447769759E-02 -0.1358057071176E-01
 0.2475598271704E-02 -0.1429992158378E-01
 0.3491725211521E-02 -0.1510087173262E-01
 0.4595785670234E-02 -0.1599610813293E-01
 0.1347413603393E-03 -0.8371988840834E-03
 0.2587483502823E-03 -0.1703246549028E-02
 0.3565497057336E-03 -0.2591780302092E-02
 0.4187760704363E-03 -0.3493867121032E-02
 0.4426532583797E-03 -0.4400926525738E-02
 0.4298483008909E-03 -0.5305940573248E-02
 0.3846415891125E-03 -0.6203009090062E-02
 0.3135389756616E-03 -0.7086384615958E-02
 0.2261031746321E-03 -0.7949807499248E-02
 0.1362946255954E-03 -0.8786407024665E-02
 0.6378895165787E-04 -0.9590530790407E-02
 0.3400612366343E-04 -0.1036040304841E-01
 0.7739807796534E-04 -0.1109592592239E-01
 0.2300837463795E-03 -0.1179971854715E-01
 0.5329583964522E-03 -0.1247929934273E-01
 0.1027557097426E-02 -0.1314955620055E-01
 0.1747150682172E-02 -0.1383399337544E-01
 0.2701331753247E-02 -0.1456512797833E-01
 0.3856977301234E-02 -0.1537787770959E-01
 0.5128060369035E-02 -0.1629187896388E-01
 0.1543406336021E-03 -0.8375368971144E-03
 0.2962490196838E-03 -0.1705867471851E-02
 0.4075700810283E-03 -0.2597645437150E-02
 0.4781386751655E-03 -0.3503109988135E-02
 0.5057605287164E-03 -0.4413829856529E-02
 0.4929453444931E-03 -0.5323785486852E-02
 0.4445415432821E-03 -0.6228404130636E-02
 0.3673437126039E-03 -0.7123175083789E-02
 0.2711824436094E-03 -0.8002714937242E-02
 0.1706054410524E-03 -0.8860489532307E-02
 0.8652525453423E-04 -0.9690764615932E-02
 0.4622955487878E-04 -0.1049166492625E-01
 0.8234273549192E-04 -0.1126231919892E-01
 0.2339094818885E-03 -0.1200346364138E-01
 0.5463686371703E-03 -0.1271962997361E-01
 0.1068434406030E-02 -0.1342215645567E-01
 0.1843814078080E-02 -0.1413148920807E-01
 0.2893990975117E-02 -0.1488048524086E-01
 0.4192298147484E-02 -0.1571029377822E-01
 0.5643327674016E-02 -0.1665043626997E-01
 0.1755376358031E-03 -0.8381308054043E-03
 0.3367520534359E-03 -0.1709128296153E-02
 0.4622589237648E-03 -0.2604231671322E-02
 0.5413550116309E-03 -0.3512612779184E-02
 0.5729030024639E-03 -0.4426153670639E-02
 0.5605160659005E-03 -0.5340157372485E-02
 0.5096262481448E-03 -0.6251681176959E-02
 0.4271644529929E-03 -0.7157724063055E-02
 0.3229687112137E-03 -0.8054045657692E-02
 0.2118719170352E-03 -0.8934701603144E-02
 0.1157525078292E-03 -0.9794089944318E-02
 0.6350581227261E-04 -0.1063044927347E-01
 0.8951236506088E-04 -0.1144241618764E-01
 0.2351678079659E-03 -0.1222907842769E-01
 0.5499168047695E-03 -0.1299195300202E-01
 0.1089675651493E-02 -0.1373820909007E-01
 0.1910302494967E-02 -0.1448372894469E-01
 0.3049949223000E-02 -0.1526002511022E-01
 0.4495456726558E-02 -0.1611506242187E-01
 0.6145605439517E-02 -0.1709130545983E-01
 0.1986155807394E-03 -0.8392576106863E-03
 0.3806582326664E-03 -0.1713523715166E-02
 0.5208083837568E-03 -0.2611987816354E-02
 0.6083221475068E-03 -0.3522508893010E-02
 0.6437793708282E-03 -0.4437589568985E-02
 0.6321895584970E-03 -0.5354258575899E-02
 0.5795736745474E-03 -0.6271498677103E-02
 0.4928416952822E-03 -0.7188075374379E-02
 0.3815669596691E-03 -0.8101174694702E-02
 0.2605438933720E-03 -0.9005741717865E-02
 0.1523311031902E-03 -0.9896570962558E-02
 0.8715878490851E-04 -0.1077227082735E-01
 0.1006834023119E-03 -0.1163138091048E-01
 0.2358983383656E-03 -0.1247180268004E-01
 0.5453255652752E-03 -0.1329238031659E-01
 0.1091370420705E-02 -0.1409590399110E-01
 0.1942861516592E-02 -0.1489216527932E-01
 0.3159517358410E-02 -0.1570870437359E-01
 0.4751682502176E-02 -0.1659956967566E-01
 0.6619999210394E-02 -0.1762609520349E-01
 0.2239708748600E-03 -0.8413045104728E-03
 0.4285265691641E-03 -0.1719719961008E-02
 0.5835136092229E-03 -0.2621460613271E-02
 0.6790346686762E-03 -0.3532904292624E-02
 0.7182396293119E-03 -0.4447730136097E-02
 0.7078047920543E-03 -0.5365179721653E-02
 0.6543095753150E-03 -0.6286418074723E-02
 0.5644830857870E-03 -0.7212207878092E-02
 0.4473533808478E-03 -0.8141477746851E-02
 0.3173299942961E-03 -0.9070435794324E-02
 0.1973646189083E-03 -0.9994607327043E-02
 0.1187760493085E-03 -0.1091327007756E-01
 0.1180119521731E-03 -0.1182535845856E-01
 0.2388217445201E-03 -0.1272825394892E-01
 0.5356096707646E-03 -0.1361887508963E-01
 0.1075843286015E-02 -0.1449607251816E-01
 0.1940841928621E-02 -0.1536242888635E-01
 0.3216261762582E-02 -0.1623784886570E-01
 0.4949352513193E-02 -0.1717978558859E-01
 0.7059268404591E-02 -0.1827498147846E-01
 0.2521758165408E-03 -0.8449079641446E-03
 0.4810551573676E-03 -0.1728756838186E-02
 0.6506103697292E-03 -0.2633445428262E-02
 0.7533359268599E-03 -0.3543979151469E-02
 0.7959783132965E-03 -0.4456169017283E-02
 0.7870446509697E-03 -0.5371998543349E-02
 0.7335903776576E-03 -0.6294960959093E-02
 0.6420223498676E-03 -0.7227986578989E-02
 0.5205517015199E-03 -0.8172094558594E-02
 0.3828339110288E-03 -0.9125225689482E-02
 0.2519272087128E-03 -0.1008405920912E-01
 0.1600377575080E-03 -0.1104887431498E-01
 0.1439427548400E-03 -0.1201955721415E-01
 0.2472650201284E-03 -0.1299380456939E-01
 0.5249354613144E-03 -0.1396777366569E-01
 0.1047391523783E-02 -0.1493776255453E-01
 0.1906054786517E-02 -0.1589930076322E-01
 0.3214585698085E-02 -0.1686054694706E-01
 0.5073736607139E-02 -0.1787619783518E-01
 0.7450344510218E-02 -0.1906319354311E-01
 0.2841021266755E-03 -0.8511400260311E-03
 0.5391141521573E-03 -0.1742249470020E-02
 0.7222011897315E-03 -0.2649026293145E-02
 0.8308682646243E-03 -0.3555945968838E-02
 0.8765236234491E-03 -0.4462485456896E-02
 0.8694300645075E-03 -0.5373802449550E-02
 0.8169832833589E-03 -0.6295655488101E-02
 0.7251803388107E-03 -0.7233213421880E-02
 0.6011818851339E-03 -0.8189957419945E-02
 0.4574990375202E-03 -0.9166163073836E-02
 0.3170052872116E-03 -0.1016021611853E-01
 0.2126519789124E-03 -0.1117375096110E-01
 0.1811331853119E-03 -0.1220816934867E-01
 0.2650729864309E-03 -0.1326241322890E-01
 0.5185651373922E-03 -0.1433337742492E-01
 0.1012581193335E-02 -0.1541724253813E-01
 0.1844081638461E-02 -0.1650511288320E-01
 0.3151774569675E-02 -0.1759091378792E-01
 0.5106349964437E-02 -0.1871537699251E-01
 0.7771543749259E-02 -0.2002613691235E-01
 0.3211468599508E-03 -0.8618853062104E-03
 0.6037403568496E-03 -0.1762707796302E-02
 0.7981093374201E-03 -0.2669550511261E-02
 0.9110210775367E-03 -0.3568949220801E-02
 0.9592428107633E-03 -0.4466224193370E-02
 0.9543240989152E-03 -0.5369715768086E-02
 0.9038521085097E-03 -0.6287098013963E-02
 0.8134214542843E-03 -0.7225705399210E-02
 0.6889948685837E-03 -0.8191839912325E-02
 0.5415393936480E-03 -0.9188904445909E-02
 0.3934303703577E-03 -0.1021776195505E-01
 0.2782813934706E-03 -0.1128177432553E-01
 0.2323542099715E-03 -0.1238432962425E-01
 0.2964687436948E-03 -0.1352651002341E-01
 0.5226556092192E-03 -0.1470765013901E-01
 0.9801841189882E-03 -0.1592697252121E-01
 0.1765661909296E-02 -0.1717709166245E-01
 0.3031793514198E-02 -0.1844143664281E-01
 0.5026352418230E-02 -0.1973219878980E-01
 0.7986338833154E-02 -0.2121603543453E-01
 0.3656637338141E-03 -0.8806838005136E-03
 0.6759828150738E-03 -0.1794014264846E-02
 0.8776177866204E-03 -0.2696391803821E-02
 0.9929133306243E-03 -0.3582899723702E-02
 0.1043370802937E-02 -0.4466891317783E-02
 0.1040946316019E-02 -0.5358923778060E-02
 0.9933566032027E-03 -0.6268030675930E-02
 0.9059079782706E-03 -0.7203414700635E-02
 0.7833858781669E-03 -0.8174441367864E-02
 0.6348492547758E-03 -0.9188700852163E-02
 0.4818051216936E-03 -0.1025072215080E-01
 0.3584708114141E-03 -0.1136600362210E-01
 0.3003771815499E-03 -0.1254012893280E-01
 0.3458591551111E-03 -0.1377695993844E-01
 0.5439630441478E-03 -0.1508003961608E-01
 0.9605473335056E-03 -0.1645500392984E-01
 0.1687164524513E-02 -0.1790382052534E-01
 0.2871607709538E-02 -0.1941603850251E-01
 0.4817386298311E-02 -0.2097008039054E-01
 0.8032422017471E-02 -0.2271388789307E-01
 0.4218158355667E-03 -0.9148956879798E-03
 0.7562495843141E-03 -0.1841912849014E-02
 0.9591036401647E-03 -0.2730141769413E-02
 0.1075504977931E-02 -0.3597373345454E-02
 0.1128041039274E-02 -0.4463974053680E-02
 0.1128399471107E-02 -0.5340673884588E-02
 0.1084478605503E-02 -0.6237433438992E-02
 0.1001461338859E-02 -0.7164608850634E-02
 0.8832744802396E-03 -0.8134545366853E-02
 0.7368706065299E-03 -0.9160371734376E-02
 0.5824299573940E-03 -0.1025235292690E-01
 0.4545869640688E-03 -0.1141868361547E-01
 0.3878705121054E-03 -0.1266667596313E-01
 0.4175732009676E-03 -0.1400318052287E-01
 0.5894812587532E-03 -0.1543735477688E-01
 0.9647308478407E-03 -0.1698503934964E-01
 0.1628099476834E-02 -0.1866317448374E-01
 0.2708229139036E-02 -0.2049515120923E-01
 0.4489462603973E-02 -0.2247008563514E-01
 0.7806592718402E-02 -0.2465214151083E-01
 0.4972275459446E-03 -0.9825515938922E-03
 0.8420249394122E-03 -0.1912699953625E-02
 0.1040051278410E-02 -0.2768866597614E-02
 0.1157908550880E-02 -0.3612150523030E-02
 0.1212224574133E-02 -0.4456734043369E-02
 0.1215749627878E-02 -0.5314339904716E-02
 0.1176072225691E-02 -0.6194572504774E-02
 0.1098569118472E-02 -0.7108130317561E-02
 0.9869338496111E-03 -0.8069349509421E-02
 0.8463670106521E-03 -0.9098247103545E-02
 0.6952372163554E-03 -0.1021487646693E-01
 0.5678332908470E-03 -0.1143126887334E-01
 0.4972424465847E-03 -0.1275431878127E-01
 0.5157385333864E-03 -0.1419317374536E-01
 0.6655827049242E-03 -0.1576439290968E-01
 0.1004561341581E-02 -0.1749548885534E-01
 0.1605596830522E-02 -0.1942641035871E-01
 0.2592668970399E-02 -0.2161847417888E-01
 0.4135135185812E-02 -0.2421262740357E-01
 0.7171765077376E-02 -0.2724885006103E-01
-0.8238355416644E-01 -0.4526801095101E-01
-0.1400959917264E+00 -0.8411499698753E-01
-0.1850281639015E+00 -0.1315092262714E+00
-0.2209622458503E+00 -0.1852181461700E+00
-0.2503935593090E+00 -0.2432140976392E+00
-0.2746172015607E+00 -0.3037536266391E+00
-0.2946169096771E+00 -0.3656121379232E+00
-0.3111208887115E+00 -0.4280053627101E+00
-0.3234887718031E+00 -0.4899773589028E+00
-0.7527271807844E-01 -0.4441841291897E-01
-0.1278635169810E+00 -0.8422075001098E-01
-0.1687598123847E+00 -0.1336390014904E+00
-0.2015782762826E+00 -0.1902815067637E+00
-0.2286868256701E+00 -0.2520515456528E+00
-0.2513489268046E+00 -0.3172319102230E+00
-0.2704426873277E+00 -0.3846392626448E+00
-0.2865344903993E+00 -0.4534440178402E+00
-0.2991338346922E+00 -0.5225311471348E+00
-0.6753678134264E-01 -0.4370492018219E-01
-0.1145941119730E+00 -0.8449601654387E-01
-0.1511445444535E+00 -0.1359264992540E+00
-0.1805708769557E+00 -0.1954200524590E+00
-0.2050804501487E+00 -0.2608481400981E+00
-0.2258687257037E+00 -0.3305485952180E+00
-0.2437128006247E+00 -0.4033937070876E+00
-0.2590915999245E+00 -0.4785547878103E+00
-0.2715877926311E+00 -0.5550649112587E+00
-0.5919691632481E-01 -0.4311286825584E-01
-0.1003333156793E+00 -0.8488154329229E-01
-0.1322513297114E+00 -0.1382316256981E+00
-0.1580274920410E+00 -0.2004168178283E+00
-0.1796646575021E+00 -0.2692940893550E+00
-0.1982595780346E+00 -0.3432738724766E+00
-0.2144963676825E+00 -0.4213075023144E+00
-0.2287743997795E+00 -0.5026624899367E+00
-0.2407144246072E+00 -0.5865586251349E+00
-0.5029410841364E-01 -0.4263053183210E-01
-0.8515769004372E-01 -0.8531792376222E-01
-0.1121845872058E+00 -0.1404279079077E+00
-0.1340728607623E+00 -0.2050632858364E+00
-0.1525761462571E+00 -0.2770818421310E+00
-0.1686638732724E+00 -0.3549763891951E+00
-0.1829218168981E+00 -0.4378025593471E+00
-0.1956708075309E+00 -0.5249560672501E+00
-0.2065611832122E+00 -0.6158503440957E+00
-0.4088879381002E-01 -0.4224791466870E-01
-0.6917167906606E-01 -0.8575244016510E-01
-0.9108146818064E-01 -0.1423999406486E+00
-0.1088699615972E+00 -0.2091660448861E+00
-0.1239992758316E+00 -0.2839197824167E+00
-0.1372833693447E+00 -0.3652400066475E+00
-0.1492013323571E+00 -0.4522913508066E+00
-0.1599975002243E+00 -0.5445998531579E+00
-0.1693580667811E+00 -0.6417466986841E+00
-0.3105878145802E-01 -0.4195745328901E-01
-0.5250458794208E-01 -0.8613987182353E-01
-0.6910895303518E-01 -0.1440468757240E+00
-0.8261787977740E-01 -0.2125532770643E+00
-0.9416430293639E-01 -0.2895448598844E+00
-0.1043818749296E+00 -0.3736798031338E+00
-0.1136355020068E+00 -0.4642211507633E+00
-0.1220981657555E+00 -0.5608064914485E+00
-0.1295087613497E+00 -0.6631426355594E+00
-0.2089660258775E-01 -0.4175364950151E-01
-0.3530689008653E-01 -0.8644368107625E-01
-0.4645983920242E-01 -0.1452857407418E+00
-0.5554766471772E-01 -0.2150818736730E+00
-0.6334360744074E-01 -0.2937345849715E+00
-0.7028134018638E-01 -0.3799655962993E+00
-0.7660641331468E-01 -0.4731145826446E+00
-0.8242793578758E-01 -0.5729014555848E+00
-0.8755772312939E-01 -0.6791166909485E+00
-0.1050633547374E-01 -0.4163279205368E-01
-0.1774577736664E-01 -0.8663696628101E-01
-0.2334756686544E-01 -0.1460546244522E+00
-0.2791647919054E-01 -0.2166439212947E+00
-0.3184464660664E-01 -0.2963194256017E+00
-0.3535230280715E-01 -0.3838437424760E+00
-0.3856279953945E-01 -0.4786046850990E+00
-0.4152855552141E-01 -0.5803718047274E+00
-0.4415088662872E-01 -0.6889828433673E+00
 0.7842212573772E-09 -0.4159273940984E-01
 0.1010616007546E-08 -0.8670324581957E-01
 0.9346197982207E-09 -0.1463152394290E+00
 0.7034158255870E-09 -0.2171722142735E+00
 0.4507056394765E-09 -0.2971931102231E+00
 0.2730100590043E-09 -0.3851546168585E+00
 0.1849014830135E-09 -0.4804609061574E+00
 0.1536689109294E-09 -0.5828980538799E+00
 0.1495125134809E-09 -0.6923189942405E+00
 0.1050633703353E-01 -0.4163279206883E-01
 0.1774577937692E-01 -0.8663696626897E-01
 0.2334756872450E-01 -0.1460546244106E+00
 0.2791648058934E-01 -0.2166439212388E+00
 0.3184464750248E-01 -0.2963194255499E+00
 0.3535230334964E-01 -0.3838437424381E+00
 0.3856279990710E-01 -0.4786046850755E+00
 0.4152855582740E-01 -0.5803718047157E+00
 0.4415088692683E-01 -0.6889828433651E+00
 0.2089660412187E-01 -0.4175364953194E-01
 0.3530689206430E-01 -0.8644368105334E-01
 0.4645984103127E-01 -0.1452857406607E+00
 0.5554766609271E-01 -0.2150818735636E+00
 0.6334360832010E-01 -0.2937345848700E+00
 0.7028134071846E-01 -0.3799655962252E+00
 0.7660641367597E-01 -0.4731145825990E+00
 0.8242793608960E-01 -0.5729014555625E+00
 0.8755772342480E-01 -0.6791166909450E+00
 0.3105878295033E-01 -0.4195745333498E-01
 0.5250458986681E-01 -0.8613987179201E-01
 0.6910895481469E-01 -0.1440468756074E+00
 0.8261788111357E-01 -0.2125532769060E+00
 0.9416430378900E-01 -0.2895448597375E+00
 0.1043818754449E+00 -0.3736798030271E+00
 0.1136355023579E+00 -0.4642211506985E+00
 0.1220981660512E+00 -0.5608064914180E+00
 0.1295087616408E+00 -0.6631426355562E+00
 0.4088879524582E-01 -0.4224791473063E-01
 0.6917168091883E-01 -0.8575244012823E-01
 0.9108146989316E-01 -0.1423999405021E+00
 0.1088699628807E+00 -0.2091660446853E+00
 0.1239992766482E+00 -0.2839197822304E+00
 0.1372833698377E+00 -0.3652400065132E+00
 0.1492013326947E+00 -0.4522913507267E+00
 0.1599975005116E+00 -0.5445998531224E+00
 0.1693580670664E+00 -0.6417466986835E+00
 0.5029410978013E-01 -0.4263053191054E-01
 0.8515769180784E-01 -0.8531792372410E-01
 0.1121845888357E+00 -0.1404279077385E+00
 0.1340728619812E+00 -0.2050632856014E+00
 0.1525761470297E+00 -0.2770818419129E+00
 0.1686638737385E+00 -0.3549763890395E+00
 0.1829218172198E+00 -0.4378025592573E+00
 0.1956708078084E+00 -0.5249560672136E+00
 0.2065611834905E+00 -0.6158503441005E+00
 0.5919691761144E-01 -0.4311286835148E-01
 0.1003333173408E+00 -0.8488154325756E-01
 0.1322513312454E+00 -0.1382316255142E+00
 0.1580274931851E+00 -0.2004168175686E+00
 0.1796646582244E+00 -0.2692940891139E+00
 0.1982595784703E+00 -0.3432738723071E+00
 0.2144963679865E+00 -0.4213075022204E+00
 0.2287744000462E+00 -0.5026624899039E+00
 0.2407144248779E+00 -0.5865586251486E+00
 0.6753678254135E-01 -0.4370492029578E-01
 0.1145941135206E+00 -0.8449601651737E-01
 0.1511445458812E+00 -0.1359264990642E+00
 0.1805708780173E+00 -0.1954200521851E+00
 0.2050804508162E+00 -0.2608481398440E+00
 0.2258687261069E+00 -0.3305485950428E+00
 0.2437128009100E+00 -0.4033937069960E+00
 0.2590916001799E+00 -0.4785547877860E+00
 0.2715877928939E+00 -0.5550649112848E+00
 0.7527271918368E-01 -0.4441841305099E-01
 0.1278635184072E+00 -0.8422074999707E-01
 0.1687598136990E+00 -0.1336390013034E+00
 0.2015782772565E+00 -0.1902815064867E+00
 0.2286868262798E+00 -0.2520515453966E+00
 0.2513489271741E+00 -0.3172319100511E+00
 0.2704426875940E+00 -0.3846392625623E+00
 0.2865344906434E+00 -0.4534440178290E+00
 0.2991338349472E+00 -0.5225311471762E+00
 0.8238355517473E-01 -0.4526801110116E-01
 0.1400959930267E+00 -0.8411499698861E-01
 0.1850281650990E+00 -0.1315092260952E+00
 0.2209622467346E+00 -0.1852181459015E+00
 0.2503935598603E+00 -0.2432140973929E+00
 0.2746172018964E+00 -0.3037536264807E+00
 0.2946169099242E+00 -0.3656121378570E+00
 0.3111208889441E+00 -0.4280053627163E+00
 0.3234887720504E+00 -0.4899773589619E+00
-0.1990167692381E+00 -0.1321459088535E+00
-0.3070145425926E+00 -0.2203117516707E+00
-0.3824349572807E+00 -0.2622845917043E+00
-0.4306245984134E+00 -0.2756764078810E+00
-0.4548209575858E+00 -0.2740516352622E+00
-0.4578223986906E+00 -0.2663101004513E+00
-0.4417659611287E+00 -0.2612022099355E+00
-0.4115285893113E+00 -0.2700366963785E+00
-0.3706351691962E+00 -0.2983199408952E+00
-0.1858261650288E+00 -0.1071057612909E+00
-0.2992367060572E+00 -0.1837838970636E+00
-0.3770858116561E+00 -0.2343137817384E+00
-0.4272959106289E+00 -0.2591697771875E+00
-0.4541645332707E+00 -0.2677292916592E+00
-0.4604402650079E+00 -0.2682430060875E+00
-0.4478637998823E+00 -0.2693091766762E+00
-0.4210155254514E+00 -0.2827302794885E+00
-0.3840407458165E+00 -0.3142715897901E+00
-0.1724847777872E+00 -0.9054368161402E-01
-0.2858373669456E+00 -0.1570688762624E+00
-0.3659331114266E+00 -0.2086729556100E+00
-0.4188700397231E+00 -0.2418953305140E+00
-0.4489818413139E+00 -0.2603067829804E+00
-0.4591739114170E+00 -0.2699348119476E+00
-0.4509004960315E+00 -0.2785935552332E+00
-0.4283015513370E+00 -0.2976575075285E+00
-0.3958930614984E+00 -0.3330132657929E+00
-0.1596466114511E+00 -0.7878300483487E-01
-0.2696996684602E+00 -0.1372346648054E+00
-0.3501108252023E+00 -0.1878054445155E+00
-0.4052367367751E+00 -0.2261918259472E+00
-0.4386809642129E+00 -0.2530852141283E+00
-0.4531190598956E+00 -0.2719156644020E+00
-0.4497355112323E+00 -0.2890473396017E+00
-0.4320928422781E+00 -0.3145303489056E+00
-0.4047017800618E+00 -0.3538988664187E+00
-0.1473470067961E+00 -0.7000363424525E-01
-0.2520106526013E+00 -0.1223404905089E+00
-0.3307927262587E+00 -0.1714374623269E+00
-0.3868559061049E+00 -0.2132776081040E+00
-0.4230505220672E+00 -0.2471393038686E+00
-0.4416056260629E+00 -0.2746322822981E+00
-0.4433307126364E+00 -0.3004623767337E+00
-0.4310866893926E+00 -0.3326351721794E+00
-0.4090829589489E+00 -0.3758657156389E+00
-0.1354349890549E+00 -0.6320754764517E-01
-0.2333074001092E+00 -0.1109855253211E+00
-0.3087200067885E+00 -0.1588205314258E+00
-0.3642347738602E+00 -0.2032423689324E+00
-0.4021472281372E+00 -0.2428991795250E+00
-0.4242217800639E+00 -0.2782038966036E+00
-0.4308787234841E+00 -0.3123275914420E+00
-0.4242253244336E+00 -0.3509270160462E+00
-0.4079801122396E+00 -0.3976076930037E+00
-0.1237431732939E+00 -0.5778045621417E-01
-0.2138103098684E+00 -0.1021725311076E+00
-0.2843437694760E+00 -0.1491108247094E+00
-0.3377851448042E+00 -0.1956575027406E+00
-0.3761382923791E+00 -0.2401824267453E+00
-0.4007976978288E+00 -0.2823152024451E+00
-0.4119013865353E+00 -0.3238436045524E+00
-0.4108745126054E+00 -0.3681701499017E+00
-0.4007959684354E+00 -0.4177501853177E+00
-0.1121330395019E+00 -0.5331999303508E-01
-0.1936060140718E+00 -0.9515813389687E-01
-0.2579474249362E+00 -0.1415053203744E+00
-0.3078404530137E+00 -0.1898496060839E+00
-0.3452573753865E+00 -0.2384231119034E+00
-0.3713752257826E+00 -0.2863072934867E+00
-0.3862959356915E+00 -0.3340588076867E+00
-0.3909205169578E+00 -0.3831270247302E+00
-0.3874604438386E+00 -0.4350065779660E+00
-0.1005155581918E+00 -0.4954272687840E-01
-0.1727436666961E+00 -0.8935793717870E-01
-0.2297402131238E+00 -0.1352598168386E+00
-0.2747002015757E+00 -0.1850501630253E+00
-0.3098040716150E+00 -0.2368533606042E+00
-0.3361884088326E+00 -0.2893388455376E+00
-0.3542625144693E+00 -0.3420420551478E+00
-0.3647634455152E+00 -0.3948932908509E+00
-0.3684827683111E+00 -0.4483386995210E+00
 0.1005155589536E+00 -0.4954272705651E-01
 0.1727436676560E+00 -0.8935793723647E-01
 0.2297402139919E+00 -0.1352598167386E+00
 0.2747002022096E+00 -0.1850501628388E+00
 0.3098040720147E+00 -0.2368533604337E+00
 0.3361884090927E+00 -0.2893388454411E+00
 0.3542625146875E+00 -0.3420420551249E+00
 0.3647634457426E+00 -0.3948932908805E+00
 0.3684827685647E+00 -0.4483386995830E+00
 0.1121330401335E+00 -0.5331999324205E-01
 0.1936060148429E+00 -0.9515813401560E-01
 0.2579474256182E+00 -0.1415053203540E+00
 0.3078404535084E+00 -0.1898496059767E+00
 0.3452573757070E+00 -0.2384231117988E+00
 0.3713752260092E+00 -0.2863072934393E+00
 0.3862959359041E+00 -0.3340588076941E+00
 0.3909205171930E+00 -0.3831270247702E+00
 0.3874604441054E+00 -0.4350065780181E+00
 0.1237431738168E+00 -0.5778045645629E-01
 0.2138103104797E+00 -0.1021725313014E+00
 0.2843437700024E+00 -0.1491108247841E+00
 0.3377851451848E+00 -0.1956575027266E+00
 0.3761382926370E+00 -0.2401824267177E+00
 0.4007976980316E+00 -0.2823152024553E+00
 0.4119013867473E+00 -0.3238436045973E+00
 0.4108745128506E+00 -0.3681701499586E+00
 0.4007959687160E+00 -0.4177501853650E+00
 0.1354349894917E+00 -0.6320754792880E-01
 0.2333074005896E+00 -0.1109855256013E+00
 0.3087200071884E+00 -0.1588205316063E+00
 0.3642347741505E+00 -0.2032423690192E+00
 0.4021472283477E+00 -0.2428991795794E+00
 0.4242217802516E+00 -0.2782038966747E+00
 0.4308787237000E+00 -0.3123275915279E+00
 0.4242253246913E+00 -0.3509270161241E+00
 0.4079801125353E+00 -0.3976076930509E+00
 0.1473470071668E+00 -0.7000363457703E-01
 0.2520106529755E+00 -0.1223404908847E+00
 0.3307927265576E+00 -0.1714374626173E+00
 0.3868559063246E+00 -0.2132776082905E+00
 0.4230505222423E+00 -0.2471393040016E+00
 0.4416056262421E+00 -0.2746322824270E+00
 0.4433307128599E+00 -0.3004623768597E+00
 0.4310866896652E+00 -0.3326351722803E+00
 0.4090829592615E+00 -0.3758657156903E+00
 0.1596466117706E+00 -0.7878300522115E-01
 0.2696996687461E+00 -0.1372346652813E+00
 0.3501108254194E+00 -0.1878054449088E+00
 0.4052367369393E+00 -0.2261918262191E+00
 0.4386809643616E+00 -0.2530852143266E+00
 0.4531190600711E+00 -0.2719156645795E+00
 0.4497355114658E+00 -0.2890473397639E+00
 0.4320928425672E+00 -0.3145303490300E+00
 0.4047017803933E+00 -0.3538988664786E+00
 0.1724847780600E+00 -0.9054368205918E-01
 0.2858373671521E+00 -0.1570688768314E+00
 0.3659331115758E+00 -0.2086729560790E+00
 0.4188700398441E+00 -0.2418953308388E+00
 0.4489818414438E+00 -0.2603067832213E+00
 0.4591739115925E+00 -0.2699348121616E+00
 0.4509004962761E+00 -0.2785935554263E+00
 0.4283015516430E+00 -0.2976575076758E+00
 0.3958930618508E+00 -0.3330132658650E+00
 0.1858261652449E+00 -0.1071057617911E+00
 0.2992367061856E+00 -0.1837838976924E+00
 0.3770858117545E+00 -0.2343137822176E+00
 0.4272959107227E+00 -0.2591697775160E+00
 0.4541645333917E+00 -0.2677292919178E+00
 0.4604402651874E+00 -0.2682430063274E+00
 0.4478638001385E+00 -0.2693091768957E+00
 0.4210155257736E+00 -0.2827302796580E+00
 0.3840407461913E+00 -0.3142715898770E+00
 0.1990167693555E+00 -0.1321459093887E+00
 0.3070145426691E+00 -0.2203117522335E+00
 0.3824349573668E+00 -0.2622845920934E+00
 0.4306245985050E+00 -0.2756764081688E+00
 0.4548209577106E+00 -0.2740516355221E+00
 0.4578223988780E+00 -0.2663101007113E+00
 0.4417659613959E+00 -0.2612022101784E+00
 0.4115285896481E+00 -0.2700366965692E+00
 0.3706351695936E+00 -0.2983199409982E+00
-0.3474232906909E+00 -0.5456689310045E+00
-0.3598867227316E+00 -0.5373658890386E+00
-0.3672299601991E+00 -0.5247267509164E+00
-0.3690459818420E+00 -0.5080492097197E+00
-0.3650358990447E+00 -0.4879682827125E+00
-0.3551094238013E+00 -0.4654218564681E+00
-0.3395027279300E+00 -0.4416549081323E+00
-0.3189560746704E+00 -0.4182134002623E+00
-0.2949508120975E+00 -0.3968505127479E+00
-0.3244971367782E+00 -0.5919757122960E+00
-0.3382822139554E+00 -0.5890549167962E+00
-0.3473715756081E+00 -0.5814330531590E+00
-0.3510074542748E+00 -0.5689716582781E+00
-0.3485436029386E+00 -0.5518953822317E+00
-0.3394178605309E+00 -0.5307865462769E+00
-0.3232449366284E+00 -0.5066407285283E+00
-0.3000070694577E+00 -0.4809626962167E+00
-0.2704344573489E+00 -0.4558943730492E+00
-0.2975201609635E+00 -0.6403006265979E+00
-0.3121037621194E+00 -0.6445019199910E+00
-0.3225910420513E+00 -0.6438484559899E+00
-0.3280025769225E+00 -0.6379257415743E+00
-0.3273621284913E+00 -0.6265344108253E+00
-0.3196482098274E+00 -0.6097649372239E+00
-0.3037981361421E+00 -0.5880815628482E+00
-0.2787884111845E+00 -0.5624780649972E+00
-0.2438570871952E+00 -0.5347632692211E+00
-0.2661546575869E+00 -0.6888985569173E+00
-0.2808355349824E+00 -0.7018608623926E+00
-0.2919822083608E+00 -0.7102744401295E+00
-0.2984940663973E+00 -0.7135411041629E+00
-0.2991419799768E+00 -0.7111572387525E+00
-0.2924971900695E+00 -0.7027768759479E+00
-0.2768553497793E+00 -0.6882870189780E+00
-0.2501471144275E+00 -0.6679299863284E+00
-0.2098148330412E+00 -0.6425461309264E+00
-0.2302311784044E+00 -0.7355205600237E+00
-0.2441218747394E+00 -0.7582761855531E+00
-0.2549758061572E+00 -0.7772974827074E+00
-0.2616248053562E+00 -0.7919365962366E+00
-0.2626569918388E+00 -0.8015573440644E+00
-0.2563170352610E+00 -0.8055735108473E+00
-0.2403667673577E+00 -0.8034842229310E+00
-0.2118728906305E+00 -0.7949145997730E+00
-0.1668050338197E+00 -0.7796598811709E+00
-0.1899760166258E+00 -0.7776181795669E+00
-0.2021849081027E+00 -0.8101456206366E+00
-0.2118387083619E+00 -0.8400429888192E+00
-0.2177824293125E+00 -0.8666800625047E+00
-0.2185492155000E+00 -0.8893741665122E+00
-0.2122469157284E+00 -0.9073974619394E+00
-0.1964026094005E+00 -0.9199684336144E+00
-0.1677382538496E+00 -0.9262115306302E+00
-0.1218195601542E+00 -0.9250317858123E+00
-0.1459730093651E+00 -0.8128595204637E+00
-0.1557585594236E+00 -0.8540873905297E+00
-0.1635133585451E+00 -0.8937876780522E+00
-0.1682117173966E+00 -0.9313461466483E+00
-0.1685146066926E+00 -0.9660289752272E+00
-0.1626679757082E+00 -0.9969604104223E+00
-0.1483781256548E+00 -0.1023077998243E+01
-0.1226701493568E+00 -0.1043047351537E+01
-0.8176556029199E-01 -0.1055097852856E+01
-0.9901456089472E-01 -0.8393929936160E+00
-0.1058299313340E+00 -0.8874321111777E+00
-0.1112182288116E+00 -0.9348472763616E+00
-0.1144074740027E+00 -0.9810241960217E+00
-0.1143757694225E+00 -0.1025168506765E+01
-0.1097794403613E+00 -0.1066262330608E+01
-0.9887922735857E-01 -0.1103002454945E+01
-0.7948952553460E-01 -0.1133714966810E+01
-0.4901347938951E-01 -0.1156248766773E+01
-0.5002402097217E-01 -0.8558732124871E+00
-0.5351716431410E-01 -0.9082483721325E+00
-0.5627008926676E-01 -0.9605830265413E+00
-0.5786748928367E-01 -0.1012254405230E+01
-0.5775632410456E-01 -0.1062418178496E+01
-0.5520993730410E-01 -0.1109954323292E+01
-0.4929757048910E-01 -0.1153403034547E+01
-0.3887968422714E-01 -0.1190898946850E+01
-0.2265351869421E-01 -0.1220125158310E+01
 0.1830495754973E-09 -0.8614664201868E+00
 0.2110457364424E-09 -0.9153344302891E+00
 0.2381995711787E-09 -0.9693623202724E+00
 0.2629216844241E-09 -0.1022922494972E+01
 0.2830270462439E-09 -0.1075151196398E+01
 0.2955560240991E-09 -0.1124891549238E+01
 0.2965940826272E-09 -0.1170630713397E+01
 0.2811898491828E-09 -0.1210444869504E+01
 0.2434522583528E-09 -0.1241973342561E+01
 0.5002402133693E-01 -0.8558732124797E+00
 0.5351716473430E-01 -0.9082483721079E+00
 0.5627008974080E-01 -0.9605830264957E+00
 0.5786748980695E-01 -0.1012254405160E+01
 0.5775632466841E-01 -0.1062418178397E+01
 0.5520993789433E-01 -0.1109954323161E+01
 0.4929757108417E-01 -0.1153403034380E+01
 0.3887968479599E-01 -0.1190898946645E+01
 0.2265351919415E-01 -0.1220125158066E+01
 0.9901456125552E-01 -0.8393929936025E+00
 0.1058299317485E+00 -0.8874321111312E+00
 0.1112182292785E+00 -0.9348472762749E+00
 0.1144074745179E+00 -0.9810241958875E+00
 0.1143757699790E+00 -0.1025168506575E+01
 0.1097794409474E+00 -0.1066262330356E+01
 0.9887922795692E-01 -0.1103002454625E+01
 0.7948952611950E-01 -0.1133714966417E+01
 0.4901347992434E-01 -0.1156248766304E+01
 0.1459730097194E+00 -0.8128595204466E+00
 0.1557585598288E+00 -0.8540873904662E+00
 0.1635133589999E+00 -0.8937876779327E+00
 0.1682117178978E+00 -0.9313461464623E+00
 0.1685146072350E+00 -0.9660289749642E+00
 0.1626679762839E+00 -0.9969604100722E+00
 0.1483781262524E+00 -0.1023077997797E+01
 0.1226701499596E+00 -0.1043047350989E+01
 0.8176556087462E-01 -0.1055097852203E+01
 0.1899760169713E+00 -0.7776181795498E+00
 0.2021849084950E+00 -0.8101456205636E+00
 0.2118387087994E+00 -0.8400429886791E+00
 0.2177824297927E+00 -0.8666800622855E+00
 0.2185492160195E+00 -0.8893741662017E+00
 0.2122469162830E+00 -0.9073974615254E+00
 0.1964026099855E+00 -0.9199684330863E+00
 0.1677382544596E+00 -0.9262115299803E+00
 0.1218195607813E+00 -0.9250317850390E+00
 0.2302311787392E+00 -0.7355205600116E+00
 0.2441218751155E+00 -0.7582761854802E+00
 0.2549758065726E+00 -0.7772974825629E+00
 0.2616248058084E+00 -0.7919365960090E+00
 0.2626569923252E+00 -0.8015573437421E+00
 0.2563170357802E+00 -0.8055735104189E+00
 0.2403667679100E+00 -0.8034842223865E+00
 0.2118728912205E+00 -0.7949145991059E+00
 0.1668050344589E+00 -0.7796598803814E+00
 0.2661546579095E+00 -0.6888985569169E+00
 0.2808355353401E+00 -0.7018608623325E+00
 0.2919822087504E+00 -0.7102744400016E+00
 0.2984940668155E+00 -0.7135411039595E+00
 0.2991419804207E+00 -0.7111572384667E+00
 0.2924971905376E+00 -0.7027768755750E+00
 0.2768553502736E+00 -0.6882870185165E+00
 0.2501471149563E+00 -0.6679299857817E+00
 0.2098148336254E+00 -0.6425461303066E+00
 0.2975201612740E+00 -0.6403006266151E+00
 0.3121037624588E+00 -0.6445019199544E+00
 0.3225910424155E+00 -0.6438484558949E+00
 0.3280025773073E+00 -0.6379257414180E+00
 0.3273621288933E+00 -0.6265344106070E+00
 0.3196482102449E+00 -0.6097649369466E+00
 0.3037981365770E+00 -0.5880815625193E+00
 0.2787884116456E+00 -0.5624780646298E+00
 0.2438570877038E+00 -0.5347632688348E+00
 0.3244971370773E+00 -0.5919757123342E+00
 0.3382822142781E+00 -0.5890549167878E+00
 0.3473715759503E+00 -0.5814330531024E+00
 0.3510074546329E+00 -0.5689716581737E+00
 0.3485436033103E+00 -0.5518953820829E+00
 0.3394178609163E+00 -0.5307865460902E+00
 0.3232449370319E+00 -0.5066407283136E+00
 0.3000070698898E+00 -0.4809626959868E+00
 0.2704344578293E+00 -0.4558943728175E+00
 0.3474232909790E+00 -0.5456689310653E+00
 0.3598867230387E+00 -0.5373658890601E+00
 0.3672299605223E+00 -0.5247267508992E+00
 0.3690459821792E+00 -0.5080492096668E+00
 0.3650358993955E+00 -0.4879682826290E+00
 0.3551094241681E+00 -0.4654218563616E+00
 0.3395027283185E+00 -0.4416549080120E+00
 0.3189560750905E+00 -0.4182134001379E+00
 0.2949508125619E+00 -0.3968505126268E+00
</DataArray>
</PointData>
   <DataArray type="Float64" Name="Load" NumberOfComponents="1"    ComponentName0="Load" format="ascii">
 0.3470283949781E+01
 0.3144077430245E+01
 0.2922313703854E+01
 0.2892993352650E+01
 0.2905210402987E+01
 0.2956461061063E+01
 0.3039197203409E+01
 0.3158424527850E+01
 0.3327008635200E+01
 0.3573434804247E+01
 0.3917388279351E+01
 0.4299402961194E+01
 0.4638833909834E+01
 0.4926515280302E+01
 0.5175325161367E+01
 0.5376756505139E+01
 0.5544873513541E+01
 0.5671875106132E+01
 0.5956659572853E+01
 0.5159198585528E+01
 0.9350962626366E+01
 0.3034244810947E+01
 0.3179190765055E+01
 0.3024754759470E+01
 0.2963568627724E+01
 0.2967815870568E+01
 0.3007909976422E+01
 0.3081657552007E+01
 0.3191155130526E+01
 0.3344751284780E+01
 0.3548165675119E+01
 0.3790851832008E+01
 0.4042618738173E+01
 0.4269941515726E+01
 0.4451053100648E+01
 0.4573750086848E+01
 0.4628600130533E+01
 0.4586778216457E+01
 0.4423388605534E+01
 0.3850780493709E+01
 0.2855381731275E+01
 0.7981028200494E+01
 0.2822032073030E+01
 0.3076701415360E+01
 0.3064683625058E+01
 0.3013216418429E+01
 0.3011764280468E+01
 0.3044161632705E+01
 0.3107063353297E+01
 0.3201584561499E+01
 0.3328682339984E+01
 0.3480980387803E+01
 0.3641858682639E+01
 0.3795418095175E+01
 0.3925860439108E+01
 0.4011824001504E+01
 0.4033490631929E+01
 0.3971327875096E+01
 0.3793269080833E+01
 0.3424973728428E+01
 0.2739338233549E+01
 0.2746620843552E+01
 0.7512036563622E+01
 0.2702602694260E+01
 0.2974773686963E+01
 0.3051749760101E+01
 0.3038499848810E+01
 0.3038481618541E+01
 0.3064859750443E+01
 0.3115931286836E+01
 0.3191239732806E+01
 0.3286304855523E+01
 0.3388394481955E+01
 0.3481696113356E+01
 0.3557512976141E+01
 0.3607946012431E+01
 0.3615612508781E+01
 0.3559921710616E+01
 0.3420735104665E+01
 0.3169936219314E+01
 0.2767299163005E+01
 0.2369677193404E+01
 0.3273173878763E+01
 0.7095534789200E+01
 0.2628995325023E+01
 0.2891575723721E+01
 0.3015824847064E+01
 0.3040515638877E+01
 0.3049176045899E+01
 0.3070931617923E+01
 0.3109503779554E+01
 0.3163276992756E+01
 0.3224974528539E+01
 0.3280879249645E+01
 0.3317841419656E+01
 0.3331322019928E+01
 0.3317986370327E+01
 0.3265340046477E+01
 0.3156780630365E+01
 0.2978143846281E+01
 0.2718719777266E+01
 0.2416323950416E+01
 0.2412482548388E+01
 0.3764717495498E+01
 0.6760702684976E+01
 0.2580447200839E+01
 0.2825794950412E+01
 0.2972287033795E+01
 0.3025842217916E+01
 0.3045449556435E+01
 0.3063959907544E+01
 0.3089772724159E+01
 0.3121397780328E+01
 0.3150844131862E+01
 0.3165634137051E+01
 0.3155719784382E+01
 0.3119559905487E+01
 0.3057309126037E+01
 0.2961844397065E+01
 0.2823377342254E+01
 0.2638301283167E+01
 0.2423578555484E+01
 0.2288074138464E+01
 0.2632077340217E+01
 0.4118953030392E+01
 0.6502779541470E+01
 0.2546563362548E+01
 0.2773416572640E+01
 0.2927899314868E+01
 0.3000606295005E+01
 0.3029960812233E+01
 0.3045883599694E+01
 0.3059170768681E+01
 0.3069251505074E+01
 0.3068880876686E+01
 0.3047873133469E+01
 0.2999352059227E+01
 0.2924419821154E+01
 0.2826478857421E+01
 0.2704073551378E+01
 0.2555630508965E+01
 0.2390947129713E+01
 0.2255586405199E+01
 0.2303774390719E+01
 0.2894932143503E+01
 0.4361798038474E+01
 0.6306795078129E+01
 0.2521699760744E+01
 0.2730902092955E+01
 0.2885403947624E+01
 0.2969278498224E+01
 0.3005673213165E+01
 0.3018942053980E+01
 0.3020261437151E+01
 0.3010183921701E+01
 0.2983064905217E+01
 0.2931469971095E+01
 0.2851665373978E+01
 0.2747346109116E+01
 0.2625175539596E+01
 0.2489421579282E+01
 0.2347215428647E+01
 0.2222314601324E+01
 0.2183713847398E+01
 0.2401136870774E+01
 0.3145490329808E+01
 0.4530908365558E+01
 0.6157558983853E+01
 0.2502618720795E+01
 0.2695634175861E+01
 0.2845791796824E+01
 0.2934904628423E+01
 0.2975355000066E+01
 0.2985480772142E+01
 0.2975558758788E+01
 0.2947145414708E+01
 0.2896577488887E+01
 0.2819315046092E+01
 0.2714694664776E+01
 0.2589024707003E+01
 0.2452243797873E+01
 0.2314177414314E+01
 0.2190452243270E+01
 0.2117536995457E+01
 0.2179759972962E+01
 0.2536917934104E+01
 0.3366508411322E+01
 0.4656113875665E+01
 0.6042962463440E+01
 0.2487394752523E+01
 0.2665794737193E+01
 0.2809340881085E+01
 0.2899543972039E+01
 0.2941394715633E+01
 0.2947765879238E+01
 0.2927413986785E+01
 0.2882677850591E+01
 0.2811948172742E+01
 0.2713538708311E+01
 0.2589742525206E+01
 0.2449468194826E+01
 0.2305857630360E+01
 0.2173945171490E+01
 0.2077151796361E+01
 0.2062316235179E+01
 0.2220106809269E+01
 0.2684666515556E+01
 0.3555105136374E+01
 0.4757071321782E+01
 0.5956200136948E+01
 0.2474850088650E+01
 0.2640168150699E+01
 0.2776099733636E+01
 0.2864667289377E+01
 0.2905852462665E+01
 0.2907974218584E+01
 0.2878106033543E+01
 0.2819163798948E+01
 0.2731488880671E+01
 0.2616085900477E+01
 0.2478027717719E+01
 0.2328720451229E+01
 0.2184311441903E+01
 0.2064527720594E+01
 0.1999541123166E+01
 0.2043576461484E+01
 0.2285603039229E+01
 0.2828210503042E+01
 0.3713077177118E+01
 0.4836835364567E+01
 0.5920477042031E+01
 0.2464297844897E+01
 0.2617970032498E+01
 0.2746043969458E+01
 0.2831298130842E+01
 0.2870352316441E+01
 0.2867915328448E+01
 0.2829471812403E+01
 0.2758358427186E+01
 0.2656680151384E+01
 0.2527902729849E+01
 0.2379656647264E+01
 0.2225674339183E+01
 0.2084839062760E+01
 0.1981001379326E+01
 0.1949918419481E+01
 0.2050106524249E+01
 0.2363022123467E+01
 0.2960506261182E+01
 0.3844822438274E+01
 0.4901127327029E+01
 0.5905769380006E+01
 0.2455296938104E+01
 0.2598681851552E+01
 0.2719114166960E+01
 0.2800137990880E+01
 0.2836127894627E+01
 0.2829019749440E+01
 0.2782918518488E+01
 0.2701472151403E+01
 0.2588332395720E+01
 0.2449165901020E+01
 0.2293913035782E+01
 0.2138423330618E+01
 0.2004025727175E+01
 0.1918149982498E+01
 0.1920992261376E+01
 0.2072591446218E+01
 0.2443589514599E+01
 0.3079030732992E+01
 0.3954855587594E+01
 0.4955141018359E+01
 0.5892894443433E+01
 0.2447597208392E+01
 0.2582006818369E+01
 0.2695327501903E+01
 0.2771775716449E+01
 0.2804234697951E+01
 0.2792565254825E+01
 0.2739745318863E+01
 0.2649665552323E+01
 0.2527303939908E+01
 0.2380248626139E+01
 0.2220473967799E+01
 0.2065699784522E+01
 0.1939388904669E+01
 0.1872012511187E+01
 0.1907084364383E+01
 0.2103940652530E+01
 0.2521265312178E+01
 0.3182348720795E+01
 0.4046245867956E+01
 0.5000657344557E+01
 0.5887116493342E+01
 0.2441062219529E+01
 0.2567781719928E+01
 0.2674733150407E+01
 0.2746679764584E+01
 0.2775521196056E+01
 0.2759599914307E+01
 0.2701015552233E+01
 0.2603858244667E+01
 0.2474218841729E+01
 0.2321320433043E+01
 0.2158878685669E+01
 0.2006216244412E+01
 0.1888612851531E+01
 0.1839061026495E+01
 0.1903370741330E+01
 0.2138666321788E+01
 0.2592089216241E+01
 0.3270118993507E+01
 0.4121375282358E+01
 0.5039188802548E+01
 0.5886982413381E+01
 0.2435626407944E+01
 0.2555929734769E+01
 0.2657401447582E+01
 0.2725226633571E+01
 0.2750662775707E+01
 0.2730966467070E+01
 0.2667580601586E+01
 0.2564763811230E+01
 0.2429516664387E+01
 0.2272411073282E+01
 0.2108604574792E+01
 0.1958747487513E+01
 0.1849622570209E+01
 0.1816247775328E+01
 0.1905874662999E+01
 0.2172641630867E+01
 0.2653522681741E+01
 0.3342500699938E+01
 0.4182024962887E+01
 0.5071325221819E+01
 0.5890489182869E+01
 0.2431266545417E+01
 0.2546426598591E+01
 0.2643411580501E+01
 0.2707716955711E+01
 0.2730187965238E+01
 0.2707326405804E+01
 0.2640104702770E+01
 0.2532922217580E+01
 0.2393495795452E+01
 0.2233464752873E+01
 0.2069129642800E+01
 0.1922193831364E+01
 0.1820634800439E+01
 0.1801029866624E+01
 0.1911425814734E+01
 0.2202846914024E+01
 0.2703969066708E+01
 0.3399838025011E+01
 0.4229421960571E+01
 0.5097213809737E+01
 0.5895743978880E+01
 0.2427982388827E+01
 0.2539276573571E+01
 0.2632840375061E+01
 0.2694384601229E+01
 0.2714498290758E+01
 0.2689181576277E+01
 0.2619088199106E+01
 0.2508728527441E+01
 0.2366350085879E+01
 0.2204384688473E+01
 0.2039981915954E+01
 0.1895628064643E+01
 0.1800192267855E+01
 0.1791378895779E+01
 0.1917599495042E+01
 0.2227140416350E+01
 0.2742445113849E+01
 0.3442489101063E+01
 0.4264383984060E+01
 0.5116801566149E+01
 0.5901144742201E+01
 0.2425783549058E+01
 0.2534495654481E+01
 0.2625753204679E+01
 0.2685401837588E+01
 0.2703882969723E+01
 0.2676892176110E+01
 0.2604887634828E+01
 0.2492457003823E+01
 0.2348198579810E+01
 0.2185068226160E+01
 0.2020776859994E+01
 0.1878328998172E+01
 0.1787186209063E+01
 0.1785781043233E+01
 0.1922650063677E+01
 0.2244072985472E+01
 0.2768363211426E+01
 0.3470750873096E+01
 0.4287436394410E+01
 0.5129963680680E+01
 0.5905450216832E+01
 0.2424680805683E+01
 0.2532100259641E+01
 0.2622197280479E+01
 0.2680882235517E+01
 0.2698529297730E+01
 0.2670690560278E+01
 0.2597731593527E+01
 0.2484279818146E+01
 0.2339108034909E+01
 0.2175432758040E+01
 0.2011244016656E+01
 0.1869804238418E+01
 0.1780870632393E+01
 0.1783232211556E+01
 0.1925451103579E+01
 0.2252751725361E+01
 0.2781395403715E+01
 0.3484829446477E+01
 0.4298890388866E+01
 0.5136580031642E+01
 0.5907816326103E+01
 0.2424680805673E+01
 0.2532100259643E+01
 0.2622197280507E+01
 0.2680882235582E+01
 0.2698529297842E+01
 0.2670690560449E+01
 0.2597731593769E+01
 0.2484279818472E+01
 0.2339108035322E+01
 0.2175432758528E+01
 0.2011244017185E+01
 0.1869804238927E+01
 0.1780870632788E+01
 0.1783232211699E+01
 0.1925451103312E+01
 0.2252751724596E+01
 0.2781395402542E+01
 0.3484829445177E+01
 0.4298890387803E+01
 0.5136580031085E+01
 0.5907816326057E+01
 0.2425783549030E+01
 0.2534495654488E+01
 0.2625753204762E+01
 0.2685401837782E+01
 0.2703882970056E+01
 0.2676892176618E+01
 0.2604887635550E+01
 0.2492457004796E+01
 0.2348198581046E+01
 0.2185068227625E+01
 0.2020776861587E+01
 0.1878328999714E+01
 0.1787186210274E+01
 0.1785781043700E+01
 0.1922650062920E+01
 0.2244072983213E+01
 0.2768363207921E+01
 0.3470750869186E+01
 0.4287436391204E+01
 0.5129963679012E+01
 0.5905450216735E+01
 0.2427982388779E+01
 0.2539276573582E+01
 0.2632840375198E+01
 0.2694384601548E+01
 0.2714498291306E+01
 0.2689181577111E+01
 0.2619088200295E+01
 0.2508728529050E+01
 0.2366350087933E+01
 0.2204384690920E+01
 0.2039981918634E+01
 0.1895628067266E+01
 0.1800192269959E+01
 0.1791378896683E+01
 0.1917599493928E+01
 0.2227140412710E+01
 0.2742445108058E+01
 0.3442489094515E+01
 0.4264383978660E+01
 0.5116801563379E+01
 0.5901144742174E+01
 0.2431266545350E+01
 0.2546426598604E+01
 0.2643411580689E+01
 0.2707716956147E+01
 0.2730187965987E+01
 0.2707326406946E+01
 0.2640104704404E+01
 0.2532922219805E+01
 0.2393495798313E+01
 0.2233464756311E+01
 0.2069129646604E+01
 0.1922193835142E+01
 0.1820634803563E+01
 0.1801029868152E+01
 0.1911425813495E+01
 0.2202846909203E+01
 0.2703969058718E+01
 0.3399838015780E+01
 0.4229421952882E+01
 0.5097213805867E+01
 0.5895743979125E+01
 0.2435626407857E+01
 0.2555929734783E+01
 0.2657401447817E+01
 0.2725226634115E+01
 0.2750662776640E+01
 0.2730966468491E+01
 0.2667580603633E+01
 0.2564763814041E+01
 0.2429516668039E+01
 0.2272411077718E+01
 0.2108604579766E+01
 0.1958747492550E+01
 0.1849622574530E+01
 0.1816247777742E+01
 0.1905874661967E+01
 0.2172641625172E+01
 0.2653522671699E+01
 0.3342500687971E+01
 0.4182024952768E+01
 0.5071325216831E+01
 0.5890489183661E+01
 0.2441062219422E+01
 0.2567781719942E+01
 0.2674733150685E+01
 0.2746679765225E+01
 0.2775521197147E+01
 0.2759599915972E+01
 0.2701015554650E+01
 0.2603858248023E+01
 0.2474218846143E+01
 0.2321320438480E+01
 0.2158878691867E+01
 0.2006216250832E+01
 0.1888612857267E+01
 0.1839061030134E+01
 0.1903370740947E+01
 0.2138666315656E+01
 0.2592089204387E+01
 0.3270118978755E+01
 0.4121375269602E+01
 0.5039188796380E+01
 0.5886982415058E+01
 0.2447597208264E+01
 0.2582006818382E+01
 0.2695327502219E+01
 0.2771775717173E+01
 0.2804234699170E+01
 0.2792565256687E+01
 0.2739745321592E+01
 0.2649665556167E+01
 0.2527303945045E+01
 0.2380248632573E+01
 0.2220473975275E+01
 0.2065699792465E+01
 0.1939388912080E+01
 0.1872012516459E+01
 0.1907084365213E+01
 0.2103940646561E+01
 0.2521265298888E+01
 0.3182348703240E+01
 0.4046245852288E+01
 0.5000657337068E+01
 0.5887116496288E+01
 0.2455296937955E+01
 0.2598681851563E+01
 0.2719114167310E+01
 0.2800137991668E+01
 0.2836127895938E+01
 0.2829019751442E+01
 0.2782918521457E+01
 0.2701472155663E+01
 0.2588332401524E+01
 0.2449165908434E+01
 0.2293913044585E+01
 0.2138423340235E+01
 0.2004025736552E+01
 0.1918149989879E+01
 0.1920992264106E+01
 0.2072591441215E+01
 0.2443589500453E+01
 0.3079030712685E+01
 0.3954855568665E+01
 0.4955141009296E+01
 0.5892894448038E+01
 0.2464297844726E+01
 0.2617970032507E+01
 0.2746043969839E+01
 0.2831298131675E+01
 0.2870352317798E+01
 0.2867915330520E+01
 0.2829471815526E+01
 0.2758358431770E+01
 0.2656680157776E+01
 0.2527902738203E+01
 0.2379656657427E+01
 0.2225674350622E+01
 0.2084839074417E+01
 0.1981001389352E+01
 0.1949918424925E+01
 0.2050106521253E+01
 0.2363022109345E+01
 0.2960506238314E+01
 0.3844822415665E+01
 0.4901127316031E+01
 0.5905769386531E+01
 0.2474850088457E+01
 0.2640168150709E+01
 0.2776099734046E+01
 0.2864667290232E+01
 0.2905852464014E+01
 0.2907974220642E+01
 0.2878106036715E+01
 0.2819163803741E+01
 0.2731488887548E+01
 0.2616085909706E+01
 0.2478027729252E+01
 0.2328720464624E+01
 0.2184311456163E+01
 0.2064527733850E+01
 0.1999541132255E+01
 0.2043576461804E+01
 0.2285603026435E+01
 0.2828210478088E+01
 0.3713077150267E+01
 0.4836835351315E+01
 0.5920477050447E+01
 0.2487394752293E+01
 0.2665794737188E+01
 0.2809340881478E+01
 0.2899543972825E+01
 0.2941394716831E+01
 0.2947765881079E+01
 0.2927413989722E+01
 0.2882677855205E+01
 0.2811948179597E+01
 0.2713538717796E+01
 0.2589742537409E+01
 0.2449468209464E+01
 0.2305857646605E+01
 0.2173945187628E+01
 0.2077151809294E+01
 0.2062316239952E+01
 0.2220106799934E+01
 0.2684666490545E+01
 0.3555105106028E+01
 0.4757071305960E+01
 0.5956200147868E+01
 0.2502618720542E+01
 0.2695634175838E+01
 0.2845791797164E+01
 0.2934904629054E+01
 0.2975355000977E+01
 0.2985480773569E+01
 0.2975558761203E+01
 0.2947145418729E+01
 0.2896577495150E+01
 0.2819315055096E+01
 0.2714694676765E+01
 0.2589024721903E+01
 0.2452243815136E+01
 0.2314177432567E+01
 0.2190452259804E+01
 0.2117537005518E+01
 0.2179759969561E+01
 0.2536917912283E+01
 0.3366508379288E+01
 0.4656113857306E+01
 0.6042962476217E+01
 0.2521699760471E+01
 0.2730902092917E+01
 0.2885403947900E+01
 0.2969278498667E+01
 0.3005673213744E+01
 0.3018942054940E+01
 0.3020261438963E+01
 0.3010183924994E+01
 0.2983064910681E+01
 0.2931469979332E+01
 0.2851665385389E+01
 0.2747346123846E+01
 0.2625175557400E+01
 0.2489421599192E+01
 0.2347215448489E+01
 0.2222314616901E+01
 0.2183713851393E+01
 0.2401136854665E+01
 0.3145490297091E+01
 0.4530908343547E+01
 0.6157558998822E+01
 0.2546563362258E+01
 0.2773416572591E+01
 0.2927899315066E+01
 0.3000606295228E+01
 0.3029960812454E+01
 0.3045883600165E+01
 0.3059170769848E+01
 0.3069251507543E+01
 0.3068880881175E+01
 0.3047873140670E+01
 0.2999352069686E+01
 0.2924419835227E+01
 0.2826478875165E+01
 0.2704073572253E+01
 0.2555630531434E+01
 0.2390947150473E+01
 0.2255586417503E+01
 0.2303774383387E+01
 0.2894932112230E+01
 0.4361798011696E+01
 0.6306795095335E+01
 0.2580447200535E+01
 0.2825794950353E+01
 0.2972287033891E+01
 0.3025842217890E+01
 0.3045449556295E+01
 0.3063959907544E+01
 0.3089772724686E+01
 0.3121397781931E+01
 0.3150844135250E+01
 0.3165634142981E+01
 0.3155719793530E+01
 0.3119559918392E+01
 0.3057309143016E+01
 0.2961844417981E+01
 0.2823377366243E+01
 0.2638301308058E+01
 0.2423578576015E+01
 0.2288074142881E+01
 0.2632077314580E+01
 0.4118952998050E+01
 0.6502779560477E+01
 0.2628995324709E+01
 0.2891575723647E+01
 0.3015824847024E+01
 0.3040515638584E+01
 0.3049176045431E+01
 0.3070931617515E+01
 0.3109503779505E+01
 0.3163276993515E+01
 0.3224974530763E+01
 0.3280879254128E+01
 0.3317841427175E+01
 0.3331322031161E+01
 0.3317986385772E+01
 0.3265340066313E+01
 0.3156780654342E+01
 0.2978143873411E+01
 0.2718719804499E+01
 0.2416323968109E+01
 0.2412482535367E+01
 0.3764717458185E+01
 0.6760702704681E+01
 0.2702602693935E+01
 0.2974773686851E+01
 0.3051749759876E+01
 0.3038499848257E+01
 0.3038481617821E+01
 0.3064859749733E+01
 0.3115931286334E+01
 0.3191239732829E+01
 0.3286304856618E+01
 0.3388394484902E+01
 0.3481696119007E+01
 0.3557512985251E+01
 0.3607946025562E+01
 0.3615612526280E+01
 0.3559921732704E+01
 0.3420735131336E+01
 0.3169936249829E+01
 0.2767299192463E+01
 0.2369677200872E+01
 0.3273173841710E+01
 0.7095534807486E+01
 0.2822032072683E+01
 0.3076701415156E+01
 0.3064683624597E+01
 0.3013216417684E+01
 0.3011764279618E+01
 0.3044161631840E+01
 0.3107063352522E+01
 0.3201584560988E+01
 0.3328682340112E+01
 0.3480980389258E+01
 0.3641858686304E+01
 0.3795418101811E+01
 0.3925860449194E+01
 0.4011824015378E+01
 0.4033490650042E+01
 0.3971327898070E+01
 0.3793269109332E+01
 0.3424973763416E+01
 0.2739338262953E+01
 0.2746620823908E+01
 0.7512036577444E+01
 0.3034244810533E+01
 0.3179190764651E+01
 0.3024754758809E+01
 0.2963568626938E+01
 0.2967815869738E+01
 0.3007909975574E+01
 0.3081657551179E+01
 0.3191155129776E+01
 0.3344751284278E+01
 0.3548165675336E+01
 0.3790851833752E+01
 0.4042618742116E+01
 0.4269941522121E+01
 0.4451053109696E+01
 0.4573750098937E+01
 0.4628600146355E+01
 0.4586778236977E+01
 0.4423388634072E+01
 0.3850780533701E+01
 0.2855381751188E+01
 0.7981028212843E+01
 0.3470283949110E+01
 0.3144077429690E+01
 0.2922313703208E+01
 0.2892993352013E+01
 0.2905210402340E+01
 0.2956461060417E+01
 0.3039197202766E+01
 0.3158424527215E+01
 0.3327008634599E+01
 0.3573434803847E+01
 0.3917388279547E+01
 0.4299402962320E+01
 0.4638833911984E+01
 0.4926515283549E+01
 0.5175325165736E+01
 0.5376756510554E+01
 0.5544873520842E+01
 0.5671875115571E+01
 0.5956659594101E+01
 0.5159198607517E+01
 0.9350962650544E+01
 0.9909913052818E+00
 0.1424252861652E+01
 0.1766425015509E+01
 0.2022860137579E+01
 0.2202015922675E+01
 0.2310050442747E+01
 0.2358279758418E+01
 0.2361968107427E+01
 0.2321102222609E+01
 0.2225901147421E+01
 0.9537295074918E+00
 0.1445650875293E+01
 0.1833308995359E+01
 0.2127802262059E+01
 0.2340859038913E+01
 0.2481727424335E+01
 0.2563917849221E+01
 0.2601905711049E+01
 0.2587241790220E+01
 0.2507513767567E+01
 0.9205621495271E+00
 0.1471522690161E+01
 0.1901680698600E+01
 0.2230955495705E+01
 0.2475781833381E+01
 0.2649372599254E+01
 0.2766674588092E+01
 0.2839472772995E+01
 0.2861389485058E+01
 0.2826193758980E+01
 0.8918760734937E+00
 0.1499028339370E+01
 0.1968656818204E+01
 0.2329573674919E+01
 0.2604030636790E+01
 0.2809197701102E+01
 0.2961287758299E+01
 0.3072051121967E+01
 0.3139231895983E+01
 0.3155230422350E+01
 0.8675127570776E+00
 0.1526412831964E+01
 0.2031575369736E+01
 0.2420852269378E+01
 0.2722341294791E+01
 0.2957069687112E+01
 0.3143048128622E+01
 0.3293179258463E+01
 0.3407771479520E+01
 0.3476984936619E+01
 0.8473451076666E+00
 0.1552023837079E+01
 0.2088098893900E+01
 0.2502008725049E+01
 0.2827373607393E+01
 0.3088848284277E+01
 0.3306433135313E+01
 0.3494190016688E+01
 0.3653937267777E+01
 0.3773501462820E+01
 0.8312829809447E+00
 0.1574407650178E+01
 0.2136120974008E+01
 0.2570468390495E+01
 0.2915946125111E+01
 0.3200398658084E+01
 0.3445611056407E+01
 0.3666523197764E+01
 0.3865511062036E+01
 0.4028328568534E+01
 0.8192707984582E+00
 0.1592334832711E+01
 0.2173837113236E+01
 0.2623979864994E+01
 0.2985199169926E+01
 0.3287884923570E+01
 0.3555218400609E+01
 0.3802658735581E+01
 0.4032529188630E+01
 0.4228968889576E+01
 0.8112764249882E+00
 0.1604841640126E+01
 0.2199815243075E+01
 0.2660726931593E+01
 0.3032777019429E+01
 0.3348118531330E+01
 0.3630866189866E+01
 0.3896722591814E+01
 0.4147754189582E+01
 0.4367000801421E+01
 0.8072828497465E+00
 0.1611264316038E+01
 0.2213059761089E+01
 0.2679430944992E+01
 0.3057002057681E+01
 0.3378825609641E+01
 0.3669478346447E+01
 0.3944748860801E+01
 0.4206511661612E+01
 0.4437237487202E+01
 0.8072828501599E+00
 0.1611264315657E+01
 0.2213059760455E+01
 0.2679430944383E+01
 0.3057002057216E+01
 0.3378825609337E+01
 0.3669478346265E+01
 0.3944748860695E+01
 0.4206511661542E+01
 0.4437237487140E+01
 0.8112764262276E+00
 0.1604841639005E+01
 0.2199815241199E+01
 0.2660726929788E+01
 0.3032777018053E+01
 0.3348118530432E+01
 0.3630866189333E+01
 0.3896722591501E+01
 0.4147754189376E+01
 0.4367000801237E+01
 0.8192708005209E+00
 0.1592334830915E+01
 0.2173837110193E+01
 0.2623979862061E+01
 0.2985199167695E+01
 0.3287884922123E+01
 0.3555218399758E+01
 0.3802658735085E+01
 0.4032529188300E+01
 0.4228968889277E+01
 0.8312829838267E+00
 0.1574407647811E+01
 0.2136120969921E+01
 0.2570468386543E+01
 0.2915946122115E+01
 0.3200398656159E+01
 0.3445611055291E+01
 0.3666523197120E+01
 0.3865511061604E+01
 0.4028328568132E+01
 0.8473451113626E+00
 0.1552023834280E+01
 0.2088098888932E+01
 0.2502008720224E+01
 0.2827373603750E+01
 0.3088848281967E+01
 0.3306433133998E+01
 0.3494190015942E+01
 0.3653937267271E+01
 0.3773501462334E+01
 0.8675127615807E+00
 0.1526412828899E+01
 0.2031575364087E+01
 0.2420852263861E+01
 0.2722341290648E+01
 0.2957069684525E+01
 0.3143048127186E+01
 0.3293179257665E+01
 0.3407771478977E+01
 0.3476984936083E+01
 0.8918760787941E+00
 0.1499028336226E+01
 0.1968656812106E+01
 0.2329573668924E+01
 0.2604030632314E+01
 0.2809197698354E+01
 0.2961287756813E+01
 0.3072051121163E+01
 0.3139231895438E+01
 0.3155230421805E+01
 0.9205621556042E+00
 0.1471522687131E+01
 0.1901680692316E+01
 0.2230955489484E+01
 0.2475781828763E+01
 0.2649372596467E+01
 0.2766674586616E+01
 0.2839472772212E+01
 0.2861389484533E+01
 0.2826193758456E+01
 0.9537295142976E+00
 0.1445650872554E+01
 0.1833308989202E+01
 0.2127802255919E+01
 0.2340859034370E+01
 0.2481727421621E+01
 0.2563917847791E+01
 0.2601905710286E+01
 0.2587241789714E+01
 0.2507513767074E+01
 0.9909913125991E+00
 0.1424252859399E+01
 0.1766425009885E+01
 0.2022860131913E+01
 0.2202015918476E+01
 0.2310050440190E+01
 0.2358279757015E+01
 0.2361968106648E+01
 0.2321102222095E+01
 0.2225901146948E+01
 0.1552487485882E+01
 0.4557794807094E+00
 0.2882765252628E-01
 0.1622598278949E+00
 0.2417388616214E+00
 0.2683887538017E+00
 0.2270591429539E+00
 0.1136904531933E+00
 0.2376625880432E-01
 0.1750135642045E+00
 0.1665361451612E+01
 0.1091208708456E+01
 0.4255824107813E+00
 0.1398070742275E+00
 0.1062737628135E-01
 0.9431546101658E-01
 0.1085369845462E+00
 0.5369286776569E-01
 0.2457825173482E-01
 0.9601495801535E-01
 0.1567391538590E+01
 0.1301308326559E+01
 0.8238349360193E+00
 0.4796584770220E+00
 0.2659466539409E+00
 0.1295837575372E+00
 0.5958537448501E-01
 0.5468186598897E-01
 0.7389247355599E-01
 0.8590506328105E-01
 0.1460954433108E+01
 0.1371777821508E+01
 0.1071095869794E+01
 0.7846563149398E+00
 0.5585919297735E+00
 0.3901143978176E+00
 0.2761432222160E+00
 0.2185679606435E+00
 0.1913155466810E+00
 0.1662259575266E+00
 0.1364574846942E+01
 0.1392050794223E+01
 0.1235107853683E+01
 0.1033904284232E+01
 0.8407414429898E+00
 0.6714022380594E+00
 0.5348187614039E+00
 0.4419964094856E+00
 0.3850983872924E+00
 0.3378509273840E+00
 0.1281539070565E+01
 0.1396010644442E+01
 0.1355078103471E+01
 0.1243393097808E+01
 0.1104967708758E+01
 0.9611792860868E+00
 0.8265218288444E+00
 0.7203924779010E+00
 0.6512931910348E+00
 0.5894438269892E+00
 0.1210162539309E+01
 0.1397428451770E+01
 0.1453126896779E+01
 0.1427464617964E+01
 0.1353711971109E+01
 0.1252595487590E+01
 0.1140254876163E+01
 0.1041213018905E+01
 0.9749630094676E+00
 0.9029815414713E+00
 0.1147818312515E+01
 0.1401232173363E+01
 0.1540428806561E+01
 0.1595507635025E+01
 0.1589789722803E+01
 0.1540942467668E+01
 0.1463948386007E+01
 0.1385283341244E+01
 0.1332276842803E+01
 0.1257225471637E+01
 0.1091652127431E+01
 0.1407768676881E+01
 0.1621596709539E+01
 0.1752252441613E+01
 0.1814333525343E+01
 0.1821663537524E+01
 0.1786727286400E+01
 0.1731557692172E+01
 0.1690503287825E+01
 0.1627882524321E+01
 0.1038387905039E+01
 0.1414605487664E+01
 0.1697608450685E+01
 0.1899149487073E+01
 0.2026901325508E+01
 0.2089915150497E+01
 0.2099040635702E+01
 0.2070903764356E+01
 0.2023443319313E+01
 0.1973534230134E+01
 0.1038387912452E+01
 0.1414605486059E+01
 0.1697608445438E+01
 0.1899149481533E+01
 0.2026901321361E+01
 0.2089915148040E+01
 0.2099040634452E+01
 0.2070903763681E+01
 0.2023443318807E+01
 0.1973534229632E+01
 0.1091652134658E+01
 0.1407768676116E+01
 0.1621596705364E+01
 0.1752252437035E+01
 0.1814333521890E+01
 0.1821663535479E+01
 0.1786727285377E+01
 0.1731557691609E+01
 0.1690503287354E+01
 0.1627882523819E+01
 0.1147818319760E+01
 0.1401232173625E+01
 0.1540428803520E+01
 0.1595507631426E+01
 0.1589789720063E+01
 0.1540942466075E+01
 0.1463948385245E+01
 0.1385283340822E+01
 0.1332276842420E+01
 0.1257225471136E+01
 0.1210162546623E+01
 0.1397428453033E+01
 0.1453126894740E+01
 0.1427464615199E+01
 0.1353711968968E+01
 0.1252595486377E+01
 0.1140254875621E+01
 0.1041213018612E+01
 0.9749630091677E+00
 0.9029815409796E+00
 0.1281539077930E+01
 0.1396010646454E+01
 0.1355078102083E+01
 0.1243393095568E+01
 0.1104967706997E+01
 0.9611792851185E+00
 0.8265218284402E+00
 0.7203924776886E+00
 0.6512931907929E+00
 0.5894438265300E+00
 0.1364574854232E+01
 0.1392050796488E+01
 0.1235107852374E+01
 0.1033904282093E+01
 0.8407414413562E+00
 0.6714022372059E+00
 0.5348187610668E+00
 0.4419964093102E+00
 0.3850983870865E+00
 0.3378509269869E+00
 0.1460954440001E+01
 0.1371777823211E+01
 0.1071095867822E+01
 0.7846563125093E+00
 0.5585919281400E+00
 0.3901143970492E+00
 0.2761432219288E+00
 0.2185679604839E+00
 0.1913155464919E+00
 0.1662259572044E+00
 0.1567391544396E+01
 0.1301308326462E+01
 0.8238349326755E+00
 0.4796584743388E+00
 0.2659466524756E+00
 0.1295837569592E+00
 0.5958537428290E-01
 0.5468186584135E-01
 0.7389247335677E-01
 0.8590506300184E-01
 0.1665361454648E+01
 0.1091208704867E+01
 0.4255824067542E+00
 0.1398070721320E+00
 0.1062737716439E-01
 0.9431546125597E-01
 0.1085369846295E+00
 0.5369286790290E-01
 0.2457825149635E-01
 0.9601495769552E-01
 0.1552487484368E+01
 0.4557794758919E+00
 0.2882765432626E-01
 0.1622598285388E+00
 0.2417388616962E+00
 0.2683887536575E+00
 0.2270591429222E+00
 0.1136904533385E+00
 0.2376625853741E-01
 0.1750135637438E+00
 0.2038950749330E+01
 0.1701999831205E+01
 0.1365404334929E+01
 0.1035276504127E+01
 0.7235252345150E+00
 0.4499814030484E+00
 0.2393052494511E+00
 0.1186318418673E+00
 0.1111193342042E+00
 0.2255355227145E+00
 0.2365321554078E+01
 0.2073653720204E+01
 0.1730780640541E+01
 0.1367172281098E+01
 0.1003228474156E+01
 0.6606039545372E+00
 0.3680384476421E+00
 0.1639125815202E+00
 0.9750004552200E-01
 0.2160507728223E+00
 0.2712327505105E+01
 0.2461551172819E+01
 0.2152979308196E+01
 0.1799434293550E+01
 0.1418946676730E+01
 0.1030714597114E+01
 0.6602540156059E+00
 0.3458609698731E+00
 0.1483097146907E+00
 0.1711448663960E+00
 0.3079463977102E+01
 0.2879028779136E+01
 0.2623109942105E+01
 0.2314991453366E+01
 0.1963803666051E+01
 0.1582077731374E+01
 0.1187228589088E+01
 0.8069251134886E+00
 0.4899766794110E+00
 0.3417796735601E+00
 0.3446976740529E+01
 0.3304849529170E+01
 0.3112964474749E+01
 0.2870191347072E+01
 0.2579533054630E+01
 0.2246722289493E+01
 0.1880338030262E+01
 0.1493393509378E+01
 0.1106936572442E+01
 0.7542244048035E+00
 0.3789536697777E+01
 0.3703264885694E+01
 0.3572311319333E+01
 0.3392089667156E+01
 0.3159801076547E+01
 0.2873382648013E+01
 0.2530261415649E+01
 0.2125400207407E+01
 0.1645826971814E+01
 0.1049398281353E+01
 0.4085759628102E+01
 0.4045823648848E+01
 0.3963785242592E+01
 0.3830945299847E+01
 0.3638196637412E+01
 0.3374681857436E+01
 0.3025786821551E+01
 0.2569528272455E+01
 0.1968976988423E+01
 0.1159351691679E+01
 0.4320212215353E+01
 0.4315108421955E+01
 0.4268184365305E+01
 0.4166797280027E+01
 0.3996015685067E+01
 0.3737249387065E+01
 0.3366347453992E+01
 0.2850883949699E+01
 0.2146876926506E+01
 0.1204740384738E+01
 0.4482008189950E+01
 0.4499819661550E+01
 0.4474966425431E+01
 0.4391725909514E+01
 0.4230829477972E+01
 0.3968278724620E+01
 0.3574158496106E+01
 0.3011923795657E+01
 0.2240155046269E+01
 0.1226614469541E+01
 0.4564433813294E+01
 0.4593502211165E+01
 0.4579141923864E+01
 0.4503928476035E+01
 0.4346317693577E+01
 0.4079630486317E+01
 0.3671478160014E+01
 0.3084519825225E+01
 0.2280401696682E+01
 0.1236007260926E+01
 0.4564433813209E+01
 0.4593502211046E+01
 0.4579141923709E+01
 0.4503928475847E+01
 0.4346317693365E+01
 0.4079630486101E+01
 0.3671478159824E+01
 0.3084519825094E+01
 0.2280401696637E+01
 0.1236007260958E+01
 0.4482008189698E+01
 0.4499819661196E+01
 0.4474966424965E+01
 0.4391725908941E+01
 0.4230829477320E+01
 0.3968278723945E+01
 0.3574158495495E+01
 0.3011923795218E+01
 0.2240155046093E+01
 0.1226614469634E+01
 0.4320212214946E+01
 0.4315108421374E+01
 0.4268184364529E+01
 0.4166797279056E+01
 0.3996015683936E+01
 0.3737249385852E+01
 0.3366347452835E+01
 0.2850883948797E+01
 0.2146876926074E+01
 0.1204740384866E+01
 0.4085759627562E+01
 0.4045823648060E+01
 0.3963785241517E+01
 0.3830945298472E+01
 0.3638196635761E+01
 0.3374681855589E+01
 0.3025786819672E+01
 0.2569528270823E+01
 0.1968976987446E+01
 0.1159351691743E+01
 0.3789536697133E+01
 0.3703264884728E+01
 0.3572311317988E+01
 0.3392089665394E+01
 0.3159801074365E+01
 0.2873382645465E+01
 0.2530261412878E+01
 0.2125400204705E+01
 0.1645826969732E+01
 0.1049398280883E+01
 0.3446976739817E+01
 0.3304849528067E+01
 0.3112964473185E+01
 0.2870191344986E+01
 0.2579533051984E+01
 0.2246722286288E+01
 0.1880338026562E+01
 0.1493393505372E+01
 0.1106936568575E+01
 0.7542244022465E+00
 0.3079463976389E+01
 0.2879028778018E+01
 0.2623109940531E+01
 0.2314991451305E+01
 0.1963803663500E+01
 0.1582077728375E+01
 0.1187228585743E+01
 0.8069251100044E+00
 0.4899766761678E+00
 0.3417796712607E+00
 0.2712327504447E+01
 0.2461551171794E+01
 0.2152979306806E+01
 0.1799434291843E+01
 0.1418946674798E+01
 0.1030714595107E+01
 0.6602540137380E+00
 0.3458609684275E+00
 0.1483097139786E+00
 0.1711448664463E+00
 0.2365321553475E+01
 0.2073653719272E+01
 0.1730780639344E+01
 0.1367172279738E+01
 0.1003228472761E+01
 0.6606039532632E+00
 0.3680384466637E+00
 0.1639125809851E+00
 0.9750004543379E-01
 0.2160507727972E+00
 0.2038950748743E+01
 0.1701999830373E+01
 0.1365404333959E+01
 0.1035276503111E+01
 0.7235252335584E+00
 0.4499814022664E+00
 0.2393052489363E+00
 0.1186318416352E+00
 0.1111193341178E+00
 0.2255355224421E+00
</DataArray>
<CellData Tensors="'E_Centroid','S_Centroid'">
<DataArray type="Float64" Name="E_Centroid" NumberOfComponents="4" ComponentName0="E11" ComponentName1="E22" ComponentName2="E33" ComponentName3="E12" format="ascii">
 0.1011489298818E-02 -0.7776743055373E-02  0.0000000000000E+00 -0.2516635446060E-02
 0.1752036292169E-02 -0.6515643422014E-02  0.0000000000000E+00 -0.7505155249687E-04
 0.1508415061552E-02 -0.6136615161487E-02  0.0000000000000E+00 -0.7529689643848E-04
 0.1518243347889E-02 -0.6058429777531E-02  0.0000000000000E+00  0.9171508383019E-05
 0.1519890624523E-02 -0.6087190959625E-02  0.0000000000000E+00  0.4502520711652E-04
 0.1547870208632E-02 -0.6193796719250E-02  0.0000000000000E+00  0.7653575420880E-04
 0.1590743943510E-02 -0.6367424666240E-02  0.0000000000000E+00  0.1093296968522E-03
 0.1652907064450E-02 -0.6617378950564E-02  0.0000000000000E+00  0.1514278604837E-03
 0.1740124841884E-02 -0.6971259946477E-02  0.0000000000000E+00  0.2141117377983E-03
 0.1859102527247E-02 -0.7494210176457E-02  0.0000000000000E+00  0.3573432532294E-03
 0.2007630832944E-02 -0.8235753103307E-02  0.0000000000000E+00  0.7540631569496E-03
 0.2156510434418E-02 -0.9069893615334E-02  0.0000000000000E+00  0.1551944021440E-02
 0.2261954848877E-02 -0.9828531864745E-02  0.0000000000000E+00  0.2682562329472E-02
 0.2302107735299E-02 -0.1050328480275E-01  0.0000000000000E+00  0.4014083544500E-02
 0.2269943416575E-02 -0.1112925692051E-01  0.0000000000000E+00  0.5518075393186E-02
 0.2148862555722E-02 -0.1169489030491E-01  0.0000000000000E+00  0.7194468200330E-02
 0.1952748615988E-02 -0.1222343117736E-01  0.0000000000000E+00  0.9068243492885E-02
 0.1530461142848E-02 -0.1278258957141E-01  0.0000000000000E+00  0.1130024017378E-01
 0.1283154698815E-02 -0.1361115101208E-01  0.0000000000000E+00  0.1453862084755E-01
-0.2860850048202E-02 -0.1356209739733E-01  0.0000000000000E+00  0.2051770218727E-01
 0.1095759762271E-01 -0.1485849660874E-01  0.0000000000000E+00  0.2391142212571E-01
 0.7111509474667E-03 -0.6900522235775E-02  0.0000000000000E+00 -0.2674510877082E-02
 0.1523031967621E-02 -0.6753672842233E-02  0.0000000000000E+00 -0.1055904995285E-02
 0.1573495010101E-02 -0.6343619915783E-02  0.0000000000000E+00 -0.2189900203236E-03
 0.1533698584785E-02 -0.6220596839367E-02  0.0000000000000E+00 -0.3261605586741E-04
 0.1545416458287E-02 -0.6223179779496E-02  0.0000000000000E+00  0.1070589614949E-03
 0.1566087029851E-02 -0.6307390745069E-02  0.0000000000000E+00  0.2086377873593E-03
 0.1603438613845E-02 -0.6462730510729E-02  0.0000000000000E+00  0.3132798179356E-03
 0.1656970930116E-02 -0.6694654114951E-02  0.0000000000000E+00  0.4427751011200E-03
 0.1726727224351E-02 -0.7023524900041E-02  0.0000000000000E+00  0.6354064882667E-03
 0.1798217081453E-02 -0.7472881347393E-02  0.0000000000000E+00  0.9640509588005E-03
 0.1852260926479E-02 -0.8029385119507E-02  0.0000000000000E+00  0.1506218589205E-02
 0.1885260160943E-02 -0.8621295877638E-02  0.0000000000000E+00  0.2291174577170E-02
 0.1890771198814E-02 -0.9170807651109E-02  0.0000000000000E+00  0.3296555647919E-02
 0.1844194857911E-02 -0.9640364504750E-02  0.0000000000000E+00  0.4470999301697E-02
 0.1721996711632E-02 -0.1001422944264E-01  0.0000000000000E+00  0.5756247661095E-02
 0.1515991920800E-02 -0.1027278898877E-01  0.0000000000000E+00  0.7113914914313E-02
 0.1172820134432E-02 -0.1037490046051E-01  0.0000000000000E+00  0.8547718637279E-02
 0.6972605007112E-03 -0.1025031516499E-01  0.0000000000000E+00  0.1002100419907E-01
-0.5313948521051E-03 -0.9496105598144E-02  0.0000000000000E+00  0.1169865826814E-01
-0.1205138553695E-02 -0.7375544314551E-02  0.0000000000000E+00  0.9034108324469E-02
 0.1295189438776E-01 -0.9050802556090E-02  0.0000000000000E+00  0.5317390778152E-02
 0.5311019156344E-03 -0.6491690403599E-02  0.0000000000000E+00 -0.2488916699836E-02
 0.1291419859178E-02 -0.6653184777361E-02  0.0000000000000E+00 -0.1439380326763E-02
 0.1524869506826E-02 -0.6473285374263E-02  0.0000000000000E+00 -0.4848655410127E-03
 0.1536278912096E-02 -0.6340141006163E-02  0.0000000000000E+00 -0.7734696555508E-04
 0.1547846315537E-02 -0.6328928368504E-02  0.0000000000000E+00  0.1451079790191E-03
 0.1568058187504E-02 -0.6394644521251E-02  0.0000000000000E+00  0.3235902722295E-03
 0.1597113512474E-02 -0.6528997777322E-02  0.0000000000000E+00  0.4997693483844E-03
 0.1635993722324E-02 -0.6734053948793E-02  0.0000000000000E+00  0.7144369212938E-03
 0.1676606429986E-02 -0.7017476181756E-02  0.0000000000000E+00  0.1015843299269E-02
 0.1696856606956E-02 -0.7375665657523E-02  0.0000000000000E+00  0.1458536776935E-02
 0.1678640749021E-02 -0.7779396465756E-02  0.0000000000000E+00  0.2065953101898E-02
 0.1629123408795E-02 -0.8184516668430E-02  0.0000000000000E+00  0.2825790803136E-02
 0.1555336570540E-02 -0.8547620259026E-02  0.0000000000000E+00  0.3721444634977E-02
 0.1439432559714E-02 -0.8827622677554E-02  0.0000000000000E+00  0.4719270797118E-02
 0.1260349842900E-02 -0.8988470931011E-02  0.0000000000000E+00  0.5749839674134E-02
 0.1000763417889E-02 -0.8991318803313E-02  0.0000000000000E+00  0.6740848481862E-02
 0.6429032206083E-03 -0.8765352846670E-02  0.0000000000000E+00  0.7589733320855E-02
 0.1165475242113E-03 -0.8161043501170E-02  0.0000000000000E+00  0.8124151491945E-02
-0.5230890521188E-03 -0.6820330510843E-02  0.0000000000000E+00  0.7206012197276E-02
 0.1635855059518E-02 -0.5619929099542E-02  0.0000000000000E+00  0.2170563219136E-02
 0.1300226502098E-01 -0.7578875424767E-02  0.0000000000000E+00  0.8172360343028E-03
 0.4215823261386E-03 -0.6265171675483E-02  0.0000000000000E+00 -0.2255440264616E-02
 0.1105476920444E-02 -0.6522237506632E-02  0.0000000000000E+00 -0.1541808549228E-02
 0.1429034406393E-02 -0.6504367265441E-02  0.0000000000000E+00 -0.6718907177442E-03
 0.1507851366591E-02 -0.6420604330870E-02  0.0000000000000E+00 -0.1415155713024E-03
 0.1532910336838E-02 -0.6404046490093E-02  0.0000000000000E+00  0.1727531467165E-03
 0.1552620084437E-02 -0.6455412608265E-02  0.0000000000000E+00  0.4201002001964E-03
 0.1572703239539E-02 -0.6566807817201E-02  0.0000000000000E+00  0.6646876951381E-03
 0.1592346594570E-02 -0.6737632386375E-02  0.0000000000000E+00  0.9541973721227E-03
 0.1599738319472E-02 -0.6964631726134E-02  0.0000000000000E+00  0.1336233176836E-02
 0.1572642167799E-02 -0.7230967027421E-02  0.0000000000000E+00  0.1843830169284E-02
 0.1498231307888E-02 -0.7505603883038E-02  0.0000000000000E+00  0.2471639686826E-02
 0.1388524243255E-02 -0.7758664973520E-02  0.0000000000000E+00  0.3189724101918E-02
 0.1256529384805E-02 -0.7962157387454E-02  0.0000000000000E+00  0.3974344614039E-02
 0.1094104471483E-02 -0.8078531100751E-02  0.0000000000000E+00  0.4786974263732E-02
 0.8869403205346E-03 -0.8065744157585E-02  0.0000000000000E+00  0.5547124924544E-02
 0.6298170880909E-03 -0.7876716888167E-02  0.0000000000000E+00  0.6139370516993E-02
 0.3260375733128E-03 -0.7439586672521E-02  0.0000000000000E+00  0.6390437157517E-02
 0.2507408567532E-04 -0.6628945465937E-02  0.0000000000000E+00  0.5876958416632E-02
 0.3505766172893E-03 -0.5503827238043E-02  0.0000000000000E+00  0.3459609248281E-02
 0.3760928955880E-02 -0.5268121651784E-02  0.0000000000000E+00 -0.1097358545667E-02
 0.1244779484277E-01 -0.6958886822714E-02  0.0000000000000E+00 -0.6408650423546E-03
 0.3506866280733E-03 -0.6126932063778E-02  0.0000000000000E+00 -0.2027478177400E-02
 0.9614645280569E-03 -0.6408916512681E-02  0.0000000000000E+00 -0.1514835816252E-02
 0.1321262086941E-02 -0.6486329800166E-02  0.0000000000000E+00 -0.7679255651990E-03
 0.1454876180069E-02 -0.6460202507371E-02  0.0000000000000E+00 -0.1958623571836E-03
 0.1500750042088E-02 -0.6451309900455E-02  0.0000000000000E+00  0.1908081290497E-03
 0.1521582655712E-02 -0.6490688997394E-02  0.0000000000000E+00  0.4998359310807E-03
 0.1531780989722E-02 -0.6578069932280E-02  0.0000000000000E+00  0.8038807702633E-03
 0.1530318912227E-02 -0.6710133460151E-02  0.0000000000000E+00  0.1153755544750E-02
 0.1504828940880E-02 -0.6877020068214E-02  0.0000000000000E+00  0.1590014269338E-02
 0.1436668539034E-02 -0.7056857005815E-02  0.0000000000000E+00  0.2128528669381E-02
 0.1318761063579E-02 -0.7221110897627E-02  0.0000000000000E+00  0.2748238022233E-02
 0.1166027171629E-02 -0.7348132274677E-02  0.0000000000000E+00  0.3409866656623E-02
 0.9956919303720E-03 -0.7418496736403E-02  0.0000000000000E+00  0.4079080514242E-02
 0.8093873967322E-03 -0.7400711871029E-02  0.0000000000000E+00  0.4705649614285E-02
 0.6052757071559E-03 -0.7255480405337E-02  0.0000000000000E+00  0.5194065163030E-02
 0.3960696864795E-03 -0.6941275325580E-02  0.0000000000000E+00  0.5399011273658E-02
 0.2282219040615E-03 -0.6407822404926E-02  0.0000000000000E+00  0.5085480697535E-02
 0.3047605967440E-03 -0.5640788122895E-02  0.0000000000000E+00  0.3779682823405E-02
 0.1409252495293E-02 -0.4955243071203E-02  0.0000000000000E+00  0.8843132024951E-03
 0.5149820735102E-02 -0.5282987166215E-02  0.0000000000000E+00 -0.2557647102633E-02
 0.1184323959411E-01 -0.6651214363234E-02  0.0000000000000E+00 -0.1253667243765E-02
 0.3017254694922E-03 -0.6036695602165E-02  0.0000000000000E+00 -0.1815504734642E-02
 0.8490917284964E-03 -0.6317379466259E-02  0.0000000000000E+00 -0.1428125773852E-02
 0.1216255310176E-02 -0.6447168662927E-02  0.0000000000000E+00 -0.7956815104160E-03
 0.1387106602816E-02 -0.6468423060738E-02  0.0000000000000E+00 -0.2281291738405E-03
 0.1453730967580E-02 -0.6472970268179E-02  0.0000000000000E+00  0.2039740027755E-03
 0.1476947393555E-02 -0.6502934169150E-02  0.0000000000000E+00  0.5628568589424E-03
 0.1477020303062E-02 -0.6565788209452E-02  0.0000000000000E+00  0.9148482214591E-03
 0.1454521192372E-02 -0.6657431082413E-02  0.0000000000000E+00  0.1308980624243E-02
 0.1398861127635E-02 -0.6764926535397E-02  0.0000000000000E+00  0.1777093038666E-02
 0.1296460137726E-02 -0.6865872211557E-02  0.0000000000000E+00  0.2322393809670E-02
 0.1145727230197E-02 -0.6935586964072E-02  0.0000000000000E+00  0.2914863598207E-02
 0.9642194945590E-03 -0.6958121291858E-02  0.0000000000000E+00  0.3509234286440E-02
 0.7732672001536E-03 -0.6920285368688E-02  0.0000000000000E+00  0.4060974497182E-02
 0.5845864388720E-03 -0.6798082111346E-02  0.0000000000000E+00  0.4507042931187E-02
 0.4112307353765E-03 -0.6561124954082E-02  0.0000000000000E+00  0.4739363478012E-02
 0.2884413986469E-03 -0.6182773156750E-02  0.0000000000000E+00  0.4594877739398E-02
 0.3136255196765E-03 -0.5653430918977E-02  0.0000000000000E+00  0.3823330873447E-02
 0.7780095268145E-03 -0.5060881256266E-02  0.0000000000000E+00  0.2068046365575E-02
 0.2383053311942E-02 -0.4778825106017E-02  0.0000000000000E+00 -0.7461908183063E-03
 0.6030725131172E-02 -0.5377826631795E-02  0.0000000000000E+00 -0.3163608621139E-02
 0.1131481890063E-01 -0.6489579176937E-02  0.0000000000000E+00 -0.1583726906924E-02
 0.2658625372360E-03 -0.5974482372652E-02  0.0000000000000E+00 -0.1620511877698E-02
 0.7595984860459E-03 -0.6243814065508E-02  0.0000000000000E+00 -0.1314963256524E-02
 0.1119237651439E-02 -0.6400167398546E-02  0.0000000000000E+00 -0.7781771237342E-03
 0.1312120898864E-02 -0.6455177838685E-02  0.0000000000000E+00 -0.2380314793922E-03
 0.1395551556917E-02 -0.6472994283954E-02  0.0000000000000E+00  0.2155573447099E-03
 0.1421219429476E-02 -0.6495149476771E-02  0.0000000000000E+00  0.6095024797039E-03
 0.1411514764024E-02 -0.6533774949749E-02  0.0000000000000E+00  0.9963774621767E-03
 0.1369332644388E-02 -0.6585454172498E-02  0.0000000000000E+00  0.1419009771589E-02
 0.1287309099238E-02 -0.6636797262114E-02  0.0000000000000E+00  0.1900606907274E-02
 0.1157347900444E-02 -0.6667228762142E-02  0.0000000000000E+00  0.2435271044766E-02
 0.9830367424541E-03 -0.6656407126057E-02  0.0000000000000E+00  0.2987628512347E-02
 0.7848730971822E-03 -0.6593179612002E-02  0.0000000000000E+00  0.3508315615554E-02
 0.5887257847907E-03 -0.6469999030539E-02  0.0000000000000E+00  0.3944402282157E-02
 0.4164474530943E-03 -0.6271523812576E-02  0.0000000000000E+00  0.4222372640939E-02
 0.2965545585637E-03 -0.5979856708378E-02  0.0000000000000E+00  0.4226809559661E-02
 0.2877104346310E-03 -0.5589005804278E-02  0.0000000000000E+00  0.3792942804619E-02
 0.5254959349442E-03 -0.5131496191141E-02  0.0000000000000E+00  0.2704443157310E-02
 0.1317979673243E-02 -0.4750971868524E-02  0.0000000000000E+00  0.7770952801611E-03
 0.3198431654338E-02 -0.4772594546608E-02  0.0000000000000E+00 -0.1723765724452E-02
 0.6590172419268E-02 -0.5480610128397E-02  0.0000000000000E+00 -0.3367974022771E-02
 0.1087966407074E-01 -0.6406370266048E-02  0.0000000000000E+00 -0.1788868951736E-02
 0.2382358429349E-03 -0.5929443752212E-02  0.0000000000000E+00 -0.1441303927073E-02
 0.6866495611412E-03 -0.6183808100597E-02  0.0000000000000E+00 -0.1191926419313E-02
 0.1031469300378E-02 -0.6351379428514E-02  0.0000000000000E+00 -0.7327762439042E-03
 0.1234962312235E-02 -0.6428074362496E-02  0.0000000000000E+00 -0.2301181877510E-03
 0.1330040914339E-02 -0.6456039524862E-02  0.0000000000000E+00  0.2264858863150E-03
 0.1357278902068E-02 -0.6470839538998E-02  0.0000000000000E+00  0.6402979266608E-03
 0.1338436024038E-02 -0.6486132567435E-02  0.0000000000000E+00  0.1048489026984E-02
 0.1278656643492E-02 -0.6499742476817E-02  0.0000000000000E+00  0.1485106827282E-02
 0.1174450281114E-02 -0.6499514253199E-02  0.0000000000000E+00  0.1965328996340E-02
 0.1023166270326E-02 -0.6467922692327E-02  0.0000000000000E+00  0.2476748510361E-02
 0.8333251073477E-03 -0.6389178372722E-02  0.0000000000000E+00  0.2980790555863E-02
 0.6287816642106E-03 -0.6256715675576E-02  0.0000000000000E+00  0.3425482515959E-02
 0.4403670565709E-03 -0.6068684917918E-02  0.0000000000000E+00  0.3751956267503E-02
 0.2997238366666E-03 -0.5819108716383E-02  0.0000000000000E+00  0.3880080202245E-02
 0.2499390205462E-03 -0.5504187510861E-02  0.0000000000000E+00  0.3693784309735E-02
 0.3690601426529E-03 -0.5139439828874E-02  0.0000000000000E+00  0.3042897444091E-02
 0.8104133884352E-03 -0.4788500485154E-02  0.0000000000000E+00  0.1772983704626E-02
 0.1852481586911E-02 -0.4608673279082E-02  0.0000000000000E+00 -0.1433038314085E-03
 0.3856938294455E-02 -0.4841544941203E-02  0.0000000000000E+00 -0.2271314916996E-02
 0.6951860285838E-02 -0.5579539025843E-02  0.0000000000000E+00 -0.3380939108971E-02
 0.1052406619503E-01 -0.6370958440824E-02  0.0000000000000E+00 -0.1920131081140E-02
 0.2160664179769E-03 -0.5895336287860E-02  0.0000000000000E+00 -0.1276312594916E-02
 0.6258893687835E-03 -0.6133830654911E-02  0.0000000000000E+00 -0.1067522629917E-02
 0.9527116052479E-03 -0.6303525756565E-02  0.0000000000000E+00 -0.6715180237308E-03
 0.1158823497088E-02 -0.6392500309730E-02  0.0000000000000E+00 -0.2100204435425E-03
 0.1260605195837E-02 -0.6426603483830E-02  0.0000000000000E+00  0.2360879360472E-03
 0.1288080430000E-02 -0.6433746628255E-02  0.0000000000000E+00  0.6557529244387E-03
 0.1260837521955E-02 -0.6426951031675E-02  0.0000000000000E+00  0.1072159969206E-02
 0.1185858324675E-02 -0.6405266461076E-02  0.0000000000000E+00  0.1509849135682E-02
 0.1063614640512E-02 -0.6358684054195E-02  0.0000000000000E+00  0.1976806515224E-02
 0.8966439584031E-03 -0.6273329414023E-02  0.0000000000000E+00  0.2456007073389E-02
 0.6981874355668E-03 -0.6138055699929E-02  0.0000000000000E+00  0.2907176441287E-02
 0.4957821089697E-03 -0.5950916260144E-02  0.0000000000000E+00  0.3277143542803E-02
 0.3254144305982E-03 -0.5715926742428E-02  0.0000000000000E+00  0.3503787710908E-02
 0.2277432811858E-03 -0.5436651075870E-02  0.0000000000000E+00  0.3504654543497E-02
 0.2581678339733E-03 -0.5123244985269E-02  0.0000000000000E+00  0.3169792883319E-02
 0.5071541204930E-03 -0.4809497362681E-02  0.0000000000000E+00  0.2375181012819E-02
 0.1127454631891E-02 -0.4575769844725E-02  0.0000000000000E+00  0.1034449599982E-02
 0.2346114322448E-02 -0.4566533231379E-02  0.0000000000000E+00 -0.7654366320533E-03
 0.4382729205805E-02 -0.4941238443997E-02  0.0000000000000E+00 -0.2536056008296E-02
 0.7194418324607E-02 -0.5679297871358E-02  0.0000000000000E+00 -0.3296314303373E-02
 0.1022840998382E-01 -0.6369475605958E-02  0.0000000000000E+00 -0.2005613605205E-02
 0.1977152312054E-03 -0.5868433711676E-02  0.0000000000000E+00 -0.1124043825333E-02
 0.5743838727646E-03 -0.6091348749702E-02  0.0000000000000E+00 -0.9461599671291E-03
 0.8822809789954E-03 -0.6257843572546E-02  0.0000000000000E+00 -0.6024605309993E-03
 0.1085716506474E-02 -0.6352232841662E-02  0.0000000000000E+00 -0.1828774261825E-03
 0.1190081397014E-02 -0.6388666375694E-02  0.0000000000000E+00  0.2429962328931E-03
 0.1216416200753E-02 -0.6387558716664E-02  0.0000000000000E+00  0.6563512854074E-03
 0.1181528944010E-02 -0.6360118027734E-02  0.0000000000000E+00  0.1069008496164E-02
 0.1093780039474E-02 -0.6306383950910E-02  0.0000000000000E+00  0.1496575378594E-02
 0.9573707596813E-03 -0.6218866687776E-02  0.0000000000000E+00  0.1940870880144E-02
 0.7796544786646E-03 -0.6087569471767E-02  0.0000000000000E+00  0.2381708215830E-02
 0.5783675304680E-03 -0.5905983108996E-02  0.0000000000000E+00  0.2778323958297E-02
 0.3848816601322E-03 -0.5676825879859E-02  0.0000000000000E+00  0.3077745174968E-02
 0.2402482720500E-03 -0.5410021624995E-02  0.0000000000000E+00  0.3217218352986E-02
 0.1929631350612E-03 -0.5118309960651E-02  0.0000000000000E+00  0.3116027707876E-02
 0.3075795574524E-03 -0.4824252953677E-02  0.0000000000000E+00  0.2675769006557E-02
 0.6795951461820E-03 -0.4574645110674E-02  0.0000000000000E+00  0.1803677232286E-02
 0.1448520766989E-02 -0.4454219748785E-02  0.0000000000000E+00  0.4736881098532E-03
 0.2785026588671E-02 -0.4582228704115E-02  0.0000000000000E+00 -0.1157186824066E-02
 0.4800891896709E-02 -0.5050252534698E-02  0.0000000000000E+00 -0.2613420348519E-02
 0.7369430822722E-02 -0.5781849351417E-02  0.0000000000000E+00 -0.3141947096387E-02
 0.9972641590873E-02 -0.6404615048518E-02  0.0000000000000E+00 -0.2078119469970E-02
 0.1821437004213E-03 -0.5846473415854E-02  0.0000000000000E+00 -0.9831838334976E-03
 0.5301719993127E-03 -0.6054660714748E-02  0.0000000000000E+00 -0.8301693356523E-03
 0.8195024830386E-03 -0.6214980846030E-02  0.0000000000000E+00 -0.5309913290575E-03
 0.1017024749996E-02 -0.6310038887423E-02  0.0000000000000E+00 -0.1529157183549E-03
 0.1120897979515E-02 -0.6345708218961E-02  0.0000000000000E+00  0.2457134261168E-03
 0.1144972138687E-02 -0.6335852971658E-02  0.0000000000000E+00  0.6426254660057E-03
 0.1103257327291E-02 -0.6289427182460E-02  0.0000000000000E+00  0.1041109296175E-02
 0.1005113774726E-02 -0.6207210084596E-02  0.0000000000000E+00  0.1449171441239E-02
 0.8580803552552E-03 -0.6084278121176E-02  0.0000000000000E+00  0.1863657929757E-02
 0.6738709748636E-03 -0.5914489866398E-02  0.0000000000000E+00  0.2262460959192E-02
 0.4744161208893E-03 -0.5695849858861E-02  0.0000000000000E+00  0.2605409832363E-02
 0.2948544466282E-03 -0.5435665476155E-02  0.0000000000000E+00  0.2841071670838E-02
 0.1809068186060E-03 -0.5149552466271E-02  0.0000000000000E+00  0.2908406969441E-02
 0.1873798172554E-03 -0.4858518593590E-02  0.0000000000000E+00  0.2731762421662E-02
 0.3845282479222E-03 -0.4595066272504E-02  0.0000000000000E+00  0.2227468747879E-02
 0.8666738965091E-03 -0.4413476104666E-02  0.0000000000000E+00  0.1333408534809E-02
 0.1753371467022E-02 -0.4394405096699E-02  0.0000000000000E+00  0.6946108288745E-04
 0.3163187102915E-02 -0.4628770988892E-02  0.0000000000000E+00 -0.1373241488408E-02
 0.5132113625822E-02 -0.5157856982762E-02  0.0000000000000E+00 -0.2566407988139E-02
 0.7493632206843E-02 -0.5878108398712E-02  0.0000000000000E+00 -0.2931930280407E-02
 0.9805937512088E-02 -0.6489243142821E-02  0.0000000000000E+00 -0.2106700804580E-02
 0.1688564051113E-03 -0.5828078515526E-02  0.0000000000000E+00 -0.8525062287640E-03
 0.4920176043443E-03 -0.6022654344651E-02  0.0000000000000E+00 -0.7205116560607E-03
 0.7638376713681E-03 -0.6175304457910E-02  0.0000000000000E+00 -0.4603990866517E-03
 0.9536380668857E-03 -0.6267921577304E-02  0.0000000000000E+00 -0.1231307827076E-03
 0.1054880341386E-02 -0.6300562024445E-02  0.0000000000000E+00  0.2431338638370E-03
 0.1075875271456E-02 -0.6281704167396E-02  0.0000000000000E+00  0.6153785012498E-03
 0.1028121531351E-02 -0.6218046680199E-02  0.0000000000000E+00  0.9909406180604E-03
 0.9217039542838E-03 -0.6110909123893E-02  0.0000000000000E+00  0.1371851630433E-02
 0.7670627653305E-03 -0.5957801279764E-02  0.0000000000000E+00  0.1751232976221E-02
 0.5797933238334E-03 -0.5756256089854E-02  0.0000000000000E+00  0.2106141102923E-02
 0.3856709800649E-03 -0.5508565596933E-02  0.0000000000000E+00  0.2397967255129E-02
 0.2233788720531E-03 -0.5226424822077E-02  0.0000000000000E+00  0.2578025193947E-02
 0.1427273733198E-03 -0.4930723114112E-02  0.0000000000000E+00  0.2588907217621E-02
 0.2032310694029E-03 -0.4649528937884E-02  0.0000000000000E+00  0.2362341942820E-02
 0.4777416340316E-03 -0.4422608531932E-02  0.0000000000000E+00  0.1830414422739E-02
 0.1055072876387E-02 -0.4307133331439E-02  0.0000000000000E+00  0.9575539194370E-03
 0.2032506088980E-02 -0.4374925035575E-02  0.0000000000000E+00 -0.2055033990007E-03
 0.3484488545712E-02 -0.4690316298911E-02  0.0000000000000E+00 -0.1459147712018E-02
 0.5395627288845E-02 -0.5259165948005E-02  0.0000000000000E+00 -0.2433309505325E-02
 0.7583355545460E-02 -0.5966948276408E-02  0.0000000000000E+00 -0.2693626308213E-02
 0.9692125900847E-02 -0.6575186875475E-02  0.0000000000000E+00 -0.2000559924389E-02
 0.1574291460957E-03 -0.5812420683675E-02  0.0000000000000E+00 -0.7308641840646E-03
 0.4590404185599E-03 -0.5994633583774E-02  0.0000000000000E+00 -0.6173699901593E-03
 0.7147801185570E-03 -0.6139058872344E-02  0.0000000000000E+00 -0.3925764356836E-03
 0.8960645994138E-03 -0.6227344284657E-02  0.0000000000000E+00 -0.9550316489823E-04
 0.9933273433656E-03 -0.6255464532490E-02  0.0000000000000E+00  0.2345371574306E-03
 0.1010727246236E-02 -0.6227624929697E-02  0.0000000000000E+00  0.5754639760058E-03
 0.9576573505169E-03 -0.6148483742965E-02  0.0000000000000E+00  0.9208325009407E-03
 0.8447438766902E-03 -0.6019755685847E-02  0.0000000000000E+00  0.1268340928403E-02
 0.6849091802012E-03 -0.5841160112923E-02  0.0000000000000E+00  0.1608608974169E-02
 0.4971614371833E-03 -0.5613627521347E-02  0.0000000000000E+00  0.1918832359905E-02
 0.3107461389274E-03 -0.5343436891702E-02  0.0000000000000E+00  0.2162835621875E-02
 0.1675778750565E-03 -0.5046374741776E-02  0.0000000000000E+00  0.2295718428336E-02
 0.1209129135841E-03 -0.4748065277465E-02  0.0000000000000E+00  0.2265175838739E-02
 0.2335077971946E-03 -0.4482362317982E-02  0.0000000000000E+00  0.2011700623793E-02
 0.5783843729343E-03 -0.4293898544541E-02  0.0000000000000E+00  0.1482576612195E-02
 0.1236305572740E-02 -0.4239472236820E-02  0.0000000000000E+00  0.6632403313948E-03
 0.2282675047074E-02 -0.4380052999355E-02  0.0000000000000E+00 -0.3778981275954E-03
 0.3756205451722E-02 -0.4757066374600E-02  0.0000000000000E+00 -0.1449139774320E-02
 0.5607141081744E-02 -0.5351885398217E-02  0.0000000000000E+00 -0.2240868930554E-02
 0.7652075644363E-02 -0.6048779549310E-02  0.0000000000000E+00 -0.2428806948002E-02
 0.9593276151831E-02 -0.6648873308339E-02  0.0000000000000E+00 -0.1862288831130E-02
 0.1476376984088E-03 -0.5799022828244E-02  0.0000000000000E+00 -0.6171863479085E-03
 0.4307123824077E-03 -0.5970223682475E-02  0.0000000000000E+00 -0.5205795521942E-03
 0.6720571031420E-03 -0.6106521178026E-02  0.0000000000000E+00 -0.3285911379768E-03
 0.8447821563437E-03 -0.6189518141977E-02  0.0000000000000E+00 -0.7128781831504E-04
 0.9373904944794E-03 -0.6212328044883E-02  0.0000000000000E+00  0.2195856151282E-03
 0.9509999659482E-03 -0.6175860988123E-02  0.0000000000000E+00  0.5238968862288E-03
 0.8933288399569E-03 -0.6083053056068E-02  0.0000000000000E+00  0.8331719364899E-03
 0.7754292658919E-03 -0.5935925372358E-02  0.0000000000000E+00  0.1142309326385E-02
 0.6123159605914E-03 -0.5736147013245E-02  0.0000000000000E+00  0.1440597288489E-02
 0.4259440385568E-03 -0.5487702502844E-02  0.0000000000000E+00  0.1706274301663E-02
 0.2486147283609E-03 -0.5200479008505E-02  0.0000000000000E+00  0.1906386643109E-02
 0.1250795388133E-03 -0.4893956201388E-02  0.0000000000000E+00  0.2000682231780E-02
 0.1113648435812E-03 -0.4597851656196E-02  0.0000000000000E+00  0.1942995198658E-02
 0.2722020339627E-03 -0.4350540409515E-02  0.0000000000000E+00  0.1683139679914E-02
 0.6790652559438E-03 -0.4199531652190E-02  0.0000000000000E+00  0.1181947259939E-02
 0.1403580607162E-02 -0.4199178268814E-02  0.0000000000000E+00  0.4398941506844E-03
 0.2501284662450E-02 -0.4399377774971E-02  0.0000000000000E+00 -0.4676644817982E-03
 0.3982975145056E-02 -0.4822867122397E-02  0.0000000000000E+00 -0.1367033560602E-02
 0.5776807335644E-02 -0.5434738864750E-02  0.0000000000000E+00 -0.2005863348486E-02
 0.7705377048346E-02 -0.6122693155641E-02  0.0000000000000E+00 -0.2144574098759E-02
 0.9515818684092E-02 -0.6718927633434E-02  0.0000000000000E+00 -0.1691249226206E-02
 0.1393498421307E-03 -0.5787631337103E-02  0.0000000000000E+00 -0.5104257079675E-03
 0.4067089715826E-03 -0.5949248061461E-02  0.0000000000000E+00 -0.4296829782902E-03
 0.6355082510842E-03 -0.6077969002057E-02  0.0000000000000E+00 -0.2688562525584E-03
 0.8001704017970E-03 -0.6155421961172E-02  0.0000000000000E+00 -0.5109227152009E-04
 0.8879840558234E-03 -0.6172719891013E-02  0.0000000000000E+00  0.1983443256136E-03
 0.8978860649786E-03 -0.6128290945102E-02  0.0000000000000E+00  0.4618716217165E-03
 0.8363183722593E-03 -0.6023690126848E-02  0.0000000000000E+00  0.7303628481109E-03
 0.7146843366507E-03 -0.5861192048524E-02  0.0000000000000E+00  0.9972671448883E-03
 0.5497343747702E-03 -0.5644142475829E-02  0.0000000000000E+00  0.1251611996824E-02
 0.3659139696751E-03 -0.5379192315905E-02  0.0000000000000E+00  0.1473500217986E-02
 0.1981407057298E-03 -0.5079396281425E-02  0.0000000000000E+00  0.1633892178188E-02
 0.9356557361863E-04 -0.4767454336053E-02  0.0000000000000E+00  0.1697861777385E-02
 0.1103408942843E-03 -0.4476493016139E-02  0.0000000000000E+00  0.1626029862240E-02
 0.3141775994532E-03 -0.4248263316575E-02  0.0000000000000E+00  0.1377465731364E-02
 0.7739776978614E-03 -0.4131657322969E-02  0.0000000000000E+00  0.9243270657093E-03
 0.1552242916316E-02 -0.4177516994585E-02  0.0000000000000E+00  0.2765204643933E-03
 0.2687446695887E-02 -0.4425526131265E-02  0.0000000000000E+00 -0.4918576337465E-03
 0.4169233178957E-02 -0.4883791259171E-02  0.0000000000000E+00 -0.1230799224287E-02
 0.5912104332190E-02 -0.5506990806488E-02  0.0000000000000E+00 -0.1739833019776E-02
 0.7747520110858E-02 -0.6188449982267E-02  0.0000000000000E+00 -0.1844010448663E-02
 0.9456609175652E-02 -0.6784783829885E-02  0.0000000000000E+00 -0.1488453313227E-02
 0.1324911279458E-03 -0.5778131605594E-02  0.0000000000000E+00 -0.4095416264740E-03
 0.3868399651908E-03 -0.5931656403718E-02  0.0000000000000E+00 -0.3440236747002E-03
 0.6050540602405E-03 -0.6053674612605E-02  0.0000000000000E+00 -0.2133166989545E-03
 0.7625377669448E-03 -0.6125851609101E-02  0.0000000000000E+00 -0.3501661625362E-04
 0.8458289589501E-03 -0.6137910888589E-02  0.0000000000000E+00  0.1712283624123E-03
 0.8523344368775E-03 -0.6086455072321E-02  0.0000000000000E+00  0.3907419226463E-03
 0.7875607375099E-03 -0.5971978985718E-02  0.0000000000000E+00  0.6148016549682E-03
 0.6632071523630E-03 -0.5796974939231E-02  0.0000000000000E+00  0.8365432959609E-03
 0.4974323601512E-03 -0.5566188461962E-02  0.0000000000000E+00  0.1045671795625E-02
 0.3167282660018E-03 -0.5288520349628E-02  0.0000000000000E+00  0.1224877669239E-02
 0.1581785659617E-03 -0.4979707324857E-02  0.0000000000000E+00  0.1349621293876E-02
 0.7088533819239E-04 -0.4665150470886E-02  0.0000000000000E+00  0.1390806024184E-02
 0.1145574418110E-03 -0.4380706698077E-02  0.0000000000000E+00  0.1316176227312E-02
 0.3551844112295E-03 -0.4170535848234E-02  0.0000000000000E+00  0.1093590259851E-02
 0.8586767076840E-03 -0.4083907623124E-02  0.0000000000000E+00  0.7041620064589E-03
 0.1679189508858E-02 -0.4167857973220E-02  0.0000000000000E+00  0.1623846014214E-03
 0.2841221588703E-02 -0.4453298212437E-02  0.0000000000000E+00 -0.4648793788594E-03
 0.4318836788297E-02 -0.4937288438476E-02  0.0000000000000E+00 -0.1054118456401E-02
 0.6018505069139E-02 -0.5568145376310E-02  0.0000000000000E+00 -0.1450802379310E-02
 0.7780781717266E-02 -0.6245299211038E-02  0.0000000000000E+00 -0.1529144236875E-02
 0.9412663409929E-02 -0.6844036966511E-02  0.0000000000000E+00 -0.1257728876246E-02
 0.1270227117378E-03 -0.5770491343629E-02  0.0000000000000E+00 -0.3134886302186E-03
 0.3710013392703E-03 -0.5917471557157E-02  0.0000000000000E+00 -0.2628050859836E-03
 0.5806680487330E-03 -0.6033892206425E-02  0.0000000000000E+00 -0.1615813852058E-03
 0.7321346358644E-03 -0.6101448091598E-02  0.0000000000000E+00 -0.2277176493570E-04
 0.8114855038670E-03 -0.6108912596284E-02  0.0000000000000E+00  0.1389407913466E-03
 0.8150832945418E-03 -0.6051585176697E-02  0.0000000000000E+00  0.3119944214039E-03
 0.7477767757017E-03 -0.5929182529349E-02  0.0000000000000E+00  0.4888631990029E-03
 0.6215110291307E-03 -0.5744382484312E-02  0.0000000000000E+00  0.6632845467135E-03
 0.4555483893138E-03 -0.5503052302475E-02  0.0000000000000E+00  0.8264251479879E-03
 0.2779968977081E-03 -0.5215907684569E-02  0.0000000000000E+00  0.9641728474536E-03
 0.1276564327639E-03 -0.4900852183832E-02  0.0000000000000E+00  0.1056962382263E-02
 0.5514331827792E-04 -0.4585446363638E-02  0.0000000000000E+00  0.1081879029671E-02
 0.1212497250545E-03 -0.4307636779591E-02  0.0000000000000E+00  0.1013907692275E-02
 0.3918219654307E-03 -0.4113220968953E-02  0.0000000000000E+00  0.8290369998026E-03
 0.9298471382923E-03 -0.4051267140469E-02  0.0000000000000E+00  0.5151208327765E-03
 0.1782411451960E-02 -0.4165261031957E-02  0.0000000000000E+00  0.8732306353794E-04
 0.2963121958191E-02 -0.4479049391987E-02  0.0000000000000E+00 -0.3988942641344E-03
 0.4434946004947E-02 -0.4981672550672E-02  0.0000000000000E+00 -0.8475894515930E-03
 0.6099861998509E-02 -0.5617750438451E-02  0.0000000000000E+00 -0.1144644616880E-02
 0.7806490195816E-02 -0.6292243331983E-02  0.0000000000000E+00 -0.1202238919038E-02
 0.9381156785156E-02 -0.6894405643460E-02  0.0000000000000E+00 -0.1003453481672E-02
 0.1229267676723E-03 -0.5764721832359E-02  0.0000000000000E+00 -0.2212107892017E-03
 0.3591418847026E-03 -0.5906750934849E-02  0.0000000000000E+00 -0.1851309552197E-03
 0.5623541223176E-03 -0.6018844017911E-02  0.0000000000000E+00 -0.1130193892769E-03
 0.7091592275852E-03 -0.6082713323861E-02  0.0000000000000E+00 -0.1377760112177E-04
 0.7853773251364E-03 -0.6086505164131E-02  0.0000000000000E+00  0.1024107846629E-03
 0.7866886470269E-03 -0.6024631901548E-02  0.0000000000000E+00  0.2272205334545E-03
 0.7175038540505E-03 -0.5896271638898E-02  0.0000000000000E+00  0.3548943822757E-03
 0.5899607490333E-03 -0.5704251271663E-02  0.0000000000000E+00  0.4804701669775E-03
 0.4241371362436E-03 -0.5455280922261E-02  0.0000000000000E+00  0.5971938948940E-03
 0.2493399028947E-03 -0.5161444749555E-02  0.0000000000000E+00  0.6946346151006E-03
 0.1056425711063E-03 -0.4842280436247E-02  0.0000000000000E+00  0.7585641063140E-03
 0.4476275607880E-04 -0.4526960827057E-02  0.0000000000000E+00  0.7724806656195E-03
 0.1282012090436E-03 -0.4254934068804E-02  0.0000000000000E+00  0.7185960525359E-03
 0.4214785616180E-03 -0.4073047343693E-02  0.0000000000000E+00  0.5803488894637E-03
 0.9850947587096E-03 -0.4029929066705E-02  0.0000000000000E+00  0.3504680918863E-03
 0.1860649771912E-02 -0.4166142174889E-02  0.0000000000000E+00  0.4182411691708E-04
 0.3053804055338E-02 -0.4500261548602E-02  0.0000000000000E+00 -0.3042945571625E-03
 0.4519998254452E-02 -0.5015811751904E-02  0.0000000000000E+00 -0.6196549734215E-03
 0.6158852800326E-02 -0.5655379336431E-02  0.0000000000000E+00 -0.8260302279096E-03
 0.7825379979222E-02 -0.6328351144209E-02  0.0000000000000E+00 -0.8657438499022E-03
 0.9359708259213E-02 -0.6933944144823E-02  0.0000000000000E+00 -0.7304320957100E-03
 0.1201968702629E-03 -0.5760851441432E-02  0.0000000000000E+00 -0.1316402659132E-03
 0.3512403133602E-03 -0.5899559003441E-02  0.0000000000000E+00 -0.1100348345350E-03
 0.5501293153434E-03 -0.6008707989137E-02  0.0000000000000E+00 -0.6683248411828E-04
 0.6937598295113E-03 -0.6070018824466E-02  0.0000000000000E+00 -0.7244456905822E-05
 0.7678086169012E-03 -0.6071257609845E-02  0.0000000000000E+00  0.6273583194560E-04
 0.7675473461531E-03 -0.6006287627903E-02  0.0000000000000E+00  0.1380894990600E-03
 0.6971215786413E-03 -0.5873950629828E-02  0.0000000000000E+00  0.2152139419098E-03
 0.5688026530793E-03 -0.5677178771868E-02  0.0000000000000E+00  0.2909381466551E-03
 0.4032066113118E-03 -0.5423245058850E-02  0.0000000000000E+00  0.3610315077206E-03
 0.2304328868525E-03 -0.5125148907504E-02  0.0000000000000E+00  0.4190943585494E-03
 0.9139625862798E-04 -0.4803520413791E-02  0.0000000000000E+00  0.4564897521876E-03
 0.3852953799244E-04 -0.4488601344933E-02  0.0000000000000E+00  0.4632685200139E-03
 0.1337531565779E-03 -0.4220805971224E-02  0.0000000000000E+00  0.4288014369399E-03
 0.4422655603685E-03 -0.4047593169535E-02  0.0000000000000E+00  0.3434043232755E-03
 0.1022774190536E-02 -0.4017163383872E-02  0.0000000000000E+00  0.2032868624127E-03
 0.1913149372881E-02 -0.4168019822516E-02  0.0000000000000E+00  0.1697171782730E-04
 0.3113877012146E-02 -0.4515253564138E-02  0.0000000000000E+00 -0.1901505143282E-03
 0.4575754576707E-02 -0.5038953938989E-02  0.0000000000000E+00 -0.3773198494388E-03
 0.6197271362826E-02 -0.5680676916025E-02  0.0000000000000E+00 -0.4989171715463E-03
 0.7837832203130E-02 -0.6352865055690E-02  0.0000000000000E+00 -0.5222732382915E-03
 0.9346465148699E-02 -0.6961151996979E-02  0.0000000000000E+00 -0.4437807719092E-03
 0.1188317933037E-03 -0.5758908002572E-02  0.0000000000000E+00 -0.4369880943130E-04
 0.3472900701492E-03 -0.5895948454120E-02  0.0000000000000E+00 -0.3650344160584E-04
 0.5440114920753E-03 -0.6003608154367E-02  0.0000000000000E+00 -0.2211227106624E-04
 0.6860353679369E-03 -0.6063610374595E-02  0.0000000000000E+00 -0.2241824991644E-05
 0.7589760059644E-03 -0.6063541913942E-02  0.0000000000000E+00  0.2112904926298E-04
 0.7579143822484E-03 -0.5997004055779E-02  0.0000000000000E+00  0.4632370081677E-04
 0.6868717116869E-03 -0.5862677417390E-02  0.0000000000000E+00  0.7211698554077E-04
 0.5581878237642E-03 -0.5663548777961E-02  0.0000000000000E+00  0.9741980568909E-04
 0.3927463471803E-03 -0.5407172930863E-02  0.0000000000000E+00  0.1207922253252E-03
 0.2210409067064E-03 -0.5107007705436E-02  0.0000000000000E+00  0.1400774383565E-03
 0.8440426498812E-04 -0.4784230030532E-02  0.0000000000000E+00  0.1523799271372E-03
 0.3562060232853E-04 -0.4469613851507E-02  0.0000000000000E+00  0.1543758446767E-03
 0.1368037578811E-03 -0.4204045293968E-02  0.0000000000000E+00  0.1425305976458E-03
 0.4529594158439E-03 -0.4035262134304E-02  0.0000000000000E+00  0.1136598799270E-03
 0.1041859717752E-02 -0.4011211047755E-02  0.0000000000000E+00  0.6659657601295E-04
 0.1939491644479E-02 -0.4169334601531E-02  0.0000000000000E+00  0.4313303673037E-05
 0.3143793956228E-02 -0.4522994632795E-02  0.0000000000000E+00 -0.6462864316450E-04
 0.4603353617824E-02 -0.5050635811655E-02  0.0000000000000E+00 -0.1266783329120E-03
 0.6216218904080E-02 -0.5693390921529E-02  0.0000000000000E+00 -0.1668487881355E-03
 0.7844024813432E-02 -0.6365257117662E-02  0.0000000000000E+00 -0.1745649069843E-03
 0.9340163718883E-02 -0.6975012353848E-02  0.0000000000000E+00 -0.1488522447392E-03
 0.1188317933057E-03 -0.5758908002549E-02  0.0000000000000E+00  0.4369880992896E-04
 0.3472900701700E-03 -0.5895948454115E-02  0.0000000000000E+00  0.3650344268759E-04
 0.5440114921401E-03 -0.6003608154397E-02  0.0000000000000E+00  0.2211227209405E-04
 0.6860353680630E-03 -0.6063610374679E-02  0.0000000000000E+00  0.2241824997647E-05
 0.7589760061618E-03 -0.6063541914096E-02  0.0000000000000E+00 -0.2112905141213E-04
 0.7579143825233E-03 -0.5997004056028E-02  0.0000000000000E+00 -0.4632370629175E-04
 0.6868717120424E-03 -0.5862677417766E-02  0.0000000000000E+00 -0.7211699546845E-04
 0.5581878241949E-03 -0.5663548778499E-02  0.0000000000000E+00 -0.9741982106707E-04
 0.3927463476624E-03 -0.5407172931589E-02  0.0000000000000E+00 -0.1207922468623E-03
 0.2210409071861E-03 -0.5107007706351E-02  0.0000000000000E+00 -0.1400774662099E-03
 0.8440426537326E-04 -0.4784230031603E-02  0.0000000000000E+00 -0.1523799605748E-03
 0.3562060248486E-04 -0.4469613852649E-02  0.0000000000000E+00 -0.1543758817162E-03
 0.1368037576376E-03 -0.4204045295044E-02  0.0000000000000E+00 -0.1425306347065E-03
 0.4529594150202E-03 -0.4035262135127E-02  0.0000000000000E+00 -0.1136599116812E-03
 0.1041859716223E-02 -0.4011211048129E-02  0.0000000000000E+00 -0.6659659582402E-04
 0.1939491642275E-02 -0.4169334601325E-02  0.0000000000000E+00 -0.4313304926923E-05
 0.3143793953623E-02 -0.4522994632022E-02  0.0000000000000E+00  0.6462866479524E-04
 0.4603353615353E-02 -0.5050635810502E-02  0.0000000000000E+00  0.1266783769078E-03
 0.6216218902402E-02 -0.5693390920266E-02  0.0000000000000E+00  0.1668488476059E-03
 0.7844024813063E-02 -0.6365257116456E-02  0.0000000000000E+00  0.1745649694151E-03
 0.9340163719924E-02 -0.6975012352566E-02  0.0000000000000E+00  0.1488522953186E-03
 0.1201968702687E-03 -0.5760851441361E-02  0.0000000000000E+00  0.1316402664146E-03
 0.3512403134221E-03 -0.5899559003424E-02  0.0000000000000E+00  0.1100348356349E-03
 0.5501293155370E-03 -0.6008707989229E-02  0.0000000000000E+00  0.6683248518016E-04
 0.6937598298881E-03 -0.6070018824714E-02  0.0000000000000E+00  0.7244456965431E-05
 0.7678086174906E-03 -0.6071257610303E-02  0.0000000000000E+00 -0.6273583401094E-04
 0.7675473469738E-03 -0.6006287628644E-02  0.0000000000000E+00 -0.1380895044059E-03
 0.6971215797034E-03 -0.5873950630949E-02  0.0000000000000E+00 -0.2152139516521E-03
 0.5688026543685E-03 -0.5677178773475E-02  0.0000000000000E+00 -0.2909381617942E-03
 0.4032066127587E-03 -0.5423245061021E-02  0.0000000000000E+00 -0.3610315289890E-03
 0.2304328882986E-03 -0.5125148910251E-02  0.0000000000000E+00 -0.4190943861529E-03
 0.9139625979963E-04 -0.4803520417012E-02  0.0000000000000E+00 -0.4564897854686E-03
 0.3852953848904E-04 -0.4488601348384E-02  0.0000000000000E+00 -0.4632685570880E-03
 0.1337531558863E-03 -0.4220805974493E-02  0.0000000000000E+00 -0.4288014743360E-03
 0.4422655579429E-03 -0.4047593172061E-02  0.0000000000000E+00 -0.3434043557532E-03
 0.1022774185991E-02 -0.4017163385062E-02  0.0000000000000E+00 -0.2032868833392E-03
 0.1913149366284E-02 -0.4168019821962E-02  0.0000000000000E+00 -0.1697172044966E-04
 0.3113877004310E-02 -0.4515253561867E-02  0.0000000000000E+00  0.1901505346181E-03
 0.4575754569241E-02 -0.5038953935552E-02  0.0000000000000E+00  0.3773198924254E-03
 0.6197271357734E-02 -0.5680676912248E-02  0.0000000000000E+00  0.4989172304412E-03
 0.7837832202009E-02 -0.6352865052095E-02  0.0000000000000E+00  0.5222733002967E-03
 0.9346465151880E-02 -0.6961151993186E-02  0.0000000000000E+00  0.4437808215763E-03
 0.1229267676815E-03 -0.5764721832240E-02  0.0000000000000E+00  0.2212107897105E-03
 0.3591418848046E-03 -0.5906750934819E-02  0.0000000000000E+00  0.1851309563558E-03
 0.5623541226381E-03 -0.6018844018060E-02  0.0000000000000E+00  0.1130193904058E-03
 0.7091592282083E-03 -0.6082713324265E-02  0.0000000000000E+00  0.1377760128651E-04
 0.7853773261095E-03 -0.6086505164878E-02  0.0000000000000E+00 -0.1024107865631E-03
 0.7866886483813E-03 -0.6024631902759E-02  0.0000000000000E+00 -0.2272205385438E-03
 0.7175038558062E-03 -0.5896271640738E-02  0.0000000000000E+00 -0.3548943916472E-03
 0.5899607511718E-03 -0.5704251274312E-02  0.0000000000000E+00 -0.4804701816359E-03
 0.4241371386568E-03 -0.5455280925860E-02  0.0000000000000E+00 -0.5971939156180E-03
 0.2493399053272E-03 -0.5161444754131E-02  0.0000000000000E+00 -0.6946346421914E-03
 0.1056425731114E-03 -0.4842280441646E-02  0.0000000000000E+00 -0.7585641392615E-03
 0.4476275699678E-04 -0.4526960832885E-02  0.0000000000000E+00 -0.7724807027353E-03
 0.1282012080206E-03 -0.4254934074390E-02  0.0000000000000E+00 -0.7185960905720E-03
 0.4214785577299E-03 -0.4073047348100E-02  0.0000000000000E+00 -0.5803489233631E-03
 0.9850947512726E-03 -0.4029929068920E-02  0.0000000000000E+00 -0.3504681150391E-03
 0.1860649760979E-02 -0.4166142174185E-02  0.0000000000000E+00 -0.4182412230491E-04
 0.3053804042215E-02 -0.4500261544973E-02  0.0000000000000E+00  0.3042945747122E-03
 0.4519998241830E-02 -0.5015811746250E-02  0.0000000000000E+00  0.6196550143253E-03
 0.6158852791647E-02 -0.5655379330173E-02  0.0000000000000E+00  0.8260302856204E-03
 0.7825379977300E-02 -0.6328351138299E-02  0.0000000000000E+00  0.8657439110684E-03
 0.9359708264709E-02 -0.6933944138675E-02  0.0000000000000E+00  0.7304321435803E-03
 0.1270227117497E-03 -0.5770491343463E-02  0.0000000000000E+00  0.3134886307382E-03
 0.3710013394106E-03 -0.5917471557113E-02  0.0000000000000E+00  0.2628050871731E-03
 0.5806680491773E-03 -0.6033892206625E-02  0.0000000000000E+00  0.1615813864325E-03
 0.7321346367266E-03 -0.6101448092146E-02  0.0000000000000E+00  0.2277176525286E-04
 0.8114855052098E-03 -0.6108912597296E-02  0.0000000000000E+00 -0.1389407930055E-03
 0.8150832964094E-03 -0.6051585178342E-02  0.0000000000000E+00 -0.3119944261131E-03
 0.7477767781284E-03 -0.5929182531864E-02  0.0000000000000E+00 -0.4888632078183E-03
 0.6215110321021E-03 -0.5744382487959E-02  0.0000000000000E+00 -0.6632845606438E-03
 0.4555483926940E-03 -0.5503052307468E-02  0.0000000000000E+00 -0.8264251678776E-03
 0.2779969011577E-03 -0.5215907690968E-02  0.0000000000000E+00 -0.9641728737431E-03
 0.1276564356778E-03 -0.4900852191451E-02  0.0000000000000E+00 -0.1056962414660E-02
 0.5514331975066E-04 -0.4585446371957E-02  0.0000000000000E+00 -0.1081879066781E-02
 0.1212497238956E-03 -0.4307636787696E-02  0.0000000000000E+00 -0.1013907731191E-02
 0.3918219603160E-03 -0.4113220975536E-02  0.0000000000000E+00 -0.8290370357684E-03
 0.9298471281816E-03 -0.4051267144065E-02  0.0000000000000E+00 -0.5151208592529E-03
 0.1782411436799E-02 -0.4165261031449E-02  0.0000000000000E+00 -0.8732307314241E-04
 0.2963121939696E-02 -0.4479049387251E-02  0.0000000000000E+00  0.3988942774253E-03
 0.4434945986898E-02 -0.4981672542925E-02  0.0000000000000E+00  0.8475894892062E-03
 0.6099861985935E-02 -0.5617750429767E-02  0.0000000000000E+00  0.1144644672723E-02
 0.7806490192994E-02 -0.6292243323870E-02  0.0000000000000E+00  0.1202238978972E-02
 0.9381156793254E-02 -0.6894405635212E-02  0.0000000000000E+00  0.1003453526916E-02
 0.1324911279593E-03 -0.5778131605379E-02  0.0000000000000E+00  0.4095416270077E-03
 0.3868399653672E-03 -0.5931656403657E-02  0.0000000000000E+00  0.3440236759594E-03
 0.6050540608046E-03 -0.6053674612849E-02  0.0000000000000E+00  0.2133167003063E-03
 0.7625377680363E-03 -0.6125851609774E-02  0.0000000000000E+00  0.3501661676393E-04
 0.8458289606424E-03 -0.6137910889831E-02  0.0000000000000E+00 -0.1712283637612E-03
 0.8523344392283E-03 -0.6086455074348E-02  0.0000000000000E+00 -0.3907419268577E-03
 0.7875607405742E-03 -0.5971978988843E-02  0.0000000000000E+00 -0.6148016630430E-03
 0.6632071561420E-03 -0.5796974943811E-02  0.0000000000000E+00 -0.8365433089078E-03
 0.4974323644960E-03 -0.5566188468298E-02  0.0000000000000E+00 -0.1045671814370E-02
 0.3167282705074E-03 -0.5288520357837E-02  0.0000000000000E+00 -0.1224877694402E-02
 0.1581785698847E-03 -0.4979707334747E-02  0.0000000000000E+00 -0.1349621325447E-02
 0.7088534040173E-04 -0.4665150481846E-02  0.0000000000000E+00 -0.1390806061158E-02
 0.1145574407887E-03 -0.4380706708980E-02  0.0000000000000E+00 -0.1316176267252E-02
 0.3551844052289E-03 -0.4170535857411E-02  0.0000000000000E+00 -0.1093590298440E-02
 0.8586766952280E-03 -0.4083907628618E-02  0.0000000000000E+00 -0.7041620373264E-03
 0.1679189489650E-02 -0.4167857973422E-02  0.0000000000000E+00 -0.1623846167681E-03
 0.2841221564740E-02 -0.4453298206983E-02  0.0000000000000E+00  0.4648793861905E-03
 0.4318836764437E-02 -0.4937288428830E-02  0.0000000000000E+00  0.1054118489298E-02
 0.6018505052200E-02 -0.5568145365274E-02  0.0000000000000E+00  0.1450802432466E-02
 0.7780781713359E-02 -0.6245299200866E-02  0.0000000000000E+00  0.1529144295202E-02
 0.9412663421025E-02 -0.6844036956506E-02  0.0000000000000E+00  0.1257728918116E-02
 0.1393498421447E-03 -0.5787631336839E-02  0.0000000000000E+00  0.5104257085180E-03
 0.4067089717928E-03 -0.5949248061380E-02  0.0000000000000E+00  0.4296829796343E-03
 0.6355082517637E-03 -0.6077969002336E-02  0.0000000000000E+00  0.2688562540578E-03
 0.8001704031053E-03 -0.6155421961946E-02  0.0000000000000E+00  0.5109227225486E-04
 0.8879840578389E-03 -0.6172719892439E-02  0.0000000000000E+00 -0.1983443265953E-03
 0.8978860677725E-03 -0.6128290947444E-02  0.0000000000000E+00 -0.4618716253209E-03
 0.8363183759156E-03 -0.6023690130500E-02  0.0000000000000E+00 -0.7303628552623E-03
 0.7146843412006E-03 -0.5861192053949E-02  0.0000000000000E+00 -0.9972671565874E-03
 0.5497343800709E-03 -0.5644142483437E-02  0.0000000000000E+00 -0.1251612014090E-02
 0.3659139752786E-03 -0.5379192325897E-02  0.0000000000000E+00 -0.1473500241648E-02
 0.1981407107810E-03 -0.5079396293638E-02  0.0000000000000E+00 -0.1633892208580E-02
 0.9356557678954E-04 -0.4767454349831E-02  0.0000000000000E+00 -0.1697861813981E-02
 0.1103408937474E-03 -0.4476493030187E-02  0.0000000000000E+00 -0.1626029903209E-02
 0.3141775930190E-03 -0.4248263328886E-02  0.0000000000000E+00 -0.1377465773003E-02
 0.7739776835211E-03 -0.4131657331052E-02  0.0000000000000E+00 -0.9243271019751E-03
 0.1552242893351E-02 -0.4177516996216E-02  0.0000000000000E+00 -0.2765204870920E-03
 0.2687446666375E-02 -0.4425526125653E-02  0.0000000000000E+00  0.4918576331672E-03
 0.4169233148785E-02 -0.4883791247921E-02  0.0000000000000E+00  0.1230799250720E-02
 0.5912104310219E-02 -0.5506990793205E-02  0.0000000000000E+00  0.1739833069208E-02
 0.7747520105548E-02 -0.6188449970195E-02  0.0000000000000E+00  0.1844010505003E-02
 0.9456609190239E-02 -0.6784783818543E-02  0.0000000000000E+00  0.1488453351086E-02
 0.1476376984217E-03 -0.5799022827930E-02  0.0000000000000E+00  0.6171863484780E-03
 0.4307123826494E-03 -0.5970223682372E-02  0.0000000000000E+00  0.5205795536371E-03
 0.6720571039329E-03 -0.6106521178330E-02  0.0000000000000E+00  0.3285911396396E-03
 0.8447821578541E-03 -0.6189518142823E-02  0.0000000000000E+00  0.7128781929305E-04
 0.9373904967846E-03 -0.6212328046437E-02  0.0000000000000E+00 -0.2195856156994E-03
 0.9509999691337E-03 -0.6175860990693E-02  0.0000000000000E+00 -0.5238968891279E-03
 0.8933288441451E-03 -0.6083053060139E-02  0.0000000000000E+00 -0.8331719425381E-03
 0.7754292711616E-03 -0.5935925378514E-02  0.0000000000000E+00 -0.1142309336562E-02
 0.6123159668284E-03 -0.5736147022029E-02  0.0000000000000E+00 -0.1440597303911E-02
 0.4259440452972E-03 -0.5487702514571E-02  0.0000000000000E+00 -0.1706274323395E-02
 0.2486147346712E-03 -0.5200479023087E-02  0.0000000000000E+00 -0.1906386671876E-02
 0.1250795432060E-03 -0.4893956218177E-02  0.0000000000000E+00 -0.2000682267619E-02
 0.1113648439503E-03 -0.4597851673796E-02  0.0000000000000E+00 -0.1942995240481E-02
 0.2722020276663E-03 -0.4350540425619E-02  0.0000000000000E+00 -0.1683139724844E-02
 0.6790652403406E-03 -0.4199531663751E-02  0.0000000000000E+00 -0.1181947302500E-02
 0.1403580580882E-02 -0.4199178272840E-02  0.0000000000000E+00 -0.4398941824223E-03
 0.2501284627367E-02 -0.4399377770001E-02  0.0000000000000E+00  0.4676644710409E-03
 0.3982975107961E-02 -0.4822867109982E-02  0.0000000000000E+00  0.1367033578374E-02
 0.5776807307728E-02 -0.5434738849365E-02  0.0000000000000E+00  0.2005863392805E-02
 0.7705377041106E-02 -0.6122693141831E-02  0.0000000000000E+00  0.2144574152659E-02
 0.9515818702735E-02 -0.6718927621224E-02  0.0000000000000E+00  0.1691249259546E-02
 0.1574291461057E-03 -0.5812420683312E-02  0.0000000000000E+00  0.7308641846546E-03
 0.4590404188315E-03 -0.5994633583649E-02  0.0000000000000E+00  0.6173699917131E-03
 0.7147801194562E-03 -0.6139058872665E-02  0.0000000000000E+00  0.3925764375167E-03
 0.8960646011093E-03 -0.6227344285543E-02  0.0000000000000E+00  0.9550316612192E-04
 0.9933273459194E-03 -0.6255464534103E-02  0.0000000000000E+00 -0.2345371575665E-03
 0.1010727249748E-02 -0.6227624932391E-02  0.0000000000000E+00 -0.5754639781156E-03
 0.9576573551606E-03 -0.6148483747323E-02  0.0000000000000E+00 -0.9208325057116E-03
 0.8447438826108E-03 -0.6019755692593E-02  0.0000000000000E+00 -0.1268340936775E-02
 0.6849091873389E-03 -0.5841160122754E-02  0.0000000000000E+00 -0.1608608987351E-02
 0.4971614450897E-03 -0.5613627534730E-02  0.0000000000000E+00 -0.1918832379214E-02
 0.3107461466293E-03 -0.5343436908676E-02  0.0000000000000E+00 -0.2162835648462E-02
 0.1675778809554E-03 -0.5046374761771E-02  0.0000000000000E+00 -0.2295718462876E-02
 0.1209129153436E-03 -0.4748065299064E-02  0.0000000000000E+00 -0.2265175881021E-02
 0.2335077917326E-03 -0.4482362338652E-02  0.0000000000000E+00 -0.2011700672002E-02
 0.5783843568825E-03 -0.4293898560678E-02  0.0000000000000E+00 -0.1482576661763E-02
 0.1236305543809E-02 -0.4239472244513E-02  0.0000000000000E+00 -0.6632403738968E-03
 0.2282675006524E-02 -0.4380052996143E-02  0.0000000000000E+00  0.3778981040074E-03
 0.3756205407000E-02 -0.4757066361669E-02  0.0000000000000E+00  0.1449139780627E-02
 0.5607141046673E-02 -0.5351885380965E-02  0.0000000000000E+00  0.2240868967849E-02
 0.7652075634362E-02 -0.6048779533927E-02  0.0000000000000E+00  0.2428806998806E-02
 0.9593276175091E-02 -0.6648873295743E-02  0.0000000000000E+00  0.1862288859550E-02
 0.1688564051163E-03 -0.5828078515114E-02  0.0000000000000E+00  0.8525062293755E-03
 0.4920176046454E-03 -0.6022654344504E-02  0.0000000000000E+00  0.7205116577363E-03
 0.7638376723748E-03 -0.6175304458238E-02  0.0000000000000E+00  0.4603990886501E-03
 0.9536380687472E-03 -0.6267921578190E-02  0.0000000000000E+00  0.1231307841585E-03
 0.1054880344138E-02 -0.6300562026036E-02  0.0000000000000E+00 -0.2431338635346E-03
 0.1075875275216E-02 -0.6281704170090E-02  0.0000000000000E+00 -0.6153785025037E-03
 0.1028121536355E-02 -0.6218046684686E-02  0.0000000000000E+00 -0.9909406213886E-03
 0.9217039607648E-03 -0.6110909131052E-02  0.0000000000000E+00 -0.1371851636710E-02
 0.7670627733119E-03 -0.5957801290475E-02  0.0000000000000E+00 -0.1751232986737E-02
 0.5797933329169E-03 -0.5756256104777E-02  0.0000000000000E+00 -0.2106141119249E-02
 0.3856709892816E-03 -0.5508565616290E-02  0.0000000000000E+00 -0.2397967278866E-02
 0.2233788797532E-03 -0.5226424845456E-02  0.0000000000000E+00 -0.2578025226456E-02
 0.1427273770055E-03 -0.4930723140178E-02  0.0000000000000E+00 -0.2588907259697E-02
 0.2032310655950E-03 -0.4649528963989E-02  0.0000000000000E+00 -0.2362341993965E-02
 0.4777416185708E-03 -0.4422608553968E-02  0.0000000000000E+00 -0.1830414479726E-02
 0.1055072845770E-02 -0.4307133344441E-02  0.0000000000000E+00 -0.9575539743808E-03
 0.2032506043304E-02 -0.4374925035676E-02  0.0000000000000E+00  0.2055033595042E-03
 0.3484488492587E-02 -0.4690316286433E-02  0.0000000000000E+00  0.1459147703202E-02
 0.5395627245079E-02 -0.5259165929221E-02  0.0000000000000E+00  0.2433309533031E-02
 0.7583355531436E-02 -0.5966948259778E-02  0.0000000000000E+00  0.2693626354721E-02
 0.9692125929129E-02 -0.6575186862770E-02  0.0000000000000E+00  0.2000559947584E-02
 0.1821437004186E-03 -0.5846473415392E-02  0.0000000000000E+00  0.9831838341310E-03
 0.5301719996453E-03 -0.6054660714585E-02  0.0000000000000E+00  0.8301693374594E-03
 0.8195024841554E-03 -0.6214980846358E-02  0.0000000000000E+00  0.5309913311987E-03
 0.1017024752002E-02 -0.6310038888264E-02  0.0000000000000E+00  0.1529157199883E-03
 0.1120897982406E-02 -0.6345708220433E-02  0.0000000000000E+00 -0.2457134253994E-03
 0.1144972142599E-02 -0.6335852974207E-02  0.0000000000000E+00 -0.6426254663575E-03
 0.1103257332538E-02 -0.6289427186890E-02  0.0000000000000E+00 -0.1041109297908E-02
 0.1005113781651E-02 -0.6207210091954E-02  0.0000000000000E+00 -0.1449171445131E-02
 0.8580803639949E-03 -0.6084278132555E-02  0.0000000000000E+00 -0.1863657937154E-02
 0.6738709851070E-03 -0.5914489882692E-02  0.0000000000000E+00 -0.2262460971910E-02
 0.4744161317218E-03 -0.5695849880539E-02  0.0000000000000E+00 -0.2605409852454E-02
 0.2948544564177E-03 -0.5435665503055E-02  0.0000000000000E+00 -0.2841071700383E-02
 0.1809068247843E-03 -0.5149552497263E-02  0.0000000000000E+00 -0.2908407010334E-02
 0.1873798160332E-03 -0.4858518626066E-02  0.0000000000000E+00 -0.2731762474978E-02
 0.3845282343417E-03 -0.4595066301978E-02  0.0000000000000E+00 -0.2227468812249E-02
 0.8666738655710E-03 -0.4413476125061E-02  0.0000000000000E+00 -0.1333408603661E-02
 0.1753371416950E-02 -0.4394405102272E-02  0.0000000000000E+00 -0.6946114179167E-04
 0.3163187040667E-02 -0.4628770978337E-02  0.0000000000000E+00  0.1373241459693E-02
 0.5132113571214E-02 -0.5157856962930E-02  0.0000000000000E+00  0.2566408002509E-02
 0.7493632187520E-02 -0.5878108381297E-02  0.0000000000000E+00  0.2931930321547E-02
 0.9805937544480E-02 -0.6489243130908E-02  0.0000000000000E+00  0.2106700819836E-02
 0.1977152311326E-03 -0.5868433711163E-02  0.0000000000000E+00  0.1124043825963E-02
 0.5743838730820E-03 -0.6091348749510E-02  0.0000000000000E+00  0.9461599689668E-03
 0.8822809801300E-03 -0.6257843572816E-02  0.0000000000000E+00  0.6024605331270E-03
 0.1085716508468E-02 -0.6352232842334E-02  0.0000000000000E+00  0.1828774278368E-03
 0.1190081399811E-02 -0.6388666376845E-02  0.0000000000000E+00 -0.2429962318611E-03
 0.1216416204505E-02 -0.6387558718767E-02  0.0000000000000E+00 -0.6563512848569E-03
 0.1181528949097E-02 -0.6360118031665E-02  0.0000000000000E+00 -0.1069008496161E-02
 0.1093780046346E-02 -0.6306383957829E-02  0.0000000000000E+00 -0.1496575379746E-02
 0.9573707686011E-03 -0.6218866698939E-02  0.0000000000000E+00 -0.1940870883748E-02
 0.7796544894531E-03 -0.6087569488285E-02  0.0000000000000E+00 -0.2381708223815E-02
 0.5783675423494E-03 -0.5905983131608E-02  0.0000000000000E+00 -0.2778323973029E-02
 0.3848816716373E-03 -0.5676825908728E-02  0.0000000000000E+00 -0.3077745199105E-02
 0.2402482807699E-03 -0.5410021659368E-02  0.0000000000000E+00 -0.3217218389429E-02
 0.1929631372202E-03 -0.5118309998262E-02  0.0000000000000E+00 -0.3116027759341E-02
 0.3075795476544E-03 -0.4824252990116E-02  0.0000000000000E+00 -0.2675769074037E-02
 0.6795951180616E-03 -0.4574645139189E-02  0.0000000000000E+00 -0.1803677311786E-02
 0.1448520716281E-02 -0.4454219761723E-02  0.0000000000000E+00 -0.4736881877753E-03
 0.2785026520081E-02 -0.4582228697656E-02  0.0000000000000E+00  0.1157186772118E-02
 0.4800891831704E-02 -0.5050252515212E-02  0.0000000000000E+00  0.2613420344602E-02
 0.7369430796453E-02 -0.5781849334094E-02  0.0000000000000E+00  0.3141947129712E-02
 0.9972641627506E-02 -0.6404615039038E-02  0.0000000000000E+00  0.2078119477540E-02
 0.2160664178907E-03 -0.5895336287298E-02  0.0000000000000E+00  0.1276312595504E-02
 0.6258893690951E-03 -0.6133830654676E-02  0.0000000000000E+00  0.1067522631635E-02
 0.9527116063505E-03 -0.6303525756720E-02  0.0000000000000E+00  0.6715180256231E-03
 0.1158823498925E-02 -0.6392500310112E-02  0.0000000000000E+00  0.2100204449918E-03
 0.1260605198304E-02 -0.6426603484478E-02  0.0000000000000E+00 -0.2360879348933E-03
 0.1288080433263E-02 -0.6433746629646E-02  0.0000000000000E+00 -0.6557529231652E-03
 0.1260837526444E-02 -0.6426951034694E-02  0.0000000000000E+00 -0.1072159967644E-02
 0.1185858330919E-02 -0.6405266466914E-02  0.0000000000000E+00 -0.1509849134215E-02
 0.1063614648894E-02 -0.6358684064198E-02  0.0000000000000E+00 -0.1976806514973E-02
 0.8966439689110E-03 -0.6273329429470E-02  0.0000000000000E+00 -0.2456007076225E-02
 0.6981874476439E-03 -0.6138055721814E-02  0.0000000000000E+00 -0.2907176449667E-02
 0.4957821214566E-03 -0.5950916288998E-02  0.0000000000000E+00 -0.3277143559697E-02
 0.3254144414910E-03 -0.5715926778008E-02  0.0000000000000E+00 -0.3503787739923E-02
 0.2277432871195E-03 -0.5436651116554E-02  0.0000000000000E+00 -0.3504654588722E-02
 0.2581678296888E-03 -0.5123245027287E-02  0.0000000000000E+00 -0.3169792948162E-02
 0.5071540988150E-03 -0.4809497399386E-02  0.0000000000000E+00 -0.2375181096912E-02
 0.1127454585872E-02 -0.4575769866997E-02  0.0000000000000E+00 -0.1034449693070E-02
 0.2346114252720E-02 -0.4566533232064E-02  0.0000000000000E+00  0.7654365558423E-03
 0.4382729132679E-02 -0.4941238427171E-02  0.0000000000000E+00  0.2536055981194E-02
 0.7194418290511E-02 -0.5679297855162E-02  0.0000000000000E+00  0.3296314325185E-02
 0.1022841002197E-01 -0.6369475600133E-02  0.0000000000000E+00  0.2005613604663E-02
 0.2382358428375E-03 -0.5929443751608E-02  0.0000000000000E+00  0.1441303927608E-02
 0.6866495614505E-03 -0.6183808100327E-02  0.0000000000000E+00  0.1191926420869E-02
 0.1031469301431E-02 -0.6351379428538E-02  0.0000000000000E+00  0.7327762454612E-03
 0.1234962313862E-02 -0.6428074362543E-02  0.0000000000000E+00  0.2301181888807E-03
 0.1330040916398E-02 -0.6456039524952E-02  0.0000000000000E+00 -0.2264858851671E-03
 0.1357278904747E-02 -0.6470839539612E-02  0.0000000000000E+00 -0.6402979248616E-03
 0.1338436027796E-02 -0.6486132569434E-02  0.0000000000000E+00 -0.1048489024172E-02
 0.1278656648915E-02 -0.6499742481376E-02  0.0000000000000E+00 -0.1485106823605E-02
 0.1174450288697E-02 -0.6499514261713E-02  0.0000000000000E+00 -0.1965328992688E-02
 0.1023166280222E-02 -0.6467922706219E-02  0.0000000000000E+00 -0.2476748508455E-02
 0.8333251192319E-03 -0.6389178393226E-02  0.0000000000000E+00 -0.2980790558132E-02
 0.6287816772643E-03 -0.6256715703584E-02  0.0000000000000E+00 -0.3425482525501E-02
 0.4403670692695E-03 -0.6068684953709E-02  0.0000000000000E+00 -0.3751956288359E-02
 0.2997238462233E-03 -0.5819108759074E-02  0.0000000000000E+00 -0.3880080239506E-02
 0.2499390222089E-03 -0.5504187557628E-02  0.0000000000000E+00 -0.3693784368869E-02
 0.3690601290326E-03 -0.5139439873844E-02  0.0000000000000E+00 -0.3042897528625E-02
 0.8104133501548E-03 -0.4788500518450E-02  0.0000000000000E+00 -0.1772983809651E-02
 0.1852481519109E-02 -0.4608673289750E-02  0.0000000000000E+00  0.1433037300770E-03
 0.3856938213382E-02 -0.4841544928823E-02  0.0000000000000E+00  0.2271314861940E-02
 0.6951860240973E-02 -0.5579539010671E-02  0.0000000000000E+00  0.3380939116717E-02
 0.1052406623525E-01 -0.6370958439056E-02  0.0000000000000E+00  0.1920131071886E-02
 0.2658625371302E-03 -0.5974482372012E-02  0.0000000000000E+00  0.1620511878168E-02
 0.7595984863567E-03 -0.6243814065207E-02  0.0000000000000E+00  0.1314963257863E-02
 0.1119237652420E-02 -0.6400167398416E-02  0.0000000000000E+00  0.7781771248497E-03
 0.1312120900225E-02 -0.6455177838357E-02  0.0000000000000E+00  0.2380314801089E-03
 0.1395551558509E-02 -0.6472994283462E-02  0.0000000000000E+00 -0.2155573436700E-03
 0.1421219431511E-02 -0.6495149476599E-02  0.0000000000000E+00 -0.6095024775814E-03
 0.1411514766963E-02 -0.6533774950688E-02  0.0000000000000E+00 -0.9963774584799E-03
 0.1369332648838E-02 -0.6585454175649E-02  0.0000000000000E+00 -0.1419009766226E-02
 0.1287309105782E-02 -0.6636797268875E-02  0.0000000000000E+00 -0.1900606900841E-02
 0.1157347909396E-02 -0.6667228774042E-02  0.0000000000000E+00 -0.2435271038745E-02
 0.9830367537170E-03 -0.6656407144542E-02  0.0000000000000E+00 -0.2987628509022E-02
 0.7848731102824E-03 -0.6593179638283E-02  0.0000000000000E+00 -0.3508315617981E-02
 0.5887257987113E-03 -0.6469999065376E-02  0.0000000000000E+00 -0.3944402294523E-02
 0.4164474657328E-03 -0.6271523855825E-02  0.0000000000000E+00 -0.4222372668870E-02
 0.2965545660048E-03 -0.5979856758361E-02  0.0000000000000E+00 -0.4226809610010E-02
 0.2877104300714E-03 -0.5589005856600E-02  0.0000000000000E+00 -0.3792942884390E-02
 0.5254959075458E-03 -0.5131496236476E-02  0.0000000000000E+00 -0.2704443268526E-02
 0.1317979611797E-02 -0.4750971892489E-02  0.0000000000000E+00 -0.7770954052062E-03
 0.3198431566734E-02 -0.4772594541550E-02  0.0000000000000E+00  0.1723765635777E-02
 0.6590172360373E-02 -0.5480610114354E-02  0.0000000000000E+00  0.3367974010977E-02
 0.1087966411238E-01 -0.6406370269315E-02  0.0000000000000E+00  0.1788868934804E-02
 0.3017254693807E-03 -0.6036695601497E-02  0.0000000000000E+00  0.1815504735033E-02
 0.8490917288100E-03 -0.6317379465930E-02  0.0000000000000E+00  0.1428125774905E-02
 0.1216255311054E-02 -0.6447168662608E-02  0.0000000000000E+00  0.7956815109887E-03
 0.1387106603859E-02 -0.6468423060001E-02  0.0000000000000E+00  0.2281291740984E-03
 0.1453730968672E-02 -0.6472970267127E-02  0.0000000000000E+00 -0.2039740019015E-03
 0.1476947394932E-02 -0.6502934168250E-02  0.0000000000000E+00 -0.5628568566946E-03
 0.1477020305150E-02 -0.6565788209376E-02  0.0000000000000E+00 -0.9148482172877E-03
 0.1454521195750E-02 -0.6657431084125E-02  0.0000000000000E+00 -0.1308980617823E-02
 0.1398861132944E-02 -0.6764926540231E-02  0.0000000000000E+00 -0.1777093030245E-02
 0.1296460145421E-02 -0.6865872221106E-02  0.0000000000000E+00 -0.2322393800402E-02
 0.1145727240395E-02 -0.6935586979950E-02  0.0000000000000E+00 -0.2914863590133E-02
 0.9642195071091E-03 -0.6958121315529E-02  0.0000000000000E+00 -0.3509234282426E-02
 0.7732672145211E-03 -0.6920285401283E-02  0.0000000000000E+00 -0.4060974501295E-02
 0.5845864536602E-03 -0.6798082153365E-02  0.0000000000000E+00 -0.4507042949074E-02
 0.4112307477067E-03 -0.6561125005008E-02  0.0000000000000E+00 -0.4739363517028E-02
 0.2884414030923E-03 -0.6182773214160E-02  0.0000000000000E+00 -0.4594877808748E-02
 0.3136255057319E-03 -0.5653430975843E-02  0.0000000000000E+00 -0.3823330982204E-02
 0.7780094776137E-03 -0.5060881296814E-02  0.0000000000000E+00 -0.2068046508569E-02
 0.2383053221813E-02 -0.4778825112960E-02  0.0000000000000E+00  0.7461906907178E-03
 0.6030725054597E-02 -0.5377826619928E-02  0.0000000000000E+00  0.3163608580934E-02
 0.1131481894187E-01 -0.6489579186111E-02  0.0000000000000E+00  0.1583726882560E-02
 0.3506866279572E-03 -0.6126932063087E-02  0.0000000000000E+00  0.2027478177696E-02
 0.9614645283658E-03 -0.6408916512315E-02  0.0000000000000E+00  0.1514835816929E-02
 0.1321262087668E-02 -0.6486329799605E-02  0.0000000000000E+00  0.7679255651573E-03
 0.1454876180747E-02 -0.6460202506214E-02  0.0000000000000E+00  0.1958623570187E-03
 0.1500750042687E-02 -0.6451309898921E-02  0.0000000000000E+00 -0.1908081283459E-03
 0.1521582656473E-02 -0.6490688995897E-02  0.0000000000000E+00 -0.4998359288946E-03
 0.1531780990991E-02 -0.6578069931327E-02  0.0000000000000E+00 -0.8038807660540E-03
 0.1530318914509E-02 -0.6710133460509E-02  0.0000000000000E+00 -0.1153755537996E-02
 0.1504828944823E-02 -0.6877020071074E-02  0.0000000000000E+00 -0.1590014259900E-02
 0.1436668545207E-02 -0.7056857012770E-02  0.0000000000000E+00 -0.2128528657998E-02
 0.1318761072291E-02 -0.7221110910412E-02  0.0000000000000E+00 -0.2748238010617E-02
 0.1166027183000E-02 -0.7348132294915E-02  0.0000000000000E+00 -0.3409866647361E-02
 0.9956919442682E-03 -0.7418496765431E-02  0.0000000000000E+00 -0.4079080511066E-02
 0.8093874123897E-03 -0.7400711909779E-02  0.0000000000000E+00 -0.4705649622361E-02
 0.6052757227607E-03 -0.7255480454281E-02  0.0000000000000E+00 -0.5194065189285E-02
 0.3960696984237E-03 -0.6941275384296E-02  0.0000000000000E+00 -0.5399011327671E-02
 0.2282219043826E-03 -0.6407822470146E-02  0.0000000000000E+00 -0.5085480792909E-02
 0.3047605664599E-03 -0.5640788181739E-02  0.0000000000000E+00 -0.3779682971499E-02
 0.1409252410969E-02 -0.4955243097142E-02  0.0000000000000E+00 -0.8843133699738E-03
 0.5149820637927E-02 -0.5282987159597E-02  0.0000000000000E+00  0.2557647020244E-02
 0.1184323963128E-01 -0.6651214379421E-02  0.0000000000000E+00  0.1253667208800E-02
 0.4215823260131E-03 -0.6265171674769E-02  0.0000000000000E+00  0.2255440264794E-02
 0.1105476920722E-02 -0.6522237506190E-02  0.0000000000000E+00  0.1541808549425E-02
 0.1429034406900E-02 -0.6504367264564E-02  0.0000000000000E+00  0.6718907170999E-03
 0.1507851366877E-02 -0.6420604329333E-02  0.0000000000000E+00  0.1415155708668E-03
 0.1532910336999E-02 -0.6404046488230E-02  0.0000000000000E+00 -0.1727531461469E-03
 0.1552620084680E-02 -0.6455412606373E-02  0.0000000000000E+00 -0.4201001982464E-03
 0.1572703240099E-02 -0.6566807815606E-02  0.0000000000000E+00 -0.6646876913233E-03
 0.1592346595826E-02 -0.6737632385603E-02  0.0000000000000E+00 -0.9541973658108E-03
 0.1599738322013E-02 -0.6964631727140E-02  0.0000000000000E+00 -0.1336233167515E-02
 0.1572642172265E-02 -0.7230967031704E-02  0.0000000000000E+00 -0.1843830157189E-02
 0.1498231314752E-02 -0.7505603892400E-02  0.0000000000000E+00 -0.2471639673276E-02
 0.1388524252837E-02 -0.7758664989633E-02  0.0000000000000E+00 -0.3189724089193E-02
 0.1256529397240E-02 -0.7962157411640E-02  0.0000000000000E+00 -0.3974344605392E-02
 0.1094104486465E-02 -0.8078531134084E-02  0.0000000000000E+00 -0.4786974263437E-02
 0.8869403371992E-03 -0.8065744201176E-02  0.0000000000000E+00 -0.5547124938233E-02
 0.6298171045470E-03 -0.7876716943140E-02  0.0000000000000E+00 -0.6139370552999E-02
 0.3260375854313E-03 -0.7439586739358E-02  0.0000000000000E+00 -0.6390437229122E-02
 0.2507407920254E-04 -0.6628945539892E-02  0.0000000000000E+00 -0.5876958548158E-02
 0.3505765530640E-03 -0.5503827291077E-02  0.0000000000000E+00 -0.3459609443916E-02
 0.3760928839501E-02 -0.5268121658174E-02  0.0000000000000E+00  0.1097358403270E-02
 0.1244779486891E-01 -0.6958886847822E-02  0.0000000000000E+00  0.6408649847994E-03
 0.5311019154736E-03 -0.6491690402853E-02  0.0000000000000E+00  0.2488916699865E-02
 0.1291419859363E-02 -0.6653184776750E-02  0.0000000000000E+00  0.1439380326391E-02
 0.1524869507034E-02 -0.6473285373003E-02  0.0000000000000E+00  0.4848655399616E-03
 0.1536278912020E-02 -0.6340141004394E-02  0.0000000000000E+00  0.7734696511093E-04
 0.1547846315378E-02 -0.6328928366534E-02  0.0000000000000E+00 -0.1451079785587E-03
 0.1568058187374E-02 -0.6394644519224E-02  0.0000000000000E+00 -0.3235902706737E-03
 0.1597113512503E-02 -0.6528997775409E-02  0.0000000000000E+00 -0.4997693453511E-03
 0.1635993722738E-02 -0.6734053947272E-02  0.0000000000000E+00 -0.7144369161842E-03
 0.1676606431230E-02 -0.7017476181248E-02  0.0000000000000E+00 -0.1015843291313E-02
 0.1696856609664E-02 -0.7375665659298E-02  0.0000000000000E+00 -0.1458536765816E-02
 0.1678640753790E-02 -0.7779396471596E-02  0.0000000000000E+00 -0.2065953088460E-02
 0.1629123416061E-02 -0.8184516679931E-02  0.0000000000000E+00 -0.2825790789387E-02
 0.1555336580524E-02 -0.8547620277241E-02  0.0000000000000E+00 -0.3721444623622E-02
 0.1439432572349E-02 -0.8827622703388E-02  0.0000000000000E+00 -0.4719270791247E-02
 0.1260349857977E-02 -0.8988470965739E-02  0.0000000000000E+00 -0.5749839677518E-02
 0.1000763434925E-02 -0.8991318848815E-02  0.0000000000000E+00 -0.6740848500401E-02
 0.6429032381742E-03 -0.8765352905481E-02  0.0000000000000E+00 -0.7589733363960E-02
 0.1165475389788E-03 -0.8161043577607E-02  0.0000000000000E+00 -0.8124151581392E-02
-0.5230890777404E-03 -0.6820330592860E-02  0.0000000000000E+00 -0.7206012382712E-02
 0.1635854938140E-02 -0.5619929135090E-02  0.0000000000000E+00 -0.2170563431371E-02
 0.1300226502451E-01 -0.7578875463036E-02  0.0000000000000E+00 -0.8172361454138E-03
 0.7111509471747E-03 -0.6900522234946E-02  0.0000000000000E+00  0.2674510876915E-02
 0.1523031967623E-02 -0.6753672841248E-02  0.0000000000000E+00  0.1055904994417E-02
 0.1573495009983E-02 -0.6343619914247E-02  0.0000000000000E+00  0.2189900193646E-03
 0.1533698584479E-02 -0.6220596837648E-02  0.0000000000000E+00  0.3261605564076E-04
 0.1545416457967E-02 -0.6223179777682E-02  0.0000000000000E+00 -0.1070589611798E-03
 0.1566087029528E-02 -0.6307390743212E-02  0.0000000000000E+00 -0.2086377863342E-03
 0.1603438613579E-02 -0.6462730508885E-02  0.0000000000000E+00 -0.3132798159899E-03
 0.1656970929988E-02 -0.6694654113204E-02  0.0000000000000E+00 -0.4427750978356E-03
 0.1726727224597E-02 -0.7023524898651E-02  0.0000000000000E+00 -0.6354064829090E-03
 0.1798217082568E-02 -0.7472881347187E-02  0.0000000000000E+00 -0.9640509506150E-03
 0.1852260929087E-02 -0.8029385122051E-02  0.0000000000000E+00 -0.1506218578466E-02
 0.1885260165489E-02 -0.8621295884291E-02  0.0000000000000E+00 -0.2291174565591E-02
 0.1890771205421E-02 -0.9170807662428E-02  0.0000000000000E+00 -0.3296555637586E-02
 0.1844194866560E-02 -0.9640364521253E-02  0.0000000000000E+00 -0.4470999294364E-02
 0.1721996722368E-02 -0.1001422946528E-01  0.0000000000000E+00 -0.5756247658748E-02
 0.1515991933963E-02 -0.1027278901907E-01  0.0000000000000E+00 -0.7113914919680E-02
 0.1172820149746E-02 -0.1037490050108E-01  0.0000000000000E+00 -0.8547718655445E-02
 0.6972605209491E-03 -0.1025031522247E-01  0.0000000000000E+00 -0.1002100423688E-01
-0.5313948325732E-03 -0.9496105685323E-02  0.0000000000000E+00 -0.1169865837597E-01
-0.1205138640154E-02 -0.7375544394596E-02  0.0000000000000E+00 -0.9034108557828E-02
 0.1295189436055E-01 -0.9050802623286E-02  0.0000000000000E+00 -0.5317391004477E-02
 0.1011489298164E-02 -0.7776743054142E-02  0.0000000000000E+00  0.2516635446062E-02
 0.1752036292063E-02 -0.6515643420725E-02  0.0000000000000E+00  0.7505155164944E-04
 0.1508415061216E-02 -0.6136615160131E-02  0.0000000000000E+00  0.7529689618179E-04
 0.1518243347586E-02 -0.6058429776177E-02  0.0000000000000E+00 -0.9171508477283E-05
 0.1519890624203E-02 -0.6087190958258E-02  0.0000000000000E+00 -0.4502520700123E-04
 0.1547870208318E-02 -0.6193796717881E-02  0.0000000000000E+00 -0.7653575385804E-04
 0.1590743943206E-02 -0.6367424664871E-02  0.0000000000000E+00 -0.1093296961931E-03
 0.1652907064168E-02 -0.6617378949200E-02  0.0000000000000E+00 -0.1514278593798E-03
 0.1740124841678E-02 -0.6971259945143E-02  0.0000000000000E+00 -0.2141117359375E-03
 0.1859102527327E-02 -0.7494210175428E-02  0.0000000000000E+00 -0.3573432500688E-03
 0.2007630833634E-02 -0.8235753103329E-02  0.0000000000000E+00 -0.7540631523419E-03
 0.2156510435942E-02 -0.9069893617077E-02  0.0000000000000E+00 -0.1551944016211E-02
 0.2261954851265E-02 -0.9828531868424E-02  0.0000000000000E+00 -0.2682562324687E-02
 0.2302107738508E-02 -0.1050328480857E-01  0.0000000000000E+00 -0.4014083540977E-02
 0.2269943420564E-02 -0.1112925692859E-01  0.0000000000000E+00 -0.5518075391783E-02
 0.2148862560436E-02 -0.1169489031509E-01  0.0000000000000E+00 -0.7194468201195E-02
 0.1952748622499E-02 -0.1222343119105E-01  0.0000000000000E+00 -0.9068243496055E-02
 0.1530461149270E-02 -0.1278258959042E-01  0.0000000000000E+00 -0.1130024018135E-01
 0.1283154725005E-02 -0.1361115104837E-01  0.0000000000000E+00 -0.1453862085605E-01
-0.2860850073163E-02 -0.1356209745926E-01  0.0000000000000E+00 -0.2051770226928E-01
 0.1095759761087E-01 -0.1485849668349E-01  0.0000000000000E+00 -0.2391142235892E-01
 0.1127893025685E+00 -0.1658828946956E+00  0.0000000000000E+00 -0.4313146667324E+00
 0.1765018483762E+00 -0.2254301370559E+00  0.0000000000000E+00 -0.3099891286188E+00
 0.2269870374781E+00 -0.2720594735555E+00  0.0000000000000E+00 -0.2383129554171E+00
 0.2649177425410E+00 -0.3068406041647E+00  0.0000000000000E+00 -0.2039969831480E+00
 0.2915463810660E+00 -0.3309911113704E+00  0.0000000000000E+00 -0.1985642552973E+00
 0.3076601057611E+00 -0.3454918224474E+00  0.0000000000000E+00 -0.2159706298146E+00
 0.3148944424623E+00 -0.3519241160677E+00  0.0000000000000E+00 -0.2545342888069E+00
 0.3155523691743E+00 -0.3523150807291E+00  0.0000000000000E+00 -0.3113886266689E+00
 0.3096725176657E+00 -0.3466244254522E+00  0.0000000000000E+00 -0.3763824387353E+00
 0.2950129622521E+00 -0.3342896734647E+00  0.0000000000000E+00 -0.4371236725825E+00
 0.1060441203681E+00 -0.1618377120395E+00  0.0000000000000E+00 -0.3971993431613E+00
 0.1784913572314E+00 -0.2294269766236E+00  0.0000000000000E+00 -0.2848509658229E+00
 0.2355057519451E+00 -0.2824322289078E+00  0.0000000000000E+00 -0.2213466356942E+00
 0.2788808631669E+00 -0.3225496486408E+00  0.0000000000000E+00 -0.1929869875205E+00
 0.3102706709808E+00 -0.3515335262357E+00  0.0000000000000E+00 -0.1917354794678E+00
 0.3309827432308E+00 -0.3707269159876E+00  0.0000000000000E+00 -0.2125490234789E+00
 0.3429423993517E+00 -0.3820427644903E+00  0.0000000000000E+00 -0.2541454053057E+00
 0.3482486204669E+00 -0.3874860713327E+00  0.0000000000000E+00 -0.3130488369398E+00
 0.3455498064636E+00 -0.3860122191625E+00  0.0000000000000E+00 -0.3802621483849E+00
 0.3335520137332E+00 -0.3754158395247E+00  0.0000000000000E+00 -0.4539874857709E+00
 0.1000232687494E+00 -0.1582280720559E+00  0.0000000000000E+00 -0.3601366761702E+00
 0.1811332701959E+00 -0.2340407119316E+00  0.0000000000000E+00 -0.2575776833732E+00
 0.2443190234381E+00 -0.2929367894451E+00  0.0000000000000E+00 -0.2016807870471E+00
 0.2926557355577E+00 -0.3379433778459E+00  0.0000000000000E+00 -0.1787530633348E+00
 0.3285290906431E+00 -0.3714354224182E+00  0.0000000000000E+00 -0.1810268678626E+00
 0.3538112681498E+00 -0.3953173808191E+00  0.0000000000000E+00 -0.2042694995622E+00
 0.3706227339057E+00 -0.4117143861595E+00  0.0000000000000E+00 -0.2471863228393E+00
 0.3806153025644E+00 -0.4223153124246E+00  0.0000000000000E+00 -0.3068110628715E+00
 0.3829370220670E+00 -0.4261698159084E+00  0.0000000000000E+00 -0.3779044522180E+00
 0.3767895475351E+00 -0.4223131604782E+00  0.0000000000000E+00 -0.4582461975930E+00
 0.9472852031509E-01 -0.1551606578235E+00  0.0000000000000E+00 -0.3198112518640E+00
 0.1840997693992E+00 -0.2388002185870E+00  0.0000000000000E+00 -0.2280904719992E+00
 0.2530080626641E+00 -0.3031745230622E+00  0.0000000000000E+00 -0.1797222008537E+00
 0.3058744326214E+00 -0.3526130841770E+00  0.0000000000000E+00 -0.1615922600598E+00
 0.3459275199930E+00 -0.3903111909404E+00  0.0000000000000E+00 -0.1665066850139E+00
 0.3756142853805E+00 -0.4187225135681E+00  0.0000000000000E+00 -0.1908309997615E+00
 0.3972202141134E+00 -0.4401659234485E+00  0.0000000000000E+00 -0.2334595970067E+00
 0.4124083667700E+00 -0.4563102138593E+00  0.0000000000000E+00 -0.2924699793345E+00
 0.4208381953671E+00 -0.4668580924379E+00  0.0000000000000E+00 -0.3642409629921E+00
 0.4214043905402E+00 -0.4707604829585E+00  0.0000000000000E+00 -0.4459418131144E+00
 0.9016392190316E-01 -0.1525954727584E+00  0.0000000000000E+00 -0.2764255933990E+00
 0.1871511420535E+00 -0.2434485434111E+00  0.0000000000000E+00 -0.1965852352181E+00
 0.2612158313232E+00 -0.3127495114049E+00  0.0000000000000E+00 -0.1557252128159E+00
 0.3181434600265E+00 -0.3661583236900E+00  0.0000000000000E+00 -0.1417757082082E+00
 0.3620108806773E+00 -0.4076921875270E+00  0.0000000000000E+00 -0.1483061654850E+00
 0.3958169626039E+00 -0.4403477155575E+00  0.0000000000000E+00 -0.1722811919377E+00
 0.4221033713503E+00 -0.4666972487231E+00  0.0000000000000E+00 -0.2128965488618E+00
 0.4426700547715E+00 -0.4885982929647E+00  0.0000000000000E+00 -0.2688584159120E+00
 0.4574895993028E+00 -0.5061648266468E+00  0.0000000000000E+00 -0.3374509587827E+00
 0.4650320734355E+00 -0.5181347258909E+00  0.0000000000000E+00 -0.4156766781665E+00
 0.8633476367136E-01 -0.1505006462406E+00  0.0000000000000E+00 -0.2302690573502E+00
 0.1900676122571E+00 -0.2477381672666E+00  0.0000000000000E+00 -0.1633234819164E+00
 0.2686202757455E+00 -0.3213221519581E+00  0.0000000000000E+00 -0.1299527868356E+00
 0.3290768905896E+00 -0.3781775580210E+00  0.0000000000000E+00 -0.1195729787688E+00
 0.3763126597707E+00 -0.4230996948529E+00  0.0000000000000E+00 -0.1266863328726E+00
 0.4138463324835E+00 -0.4595946181261E+00  0.0000000000000E+00 -0.1488606113422E+00
 0.4444947732220E+00 -0.4905229926620E+00  0.0000000000000E+00 -0.1855236584983E+00
 0.4701974798423E+00 -0.5179303516377E+00  0.0000000000000E+00 -0.2357459537046E+00
 0.4910941100457E+00 -0.5421896807328E+00  0.0000000000000E+00 -0.2973416713305E+00
 0.5052376864522E+00 -0.5617925632396E+00  0.0000000000000E+00 -0.3673355352800E+00
 0.8325105929872E-01 -0.1488504668077E+00  0.0000000000000E+00 -0.1817223733794E+00
 0.1926546821259E+00 -0.2514522813597E+00  0.0000000000000E+00 -0.1285923613066E+00
 0.2749312056293E+00 -0.3285863985119E+00  0.0000000000000E+00 -0.1026848072652E+00
 0.3383163355562E+00 -0.3883005209731E+00  0.0000000000000E+00 -0.9530315566845E-01
 0.3883895238610E+00 -0.4360768139053E+00  0.0000000000000E+00 -0.1020252672894E+00
 0.4291242226236E+00 -0.4758714178568E+00  0.0000000000000E+00 -0.1209946270179E+00
 0.4635824085000E+00 -0.5108052209718E+00  0.0000000000000E+00 -0.1518053895491E+00
 0.4938051060867E+00 -0.5430702395178E+00  0.0000000000000E+00 -0.1937480082235E+00
 0.5199735777199E+00 -0.5731546805424E+00  0.0000000000000E+00 -0.2450142881769E+00
 0.5397941793527E+00 -0.5993084271685E+00  0.0000000000000E+00 -0.3028895171635E+00
 0.8092457971045E-01 -0.1476266992486E+00  0.0000000000000E+00 -0.1312378328637E+00
 0.1947477684835E+00 -0.2544075552622E+00  0.0000000000000E+00 -0.9269742515221E-01
 0.2798994390475E+00 -0.3342806405792E+00  0.0000000000000E+00 -0.7422243074201E-01
 0.3455482388505E+00 -0.3962036147366E+00  0.0000000000000E+00 -0.6934276854235E-01
 0.3978418049946E+00 -0.4462140083401E+00  0.0000000000000E+00 -0.7482098352931E-01
 0.4411153515728E+00 -0.4886280719714E+00  0.0000000000000E+00 -0.8934900264600E-01
 0.4786211964898E+00 -0.5267716254629E+00  0.0000000000000E+00 -0.1126471391628E+00
 0.5124557914844E+00 -0.5629278329302E+00  0.0000000000000E+00 -0.1441817546232E+00
 0.5427668576163E+00 -0.5976028391169E+00  0.0000000000000E+00 -0.1825569434036E+00
 0.5670059418907E+00 -0.6288434387267E+00  0.0000000000000E+00 -0.2256188970999E+00
 0.7936642674012E-01 -0.1468170498100E+00  0.0000000000000E+00 -0.7932594161201E-01
 0.1962176803551E+00 -0.2564604132785E+00  0.0000000000000E+00 -0.5595925456482E-01
 0.2833270190549E+00 -0.3381974657888E+00  0.0000000000000E+00 -0.4488807871640E-01
 0.3505192545951E+00 -0.4016261875694E+00  0.0000000000000E+00 -0.4212436628572E-01
 0.4043402565620E+00 -0.4531739395055E+00  0.0000000000000E+00 -0.4569381195523E-01
 0.4493752387520E+00 -0.4974069239067E+00  0.0000000000000E+00 -0.5481792790756E-01
 0.4890030993508E+00 -0.5377886218022E+00  0.0000000000000E+00 -0.6932869507516E-01
 0.5253425450897E+00 -0.5766485919215E+00  0.0000000000000E+00 -0.8888507190333E-01
 0.5584896170915E+00 -0.6144715864465E+00  0.0000000000000E+00 -0.1125988321911E+00
 0.5857266457188E+00 -0.6491620206910E+00  0.0000000000000E+00 -0.1390896455745E+00
 0.7858507144238E-01 -0.1464140028175E+00  0.0000000000000E+00 -0.2654007246270E-01
 0.1969753623303E+00 -0.2575120320496E+00  0.0000000000000E+00 -0.1871014204904E-01
 0.2850761775848E+00 -0.3401928201623E+00  0.0000000000000E+00 -0.1502223647765E-01
 0.3530509081017E+00 -0.4043848545262E+00  0.0000000000000E+00 -0.1412907052416E-01
 0.4076504198628E+00 -0.4567163685168E+00  0.0000000000000E+00 -0.1536718923120E-01
 0.4535872968166E+00 -0.5018812335507E+00  0.0000000000000E+00 -0.1847802659563E-01
 0.4943028677607E+00 -0.5434112845472E+00  0.0000000000000E+00 -0.2340501811863E-01
 0.5319220264763E+00 -0.5836541098464E+00  0.0000000000000E+00 -0.3003009322076E-01
 0.5665064570370E+00 -0.6230743137887E+00  0.0000000000000E+00 -0.3804782027098E-01
 0.5952521691944E+00 -0.6595013663560E+00  0.0000000000000E+00 -0.4698163153433E-01
 0.7858507151906E-01 -0.1464140028627E+00  0.0000000000000E+00  0.2654008137895E-01
 0.1969753622865E+00 -0.2575120319863E+00  0.0000000000000E+00  0.1871014708131E-01
 0.2850761775010E+00 -0.3401928200669E+00  0.0000000000000E+00  0.1502223953084E-01
 0.3530509080189E+00 -0.4043848544367E+00  0.0000000000000E+00  0.1412907251515E-01
 0.4076504197988E+00 -0.4567163684493E+00  0.0000000000000E+00  0.1536719052244E-01
 0.4535872967743E+00 -0.5018812335068E+00  0.0000000000000E+00  0.1847802733108E-01
 0.4943028677355E+00 -0.5434112845212E+00  0.0000000000000E+00  0.2340501845371E-01
 0.5319220264614E+00 -0.5836541098311E+00  0.0000000000000E+00  0.3003009333459E-01
 0.5665064570272E+00 -0.6230743137786E+00  0.0000000000000E+00  0.3804782029930E-01
 0.5952521691857E+00 -0.6595013663472E+00  0.0000000000000E+00  0.4698163156023E-01
 0.7936642696953E-01 -0.1468170499457E+00  0.0000000000000E+00  0.7932595043171E-01
 0.1962176802264E+00 -0.2564604130919E+00  0.0000000000000E+00  0.5595925955135E-01
 0.2833270188071E+00 -0.3381974655062E+00  0.0000000000000E+00  0.4488808173597E-01
 0.3505192543498E+00 -0.4016261873043E+00  0.0000000000000E+00  0.4212436824495E-01
 0.4043402563725E+00 -0.4531739393058E+00  0.0000000000000E+00  0.4569381321764E-01
 0.4493752386274E+00 -0.4974069237774E+00  0.0000000000000E+00  0.5481792862036E-01
 0.4890030992765E+00 -0.5377886217257E+00  0.0000000000000E+00  0.6932869539376E-01
 0.5253425450462E+00 -0.5766485918766E+00  0.0000000000000E+00  0.8888507200488E-01
 0.5584896170629E+00 -0.6144715864168E+00  0.0000000000000E+00  0.1125988322101E+00
 0.5857266456929E+00 -0.6491620206648E+00  0.0000000000000E+00  0.1390896455933E+00
 0.8092458009077E-01 -0.1476266994750E+00  0.0000000000000E+00  0.1312378414934E+00
 0.1947477682785E+00 -0.2544075549619E+00  0.0000000000000E+00  0.9269743004820E-01
 0.2798994386460E+00 -0.3342806401205E+00  0.0000000000000E+00  0.7422243369540E-01
 0.3455482384519E+00 -0.3962036143056E+00  0.0000000000000E+00  0.6934277043955E-01
 0.3978418046874E+00 -0.4462140080161E+00  0.0000000000000E+00  0.7482098473569E-01
 0.4411153513720E+00 -0.4886280717629E+00  0.0000000000000E+00  0.8934900331476E-01
 0.4786211963712E+00 -0.5267716253407E+00  0.0000000000000E+00  0.1126471394492E+00
 0.5124557914153E+00 -0.5629278328590E+00  0.0000000000000E+00  0.1441817547005E+00
 0.5427668575705E+00 -0.5976028390694E+00  0.0000000000000E+00  0.1825569434040E+00
 0.5670059418486E+00 -0.6288434386840E+00  0.0000000000000E+00  0.2256188971042E+00
 0.8325105982705E-01 -0.1488504671253E+00  0.0000000000000E+00  0.1817223817315E+00
 0.1926546818584E+00 -0.2514522809614E+00  0.0000000000000E+00  0.1285923660692E+00
 0.2749312050908E+00 -0.3285863978949E+00  0.0000000000000E+00  0.1026848101219E+00
 0.3383163350195E+00 -0.3883005203920E+00  0.0000000000000E+00  0.9530315747620E-01
 0.3883895234485E+00 -0.4360768134701E+00  0.0000000000000E+00  0.1020252684156E+00
 0.4291242223565E+00 -0.4758714175794E+00  0.0000000000000E+00  0.1209946276236E+00
 0.4635824083444E+00 -0.5108052208114E+00  0.0000000000000E+00  0.1518053897890E+00
 0.4938051059971E+00 -0.5430702394252E+00  0.0000000000000E+00  0.1937480082657E+00
 0.5199735776598E+00 -0.5731546804801E+00  0.0000000000000E+00  0.2450142881497E+00
 0.5397941792962E+00 -0.5993084271110E+00  0.0000000000000E+00  0.3028895171456E+00
 0.8633476434393E-01 -0.1505006466500E+00  0.0000000000000E+00  0.2302690653459E+00
 0.1900676119456E+00 -0.2477381667912E+00  0.0000000000000E+00  0.1633234865057E+00
 0.2686202750925E+00 -0.3213221512066E+00  0.0000000000000E+00  0.1299527895681E+00
 0.3290768899350E+00 -0.3781775573109E+00  0.0000000000000E+00  0.1195729804635E+00
 0.3763126592695E+00 -0.4230996943236E+00  0.0000000000000E+00  0.1266863338982E+00
 0.4138463321630E+00 -0.4595946177930E+00  0.0000000000000E+00  0.1488606118688E+00
 0.4444947730389E+00 -0.4905229924732E+00  0.0000000000000E+00  0.1855236586795E+00
 0.4701974797385E+00 -0.5179303515304E+00  0.0000000000000E+00  0.2357459537020E+00
 0.4910941099755E+00 -0.5421896806599E+00  0.0000000000000E+00  0.2973416712676E+00
 0.5052376863844E+00 -0.5617925631700E+00  0.0000000000000E+00  0.3673355352320E+00
 0.9016392271550E-01 -0.1525954732605E+00  0.0000000000000E+00  0.2764256009705E+00
 0.1871511417200E+00 -0.2434485428836E+00  0.0000000000000E+00  0.1965852395986E+00
 0.2612158305830E+00 -0.3127495105482E+00  0.0000000000000E+00  0.1557252154009E+00
 0.3181434592790E+00 -0.3661583228771E+00  0.0000000000000E+00  0.1417757097709E+00
 0.3620108801075E+00 -0.4076921869246E+00  0.0000000000000E+00  0.1483061663937E+00
 0.3958169622451E+00 -0.4403477151844E+00  0.0000000000000E+00  0.1722811923722E+00
 0.4221033711502E+00 -0.4666972485166E+00  0.0000000000000E+00  0.2128965489744E+00
 0.4426700546606E+00 -0.4885982928498E+00  0.0000000000000E+00  0.2688584158577E+00
 0.4574895992276E+00 -0.5061648265684E+00  0.0000000000000E+00  0.3374509586784E+00
 0.4650320733609E+00 -0.5181347258140E+00  0.0000000000000E+00  0.4156766780803E+00
 0.9472852126205E-01 -0.1551606584189E+00  0.0000000000000E+00  0.3198112589567E+00
 0.1840997690685E+00 -0.2388002180353E+00  0.0000000000000E+00  0.2280904761421E+00
 0.2530080618685E+00 -0.3031745221341E+00  0.0000000000000E+00  0.1797222032740E+00
 0.3058744318104E+00 -0.3526130832925E+00  0.0000000000000E+00  0.1615922614761E+00
 0.3459275193778E+00 -0.3903111902890E+00  0.0000000000000E+00  0.1665066857922E+00
 0.3756142849998E+00 -0.4187225131716E+00  0.0000000000000E+00  0.1908310000924E+00
 0.3972202139067E+00 -0.4401659232347E+00  0.0000000000000E+00  0.2334595970426E+00
 0.4124083666584E+00 -0.4563102137433E+00  0.0000000000000E+00  0.2924699792244E+00
 0.4208381952917E+00 -0.4668580923590E+00  0.0000000000000E+00  0.3642409628455E+00
 0.4214043904646E+00 -0.4707604828801E+00  0.0000000000000E+00  0.4459418129904E+00
 0.1000232698246E+00 -0.1582280727435E+00  0.0000000000000E+00  0.3601366827450E+00
 0.1811332698936E+00 -0.2340407113848E+00  0.0000000000000E+00  0.2575776872614E+00
 0.2443190226231E+00 -0.2929367884844E+00  0.0000000000000E+00  0.2016807892952E+00
 0.2926557347177E+00 -0.3379433769263E+00  0.0000000000000E+00  0.1787530645950E+00
 0.3285290900092E+00 -0.3714354217456E+00  0.0000000000000E+00  0.1810268684967E+00
 0.3538112677639E+00 -0.3953173804163E+00  0.0000000000000E+00  0.2042694997764E+00
 0.3706227337010E+00 -0.4117143859468E+00  0.0000000000000E+00  0.2471863227903E+00
 0.3806153024563E+00 -0.4223153123113E+00  0.0000000000000E+00  0.3068110627045E+00
 0.3829370219946E+00 -0.4261698158321E+00  0.0000000000000E+00  0.3779044520335E+00
 0.3767895474625E+00 -0.4223131604024E+00  0.0000000000000E+00  0.4582461974391E+00
 0.1060441215621E+00 -0.1618377128139E+00  0.0000000000000E+00  0.3971993491959E+00
 0.1784913569813E+00 -0.2294269761079E+00  0.0000000000000E+00  0.2848509694619E+00
 0.2355057511527E+00 -0.2824322279607E+00  0.0000000000000E+00  0.2213466377799E+00
 0.2788808623402E+00 -0.3225496477310E+00  0.0000000000000E+00  0.1929869886167E+00
 0.3102706703581E+00 -0.3515335255734E+00  0.0000000000000E+00  0.1917354799390E+00
 0.3309827428558E+00 -0.3707269155948E+00  0.0000000000000E+00  0.2125490235568E+00
 0.3429423991542E+00 -0.3820427642831E+00  0.0000000000000E+00  0.2541454051606E+00
 0.3482486203622E+00 -0.3874860712213E+00  0.0000000000000E+00  0.3130488367177E+00
 0.3455498063942E+00 -0.3860122190887E+00  0.0000000000000E+00  0.3802621481722E+00
 0.3335520136651E+00 -0.3754158394534E+00  0.0000000000000E+00  0.4539874855981E+00
 0.1127893038567E+00 -0.1658828955194E+00  0.0000000000000E+00  0.4313146722576E+00
 0.1765018482004E+00 -0.2254301366040E+00  0.0000000000000E+00  0.3099891320835E+00
 0.2269870367645E+00 -0.2720594726808E+00  0.0000000000000E+00  0.2383129573675E+00
 0.2649177417812E+00 -0.3068406033221E+00  0.0000000000000E+00  0.2039969840754E+00
 0.2915463804909E+00 -0.3309911107576E+00  0.0000000000000E+00  0.1985642555698E+00
 0.3076601054091E+00 -0.3454918220761E+00  0.0000000000000E+00  0.2159706297197E+00
 0.3148944422703E+00 -0.3519241158630E+00  0.0000000000000E+00  0.2545342885518E+00
 0.3155523690684E+00 -0.3523150806147E+00  0.0000000000000E+00  0.3113886263964E+00
 0.3096725175957E+00 -0.3466244253767E+00  0.0000000000000E+00  0.3763824385098E+00
 0.2950129621865E+00 -0.3342896733966E+00  0.0000000000000E+00  0.4371236724069E+00
 0.1719363934988E+00 -0.2640342407741E+00  0.0000000000000E+00 -0.2927214060013E+00
 0.6391708504597E-01 -0.6502209541425E-01  0.0000000000000E+00  0.6927823310138E-01
-0.2003439445295E-02  0.5844626862223E-02  0.0000000000000E+00  0.8603746187056E-02
-0.2032034862402E-01  0.2548622638271E-01  0.0000000000000E+00 -0.1708618875970E-01
-0.3149655542798E-01  0.3682259650789E-01  0.0000000000000E+00 -0.1218788432344E-01
-0.3534425709427E-01  0.4052443332675E-01  0.0000000000000E+00  0.9795764911509E-02
-0.2931803730761E-01  0.3483825068098E-01  0.0000000000000E+00  0.4584790856939E-01
-0.1318167139590E-01  0.1881658329663E-01  0.0000000000000E+00  0.7966152270622E-01
 0.5899770395870E-02  0.1572598683046E-03  0.0000000000000E+00  0.9628665601711E-01
 0.2746585635486E-01 -0.2194298317833E-01  0.0000000000000E+00  0.1086728131217E+00
 0.2085638935760E+00 -0.2615744294615E+00  0.0000000000000E+00 -0.4340971011893E+00
 0.1415218892394E+00 -0.1668366588392E+00  0.0000000000000E+00 -0.6504566856838E-01
 0.5792776421838E-01 -0.6244198145302E-01  0.0000000000000E+00  0.8624687438552E-02
 0.1965567709275E-01 -0.1989572949836E-01  0.0000000000000E+00 -0.2121408438467E-03
-0.9319972291069E-03  0.2009446191617E-02  0.0000000000000E+00 -0.4933347251701E-02
-0.1247956630432E-01  0.1418427310846E-01  0.0000000000000E+00  0.3372320869009E-02
-0.1424026866508E-01  0.1643877455351E-01  0.0000000000000E+00  0.2425312457825E-01
-0.6351149942089E-02  0.8774098102500E-02  0.0000000000000E+00  0.4483237771662E-01
 0.4524081040103E-02 -0.2310710048261E-02  0.0000000000000E+00  0.5061110273285E-01
 0.1453089372579E-01 -0.1260922662664E-01  0.0000000000000E+00  0.5030928341813E-01
 0.1994291681708E+00 -0.2432655858127E+00  0.0000000000000E+00 -0.4878292907736E+00
 0.1700440571891E+00 -0.1977504957541E+00  0.0000000000000E+00 -0.1826538592096E+00
 0.1091900363606E+00 -0.1237231233869E+00  0.0000000000000E+00 -0.5373784465818E-01
 0.6456440712669E-01 -0.7107961268421E-01  0.0000000000000E+00 -0.1818081926690E-01
 0.3573617552145E-01 -0.3946968223034E-01  0.0000000000000E+00 -0.1534075107062E-01
 0.1714082182758E-01 -0.1949346231274E-01  0.0000000000000E+00 -0.1437019690521E-01
 0.7624936325744E-02 -0.9207095222591E-02  0.0000000000000E+00 -0.7484587365897E-02
 0.7030143096391E-02 -0.8418660327709E-02  0.0000000000000E+00 -0.1766588414969E-02
 0.9542819664530E-02 -0.1133583404869E-01  0.0000000000000E+00 -0.8787277770465E-02
 0.1073110324677E-01 -0.1351824705295E-01  0.0000000000000E+00 -0.2649823034127E-01
 0.1859585195976E+00 -0.2266786863992E+00  0.0000000000000E+00 -0.5135083721143E+00
 0.1789477218433E+00 -0.2087488617316E+00  0.0000000000000E+00 -0.2603315981665E+00
 0.1413678060378E+00 -0.1614255977491E+00  0.0000000000000E+00 -0.1215286345694E+00
 0.1044102062133E+00 -0.1174427841827E+00  0.0000000000000E+00 -0.6172450280183E-01
 0.7448014538844E-01 -0.8346132825414E-01  0.0000000000000E+00 -0.4456917869244E-01
 0.5170342576286E-01 -0.5858895352185E-01  0.0000000000000E+00 -0.4426968113222E-01
 0.3610156028663E-01 -0.4194687921736E-01  0.0000000000000E+00 -0.4858150106323E-01
 0.2806591095426E-01 -0.3368224106556E-01  0.0000000000000E+00 -0.5793599141762E-01
 0.2385518654397E-01 -0.3014628101744E-01  0.0000000000000E+00 -0.7887934887612E-01
 0.1943850138505E-01 -0.2736394508803E-01  0.0000000000000E+00 -0.1124766272378E+00
 0.1724802272749E+00 -0.2128557750092E+00  0.0000000000000E+00 -0.5238728806752E+00
 0.1806918911342E+00 -0.2126880461356E+00  0.0000000000000E+00 -0.3103972504348E+00
 0.1623640876826E+00 -0.1867658037406E+00  0.0000000000000E+00 -0.1778476367646E+00
 0.1369449164035E+00 -0.1553550990566E+00  0.0000000000000E+00 -0.1102650825783E+00
 0.1116935738380E+00 -0.1260098893281E+00  0.0000000000000E+00 -0.8496752163250E-01
 0.8904053547518E-01 -0.1007793010100E+00  0.0000000000000E+00 -0.8335470423064E-01
 0.7035357841048E-01 -0.8082664913367E-01  0.0000000000000E+00 -0.9597786032742E-01
 0.5733790065731E-01 -0.6756413869316E-01  0.0000000000000E+00 -0.1189341168133E+00
 0.4882946436597E-01 -0.5992693092470E-01  0.0000000000000E+00 -0.1526437660609E+00
 0.4104431592587E-01 -0.5423057854752E-01  0.0000000000000E+00 -0.1984389514008E+00
 0.1601817795100E+00 -0.2015790410108E+00  0.0000000000000E+00 -0.5244410703420E+00
 0.1799645260172E+00 -0.2144664866168E+00  0.0000000000000E+00 -0.3403225486668E+00
 0.1773827005543E+00 -0.2056241927823E+00  0.0000000000000E+00 -0.2200042635208E+00
 0.1641759529557E+00 -0.1873279224654E+00  0.0000000000000E+00 -0.1538730338754E+00
 0.1465289834557E+00 -0.1658687027926E+00  0.0000000000000E+00 -0.1267964426483E+00
 0.1275270915450E+00 -0.1442212239638E+00  0.0000000000000E+00 -0.1255147619690E+00
 0.1091699514953E+00 -0.1244871317206E+00  0.0000000000000E+00 -0.1444189709083E+00
 0.9427386487422E-01 -0.1093406129704E+00  0.0000000000000E+00 -0.1781932598492E+00
 0.8400458081032E-01 -0.1000153020709E+00  0.0000000000000E+00 -0.2221373134250E+00
 0.7407022933863E-01 -0.9235007931220E-01  0.0000000000000E+00 -0.2764019011959E+00
 0.1491288639105E+00 -0.1923187839764E+00  0.0000000000000E+00 -0.5175774027310E+00
 0.1787550432208E+00 -0.2159946652833E+00  0.0000000000000E+00 -0.3550897013127E+00
 0.1893928877483E+00 -0.2212864773103E+00  0.0000000000000E+00 -0.2483028632546E+00
 0.1880096253149E+00 -0.2155101965208E+00  0.0000000000000E+00 -0.1882122277892E+00
 0.1793219950346E+00 -0.2033930859557E+00  0.0000000000000E+00 -0.1635714538265E+00
 0.1662890804988E+00 -0.1878534456206E+00  0.0000000000000E+00 -0.1644259027436E+00
 0.1510829911052E+00 -0.1712860205570E+00  0.0000000000000E+00 -0.1880176528568E+00
 0.1371916664853E+00 -0.1571438642803E+00  0.0000000000000E+00 -0.2290418176880E+00
 0.1273767843571E+00 -0.1481802039468E+00  0.0000000000000E+00 -0.2799390050059E+00
 0.1160594402853E+00 -0.1390504130697E+00  0.0000000000000E+00 -0.3402787707469E+00
 0.1391203186579E+00 -0.1845388419652E+00  0.0000000000000E+00 -0.5043276541137E+00
 0.1778040787726E+00 -0.2179292896821E+00  0.0000000000000E+00 -0.3578560049886E+00
 0.1999294034136E+00 -0.2353795281746E+00  0.0000000000000E+00 -0.2637425010680E+00
 0.2096998329677E+00 -0.2413029438435E+00  0.0000000000000E+00 -0.2114046971650E+00
 0.2104508753290E+00 -0.2390010707667E+00  0.0000000000000E+00 -0.1913561186359E+00
 0.2047007541135E+00 -0.2309704663207E+00  0.0000000000000E+00 -0.1953927332775E+00
 0.1944446978052E+00 -0.2194568509960E+00  0.0000000000000E+00 -0.2221426341658E+00
 0.1834745759830E+00 -0.2081649980436E+00  0.0000000000000E+00 -0.2664657282162E+00
 0.1756702184178E+00 -0.2009503644386E+00  0.0000000000000E+00 -0.3203667723669E+00
 0.1641189606615E+00 -0.1912081421546E+00  0.0000000000000E+00 -0.3855429010336E+00
 0.1298647196398E+00 -0.1777267023996E+00  0.0000000000000E+00 -0.4850730061789E+00
 0.1772074827398E+00 -0.2202755797661E+00  0.0000000000000E+00 -0.3505605657207E+00
 0.2096407638116E+00 -0.2485609348836E+00  0.0000000000000E+00 -0.2671904108704E+00
 0.2298845856532E+00 -0.2654060797533E+00  0.0000000000000E+00 -0.2226262032734E+00
 0.2400637221128E+00 -0.2728647160452E+00  0.0000000000000E+00 -0.2078917891579E+00
 0.2421404400992E+00 -0.2729049685297E+00  0.0000000000000E+00 -0.2154323796312E+00
 0.2377750716800E+00 -0.2674034616901E+00  0.0000000000000E+00 -0.2441931931286E+00
 0.2301030326111E+00 -0.2594640711882E+00  0.0000000000000E+00 -0.2892963722010E+00
 0.2243923573006E+00 -0.2535572618168E+00  0.0000000000000E+00 -0.3412171027982E+00
 0.2149559838955E+00 -0.2452425550861E+00  0.0000000000000E+00 -0.4086360802652E+00
 0.1210005437536E+00 -0.1713209392309E+00  0.0000000000000E+00 -0.4598307572981E+00
 0.1766748245404E+00 -0.2226385569724E+00  0.0000000000000E+00 -0.3340504546217E+00
 0.2186665400454E+00 -0.2609682583152E+00  0.0000000000000E+00 -0.2590549812986E+00
 0.2487762412010E+00 -0.2880183314388E+00  0.0000000000000E+00 -0.2214240396520E+00
 0.2680921051432E+00 -0.3049270835032E+00  0.0000000000000E+00 -0.2119045976728E+00
 0.2779451108594E+00 -0.3129497829171E+00  0.0000000000000E+00 -0.2228988818267E+00
 0.2797758988225E+00 -0.3137225984258E+00  0.0000000000000E+00 -0.2525506120571E+00
 0.2759033452432E+00 -0.3096349310414E+00  0.0000000000000E+00 -0.2982527108880E+00
 0.2691567840538E+00 -0.3029461202690E+00  0.0000000000000E+00 -0.3501295826663E+00
 0.2635843452996E+00 -0.2944472925455E+00  0.0000000000000E+00 -0.4104899475225E+00
 0.1210005450279E+00 -0.1713209400880E+00  0.0000000000000E+00  0.4598307618751E+00
 0.1766748244600E+00 -0.2226385566085E+00  0.0000000000000E+00  0.3340504574282E+00
 0.2186665393967E+00 -0.2609682574831E+00  0.0000000000000E+00  0.2590549828001E+00
 0.2487762404746E+00 -0.2880183305993E+00  0.0000000000000E+00  0.2214240403244E+00
 0.2680921045883E+00 -0.3049270828853E+00  0.0000000000000E+00  0.2119045978679E+00
 0.2779451105272E+00 -0.3129497825543E+00  0.0000000000000E+00  0.2228988817906E+00
 0.2797758986534E+00 -0.3137225982413E+00  0.0000000000000E+00  0.2525506119120E+00
 0.2759033451519E+00 -0.3096349309420E+00  0.0000000000000E+00  0.2982527107196E+00
 0.2691567839839E+00 -0.3029461201957E+00  0.0000000000000E+00  0.3501295825143E+00
 0.2635843452287E+00 -0.2944472924745E+00  0.0000000000000E+00  0.4104899473758E+00
 0.1298647208643E+00 -0.1777267032475E+00  0.0000000000000E+00  0.4850730095957E+00
 0.1772074827626E+00 -0.2202755795357E+00  0.0000000000000E+00  0.3505605676116E+00
 0.2096407633067E+00 -0.2485609342108E+00  0.0000000000000E+00  0.2671904117317E+00
 0.2298845850587E+00 -0.2654060790540E+00  0.0000000000000E+00  0.2226262035414E+00
 0.2400637216545E+00 -0.2728647155271E+00  0.0000000000000E+00  0.2078917891232E+00
 0.2421404398252E+00 -0.2729049682255E+00  0.0000000000000E+00  0.2154323794747E+00
 0.2377750715428E+00 -0.2674034615379E+00  0.0000000000000E+00  0.2441931929186E+00
 0.2301030325351E+00 -0.2594640711050E+00  0.0000000000000E+00  0.2892963719979E+00
 0.2243923572358E+00 -0.2535572617484E+00  0.0000000000000E+00  0.3412171026151E+00
 0.2149559838267E+00 -0.2452425550129E+00  0.0000000000000E+00  0.4086360800927E+00
 0.1391203198469E+00 -0.1845388428470E+00  0.0000000000000E+00  0.5043276565521E+00
 0.1778040789220E+00 -0.2179292896143E+00  0.0000000000000E+00  0.3578560060618E+00
 0.1999294030587E+00 -0.2353795276723E+00  0.0000000000000E+00  0.2637425013521E+00
 0.2096998325070E+00 -0.2413029432874E+00  0.0000000000000E+00  0.2114046970722E+00
 0.2104508749697E+00 -0.2390010703514E+00  0.0000000000000E+00  0.1913561183996E+00
 0.2047007539026E+00 -0.2309704660812E+00  0.0000000000000E+00  0.1953927330277E+00
 0.1944446977042E+00 -0.2194568508815E+00  0.0000000000000E+00  0.2221426339251E+00
 0.1834745759264E+00 -0.2081649979811E+00  0.0000000000000E+00  0.2664657280081E+00
 0.1756702183657E+00 -0.2009503643824E+00  0.0000000000000E+00  0.3203667721803E+00
 0.1641189605939E+00 -0.1912081420806E+00  0.0000000000000E+00  0.3855429008528E+00
 0.1491288650650E+00 -0.1923187849063E+00  0.0000000000000E+00  0.5175774043377E+00
 0.1787550434896E+00 -0.2159946653778E+00  0.0000000000000E+00  0.3550897016089E+00
 0.1893928875243E+00 -0.2212864769602E+00  0.0000000000000E+00  0.2483028630014E+00
 0.1880096249676E+00 -0.2155101960872E+00  0.0000000000000E+00  0.1882122273755E+00
 0.1793219947583E+00 -0.2033930856271E+00  0.0000000000000E+00  0.1635714534284E+00
 0.1662890803405E+00 -0.1878534454363E+00  0.0000000000000E+00  0.1644259024396E+00
 0.1510829910340E+00 -0.1712860204749E+00  0.0000000000000E+00  0.1880176526246E+00
 0.1371916664457E+00 -0.1571438642369E+00  0.0000000000000E+00  0.2290418175090E+00
 0.1273767843165E+00 -0.1481802039026E+00  0.0000000000000E+00  0.2799390048439E+00
 0.1160594402198E+00 -0.1390504129962E+00  0.0000000000000E+00  0.3402787705673E+00
 0.1601817806221E+00 -0.2015790419918E+00  0.0000000000000E+00  0.5244410712337E+00
 0.1799645263685E+00 -0.2144664868392E+00  0.0000000000000E+00  0.3403225482064E+00
 0.1773827004123E+00 -0.2056241925337E+00  0.0000000000000E+00  0.2200042627688E+00
 0.1641759526792E+00 -0.1873279221092E+00  0.0000000000000E+00  0.1538730331980E+00
 0.1465289832314E+00 -0.1658687025193E+00  0.0000000000000E+00  0.1267964421501E+00
 0.1275270914196E+00 -0.1442212238155E+00  0.0000000000000E+00  0.1255147616645E+00
 0.1091699514418E+00 -0.1244871316597E+00  0.0000000000000E+00  0.1444189707263E+00
 0.9427386484484E-01 -0.1093406129397E+00  0.0000000000000E+00  0.1781932597276E+00
 0.8400458077740E-01 -0.1000153020353E+00  0.0000000000000E+00  0.2221373133045E+00
 0.7407022927825E-01 -0.9235007924276E-01  0.0000000000000E+00  0.2764019010241E+00
 0.1724802283218E+00 -0.2128557760295E+00  0.0000000000000E+00  0.5238728809250E+00
 0.1806918914985E+00 -0.2126880464150E+00  0.0000000000000E+00  0.3103972492317E+00
 0.1623640875451E+00 -0.1867658035096E+00  0.0000000000000E+00  0.1778476355806E+00
 0.1369449161400E+00 -0.1553550987163E+00  0.0000000000000E+00  0.1102650817366E+00
 0.1116935736301E+00 -0.1260098890745E+00  0.0000000000000E+00  0.8496752112982E-01
 0.8904053536344E-01 -0.1007793008805E+00  0.0000000000000E+00  0.8335470399039E-01
 0.7035357836432E-01 -0.8082664908445E-01  0.0000000000000E+00  0.9597786023006E-01
 0.5733790063181E-01 -0.6756413866894E-01  0.0000000000000E+00  0.1189341167644E+00
 0.4882946433751E-01 -0.5992693089487E-01  0.0000000000000E+00  0.1526437659889E+00
 0.4104431587451E-01 -0.5423057848664E-01  0.0000000000000E+00  0.1984389512458E+00
 0.1859585205257E+00 -0.2266786874213E+00  0.0000000000000E+00  0.5135083717423E+00
 0.1789477221097E+00 -0.2087488619489E+00  0.0000000000000E+00  0.2603315962566E+00
 0.1413678058055E+00 -0.1614255974252E+00  0.0000000000000E+00  0.1215286330962E+00
 0.1044102059090E+00 -0.1174427838006E+00  0.0000000000000E+00  0.6172450197253E-01
 0.7448014517693E-01 -0.8346132800401E-01  0.0000000000000E+00  0.4456917831619E-01
 0.5170342565955E-01 -0.5858895340786E-01  0.0000000000000E+00  0.4426968101376E-01
 0.3610156024531E-01 -0.4194687917733E-01  0.0000000000000E+00  0.4858150106507E-01
 0.2806591092995E-01 -0.3368224104455E-01  0.0000000000000E+00  0.5793599144071E-01
 0.2385518651719E-01 -0.3014628099061E-01  0.0000000000000E+00  0.7887934885245E-01
 0.1943850134392E-01 -0.2736394503807E-01  0.0000000000000E+00  0.1124766271139E+00
 0.1994291688686E+00 -0.2432655867522E+00  0.0000000000000E+00  0.4878292897437E+00
 0.1700440571917E+00 -0.1977504957248E+00  0.0000000000000E+00  0.1826538567188E+00
 0.1091900359448E+00 -0.1237231228585E+00  0.0000000000000E+00  0.5373784321490E-01
 0.6456440678236E-01 -0.7107961227029E-01  0.0000000000000E+00  0.1818081872643E-01
 0.3573617532709E-01 -0.3946968201043E-01  0.0000000000000E+00  0.1534075093545E-01
 0.1714082174734E-01 -0.1949346222941E-01  0.0000000000000E+00  0.1437019692295E-01
 0.7624936294786E-02 -0.9207095196145E-02  0.0000000000000E+00  0.7484587452654E-02
 0.7030143073275E-02 -0.8418660308877E-02  0.0000000000000E+00  0.1766588494384E-02
 0.9542819635733E-02 -0.1133583402103E-01  0.0000000000000E+00  0.8787277789139E-02
 0.1073110321071E-01 -0.1351824701011E-01  0.0000000000000E+00  0.2649823026456E-01
 0.2085638937632E+00 -0.2615744301173E+00  0.0000000000000E+00  0.4340970993741E+00
 0.1415218887894E+00 -0.1668366582759E+00  0.0000000000000E+00  0.6504566601860E-01
 0.5792776370444E-01 -0.6244198082882E-01  0.0000000000000E+00 -0.8624688249693E-02
 0.1965567681817E-01 -0.1989572918020E-01  0.0000000000000E+00  0.2121408005931E-03
-0.9319973509658E-03  0.2009446323833E-02  0.0000000000000E+00  0.4933347342951E-02
-0.1247956633945E-01  0.1418427314115E-01  0.0000000000000E+00 -0.3372320764574E-02
-0.1424026867986E-01  0.1643877456245E-01  0.0000000000000E+00 -0.2425312444336E-01
-0.6351149963917E-02  0.8774098119893E-02  0.0000000000000E+00 -0.4483237760428E-01
 0.4524081004936E-02 -0.2310710015001E-02  0.0000000000000E+00 -0.5061110268245E-01
 0.1453089368229E-01 -0.1260922657949E-01  0.0000000000000E+00 -0.5030928343867E-01
 0.1719363929936E+00 -0.2640342408098E+00  0.0000000000000E+00  0.2927214038448E+00
 0.6391708444167E-01 -0.6502209465612E-01  0.0000000000000E+00 -0.6927823449986E-01
-0.2003439675674E-02  0.5844627151409E-02  0.0000000000000E+00 -0.8603746051117E-02
-0.2032034870819E-01  0.2548622648057E-01  0.0000000000000E+00  0.1708618900498E-01
-0.3149655543912E-01  0.3682259651795E-01  0.0000000000000E+00  0.1218788447681E-01
-0.3534425707622E-01  0.4052443330409E-01  0.0000000000000E+00 -0.9795764800288E-02
-0.2931803730624E-01  0.3483825067354E-01  0.0000000000000E+00 -0.4584790842575E-01
-0.1318167141828E-01  0.1881658331574E-01  0.0000000000000E+00 -0.7966152258578E-01
 0.5899770350499E-02  0.1572599100782E-03  0.0000000000000E+00 -0.9628665594290E-01
 0.2746585629039E-01 -0.2194298311215E-01  0.0000000000000E+00 -0.1086728130962E+00
 0.2690457165802E+00 -0.3073526263017E+00  0.0000000000000E+00 -0.4869248012892E+00
 0.2241891187535E+00 -0.2569380334974E+00  0.0000000000000E+00 -0.4768684273261E+00
 0.1784767452297E+00 -0.2074363423057E+00  0.0000000000000E+00 -0.4523408023389E+00
 0.1337081495005E+00 -0.1588143530358E+00  0.0000000000000E+00 -0.4117425241111E+00
 0.9170703846847E-01 -0.1126229061055E+00  0.0000000000000E+00 -0.3536564901700E+00
 0.5538236893060E-01 -0.7157438235400E-01  0.0000000000000E+00 -0.2782564323794E+00
 0.2826089289723E-01 -0.3914659611068E-01  0.0000000000000E+00 -0.1878850855391E+00
 0.1417141570395E-01 -0.1926084606835E-01  0.0000000000000E+00 -0.8824257430404E-01
 0.1609839106375E-01 -0.1533435480521E-01  0.0000000000000E+00  0.1013308202983E-01
 0.3518169864656E-01 -0.2850615743933E-01  0.0000000000000E+00  0.9315437089903E-01
 0.3132442087004E+00 -0.3554649787174E+00  0.0000000000000E+00 -0.5210467996058E+00
 0.2733996131880E+00 -0.3127992193067E+00  0.0000000000000E+00 -0.5201599732780E+00
 0.2266735898502E+00 -0.2625292716966E+00  0.0000000000000E+00 -0.5069728705666E+00
 0.1770727862744E+00 -0.2092559050543E+00  0.0000000000000E+00 -0.4808247102027E+00
 0.1277083850097E+00 -0.1556478124209E+00  0.0000000000000E+00 -0.4370638382202E+00
 0.8176335317116E-01 -0.1046546781194E+00  0.0000000000000E+00 -0.3723714990972E+00
 0.4341609451722E-01 -0.6024807687809E-01  0.0000000000000E+00 -0.2850673137218E+00
 0.1818363346034E-01 -0.2785041315943E-01  0.0000000000000E+00 -0.1763813938197E+00
 0.1299589335727E-01 -0.1457201428571E-01  0.0000000000000E+00 -0.5336597622653E-01
 0.3360422095687E-01 -0.2741225800630E-01  0.0000000000000E+00  0.6638439657276E-01
 0.3599489422225E+00 -0.4068940970009E+00  0.0000000000000E+00 -0.5321927834027E+00
 0.3252963719764E+00 -0.3705893160999E+00  0.0000000000000E+00 -0.5504058794002E+00
 0.2827593598426E+00 -0.3258145355324E+00  0.0000000000000E+00 -0.5555580888132E+00
 0.2341700760699E+00 -0.2743636265336E+00  0.0000000000000E+00 -0.5475199377233E+00
 0.1821247768219E+00 -0.2187405159986E+00  0.0000000000000E+00 -0.5223490420286E+00
 0.1294983421342E+00 -0.1615063229915E+00  0.0000000000000E+00 -0.4745771863960E+00
 0.8007962142927E-01 -0.1061021097699E+00  0.0000000000000E+00 -0.3985564407469E+00
 0.3951661424626E-01 -0.5775947800645E-01  0.0000000000000E+00 -0.2892435273270E+00
 0.1675059017785E-01 -0.2493925844199E-01  0.0000000000000E+00 -0.1441104553813E+00
 0.2611065048401E-01 -0.2225531943319E-01  0.0000000000000E+00  0.2816983714810E-01
 0.4094397703248E+00 -0.4612322794634E+00  0.0000000000000E+00 -0.5221509758734E+00
 0.3812828695005E+00 -0.4326587754980E+00  0.0000000000000E+00 -0.5566616102121E+00
 0.3455160903466E+00 -0.3959935144380E+00  0.0000000000000E+00 -0.5807350439927E+00
 0.3026356386522E+00 -0.3516671282883E+00  0.0000000000000E+00 -0.5930206087233E+00
 0.2540266758805E+00 -0.3008776984568E+00  0.0000000000000E+00 -0.5897536906759E+00
 0.2016031709995E+00 -0.2452589467397E+00  0.0000000000000E+00 -0.5648864734583E+00
 0.1480458782127E+00 -0.1870666134974E+00  0.0000000000000E+00 -0.5103595803716E+00
 0.9759604251215E-01 -0.1299202649691E+00  0.0000000000000E+00 -0.4158577951348E+00
 0.5771362120173E-01 -0.8028751647628E-01  0.0000000000000E+00 -0.2679811563601E+00
 0.4468392772016E-01 -0.5191590434534E-01  0.0000000000000E+00 -0.4844864055958E-01
 0.4590046509890E+00 -0.5156030407608E+00  0.0000000000000E+00 -0.4888620219129E+00
 0.4384490375905E+00 -0.4959095283604E+00  0.0000000000000E+00 -0.5339338449839E+00
 0.4109548746648E+00 -0.4690684842007E+00  0.0000000000000E+00 -0.5714828917629E+00
 0.3764148685478E+00 -0.4348653835715E+00  0.0000000000000E+00 -0.5994419252286E+00
 0.3353273090642E+00 -0.3936495314561E+00  0.0000000000000E+00 -0.6139869237488E+00
 0.2886208658289E+00 -0.3461132136985E+00  0.0000000000000E+00 -0.6090143139018E+00
 0.2376829568850E+00 -0.2932977782672E+00  0.0000000000000E+00 -0.5756728503264E+00
 0.1846195142140E+00 -0.2367889090206E+00  0.0000000000000E+00 -0.5012238187364E+00
 0.1328796454264E+00 -0.1791337853825E+00  0.0000000000000E+00 -0.3661003500038E+00
 0.8815758788906E-01 -0.1241967783980E+00  0.0000000000000E+00 -0.1342494360545E+00
 0.5052236107372E+00 -0.5662631201876E+00  0.0000000000000E+00 -0.4321614782353E+00
 0.4918973702607E+00 -0.5551261144982E+00  0.0000000000000E+00 -0.4802717104362E+00
 0.4721949324342E+00 -0.5377096693364E+00  0.0000000000000E+00 -0.5226508430570E+00
 0.4454886606334E+00 -0.5133391460800E+00  0.0000000000000E+00 -0.5567350666821E+00
 0.4114167501525E+00 -0.4815778618514E+00  0.0000000000000E+00 -0.5783767624769E+00
 0.3697372369059E+00 -0.4420738507102E+00  0.0000000000000E+00 -0.5812662980780E+00
 0.3201534831626E+00 -0.3943777067305E+00  0.0000000000000E+00 -0.5562833987713E+00
 0.2620312586297E+00 -0.3376603886716E+00  0.0000000000000E+00 -0.4903445982889E+00
 0.1935680779592E+00 -0.2699461793856E+00  0.0000000000000E+00 -0.3639498875270E+00
 0.1083314422972E+00 -0.1852083792537E+00  0.0000000000000E+00 -0.1463511074072E+00
 0.5451919467769E+00 -0.6100690504814E+00  0.0000000000000E+00 -0.3554487397592E+00
 0.5377961945702E+00 -0.6060944714349E+00  0.0000000000000E+00 -0.3994866609666E+00
 0.5242253260506E+00 -0.5963622934616E+00  0.0000000000000E+00 -0.4388122853237E+00
 0.5032308121746E+00 -0.5796513849023E+00  0.0000000000000E+00 -0.4705888098242E+00
 0.4735041167770E+00 -0.5546800520770E+00  0.0000000000000E+00 -0.4905169178122E+00
 0.4334812020781E+00 -0.5199166494854E+00  0.0000000000000E+00 -0.4923784286316E+00
 0.3810429419187E+00 -0.4732983422690E+00  0.0000000000000E+00 -0.4675939234496E+00
 0.3129556482226E+00 -0.4117278301256E+00  0.0000000000000E+00 -0.4047386038767E+00
 0.2236360567592E+00 -0.3299956538739E+00  0.0000000000000E+00 -0.2892549993947E+00
 0.1025040161020E+00 -0.2185610346099E+00  0.0000000000000E+00 -0.1057856873330E+00
 0.5768156098490E+00 -0.6447499702345E+00  0.0000000000000E+00 -0.2638939843242E+00
 0.5738282528579E+00 -0.6462075140686E+00  0.0000000000000E+00 -0.2986630944387E+00
 0.5645579698499E+00 -0.6420883791431E+00  0.0000000000000E+00 -0.3297350334248E+00
 0.5471633408582E+00 -0.6306446488544E+00  0.0000000000000E+00 -0.3545208379986E+00
 0.5194633686251E+00 -0.6098118969932E+00  0.0000000000000E+00 -0.3692651892196E+00
 0.4787350430057E+00 -0.5770151842673E+00  0.0000000000000E+00 -0.3687754729525E+00
 0.4214219164708E+00 -0.5288995428897E+00  0.0000000000000E+00 -0.3463104917743E+00
 0.3426942115041E+00 -0.4609313561786E+00  0.0000000000000E+00 -0.2938256905157E+00
 0.2358037936342E+00 -0.3668222381292E+00  0.0000000000000E+00 -0.2032250448101E+00
 0.9196708126039E-01 -0.2382290391301E+00  0.0000000000000E+00 -0.6987422144258E-01
 0.5986309820523E+00 -0.6686911015968E+00  0.0000000000000E+00 -0.1622207204346E+00
 0.5985114723875E+00 -0.6737534311358E+00  0.0000000000000E+00 -0.1843227524209E+00
 0.5918809661547E+00 -0.6732229670771E+00  0.0000000000000E+00 -0.2040038031380E+00
 0.5764350784380E+00 -0.6649401170221E+00  0.0000000000000E+00 -0.2194664846407E+00
 0.5493448792999E+00 -0.6462552085396E+00  0.0000000000000E+00 -0.2281662638263E+00
 0.5070804067752E+00 -0.6138581695315E+00  0.0000000000000E+00 -0.2267088137247E+00
 0.4452239120148E+00 -0.5635989905110E+00  0.0000000000000E+00 -0.2109333157241E+00
 0.3583200205844E+00 -0.4903420139225E+00  0.0000000000000E+00 -0.1764060970500E+00
 0.2399550344699E+00 -0.3879981916636E+00  0.0000000000000E+00 -0.1196515404490E+00
 0.8333887047647E-01 -0.2500557305324E+00  0.0000000000000E+00 -0.3983319979587E-01
 0.6097409915310E+00 -0.6808912168023E+00  0.0000000000000E+00 -0.5470287223740E-01
 0.6110171180508E+00 -0.6877370397241E+00  0.0000000000000E+00 -0.6226212517323E-01
 0.6056171224623E+00 -0.6889361552893E+00  0.0000000000000E+00 -0.6896887065422E-01
 0.5909808584134E+00 -0.6821013332864E+00  0.0000000000000E+00 -0.7418300689478E-01
 0.5639399493745E+00 -0.6642750833356E+00  0.0000000000000E+00 -0.7700857469385E-01
 0.5205659873098E+00 -0.6317806066211E+00  0.0000000000000E+00 -0.7627581355571E-01
 0.4560746868373E+00 -0.5801204476543E+00  0.0000000000000E+00 -0.7060272091339E-01
 0.3648920418174E+00 -0.5040188049444E+00  0.0000000000000E+00 -0.5862949185668E-01
 0.2410099092863E+00 -0.3977416921424E+00  0.0000000000000E+00 -0.3944635456916E-01
 0.7865727417971E-01 -0.2557320423604E+00  0.0000000000000E+00 -0.1305736043981E-01
 0.6097409915191E+00 -0.6808912167901E+00  0.0000000000000E+00  0.5470287229524E-01
 0.6110171180346E+00 -0.6877370397066E+00  0.0000000000000E+00  0.6226212538012E-01
 0.6056171224417E+00 -0.6889361552660E+00  0.0000000000000E+00  0.6896887100879E-01
 0.5909808583890E+00 -0.6821013332574E+00  0.0000000000000E+00  0.7418300738764E-01
 0.5639399493482E+00 -0.6642750833021E+00  0.0000000000000E+00  0.7700857530340E-01
 0.5205659872847E+00 -0.6317806065855E+00  0.0000000000000E+00  0.7627581424302E-01
 0.4560746868181E+00 -0.5801204476203E+00  0.0000000000000E+00  0.7060272161720E-01
 0.3648920418094E+00 -0.5040188049164E+00  0.0000000000000E+00  0.5862949249086E-01
 0.2410099092937E+00 -0.3977416921240E+00  0.0000000000000E+00  0.3944635502584E-01
 0.7865727420335E-01 -0.2557320423520E+00  0.0000000000000E+00  0.1305736060073E-01
 0.5986309820171E+00 -0.6686911015608E+00  0.0000000000000E+00  0.1622207204905E+00
 0.5985114723393E+00 -0.6737534310837E+00  0.0000000000000E+00  0.1843227526181E+00
 0.5918809660927E+00 -0.6732229670072E+00  0.0000000000000E+00  0.2040038034757E+00
 0.5764350783638E+00 -0.6649401169345E+00  0.0000000000000E+00  0.2194664851112E+00
 0.5493448792183E+00 -0.6462552084371E+00  0.0000000000000E+00  0.2281662644120E+00
 0.5070804066953E+00 -0.6138581694211E+00  0.0000000000000E+00  0.2267088143925E+00
 0.4452239119505E+00 -0.5635989904036E+00  0.0000000000000E+00  0.2109333164195E+00
 0.3583200205527E+00 -0.4903420138325E+00  0.0000000000000E+00  0.1764060976905E+00
 0.2399550344859E+00 -0.3879981916035E+00  0.0000000000000E+00  0.1196515409217E+00
 0.8333887054588E-01 -0.2500557305063E+00  0.0000000000000E+00  0.3983319996461E-01
 0.5768156097922E+00 -0.6447499701762E+00  0.0000000000000E+00  0.2638939843747E+00
 0.5738282527788E+00 -0.6462075139834E+00  0.0000000000000E+00  0.2986630946145E+00
 0.5645579697464E+00 -0.6420883790272E+00  0.0000000000000E+00  0.3297350337248E+00
 0.5471633407316E+00 -0.6306446487068E+00  0.0000000000000E+00  0.3545208384179E+00
 0.5194633684816E+00 -0.6098118968172E+00  0.0000000000000E+00  0.3692651897465E+00
 0.4787350428585E+00 -0.5770151840724E+00  0.0000000000000E+00  0.3687754735646E+00
 0.4214219163420E+00 -0.5288995426933E+00  0.0000000000000E+00  0.3463104924317E+00
 0.3426942114249E+00 -0.4609313560064E+00  0.0000000000000E+00  0.2938256911497E+00
 0.2358037936386E+00 -0.3668222380104E+00  0.0000000000000E+00  0.2032250453051E+00
 0.9196708136933E-01 -0.2382290390819E+00  0.0000000000000E+00  0.6987422163042E-01
 0.5451919467014E+00 -0.6100690504040E+00  0.0000000000000E+00  0.3554487397979E+00
 0.5377961944627E+00 -0.6060944713195E+00  0.0000000000000E+00  0.3994866611052E+00
 0.5242253259067E+00 -0.5963622933017E+00  0.0000000000000E+00  0.4388122855595E+00
 0.5032308119937E+00 -0.5796513846946E+00  0.0000000000000E+00  0.4705888101536E+00
 0.4735041165643E+00 -0.5546800518231E+00  0.0000000000000E+00  0.4905169182292E+00
 0.4334812018476E+00 -0.5199166491946E+00  0.0000000000000E+00  0.4923784291261E+00
 0.3810429416969E+00 -0.4732983419615E+00  0.0000000000000E+00  0.4675939240019E+00
 0.3129556480533E+00 -0.4117278298370E+00  0.0000000000000E+00  0.4047386044465E+00
 0.2236360567076E+00 -0.3299956536579E+00  0.0000000000000E+00  0.2892549998906E+00
 0.1025040162319E+00 -0.2185610345244E+00  0.0000000000000E+00  0.1057856875499E+00
 0.5052236106472E+00 -0.5662631200953E+00  0.0000000000000E+00  0.4321614782514E+00
 0.4918973701288E+00 -0.5551261143569E+00  0.0000000000000E+00  0.4802717105164E+00
 0.4721949322531E+00 -0.5377096691370E+00  0.0000000000000E+00  0.5226508431948E+00
 0.4454886603995E+00 -0.5133391458158E+00  0.0000000000000E+00  0.5567350668705E+00
 0.4114167498672E+00 -0.4815778615201E+00  0.0000000000000E+00  0.5783767627099E+00
 0.3697372365792E+00 -0.4420738503171E+00  0.0000000000000E+00  0.5812662983511E+00
 0.3201534828185E+00 -0.3943777062927E+00  0.0000000000000E+00  0.5562833990811E+00
 0.2620312583145E+00 -0.3376603882260E+00  0.0000000000000E+00  0.4903445986289E+00
 0.1935680777598E+00 -0.2699461790036E+00  0.0000000000000E+00  0.3639498878708E+00
 0.1083314423744E+00 -0.1852083790653E+00  0.0000000000000E+00  0.1463511076156E+00
 0.4590046508897E+00 -0.5156030406586E+00  0.0000000000000E+00  0.4888620218884E+00
 0.4384490374396E+00 -0.4959095281994E+00  0.0000000000000E+00  0.5339338449781E+00
 0.4109548744533E+00 -0.4690684839698E+00  0.0000000000000E+00  0.5714828917580E+00
 0.3764148682685E+00 -0.4348653832610E+00  0.0000000000000E+00  0.5994419252038E+00
 0.3353273087132E+00 -0.3936495310590E+00  0.0000000000000E+00  0.6139869236816E+00
 0.2886208654083E+00 -0.3461132132131E+00  0.0000000000000E+00  0.6090143137689E+00
 0.2376829564065E+00 -0.2932977777001E+00  0.0000000000000E+00  0.5756728501071E+00
 0.1846195137081E+00 -0.2367889083952E+00  0.0000000000000E+00  0.5012238184179E+00
 0.1328796449620E+00 -0.1791337847568E+00  0.0000000000000E+00  0.3661003495936E+00
 0.8815758764857E-01 -0.1241967779248E+00  0.0000000000000E+00  0.1342494356044E+00
 0.4094397702255E+00 -0.4612322793610E+00  0.0000000000000E+00  0.5221509758050E+00
 0.3812828693474E+00 -0.4326587753350E+00  0.0000000000000E+00  0.5566616101239E+00
 0.3455160901333E+00 -0.3959935142061E+00  0.0000000000000E+00  0.5807350438588E+00
 0.3026356383751E+00 -0.3516671279824E+00  0.0000000000000E+00  0.5930206085141E+00
 0.2540266755405E+00 -0.3008776980756E+00  0.0000000000000E+00  0.5897536903594E+00
 0.2016031706032E+00 -0.2452589462880E+00  0.0000000000000E+00  0.5648864730035E+00
 0.1480458777757E+00 -0.1870666129889E+00  0.0000000000000E+00  0.5103595797565E+00
 0.9759604206430E-01 -0.1299202644322E+00  0.0000000000000E+00  0.4158577943637E+00
 0.5771362079704E-01 -0.8028751596519E-01  0.0000000000000E+00  0.2679811555039E+00
 0.4468392745101E-01 -0.5191590396612E-01  0.0000000000000E+00  0.4844863990183E-01
 0.3599489421307E+00 -0.4068940969062E+00  0.0000000000000E+00  0.5321927832983E+00
 0.3252963718361E+00 -0.3705893159503E+00  0.0000000000000E+00  0.5504058792536E+00
 0.2827593596545E+00 -0.3258145353274E+00  0.0000000000000E+00  0.5555580886031E+00
 0.2341700758410E+00 -0.2743636262796E+00  0.0000000000000E+00  0.5475199374264E+00
 0.1821247765659E+00 -0.2187405157085E+00  0.0000000000000E+00  0.5223490416229E+00
 0.1294983418721E+00 -0.1615063226863E+00  0.0000000000000E+00  0.4745771858694E+00
 0.8007962119082E-01 -0.1061021094806E+00  0.0000000000000E+00  0.3985564401089E+00
 0.3951661406989E-01 -0.5775947777490E-01  0.0000000000000E+00  0.2892435266302E+00
 0.1675059010344E-01 -0.2493925831696E-01  0.0000000000000E+00  0.1441104547619E+00
 0.2611065049964E-01 -0.2225531943136E-01  0.0000000000000E+00 -0.2816983740276E-01
 0.3132442086165E+00 -0.3554649786307E+00  0.0000000000000E+00  0.5210467994762E+00
 0.2733996130604E+00 -0.3127992191705E+00  0.0000000000000E+00  0.5201599731006E+00
 0.2266735896883E+00 -0.2625292715199E+00  0.0000000000000E+00  0.5069728703320E+00
 0.1770727860927E+00 -0.2092559048514E+00  0.0000000000000E+00  0.4808247098951E+00
 0.1277083848260E+00 -0.1556478122100E+00  0.0000000000000E+00  0.4370638378305E+00
 0.8176335300711E-01 -0.1046546779234E+00  0.0000000000000E+00  0.3723714986323E+00
 0.4341609439620E-01 -0.6024807672296E-01  0.0000000000000E+00  0.2850673132131E+00
 0.1818363340095E-01 -0.2785041306853E-01  0.0000000000000E+00  0.1763813933351E+00
 0.1299589335475E-01 -0.1457201426363E-01  0.0000000000000E+00  0.5336597588072E-01
 0.3360422095553E-01 -0.2741225800038E-01  0.0000000000000E+00 -0.6638439666507E-01
 0.2690457164987E+00 -0.3073526262170E+00  0.0000000000000E+00  0.4869248011512E+00
 0.2241891186395E+00 -0.2569380333759E+00  0.0000000000000E+00  0.4768684271592E+00
 0.1784767450985E+00 -0.2074363421625E+00  0.0000000000000E+00  0.4523408021237E+00
 0.1337081493650E+00 -0.1588143528838E+00  0.0000000000000E+00  0.4117425238397E+00
 0.9170703834333E-01 -0.1126229059603E+00  0.0000000000000E+00  0.3536564898472E+00
 0.5538236883127E-01 -0.7157438223243E-01  0.0000000000000E+00  0.2782564320251E+00
 0.2826089283554E-01 -0.3914659602726E-01  0.0000000000000E+00  0.1878850851901E+00
 0.1417141568005E-01 -0.1926084602721E-01  0.0000000000000E+00  0.8824257401400E-01
 0.1609839105633E-01 -0.1533435478810E-01  0.0000000000000E+00 -0.1013308220727E-01
 0.3518169860733E-01 -0.2850615740139E-01  0.0000000000000E+00 -0.9315437094539E-01
</DataArray>
<DataArray type="Float64" Name="S_Centroid" NumberOfComponents="4" ComponentName0="S11" ComponentName1="S22" ComponentName2="S33" ComponentName3="S12" format="ascii">
-0.5181647248407E+00 -0.4179928196659E+01 -0.9396185983014E+00 -0.5242990499603E+00
 0.6840300376856E-01 -0.3376463535252E+01 -0.6616121161555E+00 -0.1563574006468E-01
-0.1429930971737E-01 -0.3199728561406E+01 -0.6428055838032E+00 -0.1568685338573E-01
 0.2019930726676E-02 -0.3154927197025E+01 -0.6305814626560E+00  0.1910730908384E-02
-0.1059524297624E-02 -0.3170676843154E+01 -0.6343472829428E+00  0.9380251459313E-02
-0.3216666804950E-03 -0.3226016211954E+01 -0.6452675853420E+00  0.1594494875390E-01
-0.6179181691502E-03 -0.3316521497330E+01 -0.6634278929857E+00  0.2277702012097E-01
-0.7987244505798E-03 -0.3446751222148E+01 -0.6895099995943E+00  0.3154747085577E-01
-0.1494542893416E-02 -0.3631238195696E+01 -0.7265465585442E+00  0.4460661193052E-01
-0.8027806565992E-02 -0.3905241423430E+01 -0.7826538576617E+00  0.7444651090456E-01
-0.2850415634732E-01 -0.4296580785852E+01 -0.8650170013296E+00  0.1570964906410E+00
-0.6164611781322E-01 -0.4739314460260E+01 -0.9601921299225E+00  0.3233216703304E+00
-0.1084323132245E+00 -0.5146135098056E+01 -0.1050913497916E+01  0.5588671505853E+00
-0.1798408419465E+00 -0.5515421052881E+01 -0.1139052395939E+01  0.8362674030272E+00
-0.2846504818262E+00 -0.5867650608414E+01 -0.1230460236383E+01  0.1149599037392E+01
-0.4304778210280E+00 -0.6198708165299E+01 -0.1325837217022E+01  0.1498847538013E+01
-0.6128384663234E+00 -0.6519580032216E+01 -0.1426483720964E+01  0.1889217389659E+01
-0.9251035087405E+00 -0.6888874624872E+01 -0.1562795650010E+01  0.2354216697025E+01
-0.1177573958602E+01 -0.7383534656063E+01 -0.1712221748447E+01  0.3028879335718E+01
-0.3472985824432E+01 -0.7931838875497E+01 -0.2280964973975E+01  0.4274521278398E+01
 0.4023874126844E+01 -0.6732831776214E+01 -0.5417915379472E+00  0.4981546263818E+01
-0.5633220263264E+00 -0.3734852511467E+01 -0.8596349203683E+00 -0.5571897646750E+00
-0.9188126389032E-01 -0.3540508259432E+01 -0.7264779154897E+00 -0.2199802068047E+00
-0.6894443572696E-02 -0.3305692321165E+01 -0.6625173628198E+00 -0.4562292078745E-01
-0.1191703005757E-01 -0.3242873448763E+01 -0.6509581054642E+00 -0.6795011622168E-02
-0.5765842002521E-02 -0.3242680933040E+01 -0.6496893646896E+00  0.2230395025604E-01
-0.5978158793098E-02 -0.3286593890196E+01 -0.6585144196104E+00  0.4346620559190E-01
-0.6802246653958E-02 -0.3367706040213E+01 -0.6749016674303E+00  0.6526662857449E-01
-0.9273683254500E-02 -0.3489117443390E+01 -0.6996782357549E+00  0.9224481250423E-01
-0.1619668526335E-01 -0.3662135061372E+01 -0.7356663602894E+00  0.1323763513935E+00
-0.3889071691903E-01 -0.3901848386011E+01 -0.7881478323304E+00  0.2008439492513E+00
-0.8615855075862E-01 -0.4203511059694E+01 -0.8579339348747E+00  0.3137955386384E+00
-0.1500354720106E+00 -0.4527767143880E+01 -0.9355605371191E+00  0.4773280357249E+00
-0.2232948656473E+00 -0.4832286041669E+01 -0.1011116196530E+01  0.6867824249441E+00
-0.3143868418203E+00 -0.5099619897711E+01 -0.1082801364041E+01  0.9314581855403E+00
-0.4342003880952E+00 -0.5324294606897E+01 -0.1151699016160E+01  0.1199218259750E+01
-0.5845585434156E+00 -0.5496550576871E+01 -0.1216221842180E+01  0.1482065603468E+01
-0.7893916857227E+00 -0.5600941921666E+01 -0.1278066740522E+01  0.1780774711677E+01
-0.1036287969565E+01 -0.5597777818946E+01 -0.1326813177473E+01  0.2087709202954E+01
-0.1614122948158E+01 -0.5349419083064E+01 -0.1392708426997E+01  0.2437220466476E+01
-0.1693902598909E+01 -0.4264904992881E+01 -0.1191761536117E+01  0.1882105896257E+01
 0.5938440970228E+01 -0.3229349400274E+01  0.5418183220647E+00  0.1107789742697E+01
-0.6065670664233E+00 -0.3532730525503E+01 -0.8278595307214E+00 -0.5185243111780E+00
-0.2065979819605E+00 -0.3516849905631E+01 -0.7446895886150E+00 -0.2998709006642E+00
-0.5191770401765E-01 -0.3384482229528E+01 -0.6872799969504E+00 -0.1010136541268E+00
-0.2708687175010E-01 -0.3308928496208E+01 -0.6672030835336E+00 -0.1611395111729E-01
-0.1910322566022E-01 -0.3301092669193E+01 -0.6640391888656E+00  0.3023082888723E-01
-0.1700165150028E-01 -0.3334794438575E+01 -0.6703592280041E+00  0.6741463988039E-01
-0.1951997910555E-01 -0.3405399674778E+01 -0.6849839409838E+00  0.1041186139882E+00
-0.2639988689396E-01 -0.3513919741198E+01 -0.7080639361694E+00  0.1488410248999E+00
-0.4320147134443E-01 -0.3665735883907E+01 -0.7417874821038E+00  0.2116340201554E+00
-0.8169991239902E-01 -0.3861917513211E+01 -0.7887234968748E+00  0.3038618277734E+00
-0.1478935581306E+00 -0.4088742387834E+01 -0.8473272018191E+00  0.4304068951597E+00
-0.2316698877657E+00 -0.4320686576454E+01 -0.9104713064111E+00  0.5887064158579E+00
-0.3230936312141E+00 -0.4532658966412E+01 -0.9711505339965E+00  0.7753009636948E+00
-0.4263739742445E+00 -0.4704313645815E+01 -0.1026137539303E+01  0.9831814136246E+00
-0.5482044085470E+00 -0.4818546387071E+01 -0.1073350175118E+01  0.1197883262470E+01
-0.6928146274748E+00 -0.4856182209302E+01 -0.1109799383893E+01  0.1404343430234E+01
-0.8602416875803E+00 -0.4780348372544E+01 -0.1128118028835E+01  0.1581194437918E+01
-0.1068729664584E+01 -0.4517725916593E+01 -0.1117291132884E+01  0.1692531556618E+01
-0.1237873177717E+01 -0.3861723779002E+01 -0.1019919406542E+01  0.1501252537371E+01
 0.1282626440684E+00 -0.2894980748032E+01 -0.5533436290382E+00  0.4522006695302E+00
 0.6170858983819E+01 -0.2404616180611E+01  0.7532485718659E+00  0.1702575067236E+00
-0.6359503478727E+00 -0.3422097841629E+01 -0.8116096499942E+00 -0.4698833872946E+00
-0.2917124936341E+00 -0.3469926830356E+01 -0.7523278760085E+00 -0.3212101136247E+00
-0.1094763561055E+00 -0.3415060377827E+01 -0.7049073572903E+00 -0.1399772325157E+00
-0.5405541465953E-01 -0.3357578613731E+01 -0.6823268158455E+00 -0.2948241061479E-01
-0.3783406431128E-01 -0.3344899400653E+01 -0.6765467030741E+00  0.3599023880989E-01
-0.3401838773195E-01 -0.3370698668071E+01 -0.6809434213075E+00  0.8752087482356E-01
-0.3833263644284E-01 -0.3429795568329E+01 -0.6936256512901E+00  0.1384766028099E+00
-0.5114529652313E-01 -0.3521969863297E+01 -0.7146230426127E+00  0.1987911186985E+00
-0.7856646945545E-01 -0.3647053979596E+01 -0.7451241009135E+00  0.2783819111494E+00
-0.1306109020023E+00 -0.3798781390901E+01 -0.7858784702911E+00  0.3841312843135E+00
-0.2100942773503E+00 -0.3961692264252E+01 -0.8343573207534E+00  0.5149249334766E+00
-0.3061900212820E+00 -0.4117518852139E+01 -0.8847417878679E+00  0.6645258529159E+00
-0.4077833343717E+00 -0.4248902813273E+01 -0.9313372434070E+00  0.8279884592017E+00
-0.5141824137616E+00 -0.4336113892701E+01 -0.9700592757475E+00  0.9972863024673E+00
-0.6274976447935E+00 -0.4357782834746E+01 -0.9970561107651E+00  0.1155651023077E+01
-0.7440900975662E+00 -0.4288479245538E+01 -0.1006513883619E+01  0.1279035521197E+01
-0.8521439639859E+00 -0.4087820725047E+01 -0.9879929525289E+00  0.1331341071176E+01
-0.9067568431987E+00 -0.3679264982818E+01 -0.9172043788708E+00  0.1224366333758E+01
-0.5696556787058E+00 -0.3008990612369E+01 -0.7157292688802E+00  0.7207519249353E+00
 0.1357721404170E+01 -0.2404383006347E+01 -0.2093323235546E+00 -0.2286163631129E+00
 0.5948929524764E+01 -0.2137187815771E+01  0.7623483531585E+00 -0.1335135501590E+00
-0.6561369004454E+00 -0.3355144682014E+01 -0.8022563284464E+00 -0.4223912859094E+00
-0.3559803513024E+00 -0.3426972443983E+01 -0.7565905703312E+00 -0.3155907942688E+00
-0.1668446635686E+00 -0.3420007941784E+01 -0.7173705317601E+00 -0.1599844923525E+00
-0.8898582080719E-01 -0.3386935265717E+01 -0.6951842276638E+00 -0.4080465764524E-01
-0.6226525749118E-01 -0.3375623558655E+01 -0.6875777734750E+00  0.3975169345331E-01
-0.5616090235432E-01 -0.3394607416191E+01 -0.6901536739931E+00  0.1041324853832E+00
-0.6263140244446E-01 -0.3441735944886E+01 -0.7008734799100E+00  0.1674751600556E+00
-0.8178582478101E-01 -0.3515307638078E+01 -0.7194187032919E+00  0.2403657378926E+00
-0.1191256161086E+00 -0.3611562694558E+01 -0.7461376732516E+00  0.3312529719560E+00
-0.1819698591671E+00 -0.3720938827399E+01 -0.7805817489447E+00  0.4434434716864E+00
-0.2702870534812E+00 -0.3828567028480E+01 -0.8197708286077E+00  0.5725495865432E+00
-0.3727810743094E+00 -0.3920347501460E+01 -0.8586257279484E+00  0.7103888850321E+00
-0.4771846063742E+00 -0.3983096542157E+01 -0.8920562429989E+00  0.8498084383566E+00
-0.5782170052025E+00 -0.3999091691607E+01 -0.9154617530034E+00  0.9803436672080E+00
-0.6714413513704E+00 -0.3946756390108E+01 -0.9236395620590E+00  0.1082096906277E+01
-0.7440273234596E+00 -0.3801254404225E+01 -0.9090563590829E+00  0.1124794012552E+01
-0.7631854067368E+00 -0.3528203861948E+01 -0.8582778665263E+00  0.1059475142688E+01
-0.6141313690915E+00 -0.3091443329455E+01 -0.7411149507528E+00  0.7874339195870E+00
 0.9468983614038E-01 -0.2557183309980E+01 -0.4924987021068E+00  0.1842319167289E+00
 0.2127263296229E+01 -0.2219739985191E+01 -0.1849533806793E-01 -0.5328431450586E+00
 0.5655797783476E+01 -0.2050224679613E+01  0.7211146315180E+00 -0.2611806751357E+00
-0.6708047020321E+00 -0.3311813475330E+01 -0.7965236473416E+00 -0.3782301521111E+00
-0.4056962056702E+00 -0.3391725862736E+01 -0.7594844249983E+00 -0.2975262021470E+00
-0.2197427150285E+00 -0.3412836029225E+01 -0.7265157596766E+00 -0.1657669809250E+00
-0.1277773296369E+00 -0.3400914681322E+01 -0.7057384127081E+00 -0.4752691109874E-01
-0.9139535012195E-01 -0.3394187523486E+01 -0.6971165851094E+00  0.4249458380603E-01
-0.8265898864935E-01 -0.3407609631519E+01 -0.6980537344354E+00  0.1172618453218E+00
-0.9134821138217E-01 -0.3442518416607E+01 -0.7067733361295E+00  0.1905933789973E+00
-0.1165758944525E+00 -0.3496556000552E+01 -0.7226263897688E+00  0.2727042960400E+00
-0.1624280771140E+00 -0.3564006261596E+01 -0.7452868788477E+00  0.3702277154694E+00
-0.2333377492774E+00 -0.3634309553032E+01 -0.7735294719884E+00  0.4838320424796E+00
-0.3267608585049E+00 -0.3693975097754E+01 -0.8041472032345E+00  0.6072632481183E+00
-0.4307282576083E+00 -0.3731703577084E+01 -0.8324863793435E+00  0.7310904745260E+00
-0.5315578765599E+00 -0.3737204772283E+01 -0.8537525424904E+00  0.8460363514785E+00
-0.6194078470966E+00 -0.3695519735381E+01 -0.8629855293550E+00  0.9389672749986E+00
-0.6828058545973E+00 -0.3587954051323E+01 -0.8541519939120E+00  0.9873673888003E+00
-0.6984732911194E+00 -0.3394812682505E+01 -0.8186572069238E+00  0.9572661933304E+00
-0.6109623558281E+00 -0.3097235865759E+01 -0.7416396553687E+00  0.7965272633232E+00
-0.2706726736853E+00 -0.2703543827260E+01 -0.5948433090529E+00  0.4308429917581E+00
 0.6601927875622E+00 -0.2323923212510E+01 -0.3327460899478E+00 -0.1554564200944E+00
 0.2603482480910E+01 -0.2150080741854E+01  0.9068034916261E-01 -0.6590851277672E+00
 0.5384680062377E+01 -0.2033819118183E+01  0.6701721988252E+00 -0.3299431047896E+00
-0.6820878268453E+00 -0.3282231532841E+01 -0.7928638837519E+00 -0.3376066403486E+00
-0.4451972568841E+00 -0.3363285812784E+01 -0.7616966252838E+00 -0.2739506777621E+00
-0.2671134609957E+00 -0.3400198890708E+01 -0.7334624812703E+00 -0.1621202337087E+00
-0.1675964399950E+00 -0.3403970905936E+01 -0.7143134798303E+00 -0.4958989141688E-01
-0.1237205805797E+00 -0.3402281339467E+01 -0.7052003945176E+00  0.4490778003637E-01
-0.1125377615091E+00 -0.3411024797587E+01 -0.7047125223202E+00  0.1269796829563E+00
-0.1232938914809E+00 -0.3433831263998E+01 -0.7114250416967E+00  0.2075786374380E+00
-0.1539060724635E+00 -0.3468400571268E+01 -0.7244613395415E+00  0.2956270350134E+00
-0.2066056936564E+00 -0.3508316669353E+01 -0.7429844836732E+00  0.3959597713655E+00
-0.2830329572424E+00 -0.3543273225223E+01 -0.7652612478963E+00  0.5073481330662E+00
-0.3783694847742E+00 -0.3561471088749E+01 -0.7879681264462E+00  0.6224226051931E+00
-0.4796787998537E+00 -0.3553867421045E+01 -0.8067092562007E+00  0.7308990847586E+00
-0.5715411148916E+00 -0.3512676447308E+01 -0.8168435246119E+00  0.8217504734085E+00
-0.6396852964129E+00 -0.3426339983521E+01 -0.8132050681045E+00  0.8796609646777E+00
-0.6657831393561E+00 -0.3280954494087E+01 -0.7893475384508E+00  0.8805853227424E+00
-0.6164116925543E+00 -0.3065043452685E+01 -0.7362910400195E+00  0.7901964156664E+00
-0.4207656330877E+00 -0.2777845679769E+01 -0.6397222721040E+00  0.5634256563736E+00
 0.7235371359649E-01 -0.2456376089193E+01 -0.4768044822242E+00  0.1618948496315E+00
 0.1114046112740E+01 -0.2207214796072E+01 -0.2186337399243E+00 -0.3591178583689E+00
 0.2900011045052E+01 -0.2129481670651E+01  0.1541058771766E+00 -0.7016612530014E+00
 0.5154484171645E+01 -0.2048030117463E+01  0.6212908200944E+00 -0.3726810306861E+00
-0.6911806263133E+00 -0.3261047117909E+01 -0.7904455606230E+00 -0.3002716507279E+00
-0.4773902755582E+00 -0.3340080960840E+01 -0.7634942586566E+00 -0.2483180034069E+00
-0.3090975491105E+00 -0.3385284511843E+01 -0.7388764232007E+00 -0.1526617171009E+00
-0.2066979498377E+00 -0.3399629889713E+01 -0.7212655786578E+00 -0.4794128899572E-01
-0.1577605544431E+00 -0.3401960729387E+01 -0.7119442673747E+00  0.4718455953178E-01
-0.1446838965465E+00 -0.3406399905557E+01 -0.7102167710037E+00  0.1333954010564E+00
-0.1572761939329E+00 -0.3417513098950E+01 -0.7149578692302E+00  0.2184352134125E+00
-0.1923772262604E+00 -0.3433376851674E+01 -0.7251508263924E+00  0.3093972549153E+00
-0.2502379522941E+00 -0.3447723166984E+01 -0.7395922348763E+00  0.4094435398872E+00
-0.3298969083815E+00 -0.3451183968401E+01 -0.7562161866251E+00  0.5159892717103E+00
-0.4244275102393E+00 -0.3433803952794E+01 -0.7716463041052E+00  0.6209980309292E+00
-0.5196651596128E+00 -0.3388622377399E+01 -0.7816575190499E+00  0.7136421890525E+00
-0.5982245584330E+00 -0.3310329541068E+01 -0.7817108315485E+00  0.7816575537886E+00
-0.6416963187942E+00 -0.3191209876233E+01 -0.7665812504284E+00  0.8083500401267E+00
-0.6256154927749E+00 -0.3023168208240E+01 -0.7297567510772E+00  0.7695383959502E+00
-0.5087776899498E+00 -0.2803986005719E+01 -0.6625527490066E+00  0.6339369659446E+00
-0.2148398647733E+00 -0.2547720639642E+01 -0.5525121091161E+00  0.3693716042130E+00
 0.3890629157159E+00 -0.2303084938429E+01 -0.3828044102468E+00 -0.2985496480262E-01
 0.1470306692482E+01 -0.2154061313374E+01 -0.1367509262161E+00 -0.4731906065322E+00
 0.3087208624499E+01 -0.2134207742401E+01  0.1906001792597E+00 -0.7043623126196E+00
 0.4961848104682E+01 -0.2077745476107E+01  0.5768205343103E+00 -0.4000273075774E+00
-0.6987598256255E+00 -0.3245177613400E+01 -0.7887874995590E+00 -0.2658984566139E+00
-0.5042046260489E+00 -0.3320754628926E+01 -0.7649918623943E+00 -0.2224005473471E+00
-0.3462054808710E+00 -0.3369637707451E+01 -0.7431686487384E+00 -0.1398995879298E+00
-0.2440564509714E+00 -0.3390441362665E+01 -0.7268995735588E+00 -0.4375425896269E-01
-0.1922476146312E+00 -0.3395251223204E+01 -0.7174997782587E+00  0.4918498655436E-01
-0.1779756990095E+00 -0.3395403631958E+01 -0.7146758768431E+00  0.1366151922521E+00
-0.1921668151001E+00 -0.3395412037824E+01 -0.7175157812766E+00  0.2233666596965E+00
-0.2308101788712E+00 -0.3393778831746E+01 -0.7249178129255E+00  0.3145519024860E+00
-0.2922535581149E+00 -0.3384878006562E+01 -0.7354263238941E+00  0.4118346896488E+00
-0.3731602371207E+00 -0.3360649134879E+01 -0.7467618855275E+00  0.5116681390187E+00
-0.4646258450631E+00 -0.3313060477779E+01 -0.7555372758268E+00  0.6056617570973E+00
-0.5510816597070E+00 -0.3237205973500E+01 -0.7576575379313E+00  0.6827382363883E+00
-0.6130929365204E+00 -0.3130318419030E+01 -0.7486822822663E+00  0.7299557712930E+00
-0.6285663985072E+00 -0.2988730708086E+01 -0.7234594320989E+00  0.7301363614151E+00
-0.5681352444503E+00 -0.2810390580233E+01 -0.6757051750054E+00  0.6603735157180E+00
-0.3862334695351E+00 -0.2601504915356E+01 -0.5975476858824E+00  0.4948293764417E+00
-0.9159917032887E-02 -0.2385503443055E+01 -0.4789326791542E+00  0.2155103327944E+00
 0.6691561099032E+00 -0.2211113697038E+01 -0.3083915220223E+00 -0.1594659646151E+00
 0.1748566435290E+01 -0.2136420075813E+01 -0.7757072926044E-01 -0.5283450004162E+00
 0.3208107695463E+01 -0.2155940706201E+01  0.2104334009881E+00 -0.6867321448306E+00
 0.4797800602691E+01 -0.2117985042542E+01  0.5359631200164E+00 -0.4178361667133E+00
-0.7052184604275E+00 -0.3232780513684E+01 -0.7875998065585E+00 -0.2341757963628E+00
-0.5269185258662E+00 -0.3304307111663E+01 -0.7662451389237E+00 -0.1971166593290E+00
-0.3789888587904E+00 -0.3354040747877E+01 -0.7466059324588E+00 -0.1255126103131E+00
-0.2790787418850E+00 -0.3378224295912E+01 -0.7314606184589E+00 -0.3809946369340E-01
-0.2261584600978E+00 -0.3383970024217E+01 -0.7220257076219E+00  0.5062421506033E-01
-0.2113741719858E+00 -0.3379697046374E+01 -0.7182142543743E+00  0.1367398507869E+00
-0.2269447744789E+00 -0.3369297671568E+01 -0.7192484999271E+00  0.2227101028144E+00
-0.2682310996770E+00 -0.3351632754679E+01 -0.7239727816593E+00  0.3117865364327E+00
-0.3318588574705E+00 -0.3321957786485E+01 -0.7307633396804E+00  0.4043480990258E+00
-0.4123544002164E+00 -0.3273697705790E+01 -0.7372104321865E+00  0.4961892103990E+00
-0.4989601542382E+00 -0.3200772913972E+01 -0.7399466246680E+00  0.5788174898744E+00
-0.5746249111780E+00 -0.3100336379901E+01 -0.7349922691681E+00  0.6411969098592E+00
-0.6179206464081E+00 -0.2972199764330E+01 -0.7180240928470E+00  0.6702538218741E+00
-0.6036746572131E+00 -0.2816705108264E+01 -0.6840759632889E+00  0.6491724375285E+00
-0.4991576148770E+00 -0.2637421155870E+01 -0.6273157634972E+00  0.5574518749817E+00
-0.2578145302876E+00 -0.2447081298541E+01 -0.5409791738268E+00  0.3757660891263E+00
 0.1860921168329E+00 -0.2273383091965E+01 -0.4174582012470E+00  0.9868502264099E-01
 0.9108163318958E+00 -0.2158873365808E+01 -0.2496114105020E+00 -0.2410805877484E+00
 0.1965738195944E+01 -0.2138905306948E+01 -0.3463342271698E-01 -0.5444625712559E+00
 0.3291093600007E+01 -0.2188606458942E+01  0.2204974314987E+00 -0.6545723101217E+00
 0.4650826572281E+01 -0.2173030343851E+01  0.4955592530704E+00 -0.4329415551684E+00
-0.7108192697408E+00 -0.3222743061951E+01 -0.7867124780612E+00 -0.2048299648033E+00
-0.5463851173513E+00 -0.3290065408062E+01 -0.7672901165163E+00 -0.1729519444980E+00
-0.4079126445250E+00 -0.3338947357691E+01 -0.7493720116097E+00 -0.1106231932789E+00
-0.3113805574063E+00 -0.3364323732082E+01 -0.7351408688521E+00 -0.3185744124483E-01
-0.2586272813940E+00 -0.3369713189699E+01 -0.7256681050320E+00  0.5119029698054E-01
-0.2438839640928E+00 -0.3360894418995E+01 -0.7209556873607E+00  0.1338803050854E+00
-0.2606108329775E+00 -0.3340896037724E+01 -0.7203013848736E+00  0.2168977694978E+00
-0.3037159874247E+00 -0.3308850921346E+01 -0.7225133925203E+00  0.3019107161751E+00
-0.3683273365782E+00 -0.3260976694574E+01 -0.7258608170466E+00  0.3882620677350E+00
-0.4470841790419E+00 -0.3192234522750E+01 -0.7278637512044E+00  0.4713460319945E+00
-0.5275257632703E+00 -0.3098469915114E+01 -0.7251991464833E+00  0.5427937137275E+00
-0.5911455287147E+00 -0.2978862157278E+01 -0.7140015478380E+00  0.5918899299547E+00
-0.6147118478129E+00 -0.2835736544329E+01 -0.6900896887115E+00  0.6059181171286E+00
-0.5706943653295E+00 -0.2673152031293E+01 -0.6487692889920E+00  0.5691171697661E+00
-0.4245768580269E+00 -0.2499407903052E+01 -0.5847969609299E+00  0.4640559879889E+00
-0.1314973061617E+00 -0.2331559801188E+01 -0.4926114288103E+00  0.2777934440620E+00
 0.3637612082354E+00 -0.2197812353620E+01 -0.3668102345429E+00  0.1447105889895E-01
 0.1114441300895E+01 -0.2132207895962E+01 -0.2035533220466E+00 -0.2860919760412E+00
 0.2134805205794E+01 -0.2152682537135E+01 -0.3575466321606E-02 -0.5346683295343E+00
 0.3346725056797E+01 -0.2224833515014E+01  0.2243783117002E+00 -0.6108188069012E+00
 0.4546459292584E+01 -0.2243199296766E+01  0.4606520060279E+00 -0.4388959998642E+00
-0.7156462531712E+00 -0.3214369130564E+01 -0.7860030884595E+00 -0.1776054638848E+00
-0.5631366742443E+00 -0.3277583312918E+01 -0.7681440088786E+00 -0.1501065946399E+00
-0.4333269304284E+00 -0.3324636143780E+01 -0.7515926260413E+00 -0.9591647614756E-01
-0.3407457549514E+00 -0.3349728932558E+01 -0.7380949485003E+00 -0.2565224633371E-01
-0.2890334422238E+00 -0.3353801087042E+01 -0.7285669167096E+00  0.5065288817357E-01
-0.2747504452705E+00 -0.3340408537179E+01 -0.7230318072639E+00  0.1282038541086E+00
-0.2924389831194E+00 -0.3311675730434E+01 -0.7208229534517E+00  0.2064459615832E+00
-0.3366796430018E+00 -0.3266935084965E+01 -0.7207229563330E+00  0.2858024222972E+00
-0.4013264361359E+00 -0.3203353114633E+01 -0.7209359208965E+00  0.3648402024733E+00
-0.4773726270199E+00 -0.3117393209500E+01 -0.7189531780172E+00  0.4387793953525E+00
-0.5508169158407E+00 -0.3006748816824E+01 -0.7115131571353E+00  0.4995765102444E+00
-0.6017929787994E+00 -0.2872544512381E+01 -0.6948675085904E+00  0.5370885807384E+00
-0.6055296845717E+00 -0.2719467382418E+01 -0.6649994233073E+00  0.5393556689982E+00
-0.5328617723846E+00 -0.2554845103733E+01 -0.6175413844255E+00  0.4921545701986E+00
-0.3488391788250E+00 -0.2390651742906E+01 -0.5478981925104E+00  0.3813363371237E+00
-0.1206137589437E-01 -0.2246313956940E+01 -0.4516750732973E+00  0.1994903993873E+00
 0.5215415628950E+00 -0.2148221399039E+01 -0.3253359720767E+00 -0.4281320801882E-01
 0.1284394143198E+01 -0.2121774533603E+01 -0.1674760805765E+00 -0.3039891059155E+00
 0.2267130995865E+01 -0.2172366175131E+01  0.1895296442924E-01 -0.5069394790171E+00
 0.3384232484036E+01 -0.2261727427720E+01  0.2245010146086E+00 -0.5611721461508E+00
 0.4471293989635E+01 -0.2306752983666E+01  0.4329082076447E+00 -0.4167833165460E+00
-0.7198200315089E+00 -0.3207257454403E+01 -0.7854155088859E+00 -0.1522633713020E+00
-0.5775655606507E+00 -0.3266596388278E+01 -0.7688324012423E+00 -0.1286187476304E+00
-0.4555470173173E+00 -0.3311313256434E+01 -0.7533720659763E+00 -0.8178675723097E-01
-0.3670952795613E+00 -0.3335182307220E+01 -0.7404555283898E+00 -0.1989649263772E-01
-0.3169660116731E+00 -0.3337295952445E+01 -0.7308524037142E+00  0.4886190767669E-01
-0.3034327873458E+00 -0.3319412853161E+01 -0.7245691388983E+00  0.1198883280368E+00
-0.3219242311190E+00 -0.3282816346050E+01 -0.7209481261767E+00  0.1918401038862E+00
-0.3667750418126E+00 -0.3226983185767E+01 -0.7187516562261E+00  0.2642376927610E+00
-0.4307671545100E+00 -0.3149962686559E+01 -0.7161459788851E+00  0.3351268687863E+00
-0.5034697070389E+00 -0.3049631766770E+01 -0.7106203053508E+00  0.3997567406540E+00
-0.5695072848329E+00 -0.2925416875078E+01 -0.6989848423978E+00  0.4505907534382E+00
-0.6077865766455E+00 -0.2780266828263E+01 -0.6776106910790E+00  0.4782746713823E+00
-0.5922796843687E+00 -0.2621020592267E+01 -0.6426600649036E+00  0.4719116318985E+00
-0.4928237813768E+00 -0.2457769657821E+01 -0.5901186966329E+00  0.4191042955827E+00
-0.2750501583557E+00 -0.2305168035595E+01 -0.5160436464798E+00  0.3088701267736E+00
 0.9802083025063E-01 -0.2183553251400E+01 -0.4171064904452E+00  0.1381750686974E+00
 0.6598121007019E+00 -0.2116324578416E+01 -0.2913024998835E+00 -0.7872877638686E-01
 0.1426077136379E+01 -0.2121119449112E+01 -0.1390084646179E+00 -0.3019041189002E+00
 0.2371760957318E+01 -0.2194500064659E+01  0.3545217906004E-01 -0.4668476927060E+00
 0.3411044862079E+01 -0.2297644787774E+01  0.2226800181791E+00 -0.5060014462436E+00
 0.4406143235183E+01 -0.2361419023080E+01  0.4089448485144E+00 -0.3879768388553E+00
-0.7233989113926E+00 -0.3201174124678E+01 -0.7849146189102E+00 -0.1285804888283E+00
-0.5899130944266E+00 -0.3256969781504E+01 -0.7693765866507E+00 -0.1084540731044E+00
-0.4747629016576E+00 -0.3299170511796E+01 -0.7547866939380E+00 -0.6845648690849E-01
-0.3903318947722E+00 -0.3321290345127E+01 -0.7423244590412E+00 -0.1485162877875E-01
-0.3420508599797E+00 -0.3321100243982E+01 -0.7326302317094E+00  0.4574700303809E-01
-0.3294251733612E+00 -0.3298950563516E+01 -0.7256751581888E+00  0.1091451843599E+00
-0.3485746970688E+00 -0.3255400479860E+01 -0.7207950461265E+00  0.1735774863376E+00
-0.3936400597102E+00 -0.3190037818703E+01 -0.7167355863627E+00  0.2379811090725E+00
-0.4565115680511E+00 -0.3101704467247E+01 -0.7116432176639E+00  0.3001244343566E+00
-0.5255453423513E+00 -0.2989564728482E+01 -0.7030220246425E+00  0.3554738119637E+00
-0.5841694732773E+00 -0.2854625191333E+01 -0.6877589431704E+00  0.3971638829947E+00
-0.6102275213416E+00 -0.2701492407898E+01 -0.6623439957177E+00  0.4168087972523E+00
-0.5767211643031E+00 -0.2538894701004E+01 -0.6231231823467E+00  0.4047906653817E+00
-0.4530183842848E+00 -0.2379161064284E+01 -0.5664358981543E+00  0.3506540991112E+00
-0.2060098211337E+00 -0.2238758527808E+01 -0.4889536770742E+00  0.2462390118757E+00
 0.1965477898457E+00 -0.2137935069347E+01 -0.3882774616860E+00  0.9164461449831E-01
 0.7785778908013E+00 -0.2096698117650E+01 -0.2636240492981E+00 -0.9743010013265E-01
 0.1542921306858E+01 -0.2126179628802E+01 -0.1166516661269E+00 -0.2847986577515E+00
 0.2454512561449E+01 -0.2216965010447E+01  0.4750951090836E-01 -0.4178881965634E+00
 0.3430390974404E+01 -0.2331304929615E+01  0.2198172122333E+00 -0.4467862694652E+00
 0.4353381540910E+01 -0.2411096074593E+01  0.3884570990519E+00 -0.3523435879178E+00
-0.7264211244260E+00 -0.3195996609640E+01 -0.7844835585029E+00 -0.1063386888958E+00
-0.6003350419509E+00 -0.3248650465809E+01 -0.7697971130228E+00 -0.8951728692147E-01
-0.4911022394588E+00 -0.3288384421320E+01 -0.7558973434196E+00 -0.5601171914389E-01
-0.4103806221730E+00 -0.3308544099546E+01 -0.7437849554270E+00 -0.1064422320692E-01
-0.3639977489525E+00 -0.3305957719495E+01 -0.7339911046267E+00  0.4132173440022E-01
-0.3523259456648E+00 -0.3279899692595E+01 -0.7264451384767E+00  0.9622325428529E-01
-0.3720023277763E+00 -0.3230339195306E+01 -0.7204683153522E+00  0.1521589263119E+00
-0.4170076142055E+00 -0.3156956101224E+01 -0.7147927537370E+00  0.2077639880024E+00
-0.4785007075989E+00 -0.3059282722272E+01 -0.7075566965177E+00  0.2607524986908E+00
-0.5438245211091E+00 -0.2937618800822E+01 -0.6962886747618E+00  0.3069792113181E+00
-0.5953935512620E+00 -0.2794367290449E+01 -0.6779521784444E+00  0.3403942029437E+00
-0.6101655759368E+00 -0.2635590533270E+01 -0.6491512315144E+00  0.3537212027434E+00
-0.5604346579743E+00 -0.2471615449237E+01 -0.6064100304786E+00  0.3387562204588E+00
-0.4154934734773E+00 -0.2316510517101E+01 -0.5464008062578E+00  0.2869720266548E+00
-0.1438536961583E+00 -0.2187868283095E+01 -0.4663444027997E+00  0.1925681382112E+00
 0.2821464722827E+00 -0.2105253484664E+01 -0.3646214079095E+00  0.5760842993887E-01
 0.8783695268628E+00 -0.2085369143757E+01 -0.2413999269759E+00 -0.1024703401094E+00
 0.1637936306892E+01 -0.2134157199626E+01 -0.9924418002569E-01 -0.2564165044231E+00
 0.2519642567678E+01 -0.2238313728289E+01  0.5626576871624E-01 -0.3624652115532E+00
 0.3444670894207E+01 -0.2361983296841E+01  0.2165375226999E+00 -0.3841688425173E+00
 0.4311340675276E+01 -0.2455906393558E+01  0.3710868618732E+00 -0.3100944394855E+00
-0.7289121140262E+00 -0.3191671580218E+01 -0.7841167505331E+00 -0.8532117197019E-01
-0.6089300930241E+00 -0.3241636906864E+01 -0.7701134114533E+00 -0.7167159871787E-01
-0.5046470136024E+00 -0.3279117287064E+01 -0.7567528714098E+00 -0.4444097883848E-01
-0.4271806481781E+00 -0.3297342881069E+01 -0.7449047169494E+00 -0.7295128368054E-02
-0.3825826635247E+00 -0.3292474259439E+01 -0.7350113955453E+00  0.3567257541396E-01
-0.3718218677990E+00 -0.3262984156118E+01 -0.7269612156160E+00  0.8140456701580E-01
-0.3919077996427E+00 -0.3208382677326E+01 -0.7200581061235E+00  0.1280836778003E+00
-0.4366870068707E+00 -0.3128429538350E+01 -0.7130233196690E+00  0.1742798528924E+00
-0.4967304358831E+00 -0.3023239105489E+01 -0.7039939187647E+00  0.2178482902142E+00
-0.5585565832095E+00 -0.2894076833921E+01 -0.6905266937159E+00  0.2551828471244E+00
-0.6037490513831E+00 -0.2744534833908E+01 -0.6696567870368E+00  0.2811711021926E+00
-0.6085568362965E+00 -0.2581905085179E+01 -0.6380923938033E+00  0.2897512543187E+00
-0.5447884759781E+00 -0.2417815196280E+01 -0.5925207432808E+00  0.2742033800091E+00
-0.3819164293392E+00 -0.2267633199432E+01 -0.5299099336506E+00  0.2278313035698E+00
-0.9016678762160E-01 -0.2149576920344E+01 -0.4479487482681E+00  0.1467004176479E+00
 0.3540138880658E+00 -0.2082255890083E+01 -0.3456484055539E+00  0.3383012521211E-01
 0.9599427896073E+00 -0.2079440453319E+01 -0.2238995360788E+00 -0.9684987035518E-01
 0.1713619259543E+01 -0.2143099575367E+01 -0.8589606444476E-01 -0.2196080112048E+00
 0.2570260397982E+01 -0.2257510608965E+01  0.6254995873551E-01 -0.3022504949388E+00
 0.3455253838108E+01 -0.2388946534171E+01  0.2132614639652E+00 -0.3185717152244E+00
 0.4278696758401E+01 -0.2494928381626E+01  0.3567536806710E+00 -0.2620268485672E+00
-0.7308889755230E+00 -0.3188186492490E+01 -0.7838151052823E+00 -0.6531013113333E-01
-0.6157592120574E+00 -0.3235956245728E+01 -0.7703431030361E+00 -0.5475105944394E-01
-0.5154472413484E+00 -0.3271514007486E+01 -0.7573922610529E+00 -0.3366278850094E-01
-0.4406818991123E+00 -0.3288008028484E+01 -0.7457379966316E+00 -0.4744117683155E-02
-0.3976348201762E+00 -0.3281134021411E+01 -0.7357537792811E+00  0.2894599812533E-01
-0.3876739057843E+00 -0.3248785761695E+01 -0.7272919443333E+00  0.6499883763104E-01
-0.4080660483232E+00 -0.3190132418518E+01 -0.7196397040918E+00  0.1018464995393E+00
-0.4525470120729E+00 -0.3105002636087E+01 -0.7115099402342E+00  0.1381842802221E+00
-0.5112303974215E+00 -0.2993980679501E+01 -0.7010422258308E+00  0.1721719054032E+00
-0.5699889175248E+00 -0.2859115821122E+01 -0.6858209579488E+00  0.2008693427206E+00
-0.6097536889468E+00 -0.2704965607325E+01 -0.6629438691330E+00  0.2202004957578E+00
-0.6062323878051E+00 -0.2539811417134E+01 -0.6292087703639E+00  0.2253914639550E+00
-0.5309219408125E+00 -0.2376291313165E+01 -0.5814426594597E+00  0.2112307686993E+00
-0.3536018324068E+00 -0.2230703050405E+01 -0.5168609842641E+00  0.1727160411966E+00
-0.4609425888843E-01 -0.2121558536551E+01 -0.4335305655480E+00  0.1073168398952E+00
 0.4117200985198E+00 -0.2066476763624E+01 -0.3309513379525E+00  0.1819230485856E-01
 0.1024088664558E+01 -0.2076816056982E+01 -0.2105454816221E+00 -0.8310297148827E-01
 0.1771959919979E+01 -0.2151631135117E+01 -0.7593424415907E-01 -0.1765811353100E+00
 0.2608569100127E+01 -0.2273769403148E+01  0.6695994039363E-01 -0.2384676279244E+00
 0.3463016309301E+01 -0.2411455979359E+01  0.2103120691222E+00 -0.2504664408442E+00
 0.4254197428174E+01 -0.2527286900241E+01  0.3453821107332E+00 -0.2090528081625E+00
-0.7323631789846E+00 -0.3185550089572E+01 -0.7835826653876E+00 -0.4608558096923E-01
-0.6208588225990E+00 -0.3231647490928E+01 -0.7705012741868E+00 -0.3856894890831E-01
-0.5235316187212E+00 -0.3265697503673E+01 -0.7578458357716E+00 -0.2354570604088E-01
-0.4508439637378E+00 -0.3280790853145E+01 -0.7463269744978E+00 -0.2870333559907E-02
-0.4090272205453E+00 -0.3272311583962E+01 -0.7362677718727E+00  0.2133558008511E-01
-0.3997051994971E+00 -0.3237755421022E+01 -0.7274921349442E+00  0.4733761101879E-01
-0.4203133810829E+00 -0.3176053162968E+01 -0.7192733195281E+00  0.7393632945715E-01
-0.4645011658665E+00 -0.3087089501310E+01 -0.7103181440199E+00  0.1000979512051E+00
-0.5220461795697E+00 -0.2971803697863E+01 -0.6987699858990E+00  0.1244153944606E+00
-0.5783451735594E+00 -0.2832838773148E+01 -0.6822367995075E+00  0.1447155444532E+00
-0.6138486470112E+00 -0.2675483228288E+01 -0.6578663848629E+00  0.1580341884229E+00
-0.6038763754528E+00 -0.2508761197028E+01 -0.6225275237726E+00  0.1609334716044E+00
-0.5197401841423E+00 -0.2346046545377E+01 -0.5731573544445E+00  0.1497075105732E+00
-0.3315462752750E+00 -0.2204265397837E+01 -0.5071623421797E+00  0.1209060183380E+00
-0.1243751489769E-01 -0.2102030770298E+01 -0.4228936633407E+00  0.7301418562832E-01
 0.4550634510230E+00 -0.2056099853907E+01 -0.3202072853483E+00  0.8713357669419E-02
 0.1071521474676E+01 -0.2076005852482E+01 -0.2008968785548E+00 -0.6339469925141E-01
 0.1814469614048E+01 -0.2158784545399E+01 -0.6886298729630E-01 -0.1290947858089E+00
 0.2636115531978E+01 -0.2286481179446E+01  0.6992687154846E-01 -0.1720896303871E+00
 0.3468495659422E+01 -0.2428892294028E+01  0.2079206761770E+00 -0.1803633016150E+00
 0.4236790121738E+01 -0.2552231696416E+01  0.3369116900847E+00 -0.1521733528950E+00
-0.7333422343548E+00 -0.3183779024809E+01 -0.7834242635067E+00 -0.2742505533048E-01
-0.6242497050878E+00 -0.3228749413953E+01 -0.7705998352911E+00 -0.2292392380452E-01
-0.5289153963710E+00 -0.3261764266451E+01 -0.7581359438615E+00 -0.1392343415673E-01
-0.4576360599665E+00 -0.3275877158791E+01 -0.7467026548783E+00 -0.1509261851631E-02
-0.4166698981253E+00 -0.3266280818859E+01 -0.7365901543729E+00  0.1306996495621E-01
-0.4077914397367E+00 -0.3230222671917E+01 -0.7276028331729E+00  0.2876864556606E-01
-0.4285367272455E+00 -0.3166483473974E+01 -0.7190040509580E+00  0.4483623778653E-01
-0.4724955941625E+00 -0.3074987848094E+01 -0.7094966990236E+00  0.6061211373594E-01
-0.5292248234463E+00 -0.2956913013318E+01 -0.6972275777423E+00  0.7521489725498E-01
-0.5838079821134E+00 -0.2815300390887E+01 -0.6798216847302E+00  0.8731132448094E-01
-0.6163799285117E+00 -0.2655928536954E+01 -0.6544617028454E+00  0.9510203146955E-01
-0.6020115684329E+00 -0.2488316098300E+01 -0.6180655425566E+00  0.9651427476320E-01
-0.5119157551752E+00 -0.2326315387253E+01 -0.5676462369442E+00  0.8933363247395E-01
-0.3164626405474E+00 -0.2187237106694E+01 -0.5007399569099E+00  0.7154256717139E-01
 0.1026851440590E-01 -0.2089705469716E+01 -0.4158873972592E+00  0.4235142956413E-01
 0.4839691117159E+00 -0.2049851380074E+01 -0.3131764583382E+00  0.3535774538573E-02
 0.1102813115267E+01 -0.2075991283624E+01 -0.1946356365716E+00 -0.3961469038666E-01
 0.1842231156027E+01 -0.2163897382231E+01 -0.6433324619932E-01 -0.7860830177120E-01
 0.2653945625091E+01 -0.2295199478806E+01  0.7174923032613E-01 -0.1039410771473E+00
 0.3472008851615E+01 -0.2440781658209E+01  0.2062454417545E+00 -0.1088069243738E+00
 0.4225653969652E+01 -0.2569186490838E+01  0.3312935006994E+00 -0.9245432725146E-01
-0.7338306883762E+00 -0.3182888930576E+01 -0.7833439354631E+00 -0.9103918608911E-02
-0.6259428194629E+00 -0.3227292198115E+01 -0.7706470149991E+00 -0.7604883648996E-02
-0.5316058766875E+00 -0.3259780722596E+01 -0.7582773311559E+00 -0.4606723127360E-02
-0.4610373650218E+00 -0.3273389750759E+01 -0.7468854342856E+00 -0.4670468720993E-03
-0.4205052797647E+00 -0.3263221072666E+01 -0.7367452814644E+00  0.4401885252190E-02
-0.4118537013243E+00 -0.3226403043512E+01 -0.7276513598101E+00  0.9650770979525E-02
-0.4326653738122E+00 -0.3161644170817E+01 -0.7188619196376E+00  0.1502437195035E-01
-0.4764996668301E+00 -0.3068889911111E+01 -0.7090779261542E+00  0.2029579280149E-01
-0.5328038412707E+00 -0.2949436867787E+01 -0.6964481521894E+00  0.2516504688026E-01
-0.5865061374260E+00 -0.2806526386972E+01 -0.6786065149915E+00  0.2918279958513E-01
-0.6175851494803E+00 -0.2646182767576E+01 -0.6527535931380E+00  0.3174581807474E-01
-0.6009904918841E+00 -0.2478171509654E+01 -0.6158324094842E+00  0.3216163422777E-01
-0.5078931047740E+00 -0.2316580205219E+01 -0.5648946704162E+00  0.2969387443579E-01
-0.3088089658853E+00 -0.2178901273803E+01 -0.4975420553516E+00  0.2367914159265E-01
 0.2169829848874E-01 -0.2083747848577E+01 -0.4124099161630E+00  0.1387428663491E-01
 0.4984210989021E+00 -0.2046923163948E+01 -0.3097004176240E+00  0.8986049296510E-03
 0.1118358491371E+01 -0.2076136746122E+01 -0.1915556538047E+00 -0.1346430062583E-01
 0.1855941474354E+01 -0.2166554111273E+01 -0.6212252830954E-01 -0.2639131929113E-01
 0.2662706202801E+01 -0.2299631212212E+01  0.7261499919968E-01 -0.3476016410856E-01
 0.3473728070927E+01 -0.2446806052325E+01  0.2053844067809E+00 -0.3636768886474E-01
 0.4220228125689E+01 -0.2577761887733E+01  0.3284932524862E+00 -0.3101088424365E-01
-0.7338306883718E+00 -0.3182888930562E+01 -0.7833439354595E+00  0.9103918712590E-02
-0.6259428194507E+00 -0.3227292198109E+01 -0.7706470149954E+00  0.7604883874362E-02
-0.5316058766558E+00 -0.3259780722604E+01 -0.7582773311512E+00  0.4606723341486E-02
-0.4610373649634E+00 -0.3273389750788E+01 -0.7468854342797E+00  0.4670468733498E-03
-0.4205052796765E+00 -0.3263221072724E+01 -0.7367452814585E+00 -0.4401885699929E-02
-0.4118537012062E+00 -0.3226403043613E+01 -0.7276513598066E+00 -0.9650772120146E-02
-0.4326653736670E+00 -0.3161644170976E+01 -0.7188619196406E+00 -0.1502437401861E-01
-0.4764996666656E+00 -0.3068889911350E+01 -0.7090779261692E+00 -0.2029579600523E-01
-0.5328038411037E+00 -0.2949436868123E+01 -0.6964481522233E+00 -0.2516505136715E-01
-0.5865061372866E+00 -0.2806526387414E+01 -0.6786065150521E+00 -0.2918280538792E-01
-0.6175851494150E+00 -0.2646182768117E+01 -0.6527535932332E+00 -0.3174582504092E-01
-0.6009904919560E+00 -0.2478171510267E+01 -0.6158324096211E+00 -0.3216164194433E-01
-0.5078931050587E+00 -0.2316580205851E+01 -0.5648946705995E+00 -0.2969388215678E-01
-0.3088089664572E+00 -0.2178901274374E+01 -0.4975420555802E+00 -0.2367914820811E-01
 0.2169829758749E-01 -0.2083747848997E+01 -0.4124099164273E+00 -0.1387429076221E-01
 0.4984210977058E+00 -0.2046923164139E+01 -0.3097004179016E+00 -0.8986051908772E-03
 0.1118358490030E+01 -0.2076136746055E+01 -0.1915556540593E+00  0.1346430513224E-01
 0.1855941473141E+01 -0.2166554110976E+01 -0.6212252849264E-01  0.2639132845691E-01
 0.2662706202043E+01 -0.2299631211744E+01  0.7261499914191E-01  0.3476017649824E-01
 0.3473728070890E+01 -0.2446806051706E+01  0.2053844068972E+00  0.3636770187116E-01
 0.4220228126445E+01 -0.2577761886876E+01  0.3284932528088E+00  0.3101089478102E-01
-0.7333422343417E+00 -0.3183779024769E+01 -0.7834242634960E+00  0.2742505543494E-01
-0.6242497050511E+00 -0.3228749413935E+01 -0.7705998352801E+00  0.2292392403368E-01
-0.5289153962761E+00 -0.3261764266475E+01 -0.7581359438473E+00  0.1392343437795E-01
-0.4576360597916E+00 -0.3275877158877E+01 -0.7467026548604E+00  0.1509261864050E-02
-0.4166698978615E+00 -0.3266280819032E+01 -0.7365901543547E+00 -0.1306996538649E-01
-0.4077914393837E+00 -0.3230222672215E+01 -0.7276028331619E+00 -0.2876864667978E-01
-0.4285367268112E+00 -0.3166483474450E+01 -0.7190040509662E+00 -0.4483623981617E-01
-0.4724955936695E+00 -0.3074987848807E+01 -0.7094966990677E+00 -0.6061211688993E-01
-0.5292248229440E+00 -0.2956913014323E+01 -0.6972275778429E+00 -0.7521490168591E-01
-0.5838079816914E+00 -0.2815300392212E+01 -0.6798216849108E+00 -0.8731133023169E-01
-0.6163799283081E+00 -0.2655928538581E+01 -0.6544617031301E+00 -0.9510203840309E-01
-0.6020115686363E+00 -0.2488316100149E+01 -0.6180655429669E+00 -0.9651428248696E-01
-0.5119157560134E+00 -0.2326315389165E+01 -0.5676462374943E+00 -0.8933364026480E-01
-0.3164626422458E+00 -0.2187237108435E+01 -0.5007399575977E+00 -0.7154257393756E-01
 0.1026851171547E-01 -0.2089705471008E+01 -0.4158873980557E+00 -0.4235143392382E-01
 0.4839691081279E+00 -0.2049851380682E+01 -0.3131764591775E+00 -0.3535775084899E-02
 0.1102813111229E+01 -0.2075991283450E+01 -0.1946356373444E+00  0.3961469461371E-01
 0.1842231152356E+01 -0.2163897381358E+01 -0.6433324675899E-01  0.7860831072673E-01
 0.2653945622786E+01 -0.2295199477415E+01  0.7174923014343E-01  0.1039410894171E+00
 0.3472008851491E+01 -0.2440781656368E+01  0.2062454420979E+00  0.1088069372916E+00
 0.4225653971946E+01 -0.2569186488290E+01  0.3312935016680E+00  0.9245433759879E-01
-0.7323631789630E+00 -0.3185550089505E+01 -0.7835826653698E+00  0.4608558107524E-01
-0.6208588225383E+00 -0.3231647490898E+01 -0.7705012741685E+00  0.3856894914500E-01
-0.5235316185638E+00 -0.3265697503711E+01 -0.7578458357477E+00  0.2354570627607E-01
-0.4508439634478E+00 -0.3280790853284E+01 -0.7463269744674E+00  0.2870333594228E-02
-0.4090272201084E+00 -0.3272311584242E+01 -0.7362677718413E+00 -0.2133558048099E-01
-0.3997051989129E+00 -0.3237755421506E+01 -0.7274921349243E+00 -0.4733761207907E-01
-0.4203133803631E+00 -0.3176053163746E+01 -0.7192733195398E+00 -0.7393633140954E-01
-0.4645011650463E+00 -0.3087089502485E+01 -0.7103181440908E+00 -0.1000979542589E+00
-0.5220461787288E+00 -0.2971803699527E+01 -0.6987699860636E+00 -0.1244153987781E+00
-0.5783451728436E+00 -0.2832838775352E+01 -0.6822367998052E+00 -0.1447155500971E+00
-0.6138486466471E+00 -0.2675483231009E+01 -0.6578663853342E+00 -0.1580341952870E+00
-0.6038763757523E+00 -0.2508761200139E+01 -0.6225275244547E+00 -0.1609334793368E+00
-0.5197401854864E+00 -0.2346046548622E+01 -0.5731573553623E+00 -0.1497075184974E+00
-0.3315462780472E+00 -0.2204265400826E+01 -0.5071623433319E+00 -0.1209060254004E+00
-0.1243751933705E-01 -0.2102030772561E+01 -0.4228936646812E+00 -0.7301419045182E-01
 0.4550634450470E+00 -0.2056099855035E+01 -0.3202072867691E+00 -0.8713358791883E-02
 0.1071521467889E+01 -0.2076005852288E+01 -0.2008968798734E+00  0.6339470290759E-01
 0.1814469607821E+01 -0.2158784544011E+01 -0.6886298826425E-01  0.1290947943305E+00
 0.2636115528025E+01 -0.2286481177175E+01  0.6992687121208E-01  0.1720896424102E+00
 0.3468495659175E+01 -0.2428892291012E+01  0.2079206767309E+00  0.1803633143580E+00
 0.4236790125645E+01 -0.2552231692238E+01  0.3369116917018E+00  0.1521733628680E+00
-0.7308889754933E+00 -0.3188186492396E+01 -0.7838151052575E+00  0.6531013124160E-01
-0.6157592119733E+00 -0.3235956245684E+01 -0.7703431030105E+00  0.5475105969175E-01
-0.5154472411293E+00 -0.3271514007535E+01 -0.7573922610190E+00  0.3366278875651E-01
-0.4406818987094E+00 -0.3288008028668E+01 -0.7457379965879E+00  0.4744117749230E-02
-0.3976348195708E+00 -0.3281134021787E+01 -0.7357537792351E+00 -0.2894599847091E-01
-0.3876739049753E+00 -0.3248785762349E+01 -0.7272919443024E+00 -0.6499883861214E-01
-0.4080660473243E+00 -0.3190132419578E+01 -0.7196397041040E+00 -0.1018465013759E+00
-0.4525470109286E+00 -0.3105002637700E+01 -0.7115099403280E+00 -0.1381842831243E+00
-0.5112303962370E+00 -0.2993980681805E+01 -0.7010422260547E+00 -0.1721719095469E+00
-0.5699889164971E+00 -0.2859115824198E+01 -0.6858209583585E+00 -0.2008693481976E+00
-0.6097536883861E+00 -0.2704965611153E+01 -0.6629438697864E+00 -0.2202005025073E+00
-0.6062323881424E+00 -0.2539811421552E+01 -0.6292087713148E+00 -0.2253914716862E+00
-0.5309219425819E+00 -0.2376291317829E+01 -0.5814426607463E+00 -0.2112307768069E+00
-0.3536018361626E+00 -0.2230703054772E+01 -0.5168609858888E+00 -0.1727160486895E+00
-0.4609426500494E-01 -0.2121558539953E+01 -0.4335305674517E+00 -0.1073168454112E+00
 0.4117200901677E+00 -0.2066476765448E+01 -0.3309513399875E+00 -0.1819230685949E-01
 0.1024088654941E+01 -0.2076816056919E+01 -0.2105454835331E+00  0.8310297425722E-01
 0.1771959911028E+01 -0.2151631133320E+01 -0.7593424558991E-01  0.1765811431461E+00
 0.2608569094347E+01 -0.2273769400070E+01  0.6695993985329E-01  0.2384676395583E+00
 0.3463016308860E+01 -0.2411455975244E+01  0.2103120698569E+00  0.2504664533306E+00
 0.4254197433819E+01 -0.2527286894534E+01  0.3453821130036E+00  0.2090528175883E+00
-0.7289121139887E+00 -0.3191671580097E+01 -0.7841167505013E+00  0.8532117208138E-01
-0.6089300929176E+00 -0.3241636906806E+01 -0.7701134114203E+00  0.7167159898021E-01
-0.5046470133229E+00 -0.3279117287121E+01 -0.7567528713653E+00  0.4444097912011E-01
-0.4271806476652E+00 -0.3297342881291E+01 -0.7449047168912E+00  0.7295128474369E-02
-0.3825826627569E+00 -0.3292474259894E+01 -0.7350113954827E+00 -0.3567257569499E-01
-0.3718218667746E+00 -0.3262984156918E+01 -0.7269612155711E+00 -0.8140456789319E-01
-0.3919077983743E+00 -0.3208382678637E+01 -0.7200581061319E+00 -0.1280836794825E+00
-0.4366870054073E+00 -0.3128429540369E+01 -0.7130233197802E+00 -0.1742798555896E+00
-0.4967304343493E+00 -0.3023239108405E+01 -0.7039939190413E+00 -0.2178482941195E+00
-0.5585565818466E+00 -0.2894076837857E+01 -0.6905266942303E+00 -0.2551828523667E+00
-0.6037490505772E+00 -0.2744534838857E+01 -0.6696567878655E+00 -0.2811711087699E+00
-0.6085568365913E+00 -0.2581905090960E+01 -0.6380923950187E+00 -0.2897512620216E+00
-0.5447884780603E+00 -0.2417815202479E+01 -0.5925207449371E+00 -0.2742033883299E+00
-0.3819164339474E+00 -0.2267633205364E+01 -0.5299099357585E+00 -0.2278313116093E+00
-0.9016679530462E-01 -0.2149576925126E+01 -0.4479487507610E+00 -0.1467004240787E+00
 0.3540138773667E+00 -0.2082255892862E+01 -0.3456484082497E+00 -0.3383012840934E-01
 0.9599427770521E+00 -0.2079440453617E+01 -0.2238995386494E+00  0.9684987188248E-01
 0.1713619247627E+01 -0.2143099573323E+01 -0.8589606641904E-01  0.2196080180583E+00
 0.2570260390104E+01 -0.2257510605187E+01  0.6254995791551E-01  0.3022505060132E+00
 0.3455253837350E+01 -0.2388946529063E+01  0.2132614648353E+00  0.3185717273760E+00
 0.4278696765955E+01 -0.2494928374527E+01  0.3567536836017E+00  0.2620268572901E+00
-0.7264211243815E+00 -0.3195996609491E+01 -0.7844835584643E+00  0.1063386890105E+00
-0.6003350418229E+00 -0.3248650465735E+01 -0.7697971129824E+00  0.8951728720150E-01
-0.4911022391200E+00 -0.3288384421381E+01 -0.7558973433639E+00  0.5601171945626E-01
-0.4103806215536E+00 -0.3308544099794E+01 -0.7437849553528E+00  0.1064422335999E-01
-0.3639977480308E+00 -0.3305957720007E+01 -0.7339911045448E+00 -0.4132173460473E-01
-0.3523259444378E+00 -0.3279899693507E+01 -0.7264451384139E+00 -0.9622325503621E-01
-0.3720023262521E+00 -0.3230339196826E+01 -0.7204683153515E+00 -0.1521589278017E+00
-0.4170076124313E+00 -0.3156956103606E+01 -0.7147927538586E+00 -0.2077639904397E+00
-0.4785007057109E+00 -0.3059282725763E+01 -0.7075566968383E+00 -0.2607525022878E+00
-0.5438245193839E+00 -0.2937618805595E+01 -0.6962886753714E+00 -0.3069792162477E+00
-0.5953935501521E+00 -0.2794367296532E+01 -0.6779521794391E+00 -0.3403942092754E+00
-0.6101655760888E+00 -0.2635590540484E+01 -0.6491512329876E+00 -0.3537212103676E+00
-0.5604346602237E+00 -0.2471615457117E+01 -0.6064100325043E+00 -0.3387562289939E+00
-0.4154934787617E+00 -0.2316510524834E+01 -0.5464008088611E+00 -0.2869720353295E+00
-0.1438537052478E+00 -0.2187868289577E+01 -0.4663444059141E+00 -0.1925681457666E+00
 0.2821464592975E+00 -0.2105253488759E+01 -0.3646214113257E+00 -0.5760843466776E-01
 0.8783695112463E+00 -0.2085369144738E+01 -0.2413999302955E+00  0.1024703399887E+00
 0.1637936291692E+01 -0.2134157197567E+01 -0.9924418265377E-01  0.2564165099298E+00
 0.2519642557316E+01 -0.2238313723960E+01  0.5626576750962E-01  0.3624652218515E+00
 0.3444670892934E+01 -0.2361983290872E+01  0.2165375236391E+00  0.3841688542549E+00
 0.4311340684955E+01 -0.2455906385231E+01  0.3710868654745E+00  0.3100944473727E+00
-0.7233989113419E+00 -0.3201174124502E+01 -0.7849146188649E+00  0.1285804889469E+00
-0.5899130942780E+00 -0.3256969781413E+01 -0.7693765866029E+00  0.1084540734050E+00
-0.4747629012605E+00 -0.3299170511856E+01 -0.7547866938704E+00  0.6845648725491E-01
-0.3903318940507E+00 -0.3321290345387E+01 -0.7423244589490E+00  0.1485162898250E-01
-0.3420508589148E+00 -0.3321100244525E+01 -0.7326302316050E+00 -0.4574700315710E-01
-0.3294251719484E+00 -0.3298950564501E+01 -0.7256751581033E+00 -0.1091451849639E+00
-0.3485746953074E+00 -0.3255400481540E+01 -0.7207950461101E+00 -0.1735774875977E+00
-0.3936400576377E+00 -0.3190037821391E+01 -0.7167355864860E+00 -0.2379811111926E+00
-0.4565115658062E+00 -0.3101704471261E+01 -0.7116432180177E+00 -0.3001244375693E+00
-0.5255453402354E+00 -0.2989564734061E+01 -0.7030220253351E+00 -0.3554738164911E+00
-0.5841694717968E+00 -0.2854625198557E+01 -0.6877589443192E+00 -0.3971638889878E+00
-0.6102275212331E+00 -0.2701492416616E+01 -0.6623439974395E+00 -0.4168088047188E+00
-0.5767211665424E+00 -0.2538894710730E+01 -0.6231231847398E+00 -0.4047906740950E+00
-0.4530183900194E+00 -0.2379161074105E+01 -0.5664359012654E+00 -0.3506541084716E+00
-0.2060098314078E+00 -0.2238758536397E+01 -0.4889536808470E+00 -0.2462390207426E+00
 0.1965477746865E+00 -0.2137935075233E+01 -0.3882774658951E+00 -0.9164462111038E-01
 0.7785778720008E+00 -0.2096698119762E+01 -0.2636240534805E+00  0.9743009789156E-01
 0.1542921287974E+01 -0.2126179627057E+01 -0.1166516695547E+00  0.2847986614539E+00
 0.2454512548077E+01 -0.2216965005777E+01  0.4750950916784E-01  0.4178882057965E+00
 0.3430390972300E+01 -0.2331304922948E+01  0.2198172131460E+00  0.4467862806944E+00
 0.4353381552963E+01 -0.2411096065220E+01  0.3884571033370E+00  0.3523435948637E+00
-0.7198200314530E+00 -0.3207257454200E+01 -0.7854155088341E+00  0.1522633714249E+00
-0.5775655604824E+00 -0.3266596388171E+01 -0.7688324011871E+00  0.1286187479541E+00
-0.4555470168622E+00 -0.3311313256487E+01 -0.7533720658960E+00  0.8178675761287E-01
-0.3670952787424E+00 -0.3335182307476E+01 -0.7404555282774E+00  0.1989649289265E-01
-0.3169660104784E+00 -0.3337295952987E+01 -0.7308524035835E+00 -0.4886190770499E-01
-0.3034327857687E+00 -0.3319412854170E+01 -0.7245691387847E+00 -0.1198883284763E+00
-0.3219242291444E+00 -0.3282816347826E+01 -0.7209481261370E+00 -0.1918401048802E+00
-0.3667750394603E+00 -0.3226983188692E+01 -0.7187516563407E+00 -0.2642376945051E+00
-0.4307671519101E+00 -0.3149962691029E+01 -0.7161459792592E+00 -0.3351268715325E+00
-0.5034697045052E+00 -0.3049631773107E+01 -0.7106203061115E+00 -0.3997567446767E+00
-0.5695072829116E+00 -0.2925416883438E+01 -0.6989848436856E+00 -0.4505907589772E+00
-0.6077865761455E+00 -0.2780266838553E+01 -0.6776106930369E+00 -0.4782746785780E+00
-0.5922796863910E+00 -0.2621020604022E+01 -0.6426600676590E+00 -0.4719116407074E+00
-0.4928237872820E+00 -0.2457769670062E+01 -0.5901187002623E+00 -0.4191043056263E+00
-0.2750501695146E+00 -0.2305168046790E+01 -0.5160436509505E+00 -0.3088701371002E+00
 0.9802081310938E-01 -0.2183553259692E+01 -0.4171064955319E+00 -0.1381750775520E+00
 0.6598120786204E+00 -0.2116324582263E+01 -0.2913025050693E+00  0.7872877147268E-01
 0.1426077113330E+01 -0.2121119448140E+01 -0.1390084690334E+00  0.3019041202142E+00
 0.2371760940230E+01 -0.2194500059945E+01  0.3545217658521E-01  0.4668477004758E+00
 0.3411044858659E+01 -0.2297644780617E+01  0.2226800189266E+00  0.5060014568278E+00
 0.4406143249855E+01 -0.2361419012852E+01  0.4089448534944E+00  0.3879768447760E+00
-0.7156462531111E+00 -0.3214369130335E+01 -0.7860030884015E+00  0.1776054640121E+00
-0.5631366740566E+00 -0.3277583312794E+01 -0.7681440088164E+00  0.1501065949889E+00
-0.4333269299147E+00 -0.3324636143823E+01 -0.7515926259471E+00  0.9591647656388E-01
-0.3407457540403E+00 -0.3349728932791E+01 -0.7380949483648E+00  0.2565224663597E-01
-0.2890334409156E+00 -0.3353801087543E+01 -0.7285669165482E+00 -0.5065288811058E-01
-0.2747504435558E+00 -0.3340408538153E+01 -0.7230318071158E+00 -0.1282038543699E+00
-0.2924389809628E+00 -0.3311675732231E+01 -0.7208229533799E+00 -0.2064459622766E+00
-0.3366796403954E+00 -0.3266935088042E+01 -0.7207229564270E+00 -0.2858024236049E+00
-0.4013264331895E+00 -0.3203353119475E+01 -0.7209359212757E+00 -0.3648402046642E+00
-0.4773726240462E+00 -0.3117393216529E+01 -0.7189531788282E+00 -0.4387793987538E+00
-0.5508169134087E+00 -0.3006748826297E+01 -0.7115131585436E+00 -0.4995765151897E+00
-0.6017929777687E+00 -0.2872544524300E+01 -0.6948675107680E+00 -0.5370885875112E+00
-0.6055296861443E+00 -0.2719467396387E+01 -0.6649994264156E+00 -0.5393556777640E+00
-0.5328617781258E+00 -0.2554845118764E+01 -0.6175413885801E+00 -0.4921545808538E+00
-0.3488391904749E+00 -0.2390651757295E+01 -0.5478981977183E+00 -0.3813363489959E+00
-0.1206139471021E-01 -0.2246313968416E+01 -0.4516750793557E+00 -0.1994904108339E+00
 0.5215415375057E+00 -0.2148221405439E+01 -0.3253359784345E+00  0.4281319979037E-01
 0.1284394115417E+01 -0.2121774534049E+01 -0.1674760862220E+00  0.3039891040789E+00
 0.2267130974159E+01 -0.2172366170774E+01  0.1895296095955E-01  0.5069394847892E+00
 0.3384232478555E+01 -0.2261727420429E+01  0.2245010149704E+00  0.5611721558399E+00
 0.4471294007111E+01 -0.2306752972679E+01  0.4329082133372E+00  0.4167833213783E+00
-0.7108192696781E+00 -0.3222743061694E+01 -0.7867124779974E+00  0.2048299649353E+00
-0.5463851171438E+00 -0.3290065407926E+01 -0.7672901164474E+00  0.1729519448745E+00
-0.4079126439502E+00 -0.3338947357718E+01 -0.7493720115002E+00  0.1106231937250E+00
-0.3113805564088E+00 -0.3364323732271E+01 -0.7351408686903E+00  0.3185744158512E-01
-0.2586272799922E+00 -0.3369713190115E+01 -0.7256681048348E+00 -0.5119029683107E-01
-0.2438839622732E+00 -0.3360894419868E+01 -0.7209556871713E+00 -0.1338803051587E+00
-0.2606108306777E+00 -0.3340896039456E+01 -0.7203013847601E+00 -0.2168977698589E+00
-0.3037159845991E+00 -0.3308850924471E+01 -0.7225133925804E+00 -0.3019107169858E+00
-0.3683273333032E+00 -0.3260976699682E+01 -0.7258608174131E+00 -0.3882620692761E+00
-0.4470841756142E+00 -0.3192234530380E+01 -0.7278637520448E+00 -0.4713460346440E+00
-0.5275257602632E+00 -0.3098469925653E+01 -0.7251991479896E+00 -0.5427937179131E+00
-0.5911455270121E+00 -0.2978862170863E+01 -0.7140015502144E+00 -0.5918899361098E+00
-0.6147118486849E+00 -0.2835736560689E+01 -0.6900896921578E+00 -0.6059181256481E+00
-0.5706943705191E+00 -0.2673152049505E+01 -0.6487692936723E+00 -0.5691171808737E+00
-0.4245768696652E+00 -0.2499407921312E+01 -0.5847969669097E+00 -0.4640560013995E+00
-0.1314973261822E+00 -0.2331559816815E+01 -0.4926114359400E+00 -0.2777934584062E+00
 0.3637611796432E+00 -0.2197812363671E+01 -0.3668102422714E+00 -0.1447107117066E-01
 0.1114441267779E+01 -0.2132207898743E+01 -0.2035533292261E+00  0.2860919700589E+00
 0.2134805178210E+01 -0.2152682533702E+01 -0.3575471151523E-02  0.5346683325282E+00
 0.3346725048481E+01 -0.2224833508023E+01  0.2243783114351E+00  0.6108188154721E+00
 0.4546459312234E+01 -0.2243199285649E+01  0.4606520121814E+00  0.4388960030424E+00
-0.7052184603966E+00 -0.3232780513409E+01 -0.7875998064973E+00  0.2341757964941E+00
-0.5269185256632E+00 -0.3304307111512E+01 -0.7662451388530E+00  0.1971166597119E+00
-0.3789888581976E+00 -0.3354040747870E+01 -0.7466059323388E+00  0.1255126107564E+00
-0.2790787408704E+00 -0.3378224296008E+01 -0.7314606182752E+00  0.3809946403804E-01
-0.2261584587036E+00 -0.3383970024468E+01 -0.7220257073932E+00 -0.5062421484534E-01
-0.2113741701938E+00 -0.3379697047022E+01 -0.7182142541453E+00 -0.1367398506723E+00
-0.2269447721984E+00 -0.3369297673045E+01 -0.7192484997664E+00 -0.2227101028138E+00
-0.2682310968198E+00 -0.3351632757568E+01 -0.7239727816657E+00 -0.3117865366727E+00
-0.3318588540654E+00 -0.3321957791448E+01 -0.7307633399919E+00 -0.4043480997765E+00
-0.4123543965171E+00 -0.3273697713468E+01 -0.7372104329824E+00 -0.4961892120625E+00
-0.4989601507779E+00 -0.3200772924883E+01 -0.7399466261583E+00 -0.5788174929435E+00
-0.5746249087958E+00 -0.3100336394342E+01 -0.7349922715798E+00 -0.6411969148877E+00
-0.6179206463377E+00 -0.2972199782215E+01 -0.7180240964099E+00 -0.6702538294664E+00
-0.6036746612374E+00 -0.2816705128859E+01 -0.6840759682128E+00 -0.6491724482506E+00
-0.4991576253813E+00 -0.2637421177475E+01 -0.6273157699190E+00 -0.5574518890399E+00
-0.2578145498704E+00 -0.2447081318288E+01 -0.5409791816929E+00 -0.3757661056889E+00
 0.1860920868649E+00 -0.2273383106195E+01 -0.4174582100867E+00 -0.9868503887476E-01
 0.9108162946869E+00 -0.2158873371746E+01 -0.2496114191314E+00  0.2410805769259E+00
 0.1965738162536E+01 -0.2138905305151E+01 -0.3463342903913E-01  0.5444625704399E+00
 0.3291093587819E+01 -0.2188606452966E+01  0.2204974302562E+00  0.6545723170644E+00
 0.4650826593950E+01 -0.2173030333497E+01  0.4955592594750E+00  0.4329415567457E+00
-0.6987598255954E+00 -0.3245177613100E+01 -0.7887874994929E+00  0.2658984567363E+00
-0.5042046258432E+00 -0.3320754628753E+01 -0.7649918623185E+00  0.2224005477050E+00
-0.3462054802801E+00 -0.3369637707384E+01 -0.7431686486069E+00  0.1398995883240E+00
-0.2440564500039E+00 -0.3390441362622E+01 -0.7268995733568E+00  0.4375425926462E-01
-0.1922476133507E+00 -0.3395251223221E+01 -0.7174997780060E+00 -0.4918498631396E-01
-0.1779756973897E+00 -0.3395403632278E+01 -0.7146758765830E+00 -0.1366151919868E+00
-0.1921668130255E+00 -0.3395412038878E+01 -0.7175157810725E+00 -0.2233666593710E+00
-0.2308101762135E+00 -0.3393778834122E+01 -0.7249178128692E+00 -0.3145519021802E+00
-0.2922535548473E+00 -0.3384878010955E+01 -0.7354263241192E+00 -0.4118346895966E+00
-0.3731602334284E+00 -0.3360649142001E+01 -0.7467618862135E+00 -0.5116681396095E+00
-0.4646258413931E+00 -0.3313060488260E+01 -0.7555372771890E+00 -0.6056617588432E+00
-0.5510816567773E+00 -0.3237205987796E+01 -0.7576575402046E+00 -0.6827382399080E+00
-0.6130929354105E+00 -0.3130318437283E+01 -0.7486822856950E+00 -0.7299557773377E+00
-0.6285664008613E+00 -0.2988730729864E+01 -0.7234594369254E+00 -0.7301363708370E+00
-0.5681352526664E+00 -0.2810390604171E+01 -0.6757051814363E+00 -0.6603735292271E+00
-0.3862334866764E+00 -0.2601504938759E+01 -0.5975476939911E+00 -0.4948293939610E+00
-0.9159945692450E-02 -0.2385503461819E+01 -0.4789326886390E+00 -0.2155103521878E+00
 0.6691560710700E+00 -0.2211113707103E+01 -0.3083915318020E+00  0.1594659487378E+00
 0.1748566397001E+01 -0.2136420076621E+01 -0.7757073707989E-01  0.5283449947700E+00
 0.3208107678770E+01 -0.2155940701938E+01  0.2104333985021E+00  0.6867321493746E+00
 0.4797800624691E+01 -0.2117985034008E+01  0.5359631261231E+00  0.4178361666004E+00
-0.6911806262836E+00 -0.3261047117587E+01 -0.7904455605526E+00  0.3002716508393E+00
-0.4773902753488E+00 -0.3340080960646E+01 -0.7634942585760E+00  0.2483180037311E+00
-0.3090975485289E+00 -0.3385284511709E+01 -0.7388764230578E+00  0.1526617174253E+00
-0.2066979489408E+00 -0.3399629889513E+01 -0.7212655784385E+00  0.4794128923109E-01
-0.1577605533117E+00 -0.3401960729150E+01 -0.7119442671012E+00 -0.4718455929263E-01
-0.1446838951436E+00 -0.3406399905526E+01 -0.7102167707170E+00 -0.1333954006815E+00
-0.1572761921224E+00 -0.3417513099538E+01 -0.7149578689858E+00 -0.2184352128266E+00
-0.1923772238808E+00 -0.3433376853453E+01 -0.7251508262723E+00 -0.3093972541494E+00
-0.2502379492638E+00 -0.3447723170660E+01 -0.7395922350056E+00 -0.4094435391265E+00
-0.3298969048132E+00 -0.3451183974745E+01 -0.7562161871801E+00 -0.5159892713133E+00
-0.4244275064848E+00 -0.3433803962535E+01 -0.7716463053024E+00 -0.6209980314018E+00
-0.5196651562508E+00 -0.3388622391146E+01 -0.7816575211269E+00 -0.7136421910405E+00
-0.5982245563492E+00 -0.3310329559188E+01 -0.7817108347559E+00 -0.7816575581336E+00
-0.6416963194142E+00 -0.3191209898623E+01 -0.7665812550304E+00 -0.8083500478896E+00
-0.6256154983467E+00 -0.3023168233991E+01 -0.7297567573418E+00 -0.7695384082699E+00
-0.5087777037625E+00 -0.2803986032594E+01 -0.6625527571442E+00 -0.6339369835559E+00
-0.2148398906648E+00 -0.2547720663457E+01 -0.5525121190573E+00 -0.3693716260934E+00
 0.3890628765662E+00 -0.2303084953772E+01 -0.3828044211454E+00  0.2985494369190E-01
 0.1470306649161E+01 -0.2154061317756E+01 -0.1367509357568E+00  0.4731905950624E+00
 0.3087208601681E+01 -0.2134207740203E+01  0.1906001751356E+00  0.7043623142335E+00
 0.4961848127275E+01 -0.2077745469538E+01  0.5768205401428E+00  0.4000273056495E+00
-0.6820878268153E+00 -0.3282231532500E+01 -0.7928638836777E+00  0.3376066404465E+00
-0.4451972566696E+00 -0.3363285812574E+01 -0.7616966251989E+00  0.2739506780411E+00
-0.2671134604324E+00 -0.3400198890499E+01 -0.7334624811158E+00  0.1621202339411E+00
-0.1675964391928E+00 -0.3403970905564E+01 -0.7143134795956E+00  0.4958989156620E-01
-0.1237205796271E+00 -0.3402281338973E+01 -0.7052003942283E+00 -0.4490777981972E-01
-0.1125377603549E+00 -0.3411024797209E+01 -0.7047125220138E+00 -0.1269796825141E+00
-0.1232938899783E+00 -0.3433831264111E+01 -0.7114250414190E+00 -0.2075786366678E+00
-0.1539060704292E+00 -0.3468400572401E+01 -0.7244613393613E+00 -0.2956270338961E+00
-0.2066056909594E+00 -0.3508316672200E+01 -0.7429844837032E+00 -0.3959597700251E+00
-0.2830329539220E+00 -0.3543273230591E+01 -0.7652612483058E+00 -0.5073481318118E+00
-0.3783694810845E+00 -0.3561471097454E+01 -0.7879681274493E+00 -0.6224226045005E+00
-0.4796787962260E+00 -0.3553867433827E+01 -0.8067092580315E+00 -0.7308990852641E+00
-0.5715411119963E+00 -0.3512676464728E+01 -0.8168435275168E+00 -0.8217504759848E+00
-0.6396852953983E+00 -0.3426340005793E+01 -0.8132050723560E+00 -0.8796609704966E+00
-0.6657831421644E+00 -0.3280954520822E+01 -0.7893475443595E+00 -0.8805853332318E+00
-0.6164117023543E+00 -0.3065043482386E+01 -0.7362910479197E+00 -0.7901964322853E+00
-0.4207656546057E+00 -0.2777845708761E+01 -0.6397222822059E+00 -0.5634256795436E+00
 0.7235367613160E-01 -0.2456376111041E+01 -0.4768044940868E+00 -0.1618948756826E+00
 0.1114046064773E+01 -0.2207214805430E+01 -0.2186337513891E+00  0.3591178398950E+00
 0.2900011014283E+01 -0.2129481671029E+01  0.1541058709471E+00  0.7016612505443E+00
 0.5154484194322E+01 -0.2048030113495E+01  0.6212908254233E+00  0.3726810271586E+00
-0.6708047020012E+00 -0.3311813474974E+01 -0.7965236472642E+00  0.3782301521926E+00
-0.4056962054503E+00 -0.3391725862510E+01 -0.7594844249092E+00  0.2975262023662E+00
-0.2197427144963E+00 -0.3412836028926E+01 -0.7265157595103E+00  0.1657669810443E+00
-0.1277773289548E+00 -0.3400914680768E+01 -0.7057384124609E+00  0.4752691115247E-01
-0.9139534936906E-01 -0.3394187522750E+01 -0.6971165848116E+00 -0.4249458362394E-01
-0.8265898775923E-01 -0.3407609630827E+01 -0.6980537341191E+00 -0.1172618448535E+00
-0.9134821021188E-01 -0.3442518416275E+01 -0.7067733358291E+00 -0.1905933781283E+00
-0.1165758928135E+00 -0.3496556001034E+01 -0.7226263895374E+00 -0.2727042947026E+00
-0.1624280748357E+00 -0.3564006263544E+01 -0.7452868787816E+00 -0.3702277137150E+00
-0.2333377463286E+00 -0.3634309557268E+01 -0.7735294722459E+00 -0.4838320405489E+00
-0.3267608550442E+00 -0.3693975105159E+01 -0.8041472040234E+00 -0.6072632464362E+00
-0.4307282539238E+00 -0.3731703588492E+01 -0.8324863808881E+00 -0.7310904736896E+00
-0.5315578731051E+00 -0.3737204788396E+01 -0.8537525450221E+00 -0.8460363523353E+00
-0.6194078447169E+00 -0.3695519756671E+01 -0.8629855331371E+00 -0.9389672787251E+00
-0.6828058548202E+00 -0.3587954077903E+01 -0.8541519992725E+00 -0.9873673969286E+00
-0.6984732966234E+00 -0.3394812713782E+01 -0.8186572142801E+00 -0.9572662077785E+00
-0.6109623714730E+00 -0.3097235899288E+01 -0.7416396652034E+00 -0.7965272859809E+00
-0.2706727066507E+00 -0.2703543856620E+01 -0.5948433215180E+00 -0.4308430215484E+00
 0.6601927365259E+00 -0.2323923228885E+01 -0.3327461034301E+00  0.1554563935135E+00
 0.2603482440017E+01 -0.2150080745897E+01  0.9068034017522E-01  0.6590851193910E+00
 0.5384680084016E+01 -0.2033819117552E+01  0.6701722032792E+00  0.3299430997140E+00
-0.6561369004139E+00 -0.3355144681646E+01 -0.8022563283665E+00  0.4223912859710E+00
-0.3559803510799E+00 -0.3426972443737E+01 -0.7565905702375E+00  0.3155907944098E+00
-0.1668446630866E+00 -0.3420007941371E+01 -0.7173705315813E+00  0.1599844923438E+00
-0.8898582027012E-01 -0.3386935264980E+01 -0.6951842274091E+00  0.4080465761089E-01
-0.6226525694584E-01 -0.3375623557720E+01 -0.6875777731789E+00 -0.3975169330666E-01
-0.5616090172354E-01 -0.3394607415253E+01 -0.6901536736795E+00 -0.1041324849278E+00
-0.6263140160668E-01 -0.3441735944181E+01 -0.7008734796013E+00 -0.1674751591787E+00
-0.8178582356262E-01 -0.3515307637959E+01 -0.7194187030246E+00 -0.2403657364855E+00
-0.1191256143154E+00 -0.3611562695599E+01 -0.7461376731012E+00 -0.3312529699898E+00
-0.1819698567037E+00 -0.3720938830405E+01 -0.7805817490533E+00 -0.4434434693148E+00
-0.2702870504169E+00 -0.3828567034373E+01 -0.8197708291734E+00 -0.5725495841233E+00
-0.3727810708032E+00 -0.3920347511124E+01 -0.8586257291800E+00 -0.7103888831026E+00
-0.4771846026858E+00 -0.3983096556353E+01 -0.8920562451005E+00 -0.8498084376948E+00
-0.5782170018859E+00 -0.3999091710960E+01 -0.9154617562107E+00 -0.9803436688906E+00
-0.6714413494989E+00 -0.3946756415132E+01 -0.9236395666895E+00 -0.1082096911747E+01
-0.7440273249790E+00 -0.3801254435186E+01 -0.9090563655791E+00 -0.1124794023805E+01
-0.7631854156168E+00 -0.3528203898137E+01 -0.8582778755401E+00 -0.1059475162558E+01
-0.6141313940888E+00 -0.3091443366352E+01 -0.7411149631317E+00 -0.7874339504399E+00
 0.9468978569073E-01 -0.2557183336103E+01 -0.4924987174212E+00 -0.1842319516203E+00
 0.2127263243162E+01 -0.2219739995011E+01 -0.1849535064535E-01  0.5328431278941E+00
 0.5655797801877E+01 -0.2050224683444E+01  0.7211146344320E+00  0.2611806678513E+00
-0.6359503478434E+00 -0.3422097841250E+01 -0.8116096499126E+00  0.4698833873318E+00
-0.2917124934187E+00 -0.3469926830072E+01 -0.7523278759087E+00  0.3212101136659E+00
-0.1094763557018E+00 -0.3415060377269E+01 -0.7049073570981E+00  0.1399772323815E+00
-0.5405541428727E-01 -0.3357578612837E+01 -0.6823268155923E+00  0.2948241052404E-01
-0.3783406396297E-01 -0.3344899399595E+01 -0.6765467027930E+00 -0.3599023869122E-01
-0.3401838733412E-01 -0.3370698666986E+01 -0.6809434210109E+00 -0.8752087441730E-01
-0.3833263591060E-01 -0.3429795567365E+01 -0.6936256509909E+00 -0.1384766020151E+00
-0.5114529571787E-01 -0.3521969862694E+01 -0.7146230423310E+00 -0.1987911173835E+00
-0.7856646818324E-01 -0.3647053979801E+01 -0.7451241007001E+00 -0.2783819092076E+00
-0.1306109001158E+00 -0.3798781392660E+01 -0.7858784702656E+00 -0.3841312817938E+00
-0.2100942748374E+00 -0.3961692268500E+01 -0.8343573211004E+00 -0.5149249306536E+00
-0.3061900181962E+00 -0.4117518859760E+01 -0.8847417887749E+00 -0.6645258502647E+00
-0.4077833308230E+00 -0.4248902824983E+01 -0.9313372450393E+00 -0.8279884574004E+00
-0.5141824100681E+00 -0.4336113909139E+01 -0.9700592782963E+00 -0.9972863024060E+00
-0.6274976415898E+00 -0.4357782856649E+01 -0.9970561145050E+00 -0.1155651025928E+01
-0.7440900960591E+00 -0.4288479273793E+01 -0.1006513888969E+01 -0.1279035528698E+01
-0.8521439665364E+00 -0.4087820760496E+01 -0.9879929601287E+00 -0.1331341086094E+01
-0.9067568570662E+00 -0.3679265024803E+01 -0.9172043900413E+00 -0.1224366361159E+01
-0.5696557217524E+00 -0.3008990650753E+01 -0.7157292851662E+00 -0.7207519656924E+00
 0.1357721338628E+01 -0.2404383026060E+01 -0.2093323406058E+00  0.2286163334469E+00
 0.5948929535800E+01 -0.2137187826090E+01  0.7623483533020E+00  0.1335135381683E+00
-0.6065670664090E+00 -0.3532730525111E+01 -0.8278595306401E+00  0.5185243111842E+00
-0.2065979817726E+00 -0.3516849905265E+01 -0.7446895885043E+00  0.2998709005868E+00
-0.5191770372684E-01 -0.3384482228799E+01 -0.6872799967464E+00  0.1010136539078E+00
-0.2708687154627E-01 -0.3308928495235E+01 -0.6672030832984E+00  0.1611395102476E-01
-0.1910322547516E-01 -0.3301092668121E+01 -0.6640391886141E+00 -0.3023082879132E-01
-0.1700165129050E-01 -0.3334794437467E+01 -0.6703592277405E+00 -0.6741463955627E-01
-0.1951997882415E-01 -0.3405399673712E+01 -0.6849839407143E+00 -0.1041186133562E+00
-0.2639988645292E-01 -0.3513919740295E+01 -0.7080639359006E+00 -0.1488410238354E+00
-0.4320147058291E-01 -0.3665735883452E+01 -0.7417874818605E+00 -0.2116340184980E+00
-0.8169991114091E-01 -0.3861917513820E+01 -0.7887234967451E+00 -0.3038618254570E+00
-0.1478935562925E+00 -0.4088742390416E+01 -0.8473272019679E+00 -0.4304068923602E+00
-0.2316698853266E+00 -0.4320686581835E+01 -0.9104713069993E+00 -0.5887064129936E+00
-0.3230936281974E+00 -0.4532658975145E+01 -0.9711505351397E+00 -0.7753009613292E+00
-0.4263739708133E+00 -0.4704313658413E+01 -0.1026137541136E+01 -0.9831814124013E+00
-0.5482044049942E+00 -0.4818546404271E+01 -0.1073350177847E+01 -0.1197883263175E+01
-0.6928146243298E+00 -0.4856182232215E+01 -0.1109799387846E+01 -0.1404343434096E+01
-0.8602416859896E+00 -0.4780348402777E+01 -0.1128118034564E+01 -0.1581194446898E+01
-0.1068729666996E+01 -0.4517725957007E+01 -0.1117291141449E+01 -0.1692531575253E+01
-0.1237873203342E+01 -0.3861723828125E+01 -0.1019919421491E+01 -0.1501252576003E+01
 0.1282625716985E+00 -0.2894980784639E+01 -0.5533436508336E+00 -0.4522007137458E+00
 0.6170858980463E+01 -0.2404616201382E+01  0.7532485670405E+00 -0.1702575298717E+00
-0.5633220263734E+00 -0.3734852511047E+01 -0.8596349202936E+00  0.5571897646401E+00
-0.9188126375255E-01 -0.3540508258884E+01 -0.7264779153526E+00  0.2199802066238E+00
-0.6894443424953E-02 -0.3305692320328E+01 -0.6625173626229E+00  0.4562292058764E-01
-0.1191702998881E-01 -0.3242873447851E+01 -0.6509581052680E+00  0.6795011574948E-02
-0.5765841928281E-02 -0.3242680932076E+01 -0.6496893644820E+00 -0.2230395019040E-01
-0.5978158714263E-02 -0.3286593889209E+01 -0.6585144193972E+00 -0.4346620537833E-01
-0.6802246545918E-02 -0.3367706039225E+01 -0.6749016672111E+00 -0.6526662816913E-01
-0.9273683083066E-02 -0.3489117442437E+01 -0.6996782355301E+00 -0.9224481181998E-01
-0.1619668493371E-01 -0.3662135060565E+01 -0.7356663600621E+00 -0.1323763502773E+00
-0.3889071627116E-01 -0.3901848385742E+01 -0.7881478321469E+00 -0.2008439475460E+00
-0.8615854966274E-01 -0.4203511060745E+01 -0.8579339348657E+00 -0.3137955364011E+00
-0.1500354704090E+00 -0.4527767146945E+01 -0.9355605374118E+00 -0.4773280333127E+00
-0.2232948635490E+00 -0.4832286047040E+01 -0.1011116197185E+01 -0.6867824227914E+00
-0.3143868393071E+00 -0.5099619905678E+01 -0.1082801365132E+01 -0.9314581840125E+00
-0.4342003852761E+00 -0.5324294617986E+01 -0.1151699017814E+01 -0.1199218259261E+01
-0.5845585403115E+00 -0.5496550591877E+01 -0.1216221844561E+01 -0.1482065604586E+01
-0.7893916828502E+00 -0.5600941942079E+01 -0.1278066744031E+01 -0.1780774715462E+01
-0.1036287966306E+01 -0.5597777848070E+01 -0.1326813182646E+01 -0.2087709210832E+01
-0.1614122949415E+01 -0.5349419128784E+01 -0.1392708436393E+01 -0.2437220488940E+01
-0.1693902658059E+01 -0.4264905049358E+01 -0.1191761559242E+01 -0.1882105944873E+01
 0.5938440945778E+01 -0.3229349441384E+01  0.5418183089524E+00 -0.1107789789848E+01
-0.5181647250330E+00 -0.4179928196066E+01 -0.9396185982213E+00  0.5242990499608E+00
 0.6840300388875E-01 -0.3376463534551E+01 -0.6616121159912E+00  0.1563573988814E-01
-0.1429930971564E-01 -0.3199728560699E+01 -0.6428055836615E+00  0.1568685333225E-01
 0.2019930746389E-02 -0.3154927196314E+01 -0.6305814625100E+00 -0.1910730928022E-02
-0.1059524285674E-02 -0.3170676842439E+01 -0.6343472827975E+00 -0.9380251435294E-02
-0.3216666648633E-03 -0.3226016211237E+01 -0.6452675851955E+00 -0.1594494868083E-01
-0.6179181481727E-03 -0.3316521496612E+01 -0.6634278928378E+00 -0.2277701998367E-01
-0.7987244178548E-03 -0.3446751221430E+01 -0.6895099994440E+00 -0.3154747062577E-01
-0.1494542822139E-02 -0.3631238194983E+01 -0.7265465583874E+00 -0.4460661154287E-01
-0.8027806378791E-02 -0.3905241422848E+01 -0.7826538575078E+00 -0.7444651024611E-01
-0.2850415596648E-01 -0.4296580785768E+01 -0.8650170012366E+00 -0.1570964896811E+00
-0.6164611720888E-01 -0.4739314461016E+01 -0.9601921299530E+00 -0.3233216692410E+00
-0.1084323124087E+00 -0.5146135099768E+01 -0.1050913498095E+01 -0.5588671495885E+00
-0.1798408409726E+00 -0.5515421055671E+01 -0.1139052396302E+01 -0.8362674022933E+00
-0.2846504807307E+00 -0.5867650612344E+01 -0.1230460236950E+01 -0.1149599037100E+01
-0.4304778198228E+00 -0.6198708170299E+01 -0.1325837217781E+01 -0.1498847538193E+01
-0.6128384646069E+00 -0.6519580038916E+01 -0.1426483721961E+01 -0.1889217390319E+01
-0.9251035078122E+00 -0.6888874634539E+01 -0.1562795651758E+01 -0.2354216698601E+01
-0.1177573949092E+01 -0.7383534672585E+01 -0.1712221749850E+01 -0.3028879337489E+01
-0.3472985846900E+01 -0.7931838913369E+01 -0.2280964986043E+01 -0.4274521295484E+01
 0.4023874109882E+01 -0.6732831819383E+01 -0.5417915499735E+00 -0.4981546312402E+01
-0.1237185653434E+01 -0.2374623194210E+01 -0.1697550154087E+01 -0.8802340144534E+00
-0.8439580826387E+00 -0.2484496800019E+01 -0.1564373790881E+01 -0.6326308752452E+00
-0.5146137291360E+00 -0.2551538265619E+01 -0.1441091433880E+01 -0.4863529706333E+00
-0.2590938490372E+00 -0.2592801388504E+01 -0.1340390758245E+01 -0.4163203741090E+00
-0.7117276164954E-01 -0.2612142120594E+01 -0.1261157991456E+01 -0.4052331744048E+00
 0.4617008539450E-01 -0.2619756154353E+01 -0.1209585449343E+01 -0.4407563877342E+00
 0.1013415435463E+00 -0.2620366860824E+01 -0.1183941896118E+01 -0.5194577326803E+00
 0.1125624796896E+00 -0.2613427113964E+01 -0.1175406375128E+01 -0.6354869937173E+00
 0.8251395479091E-01 -0.2596249080516E+01 -0.1181455506094E+01 -0.7681274266133E+00
-0.5165141191055E-01 -0.2620233600593E+01 -0.1255785952691E+01 -0.8920891284428E+00
-0.1351043521840E+01 -0.2444438757044E+01 -0.1783876666551E+01 -0.8106109050681E+00
-0.9000175972233E+00 -0.2564990389818E+01 -0.1628553749779E+01 -0.5813285021507E+00
-0.5391223217599E+00 -0.2653154898384E+01 -0.1500370289662E+01 -0.4517278283138E+00
-0.2579235726646E+00 -0.2712741990197E+01 -0.1396212811004E+01 -0.3938509952592E+00
-0.5287761168522E-01 -0.2754119235168E+01 -0.1319288514675E+01 -0.3912968971904E+00
 0.8021797202670E-01 -0.2783903088330E+01 -0.1270732001440E+01 -0.4337735176556E+00
 0.1496172193631E+00 -0.2809505900759E+01 -0.1250147677085E+01 -0.5186640928813E+00
 0.1668922518824E+00 -0.2836106492592E+01 -0.1254530689951E+01 -0.6388751779462E+00
 0.1167112397718E+00 -0.2869256214185E+01 -0.1293696134693E+01 -0.7760452014149E+00
 0.2293357374409E-01 -0.2870812768431E+01 -0.1338503218108E+01 -0.9265050737533E+00
-0.1452711584353E+01 -0.2506798690535E+01 -0.1860969824477E+01 -0.7349728091067E+00
-0.9522789363396E+00 -0.2646866619867E+01 -0.1691598407126E+01 -0.5256687420043E+00
-0.5572250107273E+00 -0.2750105881417E+01 -0.1554445515365E+01 -0.4115934432871E+00
-0.2534589690649E+00 -0.2827332903412E+01 -0.1447972176392E+01 -0.3648021703668E+00
-0.3089997575640E-01 -0.2887897990568E+01 -0.1371835040693E+01 -0.3694425877743E+00
 0.1170614939105E+00 -0.2940606463544E+01 -0.1327066132362E+01 -0.4168765300569E+00
 0.1989311764510E+00 -0.2994281561099E+01 -0.1313814677452E+01 -0.5044618837546E+00
 0.2202662823608E+00 -0.3057001536578E+01 -0.1333265566101E+01 -0.6261450267761E+00
 0.1807353115409E+00 -0.3121741580833E+01 -0.1382272943061E+01 -0.7712335765804E+00
 0.8239970573776E-01 -0.3179244003084E+01 -0.1455516816061E+01 -0.9351963223768E+00
-0.1545536886245E+01 -0.2565492716209E+01 -0.1932183908253E+01 -0.6526760247416E+00
-0.9974982230874E+00 -0.2723620624431E+01 -0.1748925853898E+01 -0.4654907595594E+00
-0.5712756215879E+00 -0.2841408626393E+01 -0.1603961592483E+01 -0.3667800020398E+00
-0.2458979148429E+00 -0.2933602067220E+01 -0.1494364987779E+01 -0.3297801228385E+00
-0.7120630202305E-02 -0.3012176595633E+01 -0.1419069692543E+01 -0.3398095615285E+00
 0.1548293015653E+00 -0.3087361717181E+01 -0.1378290231843E+01 -0.3894510202373E+00
 0.2482129466352E+00 -0.3169689658430E+01 -0.1373094051061E+01 -0.4764481575430E+00
 0.2796350169943E+00 -0.3266155110899E+01 -0.1403664440575E+01 -0.5968775093300E+00
 0.2463225180953E+00 -0.3376927639149E+01 -0.1471384403163E+01 -0.7433489046683E+00
 0.1419660529346E+00 -0.3499523229605E+01 -0.1578051869033E+01 -0.9100853336246E+00
-0.1628094718827E+01 -0.2618949391719E+01 -0.1996110726894E+01 -0.5641338645370E+00
-0.1036102653653E+01 -0.2793652391669E+01 -0.1799984866736E+01 -0.4011943579133E+00
-0.5814883498010E+00 -0.2924204036305E+01 -0.1647675417291E+01 -0.3178065570248E+00
-0.2366243108220E+00 -0.3029692818052E+01 -0.1535169046677E+01 -0.2893381802515E+00
 0.1703670265785E-01 -0.3124608476234E+01 -0.1460558729876E+01 -0.3026656440923E+00
 0.1918071261964E+00 -0.3221109930291E+01 -0.1423772314313E+01 -0.3515942695457E+00
 0.2970803268940E+00 -0.3330677309001E+01 -0.1425790577974E+01 -0.4344827531315E+00
 0.3383627382331E+00 -0.3462732561732E+01 -0.1468453813320E+01 -0.5486906451633E+00
 0.3110217739657E+00 -0.3622261600447E+01 -0.1556282714499E+01 -0.6886754266456E+00
 0.2002502591493E+00 -0.3812675455641E+01 -0.1697839838045E+01 -0.8483197520482E+00
-0.1699175355961E+01 -0.2665850499243E+01 -0.2051562146743E+01 -0.4699368521162E+00
-0.1068102243943E+01 -0.2855064610795E+01 -0.1843888417050E+01 -0.3333132286711E+00
-0.5886166146348E+00 -0.2996544892929E+01 -0.1685025904281E+01 -0.2652097692673E+00
-0.2267142370435E+00 -0.3113467090857E+01 -0.1569885220131E+01 -0.2440264874811E+00
 0.4005809712215E-01 -0.3222849475416E+01 -0.1495911944004E+01 -0.2585435366843E+00
 0.2264684767789E+00 -0.3338596630641E+01 -0.1462700228605E+01 -0.3037971662508E+00
 0.3426138894613E+00 -0.3473785158058E+01 -0.1471650492508E+01 -0.3786197115280E+00
 0.3930204081472E+00 -0.3640154417491E+01 -0.1526152980521E+01 -0.4811141916240E+00
 0.3707979183244E+00 -0.3846686945416E+01 -0.1633667838590E+01 -0.6068197379013E+00
 0.2539775662429E+00 -0.4101247946235E+01 -0.1808217074010E+01 -0.7496643583221E+00
-0.1757595693124E+01 -0.2704948861673E+01 -0.2097395935435E+01 -0.3708619867893E+00
-0.1093577520897E+01 -0.2906259005981E+01 -0.1879923162865E+01 -0.2624333906344E+00
-0.5933379087166E+00 -0.3056675070474E+01 -0.1715506095869E+01 -0.2095608313234E+00
-0.2172507498026E+00 -0.3183033840083E+01 -0.1598133753193E+01 -0.1944962362158E+00
 0.6056775911560E-01 -0.3304600969190E+01 -0.1524695604868E+01 -0.2082148313718E+00
 0.2568892877317E+00 -0.3436970472327E+01 -0.1494638152969E+01 -0.2469278104408E+00
 0.3823281354465E+00 -0.3594764232970E+01 -0.1509844962006E+01 -0.3098069176984E+00
 0.4403873902500E+00 -0.3791756880956E+01 -0.1575143656637E+01 -0.3954040987360E+00
 0.4219930202879E+00 -0.4039754976238E+01 -0.1700348114984E+01 -0.5000291599503E+00
 0.3004051342699E+00 -0.4348993263464E+01 -0.1902836415895E+01 -0.6181418722636E+00
-0.1802348305885E+01 -0.2735210669740E+01 -0.2132652713135E+01 -0.2678323121840E+00
-0.1112600850674E+01 -0.2945887887857E+01 -0.1907489702271E+01 -0.1891784188314E+00
-0.5962719254205E+00 -0.3103129395317E+01 -0.1738718616337E+01 -0.1514743485759E+00
-0.2091926075857E+00 -0.3236751196111E+01 -0.1619593583630E+01 -0.1415158542828E+00
 0.7724991083751E-01 -0.3367875860669E+01 -0.1546594192498E+01 -0.1526958848775E+00
 0.2813566975782E+00 -0.3513514422006E+01 -0.1519114126628E+01 -0.1823449035071E+00
 0.4140524580707E+00 -0.3689591716493E+01 -0.1539503447554E+01 -0.2298921209268E+00
 0.4779244229923E+00 -0.3911396496545E+01 -0.1613731870477E+01 -0.2942484790614E+00
 0.4621157310694E+00 -0.4192454463453E+01 -0.1753259199773E+01 -0.3725651909218E+00
 0.3371928049765E+00 -0.4543825079053E+01 -0.1977117163801E+01 -0.4604467291488E+00
-0.1832639858516E+01 -0.2755837722735E+01 -0.2156584457718E+01 -0.1618896768905E+00
-0.1125239623754E+01 -0.2972905313553E+01 -0.1926128115649E+01 -0.1142025604290E+00
-0.5979243359585E+00 -0.3134758970030E+01 -0.1754361149365E+01 -0.9160832398530E-01
-0.2033402863424E+00 -0.3273321685422E+01 -0.1634031122585E+01 -0.8596809453038E-01
 0.8901941371190E-01 -0.3411038532259E+01 -0.1561348981757E+01 -0.9325267753527E-01
 0.2984777728078E+00 -0.3565939220770E+01 -0.1535706876647E+01 -0.1118733223511E+00
 0.4361218628144E+00 -0.3754864757535E+01 -0.1559809156563E+01 -0.1414871329212E+00
 0.5038579401215E+00 -0.3994065071735E+01 -0.1640397347698E+01 -0.1813981060723E+00
 0.4896498331120E+00 -0.4297946919905E+01 -0.1789899626253E+01 -0.2297935352702E+00
 0.3625152225082E+00 -0.4677846685293E+01 -0.2028205782364E+01 -0.2838564197700E+00
-0.1847924634977E+01 -0.2766288204129E+01 -0.2168680028879E+01 -0.5416341323312E-01
-0.1131545023059E+01 -0.2986595613869E+01 -0.1935526094447E+01 -0.3818396339635E-01
-0.5986564808442E+00 -0.3150774841065E+01 -0.1762232716828E+01 -0.3065762548944E-01
-0.2002652595832E+00 -0.3291839803429E+01 -0.1641289375453E+01 -0.2883483782779E-01
 0.9510410206899E-01 -0.3432923608464E+01 -0.1568775164027E+01 -0.3136161070134E-01
 0.3072849324589E+00 -0.3592586623223E+01 -0.1544091790743E+01 -0.3771025838901E-01
 0.4474297385737E+00 -0.3788138233465E+01 -0.1570132988617E+01 -0.4776534313798E-01
 0.5170913903812E+00 -0.4036280598302E+01 -0.1654018923528E+01 -0.6128590458185E-01
 0.5036391754282E+00 -0.4351792546165E+01 -0.1808632079659E+01 -0.7764861286088E-01
 0.3753747460343E+00 -0.4746068260366E+01 -0.2054225946525E+01 -0.9588088076006E-01
-0.1847924633657E+01 -0.2766288203307E+01 -0.2168680027873E+01  0.5416343142953E-01
-0.1131545022616E+01 -0.2986595612989E+01 -0.1935526093825E+01  0.3818397366629E-01
-0.5986564808135E+00 -0.3150774840303E+01 -0.1762232716455E+01  0.3065763172045E-01
-0.2002652597092E+00 -0.3291839802852E+01 -0.1641289375241E+01  0.2883484189104E-01
 0.9510410191740E-01 -0.3432923608079E+01 -0.1568775163917E+01  0.3136161333654E-01
 0.3072849323376E+00 -0.3592586622993E+01 -0.1544091790692E+01  0.3771025988994E-01
 0.4474297384949E+00 -0.3788138233334E+01 -0.1570132988592E+01  0.4776534382182E-01
 0.5170913903357E+00 -0.4036280598224E+01 -0.1654018923513E+01  0.6128590481416E-01
 0.5036391753994E+00 -0.4351792546113E+01 -0.1808632079648E+01  0.7764861291868E-01
 0.3753747460008E+00 -0.4746068260327E+01 -0.2054225946523E+01  0.9588088081293E-01
-0.1832639854583E+01 -0.2755837720292E+01 -0.2156584454722E+01  0.1618896948899E+00
-0.1125239622426E+01 -0.2972905310938E+01 -0.1926128113796E+01  0.1142025706056E+00
-0.5979243358590E+00 -0.3134758967766E+01 -0.1754361148254E+01  0.9160833014770E-01
-0.2033402867120E+00 -0.3273321683708E+01 -0.1634031121953E+01  0.8596809852879E-01
 0.8901941326465E-01 -0.3411038531118E+01 -0.1561348981431E+01  0.9325268011161E-01
 0.2984777724503E+00 -0.3565939220091E+01 -0.1535706876496E+01  0.1118733238057E+00
 0.4361218625829E+00 -0.3754864757151E+01 -0.1559809156491E+01  0.1414871335714E+00
 0.5038579399883E+00 -0.3994065071507E+01 -0.1640397347653E+01  0.1813981062795E+00
 0.4896498330275E+00 -0.4297946919752E+01 -0.1789899626221E+01  0.2297935353090E+00
 0.3625152224104E+00 -0.4677846685178E+01 -0.2028205782356E+01  0.2838564198083E+00
-0.1802348299413E+01 -0.2735210665744E+01 -0.2132652708215E+01  0.2678323297956E+00
-0.1112600848463E+01 -0.2945887883584E+01 -0.1907489699224E+01  0.1891784288232E+00
-0.5962719252311E+00 -0.3103129391617E+01 -0.1738718614509E+01  0.1514743546033E+00
-0.2091926081746E+00 -0.3236751193314E+01 -0.1619593582592E+01  0.1415158581547E+00
 0.7724991011677E-01 -0.3367875858814E+01 -0.1546594191965E+01  0.1526958873395E+00
 0.2813566970032E+00 -0.3513514420911E+01 -0.1519114126383E+01  0.1823449048719E+00
 0.4140524577011E+00 -0.3689591715879E+01 -0.1539503447439E+01  0.2298921215113E+00
 0.4779244227815E+00 -0.3911396496183E+01 -0.1613731870406E+01  0.2942484792193E+00
 0.4621157309359E+00 -0.4192454463206E+01 -0.1753259199720E+01  0.3725651909225E+00
 0.3371928048219E+00 -0.4543825078861E+01 -0.1977117163784E+01  0.4604467291574E+00
-0.1757595684230E+01 -0.2704948856233E+01 -0.2097395928698E+01  0.3708620038345E+00
-0.1093577517805E+01 -0.2906259000172E+01 -0.1879923158681E+01  0.2624334003540E+00
-0.5933379084032E+00 -0.3056675065445E+01 -0.1715506093357E+01  0.2095608371534E+00
-0.2172507505714E+00 -0.3183033836288E+01 -0.1598133751771E+01  0.1944962399051E+00
 0.6056775815714E-01 -0.3304600966689E+01 -0.1524695604143E+01  0.2082148336701E+00
 0.2568892869699E+00 -0.3436970470866E+01 -0.1494638152640E+01  0.2469278116769E+00
 0.3823281349629E+00 -0.3594764232164E+01 -0.1509844961855E+01  0.3098069181880E+00
 0.4403873899773E+00 -0.3791756880484E+01 -0.1575143656543E+01  0.3954040988220E+00
 0.4219930201159E+00 -0.4039754975910E+01 -0.1700348114911E+01  0.5000291598948E+00
 0.3004051340722E+00 -0.4348993263197E+01 -0.1902836415862E+01  0.6181418722271E+00
-0.1699175344805E+01 -0.2665850492503E+01 -0.2051562138331E+01  0.4699368684339E+00
-0.1068102239974E+01 -0.2855064603614E+01 -0.1843888411809E+01  0.3333132380370E+00
-0.5886166141522E+00 -0.2996544886713E+01 -0.1685025901133E+01  0.2652097748438E+00
-0.2267142379401E+00 -0.3113467086183E+01 -0.1569885218356E+01  0.2440264909398E+00
 0.4005809597316E-01 -0.3222849472359E+01 -0.1495911943107E+01  0.2585435387775E+00
 0.2264684758705E+00 -0.3338596628882E+01 -0.1462700228205E+01  0.3037971673256E+00
 0.3426138888954E+00 -0.3473785157106E+01 -0.1471650492326E+01  0.3786197118979E+00
 0.3930204078347E+00 -0.3640154416941E+01 -0.1526152980409E+01  0.4811141916188E+00
 0.3707979181263E+00 -0.3846686945030E+01 -0.1633667838501E+01  0.6068197377730E+00
 0.2539775660207E+00 -0.4101247945896E+01 -0.1808217073955E+01  0.7496643582243E+00
-0.1628094705594E+01 -0.2618949383851E+01 -0.1996110716976E+01  0.5641338799891E+00
-0.1036102648810E+01 -0.2793652383311E+01 -0.1799984860532E+01  0.4011943668531E+00
-0.5814883490956E+00 -0.2924204029082E+01 -0.1647675413564E+01  0.3178065623003E+00
-0.2366243117842E+00 -0.3029692812645E+01 -0.1535169044588E+01  0.2893381834406E+00
 0.1703670137552E-01 -0.3124608472731E+01 -0.1460558728833E+01  0.3026656459469E+00
 0.1918071251898E+00 -0.3221109928310E+01 -0.1423772313855E+01  0.3515942704325E+00
 0.2970803262832E+00 -0.3330677307952E+01 -0.1425790577768E+01  0.4344827533614E+00
 0.3383627379065E+00 -0.3462732561137E+01 -0.1468453813194E+01  0.5486906450524E+00
 0.3110217737596E+00 -0.3622261600026E+01 -0.1556282714398E+01  0.6886754264327E+00
 0.2002502589189E+00 -0.3812675455253E+01 -0.1697839837971E+01  0.8483197518723E+00
-0.1545536871140E+01 -0.2565492707399E+01 -0.1932183897013E+01  0.6526760392165E+00
-0.9974982173734E+00 -0.2723620615115E+01 -0.1748925846834E+01  0.4654907680144E+00
-0.5712756206007E+00 -0.2841408618371E+01 -0.1603961588248E+01  0.3667800069792E+00
-0.2458979158011E+00 -0.2933602061258E+01 -0.1494364985427E+01  0.3297801257289E+00
-0.7120631554109E-02 -0.3012176591815E+01 -0.1419069691384E+01  0.3398095631168E+00
 0.1548293005147E+00 -0.3087361715059E+01 -0.1378290231340E+01  0.3894510209125E+00
 0.2482129460198E+00 -0.3169689657329E+01 -0.1373094050833E+01  0.4764481576163E+00
 0.2796350166809E+00 -0.3266155110283E+01 -0.1403664440433E+01  0.5968775091052E+00
 0.2463225179008E+00 -0.3376927638714E+01 -0.1471384403050E+01  0.7433489043692E+00
 0.1419660527146E+00 -0.3499523229197E+01 -0.1578051868944E+01  0.9100853333716E+00
-0.1452711567571E+01 -0.2506798680949E+01 -0.1860969812084E+01  0.7349728225247E+00
-0.9522789297587E+00 -0.2646866609820E+01 -0.1691598399312E+01  0.5256687499393E+00
-0.5572250093945E+00 -0.2750105872836E+01 -0.1554445510706E+01  0.4115934478749E+00
-0.2534589699472E+00 -0.2827332897112E+01 -0.1447972173845E+01  0.3648021729388E+00
-0.3089997710662E-01 -0.2887897986586E+01 -0.1371835039456E+01  0.3694425890684E+00
 0.1170614928735E+00 -0.2940606461362E+01 -0.1327066131824E+01  0.4168765304939E+00
 0.1989311758733E+00 -0.2994281559973E+01 -0.1313814677194E+01  0.5044618836545E+00
 0.2202662820850E+00 -0.3057001535950E+01 -0.1333265565935E+01  0.6261450264353E+00
 0.1807353113701E+00 -0.3121741580397E+01 -0.1382272942937E+01  0.7712335762039E+00
 0.8239970554106E-01 -0.3179244002675E+01 -0.1455516815961E+01  0.9351963220626E+00
-0.1351043503552E+01 -0.2444438746789E+01 -0.1783876653135E+01  0.8106109173838E+00
-0.9000175897504E+00 -0.2564990379220E+01 -0.1628553741285E+01  0.5813285095773E+00
-0.5391223200483E+00 -0.2653154889573E+01 -0.1500370284716E+01  0.4517278325703E+00
-0.2579235733800E+00 -0.2712741983825E+01 -0.1396212808345E+01  0.3938509974963E+00
-0.5287761296035E-01 -0.2754119231198E+01 -0.1319288513408E+01  0.3912968981521E+00
 0.8021797106181E-01 -0.2783903086161E+01 -0.1270732000874E+01  0.4337735178146E+00
 0.1496172188638E+00 -0.2809505899606E+01 -0.1250147676778E+01  0.5186640925851E+00
 0.1668922516669E+00 -0.2836106491926E+01 -0.1254530689740E+01  0.6388751774929E+00
 0.1167112396277E+00 -0.2869256213744E+01 -0.1293696134554E+01  0.7760452009807E+00
 0.2293357356505E-01 -0.2870812768041E+01 -0.1338503218009E+01  0.9265050734005E+00
-0.1237185633332E+01 -0.2374623182728E+01 -0.1697550139243E+01  0.8802340257294E+00
-0.8439580745301E+00 -0.2484496789348E+01 -0.1564373782055E+01  0.6326308823162E+00
-0.5146137268965E+00 -0.2551538256896E+01 -0.1441091428728E+01  0.4863529746137E+00
-0.2590938494927E+00 -0.2592801382419E+01 -0.1340390755599E+01  0.4163203760016E+00
-0.7117276279424E-01 -0.2612142116889E+01 -0.1261157990253E+01  0.4052331749608E+00
 0.4617008457737E-01 -0.2619756152218E+01 -0.1209585448723E+01  0.4407563875404E+00
 0.1013415431680E+00 -0.2620366859583E+01 -0.1183941895712E+01  0.5194577321596E+00
 0.1125624795304E+00 -0.2613427113223E+01 -0.1175406374855E+01  0.6354869931610E+00
 0.8251395468214E-01 -0.2596249080031E+01 -0.1181455505917E+01  0.7681274261531E+00
-0.5165141209718E-01 -0.2620233600234E+01 -0.1255785952610E+01  0.8920891280844E+00
-0.2242843728328E+01 -0.4022315706395E+01 -0.2944624926851E+01 -0.5973906249769E+00
 0.2255557996130E+00 -0.3007265700392E+00 -0.3533026201074E-01  0.1413841493011E+00
 0.1146361662780E+00  0.1466690900082E+00  0.1228134701430E+00  0.1755866570211E-01
 0.8222731479522E-01  0.2691929272192E+00  0.1651675133279E+00 -0.3486977300725E-01
 0.4173101201052E-01  0.3205846936075E+00  0.1702883812086E+00 -0.2487323333331E-01
 0.2136240142461E-01  0.3310305258432E+00  0.1656246753958E+00  0.1999135697847E-01
 0.5683115224698E-01  0.3186935524128E+00  0.1764966107424E+00  0.9356716042158E-01
 0.1263611019823E+00  0.2569662232822E+00  0.1801638424173E+00  0.1625745362670E+00
 0.2177408387869E+00  0.1943020202880E+00  0.1936601432740E+00  0.1965033797861E+00
 0.2886871882976E+00  0.8701845534549E-01  0.1765816520644E+00  0.2217812514487E+00
-0.8436134155407E+00 -0.2762545347862E+01 -0.1694894614500E+01 -0.8859124521252E+00
-0.2317433916558E+00 -0.1490349711364E+01 -0.8093837563666E+00 -0.1327462624921E+00
 0.9210774446316E-01 -0.3991973403083E+00 -0.1443321096812E+00  0.1760140295009E-01
 0.7255210888171E-01 -0.8888220386601E-01 -0.7675144623154E-02 -0.4329404979974E-03
 0.3064497670691E-01  0.4265086822980E-01  0.3444904703288E-01 -0.1006805562388E-01
 0.3567223528111E-02  0.1123992212195E+00  0.5450422889316E-01  0.6882287493355E-02
 0.1216881660679E-01  0.1373894012740E+00  0.7029236222569E-01  0.4949617264881E-01
 0.5154534634982E-01  0.1132810527043E+00  0.7746840735897E-01  0.9149464847545E-01
 0.8923327793605E-01  0.6133617143031E-01  0.7076764102269E-01  0.1032879648447E+00
 0.1207508247216E+00  0.9974823193279E-02  0.6144105436414E-01  0.1026720070590E+00
-0.5875758733001E+00 -0.2394493237963E+01 -0.1401572478739E+01 -0.9955699819780E+00
-0.1917947038077E+00 -0.1692996961936E+01 -0.8858520806528E+00 -0.3727629782811E+00
-0.1898968926648E-01 -0.9696556481907E+00 -0.4646633074263E+00 -0.1096690708199E+00
 0.5521890786870E-01 -0.4984301530329E+00 -0.2083092846988E+00 -0.3710371281968E-01
 0.2649132330654E-01 -0.2804713616436E+00 -0.1193706177156E+00 -0.3130765527155E-01
-0.5257936849828E-02 -0.1547856273397E+00 -0.7522047497831E-01 -0.2932693248339E-01
-0.1946384154904E-01 -0.8816601118980E-01 -0.5058603065895E-01 -0.1527466810605E-01
-0.1570030513850E-01 -0.7875664569617E-01 -0.4439476677969E-01 -0.3605282482452E-02
-0.1837738403269E-01 -0.1035963788497E+00 -0.5732766840930E-01 -0.1793321995427E-01
-0.4531233600435E-01 -0.1442892760835E+00 -0.8911275745527E-01 -0.5407802114848E-01
-0.5429228855991E+00 -0.2227156380829E+01 -0.1301937251919E+01 -0.1047976270471E+01
-0.2224266562896E+00 -0.1804861692572E+01 -0.9528255215484E+00 -0.5312889762808E+00
-0.6429206423946E-01 -0.1300183509270E+01 -0.6413035179229E+00 -0.2480176217713E+00
 0.9476257565246E-02 -0.8960461529487E+00 -0.4166878497733E+00 -0.1259683731671E+00
 0.1684713980050E-01 -0.6278119368145E+00 -0.2871534538682E+00 -0.9095750760935E-01
-0.9115126820526E-02 -0.4592881038579E+00 -0.2201495178605E+00 -0.9034628809821E-01
-0.3953783432530E-01 -0.3581028937836E+00 -0.1868911417372E+00 -0.9914592061760E-01
-0.6501499212557E-01 -0.3170482658803E+00 -0.1795697308073E+00 -0.1182367172747E+00
-0.1037757201456E+00 -0.3241898736363E+00 -0.2011438285673E+00 -0.1609782631430E+00
-0.1740577076128E+00 -0.3650881015354E+00 -0.2533985296570E+00 -0.2295441374062E+00
-0.5869178913912E+00 -0.2159717901990E+01 -0.1290918819615E+01 -0.1069128328776E+01
-0.2854883503618E+00 -0.1891120748683E+01 -0.1023006273956E+01 -0.6334637769113E+00
-0.1174803267244E+00 -0.1542500292873E+01 -0.7801908892317E+00 -0.3629543610383E+00
-0.2966602022587E-01 -0.1222727308786E+01 -0.5886248631425E+00 -0.2250307809545E+00
-0.1840378616299E-02 -0.9720585964076E+00 -0.4577325171003E+00 -0.1734031055131E+00
-0.1189030202486E-01 -0.7866651454498E+00 -0.3753210593611E+00 -0.1701116414250E+00
-0.4769580460932E-01 -0.6647579583512E+00 -0.3348532677421E+00 -0.1958731845005E+00
-0.9292909083955E-01 -0.6027333334998E+00 -0.3269613386102E+00 -0.2427226875710E+00
-0.1555130069393E+00 -0.5994166615469E+00 -0.3548169432886E+00 -0.3115178901729E+00
-0.2540737563039E+00 -0.6429508769188E+00 -0.4216015765453E+00 -0.4049774521668E+00
-0.6697826748469E+00 -0.2146357453680E+01 -0.1323585857051E+01 -0.1070287899525E+01
-0.3685747782109E+00 -0.1978497280064E+01 -0.1103123864591E+01 -0.6945358141689E+00
-0.1789482146212E+00 -0.1742241658079E+01 -0.9029592378787E+00 -0.4489882932637E+00
-0.7012707707949E-01 -0.1504836773839E+01 -0.7402330080542E+00 -0.3140266000003E+00
-0.2026725830147E-01 -0.1295359856267E+01 -0.6183447422790E+00 -0.2587682505124E+00
-0.1323921173962E-01 -0.1122416010634E+01 -0.5337579531619E+00 -0.2561525756547E+00
-0.4414131376756E-01 -0.9978436950138E+00 -0.4897329528851E+00 -0.2947325939294E+00
-0.9693465405263E-01 -0.9280141561334E+00 -0.4817259395656E+00 -0.3636597142729E+00
-0.1690315529078E+00 -0.9201331162972E+00 -0.5119073932280E+00 -0.4533414563371E+00
-0.2821302971044E+00 -0.9613968635770E+00 -0.5844577640378E+00 -0.5640855131022E+00
-0.7722129079892E+00 -0.2165876778046E+01 -0.1380902148934E+01 -0.1056280414593E+01
-0.4610421116797E+00 -0.2072265413003E+01 -0.1190654533581E+01 -0.7246728604094E+00
-0.2466947754103E+00 -0.1922937083131E+01 -0.1019726970928E+01 -0.5067405376652E+00
-0.1118837008708E+00 -0.1758903383169E+01 -0.8792699272684E+00 -0.3841065876363E+00
-0.3769337095619E-01 -0.1599795743612E+01 -0.7696198818949E+00 -0.3338192937942E+00
-0.1074192850591E-01 -0.1456221628125E+01 -0.6894728698676E+00 -0.3355630670957E+00
-0.2928190306196E-01 -0.1345073788465E+01 -0.6459471733792E+00 -0.3837094959373E+00
-0.7796139993761E-01 -0.1279330914241E+01 -0.6379273860459E+00 -0.4674322813750E+00
-0.1452380771534E+00 -0.1269960479306E+01 -0.6651433198489E+00 -0.5713040923121E+00
-0.2613734923702E+00 -0.1302638200786E+01 -0.7350854939190E+00 -0.6944464714751E+00
-0.8843187716403E+00 -0.2205376571173E+01 -0.1452156807439E+01 -0.1029240111271E+01
-0.5571839190841E+00 -0.2172422158984E+01 -0.1282914853438E+01 -0.7303183781199E+00
-0.3174009341728E+00 -0.2094172084953E+01 -0.1133439316114E+01 -0.5382500026160E+00
-0.1545218712587E+00 -0.1995349533206E+01 -0.1010439557535E+01 -0.4314381578295E+00
-0.5384617478839E-01 -0.1888343915442E+01 -0.9128293400931E+00 -0.3905226914103E+00
-0.4402650930908E-02 -0.1782652531696E+01 -0.8399159337044E+00 -0.3987606804816E+00
-0.6056437723592E-02 -0.1695450515833E+01 -0.7997082661433E+00 -0.4533523149918E+00
-0.4054580404330E-01 -0.1639074678918E+01 -0.7894216249895E+00 -0.5438076090455E+00
-0.9125544377774E-01 -0.1628482313826E+01 -0.8082767440236E+00 -0.6538097400544E+00
-0.1962433419177E+00 -0.1646558048466E+01 -0.8661166512835E+00 -0.7868222476455E+00
-0.1000220937396E+01 -0.2255696130412E+01 -0.1530281017988E+01 -0.9899449113720E+00
-0.6537112782394E+00 -0.2276091126518E+01 -0.1377007126743E+01 -0.7154297265408E+00
-0.3887097827545E+00 -0.2258920799354E+01 -0.1244386370435E+01 -0.5452865532390E+00
-0.1974167608480E+00 -0.2219011315167E+01 -0.1135721192847E+01 -0.4543391907224E+00
-0.6888729051656E-01 -0.2162472754083E+01 -0.1048739218302E+01 -0.4242689578092E+00
 0.4700588767964E-02 -0.2097525570606E+01 -0.9836277389690E+00 -0.4396579179712E+00
 0.2320827108644E-01 -0.2038744928015E+01 -0.9473022263536E+00 -0.4983534557687E+00
 0.4417965145560E-03 -0.1997791281838E+01 -0.9387542557210E+00 -0.5904007600727E+00
-0.1659612961666E-01 -0.1967410903106E+01 -0.9324833030147E+00 -0.6963614348467E+00
-0.9097475001530E-01 -0.1969336135137E+01 -0.9683461135654E+00 -0.8339511848911E+00
-0.1115003555283E+01 -0.2308152466392E+01 -0.1608883326106E+01 -0.9384301176958E+00
-0.7484669296843E+00 -0.2378317467793E+01 -0.1469588663087E+01 -0.6817356222297E+00
-0.4599873706861E+00 -0.2417680426807E+01 -0.1352503861391E+01 -0.5286836357319E+00
-0.2392657933931E+00 -0.2430264050842E+01 -0.1254679023608E+01 -0.4518857955745E+00
-0.8346345508460E-01 -0.2422317288191E+01 -0.1177716946352E+01 -0.4324583629482E+00
 0.1527288980187E-01 -0.2396543005119E+01 -0.1119196951360E+01 -0.4548956775663E+00
 0.5657182251079E-01 -0.2365871025365E+01 -0.1085370622589E+01 -0.5154094127795E+00
 0.4764326940303E-01 -0.2342308880635E+01 -0.1078492834544E+01 -0.6086790023059E+00
 0.1825984310662E-01 -0.2316854053982E+01 -0.1080339276371E+01 -0.7145501692863E+00
 0.8908000861559E-01 -0.2188600147702E+01 -0.9867744628676E+00 -0.8377345874600E+00
-0.1115003536742E+01 -0.2308152456549E+01 -0.1608883312766E+01  0.9384301270367E+00
-0.7484669209425E+00 -0.2378317457238E+01 -0.1469588654017E+01  0.6817356279573E+00
-0.4599873674719E+00 -0.2417680417548E+01 -0.1352503855529E+01  0.5286836387962E+00
-0.2392657927428E+00 -0.2430264043801E+01 -0.1254679019993E+01  0.4518857969468E+00
-0.8346345533566E-01 -0.2422317283655E+01 -0.1177716944339E+01  0.4324583633465E+00
 0.1527288942275E-01 -0.2396543002662E+01 -0.1119196950384E+01  0.4548956774925E+00
 0.5657182231425E-01 -0.2365871024118E+01 -0.1085370622095E+01  0.5154094124832E+00
 0.4764326928574E-01 -0.2342308879974E+01 -0.1078492834288E+01  0.6086790019623E+00
 0.1825984292837E-01 -0.2316854053576E+01 -0.1080339276264E+01  0.7145501689761E+00
 0.8908000833096E-01 -0.2188600147407E+01 -0.9867744628627E+00  0.8377345871606E+00
-0.1000220920356E+01 -0.2255696121830E+01 -0.1530281005946E+01  0.9899449183450E+00
-0.6537112700511E+00 -0.2276091117482E+01 -0.1377007118648E+01  0.7154297303998E+00
-0.3887097794483E+00 -0.2258920791241E+01 -0.1244386365068E+01  0.5452865549966E+00
-0.1974167599254E+00 -0.2219011308964E+01 -0.1135721189497E+01  0.4543391912693E+00
-0.6888729047482E-01 -0.2162472750057E+01 -0.1048739216390E+01  0.4242689577383E+00
 0.4700588616039E-02 -0.2097525568398E+01 -0.9836277380025E+00  0.4396579176518E+00
 0.2320827100815E-01 -0.2038744926912E+01 -0.9473022258720E+00  0.4983534553400E+00
 0.4417964353642E-03 -0.1997791281267E+01 -0.9387542554898E+00  0.5904007596581E+00
-0.1659612976223E-01 -0.1967410902708E+01 -0.9324833028961E+00  0.6963614344732E+00
-0.9097475015199E-01 -0.1969336134694E+01 -0.9683461134216E+00  0.8339511845389E+00
-0.8843187569641E+00 -0.2205376564949E+01 -0.1452156797616E+01  0.1029240116247E+01
-0.5571839115306E+00 -0.2172422151764E+01 -0.1282914846495E+01  0.7303183803102E+00
-0.3174009309068E+00 -0.2094172078188E+01 -0.1133439311400E+01  0.5382500031960E+00
-0.1545218700895E+00 -0.1995349527886E+01 -0.1010439554486E+01  0.4314381576401E+00
-0.5384617446400E-01 -0.1888343911956E+01 -0.9128293383023E+00  0.3905226909281E+00
-0.4402650881089E-02 -0.1782652529808E+01 -0.8399159327936E+00  0.3987606799718E+00
-0.6056437703547E-02 -0.1695450514934E+01 -0.7997082657111E+00  0.4533523145006E+00
-0.4054580408317E-01 -0.1639074678471E+01 -0.7894216247984E+00  0.5438076086208E+00
-0.9125544385979E-01 -0.1628482313466E+01 -0.8082767438930E+00  0.6538097396736E+00
-0.1962433419859E+00 -0.1646558047956E+01 -0.8661166510759E+00  0.7868222472765E+00
-0.7722128960983E+00 -0.2165876774662E+01 -0.1380902141755E+01  0.1056280417872E+01
-0.4610421050142E+00 -0.2072265407820E+01 -0.1190654528012E+01  0.7246728610139E+00
-0.2466947722909E+00 -0.1922937077668E+01 -0.1019726966894E+01  0.5067405371485E+00
-0.1118836995293E+00 -0.1758903378640E+01 -0.8792699245092E+00  0.3841065867921E+00
-0.3769337041210E-01 -0.1599795740599E+01 -0.7696198802230E+00  0.3338192929817E+00
-0.1074192831856E-01 -0.1456221626539E+01 -0.6894728690341E+00  0.3355630664753E+00
-0.2928190300122E-01 -0.1345073787778E+01 -0.6459471730278E+00  0.3837094954634E+00
-0.7796139997251E-01 -0.1279330913937E+01 -0.6379273859194E+00  0.4674322810096E+00
-0.1452380772039E+00 -0.1269960479010E+01 -0.6651433197336E+00  0.5713040919814E+00
-0.2613734923833E+00 -0.1302638200232E+01 -0.7350854936645E+00  0.6944464711086E+00
-0.6697826661189E+00 -0.2146357453496E+01 -0.1323585852862E+01  0.1070287901345E+01
-0.3685747726574E+00 -0.1978497276852E+01 -0.1103123860471E+01  0.6945358132293E+00
-0.1789482117916E+00 -0.1742241653655E+01 -0.9029592344698E+00  0.4489882917290E+00
-0.7012707566151E-01 -0.1504836769839E+01 -0.7402330055076E+00  0.3140265986178E+00
-0.2026725764937E-01 -0.1295359853584E+01 -0.6183447407114E+00  0.2587682494958E+00
-0.1323921152339E-01 -0.1122416009301E+01 -0.5337579524336E+00  0.2561525750332E+00
-0.4414131374847E-01 -0.9978436945282E+00 -0.4897329526479E+00  0.2947325935579E+00
-0.9693465412932E-01 -0.9280141559646E+00 -0.4817259395223E+00  0.3636597140247E+00
-0.1690315529587E+00 -0.9201331160687E+00 -0.5119073931445E+00  0.4533414560912E+00
-0.2821302970610E+00 -0.9613968630037E+00 -0.5844577637480E+00  0.5640855127515E+00
-0.5869178862678E+00 -0.2159717905304E+01 -0.1290918818764E+01  0.1069128329285E+01
-0.2854883461587E+00 -0.1891120747108E+01 -0.1023006271241E+01  0.6334637744559E+00
-0.1174803242988E+00 -0.1542500288943E+01 -0.7801908862447E+00  0.3629543586221E+00
-0.2966601884659E-01 -0.1222727304942E+01 -0.5886248606877E+00  0.2250307792367E+00
-0.1840378004543E-02 -0.9720585939120E+00 -0.4577325156398E+00  0.1734031044872E+00
-0.1189030191326E-01 -0.7866651443536E+00 -0.3753210587935E+00  0.1701116409347E+00
-0.4769580469995E-01 -0.6647579580525E+00 -0.3348532676444E+00  0.1958731843018E+00
-0.9292909098445E-01 -0.6027333334418E+00 -0.3269613386510E+00  0.2427226874712E+00
-0.1555130070121E+00 -0.5994166613818E+00 -0.3548169432452E+00  0.3115178900260E+00
-0.2540737562089E+00 -0.6429508763657E+00 -0.4216015762407E+00  0.4049774518505E+00
-0.5429228848158E+00 -0.2227156388006E+01 -0.1301937254924E+01  0.1047976269712E+01
-0.2224266536313E+00 -0.1804861691889E+01 -0.9528255199777E+00  0.5312889723831E+00
-0.6429206225790E-01 -0.1300183505018E+01 -0.6413035149930E+00  0.2480176187647E+00
 0.9476258812301E-02 -0.8960461488998E+00 -0.4166878472842E+00  0.1259683714747E+00
 0.1684714017188E-01 -0.6278119345588E+00 -0.2871534526335E+00  0.9095750684150E-01
-0.9115126900444E-02 -0.4592881030509E+00 -0.2201495175187E+00  0.9034628785646E-01
-0.3953783453544E-01 -0.3581028936617E+00 -0.1868911417786E+00  0.9914592062136E-01
-0.6501499233021E-01 -0.3170482658999E+00 -0.1795697309127E+00  0.1182367173218E+00
-0.1037757202531E+00 -0.3241898735249E+00 -0.2011438285655E+00  0.1609782630947E+00
-0.1740577074984E+00 -0.3650881010492E+00 -0.2533985293746E+00  0.2295441371533E+00
-0.5875758781786E+00 -0.2394493249525E+01 -0.1401572486466E+01  0.9955699798762E+00
-0.1917947027791E+00 -0.1692996960798E+01 -0.8858520796345E+00  0.3727629731978E+00
-0.1898968736143E-01 -0.9696556424317E+00 -0.4646633038242E+00  0.1096690678744E+00
 0.5521890868841E-01 -0.4984301491183E+00 -0.2083092824737E+00  0.3710371171668E-01
 0.2649132332970E-01 -0.2804713599295E+00 -0.1193706168991E+00  0.3130765499570E-01
-0.5257937078293E-02 -0.1547856269006E+00 -0.7522047487927E-01  0.2932693251960E-01
-0.1946384181967E-01 -0.8816601122612E-01 -0.5058603080322E-01  0.1527466828311E-01
-0.1570030536983E-01 -0.7875664575628E-01 -0.4439476691667E-01  0.3605282644525E-02
-0.1837738418642E-01 -0.1035963787729E+00 -0.5732766844549E-01  0.1793321999238E-01
-0.4531233593454E-01 -0.1442892756916E+00 -0.8911275723828E-01  0.5407802099194E-01
-0.8436134297604E+00 -0.2762545365522E+01 -0.1694894629484E+01  0.8859124484207E+00
-0.2317433898690E+00 -0.1490349705442E+01 -0.8093837527432E+00  0.1327462572885E+00
 0.9210774589112E-01 -0.3991973342349E+00 -0.1443321061555E+00 -0.1760140460548E-01
 0.7255210915440E-01 -0.8888220117395E-01 -0.7675143229720E-02  0.4329404097247E-03
 0.3064497654067E-01  0.4265086910060E-01  0.3444904736402E-01  0.1006805581011E-01
 0.3567223306693E-02  0.1123992212750E+00  0.5450422881513E-01 -0.6882287280222E-02
 0.1216881635990E-01  0.1373894011240E+00  0.7029236203913E-01 -0.4949617237353E-01
 0.5154534611896E-01  0.1132810526336E+00  0.7746840721719E-01 -0.9149464824620E-01
 0.8923327773155E-01  0.6133617150510E-01  0.7076764096173E-01 -0.1032879647418E+00
 0.1207508246609E+00  0.9974823502568E-02  0.6144105448099E-01 -0.1026720071009E+00
-0.2242843747683E+01 -0.4022315723834E+01 -0.2944624944144E+01  0.5973906205759E+00
 0.2255558020651E+00 -0.3007265620261E+00 -0.3533025709208E-01 -0.1413841521552E+00
 0.1146361672180E+00  0.1466690930688E+00  0.1228134720233E+00 -0.1755866542468E-01
 0.8222731488931E-01  0.2691929280563E+00  0.1651675137655E+00  0.3486977350782E-01
 0.4173101193079E-01  0.3205846936144E+00  0.1702883811743E+00  0.2487323364631E-01
 0.2136240135116E-01  0.3310305256035E+00  0.1656246752486E+00 -0.1999135675149E-01
 0.5683115205833E-01  0.3186935521881E+00  0.1764966105482E+00 -0.9356716012842E-01
 0.1263611017867E+00  0.2569662232560E+00  0.1801638423131E+00 -0.1625745360212E+00
 0.2177408384867E+00  0.1943020203435E+00  0.1936601431590E+00 -0.1965033796347E+00
 0.2886871880889E+00  0.8701845567015E-01  0.1765816521189E+00 -0.2217812513967E+00
-0.1266329125655E+00 -0.2479279211950E+01 -0.1224778695416E+01 -0.9937240850695E+00
-0.1320164731519E+00 -0.2095800769646E+01 -0.1047074101459E+01 -0.9732008728834E+00
-0.1974425400622E+00 -0.1772598000668E+01 -0.9259190517945E+00 -0.9231444953179E+00
-0.2569677684220E+00 -0.1450937167497E+01 -0.8027153178461E+00 -0.8402908662142E+00
-0.2944241543717E+00 -0.1128423928819E+01 -0.6687385974037E+00 -0.7217479397077E+00
-0.2916533234648E+00 -0.8098441454548E+00 -0.5177038090792E+00 -0.5678702706226E+00
-0.2326956954410E+00 -0.5078283038597E+00 -0.3480462787886E+00 -0.3834389503907E+00
-0.1048807638888E+00 -0.2413389753149E+00 -0.1627232770130E+00 -0.1800868864808E+00
 0.9013608783889E-01 -0.3816083417926E-01  0.2442836915807E-01  0.2067975926132E-01
 0.3570344325044E+00  0.9708399928994E-01  0.2134356624020E+00  0.1901109611726E+00
-0.7136792843102E-01 -0.2800793185411E+01 -0.1349915720082E+01 -0.1063360816384E+01
-0.1437984560140E+00 -0.2536446753851E+01 -0.1259715245442E+01 -0.1061550966734E+01
-0.2212077800697E+00 -0.2217954155349E+01 -0.1146406106739E+01 -0.1034638512199E+01
-0.3062379601577E+00 -0.1883089762778E+01 -0.1028984027170E+01 -0.9812749195768E+00
-0.3720426688429E+00 -0.1528598577661E+01 -0.8933013835909E+00 -0.8919670174992E+00
-0.3981715024032E+00 -0.1159061426655E+01 -0.7318994748010E+00 -0.7599418355085E+00
-0.3609568509155E+00 -0.7840759181783E+00 -0.5381654001091E+00 -0.5817700284755E+00
-0.2348549837885E+00 -0.4227490517766E+00 -0.3090738959317E+00 -0.3599620284953E+00
 0.2651482749436E-02 -0.1098705893540E+00 -0.5039297997631E-01 -0.1089101556527E+00
 0.3351344030714E+00  0.8608754995852E-01  0.1979743174219E+00  0.1354783604624E+00
-0.3178811429722E-01 -0.3161759705502E+01 -0.1500967471499E+01 -0.1086107722111E+01
-0.1204013959884E+00 -0.2960751145542E+01 -0.1448141690846E+01 -0.1123277305809E+01
-0.2224741585614E+00 -0.2706449243739E+01 -0.1376593995590E+01 -0.1133792018905E+01
-0.3293036298723E+00 -0.2404951397284E+01 -0.1285099859504E+01 -0.1117387628913E+01
-0.4273408218626E+00 -0.2063525691845E+01 -0.1170707258473E+01 -0.1066018453984E+01
-0.4948197173354E+00 -0.1682593861669E+01 -0.1023384379536E+01 -0.9685248709814E+00
-0.5051558995483E+00 -0.1265081333631E+01 -0.8320114974839E+00 -0.8133804919798E+00
-0.4219829085096E+00 -0.8190281833324E+00 -0.5832752116864E+00 -0.5902929133910E+00
-0.1934447968086E+00 -0.3636074443745E+00 -0.2618145526920E+00 -0.2941029704043E+00
 0.2298397652427E+00  0.3242764297158E-01  0.1232656815481E+00  0.5748946361417E-01
 0.1523183357613E-01 -0.3538531637829E+01 -0.1655950903799E+01 -0.1065614237341E+01
-0.8637432850898E-01 -0.3408585127116E+01 -0.1642630939977E+01 -0.1136044103395E+01
-0.2036342109982E+00 -0.3230204028900E+01 -0.1613903968659E+01 -0.1185173560130E+01
-0.3324259074603E+00 -0.3003049448159E+01 -0.1567673413165E+01 -0.1210246141233E+01
-0.4611142267122E+00 -0.2726030042171E+01 -0.1497957802576E+01 -0.1203578961539E+01
-0.5729267671694E+00 -0.2396853779829E+01 -0.1395796853549E+01 -0.1152829538605E+01
-0.6433327975135E+00 -0.2011138887235E+01 -0.1247601688668E+01 -0.1041550164868E+01
-0.6351443108437E+00 -0.1563782301316E+01 -0.1033495505094E+01 -0.8486893785144E+00
-0.4861845621922E+00 -0.1049454512355E+01 -0.7217503632067E+00 -0.5469003195457E+00
-0.4884307534140E-01 -0.4431281044999E+00 -0.2312264539389E+00 -0.9887477673238E-01
 0.6388006747403E-01 -0.3914110514322E+01 -0.1809608305429E+01 -0.9976775965496E+00
-0.4758416771050E-01 -0.3861292603256E+01 -0.1837172077694E+01 -0.1089660909014E+01
-0.1806872686731E+00 -0.3772619348588E+01 -0.1858054105400E+01 -0.1166291616788E+01
-0.3324386932601E+00 -0.3643786663779E+01 -0.1868825913068E+01 -0.1223350868805E+01
-0.4960411447269E+00 -0.3471456822733E+01 -0.1864724039976E+01 -0.1253034539279E+01
-0.6601462867080E+00 -0.3250897633819E+01 -0.1838190637985E+01 -0.1242886355909E+01
-0.8080263633475E+00 -0.2975294671849E+01 -0.1778160882032E+01 -0.1174842552639E+01
-0.9144519510618E+00 -0.2634486333006E+01 -0.1668000989281E+01 -0.1022905753353E+01
-0.9365079010847E+00 -0.2210032109501E+01 -0.1478873801224E+01 -0.7471435720422E+00
-0.7924465006304E+00 -0.1659199016791E+01 -0.1152273390265E+01 -0.2739784411498E+00
 0.1105339058903E+00 -0.4262881325921E+01 -0.1951603282464E+01 -0.8819622011955E+00
-0.1385485169129E-01 -0.4287420099071E+01 -0.2021599221731E+01 -0.9801463486238E+00
-0.1673625236936E+00 -0.4289422126100E+01 -0.2094688780090E+01 -0.1066634374451E+01
-0.3510481073479E+00 -0.4264630995066E+01 -0.2169369172632E+01 -0.1136194014558E+01
-0.5639942926596E+00 -0.4208870262978E+01 -0.2243246335460E+01 -0.1180360740706E+01
-0.8036716221820E+00 -0.4117186268200E+01 -0.2312803202613E+01 -0.1186257752142E+01
-0.1066406437086E+01 -0.3982860275750E+01 -0.2373155349014E+01 -0.1135272243311E+01
-0.1348558783358E+01 -0.3796279794736E+01 -0.2418074125571E+01 -0.1000703262626E+01
-0.1651947040478E+01 -0.3543841969950E+01 -0.2442020828707E+01 -0.7427548731065E+00
-0.2015800838661E+01 -0.3213922560248E+01 -0.2457969991253E+01 -0.2986757296446E+00
 0.1509713847808E+00 -0.4564379628261E+01 -0.2074301869174E+01 -0.7254055919336E+00
 0.1140019761258E-01 -0.4657541300072E+01 -0.2183686312617E+01 -0.8152789005931E+00
-0.1667247407389E+00 -0.4740551762865E+01 -0.2306419950844E+01 -0.8955352768970E+00
-0.3893754379464E+00 -0.4809302776538E+01 -0.2443378754611E+01 -0.9603853269507E+00
-0.6627510870372E+00 -0.4859421167395E+01 -0.2595420953000E+01 -0.1001054935122E+01
-0.9942711871611E+00 -0.4885690992617E+01 -0.2763582217486E+01 -0.1004853936798E+01
-0.1394385022665E+01 -0.4881492307891E+01 -0.2949662337880E+01 -0.9542733139363E+00
-0.1880652017759E+01 -0.4838543768517E+01 -0.3158022011540E+01 -0.8259971514386E+00
-0.2487812595566E+01 -0.4747533865289E+01 -0.3400612827977E+01 -0.5903163257739E+00
-0.3292282684763E+01 -0.4602752280568E+01 -0.3710666424294E+01 -0.2158891579975E+00
 0.1822985416115E+00 -0.4803683421956E+01 -0.2172050888253E+01 -0.5385591521188E+00
 0.2798937692882E-01 -0.4951748451299E+01 -0.2314166759085E+01 -0.6095165197569E+00
-0.1745450774488E+00 -0.5099632220190E+01 -0.2478863323603E+01 -0.6729286401881E+00
-0.4358103845775E+00 -0.5243189938323E+01 -0.2669130144993E+01 -0.7235119148696E+00
-0.7684356754824E+00 -0.5377722477662E+01 -0.2888694324651E+01 -0.7536024275900E+00
-0.1188269515247E+01 -0.5497454119856E+01 -0.3142290100528E+01 -0.7526030066358E+00
-0.1716269885288E+01 -0.5595132987865E+01 -0.3436359341666E+01 -0.7067561062349E+00
-0.2381619250749E+01 -0.5661723611297E+01 -0.3780371135573E+01 -0.5996442668449E+00
-0.3226560457822E+01 -0.5686258548647E+01 -0.4189024922416E+01 -0.4147449897448E+00
-0.4301026698533E+01 -0.5648765966526E+01 -0.4676402540716E+01 -0.1426004520393E+00
 0.2033744307212E+00 -0.4969368772041E+01 -0.2240017334739E+01 -0.3310626950330E+00
 0.3720879094675E-01 -0.5155709186829E+01 -0.2405695179963E+01 -0.3761688827966E+00
-0.1848898537637E+00 -0.5348579381346E+01 -0.2600730533905E+01 -0.4163342924559E+00
-0.4769565765641E+00 -0.5543794113163E+01 -0.2829752816995E+01 -0.4478907853442E+00
-0.8562693924783E+00 -0.5736269754964E+01 -0.3098493391439E+01 -0.4656454367579E+00
-0.1344266801597E+01 -0.5919526300437E+01 -0.3413982749297E+01 -0.4626710487930E+00
-0.1967540805706E+01 -0.6085185309151E+01 -0.3784781264383E+01 -0.4304761548881E+00
-0.2758580479161E+01 -0.6222507153427E+01 -0.4221111176610E+01 -0.3600124432512E+00
-0.3753944143962E+01 -0.6317018538422E+01 -0.4733352448715E+01 -0.2441868174408E+00
-0.4990244132301E+01 -0.6351038423237E+01 -0.5330402787583E+01 -0.8129224454728E-01
 0.2138676891509E+00 -0.5054018879746E+01 -0.2274871053810E+01 -0.1116385148607E+00
 0.4099764771273E-01 -0.5260039735259E+01 -0.2452949774925E+01 -0.1270655616811E+00
-0.1920351311476E+00 -0.5475926065031E+01 -0.2663941755447E+01 -0.1407527973676E+00
-0.5012088354471E+00 -0.5697462683334E+01 -0.2913375606438E+01 -0.1513938917448E+00
-0.9061982324205E+00 -0.5919320818976E+01 -0.3207993946020E+01 -0.1571603566455E+00
-0.1431082288785E+01 -0.6134537778031E+01 -0.3555841422385E+01 -0.1556649257501E+00
-0.2104559451310E+01 -0.6333927350623E+01 -0.3966088786849E+01 -0.1440871856544E+00
-0.2958915199435E+01 -0.6505490087053E+01 -0.4448270473367E+01 -0.1196520242943E+00
-0.4027438116952E+01 -0.6634587512653E+01 -0.5011152033204E+01 -0.8050276449215E-01
-0.5340523887050E+01 -0.6705378241381E+01 -0.5661573986003E+01 -0.2664767438857E-01
 0.2138676891120E+00 -0.5054018879687E+01 -0.2274871053800E+01  0.1116385149788E+00
 0.4099764768911E-01 -0.5260039735145E+01 -0.2452949774883E+01  0.1270655621033E+00
-0.1920351311443E+00 -0.5475926064848E+01 -0.2663941755360E+01  0.1407527980913E+00
-0.5012088353983E+00 -0.5697462683067E+01 -0.2913375606289E+01  0.1513938927506E+00
-0.9061982322982E+00 -0.5919320818610E+01 -0.3207993945790E+01  0.1571603578895E+00
-0.1431082288550E+01 -0.6134537777549E+01 -0.3555841422048E+01  0.1556649271528E+00
-0.2104559450916E+01 -0.6333927350013E+01 -0.3966088786377E+01  0.1440871870907E+00
-0.2958915198833E+01 -0.6505490086304E+01 -0.4448270472732E+01  0.1196520255886E+00
-0.4027438116099E+01 -0.6634587511755E+01 -0.5011152032381E+01  0.8050276542413E-01
-0.5340523885929E+01 -0.6705378240323E+01 -0.5661573984979E+01  0.2664767471698E-01
 0.2033744306060E+00 -0.4969368771866E+01 -0.2240017334711E+01  0.3310626951470E+00
 0.3720879087252E-01 -0.5155709186494E+01 -0.2405695179840E+01  0.3761688831992E+00
-0.1848898537643E+00 -0.5348579380809E+01 -0.2600730533653E+01  0.4163342931451E+00
-0.4769565764379E+00 -0.5543794112377E+01 -0.2829752816566E+01  0.4478907863045E+00
-0.8562693921460E+00 -0.5736269753881E+01 -0.3098493390774E+01  0.4656454379532E+00
-0.1344266800947E+01 -0.5919526299010E+01 -0.3413982748321E+01  0.4626710501558E+00
-0.1967540804593E+01 -0.6085185307337E+01 -0.3784781263007E+01  0.4304761563072E+00
-0.2758580477427E+01 -0.6222507151196E+01 -0.4221111174746E+01  0.3600124445583E+00
-0.3753944141466E+01 -0.6317018535746E+01 -0.4733352446284E+01  0.2441868184055E+00
-0.4990244128963E+01 -0.6351038420076E+01 -0.5330402784529E+01  0.8129224489165E-01
 0.1822985414250E+00 -0.4803683421673E+01 -0.2172050888207E+01  0.5385591522219E+00
 0.2798937679892E-01 -0.4951748450759E+01 -0.2314166758891E+01  0.6095165201158E+00
-0.1745450774752E+00 -0.5099632219321E+01 -0.2478863323207E+01  0.6729286408005E+00
-0.4358103844235E+00 -0.5243189937050E+01 -0.2669130144323E+01  0.7235119157252E+00
-0.7684356750297E+00 -0.5377722475905E+01 -0.2888694323613E+01  0.7536024286652E+00
-0.1188269514322E+01 -0.5497454117535E+01 -0.3142290099003E+01  0.7526030078849E+00
-0.1716269883653E+01 -0.5595132984901E+01 -0.3436359339504E+01  0.7067561075766E+00
-0.2381619248097E+01 -0.5661723607619E+01 -0.3780371132598E+01  0.5996442681386E+00
-0.3226560453863E+01 -0.5686258544221E+01 -0.4189024918475E+01  0.4147449907548E+00
-0.4301026693064E+01 -0.5648765961305E+01 -0.4676402535692E+01  0.1426004524226E+00
 0.1509713845335E+00 -0.4564379627884E+01 -0.2074301869113E+01  0.7254055920125E+00
 0.1140019742443E-01 -0.4657541299351E+01 -0.2183686312367E+01  0.8152789008758E+00
-0.1667247408170E+00 -0.4740551761704E+01 -0.2306419950335E+01  0.8955352773783E+00
-0.3893754378290E+00 -0.4809302774835E+01 -0.2443378753755E+01  0.9603853276229E+00
-0.6627510865886E+00 -0.4859421165043E+01 -0.2595420951684E+01  0.1001054935973E+01
-0.9942711861742E+00 -0.4885690989502E+01 -0.2763582215558E+01  0.1004853937807E+01
-0.1394385020831E+01 -0.4881492303898E+01 -0.2949662335141E+01  0.9542733150635E+00
-0.1880652014634E+01 -0.4838543763524E+01 -0.3158022007724E+01  0.8259971526015E+00
-0.2487812590522E+01 -0.4747533859153E+01 -0.3400612822722E+01  0.5903163267860E+00
-0.3292282677348E+01 -0.4602752273334E+01 -0.3710666417409E+01  0.2158891584402E+00
 0.1105339055977E+00 -0.4262881325469E+01 -0.1951603282390E+01  0.8819622012282E+00
-0.1385485193473E-01 -0.4287420098199E+01 -0.2021599221435E+01  0.9801463487875E+00
-0.1673625238474E+00 -0.4289422124701E+01 -0.2094688779505E+01  0.1066634374732E+01
-0.3510481073349E+00 -0.4264630993020E+01 -0.2169369171664E+01  0.1136194014943E+01
-0.5639942923550E+00 -0.4208870260157E+01 -0.2243246333991E+01  0.1180360741181E+01
-0.8036716213891E+00 -0.4117186264469E+01 -0.2312803200487E+01  0.1186257752699E+01
-0.1066406435497E+01 -0.3982860270969E+01 -0.2373155346019E+01  0.1135272243943E+01
-0.1348558780476E+01 -0.3796279788749E+01 -0.2418074121403E+01  0.1000703263319E+01
-0.1651947035456E+01 -0.3543841962554E+01 -0.2442020822871E+01  0.7427548738082E+00
-0.2015800829855E+01 -0.3213922550988E+01 -0.2457969982762E+01  0.2986757300700E+00
 0.6388006716383E-01 -0.3914110513810E+01 -0.1809608305334E+01  0.9976775964998E+00
-0.4758416800436E-01 -0.3861292602276E+01 -0.1837172077372E+01  0.1089660909002E+01
-0.1806872689181E+00 -0.3772619347027E+01 -0.1858054104782E+01  0.1166291616779E+01
-0.3324386934038E+00 -0.3643786661516E+01 -0.1868825912072E+01  0.1223350868755E+01
-0.4960411446859E+00 -0.3471456819639E+01 -0.1864724038503E+01  0.1253034539142E+01
-0.6601462863509E+00 -0.3250897629764E+01 -0.1838190635911E+01  0.1242886355638E+01
-0.8080263624655E+00 -0.2975294666699E+01 -0.1778160879197E+01  0.1174842552192E+01
-0.9144519493073E+00 -0.2634486326634E+01 -0.1668000985462E+01  0.1022905752703E+01
-0.9365078978234E+00 -0.2210032101790E+01 -0.1478873796067E+01  0.7471435712051E+00
-0.7924464941711E+00 -0.1659199007418E+01 -0.1152273382824E+01  0.2739784402312E+00
 0.1523183327092E-01 -0.3538531637311E+01 -0.1655950903699E+01  0.1065614237201E+01
-0.8637432881822E-01 -0.3408585126134E+01 -0.1642630939661E+01  0.1136044103215E+01
-0.2036342112776E+00 -0.3230204027362E+01 -0.1613903968067E+01  0.1185173559857E+01
-0.3324259076665E+00 -0.3003049445985E+01 -0.1567673412240E+01  0.1210246140806E+01
-0.4611142267825E+00 -0.2726030039297E+01 -0.1497957801258E+01  0.1203578960893E+01
-0.5729267670149E+00 -0.2396853776213E+01 -0.1395796851777E+01  0.1152829537677E+01
-0.6433327970108E+00 -0.2011138882873E+01 -0.1247601686381E+01  0.1041550163613E+01
-0.6351443098237E+00 -0.1563782296277E+01 -0.1033495502246E+01  0.8486893769407E+00
-0.4861845604424E+00 -0.1049454506867E+01 -0.7217503598050E+00  0.5469003177983E+00
-0.4884307292088E-01 -0.4431280994330E+00 -0.2312264504198E+00  0.9887477539003E-01
-0.3178811457904E-01 -0.3161759705023E+01 -0.1500967471406E+01  0.1086107721898E+01
-0.1204013962639E+00 -0.2960751144634E+01 -0.1448141690549E+01  0.1123277305510E+01
-0.2224741587913E+00 -0.2706449242365E+01 -0.1376593995052E+01  0.1133792018477E+01
-0.3293036299992E+00 -0.2404951395440E+01 -0.1285099858697E+01  0.1117387628307E+01
-0.4273408218145E+00 -0.2063525689567E+01 -0.1170707257380E+01  0.1066018453156E+01
-0.4948197170278E+00 -0.1682593859045E+01 -0.1023384378159E+01  0.9685248699066E+00
-0.5051558988949E+00 -0.1265081330823E+01 -0.8320114958571E+00  0.8133804906777E+00
-0.4219829074653E+00 -0.8190281806231E+00 -0.5832752099222E+00  0.5902929119689E+00
-0.1934447954938E+00 -0.3636074422457E+00 -0.2618145510735E+00  0.2941029691402E+00
 0.2298397658646E+00  0.3242764353719E-01  0.1232656821062E+00 -0.5748946413389E-01
-0.7136792868504E-01 -0.2800793184969E+01 -0.1349915719993E+01  0.1063360816120E+01
-0.1437984562613E+00 -0.2536446753022E+01 -0.1259715245168E+01  0.1061550966372E+01
-0.2212077802570E+00 -0.2217954154154E+01 -0.1146406106266E+01  0.1034638511721E+01
-0.3062379602225E+00 -0.1883089761273E+01 -0.1028984026493E+01  0.9812749189489E+00
-0.3720426687244E+00 -0.1528598575932E+01 -0.8933013827227E+00  0.8919670167040E+00
-0.3981715020518E+00 -0.1159061424834E+01 -0.7318994737801E+00  0.7599418345597E+00
-0.3609568503188E+00 -0.7840759164544E+00 -0.5381653990184E+00  0.5817700274373E+00
-0.2348549830237E+00 -0.4227490503984E+00 -0.3090738949244E+00  0.3599620275065E+00
 0.2651483364583E-02 -0.1098705886384E+00 -0.5039297935089E-01  0.1089101549469E+00
 0.3351344032126E+00  0.8608755012943E-01  0.1979743175686E+00 -0.1354783606508E+00
-0.1266329127944E+00 -0.2479279211501E+01 -0.1224778695312E+01  0.9937240847879E+00
-0.1320164733779E+00 -0.2095800768911E+01 -0.1047074101220E+01  0.9732008725426E+00
-0.1974425402146E+00 -0.1772597999700E+01 -0.9259190514116E+00  0.9231444948786E+00
-0.2569677684495E+00 -0.1450937166352E+01 -0.8027153173205E+00  0.8402908656603E+00
-0.2944241542387E+00 -0.1128423927583E+01 -0.6687385967599E+00  0.7217479390490E+00
-0.2916533231593E+00 -0.8098441442477E+00 -0.5177038083682E+00  0.5678702698994E+00
-0.2326956949979E+00 -0.5078283028243E+00 -0.3480462780936E+00  0.3834389496785E+00
-0.1048807634351E+00 -0.2413389745958E+00 -0.1627232764618E+00  0.1800868858889E+00
 0.9013608811853E-01 -0.3816083379951E-01  0.2442836946798E-01 -0.2067975962344E-01
 0.3570344323029E+00  0.9708399940343E-01  0.2134356623606E+00 -0.1901109612672E+00
</DataArray>
<DataArray type="Float64" Name="S_Mises" NumberOfComponents="1" ComponentName0="S_Mises" format="ascii">
 0.3470283949781E+01
 0.3144077430245E+01
 0.2922313703854E+01
 0.2892993352650E+01
 0.2905210402987E+01
 0.2956461061063E+01
 0.3039197203409E+01
 0.3158424527850E+01
 0.3327008635200E+01
 0.3573434804247E+01
 0.3917388279351E+01
 0.4299402961194E+01
 0.4638833909834E+01
 0.4926515280302E+01
 0.5175325161367E+01
 0.5376756505139E+01
 0.5544873513541E+01
 0.5671875106132E+01
 0.5956659572853E+01
 0.5159198585528E+01
 0.9350962626366E+01
 0.3034244810947E+01
 0.3179190765055E+01
 0.3024754759470E+01
 0.2963568627724E+01
 0.2967815870568E+01
 0.3007909976422E+01
 0.3081657552007E+01
 0.3191155130526E+01
 0.3344751284780E+01
 0.3548165675119E+01
 0.3790851832008E+01
 0.4042618738173E+01
 0.4269941515726E+01
 0.4451053100648E+01
 0.4573750086848E+01
 0.4628600130533E+01
 0.4586778216457E+01
 0.4423388605534E+01
 0.3850780493709E+01
 0.2855381731275E+01
 0.7981028200494E+01
 0.2822032073030E+01
 0.3076701415360E+01
 0.3064683625058E+01
 0.3013216418429E+01
 0.3011764280468E+01
 0.3044161632705E+01
 0.3107063353297E+01
 0.3201584561499E+01
 0.3328682339984E+01
 0.3480980387803E+01
 0.3641858682639E+01
 0.3795418095175E+01
 0.3925860439108E+01
 0.4011824001504E+01
 0.4033490631929E+01
 0.3971327875096E+01
 0.3793269080833E+01
 0.3424973728428E+01
 0.2739338233549E+01
 0.2746620843552E+01
 0.7512036563622E+01
 0.2702602694260E+01
 0.2974773686963E+01
 0.3051749760101E+01
 0.3038499848810E+01
 0.3038481618541E+01
 0.3064859750443E+01
 0.3115931286836E+01
 0.3191239732806E+01
 0.3286304855523E+01
 0.3388394481955E+01
 0.3481696113356E+01
 0.3557512976141E+01
 0.3607946012431E+01
 0.3615612508781E+01
 0.3559921710616E+01
 0.3420735104665E+01
 0.3169936219314E+01
 0.2767299163005E+01
 0.2369677193404E+01
 0.3273173878763E+01
 0.7095534789200E+01
 0.2628995325023E+01
 0.2891575723721E+01
 0.3015824847064E+01
 0.3040515638877E+01
 0.3049176045899E+01
 0.3070931617923E+01
 0.3109503779554E+01
 0.3163276992756E+01
 0.3224974528539E+01
 0.3280879249645E+01
 0.3317841419656E+01
 0.3331322019928E+01
 0.3317986370327E+01
 0.3265340046477E+01
 0.3156780630365E+01
 0.2978143846281E+01
 0.2718719777266E+01
 0.2416323950416E+01
 0.2412482548388E+01
 0.3764717495498E+01
 0.6760702684976E+01
 0.2580447200839E+01
 0.2825794950412E+01
 0.2972287033795E+01
 0.3025842217916E+01
 0.3045449556435E+01
 0.3063959907544E+01
 0.3089772724159E+01
 0.3121397780328E+01
 0.3150844131862E+01
 0.3165634137051E+01
 0.3155719784382E+01
 0.3119559905487E+01
 0.3057309126037E+01
 0.2961844397065E+01
 0.2823377342254E+01
 0.2638301283167E+01
 0.2423578555484E+01
 0.2288074138464E+01
 0.2632077340217E+01
 0.4118953030392E+01
 0.6502779541470E+01
 0.2546563362548E+01
 0.2773416572640E+01
 0.2927899314868E+01
 0.3000606295005E+01
 0.3029960812233E+01
 0.3045883599694E+01
 0.3059170768681E+01
 0.3069251505074E+01
 0.3068880876686E+01
 0.3047873133469E+01
 0.2999352059227E+01
 0.2924419821154E+01
 0.2826478857421E+01
 0.2704073551378E+01
 0.2555630508965E+01
 0.2390947129713E+01
 0.2255586405199E+01
 0.2303774390719E+01
 0.2894932143503E+01
 0.4361798038474E+01
 0.6306795078129E+01
 0.2521699760744E+01
 0.2730902092955E+01
 0.2885403947624E+01
 0.2969278498224E+01
 0.3005673213165E+01
 0.3018942053980E+01
 0.3020261437151E+01
 0.3010183921701E+01
 0.2983064905217E+01
 0.2931469971095E+01
 0.2851665373978E+01
 0.2747346109116E+01
 0.2625175539596E+01
 0.2489421579282E+01
 0.2347215428647E+01
 0.2222314601324E+01
 0.2183713847398E+01
 0.2401136870774E+01
 0.3145490329808E+01
 0.4530908365558E+01
 0.6157558983853E+01
 0.2502618720795E+01
 0.2695634175861E+01
 0.2845791796824E+01
 0.2934904628423E+01
 0.2975355000066E+01
 0.2985480772142E+01
 0.2975558758788E+01
 0.2947145414708E+01
 0.2896577488887E+01
 0.2819315046092E+01
 0.2714694664776E+01
 0.2589024707003E+01
 0.2452243797873E+01
 0.2314177414314E+01
 0.2190452243270E+01
 0.2117536995457E+01
 0.2179759972962E+01
 0.2536917934104E+01
 0.3366508411322E+01
 0.4656113875665E+01
 0.6042962463440E+01
 0.2487394752523E+01
 0.2665794737193E+01
 0.2809340881085E+01
 0.2899543972039E+01
 0.2941394715633E+01
 0.2947765879238E+01
 0.2927413986785E+01
 0.2882677850591E+01
 0.2811948172742E+01
 0.2713538708311E+01
 0.2589742525206E+01
 0.2449468194826E+01
 0.2305857630360E+01
 0.2173945171490E+01
 0.2077151796361E+01
 0.2062316235179E+01
 0.2220106809269E+01
 0.2684666515556E+01
 0.3555105136374E+01
 0.4757071321782E+01
 0.5956200136948E+01
 0.2474850088650E+01
 0.2640168150699E+01
 0.2776099733636E+01
 0.2864667289377E+01
 0.2905852462665E+01
 0.2907974218584E+01
 0.2878106033543E+01
 0.2819163798948E+01
 0.2731488880671E+01
 0.2616085900477E+01
 0.2478027717719E+01
 0.2328720451229E+01
 0.2184311441903E+01
 0.2064527720594E+01
 0.1999541123166E+01
 0.2043576461484E+01
 0.2285603039229E+01
 0.2828210503042E+01
 0.3713077177118E+01
 0.4836835364567E+01
 0.5920477042031E+01
 0.2464297844897E+01
 0.2617970032498E+01
 0.2746043969458E+01
 0.2831298130842E+01
 0.2870352316441E+01
 0.2867915328448E+01
 0.2829471812403E+01
 0.2758358427186E+01
 0.2656680151384E+01
 0.2527902729849E+01
 0.2379656647264E+01
 0.2225674339183E+01
 0.2084839062760E+01
 0.1981001379326E+01
 0.1949918419481E+01
 0.2050106524249E+01
 0.2363022123467E+01
 0.2960506261182E+01
 0.3844822438274E+01
 0.4901127327029E+01
 0.5905769380006E+01
 0.2455296938104E+01
 0.2598681851552E+01
 0.2719114166960E+01
 0.2800137990880E+01
 0.2836127894627E+01
 0.2829019749440E+01
 0.2782918518488E+01
 0.2701472151403E+01
 0.2588332395720E+01
 0.2449165901020E+01
 0.2293913035782E+01
 0.2138423330618E+01
 0.2004025727175E+01
 0.1918149982498E+01
 0.1920992261376E+01
 0.2072591446218E+01
 0.2443589514599E+01
 0.3079030732992E+01
 0.3954855587594E+01
 0.4955141018359E+01
 0.5892894443433E+01
 0.2447597208392E+01
 0.2582006818369E+01
 0.2695327501903E+01
 0.2771775716449E+01
 0.2804234697951E+01
 0.2792565254825E+01
 0.2739745318863E+01
 0.2649665552323E+01
 0.2527303939908E+01
 0.2380248626139E+01
 0.2220473967799E+01
 0.2065699784522E+01
 0.1939388904669E+01
 0.1872012511187E+01
 0.1907084364383E+01
 0.2103940652530E+01
 0.2521265312178E+01
 0.3182348720795E+01
 0.4046245867956E+01
 0.5000657344557E+01
 0.5887116493342E+01
 0.2441062219529E+01
 0.2567781719928E+01
 0.2674733150407E+01
 0.2746679764584E+01
 0.2775521196056E+01
 0.2759599914307E+01
 0.2701015552233E+01
 0.2603858244667E+01
 0.2474218841729E+01
 0.2321320433043E+01
 0.2158878685669E+01
 0.2006216244412E+01
 0.1888612851531E+01
 0.1839061026495E+01
 0.1903370741330E+01
 0.2138666321788E+01
 0.2592089216241E+01
 0.3270118993507E+01
 0.4121375282358E+01
 0.5039188802548E+01
 0.5886982413381E+01
 0.2435626407944E+01
 0.2555929734769E+01
 0.2657401447582E+01
 0.2725226633571E+01
 0.2750662775707E+01
 0.2730966467070E+01
 0.2667580601586E+01
 0.2564763811230E+01
 0.2429516664387E+01
 0.2272411073282E+01
 0.2108604574792E+01
 0.1958747487513E+01
 0.1849622570209E+01
 0.1816247775328E+01
 0.1905874662999E+01
 0.2172641630867E+01
 0.2653522681741E+01
 0.3342500699938E+01
 0.4182024962887E+01
 0.5071325221819E+01
 0.5890489182869E+01
 0.2431266545417E+01
 0.2546426598591E+01
 0.2643411580501E+01
 0.2707716955711E+01
 0.2730187965238E+01
 0.2707326405804E+01
 0.2640104702770E+01
 0.2532922217580E+01
 0.2393495795452E+01
 0.2233464752873E+01
 0.2069129642800E+01
 0.1922193831364E+01
 0.1820634800439E+01
 0.1801029866624E+01
 0.1911425814734E+01
 0.2202846914024E+01
 0.2703969066708E+01
 0.3399838025011E+01
 0.4229421960571E+01
 0.5097213809737E+01
 0.5895743978880E+01
 0.2427982388827E+01
 0.2539276573571E+01
 0.2632840375061E+01
 0.2694384601229E+01
 0.2714498290758E+01
 0.2689181576277E+01
 0.2619088199106E+01
 0.2508728527441E+01
 0.2366350085879E+01
 0.2204384688473E+01
 0.2039981915954E+01
 0.1895628064643E+01
 0.1800192267855E+01
 0.1791378895779E+01
 0.1917599495042E+01
 0.2227140416350E+01
 0.2742445113849E+01
 0.3442489101063E+01
 0.4264383984060E+01
 0.5116801566149E+01
 0.5901144742201E+01
 0.2425783549058E+01
 0.2534495654481E+01
 0.2625753204679E+01
 0.2685401837588E+01
 0.2703882969723E+01
 0.2676892176110E+01
 0.2604887634828E+01
 0.2492457003823E+01
 0.2348198579810E+01
 0.2185068226160E+01
 0.2020776859994E+01
 0.1878328998172E+01
 0.1787186209063E+01
 0.1785781043233E+01
 0.1922650063677E+01
 0.2244072985472E+01
 0.2768363211426E+01
 0.3470750873096E+01
 0.4287436394410E+01
 0.5129963680680E+01
 0.5905450216832E+01
 0.2424680805683E+01
 0.2532100259641E+01
 0.2622197280479E+01
 0.2680882235517E+01
 0.2698529297730E+01
 0.2670690560278E+01
 0.2597731593527E+01
 0.2484279818146E+01
 0.2339108034909E+01
 0.2175432758040E+01
 0.2011244016656E+01
 0.1869804238418E+01
 0.1780870632393E+01
 0.1783232211556E+01
 0.1925451103579E+01
 0.2252751725361E+01
 0.2781395403715E+01
 0.3484829446477E+01
 0.4298890388866E+01
 0.5136580031642E+01
 0.5907816326103E+01
 0.2424680805673E+01
 0.2532100259643E+01
 0.2622197280507E+01
 0.2680882235582E+01
 0.2698529297842E+01
 0.2670690560449E+01
 0.2597731593769E+01
 0.2484279818472E+01
 0.2339108035322E+01
 0.2175432758528E+01
 0.2011244017185E+01
 0.1869804238927E+01
 0.1780870632788E+01
 0.1783232211699E+01
 0.1925451103312E+01
 0.2252751724596E+01
 0.2781395402542E+01
 0.3484829445177E+01
 0.4298890387803E+01
 0.5136580031085E+01
 0.5907816326057E+01
 0.2425783549030E+01
 0.2534495654488E+01
 0.2625753204762E+01
 0.2685401837782E+01
 0.2703882970056E+01
 0.2676892176618E+01
 0.2604887635550E+01
 0.2492457004796E+01
 0.2348198581046E+01
 0.2185068227625E+01
 0.2020776861587E+01
 0.1878328999714E+01
 0.1787186210274E+01
 0.1785781043700E+01
 0.1922650062920E+01
 0.2244072983213E+01
 0.2768363207921E+01
 0.3470750869186E+01
 0.4287436391204E+01
 0.5129963679012E+01
 0.5905450216735E+01
 0.2427982388779E+01
 0.2539276573582E+01
 0.2632840375198E+01
 0.2694384601548E+01
 0.2714498291306E+01
 0.2689181577111E+01
 0.2619088200295E+01
 0.2508728529050E+01
 0.2366350087933E+01
 0.2204384690920E+01
 0.2039981918634E+01
 0.1895628067266E+01
 0.1800192269959E+01
 0.1791378896683E+01
 0.1917599493928E+01
 0.2227140412710E+01
 0.2742445108058E+01
 0.3442489094515E+01
 0.4264383978660E+01
 0.5116801563379E+01
 0.5901144742174E+01
 0.2431266545350E+01
 0.2546426598604E+01
 0.2643411580689E+01
 0.2707716956147E+01
 0.2730187965987E+01
 0.2707326406946E+01
 0.2640104704404E+01
 0.2532922219805E+01
 0.2393495798313E+01
 0.2233464756311E+01
 0.2069129646604E+01
 0.1922193835142E+01
 0.1820634803563E+01
 0.1801029868152E+01
 0.1911425813495E+01
 0.2202846909203E+01
 0.2703969058718E+01
 0.3399838015780E+01
 0.4229421952882E+01
 0.5097213805867E+01
 0.5895743979125E+01
 0.2435626407857E+01
 0.2555929734783E+01
 0.2657401447817E+01
 0.2725226634115E+01
 0.2750662776640E+01
 0.2730966468491E+01
 0.2667580603633E+01
 0.2564763814041E+01
 0.2429516668039E+01
 0.2272411077718E+01
 0.2108604579766E+01
 0.1958747492550E+01
 0.1849622574530E+01
 0.1816247777742E+01
 0.1905874661967E+01
 0.2172641625172E+01
 0.2653522671699E+01
 0.3342500687971E+01
 0.4182024952768E+01
 0.5071325216831E+01
 0.5890489183661E+01
 0.2441062219422E+01
 0.2567781719942E+01
 0.2674733150685E+01
 0.2746679765225E+01
 0.2775521197147E+01
 0.2759599915972E+01
 0.2701015554650E+01
 0.2603858248023E+01
 0.2474218846143E+01
 0.2321320438480E+01
 0.2158878691867E+01
 0.2006216250832E+01
 0.1888612857267E+01
 0.1839061030134E+01
 0.1903370740947E+01
 0.2138666315656E+01
 0.2592089204387E+01
 0.3270118978755E+01
 0.4121375269602E+01
 0.5039188796380E+01
 0.5886982415058E+01
 0.2447597208264E+01
 0.2582006818382E+01
 0.2695327502219E+01
 0.2771775717173E+01
 0.2804234699170E+01
 0.2792565256687E+01
 0.2739745321592E+01
 0.2649665556167E+01
 0.2527303945045E+01
 0.2380248632573E+01
 0.2220473975275E+01
 0.2065699792465E+01
 0.1939388912080E+01
 0.1872012516459E+01
 0.1907084365213E+01
 0.2103940646561E+01
 0.2521265298888E+01
 0.3182348703240E+01
 0.4046245852288E+01
 0.5000657337068E+01
 0.5887116496288E+01
 0.2455296937955E+01
 0.2598681851563E+01
 0.2719114167310E+01
 0.2800137991668E+01
 0.2836127895938E+01
 0.2829019751442E+01
 0.2782918521457E+01
 0.2701472155663E+01
 0.2588332401524E+01
 0.2449165908434E+01
 0.2293913044585E+01
 0.2138423340235E+01
 0.2004025736552E+01
 0.1918149989879E+01
 0.1920992264106E+01
 0.2072591441215E+01
 0.2443589500453E+01
 0.3079030712685E+01
 0.3954855568665E+01
 0.4955141009296E+01
 0.5892894448038E+01
 0.2464297844726E+01
 0.2617970032507E+01
 0.2746043969839E+01
 0.2831298131675E+01
 0.2870352317798E+01
 0.2867915330520E+01
 0.2829471815526E+01
 0.2758358431770E+01
 0.2656680157776E+01
 0.2527902738203E+01
 0.2379656657427E+01
 0.2225674350622E+01
 0.2084839074417E+01
 0.1981001389352E+01
 0.1949918424925E+01
 0.2050106521253E+01
 0.2363022109345E+01
 0.2960506238314E+01
 0.3844822415665E+01
 0.4901127316031E+01
 0.5905769386531E+01
 0.2474850088457E+01
 0.2640168150709E+01
 0.2776099734046E+01
 0.2864667290232E+01
 0.2905852464014E+01
 0.2907974220642E+01
 0.2878106036715E+01
 0.2819163803741E+01
 0.2731488887548E+01
 0.2616085909706E+01
 0.2478027729252E+01
 0.2328720464624E+01
 0.2184311456163E+01
 0.2064527733850E+01
 0.1999541132255E+01
 0.2043576461804E+01
 0.2285603026435E+01
 0.2828210478088E+01
 0.3713077150267E+01
 0.4836835351315E+01
 0.5920477050447E+01
 0.2487394752293E+01
 0.2665794737188E+01
 0.2809340881478E+01
 0.2899543972825E+01
 0.2941394716831E+01
 0.2947765881079E+01
 0.2927413989722E+01
 0.2882677855205E+01
 0.2811948179597E+01
 0.2713538717796E+01
 0.2589742537409E+01
 0.2449468209464E+01
 0.2305857646605E+01
 0.2173945187628E+01
 0.2077151809294E+01
 0.2062316239952E+01
 0.2220106799934E+01
 0.2684666490545E+01
 0.3555105106028E+01
 0.4757071305960E+01
 0.5956200147868E+01
 0.2502618720542E+01
 0.2695634175838E+01
 0.2845791797164E+01
 0.2934904629054E+01
 0.2975355000977E+01
 0.2985480773569E+01
 0.2975558761203E+01
 0.2947145418729E+01
 0.2896577495150E+01
 0.2819315055096E+01
 0.2714694676765E+01
 0.2589024721903E+01
 0.2452243815136E+01
 0.2314177432567E+01
 0.2190452259804E+01
 0.2117537005518E+01
 0.2179759969561E+01
 0.2536917912283E+01
 0.3366508379288E+01
 0.4656113857306E+01
 0.6042962476217E+01
 0.2521699760471E+01
 0.2730902092917E+01
 0.2885403947900E+01
 0.2969278498667E+01
 0.3005673213744E+01
 0.3018942054940E+01
 0.3020261438963E+01
 0.3010183924994E+01
 0.2983064910681E+01
 0.2931469979332E+01
 0.2851665385389E+01
 0.2747346123846E+01
 0.2625175557400E+01
 0.2489421599192E+01
 0.2347215448489E+01
 0.2222314616901E+01
 0.2183713851393E+01
 0.2401136854665E+01
 0.3145490297091E+01
 0.4530908343547E+01
 0.6157558998822E+01
 0.2546563362258E+01
 0.2773416572591E+01
 0.2927899315066E+01
 0.3000606295228E+01
 0.3029960812454E+01
 0.3045883600165E+01
 0.3059170769848E+01
 0.3069251507543E+01
 0.3068880881175E+01
 0.3047873140670E+01
 0.2999352069686E+01
 0.2924419835227E+01
 0.2826478875165E+01
 0.2704073572253E+01
 0.2555630531434E+01
 0.2390947150473E+01
 0.2255586417503E+01
 0.2303774383387E+01
 0.2894932112230E+01
 0.4361798011696E+01
 0.6306795095335E+01
 0.2580447200535E+01
 0.2825794950353E+01
 0.2972287033891E+01
 0.3025842217890E+01
 0.3045449556295E+01
 0.3063959907544E+01
 0.3089772724686E+01
 0.3121397781931E+01
 0.3150844135250E+01
 0.3165634142981E+01
 0.3155719793530E+01
 0.3119559918392E+01
 0.3057309143016E+01
 0.2961844417981E+01
 0.2823377366243E+01
 0.2638301308058E+01
 0.2423578576015E+01
 0.2288074142881E+01
 0.2632077314580E+01
 0.4118952998050E+01
 0.6502779560477E+01
 0.2628995324709E+01
 0.2891575723647E+01
 0.3015824847024E+01
 0.3040515638584E+01
 0.3049176045431E+01
 0.3070931617515E+01
 0.3109503779505E+01
 0.3163276993515E+01
 0.3224974530763E+01
 0.3280879254128E+01
 0.3317841427175E+01
 0.3331322031161E+01
 0.3317986385772E+01
 0.3265340066313E+01
 0.3156780654342E+01
 0.2978143873411E+01
 0.2718719804499E+01
 0.2416323968109E+01
 0.2412482535367E+01
 0.3764717458185E+01
 0.6760702704681E+01
 0.2702602693935E+01
 0.2974773686851E+01
 0.3051749759876E+01
 0.3038499848257E+01
 0.3038481617821E+01
 0.3064859749733E+01
 0.3115931286334E+01
 0.3191239732829E+01
 0.3286304856618E+01
 0.3388394484902E+01
 0.3481696119007E+01
 0.3557512985251E+01
 0.3607946025562E+01
 0.3615612526280E+01
 0.3559921732704E+01
 0.3420735131336E+01
 0.3169936249829E+01
 0.2767299192463E+01
 0.2369677200872E+01
 0.3273173841710E+01
 0.7095534807486E+01
 0.2822032072683E+01
 0.3076701415156E+01
 0.3064683624597E+01
 0.3013216417684E+01
 0.3011764279618E+01
 0.3044161631840E+01
 0.3107063352522E+01
 0.3201584560988E+01
 0.3328682340112E+01
 0.3480980389258E+01
 0.3641858686304E+01
 0.3795418101811E+01
 0.3925860449194E+01
 0.4011824015378E+01
 0.4033490650042E+01
 0.3971327898070E+01
 0.3793269109332E+01
 0.3424973763416E+01
 0.2739338262953E+01
 0.2746620823908E+01
 0.7512036577444E+01
 0.3034244810533E+01
 0.3179190764651E+01
 0.3024754758809E+01
 0.2963568626938E+01
 0.2967815869738E+01
 0.3007909975574E+01
 0.3081657551179E+01
 0.3191155129776E+01
 0.3344751284278E+01
 0.3548165675336E+01
 0.3790851833752E+01
 0.4042618742116E+01
 0.4269941522121E+01
 0.4451053109696E+01
 0.4573750098937E+01
 0.4628600146355E+01
 0.4586778236977E+01
 0.4423388634072E+01
 0.3850780533701E+01
 0.2855381751188E+01
 0.7981028212843E+01
 0.3470283949110E+01
 0.3144077429690E+01
 0.2922313703208E+01
 0.2892993352013E+01
 0.2905210402340E+01
 0.2956461060417E+01
 0.3039197202766E+01
 0.3158424527215E+01
 0.3327008634599E+01
 0.3573434803847E+01
 0.3917388279547E+01
 0.4299402962320E+01
 0.4638833911984E+01
 0.4926515283549E+01
 0.5175325165736E+01
 0.5376756510554E+01
 0.5544873520842E+01
 0.5671875115571E+01
 0.5956659594101E+01
 0.5159198607517E+01
 0.9350962650544E+01
 0.9909913052818E+00
 0.1424252861652E+01
 0.1766425015509E+01
 0.2022860137579E+01
 0.2202015922675E+01
 0.2310050442747E+01
 0.2358279758418E+01
 0.2361968107427E+01
 0.2321102222609E+01
 0.2225901147421E+01
 0.9537295074918E+00
 0.1445650875293E+01
 0.1833308995359E+01
 0.2127802262059E+01
 0.2340859038913E+01
 0.2481727424335E+01
 0.2563917849221E+01
 0.2601905711049E+01
 0.2587241790220E+01
 0.2507513767567E+01
 0.9205621495271E+00
 0.1471522690161E+01
 0.1901680698600E+01
 0.2230955495705E+01
 0.2475781833381E+01
 0.2649372599254E+01
 0.2766674588092E+01
 0.2839472772995E+01
 0.2861389485058E+01
 0.2826193758980E+01
 0.8918760734937E+00
 0.1499028339370E+01
 0.1968656818204E+01
 0.2329573674919E+01
 0.2604030636790E+01
 0.2809197701102E+01
 0.2961287758299E+01
 0.3072051121967E+01
 0.3139231895983E+01
 0.3155230422350E+01
 0.8675127570776E+00
 0.1526412831964E+01
 0.2031575369736E+01
 0.2420852269378E+01
 0.2722341294791E+01
 0.2957069687112E+01
 0.3143048128622E+01
 0.3293179258463E+01
 0.3407771479520E+01
 0.3476984936619E+01
 0.8473451076666E+00
 0.1552023837079E+01
 0.2088098893900E+01
 0.2502008725049E+01
 0.2827373607393E+01
 0.3088848284277E+01
 0.3306433135313E+01
 0.3494190016688E+01
 0.3653937267777E+01
 0.3773501462820E+01
 0.8312829809447E+00
 0.1574407650178E+01
 0.2136120974008E+01
 0.2570468390495E+01
 0.2915946125111E+01
 0.3200398658084E+01
 0.3445611056407E+01
 0.3666523197764E+01
 0.3865511062036E+01
 0.4028328568534E+01
 0.8192707984582E+00
 0.1592334832711E+01
 0.2173837113236E+01
 0.2623979864994E+01
 0.2985199169926E+01
 0.3287884923570E+01
 0.3555218400609E+01
 0.3802658735581E+01
 0.4032529188630E+01
 0.4228968889576E+01
 0.8112764249882E+00
 0.1604841640126E+01
 0.2199815243075E+01
 0.2660726931593E+01
 0.3032777019429E+01
 0.3348118531330E+01
 0.3630866189866E+01
 0.3896722591814E+01
 0.4147754189582E+01
 0.4367000801421E+01
 0.8072828497465E+00
 0.1611264316038E+01
 0.2213059761089E+01
 0.2679430944992E+01
 0.3057002057681E+01
 0.3378825609641E+01
 0.3669478346447E+01
 0.3944748860801E+01
 0.4206511661612E+01
 0.4437237487202E+01
 0.8072828501599E+00
 0.1611264315657E+01
 0.2213059760455E+01
 0.2679430944383E+01
 0.3057002057216E+01
 0.3378825609337E+01
 0.3669478346265E+01
 0.3944748860695E+01
 0.4206511661542E+01
 0.4437237487140E+01
 0.8112764262276E+00
 0.1604841639005E+01
 0.2199815241199E+01
 0.2660726929788E+01
 0.3032777018053E+01
 0.3348118530432E+01
 0.3630866189333E+01
 0.3896722591501E+01
 0.4147754189376E+01
 0.4367000801237E+01
 0.8192708005209E+00
 0.1592334830915E+01
 0.2173837110193E+01
 0.2623979862061E+01
 0.2985199167695E+01
 0.3287884922123E+01
 0.3555218399758E+01
 0.3802658735085E+01
 0.4032529188300E+01
 0.4228968889277E+01
 0.8312829838267E+00
 0.1574407647811E+01
 0.2136120969921E+01
 0.2570468386543E+01
 0.2915946122115E+01
 0.3200398656159E+01
 0.3445611055291E+01
 0.3666523197120E+01
 0.3865511061604E+01
 0.4028328568132E+01
 0.8473451113626E+00
 0.1552023834280E+01
 0.2088098888932E+01
 0.2502008720224E+01
 0.2827373603750E+01
 0.3088848281967E+01
 0.3306433133998E+01
 0.3494190015942E+01
 0.3653937267271E+01
 0.3773501462334E+01
 0.8675127615807E+00
 0.1526412828899E+01
 0.2031575364087E+01
 0.2420852263861E+01
 0.2722341290648E+01
 0.2957069684525E+01
 0.3143048127186E+01
 0.3293179257665E+01
 0.3407771478977E+01
 0.3476984936083E+01
 0.8918760787941E+00
 0.1499028336226E+01
 0.1968656812106E+01
 0.2329573668924E+01
 0.2604030632314E+01
 0.2809197698354E+01
 0.2961287756813E+01
 0.3072051121163E+01
 0.3139231895438E+01
 0.3155230421805E+01
 0.9205621556042E+00
 0.1471522687131E+01
 0.1901680692316E+01
 0.2230955489484E+01
 0.2475781828763E+01
 0.2649372596467E+01
 0.2766674586616E+01
 0.2839472772212E+01
 0.2861389484533E+01
 0.2826193758456E+01
 0.9537295142976E+00
 0.1445650872554E+01
 0.1833308989202E+01
 0.2127802255919E+01
 0.2340859034370E+01
 0.2481727421621E+01
 0.2563917847791E+01
 0.2601905710286E+01
 0.2587241789714E+01
 0.2507513767074E+01
 0.9909913125991E+00
 0.1424252859399E+01
 0.1766425009885E+01
 0.2022860131913E+01
 0.2202015918476E+01
 0.2310050440190E+01
 0.2358279757015E+01
 0.2361968106648E+01
 0.2321102222095E+01
 0.2225901146948E+01
 0.1552487485882E+01
 0.4557794807094E+00
 0.2882765252628E-01
 0.1622598278949E+00
 0.2417388616214E+00
 0.2683887538017E+00
 0.2270591429539E+00
 0.1136904531933E+00
 0.2376625880432E-01
 0.1750135642045E+00
 0.1665361451612E+01
 0.1091208708456E+01
 0.4255824107813E+00
 0.1398070742275E+00
 0.1062737628135E-01
 0.9431546101658E-01
 0.1085369845462E+00
 0.5369286776569E-01
 0.2457825173482E-01
 0.9601495801535E-01
 0.1567391538590E+01
 0.1301308326559E+01
 0.8238349360193E+00
 0.4796584770220E+00
 0.2659466539409E+00
 0.1295837575372E+00
 0.5958537448501E-01
 0.5468186598897E-01
 0.7389247355599E-01
 0.8590506328105E-01
 0.1460954433108E+01
 0.1371777821508E+01
 0.1071095869794E+01
 0.7846563149398E+00
 0.5585919297735E+00
 0.3901143978176E+00
 0.2761432222160E+00
 0.2185679606435E+00
 0.1913155466810E+00
 0.1662259575266E+00
 0.1364574846942E+01
 0.1392050794223E+01
 0.1235107853683E+01
 0.1033904284232E+01
 0.8407414429898E+00
 0.6714022380594E+00
 0.5348187614039E+00
 0.4419964094856E+00
 0.3850983872924E+00
 0.3378509273840E+00
 0.1281539070565E+01
 0.1396010644442E+01
 0.1355078103471E+01
 0.1243393097808E+01
 0.1104967708758E+01
 0.9611792860868E+00
 0.8265218288444E+00
 0.7203924779010E+00
 0.6512931910348E+00
 0.5894438269892E+00
 0.1210162539309E+01
 0.1397428451770E+01
 0.1453126896779E+01
 0.1427464617964E+01
 0.1353711971109E+01
 0.1252595487590E+01
 0.1140254876163E+01
 0.1041213018905E+01
 0.9749630094676E+00
 0.9029815414713E+00
 0.1147818312515E+01
 0.1401232173363E+01
 0.1540428806561E+01
 0.1595507635025E+01
 0.1589789722803E+01
 0.1540942467668E+01
 0.1463948386007E+01
 0.1385283341244E+01
 0.1332276842803E+01
 0.1257225471637E+01
 0.1091652127431E+01
 0.1407768676881E+01
 0.1621596709539E+01
 0.1752252441613E+01
 0.1814333525343E+01
 0.1821663537524E+01
 0.1786727286400E+01
 0.1731557692172E+01
 0.1690503287825E+01
 0.1627882524321E+01
 0.1038387905039E+01
 0.1414605487664E+01
 0.1697608450685E+01
 0.1899149487073E+01
 0.2026901325508E+01
 0.2089915150497E+01
 0.2099040635702E+01
 0.2070903764356E+01
 0.2023443319313E+01
 0.1973534230134E+01
 0.1038387912452E+01
 0.1414605486059E+01
 0.1697608445438E+01
 0.1899149481533E+01
 0.2026901321361E+01
 0.2089915148040E+01
 0.2099040634452E+01
 0.2070903763681E+01
 0.2023443318807E+01
 0.1973534229632E+01
 0.1091652134658E+01
 0.1407768676116E+01
 0.1621596705364E+01
 0.1752252437035E+01
 0.1814333521890E+01
 0.1821663535479E+01
 0.1786727285377E+01
 0.1731557691609E+01
 0.1690503287354E+01
 0.1627882523819E+01
 0.1147818319760E+01
 0.1401232173625E+01
 0.1540428803520E+01
 0.1595507631426E+01
 0.1589789720063E+01
 0.1540942466075E+01
 0.1463948385245E+01
 0.1385283340822E+01
 0.1332276842420E+01
 0.1257225471136E+01
 0.1210162546623E+01
 0.1397428453033E+01
 0.1453126894740E+01
 0.1427464615199E+01
 0.1353711968968E+01
 0.1252595486377E+01
 0.1140254875621E+01
 0.1041213018612E+01
 0.9749630091677E+00
 0.9029815409796E+00
 0.1281539077930E+01
 0.1396010646454E+01
 0.1355078102083E+01
 0.1243393095568E+01
 0.1104967706997E+01
 0.9611792851185E+00
 0.8265218284402E+00
 0.7203924776886E+00
 0.6512931907929E+00
 0.5894438265300E+00
 0.1364574854232E+01
 0.1392050796488E+01
 0.1235107852374E+01
 0.1033904282093E+01
 0.8407414413562E+00
 0.6714022372059E+00
 0.5348187610668E+00
 0.4419964093102E+00
 0.3850983870865E+00
 0.3378509269869E+00
 0.1460954440001E+01
 0.1371777823211E+01
 0.1071095867822E+01
 0.7846563125093E+00
 0.5585919281400E+00
 0.3901143970492E+00
 0.2761432219288E+00
 0.2185679604839E+00
 0.1913155464919E+00
 0.1662259572044E+00
 0.1567391544396E+01
 0.1301308326462E+01
 0.8238349326755E+00
 0.4796584743388E+00
 0.2659466524756E+00
 0.1295837569592E+00
 0.5958537428290E-01
 0.5468186584135E-01
 0.7389247335677E-01
 0.8590506300184E-01
 0.1665361454648E+01
 0.1091208704867E+01
 0.4255824067542E+00
 0.1398070721320E+00
 0.1062737716439E-01
 0.9431546125597E-01
 0.1085369846295E+00
 0.5369286790290E-01
 0.2457825149635E-01
 0.9601495769552E-01
 0.1552487484368E+01
 0.4557794758919E+00
 0.2882765432626E-01
 0.1622598285388E+00
 0.2417388616962E+00
 0.2683887536575E+00
 0.2270591429222E+00
 0.1136904533385E+00
 0.2376625853741E-01
 0.1750135637438E+00
 0.2038950749330E+01
 0.1701999831205E+01
 0.1365404334929E+01
 0.1035276504127E+01
 0.7235252345150E+00
 0.4499814030484E+00
 0.2393052494511E+00
 0.1186318418673E+00
 0.1111193342042E+00
 0.2255355227145E+00
 0.2365321554078E+01
 0.2073653720204E+01
 0.1730780640541E+01
 0.1367172281098E+01
 0.1003228474156E+01
 0.6606039545372E+00
 0.3680384476421E+00
 0.1639125815202E+00
 0.9750004552200E-01
 0.2160507728223E+00
 0.2712327505105E+01
 0.2461551172819E+01
 0.2152979308196E+01
 0.1799434293550E+01
 0.1418946676730E+01
 0.1030714597114E+01
 0.6602540156059E+00
 0.3458609698731E+00
 0.1483097146907E+00
 0.1711448663960E+00
 0.3079463977102E+01
 0.2879028779136E+01
 0.2623109942105E+01
 0.2314991453366E+01
 0.1963803666051E+01
 0.1582077731374E+01
 0.1187228589088E+01
 0.8069251134886E+00
 0.4899766794110E+00
 0.3417796735601E+00
 0.3446976740529E+01
 0.3304849529170E+01
 0.3112964474749E+01
 0.2870191347072E+01
 0.2579533054630E+01
 0.2246722289493E+01
 0.1880338030262E+01
 0.1493393509378E+01
 0.1106936572442E+01
 0.7542244048035E+00
 0.3789536697777E+01
 0.3703264885694E+01
 0.3572311319333E+01
 0.3392089667156E+01
 0.3159801076547E+01
 0.2873382648013E+01
 0.2530261415649E+01
 0.2125400207407E+01
 0.1645826971814E+01
 0.1049398281353E+01
 0.4085759628102E+01
 0.4045823648848E+01
 0.3963785242592E+01
 0.3830945299847E+01
 0.3638196637412E+01
 0.3374681857436E+01
 0.3025786821551E+01
 0.2569528272455E+01
 0.1968976988423E+01
 0.1159351691679E+01
 0.4320212215353E+01
 0.4315108421955E+01
 0.4268184365305E+01
 0.4166797280027E+01
 0.3996015685067E+01
 0.3737249387065E+01
 0.3366347453992E+01
 0.2850883949699E+01
 0.2146876926506E+01
 0.1204740384738E+01
 0.4482008189950E+01
 0.4499819661550E+01
 0.4474966425431E+01
 0.4391725909514E+01
 0.4230829477972E+01
 0.3968278724620E+01
 0.3574158496106E+01
 0.3011923795657E+01
 0.2240155046269E+01
 0.1226614469541E+01
 0.4564433813294E+01
 0.4593502211165E+01
 0.4579141923864E+01
 0.4503928476035E+01
 0.4346317693577E+01
 0.4079630486317E+01
 0.3671478160014E+01
 0.3084519825225E+01
 0.2280401696682E+01
 0.1236007260926E+01
 0.4564433813209E+01
 0.4593502211046E+01
 0.4579141923709E+01
 0.4503928475847E+01
 0.4346317693365E+01
 0.4079630486101E+01
 0.3671478159824E+01
 0.3084519825094E+01
 0.2280401696637E+01
 0.1236007260958E+01
 0.4482008189698E+01
 0.4499819661196E+01
 0.4474966424965E+01
 0.4391725908941E+01
 0.4230829477320E+01
 0.3968278723945E+01
 0.3574158495495E+01
 0.3011923795218E+01
 0.2240155046093E+01
 0.1226614469634E+01
 0.4320212214946E+01
 0.4315108421374E+01
 0.4268184364529E+01
 0.4166797279056E+01
 0.3996015683936E+01
 0.3737249385852E+01
 0.3366347452835E+01
 0.2850883948797E+01
 0.2146876926074E+01
 0.1204740384866E+01
 0.4085759627562E+01
 0.4045823648060E+01
 0.3963785241517E+01
 0.3830945298472E+01
 0.3638196635761E+01
 0.3374681855589E+01
 0.3025786819672E+01
 0.2569528270823E+01
 0.1968976987446E+01
 0.1159351691743E+01
 0.3789536697133E+01
 0.3703264884728E+01
 0.3572311317988E+01
 0.3392089665394E+01
 0.3159801074365E+01
 0.2873382645465E+01
 0.2530261412878E+01
 0.2125400204705E+01
 0.1645826969732E+01
 0.1049398280883E+01
 0.3446976739817E+01
 0.3304849528067E+01
 0.3112964473185E+01
 0.2870191344986E+01
 0.2579533051984E+01
 0.2246722286288E+01
 0.1880338026562E+01
 0.1493393505372E+01
 0.1106936568575E+01
 0.7542244022465E+00
 0.3079463976389E+01
 0.2879028778018E+01
 0.2623109940531E+01
 0.2314991451305E+01
 0.1963803663500E+01
 0.1582077728375E+01
 0.1187228585743E+01
 0.8069251100044E+00
 0.4899766761678E+00
 0.3417796712607E+00
 0.2712327504447E+01
 0.2461551171794E+01
 0.2152979306806E+01
 0.1799434291843E+01
 0.1418946674798E+01
 0.1030714595107E+01
 0.6602540137380E+00
 0.3458609684275E+00
 0.1483097139786E+00
 0.1711448664463E+00
 0.2365321553475E+01
 0.2073653719272E+01
 0.1730780639344E+01
 0.1367172279738E+01
 0.1003228472761E+01
 0.6606039532632E+00
 0.3680384466637E+00
 0.1639125809851E+00
 0.9750004543379E-01
 0.2160507727972E+00
 0.2038950748743E+01
 0.1701999830373E+01
 0.1365404333959E+01
 0.1035276503111E+01
 0.7235252335584E+00
 0.4499814022664E+00
 0.2393052489363E+00
 0.1186318416352E+00
 0.1111193341178E+00
 0.2255355224421E+00
</DataArray>
<DataArray type="Float64" Name="S_Hyd" NumberOfComponents="1" ComponentName0="S_Hyd" format="ascii">
 0.1879237173267E+01
 0.1323224215880E+01
 0.1285611151642E+01
 0.1261162909651E+01
 0.1268694550131E+01
 0.1290535154659E+01
 0.1326855769495E+01
 0.1379019982064E+01
 0.1453093099044E+01
 0.1565307695886E+01
 0.1730033981176E+01
 0.1920384235998E+01
 0.2101826969732E+01
 0.2278104763589E+01
 0.2460920442208E+01
 0.2651674401116E+01
 0.2852967406501E+01
 0.3125591261208E+01
 0.3424443454371E+01
 0.4561929891301E+01
 0.1083583062439E+01
 0.1719269819387E+01
 0.1452955812937E+01
 0.1325034709186E+01
 0.1301916194762E+01
 0.1299378713244E+01
 0.1317028822866E+01
 0.1349803318099E+01
 0.1399356454133E+01
 0.1471332702308E+01
 0.1576295645087E+01
 0.1715867848442E+01
 0.1871121051003E+01
 0.2022232367949E+01
 0.2165602701191E+01
 0.2303398003718E+01
 0.2432443654156E+01
 0.2556133449304E+01
 0.2653626321995E+01
 0.2785416819406E+01
 0.2383523042635E+01
-0.1083636630673E+01
 0.1655719040883E+01
 0.1489379158735E+01
 0.1374559976832E+01
 0.1334406150497E+01
 0.1328078361240E+01
 0.1340718439360E+01
 0.1369967864956E+01
 0.1416127854754E+01
 0.1483574945785E+01
 0.1577446974161E+01
 0.1694654382595E+01
 0.1820942590210E+01
 0.1942301043874E+01
 0.2052275053121E+01
 0.2146700323579E+01
 0.2219598740223E+01
 0.2256236029653E+01
 0.2234582238020E+01
 0.2039838787753E+01
 0.1106687244334E+01
-0.1506497125025E+01
 0.1623219279832E+01
 0.1504655733333E+01
 0.1409814697074E+01
 0.1364653614745E+01
 0.1353093389346E+01
 0.1361886825704E+01
 0.1387251285354E+01
 0.1429246067478E+01
 0.1490248183322E+01
 0.1571756921065E+01
 0.1668714620785E+01
 0.1769483553763E+01
 0.1862674463684E+01
 0.1940118527403E+01
 0.1994112196768E+01
 0.2013027742241E+01
 0.1975985880521E+01
 0.1834408734963E+01
 0.1431458519985E+01
 0.4186646419103E+00
-0.1524696687384E+01
 0.1604512636969E+01
 0.1513181121872E+01
 0.1434741045704E+01
 0.1390368438063E+01
 0.1375155529874E+01
 0.1380307330846E+01
 0.1401746942414E+01
 0.1438837388717E+01
 0.1492275327973E+01
 0.1561163478504E+01
 0.1639541636856E+01
 0.1717251434573E+01
 0.1784112463843E+01
 0.1830923483271E+01
 0.1847279101179E+01
 0.1818112695589E+01
 0.1716555711737E+01
 0.1482229883100E+01
 0.9849973919823E+00
 0.3699067567653E-01
-0.1442229245127E+01
 0.1593047274901E+01
 0.1518968831135E+01
 0.1453031501310E+01
 0.1411476807889E+01
 0.1394233152906E+01
 0.1396107451534E+01
 0.1413546654706E+01
 0.1445252761591E+01
 0.1490573739186E+01
 0.1547058924766E+01
 0.1608294386498E+01
 0.1664972738012E+01
 0.1707505063778E+01
 0.1725971037278E+01
 0.1708303966611E+01
 0.1637314393516E+01
 0.1483279292319E+01
 0.1189686603333E+01
 0.6654921716319E+00
-0.1813606960732E+00
-0.1340344381006E+01
 0.1585727747813E+01
 0.1523393231651E+01
 0.1466924944325E+01
 0.1428626941920E+01
 0.1410400771521E+01
 0.1409425027139E+01
 0.1422850065725E+01
 0.1448922661091E+01
 0.1485968948894E+01
 0.1530522476787E+01
 0.1575936233323E+01
 0.1613418492367E+01
 0.1633687028937E+01
 0.1626410116013E+01
 0.1578695057298E+01
 0.1472582061753E+01
 0.1279444528320E+01
 0.9536089526069E+00
 0.4372674744188E+00
-0.3082117505259E+00
-0.1242581624759E+01
 0.1580891101615E+01
 0.1526988498352E+01
 0.1477752828051E+01
 0.1442531139403E+01
 0.1423888517068E+01
 0.1420433524369E+01
 0.1429915720704E+01
 0.1450301634776E+01
 0.1479184451385E+01
 0.1512432354469E+01
 0.1543292589046E+01
 0.1563315018687E+01
 0.1563421643683E+01
 0.1533162481819E+01
 0.1459513484031E+01
 0.1325105481559E+01
 0.1105024204510E+01
 0.7656088109865E+00
 0.2735018490359E+00
-0.3812003537857E+00
-0.1153641054295E+01
 0.1577574979528E+01
 0.1529983705790E+01
 0.1486337279020E+01
 0.1453799129065E+01
 0.1434999538698E+01
 0.1429351735937E+01
 0.1435031544734E+01
 0.1449835607847E+01
 0.1470852629524E+01
 0.1493523752509E+01
 0.1511074532890E+01
 0.1515315057046E+01
 0.1497364545939E+01
 0.1446918846231E+01
 0.1351410333229E+01
 0.1195095356924E+01
 0.9578653464139E+00
 0.6167830363857E+00
 0.1551414565944E+00
-0.4208667967500E+00
-0.1071926226722E+01
 0.1575199593557E+01
 0.1532490258818E+01
 0.1493211846375E+01
 0.1462921218752E+01
 0.1444051397312E+01
 0.1436428490911E+01
 0.1438496981991E+01
 0.1447945545339E+01
 0.1461526661212E+01
 0.1474420846064E+01
 0.1479893230959E+01
 0.1469984520083E+01
 0.1436048167862E+01
 0.1368151909589E+01
 0.1254631511415E+01
 0.1081958334218E+01
 0.8349163921262E+00
 0.4992228148048E+00
 0.6926684457384E-01
-0.4409948575213E+00
-0.9911184938334E+00
 0.1573424936584E+01
 0.1534580213977E+01
 0.1498744004609E+01
 0.1470281719447E+01
 0.1451336192042E+01
 0.1441911356816E+01
 0.1440602751858E+01
 0.1445026767097E+01
 0.1451721616066E+01
 0.1455727484332E+01
 0.1450398274956E+01
 0.1428003077943E+01
 0.1380179360284E+01
 0.1297538561872E+01
 0.1169593907336E+01
 0.9852228453865E+00
 0.7336204599759E+00
 0.4071066390378E+00
 0.7150932554414E-02
-0.4487566178278E+00
-0.9213040006154E+00
 0.1572006157398E+01
 0.1536287998680E+01
 0.1503185233417E+01
 0.1476189878670E+01
 0.1457133815325E+01
 0.1446063596571E+01
 0.1441645889002E+01
 0.1441445894767E+01
 0.1441871823888E+01
 0.1437906338179E+01
 0.1423026296600E+01
 0.1389734999924E+01
 0.1329998830099E+01
 0.1235082753514E+01
 0.1095796371414E+01
 0.9033501353772E+00
 0.6506719360736E+00
 0.3349521569938E+00
-0.3790592838779E-01
-0.4490020236416E+00
-0.8658164045380E+00
 0.1570830998266E+01
 0.1537664783390E+01
 0.1506744113242E+01
 0.1480911038390E+01
 0.1461704789278E+01
 0.1449138259802E+01
 0.1441896234449E+01
 0.1437503294602E+01
 0.1432291939985E+01
 0.1421240593053E+01
 0.1397969667436E+01
 0.1355221365329E+01
 0.1285320113847E+01
 0.1180237378610E+01
 0.1032087280144E+01
 0.8342129705315E+00
 0.5826049925324E+00
 0.2780169257835E+00
-0.7090435723962E-01
-0.4453600308279E+00
-0.8178896868726E+00
 0.1569829218327E+01
 0.1538753154194E+01
 0.1509573369131E+01
 0.1484648899647E+01
 0.1465260445224E+01
 0.1451350298355E+01
 0.1441590074352E+01
 0.1433471154925E+01
 0.1423286417654E+01
 0.1406044031825E+01
 0.1375517869260E+01
 0.1324687974986E+01
 0.1246246349218E+01
 0.1132871782241E+01
 0.9779073420052E+00
 0.7765549137290E+00
 0.5272480920490E+00
 0.2333033293568E+00
-0.9501902063680E-01
-0.4396344190075E+00
-0.7769141884564E+00
 0.1568967097523E+01
 0.1539594206927E+01
 0.1511794668066E+01
 0.1487569892382E+01
 0.1467982191025E+01
 0.1452890258912E+01
 0.1440936612811E+01
 0.1429585489722E+01
 0.1415113375463E+01
 0.1392577332231E+01
 0.1355904340052E+01
 0.1298302446907E+01
 0.1212820045897E+01
 0.1092801598946E+01
 0.9326887940175E+00
 0.7292428067636E+00
 0.4827998479566E+00
 0.1984883575866E+00
-0.1125315360351E+00
-0.4330750400220E+00
-0.7421737145303E+00
 0.1568233481593E+01
 0.1540226803781E+01
 0.1513505724026E+01
 0.1489809415399E+01
 0.1470022772836E+01
 0.1453922413178E+01
 0.1440116194364E+01
 0.1426046621630E+01
 0.1407987820046E+01
 0.1381053370282E+01
 0.1339313557443E+01
 0.1276184771759E+01
 0.1185041471846E+01
 0.1059819854141E+01
 0.8958974854112E+00
 0.6912968025235E+00
 0.4477990665970E+00
 0.1717921267563E+00
-0.1250999159176E+00
-0.4265229226340E+00
-0.7135073524819E+00
 0.1567630191098E+01
 0.1540686186940E+01
 0.1514784503296E+01
 0.1491475974743E+01
 0.1471507540290E+01
 0.1454583870604E+01
 0.1439279390311E+01
 0.1423019862798E+01
 0.1402084434251E+01
 0.1371641898865E+01
 0.1325887721802E+01
 0.1258417525101E+01
 0.1162885304479E+01
 0.1033721955692E+01
 0.8670611203292E+00
 0.6619026676857E+00
 0.4210909580152E+00
 0.1518684864323E+00
-0.1339198791243E+00
-0.4206241330212E+00
-0.6907642128888E+00
 0.1567165311315E+01
 0.1541002529238E+01
 0.1515691652722E+01
 0.1492653930460E+01
 0.1472535525460E+01
 0.1454984251821E+01
 0.1438546621193E+01
 0.1420636270399E+01
 0.1397539954444E+01
 0.1364473582072E+01
 0.1315732753387E+01
 0.1245055032085E+01
 0.1146314694655E+01
 0.1014324671764E+01
 0.8457873161786E+00
 0.6404145627443E+00
 0.4017937521203E+00
 0.1377259728824E+00
-0.1398537413603E+00
-0.4158413471902E+00
-0.6738233718020E+00
 0.1566848507557E+01
 0.1541199651444E+01
 0.1516271868894E+01
 0.1493405291212E+01
 0.1473180290452E+01
 0.1455205648276E+01
 0.1438008084059E+01
 0.1418993380427E+01
 0.1394455138169E+01
 0.1359643352577E+01
 0.1308923389437E+01
 0.1236131069763E+01
 0.1135292459791E+01
 0.1001479901384E+01
 0.8317747841896E+00
 0.6263529088987E+00
 0.3892712683093E+00
 0.1286664908009E+00
-0.1434984588703E+00
-0.4124908783868E+00
-0.6625869931710E+00
 0.1566687851472E+01
 0.1541294010859E+01
 0.1516554643480E+01
 0.1493770850022E+01
 0.1473490544632E+01
 0.1455302701549E+01
 0.1437723821422E+01
 0.1418155834698E+01
 0.1392896287082E+01
 0.1357213013130E+01
 0.1305507170065E+01
 0.1231664803674E+01
 0.1129789326803E+01
 0.9950840983465E+00
 0.8248198220838E+00
 0.6194008275565E+00
 0.3831113028521E+00
 0.1242450550763E+00
-0.1452299965959E+00
-0.4107688084611E+00
-0.6569864968142E+00
 0.1566687851464E+01
 0.1541294010852E+01
 0.1516554643470E+01
 0.1493770850010E+01
 0.1473490544620E+01
 0.1455302701542E+01
 0.1437723821428E+01
 0.1418155834728E+01
 0.1392896287150E+01
 0.1357213013251E+01
 0.1305507170255E+01
 0.1231664803948E+01
 0.1129789327170E+01
 0.9950840988039E+00
 0.8248198226123E+00
 0.6194008281117E+00
 0.3831113033613E+00
 0.1242450554425E+00
-0.1452299964804E+00
-0.4107688086936E+00
-0.6569864974594E+00
 0.1566848507535E+01
 0.1541199651422E+01
 0.1516271868866E+01
 0.1493405291176E+01
 0.1473180290416E+01
 0.1455205648254E+01
 0.1438008084076E+01
 0.1418993380515E+01
 0.1394455138370E+01
 0.1359643352938E+01
 0.1308923390006E+01
 0.1236131070584E+01
 0.1135292460891E+01
 0.1001479902759E+01
 0.8317747857828E+00
 0.6263529105773E+00
 0.3892712698551E+00
 0.1286664919202E+00
-0.1434984585050E+00
-0.4124908790737E+00
-0.6625869951082E+00
 0.1567165311279E+01
 0.1541002529201E+01
 0.1515691652674E+01
 0.1492653930400E+01
 0.1472535525397E+01
 0.1454984251781E+01
 0.1438546621216E+01
 0.1420636270541E+01
 0.1397539954773E+01
 0.1364473582667E+01
 0.1315732754330E+01
 0.1245055033449E+01
 0.1146314696490E+01
 0.1014324674068E+01
 0.8457873188598E+00
 0.6404145655857E+00
 0.4017937547574E+00
 0.1377259748183E+00
-0.1398537406875E+00
-0.4158413482980E+00
-0.6738233750364E+00
 0.1567630191049E+01
 0.1540686186889E+01
 0.1514784503228E+01
 0.1491475974655E+01
 0.1471507540198E+01
 0.1454583870542E+01
 0.1439279390336E+01
 0.1423019862986E+01
 0.1402084434699E+01
 0.1371641899684E+01
 0.1325887723108E+01
 0.1258417527003E+01
 0.1162885307052E+01
 0.1033721958941E+01
 0.8670611241366E+00
 0.6619026717558E+00
 0.4210909618372E+00
 0.1518684892940E+00
-0.1339198780436E+00
-0.4206241344906E+00
-0.6907642174295E+00
 0.1568233481529E+01
 0.1540226803715E+01
 0.1513505723937E+01
 0.1489809415283E+01
 0.1470022772711E+01
 0.1453922413088E+01
 0.1440116194381E+01
 0.1426046621852E+01
 0.1407987820599E+01
 0.1381053371311E+01
 0.1339313559100E+01
 0.1276184774190E+01
 0.1185041475159E+01
 0.1059819858357E+01
 0.8958974903972E+00
 0.6912968079152E+00
 0.4477990717381E+00
 0.1717921307048E+00
-0.1250999142776E+00
-0.4265229243741E+00
-0.7135073583433E+00
 0.1568967097446E+01
 0.1539594206847E+01
 0.1511794667955E+01
 0.1487569892233E+01
 0.1467982190861E+01
 0.1452890258786E+01
 0.1440936612810E+01
 0.1429585489965E+01
 0.1415113376104E+01
 0.1392577333450E+01
 0.1355904342041E+01
 0.1298302449853E+01
 0.1212820049948E+01
 0.1092801604152E+01
 0.9326888002463E+00
 0.7292428135958E+00
 0.4827998545958E+00
 0.1984883628428E+00
-0.1125315336219E+00
-0.4330750419004E+00
-0.7421737217329E+00
 0.1569829218236E+01
 0.1538753154098E+01
 0.1509573368995E+01
 0.1484648899462E+01
 0.1465260445015E+01
 0.1451350298184E+01
 0.1441590074319E+01
 0.1433471155172E+01
 0.1423286418362E+01
 0.1406044033210E+01
 0.1375517871558E+01
 0.1324687978429E+01
 0.1246246354004E+01
 0.1132871788463E+01
 0.9779073495507E+00
 0.7765549221472E+00
 0.5272481004138E+00
 0.2333033362124E+00
-0.9501901715576E-01
-0.4396344208327E+00
-0.7769141970266E+00
 0.1570830998162E+01
 0.1537664783280E+01
 0.1506744113082E+01
 0.1480911038165E+01
 0.1461704789016E+01
 0.1449138259574E+01
 0.1441896234369E+01
 0.1437503294831E+01
 0.1432291940733E+01
 0.1421240594575E+01
 0.1397969670012E+01
 0.1355221369245E+01
 0.1285320119357E+01
 0.1180237385869E+01
 0.1032087289085E+01
 0.8342129807047E+00
 0.5826050029040E+00
 0.2780169346144E+00
-0.7090435228995E-01
-0.4453600323228E+00
-0.8178896968326E+00
 0.1572006157282E+01
 0.1536287998556E+01
 0.1503185233228E+01
 0.1476189878399E+01
 0.1457133815002E+01
 0.1446063596275E+01
 0.1441645888858E+01
 0.1441445894955E+01
 0.1441871824647E+01
 0.1437906339801E+01
 0.1423026299417E+01
 0.1389735004279E+01
 0.1329998836316E+01
 0.1235082761823E+01
 0.1095796381829E+01
 0.9033501474940E+00
 0.6506719487893E+00
 0.3349521682847E+00
-0.3790592144841E-01
-0.4490020243652E+00
-0.8658164159231E+00
 0.1573424936456E+01
 0.1534580213839E+01
 0.1498744004390E+01
 0.1470281719123E+01
 0.1451336191647E+01
 0.1441911356437E+01
 0.1440602751631E+01
 0.1445026767217E+01
 0.1451721616799E+01
 0.1455727486013E+01
 0.1450398277969E+01
 0.1428003082696E+01
 0.1380179367177E+01
 0.1297538571232E+01
 0.1169593919296E+01
 0.9852228596458E+00
 0.7336204754330E+00
 0.4071066533968E+00
 0.7150942214248E-02
-0.4487566172978E+00
-0.9213040129224E+00
 0.1575199593434E+01
 0.1532490258676E+01
 0.1493211846135E+01
 0.1462921218384E+01
 0.1444051396855E+01
 0.1436428490454E+01
 0.1438496981670E+01
 0.1447945545351E+01
 0.1461526661835E+01
 0.1474420847656E+01
 0.1479893233940E+01
 0.1469984524906E+01
 0.1436048174987E+01
 0.1368151919436E+01
 0.1254631524258E+01
 0.1081958349950E+01
 0.8349164098057E+00
 0.4992228320637E+00
 0.6926685721813E-01
-0.4409948550362E+00
-0.9911185066427E+00
 0.1577574979396E+01
 0.1529983705638E+01
 0.1486337278757E+01
 0.1453799128661E+01
 0.1434999538193E+01
 0.1429351735417E+01
 0.1435031544325E+01
 0.1449835607735E+01
 0.1470852629974E+01
 0.1493523753881E+01
 0.1511074535614E+01
 0.1515315061593E+01
 0.1497364552796E+01
 0.1446918855884E+01
 0.1351410346091E+01
 0.1195095373142E+01
 0.9578653653837E+00
 0.6167830559451E+00
 0.1551414722333E+00
-0.4208667917779E+00
-0.1071926238935E+01
 0.1580891101474E+01
 0.1526988498190E+01
 0.1477752827765E+01
 0.1442531138964E+01
 0.1423888516521E+01
 0.1420433523795E+01
 0.1429915720216E+01
 0.1450301634535E+01
 0.1479184451643E+01
 0.1512432355579E+01
 0.1543292591441E+01
 0.1563315022841E+01
 0.1563421650098E+01
 0.1533162491023E+01
 0.1459513496560E+01
 0.1325105497834E+01
 0.1105024224393E+01
 0.7656088327838E+00
 0.2735018681173E+00
-0.3812003455376E+00
-0.1153641065960E+01
 0.1585727747664E+01
 0.1523393231481E+01
 0.1466924944016E+01
 0.1428626941451E+01
 0.1410400770943E+01
 0.1409425026526E+01
 0.1422850065170E+01
 0.1448922660730E+01
 0.1485968948954E+01
 0.1530522477606E+01
 0.1575936235329E+01
 0.1613418496028E+01
 0.1633687034747E+01
 0.1626410124516E+01
 0.1578695069115E+01
 0.1472582077553E+01
 0.1279444548524E+01
 0.9536089763321E+00
 0.4372674973484E+00
-0.3082117380670E+00
-0.1242581635417E+01
 0.1593047274747E+01
 0.1518968830956E+01
 0.1453031500977E+01
 0.1411476807395E+01
 0.1394233152310E+01
 0.1396107450902E+01
 0.1413546654105E+01
 0.1445252761128E+01
 0.1490573739054E+01
 0.1547058925281E+01
 0.1608294388075E+01
 0.1664972741101E+01
 0.1707505068841E+01
 0.1725971044842E+01
 0.1708303977332E+01
 0.1637314408229E+01
 0.1483279311988E+01
 0.1189686628263E+01
 0.6654921985965E+00
-0.1813606780984E+00
-0.1340344389915E+01
 0.1604512636809E+01
 0.1513181121685E+01
 0.1434741045346E+01
 0.1390368437553E+01
 0.1375155529282E+01
 0.1380307330219E+01
 0.1401746941796E+01
 0.1438837388182E+01
 0.1492275327672E+01
 0.1561163478721E+01
 0.1639541637988E+01
 0.1717251437036E+01
 0.1784112468047E+01
 0.1830923489686E+01
 0.1847279110440E+01
 0.1818112708581E+01
 0.1716555729765E+01
 0.1482229907858E+01
 0.9849974226111E+00
 0.3699070083136E-01
-0.1442229250955E+01
 0.1623219279669E+01
 0.1504655733133E+01
 0.1409814696690E+01
 0.1364653614239E+01
 0.1353093388784E+01
 0.1361886825110E+01
 0.1387251284755E+01
 0.1429246066914E+01
 0.1490248182895E+01
 0.1571756921014E+01
 0.1668714621479E+01
 0.1769483555577E+01
 0.1862674466949E+01
 0.1940118532501E+01
 0.1994112204248E+01
 0.2013027752940E+01
 0.1975985895720E+01
 0.1834408757304E+01
 0.1431458552557E+01
 0.4186646760127E+00
-0.1524696687671E+01
 0.1655719040720E+01
 0.1489379158514E+01
 0.1374559976424E+01
 0.1334406150027E+01
 0.1328078360737E+01
 0.1340718438833E+01
 0.1369967864417E+01
 0.1416127854216E+01
 0.1483574945298E+01
 0.1577446973902E+01
 0.1694654382892E+01
 0.1820942591387E+01
 0.1942301046161E+01
 0.2052275056787E+01
 0.2146700329037E+01
 0.2219598748130E+01
 0.2256236041110E+01
 0.2234582255151E+01
 0.2039838817653E+01
 0.1106687287925E+01
-0.1506497115374E+01
 0.1719269819238E+01
 0.1452955812663E+01
 0.1325034708792E+01
 0.1301916194369E+01
 0.1299378712829E+01
 0.1317028822440E+01
 0.1349803317661E+01
 0.1399356453684E+01
 0.1471332701854E+01
 0.1576295644720E+01
 0.1715867848424E+01
 0.1871121051589E+01
 0.2022232369258E+01
 0.2165602703373E+01
 0.2303398007025E+01
 0.2432443658916E+01
 0.2556133456320E+01
 0.2653626332341E+01
 0.2785416838197E+01
 0.2383523088886E+01
-0.1083636604449E+01
 0.1879237173107E+01
 0.1323224215551E+01
 0.1285611151359E+01
 0.1261162909359E+01
 0.1268694549841E+01
 0.1290535154366E+01
 0.1326855769199E+01
 0.1379019981764E+01
 0.1453093098731E+01
 0.1565307695578E+01
 0.1730033980990E+01
 0.1920384236059E+01
 0.2101826970091E+01
 0.2278104764315E+01
 0.2460920443342E+01
 0.2651674402634E+01
 0.2852967408494E+01
 0.3125591264703E+01
 0.3424443457176E+01
 0.4561929915438E+01
 0.1083583086491E+01
 0.1769786333911E+01
 0.1630942891179E+01
 0.1502414476212E+01
 0.1397428665262E+01
 0.1314824291233E+01
 0.1261057172767E+01
 0.1234322404465E+01
 0.1225423669801E+01
 0.1231730210606E+01
 0.1309223655065E+01
 0.1859786315145E+01
 0.1697853912274E+01
 0.1564215836602E+01
 0.1455626124622E+01
 0.1375428453843E+01
 0.1324805705914E+01
 0.1303345452827E+01
 0.1307914976887E+01
 0.1348747036369E+01
 0.1395460804265E+01
 0.1940160033122E+01
 0.1763581321111E+01
 0.1620592135836E+01
 0.1509588016289E+01
 0.1430211002339E+01
 0.1383537033999E+01
 0.1369721687367E+01
 0.1390000273439E+01
 0.1441093070784E+01
 0.1517453704469E+01
 0.2014404503569E+01
 0.1823348233805E+01
 0.1672215280155E+01
 0.1557954989948E+01
 0.1479455639459E+01
 0.1436940882486E+01
 0.1431523587619E+01
 0.1463394844826E+01
 0.1533996508072E+01
 0.1645203015234E+01
 0.2081051612480E+01
 0.1876579970686E+01
 0.1717789267799E+01
 0.1600495391850E+01
 0.1522710167818E+01
 0.1484358372803E+01
 0.1486462520027E+01
 0.1530941212273E+01
 0.1622507513660E+01
 0.1770088344846E+01
 0.2138862667316E+01
 0.1922351757263E+01
 0.1756729137281E+01
 0.1636688849344E+01
 0.1559567774099E+01
 0.1524942794156E+01
 0.1534273920368E+01
 0.1591095663288E+01
 0.1703185621894E+01
 0.1885162484667E+01
 0.2186646830077E+01
 0.1959919896581E+01
 0.1788506358353E+01
 0.1666139447693E+01
 0.1589576271648E+01
 0.1558239779188E+01
 0.1574093686510E+01
 0.1642171049114E+01
 0.1772703356978E+01
 0.1983808181697E+01
 0.2223403896253E+01
 0.1988659480267E+01
 0.1812706645692E+01
 0.1688512462442E+01
 0.1612406714110E+01
 0.1583757283685E+01
 0.1605014235325E+01
 0.1682401314677E+01
 0.1827865977386E+01
 0.2061249812626E+01
 0.2248354012989E+01
 0.2008091017652E+01
 0.1829014818451E+01
 0.1703564364783E+01
 0.1627789366768E+01
 0.1601056108203E+01
 0.1626184017095E+01
 0.1710201493104E+01
 0.1866065571015E+01
 0.2114512415050E+01
 0.2260964289328E+01
 0.2017888910458E+01
 0.1837221346246E+01
 0.1711131479488E+01
 0.1635531556807E+01
 0.1609797827169E+01
 0.1636947161169E+01
 0.1724402710483E+01
 0.1885595150132E+01
 0.2141639820286E+01
 0.2260964288279E+01
 0.2017888909810E+01
 0.1837221345857E+01
 0.1711131479267E+01
 0.1635531556693E+01
 0.1609797827116E+01
 0.1636947161144E+01
 0.1724402710467E+01
 0.1885595150121E+01
 0.2141639820283E+01
 0.2248354009866E+01
 0.2008091015720E+01
 0.1829014817293E+01
 0.1703564364124E+01
 0.1627789366428E+01
 0.1601056108045E+01
 0.1626184017020E+01
 0.1710201493057E+01
 0.1866065570982E+01
 0.2114512415041E+01
 0.2223403891124E+01
 0.1988659477090E+01
 0.1812706643786E+01
 0.1688512461360E+01
 0.1612406713554E+01
 0.1583757283430E+01
 0.1605014235206E+01
 0.1682401314603E+01
 0.1827865977330E+01
 0.2061249812608E+01
 0.2186646823054E+01
 0.1959919892220E+01
 0.1788506355735E+01
 0.1666139446210E+01
 0.1589576270891E+01
 0.1558239778845E+01
 0.1574093686352E+01
 0.1642171049017E+01
 0.1772703356902E+01
 0.1983808181662E+01
 0.2138862658546E+01
 0.1922351751799E+01
 0.1756729134000E+01
 0.1636688847493E+01
 0.1559567773164E+01
 0.1524942793739E+01
 0.1534273920179E+01
 0.1591095663172E+01
 0.1703185621802E+01
 0.1885162484610E+01
 0.2081051602140E+01
 0.1876579964218E+01
 0.1717789263914E+01
 0.1600495389673E+01
 0.1522710166730E+01
 0.1484358372325E+01
 0.1486462519812E+01
 0.1530941212141E+01
 0.1622507513555E+01
 0.1770088344768E+01
 0.2014404491851E+01
 0.1823348226441E+01
 0.1672215275740E+01
 0.1557954987495E+01
 0.1479455638251E+01
 0.1436940881961E+01
 0.1431523587381E+01
 0.1463394844678E+01
 0.1533996507954E+01
 0.1645203015142E+01
 0.1940160020201E+01
 0.1763581312963E+01
 0.1620592130979E+01
 0.1509588013635E+01
 0.1430211001050E+01
 0.1383537033437E+01
 0.1369721687098E+01
 0.1390000273267E+01
 0.1441093070654E+01
 0.1517453704365E+01
 0.1859786301159E+01
 0.1697853903419E+01
 0.1564215831446E+01
 0.1455626121850E+01
 0.1375428452522E+01
 0.1324805705324E+01
 0.1303345452507E+01
 0.1307914976666E+01
 0.1348747036223E+01
 0.1395460804162E+01
 0.1769786318434E+01
 0.1630942881978E+01
 0.1502414470840E+01
 0.1397428662503E+01
 0.1314824289979E+01
 0.1261057172121E+01
 0.1234322404042E+01
 0.1225423669516E+01
 0.1231730210422E+01
 0.1309223654980E+01
 0.3069928120524E+01
 0.3683367747900E-01
-0.1280395754764E+00
-0.1721959184474E+00
-0.1775346956089E+00
-0.1726725342212E+00
-0.1840071051341E+00
-0.1878303892273E+00
-0.2019010007830E+00
-0.1840957652358E+00
 0.1767017792634E+01
 0.8438256197956E+00
 0.1504739018421E+00
 0.8001746535818E-02
-0.3591496398986E-01
-0.5682355788027E-01
-0.7328352670216E-01
-0.8076493547104E-01
-0.7377903012968E-01
-0.6405556742633E-01
 0.1461213863334E+01
 0.9235479154656E+00
 0.4844362149612E+00
 0.2171735099544E+00
 0.1244502186842E+00
 0.7842134638929E-01
 0.5273862779927E-01
 0.4628390587146E-01
 0.5976714376388E-01
 0.9290478984771E-01
 0.1357338839449E+01
 0.9933712901368E+00
 0.6685930304775E+00
 0.4344192483856E+00
 0.2993727502941E+00
 0.2295175828463E+00
 0.1948439566154E+00
 0.1872109962710E+00
 0.2097031407831E+00
 0.2641814462684E+00
 0.1345851537665E+01
 0.1066538457667E+01
 0.8133905029429E+00
 0.6136727307181E+00
 0.4772104973747E+00
 0.3912921689453E+00
 0.3491023435675E+00
 0.3408745876499E+00
 0.3699155372583E+00
 0.4395420699227E+00
 0.1379908661859E+01
 0.1150065307622E+01
 0.9413830368595E+00
 0.7717322863242E+00
 0.6446572856160E+00
 0.5564710585119E+00
 0.5105726538888E+00
 0.5022249165839E+00
 0.5336906874777E+00
 0.6093283082397E+00
 0.1439663944990E+01
 0.1241320686088E+01
 0.1063119609823E+01
 0.9166856704359E+00
 0.8023696654876E+00
 0.7188121421661E+00
 0.6734342883019E+00
 0.6650732334081E+00
 0.6934472921028E+00
 0.7663657290251E+00
 0.1513950716751E+01
 0.1337506977169E+01
 0.1181670778414E+01
 0.1053436987333E+01
 0.9516731434413E+00
 0.8756570387771E+00
 0.8337384065667E+00
 0.8230140359835E+00
 0.8426715005424E+00
 0.9029726805557E+00
 0.1595399361932E+01
 0.1435603177167E+01
 0.1297338984181E+01
 0.1184049756287E+01
 0.1093366420967E+01
 0.1025484240269E+01
 0.9876129610940E+00
 0.9787012470148E+00
 0.9721634452459E+00
 0.1009552332906E+01
 0.1677346449260E+01
 0.1532124353521E+01
 0.1410057219628E+01
 0.1308069622615E+01
 0.1227832563209E+01
 0.1166822355559E+01
 0.1131556608481E+01
 0.1124386148592E+01
 0.1126311162416E+01
 0.1028764867318E+01
 0.1677346435352E+01
 0.1532124344066E+01
 0.1410057213516E+01
 0.1308069618846E+01
 0.1227832561110E+01
 0.1166822354541E+01
 0.1131556607966E+01
 0.1124386148326E+01
 0.1126311162304E+01
 0.1028764867313E+01
 0.1595399349377E+01
 0.1435603168727E+01
 0.1297338978585E+01
 0.1184049752795E+01
 0.1093366418974E+01
 0.1025484239261E+01
 0.9876129605918E+00
 0.9787012467738E+00
 0.9721634451223E+00
 0.1009552332756E+01
 0.1513950706510E+01
 0.1337506969930E+01
 0.1181670773498E+01
 0.1053436984154E+01
 0.9516731415742E+00
 0.8756570378276E+00
 0.8337384061161E+00
 0.8230140357843E+00
 0.8426715004062E+00
 0.9029726803393E+00
 0.1439663937505E+01
 0.1241320680282E+01
 0.1063119605618E+01
 0.9166856675594E+00
 0.8023696637446E+00
 0.7188121412971E+00
 0.6734342879357E+00
 0.6650732332763E+00
 0.6934472919826E+00
 0.7663657287598E+00
 0.1379908657492E+01
 0.1150065303327E+01
 0.9413830333056E+00
 0.7717322836693E+00
 0.6446572839817E+00
 0.5564710577527E+00
 0.5105726536415E+00
 0.5022249165388E+00
 0.5336906873906E+00
 0.6093283079376E+00
 0.1345851536779E+01
 0.1066538454836E+01
 0.8133904998288E+00
 0.6136727281588E+00
 0.4772104958521E+00
 0.3912921683534E+00
 0.3491023434656E+00
 0.3408745876924E+00
 0.3699155372130E+00
 0.4395420696051E+00
 0.1357338842582E+01
 0.9933712884993E+00
 0.6685930274229E+00
 0.4344192457906E+00
 0.2993727490068E+00
 0.2295175824900E+00
 0.1948439566586E+00
 0.1872109963809E+00
 0.2097031407811E+00
 0.2641814459741E+00
 0.1461213871390E+01
 0.9235479144040E+00
 0.4844362112058E+00
 0.2171735076345E+00
 0.1244502178330E+00
 0.7842134628604E-01
 0.5273862794967E-01
 0.4628390601426E-01
 0.5976714380161E-01
 0.9290478962148E-01
 0.1767017808256E+01
 0.8438256160180E+00
 0.1504738981664E+00
 0.8001745083089E-02
-0.3591496433510E-01
-0.5682355779893E-01
-0.7328352650766E-01
-0.8076493532323E-01
-0.7377903006613E-01
-0.6405556754815E-01
 0.3069928138554E+01
 0.3683367235105E-01
-0.1280395774367E+00
-0.1721959189037E+00
-0.1775346955732E+00
-0.1726725340678E+00
-0.1840071049315E+00
-0.1878303891186E+00
-0.2019010006631E+00
-0.1840957652927E+00
 0.1276896939977E+01
 0.1091630448086E+01
 0.9653198641747E+00
 0.8368734179218E+00
 0.6971955601983E+00
 0.5397337593329E+00
 0.3628567593631E+00
 0.1696476720722E+00
-0.2546787427257E-01
-0.2225180313988E+00
 0.1407358944641E+01
 0.1313320151769E+01
 0.1195189347386E+01
 0.1072770583369E+01
 0.9313142100315E+00
 0.7630441346197E+00
 0.5610660564009E+00
 0.3222259771656E+00
 0.5253736219361E-01
-0.2063987568173E+00
 0.1564838430433E+01
 0.1509764744126E+01
 0.1435172465963E+01
 0.1339784962220E+01
 0.1220524590727E+01
 0.1066932652847E+01
 0.8674162435543E+00
 0.6080954345095E+00
 0.2729555979584E+00
-0.1285110299208E+00
 0.1726416902684E+01
 0.1712530131867E+01
 0.1682580736186E+01
 0.1634382922928E+01
 0.1561700690486E+01
 0.1455192466849E+01
 0.1300691124472E+01
 0.1077474039085E+01
 0.7524631459181E+00
 0.2410658779268E+00
 0.1886612917426E+01
 0.1915349616220E+01
 0.1937120240887E+01
 0.1948350423369E+01
 0.1944074002479E+01
 0.1916411519504E+01
 0.1853827305743E+01
 0.1738979757783E+01
 0.1541804603937E+01
 0.1201306302562E+01
 0.2034650234165E+01
 0.2107624724164E+01
 0.2183824476628E+01
 0.2261682758349E+01
 0.2338703630366E+01
 0.2411220364332E+01
 0.2474140687283E+01
 0.2520970901222E+01
 0.2545936613045E+01
 0.2562564463387E+01
 0.2162570037552E+01
 0.2276609138359E+01
 0.2404565484816E+01
 0.2547352323032E+01
 0.2705864402478E+01
 0.2881181465755E+01
 0.3075179889479E+01
 0.3292405932605E+01
 0.3545319762944E+01
 0.3868567129875E+01
 0.2264478589533E+01
 0.2412641944485E+01
 0.2584346873747E+01
 0.2782710155965E+01
 0.3011617492599E+01
 0.3276004578544E+01
 0.3582587404940E+01
 0.3941237999206E+01
 0.4367281309628E+01
 0.4875398401925E+01
 0.2335337225353E+01
 0.2508065191948E+01
 0.2711399923005E+01
 0.2950167835574E+01
 0.3230344179627E+01
 0.3559258617111E+01
 0.3945835793080E+01
 0.4400732936399E+01
 0.4934771710366E+01
 0.5557228447707E+01
 0.2371674081469E+01
 0.2557330620824E+01
 0.2777300983875E+01
 0.3037349041739E+01
 0.3344504332472E+01
 0.3707153829734E+01
 0.4134858529594E+01
 0.4637558586619E+01
 0.5224392554269E+01
 0.5902492038145E+01
 0.2371674081458E+01
 0.2557330620780E+01
 0.2777300983784E+01
 0.3037349041585E+01
 0.3344504332233E+01
 0.3707153829382E+01
 0.4134858529102E+01
 0.4637558585956E+01
 0.5224392553412E+01
 0.5902492037077E+01
 0.2335337225324E+01
 0.2508065191821E+01
 0.2711399922742E+01
 0.2950167835127E+01
 0.3230344178933E+01
 0.3559258616093E+01
 0.3945835791646E+01
 0.4400732934456E+01
 0.4934771707832E+01
 0.5557228444523E+01
 0.2264478589485E+01
 0.2412641944284E+01
 0.2584346873334E+01
 0.2782710155265E+01
 0.3011617491516E+01
 0.3276004576953E+01
 0.3582587402686E+01
 0.3941237996105E+01
 0.4367281305520E+01
 0.4875398396687E+01
 0.2162570037488E+01
 0.2276609138098E+01
 0.2404565484285E+01
 0.2547352322140E+01
 0.2705864401105E+01
 0.2881181463745E+01
 0.3075179886623E+01
 0.3292405928627E+01
 0.3545319757465E+01
 0.3868567122697E+01
 0.2034650234087E+01
 0.2107624723856E+01
 0.2183824476018E+01
 0.2261682757340E+01
 0.2338703628834E+01
 0.2411220362115E+01
 0.2474140684162E+01
 0.2520970896876E+01
 0.2545936606960E+01
 0.2562564454535E+01
 0.1886612917327E+01
 0.1915349615884E+01
 0.1937120240242E+01
 0.1948350422331E+01
 0.1944074000943E+01
 0.1916411517342E+01
 0.1853827302787E+01
 0.1738979753801E+01
 0.1541804598560E+01
 0.1201306294805E+01
 0.1726416902580E+01
 0.1712530131538E+01
 0.1682580735569E+01
 0.1634382921964E+01
 0.1561700689113E+01
 0.1455192465002E+01
 0.1300691122088E+01
 0.1077474036115E+01
 0.7524631423716E+00
 0.2410658742579E+00
 0.1564838430336E+01
 0.1509764743816E+01
 0.1435172465403E+01
 0.1339784961379E+01
 0.1220524589587E+01
 0.1066932651411E+01
 0.8674162418584E+00
 0.6080954326702E+00
 0.2729555962710E+00
-0.1285110305027E+00
 0.1407358944549E+01
 0.1313320151484E+01
 0.1195189346892E+01
 0.1072770582663E+01
 0.9313142091263E+00
 0.7630441335554E+00
 0.5610660552639E+00
 0.3222259761155E+00
 0.5253736154157E-01
-0.2063987569702E+00
 0.1276896939869E+01
 0.1091630447836E+01
 0.9653198637755E+00
 0.8368734173739E+00
 0.6971955595271E+00
 0.5397337585917E+00
 0.3628567586386E+00
 0.1696476714976E+00
-0.2546787459566E-01
-0.2225180313556E+00
</DataArray>
<DataArray type="Float64" Name="S_Oct" NumberOfComponents="1" ComponentName0="S_Oct" format="ascii">
 0.1635907542355E+01
 0.1482132314335E+01
 0.1377591891166E+01
 0.1363770145058E+01
 0.1369529317817E+01
 0.1393689109728E+01
 0.1432691301263E+01
 0.1488895601006E+01
 0.1568366911344E+01
 0.1684533321474E+01
 0.1846674544580E+01
 0.2026757992609E+01
 0.2186767276294E+01
 0.2322381574880E+01
 0.2439671677632E+01
 0.2534627323715E+01
 0.2613878441498E+01
 0.2673747566393E+01
 0.2807996251456E+01
 0.2432069536876E+01
 0.4408086055817E+01
 0.1430356721067E+01
 0.1498684899104E+01
 0.1425883067898E+01
 0.1397039648784E+01
 0.1399041818261E+01
 0.1417942361018E+01
 0.1452707301546E+01
 0.1504324955075E+01
 0.1576730876567E+01
 0.1672621339767E+01
 0.1787024691258E+01
 0.1905708749009E+01
 0.2012869734026E+01
 0.2098246553927E+01
 0.2156086467908E+01
 0.2181943026467E+01
 0.2162227987104E+01
 0.2085205385864E+01
 0.1815275333308E+01
 0.1346039856707E+01
 0.3762292774273E+01
 0.1330318677044E+01
 0.1450370956325E+01
 0.1444705715646E+01
 0.1420443841769E+01
 0.1419759297369E+01
 0.1435031555676E+01
 0.1464683711128E+01
 0.1509241435985E+01
 0.1569155903346E+01
 0.1640949891595E+01
 0.1716788647078E+01
 0.1789177248358E+01
 0.1850668358990E+01
 0.1891191970927E+01
 0.1901405718460E+01
 0.1872101913863E+01
 0.1788164193282E+01
 0.1614548099171E+01
 0.1291336427271E+01
 0.1294769482549E+01
 0.3541207996439E+01
 0.1274019127976E+01
 0.1402321764364E+01
 0.1438608633235E+01
 0.1432362565152E+01
 0.1432353971321E+01
 0.1444788741949E+01
 0.1468864095089E+01
 0.1504364836973E+01
 0.1549178965591E+01
 0.1597304477017E+01
 0.1641287287856E+01
 0.1677027699725E+01
 0.1700802061030E+01
 0.1704416082068E+01
 0.1678163188046E+01
 0.1612549992768E+01
 0.1494322264404E+01
 0.1304517335822E+01
 0.1117076541786E+01
 0.1542988963784E+01
 0.3344867177059E+01
 0.1239320281354E+01
 0.1363101868372E+01
 0.1421673466820E+01
 0.1433312817702E+01
 0.1437395372724E+01
 0.1447651047729E+01
 0.1465834139098E+01
 0.1491183074899E+01
 0.1520267572189E+01
 0.1546621310452E+01
 0.1564045444493E+01
 0.1570400260405E+01
 0.1564113774895E+01
 0.1539296059829E+01
 0.1488120660299E+01
 0.1403910472703E+01
 0.1281616793767E+01
 0.1139066033922E+01
 0.1137255179640E+01
 0.1774704846879E+01
 0.3187025809422E+01
 0.1216434476138E+01
 0.1332092514453E+01
 0.1401149544820E+01
 0.1426395700726E+01
 0.1435638688745E+01
 0.1444364551939E+01
 0.1456532830385E+01
 0.1471441024834E+01
 0.1485322168068E+01
 0.1492294243376E+01
 0.1487620572707E+01
 0.1470574642325E+01
 0.1441229343470E+01
 0.1396226838656E+01
 0.1330952843037E+01
 0.1243707152094E+01
 0.1142485887547E+01
 0.1078608492777E+01
 0.1240773157250E+01
 0.1941693079452E+01
 0.3065439673557E+01
 0.1200461481586E+01
 0.1307401110379E+01
 0.1380224973450E+01
 0.1414499372579E+01
 0.1428337224706E+01
 0.1435843298699E+01
 0.1442106930228E+01
 0.1446859034937E+01
 0.1446684319039E+01
 0.1436781173915E+01
 0.1413908120164E+01
 0.1378584724383E+01
 0.1332414911309E+01
 0.1274712496671E+01
 0.1204735775397E+01
 0.1127103285919E+01
 0.1063293628446E+01
 0.1086009662668E+01
 0.1364684099831E+01
 0.2056171314114E+01
 0.2973051711533E+01
 0.1188740667292E+01
 0.1287359592457E+01
 0.1360192465218E+01
 0.1399731307551E+01
 0.1416887940707E+01
 0.1423142932252E+01
 0.1423764895444E+01
 0.1419014309102E+01
 0.1406230282132E+01
 0.1381908196937E+01
 0.1344287949077E+01
 0.1295111376015E+01
 0.1237519617235E+01
 0.1173524586628E+01
 0.1106487964335E+01
 0.1047609149684E+01
 0.1029412579777E+01
 0.1131906775921E+01
 0.1482798361576E+01
 0.2135890686814E+01
 0.2902701142026E+01
 0.1179745778799E+01
 0.1270734136900E+01
 0.1341519118253E+01
 0.1383527309929E+01
 0.1402595797989E+01
 0.1407369132722E+01
 0.1402691850772E+01
 0.1389297671922E+01
 0.1365459723083E+01
 0.1329037858262E+01
 0.1279719337543E+01
 0.1220477951321E+01
 0.1155998812399E+01
 0.1090913695020E+01
 0.1032589090054E+01
 0.9982165126007E+00
 0.1027548705494E+01
 0.1195914583012E+01
 0.1586987284378E+01
 0.2194913130306E+01
 0.2848679824236E+01
 0.1172569131331E+01
 0.1256667690614E+01
 0.1324335991786E+01
 0.1366858136652E+01
 0.1386586766380E+01
 0.1389590161706E+01
 0.1379996187597E+01
 0.1358907370753E+01
 0.1325565080861E+01
 0.1279174414439E+01
 0.1220816334067E+01
 0.1154690380575E+01
 0.1086991711252E+01
 0.1024807581792E+01
 0.9791787471736E+00
 0.9721851965641E+00
 0.1046568386529E+01
 0.1265563932249E+01
 0.1675892633174E+01
 0.2242504926813E+01
 0.2807779671293E+01
 0.1166655520070E+01
 0.1244587201888E+01
 0.1308665964603E+01
 0.1350417110775E+01
 0.1369831987652E+01
 0.1370832192984E+01
 0.1356752195528E+01
 0.1328966559674E+01
 0.1287636206839E+01
 0.1233234720263E+01
 0.1168153468778E+01
 0.1097769348368E+01
 0.1029694288528E+01
 0.9732277007865E+00
 0.9425927249681E+00
 0.9633511825258E+00
 0.1077443605426E+01
 0.1333231216883E+01
 0.1750361367339E+01
 0.2280106057179E+01
 0.2790939642853E+01
 0.1161681144660E+01
 0.1234122908615E+01
 0.1294497541494E+01
 0.1334686738586E+01
 0.1353097058233E+01
 0.1351948251076E+01
 0.1333825803818E+01
 0.1300302632538E+01
 0.1252371033658E+01
 0.1191664774971E+01
 0.1121780901451E+01
 0.1049192945299E+01
 0.9828025593066E+00
 0.9338530059077E+00
 0.9192003581170E+00
 0.9664294836340E+00
 0.1113939311731E+01
 0.1395596035352E+01
 0.1812466679041E+01
 0.2310413578934E+01
 0.2784006384484E+01
 0.1157438076507E+01
 0.1225030372919E+01
 0.1281802710852E+01
 0.1319997707739E+01
 0.1336963511069E+01
 0.1333612699293E+01
 0.1311880370608E+01
 0.1273486184963E+01
 0.1220151592652E+01
 0.1154547877908E+01
 0.1081360975369E+01
 0.1008062425419E+01
 0.9447067875716E+00
 0.9042245733047E+00
 0.9055644364172E+00
 0.9770289775001E+00
 0.1151919144140E+01
 0.1451469007187E+01
 0.1864336803068E+01
 0.2335875877212E+01
 0.2777937081179E+01
 0.1153808389111E+01
 0.1217169686892E+01
 0.1270589569410E+01
 0.1306627603353E+01
 0.1321928913973E+01
 0.1316427885728E+01
 0.1291528329128E+01
 0.1249064319949E+01
 0.1191382502686E+01
 0.1122059962968E+01
 0.1046741466719E+01
 0.9737802170206E+00
 0.9142366972329E+00
 0.8824751607512E+00
 0.8990081909001E+00
 0.9918071350786E+00
 0.1188535866275E+01
 0.1500173573716E+01
 0.1907418594386E+01
 0.2357332479151E+01
 0.2775213329385E+01
 0.1150727765818E+01
 0.1210463911179E+01
 0.1260881299012E+01
 0.1294797258190E+01
 0.1308393239372E+01
 0.1300887875179E+01
 0.1273270942050E+01
 0.1227470548035E+01
 0.1166357947417E+01
 0.1094280946341E+01
 0.1017705172264E+01
 0.9457394073003E+00
 0.8903006362359E+00
 0.8669416819005E+00
 0.8972575722045E+00
 0.1008176972555E+01
 0.1221922574830E+01
 0.1541548877064E+01
 0.1942834939980E+01
 0.2375496382641E+01
 0.2775150123485E+01
 0.1148165299663E+01
 0.1204876831794E+01
 0.1252711055947E+01
 0.1284684155245E+01
 0.1296674867640E+01
 0.1287389938705E+01
 0.1257509555162E+01
 0.1209041255375E+01
 0.1145285138929E+01
 0.1071224853041E+01
 0.9940057291174E+00
 0.9233624207015E+00
 0.8719204413537E+00
 0.8561874121663E+00
 0.8984379321990E+00
 0.1024193086850E+01
 0.1250882588194E+01
 0.1575669940698E+01
 0.1971425473566E+01
 0.2390645635967E+01
 0.2776803230475E+01
 0.1146110040757E+01
 0.1200397010438E+01
 0.1246116169360E+01
 0.1276430013945E+01
 0.1287022949422E+01
 0.1276245906953E+01
 0.1244557292247E+01
 0.1194030984179E+01
 0.1128304738470E+01
 0.1052865381532E+01
 0.9753970677189E+00
 0.9061308619414E+00
 0.8582554756363E+00
 0.8490136212065E+00
 0.9010547702221E+00
 0.1038431993881E+01
 0.1274663242125E+01
 0.1602699014948E+01
 0.1993768632546E+01
 0.2402849633349E+01
 0.2779280365071E+01
 0.1144561874494E+01
 0.1197026456320E+01
 0.1241132855325E+01
 0.1270145081769E+01
 0.1279626765943E+01
 0.1267692352285E+01
 0.1234650017409E+01
 0.1182625969273E+01
 0.1115508128258E+01
 0.1039156907709E+01
 0.9616566975126E+00
 0.8936076394112E+00
 0.8486187733601E+00
 0.8444641099200E+00
 0.9039650710292E+00
 0.1049884060704E+01
 0.1292801024690E+01
 0.1622804925015E+01
 0.2010249888475E+01
 0.2412083390273E+01
 0.2781826309316E+01
 0.1143525331486E+01
 0.1194772709448E+01
 0.1237791931167E+01
 0.1265910566380E+01
 0.1274622655617E+01
 0.1261899073488E+01
 0.1227955807210E+01
 0.1174955499479E+01
 0.1106951426238E+01
 0.1030051040049E+01
 0.9526033473111E+00
 0.8854527812710E+00
 0.8424876584477E+00
 0.8418252569231E+00
 0.9063459319166E+00
 0.1057866150337E+01
 0.1305018933058E+01
 0.1636127652117E+01
 0.2021116898929E+01
 0.2418288070566E+01
 0.2783855929521E+01
 0.1143005493274E+01
 0.1193643509491E+01
 0.1236115652424E+01
 0.1263780005531E+01
 0.1272098910437E+01
 0.1258975603749E+01
 0.1224582416990E+01
 0.1171100737184E+01
 0.1102666102275E+01
 0.1025508836817E+01
 0.9481095218657E+00
 0.8814341709845E+00
 0.8395104670541E+00
 0.8406237261477E+00
 0.9076663547893E+00
 0.1061957347555E+01
 0.1311162367419E+01
 0.1642764355255E+01
 0.2026516363696E+01
 0.2421407048321E+01
 0.2784971324128E+01
 0.1143005493270E+01
 0.1193643509492E+01
 0.1236115652437E+01
 0.1263780005562E+01
 0.1272098910490E+01
 0.1258975603829E+01
 0.1224582417104E+01
 0.1171100737337E+01
 0.1102666102469E+01
 0.1025508837047E+01
 0.9481095221148E+00
 0.8814341712244E+00
 0.8395104672403E+00
 0.8406237262152E+00
 0.9076663546632E+00
 0.1061957347194E+01
 0.1311162366866E+01
 0.1642764354642E+01
 0.2026516363195E+01
 0.2421407048059E+01
 0.2784971324106E+01
 0.1143525331473E+01
 0.1194772709451E+01
 0.1237791931206E+01
 0.1265910566471E+01
 0.1274622655774E+01
 0.1261899073728E+01
 0.1227955807551E+01
 0.1174955499938E+01
 0.1106951426820E+01
 0.1030051040739E+01
 0.9526033480620E+00
 0.8854527819981E+00
 0.8424876590185E+00
 0.8418252571433E+00
 0.9063459315595E+00
 0.1057866149272E+01
 0.1305018931406E+01
 0.1636127650274E+01
 0.2021116897417E+01
 0.2418288069780E+01
 0.2783855929475E+01
 0.1144561874472E+01
 0.1197026456325E+01
 0.1241132855389E+01
 0.1270145081919E+01
 0.1279626766201E+01
 0.1267692352678E+01
 0.1234650017970E+01
 0.1182625970031E+01
 0.1115508129226E+01
 0.1039156908862E+01
 0.9616566987760E+00
 0.8936076406475E+00
 0.8486187743518E+00
 0.8444641103459E+00
 0.9039650705045E+00
 0.1049884058988E+01
 0.1292801021960E+01
 0.1622804921928E+01
 0.2010249885929E+01
 0.2412083388968E+01
 0.2781826309303E+01
 0.1146110040726E+01
 0.1200397010445E+01
 0.1246116169448E+01
 0.1276430014150E+01
 0.1287022949775E+01
 0.1276245907491E+01
 0.1244557293018E+01
 0.1194030985228E+01
 0.1128304739819E+01
 0.1052865383152E+01
 0.9753970695121E+00
 0.9061308637227E+00
 0.8582554771092E+00
 0.8490136219265E+00
 0.9010547696381E+00
 0.1038431991609E+01
 0.1274663238359E+01
 0.1602699010596E+01
 0.1993768628922E+01
 0.2402849631524E+01
 0.2779280365186E+01
 0.1148165299622E+01
 0.1204876831801E+01
 0.1252711056058E+01
 0.1284684155502E+01
 0.1296674868080E+01
 0.1287389939376E+01
 0.1257509556127E+01
 0.1209041256700E+01
 0.1145285140651E+01
 0.1071224855132E+01
 0.9940057314624E+00
 0.9233624230759E+00
 0.8719204433904E+00
 0.8561874133044E+00
 0.8984379317121E+00
 0.1024193084165E+01
 0.1250882583460E+01
 0.1575669935057E+01
 0.1971425468796E+01
 0.2390645633616E+01
 0.2776803230848E+01
 0.1150727765768E+01
 0.1210463911185E+01
 0.1260881299143E+01
 0.1294797258493E+01
 0.1308393239886E+01
 0.1300887875964E+01
 0.1273270943189E+01
 0.1227470549617E+01
 0.1166357949498E+01
 0.1094280948904E+01
 0.1017705175186E+01
 0.9457394103266E+00
 0.8903006389399E+00
 0.8669416836156E+00
 0.8972575720240E+00
 0.1008176969664E+01
 0.1221922569242E+01
 0.1541548870110E+01
 0.1942834933967E+01
 0.2375496379733E+01
 0.2775150124276E+01
 0.1153808389051E+01
 0.1217169686898E+01
 0.1270589569559E+01
 0.1306627603694E+01
 0.1321928914548E+01
 0.1316427886606E+01
 0.1291528330414E+01
 0.1249064321761E+01
 0.1191382505107E+01
 0.1122059966002E+01
 0.1046741470244E+01
 0.9737802207652E+00
 0.9142367007266E+00
 0.8824751632361E+00
 0.8990081912913E+00
 0.9918071322649E+00
 0.1188535860009E+01
 0.1500173565441E+01
 0.1907418587000E+01
 0.2357332475621E+01
 0.2775213330773E+01
 0.1157438076436E+01
 0.1225030372924E+01
 0.1281802711017E+01
 0.1319997708111E+01
 0.1336963511687E+01
 0.1333612700237E+01
 0.1311880372008E+01
 0.1273486186970E+01
 0.1220151595388E+01
 0.1154547881403E+01
 0.1081360979519E+01
 0.1008062429952E+01
 0.9447067919923E+00
 0.9042245767840E+00
 0.9055644377044E+00
 0.9770289751417E+00
 0.1151919137471E+01
 0.1451468997614E+01
 0.1864336794145E+01
 0.2335875872939E+01
 0.2777937083350E+01
 0.1161681144580E+01
 0.1234122908619E+01
 0.1294497541673E+01
 0.1334686738979E+01
 0.1353097058873E+01
 0.1351948252053E+01
 0.1333825805290E+01
 0.1300302634698E+01
 0.1252371036672E+01
 0.1191664778909E+01
 0.1121780906242E+01
 0.1049192950692E+01
 0.9828025648021E+00
 0.9338530106340E+00
 0.9192003606833E+00
 0.9664294822217E+00
 0.1113939305075E+01
 0.1395596024571E+01
 0.1812466668383E+01
 0.2310413573749E+01
 0.2784006387560E+01
 0.1166655519979E+01
 0.1244587201893E+01
 0.1308665964796E+01
 0.1350417111178E+01
 0.1369831988288E+01
 0.1370832193955E+01
 0.1356752197023E+01
 0.1328966561934E+01
 0.1287636210081E+01
 0.1233234724613E+01
 0.1168153474215E+01
 0.1097769354682E+01
 0.1029694295251E+01
 0.9732277070352E+00
 0.9425927292526E+00
 0.9633511826766E+00
 0.1077443599395E+01
 0.1333231205119E+01
 0.1750361354682E+01
 0.2280106050932E+01
 0.2790939646820E+01
 0.1172569131223E+01
 0.1256667690612E+01
 0.1324335991972E+01
 0.1366858137022E+01
 0.1386586766945E+01
 0.1389590162574E+01
 0.1379996188982E+01
 0.1358907372928E+01
 0.1325565084092E+01
 0.1279174418911E+01
 0.1220816339820E+01
 0.1154690387475E+01
 0.1086991718910E+01
 0.1024807589400E+01
 0.9791787532706E+00
 0.9721851988144E+00
 0.1046568382128E+01
 0.1265563920459E+01
 0.1675892618869E+01
 0.2242504919355E+01
 0.2807779676441E+01
 0.1179745778680E+01
 0.1270734136889E+01
 0.1341519118413E+01
 0.1383527310226E+01
 0.1402595798419E+01
 0.1407369133395E+01
 0.1402691851910E+01
 0.1389297673818E+01
 0.1365459726035E+01
 0.1329037862506E+01
 0.1279719343194E+01
 0.1220477958345E+01
 0.1155998820537E+01
 0.1090913703624E+01
 0.1032589097849E+01
 0.9982165173437E+00
 0.1027548703890E+01
 0.1195914572726E+01
 0.1586987269277E+01
 0.2194913121652E+01
 0.2848679830259E+01
 0.1188740667164E+01
 0.1287359592439E+01
 0.1360192465348E+01
 0.1399731307759E+01
 0.1416887940979E+01
 0.1423142932705E+01
 0.1423764896298E+01
 0.1419014310655E+01
 0.1406230284708E+01
 0.1381908200820E+01
 0.1344287954455E+01
 0.1295111382959E+01
 0.1237519625628E+01
 0.1173524596014E+01
 0.1106487973688E+01
 0.1047609157027E+01
 0.1029412581661E+01
 0.1131906768327E+01
 0.1482798346153E+01
 0.2135890676438E+01
 0.2902701149082E+01
 0.1200461481449E+01
 0.1307401110356E+01
 0.1380224973543E+01
 0.1414499372684E+01
 0.1428337224810E+01
 0.1435843298921E+01
 0.1442106930778E+01
 0.1446859036101E+01
 0.1446684321155E+01
 0.1436781177309E+01
 0.1413908125094E+01
 0.1378584731017E+01
 0.1332414919673E+01
 0.1274712506512E+01
 0.1204735785990E+01
 0.1127103295705E+01
 0.1063293634246E+01
 0.1086009659211E+01
 0.1364684085088E+01
 0.2056171301491E+01
 0.2973051719644E+01
 0.1216434475995E+01
 0.1332092514425E+01
 0.1401149544865E+01
 0.1426395700714E+01
 0.1435638688679E+01
 0.1444364551939E+01
 0.1456532830634E+01
 0.1471441025589E+01
 0.1485322169665E+01
 0.1492294246172E+01
 0.1487620577020E+01
 0.1470574648408E+01
 0.1441229351474E+01
 0.1396226848516E+01
 0.1330952854346E+01
 0.1243707163828E+01
 0.1142485897226E+01
 0.1078608494859E+01
 0.1240773145164E+01
 0.1941693064207E+01
 0.3065439682516E+01
 0.1239320281206E+01
 0.1363101868337E+01
 0.1421673466801E+01
 0.1433312817564E+01
 0.1437395372504E+01
 0.1447651047537E+01
 0.1465834139075E+01
 0.1491183075257E+01
 0.1520267573238E+01
 0.1546621312566E+01
 0.1564045448038E+01
 0.1570400265700E+01
 0.1564113782176E+01
 0.1539296069180E+01
 0.1488120671602E+01
 0.1403910485492E+01
 0.1281616806605E+01
 0.1139066042262E+01
 0.1137255173501E+01
 0.1774704829289E+01
 0.3187025818711E+01
 0.1274019127823E+01
 0.1402321764312E+01
 0.1438608633128E+01
 0.1432362564891E+01
 0.1432353970981E+01
 0.1444788741615E+01
 0.1468864094852E+01
 0.1504364836984E+01
 0.1549178966107E+01
 0.1597304478406E+01
 0.1641287290520E+01
 0.1677027704020E+01
 0.1700802067220E+01
 0.1704416090317E+01
 0.1678163198459E+01
 0.1612550005340E+01
 0.1494322278789E+01
 0.1304517349709E+01
 0.1117076545306E+01
 0.1542988946317E+01
 0.3344867185679E+01
 0.1330318676880E+01
 0.1450370956229E+01
 0.1444705715429E+01
 0.1420443841418E+01
 0.1419759296969E+01
 0.1435031555268E+01
 0.1464683710763E+01
 0.1509241435744E+01
 0.1569155903406E+01
 0.1640949892281E+01
 0.1716788648806E+01
 0.1789177251486E+01
 0.1850668363745E+01
 0.1891191977467E+01
 0.1901405726998E+01
 0.1872101924694E+01
 0.1788164206716E+01
 0.1614548115665E+01
 0.1291336441132E+01
 0.1294769473289E+01
 0.3541208002955E+01
 0.1430356720872E+01
 0.1498684898914E+01
 0.1425883067587E+01
 0.1397039648413E+01
 0.1399041817870E+01
 0.1417942360618E+01
 0.1452707301156E+01
 0.1504324954722E+01
 0.1576730876330E+01
 0.1672621339869E+01
 0.1787024692080E+01
 0.1905708750868E+01
 0.2012869737041E+01
 0.2098246558192E+01
 0.2156086473607E+01
 0.2181943033926E+01
 0.2162227996777E+01
 0.2085205399317E+01
 0.1815275352161E+01
 0.1346039866094E+01
 0.3762292780095E+01
 0.1635907542039E+01
 0.1482132314073E+01
 0.1377591890862E+01
 0.1363770144757E+01
 0.1369529317512E+01
 0.1393689109423E+01
 0.1432691300959E+01
 0.1488895600707E+01
 0.1568366911061E+01
 0.1684533321286E+01
 0.1846674544672E+01
 0.2026757993140E+01
 0.2186767277308E+01
 0.2322381576411E+01
 0.2439671679692E+01
 0.2534627326268E+01
 0.2613878444939E+01
 0.2673747570842E+01
 0.2807996261472E+01
 0.2432069547242E+01
 0.4408086067215E+01
 0.4671577813745E+00
 0.6713992377324E+00
 0.8327007379494E+00
 0.9535854137828E+00
 0.1038040260803E+01
 0.1088968221966E+01
 0.1111703739408E+01
 0.1113442443805E+01
 0.1094178080956E+01
 0.1049299863728E+01
 0.4495924014434E+00
 0.6814863580986E+00
 0.8642301484193E+00
 0.1003055605684E+01
 0.1103491533478E+01
 0.1169897527202E+01
 0.1208642465060E+01
 0.1226550114861E+01
 0.1219637476289E+01
 0.1182053325977E+01
 0.4339571589562E+00
 0.6936824485886E+00
 0.8964608784210E+00
 0.1051682506359E+01
 0.1167094748748E+01
 0.1248926220548E+01
 0.1304222908384E+01
 0.1338540301853E+01
 0.1348871939000E+01
 0.1332280514615E+01
 0.4204344130303E+00
 0.7066487359730E+00
 0.9280337239875E+00
 0.1098171561873E+01
 0.1227551814461E+01
 0.1324268496095E+01
 0.1395964436625E+01
 0.1448178786996E+01
 0.1479848107578E+01
 0.1487389885233E+01
 0.4089494355303E+00
 0.7195579095812E+00
 0.9576938136214E+00
 0.1141200703952E+01
 0.1283323993501E+01
 0.1393976018799E+01
 0.1481647096896E+01
 0.1552419590215E+01
 0.1606438881268E+01
 0.1639066417844E+01
 0.3994423144242E+00
 0.7316310531747E+00
 0.9843392584432E+00
 0.1179458224047E+01
 0.1332836700490E+01
 0.1456097045246E+01
 0.1558667527680E+01
 0.1647176970370E+01
 0.1722482546717E+01
 0.1778845648785E+01
 0.3918705552740E+00
 0.7421828838618E+00
 0.1006977084104E+01
 0.1211730419830E+01
 0.1374590185760E+01
 0.1508682395754E+01
 0.1624276628878E+01
 0.1728415611011E+01
 0.1822219389812E+01
 0.1898972298439E+01
 0.3862079581453E+00
 0.7506338387528E+00
 0.1024756642643E+01
 0.1236955970823E+01
 0.1407236384165E+01
 0.1549923816812E+01
 0.1675946026447E+01
 0.1792590518978E+01
 0.1900952489742E+01
 0.1993555052831E+01
 0.3824393743506E+00
 0.7565296043089E+00
 0.1037002850490E+01
 0.1254278704143E+01
 0.1429664797510E+01
 0.1578318211813E+01
 0.1711606736290E+01
 0.1836932646050E+01
 0.1955270076099E+01
 0.2058623920088E+01
 0.3805567849276E+00
 0.7595572827695E+00
 0.1043246376158E+01
 0.1263095860617E+01
 0.1441084590058E+01
 0.1592793667349E+01
 0.1729808681460E+01
 0.1859572446367E+01
 0.1982968614044E+01
 0.2091733811291E+01
 0.3805567851225E+00
 0.7595572825900E+00
 0.1043246375859E+01
 0.1263095860330E+01
 0.1441084589839E+01
 0.1592793667206E+01
 0.1729808681374E+01
 0.1859572446317E+01
 0.1982968614011E+01
 0.2091733811261E+01
 0.3824393749349E+00
 0.7565296037807E+00
 0.1037002849606E+01
 0.1254278703293E+01
 0.1429664796861E+01
 0.1578318211390E+01
 0.1711606736039E+01
 0.1836932645902E+01
 0.1955270076002E+01
 0.2058623920001E+01
 0.3862079591177E+00
 0.7506338379063E+00
 0.1024756641208E+01
 0.1236955969440E+01
 0.1407236383113E+01
 0.1549923816130E+01
 0.1675946026045E+01
 0.1792590518745E+01
 0.1900952489586E+01
 0.1993555052690E+01
 0.3918705566326E+00
 0.7421828827461E+00
 0.1006977082177E+01
 0.1211730417967E+01
 0.1374590184348E+01
 0.1508682394847E+01
 0.1624276628352E+01
 0.1728415610708E+01
 0.1822219389608E+01
 0.1898972298249E+01
 0.3994423161665E+00
 0.7316310518551E+00
 0.9843392561011E+00
 0.1179458221772E+01
 0.1332836698773E+01
 0.1456097044157E+01
 0.1558667527060E+01
 0.1647176970018E+01
 0.1722482546478E+01
 0.1778845648556E+01
 0.4089494376531E+00
 0.7195579081366E+00
 0.9576938109583E+00
 0.1141200701351E+01
 0.1283323991547E+01
 0.1393976017579E+01
 0.1481647096219E+01
 0.1552419589839E+01
 0.1606438881012E+01
 0.1639066417592E+01
 0.4204344155289E+00
 0.7066487344908E+00
 0.9280337211126E+00
 0.1098171559047E+01
 0.1227551812351E+01
 0.1324268494800E+01
 0.1395964435925E+01
 0.1448178786617E+01
 0.1479848107321E+01
 0.1487389884976E+01
 0.4339571618209E+00
 0.6936824471603E+00
 0.8964608754587E+00
 0.1051682503426E+01
 0.1167094746571E+01
 0.1248926219234E+01
 0.1304222907689E+01
 0.1338540301484E+01
 0.1348871938753E+01
 0.1332280514368E+01
 0.4495924046517E+00
 0.6814863568075E+00
 0.8642301455169E+00
 0.1003055602789E+01
 0.1103491531337E+01
 0.1169897525923E+01
 0.1208642464385E+01
 0.1226550114501E+01
 0.1219637476051E+01
 0.1182053325744E+01
 0.4671577848239E+00
 0.6713992366703E+00
 0.8327007352982E+00
 0.9535854111116E+00
 0.1038040258823E+01
 0.1088968220761E+01
 0.1111703738747E+01
 0.1113442443438E+01
 0.1094178080714E+01
 0.1049299863505E+01
 0.7318496193163E+00
 0.2148565076902E+00
 0.1358948572468E-01
 0.7649001641244E-01
 0.1139567922192E+00
 0.1265196718716E+00
 0.1070367064754E+00
 0.5359419360610E-01
 0.1120352184265E-01
 0.8250218536577E-01
 0.7850589170411E+00
 0.5144007182926E+00
 0.2006214724114E+00
 0.6590568682943E-01
 0.5009793223175E-02
 0.4446073470371E-01
 0.5116482518811E-01
 0.2531106059898E-01
 0.1158629898094E-01
 0.4526188527200E-01
 0.7388754571408E+00
 0.6134426280831E+00
 0.3883595132251E+00
 0.2261131745039E+00
 0.1253684549570E+00
 0.6108636912413E-01
 0.2808881490526E-01
 0.2577727883249E-01
 0.3483324608673E-01
 0.4049603518952E-01
 0.6887005244369E+00
 0.6466622665795E+00
 0.5049194352215E+00
 0.3698905341299E+00
 0.2633227609726E+00
 0.1839016907569E+00
 0.1301751633384E+00
 0.1030339247474E+00
 0.9018701360304E-01
 0.7835966785085E-01
 0.6432667518062E+00
 0.6562190375674E+00
 0.5822354258907E+00
 0.4873871536521E+00
 0.3963293170418E+00
 0.3165020502904E+00
 0.2521159819297E+00
 0.2083591056049E+00
 0.1815371207190E+00
 0.1592644545222E+00
 0.6041233114345E+00
 0.6580857288622E+00
 0.6387899440011E+00
 0.5861411274273E+00
 0.5208867732368E+00
 0.4531042607520E+00
 0.3896261266497E+00
 0.3395962708264E+00
 0.3070225546142E+00
 0.2778664847951E+00
 0.5704760919221E+00
 0.6587540896466E+00
 0.6850105884248E+00
 0.6729132741776E+00
 0.6381459430298E+00
 0.5904791755723E+00
 0.5375213034773E+00
 0.4908325242185E+00
 0.4596019702671E+00
 0.4256695808404E+00
 0.5410867415661E+00
 0.6605471812011E+00
 0.7261651033698E+00
 0.7521295121074E+00
 0.7494340624364E+00
 0.7264072455376E+00
 0.6901118873684E+00
 0.6530288296388E+00
 0.6280413266426E+00
 0.5926617709833E+00
 0.5146097480020E+00
 0.6636285185097E+00
 0.7644280197765E+00
 0.8260197225436E+00
 0.8552850260695E+00
 0.8587404269490E+00
 0.8422713202298E+00
 0.8162641241006E+00
 0.7969108922927E+00
 0.7673911812816E+00
 0.4895007527701E+00
 0.6668514220208E+00
 0.8002602981860E+00
 0.8952676538641E+00
 0.9554904480419E+00
 0.9851954500140E+00
 0.9894972449939E+00
 0.9762333966404E+00
 0.9538603282886E+00
 0.9303329580208E+00
 0.4895007562645E+00
 0.6668514212640E+00
 0.8002602957127E+00
 0.8952676512527E+00
 0.9554904460867E+00
 0.9851954488556E+00
 0.9894972444045E+00
 0.9762333963226E+00
 0.9538603280500E+00
 0.9303329577843E+00
 0.5146097514089E+00
 0.6636285181492E+00
 0.7644280178086E+00
 0.8260197203853E+00
 0.8552850244416E+00
 0.8587404259850E+00
 0.8422713197473E+00
 0.8162641238351E+00
 0.7969108920708E+00
 0.7673911810451E+00
 0.5410867449814E+00
 0.6605471813247E+00
 0.7261651019362E+00
 0.7521295104107E+00
 0.7494340611446E+00
 0.7264072447866E+00
 0.6901118870092E+00
 0.6530288294402E+00
 0.6280413264621E+00
 0.5926617707473E+00
 0.5704760953703E+00
 0.6587540902420E+00
 0.6850105874636E+00
 0.6729132728740E+00
 0.6381459420207E+00
 0.5904791750007E+00
 0.5375213032216E+00
 0.4908325240802E+00
 0.4596019701257E+00
 0.4256695806086E+00
 0.6041233149064E+00
 0.6580857298107E+00
 0.6387899433467E+00
 0.5861411263709E+00
 0.5208867724064E+00
 0.4531042602955E+00
 0.3896261264592E+00
 0.3395962707262E+00
 0.3070225545002E+00
 0.2778664845786E+00
 0.6432667552429E+00
 0.6562190386351E+00
 0.5822354252735E+00
 0.4873871526440E+00
 0.3963293162717E+00
 0.3165020498881E+00
 0.2521159817708E+00
 0.2083591055222E+00
 0.1815371206219E+00
 0.1592644543351E+00
 0.6887005276864E+00
 0.6466622673828E+00
 0.5049194342918E+00
 0.3698905329841E+00
 0.2633227602026E+00
 0.1839016903947E+00
 0.1301751632031E+00
 0.1030339246722E+00
 0.9018701351389E-01
 0.7835966769895E-01
 0.7388754598780E+00
 0.6134426280372E+00
 0.3883595116488E+00
 0.2261131732390E+00
 0.1253684542662E+00
 0.6108636885164E-01
 0.2808881480998E-01
 0.2577727876290E-01
 0.3483324599281E-01
 0.4049603505790E-01
 0.7850589184721E+00
 0.5144007166009E+00
 0.2006214705131E+00
 0.6590568584159E-01
 0.5009793639445E-02
 0.4446073481656E-01
 0.5116482522737E-01
 0.2531106066366E-01
 0.1158629886852E-01
 0.4526188512123E-01
 0.7318496186027E+00
 0.2148565054192E+00
 0.1358948657320E-01
 0.7649001671597E-01
 0.1139567922545E+00
 0.1265196718036E+00
 0.1070367064604E+00
 0.5359419367457E-01
 0.1120352171682E-01
 0.8250218514860E-01
 0.9611706009045E+00
 0.8023304148157E+00
 0.6436577761931E+00
 0.4880340243144E+00
 0.3410730664568E+00
 0.2121232676689E+00
 0.1128095764403E+00
 0.5592358656601E-01
 0.5238215649115E-01
 0.1063184650066E+00
 0.1115023273717E+01
 0.9775297382595E+00
 0.8158978184488E+00
 0.6444911940100E+00
 0.4729264381034E+00
 0.3114116906213E+00
 0.1734949880434E+00
 0.7726913194314E-01
 0.4596196223640E-01
 0.1018473110288E+00
 0.1278603447773E+01
 0.1160386351025E+01
 0.1014924179053E+01
 0.8482614608459E+00
 0.6688978781718E+00
 0.4858835207250E+00
 0.3112467278271E+00
 0.1630404247633E+00
 0.6991386998242E-01
 0.8067846372923E-01
 0.1451673240419E+01
 0.1357187181972E+01
 0.1236545885240E+01
 0.1091297436709E+01
 0.9257459261223E+00
 0.7457985948126E+00
 0.5596649241082E+00
 0.3803881464384E+00
 0.2309772217565E+00
 0.1611164832307E+00
 0.1624920418547E+01
 0.1557921008585E+01
 0.1467465526458E+01
 0.1353021176545E+01
 0.1216003543482E+01
 0.1059115044229E+01
 0.8863998480807E+00
 0.7039924516409E+00
 0.5218149044780E+00
 0.3555447941153E+00
 0.1786404731036E+01
 0.1745735808803E+01
 0.1684003705607E+01
 0.1599046404026E+01
 0.1489544512284E+01
 0.1354525570236E+01
 0.1192776670120E+01
 0.1001923266262E+01
 0.7758502749528E+00
 0.4946910939403E+00
 0.1926045559553E+01
 0.1907219558390E+01
 0.1868546282802E+01
 0.1805924933251E+01
 0.1715062342403E+01
 0.1590840283827E+01
 0.1426369586629E+01
 0.1211287243936E+01
 0.9281846536763E+00
 0.5465236286442E+00
 0.2036567569094E+01
 0.2034161617813E+01
 0.2012041405374E+01
 0.1964247075024E+01
 0.1883739859092E+01
 0.1761756256386E+01
 0.1586911408365E+01
 0.1343919582139E+01
 0.1012047488737E+01
 0.5679200637449E+00
 0.2112838922965E+01
 0.2121235331199E+01
 0.2109519403336E+01
 0.2070279447820E+01
 0.1994432142612E+01
 0.1870664530545E+01
 0.1684874473088E+01
 0.1419834493551E+01
 0.1056019216084E+01
 0.5782316062091E+00
 0.2151694734438E+01
 0.2165397708607E+01
 0.2158628204253E+01
 0.2123172244923E+01
 0.2048873809546E+01
 0.1923156254407E+01
 0.1730751402616E+01
 0.1454056590080E+01
 0.1074991669036E+01
 0.5826594105309E+00
 0.2151694734398E+01
 0.2165397708551E+01
 0.2158628204180E+01
 0.2123172244834E+01
 0.2048873809446E+01
 0.1923156254305E+01
 0.1730751402527E+01
 0.1454056590019E+01
 0.1074991669014E+01
 0.5826594105462E+00
 0.2112838922846E+01
 0.2121235331032E+01
 0.2109519403117E+01
 0.2070279447550E+01
 0.1994432142305E+01
 0.1870664530227E+01
 0.1684874472800E+01
 0.1419834493344E+01
 0.1056019216001E+01
 0.5782316062530E+00
 0.2036567568902E+01
 0.2034161617539E+01
 0.2012041405009E+01
 0.1964247074567E+01
 0.1883739858559E+01
 0.1761756255814E+01
 0.1586911407820E+01
 0.1343919581714E+01
 0.1012047488533E+01
 0.5679200638055E+00
 0.1926045559298E+01
 0.1907219558019E+01
 0.1868546282296E+01
 0.1805924932603E+01
 0.1715062341625E+01
 0.1590840282956E+01
 0.1426369585743E+01
 0.1211287243166E+01
 0.9281846532156E+00
 0.5465236286743E+00
 0.1786404730732E+01
 0.1745735808347E+01
 0.1684003704972E+01
 0.1599046403195E+01
 0.1489544511256E+01
 0.1354525569035E+01
 0.1192776668814E+01
 0.1001923264988E+01
 0.7758502739716E+00
 0.4946910937188E+00
 0.1624920418211E+01
 0.1557921008065E+01
 0.1467465525721E+01
 0.1353021175562E+01
 0.1216003542235E+01
 0.1059115042718E+01
 0.8863998463365E+00
 0.7039924497524E+00
 0.5218149026550E+00
 0.3555447929099E+00
 0.1451673240083E+01
 0.1357187181445E+01
 0.1236545884498E+01
 0.1091297435738E+01
 0.9257459249200E+00
 0.7457985933988E+00
 0.5596649225316E+00
 0.3803881447959E+00
 0.2309772202277E+00
 0.1611164821467E+00
 0.1278603447462E+01
 0.1160386350542E+01
 0.1014924178398E+01
 0.8482614600410E+00
 0.6688978772612E+00
 0.4858835197787E+00
 0.3112467269465E+00
 0.1630404240819E+00
 0.6991386964674E-01
 0.8067846375295E-01
 0.1115023273433E+01
 0.9775297378199E+00
 0.8158978178844E+00
 0.6444911933688E+00
 0.4729264374456E+00
 0.3114116900207E+00
 0.1734949875822E+00
 0.7726913169090E-01
 0.4596196219482E-01
 0.1018473110170E+00
 0.9611706006276E+00
 0.8023304144234E+00
 0.6436577757360E+00
 0.4880340238351E+00
 0.3410730660058E+00
 0.2121232673003E+00
 0.1128095761976E+00
 0.5592358645659E-01
 0.5238215645042E-01
 0.1063184648782E+00
</DataArray>
<DataArray type="Float64" Name="OI" NumberOfComponents="1" ComponentName0="OI" format="ascii">
 0.1635907542355E+01
 0.1482132314335E+01
 0.1377591891166E+01
 0.1363770145058E+01
 0.1369529317817E+01
 0.1393689109728E+01
 0.1432691301263E+01
 0.1488895601006E+01
 0.1568366911344E+01
 0.1684533321474E+01
 0.1846674544580E+01
 0.2026757992609E+01
 0.2186767276294E+01
 0.2322381574880E+01
 0.2439671677632E+01
 0.2534627323715E+01
 0.2613878441498E+01
 0.2673747566393E+01
 0.2807996251456E+01
 0.2432069536876E+01
 0.4408086055817E+01
 0.1430356721067E+01
 0.1498684899104E+01
 0.1425883067898E+01
 0.1397039648784E+01
 0.1399041818261E+01
 0.1417942361018E+01
 0.1452707301546E+01
 0.1504324955075E+01
 0.1576730876567E+01
 0.1672621339767E+01
 0.1787024691258E+01
 0.1905708749009E+01
 0.2012869734026E+01
 0.2098246553927E+01
 0.2156086467908E+01
 0.2181943026467E+01
 0.2162227987104E+01
 0.2085205385864E+01
 0.1815275333308E+01
 0.1346039856707E+01
 0.3762292774273E+01
 0.1330318677044E+01
 0.1450370956325E+01
 0.1444705715646E+01
 0.1420443841769E+01
 0.1419759297369E+01
 0.1435031555676E+01
 0.1464683711128E+01
 0.1509241435985E+01
 0.1569155903346E+01
 0.1640949891595E+01
 0.1716788647078E+01
 0.1789177248358E+01
 0.1850668358990E+01
 0.1891191970927E+01
 0.1901405718460E+01
 0.1872101913863E+01
 0.1788164193282E+01
 0.1614548099171E+01
 0.1291336427271E+01
 0.1294769482549E+01
 0.3541207996439E+01
 0.1274019127976E+01
 0.1402321764364E+01
 0.1438608633235E+01
 0.1432362565152E+01
 0.1432353971321E+01
 0.1444788741949E+01
 0.1468864095089E+01
 0.1504364836973E+01
 0.1549178965591E+01
 0.1597304477017E+01
 0.1641287287856E+01
 0.1677027699725E+01
 0.1700802061030E+01
 0.1704416082068E+01
 0.1678163188046E+01
 0.1612549992768E+01
 0.1494322264404E+01
 0.1304517335822E+01
 0.1117076541786E+01
 0.1542988963784E+01
 0.3344867177059E+01
 0.1239320281354E+01
 0.1363101868372E+01
 0.1421673466820E+01
 0.1433312817702E+01
 0.1437395372724E+01
 0.1447651047729E+01
 0.1465834139098E+01
 0.1491183074899E+01
 0.1520267572189E+01
 0.1546621310452E+01
 0.1564045444493E+01
 0.1570400260405E+01
 0.1564113774895E+01
 0.1539296059829E+01
 0.1488120660299E+01
 0.1403910472703E+01
 0.1281616793767E+01
 0.1139066033922E+01
 0.1137255179640E+01
 0.1774704846879E+01
 0.3187025809422E+01
 0.1216434476138E+01
 0.1332092514453E+01
 0.1401149544820E+01
 0.1426395700726E+01
 0.1435638688745E+01
 0.1444364551939E+01
 0.1456532830385E+01
 0.1471441024834E+01
 0.1485322168068E+01
 0.1492294243376E+01
 0.1487620572707E+01
 0.1470574642325E+01
 0.1441229343470E+01
 0.1396226838656E+01
 0.1330952843037E+01
 0.1243707152094E+01
 0.1142485887547E+01
 0.1078608492777E+01
 0.1240773157250E+01
 0.1941693079452E+01
 0.3065439673557E+01
 0.1200461481586E+01
 0.1307401110379E+01
 0.1380224973450E+01
 0.1414499372579E+01
 0.1428337224706E+01
 0.1435843298699E+01
 0.1442106930228E+01
 0.1446859034937E+01
 0.1446684319039E+01
 0.1436781173915E+01
 0.1413908120164E+01
 0.1378584724383E+01
 0.1332414911309E+01
 0.1274712496671E+01
 0.1204735775397E+01
 0.1127103285919E+01
 0.1063293628446E+01
 0.1086009662668E+01
 0.1364684099831E+01
 0.2056171314114E+01
 0.2973051711533E+01
 0.1188740667292E+01
 0.1287359592457E+01
 0.1360192465218E+01
 0.1399731307551E+01
 0.1416887940707E+01
 0.1423142932252E+01
 0.1423764895444E+01
 0.1419014309102E+01
 0.1406230282132E+01
 0.1381908196937E+01
 0.1344287949077E+01
 0.1295111376015E+01
 0.1237519617235E+01
 0.1173524586628E+01
 0.1106487964335E+01
 0.1047609149684E+01
 0.1029412579777E+01
 0.1131906775921E+01
 0.1482798361576E+01
 0.2135890686814E+01
 0.2902701142026E+01
 0.1179745778799E+01
 0.1270734136900E+01
 0.1341519118253E+01
 0.1383527309929E+01
 0.1402595797989E+01
 0.1407369132722E+01
 0.1402691850772E+01
 0.1389297671922E+01
 0.1365459723083E+01
 0.1329037858262E+01
 0.1279719337543E+01
 0.1220477951321E+01
 0.1155998812399E+01
 0.1090913695020E+01
 0.1032589090054E+01
 0.9982165126007E+00
 0.1027548705494E+01
 0.1195914583012E+01
 0.1586987284378E+01
 0.2194913130306E+01
 0.2848679824236E+01
 0.1172569131331E+01
 0.1256667690614E+01
 0.1324335991786E+01
 0.1366858136652E+01
 0.1386586766380E+01
 0.1389590161706E+01
 0.1379996187597E+01
 0.1358907370753E+01
 0.1325565080861E+01
 0.1279174414439E+01
 0.1220816334067E+01
 0.1154690380575E+01
 0.1086991711252E+01
 0.1024807581792E+01
 0.9791787471736E+00
 0.9721851965641E+00
 0.1046568386529E+01
 0.1265563932249E+01
 0.1675892633174E+01
 0.2242504926813E+01
 0.2807779671293E+01
 0.1166655520070E+01
 0.1244587201888E+01
 0.1308665964603E+01
 0.1350417110775E+01
 0.1369831987652E+01
 0.1370832192984E+01
 0.1356752195528E+01
 0.1328966559674E+01
 0.1287636206839E+01
 0.1233234720263E+01
 0.1168153468778E+01
 0.1097769348368E+01
 0.1029694288528E+01
 0.9732277007865E+00
 0.9425927249681E+00
 0.9633511825258E+00
 0.1077443605426E+01
 0.1333231216883E+01
 0.1750361367339E+01
 0.2280106057179E+01
 0.2790939642853E+01
 0.1161681144660E+01
 0.1234122908615E+01
 0.1294497541494E+01
 0.1334686738586E+01
 0.1353097058233E+01
 0.1351948251076E+01
 0.1333825803818E+01
 0.1300302632538E+01
 0.1252371033658E+01
 0.1191664774971E+01
 0.1121780901451E+01
 0.1049192945299E+01
 0.9828025593066E+00
 0.9338530059077E+00
 0.9192003581170E+00
 0.9664294836340E+00
 0.1113939311731E+01
 0.1395596035352E+01
 0.1812466679041E+01
 0.2310413578934E+01
 0.2784006384484E+01
 0.1157438076507E+01
 0.1225030372919E+01
 0.1281802710852E+01
 0.1319997707739E+01
 0.1336963511069E+01
 0.1333612699293E+01
 0.1311880370608E+01
 0.1273486184963E+01
 0.1220151592652E+01
 0.1154547877908E+01
 0.1081360975369E+01
 0.1008062425419E+01
 0.9447067875716E+00
 0.9042245733047E+00
 0.9055644364172E+00
 0.9770289775001E+00
 0.1151919144140E+01
 0.1451469007187E+01
 0.1864336803068E+01
 0.2335875877212E+01
 0.2777937081179E+01
 0.1153808389111E+01
 0.1217169686892E+01
 0.1270589569410E+01
 0.1306627603353E+01
 0.1321928913973E+01
 0.1316427885728E+01
 0.1291528329128E+01
 0.1249064319949E+01
 0.1191382502686E+01
 0.1122059962968E+01
 0.1046741466719E+01
 0.9737802170206E+00
 0.9142366972329E+00
 0.8824751607512E+00
 0.8990081909001E+00
 0.9918071350786E+00
 0.1188535866275E+01
 0.1500173573716E+01
 0.1907418594386E+01
 0.2357332479151E+01
 0.2775213329385E+01
 0.1150727765818E+01
 0.1210463911179E+01
 0.1260881299012E+01
 0.1294797258190E+01
 0.1308393239372E+01
 0.1300887875179E+01
 0.1273270942050E+01
 0.1227470548035E+01
 0.1166357947417E+01
 0.1094280946341E+01
 0.1017705172264E+01
 0.9457394073003E+00
 0.8903006362359E+00
 0.8669416819005E+00
 0.8972575722045E+00
 0.1008176972555E+01
 0.1221922574830E+01
 0.1541548877064E+01
 0.1942834939980E+01
 0.2375496382641E+01
 0.2775150123485E+01
 0.1148165299663E+01
 0.1204876831794E+01
 0.1252711055947E+01
 0.1284684155245E+01
 0.1296674867640E+01
 0.1287389938705E+01
 0.1257509555162E+01
 0.1209041255375E+01
 0.1145285138929E+01
 0.1071224853041E+01
 0.9940057291174E+00
 0.9233624207015E+00
 0.8719204413537E+00
 0.8561874121663E+00
 0.8984379321990E+00
 0.1024193086850E+01
 0.1250882588194E+01
 0.1575669940698E+01
 0.1971425473566E+01
 0.2390645635967E+01
 0.2776803230475E+01
 0.1146110040757E+01
 0.1200397010438E+01
 0.1246116169360E+01
 0.1276430013945E+01
 0.1287022949422E+01
 0.1276245906953E+01
 0.1244557292247E+01
 0.1194030984179E+01
 0.1128304738470E+01
 0.1052865381532E+01
 0.9753970677189E+00
 0.9061308619414E+00
 0.8582554756363E+00
 0.8490136212065E+00
 0.9010547702221E+00
 0.1038431993881E+01
 0.1274663242125E+01
 0.1602699014948E+01
 0.1993768632546E+01
 0.2402849633349E+01
 0.2779280365071E+01
 0.1144561874494E+01
 0.1197026456320E+01
 0.1241132855325E+01
 0.1270145081769E+01
 0.1279626765943E+01
 0.1267692352285E+01
 0.1234650017409E+01
 0.1182625969273E+01
 0.1115508128258E+01
 0.1039156907709E+01
 0.9616566975126E+00
 0.8936076394112E+00
 0.8486187733601E+00
 0.8444641099200E+00
 0.9039650710292E+00
 0.1049884060704E+01
 0.1292801024690E+01
 0.1622804925015E+01
 0.2010249888475E+01
 0.2412083390273E+01
 0.2781826309316E+01
 0.1143525331486E+01
 0.1194772709448E+01
 0.1237791931167E+01
 0.1265910566380E+01
 0.1274622655617E+01
 0.1261899073488E+01
 0.1227955807210E+01
 0.1174955499479E+01
 0.1106951426238E+01
 0.1030051040049E+01
 0.9526033473111E+00
 0.8854527812710E+00
 0.8424876584477E+00
 0.8418252569231E+00
 0.9063459319166E+00
 0.1057866150337E+01
 0.1305018933058E+01
 0.1636127652117E+01
 0.2021116898929E+01
 0.2418288070566E+01
 0.2783855929521E+01
 0.1143005493274E+01
 0.1193643509491E+01
 0.1236115652424E+01
 0.1263780005531E+01
 0.1272098910437E+01
 0.1258975603749E+01
 0.1224582416990E+01
 0.1171100737184E+01
 0.1102666102275E+01
 0.1025508836817E+01
 0.9481095218657E+00
 0.8814341709845E+00
 0.8395104670541E+00
 0.8406237261477E+00
 0.9076663547893E+00
 0.1061957347555E+01
 0.1311162367419E+01
 0.1642764355255E+01
 0.2026516363696E+01
 0.2421407048321E+01
 0.2784971324128E+01
 0.1143005493270E+01
 0.1193643509492E+01
 0.1236115652437E+01
 0.1263780005562E+01
 0.1272098910490E+01
 0.1258975603829E+01
 0.1224582417104E+01
 0.1171100737337E+01
 0.1102666102469E+01
 0.1025508837047E+01
 0.9481095221148E+00
 0.8814341712244E+00
 0.8395104672403E+00
 0.8406237262152E+00
 0.9076663546632E+00
 0.1061957347194E+01
 0.1311162366866E+01
 0.1642764354642E+01
 0.2026516363195E+01
 0.2421407048059E+01
 0.2784971324106E+01
 0.1143525331473E+01
 0.1194772709451E+01
 0.1237791931206E+01
 0.1265910566471E+01
 0.1274622655774E+01
 0.1261899073728E+01
 0.1227955807551E+01
 0.1174955499938E+01
 0.1106951426820E+01
 0.1030051040739E+01
 0.9526033480620E+00
 0.8854527819981E+00
 0.8424876590185E+00
 0.8418252571433E+00
 0.9063459315595E+00
 0.1057866149272E+01
 0.1305018931406E+01
 0.1636127650274E+01
 0.2021116897417E+01
 0.2418288069780E+01
 0.2783855929475E+01
 0.1144561874472E+01
 0.1197026456325E+01
 0.1241132855389E+01
 0.1270145081919E+01
 0.1279626766201E+01
 0.1267692352678E+01
 0.1234650017970E+01
 0.1182625970031E+01
 0.1115508129226E+01
 0.1039156908862E+01
 0.9616566987760E+00
 0.8936076406475E+00
 0.8486187743518E+00
 0.8444641103459E+00
 0.9039650705045E+00
 0.1049884058988E+01
 0.1292801021960E+01
 0.1622804921928E+01
 0.2010249885929E+01
 0.2412083388968E+01
 0.2781826309303E+01
 0.1146110040726E+01
 0.1200397010445E+01
 0.1246116169448E+01
 0.1276430014150E+01
 0.1287022949775E+01
 0.1276245907491E+01
 0.1244557293018E+01
 0.1194030985228E+01
 0.1128304739819E+01
 0.1052865383152E+01
 0.9753970695121E+00
 0.9061308637227E+00
 0.8582554771092E+00
 0.8490136219265E+00
 0.9010547696381E+00
 0.1038431991609E+01
 0.1274663238359E+01
 0.1602699010596E+01
 0.1993768628922E+01
 0.2402849631524E+01
 0.2779280365186E+01
 0.1148165299622E+01
 0.1204876831801E+01
 0.1252711056058E+01
 0.1284684155502E+01
 0.1296674868080E+01
 0.1287389939376E+01
 0.1257509556127E+01
 0.1209041256700E+01
 0.1145285140651E+01
 0.1071224855132E+01
 0.9940057314624E+00
 0.9233624230759E+00
 0.8719204433904E+00
 0.8561874133044E+00
 0.8984379317121E+00
 0.1024193084165E+01
 0.1250882583460E+01
 0.1575669935057E+01
 0.1971425468796E+01
 0.2390645633616E+01
 0.2776803230848E+01
 0.1150727765768E+01
 0.1210463911185E+01
 0.1260881299143E+01
 0.1294797258493E+01
 0.1308393239886E+01
 0.1300887875964E+01
 0.1273270943189E+01
 0.1227470549617E+01
 0.1166357949498E+01
 0.1094280948904E+01
 0.1017705175186E+01
 0.9457394103266E+00
 0.8903006389399E+00
 0.8669416836156E+00
 0.8972575720240E+00
 0.1008176969664E+01
 0.1221922569242E+01
 0.1541548870110E+01
 0.1942834933967E+01
 0.2375496379733E+01
 0.2775150124276E+01
 0.1153808389051E+01
 0.1217169686898E+01
 0.1270589569559E+01
 0.1306627603694E+01
 0.1321928914548E+01
 0.1316427886606E+01
 0.1291528330414E+01
 0.1249064321761E+01
 0.1191382505107E+01
 0.1122059966002E+01
 0.1046741470244E+01
 0.9737802207652E+00
 0.9142367007266E+00
 0.8824751632361E+00
 0.8990081912913E+00
 0.9918071322649E+00
 0.1188535860009E+01
 0.1500173565441E+01
 0.1907418587000E+01
 0.2357332475621E+01
 0.2775213330773E+01
 0.1157438076436E+01
 0.1225030372924E+01
 0.1281802711017E+01
 0.1319997708111E+01
 0.1336963511687E+01
 0.1333612700237E+01
 0.1311880372008E+01
 0.1273486186970E+01
 0.1220151595388E+01
 0.1154547881403E+01
 0.1081360979519E+01
 0.1008062429952E+01
 0.9447067919923E+00
 0.9042245767840E+00
 0.9055644377044E+00
 0.9770289751417E+00
 0.1151919137471E+01
 0.1451468997614E+01
 0.1864336794145E+01
 0.2335875872939E+01
 0.2777937083350E+01
 0.1161681144580E+01
 0.1234122908619E+01
 0.1294497541673E+01
 0.1334686738979E+01
 0.1353097058873E+01
 0.1351948252053E+01
 0.1333825805290E+01
 0.1300302634698E+01
 0.1252371036672E+01
 0.1191664778909E+01
 0.1121780906242E+01
 0.1049192950692E+01
 0.9828025648021E+00
 0.9338530106340E+00
 0.9192003606833E+00
 0.9664294822217E+00
 0.1113939305075E+01
 0.1395596024571E+01
 0.1812466668383E+01
 0.2310413573749E+01
 0.2784006387560E+01
 0.1166655519979E+01
 0.1244587201893E+01
 0.1308665964796E+01
 0.1350417111178E+01
 0.1369831988288E+01
 0.1370832193955E+01
 0.1356752197023E+01
 0.1328966561934E+01
 0.1287636210081E+01
 0.1233234724613E+01
 0.1168153474215E+01
 0.1097769354682E+01
 0.1029694295251E+01
 0.9732277070352E+00
 0.9425927292526E+00
 0.9633511826766E+00
 0.1077443599395E+01
 0.1333231205119E+01
 0.1750361354682E+01
 0.2280106050932E+01
 0.2790939646820E+01
 0.1172569131223E+01
 0.1256667690612E+01
 0.1324335991972E+01
 0.1366858137022E+01
 0.1386586766945E+01
 0.1389590162574E+01
 0.1379996188982E+01
 0.1358907372928E+01
 0.1325565084092E+01
 0.1279174418911E+01
 0.1220816339820E+01
 0.1154690387475E+01
 0.1086991718910E+01
 0.1024807589400E+01
 0.9791787532706E+00
 0.9721851988144E+00
 0.1046568382128E+01
 0.1265563920459E+01
 0.1675892618869E+01
 0.2242504919355E+01
 0.2807779676441E+01
 0.1179745778680E+01
 0.1270734136889E+01
 0.1341519118413E+01
 0.1383527310226E+01
 0.1402595798419E+01
 0.1407369133395E+01
 0.1402691851910E+01
 0.1389297673818E+01
 0.1365459726035E+01
 0.1329037862506E+01
 0.1279719343194E+01
 0.1220477958345E+01
 0.1155998820537E+01
 0.1090913703624E+01
 0.1032589097849E+01
 0.9982165173437E+00
 0.1027548703890E+01
 0.1195914572726E+01
 0.1586987269277E+01
 0.2194913121652E+01
 0.2848679830259E+01
 0.1188740667164E+01
 0.1287359592439E+01
 0.1360192465348E+01
 0.1399731307759E+01
 0.1416887940979E+01
 0.1423142932705E+01
 0.1423764896298E+01
 0.1419014310655E+01
 0.1406230284708E+01
 0.1381908200820E+01
 0.1344287954455E+01
 0.1295111382959E+01
 0.1237519625628E+01
 0.1173524596014E+01
 0.1106487973688E+01
 0.1047609157027E+01
 0.1029412581661E+01
 0.1131906768327E+01
 0.1482798346153E+01
 0.2135890676438E+01
 0.2902701149082E+01
 0.1200461481449E+01
 0.1307401110356E+01
 0.1380224973543E+01
 0.1414499372684E+01
 0.1428337224810E+01
 0.1435843298921E+01
 0.1442106930778E+01
 0.1446859036101E+01
 0.1446684321155E+01
 0.1436781177309E+01
 0.1413908125094E+01
 0.1378584731017E+01
 0.1332414919673E+01
 0.1274712506512E+01
 0.1204735785990E+01
 0.1127103295705E+01
 0.1063293634246E+01
 0.1086009659211E+01
 0.1364684085088E+01
 0.2056171301491E+01
 0.2973051719644E+01
 0.1216434475995E+01
 0.1332092514425E+01
 0.1401149544865E+01
 0.1426395700714E+01
 0.1435638688679E+01
 0.1444364551939E+01
 0.1456532830634E+01
 0.1471441025589E+01
 0.1485322169665E+01
 0.1492294246172E+01
 0.1487620577020E+01
 0.1470574648408E+01
 0.1441229351474E+01
 0.1396226848516E+01
 0.1330952854346E+01
 0.1243707163828E+01
 0.1142485897226E+01
 0.1078608494859E+01
 0.1240773145164E+01
 0.1941693064207E+01
 0.3065439682516E+01
 0.1239320281206E+01
 0.1363101868337E+01
 0.1421673466801E+01
 0.1433312817564E+01
 0.1437395372504E+01
 0.1447651047537E+01
 0.1465834139075E+01
 0.1491183075257E+01
 0.1520267573238E+01
 0.1546621312566E+01
 0.1564045448038E+01
 0.1570400265700E+01
 0.1564113782176E+01
 0.1539296069180E+01
 0.1488120671602E+01
 0.1403910485492E+01
 0.1281616806605E+01
 0.1139066042262E+01
 0.1137255173501E+01
 0.1774704829289E+01
 0.3187025818711E+01
 0.1274019127823E+01
 0.1402321764312E+01
 0.1438608633128E+01
 0.1432362564891E+01
 0.1432353970981E+01
 0.1444788741615E+01
 0.1468864094852E+01
 0.1504364836984E+01
 0.1549178966107E+01
 0.1597304478406E+01
 0.1641287290520E+01
 0.1677027704020E+01
 0.1700802067220E+01
 0.1704416090317E+01
 0.1678163198459E+01
 0.1612550005340E+01
 0.1494322278789E+01
 0.1304517349709E+01
 0.1117076545306E+01
 0.1542988946317E+01
 0.3344867185679E+01
 0.1330318676880E+01
 0.1450370956229E+01
 0.1444705715429E+01
 0.1420443841418E+01
 0.1419759296969E+01
 0.1435031555268E+01
 0.1464683710763E+01
 0.1509241435744E+01
 0.1569155903406E+01
 0.1640949892281E+01
 0.1716788648806E+01
 0.1789177251486E+01
 0.1850668363745E+01
 0.1891191977467E+01
 0.1901405726998E+01
 0.1872101924694E+01
 0.1788164206716E+01
 0.1614548115665E+01
 0.1291336441132E+01
 0.1294769473289E+01
 0.3541208002955E+01
 0.1430356720872E+01
 0.1498684898914E+01
 0.1425883067587E+01
 0.1397039648413E+01
 0.1399041817870E+01
 0.1417942360618E+01
 0.1452707301156E+01
 0.1504324954722E+01
 0.1576730876330E+01
 0.1672621339869E+01
 0.1787024692080E+01
 0.1905708750868E+01
 0.2012869737041E+01
 0.2098246558192E+01
 0.2156086473607E+01
 0.2181943033926E+01
 0.2162227996777E+01
 0.2085205399317E+01
 0.1815275352161E+01
 0.1346039866094E+01
 0.3762292780095E+01
 0.1635907542039E+01
 0.1482132314073E+01
 0.1377591890862E+01
 0.1363770144757E+01
 0.1369529317512E+01
 0.1393689109423E+01
 0.1432691300959E+01
 0.1488895600707E+01
 0.1568366911061E+01
 0.1684533321286E+01
 0.1846674544672E+01
 0.2026757993140E+01
 0.2186767277308E+01
 0.2322381576411E+01
 0.2439671679692E+01
 0.2534627326268E+01
 0.2613878444939E+01
 0.2673747570842E+01
 0.2807996261472E+01
 0.2432069547242E+01
 0.4408086067215E+01
 0.4671577813745E+00
 0.6713992377324E+00
 0.8327007379494E+00
 0.9535854137828E+00
 0.1038040260803E+01
 0.1088968221966E+01
 0.1111703739408E+01
 0.1113442443805E+01
 0.1094178080956E+01
 0.1049299863728E+01
 0.4495924014434E+00
 0.6814863580986E+00
 0.8642301484193E+00
 0.1003055605684E+01
 0.1103491533478E+01
 0.1169897527202E+01
 0.1208642465060E+01
 0.1226550114861E+01
 0.1219637476289E+01
 0.1182053325977E+01
 0.4339571589562E+00
 0.6936824485886E+00
 0.8964608784210E+00
 0.1051682506359E+01
 0.1167094748748E+01
 0.1248926220548E+01
 0.1304222908384E+01
 0.1338540301853E+01
 0.1348871939000E+01
 0.1332280514615E+01
 0.4204344130303E+00
 0.7066487359730E+00
 0.9280337239875E+00
 0.1098171561873E+01
 0.1227551814461E+01
 0.1324268496095E+01
 0.1395964436625E+01
 0.1448178786996E+01
 0.1479848107578E+01
 0.1487389885233E+01
 0.4089494355303E+00
 0.7195579095812E+00
 0.9576938136214E+00
 0.1141200703952E+01
 0.1283323993501E+01
 0.1393976018799E+01
 0.1481647096896E+01
 0.1552419590215E+01
 0.1606438881268E+01
 0.1639066417844E+01
 0.3994423144242E+00
 0.7316310531747E+00
 0.9843392584432E+00
 0.1179458224047E+01
 0.1332836700490E+01
 0.1456097045246E+01
 0.1558667527680E+01
 0.1647176970370E+01
 0.1722482546717E+01
 0.1778845648785E+01
 0.3918705552740E+00
 0.7421828838618E+00
 0.1006977084104E+01
 0.1211730419830E+01
 0.1374590185760E+01
 0.1508682395754E+01
 0.1624276628878E+01
 0.1728415611011E+01
 0.1822219389812E+01
 0.1898972298439E+01
 0.3862079581453E+00
 0.7506338387528E+00
 0.1024756642643E+01
 0.1236955970823E+01
 0.1407236384165E+01
 0.1549923816812E+01
 0.1675946026447E+01
 0.1792590518978E+01
 0.1900952489742E+01
 0.1993555052831E+01
 0.3824393743506E+00
 0.7565296043089E+00
 0.1037002850490E+01
 0.1254278704143E+01
 0.1429664797510E+01
 0.1578318211813E+01
 0.1711606736290E+01
 0.1836932646050E+01
 0.1955270076099E+01
 0.2058623920088E+01
 0.3805567849276E+00
 0.7595572827695E+00
 0.1043246376158E+01
 0.1263095860617E+01
 0.1441084590058E+01
 0.1592793667349E+01
 0.1729808681460E+01
 0.1859572446367E+01
 0.1982968614044E+01
 0.2091733811291E+01
 0.3805567851225E+00
 0.7595572825900E+00
 0.1043246375859E+01
 0.1263095860330E+01
 0.1441084589839E+01
 0.1592793667206E+01
 0.1729808681374E+01
 0.1859572446317E+01
 0.1982968614011E+01
 0.2091733811261E+01
 0.3824393749349E+00
 0.7565296037807E+00
 0.1037002849606E+01
 0.1254278703293E+01
 0.1429664796861E+01
 0.1578318211390E+01
 0.1711606736039E+01
 0.1836932645902E+01
 0.1955270076002E+01
 0.2058623920001E+01
 0.3862079591177E+00
 0.7506338379063E+00
 0.1024756641208E+01
 0.1236955969440E+01
 0.1407236383113E+01
 0.1549923816130E+01
 0.1675946026045E+01
 0.1792590518745E+01
 0.1900952489586E+01
 0.1993555052690E+01
 0.3918705566326E+00
 0.7421828827461E+00
 0.1006977082177E+01
 0.1211730417967E+01
 0.1374590184348E+01
 0.1508682394847E+01
 0.1624276628352E+01
 0.1728415610708E+01
 0.1822219389608E+01
 0.1898972298249E+01
 0.3994423161665E+00
 0.7316310518551E+00
 0.9843392561011E+00
 0.1179458221772E+01
 0.1332836698773E+01
 0.1456097044157E+01
 0.1558667527060E+01
 0.1647176970018E+01
 0.1722482546478E+01
 0.1778845648556E+01
 0.4089494376531E+00
 0.7195579081366E+00
 0.9576938109583E+00
 0.1141200701351E+01
 0.1283323991547E+01
 0.1393976017579E+01
 0.1481647096219E+01
 0.1552419589839E+01
 0.1606438881012E+01
 0.1639066417592E+01
 0.4204344155289E+00
 0.7066487344908E+00
 0.9280337211126E+00
 0.1098171559047E+01
 0.1227551812351E+01
 0.1324268494800E+01
 0.1395964435925E+01
 0.1448178786617E+01
 0.1479848107321E+01
 0.1487389884976E+01
 0.4339571618209E+00
 0.6936824471603E+00
 0.8964608754587E+00
 0.1051682503426E+01
 0.1167094746571E+01
 0.1248926219234E+01
 0.1304222907689E+01
 0.1338540301484E+01
 0.1348871938753E+01
 0.1332280514368E+01
 0.4495924046517E+00
 0.6814863568075E+00
 0.8642301455169E+00
 0.1003055602789E+01
 0.1103491531337E+01
 0.1169897525923E+01
 0.1208642464385E+01
 0.1226550114501E+01
 0.1219637476051E+01
 0.1182053325744E+01
 0.4671577848239E+00
 0.6713992366703E+00
 0.8327007352982E+00
 0.9535854111116E+00
 0.1038040258823E+01
 0.1088968220761E+01
 0.1111703738747E+01
 0.1113442443438E+01
 0.1094178080714E+01
 0.1049299863505E+01
 0.7318496193163E+00
 0.2148565076902E+00
 0.1358948572468E-01
 0.7649001641244E-01
 0.1139567922192E+00
 0.1265196718716E+00
 0.1070367064754E+00
 0.5359419360610E-01
 0.1120352184265E-01
 0.8250218536577E-01
 0.7850589170411E+00
 0.5144007182926E+00
 0.2006214724114E+00
 0.6590568682943E-01
 0.5009793223175E-02
 0.4446073470371E-01
 0.5116482518811E-01
 0.2531106059898E-01
 0.1158629898094E-01
 0.4526188527200E-01
 0.7388754571408E+00
 0.6134426280831E+00
 0.3883595132251E+00
 0.2261131745039E+00
 0.1253684549570E+00
 0.6108636912413E-01
 0.2808881490526E-01
 0.2577727883249E-01
 0.3483324608673E-01
 0.4049603518952E-01
 0.6887005244369E+00
 0.6466622665795E+00
 0.5049194352215E+00
 0.3698905341299E+00
 0.2633227609726E+00
 0.1839016907569E+00
 0.1301751633384E+00
 0.1030339247474E+00
 0.9018701360304E-01
 0.7835966785085E-01
 0.6432667518062E+00
 0.6562190375674E+00
 0.5822354258907E+00
 0.4873871536521E+00
 0.3963293170418E+00
 0.3165020502904E+00
 0.2521159819297E+00
 0.2083591056049E+00
 0.1815371207190E+00
 0.1592644545222E+00
 0.6041233114345E+00
 0.6580857288622E+00
 0.6387899440011E+00
 0.5861411274273E+00
 0.5208867732368E+00
 0.4531042607520E+00
 0.3896261266497E+00
 0.3395962708264E+00
 0.3070225546142E+00
 0.2778664847951E+00
 0.5704760919221E+00
 0.6587540896466E+00
 0.6850105884248E+00
 0.6729132741776E+00
 0.6381459430298E+00
 0.5904791755723E+00
 0.5375213034773E+00
 0.4908325242185E+00
 0.4596019702671E+00
 0.4256695808404E+00
 0.5410867415661E+00
 0.6605471812011E+00
 0.7261651033698E+00
 0.7521295121074E+00
 0.7494340624364E+00
 0.7264072455376E+00
 0.6901118873684E+00
 0.6530288296388E+00
 0.6280413266426E+00
 0.5926617709833E+00
 0.5146097480020E+00
 0.6636285185097E+00
 0.7644280197765E+00
 0.8260197225436E+00
 0.8552850260695E+00
 0.8587404269490E+00
 0.8422713202298E+00
 0.8162641241006E+00
 0.7969108922927E+00
 0.7673911812816E+00
 0.4895007527701E+00
 0.6668514220208E+00
 0.8002602981860E+00
 0.8952676538641E+00
 0.9554904480419E+00
 0.9851954500140E+00
 0.9894972449939E+00
 0.9762333966404E+00
 0.9538603282886E+00
 0.9303329580208E+00
 0.4895007562645E+00
 0.6668514212640E+00
 0.8002602957127E+00
 0.8952676512527E+00
 0.9554904460867E+00
 0.9851954488556E+00
 0.9894972444045E+00
 0.9762333963226E+00
 0.9538603280500E+00
 0.9303329577843E+00
 0.5146097514089E+00
 0.6636285181492E+00
 0.7644280178086E+00
 0.8260197203853E+00
 0.8552850244416E+00
 0.8587404259850E+00
 0.8422713197473E+00
 0.8162641238351E+00
 0.7969108920708E+00
 0.7673911810451E+00
 0.5410867449814E+00
 0.6605471813247E+00
 0.7261651019362E+00
 0.7521295104107E+00
 0.7494340611446E+00
 0.7264072447866E+00
 0.6901118870092E+00
 0.6530288294402E+00
 0.6280413264621E+00
 0.5926617707473E+00
 0.5704760953703E+00
 0.6587540902420E+00
 0.6850105874636E+00
 0.6729132728740E+00
 0.6381459420207E+00
 0.5904791750007E+00
 0.5375213032216E+00
 0.4908325240802E+00
 0.4596019701257E+00
 0.4256695806086E+00
 0.6041233149064E+00
 0.6580857298107E+00
 0.6387899433467E+00
 0.5861411263709E+00
 0.5208867724064E+00
 0.4531042602955E+00
 0.3896261264592E+00
 0.3395962707262E+00
 0.3070225545002E+00
 0.2778664845786E+00
 0.6432667552429E+00
 0.6562190386351E+00
 0.5822354252735E+00
 0.4873871526440E+00
 0.3963293162717E+00
 0.3165020498881E+00
 0.2521159817708E+00
 0.2083591055222E+00
 0.1815371206219E+00
 0.1592644543351E+00
 0.6887005276864E+00
 0.6466622673828E+00
 0.5049194342918E+00
 0.3698905329841E+00
 0.2633227602026E+00
 0.1839016903947E+00
 0.1301751632031E+00
 0.1030339246722E+00
 0.9018701351389E-01
 0.7835966769895E-01
 0.7388754598780E+00
 0.6134426280372E+00
 0.3883595116488E+00
 0.2261131732390E+00
 0.1253684542662E+00
 0.6108636885164E-01
 0.2808881480998E-01
 0.2577727876290E-01
 0.3483324599281E-01
 0.4049603505790E-01
 0.7850589184721E+00
 0.5144007166009E+00
 0.2006214705131E+00
 0.6590568584159E-01
 0.5009793639445E-02
 0.4446073481656E-01
 0.5116482522737E-01
 0.2531106066366E-01
 0.1158629886852E-01
 0.4526188512123E-01
 0.7318496186027E+00
 0.2148565054192E+00
 0.1358948657320E-01
 0.7649001671597E-01
 0.1139567922545E+00
 0.1265196718036E+00
 0.1070367064604E+00
 0.5359419367457E-01
 0.1120352171682E-01
 0.8250218514860E-01
 0.9611706009045E+00
 0.8023304148157E+00
 0.6436577761931E+00
 0.4880340243144E+00
 0.3410730664568E+00
 0.2121232676689E+00
 0.1128095764403E+00
 0.5592358656601E-01
 0.5238215649115E-01
 0.1063184650066E+00
 0.1115023273717E+01
 0.9775297382595E+00
 0.8158978184488E+00
 0.6444911940100E+00
 0.4729264381034E+00
 0.3114116906213E+00
 0.1734949880434E+00
 0.7726913194314E-01
 0.4596196223640E-01
 0.1018473110288E+00
 0.1278603447773E+01
 0.1160386351025E+01
 0.1014924179053E+01
 0.8482614608459E+00
 0.6688978781718E+00
 0.4858835207250E+00
 0.3112467278271E+00
 0.1630404247633E+00
 0.6991386998242E-01
 0.8067846372923E-01
 0.1451673240419E+01
 0.1357187181972E+01
 0.1236545885240E+01
 0.1091297436709E+01
 0.9257459261223E+00
 0.7457985948126E+00
 0.5596649241082E+00
 0.3803881464384E+00
 0.2309772217565E+00
 0.1611164832307E+00
 0.1624920418547E+01
 0.1557921008585E+01
 0.1467465526458E+01
 0.1353021176545E+01
 0.1216003543482E+01
 0.1059115044229E+01
 0.8863998480807E+00
 0.7039924516409E+00
 0.5218149044780E+00
 0.3555447941153E+00
 0.1786404731036E+01
 0.1745735808803E+01
 0.1684003705607E+01
 0.1599046404026E+01
 0.1489544512284E+01
 0.1354525570236E+01
 0.1192776670120E+01
 0.1001923266262E+01
 0.7758502749528E+00
 0.4946910939403E+00
 0.1926045559553E+01
 0.1907219558390E+01
 0.1868546282802E+01
 0.1805924933251E+01
 0.1715062342403E+01
 0.1590840283827E+01
 0.1426369586629E+01
 0.1211287243936E+01
 0.9281846536763E+00
 0.5465236286442E+00
 0.2036567569094E+01
 0.2034161617813E+01
 0.2012041405374E+01
 0.1964247075024E+01
 0.1883739859092E+01
 0.1761756256386E+01
 0.1586911408365E+01
 0.1343919582139E+01
 0.1012047488737E+01
 0.5679200637449E+00
 0.2112838922965E+01
 0.2121235331199E+01
 0.2109519403336E+01
 0.2070279447820E+01
 0.1994432142612E+01
 0.1870664530545E+01
 0.1684874473088E+01
 0.1419834493551E+01
 0.1056019216084E+01
 0.5782316062091E+00
 0.2151694734438E+01
 0.2165397708607E+01
 0.2158628204253E+01
 0.2123172244923E+01
 0.2048873809546E+01
 0.1923156254407E+01
 0.1730751402616E+01
 0.1454056590080E+01
 0.1074991669036E+01
 0.5826594105309E+00
 0.2151694734398E+01
 0.2165397708551E+01
 0.2158628204180E+01
 0.2123172244834E+01
 0.2048873809446E+01
 0.1923156254305E+01
 0.1730751402527E+01
 0.1454056590019E+01
 0.1074991669014E+01
 0.5826594105462E+00
 0.2112838922846E+01
 0.2121235331032E+01
 0.2109519403117E+01
 0.2070279447550E+01
 0.1994432142305E+01
 0.1870664530227E+01
 0.1684874472800E+01
 0.1419834493344E+01
 0.1056019216001E+01
 0.5782316062530E+00
 0.2036567568902E+01
 0.2034161617539E+01
 0.2012041405009E+01
 0.1964247074567E+01
 0.1883739858559E+01
 0.1761756255814E+01
 0.1586911407820E+01
 0.1343919581714E+01
 0.1012047488533E+01
 0.5679200638055E+00
 0.1926045559298E+01
 0.1907219558019E+01
 0.1868546282296E+01
 0.1805924932603E+01
 0.1715062341625E+01
 0.1590840282956E+01
 0.1426369585743E+01
 0.1211287243166E+01
 0.9281846532156E+00
 0.5465236286743E+00
 0.1786404730732E+01
 0.1745735808347E+01
 0.1684003704972E+01
 0.1599046403195E+01
 0.1489544511256E+01
 0.1354525569035E+01
 0.1192776668814E+01
 0.1001923264988E+01
 0.7758502739716E+00
 0.4946910937188E+00
 0.1624920418211E+01
 0.1557921008065E+01
 0.1467465525721E+01
 0.1353021175562E+01
 0.1216003542235E+01
 0.1059115042718E+01
 0.8863998463365E+00
 0.7039924497524E+00
 0.5218149026550E+00
 0.3555447929099E+00
 0.1451673240083E+01
 0.1357187181445E+01
 0.1236545884498E+01
 0.1091297435738E+01
 0.9257459249200E+00
 0.7457985933988E+00
 0.5596649225316E+00
 0.3803881447959E+00
 0.2309772202277E+00
 0.1611164821467E+00
 0.1278603447462E+01
 0.1160386350542E+01
 0.1014924178398E+01
 0.8482614600410E+00
 0.6688978772612E+00
 0.4858835197787E+00
 0.3112467269465E+00
 0.1630404240819E+00
 0.6991386964674E-01
 0.8067846375295E-01
 0.1115023273433E+01
 0.9775297378199E+00
 0.8158978178844E+00
 0.6444911933688E+00
 0.4729264374456E+00
 0.3114116900207E+00
 0.1734949875822E+00
 0.7726913169090E-01
 0.4596196219482E-01
 0.1018473110170E+00
 0.9611706006276E+00
 0.8023304144234E+00
 0.6436577757360E+00
 0.4880340238351E+00
 0.3410730660058E+00
 0.2121232673003E+00
 0.1128095761976E+00
 0.5592358645659E-01
 0.5238215645042E-01
 0.1063184648782E+00
</DataArray>
<DataArray type="Float64" Name="CK" NumberOfComponents="1" ComponentName0="CK" format="ascii">
 0.0000000000000E+00
 0.0000000000000E+00
 0.0000000000000E+00
 0.0000000000000E+00
 0.0000000000000E+00
 0.0000000000000E+00
 0.0000000000000E+00
 0.0000000000000E+00
 0.0000000000000E+00
 0.0000000000000E+00
 0.0000000000000E+00
 0.0000000000000E+00
 0.0000000000000E+00
 0.0000000000000E+00
 0.0000000000000E+00
 0.0000000000000E+00
 0.0000000000000E+00
 0.0000000000000E+00
 0.0000000000000E+00
 0.0000000000000E+00
 0.0000000000000E+00
 0.0000000000000E+00
 0.0000000000000E+00
 0.0000000000000E+00
 0.0000000000000E+00
 0.0000000000000E+00
 0.0000000000000E+00
 0.0000000000000E+00
 0.0000000000000E+00
 0.0000000000000E+00
 0.0000000000000E+00
 0.0000000000000E+00
 0.0000000000000E+00
 0.0000000000000E+00
 0.0000000000000E+00
 0.0000000000000E+00
 0.0000000000000E+00
 0.0000000000000E+00
 0.0000000000000E+00
 0.0000000000000E+00
 0.0000000000000E+00
 0.0000000000000E+00
 0.0000000000000E+00
 0.0000000000000E+00
 0.0000000000000E+00
 0.0000000000000E+00
 0.0000000000000E+00
 0.0000000000000E+00
 0.0000000000000E+00
 0.0000000000000E+00
 0.0000000000000E+00
 0.0000000000000E+00
 0.0000000000000E+00
 0.0000000000000E+00
 0.0000000000000E+00
 0.0000000000000E+00
 0.0000000000000E+00
 0.0000000000000E+00
 0.0000000000000E+00
 0.0000000000000E+00
 0.0000000000000E+00
 0.0000000000000E+00
 0.0000000000000E+00
 0.0000000000000E+00
 0.0000000000000E+00
 0.0000000000000E+00
 0.0000000000000E+00
 0.0000000000000E+00
 0.0000000000000E+00
 0.0000000000000E+00
 0.0000000000000E+00
 0.0000000000000E+00
 0.0000000000000E+00
 0.0000000000000E+00
 0.0000000000000E+00
 0.0000000000000E+00
 0.0000000000000E+00
 0.0000000000000E+00
 0.0000000000000E+00
 0.0000000000000E+00
 0.0000000000000E+00
 0.0000000000000E+00
 0.0000000000000E+00
 0.0000000000000E+00
 0.0000000000000E+00
 0.0000000000000E+00
 0.0000000000000E+00
 0.0000000000000E+00
 0.0000000000000E+00
 0.0000000000000E+00
 0.0000000000000E+00
 0.0000000000000E+00
 0.0000000000000E+00
 0.0000000000000E+00
 0.0000000000000E+00
 0.0000000000000E+00
 0.0000000000000E+00
 0.0000000000000E+00
 0.0000000000000E+00
 0.0000000000000E+00
 0.0000000000000E+00
 0.0000000000000E+00
 0.0000000000000E+00
 0.0000000000000E+00
 0.0000000000000E+00
 0.0000000000000E+00
 0.0000000000000E+00
 0.0000000000000E+00
 0.0000000000000E+00
 0.0000000000000E+00
 0.0000000000000E+00
 0.0000000000000E+00
 0.0000000000000E+00
 0.0000000000000E+00
 0.0000000000000E+00
 0.0000000000000E+00
 0.0000000000000E+00
 0.0000000000000E+00
 0.0000000000000E+00
 0.0000000000000E+00
 0.0000000000000E+00
 0.0000000000000E+00
 0.0000000000000E+00
 0.0000000000000E+00
 0.0000000000000E+00
 0.0000000000000E+00
 0.0000000000000E+00
 0.0000000000000E+00
 0.0000000000000E+00
 0.0000000000000E+00
 0.0000000000000E+00
 0.0000000000000E+00
 0.0000000000000E+00
 0.0000000000000E+00
 0.0000000000000E+00
 0.0000000000000E+00
 0.0000000000000E+00
 0.0000000000000E+00
 0.0000000000000E+00
 0.0000000000000E+00
 0.0000000000000E+00
 0.0000000000000E+00
 0.0000000000000E+00
 0.0000000000000E+00
 0.0000000000000E+00
 0.0000000000000E+00
 0.0000000000000E+00
 0.0000000000000E+00
 0.0000000000000E+00
 0.0000000000000E+00
 0.0000000000000E+00
 0.0000000000000E+00
 0.0000000000000E+00
 0.0000000000000E+00
 0.0000000000000E+00
 0.0000000000000E+00
 0.0000000000000E+00
 0.0000000000000E+00
 0.0000000000000E+00
 0.0000000000000E+00
 0.0000000000000E+00
 0.0000000000000E+00
 0.0000000000000E+00
 0.0000000000000E+00
 0.0000000000000E+00
 0.0000000000000E+00
 0.0000000000000E+00
 0.0000000000000E+00
 0.0000000000000E+00
 0.0000000000000E+00
 0.0000000000000E+00
 0.0000000000000E+00
 0.0000000000000E+00
 0.0000000000000E+00
 0.0000000000000E+00
 0.0000000000000E+00
 0.0000000000000E+00
 0.0000000000000E+00
 0.0000000000000E+00
 0.0000000000000E+00
 0.0000000000000E+00
 0.0000000000000E+00
 0.0000000000000E+00
 0.0000000000000E+00
 0.0000000000000E+00
 0.0000000000000E+00
 0.0000000000000E+00
 0.0000000000000E+00
 0.0000000000000E+00
 0.0000000000000E+00
 0.0000000000000E+00
 0.0000000000000E+00
 0.0000000000000E+00
 0.0000000000000E+00
 0.0000000000000E+00
 0.0000000000000E+00
 0.0000000000000E+00
 0.0000000000000E+00
 0.0000000000000E+00
 0.0000000000000E+00
 0.0000000000000E+00
 0.0000000000000E+00
 0.0000000000000E+00
 0.0000000000000E+00
 0.0000000000000E+00
 0.0000000000000E+00
 0.0000000000000E+00
 0.0000000000000E+00
 0.0000000000000E+00
 0.0000000000000E+00
 0.0000000000000E+00
 0.0000000000000E+00
 0.0000000000000E+00
 0.0000000000000E+00
 0.0000000000000E+00
 0.0000000000000E+00
 0.0000000000000E+00
 0.0000000000000E+00
 0.0000000000000E+00
 0.0000000000000E+00
 0.0000000000000E+00
 0.0000000000000E+00
 0.0000000000000E+00
 0.0000000000000E+00
 0.0000000000000E+00
 0.0000000000000E+00
 0.0000000000000E+00
 0.0000000000000E+00
 0.0000000000000E+00
 0.0000000000000E+00
 0.0000000000000E+00
 0.0000000000000E+00
 0.0000000000000E+00
 0.0000000000000E+00
 0.0000000000000E+00
 0.0000000000000E+00
 0.0000000000000E+00
 0.0000000000000E+00
 0.0000000000000E+00
 0.0000000000000E+00
 0.0000000000000E+00
 0.0000000000000E+00
 0.0000000000000E+00
 0.0000000000000E+00
 0.0000000000000E+00
 0.0000000000000E+00
 0.0000000000000E+00
 0.0000000000000E+00
 0.0000000000000E+00
 0.0000000000000E+00
 0.0000000000000E+00
 0.0000000000000E+00
 0.0000000000000E+00
 0.0000000000000E+00
 0.0000000000000E+00
 0.0000000000000E+00
 0.0000000000000E+00
 0.0000000000000E+00
 0.0000000000000E+00
 0.0000000000000E+00
 0.0000000000000E+00
 0.0000000000000E+00
 0.0000000000000E+00
 0.0000000000000E+00
 0.0000000000000E+00
 0.0000000000000E+00
 0.0000000000000E+00
 0.0000000000000E+00
 0.0000000000000E+00
 0.0000000000000E+00
 0.0000000000000E+00
 0.0000000000000E+00
 0.0000000000000E+00
 0.0000000000000E+00
 0.0000000000000E+00
 0.0000000000000E+00
 0.0000000000000E+00
 0.0000000000000E+00
 0.0000000000000E+00
 0.0000000000000E+00
 0.0000000000000E+00
 0.0000000000000E+00
 0.0000000000000E+00
 0.0000000000000E+00
 0.0000000000000E+00
 0.0000000000000E+00
 0.0000000000000E+00
 0.0000000000000E+00
 0.0000000000000E+00
 0.0000000000000E+00
 0.0000000000000E+00
 0.0000000000000E+00
 0.0000000000000E+00
 0.0000000000000E+00
 0.0000000000000E+00
 0.0000000000000E+00
 0.0000000000000E+00
 0.0000000000000E+00
 0.0000000000000E+00
 0.0000000000000E+00
 0.0000000000000E+00
 0.0000000000000E+00
 0.0000000000000E+00
 0.0000000000000E+00
 0.0000000000000E+00
 0.0000000000000E+00
 0.0000000000000E+00
 0.0000000000000E+00
 0.0000000000000E+00
 0.0000000000000E+00
 0.0000000000000E+00
 0.0000000000000E+00
 0.0000000000000E+00
 0.0000000000000E+00
 0.0000000000000E+00
 0.0000000000000E+00
 0.0000000000000E+00
 0.0000000000000E+00
 0.0000000000000E+00
 0.0000000000000E+00
 0.0000000000000E+00
 0.0000000000000E+00
 0.0000000000000E+00
 0.0000000000000E+00
 0.0000000000000E+00
 0.0000000000000E+00
 0.0000000000000E+00
 0.0000000000000E+00
 0.0000000000000E+00
 0.0000000000000E+00
 0.0000000000000E+00
 0.0000000000000E+00
 0.0000000000000E+00
 0.0000000000000E+00
 0.0000000000000E+00
 0.0000000000000E+00
 0.0000000000000E+00
 0.0000000000000E+00
 0.0000000000000E+00
 0.0000000000000E+00
 0.0000000000000E+00
 0.0000000000000E+00
 0.0000000000000E+00
 0.0000000000000E+00
 0.0000000000000E+00
 0.0000000000000E+00
 0.0000000000000E+00
 0.0000000000000E+00
 0.0000000000000E+00
 0.0000000000000E+00
 0.0000000000000E+00
 0.0000000000000E+00
 0.0000000000000E+00
 0.0000000000000E+00
 0.0000000000000E+00
 0.0000000000000E+00
 0.0000000000000E+00
 0.0000000000000E+00
 0.0000000000000E+00
 0.0000000000000E+00
 0.0000000000000E+00
 0.0000000000000E+00
 0.0000000000000E+00
 0.0000000000000E+00
 0.0000000000000E+00
 0.0000000000000E+00
 0.0000000000000E+00
 0.0000000000000E+00
 0.0000000000000E+00
 0.0000000000000E+00
 0.0000000000000E+00
 0.0000000000000E+00
 0.0000000000000E+00
 0.0000000000000E+00
 0.0000000000000E+00
 0.0000000000000E+00
 0.0000000000000E+00
 0.0000000000000E+00
 0.0000000000000E+00
 0.0000000000000E+00
 0.0000000000000E+00
 0.0000000000000E+00
 0.0000000000000E+00
 0.0000000000000E+00
 0.0000000000000E+00
 0.0000000000000E+00
 0.0000000000000E+00
 0.0000000000000E+00
 0.0000000000000E+00
 0.0000000000000E+00
 0.0000000000000E+00
 0.0000000000000E+00
 0.0000000000000E+00
 0.0000000000000E+00
 0.0000000000000E+00
 0.0000000000000E+00
 0.0000000000000E+00
 0.0000000000000E+00
 0.0000000000000E+00
 0.0000000000000E+00
 0.0000000000000E+00
 0.0000000000000E+00
 0.0000000000000E+00
 0.0000000000000E+00
 0.0000000000000E+00
 0.0000000000000E+00
 0.0000000000000E+00
 0.0000000000000E+00
 0.0000000000000E+00
 0.0000000000000E+00
 0.0000000000000E+00
 0.0000000000000E+00
 0.0000000000000E+00
 0.0000000000000E+00
 0.0000000000000E+00
 0.0000000000000E+00
 0.0000000000000E+00
 0.0000000000000E+00
 0.0000000000000E+00
 0.0000000000000E+00
 0.0000000000000E+00
 0.0000000000000E+00
 0.0000000000000E+00
 0.0000000000000E+00
 0.0000000000000E+00
 0.0000000000000E+00
 0.0000000000000E+00
 0.0000000000000E+00
 0.0000000000000E+00
 0.0000000000000E+00
 0.0000000000000E+00
 0.0000000000000E+00
 0.0000000000000E+00
 0.0000000000000E+00
 0.0000000000000E+00
 0.0000000000000E+00
 0.0000000000000E+00
 0.0000000000000E+00
 0.0000000000000E+00
 0.0000000000000E+00
 0.0000000000000E+00
 0.0000000000000E+00
 0.0000000000000E+00
 0.0000000000000E+00
 0.0000000000000E+00
 0.0000000000000E+00
 0.0000000000000E+00
 0.0000000000000E+00
 0.0000000000000E+00
 0.0000000000000E+00
 0.0000000000000E+00
 0.0000000000000E+00
 0.0000000000000E+00
 0.0000000000000E+00
 0.0000000000000E+00
 0.0000000000000E+00
 0.0000000000000E+00
 0.0000000000000E+00
 0.0000000000000E+00
 0.0000000000000E+00
 0.0000000000000E+00
 0.0000000000000E+00
 0.0000000000000E+00
 0.0000000000000E+00
 0.0000000000000E+00
 0.0000000000000E+00
 0.0000000000000E+00
 0.0000000000000E+00
 0.0000000000000E+00
 0.0000000000000E+00
 0.0000000000000E+00
 0.0000000000000E+00
 0.0000000000000E+00
 0.0000000000000E+00
 0.0000000000000E+00
 0.0000000000000E+00
 0.0000000000000E+00
 0.0000000000000E+00
 0.0000000000000E+00
 0.0000000000000E+00
 0.0000000000000E+00
 0.0000000000000E+00
 0.0000000000000E+00
 0.0000000000000E+00
 0.0000000000000E+00
 0.0000000000000E+00
 0.0000000000000E+00
 0.0000000000000E+00
 0.0000000000000E+00
 0.0000000000000E+00
 0.0000000000000E+00
 0.0000000000000E+00
 0.0000000000000E+00
 0.0000000000000E+00
 0.0000000000000E+00
 0.0000000000000E+00
 0.0000000000000E+00
 0.0000000000000E+00
 0.0000000000000E+00
 0.0000000000000E+00
 0.0000000000000E+00
 0.0000000000000E+00
 0.0000000000000E+00
 0.0000000000000E+00
 0.0000000000000E+00
 0.0000000000000E+00
 0.0000000000000E+00
 0.0000000000000E+00
 0.0000000000000E+00
 0.0000000000000E+00
 0.0000000000000E+00
 0.0000000000000E+00
 0.0000000000000E+00
 0.0000000000000E+00
 0.0000000000000E+00
 0.0000000000000E+00
 0.0000000000000E+00
 0.0000000000000E+00
 0.0000000000000E+00
 0.0000000000000E+00
 0.0000000000000E+00
 0.0000000000000E+00
 0.0000000000000E+00
 0.0000000000000E+00
 0.0000000000000E+00
 0.0000000000000E+00
 0.0000000000000E+00
 0.0000000000000E+00
 0.0000000000000E+00
 0.0000000000000E+00
 0.0000000000000E+00
 0.0000000000000E+00
 0.0000000000000E+00
 0.0000000000000E+00
 0.0000000000000E+00
 0.0000000000000E+00
 0.0000000000000E+00
 0.0000000000000E+00
 0.0000000000000E+00
 0.0000000000000E+00
 0.0000000000000E+00
 0.0000000000000E+00
 0.0000000000000E+00
 0.0000000000000E+00
 0.0000000000000E+00
 0.0000000000000E+00
 0.0000000000000E+00
 0.0000000000000E+00
 0.0000000000000E+00
 0.0000000000000E+00
 0.0000000000000E+00
 0.0000000000000E+00
 0.0000000000000E+00
 0.0000000000000E+00
 0.0000000000000E+00
 0.0000000000000E+00
 0.0000000000000E+00
 0.0000000000000E+00
 0.0000000000000E+00
 0.0000000000000E+00
 0.0000000000000E+00
 0.0000000000000E+00
 0.0000000000000E+00
 0.0000000000000E+00
 0.0000000000000E+00
 0.0000000000000E+00
 0.0000000000000E+00
 0.0000000000000E+00
 0.0000000000000E+00
 0.0000000000000E+00
 0.0000000000000E+00
 0.0000000000000E+00
 0.0000000000000E+00
 0.0000000000000E+00
 0.0000000000000E+00
 0.0000000000000E+00
 0.0000000000000E+00
 0.0000000000000E+00
 0.0000000000000E+00
 0.0000000000000E+00
 0.0000000000000E+00
 0.0000000000000E+00
 0.0000000000000E+00
 0.0000000000000E+00
 0.0000000000000E+00
 0.0000000000000E+00
 0.0000000000000E+00
 0.0000000000000E+00
 0.0000000000000E+00
 0.0000000000000E+00
 0.0000000000000E+00
 0.0000000000000E+00
 0.0000000000000E+00
 0.0000000000000E+00
 0.0000000000000E+00
 0.0000000000000E+00
 0.0000000000000E+00
 0.0000000000000E+00
 0.0000000000000E+00
 0.0000000000000E+00
 0.0000000000000E+00
 0.0000000000000E+00
 0.0000000000000E+00
 0.0000000000000E+00
 0.0000000000000E+00
 0.0000000000000E+00
 0.0000000000000E+00
 0.0000000000000E+00
 0.0000000000000E+00
 0.0000000000000E+00
 0.0000000000000E+00
 0.0000000000000E+00
 0.0000000000000E+00
 0.0000000000000E+00
 0.0000000000000E+00
 0.0000000000000E+00
 0.0000000000000E+00
 0.0000000000000E+00
 0.0000000000000E+00
 0.0000000000000E+00
 0.0000000000000E+00
 0.0000000000000E+00
 0.0000000000000E+00
 0.0000000000000E+00
 0.0000000000000E+00
 0.0000000000000E+00
 0.0000000000000E+00
 0.0000000000000E+00
 0.0000000000000E+00
 0.0000000000000E+00
 0.0000000000000E+00
 0.0000000000000E+00
 0.0000000000000E+00
 0.0000000000000E+00
 0.0000000000000E+00
 0.0000000000000E+00
 0.0000000000000E+00
 0.0000000000000E+00
 0.0000000000000E+00
 0.0000000000000E+00
 0.0000000000000E+00
 0.0000000000000E+00
 0.0000000000000E+00
 0.0000000000000E+00
 0.0000000000000E+00
 0.0000000000000E+00
 0.0000000000000E+00
 0.0000000000000E+00
 0.0000000000000E+00
 0.0000000000000E+00
 0.0000000000000E+00
 0.0000000000000E+00
 0.0000000000000E+00
 0.0000000000000E+00
 0.0000000000000E+00
 0.0000000000000E+00
 0.0000000000000E+00
 0.0000000000000E+00
 0.0000000000000E+00
 0.0000000000000E+00
 0.0000000000000E+00
 0.0000000000000E+00
 0.0000000000000E+00
 0.0000000000000E+00
 0.0000000000000E+00
 0.0000000000000E+00
 0.0000000000000E+00
 0.0000000000000E+00
 0.0000000000000E+00
 0.0000000000000E+00
 0.0000000000000E+00
 0.0000000000000E+00
 0.0000000000000E+00
 0.0000000000000E+00
 0.0000000000000E+00
 0.0000000000000E+00
 0.0000000000000E+00
 0.0000000000000E+00
 0.0000000000000E+00
 0.0000000000000E+00
 0.0000000000000E+00
 0.0000000000000E+00
 0.0000000000000E+00
 0.0000000000000E+00
 0.0000000000000E+00
 0.0000000000000E+00
 0.0000000000000E+00
 0.0000000000000E+00
 0.0000000000000E+00
 0.0000000000000E+00
 0.0000000000000E+00
 0.0000000000000E+00
 0.0000000000000E+00
 0.0000000000000E+00
 0.0000000000000E+00
 0.0000000000000E+00
 0.0000000000000E+00
 0.0000000000000E+00
 0.0000000000000E+00
 0.0000000000000E+00
 0.0000000000000E+00
 0.0000000000000E+00
 0.0000000000000E+00
 0.0000000000000E+00
 0.0000000000000E+00
 0.0000000000000E+00
 0.0000000000000E+00
 0.0000000000000E+00
 0.0000000000000E+00
 0.0000000000000E+00
 0.0000000000000E+00
 0.0000000000000E+00
 0.0000000000000E+00
 0.0000000000000E+00
 0.0000000000000E+00
 0.0000000000000E+00
 0.0000000000000E+00
 0.0000000000000E+00
 0.0000000000000E+00
 0.0000000000000E+00
 0.0000000000000E+00
 0.0000000000000E+00
 0.0000000000000E+00
 0.0000000000000E+00
 0.0000000000000E+00
 0.0000000000000E+00
 0.0000000000000E+00
 0.0000000000000E+00
 0.0000000000000E+00
 0.0000000000000E+00
 0.0000000000000E+00
 0.0000000000000E+00
 0.0000000000000E+00
 0.0000000000000E+00
 0.0000000000000E+00
 0.0000000000000E+00
 0.0000000000000E+00
 0.0000000000000E+00
 0.0000000000000E+00
 0.0000000000000E+00
 0.0000000000000E+00
 0.0000000000000E+00
 0.0000000000000E+00
 0.0000000000000E+00
 0.0000000000000E+00
 0.0000000000000E+00
 0.0000000000000E+00
 0.0000000000000E+00
 0.0000000000000E+00
 0.0000000000000E+00
 0.0000000000000E+00
 0.0000000000000E+00
 0.0000000000000E+00
 0.0000000000000E+00
 0.0000000000000E+00
 0.0000000000000E+00
 0.0000000000000E+00
 0.0000000000000E+00
 0.0000000000000E+00
 0.0000000000000E+00
 0.0000000000000E+00
 0.0000000000000E+00
 0.0000000000000E+00
 0.0000000000000E+00
 0.0000000000000E+00
 0.0000000000000E+00
 0.0000000000000E+00
 0.0000000000000E+00
 0.0000000000000E+00
 0.0000000000000E+00
 0.0000000000000E+00
 0.0000000000000E+00
 0.0000000000000E+00
 0.0000000000000E+00
 0.0000000000000E+00
 0.0000000000000E+00
 0.0000000000000E+00
 0.0000000000000E+00
 0.0000000000000E+00
 0.0000000000000E+00
 0.0000000000000E+00
 0.0000000000000E+00
 0.0000000000000E+00
 0.0000000000000E+00
 0.0000000000000E+00
 0.0000000000000E+00
 0.0000000000000E+00
 0.0000000000000E+00
 0.0000000000000E+00
 0.0000000000000E+00
 0.0000000000000E+00
 0.0000000000000E+00
 0.0000000000000E+00
 0.0000000000000E+00
 0.0000000000000E+00
 0.0000000000000E+00
 0.0000000000000E+00
 0.0000000000000E+00
 0.0000000000000E+00
 0.0000000000000E+00
 0.0000000000000E+00
 0.0000000000000E+00
 0.0000000000000E+00
 0.0000000000000E+00
 0.0000000000000E+00
 0.0000000000000E+00
 0.0000000000000E+00
 0.0000000000000E+00
 0.0000000000000E+00
 0.0000000000000E+00
 0.0000000000000E+00
 0.0000000000000E+00
 0.0000000000000E+00
 0.0000000000000E+00
 0.0000000000000E+00
 0.0000000000000E+00
 0.0000000000000E+00
 0.0000000000000E+00
 0.0000000000000E+00
 0.0000000000000E+00
 0.0000000000000E+00
 0.0000000000000E+00
 0.0000000000000E+00
 0.0000000000000E+00
 0.0000000000000E+00
 0.0000000000000E+00
 0.0000000000000E+00
 0.0000000000000E+00
 0.0000000000000E+00
 0.0000000000000E+00
 0.0000000000000E+00
 0.0000000000000E+00
 0.0000000000000E+00
 0.0000000000000E+00
 0.0000000000000E+00
 0.0000000000000E+00
 0.0000000000000E+00
 0.0000000000000E+00
 0.0000000000000E+00
 0.0000000000000E+00
 0.0000000000000E+00
 0.0000000000000E+00
 0.0000000000000E+00
 0.0000000000000E+00
 0.0000000000000E+00
 0.0000000000000E+00
 0.0000000000000E+00
 0.0000000000000E+00
 0.0000000000000E+00
 0.0000000000000E+00
 0.0000000000000E+00
 0.0000000000000E+00
 0.0000000000000E+00
 0.0000000000000E+00
 0.0000000000000E+00
 0.0000000000000E+00
 0.0000000000000E+00
 0.0000000000000E+00
 0.0000000000000E+00
 0.0000000000000E+00
 0.0000000000000E+00
 0.0000000000000E+00
 0.0000000000000E+00
 0.0000000000000E+00
 0.0000000000000E+00
 0.0000000000000E+00
 0.0000000000000E+00
 0.0000000000000E+00
 0.0000000000000E+00
 0.0000000000000E+00
 0.0000000000000E+00
 0.0000000000000E+00
 0.0000000000000E+00
 0.0000000000000E+00
 0.0000000000000E+00
 0.0000000000000E+00
 0.0000000000000E+00
 0.0000000000000E+00
 0.0000000000000E+00
 0.0000000000000E+00
 0.0000000000000E+00
 0.0000000000000E+00
 0.0000000000000E+00
 0.0000000000000E+00
 0.0000000000000E+00
 0.0000000000000E+00
 0.0000000000000E+00
 0.0000000000000E+00
 0.0000000000000E+00
 0.0000000000000E+00
 0.0000000000000E+00
 0.0000000000000E+00
 0.0000000000000E+00
 0.0000000000000E+00
 0.0000000000000E+00
 0.0000000000000E+00
 0.0000000000000E+00
 0.0000000000000E+00
 0.0000000000000E+00
 0.0000000000000E+00
 0.0000000000000E+00
 0.0000000000000E+00
 0.0000000000000E+00
 0.0000000000000E+00
 0.0000000000000E+00
 0.0000000000000E+00
 0.0000000000000E+00
 0.0000000000000E+00
 0.0000000000000E+00
 0.0000000000000E+00
 0.0000000000000E+00
 0.0000000000000E+00
 0.0000000000000E+00
 0.0000000000000E+00
 0.0000000000000E+00
 0.0000000000000E+00
 0.0000000000000E+00
 0.0000000000000E+00
 0.0000000000000E+00
 0.0000000000000E+00
 0.0000000000000E+00
 0.0000000000000E+00
 0.0000000000000E+00
 0.0000000000000E+00
 0.0000000000000E+00
 0.0000000000000E+00
 0.0000000000000E+00
 0.0000000000000E+00
 0.0000000000000E+00
 0.0000000000000E+00
 0.0000000000000E+00
 0.0000000000000E+00
 0.0000000000000E+00
 0.0000000000000E+00
 0.0000000000000E+00
 0.0000000000000E+00
 0.0000000000000E+00
 0.0000000000000E+00
 0.0000000000000E+00
 0.0000000000000E+00
 0.0000000000000E+00
 0.0000000000000E+00
 0.0000000000000E+00
 0.0000000000000E+00
 0.0000000000000E+00
 0.0000000000000E+00
 0.0000000000000E+00
 0.0000000000000E+00
 0.0000000000000E+00
 0.0000000000000E+00
 0.0000000000000E+00
 0.0000000000000E+00
 0.0000000000000E+00
 0.0000000000000E+00
 0.0000000000000E+00
 0.0000000000000E+00
 0.0000000000000E+00
 0.0000000000000E+00
 0.0000000000000E+00
 0.0000000000000E+00
 0.0000000000000E+00
 0.0000000000000E+00
 0.0000000000000E+00
 0.0000000000000E+00
 0.0000000000000E+00
 0.0000000000000E+00
 0.0000000000000E+00
 0.0000000000000E+00
 0.0000000000000E+00
 0.0000000000000E+00
 0.0000000000000E+00
 0.0000000000000E+00
 0.0000000000000E+00
 0.0000000000000E+00
 0.0000000000000E+00
 0.0000000000000E+00
 0.0000000000000E+00
 0.0000000000000E+00
 0.0000000000000E+00
 0.0000000000000E+00
 0.0000000000000E+00
 0.0000000000000E+00
 0.0000000000000E+00
 0.0000000000000E+00
 0.0000000000000E+00
 0.0000000000000E+00
 0.0000000000000E+00
 0.0000000000000E+00
 0.0000000000000E+00
 0.0000000000000E+00
 0.0000000000000E+00
 0.0000000000000E+00
 0.0000000000000E+00
 0.0000000000000E+00
 0.0000000000000E+00
 0.0000000000000E+00
 0.0000000000000E+00
 0.0000000000000E+00
 0.0000000000000E+00
 0.0000000000000E+00
 0.0000000000000E+00
 0.0000000000000E+00
 0.0000000000000E+00
 0.0000000000000E+00
 0.0000000000000E+00
 0.0000000000000E+00
 0.0000000000000E+00
 0.0000000000000E+00
 0.0000000000000E+00
 0.0000000000000E+00
 0.0000000000000E+00
 0.0000000000000E+00
 0.0000000000000E+00
 0.0000000000000E+00
 0.0000000000000E+00
 0.0000000000000E+00
 0.0000000000000E+00
 0.0000000000000E+00
 0.0000000000000E+00
 0.0000000000000E+00
 0.0000000000000E+00
 0.0000000000000E+00
 0.0000000000000E+00
 0.0000000000000E+00
 0.0000000000000E+00
 0.0000000000000E+00
 0.0000000000000E+00
 0.0000000000000E+00
 0.0000000000000E+00
 0.0000000000000E+00
 0.0000000000000E+00
 0.0000000000000E+00
 0.0000000000000E+00
 0.0000000000000E+00
 0.0000000000000E+00
 0.0000000000000E+00
 0.0000000000000E+00
 0.0000000000000E+00
 0.0000000000000E+00
 0.0000000000000E+00
 0.0000000000000E+00
 0.0000000000000E+00
 0.0000000000000E+00
 0.0000000000000E+00
 0.0000000000000E+00
 0.0000000000000E+00
 0.0000000000000E+00
 0.0000000000000E+00
 0.0000000000000E+00
 0.0000000000000E+00
 0.0000000000000E+00
 0.0000000000000E+00
 0.0000000000000E+00
 0.0000000000000E+00
 0.0000000000000E+00
 0.0000000000000E+00
 0.0000000000000E+00
 0.0000000000000E+00
 0.0000000000000E+00
 0.0000000000000E+00
 0.0000000000000E+00
 0.0000000000000E+00
 0.0000000000000E+00
 0.0000000000000E+00
 0.0000000000000E+00
 0.0000000000000E+00
 0.0000000000000E+00
 0.0000000000000E+00
 0.0000000000000E+00
 0.0000000000000E+00
 0.0000000000000E+00
 0.0000000000000E+00
 0.0000000000000E+00
 0.0000000000000E+00
 0.0000000000000E+00
 0.0000000000000E+00
 0.0000000000000E+00
 0.0000000000000E+00
 0.0000000000000E+00
 0.0000000000000E+00
 0.0000000000000E+00
 0.0000000000000E+00
 0.0000000000000E+00
 0.0000000000000E+00
 0.0000000000000E+00
 0.0000000000000E+00
 0.0000000000000E+00
 0.0000000000000E+00
 0.0000000000000E+00
 0.0000000000000E+00
 0.0000000000000E+00
 0.0000000000000E+00
 0.0000000000000E+00
 0.0000000000000E+00
 0.0000000000000E+00
 0.0000000000000E+00
 0.0000000000000E+00
 0.0000000000000E+00
 0.0000000000000E+00
 0.0000000000000E+00
 0.0000000000000E+00
 0.0000000000000E+00
 0.0000000000000E+00
 0.0000000000000E+00
 0.0000000000000E+00
 0.0000000000000E+00
 0.0000000000000E+00
 0.0000000000000E+00
 0.0000000000000E+00
 0.0000000000000E+00
 0.0000000000000E+00
 0.0000000000000E+00
 0.0000000000000E+00
 0.0000000000000E+00
 0.0000000000000E+00
 0.0000000000000E+00
 0.0000000000000E+00
 0.0000000000000E+00
 0.0000000000000E+00
 0.0000000000000E+00
 0.0000000000000E+00
 0.0000000000000E+00
 0.0000000000000E+00
 0.0000000000000E+00
 0.0000000000000E+00
 0.0000000000000E+00
 0.0000000000000E+00
 0.0000000000000E+00
 0.0000000000000E+00
 0.0000000000000E+00
 0.0000000000000E+00
 0.0000000000000E+00
 0.0000000000000E+00
 0.0000000000000E+00
 0.0000000000000E+00
 0.0000000000000E+00
 0.0000000000000E+00
 0.0000000000000E+00
 0.0000000000000E+00
 0.0000000000000E+00
 0.0000000000000E+00
 0.0000000000000E+00
 0.0000000000000E+00
 0.0000000000000E+00
 0.0000000000000E+00
 0.0000000000000E+00
 0.0000000000000E+00
 0.0000000000000E+00
 0.0000000000000E+00
 0.0000000000000E+00
 0.0000000000000E+00
 0.0000000000000E+00
 0.0000000000000E+00
 0.0000000000000E+00
 0.0000000000000E+00
 0.0000000000000E+00
 0.0000000000000E+00
 0.0000000000000E+00
 0.0000000000000E+00
 0.0000000000000E+00
 0.0000000000000E+00
 0.0000000000000E+00
 0.0000000000000E+00
 0.0000000000000E+00
 0.0000000000000E+00
 0.0000000000000E+00
 0.0000000000000E+00
 0.0000000000000E+00
 0.0000000000000E+00
 0.0000000000000E+00
 0.0000000000000E+00
 0.0000000000000E+00
 0.0000000000000E+00
 0.0000000000000E+00
 0.0000000000000E+00
 0.0000000000000E+00
 0.0000000000000E+00
 0.0000000000000E+00
 0.0000000000000E+00
 0.0000000000000E+00
 0.0000000000000E+00
 0.0000000000000E+00
 0.0000000000000E+00
 0.0000000000000E+00
 0.0000000000000E+00
 0.0000000000000E+00
 0.0000000000000E+00
 0.0000000000000E+00
 0.0000000000000E+00
 0.0000000000000E+00
 0.0000000000000E+00
 0.0000000000000E+00
 0.0000000000000E+00
 0.0000000000000E+00
 0.0000000000000E+00
 0.0000000000000E+00
 0.0000000000000E+00
 0.0000000000000E+00
 0.0000000000000E+00
 0.0000000000000E+00
 0.0000000000000E+00
 0.0000000000000E+00
 0.0000000000000E+00
 0.0000000000000E+00
 0.0000000000000E+00
 0.0000000000000E+00
 0.0000000000000E+00
 0.0000000000000E+00
 0.0000000000000E+00
 0.0000000000000E+00
 0.0000000000000E+00
 0.0000000000000E+00
 0.0000000000000E+00
 0.0000000000000E+00
 0.0000000000000E+00
 0.0000000000000E+00
 0.0000000000000E+00
 0.0000000000000E+00
 0.0000000000000E+00
 0.0000000000000E+00
 0.0000000000000E+00
 0.0000000000000E+00
 0.0000000000000E+00
 0.0000000000000E+00
 0.0000000000000E+00
 0.0000000000000E+00
 0.0000000000000E+00
 0.0000000000000E+00
 0.0000000000000E+00
 0.0000000000000E+00
 0.0000000000000E+00
 0.0000000000000E+00
 0.0000000000000E+00
 0.0000000000000E+00
 0.0000000000000E+00
 0.0000000000000E+00
 0.0000000000000E+00
 0.0000000000000E+00
 0.0000000000000E+00
 0.0000000000000E+00
 0.0000000000000E+00
 0.0000000000000E+00
 0.0000000000000E+00
 0.0000000000000E+00
 0.0000000000000E+00
 0.0000000000000E+00
 0.0000000000000E+00
 0.0000000000000E+00
 0.0000000000000E+00
 0.0000000000000E+00
 0.0000000000000E+00
 0.0000000000000E+00
 0.0000000000000E+00
 0.0000000000000E+00
 0.0000000000000E+00
 0.0000000000000E+00
 0.0000000000000E+00
 0.0000000000000E+00
 0.0000000000000E+00
 0.0000000000000E+00
 0.0000000000000E+00
 0.0000000000000E+00
 0.0000000000000E+00
 0.0000000000000E+00
 0.0000000000000E+00
 0.0000000000000E+00
 0.0000000000000E+00
 0.0000000000000E+00
 0.0000000000000E+00
 0.0000000000000E+00
 0.0000000000000E+00
 0.0000000000000E+00
 0.0000000000000E+00
 0.0000000000000E+00
 0.0000000000000E+00
 0.0000000000000E+00
 0.0000000000000E+00
 0.0000000000000E+00
 0.0000000000000E+00
 0.0000000000000E+00
 0.0000000000000E+00
 0.0000000000000E+00
 0.0000000000000E+00
 0.0000000000000E+00
 0.0000000000000E+00
 0.0000000000000E+00
 0.0000000000000E+00
 0.0000000000000E+00
 0.0000000000000E+00
 0.0000000000000E+00
 0.0000000000000E+00
 0.0000000000000E+00
 0.0000000000000E+00
 0.0000000000000E+00
 0.0000000000000E+00
 0.0000000000000E+00
 0.0000000000000E+00
 0.0000000000000E+00
 0.0000000000000E+00
 0.0000000000000E+00
 0.0000000000000E+00
 0.0000000000000E+00
 0.0000000000000E+00
 0.0000000000000E+00
 0.0000000000000E+00
 0.0000000000000E+00
 0.0000000000000E+00
 0.0000000000000E+00
 0.0000000000000E+00
 0.0000000000000E+00
 0.0000000000000E+00
 0.0000000000000E+00
 0.0000000000000E+00
 0.0000000000000E+00
 0.0000000000000E+00
 0.0000000000000E+00
 0.0000000000000E+00
 0.0000000000000E+00
 0.0000000000000E+00
 0.0000000000000E+00
 0.0000000000000E+00
 0.0000000000000E+00
 0.0000000000000E+00
 0.0000000000000E+00
 0.0000000000000E+00
 0.0000000000000E+00
 0.0000000000000E+00
 0.0000000000000E+00
 0.0000000000000E+00
 0.0000000000000E+00
 0.0000000000000E+00
 0.0000000000000E+00
 0.0000000000000E+00
 0.0000000000000E+00
 0.0000000000000E+00
 0.0000000000000E+00
 0.0000000000000E+00
 0.0000000000000E+00
 0.0000000000000E+00
 0.0000000000000E+00
 0.0000000000000E+00
 0.0000000000000E+00
 0.0000000000000E+00
 0.0000000000000E+00
 0.0000000000000E+00
 0.0000000000000E+00
 0.0000000000000E+00
 0.0000000000000E+00
 0.0000000000000E+00
 0.0000000000000E+00
 0.0000000000000E+00
 0.0000000000000E+00
 0.0000000000000E+00
 0.0000000000000E+00
 0.0000000000000E+00
 0.0000000000000E+00
 0.0000000000000E+00
 0.0000000000000E+00
 0.0000000000000E+00
 0.0000000000000E+00
 0.0000000000000E+00
 0.0000000000000E+00
 0.0000000000000E+00
 0.0000000000000E+00
 0.0000000000000E+00
 0.0000000000000E+00
 0.0000000000000E+00
 0.0000000000000E+00
 0.0000000000000E+00
 0.0000000000000E+00
 0.0000000000000E+00
 0.0000000000000E+00
 0.0000000000000E+00
 0.0000000000000E+00
 0.0000000000000E+00
 0.0000000000000E+00
 0.0000000000000E+00
 0.0000000000000E+00
 0.0000000000000E+00
 0.0000000000000E+00
 0.0000000000000E+00
 0.0000000000000E+00
 0.0000000000000E+00
 0.0000000000000E+00
 0.0000000000000E+00
 0.0000000000000E+00
 0.0000000000000E+00
 0.0000000000000E+00
 0.0000000000000E+00
 0.0000000000000E+00
 0.0000000000000E+00
 0.0000000000000E+00
 0.0000000000000E+00
 0.0000000000000E+00
 0.0000000000000E+00
 0.0000000000000E+00
 0.0000000000000E+00
 0.0000000000000E+00
 0.0000000000000E+00
 0.0000000000000E+00
 0.0000000000000E+00
 0.0000000000000E+00
 0.0000000000000E+00
 0.0000000000000E+00
 0.0000000000000E+00
 0.0000000000000E+00
 0.0000000000000E+00
 0.0000000000000E+00
 0.0000000000000E+00
 0.0000000000000E+00
 0.0000000000000E+00
 0.0000000000000E+00
 0.0000000000000E+00
 0.0000000000000E+00
 0.0000000000000E+00
 0.0000000000000E+00
 0.0000000000000E+00
 0.0000000000000E+00
 0.0000000000000E+00
 0.0000000000000E+00
 0.0000000000000E+00
 0.0000000000000E+00
 0.0000000000000E+00
 0.0000000000000E+00
 0.0000000000000E+00
 0.0000000000000E+00
 0.0000000000000E+00
 0.0000000000000E+00
 0.0000000000000E+00
 0.0000000000000E+00
 0.0000000000000E+00
 0.0000000000000E+00
 0.0000000000000E+00
 0.0000000000000E+00
 0.0000000000000E+00
 0.0000000000000E+00
 0.0000000000000E+00
 0.0000000000000E+00
 0.0000000000000E+00
 0.0000000000000E+00
</DataArray>
<DataArray type="Int32" Name="Region" format="ascii">
           1
           1
           1
           1
           1
           1
           1
           1
           1
           1
           1
           1
           1
           1
           1
           1
           1
           1
           1
           1
           1
           1
           1
           1
           1
           1
           1
           1
           1
           1
           1
           1
           1
           1
           1
           1
           1
           1
           1
           1
           1
           1
           1
           1
           1
           1
           1
           1
           1
           1
           1
           1
           1
           1
           1
           1
           1
           1
           1
           1
           1
           1
           1
           1
           1
           1
           1
           1
           1
           1
           1
           1
           1
           1
           1
           1
           1
           1
           1
           1
           1
           1
           1
           1
           1
           1
           1
           1
           1
           1
           1
           1
           1
           1
           1
           1
           1
           1
           1
           1
           1
           1
           1
           1
           1
           1
           1
           1
           1
           1
           1
           1
           1
           1
           1
           1
           1
           1
           1
           1
           1
           1
           1
           1
           1
           1
           1
           1
           1
           1
           1
           1
           1
           1
           1
           1
           1
           1
           1
           1
           1
           1
           1
           1
           1
           1
           1
           1
           1
           1
           1
           1
           1
           1
           1
           1
           1
           1
           1
           1
           1
           1
           1
           1
           1
           1
           1
           1
           1
           1
           1
           1
           1
           1
           1
           1
           1
           1
           1
           1
           1
           1
           1
           1
           1
           1
           1
           1
           1
           1
           1
           1
           1
           1
           1
           1
           1
           1
           1
           1
           1
           1
           1
           1
           1
           1
           1
           1
           1
           1
           1
           1
           1
           1
           1
           1
           1
           1
           1
           1
           1
           1
           1
           1
           1
           1
           1
           1
           1
           1
           1
           1
           1
           1
           1
           1
           1
           1
           1
           1
           1
           1
           1
           1
           1
           1
           1
           1
           1
           1
           1
           1
           1
           1
           1
           1
           1
           1
           1
           1
           1
           1
           1
           1
           1
           1
           1
           1
           1
           1
           1
           1
           1
           1
           1
           1
           1
           1
           1
           1
           1
           1
           1
           1
           1
           1
           1
           1
           1
           1
           1
           1
           1
           1
           1
           1
           1
           1
           1
           1
           1
           1
           1
           1
           1
           1
           1
           1
           1
           1
           1
           1
           1
           1
           1
           1
           1
           1
           1
           1
           1
           1
           1
           1
           1
           1
           1
           1
           1
           1
           1
           1
           1
           1
           1
           1
           1
           1
           1
           1
           1
           1
           1
           1
           1
           1
           1
           1
           1
           1
           1
           1
           1
           1
           1
           1
           1
           1
           1
           1
           1
           1
           1
           1
           1
           1
           1
           1
           1
           1
           1
           1
           1
           1
           1
           1
           1
           1
           1
           1
           1
           1
           1
           1
           1
           1
           1
           1
           1
           1
           1
           1
           1
           1
           1
           1
           1
           1
           1
           1
           1
           1
           1
           1
           1
           1
           1
           1
           1
           1
           1
           1
           1
           1
           1
           1
           1
           1
           1
           1
           1
           1
           1
           1
           1
           1
           1
           1
           1
           1
           1
           1
           1
           1
           1
           1
           1
           1
           1
           1
           1
           1
           1
           1
           1
           1
           1
           1
           1
           1
           1
           1
           1
           1
           1
           1
           1
           1
           1
           1
           1
           1
           1
           1
           1
           1
           1
           1
           1
           1
           1
           1
           1
           1
           1
           1
           1
           1
           1
           1
           1
           1
           1
           1
           1
           1
           1
           1
           1
           1
           1
           1
           1
           1
           1
           1
           1
           1
           1
           1
           1
           1
           1
           1
           1
           1
           1
           1
           1
           1
           1
           1
           1
           1
           1
           1
           1
           1
           1
           1
           1
           1
           1
           1
           1
           1
           1
           1
           1
           1
           1
           1
           1
           1
           1
           1
           1
           1
           1
           1
           1
           1
           1
           1
           1
           1
           1
           1
           1
           1
           1
           1
           1
           1
           1
           1
           1
           1
           1
           1
           1
           1
           1
           1
           1
           1
           1
           1
           1
           1
           1
           1
           1
           1
           1
           1
           1
           1
           1
           1
           1
           1
           1
           1
           1
           1
           1
           1
           1
           1
           1
           1
           1
           1
           1
           1
           1
           1
           1
           1
           1
           1
           1
           1
           1
           1
           1
           1
           1
           1
           1
           1
           1
           1
           1
           1
           1
           1
           1
           1
           1
           1
           1
           1
           1
           1
           1
           1
           1
           1
           1
           1
           1
           1
           1
           1
           1
           1
           1
           1
           1
           1
           1
           1
           1
           1
           1
           1
           1
           1
           1
           1
           1
           1
           1
           1
           1
           1
           1
           1
           1
           1
           1
           1
           1
           1
           1
           1
           1
           1
           1
           1
           1
           1
           1
           1
           1
           1
           1
           1
           1
           1
           1
           1
           1
           1
           1
           1
           1
           1
           1
           1
           1
           1
           1
           1
           1
           1
           1
           1
           1
           1
           1
           1
           1
           1
           1
           1
           1
           1
           1
           1
           1
           1
           1
           1
           1
           1
           1
           1
           1
           1
           1
           1
           1
           1
           1
           1
           1
           1
           1
           1
           1
           1
           1
           1
           1
           1
           1
           1
           1
           1
           1
           1
           1
           1
           1
           1
           1
           1
           1
           1
           1
           1
           1
           1
           1
           1
           1
           1
           1
           1
           1
           1
           1
           1
           1
           1
           1
           1
           1
           1
           1
           1
           1
           1
           1
           1
           1
           1
           1
           1
           1
           1
           1
           1
           1
           1
           1
           1
           1
           1
           1
           1
           1
           1
           1
           1
           1
           1
           1
           1
           1
           1
           1
           1
           1
           1
           1
           1
           1
           1
           1
           1
           1
           1
           1
           1
           1
           1
           1
           1
           1
           1
           1
           1
           1
           1
           1
           1
           1
           1
           1
           1
           1
           1
           1
           1
           1
           1
           2
           2
           2
           2
           2
           2
           2
           2
           2
           2
           2
           2
           2
           2
           2
           2
           2
           2
           2
           2
           2
           2
           2
           2
           2
           2
           2
           2
           2
           2
           2
           2
           2
           2
           2
           2
           2
           2
           2
           2
           2
           2
           2
           2
           2
           2
           2
           2
           2
           2
           2
           2
           2
           2
           2
           2
           2
           2
           2
           2
           2
           2
           2
           2
           2
           2
           2
           2
           2
           2
           2
           2
           2
           2
           2
           2
           2
           2
           2
           2
           2
           2
           2
           2
           2
           2
           2
           2
           2
           2
           2
           2
           2
           2
           2
           2
           2
           2
           2
           2
           2
           2
           2
           2
           2
           2
           2
           2
           2
           2
           2
           2
           2
           2
           2
           2
           2
           2
           2
           2
           2
           2
           2
           2
           2
           2
           2
           2
           2
           2
           2
           2
           2
           2
           2
           2
           2
           2
           2
           2
           2
           2
           2
           2
           2
           2
           2
           2
           2
           2
           2
           2
           2
           2
           2
           2
           2
           2
           2
           2
           2
           2
           2
           2
           2
           2
           2
           2
           2
           2
           2
           2
           2
           2
           2
           2
           2
           2
           2
           2
           2
           2
           2
           2
           2
           2
           2
           2
           2
           2
           2
           2
           2
           2
           2
           2
           2
           2
           2
           2
           2
           2
           2
           2
           2
           2
           2
           2
           2
           2
           2
           2
           2
           2
           2
           2
           2
           2
           2
           2
           2
           2
           2
           2
           2
           2
           2
           2
           2
           2
           2
           2
           2
           2
           2
           2
           2
           2
           2
           2
           2
           2
           2
           2
           2
           2
           2
           2
           2
           2
           2
           2
           2
           2
           2
           2
           2
           2
           2
           2
           2
           2
           2
           2
           2
           2
           2
           2
           2
           2
           2
           2
           2
           2
           2
           2
           2
           2
           2
           2
           2
           2
           2
           2
           2
           2
           2
           2
           2
           2
           2
           2
           2
           2
           2
           2
           2
           2
           2
           2
           2
           2
           2
           2
           2
           2
           2
           2
           2
           2
           2
           2
           2
           2
           2
           2
           2
           2
           2
           2
           2
           2
           2
           2
           2
           2
           2
           2
           2
           2
           2
           2
           2
           2
           2
           2
           2
           2
           2
           2
           2
           2
           2
           2
           2
           2
           2
           2
           2
           2
           2
           2
           2
           2
           2
           2
           2
           2
           2
           2
           2
           2
           2
           2
           2
           2
           2
           2
           2
           2
           2
           2
           2
           2
           2
           2
           2
           2
           2
           2
           2
           2
           2
           2
           2
           2
           2
           2
           2
           2
           2
           2
           2
           2
           2
           2
           2
           2
           2
           2
           2
           2
           2
           2
           2
           2
           2
           2
           2
           2
           2
           2
           2
           2
           2
           2
           2
           2
           2
           2
           2
           2
           2
           2
           2
           2
           2
           2
           2
           2
           2
           2
           2
           2
           2
           2
           2
           2
           2
           2
           2
           2
           2
           2
           2
           2
           2
           2
           2
           2
           2
           2
           2
           2
           2
           2
           2
           2
           2
           2
           2
           2
           2
           2
           2
           2
           2
           2
           2
           2
           2
           2
           2
           2
           2
           2
           2
           2
           2
           2
           2
           2
           2
           2
           2
           2
           2
           2
           2
           2
           2
           2
           2
           2
           2
           2
           2
           2
           2
           2
           2
           2
           2
           2
           2
           2
           2
           2
           2
           2
           2
           2
           2
           2
           2
           2
           2
           2
           2
           2
           2
           2
           2
           2
           2
           2
           2
           2
           2
           2
           2
           2
           2
           2
           2
           2
           2
           2
           2
           2
           2
           2
           2
           2
           2
           2
           2
           2
           2
           2
           2
           2
           2
           2
           2
           2
           2
           2
           2
           2
           2
           2
           2
           2
           2
           2
           2
           2
           2
           2
           2
           2
           2
           2
           2
           2
           2
           2
           2
           2
           2
           2
           2
           2
           2
           2
           2
           2
           2
           2
           2
           2
           2
           2
           2
           2
           2
           2
           2
           2
</DataArray>
</CellData>
</Piece>
</UnstructuredGrid>
</VTKFile>
