<VTKFile type="UnstructuredGrid" version="1,0" byte_order="LittleEndian">
<UnstructuredGrid>
<Piece NumberOfPoints="5802" NumberOfCells="5680">
<Points>
<DataArray type="Float64" NumberOfComponents="3" format="ascii">
-0.1100000000000E+01 -0.4304044648606E+01  0.0000000000000E+00
 0.0000000000000E+00 -0.4304044648606E+01  0.0000000000000E+00
 0.1100000000000E+01 -0.4304044648606E+01  0.0000000000000E+00
-0.1426338184892E+01 -0.1495137730994E+01  0.0000000000000E+00
-0.7131690856113E+00 -0.1351817918288E+01  0.0000000000000E+00
 0.7131690992823E+00 -0.1351817920119E+01  0.0000000000000E+00
 0.1426338184892E+01 -0.1495137730994E+01  0.0000000000000E+00
-0.1297471036855E+01  0.8924645033579E+00  0.0000000000000E+00
 0.1297471037589E+01  0.8924645030013E+00  0.0000000000000E+00
-0.7500000000000E+00  0.3449934570704E+00  0.0000000000000E+00
 0.7500000000000E+00  0.3449934570704E+00  0.0000000000000E+00
-0.1072500000000E+01 -0.4304044648606E+01  0.0000000000000E+00
-0.1045000000000E+01 -0.4304044648606E+01  0.0000000000000E+00
-0.1017500000000E+01 -0.4304044648606E+01  0.0000000000000E+00
-0.9900000000000E+00 -0.4304044648606E+01  0.0000000000000E+00
-0.9625000000000E+00 -0.4304044648606E+01  0.0000000000000E+00
-0.9350000000000E+00 -0.4304044648606E+01  0.0000000000000E+00
-0.9075000000000E+00 -0.4304044648606E+01  0.0000000000000E+00
-0.8800000000000E+00 -0.4304044648606E+01  0.0000000000000E+00
-0.8525000000000E+00 -0.4304044648606E+01  0.0000000000000E+00
-0.8250000000000E+00 -0.4304044648606E+01  0.0000000000000E+00
-0.7975000000000E+00 -0.4304044648606E+01  0.0000000000000E+00
-0.7700000000000E+00 -0.4304044648606E+01  0.0000000000000E+00
-0.7425000000000E+00 -0.4304044648606E+01  0.0000000000000E+00
-0.7150000000000E+00 -0.4304044648606E+01  0.0000000000000E+00
-0.6875000000000E+00 -0.4304044648606E+01  0.0000000000000E+00
-0.6600000000000E+00 -0.4304044648606E+01  0.0000000000000E+00
-0.6325000000000E+00 -0.4304044648606E+01  0.0000000000000E+00
-0.6050000000000E+00 -0.4304044648606E+01  0.0000000000000E+00
-0.5775000000000E+00 -0.4304044648606E+01  0.0000000000000E+00
-0.5500000000000E+00 -0.4304044648606E+01  0.0000000000000E+00
-0.5225000000000E+00 -0.4304044648606E+01  0.0000000000000E+00
-0.4950000000000E+00 -0.4304044648606E+01  0.0000000000000E+00
-0.4675000000000E+00 -0.4304044648606E+01  0.0000000000000E+00
-0.4400000000000E+00 -0.4304044648606E+01  0.0000000000000E+00
-0.4125000000000E+00 -0.4304044648606E+01  0.0000000000000E+00
-0.3850000000000E+00 -0.4304044648606E+01  0.0000000000000E+00
-0.3575000000000E+00 -0.4304044648606E+01  0.0000000000000E+00
-0.3300000000000E+00 -0.4304044648606E+01  0.0000000000000E+00
-0.3025000000000E+00 -0.4304044648606E+01  0.0000000000000E+00
-0.2750000000000E+00 -0.4304044648606E+01  0.0000000000000E+00
-0.2475000000000E+00 -0.4304044648606E+01  0.0000000000000E+00
-0.2200000000000E+00 -0.4304044648606E+01  0.0000000000000E+00
-0.1925000000000E+00 -0.4304044648606E+01  0.0000000000000E+00
-0.1650000000000E+00 -0.4304044648606E+01  0.0000000000000E+00
-0.1375000000000E+00 -0.4304044648606E+01  0.0000000000000E+00
-0.1100000000000E+00 -0.4304044648606E+01  0.0000000000000E+00
-0.8250000000000E-01 -0.4304044648606E+01  0.0000000000000E+00
-0.5500000000000E-01 -0.4304044648606E+01  0.0000000000000E+00
-0.2750000000000E-01 -0.4304044648606E+01  0.0000000000000E+00
 0.2750000000000E-01 -0.4304044648606E+01  0.0000000000000E+00
 0.5500000000000E-01 -0.4304044648606E+01  0.0000000000000E+00
 0.8250000000000E-01 -0.4304044648606E+01  0.0000000000000E+00
 0.1100000000000E+00 -0.4304044648606E+01  0.0000000000000E+00
 0.1375000000000E+00 -0.4304044648606E+01  0.0000000000000E+00
 0.1650000000000E+00 -0.4304044648606E+01  0.0000000000000E+00
 0.1925000000000E+00 -0.4304044648606E+01  0.0000000000000E+00
 0.2200000000000E+00 -0.4304044648606E+01  0.0000000000000E+00
 0.2475000000000E+00 -0.4304044648606E+01  0.0000000000000E+00
 0.2750000000000E+00 -0.4304044648606E+01  0.0000000000000E+00
 0.3025000000000E+00 -0.4304044648606E+01  0.0000000000000E+00
 0.3300000000000E+00 -0.4304044648606E+01  0.0000000000000E+00
 0.3575000000000E+00 -0.4304044648606E+01  0.0000000000000E+00
 0.3850000000000E+00 -0.4304044648606E+01  0.0000000000000E+00
 0.4125000000000E+00 -0.4304044648606E+01  0.0000000000000E+00
 0.4400000000000E+00 -0.4304044648606E+01  0.0000000000000E+00
 0.4675000000000E+00 -0.4304044648606E+01  0.0000000000000E+00
 0.4950000000000E+00 -0.4304044648606E+01  0.0000000000000E+00
 0.5225000000000E+00 -0.4304044648606E+01  0.0000000000000E+00
 0.5500000000000E+00 -0.4304044648606E+01  0.0000000000000E+00
 0.5775000000000E+00 -0.4304044648606E+01  0.0000000000000E+00
 0.6050000000000E+00 -0.4304044648606E+01  0.0000000000000E+00
 0.6325000000000E+00 -0.4304044648606E+01  0.0000000000000E+00
 0.6600000000000E+00 -0.4304044648606E+01  0.0000000000000E+00
 0.6875000000000E+00 -0.4304044648606E+01  0.0000000000000E+00
 0.7150000000000E+00 -0.4304044648606E+01  0.0000000000000E+00
 0.7425000000000E+00 -0.4304044648606E+01  0.0000000000000E+00
 0.7700000000000E+00 -0.4304044648606E+01  0.0000000000000E+00
 0.7975000000000E+00 -0.4304044648606E+01  0.0000000000000E+00
 0.8250000000000E+00 -0.4304044648606E+01  0.0000000000000E+00
 0.8525000000000E+00 -0.4304044648606E+01  0.0000000000000E+00
 0.8800000000000E+00 -0.4304044648606E+01  0.0000000000000E+00
 0.9075000000000E+00 -0.4304044648606E+01  0.0000000000000E+00
 0.9350000000000E+00 -0.4304044648606E+01  0.0000000000000E+00
 0.9625000000000E+00 -0.4304044648606E+01  0.0000000000000E+00
 0.9900000000000E+00 -0.4304044648606E+01  0.0000000000000E+00
 0.1017500000000E+01 -0.4304044648606E+01  0.0000000000000E+00
 0.1045000000000E+01 -0.4304044648606E+01  0.0000000000000E+00
 0.1072500000000E+01 -0.4304044648606E+01  0.0000000000000E+00
-0.1391152984612E+01 -0.1485826169004E+01  0.0000000000000E+00
-0.1355910848380E+01 -0.1476732672072E+01  0.0000000000000E+00
-0.1320612835817E+01 -0.1467858633912E+01  0.0000000000000E+00
-0.1285259981017E+01 -0.1459205415754E+01  0.0000000000000E+00
-0.1249853511796E+01 -0.1450774398559E+01  0.0000000000000E+00
-0.1214394584761E+01 -0.1442566916018E+01  0.0000000000000E+00
-0.1178884329493E+01 -0.1434584266595E+01  0.0000000000000E+00
-0.1143323993112E+01 -0.1426827745365E+01  0.0000000000000E+00
-0.1107714835036E+01 -0.1419298618073E+01  0.0000000000000E+00
-0.1072058114862E+01 -0.1411998118171E+01  0.0000000000000E+00
-0.1036355114016E+01 -0.1404927450906E+01  0.0000000000000E+00
-0.1000607103274E+01 -0.1398087786375E+01  0.0000000000000E+00
-0.9648154637952E+00 -0.1391480281711E+01  0.0000000000000E+00
-0.9289815514207E+00 -0.1385106053576E+01  0.0000000000000E+00
-0.8931067449032E+00 -0.1378966186997E+01  0.0000000000000E+00
-0.8571924453329E+00 -0.1373061734396E+01  0.0000000000000E+00
-0.8212400755349E+00 -0.1367393714636E+01  0.0000000000000E+00
-0.7852510794390E+00 -0.1361963112090E+01  0.0000000000000E+00
-0.7492269214199E+00 -0.1356770875739E+01  0.0000000000000E+00
-0.6777056485815E+00 -0.1347184849055E+01  0.0000000000000E+00
-0.6422126030433E+00 -0.1342784468384E+01  0.0000000000000E+00
-0.6066914054888E+00 -0.1338617534531E+01  0.0000000000000E+00
-0.5711435255488E+00 -0.1334684768748E+01  0.0000000000000E+00
-0.5355704233029E+00 -0.1330986852489E+01  0.0000000000000E+00
-0.4999736369017E+00 -0.1327524435880E+01  0.0000000000000E+00
-0.4643546817971E+00 -0.1324298126257E+01  0.0000000000000E+00
-0.4287150862649E+00 -0.1321308491716E+01  0.0000000000000E+00
-0.3930563807228E+00 -0.1318556059836E+01  0.0000000000000E+00
-0.3573801183139E+00 -0.1316041318931E+01  0.0000000000000E+00
-0.3216878730590E+00 -0.1313764717124E+01  0.0000000000000E+00
-0.2859812157621E+00 -0.1311726660302E+01  0.0000000000000E+00
-0.2502617257092E+00 -0.1309927512732E+01  0.0000000000000E+00
-0.2145309892672E+00 -0.1308367596678E+01  0.0000000000000E+00
-0.1787905926666E+00 -0.1307047191884E+01  0.0000000000000E+00
-0.1430421463503E+00 -0.1305966536203E+01  0.0000000000000E+00
-0.1072872541886E+00 -0.1305125824139E+01  0.0000000000000E+00
-0.7152752388590E-01 -0.1304525207180E+01  0.0000000000000E+00
-0.3576456602431E-01 -0.1304164793652E+01  0.0000000000000E+00
 0.6896563736758E-08 -0.1304044648606E+01  0.0000000000000E+00
 0.3576457981713E-01 -0.1304164793745E+01  0.0000000000000E+00
 0.7152753767778E-01 -0.1304525207365E+01  0.0000000000000E+00
 0.1072872679789E+00 -0.1305125824417E+01  0.0000000000000E+00
 0.1430421601384E+00 -0.1305966536574E+01  0.0000000000000E+00
 0.1787906064519E+00 -0.1307047192347E+01  0.0000000000000E+00
 0.2145310030492E+00 -0.1308367597233E+01  0.0000000000000E+00
 0.2502617394871E+00 -0.1309927513380E+01  0.0000000000000E+00
 0.2859812295354E+00 -0.1311726661042E+01  0.0000000000000E+00
 0.3216878868270E+00 -0.1313764717956E+01  0.0000000000000E+00
 0.3573801320760E+00 -0.1316041319855E+01  0.0000000000000E+00
 0.3930563944785E+00 -0.1318556060852E+01  0.0000000000000E+00
 0.4287151000135E+00 -0.1321308492824E+01  0.0000000000000E+00
 0.4643546955381E+00 -0.1324298127456E+01  0.0000000000000E+00
 0.4999736506343E+00 -0.1327524437170E+01  0.0000000000000E+00
 0.5355704370268E+00 -0.1330986853870E+01  0.0000000000000E+00
 0.5711435392633E+00 -0.1334684770220E+01  0.0000000000000E+00
 0.6066914191932E+00 -0.1338617536093E+01  0.0000000000000E+00
 0.6422126167371E+00 -0.1342784470036E+01  0.0000000000000E+00
 0.6777056622642E+00 -0.1347184850797E+01  0.0000000000000E+00
 0.7492269343955E+00 -0.1356770877566E+01  0.0000000000000E+00
 0.7852510917199E+00 -0.1361963113902E+01  0.0000000000000E+00
 0.8212400871220E+00 -0.1367393716423E+01  0.0000000000000E+00
 0.8571924562271E+00 -0.1373061736151E+01  0.0000000000000E+00
 0.8931067551055E+00 -0.1378966188709E+01  0.0000000000000E+00
 0.9289815609321E+00 -0.1385106055236E+01  0.0000000000000E+00
 0.9648154726170E+00 -0.1391480283310E+01  0.0000000000000E+00
 0.1000607111408E+01 -0.1398087787904E+01  0.0000000000000E+00
 0.1036355121463E+01 -0.1404927452356E+01  0.0000000000000E+00
 0.1072058121623E+01 -0.1411998119533E+01  0.0000000000000E+00
 0.1107714841113E+01 -0.1419298619338E+01  0.0000000000000E+00
 0.1143323998507E+01 -0.1426827746523E+01  0.0000000000000E+00
 0.1178884334206E+01 -0.1434584267638E+01  0.0000000000000E+00
 0.1214394588795E+01 -0.1442566916938E+01  0.0000000000000E+00
 0.1249853515153E+01 -0.1450774399347E+01  0.0000000000000E+00
 0.1285259983698E+01 -0.1459205416402E+01  0.0000000000000E+00
 0.1320612837825E+01 -0.1467858634410E+01  0.0000000000000E+00
 0.1355910849717E+01 -0.1476732672412E+01  0.0000000000000E+00
 0.1391152985279E+01 -0.1485826169179E+01  0.0000000000000E+00
-0.1500282641368E+01 -0.1374379525622E+01  0.0000000000000E+00
-0.1579712636672E+01 -0.1257117726587E+01  0.0000000000000E+00
-0.1659629531058E+01 -0.1140189019983E+01  0.0000000000000E+00
-0.1733164540211E+01 -0.1019175933670E+01  0.0000000000000E+00
-0.1798046249351E+01 -0.8933073152546E+00  0.0000000000000E+00
-0.1854662117542E+01 -0.7635066404071E+00  0.0000000000000E+00
-0.1902918776519E+01 -0.6303741789607E+00  0.0000000000000E+00
-0.1941975481337E+01 -0.4942606593644E+00  0.0000000000000E+00
-0.1971769159893E+01 -0.3558234883184E+00  0.0000000000000E+00
-0.1991516502432E+01 -0.2156092846034E+00  0.0000000000000E+00
-0.1999617540933E+01 -0.7424989119446E-01  0.0000000000000E+00
-0.1998781287050E+01  0.6736447573279E-01  0.0000000000000E+00
-0.1977369471108E+01  0.2070661279160E+00  0.0000000000000E+00
-0.1925316867218E+01  0.3385059547416E+00  0.0000000000000E+00
-0.1849365860808E+01  0.4578477771193E+00  0.0000000000000E+00
-0.1756248887890E+01  0.5644442091257E+00  0.0000000000000E+00
-0.1652195200841E+01  0.6604571002421E+00  0.0000000000000E+00
-0.1540277150090E+01  0.7471961778048E+00  0.0000000000000E+00
-0.1421865714943E+01  0.8248395163169E+00  0.0000000000000E+00
-0.1236157917423E+01  0.9206126839211E+00  0.0000000000000E+00
-0.1173981215584E+01  0.9468055532948E+00  0.0000000000000E+00
-0.1111281399127E+01  0.9717225607392E+00  0.0000000000000E+00
-0.1048246390832E+01  0.9957805369659E+00  0.0000000000000E+00
-0.9850026878781E+00  0.1019284763872E+01  0.0000000000000E+00
-0.9216449825030E+00  0.1042480347406E+01  0.0000000000000E+00
-0.8582438511844E+00  0.1065556940867E+01  0.0000000000000E+00
-0.7946812217419E+00  0.1088183183765E+01  0.0000000000000E+00
-0.7306767253970E+00  0.1109523680148E+01  0.0000000000000E+00
-0.6661180574429E+00  0.1129122063103E+01  0.0000000000000E+00
-0.6010093404920E+00  0.1146807084276E+01  0.0000000000000E+00
-0.5354041844713E+00  0.1162549250252E+01  0.0000000000000E+00
-0.4693692539535E+00  0.1176378185166E+01  0.0000000000000E+00
-0.4029695874389E+00  0.1188340213072E+01  0.0000000000000E+00
-0.3362668810131E+00  0.1198477309315E+01  0.0000000000000E+00
-0.2693161135181E+00  0.1206817739605E+01  0.0000000000000E+00
-0.2021667219355E+00  0.1213370604034E+01  0.0000000000000E+00
-0.1348660417516E+00  0.1218121850014E+01  0.0000000000000E+00
-0.6746061515966E-01  0.1221030416244E+01  0.0000000000000E+00
 0.4058847535558E-09  0.1222022719718E+01  0.0000000000000E+00
 0.6746061597099E-01  0.1221030416217E+01  0.0000000000000E+00
 0.1348660425620E+00  0.1218121849962E+01  0.0000000000000E+00
 0.2021667227442E+00  0.1213370603957E+01  0.0000000000000E+00
 0.2693161143243E+00  0.1206817739504E+01  0.0000000000000E+00
 0.3362668818164E+00  0.1198477309191E+01  0.0000000000000E+00
 0.4029695882387E+00  0.1188340212925E+01  0.0000000000000E+00
 0.4693692547501E+00  0.1176378184996E+01  0.0000000000000E+00
 0.5354041852619E+00  0.1162549250060E+01  0.0000000000000E+00
 0.6010093412774E+00  0.1146807084062E+01  0.0000000000000E+00
 0.6661180582227E+00  0.1129122062868E+01  0.0000000000000E+00
 0.7306767261711E+00  0.1109523679893E+01  0.0000000000000E+00
 0.7946812225112E+00  0.1088183183495E+01  0.0000000000000E+00
 0.8582438519506E+00  0.1065556940589E+01  0.0000000000000E+00
 0.9216449832687E+00  0.1042480347127E+01  0.0000000000000E+00
 0.9850026886429E+00  0.1019284763591E+01  0.0000000000000E+00
 0.1048246391595E+01  0.9957805366789E+00  0.0000000000000E+00
 0.1111281399886E+01  0.9717225604423E+00  0.0000000000000E+00
 0.1173981216337E+01  0.9468055529829E+00  0.0000000000000E+00
 0.1236157918167E+01  0.9206126835887E+00  0.0000000000000E+00
 0.1421865715609E+01  0.8248395159258E+00  0.0000000000000E+00
 0.1540277150686E+01  0.7471961773831E+00  0.0000000000000E+00
 0.1652195201364E+01  0.6604570997956E+00  0.0000000000000E+00
 0.1756248888337E+01  0.5644442086587E+00  0.0000000000000E+00
 0.1849365861169E+01  0.4578477766335E+00  0.0000000000000E+00
 0.1925316867476E+01  0.3385059542402E+00  0.0000000000000E+00
 0.1977369471244E+01  0.2070661274129E+00  0.0000000000000E+00
 0.1998781287072E+01  0.6736447525390E-01  0.0000000000000E+00
 0.1999617540926E+01 -0.7424989163157E-01  0.0000000000000E+00
 0.1991516502379E+01 -0.2156092849952E+00  0.0000000000000E+00
 0.1971769159793E+01 -0.3558234886609E+00  0.0000000000000E+00
 0.1941975481197E+01 -0.4942606596555E+00  0.0000000000000E+00
 0.1902918776353E+01 -0.6303741792004E+00  0.0000000000000E+00
 0.1854662117367E+01 -0.7635066405985E+00  0.0000000000000E+00
 0.1798046249184E+01 -0.8933073154033E+00  0.0000000000000E+00
 0.1733164540072E+01 -0.1019175933786E+01  0.0000000000000E+00
 0.1659629530969E+01 -0.1140189020080E+01  0.0000000000000E+00
 0.1579712636620E+01 -0.1257117726658E+01  0.0000000000000E+00
 0.1500282641316E+01 -0.1374379525643E+01  0.0000000000000E+00
-0.1100000000000E+01 -0.4234290980465E+01  0.0000000000000E+00
-0.1100000000000E+01 -0.4164537374556E+01  0.0000000000000E+00
-0.1100000000000E+01 -0.4094783637185E+01  0.0000000000000E+00
-0.1100000000000E+01 -0.4025029839181E+01  0.0000000000000E+00
-0.1100000000000E+01 -0.3955276133193E+01  0.0000000000000E+00
-0.1100000000000E+01 -0.3885522440291E+01  0.0000000000000E+00
-0.1100000000000E+01 -0.3815768738526E+01  0.0000000000000E+00
-0.1100000000000E+01 -0.3746015026237E+01  0.0000000000000E+00
-0.1100000000000E+01 -0.3676261319430E+01  0.0000000000000E+00
-0.1100000000000E+01 -0.3606507611668E+01  0.0000000000000E+00
-0.1100000000000E+01 -0.3536753776913E+01  0.0000000000000E+00
-0.1100000000000E+01 -0.3467000160269E+01  0.0000000000000E+00
-0.1100000000000E+01 -0.3397246335911E+01  0.0000000000000E+00
-0.1100000000000E+01 -0.3327491483183E+01  0.0000000000000E+00
-0.1100000000000E+01 -0.3257738937264E+01  0.0000000000000E+00
-0.1100000000000E+01 -0.3187985423319E+01  0.0000000000000E+00
-0.1100000000000E+01 -0.3118231710338E+01  0.0000000000000E+00
-0.1100000000000E+01 -0.3048478034801E+01  0.0000000000000E+00
-0.1100000000000E+01 -0.2978724449557E+01  0.0000000000000E+00
-0.1100081949193E+01 -0.2908970897701E+01  0.0000000000000E+00
-0.1100742728942E+01 -0.2839220824704E+01  0.0000000000000E+00
-0.1102521741007E+01 -0.2769490993372E+01  0.0000000000000E+00
-0.1105743074114E+01 -0.2699813216018E+01  0.0000000000000E+00
-0.1110533766938E+01 -0.2630225810104E+01  0.0000000000000E+00
-0.1116908162342E+01 -0.2560765504263E+01  0.0000000000000E+00
-0.1124837122290E+01 -0.2491465260483E+01  0.0000000000000E+00
-0.1134287691960E+01 -0.2422356178019E+01  0.0000000000000E+00
-0.1145243591943E+01 -0.2353469532743E+01  0.0000000000000E+00
-0.1157716694154E+01 -0.2284841544654E+01  0.0000000000000E+00
-0.1171756578450E+01 -0.2216517038769E+01  0.0000000000000E+00
-0.1187382332609E+01 -0.2148537564097E+01  0.0000000000000E+00
-0.1204496719736E+01 -0.2080917362614E+01  0.0000000000000E+00
-0.1223027229037E+01 -0.2013671356569E+01  0.0000000000000E+00
-0.1242939072837E+01 -0.1946821322119E+01  0.0000000000000E+00
-0.1264231112750E+01 -0.1880397992225E+01  0.0000000000000E+00
-0.1286935945292E+01 -0.1814444247962E+01  0.0000000000000E+00
-0.1311124079738E+01 -0.1749020523908E+01  0.0000000000000E+00
-0.1336914565389E+01 -0.1684211332234E+01  0.0000000000000E+00
-0.1364492429937E+01 -0.1620144016975E+01  0.0000000000000E+00
-0.1394146623869E+01 -0.1557011712595E+01  0.0000000000000E+00
 0.1394146623938E+01 -0.1557011712631E+01  0.0000000000000E+00
 0.1364492430018E+01 -0.1620144017018E+01  0.0000000000000E+00
 0.1336914565463E+01 -0.1684211332275E+01  0.0000000000000E+00
 0.1311124079803E+01 -0.1749020523939E+01  0.0000000000000E+00
 0.1286935945344E+01 -0.1814444247990E+01  0.0000000000000E+00
 0.1264231112793E+01 -0.1880397992249E+01  0.0000000000000E+00
 0.1242939072872E+01 -0.1946821322142E+01  0.0000000000000E+00
 0.1223027229066E+01 -0.2013671356589E+01  0.0000000000000E+00
 0.1204496719761E+01 -0.2080917362633E+01  0.0000000000000E+00
 0.1187382332630E+01 -0.2148537564113E+01  0.0000000000000E+00
 0.1171756578464E+01 -0.2216517038784E+01  0.0000000000000E+00
 0.1157716694160E+01 -0.2284841544667E+01  0.0000000000000E+00
 0.1145243591945E+01 -0.2353469532755E+01  0.0000000000000E+00
 0.1134287691960E+01 -0.2422356178030E+01  0.0000000000000E+00
 0.1124837122289E+01 -0.2491465260492E+01  0.0000000000000E+00
 0.1116908162341E+01 -0.2560765504273E+01  0.0000000000000E+00
 0.1110533766937E+01 -0.2630225810113E+01  0.0000000000000E+00
 0.1105743074114E+01 -0.2699813216027E+01  0.0000000000000E+00
 0.1102521741008E+01 -0.2769490993381E+01  0.0000000000000E+00
 0.1100742728943E+01 -0.2839220824713E+01  0.0000000000000E+00
 0.1100081949193E+01 -0.2908970897709E+01  0.0000000000000E+00
 0.1100000000000E+01 -0.2978724449564E+01  0.0000000000000E+00
 0.1100000000000E+01 -0.3048478034808E+01  0.0000000000000E+00
 0.1100000000000E+01 -0.3118231710345E+01  0.0000000000000E+00
 0.1100000000000E+01 -0.3187985423326E+01  0.0000000000000E+00
 0.1100000000000E+01 -0.3257738937270E+01  0.0000000000000E+00
 0.1100000000000E+01 -0.3327491483189E+01  0.0000000000000E+00
 0.1100000000000E+01 -0.3397246335917E+01  0.0000000000000E+00
 0.1100000000000E+01 -0.3467000160274E+01  0.0000000000000E+00
 0.1100000000000E+01 -0.3536753776917E+01  0.0000000000000E+00
 0.1100000000000E+01 -0.3606507611672E+01  0.0000000000000E+00
 0.1100000000000E+01 -0.3676261319434E+01  0.0000000000000E+00
 0.1100000000000E+01 -0.3746015026240E+01  0.0000000000000E+00
 0.1100000000000E+01 -0.3815768738529E+01  0.0000000000000E+00
 0.1100000000000E+01 -0.3885522440293E+01  0.0000000000000E+00
 0.1100000000000E+01 -0.3955276133195E+01  0.0000000000000E+00
 0.1100000000000E+01 -0.4025029839183E+01  0.0000000000000E+00
 0.1100000000000E+01 -0.4094783637186E+01  0.0000000000000E+00
 0.1100000000000E+01 -0.4164537374557E+01  0.0000000000000E+00
 0.1100000000000E+01 -0.4234290980466E+01  0.0000000000000E+00
-0.7132895388975E+00  0.3545892595695E+00  0.0000000000000E+00
-0.6764636662017E+00  0.3637314849837E+00  0.0000000000000E+00
-0.6395267434147E+00  0.3724145815178E+00  0.0000000000000E+00
-0.6024837198702E+00  0.3806330875003E+00  0.0000000000000E+00
-0.5653396500945E+00  0.3883817695657E+00  0.0000000000000E+00
-0.5280996171512E+00  0.3956556459469E+00  0.0000000000000E+00
-0.4907691319433E+00  0.4024499201459E+00  0.0000000000000E+00
-0.4533537451325E+00  0.4087600740826E+00  0.0000000000000E+00
-0.4158592885785E+00  0.4145818366128E+00  0.0000000000000E+00
-0.3782916751723E+00  0.4199112310808E+00  0.0000000000000E+00
-0.3406570303206E+00  0.4247445663511E+00  0.0000000000000E+00
-0.3029616164712E+00  0.4290784607705E+00  0.0000000000000E+00
-0.2652118192254E+00  0.4329098541257E+00  0.0000000000000E+00
-0.2274141490083E+00  0.4362360171118E+00  0.0000000000000E+00
-0.1895752452634E+00  0.4390545606537E+00  0.0000000000000E+00
-0.1517018295911E+00  0.4413634482121E+00  0.0000000000000E+00
-0.1138007051193E+00  0.4431610022710E+00  0.0000000000000E+00
-0.7587874076696E-01  0.4444459110349E+00  0.0000000000000E+00
-0.3794285511804E-01  0.4452172336970E+00  0.0000000000000E+00
-0.3330669073875E-15  0.4454744042321E+00  0.0000000000000E+00
 0.3794285511804E-01  0.4452172336970E+00  0.0000000000000E+00
 0.7587874076696E-01  0.4444459110349E+00  0.0000000000000E+00
 0.1138007051193E+00  0.4431610022710E+00  0.0000000000000E+00
 0.1517018295911E+00  0.4413634482121E+00  0.0000000000000E+00
 0.1895752452634E+00  0.4390545606537E+00  0.0000000000000E+00
 0.2274141490083E+00  0.4362360171118E+00  0.0000000000000E+00
 0.2652118192254E+00  0.4329098541257E+00  0.0000000000000E+00
 0.3029616164712E+00  0.4290784607705E+00  0.0000000000000E+00
 0.3406570303206E+00  0.4247445663511E+00  0.0000000000000E+00
 0.3782916751723E+00  0.4199112310808E+00  0.0000000000000E+00
 0.4158592885785E+00  0.4145818366128E+00  0.0000000000000E+00
 0.4533537451325E+00  0.4087600740826E+00  0.0000000000000E+00
 0.4907691319433E+00  0.4024499201459E+00  0.0000000000000E+00
 0.5280996171512E+00  0.3956556459469E+00  0.0000000000000E+00
 0.5653396500945E+00  0.3883817695657E+00  0.0000000000000E+00
 0.6024837198702E+00  0.3806330875003E+00  0.0000000000000E+00
 0.6395267434147E+00  0.3724145815178E+00  0.0000000000000E+00
 0.6764636662017E+00  0.3637314849837E+00  0.0000000000000E+00
 0.7132895388975E+00  0.3545892595695E+00  0.0000000000000E+00
-0.7498714525667E+00  0.2601244253178E+00  0.0000000000000E+00
-0.7494610908407E+00  0.1752564208624E+00  0.0000000000000E+00
-0.7487273443814E+00  0.9039062493678E-01  0.0000000000000E+00
-0.7476230150202E+00  0.5528898378488E-02  0.0000000000000E+00
-0.7460974662219E+00 -0.7932632445184E-01  0.0000000000000E+00
-0.7441028539882E+00 -0.1641717347835E+00  0.0000000000000E+00
-0.7416076935207E+00 -0.2490040130765E+00  0.0000000000000E+00
-0.7386208425271E+00 -0.3338203224162E+00  0.0000000000000E+00
-0.7352226651418E+00 -0.4186212392773E+00  0.0000000000000E+00
-0.7315845453817E+00 -0.5034122306519E+00  0.0000000000000E+00
-0.7279464255305E+00 -0.5882032220226E+00  0.0000000000000E+00
-0.7245482478836E+00 -0.6730041388732E+00  0.0000000000000E+00
-0.7215613964884E+00 -0.7578204481989E+00  0.0000000000000E+00
-0.7190662355151E+00 -0.8426527264768E+00  0.0000000000000E+00
-0.7170716227036E+00 -0.9274981367952E+00  0.0000000000000E+00
-0.7155460732803E+00 -0.1012353359614E+01  0.0000000000000E+00
-0.7144417432648E+00 -0.1097215086164E+01  0.0000000000000E+00
-0.7137079961342E+00 -0.1182080882084E+01  0.0000000000000E+00
-0.7132976337280E+00 -0.1266948886536E+01  0.0000000000000E+00
 0.7498714525670E+00  0.2601244252411E+00  0.0000000000000E+00
 0.7494610908447E+00  0.1752564207090E+00  0.0000000000000E+00
 0.7487273443980E+00  0.9039062470648E-01  0.0000000000000E+00
 0.7476230150664E+00  0.5528898070996E-02  0.0000000000000E+00
 0.7460974663270E+00 -0.7932632483698E-01  0.0000000000000E+00
 0.7441028541992E+00 -0.1641717352482E+00  0.0000000000000E+00
 0.7416076939094E+00 -0.2490040136230E+00  0.0000000000000E+00
 0.7386208431973E+00 -0.3338203230495E+00  0.0000000000000E+00
 0.7352226662333E+00 -0.4186212400042E+00  0.0000000000000E+00
 0.7315845470645E+00 -0.5034122314810E+00  0.0000000000000E+00
 0.7279464279870E+00 -0.5882032229617E+00  0.0000000000000E+00
 0.7245482512846E+00 -0.6730041399270E+00  0.0000000000000E+00
 0.7215614009742E+00 -0.7578204493675E+00  0.0000000000000E+00
 0.7190662411903E+00 -0.8426527277573E+00  0.0000000000000E+00
 0.7170716296405E+00 -0.9274981381818E+00  0.0000000000000E+00
 0.7155460815261E+00 -0.1012353361101E+01  0.0000000000000E+00
 0.7144417528489E+00 -0.1097215087745E+01  0.0000000000000E+00
 0.7137080070737E+00 -0.1182080883753E+01  0.0000000000000E+00
 0.7132976460316E+00 -0.1266948888289E+01  0.0000000000000E+00
-0.7773735518427E+00  0.3723670093848E+00  0.0000000000000E+00
-0.8047471036855E+00  0.3997405616991E+00  0.0000000000000E+00
-0.8321206555283E+00  0.4271141140135E+00  0.0000000000000E+00
-0.8594942073710E+00  0.4544876663279E+00  0.0000000000000E+00
-0.8868677592138E+00  0.4818612186423E+00  0.0000000000000E+00
-0.9142413110566E+00  0.5092347709566E+00  0.0000000000000E+00
-0.9416148628994E+00  0.5366083232710E+00  0.0000000000000E+00
-0.9689884147421E+00  0.5639818755854E+00  0.0000000000000E+00
-0.9963619665849E+00  0.5913554278998E+00  0.0000000000000E+00
-0.1023735518428E+01  0.6187289802141E+00  0.0000000000000E+00
-0.1051109070270E+01  0.6461025325285E+00  0.0000000000000E+00
-0.1078482622113E+01  0.6734760848429E+00  0.0000000000000E+00
-0.1105856173956E+01  0.7008496371573E+00  0.0000000000000E+00
-0.1133229725799E+01  0.7282231894716E+00  0.0000000000000E+00
-0.1160603277642E+01  0.7555967417860E+00  0.0000000000000E+00
-0.1187976829484E+01  0.7829702941004E+00  0.0000000000000E+00
-0.1215350381327E+01  0.8103438464148E+00  0.0000000000000E+00
-0.1242723933170E+01  0.8377173987291E+00  0.0000000000000E+00
-0.1270097485013E+01  0.8650909510435E+00  0.0000000000000E+00
 0.7773735518794E+00  0.3723670093669E+00  0.0000000000000E+00
 0.8047471037588E+00  0.3997405616635E+00  0.0000000000000E+00
 0.8321206556383E+00  0.4271141139600E+00  0.0000000000000E+00
 0.8594942075177E+00  0.4544876662566E+00  0.0000000000000E+00
 0.8868677593971E+00  0.4818612185531E+00  0.0000000000000E+00
 0.9142413112766E+00  0.5092347708497E+00  0.0000000000000E+00
 0.9416148631560E+00  0.5366083231462E+00  0.0000000000000E+00
 0.9689884150354E+00  0.5639818754428E+00  0.0000000000000E+00
 0.9963619669149E+00  0.5913554277393E+00  0.0000000000000E+00
 0.1023735518794E+01  0.6187289800359E+00  0.0000000000000E+00
 0.1051109070674E+01  0.6461025323324E+00  0.0000000000000E+00
 0.1078482622553E+01  0.6734760846289E+00  0.0000000000000E+00
 0.1105856174433E+01  0.7008496369255E+00  0.0000000000000E+00
 0.1133229726312E+01  0.7282231892220E+00  0.0000000000000E+00
 0.1160603278191E+01  0.7555967415186E+00  0.0000000000000E+00
 0.1187976830071E+01  0.7829702938151E+00  0.0000000000000E+00
 0.1215350381950E+01  0.8103438461117E+00  0.0000000000000E+00
 0.1242723933830E+01  0.8377173984082E+00  0.0000000000000E+00
 0.1270097485709E+01  0.8650909507048E+00  0.0000000000000E+00
-0.1072512531531E+01 -0.4234063866316E+01  0.0000000000000E+00
-0.1072525063052E+01 -0.4164083146461E+01  0.0000000000000E+00
-0.1072537594596E+01 -0.4094102294716E+01  0.0000000000000E+00
-0.1072550126150E+01 -0.4024121382140E+01  0.0000000000000E+00
-0.1072562657689E+01 -0.3954140561879E+01  0.0000000000000E+00
-0.1072575189225E+01 -0.3884159754748E+01  0.0000000000000E+00
-0.1072587720762E+01 -0.3814178938725E+01  0.0000000000000E+00
-0.1072600252302E+01 -0.3744198112143E+01  0.0000000000000E+00
-0.1072612783840E+01 -0.3674217291062E+01  0.0000000000000E+00
-0.1072625315378E+01 -0.3604236469021E+01  0.0000000000000E+00
-0.1072637846940E+01 -0.3534255519575E+01  0.0000000000000E+00
-0.1072650378462E+01 -0.3464274788950E+01  0.0000000000000E+00
-0.1072662910022E+01 -0.3394293849935E+01  0.0000000000000E+00
-0.1072675441766E+01 -0.3324311879201E+01  0.0000000000000E+00
-0.1072687973096E+01 -0.3254332222786E+01  0.0000000000000E+00
-0.1072700504600E+01 -0.3184351595195E+01  0.0000000000000E+00
-0.1072713036139E+01 -0.3114370767918E+01  0.0000000000000E+00
-0.1072725567672E+01 -0.3044389978209E+01  0.0000000000000E+00
-0.1072738099188E+01 -0.2974409279085E+01  0.0000000000000E+00
-0.1072830520992E+01 -0.2904428613303E+01  0.0000000000000E+00
-0.1073487230625E+01 -0.2834451427672E+01  0.0000000000000E+00
-0.1075234077757E+01 -0.2764494485924E+01  0.0000000000000E+00
-0.1078387008707E+01 -0.2694589599196E+01  0.0000000000000E+00
-0.1083069870449E+01 -0.2624775084183E+01  0.0000000000000E+00
-0.1089296645518E+01 -0.2555087669031E+01  0.0000000000000E+00
-0.1097038927970E+01 -0.2485560315349E+01  0.0000000000000E+00
-0.1106264590896E+01 -0.2416224123304E+01  0.0000000000000E+00
-0.1116957763942E+01 -0.2347110367907E+01  0.0000000000000E+00
-0.1129130020690E+01 -0.2278255270224E+01  0.0000000000000E+00
-0.1142829695345E+01 -0.2209703655273E+01  0.0000000000000E+00
-0.1158075396169E+01 -0.2141497071144E+01  0.0000000000000E+00
-0.1174772329272E+01 -0.2073649759721E+01  0.0000000000000E+00
-0.1192849805623E+01 -0.2006176643474E+01  0.0000000000000E+00
-0.1212273911551E+01 -0.1939099498740E+01  0.0000000000000E+00
-0.1233043537267E+01 -0.1872449058536E+01  0.0000000000000E+00
-0.1255190460318E+01 -0.1806268204055E+01  0.0000000000000E+00
-0.1278783418399E+01 -0.1740617371563E+01  0.0000000000000E+00
-0.1303938469955E+01 -0.1675581070262E+01  0.0000000000000E+00
-0.1330835993654E+01 -0.1611286650534E+01  0.0000000000000E+00
-0.1359757680489E+01 -0.1547927244028E+01  0.0000000000000E+00
-0.1045023674207E+01 -0.4233842070895E+01  0.0000000000000E+00
-0.1045047348392E+01 -0.4163639555816E+01  0.0000000000000E+00
-0.1045071022622E+01 -0.4093436908429E+01  0.0000000000000E+00
-0.1045094696873E+01 -0.4023234200019E+01  0.0000000000000E+00
-0.1045118371092E+01 -0.3953031584216E+01  0.0000000000000E+00
-0.1045142045307E+01 -0.3882828981585E+01  0.0000000000000E+00
-0.1045165719525E+01 -0.3812626370033E+01  0.0000000000000E+00
-0.1045189393746E+01 -0.3742423747889E+01  0.0000000000000E+00
-0.1045213067966E+01 -0.3672221131264E+01  0.0000000000000E+00
-0.1045236742186E+01 -0.3602018513676E+01  0.0000000000000E+00
-0.1045260416449E+01 -0.3531815768278E+01  0.0000000000000E+00
-0.1045284090638E+01 -0.3461613242396E+01  0.0000000000000E+00
-0.1045307764898E+01 -0.3391410507462E+01  0.0000000000000E+00
-0.1045331439506E+01 -0.3321206737540E+01  0.0000000000000E+00
-0.1045355113332E+01 -0.3251005289272E+01  0.0000000000000E+00
-0.1045378787486E+01 -0.3180802866750E+01  0.0000000000000E+00
-0.1045402461708E+01 -0.3110600243909E+01  0.0000000000000E+00
-0.1045426135917E+01 -0.3040397658755E+01  0.0000000000000E+00
-0.1045449810095E+01 -0.2970195164473E+01  0.0000000000000E+00
-0.1045551315657E+01 -0.2899992703486E+01  0.0000000000000E+00
-0.1046202566339E+01 -0.2829793723913E+01  0.0000000000000E+00
-0.1047915859739E+01 -0.2759614990390E+01  0.0000000000000E+00
-0.1050998999770E+01 -0.2689488312903E+01  0.0000000000000E+00
-0.1055572641697E+01 -0.2619452007401E+01  0.0000000000000E+00
-0.1061650407731E+01 -0.2549542801550E+01  0.0000000000000E+00
-0.1069204624013E+01 -0.2479793656596E+01  0.0000000000000E+00
-0.1078203991553E+01 -0.2410235673589E+01  0.0000000000000E+00
-0.1088633049045E+01 -0.2340900126704E+01  0.0000000000000E+00
-0.1100503071749E+01 -0.2271823238048E+01  0.0000000000000E+00
-0.1113861148214E+01 -0.2203049832639E+01  0.0000000000000E+00
-0.1128725407183E+01 -0.2134621457671E+01  0.0000000000000E+00
-0.1145003497769E+01 -0.2066552354937E+01  0.0000000000000E+00
-0.1162626552704E+01 -0.1998857447123E+01  0.0000000000000E+00
-0.1181561532320E+01 -0.1931558510742E+01  0.0000000000000E+00
-0.1201807355426E+01 -0.1864686278866E+01  0.0000000000000E+00
-0.1223394980603E+01 -0.1798283632802E+01  0.0000000000000E+00
-0.1246391373975E+01 -0.1732411010466E+01  0.0000000000000E+00
-0.1270909603116E+01 -0.1667152918159E+01  0.0000000000000E+00
-0.1297125397712E+01 -0.1602636712462E+01  0.0000000000000E+00
-0.1325313189253E+01 -0.1539055522277E+01  0.0000000000000E+00
-0.1017533453958E+01 -0.4233625628194E+01  0.0000000000000E+00
-0.1017566907886E+01 -0.4163206670607E+01  0.0000000000000E+00
-0.1017600361877E+01 -0.4092787580305E+01  0.0000000000000E+00
-0.1017633815897E+01 -0.4022368428792E+01  0.0000000000000E+00
-0.1017667269873E+01 -0.3951949370171E+01  0.0000000000000E+00
-0.1017700723842E+01 -0.3881530324762E+01  0.0000000000000E+00
-0.1017734177816E+01 -0.3811111270406E+01  0.0000000000000E+00
-0.1017767631795E+01 -0.3740692205424E+01  0.0000000000000E+00
-0.1017801085772E+01 -0.3670273145978E+01  0.0000000000000E+00
-0.1017834539748E+01 -0.3599854085567E+01  0.0000000000000E+00
-0.1017867993786E+01 -0.3529434896952E+01  0.0000000000000E+00
-0.1017901447719E+01 -0.3459015928528E+01  0.0000000000000E+00
-0.1017934901752E+01 -0.3388596750409E+01  0.0000000000000E+00
-0.1017968356278E+01 -0.3318176534111E+01  0.0000000000000E+00
-0.1018001809697E+01 -0.3247758646625E+01  0.0000000000000E+00
-0.1018035263581E+01 -0.3177339781880E+01  0.0000000000000E+00
-0.1018068717560E+01 -0.3106920716200E+01  0.0000000000000E+00
-0.1018102171522E+01 -0.3036501688322E+01  0.0000000000000E+00
-0.1018135625440E+01 -0.2966082751597E+01  0.0000000000000E+00
-0.1018244851837E+01 -0.2895663848120E+01  0.0000000000000E+00
-0.1018889280661E+01 -0.2825248427290E+01  0.0000000000000E+00
-0.1020567657443E+01 -0.2754853254624E+01  0.0000000000000E+00
-0.1023579643686E+01 -0.2684510138987E+01  0.0000000000000E+00
-0.1028042702948E+01 -0.2614257395599E+01  0.0000000000000E+00
-0.1033970097107E+01 -0.2544131751656E+01  0.0000000000000E+00
-0.1041334884389E+01 -0.2474166168050E+01  0.0000000000000E+00
-0.1050106593729E+01 -0.2404391746694E+01  0.0000000000000E+00
-0.1060270172863E+01 -0.2334839760947E+01  0.0000000000000E+00
-0.1071836598734E+01 -0.2265546433933E+01  0.0000000000000E+00
-0.1084851714238E+01 -0.2196556590667E+01  0.0000000000000E+00
-0.1099333168593E+01 -0.2127911777470E+01  0.0000000000000E+00
-0.1115191053912E+01 -0.2059626236046E+01  0.0000000000000E+00
-0.1132358324692E+01 -0.1991714889293E+01  0.0000000000000E+00
-0.1150802815268E+01 -0.1924199513894E+01  0.0000000000000E+00
-0.1170523473049E+01 -0.1857110842977E+01  0.0000000000000E+00
-0.1191550437648E+01 -0.1790491757958E+01  0.0000000000000E+00
-0.1213948903631E+01 -0.1724402698364E+01  0.0000000000000E+00
-0.1237828947684E+01 -0.1658928167667E+01  0.0000000000000E+00
-0.1263361650553E+01 -0.1594195528494E+01  0.0000000000000E+00
-0.1290814184204E+01 -0.1530397907066E+01  0.0000000000000E+00
-0.9900418962607E+00 -0.4233414571416E+01  0.0000000000000E+00
-0.9900837924840E+00 -0.4162784557239E+01  0.0000000000000E+00
-0.9901256887862E+00 -0.4092154409949E+01  0.0000000000000E+00
-0.9901675851249E+00 -0.4021524201263E+01  0.0000000000000E+00
-0.9902094814083E+00 -0.3950894085750E+01  0.0000000000000E+00
-0.9902513776839E+00 -0.3880263983487E+01  0.0000000000000E+00
-0.9902932739648E+00 -0.3809633872251E+01  0.0000000000000E+00
-0.9903351702520E+00 -0.3739003750357E+01  0.0000000000000E+00
-0.9903770665359E+00 -0.3668373634015E+01  0.0000000000000E+00
-0.9904189628203E+00 -0.3597743516705E+01  0.0000000000000E+00
-0.9904608591811E+00 -0.3527113270807E+01  0.0000000000000E+00
-0.9905027554109E+00 -0.3456483245761E+01  0.0000000000000E+00
-0.9905446517654E+00 -0.3385853010391E+01  0.0000000000000E+00
-0.9905865487375E+00 -0.3315221733730E+01  0.0000000000000E+00
-0.9906284443242E+00 -0.3244592792861E+01  0.0000000000000E+00
-0.9906703404922E+00 -0.3173962871804E+01  0.0000000000000E+00
-0.9907122367799E+00 -0.3103332749209E+01  0.0000000000000E+00
-0.9907541330450E+00 -0.3032702664530E+01  0.0000000000000E+00
-0.9907960292559E+00 -0.2962072671278E+01  0.0000000000000E+00
-0.9909116390403E+00 -0.2891442711229E+01  0.0000000000000E+00
-0.9915479085496E+00 -0.2820816235028E+01  0.0000000000000E+00
-0.9931900312463E+00 -0.2750210009053E+01  0.0000000000000E+00
-0.9961295262075E+00 -0.2679655841074E+01  0.0000000000000E+00
-0.1000480665275E+01 -0.2609192045601E+01  0.0000000000000E+00
-0.1006256349991E+01 -0.2538855349374E+01  0.0000000000000E+00
-0.1013430370667E+01 -0.2468678712937E+01  0.0000000000000E+00
-0.1021973084167E+01 -0.2398693239047E+01  0.0000000000000E+00
-0.1031869847265E+01 -0.2328930200265E+01  0.0000000000000E+00
-0.1043131338593E+01 -0.2259425820705E+01  0.0000000000000E+00
-0.1055802155392E+01 -0.2190224925383E+01  0.0000000000000E+00
-0.1069899467351E+01 -0.2121369059769E+01  0.0000000000000E+00
-0.1085335809584E+01 -0.2052872465477E+01  0.0000000000000E+00
-0.1102045958354E+01 -0.1984750065613E+01  0.0000000000000E+00
-0.1119998622005E+01 -0.1917023637028E+01  0.0000000000000E+00
-0.1139192776541E+01 -0.1849723912900E+01  0.0000000000000E+00
-0.1159657742613E+01 -0.1782893774755E+01  0.0000000000000E+00
-0.1181456943232E+01 -0.1716593663690E+01  0.0000000000000E+00
-0.1204697464179E+01 -0.1650908080416E+01  0.0000000000000E+00
-0.1229545737291E+01 -0.1585964393460E+01  0.0000000000000E+00
-0.1256261674990E+01 -0.1521955726426E+01  0.0000000000000E+00
-0.9625490307744E+00 -0.4233208934242E+01  0.0000000000000E+00
-0.9625980615051E+00 -0.4162373283074E+01  0.0000000000000E+00
-0.9626470923282E+00 -0.4091537498405E+01  0.0000000000000E+00
-0.9626961231939E+00 -0.4020701652163E+01  0.0000000000000E+00
-0.9627451539950E+00 -0.3949865899364E+01  0.0000000000000E+00
-0.9627941847868E+00 -0.3879030159854E+01  0.0000000000000E+00
-0.9628432155849E+00 -0.3808194411344E+01  0.0000000000000E+00
-0.9628922463903E+00 -0.3737358652146E+01  0.0000000000000E+00
-0.9629412771919E+00 -0.3666522898516E+01  0.0000000000000E+00
-0.9629903079942E+00 -0.3595687143916E+01  0.0000000000000E+00
-0.9630393388858E+00 -0.3524851260352E+01  0.0000000000000E+00
-0.9630883696240E+00 -0.3454015598284E+01  0.0000000000000E+00
-0.9631374005082E+00 -0.3383179725279E+01  0.0000000000000E+00
-0.9631864321153E+00 -0.3312342807951E+01  0.0000000000000E+00
-0.9632354621009E+00 -0.3241508233216E+01  0.0000000000000E+00
-0.9632844927670E+00 -0.3170672675440E+01  0.0000000000000E+00
-0.9633335235729E+00 -0.3099836915539E+01  0.0000000000000E+00
-0.9633825543526E+00 -0.3029001193664E+01  0.0000000000000E+00
-0.9634315850687E+00 -0.2958165563482E+01  0.0000000000000E+00
-0.9635522704534E+00 -0.2887329966460E+01  0.0000000000000E+00
-0.9641790728768E+00 -0.2816497854456E+01  0.0000000000000E+00
-0.9657836337437E+00 -0.2745685994687E+01  0.0000000000000E+00
-0.9686493297033E+00 -0.2674926193857E+01  0.0000000000000E+00
-0.9728872408782E+00 -0.2604256765783E+01  0.0000000000000E+00
-0.9785099084739E+00 -0.2533714436761E+01  0.0000000000000E+00
-0.9854918548825E+00 -0.2463332166997E+01  0.0000000000000E+00
-0.9938042649014E+00 -0.2393141060067E+01  0.0000000000000E+00
-0.1003432904341E+01 -0.2323172387757E+01  0.0000000000000E+00
-0.1014388153526E+01 -0.2253462375149E+01  0.0000000000000E+00
-0.1026713364044E+01 -0.2184055847255E+01  0.0000000000000E+00
-0.1040425226048E+01 -0.2114994348714E+01  0.0000000000000E+00
-0.1055438717652E+01 -0.2046292121059E+01  0.0000000000000E+00
-0.1071690436889E+01 -0.1977964087595E+01  0.0000000000000E+00
-0.1089149966106E+01 -0.1910032025335E+01  0.0000000000000E+00
-0.1107816309908E+01 -0.1842526667508E+01  0.0000000000000E+00
-0.1127717969982E+01 -0.1775490895749E+01  0.0000000000000E+00
-0.1148916597798E+01 -0.1708985152681E+01  0.0000000000000E+00
-0.1171516288212E+01 -0.1643093936327E+01  0.0000000000000E+00
-0.1195678824192E+01 -0.1577944620960E+01  0.0000000000000E+00
-0.1221656858605E+01 -0.1513730327639E+01  0.0000000000000E+00
-0.9350548857341E+00 -0.4233008749201E+01  0.0000000000000E+00
-0.9351097714192E+00 -0.4161972913172E+01  0.0000000000000E+00
-0.9351646572077E+00 -0.4090936943265E+01  0.0000000000000E+00
-0.9352195430440E+00 -0.4019900911610E+01  0.0000000000000E+00
-0.9352744288078E+00 -0.3948864973661E+01  0.0000000000000E+00
-0.9353293145614E+00 -0.3877829049040E+01  0.0000000000000E+00
-0.9353842003219E+00 -0.3806793115393E+01  0.0000000000000E+00
-0.9354390860907E+00 -0.3735757171028E+01  0.0000000000000E+00
-0.9354939718552E+00 -0.3664721232247E+01  0.0000000000000E+00
-0.9355488576204E+00 -0.3593685292493E+01  0.0000000000000E+00
-0.9356037434856E+00 -0.3522649223411E+01  0.0000000000000E+00
-0.9356586291791E+00 -0.3451613376450E+01  0.0000000000000E+00
-0.9357135150361E+00 -0.3380577317956E+01  0.0000000000000E+00
-0.9357684017023E+00 -0.3309540212189E+01  0.0000000000000E+00
-0.9358232865533E+00 -0.3238505455634E+01  0.0000000000000E+00
-0.9358781721661E+00 -0.3167469713260E+01  0.0000000000000E+00
-0.9359330579354E+00 -0.3096433768190E+01  0.0000000000000E+00
-0.9359879436753E+00 -0.3025397861254E+01  0.0000000000000E+00
-0.9360428293441E+00 -0.2954362046269E+01  0.0000000000000E+00
-0.9361673107769E+00 -0.2883326264402E+01  0.0000000000000E+00
-0.9367833665756E+00 -0.2812293968694E+01  0.0000000000000E+00
-0.9383490860972E+00 -0.2741281927175E+01  0.0000000000000E+00
-0.9411397035599E+00 -0.2670321945513E+01  0.0000000000000E+00
-0.9452631073643E+00 -0.2599452336852E+01  0.0000000000000E+00
-0.9507314783757E+00 -0.2528709827051E+01  0.0000000000000E+00
-0.9575200710652E+00 -0.2458127375992E+01  0.0000000000000E+00
-0.9656008981693E+00 -0.2387736088047E+01  0.0000000000000E+00
-0.9749601345276E+00 -0.2317567234247E+01  0.0000000000000E+00
-0.9856078621643E+00 -0.2247657040614E+01  0.0000000000000E+00
-0.9975861870151E+00 -0.2178050332159E+01  0.0000000000000E+00
-0.1010911319691E+01 -0.2108788652715E+01  0.0000000000000E+00
-0.1025500681307E+01 -0.2039886243729E+01  0.0000000000000E+00
-0.1041292691662E+01 -0.1971358028703E+01  0.0000000000000E+00
-0.1058257807111E+01 -0.1903225784809E+01  0.0000000000000E+00
-0.1076395060859E+01 -0.1835520245327E+01  0.0000000000000E+00
-0.1095732135628E+01 -0.1768284291992E+01  0.0000000000000E+00
-0.1116328911357E+01 -0.1701578368917E+01  0.0000000000000E+00
-0.1138286491965E+01 -0.1635486971509E+01  0.0000000000000E+00
-0.1161762011589E+01 -0.1570137479634E+01  0.0000000000000E+00
-0.1187000863524E+01 -0.1505723011870E+01  0.0000000000000E+00
-0.9075594888834E+00 -0.4232814047965E+01  0.0000000000000E+00
-0.9076189777137E+00 -0.4161583510873E+01  0.0000000000000E+00
-0.9076784666562E+00 -0.4090352839537E+01  0.0000000000000E+00
-0.9077379556503E+00 -0.4019122106283E+01  0.0000000000000E+00
-0.9077974445660E+00 -0.3947891466993E+01  0.0000000000000E+00
-0.9078569334706E+00 -0.3876660841067E+01  0.0000000000000E+00
-0.9079164223826E+00 -0.3805430206090E+01  0.0000000000000E+00
-0.9079759113037E+00 -0.3734199560366E+01  0.0000000000000E+00
-0.9080354002201E+00 -0.3662968920241E+01  0.0000000000000E+00
-0.9080948891373E+00 -0.3591738279139E+01  0.0000000000000E+00
-0.9081543781628E+00 -0.3520507508356E+01  0.0000000000000E+00
-0.9082138670023E+00 -0.3449276960303E+01  0.0000000000000E+00
-0.9082733560189E+00 -0.3378046200137E+01  0.0000000000000E+00
-0.9083328459126E+00 -0.3306814389827E+01  0.0000000000000E+00
-0.9083923338389E+00 -0.3235584935169E+01  0.0000000000000E+00
-0.9084518225908E+00 -0.3164354491989E+01  0.0000000000000E+00
-0.9085113115124E+00 -0.3093123845558E+01  0.0000000000000E+00
-0.9085708004021E+00 -0.3021893237364E+01  0.0000000000000E+00
-0.9086302892149E+00 -0.2950662721375E+01  0.0000000000000E+00
-0.9087573148855E+00 -0.2879432238462E+01  0.0000000000000E+00
-0.9093613722480E+00 -0.2808205242816E+01  0.0000000000000E+00
-0.9108869986093E+00 -0.2736998503262E+01  0.0000000000000E+00
-0.9136012857450E+00 -0.2665843824457E+01  0.0000000000000E+00
-0.9176089303279E+00 -0.2594779518890E+01  0.0000000000000E+00
-0.9229217528804E+00 -0.2523842311999E+01  0.0000000000000E+00
-0.9295157399506E+00 -0.2453065163345E+01  0.0000000000000E+00
-0.9373637322199E+00 -0.2382479178080E+01  0.0000000000000E+00
-0.9464523135519E+00 -0.2312115626497E+01  0.0000000000000E+00
-0.9567912676773E+00 -0.2242010735533E+01  0.0000000000000E+00
-0.9684214548780E+00 -0.2172209330199E+01  0.0000000000000E+00
-0.9813586062191E+00 -0.2102752953541E+01  0.0000000000000E+00
-0.9955225858144E+00 -0.2033655846927E+01  0.0000000000000E+00
-0.1010853635234E+01 -0.1964932934049E+01  0.0000000000000E+00
-0.1027323084841E+01 -0.1896605992232E+01  0.0000000000000E+00
-0.1044929996441E+01 -0.1828705754805E+01  0.0000000000000E+00
-0.1063701233792E+01 -0.1761275103603E+01  0.0000000000000E+00
-0.1083694905311E+01 -0.1694374484189E+01  0.0000000000000E+00
-0.1105009123960E+01 -0.1628088389422E+01  0.0000000000000E+00
-0.1127796375076E+01 -0.1562544204608E+01  0.0000000000000E+00
-0.1152294792365E+01 -0.1497935045915E+01  0.0000000000000E+00
-0.8800628705364E+00 -0.4232624862121E+01  0.0000000000000E+00
-0.8801257410166E+00 -0.4161205139353E+01  0.0000000000000E+00
-0.8801886116154E+00 -0.4089785281985E+01  0.0000000000000E+00
-0.8802514822688E+00 -0.4018365362534E+01  0.0000000000000E+00
-0.8803143528392E+00 -0.3946945537297E+01  0.0000000000000E+00
-0.8803772233979E+00 -0.3875525725460E+01  0.0000000000000E+00
-0.8804400939646E+00 -0.3804105904547E+01  0.0000000000000E+00
-0.8805029645407E+00 -0.3732686072859E+01  0.0000000000000E+00
-0.8805658351119E+00 -0.3661266246784E+01  0.0000000000000E+00
-0.8806287056840E+00 -0.3589846419731E+01  0.0000000000000E+00
-0.8806915763705E+00 -0.3518426462652E+01  0.0000000000000E+00
-0.8807544468605E+00 -0.3447006728894E+01  0.0000000000000E+00
-0.8808173175376E+00 -0.3375586782460E+01  0.0000000000000E+00
-0.8808801891417E+00 -0.3304165783093E+01  0.0000000000000E+00
-0.8809430586665E+00 -0.3232747145634E+01  0.0000000000000E+00
-0.8810059290639E+00 -0.3161327517028E+01  0.0000000000000E+00
-0.8810687996407E+00 -0.3089907684630E+01  0.0000000000000E+00
-0.8811316701837E+00 -0.3018487890573E+01  0.0000000000000E+00
-0.8811945406453E+00 -0.2947068188964E+01  0.0000000000000E+00
-0.8813228890586E+00 -0.2875648520392E+01  0.0000000000000E+00
-0.8819137264959E+00 -0.2804232340163E+01  0.0000000000000E+00
-0.8833980382182E+00 -0.2732836417874E+01  0.0000000000000E+00
-0.8860347735525E+00 -0.2661492557202E+01  0.0000000000000E+00
-0.8899254374389E+00 -0.2590239069998E+01  0.0000000000000E+00
-0.8950814900544E+00 -0.2519112681292E+01  0.0000000000000E+00
-0.9014796500221E+00 -0.2448146350332E+01  0.0000000000000E+00
-0.9090935859732E+00 -0.2377371183027E+01  0.0000000000000E+00
-0.9179102907911E+00 -0.2306818448954E+01  0.0000000000000E+00
-0.9279392499182E+00 -0.2236524375941E+01  0.0000000000000E+00
-0.9392200779827E+00 -0.2166533788996E+01  0.0000000000000E+00
-0.9517680264986E+00 -0.2096888230403E+01  0.0000000000000E+00
-0.9655054025790E+00 -0.2027601941450E+01  0.0000000000000E+00
-0.9803742695659E+00 -0.1958689846016E+01  0.0000000000000E+00
-0.9963468318319E+00 -0.1890173721573E+01  0.0000000000000E+00
-0.1013422179782E+01 -0.1822084301500E+01  0.0000000000000E+00
-0.1031626358213E+01 -0.1754464467729E+01  0.0000000000000E+00
-0.1051015704027E+01 -0.1687374667227E+01  0.0000000000000E+00
-0.1071685339213E+01 -0.1620899390382E+01  0.0000000000000E+00
-0.1093783100342E+01 -0.1555166027787E+01  0.0000000000000E+00
-0.1117539861519E+01 -0.1490367693265E+01  0.0000000000000E+00
-0.8525650613475E+00 -0.4232441222540E+01  0.0000000000000E+00
-0.8526301226369E+00 -0.4160837860356E+01  0.0000000000000E+00
-0.8526951840489E+00 -0.4089234363225E+01  0.0000000000000E+00
-0.8527602455175E+00 -0.4017630803852E+01  0.0000000000000E+00
-0.8528253069002E+00 -0.3946027338935E+01  0.0000000000000E+00
-0.8528903682708E+00 -0.3874423887452E+01  0.0000000000000E+00
-0.8529554296496E+00 -0.3802820426871E+01  0.0000000000000E+00
-0.8530204910382E+00 -0.3731216955486E+01  0.0000000000000E+00
-0.8530855524217E+00 -0.3659613489729E+01  0.0000000000000E+00
-0.8531506138061E+00 -0.3588010022991E+01  0.0000000000000E+00
-0.8532156753090E+00 -0.3516406425893E+01  0.0000000000000E+00
-0.8532807366084E+00 -0.3444803052690E+01  0.0000000000000E+00
-0.8533457981016E+00 -0.3373199466264E+01  0.0000000000000E+00
-0.8534108605539E+00 -0.3301594824198E+01  0.0000000000000E+00
-0.8534759208546E+00 -0.3229992550113E+01  0.0000000000000E+00
-0.8535409820583E+00 -0.3158389282333E+01  0.0000000000000E+00
-0.8536060434475E+00 -0.3086785810237E+01  0.0000000000000E+00
-0.8536711048019E+00 -0.3015182376580E+01  0.0000000000000E+00
-0.8537361660720E+00 -0.2943579035609E+01  0.0000000000000E+00
-0.8538646463877E+00 -0.2871975727635E+01  0.0000000000000E+00
-0.8544410730703E+00 -0.2800375909051E+01  0.0000000000000E+00
-0.8558828793436E+00 -0.2728796350200E+01  0.0000000000000E+00
-0.8584408720812E+00 -0.2657268853809E+01  0.0000000000000E+00
-0.8622133644880E+00 -0.2585831731108E+01  0.0000000000000E+00
-0.8672114563930E+00 -0.2514521706732E+01  0.0000000000000E+00
-0.8734125984922E+00 -0.2443371739627E+01  0.0000000000000E+00
-0.8807912873710E+00 -0.2372412936434E+01  0.0000000000000E+00
-0.8893349249278E+00 -0.2301676566038E+01  0.0000000000000E+00
-0.8990526983227E+00 -0.2231198857128E+01  0.0000000000000E+00
-0.9099829765306E+00 -0.2161024634712E+01  0.0000000000000E+00
-0.9221405315093E+00 -0.2091195440332E+01  0.0000000000000E+00
-0.9354501133705E+00 -0.2021725515203E+01  0.0000000000000E+00
-0.9498556072284E+00 -0.1952629783379E+01  0.0000000000000E+00
-0.9653300914659E+00 -0.1883930022482E+01  0.0000000000000E+00
-0.9818726850887E+00 -0.1815656965932E+01  0.0000000000000E+00
-0.9995086139303E+00 -0.1747853495759E+01  0.0000000000000E+00
-0.1018292443390E+01 -0.1680580060295E+01  0.0000000000000E+00
-0.1038316304469E+01 -0.1613921147526E+01  0.0000000000000E+00
-0.1059723385008E+01 -0.1548004153177E+01  0.0000000000000E+00
-0.1082737299492E+01 -0.1483022188796E+01  0.0000000000000E+00
-0.8250660920538E+00 -0.4232263159309E+01  0.0000000000000E+00
-0.8251321840486E+00 -0.4160481734051E+01  0.0000000000000E+00
-0.8251982761680E+00 -0.4088700173511E+01  0.0000000000000E+00
-0.8252643683448E+00 -0.4016918550576E+01  0.0000000000000E+00
-0.8253304604344E+00 -0.3945137022330E+01  0.0000000000000E+00
-0.8253965525117E+00 -0.3873355507552E+01  0.0000000000000E+00
-0.8254626445973E+00 -0.3801573983653E+01  0.0000000000000E+00
-0.8255287366929E+00 -0.3729792448923E+01  0.0000000000000E+00
-0.8255948287833E+00 -0.3658010919836E+01  0.0000000000000E+00
-0.8256609208746E+00 -0.3586229389765E+01  0.0000000000000E+00
-0.8257270130863E+00 -0.3514447729009E+01  0.0000000000000E+00
-0.8257931050913E+00 -0.3442666292706E+01  0.0000000000000E+00
-0.8258591972930E+00 -0.3370884642650E+01  0.0000000000000E+00
-0.8259252904692E+00 -0.3299101934328E+01  0.0000000000000E+00
-0.8259913814597E+00 -0.3227321599875E+01  0.0000000000000E+00
-0.8260574733674E+00 -0.3155540269257E+01  0.0000000000000E+00
-0.8261235654636E+00 -0.3083758733815E+01  0.0000000000000E+00
-0.8261896575244E+00 -0.3011977236907E+01  0.0000000000000E+00
-0.8262557494996E+00 -0.2940195832915E+01  0.0000000000000E+00
-0.8263832016146E+00 -0.2868414461884E+01  0.0000000000000E+00
-0.8269440574487E+00 -0.2796636581256E+01  0.0000000000000E+00
-0.8283421981958E+00 -0.2724878962100E+01  0.0000000000000E+00
-0.8308202882722E+00 -0.2653173406220E+01  0.0000000000000E+00
-0.8344734491439E+00 -0.2581558224248E+01  0.0000000000000E+00
-0.8393124202894E+00 -0.2510070140431E+01  0.0000000000000E+00
-0.8453153844756E+00 -0.2438742113425E+01  0.0000000000000E+00
-0.8524576662468E+00 -0.2367605250581E+01  0.0000000000000E+00
-0.8607270765120E+00 -0.2296690820111E+01  0.0000000000000E+00
-0.8701325041541E+00 -0.2226035051540E+01  0.0000000000000E+00
-0.8807110724950E+00 -0.2155682769878E+01  0.0000000000000E+00
-0.8924770739321E+00 -0.2085675515945E+01  0.0000000000000E+00
-0.9053577015745E+00 -0.2016027530883E+01  0.0000000000000E+00
-0.9192986623094E+00 -0.1946753738922E+01  0.0000000000000E+00
-0.9342739085305E+00 -0.1877875917823E+01  0.0000000000000E+00
-0.9502825878444E+00 -0.1809424801052E+01  0.0000000000000E+00
-0.9673491071235E+00 -0.1741443270728E+01  0.0000000000000E+00
-0.9855262602718E+00 -0.1673991776510E+01  0.0000000000000E+00
-0.1004903187288E+01 -0.1607154804054E+01  0.0000000000000E+00
-0.1025618427315E+01 -0.1541059754062E+01  0.0000000000000E+00
-0.1047888335209E+01 -0.1475899735876E+01  0.0000000000000E+00
-0.7975659939323E+00 -0.4232090701822E+01  0.0000000000000E+00
-0.7976319878057E+00 -0.4160136819232E+01  0.0000000000000E+00
-0.7976979818034E+00 -0.4088182801034E+01  0.0000000000000E+00
-0.7977639758586E+00 -0.4016228720290E+01  0.0000000000000E+00
-0.7978299698266E+00 -0.3944274734464E+01  0.0000000000000E+00
-0.7978959637823E+00 -0.3872320762138E+01  0.0000000000000E+00
-0.7979619577464E+00 -0.3800366780669E+01  0.0000000000000E+00
-0.7980279517205E+00 -0.3728412788344E+01  0.0000000000000E+00
-0.7980939456893E+00 -0.3656458801674E+01  0.0000000000000E+00
-0.7981599396591E+00 -0.3584504814019E+01  0.0000000000000E+00
-0.7982259337490E+00 -0.3512550695365E+01  0.0000000000000E+00
-0.7982919276325E+00 -0.3440596801702E+01  0.0000000000000E+00
-0.7983579217126E+00 -0.3368642693773E+01  0.0000000000000E+00
-0.7984239167656E+00 -0.3296687525035E+01  0.0000000000000E+00
-0.7984899096361E+00 -0.3224734735871E+01  0.0000000000000E+00
-0.7985559034225E+00 -0.3152780948147E+01  0.0000000000000E+00
-0.7986218973972E+00 -0.3080826955107E+01  0.0000000000000E+00
-0.7986878913365E+00 -0.3008873000694E+01  0.0000000000000E+00
-0.7987538851903E+00 -0.2936919139421E+01  0.0000000000000E+00
-0.7988791802779E+00 -0.2864965311072E+01  0.0000000000000E+00
-0.7994233364446E+00 -0.2793014974107E+01  0.0000000000000E+00
-0.8007766828600E+00 -0.2721084900299E+01  0.0000000000000E+00
-0.8031737414778E+00 -0.2649206890558E+01  0.0000000000000E+00
-0.8067064420217E+00 -0.2577419254934E+01  0.0000000000000E+00
-0.8113851636173E+00 -0.2505758717304E+01  0.0000000000000E+00
-0.8171888211005E+00 -0.2434258236037E+01  0.0000000000000E+00
-0.8240935669787E+00 -0.2362948919174E+01  0.0000000000000E+00
-0.8320876211673E+00 -0.2291862034276E+01  0.0000000000000E+00
-0.8411795742777E+00 -0.2221033811677E+01  0.0000000000000E+00
-0.8514053039785E+00 -0.2150509076388E+01  0.0000000000000E+00
-0.8627786231021E+00 -0.2080329368531E+01  0.0000000000000E+00
-0.8752291677545E+00 -0.2010508929178E+01  0.0000000000000E+00
-0.8887044665969E+00 -0.1941062682728E+01  0.0000000000000E+00
-0.9031793460348E+00 -0.1872012407076E+01  0.0000000000000E+00
-0.9186529822757E+00 -0.1803388835734E+01  0.0000000000000E+00
-0.9351489632314E+00 -0.1735234850908E+01  0.0000000000000E+00
-0.9527183113194E+00 -0.1667610903540E+01  0.0000000000000E+00
-0.9714471755213E+00 -0.1600601477032E+01  0.0000000000000E+00
-0.9914694463155E+00 -0.1534333976903E+01  0.0000000000000E+00
-0.1012994218913E+01 -0.1469001510359E+01  0.0000000000000E+00
-0.7700647981096E+00 -0.4231923878620E+01  0.0000000000000E+00
-0.7701295961614E+00 -0.4159803172976E+01  0.0000000000000E+00
-0.7701943943354E+00 -0.4087682331411E+01  0.0000000000000E+00
-0.7702591925656E+00 -0.4015561427154E+01  0.0000000000000E+00
-0.7703239907104E+00 -0.3943440618035E+01  0.0000000000000E+00
-0.7703887888430E+00 -0.3871319822448E+01  0.0000000000000E+00
-0.7704535869839E+00 -0.3799199017697E+01  0.0000000000000E+00
-0.7705183851345E+00 -0.3727078202063E+01  0.0000000000000E+00
-0.7705831832801E+00 -0.3654957392099E+01  0.0000000000000E+00
-0.7706479814265E+00 -0.3582836581146E+01  0.0000000000000E+00
-0.7707127796909E+00 -0.3510715638892E+01  0.0000000000000E+00
-0.7707775777527E+00 -0.3438594922150E+01  0.0000000000000E+00
-0.7708423760074E+00 -0.3366473990645E+01  0.0000000000000E+00
-0.7709071752175E+00 -0.3294351995872E+01  0.0000000000000E+00
-0.7709719722846E+00 -0.3222232386190E+01  0.0000000000000E+00
-0.7710367702510E+00 -0.3150111775632E+01  0.0000000000000E+00
-0.7711015684022E+00 -0.3077990959283E+01  0.0000000000000E+00
-0.7711663665187E+00 -0.3005870181650E+01  0.0000000000000E+00
-0.7712311645513E+00 -0.2933749497373E+01  0.0000000000000E+00
-0.7713532049104E+00 -0.2861628845984E+01  0.0000000000000E+00
-0.7718795637062E+00 -0.2789511686930E+01  0.0000000000000E+00
-0.7731870180811E+00 -0.2717414792663E+01  0.0000000000000E+00
-0.7755019475157E+00 -0.2645369963226E+01  0.0000000000000E+00
-0.7789130899857E+00 -0.2573415508111E+01  0.0000000000000E+00
-0.7834304642614E+00 -0.2501588150830E+01  0.0000000000000E+00
-0.7890337172463E+00 -0.2429920849482E+01  0.0000000000000E+00
-0.7956998294157E+00 -0.2358444712771E+01  0.0000000000000E+00
-0.8034174296876E+00 -0.2287191007629E+01  0.0000000000000E+00
-0.8121948104066E+00 -0.2216195965175E+01  0.0000000000000E+00
-0.8220666035875E+00 -0.2145504410416E+01  0.0000000000000E+00
-0.8330461424932E+00 -0.2075157882804E+01  0.0000000000000E+00
-0.8450655062273E+00 -0.2005170623341E+01  0.0000000000000E+00
-0.8580740452271E+00 -0.1935557556587E+01  0.0000000000000E+00
-0.8720474599112E+00 -0.1866340460572E+01  0.0000000000000E+00
-0.8869849550885E+00 -0.1797550068848E+01  0.0000000000000E+00
-0.9029092997104E+00 -0.1729229263707E+01  0.0000000000000E+00
-0.9198697447146E+00 -0.1661438497332E+01  0.0000000000000E+00
-0.9379494480500E+00 -0.1594262250943E+01  0.0000000000000E+00
-0.9572776515575E+00 -0.1527827934722E+01  0.0000000000000E+00
-0.9780561907860E+00 -0.1462328653807E+01  0.0000000000000E+00
-0.7425625381275E+00 -0.4231762717925E+01  0.0000000000000E+00
-0.7426250761992E+00 -0.4159480851731E+01  0.0000000000000E+00
-0.7426876143887E+00 -0.4087198849311E+01  0.0000000000000E+00
-0.7427501526326E+00 -0.4014916784060E+01  0.0000000000000E+00
-0.7428126907940E+00 -0.3942634814159E+01  0.0000000000000E+00
-0.7428752289437E+00 -0.3870352857819E+01  0.0000000000000E+00
-0.7429377671013E+00 -0.3798070892296E+01  0.0000000000000E+00
-0.7430003052684E+00 -0.3725788915866E+01  0.0000000000000E+00
-0.7430628434305E+00 -0.3653506945118E+01  0.0000000000000E+00
-0.7431253815935E+00 -0.3581224973379E+01  0.0000000000000E+00
-0.7431879198704E+00 -0.3508942870045E+01  0.0000000000000E+00
-0.7432504579517E+00 -0.3436660992727E+01  0.0000000000000E+00
-0.7433129962192E+00 -0.3364378900167E+01  0.0000000000000E+00
-0.7433755354087E+00 -0.3292095741962E+01  0.0000000000000E+00
-0.7434380725301E+00 -0.3219814974178E+01  0.0000000000000E+00
-0.7435006105193E+00 -0.3147533203282E+01  0.0000000000000E+00
-0.7435631486870E+00 -0.3075251226135E+01  0.0000000000000E+00
-0.7436256868211E+00 -0.3002969287790E+01  0.0000000000000E+00
-0.7436882248742E+00 -0.2930687443010E+01  0.0000000000000E+00
-0.7438059463465E+00 -0.2858405631084E+01  0.0000000000000E+00
-0.7443134436217E+00 -0.2786127312410E+01  0.0000000000000E+00
-0.7455739418209E+00 -0.2713869260097E+01  0.0000000000000E+00
-0.7478056779474E+00 -0.2641663273355E+01  0.0000000000000E+00
-0.7510941982260E+00 -0.2569547661129E+01  0.0000000000000E+00
-0.7554491610694E+00 -0.2497559146585E+01  0.0000000000000E+00
-0.7608509454467E+00 -0.2425730687557E+01  0.0000000000000E+00
-0.7672773598055E+00 -0.2354093393392E+01  0.0000000000000E+00
-0.7747174420619E+00 -0.2282678530414E+01  0.0000000000000E+00
-0.7831791862991E+00 -0.2211522330498E+01  0.0000000000000E+00
-0.7926959788783E+00 -0.2140669618651E+01  0.0000000000000E+00
-0.8032806734883E+00 -0.2070161933674E+01  0.0000000000000E+00
-0.8148677922298E+00 -0.2000013516502E+01  0.0000000000000E+00
-0.8274085073170E+00 -0.1930239291855E+01  0.0000000000000E+00
-0.8408793931821E+00 -0.1860861037888E+01  0.0000000000000E+00
-0.8552796832357E+00 -0.1791909488193E+01  0.0000000000000E+00
-0.8706313274695E+00 -0.1723427525147E+01  0.0000000000000E+00
-0.8869818053497E+00 -0.1655475602130E+01  0.0000000000000E+00
-0.9044112837790E+00 -0.1588138198255E+01  0.0000000000000E+00
-0.9230443559913E+00 -0.1521542728208E+01  0.0000000000000E+00
-0.9430755978615E+00 -0.1455882295130E+01  0.0000000000000E+00
-0.7150592470639E+00 -0.4231607246974E+01  0.0000000000000E+00
-0.7151184940750E+00 -0.4159169909968E+01  0.0000000000000E+00
-0.7151777411977E+00 -0.4086732436442E+01  0.0000000000000E+00
-0.7152369883719E+00 -0.4014294899951E+01  0.0000000000000E+00
-0.7152962354680E+00 -0.3941857459014E+01  0.0000000000000E+00
-0.7153554825529E+00 -0.3869420031669E+01  0.0000000000000E+00
-0.7154147296454E+00 -0.3796982595119E+01  0.0000000000000E+00
-0.7154739767468E+00 -0.3724545147640E+01  0.0000000000000E+00
-0.7155332238436E+00 -0.3652107705855E+01  0.0000000000000E+00
-0.7155924709412E+00 -0.3579670263077E+01  0.0000000000000E+00
-0.7156517181466E+00 -0.3507232688420E+01  0.0000000000000E+00
-0.7157109651668E+00 -0.3434795340266E+01  0.0000000000000E+00
-0.7157702123634E+00 -0.3362357776407E+01  0.0000000000000E+00
-0.7158294604335E+00 -0.3289919144611E+01  0.0000000000000E+00
-0.7158887065442E+00 -0.3217482908377E+01  0.0000000000000E+00
-0.7159479534771E+00 -0.3145045666874E+01  0.0000000000000E+00
-0.7160072005791E+00 -0.3072608218676E+01  0.0000000000000E+00
-0.7160664476493E+00 -0.3000170809363E+01  0.0000000000000E+00
-0.7161256946429E+00 -0.2927733493817E+01  0.0000000000000E+00
-0.7162380661482E+00 -0.2855296211092E+01  0.0000000000000E+00
-0.7167256708301E+00 -0.2782862422504E+01  0.0000000000000E+00
-0.7179381817940E+00 -0.2710448901796E+01  0.0000000000000E+00
-0.7200856935616E+00 -0.2638087447371E+01  0.0000000000000E+00
-0.7232505606037E+00 -0.2565816367651E+01  0.0000000000000E+00
-0.7274420809730E+00 -0.2493672385468E+01  0.0000000000000E+00
-0.7326413657027E+00 -0.2421688458397E+01  0.0000000000000E+00
-0.7388270512163E+00 -0.2349895696407E+01  0.0000000000000E+00
-0.7459885844246E+00 -0.2278325365235E+01  0.0000000000000E+00
-0.7541336611539E+00 -0.2207013697486E+01  0.0000000000000E+00
-0.7632944221120E+00 -0.2136005518168E+01  0.0000000000000E+00
-0.7734832414096E+00 -0.2065342365452E+01  0.0000000000000E+00
-0.7846370841437E+00 -0.1995038480210E+01  0.0000000000000E+00
-0.7967089443062E+00 -0.1925108787314E+01  0.0000000000000E+00
-0.8096762703438E+00 -0.1855575065041E+01  0.0000000000000E+00
-0.8235383242689E+00 -0.1786468047024E+01  0.0000000000000E+00
-0.8383162371141E+00 -0.1717830615718E+01  0.0000000000000E+00
-0.8540557168821E+00 -0.1649723225659E+01  0.0000000000000E+00
-0.8708339394160E+00 -0.1582230353929E+01  0.0000000000000E+00
-0.8887708493720E+00 -0.1515479419557E+01  0.0000000000000E+00
-0.9080537629396E+00 -0.1449663523759E+01  0.0000000000000E+00
-0.6875549585543E+00 -0.4231457492231E+01  0.0000000000000E+00
-0.6876099170595E+00 -0.4158870400615E+01  0.0000000000000E+00
-0.6876648756684E+00 -0.4086283172198E+01  0.0000000000000E+00
-0.6877198343249E+00 -0.4013695880685E+01  0.0000000000000E+00
-0.6877747929090E+00 -0.3941108684925E+01  0.0000000000000E+00
-0.6878297514828E+00 -0.3868521502783E+01  0.0000000000000E+00
-0.6878847100636E+00 -0.3795934311418E+01  0.0000000000000E+00
-0.6879396686527E+00 -0.3723347109101E+01  0.0000000000000E+00
-0.6879946272374E+00 -0.3650759912490E+01  0.0000000000000E+00
-0.6880495858229E+00 -0.3578172714884E+01  0.0000000000000E+00
-0.6881045445085E+00 -0.3505585385126E+01  0.0000000000000E+00
-0.6881595030222E+00 -0.3432998282340E+01  0.0000000000000E+00
-0.6882144616995E+00 -0.3360410963403E+01  0.0000000000000E+00
-0.6882694211871E+00 -0.3287822574321E+01  0.0000000000000E+00
-0.6883243788572E+00 -0.3215236585753E+01  0.0000000000000E+00
-0.6883793372900E+00 -0.3142649589838E+01  0.0000000000000E+00
-0.6884342958796E+00 -0.3070062386801E+01  0.0000000000000E+00
-0.6884892544397E+00 -0.2997475222730E+01  0.0000000000000E+00
-0.6885442129287E+00 -0.2924888152618E+01  0.0000000000000E+00
-0.6886502370222E+00 -0.2852301115297E+01  0.0000000000000E+00
-0.6891169516725E+00 -0.2779717572965E+01  0.0000000000000E+00
-0.6902804779749E+00 -0.2707154299975E+01  0.0000000000000E+00
-0.6923427679648E+00 -0.2634643093955E+01  0.0000000000000E+00
-0.6953829843556E+00 -0.2562222262823E+01  0.0000000000000E+00
-0.6994100648383E+00 -0.2489928529086E+01  0.0000000000000E+00
-0.7044058525081E+00 -0.2417794850073E+01  0.0000000000000E+00
-0.7103498117688E+00 -0.2345852336351E+01  0.0000000000000E+00
-0.7172317985216E+00 -0.2274132253092E+01  0.0000000000000E+00
-0.7250592103409E+00 -0.2202670833605E+01  0.0000000000000E+00
-0.7338629422812E+00 -0.2131512902894E+01  0.0000000000000E+00
-0.7436548888710E+00 -0.2060699998530E+01  0.0000000000000E+00
-0.7543744582030E+00 -0.1990246361320E+01  0.0000000000000E+00
-0.7659764660477E+00 -0.1920166916283E+01  0.0000000000000E+00
-0.7784392348670E+00 -0.1850483441816E+01  0.0000000000000E+00
-0.7917620552753E+00 -0.1781226671587E+01  0.0000000000000E+00
-0.8059652393467E+00 -0.1712439488130E+01  0.0000000000000E+00
-0.8210927236280E+00 -0.1644182347095E+01  0.0000000000000E+00
-0.8372186928899E+00 -0.1576539723603E+01  0.0000000000000E+00
-0.8544584432393E+00 -0.1509639040870E+01  0.0000000000000E+00
-0.8729920311679E+00 -0.1443673398257E+01  0.0000000000000E+00
-0.6600497067773E+00 -0.4231313479365E+01  0.0000000000000E+00
-0.6600994135103E+00 -0.4158582375012E+01  0.0000000000000E+00
-0.6601491203370E+00 -0.4085851133586E+01  0.0000000000000E+00
-0.6601988272069E+00 -0.4013119828939E+01  0.0000000000000E+00
-0.6602485340112E+00 -0.3940388620235E+01  0.0000000000000E+00
-0.6602982408062E+00 -0.3867657425176E+01  0.0000000000000E+00
-0.6603479476074E+00 -0.3794926220876E+01  0.0000000000000E+00
-0.6603976544162E+00 -0.3722195005602E+01  0.0000000000000E+00
-0.6604473612211E+00 -0.3649463796046E+01  0.0000000000000E+00
-0.6604970680267E+00 -0.3576732585492E+01  0.0000000000000E+00
-0.6605467749228E+00 -0.3504001242525E+01  0.0000000000000E+00
-0.6605964816634E+00 -0.3431270126979E+01  0.0000000000000E+00
-0.6606461885521E+00 -0.3358538794853E+01  0.0000000000000E+00
-0.6606958961735E+00 -0.3285806390460E+01  0.0000000000000E+00
-0.6607456021512E+00 -0.3213076391343E+01  0.0000000000000E+00
-0.6607953088186E+00 -0.3140345382881E+01  0.0000000000000E+00
-0.6608450156279E+00 -0.3067614166885E+01  0.0000000000000E+00
-0.6608947224105E+00 -0.2994882989933E+01  0.0000000000000E+00
-0.6609444291288E+00 -0.2922151907127E+01  0.0000000000000E+00
-0.6610431425442E+00 -0.2849420857080E+01  0.0000000000000E+00
-0.6614880039029E+00 -0.2776693302843E+01  0.0000000000000E+00
-0.6626015822945E+00 -0.2703986019355E+01  0.0000000000000E+00
-0.6645776872636E+00 -0.2631330803497E+01  0.0000000000000E+00
-0.6674922897633E+00 -0.2558765962702E+01  0.0000000000000E+00
-0.6713539671204E+00 -0.2486328219165E+01  0.0000000000000E+00
-0.6761452944910E+00 -0.2414050529980E+01  0.0000000000000E+00
-0.6818465642625E+00 -0.2341964006289E+01  0.0000000000000E+00
-0.6884480413232E+00 -0.2270099912718E+01  0.0000000000000E+00
-0.6959568250001E+00 -0.2198494483253E+01  0.0000000000000E+00
-0.7044025646942E+00 -0.2127192542900E+01  0.0000000000000E+00
-0.7137966753483E+00 -0.2056235628645E+01  0.0000000000000E+00
-0.7240810080500E+00 -0.1985637981238E+01  0.0000000000000E+00
-0.7352122003494E+00 -0.1915414525839E+01  0.0000000000000E+00
-0.7471694487241E+00 -0.1845587040956E+01  0.0000000000000E+00
-0.7599520723911E+00 -0.1776186260296E+01  0.0000000000000E+00
-0.7735795644664E+00 -0.1707255066466E+01  0.0000000000000E+00
-0.7880940900479E+00 -0.1638853916186E+01  0.0000000000000E+00
-0.8035668428218E+00 -0.1571067282696E+01  0.0000000000000E+00
-0.8201084703724E+00 -0.1504022593235E+01  0.0000000000000E+00
-0.8378917694826E+00 -0.1437912945380E+01  0.0000000000000E+00
-0.6325435264408E+00 -0.4231175233227E+01  0.0000000000000E+00
-0.6325870528428E+00 -0.4158305882860E+01  0.0000000000000E+00
-0.6326305793268E+00 -0.4085436395159E+01  0.0000000000000E+00
-0.6326741058486E+00 -0.4012566844116E+01  0.0000000000000E+00
-0.6327176323130E+00 -0.3939697389199E+01  0.0000000000000E+00
-0.6327611587693E+00 -0.3866827947953E+01  0.0000000000000E+00
-0.6328046852310E+00 -0.3793958497448E+01  0.0000000000000E+00
-0.6328482116994E+00 -0.3721089035949E+01  0.0000000000000E+00
-0.6328917381643E+00 -0.3648219580177E+01  0.0000000000000E+00
-0.6329352646298E+00 -0.3575350123407E+01  0.0000000000000E+00
-0.6329787911746E+00 -0.3502480533972E+01  0.0000000000000E+00
-0.6330223175833E+00 -0.3429611172390E+01  0.0000000000000E+00
-0.6330658441215E+00 -0.3356741593817E+01  0.0000000000000E+00
-0.6331093713015E+00 -0.3283870940938E+01  0.0000000000000E+00
-0.6331528970420E+00 -0.3211002697907E+01  0.0000000000000E+00
-0.6331964233866E+00 -0.3138133443612E+01  0.0000000000000E+00
-0.6332399498554E+00 -0.3065263981390E+01  0.0000000000000E+00
-0.6332834763008E+00 -0.2992394558285E+01  0.0000000000000E+00
-0.6333270026899E+00 -0.2919525229505E+01  0.0000000000000E+00
-0.6334174768685E+00 -0.2846655933456E+01  0.0000000000000E+00
-0.6338395563828E+00 -0.2773790134003E+01  0.0000000000000E+00
-0.6349022583205E+00 -0.2700944606649E+01  0.0000000000000E+00
-0.6367912497310E+00 -0.2628151147559E+01  0.0000000000000E+00
-0.6395793098040E+00 -0.2555448063701E+01  0.0000000000000E+00
-0.6432746555003E+00 -0.2482872076970E+01  0.0000000000000E+00
-0.6478605940350E+00 -0.2410456144233E+01  0.0000000000000E+00
-0.6533182457832E+00 -0.2338231377183E+01  0.0000000000000E+00
-0.6596382846166E+00 -0.2266229039926E+01  0.0000000000000E+00
-0.6668275116189E+00 -0.2194485367097E+01  0.0000000000000E+00
-0.6749143305382E+00 -0.2123045183699E+01  0.0000000000000E+00
-0.6839096767271E+00 -0.2051950026162E+01  0.0000000000000E+00
-0.6937578442685E+00 -0.1981214135179E+01  0.0000000000000E+00
-0.7044172924922E+00 -0.1910852436044E+01  0.0000000000000E+00
-0.7158680918929E+00 -0.1840886707377E+01  0.0000000000000E+00
-0.7281095902899E+00 -0.1771347682916E+01  0.0000000000000E+00
-0.7411604618417E+00 -0.1702278245340E+01  0.0000000000000E+00
-0.7550611002044E+00 -0.1633738852398E+01  0.0000000000000E+00
-0.7698797079675E+00 -0.1565813975523E+01  0.0000000000000E+00
-0.7857222842192E+00 -0.1498631045816E+01  0.0000000000000E+00
-0.8027543660217E+00 -0.1432383159141E+01  0.0000000000000E+00
-0.6050364527661E+00 -0.4231042777827E+01  0.0000000000000E+00
-0.6050729054997E+00 -0.4158040972176E+01  0.0000000000000E+00
-0.6051093583019E+00 -0.4085039028943E+01  0.0000000000000E+00
-0.6051458111359E+00 -0.4012037022253E+01  0.0000000000000E+00
-0.6051822639217E+00 -0.3939035111863E+01  0.0000000000000E+00
-0.6052187167008E+00 -0.3866033215170E+01  0.0000000000000E+00
-0.6052551694844E+00 -0.3793031309200E+01  0.0000000000000E+00
-0.6052916222736E+00 -0.3720029392216E+01  0.0000000000000E+00
-0.6053280750599E+00 -0.3647027480971E+01  0.0000000000000E+00
-0.6053645278467E+00 -0.3574025568724E+01  0.0000000000000E+00
-0.6054009806998E+00 -0.3501023523572E+01  0.0000000000000E+00
-0.6054374334390E+00 -0.3428021706688E+01  0.0000000000000E+00
-0.6054738862868E+00 -0.3355019672416E+01  0.0000000000000E+00
-0.6055103396719E+00 -0.3282016561887E+01  0.0000000000000E+00
-0.6055467918515E+00 -0.3209015865587E+01  0.0000000000000E+00
-0.6055832445370E+00 -0.3136014156184E+01  0.0000000000000E+00
-0.6056196973266E+00 -0.3063012238476E+01  0.0000000000000E+00
-0.6056561500965E+00 -0.2990010359956E+01  0.0000000000000E+00
-0.6056926028193E+00 -0.2917008575933E+01  0.0000000000000E+00
-0.6057739444239E+00 -0.2844006824612E+01  0.0000000000000E+00
-0.6061723487616E+00 -0.2771008570642E+01  0.0000000000000E+00
-0.6071832809226E+00 -0.2698030590064E+01  0.0000000000000E+00
-0.6089842654561E+00 -0.2625104678358E+01  0.0000000000000E+00
-0.6116448897857E+00 -0.2552269142045E+01  0.0000000000000E+00
-0.6151730105041E+00 -0.2479560702734E+01  0.0000000000000E+00
-0.6195526668839E+00 -0.2407012317074E+01  0.0000000000000E+00
-0.6247658072915E+00 -0.2334655097287E+01  0.0000000000000E+00
-0.6308035145786E+00 -0.2262520306978E+01  0.0000000000000E+00
-0.6376722915901E+00 -0.2190644181405E+01  0.0000000000000E+00
-0.6453992964206E+00 -0.2119071545571E+01  0.0000000000000E+00
-0.6539949848298E+00 -0.2047843935370E+01  0.0000000000000E+00
-0.6634060938944E+00 -0.1976975591441E+01  0.0000000000000E+00
-0.6735929047258E+00 -0.1906481439207E+01  0.0000000000000E+00
-0.6845363618356E+00 -0.1836383257392E+01  0.0000000000000E+00
-0.6962358416462E+00 -0.1766711779769E+01  0.0000000000000E+00
-0.7087091993589E+00 -0.1697509889085E+01  0.0000000000000E+00
-0.7219950571948E+00 -0.1628838044074E+01  0.0000000000000E+00
-0.7361586266348E+00 -0.1560780714435E+01  0.0000000000000E+00
-0.7513012582960E+00 -0.1493465334972E+01  0.0000000000000E+00
-0.7675812295093E+00 -0.1427084999909E+01  0.0000000000000E+00
-0.5775285214724E+00 -0.4230916136309E+01  0.0000000000000E+00
-0.5775570429194E+00 -0.4157787689254E+01  0.0000000000000E+00
-0.5775855644201E+00 -0.4084659104378E+01  0.0000000000000E+00
-0.5776140859456E+00 -0.4011530455935E+01  0.0000000000000E+00
-0.5776426074335E+00 -0.3938401903959E+01  0.0000000000000E+00
-0.5776711289161E+00 -0.3865273365703E+01  0.0000000000000E+00
-0.5776996504022E+00 -0.3792144818156E+01  0.0000000000000E+00
-0.5777281718927E+00 -0.3719016259574E+01  0.0000000000000E+00
-0.5777566933810E+00 -0.3645887706741E+01  0.0000000000000E+00
-0.5777852148696E+00 -0.3572759152905E+01  0.0000000000000E+00
-0.5778137364101E+00 -0.3499630465933E+01  0.0000000000000E+00
-0.5778422578615E+00 -0.3426502007624E+01  0.0000000000000E+00
-0.5778707793978E+00 -0.3353373331552E+01  0.0000000000000E+00
-0.5778993013546E+00 -0.3280243577355E+01  0.0000000000000E+00
-0.5779278223681E+00 -0.3207116241575E+01  0.0000000000000E+00
-0.5779563437775E+00 -0.3133987890935E+01  0.0000000000000E+00
-0.5779848652682E+00 -0.3060859331627E+01  0.0000000000000E+00
-0.5780133867437E+00 -0.2987730811577E+01  0.0000000000000E+00
-0.5780419081822E+00 -0.2914602386187E+01  0.0000000000000E+00
-0.5781132595947E+00 -0.2841473993472E+01  0.0000000000000E+00
-0.5784871311427E+00 -0.2768349098829E+01  0.0000000000000E+00
-0.5794454359221E+00 -0.2695244478816E+01  0.0000000000000E+00
-0.5811575559778E+00 -0.2622191928255E+01  0.0000000000000E+00
-0.5836898869641E+00 -0.2549229753241E+01  0.0000000000000E+00
-0.5870499251040E+00 -0.2476394675110E+01  0.0000000000000E+00
-0.5912224417263E+00 -0.2403719650301E+01  0.0000000000000E+00
-0.5961902131919E+00 -0.2331235791543E+01  0.0000000000000E+00
-0.6019447313292E+00 -0.2258974361963E+01  0.0000000000000E+00
-0.6084922007484E+00 -0.2186971597412E+01  0.0000000000000E+00
-0.6158585338908E+00 -0.2115272322895E+01  0.0000000000000E+00
-0.6240537069192E+00 -0.2043918073793E+01  0.0000000000000E+00
-0.6330268999046E+00 -0.1972923090693E+01  0.0000000000000E+00
-0.6427402157399E+00 -0.1902302299143E+01  0.0000000000000E+00
-0.6531754729551E+00 -0.1832077477966E+01  0.0000000000000E+00
-0.6643320765753E+00 -0.1762279360967E+01  0.0000000000000E+00
-0.6762270628454E+00 -0.1692950830957E+01  0.0000000000000E+00
-0.6888972825577E+00 -0.1624152347613E+01  0.0000000000000E+00
-0.7024049560735E+00 -0.1555968378978E+01  0.0000000000000E+00
-0.7168467855624E+00 -0.1488526363395E+01  0.0000000000000E+00
-0.7323737886136E+00 -0.1422019393519E+01  0.0000000000000E+00
-0.5500197687602E+00 -0.4230795330937E+01  0.0000000000000E+00
-0.5500395375027E+00 -0.4157546078617E+01  0.0000000000000E+00
-0.5500593062825E+00 -0.4084296688248E+01  0.0000000000000E+00
-0.5500790750795E+00 -0.4011047234207E+01  0.0000000000000E+00
-0.5500988438504E+00 -0.3937797876793E+01  0.0000000000000E+00
-0.5501186126176E+00 -0.3864548533122E+01  0.0000000000000E+00
-0.5501383813873E+00 -0.3791299180143E+01  0.0000000000000E+00
-0.5501581501600E+00 -0.3718049816112E+01  0.0000000000000E+00
-0.5501779189312E+00 -0.3644800457840E+01  0.0000000000000E+00
-0.5501976877026E+00 -0.3571551098563E+01  0.0000000000000E+00
-0.5502174565100E+00 -0.3498301605929E+01  0.0000000000000E+00
-0.5502372252556E+00 -0.3425052342338E+01  0.0000000000000E+00
-0.5502569940600E+00 -0.3351802860622E+01  0.0000000000000E+00
-0.5502767631559E+00 -0.3278552299001E+01  0.0000000000000E+00
-0.5502965315980E+00 -0.3205304159791E+01  0.0000000000000E+00
-0.5503163003145E+00 -0.3132055004046E+01  0.0000000000000E+00
-0.5503360690874E+00 -0.3058805639288E+01  0.0000000000000E+00
-0.5503558378497E+00 -0.2985556313852E+01  0.0000000000000E+00
-0.5503756065864E+00 -0.2912307083233E+01  0.0000000000000E+00
-0.5504361463889E+00 -0.2839057885264E+01  0.0000000000000E+00
-0.5507846637340E+00 -0.2765812186054E+01  0.0000000000000E+00
-0.5516895197264E+00 -0.2692586762654E+01  0.0000000000000E+00
-0.5533119539024E+00 -0.2619413409260E+01  0.0000000000000E+00
-0.5557151701444E+00 -0.2546330431560E+01  0.0000000000000E+00
-0.5589063043036E+00 -0.2473374550628E+01  0.0000000000000E+00
-0.5628708597639E+00 -0.2400578722707E+01  0.0000000000000E+00
-0.5675924408837E+00 -0.2327974061005E+01  0.0000000000000E+00
-0.5730629484655E+00 -0.2255591828195E+01  0.0000000000000E+00
-0.5792882888882E+00 -0.2183468260695E+01  0.0000000000000E+00
-0.5862931289399E+00 -0.2111648183508E+01  0.0000000000000E+00
-0.5940869651833E+00 -0.2040173131530E+01  0.0000000000000E+00
-0.6026214206831E+00 -0.1969057345296E+01  0.0000000000000E+00
-0.6118604201151E+00 -0.1898315750472E+01  0.0000000000000E+00
-0.6217866560276E+00 -0.1827970125978E+01  0.0000000000000E+00
-0.6323995620492E+00 -0.1758051205649E+01  0.0000000000000E+00
-0.6437153554685E+00 -0.1688601872357E+01  0.0000000000000E+00
-0.6557691156551E+00 -0.1619682586678E+01  0.0000000000000E+00
-0.6686200718399E+00 -0.1551377815076E+01  0.0000000000000E+00
-0.6823602777685E+00 -0.1483814999269E+01  0.0000000000000E+00
-0.6971334912775E+00 -0.1417187230416E+01  0.0000000000000E+00
-0.5225235369655E+00 -0.4230682327815E+01  0.0000000000000E+00
-0.5225470739100E+00 -0.4157320072474E+01  0.0000000000000E+00
-0.5225706108988E+00 -0.4083957678871E+01  0.0000000000000E+00
-0.5225941479082E+00 -0.4010595221498E+01  0.0000000000000E+00
-0.5226176848864E+00 -0.3937232860900E+01  0.0000000000000E+00
-0.5226412218603E+00 -0.3863870514067E+01  0.0000000000000E+00
-0.5226647588371E+00 -0.3790508157912E+01  0.0000000000000E+00
-0.5226882958175E+00 -0.3717145790687E+01  0.0000000000000E+00
-0.5227118327961E+00 -0.3643783429230E+01  0.0000000000000E+00
-0.5227353697749E+00 -0.3570421066767E+01  0.0000000000000E+00
-0.5227589067966E+00 -0.3497058570741E+01  0.0000000000000E+00
-0.5227824437448E+00 -0.3423696304111E+01  0.0000000000000E+00
-0.5228059807630E+00 -0.3350333819021E+01  0.0000000000000E+00
-0.5228295181282E+00 -0.3276970252358E+01  0.0000000000000E+00
-0.5228530547150E+00 -0.3203609111845E+01  0.0000000000000E+00
-0.5228765916285E+00 -0.3130246953227E+01  0.0000000000000E+00
-0.5229001286091E+00 -0.3056884585275E+01  0.0000000000000E+00
-0.5229236655771E+00 -0.2983522256705E+01  0.0000000000000E+00
-0.5229472025146E+00 -0.2910160023098E+01  0.0000000000000E+00
-0.5230094719650E+00 -0.2836797822117E+01  0.0000000000000E+00
-0.5233453200490E+00 -0.2763439120539E+01  0.0000000000000E+00
-0.5242096897925E+00 -0.2690100695875E+01  0.0000000000000E+00
-0.5257557587769E+00 -0.2616814341734E+01  0.0000000000000E+00
-0.5280435707054E+00 -0.2543618363426E+01  0.0000000000000E+00
-0.5310799046469E+00 -0.2470549481778E+01  0.0000000000000E+00
-0.5348509888241E+00 -0.2397640652849E+01  0.0000000000000E+00
-0.5393412473588E+00 -0.2324922990298E+01  0.0000000000000E+00
-0.5445429860314E+00 -0.2252427756369E+01  0.0000000000000E+00
-0.5504618158794E+00 -0.2180191188014E+01  0.0000000000000E+00
-0.5571211703511E+00 -0.2108258110234E+01  0.0000000000000E+00
-0.5645300712003E+00 -0.2036670057468E+01  0.0000000000000E+00
-0.5726425603411E+00 -0.1965441270206E+01  0.0000000000000E+00
-0.5814243662114E+00 -0.1894586674225E+01  0.0000000000000E+00
-0.5908590467288E+00 -0.1824128048532E+01  0.0000000000000E+00
-0.6009460638389E+00 -0.1754096126991E+01  0.0000000000000E+00
-0.6117008239636E+00 -0.1684533792533E+01  0.0000000000000E+00
-0.6231566524677E+00 -0.1615501506574E+01  0.0000000000000E+00
-0.6353698171822E+00 -0.1547083734099E+01  0.0000000000000E+00
-0.6484277690306E+00 -0.1479407919987E+01  0.0000000000000E+00
-0.6624670780150E+00 -0.1412667153993E+01  0.0000000000000E+00
-0.4950265829563E+00 -0.4230575000095E+01  0.0000000000000E+00
-0.4950531658889E+00 -0.4157105417131E+01  0.0000000000000E+00
-0.4950797488716E+00 -0.4083635695702E+01  0.0000000000000E+00
-0.4951063318774E+00 -0.4010165910410E+01  0.0000000000000E+00
-0.4951329148482E+00 -0.3936696222035E+01  0.0000000000000E+00
-0.4951594978139E+00 -0.3863226547444E+01  0.0000000000000E+00
-0.4951860807830E+00 -0.3789756863518E+01  0.0000000000000E+00
-0.4952126637562E+00 -0.3716287168507E+01  0.0000000000000E+00
-0.4952392467272E+00 -0.3642817479271E+01  0.0000000000000E+00
-0.4952658296986E+00 -0.3569347789027E+01  0.0000000000000E+00
-0.4952924127185E+00 -0.3495877965026E+01  0.0000000000000E+00
-0.4953189956551E+00 -0.3422408370756E+01  0.0000000000000E+00
-0.4953455786710E+00 -0.3348938557706E+01  0.0000000000000E+00
-0.4953721620788E+00 -0.3275467661502E+01  0.0000000000000E+00
-0.4953987446074E+00 -0.3201999194996E+01  0.0000000000000E+00
-0.4954253275049E+00 -0.3128529708896E+01  0.0000000000000E+00
-0.4954519104783E+00 -0.3055060013155E+01  0.0000000000000E+00
-0.4954784934375E+00 -0.2981590356855E+01  0.0000000000000E+00
-0.4955050763622E+00 -0.2908120795657E+01  0.0000000000000E+00
-0.4955683532472E+00 -0.2834651267061E+01  0.0000000000000E+00
-0.4958908098644E+00 -0.2761185238480E+01  0.0000000000000E+00
-0.4967139711667E+00 -0.2687739487860E+01  0.0000000000000E+00
-0.4981829527790E+00 -0.2614345808257E+01  0.0000000000000E+00
-0.5003546382236E+00 -0.2541042504616E+01  0.0000000000000E+00
-0.5032354497856E+00 -0.2467866297535E+01  0.0000000000000E+00
-0.5068123405251E+00 -0.2394850142894E+01  0.0000000000000E+00
-0.5110705543301E+00 -0.2322025154781E+01  0.0000000000000E+00
-0.5160028019559E+00 -0.2249422595037E+01  0.0000000000000E+00
-0.5216143991022E+00 -0.2177078701116E+01  0.0000000000000E+00
-0.5279275458778E+00 -0.2105038298018E+01  0.0000000000000E+00
-0.5349507892246E+00 -0.2033342919751E+01  0.0000000000000E+00
-0.5426405899055E+00 -0.1962006806759E+01  0.0000000000000E+00
-0.5509644801207E+00 -0.1891044884923E+01  0.0000000000000E+00
-0.5599068831572E+00 -0.1820478933337E+01  0.0000000000000E+00
-0.5694672892784E+00 -0.1750339685891E+01  0.0000000000000E+00
-0.5796602940392E+00 -0.1680670025571E+01  0.0000000000000E+00
-0.5905174688062E+00 -0.1611530414592E+01  0.0000000000000E+00
-0.6020921200010E+00 -0.1543005316536E+01  0.0000000000000E+00
-0.6144670957471E+00 -0.1475222179278E+01  0.0000000000000E+00
-0.6277717782043E+00 -0.1408374091247E+01  0.0000000000000E+00
-0.4675289422681E+00 -0.4230473366273E+01  0.0000000000000E+00
-0.4675578845103E+00 -0.4156902149577E+01  0.0000000000000E+00
-0.4675868268072E+00 -0.4083330794226E+01  0.0000000000000E+00
-0.4676157691291E+00 -0.4009759374922E+01  0.0000000000000E+00
-0.4676447114129E+00 -0.3936188052670E+01  0.0000000000000E+00
-0.4676736536913E+00 -0.3862616744221E+01  0.0000000000000E+00
-0.4677025959733E+00 -0.3789045426423E+01  0.0000000000000E+00
-0.4677315382597E+00 -0.3715474097525E+01  0.0000000000000E+00
-0.4677604805438E+00 -0.3641902774411E+01  0.0000000000000E+00
-0.4677894228283E+00 -0.3568331450288E+01  0.0000000000000E+00
-0.4678183651656E+00 -0.3494759992222E+01  0.0000000000000E+00
-0.4678473074123E+00 -0.3421188764204E+01  0.0000000000000E+00
-0.4678762497452E+00 -0.3347617317104E+01  0.0000000000000E+00
-0.4679051925048E+00 -0.3274044785352E+01  0.0000000000000E+00
-0.4679341343072E+00 -0.3200474686659E+01  0.0000000000000E+00
-0.4679630765113E+00 -0.3126903566961E+01  0.0000000000000E+00
-0.4679920187980E+00 -0.3053332237333E+01  0.0000000000000E+00
-0.4680209610692E+00 -0.2979760947200E+01  0.0000000000000E+00
-0.4680499033029E+00 -0.2906189752300E+01  0.0000000000000E+00
-0.4681135009444E+00 -0.2832618589982E+01  0.0000000000000E+00
-0.4684218794232E+00 -0.2759050928256E+01  0.0000000000000E+00
-0.4692031456246E+00 -0.2685503545485E+01  0.0000000000000E+00
-0.4705943532147E+00 -0.2612008234196E+01  0.0000000000000E+00
-0.4726492255332E+00 -0.2538603298994E+01  0.0000000000000E+00
-0.4753738280800E+00 -0.2465325460254E+01  0.0000000000000E+00
-0.4787558387513E+00 -0.2392207673692E+01  0.0000000000000E+00
-0.4827813212037E+00 -0.2319281053801E+01  0.0000000000000E+00
-0.4874433911652E+00 -0.2246576862038E+01  0.0000000000000E+00
-0.4927470690006E+00 -0.2174131336332E+01  0.0000000000000E+00
-0.4987133214795E+00 -0.2101989301687E+01  0.0000000000000E+00
-0.5053502207294E+00 -0.2030192291697E+01  0.0000000000000E+00
-0.5126166463610E+00 -0.1958754546766E+01  0.0000000000000E+00
-0.5204819343374E+00 -0.1887690992875E+01  0.0000000000000E+00
-0.5289313733153E+00 -0.1817023409196E+01  0.0000000000000E+00
-0.5379644818757E+00 -0.1746782529646E+01  0.0000000000000E+00
-0.5475950447077E+00 -0.1677011237263E+01  0.0000000000000E+00
-0.5578528791844E+00 -0.1607769995018E+01  0.0000000000000E+00
-0.5687883303103E+00 -0.1539143265162E+01  0.0000000000000E+00
-0.5804796434283E+00 -0.1471258498414E+01  0.0000000000000E+00
-0.5930490128488E+00 -0.1404308781941E+01  0.0000000000000E+00
-0.4400306507643E+00 -0.4230377443940E+01  0.0000000000000E+00
-0.4400613015012E+00 -0.4156710304996E+01  0.0000000000000E+00
-0.4400919522959E+00 -0.4083043027216E+01  0.0000000000000E+00
-0.4401226031172E+00 -0.4009375685400E+01  0.0000000000000E+00
-0.4401532538981E+00 -0.3935708440762E+01  0.0000000000000E+00
-0.4401839046733E+00 -0.3862041209946E+01  0.0000000000000E+00
-0.4402145554523E+00 -0.3788373969769E+01  0.0000000000000E+00
-0.4402452062360E+00 -0.3714706718477E+01  0.0000000000000E+00
-0.4402758570172E+00 -0.3641039472976E+01  0.0000000000000E+00
-0.4403065077989E+00 -0.3567372226465E+01  0.0000000000000E+00
-0.4403371586364E+00 -0.3493704845836E+01  0.0000000000000E+00
-0.4403678093781E+00 -0.3420037695556E+01  0.0000000000000E+00
-0.4403984602110E+00 -0.3346370325908E+01  0.0000000000000E+00
-0.4404291114958E+00 -0.3272701870193E+01  0.0000000000000E+00
-0.4404597617669E+00 -0.3199035850710E+01  0.0000000000000E+00
-0.4404904124634E+00 -0.3125368808892E+01  0.0000000000000E+00
-0.4405210632474E+00 -0.3051701556869E+01  0.0000000000000E+00
-0.4405517140149E+00 -0.2978034344391E+01  0.0000000000000E+00
-0.4405823647428E+00 -0.2904367227272E+01  0.0000000000000E+00
-0.4406456323261E+00 -0.2830700142715E+01  0.0000000000000E+00
-0.4409392818568E+00 -0.2757036559295E+01  0.0000000000000E+00
-0.4416780021563E+00 -0.2683393255768E+01  0.0000000000000E+00
-0.4429907849293E+00 -0.2609802024162E+01  0.0000000000000E+00
-0.4449281933311E+00 -0.2536301168759E+01  0.0000000000000E+00
-0.4474959360748E+00 -0.2462927409729E+01  0.0000000000000E+00
-0.4506824158919E+00 -0.2389713702628E+01  0.0000000000000E+00
-0.4544745162100E+00 -0.2316691162333E+01  0.0000000000000E+00
-0.4588657577271E+00 -0.2243891049936E+01  0.0000000000000E+00
-0.4638608654765E+00 -0.2171349603822E+01  0.0000000000000E+00
-0.4694795728885E+00 -0.2099111648990E+01  0.0000000000000E+00
-0.4757294772735E+00 -0.2027218718648E+01  0.0000000000000E+00
-0.4825718770898E+00 -0.1955685053162E+01  0.0000000000000E+00
-0.4899779120636E+00 -0.1884525578604E+01  0.0000000000000E+00
-0.4979337362219E+00 -0.1813762074224E+01  0.0000000000000E+00
-0.5064388964637E+00 -0.1743425273962E+01  0.0000000000000E+00
-0.5155063666123E+00 -0.1673558060906E+01  0.0000000000000E+00
-0.5251642100526E+00 -0.1604220898739E+01  0.0000000000000E+00
-0.5354598103634E+00 -0.1535498248461E+01  0.0000000000000E+00
-0.5464668101259E+00 -0.1467517563467E+01  0.0000000000000E+00
-0.5583002157936E+00 -0.1400471929739E+01  0.0000000000000E+00
-0.4125317441520E+00 -0.4230287249716E+01  0.0000000000000E+00
-0.4125634882758E+00 -0.4156529916629E+01  0.0000000000000E+00
-0.4125952324593E+00 -0.4082772444536E+01  0.0000000000000E+00
-0.4126269766705E+00 -0.4009014908329E+01  0.0000000000000E+00
-0.4126587208397E+00 -0.3935257469419E+01  0.0000000000000E+00
-0.4126904650030E+00 -0.3861500044347E+01  0.0000000000000E+00
-0.4127222091704E+00 -0.3787742609903E+01  0.0000000000000E+00
-0.4127539533425E+00 -0.3713985164330E+01  0.0000000000000E+00
-0.4127856975121E+00 -0.3640227724555E+01  0.0000000000000E+00
-0.4128174416822E+00 -0.3566470283769E+01  0.0000000000000E+00
-0.4128491859101E+00 -0.3492712708702E+01  0.0000000000000E+00
-0.4128809300387E+00 -0.3418955364265E+01  0.0000000000000E+00
-0.4129126742618E+00 -0.3345197800191E+01  0.0000000000000E+00
-0.4129444189530E+00 -0.3271439148721E+01  0.0000000000000E+00
-0.4129761625943E+00 -0.3197682936466E+01  0.0000000000000E+00
-0.4130079066762E+00 -0.3123925700623E+01  0.0000000000000E+00
-0.4130396508486E+00 -0.3050168254318E+01  0.0000000000000E+00
-0.4130713950040E+00 -0.2976410847608E+01  0.0000000000000E+00
-0.4131031391183E+00 -0.2902653536372E+01  0.0000000000000E+00
-0.4131654615348E+00 -0.2828896257679E+01  0.0000000000000E+00
-0.4134437670066E+00 -0.2755142480638E+01  0.0000000000000E+00
-0.4141393262886E+00 -0.2681408984369E+01  0.0000000000000E+00
-0.4153730691176E+00 -0.2607727560436E+01  0.0000000000000E+00
-0.4171923984613E+00 -0.2534136512816E+01  0.0000000000000E+00
-0.4196026662446E+00 -0.2460672561482E+01  0.0000000000000E+00
-0.4225930000332E+00 -0.2387368661845E+01  0.0000000000000E+00
-0.4261511030289E+00 -0.2314255929140E+01  0.0000000000000E+00
-0.4302709008973E+00 -0.2241365624120E+01  0.0000000000000E+00
-0.4349568233429E+00 -0.2168733985590E+01  0.0000000000000E+00
-0.4402273704565E+00 -0.2096405838553E+01  0.0000000000000E+00
-0.4460896647286E+00 -0.2024422715852E+01  0.0000000000000E+00
-0.4525074234658E+00 -0.1952798857813E+01  0.0000000000000E+00
-0.4594535901587E+00 -0.1881549190599E+01  0.0000000000000E+00
-0.4669151842055E+00 -0.1810695493531E+01  0.0000000000000E+00
-0.4748917808231E+00 -0.1740268500570E+01  0.0000000000000E+00
-0.4833955429692E+00 -0.1670311094851E+01  0.0000000000000E+00
-0.4924527800443E+00 -0.1600883740729E+01  0.0000000000000E+00
-0.5021079141925E+00 -0.1532070898023E+01  0.0000000000000E+00
-0.5124299852484E+00 -0.1464000022650E+01  0.0000000000000E+00
-0.5235268117985E+00 -0.1396864199472E+01  0.0000000000000E+00
-0.3850322598414E+00 -0.4230202799459E+01  0.0000000000000E+00
-0.3850645196540E+00 -0.4156361016191E+01  0.0000000000000E+00
-0.3850967795275E+00 -0.4082519093757E+01  0.0000000000000E+00
-0.3851290394289E+00 -0.4008677107136E+01  0.0000000000000E+00
-0.3851612992878E+00 -0.3934835217923E+01  0.0000000000000E+00
-0.3851935591407E+00 -0.3860993342564E+01  0.0000000000000E+00
-0.3852258189976E+00 -0.3787151457823E+01  0.0000000000000E+00
-0.3852580788595E+00 -0.3713309561940E+01  0.0000000000000E+00
-0.3852903387188E+00 -0.3639467671862E+01  0.0000000000000E+00
-0.3853225985785E+00 -0.3565625780771E+01  0.0000000000000E+00
-0.3853548584969E+00 -0.3491783755245E+01  0.0000000000000E+00
-0.3853871183145E+00 -0.3417941960614E+01  0.0000000000000E+00
-0.3854193782282E+00 -0.3344099946094E+01  0.0000000000000E+00
-0.3854516386174E+00 -0.3270256842933E+01  0.0000000000000E+00
-0.3854838979398E+00 -0.3196416181779E+01  0.0000000000000E+00
-0.3855161577099E+00 -0.3122574495866E+01  0.0000000000000E+00
-0.3855484175721E+00 -0.3048732599250E+01  0.0000000000000E+00
-0.3855806774169E+00 -0.2974890742274E+01  0.0000000000000E+00
-0.3856129372200E+00 -0.2901048980883E+01  0.0000000000000E+00
-0.3856737367721E+00 -0.2827207252015E+01  0.0000000000000E+00
-0.3859361204928E+00 -0.2753369025280E+01  0.0000000000000E+00
-0.3865879410748E+00 -0.2679551080143E+01  0.0000000000000E+00
-0.3877420662852E+00 -0.2605785207729E+01  0.0000000000000E+00
-0.3894427389025E+00 -0.2532109711729E+01  0.0000000000000E+00
-0.3916949540622E+00 -0.2458561311938E+01  0.0000000000000E+00
-0.3944885641635E+00 -0.2385172963623E+01  0.0000000000000E+00
-0.3978120921840E+00 -0.2311975782359E+01  0.0000000000000E+00
-0.4016598687551E+00 -0.2239001028580E+01  0.0000000000000E+00
-0.4060360282553E+00 -0.2166284941488E+01  0.0000000000000E+00
-0.4109578374357E+00 -0.2093872346084E+01  0.0000000000000E+00
-0.4164319439649E+00 -0.2021804774870E+01  0.0000000000000E+00
-0.4224244839971E+00 -0.1950096468140E+01  0.0000000000000E+00
-0.4289102047877E+00 -0.1878762352137E+01  0.0000000000000E+00
-0.4358769911063E+00 -0.1807824206249E+01  0.0000000000000E+00
-0.4433244464880E+00 -0.1737312764459E+01  0.0000000000000E+00
-0.4512639230252E+00 -0.1667270909945E+01  0.0000000000000E+00
-0.4597199761387E+00 -0.1597759107689E+01  0.0000000000000E+00
-0.4687340665305E+00 -0.1528861816408E+01  0.0000000000000E+00
-0.4783706313056E+00 -0.1460706494377E+01  0.0000000000000E+00
-0.4887303011774E+00 -0.1393486225414E+01  0.0000000000000E+00
-0.3575322348022E+00 -0.4230124107983E+01  0.0000000000000E+00
-0.3575644695756E+00 -0.4156203633308E+01  0.0000000000000E+00
-0.3575967044098E+00 -0.4082283019319E+01  0.0000000000000E+00
-0.3576289392720E+00 -0.4008362341075E+01  0.0000000000000E+00
-0.3576611740917E+00 -0.3934441760342E+01  0.0000000000000E+00
-0.3576934089054E+00 -0.3860521193479E+01  0.0000000000000E+00
-0.3577256437231E+00 -0.3786600617223E+01  0.0000000000000E+00
-0.3577578785457E+00 -0.3712680029813E+01  0.0000000000000E+00
-0.3577901133658E+00 -0.3638759448214E+01  0.0000000000000E+00
-0.3578223481863E+00 -0.3564838865602E+01  0.0000000000000E+00
-0.3578545830655E+00 -0.3490918148411E+01  0.0000000000000E+00
-0.3578868178439E+00 -0.3416997662361E+01  0.0000000000000E+00
-0.3579190527183E+00 -0.3343076956189E+01  0.0000000000000E+00
-0.3579512880679E+00 -0.3269155160214E+01  0.0000000000000E+00
-0.3579835223515E+00 -0.3195235808850E+01  0.0000000000000E+00
-0.3580157570825E+00 -0.3121315431634E+01  0.0000000000000E+00
-0.3580479919054E+00 -0.3047394843491E+01  0.0000000000000E+00
-0.3580802267110E+00 -0.2973474295030E+01  0.0000000000000E+00
-0.3581124614749E+00 -0.2899553842255E+01  0.0000000000000E+00
-0.3581711974348E+00 -0.2825633421987E+01  0.0000000000000E+00
-0.3584171186813E+00 -0.2751716504300E+01  0.0000000000000E+00
-0.3590246598484E+00 -0.2677819868980E+01  0.0000000000000E+00
-0.3600986267318E+00 -0.2603975306743E+01  0.0000000000000E+00
-0.3616801019192E+00 -0.2530221121018E+01  0.0000000000000E+00
-0.3637737237556E+00 -0.2456594031425E+01  0.0000000000000E+00
-0.3663700694726E+00 -0.2383126993105E+01  0.0000000000000E+00
-0.3694584818260E+00 -0.2309851121947E+01  0.0000000000000E+00
-0.3730336964106E+00 -0.2236797678087E+01  0.0000000000000E+00
-0.3770995522815E+00 -0.2164002901096E+01  0.0000000000000E+00
-0.3816720828503E+00 -0.2091511615977E+01  0.0000000000000E+00
-0.3867574609618E+00 -0.2019365354912E+01  0.0000000000000E+00
-0.3923242416169E+00 -0.1947578358163E+01  0.0000000000000E+00
-0.3983489758364E+00 -0.1876165552051E+01  0.0000000000000E+00
-0.4048204137615E+00 -0.1805148716025E+01  0.0000000000000E+00
-0.4117381872457E+00 -0.1734558584088E+01  0.0000000000000E+00
-0.4191128375166E+00 -0.1664438039460E+01  0.0000000000000E+00
-0.4269671660192E+00 -0.1594847547706E+01  0.0000000000000E+00
-0.4353396720069E+00 -0.1525871566515E+01  0.0000000000000E+00
-0.4442901898707E+00 -0.1457637556361E+01  0.0000000000000E+00
-0.4539121624448E+00 -0.1390338600087E+01  0.0000000000000E+00
-0.3300317063161E+00 -0.4230051189142E+01  0.0000000000000E+00
-0.3300634126040E+00 -0.4156057795692E+01  0.0000000000000E+00
-0.3300951189516E+00 -0.4082064262790E+01  0.0000000000000E+00
-0.3301268253268E+00 -0.4008070665569E+01  0.0000000000000E+00
-0.3301585316601E+00 -0.3934077165957E+01  0.0000000000000E+00
-0.3301902379875E+00 -0.3860083680227E+01  0.0000000000000E+00
-0.3302219443189E+00 -0.3786090185095E+01  0.0000000000000E+00
-0.3302536506551E+00 -0.3712096678799E+01  0.0000000000000E+00
-0.3302853569888E+00 -0.3638103178319E+01  0.0000000000000E+00
-0.3303170633230E+00 -0.3564109676825E+01  0.0000000000000E+00
-0.3303487697148E+00 -0.3490116040619E+01  0.0000000000000E+00
-0.3303804760076E+00 -0.3416122635783E+01  0.0000000000000E+00
-0.3304121823947E+00 -0.3342129010606E+01  0.0000000000000E+00
-0.3304438892493E+00 -0.3268134294553E+01  0.0000000000000E+00
-0.3304755950553E+00 -0.3194142025521E+01  0.0000000000000E+00
-0.3305073013014E+00 -0.3120148729626E+01  0.0000000000000E+00
-0.3305390076379E+00 -0.3046155222595E+01  0.0000000000000E+00
-0.3305707139574E+00 -0.2972161755286E+01  0.0000000000000E+00
-0.3306024202359E+00 -0.2898168383757E+01  0.0000000000000E+00
-0.3306585891574E+00 -0.2824175044720E+01  0.0000000000000E+00
-0.3308875444874E+00 -0.2750185208679E+01  0.0000000000000E+00
-0.3314503028045E+00 -0.2676215655717E+01  0.0000000000000E+00
-0.3324436079309E+00 -0.2602298176172E+01  0.0000000000000E+00
-0.3339053822620E+00 -0.2528471073228E+01  0.0000000000000E+00
-0.3358399073513E+00 -0.2454771066347E+01  0.0000000000000E+00
-0.3382384852618E+00 -0.2381231110551E+01  0.0000000000000E+00
-0.3410912785297E+00 -0.2307882322018E+01  0.0000000000000E+00
-0.3443934277111E+00 -0.2234755960610E+01  0.0000000000000E+00
-0.3481484765401E+00 -0.2161888266242E+01  0.0000000000000E+00
-0.3523712250890E+00 -0.2089324063914E+01  0.0000000000000E+00
-0.3570673713764E+00 -0.2017104885515E+01  0.0000000000000E+00
-0.3622078892501E+00 -0.1945244971277E+01  0.0000000000000E+00
-0.3677711334962E+00 -0.1873759247591E+01  0.0000000000000E+00
-0.3737467196281E+00 -0.1802669493966E+01  0.0000000000000E+00
-0.3801343078177E+00 -0.1732006444421E+01  0.0000000000000E+00
-0.3869436284280E+00 -0.1661812982214E+01  0.0000000000000E+00
-0.3941957289323E+00 -0.1592149573454E+01  0.0000000000000E+00
-0.4019261471290E+00 -0.1523100674874E+01  0.0000000000000E+00
-0.4101901147095E+00 -0.1454793748987E+01  0.0000000000000E+00
-0.4190738866231E+00 -0.1387421877732E+01  0.0000000000000E+00
-0.3025307117473E+00 -0.4229984055806E+01  0.0000000000000E+00
-0.3025614234671E+00 -0.4155923529079E+01  0.0000000000000E+00
-0.3025921352449E+00 -0.4081862862774E+01  0.0000000000000E+00
-0.3026228470493E+00 -0.4007802132092E+01  0.0000000000000E+00
-0.3026535588133E+00 -0.3933741499106E+01  0.0000000000000E+00
-0.3026842705714E+00 -0.3859680880016E+01  0.0000000000000E+00
-0.3027149823335E+00 -0.3785620251516E+01  0.0000000000000E+00
-0.3027456941002E+00 -0.3711559611840E+01  0.0000000000000E+00
-0.3027764058645E+00 -0.3637498977987E+01  0.0000000000000E+00
-0.3028071176292E+00 -0.3563438343118E+01  0.0000000000000E+00
-0.3028378294498E+00 -0.3489377573416E+01  0.0000000000000E+00
-0.3028685411744E+00 -0.3415317035292E+01  0.0000000000000E+00
-0.3028992529905E+00 -0.3341256276629E+01  0.0000000000000E+00
-0.3029299652593E+00 -0.3267194426099E+01  0.0000000000000E+00
-0.3029606765125E+00 -0.3193135024811E+01  0.0000000000000E+00
-0.3029913881918E+00 -0.3119074595728E+01  0.0000000000000E+00
-0.3030220999588E+00 -0.3045013955318E+01  0.0000000000000E+00
-0.3030528117094E+00 -0.2970953354665E+01  0.0000000000000E+00
-0.3030835234201E+00 -0.2896892849879E+01  0.0000000000000E+00
-0.3031366592207E+00 -0.2822832377572E+01  0.0000000000000E+00
-0.3033481825528E+00 -0.2748775408642E+01  0.0000000000000E+00
-0.3038656919401E+00 -0.2674738723447E+01  0.0000000000000E+00
-0.3047778692279E+00 -0.2600754111977E+01  0.0000000000000E+00
-0.3061194766177E+00 -0.2526859877189E+01  0.0000000000000E+00
-0.3078944388703E+00 -0.2453092738402E+01  0.0000000000000E+00
-0.3100947828795E+00 -0.2379485650525E+01  0.0000000000000E+00
-0.3127114909635E+00 -0.2306069730006E+01  0.0000000000000E+00
-0.3157401086385E+00 -0.2232876236452E+01  0.0000000000000E+00
-0.3191838843193E+00 -0.2159941410094E+01  0.0000000000000E+00
-0.3230563847390E+00 -0.2087310075932E+01  0.0000000000000E+00
-0.3273628330882E+00 -0.2015023765584E+01  0.0000000000000E+00
-0.3320766220613E+00 -0.1943096719253E+01  0.0000000000000E+00
-0.3371779102106E+00 -0.1871543863397E+01  0.0000000000000E+00
-0.3426571784222E+00 -0.1800386977578E+01  0.0000000000000E+00
-0.3485141151863E+00 -0.1729656795832E+01  0.0000000000000E+00
-0.3547576400016E+00 -0.1659396201451E+01  0.0000000000000E+00
-0.3614070463731E+00 -0.1589665661042E+01  0.0000000000000E+00
-0.3684949106376E+00 -0.1520549630462E+01  0.0000000000000E+00
-0.3760718617994E+00 -0.1452175574100E+01  0.0000000000000E+00
-0.3842169669163E+00 -0.1384736573063E+01  0.0000000000000E+00
-0.2750292889768E+00 -0.4229922719884E+01  0.0000000000000E+00
-0.2750585779274E+00 -0.4155800857289E+01  0.0000000000000E+00
-0.2750878669333E+00 -0.4081678855002E+01  0.0000000000000E+00
-0.2751171559646E+00 -0.4007556788283E+01  0.0000000000000E+00
-0.2751464449573E+00 -0.3933434819343E+01  0.0000000000000E+00
-0.2751757339445E+00 -0.3859312864309E+01  0.0000000000000E+00
-0.2752050229354E+00 -0.3785190899856E+01  0.0000000000000E+00
-0.2752343119307E+00 -0.3711068924220E+01  0.0000000000000E+00
-0.2752636009237E+00 -0.3636946954411E+01  0.0000000000000E+00
-0.2752928899171E+00 -0.3562824983585E+01  0.0000000000000E+00
-0.2753221789639E+00 -0.3488702877815E+01  0.0000000000000E+00
-0.2753514679190E+00 -0.3414581003814E+01  0.0000000000000E+00
-0.2753807569614E+00 -0.3340458909091E+01  0.0000000000000E+00
-0.2754100464356E+00 -0.3266335721598E+01  0.0000000000000E+00
-0.2754393349412E+00 -0.3192214985375E+01  0.0000000000000E+00
-0.2754686238532E+00 -0.3118093220505E+01  0.0000000000000E+00
-0.2754979128488E+00 -0.3043971244133E+01  0.0000000000000E+00
-0.2755272018287E+00 -0.2969849307552E+01  0.0000000000000E+00
-0.2755564907707E+00 -0.2895727466917E+01  0.0000000000000E+00
-0.2756061652489E+00 -0.2821605658747E+01  0.0000000000000E+00
-0.2757998283827E+00 -0.2747487354304E+01  0.0000000000000E+00
-0.2762716606411E+00 -0.2673389334195E+01  0.0000000000000E+00
-0.2771022818897E+00 -0.2599343388093E+01  0.0000000000000E+00
-0.2783232941339E+00 -0.2525387818747E+01  0.0000000000000E+00
-0.2799382653412E+00 -0.2451559345344E+01  0.0000000000000E+00
-0.2819399472355E+00 -0.2377890922692E+01  0.0000000000000E+00
-0.2843201419189E+00 -0.2304413667485E+01  0.0000000000000E+00
-0.2870747998656E+00 -0.2231158839097E+01  0.0000000000000E+00
-0.2902068741738E+00 -0.2158162678047E+01  0.0000000000000E+00
-0.2937286982369E+00 -0.2085470009335E+01  0.0000000000000E+00
-0.2976450204157E+00 -0.2013122364332E+01  0.0000000000000E+00
-0.3019316522513E+00 -0.1941133983216E+01  0.0000000000000E+00
-0.3065705560629E+00 -0.1869519792505E+01  0.0000000000000E+00
-0.3115530781095E+00 -0.1798301571807E+01  0.0000000000000E+00
-0.3168789352001E+00 -0.1727510055176E+01  0.0000000000000E+00
-0.3225562359690E+00 -0.1657188125934E+01  0.0000000000000E+00
-0.3286025199556E+00 -0.1587396251146E+01  0.0000000000000E+00
-0.3350474020297E+00 -0.1518218885865E+01  0.0000000000000E+00
-0.3419369085198E+00 -0.1449783496195E+01  0.0000000000000E+00
-0.3493429185865E+00 -0.1382283162483E+01  0.0000000000000E+00
-0.2475274763612E+00 -0.4229867192306E+01  0.0000000000000E+00
-0.2475549526979E+00 -0.4155689802184E+01  0.0000000000000E+00
-0.2475824290864E+00 -0.4081512272263E+01  0.0000000000000E+00
-0.2476099054988E+00 -0.4007334677864E+01  0.0000000000000E+00
-0.2476373818750E+00 -0.3933157181315E+01  0.0000000000000E+00
-0.2476648582459E+00 -0.3858979698684E+01  0.0000000000000E+00
-0.2476923346204E+00 -0.3784802206627E+01  0.0000000000000E+00
-0.2477198109990E+00 -0.3710624703378E+01  0.0000000000000E+00
-0.2477472873755E+00 -0.3636447205960E+01  0.0000000000000E+00
-0.2477747637523E+00 -0.3562269707525E+01  0.0000000000000E+00
-0.2478022401792E+00 -0.3488092074044E+01  0.0000000000000E+00
-0.2478297165201E+00 -0.3413914672507E+01  0.0000000000000E+00
-0.2478571929429E+00 -0.3339737050082E+01  0.0000000000000E+00
-0.2478846697707E+00 -0.3265558334068E+01  0.0000000000000E+00
-0.2479121456899E+00 -0.3191382071160E+01  0.0000000000000E+00
-0.2479396219904E+00 -0.3117204778836E+01  0.0000000000000E+00
-0.2479670983693E+00 -0.3043027274851E+01  0.0000000000000E+00
-0.2479945747334E+00 -0.2968849810686E+01  0.0000000000000E+00
-0.2480220510620E+00 -0.2894672442539E+01  0.0000000000000E+00
-0.2480678743733E+00 -0.2820495106846E+01  0.0000000000000E+00
-0.2482432874676E+00 -0.2746321275196E+01  0.0000000000000E+00
-0.2486690527616E+00 -0.2672167728422E+01  0.0000000000000E+00
-0.2494177281399E+00 -0.2598066255909E+01  0.0000000000000E+00
-0.2505177554111E+00 -0.2524055160221E+01  0.0000000000000E+00
-0.2519723457481E+00 -0.2450171160422E+01  0.0000000000000E+00
-0.2537749757042E+00 -0.2376447211231E+01  0.0000000000000E+00
-0.2559182671670E+00 -0.2302914429563E+01  0.0000000000000E+00
-0.2583985755675E+00 -0.2229604074582E+01  0.0000000000000E+00
-0.2612185586887E+00 -0.2156552387068E+01  0.0000000000000E+00
-0.2643893165847E+00 -0.2083804192021E+01  0.0000000000000E+00
-0.2679151227846E+00 -0.2011401020588E+01  0.0000000000000E+00
-0.2717742076764E+00 -0.1939357112923E+01  0.0000000000000E+00
-0.2759503373461E+00 -0.1867687395599E+01  0.0000000000000E+00
-0.2804357234259E+00 -0.1796413648268E+01  0.0000000000000E+00
-0.2852301110435E+00 -0.1725566604998E+01  0.0000000000000E+00
-0.2903407979693E+00 -0.1655189149140E+01  0.0000000000000E+00
-0.2957835697803E+00 -0.1585341748170E+01  0.0000000000000E+00
-0.3015850798740E+00 -0.1516108856418E+01  0.0000000000000E+00
-0.3077867519147E+00 -0.1447617941537E+01  0.0000000000000E+00
-0.3144532771611E+00 -0.1380062083186E+01  0.0000000000000E+00
-0.2200253122177E+00 -0.4229817482972E+01  0.0000000000000E+00
-0.2200506244127E+00 -0.4155590383561E+01  0.0000000000000E+00
-0.2200759366555E+00 -0.4081363144257E+01  0.0000000000000E+00
-0.2201012489203E+00 -0.4007135840432E+01  0.0000000000000E+00
-0.2201265611517E+00 -0.3932908634523E+01  0.0000000000000E+00
-0.2201518733783E+00 -0.3858681442540E+01  0.0000000000000E+00
-0.2201771856082E+00 -0.3784454241126E+01  0.0000000000000E+00
-0.2202024978419E+00 -0.3710227028512E+01  0.0000000000000E+00
-0.2202278100736E+00 -0.3635999821733E+01  0.0000000000000E+00
-0.2202531223056E+00 -0.3561772613937E+01  0.0000000000000E+00
-0.2202784345837E+00 -0.3487545271003E+01  0.0000000000000E+00
-0.2203037467827E+00 -0.3413318160169E+01  0.0000000000000E+00
-0.2203290590570E+00 -0.3339090828300E+01  0.0000000000000E+00
-0.2203543717045E+00 -0.3264862402108E+01  0.0000000000000E+00
-0.2203796835150E+00 -0.3190636430667E+01  0.0000000000000E+00
-0.2204049956767E+00 -0.3116409429118E+01  0.0000000000000E+00
-0.2204303079106E+00 -0.3042182215768E+01  0.0000000000000E+00
-0.2204556201309E+00 -0.2967955042264E+01  0.0000000000000E+00
-0.2204809323185E+00 -0.2893727964843E+01  0.0000000000000E+00
-0.2205225529353E+00 -0.2819500919865E+01  0.0000000000000E+00
-0.2206793644652E+00 -0.2745277379213E+01  0.0000000000000E+00
-0.2210587112750E+00 -0.2671074123923E+01  0.0000000000000E+00
-0.2217250892667E+00 -0.2596922943121E+01  0.0000000000000E+00
-0.2227037800508E+00 -0.2522862139205E+01  0.0000000000000E+00
-0.2239976380052E+00 -0.2448928431131E+01  0.0000000000000E+00
-0.2256008645120E+00 -0.2375154773537E+01  0.0000000000000E+00
-0.2275069012456E+00 -0.2301572283534E+01  0.0000000000000E+00
-0.2297125085923E+00 -0.2228212220101E+01  0.0000000000000E+00
-0.2322200490218E+00 -0.2155110824251E+01  0.0000000000000E+00
-0.2350393892486E+00 -0.2082312920983E+01  0.0000000000000E+00
-0.2381743279693E+00 -0.2009860041244E+01  0.0000000000000E+00
-0.2416055144180E+00 -0.1937766425166E+01  0.0000000000000E+00
-0.2453185184479E+00 -0.1866046999373E+01  0.0000000000000E+00
-0.2493064170647E+00 -0.1794723543554E+01  0.0000000000000E+00
-0.2535689837149E+00 -0.1723826791791E+01  0.0000000000000E+00
-0.2581127053052E+00 -0.1653399627459E+01  0.0000000000000E+00
-0.2629516134529E+00 -0.1583502518406E+01  0.0000000000000E+00
-0.2681094000786E+00 -0.1514219918310E+01  0.0000000000000E+00
-0.2736228861926E+00 -0.1445679296214E+01  0.0000000000000E+00
-0.2795495751478E+00 -0.1378073731162E+01  0.0000000000000E+00
-0.1925228350695E+00 -0.4229773600768E+01  0.0000000000000E+00
-0.1925456701187E+00 -0.4155502619191E+01  0.0000000000000E+00
-0.1925685052109E+00 -0.4081231497639E+01  0.0000000000000E+00
-0.1925913403229E+00 -0.4006960311527E+01  0.0000000000000E+00
-0.1926141754049E+00 -0.3932689223390E+01  0.0000000000000E+00
-0.1926370104825E+00 -0.3858418149187E+01  0.0000000000000E+00
-0.1926598455630E+00 -0.3784147065547E+01  0.0000000000000E+00
-0.1926826806470E+00 -0.3709875970701E+01  0.0000000000000E+00
-0.1927055157292E+00 -0.3635604881693E+01  0.0000000000000E+00
-0.1927283508117E+00 -0.3561333791667E+01  0.0000000000000E+00
-0.1927511859358E+00 -0.3487062566424E+01  0.0000000000000E+00
-0.1927740209885E+00 -0.3412791573417E+01  0.0000000000000E+00
-0.1927968561092E+00 -0.3338520359245E+01  0.0000000000000E+00
-0.1928196915665E+00 -0.3264248050103E+01  0.0000000000000E+00
-0.1928425262686E+00 -0.3189978197163E+01  0.0000000000000E+00
-0.1928653612877E+00 -0.3115707313507E+01  0.0000000000000E+00
-0.1928881963719E+00 -0.3041436217924E+01  0.0000000000000E+00
-0.1929110314439E+00 -0.2967165162210E+01  0.0000000000000E+00
-0.1929338664863E+00 -0.2892894202637E+01  0.0000000000000E+00
-0.1929709714044E+00 -0.2818623275497E+01  0.0000000000000E+00
-0.1931088683680E+00 -0.2744355852933E+01  0.0000000000000E+00
-0.1934414836956E+00 -0.2670108716159E+01  0.0000000000000E+00
-0.1940252513053E+00 -0.2595913654076E+01  0.0000000000000E+00
-0.1948822926087E+00 -0.2521808968931E+01  0.0000000000000E+00
-0.1960151051878E+00 -0.2447831379587E+01  0.0000000000000E+00
-0.1974186152532E+00 -0.2374013840609E+01  0.0000000000000E+00
-0.1990870842670E+00 -0.2300387469284E+01  0.0000000000000E+00
-0.2010176775699E+00 -0.2226983524425E+01  0.0000000000000E+00
-0.2032124623196E+00 -0.2153838247250E+01  0.0000000000000E+00
-0.2056800718913E+00 -0.2080996462759E+01  0.0000000000000E+00
-0.2084238301475E+00 -0.2008499701722E+01  0.0000000000000E+00
-0.2114268051683E+00 -0.1936362204253E+01  0.0000000000000E+00
-0.2146763705746E+00 -0.1864598897017E+01  0.0000000000000E+00
-0.2181664687455E+00 -0.1793231559741E+01  0.0000000000000E+00
-0.2218969014465E+00 -0.1722290926515E+01  0.0000000000000E+00
-0.2258733447208E+00 -0.1651819880738E+01  0.0000000000000E+00
-0.2301080762283E+00 -0.1581878890584E+01  0.0000000000000E+00
-0.2346218264090E+00 -0.1512552409157E+01  0.0000000000000E+00
-0.2394468136277E+00 -0.1443967906727E+01  0.0000000000000E+00
-0.2446333533281E+00 -0.1376318461792E+01  0.0000000000000E+00
-0.1650200836141E+00 -0.4229735553552E+01  0.0000000000000E+00
-0.1650401672104E+00 -0.4155426524793E+01  0.0000000000000E+00
-0.1650602508445E+00 -0.4081117355988E+01  0.0000000000000E+00
-0.1650803344960E+00 -0.4006808122590E+01  0.0000000000000E+00
-0.1651004181210E+00 -0.3932498987216E+01  0.0000000000000E+00
-0.1651205017423E+00 -0.3858189865784E+01  0.0000000000000E+00
-0.1651405853662E+00 -0.3783880734910E+01  0.0000000000000E+00
-0.1651606689930E+00 -0.3709571592824E+01  0.0000000000000E+00
-0.1651807526183E+00 -0.3635262456580E+01  0.0000000000000E+00
-0.1652008362438E+00 -0.3560953319316E+01  0.0000000000000E+00
-0.1652209199060E+00 -0.3486644046767E+01  0.0000000000000E+00
-0.1652410035053E+00 -0.3412335006573E+01  0.0000000000000E+00
-0.1652610871644E+00 -0.3338025745100E+01  0.0000000000000E+00
-0.1652811711196E+00 -0.3263715388096E+01  0.0000000000000E+00
-0.1653012544107E+00 -0.3189407488552E+01  0.0000000000000E+00
-0.1653213379804E+00 -0.3115098557765E+01  0.0000000000000E+00
-0.1653414216075E+00 -0.3040789414941E+01  0.0000000000000E+00
-0.1653615052238E+00 -0.2966480312009E+01  0.0000000000000E+00
-0.1653815888140E+00 -0.2892171305265E+01  0.0000000000000E+00
-0.1654139037265E+00 -0.2817862330946E+01  0.0000000000000E+00
-0.1655326118186E+00 -0.2743556861420E+01  0.0000000000000E+00
-0.1658182213616E+00 -0.2669271678057E+01  0.0000000000000E+00
-0.1663191042885E+00 -0.2595038569558E+01  0.0000000000000E+00
-0.1670542218109E+00 -0.2520895838043E+01  0.0000000000000E+00
-0.1680257147146E+00 -0.2446880202293E+01  0.0000000000000E+00
-0.1692292340380E+00 -0.2373024616811E+01  0.0000000000000E+00
-0.1706598610322E+00 -0.2299360199036E+01  0.0000000000000E+00
-0.1723151659912E+00 -0.2225918207636E+01  0.0000000000000E+00
-0.1741969207619E+00 -0.2152734884009E+01  0.0000000000000E+00
-0.1763125253801E+00 -0.2079855053154E+01  0.0000000000000E+00
-0.1786648288734E+00 -0.2007320245687E+01  0.0000000000000E+00
-0.1812393181677E+00 -0.1935144701707E+01  0.0000000000000E+00
-0.1840251706515E+00 -0.1863343347917E+01  0.0000000000000E+00
-0.1870171940779E+00 -0.1791937964073E+01  0.0000000000000E+00
-0.1902152185315E+00 -0.1720959284274E+01  0.0000000000000E+00
-0.1936241091919E+00 -0.1650450191940E+01  0.0000000000000E+00
-0.1972543897637E+00 -0.1580471155527E+01  0.0000000000000E+00
-0.2011238292027E+00 -0.1511106627642E+01  0.0000000000000E+00
-0.2052600432362E+00 -0.1442484079618E+01  0.0000000000000E+00
-0.2097061593950E+00 -0.1374796589482E+01  0.0000000000000E+00
-0.1375170965664E+00 -0.4229703348149E+01  0.0000000000000E+00
-0.1375341931175E+00 -0.4155362114015E+01  0.0000000000000E+00
-0.1375512897008E+00 -0.4081020739775E+01  0.0000000000000E+00
-0.1375683862990E+00 -0.4006679300913E+01  0.0000000000000E+00
-0.1375854828746E+00 -0.3932337960118E+01  0.0000000000000E+00
-0.1376025794470E+00 -0.3857996633271E+01  0.0000000000000E+00
-0.1376196760216E+00 -0.3783655296978E+01  0.0000000000000E+00
-0.1376367725988E+00 -0.3709313949468E+01  0.0000000000000E+00
-0.1376538691746E+00 -0.3634972607802E+01  0.0000000000000E+00
-0.1376709657507E+00 -0.3560631265117E+01  0.0000000000000E+00
-0.1376880623579E+00 -0.3486289787087E+01  0.0000000000000E+00
-0.1377051589116E+00 -0.3411948541514E+01  0.0000000000000E+00
-0.1377222555162E+00 -0.3337607074565E+01  0.0000000000000E+00
-0.1377393523729E+00 -0.3263264511611E+01  0.0000000000000E+00
-0.1377564486642E+00 -0.3188924407182E+01  0.0000000000000E+00
-0.1377735451928E+00 -0.3114583271062E+01  0.0000000000000E+00
-0.1377906417701E+00 -0.3040241922814E+01  0.0000000000000E+00
-0.1378077383383E+00 -0.2965900614475E+01  0.0000000000000E+00
-0.1378248348843E+00 -0.2891559402366E+01  0.0000000000000E+00
-0.1378521241988E+00 -0.2817218222675E+01  0.0000000000000E+00
-0.1379514078263E+00 -0.2742880547961E+01  0.0000000000000E+00
-0.1381897759909E+00 -0.2668563159723E+01  0.0000000000000E+00
-0.1386075386376E+00 -0.2594297846497E+01  0.0000000000000E+00
-0.1392204967773E+00 -0.2520122910295E+01  0.0000000000000E+00
-0.1400304343989E+00 -0.2446075069828E+01  0.0000000000000E+00
-0.1410337273682E+00 -0.2372187279545E+01  0.0000000000000E+00
-0.1422262767265E+00 -0.2298490657014E+01  0.0000000000000E+00
-0.1436060577199E+00 -0.2225016460781E+01  0.0000000000000E+00
-0.1451745468860E+00 -0.2151800932397E+01  0.0000000000000E+00
-0.1469379109210E+00 -0.2078888896859E+01  0.0000000000000E+00
-0.1488985240163E+00 -0.2006321884654E+01  0.0000000000000E+00
-0.1510442919439E+00 -0.1934114135868E+01  0.0000000000000E+00
-0.1533661958606E+00 -0.1862280577234E+01  0.0000000000000E+00
-0.1558599088936E+00 -0.1790842988534E+01  0.0000000000000E+00
-0.1585252894466E+00 -0.1719832103876E+01  0.0000000000000E+00
-0.1613663918356E+00 -0.1649290806696E+01  0.0000000000000E+00
-0.1643919858117E+00 -0.1579279565690E+01  0.0000000000000E+00
-0.1676168788429E+00 -0.1509882833043E+01  0.0000000000000E+00
-0.1710640840249E+00 -0.1441228080987E+01  0.0000000000000E+00
-0.1747695409720E+00 -0.1373508387153E+01  0.0000000000000E+00
-0.1100139131733E+00 -0.4229676990359E+01  0.0000000000000E+00
-0.1100278263343E+00 -0.4155309398459E+01  0.0000000000000E+00
-0.1100417395214E+00 -0.4080941666402E+01  0.0000000000000E+00
-0.1100556527207E+00 -0.4006573869701E+01  0.0000000000000E+00
-0.1100695659016E+00 -0.3932206171102E+01  0.0000000000000E+00
-0.1100834790799E+00 -0.3857838486456E+01  0.0000000000000E+00
-0.1100973922599E+00 -0.3783470792361E+01  0.0000000000000E+00
-0.1101113054421E+00 -0.3709103087044E+01  0.0000000000000E+00
-0.1101252186231E+00 -0.3634735387573E+01  0.0000000000000E+00
-0.1101391318044E+00 -0.3560367687083E+01  0.0000000000000E+00
-0.1101530450109E+00 -0.3485999851201E+01  0.0000000000000E+00
-0.1101669581740E+00 -0.3411632247857E+01  0.0000000000000E+00
-0.1101808713785E+00 -0.3337264423059E+01  0.0000000000000E+00
-0.1101947847881E+00 -0.3262895501867E+01  0.0000000000000E+00
-0.1102086977376E+00 -0.3188529040072E+01  0.0000000000000E+00
-0.1102226108802E+00 -0.3114161546221E+01  0.0000000000000E+00
-0.1102365240625E+00 -0.3039793840166E+01  0.0000000000000E+00
-0.1102504372373E+00 -0.2965426174034E+01  0.0000000000000E+00
-0.1102643503941E+00 -0.2891058604166E+01  0.0000000000000E+00
-0.1102864177656E+00 -0.2816691066711E+01  0.0000000000000E+00
-0.1103660805855E+00 -0.2742327034383E+01  0.0000000000000E+00
-0.1105570110314E+00 -0.2667983288788E+01  0.0000000000000E+00
-0.1108914570603E+00 -0.2593691618327E+01  0.0000000000000E+00
-0.1113820594814E+00 -0.2519490324921E+01  0.0000000000000E+00
-0.1120302454863E+00 -0.2445416127225E+01  0.0000000000000E+00
-0.1128331157681E+00 -0.2371501979645E+01  0.0000000000000E+00
-0.1137873911589E+00 -0.2297778999854E+01  0.0000000000000E+00
-0.1148914518564E+00 -0.2224278446299E+01  0.0000000000000E+00
-0.1161464790893E+00 -0.2151036560653E+01  0.0000000000000E+00
-0.1175574062147E+00 -0.2078098167915E+01  0.0000000000000E+00
-0.1191261325870E+00 -0.2005504798465E+01  0.0000000000000E+00
-0.1208429828240E+00 -0.1933270692377E+01  0.0000000000000E+00
-0.1227007418508E+00 -0.1861410776411E+01  0.0000000000000E+00
-0.1246959481691E+00 -0.1789946830370E+01  0.0000000000000E+00
-0.1268284885014E+00 -0.1718909588368E+01  0.0000000000000E+00
-0.1291016063007E+00 -0.1648341933855E+01  0.0000000000000E+00
-0.1315223173657E+00 -0.1578304335721E+01  0.0000000000000E+00
-0.1341024676744E+00 -0.1508881245808E+01  0.0000000000000E+00
-0.1368604676965E+00 -0.1440200137086E+01  0.0000000000000E+00
-0.1398250691276E+00 -0.1372454086857E+01  0.0000000000000E+00
-0.8251057255733E-01 -0.4229656484926E+01  0.0000000000000E+00
-0.8252114510523E-01 -0.4155268387612E+01  0.0000000000000E+00
-0.8253171767305E-01 -0.4080880150103E+01  0.0000000000000E+00
-0.8254229025007E-01 -0.4006491847932E+01  0.0000000000000E+00
-0.8255286281313E-01 -0.3932103643889E+01  0.0000000000000E+00
-0.8256343537422E-01 -0.3857715453803E+01  0.0000000000000E+00
-0.8257400793664E-01 -0.3783327254265E+01  0.0000000000000E+00
-0.8258458050067E-01 -0.3708939043503E+01  0.0000000000000E+00
-0.8259515306386E-01 -0.3634550838589E+01  0.0000000000000E+00
-0.8260572562719E-01 -0.3560162632655E+01  0.0000000000000E+00
-0.8261629820978E-01 -0.3485774291291E+01  0.0000000000000E+00
-0.8262687075930E-01 -0.3411386182529E+01  0.0000000000000E+00
-0.8263744334031E-01 -0.3336997852253E+01  0.0000000000000E+00
-0.8264801607719E-01 -0.3262608425281E+01  0.0000000000000E+00
-0.8265858846443E-01 -0.3188221458384E+01  0.0000000000000E+00
-0.8266916099838E-01 -0.3113833459145E+01  0.0000000000000E+00
-0.8267973356251E-01 -0.3039445247645E+01  0.0000000000000E+00
-0.8269030612096E-01 -0.2965057076078E+01  0.0000000000000E+00
-0.8270087866573E-01 -0.2890669000802E+01  0.0000000000000E+00
-0.8271756687138E-01 -0.2816280957935E+01  0.0000000000000E+00
-0.8277745166208E-01 -0.2741896420311E+01  0.0000000000000E+00
-0.8292078717006E-01 -0.2667532169621E+01  0.0000000000000E+00
-0.8317175936353E-01 -0.2593219994158E+01  0.0000000000000E+00
-0.8353984884971E-01 -0.2518998195776E+01  0.0000000000000E+00
-0.8402612602254E-01 -0.2444903493085E+01  0.0000000000000E+00
-0.8462841640204E-01 -0.2370968840455E+01  0.0000000000000E+00
-0.8534426061171E-01 -0.2297225355644E+01  0.0000000000000E+00
-0.8617244380030E-01 -0.2223704297020E+01  0.0000000000000E+00
-0.8711385188860E-01 -0.2150441906354E+01  0.0000000000000E+00
-0.8817218489417E-01 -0.2077483008642E+01  0.0000000000000E+00
-0.8934886733396E-01 -0.2004869134183E+01  0.0000000000000E+00
-0.9063664267160E-01 -0.1932614523043E+01  0.0000000000000E+00
-0.9203009960065E-01 -0.1860734102001E+01  0.0000000000000E+00
-0.9352664199702E-01 -0.1789249650877E+01  0.0000000000000E+00
-0.9512618490244E-01 -0.1718191903789E+01  0.0000000000000E+00
-0.9683116090668E-01 -0.1647603744198E+01  0.0000000000000E+00
-0.9864683185755E-01 -0.1577545641147E+01  0.0000000000000E+00
-0.1005820822409E+00 -0.1508102046211E+01  0.0000000000000E+00
-0.1026507199050E+00 -0.1439400432931E+01  0.0000000000000E+00
-0.1048743086251E+00 -0.1371633878354E+01  0.0000000000000E+00
-0.5500711393383E-01 -0.4229641835546E+01  0.0000000000000E+00
-0.5501422786132E-01 -0.4155239088865E+01  0.0000000000000E+00
-0.5502134180221E-01 -0.4080836201962E+01  0.0000000000000E+00
-0.5502845574929E-01 -0.4006433250383E+01  0.0000000000000E+00
-0.5503556968698E-01 -0.3932030396953E+01  0.0000000000000E+00
-0.5504268362334E-01 -0.3857627557482E+01  0.0000000000000E+00
-0.5504979756060E-01 -0.3783224708557E+01  0.0000000000000E+00
-0.5505691149894E-01 -0.3708821848406E+01  0.0000000000000E+00
-0.5506402543671E-01 -0.3634418994103E+01  0.0000000000000E+00
-0.5507113937459E-01 -0.3560016138781E+01  0.0000000000000E+00
-0.5507825332541E-01 -0.3485613148002E+01  0.0000000000000E+00
-0.5508536725399E-01 -0.3411210389871E+01  0.0000000000000E+00
-0.5509248120376E-01 -0.3336807410182E+01  0.0000000000000E+00
-0.5509959525840E-01 -0.3262403333581E+01  0.0000000000000E+00
-0.5510670907779E-01 -0.3188001717540E+01  0.0000000000000E+00
-0.5511382299589E-01 -0.3113599068954E+01  0.0000000000000E+00
-0.5512093693430E-01 -0.3039196208064E+01  0.0000000000000E+00
-0.5512805086889E-01 -0.2964793387116E+01  0.0000000000000E+00
-0.5513516479427E-01 -0.2890390662477E+01  0.0000000000000E+00
-0.5514635582678E-01 -0.2815987970245E+01  0.0000000000000E+00
-0.5518634458180E-01 -0.2741588783338E+01  0.0000000000000E+00
-0.5528196714690E-01 -0.2667209883509E+01  0.0000000000000E+00
-0.5544934750096E-01 -0.2592883058975E+01  0.0000000000000E+00
-0.5569480604889E-01 -0.2518646611538E+01  0.0000000000000E+00
-0.5601905638671E-01 -0.2444537259779E+01  0.0000000000000E+00
-0.5642064886117E-01 -0.2370587958044E+01  0.0000000000000E+00
-0.5689794388766E-01 -0.2296829824147E+01  0.0000000000000E+00
-0.5745013156543E-01 -0.2223294116403E+01  0.0000000000000E+00
-0.5807780250795E-01 -0.2150017076651E+01  0.0000000000000E+00
-0.5878342339336E-01 -0.2077043529887E+01  0.0000000000000E+00
-0.5956794390064E-01 -0.2004415006351E+01  0.0000000000000E+00
-0.6042652633910E-01 -0.1932145746102E+01  0.0000000000000E+00
-0.6135556317081E-01 -0.1860250675935E+01  0.0000000000000E+00
-0.6235332364616E-01 -0.1788751575680E+01  0.0000000000000E+00
-0.6341975112603E-01 -0.1717679179460E+01  0.0000000000000E+00
-0.6455646733708E-01 -0.1647076370742E+01  0.0000000000000E+00
-0.6576698017705E-01 -0.1577003618680E+01  0.0000000000000E+00
-0.6705721263822E-01 -0.1507545374656E+01  0.0000000000000E+00
-0.6843636995069E-01 -0.1438829112620E+01  0.0000000000000E+00
-0.6991882796803E-01 -0.1371047909439E+01  0.0000000000000E+00
-0.2750357658843E-01 -0.4229633044861E+01  0.0000000000000E+00
-0.2750715317366E-01 -0.4155221507503E+01  0.0000000000000E+00
-0.2751072976564E-01 -0.4080809829905E+01  0.0000000000000E+00
-0.2751430636072E-01 -0.4006398087624E+01  0.0000000000000E+00
-0.2751788295109E-01 -0.3931986443504E+01  0.0000000000000E+00
-0.2752145954079E-01 -0.3857574813344E+01  0.0000000000000E+00
-0.2752503613094E-01 -0.3783163173730E+01  0.0000000000000E+00
-0.2752861272163E-01 -0.3708751522888E+01  0.0000000000000E+00
-0.2753218931203E-01 -0.3634339877895E+01  0.0000000000000E+00
-0.2753576590249E-01 -0.3559928231882E+01  0.0000000000000E+00
-0.2753934249946E-01 -0.3485516450397E+01  0.0000000000000E+00
-0.2754291908525E-01 -0.3411104901588E+01  0.0000000000000E+00
-0.2754649568168E-01 -0.3336693131194E+01  0.0000000000000E+00
-0.2755007233085E-01 -0.3262280263758E+01  0.0000000000000E+00
-0.2755364886173E-01 -0.3187869857173E+01  0.0000000000000E+00
-0.2755722544225E-01 -0.3113458417920E+01  0.0000000000000E+00
-0.2756080203298E-01 -0.3039046766340E+01  0.0000000000000E+00
-0.2756437862178E-01 -0.2964635154705E+01  0.0000000000000E+00
-0.2756795520596E-01 -0.2890223639392E+01  0.0000000000000E+00
-0.2757357034351E-01 -0.2815812156483E+01  0.0000000000000E+00
-0.2759358434146E-01 -0.2741404178949E+01  0.0000000000000E+00
-0.2764141524306E-01 -0.2667016488579E+01  0.0000000000000E+00
-0.2772512503744E-01 -0.2592680873544E+01  0.0000000000000E+00
-0.2784787392694E-01 -0.2518435635618E+01  0.0000000000000E+00
-0.2801001870949E-01 -0.2444317493361E+01  0.0000000000000E+00
-0.2821083455843E-01 -0.2370359401105E+01  0.0000000000000E+00
-0.2844950168136E-01 -0.2296592476699E+01  0.0000000000000E+00
-0.2872561512776E-01 -0.2223047978426E+01  0.0000000000000E+00
-0.2903947020410E-01 -0.2149762148164E+01  0.0000000000000E+00
-0.2939230024913E-01 -0.2076779810912E+01  0.0000000000000E+00
-0.2978458010354E-01 -0.2004142496872E+01  0.0000000000000E+00
-0.3021389092229E-01 -0.1931864446101E+01  0.0000000000000E+00
-0.3067842893605E-01 -0.1859960585402E+01  0.0000000000000E+00
-0.3117732876971E-01 -0.1788452694611E+01  0.0000000000000E+00
-0.3171056210335E-01 -0.1717371507854E+01  0.0000000000000E+00
-0.3227893980056E-01 -0.1646759908603E+01  0.0000000000000E+00
-0.3288421580958E-01 -0.1576678366077E+01  0.0000000000000E+00
-0.3352935162807E-01 -0.1507211331542E+01  0.0000000000000E+00
-0.3421894987024E-01 -0.1438486279195E+01  0.0000000000000E+00
-0.3496019846693E-01 -0.1370696285795E+01  0.0000000000000E+00
 0.1466269727017E-09 -0.4229630114457E+01  0.0000000000000E+00
 0.2932532055263E-09 -0.4155215646697E+01  0.0000000000000E+00
 0.4398803798697E-09 -0.4080801038692E+01  0.0000000000000E+00
 0.5865072632801E-09 -0.4006386366002E+01  0.0000000000000E+00
 0.7331339456125E-09 -0.3931971791476E+01  0.0000000000000E+00
 0.8797607629187E-09 -0.3857557230911E+01  0.0000000000000E+00
 0.1026387601599E-08 -0.3783142660891E+01  0.0000000000000E+00
 0.1173014146470E-08 -0.3708728079643E+01  0.0000000000000E+00
 0.1319641038940E-08 -0.3634313504245E+01  0.0000000000000E+00
 0.1466267822695E-08 -0.3559898927826E+01  0.0000000000000E+00
 0.1612894884936E-08 -0.3485484215930E+01  0.0000000000000E+00
 0.1759521559980E-08 -0.3411069736718E+01  0.0000000000000E+00
 0.1906148624904E-08 -0.3336655035914E+01  0.0000000000000E+00
 0.2052777753410E-08 -0.3262239238024E+01  0.0000000000000E+00
 0.2199402290491E-08 -0.3187825901082E+01  0.0000000000000E+00
 0.2346028468075E-08 -0.3113411531432E+01  0.0000000000000E+00
 0.2492655403194E-08 -0.3038996949445E+01  0.0000000000000E+00
 0.2639282414546E-08 -0.2964582407406E+01  0.0000000000000E+00
 0.2785908708559E-08 -0.2890167961692E+01  0.0000000000000E+00
 0.2932963750762E-08 -0.2815753548382E+01  0.0000000000000E+00
 0.3081668126355E-08 -0.2741342640464E+01  0.0000000000000E+00
 0.3233148692405E-08 -0.2666952019738E+01  0.0000000000000E+00
 0.3388282564229E-08 -0.2592613474360E+01  0.0000000000000E+00
 0.3547520115210E-08 -0.2518365306095E+01  0.0000000000000E+00
 0.3711086251809E-08 -0.2444244233496E+01  0.0000000000000E+00
 0.3879109370085E-08 -0.2370283210891E+01  0.0000000000000E+00
 0.4051601455226E-08 -0.2296513356140E+01  0.0000000000000E+00
 0.4229037818245E-08 -0.2222965927515E+01  0.0000000000000E+00
 0.4411708547429E-08 -0.2149677166908E+01  0.0000000000000E+00
 0.4600299816833E-08 -0.2076691899317E+01  0.0000000000000E+00
 0.4792582977744E-08 -0.2004051654933E+01  0.0000000000000E+00
 0.4987928936109E-08 -0.1931770673812E+01  0.0000000000000E+00
 0.5187018094136E-08 -0.1859863882760E+01  0.0000000000000E+00
 0.5390384780373E-08 -0.1788353061614E+01  0.0000000000000E+00
 0.5598754705489E-08 -0.1717268944503E+01  0.0000000000000E+00
 0.5811610974171E-08 -0.1646654414899E+01  0.0000000000000E+00
 0.6029914565701E-08 -0.1576569942042E+01  0.0000000000000E+00
 0.6251219526846E-08 -0.1507099977162E+01  0.0000000000000E+00
 0.6476122786694E-08 -0.1438371994536E+01  0.0000000000000E+00
 0.6697123319916E-08 -0.1370579070886E+01  0.0000000000000E+00
 0.2750357688167E-01 -0.4229633044863E+01  0.0000000000000E+00
 0.2750715376015E-01 -0.4155221507507E+01  0.0000000000000E+00
 0.2751073064538E-01 -0.4080809829911E+01  0.0000000000000E+00
 0.2751430753371E-01 -0.4006398087633E+01  0.0000000000000E+00
 0.2751788441732E-01 -0.3931986443515E+01  0.0000000000000E+00
 0.2752146130026E-01 -0.3857574813358E+01  0.0000000000000E+00
 0.2752503818366E-01 -0.3783163173746E+01  0.0000000000000E+00
 0.2752861506759E-01 -0.3708751522906E+01  0.0000000000000E+00
 0.2753219195125E-01 -0.3634339877916E+01  0.0000000000000E+00
 0.2753576883495E-01 -0.3559928231905E+01  0.0000000000000E+00
 0.2753934572517E-01 -0.3485516450422E+01  0.0000000000000E+00
 0.2754292260420E-01 -0.3411104901615E+01  0.0000000000000E+00
 0.2754649949388E-01 -0.3336693131223E+01  0.0000000000000E+00
 0.2755007643630E-01 -0.3262280263790E+01  0.0000000000000E+00
 0.2755365326042E-01 -0.3187869857207E+01  0.0000000000000E+00
 0.2755723013419E-01 -0.3113458417957E+01  0.0000000000000E+00
 0.2756080701816E-01 -0.3039046766379E+01  0.0000000000000E+00
 0.2756438390021E-01 -0.2964635154746E+01  0.0000000000000E+00
 0.2756796077763E-01 -0.2890223639435E+01  0.0000000000000E+00
 0.2757357620929E-01 -0.2815812156528E+01  0.0000000000000E+00
 0.2759359050464E-01 -0.2741404178997E+01  0.0000000000000E+00
 0.2764142170919E-01 -0.2667016488629E+01  0.0000000000000E+00
 0.2772513181383E-01 -0.2592680873597E+01  0.0000000000000E+00
 0.2784788102180E-01 -0.2518435635673E+01  0.0000000000000E+00
 0.2801002613147E-01 -0.2444317493417E+01  0.0000000000000E+00
 0.2821084231645E-01 -0.2370359401164E+01  0.0000000000000E+00
 0.2844950978436E-01 -0.2296592476761E+01  0.0000000000000E+00
 0.2872562358562E-01 -0.2223047978490E+01  0.0000000000000E+00
 0.2903947902730E-01 -0.2149762148230E+01  0.0000000000000E+00
 0.2939230944951E-01 -0.2076779810981E+01  0.0000000000000E+00
 0.2978458968848E-01 -0.2004142496943E+01  0.0000000000000E+00
 0.3021390089791E-01 -0.1931864446174E+01  0.0000000000000E+00
 0.3067843930983E-01 -0.1859960585477E+01  0.0000000000000E+00
 0.3117733955022E-01 -0.1788452694688E+01  0.0000000000000E+00
 0.3171057330060E-01 -0.1717371507933E+01  0.0000000000000E+00
 0.3227895142350E-01 -0.1646759908685E+01  0.0000000000000E+00
 0.3288422786913E-01 -0.1576678366161E+01  0.0000000000000E+00
 0.3352936413022E-01 -0.1507211331629E+01  0.0000000000000E+00
 0.3421896282219E-01 -0.1438486279285E+01  0.0000000000000E+00
 0.3496021186087E-01 -0.1370696285886E+01  0.0000000000000E+00
 0.5500711422706E-01 -0.4229641835551E+01  0.0000000000000E+00
 0.5501422844776E-01 -0.4155239088874E+01  0.0000000000000E+00
 0.5502134268188E-01 -0.4080836201975E+01  0.0000000000000E+00
 0.5502845692218E-01 -0.4006433250401E+01  0.0000000000000E+00
 0.5503557115310E-01 -0.3932030396975E+01  0.0000000000000E+00
 0.5504268538268E-01 -0.3857627557509E+01  0.0000000000000E+00
 0.5504979961317E-01 -0.3783224708589E+01  0.0000000000000E+00
 0.5505691384472E-01 -0.3708821848442E+01  0.0000000000000E+00
 0.5506402807572E-01 -0.3634418994144E+01  0.0000000000000E+00
 0.5507114230682E-01 -0.3560016138826E+01  0.0000000000000E+00
 0.5507825655087E-01 -0.3485613148052E+01  0.0000000000000E+00
 0.5508537077267E-01 -0.3411210389926E+01  0.0000000000000E+00
 0.5509248501566E-01 -0.3336807410241E+01  0.0000000000000E+00
 0.5509959936354E-01 -0.3262403333645E+01  0.0000000000000E+00
 0.5510671347613E-01 -0.3188001717608E+01  0.0000000000000E+00
 0.5511382768746E-01 -0.3113599069026E+01  0.0000000000000E+00
 0.5512094191909E-01 -0.3039196208141E+01  0.0000000000000E+00
 0.5512805614690E-01 -0.2964793387197E+01  0.0000000000000E+00
 0.5513517036551E-01 -0.2890390662564E+01  0.0000000000000E+00
 0.5514636169210E-01 -0.2815987970336E+01  0.0000000000000E+00
 0.5518635074450E-01 -0.2741588783433E+01  0.0000000000000E+00
 0.5528197361253E-01 -0.2667209883609E+01  0.0000000000000E+00
 0.5544935427683E-01 -0.2592883059079E+01  0.0000000000000E+00
 0.5569481314320E-01 -0.2518646611647E+01  0.0000000000000E+00
 0.5601906380812E-01 -0.2444537259892E+01  0.0000000000000E+00
 0.5642065661860E-01 -0.2370587958162E+01  0.0000000000000E+00
 0.5689795199004E-01 -0.2296829824270E+01  0.0000000000000E+00
 0.5745014002266E-01 -0.2223294116531E+01  0.0000000000000E+00
 0.5807781133049E-01 -0.2150017076782E+01  0.0000000000000E+00
 0.5878343259305E-01 -0.2077043530024E+01  0.0000000000000E+00
 0.5956795348486E-01 -0.2004415006491E+01  0.0000000000000E+00
 0.6042653631398E-01 -0.1932145746248E+01  0.0000000000000E+00
 0.6135557354385E-01 -0.1860250676085E+01  0.0000000000000E+00
 0.6235333442590E-01 -0.1788751575835E+01  0.0000000000000E+00
 0.6341976232248E-01 -0.1717679179619E+01  0.0000000000000E+00
 0.6455647895921E-01 -0.1647076370906E+01  0.0000000000000E+00
 0.6576699223576E-01 -0.1577003618849E+01  0.0000000000000E+00
 0.6705722513951E-01 -0.1507545374830E+01  0.0000000000000E+00
 0.6843638290175E-01 -0.1438829112798E+01  0.0000000000000E+00
 0.6991884136106E-01 -0.1371047909622E+01  0.0000000000000E+00
 0.8251057285052E-01 -0.4229656484933E+01  0.0000000000000E+00
 0.8252114569160E-01 -0.4155268387626E+01  0.0000000000000E+00
 0.8253171855261E-01 -0.4080880150123E+01  0.0000000000000E+00
 0.8254229142281E-01 -0.4006491847959E+01  0.0000000000000E+00
 0.8255286427906E-01 -0.3932103643923E+01  0.0000000000000E+00
 0.8256343713333E-01 -0.3857715453844E+01  0.0000000000000E+00
 0.8257400998894E-01 -0.3783327254313E+01  0.0000000000000E+00
 0.8258458284615E-01 -0.3708939043558E+01  0.0000000000000E+00
 0.8259515570252E-01 -0.3634550838650E+01  0.0000000000000E+00
 0.8260572855905E-01 -0.3560162632723E+01  0.0000000000000E+00
 0.8261630143482E-01 -0.3485774291366E+01  0.0000000000000E+00
 0.8262687427753E-01 -0.3411386182611E+01  0.0000000000000E+00
 0.8263744715172E-01 -0.3336997852342E+01  0.0000000000000E+00
 0.8264802018179E-01 -0.3262608425376E+01  0.0000000000000E+00
 0.8265859286221E-01 -0.3188221458486E+01  0.0000000000000E+00
 0.8266916568935E-01 -0.3113833459254E+01  0.0000000000000E+00
 0.8267973854666E-01 -0.3039445247761E+01  0.0000000000000E+00
 0.8269031139830E-01 -0.2965057076200E+01  0.0000000000000E+00
 0.8270088423625E-01 -0.2890669000931E+01  0.0000000000000E+00
 0.8271757273595E-01 -0.2816280958071E+01  0.0000000000000E+00
 0.8277745782398E-01 -0.2741896420454E+01  0.0000000000000E+00
 0.8292079363485E-01 -0.2667532169771E+01  0.0000000000000E+00
 0.8317176613852E-01 -0.2593219994315E+01  0.0000000000000E+00
 0.8353985594311E-01 -0.2518998195939E+01  0.0000000000000E+00
 0.8402613344300E-01 -0.2444903493255E+01  0.0000000000000E+00
 0.8462842415848E-01 -0.2370968840632E+01  0.0000000000000E+00
 0.8534426871307E-01 -0.2297225355828E+01  0.0000000000000E+00
 0.8617245225646E-01 -0.2223704297211E+01  0.0000000000000E+00
 0.8711386071004E-01 -0.2150441906551E+01  0.0000000000000E+00
 0.8817219409272E-01 -0.2077483008847E+01  0.0000000000000E+00
 0.8934887691701E-01 -0.2004869134394E+01  0.0000000000000E+00
 0.9063665264527E-01 -0.1932614523261E+01  0.0000000000000E+00
 0.9203010997243E-01 -0.1860734102227E+01  0.0000000000000E+00
 0.9352665277546E-01 -0.1789249651109E+01  0.0000000000000E+00
 0.9512619609756E-01 -0.1718191904028E+01  0.0000000000000E+00
 0.9683117252744E-01 -0.1647603744444E+01  0.0000000000000E+00
 0.9864684391485E-01 -0.1577545641400E+01  0.0000000000000E+00
 0.1005820947408E+00 -0.1508102046472E+01  0.0000000000000E+00
 0.1026507328546E+00 -0.1439400433198E+01  0.0000000000000E+00
 0.1048743220166E+00 -0.1371633878628E+01  0.0000000000000E+00
 0.1100139134665E+00 -0.4229676990368E+01  0.0000000000000E+00
 0.1100278269205E+00 -0.4155309398477E+01  0.0000000000000E+00
 0.1100417404008E+00 -0.4080941666429E+01  0.0000000000000E+00
 0.1100556538932E+00 -0.4006573869738E+01  0.0000000000000E+00
 0.1100695673672E+00 -0.3932206171148E+01  0.0000000000000E+00
 0.1100834808386E+00 -0.3857838486511E+01  0.0000000000000E+00
 0.1100973943118E+00 -0.3783470792424E+01  0.0000000000000E+00
 0.1101113077871E+00 -0.3709103087117E+01  0.0000000000000E+00
 0.1101252212613E+00 -0.3634735387655E+01  0.0000000000000E+00
 0.1101391347357E+00 -0.3560367687174E+01  0.0000000000000E+00
 0.1101530482354E+00 -0.3485999851300E+01  0.0000000000000E+00
 0.1101669616916E+00 -0.3411632247966E+01  0.0000000000000E+00
 0.1101808751892E+00 -0.3337264423177E+01  0.0000000000000E+00
 0.1101947888920E+00 -0.3262895501994E+01  0.0000000000000E+00
 0.1102087021346E+00 -0.3188529040208E+01  0.0000000000000E+00
 0.1102226155703E+00 -0.3114161546366E+01  0.0000000000000E+00
 0.1102365290458E+00 -0.3039793840320E+01  0.0000000000000E+00
 0.1102504425137E+00 -0.2965426174197E+01  0.0000000000000E+00
 0.1102643559636E+00 -0.2891058604338E+01  0.0000000000000E+00
 0.1102864236291E+00 -0.2816691066893E+01  0.0000000000000E+00
 0.1103660867463E+00 -0.2742327034573E+01  0.0000000000000E+00
 0.1105570174950E+00 -0.2667983288988E+01  0.0000000000000E+00
 0.1108914638340E+00 -0.2593691618536E+01  0.0000000000000E+00
 0.1113820665735E+00 -0.2519490325139E+01  0.0000000000000E+00
 0.1120302529054E+00 -0.2445416127452E+01  0.0000000000000E+00
 0.1128331235231E+00 -0.2371501979881E+01  0.0000000000000E+00
 0.1137873992588E+00 -0.2297779000099E+01  0.0000000000000E+00
 0.1148914603110E+00 -0.2224278446553E+01  0.0000000000000E+00
 0.1161464879092E+00 -0.2151036560917E+01  0.0000000000000E+00
 0.1175574154117E+00 -0.2078098168188E+01  0.0000000000000E+00
 0.1191261421684E+00 -0.2005504798746E+01  0.0000000000000E+00
 0.1208429927959E+00 -0.1933270692668E+01  0.0000000000000E+00
 0.1227007522209E+00 -0.1861410776712E+01  0.0000000000000E+00
 0.1246959589458E+00 -0.1789946830680E+01  0.0000000000000E+00
 0.1268284996947E+00 -0.1718909588687E+01  0.0000000000000E+00
 0.1291016179195E+00 -0.1648341934183E+01  0.0000000000000E+00
 0.1315223294210E+00 -0.1578304336058E+01  0.0000000000000E+00
 0.1341024801722E+00 -0.1508881246156E+01  0.0000000000000E+00
 0.1368604806440E+00 -0.1440200137443E+01  0.0000000000000E+00
 0.1398250825170E+00 -0.1372454087222E+01  0.0000000000000E+00
 0.1375170968594E+00 -0.4229703348160E+01  0.0000000000000E+00
 0.1375341937036E+00 -0.4155362114038E+01  0.0000000000000E+00
 0.1375512905800E+00 -0.4081020739809E+01  0.0000000000000E+00
 0.1375683874712E+00 -0.4006679300958E+01  0.0000000000000E+00
 0.1375854843399E+00 -0.3932337960175E+01  0.0000000000000E+00
 0.1376025812054E+00 -0.3857996633339E+01  0.0000000000000E+00
 0.1376196780730E+00 -0.3783655297058E+01  0.0000000000000E+00
 0.1376367749433E+00 -0.3709313949559E+01  0.0000000000000E+00
 0.1376538718122E+00 -0.3634972607904E+01  0.0000000000000E+00
 0.1376709686813E+00 -0.3560631265231E+01  0.0000000000000E+00
 0.1376880655816E+00 -0.3486289787212E+01  0.0000000000000E+00
 0.1377051624283E+00 -0.3411948541650E+01  0.0000000000000E+00
 0.1377222593261E+00 -0.3337607074712E+01  0.0000000000000E+00
 0.1377393564758E+00 -0.3263264511770E+01  0.0000000000000E+00
 0.1377564530602E+00 -0.3188924407352E+01  0.0000000000000E+00
 0.1377735498818E+00 -0.3114583271243E+01  0.0000000000000E+00
 0.1377906467522E+00 -0.3040241923007E+01  0.0000000000000E+00
 0.1378077436134E+00 -0.2965900614679E+01  0.0000000000000E+00
 0.1378248404525E+00 -0.2891559402581E+01  0.0000000000000E+00
 0.1378521300609E+00 -0.2817218222902E+01  0.0000000000000E+00
 0.1379514139857E+00 -0.2742880548199E+01  0.0000000000000E+00
 0.1381897824530E+00 -0.2668563159972E+01  0.0000000000000E+00
 0.1386075454098E+00 -0.2594297846758E+01  0.0000000000000E+00
 0.1392205038678E+00 -0.2520122910568E+01  0.0000000000000E+00
 0.1400304418163E+00 -0.2446075070112E+01  0.0000000000000E+00
 0.1410337351215E+00 -0.2372187279840E+01  0.0000000000000E+00
 0.1422262848245E+00 -0.2298490657320E+01  0.0000000000000E+00
 0.1436060661727E+00 -0.2225016461099E+01  0.0000000000000E+00
 0.1451745557039E+00 -0.2151800932726E+01  0.0000000000000E+00
 0.1469379201159E+00 -0.2078888897200E+01  0.0000000000000E+00
 0.1488985335956E+00 -0.2006321885006E+01  0.0000000000000E+00
 0.1510443019137E+00 -0.1934114136231E+01  0.0000000000000E+00
 0.1533662062284E+00 -0.1862280577609E+01  0.0000000000000E+00
 0.1558599196680E+00 -0.1790842988921E+01  0.0000000000000E+00
 0.1585253006374E+00 -0.1719832104274E+01  0.0000000000000E+00
 0.1613664034520E+00 -0.1649290807107E+01  0.0000000000000E+00
 0.1643919978645E+00 -0.1579279566112E+01  0.0000000000000E+00
 0.1676168913382E+00 -0.1509882833477E+01  0.0000000000000E+00
 0.1710640969698E+00 -0.1441228081433E+01  0.0000000000000E+00
 0.1747695543587E+00 -0.1373508387609E+01  0.0000000000000E+00
 0.1650200839071E+00 -0.4229735553566E+01  0.0000000000000E+00
 0.1650401677963E+00 -0.4155426524821E+01  0.0000000000000E+00
 0.1650602517234E+00 -0.4081117356029E+01  0.0000000000000E+00
 0.1650803356679E+00 -0.4006808122644E+01  0.0000000000000E+00
 0.1651004195859E+00 -0.3932498987284E+01  0.0000000000000E+00
 0.1651205035002E+00 -0.3858189865866E+01  0.0000000000000E+00
 0.1651405874170E+00 -0.3783880735006E+01  0.0000000000000E+00
 0.1651606713369E+00 -0.3709571592933E+01  0.0000000000000E+00
 0.1651807552551E+00 -0.3635262456702E+01  0.0000000000000E+00
 0.1652008391737E+00 -0.3560953319452E+01  0.0000000000000E+00
 0.1652209231288E+00 -0.3486644046916E+01  0.0000000000000E+00
 0.1652410070211E+00 -0.3412335006736E+01  0.0000000000000E+00
 0.1652610909732E+00 -0.3338025745277E+01  0.0000000000000E+00
 0.1652811752214E+00 -0.3263715388287E+01  0.0000000000000E+00
 0.1653012588054E+00 -0.3189407488756E+01  0.0000000000000E+00
 0.1653213426681E+00 -0.3115098557982E+01  0.0000000000000E+00
 0.1653414265882E+00 -0.3040789415173E+01  0.0000000000000E+00
 0.1653615104974E+00 -0.2966480312253E+01  0.0000000000000E+00
 0.1653815943807E+00 -0.2892171305523E+01  0.0000000000000E+00
 0.1654139095870E+00 -0.2817862331218E+01  0.0000000000000E+00
 0.1655326179762E+00 -0.2743556861706E+01  0.0000000000000E+00
 0.1658182278219E+00 -0.2669271678356E+01  0.0000000000000E+00
 0.1663191110588E+00 -0.2595038569871E+01  0.0000000000000E+00
 0.1670542288993E+00 -0.2520895838369E+01  0.0000000000000E+00
 0.1680257221299E+00 -0.2446880202634E+01  0.0000000000000E+00
 0.1692292417891E+00 -0.2373024617165E+01  0.0000000000000E+00
 0.1706598691281E+00 -0.2299360199403E+01  0.0000000000000E+00
 0.1723151744417E+00 -0.2225918208017E+01  0.0000000000000E+00
 0.1741969295774E+00 -0.2152734884404E+01  0.0000000000000E+00
 0.1763125345726E+00 -0.2079855053562E+01  0.0000000000000E+00
 0.1786648384501E+00 -0.2007320246109E+01  0.0000000000000E+00
 0.1812393281348E+00 -0.1935144702143E+01  0.0000000000000E+00
 0.1840251810165E+00 -0.1863343348367E+01  0.0000000000000E+00
 0.1870172048494E+00 -0.1791937964537E+01  0.0000000000000E+00
 0.1902152297195E+00 -0.1720959284752E+01  0.0000000000000E+00
 0.1936241208052E+00 -0.1650450192432E+01  0.0000000000000E+00
 0.1972544018134E+00 -0.1580471156033E+01  0.0000000000000E+00
 0.2011238416948E+00 -0.1511106628163E+01  0.0000000000000E+00
 0.2052600561778E+00 -0.1442484080152E+01  0.0000000000000E+00
 0.2097061727783E+00 -0.1374796590029E+01  0.0000000000000E+00
 0.1925228353624E+00 -0.4229773600784E+01  0.0000000000000E+00
 0.1925456707045E+00 -0.4155502619222E+01  0.0000000000000E+00
 0.1925685060895E+00 -0.4081231497687E+01  0.0000000000000E+00
 0.1925913414945E+00 -0.4006960311591E+01  0.0000000000000E+00
 0.1926141768693E+00 -0.3932689223469E+01  0.0000000000000E+00
 0.1926370122398E+00 -0.3858418149282E+01  0.0000000000000E+00
 0.1926598476132E+00 -0.3784147065658E+01  0.0000000000000E+00
 0.1926826829901E+00 -0.3709875970828E+01  0.0000000000000E+00
 0.1927055183652E+00 -0.3635604881835E+01  0.0000000000000E+00
 0.1927283537406E+00 -0.3561333791825E+01  0.0000000000000E+00
 0.1927511891575E+00 -0.3487062566598E+01  0.0000000000000E+00
 0.1927740245031E+00 -0.3412791573608E+01  0.0000000000000E+00
 0.1927968599166E+00 -0.3338520359451E+01  0.0000000000000E+00
 0.1928196956668E+00 -0.3264248050325E+01  0.0000000000000E+00
 0.1928425306619E+00 -0.3189978197401E+01  0.0000000000000E+00
 0.1928653659738E+00 -0.3115707313761E+01  0.0000000000000E+00
 0.1928882013509E+00 -0.3041436218193E+01  0.0000000000000E+00
 0.1929110367158E+00 -0.2967165162496E+01  0.0000000000000E+00
 0.1929338720510E+00 -0.2892894202938E+01  0.0000000000000E+00
 0.1929709772629E+00 -0.2818623275814E+01  0.0000000000000E+00
 0.1931088745236E+00 -0.2744355853266E+01  0.0000000000000E+00
 0.1934414901538E+00 -0.2670108716509E+01  0.0000000000000E+00
 0.1940252580734E+00 -0.2595913654441E+01  0.0000000000000E+00
 0.1948822996948E+00 -0.2521808969312E+01  0.0000000000000E+00
 0.1960151126007E+00 -0.2447831379984E+01  0.0000000000000E+00
 0.1974186230017E+00 -0.2374013841021E+01  0.0000000000000E+00
 0.1990870923602E+00 -0.2300387469712E+01  0.0000000000000E+00
 0.2010176860176E+00 -0.2226983524869E+01  0.0000000000000E+00
 0.2032124711323E+00 -0.2153838247711E+01  0.0000000000000E+00
 0.2056800810808E+00 -0.2080996463236E+01  0.0000000000000E+00
 0.2084238397212E+00 -0.2008499702214E+01  0.0000000000000E+00
 0.2114268151323E+00 -0.1936362204762E+01  0.0000000000000E+00
 0.2146763809363E+00 -0.1864598897542E+01  0.0000000000000E+00
 0.2181664795136E+00 -0.1793231560282E+01  0.0000000000000E+00
 0.2218969126310E+00 -0.1722290927072E+01  0.0000000000000E+00
 0.2258733563306E+00 -0.1651819881312E+01  0.0000000000000E+00
 0.2301080882744E+00 -0.1581878891174E+01  0.0000000000000E+00
 0.2346218388973E+00 -0.1512552409764E+01  0.0000000000000E+00
 0.2394468265655E+00 -0.1443967907350E+01  0.0000000000000E+00
 0.2446333667075E+00 -0.1376318462430E+01  0.0000000000000E+00
 0.2200253125104E+00 -0.4229817482990E+01  0.0000000000000E+00
 0.2200506249983E+00 -0.4155590383597E+01  0.0000000000000E+00
 0.2200759375338E+00 -0.4081363144312E+01  0.0000000000000E+00
 0.2201012500914E+00 -0.4007135840505E+01  0.0000000000000E+00
 0.2201265626155E+00 -0.3932908634614E+01  0.0000000000000E+00
 0.2201518751349E+00 -0.3858681442649E+01  0.0000000000000E+00
 0.2201771876576E+00 -0.3784454241253E+01  0.0000000000000E+00
 0.2202025001840E+00 -0.3710227028657E+01  0.0000000000000E+00
 0.2202278127085E+00 -0.3635999821897E+01  0.0000000000000E+00
 0.2202531252333E+00 -0.3561772614118E+01  0.0000000000000E+00
 0.2202784378042E+00 -0.3487545271203E+01  0.0000000000000E+00
 0.2203037502959E+00 -0.3413318160387E+01  0.0000000000000E+00
 0.2203290628630E+00 -0.3339090828536E+01  0.0000000000000E+00
 0.2203543758033E+00 -0.3264862402362E+01  0.0000000000000E+00
 0.2203796879065E+00 -0.3190636430938E+01  0.0000000000000E+00
 0.2204050003610E+00 -0.3116409429408E+01  0.0000000000000E+00
 0.2204303128877E+00 -0.3042182216076E+01  0.0000000000000E+00
 0.2204556254008E+00 -0.2967955042590E+01  0.0000000000000E+00
 0.2204809378811E+00 -0.2893727965187E+01  0.0000000000000E+00
 0.2205225587916E+00 -0.2819500920227E+01  0.0000000000000E+00
 0.2206793706184E+00 -0.2745277379593E+01  0.0000000000000E+00
 0.2210587177307E+00 -0.2671074124321E+01  0.0000000000000E+00
 0.2217250960322E+00 -0.2596922943538E+01  0.0000000000000E+00
 0.2227037871342E+00 -0.2522862139640E+01  0.0000000000000E+00
 0.2239976454152E+00 -0.2448928431584E+01  0.0000000000000E+00
 0.2256008722577E+00 -0.2375154774008E+01  0.0000000000000E+00
 0.2275069093357E+00 -0.2301572284024E+01  0.0000000000000E+00
 0.2297125170368E+00 -0.2228212220609E+01  0.0000000000000E+00
 0.2322200578312E+00 -0.2155110824777E+01  0.0000000000000E+00
 0.2350393984347E+00 -0.2082312921528E+01  0.0000000000000E+00
 0.2381743375395E+00 -0.2009860041806E+01  0.0000000000000E+00
 0.2416055243783E+00 -0.1937766425747E+01  0.0000000000000E+00
 0.2453185288059E+00 -0.1866046999972E+01  0.0000000000000E+00
 0.2493064278290E+00 -0.1794723544173E+01  0.0000000000000E+00
 0.2535689948955E+00 -0.1723826792427E+01  0.0000000000000E+00
 0.2581127169110E+00 -0.1653399628115E+01  0.0000000000000E+00
 0.2629516254948E+00 -0.1583502519080E+01  0.0000000000000E+00
 0.2681094125627E+00 -0.1514219919004E+01  0.0000000000000E+00
 0.2736228991260E+00 -0.1445679296927E+01  0.0000000000000E+00
 0.2795495885227E+00 -0.1378073731891E+01  0.0000000000000E+00
 0.2475274766539E+00 -0.4229867192326E+01  0.0000000000000E+00
 0.2475549532832E+00 -0.4155689802224E+01  0.0000000000000E+00
 0.2475824299644E+00 -0.4081512272324E+01  0.0000000000000E+00
 0.2476099066694E+00 -0.4007334677945E+01  0.0000000000000E+00
 0.2476373833382E+00 -0.3933157181417E+01  0.0000000000000E+00
 0.2476648600018E+00 -0.3858979698806E+01  0.0000000000000E+00
 0.2476923366689E+00 -0.3784802206770E+01  0.0000000000000E+00
 0.2477198133402E+00 -0.3710624703541E+01  0.0000000000000E+00
 0.2477472900093E+00 -0.3636447206144E+01  0.0000000000000E+00
 0.2477747666787E+00 -0.3562269707729E+01  0.0000000000000E+00
 0.2478022433982E+00 -0.3488092074268E+01  0.0000000000000E+00
 0.2478297200318E+00 -0.3413914672752E+01  0.0000000000000E+00
 0.2478571967472E+00 -0.3339737050347E+01  0.0000000000000E+00
 0.2478846738677E+00 -0.3265558334353E+01  0.0000000000000E+00
 0.2479121500795E+00 -0.3191382071466E+01  0.0000000000000E+00
 0.2479396266726E+00 -0.3117204779162E+01  0.0000000000000E+00
 0.2479671033442E+00 -0.3043027275197E+01  0.0000000000000E+00
 0.2479945800010E+00 -0.2968849811053E+01  0.0000000000000E+00
 0.2480220566222E+00 -0.2894672442926E+01  0.0000000000000E+00
 0.2480678802269E+00 -0.2820495107254E+01  0.0000000000000E+00
 0.2482432936180E+00 -0.2746321275624E+01  0.0000000000000E+00
 0.2486690592144E+00 -0.2672167728870E+01  0.0000000000000E+00
 0.2494177349024E+00 -0.2598066256378E+01  0.0000000000000E+00
 0.2505177624914E+00 -0.2524055160710E+01  0.0000000000000E+00
 0.2519723531549E+00 -0.2450171160932E+01  0.0000000000000E+00
 0.2537749834465E+00 -0.2376447211761E+01  0.0000000000000E+00
 0.2559182752537E+00 -0.2302914430113E+01  0.0000000000000E+00
 0.2583985840084E+00 -0.2229604075153E+01  0.0000000000000E+00
 0.2612185674944E+00 -0.2156552387660E+01  0.0000000000000E+00
 0.2643893257669E+00 -0.2083804192633E+01  0.0000000000000E+00
 0.2679151323508E+00 -0.2011401021221E+01  0.0000000000000E+00
 0.2717742176326E+00 -0.1939357113576E+01  0.0000000000000E+00
 0.2759503476999E+00 -0.1867687396273E+01  0.0000000000000E+00
 0.2804357341858E+00 -0.1796413648963E+01  0.0000000000000E+00
 0.2852301222195E+00 -0.1725566605714E+01  0.0000000000000E+00
 0.2903408095704E+00 -0.1655189149877E+01  0.0000000000000E+00
 0.2957835818175E+00 -0.1585341748928E+01  0.0000000000000E+00
 0.3015850923532E+00 -0.1516108857198E+01  0.0000000000000E+00
 0.3077867648430E+00 -0.1447617942338E+01  0.0000000000000E+00
 0.3144532905308E+00 -0.1380062084006E+01  0.0000000000000E+00
 0.2750292892693E+00 -0.4229922719906E+01  0.0000000000000E+00
 0.2750585785124E+00 -0.4155800857335E+01  0.0000000000000E+00
 0.2750878678108E+00 -0.4081678855069E+01  0.0000000000000E+00
 0.2751171571346E+00 -0.4007556788374E+01  0.0000000000000E+00
 0.2751464464198E+00 -0.3933434819456E+01  0.0000000000000E+00
 0.2751757356995E+00 -0.3859312864444E+01  0.0000000000000E+00
 0.2752050249829E+00 -0.3785190900015E+01  0.0000000000000E+00
 0.2752343142707E+00 -0.3711068924401E+01  0.0000000000000E+00
 0.2752636035562E+00 -0.3636946954615E+01  0.0000000000000E+00
 0.2752928928421E+00 -0.3562824983812E+01  0.0000000000000E+00
 0.2753221821814E+00 -0.3488702878064E+01  0.0000000000000E+00
 0.2753514714290E+00 -0.3414581004086E+01  0.0000000000000E+00
 0.2753807607639E+00 -0.3340458909386E+01  0.0000000000000E+00
 0.2754100505306E+00 -0.3266335721915E+01  0.0000000000000E+00
 0.2754393393287E+00 -0.3192214985714E+01  0.0000000000000E+00
 0.2754686285332E+00 -0.3118093220867E+01  0.0000000000000E+00
 0.2754979178213E+00 -0.3043971244518E+01  0.0000000000000E+00
 0.2755272070937E+00 -0.2969849307959E+01  0.0000000000000E+00
 0.2755564963282E+00 -0.2895727467347E+01  0.0000000000000E+00
 0.2756061710997E+00 -0.2821605659200E+01  0.0000000000000E+00
 0.2757998345302E+00 -0.2747487354780E+01  0.0000000000000E+00
 0.2762716670907E+00 -0.2673389334693E+01  0.0000000000000E+00
 0.2771022886488E+00 -0.2599343388614E+01  0.0000000000000E+00
 0.2783233012108E+00 -0.2525387819291E+01  0.0000000000000E+00
 0.2799382727445E+00 -0.2451559345910E+01  0.0000000000000E+00
 0.2819399549741E+00 -0.2377890923281E+01  0.0000000000000E+00
 0.2843201500017E+00 -0.2304413668096E+01  0.0000000000000E+00
 0.2870748083025E+00 -0.2231158839731E+01  0.0000000000000E+00
 0.2902068829753E+00 -0.2158162678704E+01  0.0000000000000E+00
 0.2937287074149E+00 -0.2085470010015E+01  0.0000000000000E+00
 0.2976450299774E+00 -0.2013122365035E+01  0.0000000000000E+00
 0.3019316622029E+00 -0.1941133983942E+01  0.0000000000000E+00
 0.3065705664120E+00 -0.1869519793253E+01  0.0000000000000E+00
 0.3115530888646E+00 -0.1798301572579E+01  0.0000000000000E+00
 0.3168789463712E+00 -0.1727510055970E+01  0.0000000000000E+00
 0.3225562475650E+00 -0.1657188126752E+01  0.0000000000000E+00
 0.3286025319875E+00 -0.1587396251987E+01  0.0000000000000E+00
 0.3350474145034E+00 -0.1518218886732E+01  0.0000000000000E+00
 0.3419369214426E+00 -0.1449783497085E+01  0.0000000000000E+00
 0.3493429319505E+00 -0.1382283163393E+01  0.0000000000000E+00
 0.3025307120396E+00 -0.4229984055830E+01  0.0000000000000E+00
 0.3025614240518E+00 -0.4155923529129E+01  0.0000000000000E+00
 0.3025921361219E+00 -0.4081862862849E+01  0.0000000000000E+00
 0.3026228482187E+00 -0.4007802132191E+01  0.0000000000000E+00
 0.3026535602750E+00 -0.3933741499231E+01  0.0000000000000E+00
 0.3026842723255E+00 -0.3859680880166E+01  0.0000000000000E+00
 0.3027149843799E+00 -0.3785620251690E+01  0.0000000000000E+00
 0.3027456964389E+00 -0.3711559612040E+01  0.0000000000000E+00
 0.3027764084955E+00 -0.3637498978211E+01  0.0000000000000E+00
 0.3028071205526E+00 -0.3563438343367E+01  0.0000000000000E+00
 0.3028378326656E+00 -0.3489377573690E+01  0.0000000000000E+00
 0.3028685446825E+00 -0.3415317035591E+01  0.0000000000000E+00
 0.3028992567909E+00 -0.3341256276953E+01  0.0000000000000E+00
 0.3029299693521E+00 -0.3267194426448E+01  0.0000000000000E+00
 0.3029606808976E+00 -0.3193135025185E+01  0.0000000000000E+00
 0.3029913928693E+00 -0.3119074596126E+01  0.0000000000000E+00
 0.3030221049286E+00 -0.3045013955741E+01  0.0000000000000E+00
 0.3030528169715E+00 -0.2970953355113E+01  0.0000000000000E+00
 0.3030835289746E+00 -0.2896892850352E+01  0.0000000000000E+00
 0.3031366650683E+00 -0.2822832378069E+01  0.0000000000000E+00
 0.3033481886970E+00 -0.2748775409164E+01  0.0000000000000E+00
 0.3038656983863E+00 -0.2674738723994E+01  0.0000000000000E+00
 0.3047778759835E+00 -0.2600754112549E+01  0.0000000000000E+00
 0.3061194836908E+00 -0.2526859877786E+01  0.0000000000000E+00
 0.3078944462696E+00 -0.2453092739024E+01  0.0000000000000E+00
 0.3100947906140E+00 -0.2379485651171E+01  0.0000000000000E+00
 0.3127114990421E+00 -0.2306069730678E+01  0.0000000000000E+00
 0.3157401170710E+00 -0.2232876237149E+01  0.0000000000000E+00
 0.3191838931162E+00 -0.2159941410816E+01  0.0000000000000E+00
 0.3230563939122E+00 -0.2087310076679E+01  0.0000000000000E+00
 0.3273628426451E+00 -0.2015023766356E+01  0.0000000000000E+00
 0.3320766320079E+00 -0.1943096720051E+01  0.0000000000000E+00
 0.3371779205545E+00 -0.1871543864221E+01  0.0000000000000E+00
 0.3426571891719E+00 -0.1800386978427E+01  0.0000000000000E+00
 0.3485141263518E+00 -0.1729656796705E+01  0.0000000000000E+00
 0.3547576515920E+00 -0.1659396202350E+01  0.0000000000000E+00
 0.3614070583991E+00 -0.1589665661967E+01  0.0000000000000E+00
 0.3684949231053E+00 -0.1520549631415E+01  0.0000000000000E+00
 0.3760718747160E+00 -0.1452175575078E+01  0.0000000000000E+00
 0.3842169802741E+00 -0.1384736574064E+01  0.0000000000000E+00
 0.3300317066083E+00 -0.4230051189169E+01  0.0000000000000E+00
 0.3300634131883E+00 -0.4156057795746E+01  0.0000000000000E+00
 0.3300951198281E+00 -0.4082064262871E+01  0.0000000000000E+00
 0.3301268264954E+00 -0.4008070665678E+01  0.0000000000000E+00
 0.3301585331209E+00 -0.3934077166092E+01  0.0000000000000E+00
 0.3301902397405E+00 -0.3860083680390E+01  0.0000000000000E+00
 0.3302219463641E+00 -0.3786090185285E+01  0.0000000000000E+00
 0.3302536529925E+00 -0.3712096679016E+01  0.0000000000000E+00
 0.3302853596183E+00 -0.3638103178563E+01  0.0000000000000E+00
 0.3303170662447E+00 -0.3564109677096E+01  0.0000000000000E+00
 0.3303487729287E+00 -0.3490116040918E+01  0.0000000000000E+00
 0.3303804795136E+00 -0.3416122636108E+01  0.0000000000000E+00
 0.3304121861929E+00 -0.3342129010959E+01  0.0000000000000E+00
 0.3304438933397E+00 -0.3268134294932E+01  0.0000000000000E+00
 0.3304755994379E+00 -0.3194142025928E+01  0.0000000000000E+00
 0.3305073059761E+00 -0.3120148730060E+01  0.0000000000000E+00
 0.3305390126048E+00 -0.3046155223056E+01  0.0000000000000E+00
 0.3305707192164E+00 -0.2972161755774E+01  0.0000000000000E+00
 0.3306024257871E+00 -0.2898168384272E+01  0.0000000000000E+00
 0.3306585950016E+00 -0.2824175045263E+01  0.0000000000000E+00
 0.3308875506280E+00 -0.2750185209249E+01  0.0000000000000E+00
 0.3314503092469E+00 -0.2676215656314E+01  0.0000000000000E+00
 0.3324436146825E+00 -0.2602298176796E+01  0.0000000000000E+00
 0.3339053893309E+00 -0.2528471073879E+01  0.0000000000000E+00
 0.3358399147463E+00 -0.2454771067025E+01  0.0000000000000E+00
 0.3382384929918E+00 -0.2381231111256E+01  0.0000000000000E+00
 0.3410912866036E+00 -0.2307882322751E+01  0.0000000000000E+00
 0.3443934361388E+00 -0.2234755961370E+01  0.0000000000000E+00
 0.3481484853320E+00 -0.2161888267029E+01  0.0000000000000E+00
 0.3523712342570E+00 -0.2089324064728E+01  0.0000000000000E+00
 0.3570673809279E+00 -0.2017104886358E+01  0.0000000000000E+00
 0.3622078991912E+00 -0.1945244972146E+01  0.0000000000000E+00
 0.3677711438344E+00 -0.1873759248489E+01  0.0000000000000E+00
 0.3737467303719E+00 -0.1802669494891E+01  0.0000000000000E+00
 0.3801343189772E+00 -0.1732006445373E+01  0.0000000000000E+00
 0.3869436400121E+00 -0.1661812983195E+01  0.0000000000000E+00
 0.3941957409519E+00 -0.1592149574463E+01  0.0000000000000E+00
 0.4019261595902E+00 -0.1523100675912E+01  0.0000000000000E+00
 0.4101901276194E+00 -0.1454793750053E+01  0.0000000000000E+00
 0.4190738999739E+00 -0.1387421878824E+01  0.0000000000000E+00
 0.3575322350942E+00 -0.4230124108012E+01  0.0000000000000E+00
 0.3575644701596E+00 -0.4156203633367E+01  0.0000000000000E+00
 0.3575967052858E+00 -0.4082283019407E+01  0.0000000000000E+00
 0.3576289404400E+00 -0.4008362341192E+01  0.0000000000000E+00
 0.3576611755516E+00 -0.3934441760489E+01  0.0000000000000E+00
 0.3576934106573E+00 -0.3860521193655E+01  0.0000000000000E+00
 0.3577256457670E+00 -0.3786600617428E+01  0.0000000000000E+00
 0.3577578808816E+00 -0.3712680030048E+01  0.0000000000000E+00
 0.3577901159936E+00 -0.3638759448479E+01  0.0000000000000E+00
 0.3578223511061E+00 -0.3564838865896E+01  0.0000000000000E+00
 0.3578545862773E+00 -0.3490918148735E+01  0.0000000000000E+00
 0.3578868213477E+00 -0.3416997662714E+01  0.0000000000000E+00
 0.3579190565140E+00 -0.3343076956571E+01  0.0000000000000E+00
 0.3579512921557E+00 -0.3269155160625E+01  0.0000000000000E+00
 0.3579835267312E+00 -0.3195235809291E+01  0.0000000000000E+00
 0.3580157617542E+00 -0.3121315432104E+01  0.0000000000000E+00
 0.3580479968691E+00 -0.3047394843990E+01  0.0000000000000E+00
 0.3580802319667E+00 -0.2973474295559E+01  0.0000000000000E+00
 0.3581124670225E+00 -0.2899553842813E+01  0.0000000000000E+00
 0.3581712032753E+00 -0.2825633422575E+01  0.0000000000000E+00
 0.3584171248179E+00 -0.2751716504917E+01  0.0000000000000E+00
 0.3590246662867E+00 -0.2677819869626E+01  0.0000000000000E+00
 0.3600986334791E+00 -0.2603975307419E+01  0.0000000000000E+00
 0.3616801089837E+00 -0.2530221121722E+01  0.0000000000000E+00
 0.3637737311460E+00 -0.2456594032159E+01  0.0000000000000E+00
 0.3663700771977E+00 -0.2383126993868E+01  0.0000000000000E+00
 0.3694584898948E+00 -0.2309851122740E+01  0.0000000000000E+00
 0.3730337048331E+00 -0.2236797678909E+01  0.0000000000000E+00
 0.3770995610680E+00 -0.2164002901948E+01  0.0000000000000E+00
 0.3816720920128E+00 -0.2091511616858E+01  0.0000000000000E+00
 0.3867574705075E+00 -0.2019365355824E+01  0.0000000000000E+00
 0.3923242515520E+00 -0.1947578359104E+01  0.0000000000000E+00
 0.3983489861684E+00 -0.1876165553022E+01  0.0000000000000E+00
 0.4048204244990E+00 -0.1805148717026E+01  0.0000000000000E+00
 0.4117381983987E+00 -0.1734558585119E+01  0.0000000000000E+00
 0.4191128490940E+00 -0.1664438040521E+01  0.0000000000000E+00
 0.4269671780319E+00 -0.1594847548798E+01  0.0000000000000E+00
 0.4353396844610E+00 -0.1525871567639E+01  0.0000000000000E+00
 0.4442902027733E+00 -0.1457637557515E+01  0.0000000000000E+00
 0.4539121757881E+00 -0.1390338601268E+01  0.0000000000000E+00
 0.3850322601332E+00 -0.4230202799491E+01  0.0000000000000E+00
 0.3850645202376E+00 -0.4156361016254E+01  0.0000000000000E+00
 0.3850967804028E+00 -0.4082519093852E+01  0.0000000000000E+00
 0.3851290405960E+00 -0.4008677107263E+01  0.0000000000000E+00
 0.3851613007467E+00 -0.3934835218081E+01  0.0000000000000E+00
 0.3851935608914E+00 -0.3860993342754E+01  0.0000000000000E+00
 0.3852258210401E+00 -0.3787151458044E+01  0.0000000000000E+00
 0.3852580811937E+00 -0.3713309562193E+01  0.0000000000000E+00
 0.3852903413448E+00 -0.3639467672146E+01  0.0000000000000E+00
 0.3853226014963E+00 -0.3565625781087E+01  0.0000000000000E+00
 0.3853548617065E+00 -0.3491783755593E+01  0.0000000000000E+00
 0.3853871218159E+00 -0.3417941960993E+01  0.0000000000000E+00
 0.3854193820213E+00 -0.3344099946505E+01  0.0000000000000E+00
 0.3854516427024E+00 -0.3270256843375E+01  0.0000000000000E+00
 0.3854839023165E+00 -0.3196416182253E+01  0.0000000000000E+00
 0.3855161623784E+00 -0.3122574496372E+01  0.0000000000000E+00
 0.3855484225323E+00 -0.3048732599788E+01  0.0000000000000E+00
 0.3855806826689E+00 -0.2974890742843E+01  0.0000000000000E+00
 0.3856129427638E+00 -0.2901048981483E+01  0.0000000000000E+00
 0.3856737426085E+00 -0.2827207252647E+01  0.0000000000000E+00
 0.3859361266252E+00 -0.2753369025944E+01  0.0000000000000E+00
 0.3865879475086E+00 -0.2679551080838E+01  0.0000000000000E+00
 0.3877420730279E+00 -0.2605785208455E+01  0.0000000000000E+00
 0.3894427459622E+00 -0.2532109712488E+01  0.0000000000000E+00
 0.3916949614475E+00 -0.2458561312728E+01  0.0000000000000E+00
 0.3944885718833E+00 -0.2385172964444E+01  0.0000000000000E+00
 0.3978121002474E+00 -0.2311975783213E+01  0.0000000000000E+00
 0.4016598771719E+00 -0.2239001029465E+01  0.0000000000000E+00
 0.4060360370360E+00 -0.2166284942405E+01  0.0000000000000E+00
 0.4109578465920E+00 -0.2093872347033E+01  0.0000000000000E+00
 0.4164319535044E+00 -0.2021804775852E+01  0.0000000000000E+00
 0.4224244939258E+00 -0.1950096469153E+01  0.0000000000000E+00
 0.4289102151131E+00 -0.1878762353182E+01  0.0000000000000E+00
 0.4358770018369E+00 -0.1807824207326E+01  0.0000000000000E+00
 0.4433244576339E+00 -0.1737312765568E+01  0.0000000000000E+00
 0.4512639345954E+00 -0.1667270911087E+01  0.0000000000000E+00
 0.4597199881440E+00 -0.1597759108864E+01  0.0000000000000E+00
 0.4687340789769E+00 -0.1528861817618E+01  0.0000000000000E+00
 0.4783706442004E+00 -0.1460706495619E+01  0.0000000000000E+00
 0.4887303145127E+00 -0.1393486226685E+01  0.0000000000000E+00
 0.4125317444436E+00 -0.4230287249750E+01  0.0000000000000E+00
 0.4125634888589E+00 -0.4156529916697E+01  0.0000000000000E+00
 0.4125952333340E+00 -0.4082772444637E+01  0.0000000000000E+00
 0.4126269778367E+00 -0.4009014908464E+01  0.0000000000000E+00
 0.4126587222975E+00 -0.3935257469588E+01  0.0000000000000E+00
 0.4126904667524E+00 -0.3861500044550E+01  0.0000000000000E+00
 0.4127222112113E+00 -0.3787742610140E+01  0.0000000000000E+00
 0.4127539556750E+00 -0.3713985164601E+01  0.0000000000000E+00
 0.4127857001362E+00 -0.3640227724860E+01  0.0000000000000E+00
 0.4128174445979E+00 -0.3566470284108E+01  0.0000000000000E+00
 0.4128491891173E+00 -0.3492712709074E+01  0.0000000000000E+00
 0.4128809335375E+00 -0.3418955364671E+01  0.0000000000000E+00
 0.4129126780522E+00 -0.3345197800631E+01  0.0000000000000E+00
 0.4129444230349E+00 -0.3271439149195E+01  0.0000000000000E+00
 0.4129761669678E+00 -0.3197682936973E+01  0.0000000000000E+00
 0.4130079113412E+00 -0.3123925701164E+01  0.0000000000000E+00
 0.4130396558052E+00 -0.3050168254893E+01  0.0000000000000E+00
 0.4130714002522E+00 -0.2976410848217E+01  0.0000000000000E+00
 0.4131031446580E+00 -0.2902653537015E+01  0.0000000000000E+00
 0.4131654673669E+00 -0.2828896258356E+01  0.0000000000000E+00
 0.4134437731345E+00 -0.2755142481348E+01  0.0000000000000E+00
 0.4141393327177E+00 -0.2681408985113E+01  0.0000000000000E+00
 0.4153730758553E+00 -0.2607727561214E+01  0.0000000000000E+00
 0.4171924055158E+00 -0.2534136513627E+01  0.0000000000000E+00
 0.4196026736245E+00 -0.2460672562328E+01  0.0000000000000E+00
 0.4225930077475E+00 -0.2387368662724E+01  0.0000000000000E+00
 0.4261511110864E+00 -0.2314255930053E+01  0.0000000000000E+00
 0.4302709093080E+00 -0.2241365625067E+01  0.0000000000000E+00
 0.4349568321173E+00 -0.2168733986572E+01  0.0000000000000E+00
 0.4402273796064E+00 -0.2096405839569E+01  0.0000000000000E+00
 0.4460896742614E+00 -0.2024422716902E+01  0.0000000000000E+00
 0.4525074333876E+00 -0.1952798858897E+01  0.0000000000000E+00
 0.4594536004770E+00 -0.1881549191718E+01  0.0000000000000E+00
 0.4669151949288E+00 -0.1810695494684E+01  0.0000000000000E+00
 0.4748917919615E+00 -0.1740268501757E+01  0.0000000000000E+00
 0.4833955545316E+00 -0.1670311096074E+01  0.0000000000000E+00
 0.4924527920416E+00 -0.1600883741987E+01  0.0000000000000E+00
 0.5021079266308E+00 -0.1532070899318E+01  0.0000000000000E+00
 0.5124299981347E+00 -0.1464000023979E+01  0.0000000000000E+00
 0.5235268251251E+00 -0.1396864200833E+01  0.0000000000000E+00
 0.4400306510556E+00 -0.4230377443976E+01  0.0000000000000E+00
 0.4400613020839E+00 -0.4156710305068E+01  0.0000000000000E+00
 0.4400919531699E+00 -0.4083043027324E+01  0.0000000000000E+00
 0.4401226042826E+00 -0.4009375685544E+01  0.0000000000000E+00
 0.4401532553548E+00 -0.3935708440943E+01  0.0000000000000E+00
 0.4401839064213E+00 -0.3862041210162E+01  0.0000000000000E+00
 0.4402145574917E+00 -0.3788373970022E+01  0.0000000000000E+00
 0.4402452085667E+00 -0.3714706718766E+01  0.0000000000000E+00
 0.4402758596393E+00 -0.3641039473300E+01  0.0000000000000E+00
 0.4403065107123E+00 -0.3567372226825E+01  0.0000000000000E+00
 0.4403371618411E+00 -0.3493704846233E+01  0.0000000000000E+00
 0.4403678128741E+00 -0.3420037695989E+01  0.0000000000000E+00
 0.4403984639983E+00 -0.3346370326377E+01  0.0000000000000E+00
 0.4404291155744E+00 -0.3272701870698E+01  0.0000000000000E+00
 0.4404597661369E+00 -0.3199035851251E+01  0.0000000000000E+00
 0.4404904171248E+00 -0.3125368809468E+01  0.0000000000000E+00
 0.4405210682001E+00 -0.3051701557481E+01  0.0000000000000E+00
 0.4405517192589E+00 -0.2978034345040E+01  0.0000000000000E+00
 0.4405823702781E+00 -0.2904367227957E+01  0.0000000000000E+00
 0.4406456381536E+00 -0.2830700143436E+01  0.0000000000000E+00
 0.4409392879798E+00 -0.2757036560052E+01  0.0000000000000E+00
 0.4416780085804E+00 -0.2683393256561E+01  0.0000000000000E+00
 0.4429907916617E+00 -0.2609802024991E+01  0.0000000000000E+00
 0.4449282003801E+00 -0.2536301169624E+01  0.0000000000000E+00
 0.4474959434490E+00 -0.2462927410630E+01  0.0000000000000E+00
 0.4506824236002E+00 -0.2389713703565E+01  0.0000000000000E+00
 0.4544745242614E+00 -0.2316691163306E+01  0.0000000000000E+00
 0.4588657661314E+00 -0.2243891050946E+01  0.0000000000000E+00
 0.4638608742442E+00 -0.2171349604868E+01  0.0000000000000E+00
 0.4694795820315E+00 -0.2099111650073E+01  0.0000000000000E+00
 0.4757294867991E+00 -0.2027218719768E+01  0.0000000000000E+00
 0.4825718870042E+00 -0.1955685054318E+01  0.0000000000000E+00
 0.4899779223743E+00 -0.1884525579796E+01  0.0000000000000E+00
 0.4979337469374E+00 -0.1813762075454E+01  0.0000000000000E+00
 0.5064389075941E+00 -0.1743425275228E+01  0.0000000000000E+00
 0.5155063781664E+00 -0.1673558062210E+01  0.0000000000000E+00
 0.5251642220414E+00 -0.1604220900080E+01  0.0000000000000E+00
 0.5354598227929E+00 -0.1535498249841E+01  0.0000000000000E+00
 0.5464668230032E+00 -0.1467517564884E+01  0.0000000000000E+00
 0.5583002291111E+00 -0.1400471931189E+01  0.0000000000000E+00
 0.4675289425592E+00 -0.4230473366311E+01  0.0000000000000E+00
 0.4675578850925E+00 -0.4156902149654E+01  0.0000000000000E+00
 0.4675868276804E+00 -0.4083330794340E+01  0.0000000000000E+00
 0.4676157702935E+00 -0.4009759375075E+01  0.0000000000000E+00
 0.4676447128684E+00 -0.3936188052861E+01  0.0000000000000E+00
 0.4676736554378E+00 -0.3862616744450E+01  0.0000000000000E+00
 0.4677025980109E+00 -0.3789045426691E+01  0.0000000000000E+00
 0.4677315405884E+00 -0.3715474097832E+01  0.0000000000000E+00
 0.4677604831636E+00 -0.3641902774755E+01  0.0000000000000E+00
 0.4677894257392E+00 -0.3568331450670E+01  0.0000000000000E+00
 0.4678183683676E+00 -0.3494759992643E+01  0.0000000000000E+00
 0.4678473109054E+00 -0.3421188764663E+01  0.0000000000000E+00
 0.4678762535293E+00 -0.3347617317602E+01  0.0000000000000E+00
 0.4679051965800E+00 -0.3274044785887E+01  0.0000000000000E+00
 0.4679341386736E+00 -0.3200474687233E+01  0.0000000000000E+00
 0.4679630811688E+00 -0.3126903567574E+01  0.0000000000000E+00
 0.4679920237465E+00 -0.3053332237984E+01  0.0000000000000E+00
 0.4680209663088E+00 -0.2979760947889E+01  0.0000000000000E+00
 0.4680499088336E+00 -0.2906189753027E+01  0.0000000000000E+00
 0.4681135067670E+00 -0.2832618590747E+01  0.0000000000000E+00
 0.4684218855411E+00 -0.2759050929060E+01  0.0000000000000E+00
 0.4692031520433E+00 -0.2685503546327E+01  0.0000000000000E+00
 0.4705943599415E+00 -0.2612008235077E+01  0.0000000000000E+00
 0.4726492325763E+00 -0.2538603299912E+01  0.0000000000000E+00
 0.4753738354481E+00 -0.2465325461211E+01  0.0000000000000E+00
 0.4787558464532E+00 -0.2392207674687E+01  0.0000000000000E+00
 0.4827813292485E+00 -0.2319281054835E+01  0.0000000000000E+00
 0.4874433995627E+00 -0.2246576863109E+01  0.0000000000000E+00
 0.4927470777613E+00 -0.2174131337442E+01  0.0000000000000E+00
 0.4987133306152E+00 -0.2101989302836E+01  0.0000000000000E+00
 0.5053502302475E+00 -0.2030192292885E+01  0.0000000000000E+00
 0.5126166562676E+00 -0.1958754547993E+01  0.0000000000000E+00
 0.5204819446400E+00 -0.1887690994141E+01  0.0000000000000E+00
 0.5289313840225E+00 -0.1817023410501E+01  0.0000000000000E+00
 0.5379644929975E+00 -0.1746782530989E+01  0.0000000000000E+00
 0.5475950562530E+00 -0.1677011238647E+01  0.0000000000000E+00
 0.5578528911642E+00 -0.1607769996440E+01  0.0000000000000E+00
 0.5687883427305E+00 -0.1539143266628E+01  0.0000000000000E+00
 0.5804796562961E+00 -0.1471258499918E+01  0.0000000000000E+00
 0.5930490261565E+00 -0.1404308783480E+01  0.0000000000000E+00
 0.4950265832471E+00 -0.4230575000136E+01  0.0000000000000E+00
 0.4950531664706E+00 -0.4157105417212E+01  0.0000000000000E+00
 0.4950797497441E+00 -0.4083635695824E+01  0.0000000000000E+00
 0.4951063330407E+00 -0.4010165910572E+01  0.0000000000000E+00
 0.4951329163023E+00 -0.3936696222237E+01  0.0000000000000E+00
 0.4951594995589E+00 -0.3863226547687E+01  0.0000000000000E+00
 0.4951860828189E+00 -0.3789756863802E+01  0.0000000000000E+00
 0.4952126660828E+00 -0.3716287168831E+01  0.0000000000000E+00
 0.4952392493447E+00 -0.3642817479635E+01  0.0000000000000E+00
 0.4952658326070E+00 -0.3569347789432E+01  0.0000000000000E+00
 0.4952924159176E+00 -0.3495877965472E+01  0.0000000000000E+00
 0.4953189991451E+00 -0.3422408371242E+01  0.0000000000000E+00
 0.4953455824518E+00 -0.3348938558232E+01  0.0000000000000E+00
 0.4953721661504E+00 -0.3275467662068E+01  0.0000000000000E+00
 0.4953987489699E+00 -0.3201999195603E+01  0.0000000000000E+00
 0.4954253321582E+00 -0.3128529709543E+01  0.0000000000000E+00
 0.4954519154225E+00 -0.3055060013843E+01  0.0000000000000E+00
 0.4954784986724E+00 -0.2981590357583E+01  0.0000000000000E+00
 0.4955050818880E+00 -0.2908120796426E+01  0.0000000000000E+00
 0.4955683590647E+00 -0.2834651267871E+01  0.0000000000000E+00
 0.4958908159768E+00 -0.2761185239330E+01  0.0000000000000E+00
 0.4967139775797E+00 -0.2687739488751E+01  0.0000000000000E+00
 0.4981829594999E+00 -0.2614345809188E+01  0.0000000000000E+00
 0.5003546452605E+00 -0.2541042505588E+01  0.0000000000000E+00
 0.5032354571473E+00 -0.2467866298547E+01  0.0000000000000E+00
 0.5068123482204E+00 -0.2394850143946E+01  0.0000000000000E+00
 0.5110705623679E+00 -0.2322025155875E+01  0.0000000000000E+00
 0.5160028103462E+00 -0.2249422596171E+01  0.0000000000000E+00
 0.5216144078554E+00 -0.2177078702290E+01  0.0000000000000E+00
 0.5279275550057E+00 -0.2105038299234E+01  0.0000000000000E+00
 0.5349507987347E+00 -0.2033342921007E+01  0.0000000000000E+00
 0.5426405998039E+00 -0.1962006808056E+01  0.0000000000000E+00
 0.5509644904148E+00 -0.1891044886262E+01  0.0000000000000E+00
 0.5599068938557E+00 -0.1820478934717E+01  0.0000000000000E+00
 0.5694673003911E+00 -0.1750339687312E+01  0.0000000000000E+00
 0.5796603055753E+00 -0.1680670027035E+01  0.0000000000000E+00
 0.5905174807764E+00 -0.1611530416097E+01  0.0000000000000E+00
 0.6020921324114E+00 -0.1543005318085E+01  0.0000000000000E+00
 0.6144671086049E+00 -0.1475222180869E+01  0.0000000000000E+00
 0.6277717915016E+00 -0.1408374092875E+01  0.0000000000000E+00
 0.5225235372561E+00 -0.4230682327857E+01  0.0000000000000E+00
 0.5225470744911E+00 -0.4157320072559E+01  0.0000000000000E+00
 0.5225706117705E+00 -0.4083957678999E+01  0.0000000000000E+00
 0.5225941490704E+00 -0.4010595221668E+01  0.0000000000000E+00
 0.5226176863392E+00 -0.3937232861114E+01  0.0000000000000E+00
 0.5226412236036E+00 -0.3863870514323E+01  0.0000000000000E+00
 0.5226647608710E+00 -0.3790508158210E+01  0.0000000000000E+00
 0.5226882981420E+00 -0.3717145791029E+01  0.0000000000000E+00
 0.5227118354111E+00 -0.3643783429614E+01  0.0000000000000E+00
 0.5227353726805E+00 -0.3570421067194E+01  0.0000000000000E+00
 0.5227589099928E+00 -0.3497058571211E+01  0.0000000000000E+00
 0.5227824472315E+00 -0.3423696304623E+01  0.0000000000000E+00
 0.5228059845402E+00 -0.3350333819576E+01  0.0000000000000E+00
 0.5228295221960E+00 -0.3276970252956E+01  0.0000000000000E+00
 0.5228530590734E+00 -0.3203609112485E+01  0.0000000000000E+00
 0.5228765962774E+00 -0.3130246953910E+01  0.0000000000000E+00
 0.5229001335486E+00 -0.3056884586000E+01  0.0000000000000E+00
 0.5229236708072E+00 -0.2983522257473E+01  0.0000000000000E+00
 0.5229472080352E+00 -0.2910160023909E+01  0.0000000000000E+00
 0.5230094777771E+00 -0.2836797822971E+01  0.0000000000000E+00
 0.5233453261558E+00 -0.2763439121435E+01  0.0000000000000E+00
 0.5242096961996E+00 -0.2690100696814E+01  0.0000000000000E+00
 0.5257557654915E+00 -0.2616814342716E+01  0.0000000000000E+00
 0.5280435777358E+00 -0.2543618364450E+01  0.0000000000000E+00
 0.5310799120018E+00 -0.2470549482845E+01  0.0000000000000E+00
 0.5348509965123E+00 -0.2397640653958E+01  0.0000000000000E+00
 0.5393412553893E+00 -0.2324922991450E+01  0.0000000000000E+00
 0.5445429944141E+00 -0.2252427757564E+01  0.0000000000000E+00
 0.5504618246247E+00 -0.2180191189252E+01  0.0000000000000E+00
 0.5571211794709E+00 -0.2108258111516E+01  0.0000000000000E+00
 0.5645300807020E+00 -0.2036670058793E+01  0.0000000000000E+00
 0.5726425702308E+00 -0.1965441271575E+01  0.0000000000000E+00
 0.5814243764965E+00 -0.1894586675636E+01  0.0000000000000E+00
 0.5908590574180E+00 -0.1824128049987E+01  0.0000000000000E+00
 0.6009460749422E+00 -0.1754096128489E+01  0.0000000000000E+00
 0.6117008354898E+00 -0.1684533794076E+01  0.0000000000000E+00
 0.6231566644279E+00 -0.1615501508160E+01  0.0000000000000E+00
 0.6353698295822E+00 -0.1547083735733E+01  0.0000000000000E+00
 0.6484277818778E+00 -0.1479407921664E+01  0.0000000000000E+00
 0.6624670913015E+00 -0.1412667155710E+01  0.0000000000000E+00
 0.5500197690505E+00 -0.4230795330981E+01  0.0000000000000E+00
 0.5500395380833E+00 -0.4157546078707E+01  0.0000000000000E+00
 0.5500593071533E+00 -0.4084296688383E+01  0.0000000000000E+00
 0.5500790762406E+00 -0.4011047234387E+01  0.0000000000000E+00
 0.5500988453018E+00 -0.3937797877017E+01  0.0000000000000E+00
 0.5501186143593E+00 -0.3864548533391E+01  0.0000000000000E+00
 0.5501383834192E+00 -0.3791299180457E+01  0.0000000000000E+00
 0.5501581524822E+00 -0.3718049816471E+01  0.0000000000000E+00
 0.5501779215436E+00 -0.3644800458244E+01  0.0000000000000E+00
 0.5501976906053E+00 -0.3571551099011E+01  0.0000000000000E+00
 0.5502174597030E+00 -0.3498301606423E+01  0.0000000000000E+00
 0.5502372287388E+00 -0.3425052342876E+01  0.0000000000000E+00
 0.5502569978336E+00 -0.3351802861205E+01  0.0000000000000E+00
 0.5502767672198E+00 -0.3278552299629E+01  0.0000000000000E+00
 0.5502965359522E+00 -0.3205304160464E+01  0.0000000000000E+00
 0.5503163049589E+00 -0.3132055004764E+01  0.0000000000000E+00
 0.5503360740221E+00 -0.3058805640051E+01  0.0000000000000E+00
 0.5503558430746E+00 -0.2985556314660E+01  0.0000000000000E+00
 0.5503756121016E+00 -0.2912307084086E+01  0.0000000000000E+00
 0.5504361521952E+00 -0.2839057886161E+01  0.0000000000000E+00
 0.5507846698348E+00 -0.2765812186996E+01  0.0000000000000E+00
 0.5516895261272E+00 -0.2692586763641E+01  0.0000000000000E+00
 0.5533119606105E+00 -0.2619413410292E+01  0.0000000000000E+00
 0.5557151771680E+00 -0.2546330432637E+01  0.0000000000000E+00
 0.5589063116513E+00 -0.2473374551750E+01  0.0000000000000E+00
 0.5628708674447E+00 -0.2400578723873E+01  0.0000000000000E+00
 0.5675924489065E+00 -0.2327974062217E+01  0.0000000000000E+00
 0.5730629568402E+00 -0.2255591829452E+01  0.0000000000000E+00
 0.5792882976252E+00 -0.2183468261997E+01  0.0000000000000E+00
 0.5862931380511E+00 -0.2111648184856E+01  0.0000000000000E+00
 0.5940869746762E+00 -0.2040173132923E+01  0.0000000000000E+00
 0.6026214305636E+00 -0.1969057346735E+01  0.0000000000000E+00
 0.6118604303908E+00 -0.1898315751957E+01  0.0000000000000E+00
 0.6217866667071E+00 -0.1827970127509E+01  0.0000000000000E+00
 0.6323995731424E+00 -0.1758051207224E+01  0.0000000000000E+00
 0.6437153669844E+00 -0.1688601873979E+01  0.0000000000000E+00
 0.6557691276047E+00 -0.1619682588347E+01  0.0000000000000E+00
 0.6686200842292E+00 -0.1551377816794E+01  0.0000000000000E+00
 0.6823602906046E+00 -0.1483815001033E+01  0.0000000000000E+00
 0.6971335045526E+00 -0.1417187232221E+01  0.0000000000000E+00
 0.5775285217479E+00 -0.4230916136354E+01  0.0000000000000E+00
 0.5775570434703E+00 -0.4157787689344E+01  0.0000000000000E+00
 0.5775855652465E+00 -0.4084659104512E+01  0.0000000000000E+00
 0.5776140870475E+00 -0.4011530456114E+01  0.0000000000000E+00
 0.5776426088109E+00 -0.3938401904183E+01  0.0000000000000E+00
 0.5776711305689E+00 -0.3865273365972E+01  0.0000000000000E+00
 0.5776996523305E+00 -0.3792144818469E+01  0.0000000000000E+00
 0.5777281740965E+00 -0.3719016259932E+01  0.0000000000000E+00
 0.5777566958602E+00 -0.3645887707143E+01  0.0000000000000E+00
 0.5777852176243E+00 -0.3572759153353E+01  0.0000000000000E+00
 0.5778137394403E+00 -0.3499630466425E+01  0.0000000000000E+00
 0.5778422611671E+00 -0.3426502008162E+01  0.0000000000000E+00
 0.5778707829789E+00 -0.3353373332134E+01  0.0000000000000E+00
 0.5778993052112E+00 -0.3280243577982E+01  0.0000000000000E+00
 0.5779278265002E+00 -0.3207116242246E+01  0.0000000000000E+00
 0.5779563481850E+00 -0.3133987891651E+01  0.0000000000000E+00
 0.5779848699513E+00 -0.3060859332388E+01  0.0000000000000E+00
 0.5780133917022E+00 -0.2987730812382E+01  0.0000000000000E+00
 0.5780419134162E+00 -0.2914602387037E+01  0.0000000000000E+00
 0.5781132651049E+00 -0.2841473994368E+01  0.0000000000000E+00
 0.5784871369324E+00 -0.2768349099769E+01  0.0000000000000E+00
 0.5794454419965E+00 -0.2695244479801E+01  0.0000000000000E+00
 0.5811575623438E+00 -0.2622191929285E+01  0.0000000000000E+00
 0.5836898936295E+00 -0.2549229754315E+01  0.0000000000000E+00
 0.5870499320770E+00 -0.2476394676228E+01  0.0000000000000E+00
 0.5912224490155E+00 -0.2403719651464E+01  0.0000000000000E+00
 0.5961902208056E+00 -0.2331235792752E+01  0.0000000000000E+00
 0.6019447392772E+00 -0.2258974363216E+01  0.0000000000000E+00
 0.6084922090405E+00 -0.2186971598711E+01  0.0000000000000E+00
 0.6158585425385E+00 -0.2115272324239E+01  0.0000000000000E+00
 0.6240537159295E+00 -0.2043918075183E+01  0.0000000000000E+00
 0.6330269092831E+00 -0.1972923092128E+01  0.0000000000000E+00
 0.6427402254938E+00 -0.1902302300624E+01  0.0000000000000E+00
 0.6531754830925E+00 -0.1832077479492E+01  0.0000000000000E+00
 0.6643320871059E+00 -0.1762279362538E+01  0.0000000000000E+00
 0.6762270737778E+00 -0.1692950832575E+01  0.0000000000000E+00
 0.6888972939023E+00 -0.1624152349277E+01  0.0000000000000E+00
 0.7024049678359E+00 -0.1555968380692E+01  0.0000000000000E+00
 0.7168467977495E+00 -0.1488526365155E+01  0.0000000000000E+00
 0.7323738012168E+00 -0.1422019395320E+01  0.0000000000000E+00
 0.6050364530268E+00 -0.4231042777871E+01  0.0000000000000E+00
 0.6050729060210E+00 -0.4158040972265E+01  0.0000000000000E+00
 0.6051093590840E+00 -0.4085039029076E+01  0.0000000000000E+00
 0.6051458121786E+00 -0.4012037022431E+01  0.0000000000000E+00
 0.6051822652252E+00 -0.3939035112085E+01  0.0000000000000E+00
 0.6052187182649E+00 -0.3866033215436E+01  0.0000000000000E+00
 0.6052551713092E+00 -0.3793031309511E+01  0.0000000000000E+00
 0.6052916243591E+00 -0.3720029392571E+01  0.0000000000000E+00
 0.6053280774061E+00 -0.3647027481370E+01  0.0000000000000E+00
 0.6053645304536E+00 -0.3574025569168E+01  0.0000000000000E+00
 0.6054009835674E+00 -0.3501023524060E+01  0.0000000000000E+00
 0.6054374365673E+00 -0.3428021707220E+01  0.0000000000000E+00
 0.6054738896757E+00 -0.3355019672994E+01  0.0000000000000E+00
 0.6055103433215E+00 -0.3282016562509E+01  0.0000000000000E+00
 0.6055467957618E+00 -0.3209015866253E+01  0.0000000000000E+00
 0.6055832487080E+00 -0.3136014156895E+01  0.0000000000000E+00
 0.6056197017582E+00 -0.3063012239231E+01  0.0000000000000E+00
 0.6056561547889E+00 -0.2990010360755E+01  0.0000000000000E+00
 0.6056926077723E+00 -0.2917008576777E+01  0.0000000000000E+00
 0.6057739496384E+00 -0.2844006825500E+01  0.0000000000000E+00
 0.6061723542407E+00 -0.2771008571574E+01  0.0000000000000E+00
 0.6071832866711E+00 -0.2698030591041E+01  0.0000000000000E+00
 0.6089842714805E+00 -0.2625104679380E+01  0.0000000000000E+00
 0.6116448960934E+00 -0.2552269143111E+01  0.0000000000000E+00
 0.6151730171029E+00 -0.2479560703844E+01  0.0000000000000E+00
 0.6195526737819E+00 -0.2407012318228E+01  0.0000000000000E+00
 0.6247658144968E+00 -0.2334655098486E+01  0.0000000000000E+00
 0.6308035221003E+00 -0.2262520308222E+01  0.0000000000000E+00
 0.6376722994378E+00 -0.2190644182693E+01  0.0000000000000E+00
 0.6453993046053E+00 -0.2119071546904E+01  0.0000000000000E+00
 0.6539949933580E+00 -0.2047843936749E+01  0.0000000000000E+00
 0.6634061027715E+00 -0.1976975592865E+01  0.0000000000000E+00
 0.6735929139584E+00 -0.1906481440676E+01  0.0000000000000E+00
 0.6845363714316E+00 -0.1836383258907E+01  0.0000000000000E+00
 0.6962358516148E+00 -0.1766711781329E+01  0.0000000000000E+00
 0.7087092097083E+00 -0.1697509890691E+01  0.0000000000000E+00
 0.7219950679352E+00 -0.1628838045726E+01  0.0000000000000E+00
 0.7361586377713E+00 -0.1560780716136E+01  0.0000000000000E+00
 0.7513012698347E+00 -0.1493465336719E+01  0.0000000000000E+00
 0.7675812414413E+00 -0.1427085001696E+01  0.0000000000000E+00
 0.6325435266867E+00 -0.4231175233271E+01  0.0000000000000E+00
 0.6325870533346E+00 -0.4158305882947E+01  0.0000000000000E+00
 0.6326305800645E+00 -0.4085436395290E+01  0.0000000000000E+00
 0.6326741068323E+00 -0.4012566844291E+01  0.0000000000000E+00
 0.6327176335426E+00 -0.3939697389418E+01  0.0000000000000E+00
 0.6327611602448E+00 -0.3866827948216E+01  0.0000000000000E+00
 0.6328046869525E+00 -0.3793958497755E+01  0.0000000000000E+00
 0.6328482136668E+00 -0.3721089036299E+01  0.0000000000000E+00
 0.6328917403776E+00 -0.3648219580572E+01  0.0000000000000E+00
 0.6329352670890E+00 -0.3575350123845E+01  0.0000000000000E+00
 0.6329787938797E+00 -0.3502480534454E+01  0.0000000000000E+00
 0.6330223205343E+00 -0.3429611172916E+01  0.0000000000000E+00
 0.6330658473185E+00 -0.3356741594387E+01  0.0000000000000E+00
 0.6331093747444E+00 -0.3283870941551E+01  0.0000000000000E+00
 0.6331529007309E+00 -0.3211002698565E+01  0.0000000000000E+00
 0.6331964273214E+00 -0.3138133444314E+01  0.0000000000000E+00
 0.6332399540361E+00 -0.3065263982135E+01  0.0000000000000E+00
 0.6332834807274E+00 -0.2992394559074E+01  0.0000000000000E+00
 0.6333270073624E+00 -0.2919525230338E+01  0.0000000000000E+00
 0.6334174817877E+00 -0.2846655934332E+01  0.0000000000000E+00
 0.6338395615515E+00 -0.2773790134923E+01  0.0000000000000E+00
 0.6349022637435E+00 -0.2700944607613E+01  0.0000000000000E+00
 0.6367912554143E+00 -0.2628151148567E+01  0.0000000000000E+00
 0.6395793157545E+00 -0.2555448064753E+01  0.0000000000000E+00
 0.6432746617255E+00 -0.2482872078066E+01  0.0000000000000E+00
 0.6478606005424E+00 -0.2410456145372E+01  0.0000000000000E+00
 0.6533182525806E+00 -0.2338231378367E+01  0.0000000000000E+00
 0.6596382917126E+00 -0.2266229041154E+01  0.0000000000000E+00
 0.6668275190228E+00 -0.2194485368369E+01  0.0000000000000E+00
 0.6749143382604E+00 -0.2123045185016E+01  0.0000000000000E+00
 0.6839096847739E+00 -0.2051950027523E+01  0.0000000000000E+00
 0.6937578526447E+00 -0.1981214136585E+01  0.0000000000000E+00
 0.7044173012042E+00 -0.1910852437495E+01  0.0000000000000E+00
 0.7158681009481E+00 -0.1840886708872E+01  0.0000000000000E+00
 0.7281095996972E+00 -0.1771347684455E+01  0.0000000000000E+00
 0.7411604716089E+00 -0.1702278246925E+01  0.0000000000000E+00
 0.7550611103412E+00 -0.1633738854029E+01  0.0000000000000E+00
 0.7698797184786E+00 -0.1565813977203E+01  0.0000000000000E+00
 0.7857222951103E+00 -0.1498631047541E+01  0.0000000000000E+00
 0.8027543772834E+00 -0.1432383160906E+01  0.0000000000000E+00
 0.6600497070085E+00 -0.4231313479408E+01  0.0000000000000E+00
 0.6600994139727E+00 -0.4158582375098E+01  0.0000000000000E+00
 0.6601491210305E+00 -0.4085851133716E+01  0.0000000000000E+00
 0.6601988281316E+00 -0.4013119829111E+01  0.0000000000000E+00
 0.6602485351671E+00 -0.3940388620450E+01  0.0000000000000E+00
 0.6602982421932E+00 -0.3867657425435E+01  0.0000000000000E+00
 0.6603479492257E+00 -0.3794926221178E+01  0.0000000000000E+00
 0.6603976562657E+00 -0.3722195005947E+01  0.0000000000000E+00
 0.6604473633017E+00 -0.3649463796433E+01  0.0000000000000E+00
 0.6604970703385E+00 -0.3576732585922E+01  0.0000000000000E+00
 0.6605467774657E+00 -0.3504001242998E+01  0.0000000000000E+00
 0.6605964844376E+00 -0.3431270127496E+01  0.0000000000000E+00
 0.6606461915574E+00 -0.3358538795412E+01  0.0000000000000E+00
 0.6606958994101E+00 -0.3285806391062E+01  0.0000000000000E+00
 0.6607456056189E+00 -0.3213076391989E+01  0.0000000000000E+00
 0.6607953125175E+00 -0.3140345383569E+01  0.0000000000000E+00
 0.6608450195580E+00 -0.3067614167617E+01  0.0000000000000E+00
 0.6608947265717E+00 -0.2994882990707E+01  0.0000000000000E+00
 0.6609444335212E+00 -0.2922151907945E+01  0.0000000000000E+00
 0.6610431471685E+00 -0.2849420857941E+01  0.0000000000000E+00
 0.6614880087619E+00 -0.2776693303747E+01  0.0000000000000E+00
 0.6626015873924E+00 -0.2703986020302E+01  0.0000000000000E+00
 0.6645776926062E+00 -0.2631330804486E+01  0.0000000000000E+00
 0.6674922953571E+00 -0.2558765963735E+01  0.0000000000000E+00
 0.6713539729724E+00 -0.2486328220241E+01  0.0000000000000E+00
 0.6761453006083E+00 -0.2414050531099E+01  0.0000000000000E+00
 0.6818465706525E+00 -0.2341964007451E+01  0.0000000000000E+00
 0.6884480479942E+00 -0.2270099913923E+01  0.0000000000000E+00
 0.6959568319607E+00 -0.2198494484502E+01  0.0000000000000E+00
 0.7044025719548E+00 -0.2127192544193E+01  0.0000000000000E+00
 0.7137966829144E+00 -0.2056235629981E+01  0.0000000000000E+00
 0.7240810159262E+00 -0.1985637982619E+01  0.0000000000000E+00
 0.7352122085415E+00 -0.1915414527263E+01  0.0000000000000E+00
 0.7471694572393E+00 -0.1845587042425E+01  0.0000000000000E+00
 0.7599520812379E+00 -0.1776186261808E+01  0.0000000000000E+00
 0.7735795736522E+00 -0.1707255068023E+01  0.0000000000000E+00
 0.7880940995820E+00 -0.1638853917788E+01  0.0000000000000E+00
 0.8035668527085E+00 -0.1571067284346E+01  0.0000000000000E+00
 0.8201084806169E+00 -0.1504022594929E+01  0.0000000000000E+00
 0.8378917800749E+00 -0.1437912947113E+01  0.0000000000000E+00
 0.6875549587707E+00 -0.4231457492273E+01  0.0000000000000E+00
 0.6876099174925E+00 -0.4158870400699E+01  0.0000000000000E+00
 0.6876648763177E+00 -0.4086283172324E+01  0.0000000000000E+00
 0.6877198351908E+00 -0.4013695880853E+01  0.0000000000000E+00
 0.6877747939914E+00 -0.3941108685135E+01  0.0000000000000E+00
 0.6878297527816E+00 -0.3868521503035E+01  0.0000000000000E+00
 0.6878847115788E+00 -0.3795934311712E+01  0.0000000000000E+00
 0.6879396703844E+00 -0.3723347109437E+01  0.0000000000000E+00
 0.6879946291856E+00 -0.3650759912868E+01  0.0000000000000E+00
 0.6880495879875E+00 -0.3578172715304E+01  0.0000000000000E+00
 0.6881045468895E+00 -0.3505585385588E+01  0.0000000000000E+00
 0.6881595056197E+00 -0.3432998282844E+01  0.0000000000000E+00
 0.6882144645135E+00 -0.3360410963949E+01  0.0000000000000E+00
 0.6882694242176E+00 -0.3287822574909E+01  0.0000000000000E+00
 0.6883243821042E+00 -0.3215236586383E+01  0.0000000000000E+00
 0.6883793407534E+00 -0.3142649590510E+01  0.0000000000000E+00
 0.6884342995595E+00 -0.3070062387515E+01  0.0000000000000E+00
 0.6884892583360E+00 -0.2997475223486E+01  0.0000000000000E+00
 0.6885442170415E+00 -0.2924888153416E+01  0.0000000000000E+00
 0.6886502413522E+00 -0.2852301116137E+01  0.0000000000000E+00
 0.6891169562223E+00 -0.2779717573847E+01  0.0000000000000E+00
 0.6902804827484E+00 -0.2707154300899E+01  0.0000000000000E+00
 0.6923427729674E+00 -0.2634643094921E+01  0.0000000000000E+00
 0.6953829895934E+00 -0.2562222263831E+01  0.0000000000000E+00
 0.6994100703178E+00 -0.2489928530135E+01  0.0000000000000E+00
 0.7044058582361E+00 -0.2417794851164E+01  0.0000000000000E+00
 0.7103498177522E+00 -0.2345852337485E+01  0.0000000000000E+00
 0.7172318047682E+00 -0.2274132254268E+01  0.0000000000000E+00
 0.7250592168591E+00 -0.2202670834823E+01  0.0000000000000E+00
 0.7338629490808E+00 -0.2131512904156E+01  0.0000000000000E+00
 0.7436548959572E+00 -0.2060699999834E+01  0.0000000000000E+00
 0.7543744655799E+00 -0.1990246362667E+01  0.0000000000000E+00
 0.7659764737208E+00 -0.1920166917674E+01  0.0000000000000E+00
 0.7784392428430E+00 -0.1850483443250E+01  0.0000000000000E+00
 0.7917620635625E+00 -0.1781226673063E+01  0.0000000000000E+00
 0.8059652479520E+00 -0.1712439489651E+01  0.0000000000000E+00
 0.8210927325603E+00 -0.1644182348659E+01  0.0000000000000E+00
 0.8372187021531E+00 -0.1576539725215E+01  0.0000000000000E+00
 0.8544584528381E+00 -0.1509639042525E+01  0.0000000000000E+00
 0.8729920410917E+00 -0.1443673399950E+01  0.0000000000000E+00
 0.7150592472657E+00 -0.4231607247015E+01  0.0000000000000E+00
 0.7151184944785E+00 -0.4159169910049E+01  0.0000000000000E+00
 0.7151777418030E+00 -0.4086732436564E+01  0.0000000000000E+00
 0.7152369891790E+00 -0.4014294900114E+01  0.0000000000000E+00
 0.7152962364768E+00 -0.3941857459218E+01  0.0000000000000E+00
 0.7153554837636E+00 -0.3869420031913E+01  0.0000000000000E+00
 0.7154147310578E+00 -0.3796982595404E+01  0.0000000000000E+00
 0.7154739783610E+00 -0.3724545147966E+01  0.0000000000000E+00
 0.7155332256595E+00 -0.3652107706221E+01  0.0000000000000E+00
 0.7155924729589E+00 -0.3579670263484E+01  0.0000000000000E+00
 0.7156517203661E+00 -0.3507232688868E+01  0.0000000000000E+00
 0.7157109675880E+00 -0.3434795340755E+01  0.0000000000000E+00
 0.7157702149864E+00 -0.3362357776937E+01  0.0000000000000E+00
 0.7158294632583E+00 -0.3289919145182E+01  0.0000000000000E+00
 0.7158887095708E+00 -0.3217482908988E+01  0.0000000000000E+00
 0.7159479567055E+00 -0.3145045667526E+01  0.0000000000000E+00
 0.7160072040093E+00 -0.3072608219369E+01  0.0000000000000E+00
 0.7160664512812E+00 -0.3000170810097E+01  0.0000000000000E+00
 0.7161256984765E+00 -0.2927733494591E+01  0.0000000000000E+00
 0.7162380701844E+00 -0.2855296211907E+01  0.0000000000000E+00
 0.7167256750711E+00 -0.2782862423360E+01  0.0000000000000E+00
 0.7179381862435E+00 -0.2710448902693E+01  0.0000000000000E+00
 0.7200856982247E+00 -0.2638087448308E+01  0.0000000000000E+00
 0.7232505654860E+00 -0.2565816368629E+01  0.0000000000000E+00
 0.7274420860806E+00 -0.2493672386486E+01  0.0000000000000E+00
 0.7326413710420E+00 -0.2421688459455E+01  0.0000000000000E+00
 0.7388270567937E+00 -0.2349895697507E+01  0.0000000000000E+00
 0.7459885902476E+00 -0.2278325366376E+01  0.0000000000000E+00
 0.7541336672304E+00 -0.2207013698669E+01  0.0000000000000E+00
 0.7632944284514E+00 -0.2136005519392E+01  0.0000000000000E+00
 0.7734832480167E+00 -0.2065342366718E+01  0.0000000000000E+00
 0.7846370910221E+00 -0.1995038481518E+01  0.0000000000000E+00
 0.7967089514612E+00 -0.1925108788663E+01  0.0000000000000E+00
 0.8096762777816E+00 -0.1855575066432E+01  0.0000000000000E+00
 0.8235383319973E+00 -0.1786468048456E+01  0.0000000000000E+00
 0.8383162451398E+00 -0.1717830617193E+01  0.0000000000000E+00
 0.8540557252136E+00 -0.1649723227177E+01  0.0000000000000E+00
 0.8708339480567E+00 -0.1582230355494E+01  0.0000000000000E+00
 0.8887708583262E+00 -0.1515479421163E+01  0.0000000000000E+00
 0.9080537721960E+00 -0.1449663525402E+01  0.0000000000000E+00
 0.7425625383146E+00 -0.4231762717964E+01  0.0000000000000E+00
 0.7426250765734E+00 -0.4159480851809E+01  0.0000000000000E+00
 0.7426876149500E+00 -0.4087198849429E+01  0.0000000000000E+00
 0.7427501533810E+00 -0.4014916784217E+01  0.0000000000000E+00
 0.7428126917296E+00 -0.3942634814355E+01  0.0000000000000E+00
 0.7428752300663E+00 -0.3870352858055E+01  0.0000000000000E+00
 0.7429377684111E+00 -0.3798070892571E+01  0.0000000000000E+00
 0.7430003067652E+00 -0.3725788916180E+01  0.0000000000000E+00
 0.7430628451145E+00 -0.3653506945471E+01  0.0000000000000E+00
 0.7431253834646E+00 -0.3581224973772E+01  0.0000000000000E+00
 0.7431879219286E+00 -0.3508942870477E+01  0.0000000000000E+00
 0.7432504601970E+00 -0.3436660993198E+01  0.0000000000000E+00
 0.7433129986516E+00 -0.3364378900677E+01  0.0000000000000E+00
 0.7433755380283E+00 -0.3292095742512E+01  0.0000000000000E+00
 0.7434380753367E+00 -0.3219814974767E+01  0.0000000000000E+00
 0.7435006135130E+00 -0.3147533203911E+01  0.0000000000000E+00
 0.7435631518678E+00 -0.3075251226803E+01  0.0000000000000E+00
 0.7436256901890E+00 -0.3002969288497E+01  0.0000000000000E+00
 0.7436882284293E+00 -0.2930687443756E+01  0.0000000000000E+00
 0.7438059500894E+00 -0.2858405631870E+01  0.0000000000000E+00
 0.7443134475546E+00 -0.2786127313235E+01  0.0000000000000E+00
 0.7455739459472E+00 -0.2713869260962E+01  0.0000000000000E+00
 0.7478056822717E+00 -0.2641663274258E+01  0.0000000000000E+00
 0.7510942027536E+00 -0.2569547662071E+01  0.0000000000000E+00
 0.7554491658059E+00 -0.2497559147567E+01  0.0000000000000E+00
 0.7608509503981E+00 -0.2425730688578E+01  0.0000000000000E+00
 0.7672773649777E+00 -0.2354093394452E+01  0.0000000000000E+00
 0.7747174474621E+00 -0.2282678531514E+01  0.0000000000000E+00
 0.7831791919347E+00 -0.2211522331637E+01  0.0000000000000E+00
 0.7926959847584E+00 -0.2140669619831E+01  0.0000000000000E+00
 0.8032806796171E+00 -0.2070161934894E+01  0.0000000000000E+00
 0.8148677986107E+00 -0.2000013517763E+01  0.0000000000000E+00
 0.8274085139547E+00 -0.1930239293156E+01  0.0000000000000E+00
 0.8408794000826E+00 -0.1860861039229E+01  0.0000000000000E+00
 0.8552796904064E+00 -0.1791909489574E+01  0.0000000000000E+00
 0.8706313349167E+00 -0.1723427526570E+01  0.0000000000000E+00
 0.8869818130815E+00 -0.1655475603594E+01  0.0000000000000E+00
 0.9044112917983E+00 -0.1588138199765E+01  0.0000000000000E+00
 0.9230443643019E+00 -0.1521542729758E+01  0.0000000000000E+00
 0.9430756064517E+00 -0.1455882296715E+01  0.0000000000000E+00
 0.7700647982821E+00 -0.4231923878657E+01  0.0000000000000E+00
 0.7701295965064E+00 -0.4159803173051E+01  0.0000000000000E+00
 0.7701943948528E+00 -0.4087682331523E+01  0.0000000000000E+00
 0.7702591932555E+00 -0.4015561427305E+01  0.0000000000000E+00
 0.7703239915728E+00 -0.3943440618223E+01  0.0000000000000E+00
 0.7703887898779E+00 -0.3871319822673E+01  0.0000000000000E+00
 0.7704535881912E+00 -0.3799199017960E+01  0.0000000000000E+00
 0.7705183865143E+00 -0.3727078202364E+01  0.0000000000000E+00
 0.7705831848324E+00 -0.3654957392437E+01  0.0000000000000E+00
 0.7706479831513E+00 -0.3582836581522E+01  0.0000000000000E+00
 0.7707127815881E+00 -0.3510715639305E+01  0.0000000000000E+00
 0.7707775798224E+00 -0.3438594922601E+01  0.0000000000000E+00
 0.7708423782496E+00 -0.3366473991133E+01  0.0000000000000E+00
 0.7709071776321E+00 -0.3294351996398E+01  0.0000000000000E+00
 0.7709719748717E+00 -0.3222232386753E+01  0.0000000000000E+00
 0.7710367730106E+00 -0.3150111776233E+01  0.0000000000000E+00
 0.7711015713344E+00 -0.3077990959922E+01  0.0000000000000E+00
 0.7711663696233E+00 -0.3005870182326E+01  0.0000000000000E+00
 0.7712311678284E+00 -0.2933749498087E+01  0.0000000000000E+00
 0.7713532083606E+00 -0.2861628846736E+01  0.0000000000000E+00
 0.7718795673317E+00 -0.2789511687719E+01  0.0000000000000E+00
 0.7731870218849E+00 -0.2717414793489E+01  0.0000000000000E+00
 0.7755019515019E+00 -0.2645369964090E+01  0.0000000000000E+00
 0.7789130941592E+00 -0.2573415509012E+01  0.0000000000000E+00
 0.7834304686275E+00 -0.2501588151769E+01  0.0000000000000E+00
 0.7890337218105E+00 -0.2429920850458E+01  0.0000000000000E+00
 0.7956998341836E+00 -0.2358444713785E+01  0.0000000000000E+00
 0.8034174346658E+00 -0.2287191008681E+01  0.0000000000000E+00
 0.8121948156023E+00 -0.2216195966265E+01  0.0000000000000E+00
 0.8220666090092E+00 -0.2145504411545E+01  0.0000000000000E+00
 0.8330461481448E+00 -0.2075157883972E+01  0.0000000000000E+00
 0.8450655121117E+00 -0.2005170624547E+01  0.0000000000000E+00
 0.8580740513487E+00 -0.1935557557832E+01  0.0000000000000E+00
 0.8720474662756E+00 -0.1866340461856E+01  0.0000000000000E+00
 0.8869849617026E+00 -0.1797550070169E+01  0.0000000000000E+00
 0.9029093065802E+00 -0.1729229265069E+01  0.0000000000000E+00
 0.9198697518478E+00 -0.1661438498734E+01  0.0000000000000E+00
 0.9379494554491E+00 -0.1594262252389E+01  0.0000000000000E+00
 0.9572776592258E+00 -0.1527827936206E+01  0.0000000000000E+00
 0.9780561987112E+00 -0.1462328655324E+01  0.0000000000000E+00
 0.7975659940902E+00 -0.4232090701858E+01  0.0000000000000E+00
 0.7976319881214E+00 -0.4160136819303E+01  0.0000000000000E+00
 0.7976979822771E+00 -0.4088182801141E+01  0.0000000000000E+00
 0.7977639764901E+00 -0.4016228720433E+01  0.0000000000000E+00
 0.7978299706160E+00 -0.3944274734643E+01  0.0000000000000E+00
 0.7978959647296E+00 -0.3872320762352E+01  0.0000000000000E+00
 0.7979619588516E+00 -0.3800366780919E+01  0.0000000000000E+00
 0.7980279529835E+00 -0.3728412788629E+01  0.0000000000000E+00
 0.7980939471102E+00 -0.3656458801995E+01  0.0000000000000E+00
 0.7981599412379E+00 -0.3584504814375E+01  0.0000000000000E+00
 0.7982259354857E+00 -0.3512550695757E+01  0.0000000000000E+00
 0.7982919295271E+00 -0.3440596802130E+01  0.0000000000000E+00
 0.7983579237650E+00 -0.3368642694236E+01  0.0000000000000E+00
 0.7984239189759E+00 -0.3296687525534E+01  0.0000000000000E+00
 0.7984899120043E+00 -0.3224734736406E+01  0.0000000000000E+00
 0.7985559059486E+00 -0.3152780948717E+01  0.0000000000000E+00
 0.7986219000812E+00 -0.3080826955713E+01  0.0000000000000E+00
 0.7986878941783E+00 -0.3008873001336E+01  0.0000000000000E+00
 0.7987538881900E+00 -0.2936919140098E+01  0.0000000000000E+00
 0.7988791834362E+00 -0.2864965311785E+01  0.0000000000000E+00
 0.7994233397633E+00 -0.2793014974856E+01  0.0000000000000E+00
 0.8007766863419E+00 -0.2721084901084E+01  0.0000000000000E+00
 0.8031737451268E+00 -0.2649206891378E+01  0.0000000000000E+00
 0.8067064458421E+00 -0.2577419255790E+01  0.0000000000000E+00
 0.8113851676139E+00 -0.2505758718195E+01  0.0000000000000E+00
 0.8171888252784E+00 -0.2434258236964E+01  0.0000000000000E+00
 0.8240935713432E+00 -0.2362948920137E+01  0.0000000000000E+00
 0.8320876257245E+00 -0.2291862035274E+01  0.0000000000000E+00
 0.8411795790344E+00 -0.2221033812712E+01  0.0000000000000E+00
 0.8514053089427E+00 -0.2150509077459E+01  0.0000000000000E+00
 0.8627786282774E+00 -0.2080329369639E+01  0.0000000000000E+00
 0.8752291731434E+00 -0.2010508930323E+01  0.0000000000000E+00
 0.8887044722034E+00 -0.1941062683910E+01  0.0000000000000E+00
 0.9031793518640E+00 -0.1872012408295E+01  0.0000000000000E+00
 0.9186529883343E+00 -0.1803388836989E+01  0.0000000000000E+00
 0.9351489695250E+00 -0.1735234852202E+01  0.0000000000000E+00
 0.9527183178552E+00 -0.1667610904871E+01  0.0000000000000E+00
 0.9714471823014E+00 -0.1600601478405E+01  0.0000000000000E+00
 0.9914694533427E+00 -0.1534333978313E+01  0.0000000000000E+00
 0.1012994226174E+01 -0.1469001511800E+01  0.0000000000000E+00
 0.8250660921971E+00 -0.4232263159342E+01  0.0000000000000E+00
 0.8251321843352E+00 -0.4160481734118E+01  0.0000000000000E+00
 0.8251982765979E+00 -0.4088700173612E+01  0.0000000000000E+00
 0.8252643689180E+00 -0.4016918550710E+01  0.0000000000000E+00
 0.8253304611510E+00 -0.3945137022497E+01  0.0000000000000E+00
 0.8253965533715E+00 -0.3873355507753E+01  0.0000000000000E+00
 0.8254626456005E+00 -0.3801573983887E+01  0.0000000000000E+00
 0.8255287378394E+00 -0.3729792449191E+01  0.0000000000000E+00
 0.8255948300731E+00 -0.3658010920137E+01  0.0000000000000E+00
 0.8256609223078E+00 -0.3586229390100E+01  0.0000000000000E+00
 0.8257270146627E+00 -0.3514447729378E+01  0.0000000000000E+00
 0.8257931068110E+00 -0.3442666293108E+01  0.0000000000000E+00
 0.8258591991561E+00 -0.3370884643085E+01  0.0000000000000E+00
 0.8259252924756E+00 -0.3299101934797E+01  0.0000000000000E+00
 0.8259913836094E+00 -0.3227321600378E+01  0.0000000000000E+00
 0.8260574756604E+00 -0.3155540269793E+01  0.0000000000000E+00
 0.8261235679000E+00 -0.3083758734385E+01  0.0000000000000E+00
 0.8261896601041E+00 -0.3011977237510E+01  0.0000000000000E+00
 0.8262557522226E+00 -0.2940195833552E+01  0.0000000000000E+00
 0.8263832044815E+00 -0.2868414462554E+01  0.0000000000000E+00
 0.8269440604613E+00 -0.2796636581959E+01  0.0000000000000E+00
 0.8283422013566E+00 -0.2724878962837E+01  0.0000000000000E+00
 0.8308202915846E+00 -0.2653173406991E+01  0.0000000000000E+00
 0.8344734526118E+00 -0.2581558225052E+01  0.0000000000000E+00
 0.8393124239173E+00 -0.2510070141269E+01  0.0000000000000E+00
 0.8453153882681E+00 -0.2438742114296E+01  0.0000000000000E+00
 0.8524576702087E+00 -0.2367605251486E+01  0.0000000000000E+00
 0.8607270806491E+00 -0.2296690821050E+01  0.0000000000000E+00
 0.8701325084729E+00 -0.2226035052513E+01  0.0000000000000E+00
 0.8807110770029E+00 -0.2155682770885E+01  0.0000000000000E+00
 0.8924770786323E+00 -0.2085675516987E+01  0.0000000000000E+00
 0.9053577064690E+00 -0.2016027531960E+01  0.0000000000000E+00
 0.9192986674019E+00 -0.1946753740033E+01  0.0000000000000E+00
 0.9342739138258E+00 -0.1877875918969E+01  0.0000000000000E+00
 0.9502825933488E+00 -0.1809424802232E+01  0.0000000000000E+00
 0.9673491128421E+00 -0.1741443271944E+01  0.0000000000000E+00
 0.9855262662115E+00 -0.1673991777762E+01  0.0000000000000E+00
 0.1004903193450E+01 -0.1607154805347E+01  0.0000000000000E+00
 0.1025618433703E+01 -0.1541059755389E+01  0.0000000000000E+00
 0.1047888341808E+01 -0.1475899737231E+01  0.0000000000000E+00
 0.8525650614762E+00 -0.4232441222572E+01  0.0000000000000E+00
 0.8526301228944E+00 -0.4160837860419E+01  0.0000000000000E+00
 0.8526951844352E+00 -0.4089234363318E+01  0.0000000000000E+00
 0.8527602460326E+00 -0.4017630803977E+01  0.0000000000000E+00
 0.8528253075442E+00 -0.3946027339091E+01  0.0000000000000E+00
 0.8528903690435E+00 -0.3874423887639E+01  0.0000000000000E+00
 0.8529554305511E+00 -0.3802820427089E+01  0.0000000000000E+00
 0.8530204920685E+00 -0.3731216955735E+01  0.0000000000000E+00
 0.8530855535808E+00 -0.3659613490009E+01  0.0000000000000E+00
 0.8531506150940E+00 -0.3588010023303E+01  0.0000000000000E+00
 0.8532156767257E+00 -0.3516406426235E+01  0.0000000000000E+00
 0.8532807381539E+00 -0.3444803053064E+01  0.0000000000000E+00
 0.8533457997758E+00 -0.3373199466669E+01  0.0000000000000E+00
 0.8534108623570E+00 -0.3301594824634E+01  0.0000000000000E+00
 0.8534759227865E+00 -0.3229992550580E+01  0.0000000000000E+00
 0.8535409841189E+00 -0.3158389282831E+01  0.0000000000000E+00
 0.8536060456369E+00 -0.3086785810767E+01  0.0000000000000E+00
 0.8536711071201E+00 -0.3015182377140E+01  0.0000000000000E+00
 0.8537361685190E+00 -0.2943579036201E+01  0.0000000000000E+00
 0.8538646489641E+00 -0.2871975728258E+01  0.0000000000000E+00
 0.8544410757777E+00 -0.2800375909705E+01  0.0000000000000E+00
 0.8558828821841E+00 -0.2728796350886E+01  0.0000000000000E+00
 0.8584408750580E+00 -0.2657268854525E+01  0.0000000000000E+00
 0.8622133676045E+00 -0.2585831731856E+01  0.0000000000000E+00
 0.8672114596532E+00 -0.2514521707511E+01  0.0000000000000E+00
 0.8734126019002E+00 -0.2443371740437E+01  0.0000000000000E+00
 0.8807912909314E+00 -0.2372412937276E+01  0.0000000000000E+00
 0.8893349286460E+00 -0.2301676566911E+01  0.0000000000000E+00
 0.8990527022045E+00 -0.2231198858032E+01  0.0000000000000E+00
 0.9099829805832E+00 -0.2161024635649E+01  0.0000000000000E+00
 0.9221405357354E+00 -0.2091195441301E+01  0.0000000000000E+00
 0.9354501177719E+00 -0.2021725516204E+01  0.0000000000000E+00
 0.9498556118082E+00 -0.1952629784413E+01  0.0000000000000E+00
 0.9653300962285E+00 -0.1883930023548E+01  0.0000000000000E+00
 0.9818726900401E+00 -0.1815656967030E+01  0.0000000000000E+00
 0.9995086190752E+00 -0.1747853496891E+01  0.0000000000000E+00
 0.1018292448735E+01 -0.1680580061460E+01  0.0000000000000E+00
 0.1038316310015E+01 -0.1613921148730E+01  0.0000000000000E+00
 0.1059723390757E+01 -0.1548004154413E+01  0.0000000000000E+00
 0.1082737305430E+01 -0.1483022190057E+01  0.0000000000000E+00
 0.8800628706507E+00 -0.4232624862149E+01  0.0000000000000E+00
 0.8801257412452E+00 -0.4161205139410E+01  0.0000000000000E+00
 0.8801886119583E+00 -0.4089785282070E+01  0.0000000000000E+00
 0.8802514827260E+00 -0.4018365362649E+01  0.0000000000000E+00
 0.8803143534107E+00 -0.3946945537440E+01  0.0000000000000E+00
 0.8803772240837E+00 -0.3875525725631E+01  0.0000000000000E+00
 0.8804400947647E+00 -0.3804105904747E+01  0.0000000000000E+00
 0.8805029654551E+00 -0.3732686073087E+01  0.0000000000000E+00
 0.8805658361406E+00 -0.3661266247042E+01  0.0000000000000E+00
 0.8806287068270E+00 -0.3589846420017E+01  0.0000000000000E+00
 0.8806915776278E+00 -0.3518426462966E+01  0.0000000000000E+00
 0.8807544482321E+00 -0.3447006729237E+01  0.0000000000000E+00
 0.8808173190235E+00 -0.3375586782831E+01  0.0000000000000E+00
 0.8808801907419E+00 -0.3304165783493E+01  0.0000000000000E+00
 0.8809430603810E+00 -0.3232747146062E+01  0.0000000000000E+00
 0.8810059308927E+00 -0.3161327517485E+01  0.0000000000000E+00
 0.8810688015838E+00 -0.3089907685116E+01  0.0000000000000E+00
 0.8811316722411E+00 -0.3018487891087E+01  0.0000000000000E+00
 0.8811945428171E+00 -0.2947068189507E+01  0.0000000000000E+00
 0.8813228913452E+00 -0.2875648520963E+01  0.0000000000000E+00
 0.8819137288988E+00 -0.2804232340763E+01  0.0000000000000E+00
 0.8833980407394E+00 -0.2732836418503E+01  0.0000000000000E+00
 0.8860347761945E+00 -0.2661492557860E+01  0.0000000000000E+00
 0.8899254402048E+00 -0.2590239070684E+01  0.0000000000000E+00
 0.8950814929478E+00 -0.2519112682006E+01  0.0000000000000E+00
 0.9014796530467E+00 -0.2448146351075E+01  0.0000000000000E+00
 0.9090935891332E+00 -0.2377371183799E+01  0.0000000000000E+00
 0.9179102940913E+00 -0.2306818449755E+01  0.0000000000000E+00
 0.9279392533642E+00 -0.2236524376770E+01  0.0000000000000E+00
 0.9392200815813E+00 -0.2166533789856E+01  0.0000000000000E+00
 0.9517680302519E+00 -0.2096888231292E+01  0.0000000000000E+00
 0.9655054064884E+00 -0.2027601942369E+01  0.0000000000000E+00
 0.9803742736342E+00 -0.1958689846964E+01  0.0000000000000E+00
 0.9963468360632E+00 -0.1890173722552E+01  0.0000000000000E+00
 0.1013422184182E+01 -0.1822084302508E+01  0.0000000000000E+00
 0.1031626362785E+01 -0.1754464468768E+01  0.0000000000000E+00
 0.1051015708778E+01 -0.1687374668298E+01  0.0000000000000E+00
 0.1071685344144E+01 -0.1620899391489E+01  0.0000000000000E+00
 0.1093783105455E+01 -0.1555166028923E+01  0.0000000000000E+00
 0.1117539866798E+01 -0.1490367694424E+01  0.0000000000000E+00
 0.9075594889833E+00 -0.4232814047991E+01  0.0000000000000E+00
 0.9076189779134E+00 -0.4161583510925E+01  0.0000000000000E+00
 0.9076784669557E+00 -0.4090352839614E+01  0.0000000000000E+00
 0.9077379560498E+00 -0.4019122106386E+01  0.0000000000000E+00
 0.9077974450653E+00 -0.3947891467122E+01  0.0000000000000E+00
 0.9078569340697E+00 -0.3876660841222E+01  0.0000000000000E+00
 0.9079164230816E+00 -0.3805430206271E+01  0.0000000000000E+00
 0.9079759121025E+00 -0.3734199560572E+01  0.0000000000000E+00
 0.9080354011187E+00 -0.3662968920473E+01  0.0000000000000E+00
 0.9080948901358E+00 -0.3591738279397E+01  0.0000000000000E+00
 0.9081543792612E+00 -0.3520507508640E+01  0.0000000000000E+00
 0.9082138682005E+00 -0.3449276960612E+01  0.0000000000000E+00
 0.9082733573170E+00 -0.3378046200472E+01  0.0000000000000E+00
 0.9083328473105E+00 -0.3306814390188E+01  0.0000000000000E+00
 0.9083923353367E+00 -0.3235584935555E+01  0.0000000000000E+00
 0.9084518241884E+00 -0.3164354492402E+01  0.0000000000000E+00
 0.9085113132099E+00 -0.3093123845996E+01  0.0000000000000E+00
 0.9085708021995E+00 -0.3021893237829E+01  0.0000000000000E+00
 0.9086302911121E+00 -0.2950662721865E+01  0.0000000000000E+00
 0.9087573168832E+00 -0.2879432238978E+01  0.0000000000000E+00
 0.9093613743473E+00 -0.2808205243358E+01  0.0000000000000E+00
 0.9108870008119E+00 -0.2736998503829E+01  0.0000000000000E+00
 0.9136012880531E+00 -0.2665843825050E+01  0.0000000000000E+00
 0.9176089327442E+00 -0.2594779519508E+01  0.0000000000000E+00
 0.9229217554080E+00 -0.2523842312644E+01  0.0000000000000E+00
 0.9295157425928E+00 -0.2453065164015E+01  0.0000000000000E+00
 0.9373637349804E+00 -0.2382479178777E+01  0.0000000000000E+00
 0.9464523164353E+00 -0.2312115627219E+01  0.0000000000000E+00
 0.9567912706887E+00 -0.2242010736282E+01  0.0000000000000E+00
 0.9684214580236E+00 -0.2172209330975E+01  0.0000000000000E+00
 0.9813586095009E+00 -0.2102752954344E+01  0.0000000000000E+00
 0.9955225892331E+00 -0.2033655847757E+01  0.0000000000000E+00
 0.1010853638792E+01 -0.1964932934906E+01  0.0000000000000E+00
 0.1027323088543E+01 -0.1896605993116E+01  0.0000000000000E+00
 0.1044930000291E+01 -0.1828705755716E+01  0.0000000000000E+00
 0.1063701237794E+01 -0.1761275104543E+01  0.0000000000000E+00
 0.1083694909471E+01 -0.1694374485157E+01  0.0000000000000E+00
 0.1105009128278E+01 -0.1628088390423E+01  0.0000000000000E+00
 0.1127796379553E+01 -0.1562544205636E+01  0.0000000000000E+00
 0.1152294796986E+01 -0.1497935046963E+01  0.0000000000000E+00
 0.9350548858195E+00 -0.4233008749224E+01  0.0000000000000E+00
 0.9351097715901E+00 -0.4161972913217E+01  0.0000000000000E+00
 0.9351646574641E+00 -0.4090936943333E+01  0.0000000000000E+00
 0.9352195433858E+00 -0.4019900911701E+01  0.0000000000000E+00
 0.9352744292350E+00 -0.3948864973775E+01  0.0000000000000E+00
 0.9353293150740E+00 -0.3877829049177E+01  0.0000000000000E+00
 0.9353842009200E+00 -0.3806793115553E+01  0.0000000000000E+00
 0.9354390867743E+00 -0.3735757171211E+01  0.0000000000000E+00
 0.9354939726242E+00 -0.3664721232452E+01  0.0000000000000E+00
 0.9355488584749E+00 -0.3593685292720E+01  0.0000000000000E+00
 0.9356037444255E+00 -0.3522649223661E+01  0.0000000000000E+00
 0.9356586302045E+00 -0.3451613376723E+01  0.0000000000000E+00
 0.9357135161469E+00 -0.3380577318253E+01  0.0000000000000E+00
 0.9357684028986E+00 -0.3309540212508E+01  0.0000000000000E+00
 0.9358232878350E+00 -0.3238505455976E+01  0.0000000000000E+00
 0.9358781735332E+00 -0.3167469713625E+01  0.0000000000000E+00
 0.9359330593880E+00 -0.3096433768578E+01  0.0000000000000E+00
 0.9359879452134E+00 -0.3025397861664E+01  0.0000000000000E+00
 0.9360428309677E+00 -0.2954362046702E+01  0.0000000000000E+00
 0.9361673124864E+00 -0.2883326264858E+01  0.0000000000000E+00
 0.9367833683722E+00 -0.2812293969172E+01  0.0000000000000E+00
 0.9383490879822E+00 -0.2741281927676E+01  0.0000000000000E+00
 0.9411397055351E+00 -0.2670321946037E+01  0.0000000000000E+00
 0.9452631094320E+00 -0.2599452337398E+01  0.0000000000000E+00
 0.9507314805386E+00 -0.2528709827621E+01  0.0000000000000E+00
 0.9575200733262E+00 -0.2458127376583E+01  0.0000000000000E+00
 0.9656009005317E+00 -0.2387736088663E+01  0.0000000000000E+00
 0.9749601369954E+00 -0.2317567234886E+01  0.0000000000000E+00
 0.9856078647423E+00 -0.2247657041276E+01  0.0000000000000E+00
 0.9975861897091E+00 -0.2178050332845E+01  0.0000000000000E+00
 0.1010911322503E+01 -0.2108788653425E+01  0.0000000000000E+00
 0.1025500684237E+01 -0.2039886244463E+01  0.0000000000000E+00
 0.1041292694711E+01 -0.1971358029462E+01  0.0000000000000E+00
 0.1058257810283E+01 -0.1903225785592E+01  0.0000000000000E+00
 0.1076395064160E+01 -0.1835520246133E+01  0.0000000000000E+00
 0.1095732139060E+01 -0.1768284292824E+01  0.0000000000000E+00
 0.1116328914927E+01 -0.1701578369774E+01  0.0000000000000E+00
 0.1138286495672E+01 -0.1635486972397E+01  0.0000000000000E+00
 0.1161762015432E+01 -0.1570137480546E+01  0.0000000000000E+00
 0.1187000867489E+01 -0.1505723012798E+01  0.0000000000000E+00
 0.9625490308455E+00 -0.4233208934261E+01  0.0000000000000E+00
 0.9625980616473E+00 -0.4162373283113E+01  0.0000000000000E+00
 0.9626470925415E+00 -0.4091537498464E+01  0.0000000000000E+00
 0.9626961234783E+00 -0.4020701652242E+01  0.0000000000000E+00
 0.9627451543504E+00 -0.3949865899462E+01  0.0000000000000E+00
 0.9627941852133E+00 -0.3879030159972E+01  0.0000000000000E+00
 0.9628432160825E+00 -0.3808194411481E+01  0.0000000000000E+00
 0.9628922469590E+00 -0.3737358652303E+01  0.0000000000000E+00
 0.9629412778317E+00 -0.3666522898693E+01  0.0000000000000E+00
 0.9629903087051E+00 -0.3595687144111E+01  0.0000000000000E+00
 0.9630393396677E+00 -0.3524851260568E+01  0.0000000000000E+00
 0.9630883704770E+00 -0.3454015598519E+01  0.0000000000000E+00
 0.9631374014324E+00 -0.3383179725533E+01  0.0000000000000E+00
 0.9631864331105E+00 -0.3312342808225E+01  0.0000000000000E+00
 0.9632354631672E+00 -0.3241508233510E+01  0.0000000000000E+00
 0.9632844939044E+00 -0.3170672675753E+01  0.0000000000000E+00
 0.9633335247814E+00 -0.3099836915872E+01  0.0000000000000E+00
 0.9633825556321E+00 -0.3029001194016E+01  0.0000000000000E+00
 0.9634315864194E+00 -0.2958165563854E+01  0.0000000000000E+00
 0.9635522718756E+00 -0.2887329966851E+01  0.0000000000000E+00
 0.9641790743716E+00 -0.2816497854867E+01  0.0000000000000E+00
 0.9657836353121E+00 -0.2745685995118E+01  0.0000000000000E+00
 0.9686493313466E+00 -0.2674926194307E+01  0.0000000000000E+00
 0.9728872425984E+00 -0.2604256766253E+01  0.0000000000000E+00
 0.9785099102731E+00 -0.2533714437250E+01  0.0000000000000E+00
 0.9854918567633E+00 -0.2463332167505E+01  0.0000000000000E+00
 0.9938042668667E+00 -0.2393141060596E+01  0.0000000000000E+00
 0.1003432906395E+01 -0.2323172388306E+01  0.0000000000000E+00
 0.1014388155672E+01 -0.2253462375718E+01  0.0000000000000E+00
 0.1026713366288E+01 -0.2184055847844E+01  0.0000000000000E+00
 0.1040425228390E+01 -0.2114994349325E+01  0.0000000000000E+00
 0.1055438720094E+01 -0.2046292121691E+01  0.0000000000000E+00
 0.1071690439431E+01 -0.1977964088247E+01  0.0000000000000E+00
 0.1089149968751E+01 -0.1910032026008E+01  0.0000000000000E+00
 0.1107816312662E+01 -0.1842526668202E+01  0.0000000000000E+00
 0.1127717972847E+01 -0.1775490896466E+01  0.0000000000000E+00
 0.1148916600779E+01 -0.1708985153419E+01  0.0000000000000E+00
 0.1171516291308E+01 -0.1643093937094E+01  0.0000000000000E+00
 0.1195678827404E+01 -0.1577944621747E+01  0.0000000000000E+00
 0.1221656861916E+01 -0.1513730328440E+01  0.0000000000000E+00
 0.9900418963175E+00 -0.4233414571432E+01  0.0000000000000E+00
 0.9900837925975E+00 -0.4162784557271E+01  0.0000000000000E+00
 0.9901256889566E+00 -0.4092154409997E+01  0.0000000000000E+00
 0.9901675853520E+00 -0.4021524201328E+01  0.0000000000000E+00
 0.9902094816922E+00 -0.3950894085830E+01  0.0000000000000E+00
 0.9902513780245E+00 -0.3880263983584E+01  0.0000000000000E+00
 0.9902932743622E+00 -0.3809633872364E+01  0.0000000000000E+00
 0.9903351707061E+00 -0.3739003750486E+01  0.0000000000000E+00
 0.9903770670468E+00 -0.3668373634161E+01  0.0000000000000E+00
 0.9904189633881E+00 -0.3597743516867E+01  0.0000000000000E+00
 0.9904608598056E+00 -0.3527113270985E+01  0.0000000000000E+00
 0.9905027560921E+00 -0.3456483245955E+01  0.0000000000000E+00
 0.9905446525034E+00 -0.3385853010601E+01  0.0000000000000E+00
 0.9905865495323E+00 -0.3315221733956E+01  0.0000000000000E+00
 0.9906284451757E+00 -0.3244592793103E+01  0.0000000000000E+00
 0.9906703414006E+00 -0.3173962872062E+01  0.0000000000000E+00
 0.9907122377450E+00 -0.3103332749484E+01  0.0000000000000E+00
 0.9907541340669E+00 -0.3032702664821E+01  0.0000000000000E+00
 0.9907960303345E+00 -0.2962072671585E+01  0.0000000000000E+00
 0.9909116401763E+00 -0.2891442711552E+01  0.0000000000000E+00
 0.9915479097436E+00 -0.2820816235367E+01  0.0000000000000E+00
 0.9931900324991E+00 -0.2750210009408E+01  0.0000000000000E+00
 0.9961295275201E+00 -0.2679655841445E+01  0.0000000000000E+00
 0.1000480666649E+01 -0.2609192045989E+01  0.0000000000000E+00
 0.1006256351428E+01 -0.2538855349777E+01  0.0000000000000E+00
 0.1013430372169E+01 -0.2468678713357E+01  0.0000000000000E+00
 0.1021973085736E+01 -0.2398693239484E+01  0.0000000000000E+00
 0.1031869848906E+01 -0.2328930200717E+01  0.0000000000000E+00
 0.1043131340308E+01 -0.2259425821175E+01  0.0000000000000E+00
 0.1055802157187E+01 -0.2190224925870E+01  0.0000000000000E+00
 0.1069899469226E+01 -0.2121369060273E+01  0.0000000000000E+00
 0.1085335811539E+01 -0.2052872465999E+01  0.0000000000000E+00
 0.1102045960391E+01 -0.1984750066153E+01  0.0000000000000E+00
 0.1119998624125E+01 -0.1917023637585E+01  0.0000000000000E+00
 0.1139192778749E+01 -0.1849723913474E+01  0.0000000000000E+00
 0.1159657744912E+01 -0.1782893775349E+01  0.0000000000000E+00
 0.1181456945627E+01 -0.1716593664302E+01  0.0000000000000E+00
 0.1204697466668E+01 -0.1650908081054E+01  0.0000000000000E+00
 0.1229545739873E+01 -0.1585964394114E+01  0.0000000000000E+00
 0.1256261677649E+01 -0.1521955727091E+01  0.0000000000000E+00
 0.1017533454000E+01 -0.4233625628207E+01  0.0000000000000E+00
 0.1017566907971E+01 -0.4163206670632E+01  0.0000000000000E+00
 0.1017600362004E+01 -0.4092787580343E+01  0.0000000000000E+00
 0.1017633816067E+01 -0.4022368428842E+01  0.0000000000000E+00
 0.1017667270085E+01 -0.3951949370234E+01  0.0000000000000E+00
 0.1017700724097E+01 -0.3881530324838E+01  0.0000000000000E+00
 0.1017734178114E+01 -0.3811111270494E+01  0.0000000000000E+00
 0.1017767632135E+01 -0.3740692205524E+01  0.0000000000000E+00
 0.1017801086154E+01 -0.3670273146091E+01  0.0000000000000E+00
 0.1017834540173E+01 -0.3599854085692E+01  0.0000000000000E+00
 0.1017867994254E+01 -0.3529434897089E+01  0.0000000000000E+00
 0.1017901448229E+01 -0.3459015928678E+01  0.0000000000000E+00
 0.1017934902304E+01 -0.3388596750572E+01  0.0000000000000E+00
 0.1017968356873E+01 -0.3318176534286E+01  0.0000000000000E+00
 0.1018001810335E+01 -0.3247758646812E+01  0.0000000000000E+00
 0.1018035264261E+01 -0.3177339782080E+01  0.0000000000000E+00
 0.1018068718283E+01 -0.3106920716413E+01  0.0000000000000E+00
 0.1018102172287E+01 -0.3036501688547E+01  0.0000000000000E+00
 0.1018135626247E+01 -0.2966082751835E+01  0.0000000000000E+00
 0.1018244852688E+01 -0.2895663848371E+01  0.0000000000000E+00
 0.1018889281555E+01 -0.2825248427553E+01  0.0000000000000E+00
 0.1020567658381E+01 -0.2754853254900E+01  0.0000000000000E+00
 0.1023579644669E+01 -0.2684510139275E+01  0.0000000000000E+00
 0.1028042703977E+01 -0.2614257395899E+01  0.0000000000000E+00
 0.1033970098182E+01 -0.2544131751969E+01  0.0000000000000E+00
 0.1041334885514E+01 -0.2474166168375E+01  0.0000000000000E+00
 0.1050106594904E+01 -0.2404391747033E+01  0.0000000000000E+00
 0.1060270174092E+01 -0.2334839761298E+01  0.0000000000000E+00
 0.1071836600020E+01 -0.2265546434297E+01  0.0000000000000E+00
 0.1084851715585E+01 -0.2196556591045E+01  0.0000000000000E+00
 0.1099333170002E+01 -0.2127911777862E+01  0.0000000000000E+00
 0.1115191055382E+01 -0.2059626236452E+01  0.0000000000000E+00
 0.1132358326224E+01 -0.1991714889712E+01  0.0000000000000E+00
 0.1150802816865E+01 -0.1924199514328E+01  0.0000000000000E+00
 0.1170523474713E+01 -0.1857110843424E+01  0.0000000000000E+00
 0.1191550439383E+01 -0.1790491758421E+01  0.0000000000000E+00
 0.1213948905440E+01 -0.1724402698843E+01  0.0000000000000E+00
 0.1237828949566E+01 -0.1658928168167E+01  0.0000000000000E+00
 0.1263361652507E+01 -0.1594195529007E+01  0.0000000000000E+00
 0.1290814186213E+01 -0.1530397907585E+01  0.0000000000000E+00
 0.1045023674235E+01 -0.4233842070904E+01  0.0000000000000E+00
 0.1045047348449E+01 -0.4163639555833E+01  0.0000000000000E+00
 0.1045071022707E+01 -0.4093436908455E+01  0.0000000000000E+00
 0.1045094696986E+01 -0.4023234200054E+01  0.0000000000000E+00
 0.1045118371233E+01 -0.3953031584260E+01  0.0000000000000E+00
 0.1045142045477E+01 -0.3882828981637E+01  0.0000000000000E+00
 0.1045165719723E+01 -0.3812626370094E+01  0.0000000000000E+00
 0.1045189393973E+01 -0.3742423747959E+01  0.0000000000000E+00
 0.1045213068221E+01 -0.3672221131342E+01  0.0000000000000E+00
 0.1045236742469E+01 -0.3602018513763E+01  0.0000000000000E+00
 0.1045260416760E+01 -0.3531815768374E+01  0.0000000000000E+00
 0.1045284090977E+01 -0.3461613242500E+01  0.0000000000000E+00
 0.1045307765265E+01 -0.3391410507575E+01  0.0000000000000E+00
 0.1045331439902E+01 -0.3321206737662E+01  0.0000000000000E+00
 0.1045355113756E+01 -0.3251005289403E+01  0.0000000000000E+00
 0.1045378787939E+01 -0.3180802866889E+01  0.0000000000000E+00
 0.1045402462189E+01 -0.3110600244057E+01  0.0000000000000E+00
 0.1045426136426E+01 -0.3040397658911E+01  0.0000000000000E+00
 0.1045449810633E+01 -0.2970195164638E+01  0.0000000000000E+00
 0.1045551316223E+01 -0.2899992703660E+01  0.0000000000000E+00
 0.1046202566935E+01 -0.2829793724095E+01  0.0000000000000E+00
 0.1047915860364E+01 -0.2759614990581E+01  0.0000000000000E+00
 0.1050999000424E+01 -0.2689488313102E+01  0.0000000000000E+00
 0.1055572642382E+01 -0.2619452007610E+01  0.0000000000000E+00
 0.1061650408446E+01 -0.2549542801767E+01  0.0000000000000E+00
 0.1069204624761E+01 -0.2479793656821E+01  0.0000000000000E+00
 0.1078203992335E+01 -0.2410235673824E+01  0.0000000000000E+00
 0.1088633049863E+01 -0.2340900126947E+01  0.0000000000000E+00
 0.1100503072607E+01 -0.2271823238302E+01  0.0000000000000E+00
 0.1113861149115E+01 -0.2203049832902E+01  0.0000000000000E+00
 0.1128725408128E+01 -0.2134621457944E+01  0.0000000000000E+00
 0.1145003498756E+01 -0.2066552355220E+01  0.0000000000000E+00
 0.1162626553734E+01 -0.1998857447416E+01  0.0000000000000E+00
 0.1181561533394E+01 -0.1931558511045E+01  0.0000000000000E+00
 0.1201807356548E+01 -0.1864686279179E+01  0.0000000000000E+00
 0.1223394981775E+01 -0.1798283633127E+01  0.0000000000000E+00
 0.1246391375200E+01 -0.1732411010803E+01  0.0000000000000E+00
 0.1270909604393E+01 -0.1667152918514E+01  0.0000000000000E+00
 0.1297125399040E+01 -0.1602636712827E+01  0.0000000000000E+00
 0.1325313190613E+01 -0.1539055522643E+01  0.0000000000000E+00
 0.1072512531546E+01 -0.4234063866321E+01  0.0000000000000E+00
 0.1072525063080E+01 -0.4164083146470E+01  0.0000000000000E+00
 0.1072537594638E+01 -0.4094102294730E+01  0.0000000000000E+00
 0.1072550126207E+01 -0.4024121382159E+01  0.0000000000000E+00
 0.1072562657759E+01 -0.3954140561902E+01  0.0000000000000E+00
 0.1072575189309E+01 -0.3884159754776E+01  0.0000000000000E+00
 0.1072587720861E+01 -0.3814178938758E+01  0.0000000000000E+00
 0.1072600252414E+01 -0.3744198112180E+01  0.0000000000000E+00
 0.1072612783967E+01 -0.3674217291104E+01  0.0000000000000E+00
 0.1072625315520E+01 -0.3604236469068E+01  0.0000000000000E+00
 0.1072637847095E+01 -0.3534255519626E+01  0.0000000000000E+00
 0.1072650378631E+01 -0.3464274789006E+01  0.0000000000000E+00
 0.1072662910205E+01 -0.3394293849995E+01  0.0000000000000E+00
 0.1072675441964E+01 -0.3324311879266E+01  0.0000000000000E+00
 0.1072687973307E+01 -0.3254332222856E+01  0.0000000000000E+00
 0.1072700504825E+01 -0.3184351595269E+01  0.0000000000000E+00
 0.1072713036379E+01 -0.3114370767997E+01  0.0000000000000E+00
 0.1072725567926E+01 -0.3044389978293E+01  0.0000000000000E+00
 0.1072738099457E+01 -0.2974409279174E+01  0.0000000000000E+00
 0.1072830521275E+01 -0.2904428613396E+01  0.0000000000000E+00
 0.1073487230923E+01 -0.2834451427769E+01  0.0000000000000E+00
 0.1075234078069E+01 -0.2764494486027E+01  0.0000000000000E+00
 0.1078387009034E+01 -0.2694589599303E+01  0.0000000000000E+00
 0.1083069870790E+01 -0.2624775084295E+01  0.0000000000000E+00
 0.1089296645875E+01 -0.2555087669146E+01  0.0000000000000E+00
 0.1097038928343E+01 -0.2485560315469E+01  0.0000000000000E+00
 0.1106264591286E+01 -0.2416224123429E+01  0.0000000000000E+00
 0.1116957764351E+01 -0.2347110368037E+01  0.0000000000000E+00
 0.1129130021121E+01 -0.2278255270360E+01  0.0000000000000E+00
 0.1142829695801E+01 -0.2209703655415E+01  0.0000000000000E+00
 0.1158075396650E+01 -0.2141497071292E+01  0.0000000000000E+00
 0.1174772329777E+01 -0.2073649759875E+01  0.0000000000000E+00
 0.1192849806151E+01 -0.2006176643634E+01  0.0000000000000E+00
 0.1212273912104E+01 -0.1939099498907E+01  0.0000000000000E+00
 0.1233043537849E+01 -0.1872449058708E+01  0.0000000000000E+00
 0.1255190460929E+01 -0.1806268204236E+01  0.0000000000000E+00
 0.1278783419043E+01 -0.1740617371751E+01  0.0000000000000E+00
 0.1303938470630E+01 -0.1675581070464E+01  0.0000000000000E+00
 0.1330835994357E+01 -0.1611286650742E+01  0.0000000000000E+00
 0.1359757681202E+01 -0.1547927244234E+01  0.0000000000000E+00
-0.6778574956198E+00 -0.1262067680153E+01  0.0000000000000E+00
-0.6782770661586E+00 -0.1176951538939E+01  0.0000000000000E+00
-0.6790038521434E+00 -0.1091837606340E+01  0.0000000000000E+00
-0.6800826918120E+00 -0.1006727743275E+01  0.0000000000000E+00
-0.6815616898838E+00 -0.9216243838726E+00  0.0000000000000E+00
-0.6834862980979E+00 -0.8365308372119E+00  0.0000000000000E+00
-0.6858864270538E+00 -0.7514504222619E+00  0.0000000000000E+00
-0.6887536618310E+00 -0.6663859764994E+00  0.0000000000000E+00
-0.6920116565350E+00 -0.5813369229450E+00  0.0000000000000E+00
-0.6954975963156E+00 -0.4962977947840E+00  0.0000000000000E+00
-0.6989835360050E+00 -0.4112586666193E+00  0.0000000000000E+00
-0.7022415304475E+00 -0.3262096130549E+00  0.0000000000000E+00
-0.7051087648230E+00 -0.2411451672791E+00  0.0000000000000E+00
-0.7075088932732E+00 -0.1560647523149E+00  0.0000000000000E+00
-0.7094335009094E+00 -0.7097120564155E-01  0.0000000000000E+00
-0.7109124983562E+00  0.1413215377165E-01  0.0000000000000E+00
-0.7119913373706E+00  0.9924201684453E-01  0.0000000000000E+00
-0.7127181226840E+00  0.1843559494488E+00  0.0000000000000E+00
-0.7131376925427E+00  0.2694720906668E+00  0.0000000000000E+00
-0.6423834586364E+00 -0.1257430206780E+01  0.0000000000000E+00
-0.6428079469815E+00 -0.1172076973233E+01  0.0000000000000E+00
-0.6435234815340E+00 -0.1086725948382E+01  0.0000000000000E+00
-0.6445725406163E+00 -0.1001378993222E+01  0.0000000000000E+00
-0.6460006971461E+00 -0.9160385416585E+00  0.0000000000000E+00
-0.6478510106322E+00 -0.8307079030675E+00  0.0000000000000E+00
-0.6501518174942E+00 -0.7453903958721E+00  0.0000000000000E+00
-0.6528951456395E+00 -0.6600888580888E+00  0.0000000000000E+00
-0.6560086674312E+00 -0.5748027122585E+00  0.0000000000000E+00
-0.6593381371986E+00 -0.4895264917391E+00  0.0000000000000E+00
-0.6626676068748E+00 -0.4042502712162E+00  0.0000000000000E+00
-0.6657811284050E+00 -0.3189641253765E+00  0.0000000000000E+00
-0.6685244561486E+00 -0.2336625875806E+00  0.0000000000000E+00
-0.6708252625048E+00 -0.1483450803717E+00  0.0000000000000E+00
-0.6726755754131E+00 -0.6301444176865E-01  0.0000000000000E+00
-0.6741037313179E+00  0.2232600980478E-01  0.0000000000000E+00
-0.6751527897460E+00  0.1076729649727E+00  0.0000000000000E+00
-0.6758683236271E+00  0.1930239898287E+00  0.0000000000000E+00
-0.6762928112920E+00  0.2783772233786E+00  0.0000000000000E+00
-0.6068771248225E+00 -0.1253037464350E+01  0.0000000000000E+00
-0.6073023861501E+00 -0.1167458422578E+01  0.0000000000000E+00
-0.6080025244294E+00 -0.1081881589579E+01  0.0000000000000E+00
-0.6090176580661E+00 -0.9963088264196E+00  0.0000000000000E+00
-0.6103908281695E+00 -0.9107425667951E+00  0.0000000000000E+00
-0.6121627020206E+00 -0.8251861203621E+00  0.0000000000000E+00
-0.6143600418475E+00 -0.7396428050247E+00  0.0000000000000E+00
-0.6169753183957E+00 -0.6541154593135E+00  0.0000000000000E+00
-0.6199402222819E+00 -0.5686035053123E+00  0.0000000000000E+00
-0.6231090770279E+00 -0.4831014765433E+00  0.0000000000000E+00
-0.6262779316826E+00 -0.3975994477710E+00  0.0000000000000E+00
-0.6292428353073E+00 -0.3120874937608E+00  0.0000000000000E+00
-0.6318581114538E+00 -0.2265601480377E+00  0.0000000000000E+00
-0.6340554507749E+00 -0.1410168326875E+00  0.0000000000000E+00
-0.6358273240482E+00 -0.5546038624327E-01  0.0000000000000E+00
-0.6372004935266E+00  0.3010587339095E-01  0.0000000000000E+00
-0.6382156265091E+00  0.1156786365575E+00  0.0000000000000E+00
-0.6389157641170E+00  0.2012554695615E+00  0.0000000000000E+00
-0.6393410247644E+00  0.2868345113357E+00  0.0000000000000E+00
-0.5713401376445E+00 -0.1248890411137E+01  0.0000000000000E+00
-0.5717622009905E+00 -0.1163097082270E+01  0.0000000000000E+00
-0.5724429720439E+00 -0.1077305962247E+01  0.0000000000000E+00
-0.5734202092963E+00 -0.9915189122057E+00  0.0000000000000E+00
-0.5747344220463E+00 -0.9057383656401E+00  0.0000000000000E+00
-0.5764238853537E+00 -0.8199676324743E+00  0.0000000000000E+00
-0.5785137872467E+00 -0.7342100301194E+00  0.0000000000000E+00
-0.5809970413178E+00 -0.6484683975936E+00  0.0000000000000E+00
-0.5838093564268E+00 -0.5627421565474E+00  0.0000000000000E+00
-0.5868136252857E+00 -0.4770258406587E+00  0.0000000000000E+00
-0.5898178940533E+00 -0.3913095247669E+00  0.0000000000000E+00
-0.5926302089008E+00 -0.3055832837122E+00  0.0000000000000E+00
-0.5951134625703E+00 -0.2198416511753E+00  0.0000000000000E+00
-0.5972033639575E+00 -0.1340840488083E+00  0.0000000000000E+00
-0.5988928266870E+00 -0.4831331563190E-01  0.0000000000000E+00
-0.6002070388120E+00  0.3746723094278E-01  0.0000000000000E+00
-0.6011842754101E+00  0.1232542809908E+00  0.0000000000000E+00
-0.6018650457922E+00  0.2090454010180E+00  0.0000000000000E+00
-0.6022871084581E+00  0.2948387298880E+00  0.0000000000000E+00
-0.5357741369022E+00 -0.1244989956190E+01  0.0000000000000E+00
-0.5361892110234E+00 -0.1158994088951E+01  0.0000000000000E+00
-0.5368468236192E+00 -0.1073000430625E+01  0.0000000000000E+00
-0.5377823732698E+00 -0.9870108424148E+00  0.0000000000000E+00
-0.5390338374614E+00 -0.9010277576241E+00  0.0000000000000E+00
-0.5406370990385E+00 -0.8150544864300E+00  0.0000000000000E+00
-0.5426157718221E+00 -0.7290943457776E+00  0.0000000000000E+00
-0.5449632122597E+00 -0.6431501751464E+00  0.0000000000000E+00
-0.5476191474442E+00 -0.5572213957766E+00  0.0000000000000E+00
-0.5504550392749E+00 -0.4713025414940E+00  0.0000000000000E+00
-0.5532909310144E+00 -0.3853836872084E+00  0.0000000000000E+00
-0.5559468659374E+00 -0.2994549078308E+00  0.0000000000000E+00
-0.5582943059733E+00 -0.2135107371891E+00  0.0000000000000E+00
-0.5602729782511E+00 -0.1275505965254E+00  0.0000000000000E+00
-0.5618762392504E+00 -0.4157732532137E-01  0.0000000000000E+00
-0.5631277028170E+00  0.4440575947785E-01  0.0000000000000E+00
-0.5640632518133E+00  0.1303953476947E+00  0.0000000000000E+00
-0.5647208637377E+00  0.2163890060246E+00  0.0000000000000E+00
-0.5651359371787E+00  0.3023848732658E+00  0.0000000000000E+00
-0.5001808381180E+00 -0.1241336966218E+01  0.0000000000000E+00
-0.5005853091216E+00 -0.1155150525915E+01  0.0000000000000E+00
-0.5012161493549E+00 -0.1068966294589E+01  0.0000000000000E+00
-0.5021063974859E+00 -0.9827861335033E+00  0.0000000000000E+00
-0.5032914991826E+00 -0.8966124757853E+00  0.0000000000000E+00
-0.5048049450772E+00 -0.8104486318491E+00  0.0000000000000E+00
-0.5066687747735E+00 -0.7242979182013E+00  0.0000000000000E+00
-0.5088767875828E+00 -0.6381631747553E+00  0.0000000000000E+00
-0.5113727288271E+00 -0.5520438223657E+00  0.0000000000000E+00
-0.5140366296026E+00 -0.4659343949968E+00  0.0000000000000E+00
-0.5167005302870E+00 -0.3798249676253E+00  0.0000000000000E+00
-0.5191964712696E+00 -0.2937056152283E+00  0.0000000000000E+00
-0.5214044836774E+00 -0.2075708717725E+00  0.0000000000000E+00
-0.5232683128678E+00 -0.1214201581142E+00  0.0000000000000E+00
-0.5247817581846E+00 -0.3525631416868E-01  0.0000000000000E+00
-0.5259668592563E+00  0.5091734355727E-01  0.0000000000000E+00
-0.5268571067330E+00  0.1370975046484E+00  0.0000000000000E+00
-0.5274879462949E+00  0.2232817359786E+00  0.0000000000000E+00
-0.5278924166184E+00  0.3094681762846E+00  0.0000000000000E+00
-0.4645619564064E+00 -0.1237932258017E+01  0.0000000000000E+00
-0.4649524100802E+00 -0.1151567419413E+01  0.0000000000000E+00
-0.4655530637473E+00 -0.1065204789847E+01  0.0000000000000E+00
-0.4663945961656E+00 -0.9788462306392E+00  0.0000000000000E+00
-0.4675099211833E+00 -0.8924941747498E+00  0.0000000000000E+00
-0.4689301372252E+00 -0.8061519328155E+00  0.0000000000000E+00
-0.4706757096711E+00 -0.7198228209325E+00  0.0000000000000E+00
-0.4727408807035E+00 -0.6335096794204E+00  0.0000000000000E+00
-0.4750734138646E+00 -0.5472119287727E+00  0.0000000000000E+00
-0.4775619094464E+00 -0.4609241030837E+00  0.0000000000000E+00
-0.4800504049371E+00 -0.3746362773921E+00  0.0000000000000E+00
-0.4823829378366E+00 -0.2883385267376E+00  0.0000000000000E+00
-0.4844481084674E+00 -0.2020253852164E+00  0.0000000000000E+00
-0.4861936804074E+00 -0.1156962733237E+00  0.0000000000000E+00
-0.4876138958714E+00 -0.2935403138074E-01  0.0000000000000E+00
-0.4887292202642E+00  0.5699802451606E-01  0.0000000000000E+00
-0.4895707520282E+00  0.1433565837290E+00  0.0000000000000E+00
-0.4901714050239E+00  0.2297192132988E+00  0.0000000000000E+00
-0.4905618580176E+00  0.3160840519049E+00  0.0000000000000E+00
-0.4289192212257E+00 -0.1234776597180E+01  0.0000000000000E+00
-0.4292924445295E+00 -0.1148245732540E+01  0.0000000000000E+00
-0.4298596985868E+00 -0.1061717076994E+01  0.0000000000000E+00
-0.4306493022459E+00 -0.9751924919160E+00  0.0000000000000E+00
-0.4316916375313E+00 -0.8886744101102E+00  0.0000000000000E+00
-0.4330154106638E+00 -0.8021661424208E+00  0.0000000000000E+00
-0.4346395127912E+00 -0.7156710045621E+00  0.0000000000000E+00
-0.4365586289750E+00 -0.6291918372315E+00  0.0000000000000E+00
-0.4387245409721E+00 -0.5427280605867E+00  0.0000000000000E+00
-0.4410344182749E+00 -0.4562742088428E+00  0.0000000000000E+00
-0.4433442954865E+00 -0.3698203570966E+00  0.0000000000000E+00
-0.4455102072220E+00 -0.2833565804456E+00  0.0000000000000E+00
-0.4474293230042E+00 -0.1968774131066E+00  0.0000000000000E+00
-0.4490534246258E+00 -0.1103822752388E+00  0.0000000000000E+00
-0.4503771971804E+00 -0.2387400754147E-01  0.0000000000000E+00
-0.4514195318408E+00  0.6264407427117E-01  0.0000000000000E+00
-0.4522091348456E+00  0.1491686593542E+00  0.0000000000000E+00
-0.4527763882315E+00  0.2356973149040E+00  0.0000000000000E+00
-0.4531496108551E+00  0.3222281795461E+00  0.0000000000000E+00
-0.3932543780196E+00 -0.1231870698467E+01  0.0000000000000E+00
-0.3936073729461E+00 -0.1145186367233E+01  0.0000000000000E+00
-0.3941382293917E+00 -0.1058504245145E+01  0.0000000000000E+00
-0.3948729062967E+00 -0.9718261936258E+00  0.0000000000000E+00
-0.3958392538597E+00 -0.8851546453368E+00  0.0000000000000E+00
-0.3970635861021E+00 -0.7984929113133E+00  0.0000000000000E+00
-0.3985632199332E+00 -0.7118443069165E+00  0.0000000000000E+00
-0.4003332833000E+00 -0.6252116731933E+00  0.0000000000000E+00
-0.4023295761670E+00 -0.5385944299907E+00  0.0000000000000E+00
-0.4044578372269E+00 -0.4519871116356E+00  0.0000000000000E+00
-0.4065860981956E+00 -0.3653797932784E+00  0.0000000000000E+00
-0.4085823908010E+00 -0.2787625500701E+00  0.0000000000000E+00
-0.4103524537661E+00 -0.1921299163392E+00  0.0000000000000E+00
-0.4118520870914E+00 -0.1054813119341E+00  0.0000000000000E+00
-0.4130764187560E+00 -0.1881957790332E-01  0.0000000000000E+00
-0.4140427656940E+00  0.6785197039194E-01  0.0000000000000E+00
-0.4147774419447E+00  0.1545300219154E+00  0.0000000000000E+00
-0.4153082977189E+00  0.2412121440070E+00  0.0000000000000E+00
-0.4156612919653E+00  0.3278964752429E+00  0.0000000000000E+00
-0.3575691979619E+00 -0.1229215224608E+01  0.0000000000000E+00
-0.3578991845277E+00 -0.1142390160639E+01  0.0000000000000E+00
-0.3583908633752E+00 -0.1055567305864E+01  0.0000000000000E+00
-0.3590678335372E+00 -0.9687485217511E+00  0.0000000000000E+00
-0.3599554133833E+00 -0.8819362408292E+00  0.0000000000000E+00
-0.3610775247381E+00 -0.7951337743095E+00  0.0000000000000E+00
-0.3624499102658E+00 -0.7083444372294E+00  0.0000000000000E+00
-0.3640681408054E+00 -0.6215710709562E+00  0.0000000000000E+00
-0.3658920345241E+00 -0.5348130950523E+00  0.0000000000000E+00
-0.3678358993193E+00 -0.4480650439469E+00  0.0000000000000E+00
-0.3697797640233E+00 -0.3613169928396E+00  0.0000000000000E+00
-0.3716036574805E+00 -0.2745590169304E+00  0.0000000000000E+00
-0.3732218876184E+00 -0.1877856506502E+00  0.0000000000000E+00
-0.3745942726403E+00 -0.1009963135626E+00  0.0000000000000E+00
-0.3757163834173E+00 -0.1419384703630E-01  0.0000000000000E+00
-0.3766039626383E+00  0.7261843389131E-01  0.0000000000000E+00
-0.3772809321460E+00  0.1594372180084E+00  0.0000000000000E+00
-0.3777726103222E+00  0.2462600727866E+00  0.0000000000000E+00
-0.3781025962077E+00  0.3330851367569E+00  0.0000000000000E+00
-0.3218654826118E+00 -0.1226810785876E+01  0.0000000000000E+00
-0.3221699083761E+00 -0.1139857885184E+01  0.0000000000000E+00
-0.3226198571880E+00 -0.1052907193727E+01  0.0000000000000E+00
-0.3232365681736E+00 -0.9659605730175E+00  0.0000000000000E+00
-0.3240428278714E+00 -0.8790204554635E+00  0.0000000000000E+00
-0.3250601659129E+00 -0.7920901524360E+00  0.0000000000000E+00
-0.3263027507117E+00 -0.7051729786780E+00  0.0000000000000E+00
-0.3277665960040E+00 -0.6182717758481E+00  0.0000000000000E+00
-0.3294155381548E+00 -0.5313859632499E+00  0.0000000000000E+00
-0.3311724542660E+00 -0.4445100754058E+00  0.0000000000000E+00
-0.3329293702861E+00 -0.3576341875599E+00  0.0000000000000E+00
-0.3345783121753E+00 -0.2707483749570E+00  0.0000000000000E+00
-0.3360421570660E+00 -0.1838471721208E+00  0.0000000000000E+00
-0.3372847413589E+00 -0.9692999835613E-01  0.0000000000000E+00
-0.3383020788226E+00 -0.9999695322564E-02  0.0000000000000E+00
-0.3391083378954E+00  0.7694042223655E-01  0.0000000000000E+00
-0.3397250482267E+00  0.1638870429499E+00  0.0000000000000E+00
-0.3401749963672E+00  0.2508377344090E+00  0.0000000000000E+00
-0.3404794214513E+00  0.3377906351034E+00  0.0000000000000E+00
-0.2861450373520E+00 -0.1224657936950E+01  0.0000000000000E+00
-0.2864215844532E+00 -0.1137590244331E+01  0.0000000000000E+00
-0.2868274853715E+00 -0.1050524760987E+01  0.0000000000000E+00
-0.2873816193277E+00 -0.9634633484665E+00  0.0000000000000E+00
-0.2881042410273E+00 -0.8764084390695E+00  0.0000000000000E+00
-0.2890144879123E+00 -0.7893633443104E+00  0.0000000000000E+00
-0.2901249541400E+00 -0.7023313786683E+00  0.0000000000000E+00
-0.2914320963498E+00 -0.6153153840630E+00  0.0000000000000E+00
-0.2929037690984E+00 -0.5283147795659E+00  0.0000000000000E+00
-0.2944714186929E+00 -0.4413240997829E+00  0.0000000000000E+00
-0.2960390681962E+00 -0.3543334199984E+00  0.0000000000000E+00
-0.2975107406832E+00 -0.2673328154971E+00  0.0000000000000E+00
-0.2988178824914E+00 -0.1803168208862E+00  0.0000000000000E+00
-0.2999283482133E+00 -0.9328485523812E-01  0.0000000000000E+00
-0.3008385945204E+00 -0.6239760473675E-02  0.0000000000000E+00
-0.3015612155950E+00  0.8081514892790E-01  0.0000000000000E+00
-0.3021153488969E+00  0.1678765614522E+00  0.0000000000000E+00
-0.3025212491438E+00  0.2549420447980E+00  0.0000000000000E+00
-0.3027977955648E+00  0.3420097374179E+00  0.0000000000000E+00
-0.2504096817960E+00 -0.1222757176891E+01  0.0000000000000E+00
-0.2506562726981E+00 -0.1135587871943E+01  0.0000000000000E+00
-0.2510160481881E+00 -0.1048420776304E+01  0.0000000000000E+00
-0.2515055275823E+00 -0.9612577515542E+00  0.0000000000000E+00
-0.2521424337517E+00 -0.8741012299005E+00  0.0000000000000E+00
-0.2529435119511E+00 -0.7869545229834E+00  0.0000000000000E+00
-0.2539197820773E+00 -0.6998209450482E+00  0.0000000000000E+00
-0.2550681436771E+00 -0.6127033382460E+00  0.0000000000000E+00
-0.2563604694946E+00 -0.5256011214427E+00  0.0000000000000E+00
-0.2577367750435E+00 -0.4385088293183E+00  0.0000000000000E+00
-0.2591130805012E+00 -0.3514165371924E+00  0.0000000000000E+00
-0.2604054060573E+00 -0.2643143203854E+00  0.0000000000000E+00
-0.2615537672554E+00 -0.1771967135784E+00  0.0000000000000E+00
-0.2625300368757E+00 -0.9006313563793E-01  0.0000000000000E+00
-0.2633311144972E+00 -0.2916428716145E-02  0.0000000000000E+00
-0.2639680200416E+00  0.8424009294153E-01  0.0000000000000E+00
-0.2644574987815E+00  0.1714031176939E+00  0.0000000000000E+00
-0.2648172736002E+00  0.2585702133351E+00  0.0000000000000E+00
-0.2650638638220E+00  0.3457395182847E+00  0.0000000000000E+00
-0.2146612485249E+00 -0.1221108948317E+01  0.0000000000000E+00
-0.2148760519034E+00 -0.1133851330987E+01  0.0000000000000E+00
-0.2151878706402E+00 -0.1046595922996E+01  0.0000000000000E+00
-0.2156108641473E+00 -0.9593445859525E+00  0.0000000000000E+00
-0.2161602234591E+00 -0.8720997519805E+00  0.0000000000000E+00
-0.2168503016456E+00 -0.7848647328308E+00  0.0000000000000E+00
-0.2176905443385E+00 -0.6976428425456E+00  0.0000000000000E+00
-0.2186782939965E+00 -0.6104369234771E+00  0.0000000000000E+00
-0.2197894415477E+00 -0.5232463943124E+00  0.0000000000000E+00
-0.2209725717140E+00 -0.4360657897959E+00  0.0000000000000E+00
-0.2221557017892E+00 -0.3488851852782E+00  0.0000000000000E+00
-0.2232668490789E+00 -0.2616946561104E+00  0.0000000000000E+00
-0.2242545983352E+00 -0.1744887370377E+00  0.0000000000000E+00
-0.2250948405222E+00 -0.8726684674795E-01  0.0000000000000E+00
-0.2257849181308E+00 -0.3182759427317E-04  0.0000000000000E+00
-0.2263342768177E+00  0.8721300638113E-01  0.0000000000000E+00
-0.2267572696704E+00  0.1744643434270E+00  0.0000000000000E+00
-0.2270690877358E+00  0.2617197514199E+00  0.0000000000000E+00
-0.2272838904341E+00  0.3489773687512E+00  0.0000000000000E+00
-0.1789015764263E+00 -0.1219713636439E+01  0.0000000000000E+00
-0.1790830136144E+00 -0.1132381112142E+01  0.0000000000000E+00
-0.1793452969311E+00 -0.1045050797208E+01  0.0000000000000E+00
-0.1797002258847E+00 -0.9577245532724E+00  0.0000000000000E+00
-0.1801604596716E+00 -0.8704048123869E+00  0.0000000000000E+00
-0.1807379591784E+00 -0.7830948863965E+00  0.0000000000000E+00
-0.1814405957685E+00 -0.6957980891710E+00  0.0000000000000E+00
-0.1822661548159E+00 -0.6085172632330E+00  0.0000000000000E+00
-0.1831945454296E+00 -0.5212518271183E+00  0.0000000000000E+00
-0.1841829215412E+00 -0.4339963156258E+00  0.0000000000000E+00
-0.1851712975617E+00 -0.3467408041322E+00  0.0000000000000E+00
-0.1860996879139E+00 -0.2594753680149E+00  0.0000000000000E+00
-0.1869252465596E+00 -0.1721945420735E+00  0.0000000000000E+00
-0.1876278826438E+00 -0.8489774484416E-01  0.0000000000000E+00
-0.1882053815728E+00  0.2412181149585E-02  0.0000000000000E+00
-0.1886656147347E+00  0.8973192203785E-01  0.0000000000000E+00
-0.1890205430340E+00  0.1770581659759E+00  0.0000000000000E+00
-0.1892828256793E+00  0.2643884809106E+00  0.0000000000000E+00
-0.1894642621872E+00  0.3517210052090E+00  0.0000000000000E+00
-0.1431325314919E+00 -0.1218571569045E+01  0.0000000000000E+00
-0.1432792793728E+00 -0.1131177633129E+01  0.0000000000000E+00
-0.1434907041544E+00 -0.1043785906598E+01  0.0000000000000E+00
-0.1437762454418E+00 -0.9563982511045E+00  0.0000000000000E+00
-0.1441460305922E+00 -0.8690170986448E+00  0.0000000000000E+00
-0.1446096283113E+00 -0.7816457611397E+00  0.0000000000000E+00
-0.1451733356905E+00 -0.6942875523177E+00  0.0000000000000E+00
-0.1458353810224E+00 -0.6069453148415E+00  0.0000000000000E+00
-0.1465796915941E+00 -0.5196184671224E+00  0.0000000000000E+00
-0.1473719905470E+00 -0.4323015440042E+00  0.0000000000000E+00
-0.1481642894086E+00 -0.3449846208852E+00  0.0000000000000E+00
-0.1489085997188E+00 -0.2576577731640E+00  0.0000000000000E+00
-0.1495706446490E+00 -0.1703155356850E+00  0.0000000000000E+00
-0.1501343515224E+00 -0.8295732686004E-01  0.0000000000000E+00
-0.1505979486635E+00  0.4414010647753E-02  0.0000000000000E+00
-0.1509677331890E+00  0.9179516310974E-01  0.0000000000000E+00
-0.1512532738221E+00  0.1791828186046E+00  0.0000000000000E+00
-0.1514646979322E+00  0.2665745451367E+00  0.0000000000000E+00
-0.1516114451329E+00  0.3539684810533E+00  0.0000000000000E+00
-0.1073559775584E+00 -0.1217683014787E+01  0.0000000000000E+00
-0.1074669729805E+00 -0.1130241236752E+01  0.0000000000000E+00
-0.1076264760765E+00 -0.1042801668119E+01  0.0000000000000E+00
-0.1078415665488E+00 -0.9553661705542E+00  0.0000000000000E+00
-0.1081198399148E+00 -0.8679371760100E+00  0.0000000000000E+00
-0.1084684727000E+00 -0.7805179964667E+00  0.0000000000000E+00
-0.1088921877222E+00 -0.6931119455429E+00  0.0000000000000E+00
-0.1093896561947E+00 -0.6057218660102E+00  0.0000000000000E+00
-0.1099488235801E+00 -0.5183471761831E+00  0.0000000000000E+00
-0.1105439822303E+00 -0.4309824109404E+00  0.0000000000000E+00
-0.1111391407892E+00 -0.3436176456970E+00  0.0000000000000E+00
-0.1116983079131E+00 -0.2562429558684E+00  0.0000000000000E+00
-0.1121957759839E+00 -0.1688528763335E+00  0.0000000000000E+00
-0.1126194905003E+00 -0.8144682540749E-01  0.0000000000000E+00
-0.1129681227076E+00  0.5972354137743E-02  0.0000000000000E+00
-0.1132463954486E+00  0.9340134868365E-01  0.0000000000000E+00
-0.1134614852666E+00  0.1808368462493E+00  0.0000000000000E+00
-0.1136209876912E+00  0.2682764148838E+00  0.0000000000000E+00
-0.1137319824330E+00  0.3557181929189E+00  0.0000000000000E+00
-0.7157378539324E-01 -0.1217048183171E+01  0.0000000000000E+00
-0.7164822826765E-01 -0.1129572190533E+01  0.0000000000000E+00
-0.7175500958976E-01 -0.1042098407307E+01  0.0000000000000E+00
-0.7189884915972E-01 -0.9546286951723E+00  0.0000000000000E+00
-0.7208481065407E-01 -0.8671654860487E+00  0.0000000000000E+00
-0.7231767841974E-01 -0.7797120919591E+00  0.0000000000000E+00
-0.7260060099874E-01 -0.6922718264434E+00  0.0000000000000E+00
-0.7293269252678E-01 -0.6048475323512E+00  0.0000000000000E+00
-0.7330591664062E-01 -0.5174386279278E+00  0.0000000000000E+00
-0.7370313490275E-01 -0.4300396480768E+00  0.0000000000000E+00
-0.7410035307365E-01 -0.3426406682255E+00  0.0000000000000E+00
-0.7447357692595E-01 -0.2552317638011E+00  0.0000000000000E+00
-0.7480566805232E-01 -0.1678074697074E+00  0.0000000000000E+00
-0.7508859012547E-01 -0.8036720419022E-01  0.0000000000000E+00
-0.7532145731324E-01  0.7086189900652E-02  0.0000000000000E+00
-0.7550741818259E-01  0.9454939902542E-01  0.0000000000000E+00
-0.7565125709823E-01  0.1820191111605E+00  0.0000000000000E+00
-0.7575803774893E-01  0.2694928943870E+00  0.0000000000000E+00
-0.7583247994311E-01  0.3569688870258E+00  0.0000000000000E+00
-0.3578783098112E-01 -0.1216667224146E+01  0.0000000000000E+00
-0.3582518662058E-01 -0.1129170686043E+01  0.0000000000000E+00
-0.3587871148179E-01 -0.1041676357359E+01  0.0000000000000E+00
-0.3595076546273E-01 -0.9541860997805E+00  0.0000000000000E+00
-0.3604388039874E-01 -0.8667023452065E+00  0.0000000000000E+00
-0.3616044845866E-01 -0.7792284056865E+00  0.0000000000000E+00
-0.3630204390757E-01 -0.6917675947129E+00  0.0000000000000E+00
-0.3646822380494E-01 -0.6043227551822E+00  0.0000000000000E+00
-0.3665496996040E-01 -0.5168933052982E+00  0.0000000000000E+00
-0.3685371314750E-01 -0.4294737799797E+00  0.0000000000000E+00
-0.3705245624338E-01 -0.3420542546609E+00  0.0000000000000E+00
-0.3723920213730E-01 -0.2546248047764E+00  0.0000000000000E+00
-0.3740538163300E-01 -0.1671799652449E+00  0.0000000000000E+00
-0.3754697657605E-01 -0.7971915427061E-01  0.0000000000000E+00
-0.3766354405808E-01  0.7754785250058E-02  0.0000000000000E+00
-0.3775665836908E-01  0.9523853982455E-01  0.0000000000000E+00
-0.3782871169569E-01  0.1827287974037E+00  0.0000000000000E+00
-0.3788223588549E-01  0.2702231260879E+00  0.0000000000000E+00
-0.3791959084473E-01  0.3577196641912E+00  0.0000000000000E+00
 0.6209850736676E-08 -0.1216540227813E+01  0.0000000000000E+00
 0.5524735811083E-08 -0.1129036838433E+01  0.0000000000000E+00
 0.4843998396465E-08 -0.1041535658474E+01  0.0000000000000E+00
 0.4171790525972E-08 -0.9540385496249E+00  0.0000000000000E+00
 0.3514266425853E-08 -0.8665479437785E+00  0.0000000000000E+00
 0.2880364529407E-08 -0.7790671529925E+00  0.0000000000000E+00
 0.2282599226633E-08 -0.6915994907437E+00  0.0000000000000E+00
 0.1737109434959E-08 -0.6041477999442E+00  0.0000000000000E+00
 0.1261877266097E-08 -0.5167114987841E+00  0.0000000000000E+00
 0.8719449662753E-09 -0.4292851221871E+00  0.0000000000000E+00
 0.5732300334473E-09 -0.3418587455901E+00  0.0000000000000E+00
 0.3595447320818E-09 -0.2544224444300E+00  0.0000000000000E+00
 0.2157243325992E-09 -0.1669707536305E+00  0.0000000000000E+00
 0.1238229916565E-09 -0.7950309138169E-01  0.0000000000000E+00
 0.6781348193177E-10  0.7977699404264E-02  0.0000000000000E+00
 0.3529812102035E-10  0.9546830525066E-01  0.0000000000000E+00
 0.1742641910935E-10  0.1829654140998E+00  0.0000000000000E+00
 0.8104205705961E-11  0.2704665940585E+00  0.0000000000000E+00
 0.3215440234396E-11  0.3579699834387E+00  0.0000000000000E+00
 0.3578784340053E-01 -0.1216667224235E+01  0.0000000000000E+00
 0.3582519766977E-01 -0.1129170686128E+01  0.0000000000000E+00
 0.3587872116953E-01 -0.1041676357439E+01  0.0000000000000E+00
 0.3595077380607E-01 -0.9541860998557E+00  0.0000000000000E+00
 0.3604388742704E-01 -0.8667023452767E+00  0.0000000000000E+00
 0.3616045421917E-01 -0.7792284057513E+00  0.0000000000000E+00
 0.3630204847257E-01 -0.6917675947721E+00  0.0000000000000E+00
 0.3646822727897E-01 -0.6043227552356E+00  0.0000000000000E+00
 0.3665497248399E-01 -0.5168933053458E+00  0.0000000000000E+00
 0.3685371489124E-01 -0.4294737800217E+00  0.0000000000000E+00
 0.3705245738970E-01 -0.3420542546977E+00  0.0000000000000E+00
 0.3723920285627E-01 -0.2546248048085E+00  0.0000000000000E+00
 0.3740538206434E-01 -0.1671799652727E+00  0.0000000000000E+00
 0.3754697682360E-01 -0.7971915429417E-01  0.0000000000000E+00
 0.3766354419363E-01  0.7754785230528E-02  0.0000000000000E+00
 0.3775665843962E-01  0.9523853980896E-01  0.0000000000000E+00
 0.3782871173050E-01  0.1827287973920E+00  0.0000000000000E+00
 0.3788223590167E-01  0.2702231260801E+00  0.0000000000000E+00
 0.3791959085114E-01  0.3577196641874E+00  0.0000000000000E+00
 0.7157379781176E-01 -0.1217048183348E+01  0.0000000000000E+00
 0.7164823931600E-01 -0.1129572190701E+01  0.0000000000000E+00
 0.7175501927670E-01 -0.1042098407466E+01  0.0000000000000E+00
 0.7189885750231E-01 -0.9546286953227E+00  0.0000000000000E+00
 0.7208481768167E-01 -0.8671654861889E+00  0.0000000000000E+00
 0.7231768417959E-01 -0.7797120920887E+00  0.0000000000000E+00
 0.7260060556313E-01 -0.6922718265617E+00  0.0000000000000E+00
 0.7293269600025E-01 -0.6048475324578E+00  0.0000000000000E+00
 0.7330591916369E-01 -0.5174386280229E+00  0.0000000000000E+00
 0.7370313664601E-01 -0.4300396481608E+00  0.0000000000000E+00
 0.7410035421955E-01 -0.3426406682992E+00  0.0000000000000E+00
 0.7447357764454E-01 -0.2552317638653E+00  0.0000000000000E+00
 0.7480566848334E-01 -0.1678074697628E+00  0.0000000000000E+00
 0.7508859037274E-01 -0.8036720423734E-01  0.0000000000000E+00
 0.7532145744856E-01  0.7086189861597E-02  0.0000000000000E+00
 0.7550741825294E-01  0.9454939899424E-01  0.0000000000000E+00
 0.7565125713289E-01  0.1820191111371E+00  0.0000000000000E+00
 0.7575803776501E-01  0.2694928943715E+00  0.0000000000000E+00
 0.7583247994948E-01  0.3569688870181E+00  0.0000000000000E+00
 0.1073559899754E+00 -0.1217683015053E+01  0.0000000000000E+00
 0.1074669840274E+00 -0.1130241237005E+01  0.0000000000000E+00
 0.1076264857621E+00 -0.1042801668358E+01  0.0000000000000E+00
 0.1078415748901E+00 -0.9553661707798E+00  0.0000000000000E+00
 0.1081198469412E+00 -0.8679371762203E+00  0.0000000000000E+00
 0.1084684784588E+00 -0.7805179966610E+00  0.0000000000000E+00
 0.1088921922856E+00 -0.6931119457203E+00  0.0000000000000E+00
 0.1093896596672E+00 -0.6057218661702E+00  0.0000000000000E+00
 0.1099488261023E+00 -0.5183471763258E+00  0.0000000000000E+00
 0.1105439839728E+00 -0.4309824110663E+00  0.0000000000000E+00
 0.1111391419344E+00 -0.3436176458075E+00  0.0000000000000E+00
 0.1116983086311E+00 -0.2562429559646E+00  0.0000000000000E+00
 0.1121957764143E+00 -0.1688528764166E+00  0.0000000000000E+00
 0.1126194907471E+00 -0.8144682547815E-01  0.0000000000000E+00
 0.1129681228425E+00  0.5972354079172E-02  0.0000000000000E+00
 0.1132463955186E+00  0.9340134863688E-01  0.0000000000000E+00
 0.1134614853010E+00  0.1808368462143E+00  0.0000000000000E+00
 0.1136209877071E+00  0.2682764148604E+00  0.0000000000000E+00
 0.1137319824393E+00  0.3557181929073E+00  0.0000000000000E+00
 0.1431325439069E+00 -0.1218571569399E+01  0.0000000000000E+00
 0.1432792904178E+00 -0.1131177633466E+01  0.0000000000000E+00
 0.1434907138381E+00 -0.1043785906917E+01  0.0000000000000E+00
 0.1437762537814E+00 -0.9563982514053E+00  0.0000000000000E+00
 0.1441460376170E+00 -0.8690170989253E+00  0.0000000000000E+00
 0.1446096340685E+00 -0.7816457613987E+00  0.0000000000000E+00
 0.1451733402525E+00 -0.6942875525541E+00  0.0000000000000E+00
 0.1458353844936E+00 -0.6069453150547E+00  0.0000000000000E+00
 0.1465796941151E+00 -0.5196184673125E+00  0.0000000000000E+00
 0.1473719922884E+00 -0.4323015441721E+00  0.0000000000000E+00
 0.1481642905529E+00 -0.3449846210325E+00  0.0000000000000E+00
 0.1489086004358E+00 -0.2576577732924E+00  0.0000000000000E+00
 0.1495706450787E+00 -0.1703155357958E+00  0.0000000000000E+00
 0.1501343517685E+00 -0.8295732695422E-01  0.0000000000000E+00
 0.1505979487979E+00  0.4414010569677E-02  0.0000000000000E+00
 0.1509677332586E+00  0.9179516304740E-01  0.0000000000000E+00
 0.1512532738562E+00  0.1791828185579E+00  0.0000000000000E+00
 0.1514646979479E+00  0.2665745451056E+00  0.0000000000000E+00
 0.1516114451391E+00  0.3539684810378E+00  0.0000000000000E+00
 0.1789015888386E+00 -0.1219713636882E+01  0.0000000000000E+00
 0.1790830246568E+00 -0.1132381112564E+01  0.0000000000000E+00
 0.1793453066125E+00 -0.1045050797608E+01  0.0000000000000E+00
 0.1797002342220E+00 -0.9577245536482E+00  0.0000000000000E+00
 0.1801604666943E+00 -0.8704048127374E+00  0.0000000000000E+00
 0.1807379649337E+00 -0.7830948867202E+00  0.0000000000000E+00
 0.1814406003287E+00 -0.6957980894664E+00  0.0000000000000E+00
 0.1822661582854E+00 -0.6085172634995E+00  0.0000000000000E+00
 0.1831945479491E+00 -0.5212518273559E+00  0.0000000000000E+00
 0.1841829232813E+00 -0.4339963158356E+00  0.0000000000000E+00
 0.1851712987046E+00 -0.3467408043163E+00  0.0000000000000E+00
 0.1860996886299E+00 -0.2594753681753E+00  0.0000000000000E+00
 0.1869252469883E+00 -0.1721945422119E+00  0.0000000000000E+00
 0.1876278828891E+00 -0.8489774496185E-01  0.0000000000000E+00
 0.1882053817065E+00  0.2412181052021E-02  0.0000000000000E+00
 0.1886656148037E+00  0.8973192195995E-01  0.0000000000000E+00
 0.1890205430676E+00  0.1770581659176E+00  0.0000000000000E+00
 0.1892828256947E+00  0.2643884808718E+00  0.0000000000000E+00
 0.1894642621932E+00  0.3517210051896E+00  0.0000000000000E+00
 0.2146612609340E+00 -0.1221108948849E+01  0.0000000000000E+00
 0.2148760629428E+00 -0.1133851331493E+01  0.0000000000000E+00
 0.2151878803187E+00 -0.1046595923475E+01  0.0000000000000E+00
 0.2156108724819E+00 -0.9593445864034E+00  0.0000000000000E+00
 0.2161602304793E+00 -0.8720997524010E+00  0.0000000000000E+00
 0.2168503073985E+00 -0.7848647332192E+00  0.0000000000000E+00
 0.2176905488964E+00 -0.6976428429001E+00  0.0000000000000E+00
 0.2186782974640E+00 -0.6104369237968E+00  0.0000000000000E+00
 0.2197894440653E+00 -0.5232463945975E+00  0.0000000000000E+00
 0.2209725734523E+00 -0.4360657900476E+00  0.0000000000000E+00
 0.2221557029306E+00 -0.3488851854990E+00  0.0000000000000E+00
 0.2232668497935E+00 -0.2616946563028E+00  0.0000000000000E+00
 0.2242545987627E+00 -0.1744887372037E+00  0.0000000000000E+00
 0.2250948407665E+00 -0.8726684688914E-01  0.0000000000000E+00
 0.2257849182636E+00 -0.3182771130406E-04  0.0000000000000E+00
 0.2263342768860E+00  0.8721300628769E-01  0.0000000000000E+00
 0.2267572697036E+00  0.1744643433570E+00  0.0000000000000E+00
 0.2270690877509E+00  0.2617197513733E+00  0.0000000000000E+00
 0.2272838904400E+00  0.3489773687279E+00  0.0000000000000E+00
 0.2504096942013E+00 -0.1222757177511E+01  0.0000000000000E+00
 0.2506562837339E+00 -0.1135587872533E+01  0.0000000000000E+00
 0.2510160578632E+00 -0.1048420776863E+01  0.0000000000000E+00
 0.2515055359137E+00 -0.9612577520800E+00  0.0000000000000E+00
 0.2521424407689E+00 -0.8741012303908E+00  0.0000000000000E+00
 0.2529435177012E+00 -0.7869545234362E+00  0.0000000000000E+00
 0.2539197866326E+00 -0.6998209454615E+00  0.0000000000000E+00
 0.2550681471422E+00 -0.6127033386189E+00  0.0000000000000E+00
 0.2563604720100E+00 -0.5256011217751E+00  0.0000000000000E+00
 0.2577367767798E+00 -0.4385088296118E+00  0.0000000000000E+00
 0.2591130816408E+00 -0.3514165374499E+00  0.0000000000000E+00
 0.2604054067703E+00 -0.2643143206098E+00  0.0000000000000E+00
 0.2615537676815E+00 -0.1771967137720E+00  0.0000000000000E+00
 0.2625300371188E+00 -0.9006313580257E-01  0.0000000000000E+00
 0.2633311146290E+00 -0.2916428852618E-02  0.0000000000000E+00
 0.2639680201092E+00  0.8424009283257E-01  0.0000000000000E+00
 0.2644574988141E+00  0.1714031176123E+00  0.0000000000000E+00
 0.2648172736148E+00  0.2585702132807E+00  0.0000000000000E+00
 0.2650638638277E+00  0.3457395182575E+00  0.0000000000000E+00
 0.2861450497528E+00 -0.1224657937658E+01  0.0000000000000E+00
 0.2864215954848E+00 -0.1137590245005E+01  0.0000000000000E+00
 0.2868274950427E+00 -0.1050524761626E+01  0.0000000000000E+00
 0.2873816276554E+00 -0.9634633490672E+00  0.0000000000000E+00
 0.2881042480409E+00 -0.8764084396296E+00  0.0000000000000E+00
 0.2890144936591E+00 -0.7893633448277E+00  0.0000000000000E+00
 0.2901249586923E+00 -0.7023313791405E+00  0.0000000000000E+00
 0.2914320998121E+00 -0.6153153844889E+00  0.0000000000000E+00
 0.2929037716112E+00 -0.5283147799456E+00  0.0000000000000E+00
 0.2944714204269E+00 -0.4413241001183E+00  0.0000000000000E+00
 0.2960390693338E+00 -0.3543334202925E+00  0.0000000000000E+00
 0.2975107413944E+00 -0.2673328157534E+00  0.0000000000000E+00
 0.2988178829159E+00 -0.1803168211074E+00  0.0000000000000E+00
 0.2999283484550E+00 -0.9328485542617E-01  0.0000000000000E+00
 0.3008385946511E+00 -0.6239760629561E-02  0.0000000000000E+00
 0.3015612156617E+00  0.8081514880343E-01  0.0000000000000E+00
 0.3021153489287E+00  0.1678765613589E+00  0.0000000000000E+00
 0.3025212491580E+00  0.2549420447359E+00  0.0000000000000E+00
 0.3027977955703E+00  0.3420097373869E+00  0.0000000000000E+00
 0.3218654950076E+00 -0.1226810786673E+01  0.0000000000000E+00
 0.3221699194030E+00 -0.1139857885942E+01  0.0000000000000E+00
 0.3226198668546E+00 -0.1052907194445E+01  0.0000000000000E+00
 0.3232365764971E+00 -0.9659605736929E+00  0.0000000000000E+00
 0.3240428348810E+00 -0.8790204560934E+00  0.0000000000000E+00
 0.3250601716561E+00 -0.7920901530176E+00  0.0000000000000E+00
 0.3263027552606E+00 -0.7051729792090E+00  0.0000000000000E+00
 0.3277665994632E+00 -0.6182717763270E+00  0.0000000000000E+00
 0.3294155406647E+00 -0.5313859636768E+00  0.0000000000000E+00
 0.3311724559974E+00 -0.4445100757828E+00  0.0000000000000E+00
 0.3329293714212E+00 -0.3576341878906E+00  0.0000000000000E+00
 0.3345783128843E+00 -0.2707483752451E+00  0.0000000000000E+00
 0.3360421574886E+00 -0.1838471723695E+00  0.0000000000000E+00
 0.3372847415990E+00 -0.9692999856756E-01  0.0000000000000E+00
 0.3383020789519E+00 -0.9999695497830E-02  0.0000000000000E+00
 0.3391083379610E+00  0.7694042209661E-01  0.0000000000000E+00
 0.3397250482577E+00  0.1638870428451E+00  0.0000000000000E+00
 0.3401749963809E+00  0.2508377343392E+00  0.0000000000000E+00
 0.3404794214564E+00  0.3377906350684E+00  0.0000000000000E+00
 0.3575692103522E+00 -0.1229215225492E+01  0.0000000000000E+00
 0.3578991955492E+00 -0.1142390161481E+01  0.0000000000000E+00
 0.3583908730369E+00 -0.1055567306661E+01  0.0000000000000E+00
 0.3590678418560E+00 -0.9687485225011E+00  0.0000000000000E+00
 0.3599554203886E+00 -0.8819362415286E+00  0.0000000000000E+00
 0.3610775304771E+00 -0.7951337749554E+00  0.0000000000000E+00
 0.3624499148109E+00 -0.7083444378190E+00  0.0000000000000E+00
 0.3640681442610E+00 -0.6215710714880E+00  0.0000000000000E+00
 0.3658920370309E+00 -0.5348130955263E+00  0.0000000000000E+00
 0.3678359010477E+00 -0.4480650443656E+00  0.0000000000000E+00
 0.3697797651558E+00 -0.3613169932067E+00  0.0000000000000E+00
 0.3716036581872E+00 -0.2745590172503E+00  0.0000000000000E+00
 0.3732218880390E+00 -0.1877856509263E+00  0.0000000000000E+00
 0.3745942728787E+00 -0.1009963137974E+00  0.0000000000000E+00
 0.3757163835452E+00 -0.1419384723091E-01  0.0000000000000E+00
 0.3766039627027E+00  0.7261843373593E-01  0.0000000000000E+00
 0.3772809321762E+00  0.1594372178920E+00  0.0000000000000E+00
 0.3777726103353E+00  0.2462600727091E+00  0.0000000000000E+00
 0.3781025962126E+00  0.3330851367181E+00  0.0000000000000E+00
 0.3932543904037E+00 -0.1231870699439E+01  0.0000000000000E+00
 0.3936073839619E+00 -0.1145186368159E+01  0.0000000000000E+00
 0.3941382390479E+00 -0.1058504246021E+01  0.0000000000000E+00
 0.3948729146103E+00 -0.9718261944503E+00  0.0000000000000E+00
 0.3958392608602E+00 -0.8851546461056E+00  0.0000000000000E+00
 0.3970635918366E+00 -0.7984929120234E+00  0.0000000000000E+00
 0.3985632244741E+00 -0.7118443075646E+00  0.0000000000000E+00
 0.4003332867518E+00 -0.6252116737778E+00  0.0000000000000E+00
 0.4023295786701E+00 -0.5385944305118E+00  0.0000000000000E+00
 0.4044578389521E+00 -0.4519871120958E+00  0.0000000000000E+00
 0.4065860993252E+00 -0.3653797936820E+00  0.0000000000000E+00
 0.4085823915051E+00 -0.2787625504218E+00  0.0000000000000E+00
 0.4103524541845E+00 -0.1921299166427E+00  0.0000000000000E+00
 0.4118520873278E+00 -0.1054813121922E+00  0.0000000000000E+00
 0.4130764188822E+00 -0.1881957811723E-01  0.0000000000000E+00
 0.4140427657571E+00  0.6785197022115E-01  0.0000000000000E+00
 0.4147774419739E+00  0.1545300217875E+00  0.0000000000000E+00
 0.4153082977314E+00  0.2412121439217E+00  0.0000000000000E+00
 0.4156612919698E+00  0.3278964752003E+00  0.0000000000000E+00
 0.4289192336032E+00 -0.1234776598240E+01  0.0000000000000E+00
 0.4292924555389E+00 -0.1148245733549E+01  0.0000000000000E+00
 0.4298597082370E+00 -0.1061717077950E+01  0.0000000000000E+00
 0.4306493105539E+00 -0.9751924928149E+00  0.0000000000000E+00
 0.4316916445264E+00 -0.8886744109484E+00  0.0000000000000E+00
 0.4330154163933E+00 -0.8021661431949E+00  0.0000000000000E+00
 0.4346395173275E+00 -0.7156710052686E+00  0.0000000000000E+00
 0.4365586324225E+00 -0.6291918378687E+00  0.0000000000000E+00
 0.4387245434713E+00 -0.5427280611548E+00  0.0000000000000E+00
 0.4410344199965E+00 -0.4562742093445E+00  0.0000000000000E+00
 0.4433442966129E+00 -0.3698203575366E+00  0.0000000000000E+00
 0.4455102079233E+00 -0.2833565808289E+00  0.0000000000000E+00
 0.4474293234200E+00 -0.1968774134374E+00  0.0000000000000E+00
 0.4490534248601E+00 -0.1103822755201E+00  0.0000000000000E+00
 0.4503771973049E+00 -0.2387400777464E-01  0.0000000000000E+00
 0.4514195319025E+00  0.6264407408500E-01  0.0000000000000E+00
 0.4522091348738E+00  0.1491686592148E+00  0.0000000000000E+00
 0.4527763882432E+00  0.2356973148111E+00  0.0000000000000E+00
 0.4531496108593E+00  0.3222281794997E+00  0.0000000000000E+00
 0.4645619687765E+00 -0.1237932259164E+01  0.0000000000000E+00
 0.4649524210827E+00 -0.1151567420505E+01  0.0000000000000E+00
 0.4655530733909E+00 -0.1065204790881E+01  0.0000000000000E+00
 0.4663946044674E+00 -0.9788462316122E+00  0.0000000000000E+00
 0.4675099281727E+00 -0.8924941756571E+00  0.0000000000000E+00
 0.4689301429494E+00 -0.8061519336535E+00  0.0000000000000E+00
 0.4706757142023E+00 -0.7198228216974E+00  0.0000000000000E+00
 0.4727408841464E+00 -0.6335096801102E+00  0.0000000000000E+00
 0.4750734163596E+00 -0.5472119293876E+00  0.0000000000000E+00
 0.4775619111642E+00 -0.4609241036267E+00  0.0000000000000E+00
 0.4800504060600E+00 -0.3746362778683E+00  0.0000000000000E+00
 0.4823829385348E+00 -0.2883385271526E+00  0.0000000000000E+00
 0.4844481088806E+00 -0.2020253855745E+00  0.0000000000000E+00
 0.4861936806394E+00 -0.1156962736281E+00  0.0000000000000E+00
 0.4876138959940E+00 -0.2935403163311E-01  0.0000000000000E+00
 0.4887292203243E+00  0.5699802431457E-01  0.0000000000000E+00
 0.4895707520552E+00  0.1433565835781E+00  0.0000000000000E+00
 0.4901714050349E+00  0.2297192131983E+00  0.0000000000000E+00
 0.4905618580214E+00  0.3160840518546E+00  0.0000000000000E+00
 0.5001808504803E+00 -0.1241336967453E+01  0.0000000000000E+00
 0.5005853201167E+00 -0.1155150527090E+01  0.0000000000000E+00
 0.5012161589915E+00 -0.1068966295702E+01  0.0000000000000E+00
 0.5021064057811E+00 -0.9827861345503E+00  0.0000000000000E+00
 0.5032915061658E+00 -0.8966124767617E+00  0.0000000000000E+00
 0.5048049507956E+00 -0.8104486327508E+00  0.0000000000000E+00
 0.5066687792994E+00 -0.7242979190243E+00  0.0000000000000E+00
 0.5088767910208E+00 -0.6381631754975E+00  0.0000000000000E+00
 0.5113727313176E+00 -0.5520438230273E+00  0.0000000000000E+00
 0.5140366313163E+00 -0.4659343955811E+00  0.0000000000000E+00
 0.5167005314062E+00 -0.3798249681376E+00  0.0000000000000E+00
 0.5191964719646E+00 -0.2937056156747E+00  0.0000000000000E+00
 0.5214044840877E+00 -0.2075708721577E+00  0.0000000000000E+00
 0.5232683130974E+00 -0.1214201584418E+00  0.0000000000000E+00
 0.5247817583051E+00 -0.3525631444021E-01  0.0000000000000E+00
 0.5259668593148E+00  0.5091734334048E-01  0.0000000000000E+00
 0.5268571067588E+00  0.1370975044860E+00  0.0000000000000E+00
 0.5274879463051E+00  0.2232817358704E+00  0.0000000000000E+00
 0.5278924166218E+00  0.3094681762305E+00  0.0000000000000E+00
 0.5357741492561E+00 -0.1244989957511E+01  0.0000000000000E+00
 0.5361892220105E+00 -0.1158994090209E+01  0.0000000000000E+00
 0.5368468332483E+00 -0.1073000431817E+01  0.0000000000000E+00
 0.5377823815580E+00 -0.9870108435357E+00  0.0000000000000E+00
 0.5390338444379E+00 -0.9010277586693E+00  0.0000000000000E+00
 0.5406371047507E+00 -0.8150544873953E+00  0.0000000000000E+00
 0.5426157763422E+00 -0.7290943466587E+00  0.0000000000000E+00
 0.5449632156924E+00 -0.6431501759410E+00  0.0000000000000E+00
 0.5476191499298E+00 -0.5572213964849E+00  0.0000000000000E+00
 0.5504550409842E+00 -0.4713025421194E+00  0.0000000000000E+00
 0.5532909321297E+00 -0.3853836877569E+00  0.0000000000000E+00
 0.5559468666287E+00 -0.2994549083086E+00  0.0000000000000E+00
 0.5582943063805E+00 -0.2135107376014E+00  0.0000000000000E+00
 0.5602729784780E+00 -0.1275505968760E+00  0.0000000000000E+00
 0.5618762393687E+00 -0.4157732561200E-01  0.0000000000000E+00
 0.5631277028737E+00  0.4440575924581E-01  0.0000000000000E+00
 0.5640632518377E+00  0.1303953475209E+00  0.0000000000000E+00
 0.5647208637470E+00  0.2163890059088E+00  0.0000000000000E+00
 0.5651359371817E+00  0.3023848732079E+00  0.0000000000000E+00
 0.5713401499894E+00 -0.1248890412545E+01  0.0000000000000E+00
 0.5717622119691E+00 -0.1163097083611E+01  0.0000000000000E+00
 0.5724429816650E+00 -0.1077305963517E+01  0.0000000000000E+00
 0.5734202175769E+00 -0.9915189134002E+00  0.0000000000000E+00
 0.5747344290158E+00 -0.9057383667540E+00  0.0000000000000E+00
 0.5764238910593E+00 -0.8199676335031E+00  0.0000000000000E+00
 0.5785137917608E+00 -0.7342100310583E+00  0.0000000000000E+00
 0.5809970447448E+00 -0.6484683984404E+00  0.0000000000000E+00
 0.5838093589073E+00 -0.5627421573021E+00  0.0000000000000E+00
 0.5868136269902E+00 -0.4770258413251E+00  0.0000000000000E+00
 0.5898178951644E+00 -0.3913095253513E+00  0.0000000000000E+00
 0.5926302095884E+00 -0.3055832842213E+00  0.0000000000000E+00
 0.5951134629742E+00 -0.2198416516146E+00  0.0000000000000E+00
 0.5972033641815E+00 -0.1340840491819E+00  0.0000000000000E+00
 0.5988928268029E+00 -0.4831331594156E-01  0.0000000000000E+00
 0.6002070388669E+00  0.3746723069555E-01  0.0000000000000E+00
 0.6011842754332E+00  0.1232542808057E+00  0.0000000000000E+00
 0.6018650458005E+00  0.2090454008946E+00  0.0000000000000E+00
 0.6022871084605E+00  0.2948387298263E+00  0.0000000000000E+00
 0.6068771371579E+00 -0.1253037465844E+01  0.0000000000000E+00
 0.6073023971197E+00 -0.1167458424002E+01  0.0000000000000E+00
 0.6080025340419E+00 -0.1081881590927E+01  0.0000000000000E+00
 0.6090176663387E+00 -0.9963088276876E+00  0.0000000000000E+00
 0.6103908351315E+00 -0.9107425679775E+00  0.0000000000000E+00
 0.6121627077193E+00 -0.8251861214541E+00  0.0000000000000E+00
 0.6143600463551E+00 -0.7396428060213E+00  0.0000000000000E+00
 0.6169753218167E+00 -0.6541154602123E+00  0.0000000000000E+00
 0.6199402247568E+00 -0.5686035061133E+00  0.0000000000000E+00
 0.6231090787274E+00 -0.4831014772506E+00  0.0000000000000E+00
 0.6262779327892E+00 -0.3975994483912E+00  0.0000000000000E+00
 0.6292428359909E+00 -0.3120874943012E+00  0.0000000000000E+00
 0.6318581118542E+00 -0.2265601485040E+00  0.0000000000000E+00
 0.6340554509959E+00 -0.1410168330840E+00  0.0000000000000E+00
 0.6358273241616E+00 -0.5546038657190E-01  0.0000000000000E+00
 0.6372004935795E+00  0.3010587312856E-01  0.0000000000000E+00
 0.6382156265306E+00  0.1156786363610E+00  0.0000000000000E+00
 0.6389157641243E+00  0.2012554694305E+00  0.0000000000000E+00
 0.6393410247663E+00  0.2868345112703E+00  0.0000000000000E+00
 0.6423834709618E+00 -0.1257430208361E+01  0.0000000000000E+00
 0.6428079579416E+00 -0.1172076974739E+01  0.0000000000000E+00
 0.6435234911376E+00 -0.1086725949808E+01  0.0000000000000E+00
 0.6445725488804E+00 -0.1001378994563E+01  0.0000000000000E+00
 0.6460007041001E+00 -0.9160385429092E+00  0.0000000000000E+00
 0.6478510163235E+00 -0.8307079042225E+00  0.0000000000000E+00
 0.6501518219949E+00 -0.7453903969262E+00  0.0000000000000E+00
 0.6528951490542E+00 -0.6600888590394E+00  0.0000000000000E+00
 0.6560086699003E+00 -0.5748027131058E+00  0.0000000000000E+00
 0.6593381388929E+00 -0.4895264924872E+00  0.0000000000000E+00
 0.6626676079766E+00 -0.4042502718721E+00  0.0000000000000E+00
 0.6657811290843E+00 -0.3189641259479E+00  0.0000000000000E+00
 0.6685244565453E+00 -0.2336625880737E+00  0.0000000000000E+00
 0.6708252627226E+00 -0.1483450807910E+00  0.0000000000000E+00
 0.6726755755239E+00 -0.6301444211619E-01  0.0000000000000E+00
 0.6741037313687E+00  0.2232600952730E-01  0.0000000000000E+00
 0.6751527897659E+00  0.1076729647648E+00  0.0000000000000E+00
 0.6758683236333E+00  0.1930239896902E+00  0.0000000000000E+00
 0.6762928112935E+00  0.2783772233094E+00  0.0000000000000E+00
 0.6778575079345E+00 -0.1262067681820E+01  0.0000000000000E+00
 0.6782770771087E+00 -0.1176951540526E+01  0.0000000000000E+00
 0.6790038617375E+00 -0.1091837607843E+01  0.0000000000000E+00
 0.6800827000673E+00 -0.1006727744689E+01  0.0000000000000E+00
 0.6815616968295E+00 -0.9216243851913E+00  0.0000000000000E+00
 0.6834863037813E+00 -0.8365308384297E+00  0.0000000000000E+00
 0.6858864315472E+00 -0.7514504233734E+00  0.0000000000000E+00
 0.6887536652390E+00 -0.6663859775017E+00  0.0000000000000E+00
 0.6920116589981E+00 -0.5813369238382E+00  0.0000000000000E+00
 0.6954975980043E+00 -0.4962977955727E+00  0.0000000000000E+00
 0.6989835371017E+00 -0.4112586673108E+00  0.0000000000000E+00
 0.7022415311224E+00 -0.3262096136574E+00  0.0000000000000E+00
 0.7051087652158E+00 -0.2411451677989E+00  0.0000000000000E+00
 0.7075088934877E+00 -0.1560647527569E+00  0.0000000000000E+00
 0.7094335010174E+00 -0.7097120600793E-01  0.0000000000000E+00
 0.7109124984047E+00  0.1413215347913E-01  0.0000000000000E+00
 0.7119913373889E+00  0.9924201662545E-01  0.0000000000000E+00
 0.7127181226891E+00  0.1843559493029E+00  0.0000000000000E+00
 0.7131376925436E+00  0.2694720905938E+00  0.0000000000000E+00
-0.1461382977135E+01 -0.1366969715354E+01  0.0000000000000E+00
-0.1536838318740E+01 -0.1251434914183E+01  0.0000000000000E+00
-0.1612772383862E+01 -0.1136216660518E+01  0.0000000000000E+00
-0.1682662190134E+01 -0.1017118437211E+01  0.0000000000000E+00
-0.1744352422289E+01 -0.8934077853993E+00  0.0000000000000E+00
-0.1798213558619E+01 -0.7659621724060E+00  0.0000000000000E+00
-0.1844158474103E+01 -0.6353520178781E+00  0.0000000000000E+00
-0.1881388018209E+01 -0.5019106555406E+00  0.0000000000000E+00
-0.1909838253907E+01 -0.3662625943974E+00  0.0000000000000E+00
-0.1928756468757E+01 -0.2289268443260E+00  0.0000000000000E+00
-0.1936610695830E+01 -0.9050316094402E-01  0.0000000000000E+00
-0.1935962495635E+01  0.4816323147748E-01  0.0000000000000E+00
-0.1915746975476E+01  0.1850134490903E+00  0.0000000000000E+00
-0.1866398119172E+01  0.3140157130469E+00  0.0000000000000E+00
-0.1794320744535E+01  0.4315254877347E+00  0.0000000000000E+00
-0.1705912240744E+01  0.5369275948221E+00  0.0000000000000E+00
-0.1607092793437E+01  0.6322756433932E+00  0.0000000000000E+00
-0.1500783670345E+01  0.7188137666816E+00  0.0000000000000E+00
-0.1388289662873E+01  0.7967110478414E+00  0.0000000000000E+00
-0.1422429226874E+01 -0.1359767065380E+01  0.0000000000000E+00
-0.1493912765281E+01 -0.1245948355879E+01  0.0000000000000E+00
-0.1565866851627E+01 -0.1132429649044E+01  0.0000000000000E+00
-0.1632114304946E+01 -0.1015235383770E+01  0.0000000000000E+00
-0.1690615909786E+01 -0.8936717932586E+00  0.0000000000000E+00
-0.1741725163678E+01 -0.7685703365138E+00  0.0000000000000E+00
-0.1785361184768E+01 -0.6404715832861E+00  0.0000000000000E+00
-0.1820766416911E+01 -0.5096914726017E+00  0.0000000000000E+00
-0.1847876058184E+01 -0.3768216156395E+00  0.0000000000000E+00
-0.1865967993324E+01 -0.2423534138595E+00  0.0000000000000E+00
-0.1873578256475E+01 -0.1068545354329E+00  0.0000000000000E+00
-0.1873120957503E+01  0.2887478878923E-01  0.0000000000000E+00
-0.1854104576422E+01  0.1628844644037E+00  0.0000000000000E+00
-0.1807462310472E+01  0.2894600596444E+00  0.0000000000000E+00
-0.1739261410714E+01  0.4051486846621E+00  0.0000000000000E+00
-0.1655564219598E+01  0.5093673682636E+00  0.0000000000000E+00
-0.1561981855766E+01  0.6040614774211E+00  0.0000000000000E+00
-0.1461284503982E+01  0.6904095498839E+00  0.0000000000000E+00
-0.1354710767645E+01  0.7685716769124E+00  0.0000000000000E+00
-0.1383422395682E+01 -0.1352772899744E+01  0.0000000000000E+00
-0.1450936926762E+01 -0.1240659305974E+01  0.0000000000000E+00
-0.1518913830188E+01 -0.1128829170111E+01  0.0000000000000E+00
-0.1581521725986E+01 -0.1013527888229E+01  0.0000000000000E+00
-0.1636837498850E+01 -0.8941003841387E+00  0.0000000000000E+00
-0.1685197665562E+01 -0.7713321085327E+00  0.0000000000000E+00
-0.1726527587358E+01 -0.6457337815459E+00  0.0000000000000E+00
-0.1760111302466E+01 -0.5176039475250E+00  0.0000000000000E+00
-0.1785883144110E+01 -0.3875013196816E+00  0.0000000000000E+00
-0.1803151594074E+01 -0.2558896915364E+00  0.0000000000000E+00
-0.1810520687586E+01 -0.1233046437126E+00  0.0000000000000E+00
-0.1810257084305E+01  0.9498587900696E-02  0.0000000000000E+00
-0.1792442632968E+01  0.1406786833209E+00  0.0000000000000E+00
-0.1748509748075E+01  0.2648385733975E+00  0.0000000000000E+00
-0.1684188114646E+01  0.3787170164180E+00  0.0000000000000E+00
-0.1605205028395E+01  0.4817632478827E+00  0.0000000000000E+00
-0.1516862540600E+01  0.5758143908855E+00  0.0000000000000E+00
-0.1421779752733E+01  0.6619833862764E+00  0.0000000000000E+00
-0.1321129080072E+01  0.7404213328697E+00  0.0000000000000E+00
-0.1344363461517E+01 -0.1345988511677E+01  0.0000000000000E+00
-0.1407911724722E+01 -0.1235568989505E+01  0.0000000000000E+00
-0.1471914184652E+01 -0.1125416380539E+01  0.0000000000000E+00
-0.1530885262298E+01 -0.1011997039425E+01  0.0000000000000E+00
-0.1583017942955E+01 -0.8946945791509E+00  0.0000000000000E+00
-0.1628631762636E+01 -0.7742484420609E+00  0.0000000000000E+00
-0.1667658325614E+01 -0.6511394989236E+00  0.0000000000000E+00
-0.1699423264513E+01 -0.5256488994063E+00  0.0000000000000E+00
-0.1723860047741E+01 -0.3983024585749E+00  0.0000000000000E+00
-0.1740307754039E+01 -0.2695363624626E+00  0.0000000000000E+00
-0.1747438419795E+01 -0.1398541040076E+00  0.0000000000000E+00
-0.1747371254740E+01 -0.9965922536359E-02  0.0000000000000E+00
-0.1730761473034E+01  0.1183956213862E+00  0.0000000000000E+00
-0.1689540710730E+01  0.2401508372010E+00  0.0000000000000E+00
-0.1629101087155E+01  0.3522301339270E+00  0.0000000000000E+00
-0.1554834850913E+01  0.4541149533462E+00  0.0000000000000E+00
-0.1471734985227E+01  0.5475341727792E+00  0.0000000000000E+00
-0.1382269507802E+01  0.6335351346815E+00  0.0000000000000E+00
-0.1287544645600E+01  0.7122599448561E+00  0.0000000000000E+00
-0.1305253595826E+01 -0.1339415213000E+01  0.0000000000000E+00
-0.1364838274543E+01 -0.1230678649356E+01  0.0000000000000E+00
-0.1424868974351E+01 -0.1122192454299E+01  0.0000000000000E+00
-0.1480205916758E+01 -0.1010643942172E+01  0.0000000000000E+00
-0.1529158187961E+01 -0.8954554136531E+00  0.0000000000000E+00
-0.1572028343215E+01 -0.7773203027582E+00  0.0000000000000E+00
-0.1608754229756E+01 -0.6566896311765E+00  0.0000000000000E+00
-0.1638703074586E+01 -0.5338271539178E+00  0.0000000000000E+00
-0.1661807481336E+01 -0.4092257877632E+00  0.0000000000000E+00
-0.1677437125571E+01 -0.2832941117465E+00  0.0000000000000E+00
-0.1684332044841E+01 -0.1565035310225E+00  0.0000000000000E+00
-0.1684463999390E+01 -0.2951928680034E-01  0.0000000000000E+00
-0.1669061564887E+01  0.9603480454536E-01  0.0000000000000E+00
-0.1630555602536E+01  0.2153964467291E+00  0.0000000000000E+00
-0.1574000666711E+01  0.3256877018770E+00  0.0000000000000E+00
-0.1504453958951E+01  0.4264222175976E+00  0.0000000000000E+00
-0.1426599394119E+01  0.5192206236651E+00  0.0000000000000E+00
-0.1342753905869E+01  0.6050646627177E+00  0.0000000000000E+00
-0.1253957532744E+01  0.6840874469890E+00  0.0000000000000E+00
-0.1266093896943E+01 -0.1333054270719E+01  0.0000000000000E+00
-0.1321717616255E+01 -0.1225989485819E+01  0.0000000000000E+00
-0.1377779181010E+01 -0.1119158524968E+01  0.0000000000000E+00
-0.1429484612826E+01 -0.1009469663358E+01  0.0000000000000E+00
-0.1475259099109E+01 -0.8963838878734E+00  0.0000000000000E+00
-0.1515388214367E+01 -0.7805486242106E+00  0.0000000000000E+00
-0.1549816048729E+01 -0.6623850452667E+00  0.0000000000000E+00
-0.1577951423558E+01 -0.5421395114141E+00  0.0000000000000E+00
-0.1599726077743E+01 -0.4202720410058E+00  0.0000000000000E+00
-0.1614540283554E+01 -0.2971636065640E+00  0.0000000000000E+00
-0.1621202079703E+01 -0.1732535253581E+00  0.0000000000000E+00
-0.1621535777370E+01 -0.4916203891051E-01  0.0000000000000E+00
-0.1607343309956E+01  0.7359576528685E-01  0.0000000000000E+00
-0.1571554767384E+01  0.1905750010332E+00  0.0000000000000E+00
-0.1518887139772E+01  0.2990893859719E+00  0.0000000000000E+00
-0.1454062581599E+01  0.3986847730844E+00  0.0000000000000E+00
-0.1381455939042E+01  0.4908735428029E+00  0.0000000000000E+00
-0.1303233061414E+01  0.5765718365090E+00  0.0000000000000E+00
-0.1220367798727E+01  0.6559037723053E+00  0.0000000000000E+00
-0.1226885434598E+01 -0.1326906918420E+01  0.0000000000000E+00
-0.1278550759514E+01 -0.1221502667451E+01  0.0000000000000E+00
-0.1330645754203E+01 -0.1116315696059E+01  0.0000000000000E+00
-0.1378722240279E+01 -0.1008475241632E+01  0.0000000000000E+00
-0.1421321506754E+01 -0.8974809757901E+00  0.0000000000000E+00
-0.1458712147377E+01 -0.7839343158880E+00  0.0000000000000E+00
-0.1490844495113E+01 -0.6682265862935E+00  0.0000000000000E+00
-0.1517168965702E+01 -0.5505867527475E+00  0.0000000000000E+00
-0.1537616433326E+01 -0.4314419350033E+00  0.0000000000000E+00
-0.1551617766864E+01 -0.3111454995403E+00  0.0000000000000E+00
-0.1558049006250E+01 -0.1901046756128E+00  0.0000000000000E+00
-0.1558587013893E+01 -0.6889470344107E-01  0.0000000000000E+00
-0.1545607077695E+01  0.5107804305651E-01  0.0000000000000E+00
-0.1512538520197E+01  0.1656861039298E+00  0.0000000000000E+00
-0.1463760767663E+01  0.2724348549213E+00  0.0000000000000E+00
-0.1403660927249E+01  0.3709023539556E+00  0.0000000000000E+00
-0.1336304775877E+01  0.4624927302273E+00  0.0000000000000E+00
-0.1263707078111E+01  0.5480565223604E+00  0.0000000000000E+00
-0.1186775495267E+01  0.6277088537534E+00  0.0000000000000E+00
-0.1187629395366E+01 -0.1320974386387E+01  0.0000000000000E+00
-0.1235338830454E+01 -0.1217219359810E+01  0.0000000000000E+00
-0.1283469759628E+01 -0.1113665068416E+01  0.0000000000000E+00
-0.1327919804237E+01 -0.1007661713037E+01  0.0000000000000E+00
-0.1367346355235E+01 -0.8987476485388E+00  0.0000000000000E+00
-0.1402001025609E+01 -0.7874782839299E+00  0.0000000000000E+00
-0.1431840391102E+01 -0.6742150953269E+00  0.0000000000000E+00
-0.1456356461827E+01 -0.5591696538526E+00  0.0000000000000E+00
-0.1475479247296E+01 -0.4427361805032E+00  0.0000000000000E+00
-0.1488670212889E+01 -0.3252404361983E+00  0.0000000000000E+00
-0.1494873399790E+01 -0.2070575620616E+00  0.0000000000000E+00
-0.1495618221986E+01 -0.8871779540677E-01  0.0000000000000E+00
-0.1483853318484E+01  0.2848118797714E-01  0.0000000000000E+00
-0.1453507248027E+01  0.1407293705068E+00  0.0000000000000E+00
-0.1408621873567E+01  0.2457237885353E+00  0.0000000000000E+00
-0.1353249254825E+01  0.3430747044833E+00  0.0000000000000E+00
-0.1291146099045E+01  0.4340779944504E+00  0.0000000000000E+00
-0.1224176085705E+01  0.5195185928221E+00  0.0000000000000E+00
-0.1153180687300E+01  0.5995026277207E+00  0.0000000000000E+00
-0.1148326976788E+01 -0.1315257877050E+01  0.0000000000000E+00
-0.1192082964804E+01 -0.1213140702054E+01  0.0000000000000E+00
-0.1236252271205E+01 -0.1111207717923E+01  0.0000000000000E+00
-0.1277078316727E+01 -0.1007030090139E+01  0.0000000000000E+00
-0.1313334594560E+01 -0.9001848553013E+00  0.0000000000000E+00
-0.1345255736939E+01 -0.7911814140789E+00  0.0000000000000E+00
-0.1372804562317E+01 -0.6803513946257E+00  0.0000000000000E+00
-0.1395514675171E+01 -0.5678889734651E+00  0.0000000000000E+00
-0.1413315220375E+01 -0.4541554726861E+00  0.0000000000000E+00
-0.1425698259699E+01 -0.3394490481422E+00  0.0000000000000E+00
-0.1431675835588E+01 -0.2241127527187E+00  0.0000000000000E+00
-0.1432629913986E+01 -0.1086318192211E+00  0.0000000000000E+00
-0.1422082481537E+01  0.5804759131052E-02  0.0000000000000E+00
-0.1394461336550E+01  0.1157044232416E+00  0.0000000000000E+00
-0.1353470779282E+01  0.2189558725478E+00  0.0000000000000E+00
-0.1302827821999E+01  0.3152015735085E+00  0.0000000000000E+00
-0.1245980101937E+01  0.4056291472893E+00  0.0000000000000E+00
-0.1184640213205E+01  0.4909579225658E+00  0.0000000000000E+00
-0.1119583439366E+01  0.5712850316116E+00  0.0000000000000E+00
-0.1108979375216E+01 -0.1309758562184E+01  0.0000000000000E+00
-0.1148784295643E+01 -0.1209267804259E+01  0.0000000000000E+00
-0.1188994358740E+01 -0.1108944692962E+01  0.0000000000000E+00
-0.1226198784311E+01 -0.1006581359642E+01  0.0000000000000E+00
-0.1259287168077E+01 -0.9017935211183E+00  0.0000000000000E+00
-0.1288477161522E+01 -0.7950445697246E+00  0.0000000000000E+00
-0.1313737825754E+01 -0.6866362859398E+00  0.0000000000000E+00
-0.1334644359599E+01 -0.5767454517047E+00  0.0000000000000E+00
-0.1351125043330E+01 -0.4657004900490E+00  0.0000000000000E+00
-0.1362702534998E+01 -0.3537719522543E+00  0.0000000000000E+00
-0.1368456878322E+01 -0.2412708028569E+00  0.0000000000000E+00
-0.1369622591563E+01 -0.1286372685415E+00  0.0000000000000E+00
-0.1360295005660E+01 -0.1695167559519E-01  0.0000000000000E+00
-0.1335401161793E+01  0.9061089160135E-01  0.0000000000000E+00
-0.1298307798104E+01  0.1921307980690E+00  0.0000000000000E+00
-0.1252396879368E+01  0.2872827138462E+00  0.0000000000000E+00
-0.1200806972471E+01  0.3771460033088E+00  0.0000000000000E+00
-0.1145099585870E+01  0.4623743879392E+00  0.0000000000000E+00
-0.1085983814086E+01  0.5430560035856E+00  0.0000000000000E+00
-0.1069587807609E+01 -0.1304477586773E+01  0.0000000000000E+00
-0.1105443975430E+01 -0.1205601751120E+01  0.0000000000000E+00
-0.1141697110190E+01 -0.1106877017936E+01  0.0000000000000E+00
-0.1175282230482E+01 -0.1006316485686E+01  0.0000000000000E+00
-0.1205205034859E+01 -0.9035745498883E+00  0.0000000000000E+00
-0.1231666194052E+01 -0.7990685945414E+00  0.0000000000000E+00
-0.1254641011766E+01 -0.6930705527353E+00  0.0000000000000E+00
-0.1273746281175E+01 -0.5857398118447E+00  0.0000000000000E+00
-0.1288909417977E+01 -0.4773718956829E+00  0.0000000000000E+00
-0.1299683676407E+01 -0.3682097514539E+00  0.0000000000000E+00
-0.1305217101473E+01 -0.2585322552314E+00  0.0000000000000E+00
-0.1306596764096E+01 -0.1487346259530E+00  0.0000000000000E+00
-0.1298491336305E+01 -0.3978853868330E-01  0.0000000000000E+00
-0.1276327105409E+01  0.6544841325714E-01  0.0000000000000E+00
-0.1243133247977E+01  0.1652482630036E+00  0.0000000000000E+00
-0.1201956681219E+01  0.2593178837163E+00  0.0000000000000E+00
-0.1155626901319E+01  0.3486283811055E+00  0.0000000000000E+00
-0.1105554330784E+01  0.4337678679626E+00  0.0000000000000E+00
-0.1052381874987E+01  0.5148154831302E+00  0.0000000000000E+00
-0.1030153478891E+01 -0.1299416062439E+01  0.0000000000000E+00
-0.1062063143085E+01 -0.1202143595677E+01  0.0000000000000E+00
-0.1094361598468E+01 -0.1105005687296E+01  0.0000000000000E+00
-0.1124329662344E+01 -0.1006236404253E+01  0.0000000000000E+00
-0.1151089136449E+01 -0.9055288192595E+00  0.0000000000000E+00
-0.1174823710759E+01 -0.8032543079536E+00  0.0000000000000E+00
-0.1195514931520E+01 -0.6996549563073E+00  0.0000000000000E+00
-0.1212821186271E+01 -0.5948727571351E+00  0.0000000000000E+00
-0.1226669026167E+01 -0.4891703348581E+00  0.0000000000000E+00
-0.1236642301545E+01 -0.3827630330845E+00  0.0000000000000E+00
-0.1241957058761E+01 -0.2758976392924E+00  0.0000000000000E+00
-0.1243552921638E+01 -0.1689243630130E+00  0.0000000000000E+00
-0.1236671900503E+01 -0.6270624381806E-01  0.0000000000000E+00
-0.1217239532245E+01  0.4021663263883E-01  0.0000000000000E+00
-0.1187947432191E+01  0.1383079702589E+00  0.0000000000000E+00
-0.1151507469733E+01  0.2313068448822E+00  0.0000000000000E+00
-0.1110440069832E+01  0.3200761016069E+00  0.0000000000000E+00
-0.1066004568682E+01  0.4051382429913E+00  0.0000000000000E+00
-0.1018777682354E+01  0.4865634102839E+00  0.0000000000000E+00
-0.9906777036991E+00 -0.1294575088408E+01  0.0000000000000E+00
-0.1018643046870E+01 -0.1198894379352E+01  0.0000000000000E+00
-0.1046989005467E+01 -0.1103331684666E+01  0.0000000000000E+00
-0.1073342195220E+01 -0.1006342041053E+01  0.0000000000000E+00
-0.1096940521322E+01 -0.9076571968749E+00  0.0000000000000E+00
-0.1117950692994E+01 -0.8076025194146E+00  0.0000000000000E+00
-0.1136360498971E+01 -0.7063902478163E+00  0.0000000000000E+00
-0.1151869921146E+01 -0.6041449803516E+00  0.0000000000000E+00
-0.1164404646165E+01 -0.5010964418930E+00  0.0000000000000E+00
-0.1173579120367E+01 -0.3974323729538E+00  0.0000000000000E+00
-0.1178677391469E+01 -0.2933674723030E+00  0.0000000000000E+00
-0.1180491636525E+01 -0.1892069384262E+00  0.0000000000000E+00
-0.1174837201104E+01 -0.8570519127675E-01  0.0000000000000E+00
-0.1158138874721E+01  0.1491520765000E-01  0.0000000000000E+00
-0.1132750711982E+01  0.1113096355665E+00  0.0000000000000E+00
-0.1101049534424E+01  0.2032493705286E+00  0.0000000000000E+00
-0.1065246695464E+01  0.2914889951333E+00  0.0000000000000E+00
-0.1026450444716E+01  0.3764854001971E+00  0.0000000000000E+00
-0.9851713088512E+00  0.4582997287889E+00  0.0000000000000E+00
-0.9511617699266E+00 -0.1289955725504E+01  0.0000000000000E+00
-0.9751849067139E+00 -0.1195855107115E+01  0.0000000000000E+00
-0.9995804831506E+00 -0.1101855959167E+01  0.0000000000000E+00
-0.1022320913129E+01 -0.1006634289366E+01  0.0000000000000E+00
-0.1042760205564E+01 -0.9099605201844E+00  0.0000000000000E+00
-0.1061048088928E+01 -0.8121140105493E+00  0.0000000000000E+00
-0.1077178594388E+01 -0.7132771530690E+00  0.0000000000000E+00
-0.1090893298189E+01 -0.6135571514881E+00  0.0000000000000E+00
-0.1102117022494E+01 -0.5131508309729E+00  0.0000000000000E+00
-0.1110494809551E+01 -0.4122183294437E+00  0.0000000000000E+00
-0.1115378708452E+01 -0.3109422568459E+00  0.0000000000000E+00
-0.1117413449799E+01 -0.2095827989697E+00  0.0000000000000E+00
-0.1112987711460E+01 -0.1087857720977E+00  0.0000000000000E+00
-0.1099025538536E+01 -0.1045619698468E-01  0.0000000000000E+00
-0.1077543425416E+01  0.8425297945760E-01  0.0000000000000E+00
-0.1050583145725E+01  0.1751452370352E+00  0.0000000000000E+00
-0.1020046981025E+01  0.2628668939426E+00  0.0000000000000E+00
-0.9868920940821E+00  0.3478092277359E+00  0.0000000000000E+00
-0.9515628220696E+00  0.4300243827152E+00  0.0000000000000E+00
-0.9116069872608E+00 -0.1285559004498E+01  0.0000000000000E+00
-0.9316899632209E+00 -0.1193026755469E+01  0.0000000000000E+00
-0.9521372030405E+00 -0.1100579433030E+01  0.0000000000000E+00
-0.9712669185257E+00 -0.1007114017167E+01  0.0000000000000E+00
-0.9885492225798E+00 -0.9124396029110E+00  0.0000000000000E+00
-0.1004116862923E+01 -0.8167895408345E+00  0.0000000000000E+00
-0.1017970113108E+01 -0.7203163773010E+00  0.0000000000000E+00
-0.1029892143722E+01 -0.6231099215445E+00  0.0000000000000E+00
-0.1039806912476E+01 -0.5253340988647E+00  0.0000000000000E+00
-0.1047390057437E+01 -0.4271214450931E+00  0.0000000000000E+00
-0.1052061629091E+01 -0.3286224812346E+00  0.0000000000000E+00
-0.1054318911882E+01 -0.2300523787265E+00  0.0000000000000E+00
-0.1051123913148E+01 -0.1319483661985E+00  0.0000000000000E+00
-0.1039899936456E+01 -0.3589790699629E-01  0.0000000000000E+00
-0.1022325916455E+01  0.5713773042639E-01  0.0000000000000E+00
-0.1000108578797E+01  0.1469942271592E+00  0.0000000000000E+00
-0.9748411328702E+00  0.2342096350805E+00  0.0000000000000E+00
-0.9473296543422E+00  0.3191096169583E+00  0.0000000000000E+00
-0.9179522907849E+00  0.4017373177321E+00  0.0000000000000E+00
-0.8720146866331E+00 -0.1281385925185E+01  0.0000000000000E+00
-0.8881594771479E+00 -0.1190410271569E+01  0.0000000000000E+00
-0.9046603557195E+00 -0.1099503000773E+01  0.0000000000000E+00
-0.9201813318361E+00 -0.1007782066347E+01  0.0000000000000E+00
-0.9343086226444E+00 -0.9150952343233E+00  0.0000000000000E+00
-0.9471579951153E+00 -0.8216298469200E+00  0.0000000000000E+00
-0.9587359651358E+00 -0.7275086045478E+00  0.0000000000000E+00
-0.9688672976347E+00 -0.6328039219456E+00  0.0000000000000E+00
-0.9774750858942E+00 -0.5376468243853E+00  0.0000000000000E+00
-0.9842655637184E+00 -0.4421422461151E+00  0.0000000000000E+00
-0.9887267829990E+00 -0.3464086190817E+00  0.0000000000000E+00
-0.9912085823139E+00 -0.2506160987026E+00  0.0000000000000E+00
-0.9892462957472E+00 -0.1551933420424E+00  0.0000000000000E+00
-0.9807624881220E+00 -0.6141023828673E-01  0.0000000000000E+00
-0.9670985347967E+00  0.2996362516681E-01  0.0000000000000E+00
-0.9496261133913E+00  0.1187961302237E+00  0.0000000000000E+00
-0.9296293608063E+00  0.2055170605213E+00  0.0000000000000E+00
-0.9077632653588E+00  0.2903864625034E+00  0.0000000000000E+00
-0.8843397849235E+00  0.3734384811542E+00  0.0000000000000E+00
-0.8323862196444E+00 -0.1277437455478E+01  0.0000000000000E+00
-0.8445947288565E+00 -0.1188006572371E+01  0.0000000000000E+00
-0.8571511503101E+00 -0.1098627528392E+01  0.0000000000000E+00
-0.8690652909581E+00 -0.1008639251951E+01  0.0000000000000E+00
-0.8800394724388E+00 -0.9179281785215E+00  0.0000000000000E+00
-0.8901724809746E+00 -0.8266356419629E+00  0.0000000000000E+00
-0.8994770747405E+00 -0.7348544970267E+00  0.0000000000000E+00
-0.9078196130017E+00 -0.6426397639724E+00  0.0000000000000E+00
-0.9151223246404E+00 -0.5500895678812E+00  0.0000000000000E+00
-0.9211220391125E+00 -0.4572812419253E+00  0.0000000000000E+00
-0.9253748097363E+00 -0.3643011288742E+00  0.0000000000000E+00
-0.9280830294945E+00 -0.2712743664508E+00  0.0000000000000E+00
-0.9273553566028E+00 -0.1785210563106E+00  0.0000000000000E+00
-0.9216136198406E+00 -0.8699349664939E-01  0.0000000000000E+00
-0.9118616357056E+00  0.2730408804202E-02  0.0000000000000E+00
-0.8991360337160E+00  0.9055074230215E-01  0.0000000000000E+00
-0.8844118779828E+00  0.1767890173054E+00  0.0000000000000E+00
-0.8681930692261E+00  0.2616396623902E+00  0.0000000000000E+00
-0.8507253755287E+00  0.3451278219878E+00  0.0000000000000E+00
-0.7927229579626E+00 -0.1273714530528E+01  0.0000000000000E+00
-0.8009970177392E+00 -0.1185816543790E+01  0.0000000000000E+00
-0.8096108139298E+00 -0.1097953852569E+01  0.0000000000000E+00
-0.8179199507468E+00 -0.1009686361438E+01  0.0000000000000E+00
-0.8257428545609E+00 -0.9209391737407E+00  0.0000000000000E+00
-0.8331613308469E+00 -0.8318076149775E+00  0.0000000000000E+00
-0.8401943800219E+00 -0.7423546945341E+00  0.0000000000000E+00
-0.8467499556851E+00 -0.6526180382057E+00  0.0000000000000E+00
-0.8527494223438E+00 -0.5626628707190E+00  0.0000000000000E+00
-0.8579602050271E+00 -0.4725389246792E+00  0.0000000000000E+00
-0.8620063584978E+00 -0.3823004535589E+00  0.0000000000000E+00
-0.8649428304042E+00 -0.2920275757042E+00  0.0000000000000E+00
-0.8654516005855E+00 -0.2019318535823E+00  0.0000000000000E+00
-0.8624537643804E+00 -0.1126479774958E+00  0.0000000000000E+00
-0.8566155798348E+00 -0.2456216487784E-01  0.0000000000000E+00
-0.8486386282961E+00  0.6225786639916E-01  0.0000000000000E+00
-0.8391889007890E+00  0.1480253576752E+00  0.0000000000000E+00
-0.8286192101987E+00  0.2328691181076E+00  0.0000000000000E+00
-0.8171091347244E+00  0.3168052909748E+00  0.0000000000000E+00
-0.7530262926939E+00 -0.1270218051859E+01  0.0000000000000E+00
-0.7573676616205E+00 -0.1183841039890E+01  0.0000000000000E+00
-0.7620405911220E+00 -0.1097482779905E+01  0.0000000000000E+00
-0.7667464824764E+00 -0.1010924153951E+01  0.0000000000000E+00
-0.7714198670190E+00 -0.9241289316708E+00  0.0000000000000E+00
-0.7761255694772E+00 -0.8371464302010E+00  0.0000000000000E+00
-0.7808888324672E+00 -0.7500098138566E+00  0.0000000000000E+00
-0.7856592039196E+00 -0.6627393139834E+00  0.0000000000000E+00
-0.7903571839912E+00 -0.5753672547891E+00  0.0000000000000E+00
-0.7947807932090E+00 -0.4879157688224E+00  0.0000000000000E+00
-0.7986220877978E+00 -0.4004070201384E+00  0.0000000000000E+00
-0.8017885703212E+00 -0.3128761060169E+00  0.0000000000000E+00
-0.8035355398389E+00 -0.2254260660222E+00  0.0000000000000E+00
-0.8032833607526E+00 -0.1383739655889E+00  0.0000000000000E+00
-0.8013607330460E+00 -0.5191433321603E-01  0.0000000000000E+00
-0.7981341898262E+00  0.3391731262723E-01  0.0000000000000E+00
-0.7939606487436E+00  0.1192259392064E+00  0.0000000000000E+00
-0.7890418346189E+00  0.2040747347020E+00  0.0000000000000E+00
-0.7834911356789E+00  0.2884708406368E+00  0.0000000000000E+00
 0.7530263043685E+00 -0.1270218053608E+01  0.0000000000000E+00
 0.7573676719998E+00 -0.1183841041557E+01  0.0000000000000E+00
 0.7620406002124E+00 -0.1097482781485E+01  0.0000000000000E+00
 0.7667464902935E+00 -0.1010924155438E+01  0.0000000000000E+00
 0.7714198735918E+00 -0.9241289330601E+00  0.0000000000000E+00
 0.7761255748516E+00 -0.8371464314874E+00  0.0000000000000E+00
 0.7808888367128E+00 -0.7500098150348E+00  0.0000000000000E+00
 0.7856592071364E+00 -0.6627393150508E+00  0.0000000000000E+00
 0.7903571863134E+00 -0.5753672557459E+00  0.0000000000000E+00
 0.7947807947991E+00 -0.4879157696728E+00  0.0000000000000E+00
 0.7986220888290E+00 -0.4004070208897E+00  0.0000000000000E+00
 0.8017885709542E+00 -0.3128761066771E+00  0.0000000000000E+00
 0.8035355402108E+00 -0.2254260665967E+00  0.0000000000000E+00
 0.8032833609624E+00 -0.1383739660813E+00  0.0000000000000E+00
 0.8013607331609E+00 -0.5191433362778E-01  0.0000000000000E+00
 0.7981341898900E+00  0.3391731229450E-01  0.0000000000000E+00
 0.7939606487837E+00  0.1192259389523E+00  0.0000000000000E+00
 0.7890418346513E+00  0.2040747345265E+00  0.0000000000000E+00
 0.7834911357119E+00  0.2884708405401E+00  0.0000000000000E+00
 0.7927229690089E+00 -0.1273714532262E+01  0.0000000000000E+00
 0.8009970275589E+00 -0.1185816545447E+01  0.0000000000000E+00
 0.8096108225272E+00 -0.1097953854141E+01  0.0000000000000E+00
 0.8179199581358E+00 -0.1009686362918E+01  0.0000000000000E+00
 0.8257428607702E+00 -0.9209391751259E+00  0.0000000000000E+00
 0.8331613359210E+00 -0.8318076162633E+00  0.0000000000000E+00
 0.8401943840277E+00 -0.7423546957159E+00  0.0000000000000E+00
 0.8467499587182E+00 -0.6526180392811E+00  0.0000000000000E+00
 0.8527494245320E+00 -0.5626628716882E+00  0.0000000000000E+00
 0.8579602065249E+00 -0.4725389255462E+00  0.0000000000000E+00
 0.8620063594690E+00 -0.3823004543303E+00  0.0000000000000E+00
 0.8649428310004E+00 -0.2920275763873E+00  0.0000000000000E+00
 0.8654516009409E+00 -0.2019318541816E+00  0.0000000000000E+00
 0.8624537645892E+00 -0.1126479780131E+00  0.0000000000000E+00
 0.8566155799597E+00 -0.2456216531384E-01  0.0000000000000E+00
 0.8486386283778E+00  0.6225786604307E-01  0.0000000000000E+00
 0.8391889008528E+00  0.1480253573988E+00  0.0000000000000E+00
 0.8286192102596E+00  0.2328691179110E+00  0.0000000000000E+00
 0.8171091347902E+00  0.3168052908585E+00  0.0000000000000E+00
 0.8323862300631E+00 -0.1277437457190E+01  0.0000000000000E+00
 0.8445947381175E+00 -0.1188006574008E+01  0.0000000000000E+00
 0.8571511584150E+00 -0.1098627529947E+01  0.0000000000000E+00
 0.8690652979196E+00 -0.1008639253417E+01  0.0000000000000E+00
 0.8800394782851E+00 -0.9179281798955E+00  0.0000000000000E+00
 0.8901724857490E+00 -0.8266356432415E+00  0.0000000000000E+00
 0.8994770785070E+00 -0.7348544982060E+00  0.0000000000000E+00
 0.9078196158517E+00 -0.6426397650503E+00  0.0000000000000E+00
 0.9151223266951E+00 -0.5500895688577E+00  0.0000000000000E+00
 0.9211220405183E+00 -0.4572812428042E+00  0.0000000000000E+00
 0.9253748106480E+00 -0.3643011296615E+00  0.0000000000000E+00
 0.9280830300542E+00 -0.2712743671533E+00  0.0000000000000E+00
 0.9273553569420E+00 -0.1785210569313E+00  0.0000000000000E+00
 0.9216136200487E+00 -0.8699349718877E-01  0.0000000000000E+00
 0.9118616358407E+00  0.2730408346272E-02  0.0000000000000E+00
 0.8991360338156E+00  0.9055074192457E-01  0.0000000000000E+00
 0.8844118780703E+00  0.1767890170080E+00  0.0000000000000E+00
 0.8681930693155E+00  0.2616396621734E+00  0.0000000000000E+00
 0.8507253756273E+00  0.3451278218524E+00  0.0000000000000E+00
 0.8720146964251E+00 -0.1281385926866E+01  0.0000000000000E+00
 0.8881594858509E+00 -0.1190410273179E+01  0.0000000000000E+00
 0.9046603633328E+00 -0.1099503002303E+01  0.0000000000000E+00
 0.9201813383709E+00 -0.1007782067791E+01  0.0000000000000E+00
 0.9343086281286E+00 -0.9150952356790E+00  0.0000000000000E+00
 0.9471579995906E+00 -0.8216298481850E+00  0.0000000000000E+00
 0.9587359686636E+00 -0.7275086057185E+00  0.0000000000000E+00
 0.9688673003020E+00 -0.6328039230203E+00  0.0000000000000E+00
 0.9774750878159E+00 -0.5376468253640E+00  0.0000000000000E+00
 0.9842655650327E+00 -0.4421422470013E+00  0.0000000000000E+00
 0.9887267838514E+00 -0.3464086198808E+00  0.0000000000000E+00
 0.9912085828374E+00 -0.2506160994206E+00  0.0000000000000E+00
 0.9892462960706E+00 -0.1551933426814E+00  0.0000000000000E+00
 0.9807624883295E+00 -0.6141023884543E-01  0.0000000000000E+00
 0.9670985349422E+00  0.2996362468928E-01  0.0000000000000E+00
 0.9496261135090E+00  0.1187961298265E+00  0.0000000000000E+00
 0.9296293609177E+00  0.2055170602043E+00  0.0000000000000E+00
 0.9077632654769E+00  0.2903864622674E+00  0.0000000000000E+00
 0.8843397850549E+00  0.3734384810002E+00  0.0000000000000E+00
 0.9116069964270E+00 -0.1285559006139E+01  0.0000000000000E+00
 0.9316899713668E+00 -0.1193026757043E+01  0.0000000000000E+00
 0.9521372101630E+00 -0.1100579434527E+01  0.0000000000000E+00
 0.9712669246345E+00 -0.1007114018582E+01  0.0000000000000E+00
 0.9885492277025E+00 -0.9124396042416E+00  0.0000000000000E+00
 0.1004116867100E+01 -0.8167895420793E+00  0.0000000000000E+00
 0.1017970116397E+01 -0.7203163784571E+00  0.0000000000000E+00
 0.1029892146207E+01 -0.6231099226104E+00  0.0000000000000E+00
 0.1039806914265E+01 -0.5253340998405E+00  0.0000000000000E+00
 0.1047390058661E+01 -0.4271214459819E+00  0.0000000000000E+00
 0.1052061629884E+01 -0.3286224820412E+00  0.0000000000000E+00
 0.1054318912369E+01 -0.2300523794564E+00  0.0000000000000E+00
 0.1051123913456E+01 -0.1319483668524E+00  0.0000000000000E+00
 0.1039899936664E+01 -0.3589790757152E-01  0.0000000000000E+00
 0.1022325916611E+01  0.5713772993158E-01  0.0000000000000E+00
 0.1000108578933E+01  0.1469942267442E+00  0.0000000000000E+00
 0.9748411330057E+00  0.2342096347455E+00  0.0000000000000E+00
 0.9473296544890E+00  0.3191096167040E+00  0.0000000000000E+00
 0.9179522909491E+00  0.4017373175599E+00  0.0000000000000E+00
 0.9511617784682E+00 -0.1289955727096E+01  0.0000000000000E+00
 0.9751849143037E+00 -0.1195855108645E+01  0.0000000000000E+00
 0.9995804897833E+00 -0.1101855960624E+01  0.0000000000000E+00
 0.1022320918812E+01 -0.1006634290744E+01  0.0000000000000E+00
 0.1042760210326E+01 -0.9099605214829E+00  0.0000000000000E+00
 0.1061048092807E+01 -0.8121140117675E+00  0.0000000000000E+00
 0.1077178597441E+01 -0.7132771542044E+00  0.0000000000000E+00
 0.1090893300493E+01 -0.6135571525397E+00  0.0000000000000E+00
 0.1102117024151E+01 -0.5131508319408E+00  0.0000000000000E+00
 0.1110494810684E+01 -0.4122183303305E+00  0.0000000000000E+00
 0.1115378709188E+01 -0.3109422576558E+00  0.0000000000000E+00
 0.1117413450252E+01 -0.2095827997078E+00  0.0000000000000E+00
 0.1112987711753E+01 -0.1087857727634E+00  0.0000000000000E+00
 0.1099025538743E+01 -0.1045619757369E-01  0.0000000000000E+00
 0.1077543425583E+01  0.8425297894781E-01  0.0000000000000E+00
 0.1050583145880E+01  0.1751452366042E+00  0.0000000000000E+00
 0.1020046981184E+01  0.2628668935907E+00  0.0000000000000E+00
 0.9868920942577E+00  0.3478092274642E+00  0.0000000000000E+00
 0.9515628222668E+00  0.4300243825253E+00  0.0000000000000E+00
 0.9906777116171E+00 -0.1294575089943E+01  0.0000000000000E+00
 0.1018643053905E+01 -0.1198894380829E+01  0.0000000000000E+00
 0.1046989011611E+01 -0.1103331686075E+01  0.0000000000000E+00
 0.1073342200480E+01 -0.1006342042387E+01  0.0000000000000E+00
 0.1096940525724E+01 -0.9076571981345E+00  0.0000000000000E+00
 0.1117950696577E+01 -0.8076025205997E+00  0.0000000000000E+00
 0.1136360501787E+01 -0.7063902489253E+00  0.0000000000000E+00
 0.1151869923269E+01 -0.6041449813834E+00  0.0000000000000E+00
 0.1164404647691E+01 -0.5010964428479E+00  0.0000000000000E+00
 0.1173579121410E+01 -0.3974323738340E+00  0.0000000000000E+00
 0.1178677392146E+01 -0.2933674731123E+00  0.0000000000000E+00
 0.1180491636942E+01 -0.1892069391688E+00  0.0000000000000E+00
 0.1174837201382E+01 -0.8570519195099E-01  0.0000000000000E+00
 0.1158138874929E+01  0.1491520704997E-01  0.0000000000000E+00
 0.1132750712161E+01  0.1113096350441E+00  0.0000000000000E+00
 0.1101049534597E+01  0.2032493700836E+00  0.0000000000000E+00
 0.1065246695648E+01  0.2914889947660E+00  0.0000000000000E+00
 0.1026450444921E+01  0.3764853999090E+00  0.0000000000000E+00
 0.9851713090814E+00  0.4582997285817E+00  0.0000000000000E+00
 0.1030153486187E+01 -0.1299416063908E+01  0.0000000000000E+00
 0.1062063149566E+01 -0.1202143597094E+01  0.0000000000000E+00
 0.1094361604124E+01 -0.1105005688649E+01  0.0000000000000E+00
 0.1124329667181E+01 -0.1006236405536E+01  0.0000000000000E+00
 0.1151089140492E+01 -0.9055288204733E+00  0.0000000000000E+00
 0.1174823714046E+01 -0.8032543090994E+00  0.0000000000000E+00
 0.1195514934100E+01 -0.6996549573837E+00  0.0000000000000E+00
 0.1212821188214E+01 -0.5948727581417E+00  0.0000000000000E+00
 0.1226669027563E+01 -0.4891703357950E+00  0.0000000000000E+00
 0.1236642302499E+01 -0.3827630339536E+00  0.0000000000000E+00
 0.1241957059382E+01 -0.2758976400968E+00  0.0000000000000E+00
 0.1243552922021E+01 -0.1689243637565E+00  0.0000000000000E+00
 0.1236671900766E+01 -0.6270624449766E-01  0.0000000000000E+00
 0.1217239532454E+01  0.4021663203052E-01  0.0000000000000E+00
 0.1187947432381E+01  0.1383079697260E+00  0.0000000000000E+00
 0.1151507469925E+01  0.2313068444249E+00  0.0000000000000E+00
 0.1110440070041E+01  0.3200761012256E+00  0.0000000000000E+00
 0.1066004568916E+01  0.4051382426875E+00  0.0000000000000E+00
 0.1018777682617E+01  0.4865634100600E+00  0.0000000000000E+00
 0.1069587814283E+01 -0.1304477588167E+01  0.0000000000000E+00
 0.1105443981358E+01 -0.1205601752468E+01  0.0000000000000E+00
 0.1141697115360E+01 -0.1106877019225E+01  0.0000000000000E+00
 0.1175282234897E+01 -0.1006316486910E+01  0.0000000000000E+00
 0.1205205038544E+01 -0.9035745510495E+00  0.0000000000000E+00
 0.1231666197044E+01 -0.7990685956414E+00  0.0000000000000E+00
 0.1254641014112E+01 -0.6930705537734E+00  0.0000000000000E+00
 0.1273746282939E+01 -0.5857398128207E+00  0.0000000000000E+00
 0.1288909419242E+01 -0.4773718965968E+00  0.0000000000000E+00
 0.1299683677272E+01 -0.3682097523073E+00  0.0000000000000E+00
 0.1305217102037E+01 -0.2585322560269E+00  0.0000000000000E+00
 0.1306596764446E+01 -0.1487346266938E+00  0.0000000000000E+00
 0.1298491336554E+01 -0.3978853936507E-01  0.0000000000000E+00
 0.1276327105619E+01  0.6544841264325E-01  0.0000000000000E+00
 0.1243133248179E+01  0.1652482624626E+00  0.0000000000000E+00
 0.1201956681431E+01  0.2593178832485E+00  0.0000000000000E+00
 0.1155626901552E+01  0.3486283807115E+00  0.0000000000000E+00
 0.1105554331047E+01  0.4337678676442E+00  0.0000000000000E+00
 0.1052381875283E+01  0.5148154828900E+00  0.0000000000000E+00
 0.1108979381271E+01 -0.1309758563495E+01  0.0000000000000E+00
 0.1148784301020E+01 -0.1209267805530E+01  0.0000000000000E+00
 0.1188994363424E+01 -0.1108944694180E+01  0.0000000000000E+00
 0.1226198788305E+01 -0.1006581360800E+01  0.0000000000000E+00
 0.1259287171406E+01 -0.9017935222202E+00  0.0000000000000E+00
 0.1288477164220E+01 -0.7950445707726E+00  0.0000000000000E+00
 0.1313737827865E+01 -0.6866362869336E+00  0.0000000000000E+00
 0.1334644361185E+01 -0.5767454526446E+00  0.0000000000000E+00
 0.1351125044467E+01 -0.4657004909350E+00  0.0000000000000E+00
 0.1362702535776E+01 -0.3537719530876E+00  0.0000000000000E+00
 0.1368456878830E+01 -0.2412708036395E+00  0.0000000000000E+00
 0.1369622591879E+01 -0.1286372692759E+00  0.0000000000000E+00
 0.1360295005896E+01 -0.1695167627600E-01  0.0000000000000E+00
 0.1335401162004E+01  0.9061089098460E-01  0.0000000000000E+00
 0.1298307798319E+01  0.1921307975221E+00  0.0000000000000E+00
 0.1252396879599E+01  0.2872827133698E+00  0.0000000000000E+00
 0.1200806972730E+01  0.3771460029035E+00  0.0000000000000E+00
 0.1145099586162E+01  0.4623743876070E+00  0.0000000000000E+00
 0.1085983814416E+01  0.5430560033294E+00  0.0000000000000E+00
 0.1148326982225E+01 -0.1315257878269E+01  0.0000000000000E+00
 0.1192082969631E+01 -0.1213140703241E+01  0.0000000000000E+00
 0.1236252275405E+01 -0.1111207719063E+01  0.0000000000000E+00
 0.1277078320301E+01 -0.1007030091224E+01  0.0000000000000E+00
 0.1313334597533E+01 -0.9001848563373E+00  0.0000000000000E+00
 0.1345255739343E+01 -0.7911814150685E+00  0.0000000000000E+00
 0.1372804564196E+01 -0.6803513955696E+00  0.0000000000000E+00
 0.1395514676580E+01 -0.5678889743635E+00  0.0000000000000E+00
 0.1413315221384E+01 -0.4541554735392E+00  0.0000000000000E+00
 0.1425698260390E+01 -0.3394490489509E+00  0.0000000000000E+00
 0.1431675836041E+01 -0.2241127534843E+00  0.0000000000000E+00
 0.1432629914269E+01 -0.1086318199455E+00  0.0000000000000E+00
 0.1422082481760E+01  0.5804758454327E-02  0.0000000000000E+00
 0.1394461336764E+01  0.1157044226246E+00  0.0000000000000E+00
 0.1353470779509E+01  0.2189558719973E+00  0.0000000000000E+00
 0.1302827822250E+01  0.3152015730252E+00  0.0000000000000E+00
 0.1245980102221E+01  0.4056291468740E+00  0.0000000000000E+00
 0.1184640213527E+01  0.4909579222208E+00  0.0000000000000E+00
 0.1119583439729E+01  0.5712850313400E+00  0.0000000000000E+00
 0.1187629400186E+01 -0.1320974387505E+01  0.0000000000000E+00
 0.1235338834732E+01 -0.1217219360904E+01  0.0000000000000E+00
 0.1283469763345E+01 -0.1113665069469E+01  0.0000000000000E+00
 0.1327919807393E+01 -0.1007661714042E+01  0.0000000000000E+00
 0.1367346357854E+01 -0.8987476495021E+00  0.0000000000000E+00
 0.1402001027722E+01 -0.7874782848550E+00  0.0000000000000E+00
 0.1431840392749E+01 -0.6742150962150E+00  0.0000000000000E+00
 0.1456356463060E+01 -0.5591696547043E+00  0.0000000000000E+00
 0.1475479248178E+01 -0.4427361813186E+00  0.0000000000000E+00
 0.1488670213493E+01 -0.3252404369779E+00  0.0000000000000E+00
 0.1494873400188E+01 -0.2070575628063E+00  0.0000000000000E+00
 0.1495618222237E+01 -0.8871779611777E-01  0.0000000000000E+00
 0.1483853318695E+01  0.2848118730761E-01  0.0000000000000E+00
 0.1453507248244E+01  0.1407293698923E+00  0.0000000000000E+00
 0.1408621873807E+01  0.2457237879833E+00  0.0000000000000E+00
 0.1353249255096E+01  0.3430747039949E+00  0.0000000000000E+00
 0.1291146099354E+01  0.4340779940265E+00  0.0000000000000E+00
 0.1224176086056E+01  0.5195185924651E+00  0.0000000000000E+00
 0.1153180687696E+01  0.5995026274340E+00  0.0000000000000E+00
 0.1226885438803E+01 -0.1326906919430E+01  0.0000000000000E+00
 0.1278550763245E+01 -0.1221502668444E+01  0.0000000000000E+00
 0.1330645757439E+01 -0.1116315697018E+01  0.0000000000000E+00
 0.1378722243017E+01 -0.1008475242550E+01  0.0000000000000E+00
 0.1421321509020E+01 -0.8974809766741E+00  0.0000000000000E+00
 0.1458712149199E+01 -0.7839343167424E+00  0.0000000000000E+00
 0.1490844496529E+01 -0.6682265871201E+00  0.0000000000000E+00
 0.1517168966759E+01 -0.5505867535472E+00  0.0000000000000E+00
 0.1537616434081E+01 -0.4314419357761E+00  0.0000000000000E+00
 0.1551617767383E+01 -0.3111455002865E+00  0.0000000000000E+00
 0.1558049006595E+01 -0.1901046763326E+00  0.0000000000000E+00
 0.1558587014113E+01 -0.6889470413509E-01  0.0000000000000E+00
 0.1545607077895E+01  0.5107804239726E-01  0.0000000000000E+00
 0.1512538520417E+01  0.1656861033204E+00  0.0000000000000E+00
 0.1463760767916E+01  0.2724348543701E+00  0.0000000000000E+00
 0.1403660927541E+01  0.3709023534638E+00  0.0000000000000E+00
 0.1336304776212E+01  0.4624927297960E+00  0.0000000000000E+00
 0.1263707078492E+01  0.5480565219923E+00  0.0000000000000E+00
 0.1186775495697E+01  0.6277088534522E+00  0.0000000000000E+00
 0.1266093900534E+01 -0.1333054271612E+01  0.0000000000000E+00
 0.1321717619441E+01 -0.1225989486703E+01  0.0000000000000E+00
 0.1377779183766E+01 -0.1119158525826E+01  0.0000000000000E+00
 0.1429484615149E+01 -0.1009469664182E+01  0.0000000000000E+00
 0.1475259101023E+01 -0.8963838886716E+00  0.0000000000000E+00
 0.1515388215900E+01 -0.7805486249883E+00  0.0000000000000E+00
 0.1549816049915E+01 -0.6623850460261E+00  0.0000000000000E+00
 0.1577951424441E+01 -0.5421395121565E+00  0.0000000000000E+00
 0.1599726078373E+01 -0.4202720417312E+00  0.0000000000000E+00
 0.1614540283988E+01 -0.2971636072724E+00  0.0000000000000E+00
 0.1621202079995E+01 -0.1732535260491E+00  0.0000000000000E+00
 0.1621535777559E+01 -0.4916203958404E-01  0.0000000000000E+00
 0.1607343310144E+01  0.7359576464093E-01  0.0000000000000E+00
 0.1571554767608E+01  0.1905750004316E+00  0.0000000000000E+00
 0.1518887140039E+01  0.2990893854236E+00  0.0000000000000E+00
 0.1454062581912E+01  0.3986847725911E+00  0.0000000000000E+00
 0.1381455939403E+01  0.4908735423656E+00  0.0000000000000E+00
 0.1303233061826E+01  0.5765718361307E+00  0.0000000000000E+00
 0.1220367799190E+01  0.6559037719900E+00  0.0000000000000E+00
 0.1305253598805E+01 -0.1339415213768E+01  0.0000000000000E+00
 0.1364838277184E+01 -0.1230678650124E+01  0.0000000000000E+00
 0.1424868976629E+01 -0.1122192455048E+01  0.0000000000000E+00
 0.1480205918667E+01 -0.1010643942895E+01  0.0000000000000E+00
 0.1529158189524E+01 -0.8954554143590E+00  0.0000000000000E+00
 0.1572028344460E+01 -0.7773203034531E+00  0.0000000000000E+00
 0.1608754230714E+01 -0.6566896318631E+00  0.0000000000000E+00
 0.1638703075296E+01 -0.5338271545977E+00  0.0000000000000E+00
 0.1661807481841E+01 -0.4092257884365E+00  0.0000000000000E+00
 0.1677437125922E+01 -0.2832941124128E+00  0.0000000000000E+00
 0.1684332045081E+01 -0.1565035316807E+00  0.0000000000000E+00
 0.1684463999550E+01 -0.2951928744993E-01  0.0000000000000E+00
 0.1669061565065E+01  0.9603480391581E-01  0.0000000000000E+00
 0.1630555602763E+01  0.2153964461378E+00  0.0000000000000E+00
 0.1574000666993E+01  0.3256877013338E+00  0.0000000000000E+00
 0.1504453959286E+01  0.4264222171044E+00  0.0000000000000E+00
 0.1426599394506E+01  0.5192206232231E+00  0.0000000000000E+00
 0.1342753906311E+01  0.6050646623300E+00  0.0000000000000E+00
 0.1253957533241E+01  0.6840874466600E+00  0.0000000000000E+00
 0.1344363463886E+01 -0.1345988512312E+01  0.0000000000000E+00
 0.1407911726821E+01 -0.1235568990149E+01  0.0000000000000E+00
 0.1471914186453E+01 -0.1125416381172E+01  0.0000000000000E+00
 0.1530885263794E+01 -0.1011997040041E+01  0.0000000000000E+00
 0.1583017944169E+01 -0.8946945797580E+00  0.0000000000000E+00
 0.1628631763594E+01 -0.7742484426668E+00  0.0000000000000E+00
 0.1667658326345E+01 -0.6511394995318E+00  0.0000000000000E+00
 0.1699423265050E+01 -0.5256489000186E+00  0.0000000000000E+00
 0.1723860048123E+01 -0.3983024591913E+00  0.0000000000000E+00
 0.1740307754306E+01 -0.2695363630824E+00  0.0000000000000E+00
 0.1747438419983E+01 -0.1398541046292E+00  0.0000000000000E+00
 0.1747371254871E+01 -0.9965923158563E-02  0.0000000000000E+00
 0.1730761473203E+01  0.1183956207761E+00  0.0000000000000E+00
 0.1689540710963E+01  0.2401508366226E+00  0.0000000000000E+00
 0.1629101087451E+01  0.3522301333911E+00  0.0000000000000E+00
 0.1554834851269E+01  0.4541149528549E+00  0.0000000000000E+00
 0.1471734985641E+01  0.5475341723337E+00  0.0000000000000E+00
 0.1382269508274E+01  0.6335351342853E+00  0.0000000000000E+00
 0.1287544646131E+01  0.7122599445139E+00  0.0000000000000E+00
 0.1383422397442E+01 -0.1352772900237E+01  0.0000000000000E+00
 0.1450936928321E+01 -0.1240659306487E+01  0.0000000000000E+00
 0.1518913831514E+01 -0.1128829170621E+01  0.0000000000000E+00
 0.1581521727071E+01 -0.1013527888730E+01  0.0000000000000E+00
 0.1636837499717E+01 -0.8941003846407E+00  0.0000000000000E+00
 0.1685197666234E+01 -0.7713321090438E+00  0.0000000000000E+00
 0.1726527587863E+01 -0.6457337820702E+00  0.0000000000000E+00
 0.1760111302833E+01 -0.5176039480646E+00  0.0000000000000E+00
 0.1785883144369E+01 -0.3875013202364E+00  0.0000000000000E+00
 0.1803151594260E+01 -0.2558896921055E+00  0.0000000000000E+00
 0.1810520687724E+01 -0.1233046442937E+00  0.0000000000000E+00
 0.1810257084407E+01  0.9498587309285E-02  0.0000000000000E+00
 0.1792442633128E+01  0.1406786827331E+00  0.0000000000000E+00
 0.1748509748313E+01  0.2648385728346E+00  0.0000000000000E+00
 0.1684188114957E+01  0.3787170158914E+00  0.0000000000000E+00
 0.1605205028773E+01  0.4817632473949E+00  0.0000000000000E+00
 0.1516862541040E+01  0.5758143904379E+00  0.0000000000000E+00
 0.1421779753236E+01  0.6619833858726E+00  0.0000000000000E+00
 0.1321129080636E+01  0.7404213325146E+00  0.0000000000000E+00
 0.1422429228029E+01 -0.1359767065724E+01  0.0000000000000E+00
 0.1493912766301E+01 -0.1245948356251E+01  0.0000000000000E+00
 0.1565866852479E+01 -0.1132429649424E+01  0.0000000000000E+00
 0.1632114305621E+01 -0.1015235384149E+01  0.0000000000000E+00
 0.1690615910306E+01 -0.8936717936491E+00  0.0000000000000E+00
 0.1741725164067E+01 -0.7685703369241E+00  0.0000000000000E+00
 0.1785361185048E+01 -0.6404715837209E+00  0.0000000000000E+00
 0.1820766417108E+01 -0.5096914730635E+00  0.0000000000000E+00
 0.1847876058322E+01 -0.3768216161282E+00  0.0000000000000E+00
 0.1865967993429E+01 -0.2423534143737E+00  0.0000000000000E+00
 0.1873578256564E+01 -0.1068545359697E+00  0.0000000000000E+00
 0.1873120957578E+01  0.2887478823199E-01  0.0000000000000E+00
 0.1854104576573E+01  0.1628844638412E+00  0.0000000000000E+00
 0.1807462310716E+01  0.2894600590995E+00  0.0000000000000E+00
 0.1739261411041E+01  0.4051486841471E+00  0.0000000000000E+00
 0.1655564219998E+01  0.5093673677810E+00  0.0000000000000E+00
 0.1561981856234E+01  0.6040614769726E+00  0.0000000000000E+00
 0.1461284504515E+01  0.6904095494733E+00  0.0000000000000E+00
 0.1354710768243E+01  0.7685716765449E+00  0.0000000000000E+00
 0.1461382977685E+01 -0.1366969715541E+01  0.0000000000000E+00
 0.1536838319223E+01 -0.1251434914409E+01  0.0000000000000E+00
 0.1612772384243E+01 -0.1136216660760E+01  0.0000000000000E+00
 0.1682662190401E+01 -0.1017118437462E+01  0.0000000000000E+00
 0.1744352422465E+01 -0.8934077856720E+00  0.0000000000000E+00
 0.1798213558725E+01 -0.7659621727097E+00  0.0000000000000E+00
 0.1844158474159E+01 -0.6353520182180E+00  0.0000000000000E+00
 0.1881388018237E+01 -0.5019106559195E+00  0.0000000000000E+00
 0.1909838253925E+01 -0.3662625948152E+00  0.0000000000000E+00
 0.1928756468782E+01 -0.2289268447810E+00  0.0000000000000E+00
 0.1936610695870E+01 -0.9050316143287E-01  0.0000000000000E+00
 0.1935962495682E+01  0.4816323095776E-01  0.0000000000000E+00
 0.1915746975620E+01  0.1850134485560E+00  0.0000000000000E+00
 0.1866398119422E+01  0.3140157125225E+00  0.0000000000000E+00
 0.1794320744879E+01  0.4315254872332E+00  0.0000000000000E+00
 0.1705912241167E+01  0.5369275943465E+00  0.0000000000000E+00
 0.1607092793932E+01  0.6322756429451E+00  0.0000000000000E+00
 0.1500783670909E+01  0.7188137662650E+00  0.0000000000000E+00
 0.1388289663505E+01  0.7967110474620E+00  0.0000000000000E+00
-0.7394329578238E+00  0.3828904307871E+00  0.0000000000000E+00
-0.7655763767500E+00  0.4111916020047E+00  0.0000000000000E+00
-0.7917197956763E+00  0.4394927732223E+00  0.0000000000000E+00
-0.8178632146026E+00  0.4677939444398E+00  0.0000000000000E+00
-0.8440066335289E+00  0.4960951156574E+00  0.0000000000000E+00
-0.8701500524552E+00  0.5243962868750E+00  0.0000000000000E+00
-0.8962934713814E+00  0.5526974580926E+00  0.0000000000000E+00
-0.9224368903077E+00  0.5809986293101E+00  0.0000000000000E+00
-0.9485803092340E+00  0.6092998005277E+00  0.0000000000000E+00
-0.9747237281603E+00  0.6376009717453E+00  0.0000000000000E+00
-0.1000867147087E+01  0.6659021429629E+00  0.0000000000000E+00
-0.1027010566013E+01  0.6942033141804E+00  0.0000000000000E+00
-0.1053153984939E+01  0.7225044853980E+00  0.0000000000000E+00
-0.1079297403865E+01  0.7508056566156E+00  0.0000000000000E+00
-0.1105440822792E+01  0.7791068278332E+00  0.0000000000000E+00
-0.1131584241718E+01  0.8074079990507E+00  0.0000000000000E+00
-0.1157727660644E+01  0.8357091702683E+00  0.0000000000000E+00
-0.1183871079571E+01  0.8640103414859E+00  0.0000000000000E+00
-0.1210014498497E+01  0.8923115127035E+00  0.0000000000000E+00
-0.7013395436708E+00  0.3928851883992E+00  0.0000000000000E+00
-0.7262154211400E+00  0.4220388918148E+00  0.0000000000000E+00
-0.7510912986091E+00  0.4511925952303E+00  0.0000000000000E+00
-0.7759671760782E+00  0.4803462986459E+00  0.0000000000000E+00
-0.8008430535474E+00  0.5095000020614E+00  0.0000000000000E+00
-0.8257189310165E+00  0.5386537054770E+00  0.0000000000000E+00
-0.8505948084856E+00  0.5678074088926E+00  0.0000000000000E+00
-0.8754706859548E+00  0.5969611123081E+00  0.0000000000000E+00
-0.9003465634239E+00  0.6261148157237E+00  0.0000000000000E+00
-0.9252224408930E+00  0.6552685191392E+00  0.0000000000000E+00
-0.9500983183622E+00  0.6844222225548E+00  0.0000000000000E+00
-0.9749741958313E+00  0.7135759259704E+00  0.0000000000000E+00
-0.9998500733004E+00  0.7427296293859E+00  0.0000000000000E+00
-0.1024725950770E+01  0.7718833328015E+00  0.0000000000000E+00
-0.1049601828239E+01  0.8010370362170E+00  0.0000000000000E+00
-0.1074477705708E+01  0.8301907396326E+00  0.0000000000000E+00
-0.1099353583177E+01  0.8593444430482E+00  0.0000000000000E+00
-0.1124229460646E+01  0.8884981464637E+00  0.0000000000000E+00
-0.1149105338115E+01  0.9176518498793E+00  0.0000000000000E+00
-0.6631144762003E+00  0.4023799804788E+00  0.0000000000000E+00
-0.6867022089859E+00  0.4323453794399E+00  0.0000000000000E+00
-0.7102899417715E+00  0.4623107784010E+00  0.0000000000000E+00
-0.7338776745571E+00  0.4922761773621E+00  0.0000000000000E+00
-0.7574654073427E+00  0.5222415763231E+00  0.0000000000000E+00
-0.7810531401284E+00  0.5522069752842E+00  0.0000000000000E+00
-0.8046408729140E+00  0.5821723742453E+00  0.0000000000000E+00
-0.8282286056996E+00  0.6121377732064E+00  0.0000000000000E+00
-0.8518163384852E+00  0.6421031721674E+00  0.0000000000000E+00
-0.8754040712708E+00  0.6720685711285E+00  0.0000000000000E+00
-0.8989918040564E+00  0.7020339700896E+00  0.0000000000000E+00
-0.9225795368421E+00  0.7319993690506E+00  0.0000000000000E+00
-0.9461672696277E+00  0.7619647680117E+00  0.0000000000000E+00
-0.9697550024133E+00  0.7919301669728E+00  0.0000000000000E+00
-0.9933427351989E+00  0.8218955659339E+00  0.0000000000000E+00
-0.1016930467985E+01  0.8518609648949E+00  0.0000000000000E+00
-0.1040518200770E+01  0.8818263638560E+00  0.0000000000000E+00
-0.1064105933556E+01  0.9117917628171E+00  0.0000000000000E+00
-0.1087693666341E+01  0.9417571617782E+00  0.0000000000000E+00
-0.6247718534183E+00  0.4113904599736E+00  0.0000000000000E+00
-0.6470599869664E+00  0.4421478324469E+00  0.0000000000000E+00
-0.6693481205145E+00  0.4729052049202E+00  0.0000000000000E+00
-0.6916362540626E+00  0.5036625773935E+00  0.0000000000000E+00
-0.7139243876107E+00  0.5344199498667E+00  0.0000000000000E+00
-0.7362125211588E+00  0.5651773223400E+00  0.0000000000000E+00
-0.7585006547069E+00  0.5959346948133E+00  0.0000000000000E+00
-0.7807887882550E+00  0.6266920672866E+00  0.0000000000000E+00
-0.8030769218031E+00  0.6574494397599E+00  0.0000000000000E+00
-0.8253650553512E+00  0.6882068122331E+00  0.0000000000000E+00
-0.8476531888993E+00  0.7189641847064E+00  0.0000000000000E+00
-0.8699413224474E+00  0.7497215571797E+00  0.0000000000000E+00
-0.8922294559955E+00  0.7804789296530E+00  0.0000000000000E+00
-0.9145175895436E+00  0.8112363021263E+00  0.0000000000000E+00
-0.9368057230917E+00  0.8419936745995E+00  0.0000000000000E+00
-0.9590938566398E+00  0.8727510470728E+00  0.0000000000000E+00
-0.9813819901879E+00  0.9035084195461E+00  0.0000000000000E+00
-0.1003670123736E+01  0.9342657920194E+00  0.0000000000000E+00
-0.1025958257284E+01  0.9650231644927E+00  0.0000000000000E+00
-0.5863228019837E+00  0.4199269192811E+00  0.0000000000000E+00
-0.6073059538729E+00  0.4514720689964E+00  0.0000000000000E+00
-0.6282891057621E+00  0.4830172187117E+00  0.0000000000000E+00
-0.6492722576512E+00  0.5145623684270E+00  0.0000000000000E+00
-0.6702554095404E+00  0.5461075181424E+00  0.0000000000000E+00
-0.6912385614296E+00  0.5776526678577E+00  0.0000000000000E+00
-0.7122217133188E+00  0.6091978175730E+00  0.0000000000000E+00
-0.7332048652079E+00  0.6407429672884E+00  0.0000000000000E+00
-0.7541880170971E+00  0.6722881170037E+00  0.0000000000000E+00
-0.7751711689863E+00  0.7038332667190E+00  0.0000000000000E+00
-0.7961543208755E+00  0.7353784164343E+00  0.0000000000000E+00
-0.8171374727647E+00  0.7669235661497E+00  0.0000000000000E+00
-0.8381206246538E+00  0.7984687158650E+00  0.0000000000000E+00
-0.8591037765430E+00  0.8300138655803E+00  0.0000000000000E+00
-0.8800869284322E+00  0.8615590152956E+00  0.0000000000000E+00
-0.9010700803214E+00  0.8931041650110E+00  0.0000000000000E+00
-0.9220532322105E+00  0.9246493147263E+00  0.0000000000000E+00
-0.9430363840997E+00  0.9561944644416E+00  0.0000000000000E+00
-0.9640195359889E+00  0.9877396141569E+00  0.0000000000000E+00
-0.5477768854188E+00  0.4279968810199E+00  0.0000000000000E+00
-0.5674541536864E+00  0.4603381160929E+00  0.0000000000000E+00
-0.5871314219540E+00  0.4926793511658E+00  0.0000000000000E+00
-0.6068086902216E+00  0.5250205862388E+00  0.0000000000000E+00
-0.6264859584892E+00  0.5573618213118E+00  0.0000000000000E+00
-0.6461632267567E+00  0.5897030563848E+00  0.0000000000000E+00
-0.6658404950243E+00  0.6220442914577E+00  0.0000000000000E+00
-0.6855177632919E+00  0.6543855265307E+00  0.0000000000000E+00
-0.7051950315595E+00  0.6867267616037E+00  0.0000000000000E+00
-0.7248722998271E+00  0.7190679966767E+00  0.0000000000000E+00
-0.7445495680947E+00  0.7514092317496E+00  0.0000000000000E+00
-0.7642268363623E+00  0.7837504668226E+00  0.0000000000000E+00
-0.7839041046299E+00  0.8160917018956E+00  0.0000000000000E+00
-0.8035813728974E+00  0.8484329369686E+00  0.0000000000000E+00
-0.8232586411650E+00  0.8807741720415E+00  0.0000000000000E+00
-0.8429359094326E+00  0.9131154071145E+00  0.0000000000000E+00
-0.8626131777002E+00  0.9454566421875E+00  0.0000000000000E+00
-0.8822904459678E+00  0.9777978772605E+00  0.0000000000000E+00
-0.9019677142354E+00  0.1010139112333E+01  0.0000000000000E+00
-0.5091428679054E+00  0.4356052711820E+00  0.0000000000000E+00
-0.5275166038674E+00  0.4687606222180E+00  0.0000000000000E+00
-0.5458903398295E+00  0.5019159732541E+00  0.0000000000000E+00
-0.5642640757915E+00  0.5350713242901E+00  0.0000000000000E+00
-0.5826378117536E+00  0.5682266753261E+00  0.0000000000000E+00
-0.6010115477157E+00  0.6013820263622E+00  0.0000000000000E+00
-0.6193852836777E+00  0.6345373773982E+00  0.0000000000000E+00
-0.6377590196398E+00  0.6676927284343E+00  0.0000000000000E+00
-0.6561327556018E+00  0.7008480794703E+00  0.0000000000000E+00
-0.6745064915639E+00  0.7340034305064E+00  0.0000000000000E+00
-0.6928802275259E+00  0.7671587815424E+00  0.0000000000000E+00
-0.7112539634880E+00  0.8003141325785E+00  0.0000000000000E+00
-0.7296276994500E+00  0.8334694836145E+00  0.0000000000000E+00
-0.7480014354121E+00  0.8666248346506E+00  0.0000000000000E+00
-0.7663751713741E+00  0.8997801856866E+00  0.0000000000000E+00
-0.7847489073362E+00  0.9329355367227E+00  0.0000000000000E+00
-0.8031226432983E+00  0.9660908877587E+00  0.0000000000000E+00
-0.8214963792603E+00  0.9992462387948E+00  0.0000000000000E+00
-0.8398701152224E+00  0.1032401589831E+01  0.0000000000000E+00
-0.4704201189630E+00  0.4427312295667E+00  0.0000000000000E+00
-0.4874864927934E+00  0.4767023850508E+00  0.0000000000000E+00
-0.5045528666239E+00  0.5106735405349E+00  0.0000000000000E+00
-0.5216192404544E+00  0.5446446960190E+00  0.0000000000000E+00
-0.5386856142848E+00  0.5786158515031E+00  0.0000000000000E+00
-0.5557519881153E+00  0.6125870069873E+00  0.0000000000000E+00
-0.5728183619458E+00  0.6465581624714E+00  0.0000000000000E+00
-0.5898847357762E+00  0.6805293179555E+00  0.0000000000000E+00
-0.6069511096067E+00  0.7145004734396E+00  0.0000000000000E+00
-0.6240174834372E+00  0.7484716289237E+00  0.0000000000000E+00
-0.6410838572677E+00  0.7824427844079E+00  0.0000000000000E+00
-0.6581502310981E+00  0.8164139398920E+00  0.0000000000000E+00
-0.6752166049286E+00  0.8503850953761E+00  0.0000000000000E+00
-0.6922829787591E+00  0.8843562508602E+00  0.0000000000000E+00
-0.7093493525895E+00  0.9183274063443E+00  0.0000000000000E+00
-0.7264157264200E+00  0.9522985618284E+00  0.0000000000000E+00
-0.7434821002505E+00  0.9862697173126E+00  0.0000000000000E+00
-0.7605484740810E+00  0.1020240872797E+01  0.0000000000000E+00
-0.7776148479114E+00  0.1054212028281E+01  0.0000000000000E+00
-0.4316001604194E+00  0.4493289287895E+00  0.0000000000000E+00
-0.4473410322604E+00  0.4840760209663E+00  0.0000000000000E+00
-0.4630819041013E+00  0.5188231131430E+00  0.0000000000000E+00
-0.4788227759422E+00  0.5535702053198E+00  0.0000000000000E+00
-0.4945636477831E+00  0.5883172974965E+00  0.0000000000000E+00
-0.5103045196240E+00  0.6230643896733E+00  0.0000000000000E+00
-0.5260453914650E+00  0.6578114818500E+00  0.0000000000000E+00
-0.5417862633059E+00  0.6925585740268E+00  0.0000000000000E+00
-0.5575271351468E+00  0.7273056662035E+00  0.0000000000000E+00
-0.5732680069877E+00  0.7620527583802E+00  0.0000000000000E+00
-0.5890088788287E+00  0.7967998505570E+00  0.0000000000000E+00
-0.6047497506696E+00  0.8315469427337E+00  0.0000000000000E+00
-0.6204906225105E+00  0.8662940349105E+00  0.0000000000000E+00
-0.6362314943514E+00  0.9010411270872E+00  0.0000000000000E+00
-0.6519723661924E+00  0.9357882192640E+00  0.0000000000000E+00
-0.6677132380333E+00  0.9705353114407E+00  0.0000000000000E+00
-0.6834541098742E+00  0.1005282403617E+01  0.0000000000000E+00
-0.6991949817151E+00  0.1040029495794E+01  0.0000000000000E+00
-0.7149358535560E+00  0.1074776587971E+01  0.0000000000000E+00
-0.3926829942859E+00  0.4553717726819E+00  0.0000000000000E+00
-0.4070743133994E+00  0.4908323142830E+00  0.0000000000000E+00
-0.4214656325129E+00  0.5262928558841E+00  0.0000000000000E+00
-0.4358569516264E+00  0.5617533974853E+00  0.0000000000000E+00
-0.4502482707400E+00  0.5972139390864E+00  0.0000000000000E+00
-0.4646395898535E+00  0.6326744806875E+00  0.0000000000000E+00
-0.4790309089670E+00  0.6681350222886E+00  0.0000000000000E+00
-0.4934222280806E+00  0.7035955638897E+00  0.0000000000000E+00
-0.5078135471941E+00  0.7390561054908E+00  0.0000000000000E+00
-0.5222048663076E+00  0.7745166470919E+00  0.0000000000000E+00
-0.5365961854212E+00  0.8099771886930E+00  0.0000000000000E+00
-0.5509875045347E+00  0.8454377302941E+00  0.0000000000000E+00
-0.5653788236482E+00  0.8808982718952E+00  0.0000000000000E+00
-0.5797701427618E+00  0.9163588134963E+00  0.0000000000000E+00
-0.5941614618753E+00  0.9518193550975E+00  0.0000000000000E+00
-0.6085527809888E+00  0.9872798966986E+00  0.0000000000000E+00
-0.6229441001024E+00  0.1022740438300E+01  0.0000000000000E+00
-0.6373354192159E+00  0.1058200979901E+01  0.0000000000000E+00
-0.6517267383294E+00  0.1093661521502E+01  0.0000000000000E+00
-0.3536746458292E+00  0.4608476922473E+00  0.0000000000000E+00
-0.3666922613378E+00  0.4969508181436E+00  0.0000000000000E+00
-0.3797098768463E+00  0.5330539440399E+00  0.0000000000000E+00
-0.3927274923549E+00  0.5691570699361E+00  0.0000000000000E+00
-0.4057451078635E+00  0.6052601958324E+00  0.0000000000000E+00
-0.4187627233720E+00  0.6413633217287E+00  0.0000000000000E+00
-0.4317803388806E+00  0.6774664476250E+00  0.0000000000000E+00
-0.4447979543892E+00  0.7135695735212E+00  0.0000000000000E+00
-0.4578155698977E+00  0.7496726994175E+00  0.0000000000000E+00
-0.4708331854063E+00  0.7857758253138E+00  0.0000000000000E+00
-0.4838508009149E+00  0.8218789512100E+00  0.0000000000000E+00
-0.4968684164235E+00  0.8579820771063E+00  0.0000000000000E+00
-0.5098860319320E+00  0.8940852030026E+00  0.0000000000000E+00
-0.5229036474406E+00  0.9301883288989E+00  0.0000000000000E+00
-0.5359212629492E+00  0.9662914547951E+00  0.0000000000000E+00
-0.5489388784577E+00  0.1002394580691E+01  0.0000000000000E+00
-0.5619564939663E+00  0.1038497706588E+01  0.0000000000000E+00
-0.5749741094749E+00  0.1074600832484E+01  0.0000000000000E+00
-0.5879917249834E+00  0.1110703958380E+01  0.0000000000000E+00
-0.3145837448712E+00  0.4657520002446E+00  0.0000000000000E+00
-0.3262058732712E+00  0.5024255397187E+00  0.0000000000000E+00
-0.3378280016712E+00  0.5390990791928E+00  0.0000000000000E+00
-0.3494501300712E+00  0.5757726186668E+00  0.0000000000000E+00
-0.3610722584712E+00  0.6124461581409E+00  0.0000000000000E+00
-0.3726943868712E+00  0.6491196976150E+00  0.0000000000000E+00
-0.3843165152712E+00  0.6857932370891E+00  0.0000000000000E+00
-0.3959386436712E+00  0.7224667765632E+00  0.0000000000000E+00
-0.4075607720712E+00  0.7591403160373E+00  0.0000000000000E+00
-0.4191829004712E+00  0.7958138555114E+00  0.0000000000000E+00
-0.4308050288712E+00  0.8324873949855E+00  0.0000000000000E+00
-0.4424271572712E+00  0.8691609344596E+00  0.0000000000000E+00
-0.4540492856712E+00  0.9058344739336E+00  0.0000000000000E+00
-0.4656714140712E+00  0.9425080134077E+00  0.0000000000000E+00
-0.4772935424712E+00  0.9791815528818E+00  0.0000000000000E+00
-0.4889156708713E+00  0.1015855092356E+01  0.0000000000000E+00
-0.5005377992713E+00  0.1052528631830E+01  0.0000000000000E+00
-0.5121599276713E+00  0.1089202171304E+01  0.0000000000000E+00
-0.5237820560713E+00  0.1125875710778E+01  0.0000000000000E+00
-0.2754196909618E+00  0.4700832706777E+00  0.0000000000000E+00
-0.2856275626982E+00  0.5072566872297E+00  0.0000000000000E+00
-0.2958354344346E+00  0.5444301037817E+00  0.0000000000000E+00
-0.3060433061710E+00  0.5816035203337E+00  0.0000000000000E+00
-0.3162511779074E+00  0.6187769368857E+00  0.0000000000000E+00
-0.3264590496438E+00  0.6559503534378E+00  0.0000000000000E+00
-0.3366669213802E+00  0.6931237699898E+00  0.0000000000000E+00
-0.3468747931166E+00  0.7302971865418E+00  0.0000000000000E+00
-0.3570826648530E+00  0.7674706030938E+00  0.0000000000000E+00
-0.3672905365894E+00  0.8046440196458E+00  0.0000000000000E+00
-0.3774984083258E+00  0.8418174361978E+00  0.0000000000000E+00
-0.3877062800623E+00  0.8789908527498E+00  0.0000000000000E+00
-0.3979141517987E+00  0.9161642693018E+00  0.0000000000000E+00
-0.4081220235351E+00  0.9533376858538E+00  0.0000000000000E+00
-0.4183298952715E+00  0.9905111024059E+00  0.0000000000000E+00
-0.4285377670079E+00  0.1027684518958E+01  0.0000000000000E+00
-0.4387456387443E+00  0.1064857935510E+01  0.0000000000000E+00
-0.4489535104807E+00  0.1102031352062E+01  0.0000000000000E+00
-0.4591613822171E+00  0.1139204768614E+01  0.0000000000000E+00
-0.2361919209299E+00  0.4738412269098E+00  0.0000000000000E+00
-0.2449696928514E+00  0.5114464367078E+00  0.0000000000000E+00
-0.2537474647729E+00  0.5490516465058E+00  0.0000000000000E+00
-0.2625252366944E+00  0.5866568563038E+00  0.0000000000000E+00
-0.2713030086160E+00  0.6242620661018E+00  0.0000000000000E+00
-0.2800807805375E+00  0.6618672758998E+00  0.0000000000000E+00
-0.2888585524590E+00  0.6994724856977E+00  0.0000000000000E+00
-0.2976363243805E+00  0.7370776954957E+00  0.0000000000000E+00
-0.3064140963021E+00  0.7746829052937E+00  0.0000000000000E+00
-0.3151918682236E+00  0.8122881150917E+00  0.0000000000000E+00
-0.3239696401451E+00  0.8498933248897E+00  0.0000000000000E+00
-0.3327474120667E+00  0.8874985346877E+00  0.0000000000000E+00
-0.3415251839882E+00  0.9251037444857E+00  0.0000000000000E+00
-0.3503029559097E+00  0.9627089542837E+00  0.0000000000000E+00
-0.3590807278312E+00  0.1000314164082E+01  0.0000000000000E+00
-0.3678584997528E+00  0.1037919373880E+01  0.0000000000000E+00
-0.3766362716743E+00  0.1075524583678E+01  0.0000000000000E+00
-0.3854140435958E+00  0.1113129793476E+01  0.0000000000000E+00
-0.3941918155173E+00  0.1150735003274E+01  0.0000000000000E+00
-0.1969098270509E+00  0.4770256980868E+00  0.0000000000000E+00
-0.2042444088384E+00  0.5149968355198E+00  0.0000000000000E+00
-0.2115789906258E+00  0.5529679729529E+00  0.0000000000000E+00
-0.2189135724133E+00  0.5909391103860E+00  0.0000000000000E+00
-0.2262481542008E+00  0.6289102478191E+00  0.0000000000000E+00
-0.2335827359883E+00  0.6668813852521E+00  0.0000000000000E+00
-0.2409173177758E+00  0.7048525226852E+00  0.0000000000000E+00
-0.2482518995633E+00  0.7428236601183E+00  0.0000000000000E+00
-0.2555864813508E+00  0.7807947975513E+00  0.0000000000000E+00
-0.2629210631383E+00  0.8187659349844E+00  0.0000000000000E+00
-0.2702556449257E+00  0.8567370724175E+00  0.0000000000000E+00
-0.2775902267132E+00  0.8947082098506E+00  0.0000000000000E+00
-0.2849248085007E+00  0.9326793472836E+00  0.0000000000000E+00
-0.2922593902882E+00  0.9706504847167E+00  0.0000000000000E+00
-0.2995939720757E+00  0.1008621622150E+01  0.0000000000000E+00
-0.3069285538632E+00  0.1046592759583E+01  0.0000000000000E+00
-0.3142631356507E+00  0.1084563897016E+01  0.0000000000000E+00
-0.3215977174382E+00  0.1122535034449E+01  0.0000000000000E+00
-0.3289322992256E+00  0.1160506171882E+01  0.0000000000000E+00
-0.1575825437874E+00  0.4796361627817E+00  0.0000000000000E+00
-0.1634632579838E+00  0.5179088773513E+00  0.0000000000000E+00
-0.1693439721801E+00  0.5561815919210E+00  0.0000000000000E+00
-0.1752246863765E+00  0.5944543064906E+00  0.0000000000000E+00
-0.1811054005728E+00  0.6327270210602E+00  0.0000000000000E+00
-0.1869861147692E+00  0.6709997356298E+00  0.0000000000000E+00
-0.1928668289655E+00  0.7092724501995E+00  0.0000000000000E+00
-0.1987475431619E+00  0.7475451647691E+00  0.0000000000000E+00
-0.2046282573582E+00  0.7858178793387E+00  0.0000000000000E+00
-0.2105089715546E+00  0.8240905939083E+00  0.0000000000000E+00
-0.2163896857509E+00  0.8623633084779E+00  0.0000000000000E+00
-0.2222703999473E+00  0.9006360230476E+00  0.0000000000000E+00
-0.2281511141436E+00  0.9389087376172E+00  0.0000000000000E+00
-0.2340318283400E+00  0.9771814521868E+00  0.0000000000000E+00
-0.2399125425363E+00  0.1015454166756E+01  0.0000000000000E+00
-0.2457932567327E+00  0.1053726881326E+01  0.0000000000000E+00
-0.2516739709290E+00  0.1091999595896E+01  0.0000000000000E+00
-0.2575546851254E+00  0.1130272310465E+01  0.0000000000000E+00
-0.2634353993217E+00  0.1168545025035E+01  0.0000000000000E+00
-0.1182190059601E+00  0.4816714823591E+00  0.0000000000000E+00
-0.1226373068009E+00  0.5201819624472E+00  0.0000000000000E+00
-0.1270556076417E+00  0.5586924425354E+00  0.0000000000000E+00
-0.1314739084825E+00  0.5972029226235E+00  0.0000000000000E+00
-0.1358922093234E+00  0.6357134027116E+00  0.0000000000000E+00
-0.1403105101642E+00  0.6742238827997E+00  0.0000000000000E+00
-0.1447288110050E+00  0.7127343628879E+00  0.0000000000000E+00
-0.1491471118458E+00  0.7512448429760E+00  0.0000000000000E+00
-0.1535654126866E+00  0.7897553230641E+00  0.0000000000000E+00
-0.1579837135274E+00  0.8282658031523E+00  0.0000000000000E+00
-0.1624020143682E+00  0.8667762832404E+00  0.0000000000000E+00
-0.1668203152090E+00  0.9052867633285E+00  0.0000000000000E+00
-0.1712386160498E+00  0.9437972434166E+00  0.0000000000000E+00
-0.1756569168906E+00  0.9823077235048E+00  0.0000000000000E+00
-0.1800752177314E+00  0.1020818203593E+01  0.0000000000000E+00
-0.1844935185722E+00  0.1059328683681E+01  0.0000000000000E+00
-0.1889118194131E+00  0.1097839163769E+01  0.0000000000000E+00
-0.1933301202539E+00  0.1136349643857E+01  0.0000000000000E+00
-0.1977484210947E+00  0.1174860123945E+01  0.0000000000000E+00
-0.7882810581620E-01  0.4831297079839E+00  0.0000000000000E+00
-0.8177747086543E-01  0.5218135049328E+00  0.0000000000000E+00
-0.8472683591466E-01  0.5604973018818E+00  0.0000000000000E+00
-0.8767620096390E-01  0.5991810988308E+00  0.0000000000000E+00
-0.9062556601313E-01  0.6378648957797E+00  0.0000000000000E+00
-0.9357493106237E-01  0.6765486927287E+00  0.0000000000000E+00
-0.9652429611160E-01  0.7152324896776E+00  0.0000000000000E+00
-0.9947366116083E-01  0.7539162866266E+00  0.0000000000000E+00
-0.1024230262101E+00  0.7926000835756E+00  0.0000000000000E+00
-0.1053723912593E+00  0.8312838805245E+00  0.0000000000000E+00
-0.1083217563085E+00  0.8699676774735E+00  0.0000000000000E+00
-0.1112711213578E+00  0.9086514744224E+00  0.0000000000000E+00
-0.1142204864070E+00  0.9473352713714E+00  0.0000000000000E+00
-0.1171698514562E+00  0.9860190683204E+00  0.0000000000000E+00
-0.1201192165055E+00  0.1024702865269E+01  0.0000000000000E+00
-0.1230685815547E+00  0.1063386662218E+01  0.0000000000000E+00
-0.1260179466039E+00  0.1102070459167E+01  0.0000000000000E+00
-0.1289673116532E+00  0.1140754256116E+01  0.0000000000000E+00
-0.1319166767024E+00  0.1179438053065E+01  0.0000000000000E+00
-0.3941874312013E-01  0.4840078928243E+00  0.0000000000000E+00
-0.4089463112221E-01  0.5227985519517E+00  0.0000000000000E+00
-0.4237051912429E-01  0.5615892110790E+00  0.0000000000000E+00
-0.4384640712637E-01  0.6003798702064E+00  0.0000000000000E+00
-0.4532229512845E-01  0.6391705293337E+00  0.0000000000000E+00
-0.4679818313053E-01  0.6779611884610E+00  0.0000000000000E+00
-0.4827407113261E-01  0.7167518475884E+00  0.0000000000000E+00
-0.4974995913469E-01  0.7555425067157E+00  0.0000000000000E+00
-0.5122584713677E-01  0.7943331658430E+00  0.0000000000000E+00
-0.5270173513885E-01  0.8331238249704E+00  0.0000000000000E+00
-0.5417762314093E-01  0.8719144840977E+00  0.0000000000000E+00
-0.5565351114301E-01  0.9107051432250E+00  0.0000000000000E+00
-0.5712939914509E-01  0.9494958023524E+00  0.0000000000000E+00
-0.5860528714717E-01  0.9882864614797E+00  0.0000000000000E+00
-0.6008117514925E-01  0.1027077120607E+01  0.0000000000000E+00
-0.6155706315133E-01  0.1065867779734E+01  0.0000000000000E+00
-0.6303295115341E-01  0.1104658438862E+01  0.0000000000000E+00
-0.6450883915549E-01  0.1143449097989E+01  0.0000000000000E+00
-0.6598472715757E-01  0.1182239757116E+01  0.0000000000000E+00
 0.2029389626142E-10  0.4843018200064E+00  0.0000000000000E+00
 0.4058818043640E-10  0.5231292357807E+00  0.0000000000000E+00
 0.6088245073360E-10  0.5619566515550E+00  0.0000000000000E+00
 0.8117677654195E-10  0.6007840673293E+00  0.0000000000000E+00
 0.1014709774502E-09  0.6396114831037E+00  0.0000000000000E+00
 0.1217652893808E-09  0.6784388988780E+00  0.0000000000000E+00
 0.1420595458002E-09  0.7172663146523E+00  0.0000000000000E+00
 0.1623538299752E-09  0.7560937304266E+00  0.0000000000000E+00
 0.1826479198611E-09  0.7949211462009E+00  0.0000000000000E+00
 0.2029422873028E-09  0.8337485619753E+00  0.0000000000000E+00
 0.2232365992334E-09  0.8725759777496E+00  0.0000000000000E+00
 0.2435308556528E-09  0.9114033935239E+00  0.0000000000000E+00
 0.2638250010499E-09  0.9502308092982E+00  0.0000000000000E+00
 0.2841192574693E-09  0.9890582250725E+00  0.0000000000000E+00
 0.3044134583776E-09  0.1027885640847E+01  0.0000000000000E+00
 0.3247076037747E-09  0.1066713056621E+01  0.0000000000000E+00
 0.3450020822387E-09  0.1105540472396E+01  0.0000000000000E+00
 0.3652963386581E-09  0.1144367888170E+01  0.0000000000000E+00
 0.3855903730329E-09  0.1183195303944E+01  0.0000000000000E+00
 0.3941874316069E-01  0.4840078928230E+00  0.0000000000000E+00
 0.4089463120334E-01  0.5227985519491E+00  0.0000000000000E+00
 0.4237051924599E-01  0.5615892110751E+00  0.0000000000000E+00
 0.4384640728863E-01  0.6003798702011E+00  0.0000000000000E+00
 0.4532229533128E-01  0.6391705293271E+00  0.0000000000000E+00
 0.4679818337393E-01  0.6779611884531E+00  0.0000000000000E+00
 0.4827407141658E-01  0.7167518475791E+00  0.0000000000000E+00
 0.4974995945922E-01  0.7555425067052E+00  0.0000000000000E+00
 0.5122584750187E-01  0.7943331658312E+00  0.0000000000000E+00
 0.5270173554452E-01  0.8331238249572E+00  0.0000000000000E+00
 0.5417762358717E-01  0.8719144840832E+00  0.0000000000000E+00
 0.5565351162981E-01  0.9107051432092E+00  0.0000000000000E+00
 0.5712939967246E-01  0.9494958023353E+00  0.0000000000000E+00
 0.5860528771511E-01  0.9882864614613E+00  0.0000000000000E+00
 0.6008117575775E-01  0.1027077120587E+01  0.0000000000000E+00
 0.6155706380040E-01  0.1065867779713E+01  0.0000000000000E+00
 0.6303295184305E-01  0.1104658438839E+01  0.0000000000000E+00
 0.6450883988570E-01  0.1143449097965E+01  0.0000000000000E+00
 0.6598472792834E-01  0.1182239757091E+01  0.0000000000000E+00
 0.7882810585671E-01  0.4831297079813E+00  0.0000000000000E+00
 0.8177747094646E-01  0.5218135049277E+00  0.0000000000000E+00
 0.8472683603621E-01  0.5604973018741E+00  0.0000000000000E+00
 0.8767620112596E-01  0.5991810988204E+00  0.0000000000000E+00
 0.9062556621572E-01  0.6378648957668E+00  0.0000000000000E+00
 0.9357493130547E-01  0.6765486927132E+00  0.0000000000000E+00
 0.9652429639522E-01  0.7152324896596E+00  0.0000000000000E+00
 0.9947366148497E-01  0.7539162866059E+00  0.0000000000000E+00
 0.1024230265747E+00  0.7926000835523E+00  0.0000000000000E+00
 0.1053723916645E+00  0.8312838804987E+00  0.0000000000000E+00
 0.1083217567542E+00  0.8699676774451E+00  0.0000000000000E+00
 0.1112711218440E+00  0.9086514743914E+00  0.0000000000000E+00
 0.1142204869337E+00  0.9473352713378E+00  0.0000000000000E+00
 0.1171698520235E+00  0.9860190682842E+00  0.0000000000000E+00
 0.1201192171132E+00  0.1024702865231E+01  0.0000000000000E+00
 0.1230685822030E+00  0.1063386662177E+01  0.0000000000000E+00
 0.1260179472927E+00  0.1102070459123E+01  0.0000000000000E+00
 0.1289673123825E+00  0.1140754256070E+01  0.0000000000000E+00
 0.1319166774722E+00  0.1179438053016E+01  0.0000000000000E+00
 0.1182190060006E+00  0.4816714823553E+00  0.0000000000000E+00
 0.1226373068818E+00  0.5201819624396E+00  0.0000000000000E+00
 0.1270556077630E+00  0.5586924425239E+00  0.0000000000000E+00
 0.1314739086443E+00  0.5972029226082E+00  0.0000000000000E+00
 0.1358922095255E+00  0.6357134026926E+00  0.0000000000000E+00
 0.1403105104068E+00  0.6742238827769E+00  0.0000000000000E+00
 0.1447288112880E+00  0.7127343628612E+00  0.0000000000000E+00
 0.1491471121693E+00  0.7512448429455E+00  0.0000000000000E+00
 0.1535654130505E+00  0.7897553230298E+00  0.0000000000000E+00
 0.1579837139318E+00  0.8282658031141E+00  0.0000000000000E+00
 0.1624020148130E+00  0.8667762831985E+00  0.0000000000000E+00
 0.1668203156943E+00  0.9052867632828E+00  0.0000000000000E+00
 0.1712386165755E+00  0.9437972433671E+00  0.0000000000000E+00
 0.1756569174567E+00  0.9823077234514E+00  0.0000000000000E+00
 0.1800752183380E+00  0.1020818203536E+01  0.0000000000000E+00
 0.1844935192192E+00  0.1059328683620E+01  0.0000000000000E+00
 0.1889118201005E+00  0.1097839163704E+01  0.0000000000000E+00
 0.1933301209817E+00  0.1136349643789E+01  0.0000000000000E+00
 0.1977484218630E+00  0.1174860123873E+01  0.0000000000000E+00
 0.1575825438277E+00  0.4796361627767E+00  0.0000000000000E+00
 0.1634632580644E+00  0.5179088773413E+00  0.0000000000000E+00
 0.1693439723011E+00  0.5561815919059E+00  0.0000000000000E+00
 0.1752246865377E+00  0.5944543064706E+00  0.0000000000000E+00
 0.1811054007744E+00  0.6327270210352E+00  0.0000000000000E+00
 0.1869861150110E+00  0.6709997355998E+00  0.0000000000000E+00
 0.1928668292477E+00  0.7092724501644E+00  0.0000000000000E+00
 0.1987475434844E+00  0.7475451647290E+00  0.0000000000000E+00
 0.2046282577210E+00  0.7858178792936E+00  0.0000000000000E+00
 0.2105089719577E+00  0.8240905938582E+00  0.0000000000000E+00
 0.2163896861943E+00  0.8623633084229E+00  0.0000000000000E+00
 0.2222704004310E+00  0.9006360229875E+00  0.0000000000000E+00
 0.2281511146677E+00  0.9389087375521E+00  0.0000000000000E+00
 0.2340318289043E+00  0.9771814521167E+00  0.0000000000000E+00
 0.2399125431410E+00  0.1015454166681E+01  0.0000000000000E+00
 0.2457932573776E+00  0.1053726881246E+01  0.0000000000000E+00
 0.2516739716143E+00  0.1091999595811E+01  0.0000000000000E+00
 0.2575546858510E+00  0.1130272310375E+01  0.0000000000000E+00
 0.2634354000876E+00  0.1168545024940E+01  0.0000000000000E+00
 0.1969098270910E+00  0.4770256980806E+00  0.0000000000000E+00
 0.2042444089187E+00  0.5149968355075E+00  0.0000000000000E+00
 0.2115789907463E+00  0.5529679729344E+00  0.0000000000000E+00
 0.2189135725740E+00  0.5909391103613E+00  0.0000000000000E+00
 0.2262481544016E+00  0.6289102477881E+00  0.0000000000000E+00
 0.2335827362293E+00  0.6668813852150E+00  0.0000000000000E+00
 0.2409173180569E+00  0.7048525226419E+00  0.0000000000000E+00
 0.2482518998846E+00  0.7428236600688E+00  0.0000000000000E+00
 0.2555864817122E+00  0.7807947974957E+00  0.0000000000000E+00
 0.2629210635399E+00  0.8187659349226E+00  0.0000000000000E+00
 0.2702556453675E+00  0.8567370723495E+00  0.0000000000000E+00
 0.2775902271952E+00  0.8947082097764E+00  0.0000000000000E+00
 0.2849248090228E+00  0.9326793472033E+00  0.0000000000000E+00
 0.2922593908505E+00  0.9706504846302E+00  0.0000000000000E+00
 0.2995939726781E+00  0.1008621622057E+01  0.0000000000000E+00
 0.3069285545058E+00  0.1046592759484E+01  0.0000000000000E+00
 0.3142631363334E+00  0.1084563896911E+01  0.0000000000000E+00
 0.3215977181611E+00  0.1122535034338E+01  0.0000000000000E+00
 0.3289322999887E+00  0.1160506171765E+01  0.0000000000000E+00
 0.2361919209698E+00  0.4738412269025E+00  0.0000000000000E+00
 0.2449696929314E+00  0.5114464366931E+00  0.0000000000000E+00
 0.2537474648929E+00  0.5490516464838E+00  0.0000000000000E+00
 0.2625252368544E+00  0.5866568562744E+00  0.0000000000000E+00
 0.2713030088159E+00  0.6242620660651E+00  0.0000000000000E+00
 0.2800807807774E+00  0.6618672758557E+00  0.0000000000000E+00
 0.2888585527389E+00  0.6994724856464E+00  0.0000000000000E+00
 0.2976363247005E+00  0.7370776954370E+00  0.0000000000000E+00
 0.3064140966620E+00  0.7746829052277E+00  0.0000000000000E+00
 0.3151918686235E+00  0.8122881150183E+00  0.0000000000000E+00
 0.3239696405850E+00  0.8498933248090E+00  0.0000000000000E+00
 0.3327474125465E+00  0.8874985345996E+00  0.0000000000000E+00
 0.3415251845080E+00  0.9251037443903E+00  0.0000000000000E+00
 0.3503029564696E+00  0.9627089541809E+00  0.0000000000000E+00
 0.3590807284311E+00  0.1000314163972E+01  0.0000000000000E+00
 0.3678585003926E+00  0.1037919373762E+01  0.0000000000000E+00
 0.3766362723541E+00  0.1075524583553E+01  0.0000000000000E+00
 0.3854140443156E+00  0.1113129793344E+01  0.0000000000000E+00
 0.3941918162772E+00  0.1150735003134E+01  0.0000000000000E+00
 0.2754196910016E+00  0.4700832706692E+00  0.0000000000000E+00
 0.2856275627779E+00  0.5072566872127E+00  0.0000000000000E+00
 0.2958354345541E+00  0.5444301037562E+00  0.0000000000000E+00
 0.3060433063303E+00  0.5816035202998E+00  0.0000000000000E+00
 0.3162511781066E+00  0.6187769368433E+00  0.0000000000000E+00
 0.3264590498828E+00  0.6559503533868E+00  0.0000000000000E+00
 0.3366669216591E+00  0.6931237699303E+00  0.0000000000000E+00
 0.3468747934353E+00  0.7302971864738E+00  0.0000000000000E+00
 0.3570826652115E+00  0.7674706030173E+00  0.0000000000000E+00
 0.3672905369878E+00  0.8046440195609E+00  0.0000000000000E+00
 0.3774984087640E+00  0.8418174361044E+00  0.0000000000000E+00
 0.3877062805402E+00  0.8789908526479E+00  0.0000000000000E+00
 0.3979141523165E+00  0.9161642691914E+00  0.0000000000000E+00
 0.4081220240927E+00  0.9533376857349E+00  0.0000000000000E+00
 0.4183298958690E+00  0.9905111022785E+00  0.0000000000000E+00
 0.4285377676452E+00  0.1027684518822E+01  0.0000000000000E+00
 0.4387456394214E+00  0.1064857935365E+01  0.0000000000000E+00
 0.4489535111977E+00  0.1102031351909E+01  0.0000000000000E+00
 0.4591613829739E+00  0.1139204768453E+01  0.0000000000000E+00
 0.3145837449108E+00  0.4657520002350E+00  0.0000000000000E+00
 0.3262058733503E+00  0.5024255396995E+00  0.0000000000000E+00
 0.3378280017898E+00  0.5390990791639E+00  0.0000000000000E+00
 0.3494501302294E+00  0.5757726186284E+00  0.0000000000000E+00
 0.3610722586689E+00  0.6124461580929E+00  0.0000000000000E+00
 0.3726943871084E+00  0.6491196975574E+00  0.0000000000000E+00
 0.3843165155480E+00  0.6857932370219E+00  0.0000000000000E+00
 0.3959386439875E+00  0.7224667764863E+00  0.0000000000000E+00
 0.4075607724270E+00  0.7591403159508E+00  0.0000000000000E+00
 0.4191829008666E+00  0.7958138554153E+00  0.0000000000000E+00
 0.4308050293061E+00  0.8324873948798E+00  0.0000000000000E+00
 0.4424271577456E+00  0.8691609343443E+00  0.0000000000000E+00
 0.4540492861852E+00  0.9058344738087E+00  0.0000000000000E+00
 0.4656714146247E+00  0.9425080132732E+00  0.0000000000000E+00
 0.4772935430642E+00  0.9791815527377E+00  0.0000000000000E+00
 0.4889156715038E+00  0.1015855092202E+01  0.0000000000000E+00
 0.5005377999433E+00  0.1052528631667E+01  0.0000000000000E+00
 0.5121599283828E+00  0.1089202171131E+01  0.0000000000000E+00
 0.5237820568224E+00  0.1125875710596E+01  0.0000000000000E+00
 0.3536746458685E+00  0.4608476922366E+00  0.0000000000000E+00
 0.3666922614163E+00  0.4969508181222E+00  0.0000000000000E+00
 0.3797098769641E+00  0.5330539440077E+00  0.0000000000000E+00
 0.3927274925120E+00  0.5691570698933E+00  0.0000000000000E+00
 0.4057451080598E+00  0.6052601957789E+00  0.0000000000000E+00
 0.4187627236076E+00  0.6413633216644E+00  0.0000000000000E+00
 0.4317803391555E+00  0.6774664475500E+00  0.0000000000000E+00
 0.4447979547033E+00  0.7135695734356E+00  0.0000000000000E+00
 0.4578155702512E+00  0.7496726993211E+00  0.0000000000000E+00
 0.4708331857990E+00  0.7857758252067E+00  0.0000000000000E+00
 0.4838508013468E+00  0.8218789510922E+00  0.0000000000000E+00
 0.4968684168947E+00  0.8579820769778E+00  0.0000000000000E+00
 0.5098860324425E+00  0.8940852028634E+00  0.0000000000000E+00
 0.5229036479903E+00  0.9301883287489E+00  0.0000000000000E+00
 0.5359212635382E+00  0.9662914546345E+00  0.0000000000000E+00
 0.5489388790860E+00  0.1002394580520E+01  0.0000000000000E+00
 0.5619564946338E+00  0.1038497706406E+01  0.0000000000000E+00
 0.5749741101817E+00  0.1074600832291E+01  0.0000000000000E+00
 0.5879917257295E+00  0.1110703958177E+01  0.0000000000000E+00
 0.3926829943248E+00  0.4553717726702E+00  0.0000000000000E+00
 0.4070743134774E+00  0.4908323142595E+00  0.0000000000000E+00
 0.4214656326299E+00  0.5262928558488E+00  0.0000000000000E+00
 0.4358569517824E+00  0.5617533974382E+00  0.0000000000000E+00
 0.4502482709349E+00  0.5972139390275E+00  0.0000000000000E+00
 0.4646395900874E+00  0.6326744806169E+00  0.0000000000000E+00
 0.4790309092400E+00  0.6681350222062E+00  0.0000000000000E+00
 0.4934222283925E+00  0.7035955637956E+00  0.0000000000000E+00
 0.5078135475450E+00  0.7390561053849E+00  0.0000000000000E+00
 0.5222048666975E+00  0.7745166469743E+00  0.0000000000000E+00
 0.5365961858501E+00  0.8099771885636E+00  0.0000000000000E+00
 0.5509875050026E+00  0.8454377301529E+00  0.0000000000000E+00
 0.5653788241551E+00  0.8808982717423E+00  0.0000000000000E+00
 0.5797701433076E+00  0.9163588133316E+00  0.0000000000000E+00
 0.5941614624601E+00  0.9518193549210E+00  0.0000000000000E+00
 0.6085527816127E+00  0.9872798965103E+00  0.0000000000000E+00
 0.6229441007652E+00  0.1022740438100E+01  0.0000000000000E+00
 0.6373354199177E+00  0.1058200979689E+01  0.0000000000000E+00
 0.6517267390702E+00  0.1093661521278E+01  0.0000000000000E+00
 0.4316001604581E+00  0.4493289287768E+00  0.0000000000000E+00
 0.4473410323378E+00  0.4840760209408E+00  0.0000000000000E+00
 0.4630819042174E+00  0.5188231131049E+00  0.0000000000000E+00
 0.4788227760970E+00  0.5535702052689E+00  0.0000000000000E+00
 0.4945636479767E+00  0.5883172974329E+00  0.0000000000000E+00
 0.5103045198563E+00  0.6230643895969E+00  0.0000000000000E+00
 0.5260453917359E+00  0.6578114817609E+00  0.0000000000000E+00
 0.5417862636155E+00  0.6925585739250E+00  0.0000000000000E+00
 0.5575271354952E+00  0.7273056660890E+00  0.0000000000000E+00
 0.5732680073748E+00  0.7620527582530E+00  0.0000000000000E+00
 0.5890088792544E+00  0.7967998504170E+00  0.0000000000000E+00
 0.6047497511341E+00  0.8315469425810E+00  0.0000000000000E+00
 0.6204906230137E+00  0.8662940347451E+00  0.0000000000000E+00
 0.6362314948933E+00  0.9010411269091E+00  0.0000000000000E+00
 0.6519723667730E+00  0.9357882190731E+00  0.0000000000000E+00
 0.6677132386526E+00  0.9705353112371E+00  0.0000000000000E+00
 0.6834541105322E+00  0.1005282403401E+01  0.0000000000000E+00
 0.6991949824118E+00  0.1040029495565E+01  0.0000000000000E+00
 0.7149358542915E+00  0.1074776587729E+01  0.0000000000000E+00
 0.4704201190014E+00  0.4427312295532E+00  0.0000000000000E+00
 0.4874864928703E+00  0.4767023850238E+00  0.0000000000000E+00
 0.5045528667393E+00  0.5106735404944E+00  0.0000000000000E+00
 0.5216192406082E+00  0.5446446959651E+00  0.0000000000000E+00
 0.5386856144772E+00  0.5786158514357E+00  0.0000000000000E+00
 0.5557519883461E+00  0.6125870069063E+00  0.0000000000000E+00
 0.5728183622150E+00  0.6465581623769E+00  0.0000000000000E+00
 0.5898847360840E+00  0.6805293178476E+00  0.0000000000000E+00
 0.6069511099529E+00  0.7145004733182E+00  0.0000000000000E+00
 0.6240174838218E+00  0.7484716287888E+00  0.0000000000000E+00
 0.6410838576908E+00  0.7824427842594E+00  0.0000000000000E+00
 0.6581502315597E+00  0.8164139397300E+00  0.0000000000000E+00
 0.6752166054286E+00  0.8503850952007E+00  0.0000000000000E+00
 0.6922829792976E+00  0.8843562506713E+00  0.0000000000000E+00
 0.7093493531665E+00  0.9183274061419E+00  0.0000000000000E+00
 0.7264157270354E+00  0.9522985616125E+00  0.0000000000000E+00
 0.7434821009044E+00  0.9862697170832E+00  0.0000000000000E+00
 0.7605484747733E+00  0.1020240872554E+01  0.0000000000000E+00
 0.7776148486422E+00  0.1054212028024E+01  0.0000000000000E+00
 0.5091428679437E+00  0.4356052711680E+00  0.0000000000000E+00
 0.5275166039441E+00  0.4687606221902E+00  0.0000000000000E+00
 0.5458903399444E+00  0.5019159732123E+00  0.0000000000000E+00
 0.5642640759448E+00  0.5350713242345E+00  0.0000000000000E+00
 0.5826378119451E+00  0.5682266752566E+00  0.0000000000000E+00
 0.6010115479455E+00  0.6013820262787E+00  0.0000000000000E+00
 0.6193852839459E+00  0.6345373773009E+00  0.0000000000000E+00
 0.6377590199462E+00  0.6676927283230E+00  0.0000000000000E+00
 0.6561327559466E+00  0.7008480793452E+00  0.0000000000000E+00
 0.6745064919470E+00  0.7340034303673E+00  0.0000000000000E+00
 0.6928802279473E+00  0.7671587813894E+00  0.0000000000000E+00
 0.7112539639477E+00  0.8003141324116E+00  0.0000000000000E+00
 0.7296276999480E+00  0.8334694834337E+00  0.0000000000000E+00
 0.7480014359484E+00  0.8666248344558E+00  0.0000000000000E+00
 0.7663751719488E+00  0.8997801854780E+00  0.0000000000000E+00
 0.7847489079491E+00  0.9329355365001E+00  0.0000000000000E+00
 0.8031226439495E+00  0.9660908875223E+00  0.0000000000000E+00
 0.8214963799499E+00  0.9992462385444E+00  0.0000000000000E+00
 0.8398701159502E+00  0.1032401589567E+01  0.0000000000000E+00
 0.5477768854571E+00  0.4279968810059E+00  0.0000000000000E+00
 0.5674541537630E+00  0.4603381160649E+00  0.0000000000000E+00
 0.5871314220688E+00  0.4926793511240E+00  0.0000000000000E+00
 0.6068086903747E+00  0.5250205861830E+00  0.0000000000000E+00
 0.6264859586806E+00  0.5573618212420E+00  0.0000000000000E+00
 0.6461632269865E+00  0.5897030563010E+00  0.0000000000000E+00
 0.6658404952923E+00  0.6220442913601E+00  0.0000000000000E+00
 0.6855177635982E+00  0.6543855264191E+00  0.0000000000000E+00
 0.7051950319041E+00  0.6867267614781E+00  0.0000000000000E+00
 0.7248723002099E+00  0.7190679965371E+00  0.0000000000000E+00
 0.7445495685158E+00  0.7514092315961E+00  0.0000000000000E+00
 0.7642268368217E+00  0.7837504666552E+00  0.0000000000000E+00
 0.7839041051276E+00  0.8160917017142E+00  0.0000000000000E+00
 0.8035813734334E+00  0.8484329367732E+00  0.0000000000000E+00
 0.8232586417393E+00  0.8807741718322E+00  0.0000000000000E+00
 0.8429359100452E+00  0.9131154068912E+00  0.0000000000000E+00
 0.8626131783511E+00  0.9454566419503E+00  0.0000000000000E+00
 0.8822904466569E+00  0.9777978770093E+00  0.0000000000000E+00
 0.9019677149628E+00  0.1010139112068E+01  0.0000000000000E+00
 0.5863228020220E+00  0.4199269192670E+00  0.0000000000000E+00
 0.6073059539494E+00  0.4514720689682E+00  0.0000000000000E+00
 0.6282891058768E+00  0.4830172186695E+00  0.0000000000000E+00
 0.6492722578042E+00  0.5145623683708E+00  0.0000000000000E+00
 0.6702554097316E+00  0.5461075180720E+00  0.0000000000000E+00
 0.6912385616590E+00  0.5776526677733E+00  0.0000000000000E+00
 0.7122217135865E+00  0.6091978174745E+00  0.0000000000000E+00
 0.7332048655139E+00  0.6407429671758E+00  0.0000000000000E+00
 0.7541880174413E+00  0.6722881168770E+00  0.0000000000000E+00
 0.7751711693687E+00  0.7038332665783E+00  0.0000000000000E+00
 0.7961543212961E+00  0.7353784162796E+00  0.0000000000000E+00
 0.8171374732236E+00  0.7669235659808E+00  0.0000000000000E+00
 0.8381206251510E+00  0.7984687156821E+00  0.0000000000000E+00
 0.8591037770784E+00  0.8300138653833E+00  0.0000000000000E+00
 0.8800869290058E+00  0.8615590150846E+00  0.0000000000000E+00
 0.9010700809332E+00  0.8931041647858E+00  0.0000000000000E+00
 0.9220532328607E+00  0.9246493144871E+00  0.0000000000000E+00
 0.9430363847881E+00  0.9561944641884E+00  0.0000000000000E+00
 0.9640195367155E+00  0.9877396138896E+00  0.0000000000000E+00
 0.6247718534565E+00  0.4113904599593E+00  0.0000000000000E+00
 0.6470599870427E+00  0.4421478324182E+00  0.0000000000000E+00
 0.6693481206289E+00  0.4729052048771E+00  0.0000000000000E+00
 0.6916362542152E+00  0.5036625773361E+00  0.0000000000000E+00
 0.7139243878014E+00  0.5344199497950E+00  0.0000000000000E+00
 0.7362125213877E+00  0.5651773222539E+00  0.0000000000000E+00
 0.7585006549739E+00  0.5959346947128E+00  0.0000000000000E+00
 0.7807887885601E+00  0.6266920671718E+00  0.0000000000000E+00
 0.8030769221464E+00  0.6574494396307E+00  0.0000000000000E+00
 0.8253650557326E+00  0.6882068120896E+00  0.0000000000000E+00
 0.8476531893188E+00  0.7189641845486E+00  0.0000000000000E+00
 0.8699413229051E+00  0.7497215570075E+00  0.0000000000000E+00
 0.8922294564913E+00  0.7804789294664E+00  0.0000000000000E+00
 0.9145175900776E+00  0.8112363019254E+00  0.0000000000000E+00
 0.9368057236638E+00  0.8419936743843E+00  0.0000000000000E+00
 0.9590938572500E+00  0.8727510468432E+00  0.0000000000000E+00
 0.9813819908363E+00  0.9035084193021E+00  0.0000000000000E+00
 0.1003670124423E+01  0.9342657917611E+00  0.0000000000000E+00
 0.1025958258009E+01  0.9650231642200E+00  0.0000000000000E+00
 0.6631144762382E+00  0.4023799804640E+00  0.0000000000000E+00
 0.6867022090618E+00  0.4323453794102E+00  0.0000000000000E+00
 0.7102899418854E+00  0.4623107783564E+00  0.0000000000000E+00
 0.7338776747089E+00  0.4922761773027E+00  0.0000000000000E+00
 0.7574654075325E+00  0.5222415762489E+00  0.0000000000000E+00
 0.7810531403561E+00  0.5522069751951E+00  0.0000000000000E+00
 0.8046408731796E+00  0.5821723741413E+00  0.0000000000000E+00
 0.8282286060032E+00  0.6121377730876E+00  0.0000000000000E+00
 0.8518163388268E+00  0.6421031720338E+00  0.0000000000000E+00
 0.8754040716504E+00  0.6720685709800E+00  0.0000000000000E+00
 0.8989918044739E+00  0.7020339699262E+00  0.0000000000000E+00
 0.9225795372975E+00  0.7319993688725E+00  0.0000000000000E+00
 0.9461672701211E+00  0.7619647678187E+00  0.0000000000000E+00
 0.9697550029446E+00  0.7919301667649E+00  0.0000000000000E+00
 0.9933427357682E+00  0.8218955657111E+00  0.0000000000000E+00
 0.1016930468592E+01  0.8518609646574E+00  0.0000000000000E+00
 0.1040518201415E+01  0.8818263636036E+00  0.0000000000000E+00
 0.1064105934239E+01  0.9117917625498E+00  0.0000000000000E+00
 0.1087693667062E+01  0.9417571614961E+00  0.0000000000000E+00
 0.7013395437085E+00  0.3928851883836E+00  0.0000000000000E+00
 0.7262154212153E+00  0.4220388917836E+00  0.0000000000000E+00
 0.7510912987220E+00  0.4511925951835E+00  0.0000000000000E+00
 0.7759671762288E+00  0.4803462985835E+00  0.0000000000000E+00
 0.8008430537356E+00  0.5095000019835E+00  0.0000000000000E+00
 0.8257189312424E+00  0.5386537053834E+00  0.0000000000000E+00
 0.8505948087492E+00  0.5678074087834E+00  0.0000000000000E+00
 0.8754706862560E+00  0.5969611121833E+00  0.0000000000000E+00
 0.9003465637627E+00  0.6261148155833E+00  0.0000000000000E+00
 0.9252224412695E+00  0.6552685189833E+00  0.0000000000000E+00
 0.9500983187763E+00  0.6844222223832E+00  0.0000000000000E+00
 0.9749741962831E+00  0.7135759257832E+00  0.0000000000000E+00
 0.9998500737899E+00  0.7427296291831E+00  0.0000000000000E+00
 0.1024725951297E+01  0.7718833325831E+00  0.0000000000000E+00
 0.1049601828803E+01  0.8010370359831E+00  0.0000000000000E+00
 0.1074477706310E+01  0.8301907393830E+00  0.0000000000000E+00
 0.1099353583817E+01  0.8593444427830E+00  0.0000000000000E+00
 0.1124229461324E+01  0.8884981461829E+00  0.0000000000000E+00
 0.1149105338831E+01  0.9176518495829E+00  0.0000000000000E+00
 0.7394329578610E+00  0.3828904307705E+00  0.0000000000000E+00
 0.7655763768245E+00  0.4111916019715E+00  0.0000000000000E+00
 0.7917197957880E+00  0.4394927731724E+00  0.0000000000000E+00
 0.8178632147515E+00  0.4677939443734E+00  0.0000000000000E+00
 0.8440066337150E+00  0.4960951155743E+00  0.0000000000000E+00
 0.8701500526785E+00  0.5243962867753E+00  0.0000000000000E+00
 0.8962934716420E+00  0.5526974579763E+00  0.0000000000000E+00
 0.9224368906055E+00  0.5809986291772E+00  0.0000000000000E+00
 0.9485803095690E+00  0.6092998003782E+00  0.0000000000000E+00
 0.9747237285325E+00  0.6376009715791E+00  0.0000000000000E+00
 0.1000867147496E+01  0.6659021427801E+00  0.0000000000000E+00
 0.1027010566459E+01  0.6942033139810E+00  0.0000000000000E+00
 0.1053153985423E+01  0.7225044851820E+00  0.0000000000000E+00
 0.1079297404386E+01  0.7508056563830E+00  0.0000000000000E+00
 0.1105440823350E+01  0.7791068275839E+00  0.0000000000000E+00
 0.1131584242313E+01  0.8074079987849E+00  0.0000000000000E+00
 0.1157727661277E+01  0.8357091699858E+00  0.0000000000000E+00
 0.1183871080240E+01  0.8640103411868E+00  0.0000000000000E+00
 0.1210014499204E+01  0.8923115123877E+00  0.0000000000000E+00
</DataArray>
</Points>
<Cells>
<DataArray type="Int64" Name="connectivity" format="ascii">
0 11 438 243
243 438 439 244
244 439 440 245
245 440 441 246
246 441 442 247
247 442 443 248
248 443 444 249
249 444 445 250
250 445 446 251
251 446 447 252
252 447 448 253
253 448 449 254
254 449 450 255
255 450 451 256
256 451 452 257
257 452 453 258
258 453 454 259
259 454 455 260
260 455 456 261
261 456 457 262
262 457 458 263
263 458 459 264
264 459 460 265
265 460 461 266
266 461 462 267
267 462 463 268
268 463 464 269
269 464 465 270
270 465 466 271
271 466 467 272
272 467 468 273
273 468 469 274
274 469 470 275
275 470 471 276
276 471 472 277
277 472 473 278
278 473 474 279
279 474 475 280
280 475 476 281
281 476 477 282
282 477 89 3
11 12 478 438
438 478 479 439
439 479 480 440
440 480 481 441
441 481 482 442
442 482 483 443
443 483 484 444
444 484 485 445
445 485 486 446
446 486 487 447
447 487 488 448
448 488 489 449
449 489 490 450
450 490 491 451
451 491 492 452
452 492 493 453
453 493 494 454
454 494 495 455
455 495 496 456
456 496 497 457
457 497 498 458
458 498 499 459
459 499 500 460
460 500 501 461
461 501 502 462
462 502 503 463
463 503 504 464
464 504 505 465
465 505 506 466
466 506 507 467
467 507 508 468
468 508 509 469
469 509 510 470
470 510 511 471
471 511 512 472
472 512 513 473
473 513 514 474
474 514 515 475
475 515 516 476
476 516 517 477
477 517 90 89
12 13 518 478
478 518 519 479
479 519 520 480
480 520 521 481
481 521 522 482
482 522 523 483
483 523 524 484
484 524 525 485
485 525 526 486
486 526 527 487
487 527 528 488
488 528 529 489
489 529 530 490
490 530 531 491
491 531 532 492
492 532 533 493
493 533 534 494
494 534 535 495
495 535 536 496
496 536 537 497
497 537 538 498
498 538 539 499
499 539 540 500
500 540 541 501
501 541 542 502
502 542 543 503
503 543 544 504
504 544 545 505
505 545 546 506
506 546 547 507
507 547 548 508
508 548 549 509
509 549 550 510
510 550 551 511
511 551 552 512
512 552 553 513
513 553 554 514
514 554 555 515
515 555 556 516
516 556 557 517
517 557 91 90
13 14 558 518
518 558 559 519
519 559 560 520
520 560 561 521
521 561 562 522
522 562 563 523
523 563 564 524
524 564 565 525
525 565 566 526
526 566 567 527
527 567 568 528
528 568 569 529
529 569 570 530
530 570 571 531
531 571 572 532
532 572 573 533
533 573 574 534
534 574 575 535
535 575 576 536
536 576 577 537
537 577 578 538
538 578 579 539
539 579 580 540
540 580 581 541
541 581 582 542
542 582 583 543
543 583 584 544
544 584 585 545
545 585 586 546
546 586 587 547
547 587 588 548
548 588 589 549
549 589 590 550
550 590 591 551
551 591 592 552
552 592 593 553
553 593 594 554
554 594 595 555
555 595 596 556
556 596 597 557
557 597 92 91
14 15 598 558
558 598 599 559
559 599 600 560
560 600 601 561
561 601 602 562
562 602 603 563
563 603 604 564
564 604 605 565
565 605 606 566
566 606 607 567
567 607 608 568
568 608 609 569
569 609 610 570
570 610 611 571
571 611 612 572
572 612 613 573
573 613 614 574
574 614 615 575
575 615 616 576
576 616 617 577
577 617 618 578
578 618 619 579
579 619 620 580
580 620 621 581
581 621 622 582
582 622 623 583
583 623 624 584
584 624 625 585
585 625 626 586
586 626 627 587
587 627 628 588
588 628 629 589
589 629 630 590
590 630 631 591
591 631 632 592
592 632 633 593
593 633 634 594
594 634 635 595
595 635 636 596
596 636 637 597
597 637 93 92
15 16 638 598
598 638 639 599
599 639 640 600
600 640 641 601
601 641 642 602
602 642 643 603
603 643 644 604
604 644 645 605
605 645 646 606
606 646 647 607
607 647 648 608
608 648 649 609
609 649 650 610
610 650 651 611
611 651 652 612
612 652 653 613
613 653 654 614
614 654 655 615
615 655 656 616
616 656 657 617
617 657 658 618
618 658 659 619
619 659 660 620
620 660 661 621
621 661 662 622
622 662 663 623
623 663 664 624
624 664 665 625
625 665 666 626
626 666 667 627
627 667 668 628
628 668 669 629
629 669 670 630
630 670 671 631
631 671 672 632
632 672 673 633
633 673 674 634
634 674 675 635
635 675 676 636
636 676 677 637
637 677 94 93
16 17 678 638
638 678 679 639
639 679 680 640
640 680 681 641
641 681 682 642
642 682 683 643
643 683 684 644
644 684 685 645
645 685 686 646
646 686 687 647
647 687 688 648
648 688 689 649
649 689 690 650
650 690 691 651
651 691 692 652
652 692 693 653
653 693 694 654
654 694 695 655
655 695 696 656
656 696 697 657
657 697 698 658
658 698 699 659
659 699 700 660
660 700 701 661
661 701 702 662
662 702 703 663
663 703 704 664
664 704 705 665
665 705 706 666
666 706 707 667
667 707 708 668
668 708 709 669
669 709 710 670
670 710 711 671
671 711 712 672
672 712 713 673
673 713 714 674
674 714 715 675
675 715 716 676
676 716 717 677
677 717 95 94
17 18 718 678
678 718 719 679
679 719 720 680
680 720 721 681
681 721 722 682
682 722 723 683
683 723 724 684
684 724 725 685
685 725 726 686
686 726 727 687
687 727 728 688
688 728 729 689
689 729 730 690
690 730 731 691
691 731 732 692
692 732 733 693
693 733 734 694
694 734 735 695
695 735 736 696
696 736 737 697
697 737 738 698
698 738 739 699
699 739 740 700
700 740 741 701
701 741 742 702
702 742 743 703
703 743 744 704
704 744 745 705
705 745 746 706
706 746 747 707
707 747 748 708
708 748 749 709
709 749 750 710
710 750 751 711
711 751 752 712
712 752 753 713
713 753 754 714
714 754 755 715
715 755 756 716
716 756 757 717
717 757 96 95
18 19 758 718
718 758 759 719
719 759 760 720
720 760 761 721
721 761 762 722
722 762 763 723
723 763 764 724
724 764 765 725
725 765 766 726
726 766 767 727
727 767 768 728
728 768 769 729
729 769 770 730
730 770 771 731
731 771 772 732
732 772 773 733
733 773 774 734
734 774 775 735
735 775 776 736
736 776 777 737
737 777 778 738
738 778 779 739
739 779 780 740
740 780 781 741
741 781 782 742
742 782 783 743
743 783 784 744
744 784 785 745
745 785 786 746
746 786 787 747
747 787 788 748
748 788 789 749
749 789 790 750
750 790 791 751
751 791 792 752
752 792 793 753
753 793 794 754
754 794 795 755
755 795 796 756
756 796 797 757
757 797 97 96
19 20 798 758
758 798 799 759
759 799 800 760
760 800 801 761
761 801 802 762
762 802 803 763
763 803 804 764
764 804 805 765
765 805 806 766
766 806 807 767
767 807 808 768
768 808 809 769
769 809 810 770
770 810 811 771
771 811 812 772
772 812 813 773
773 813 814 774
774 814 815 775
775 815 816 776
776 816 817 777
777 817 818 778
778 818 819 779
779 819 820 780
780 820 821 781
781 821 822 782
782 822 823 783
783 823 824 784
784 824 825 785
785 825 826 786
786 826 827 787
787 827 828 788
788 828 829 789
789 829 830 790
790 830 831 791
791 831 832 792
792 832 833 793
793 833 834 794
794 834 835 795
795 835 836 796
796 836 837 797
797 837 98 97
20 21 838 798
798 838 839 799
799 839 840 800
800 840 841 801
801 841 842 802
802 842 843 803
803 843 844 804
804 844 845 805
805 845 846 806
806 846 847 807
807 847 848 808
808 848 849 809
809 849 850 810
810 850 851 811
811 851 852 812
812 852 853 813
813 853 854 814
814 854 855 815
815 855 856 816
816 856 857 817
817 857 858 818
818 858 859 819
819 859 860 820
820 860 861 821
821 861 862 822
822 862 863 823
823 863 864 824
824 864 865 825
825 865 866 826
826 866 867 827
827 867 868 828
828 868 869 829
829 869 870 830
830 870 871 831
831 871 872 832
832 872 873 833
833 873 874 834
834 874 875 835
835 875 876 836
836 876 877 837
837 877 99 98
21 22 878 838
838 878 879 839
839 879 880 840
840 880 881 841
841 881 882 842
842 882 883 843
843 883 884 844
844 884 885 845
845 885 886 846
846 886 887 847
847 887 888 848
848 888 889 849
849 889 890 850
850 890 891 851
851 891 892 852
852 892 893 853
853 893 894 854
854 894 895 855
855 895 896 856
856 896 897 857
857 897 898 858
858 898 899 859
859 899 900 860
860 900 901 861
861 901 902 862
862 902 903 863
863 903 904 864
864 904 905 865
865 905 906 866
866 906 907 867
867 907 908 868
868 908 909 869
869 909 910 870
870 910 911 871
871 911 912 872
872 912 913 873
873 913 914 874
874 914 915 875
875 915 916 876
876 916 917 877
877 917 100 99
22 23 918 878
878 918 919 879
879 919 920 880
880 920 921 881
881 921 922 882
882 922 923 883
883 923 924 884
884 924 925 885
885 925 926 886
886 926 927 887
887 927 928 888
888 928 929 889
889 929 930 890
890 930 931 891
891 931 932 892
892 932 933 893
893 933 934 894
894 934 935 895
895 935 936 896
896 936 937 897
897 937 938 898
898 938 939 899
899 939 940 900
900 940 941 901
901 941 942 902
902 942 943 903
903 943 944 904
904 944 945 905
905 945 946 906
906 946 947 907
907 947 948 908
908 948 949 909
909 949 950 910
910 950 951 911
911 951 952 912
912 952 953 913
913 953 954 914
914 954 955 915
915 955 956 916
916 956 957 917
917 957 101 100
23 24 958 918
918 958 959 919
919 959 960 920
920 960 961 921
921 961 962 922
922 962 963 923
923 963 964 924
924 964 965 925
925 965 966 926
926 966 967 927
927 967 968 928
928 968 969 929
929 969 970 930
930 970 971 931
931 971 972 932
932 972 973 933
933 973 974 934
934 974 975 935
935 975 976 936
936 976 977 937
937 977 978 938
938 978 979 939
939 979 980 940
940 980 981 941
941 981 982 942
942 982 983 943
943 983 984 944
944 984 985 945
945 985 986 946
946 986 987 947
947 987 988 948
948 988 989 949
949 989 990 950
950 990 991 951
951 991 992 952
952 992 993 953
953 993 994 954
954 994 995 955
955 995 996 956
956 996 997 957
957 997 102 101
24 25 998 958
958 998 999 959
959 999 1000 960
960 1000 1001 961
961 1001 1002 962
962 1002 1003 963
963 1003 1004 964
964 1004 1005 965
965 1005 1006 966
966 1006 1007 967
967 1007 1008 968
968 1008 1009 969
969 1009 1010 970
970 1010 1011 971
971 1011 1012 972
972 1012 1013 973
973 1013 1014 974
974 1014 1015 975
975 1015 1016 976
976 1016 1017 977
977 1017 1018 978
978 1018 1019 979
979 1019 1020 980
980 1020 1021 981
981 1021 1022 982
982 1022 1023 983
983 1023 1024 984
984 1024 1025 985
985 1025 1026 986
986 1026 1027 987
987 1027 1028 988
988 1028 1029 989
989 1029 1030 990
990 1030 1031 991
991 1031 1032 992
992 1032 1033 993
993 1033 1034 994
994 1034 1035 995
995 1035 1036 996
996 1036 1037 997
997 1037 103 102
25 26 1038 998
998 1038 1039 999
999 1039 1040 1000
1000 1040 1041 1001
1001 1041 1042 1002
1002 1042 1043 1003
1003 1043 1044 1004
1004 1044 1045 1005
1005 1045 1046 1006
1006 1046 1047 1007
1007 1047 1048 1008
1008 1048 1049 1009
1009 1049 1050 1010
1010 1050 1051 1011
1011 1051 1052 1012
1012 1052 1053 1013
1013 1053 1054 1014
1014 1054 1055 1015
1015 1055 1056 1016
1016 1056 1057 1017
1017 1057 1058 1018
1018 1058 1059 1019
1019 1059 1060 1020
1020 1060 1061 1021
1021 1061 1062 1022
1022 1062 1063 1023
1023 1063 1064 1024
1024 1064 1065 1025
1025 1065 1066 1026
1026 1066 1067 1027
1027 1067 1068 1028
1028 1068 1069 1029
1029 1069 1070 1030
1030 1070 1071 1031
1031 1071 1072 1032
1032 1072 1073 1033
1033 1073 1074 1034
1034 1074 1075 1035
1035 1075 1076 1036
1036 1076 1077 1037
1037 1077 104 103
26 27 1078 1038
1038 1078 1079 1039
1039 1079 1080 1040
1040 1080 1081 1041
1041 1081 1082 1042
1042 1082 1083 1043
1043 1083 1084 1044
1044 1084 1085 1045
1045 1085 1086 1046
1046 1086 1087 1047
1047 1087 1088 1048
1048 1088 1089 1049
1049 1089 1090 1050
1050 1090 1091 1051
1051 1091 1092 1052
1052 1092 1093 1053
1053 1093 1094 1054
1054 1094 1095 1055
1055 1095 1096 1056
1056 1096 1097 1057
1057 1097 1098 1058
1058 1098 1099 1059
1059 1099 1100 1060
1060 1100 1101 1061
1061 1101 1102 1062
1062 1102 1103 1063
1063 1103 1104 1064
1064 1104 1105 1065
1065 1105 1106 1066
1066 1106 1107 1067
1067 1107 1108 1068
1068 1108 1109 1069
1069 1109 1110 1070
1070 1110 1111 1071
1071 1111 1112 1072
1072 1112 1113 1073
1073 1113 1114 1074
1074 1114 1115 1075
1075 1115 1116 1076
1076 1116 1117 1077
1077 1117 105 104
27 28 1118 1078
1078 1118 1119 1079
1079 1119 1120 1080
1080 1120 1121 1081
1081 1121 1122 1082
1082 1122 1123 1083
1083 1123 1124 1084
1084 1124 1125 1085
1085 1125 1126 1086
1086 1126 1127 1087
1087 1127 1128 1088
1088 1128 1129 1089
1089 1129 1130 1090
1090 1130 1131 1091
1091 1131 1132 1092
1092 1132 1133 1093
1093 1133 1134 1094
1094 1134 1135 1095
1095 1135 1136 1096
1096 1136 1137 1097
1097 1137 1138 1098
1098 1138 1139 1099
1099 1139 1140 1100
1100 1140 1141 1101
1101 1141 1142 1102
1102 1142 1143 1103
1103 1143 1144 1104
1104 1144 1145 1105
1105 1145 1146 1106
1106 1146 1147 1107
1107 1147 1148 1108
1108 1148 1149 1109
1109 1149 1150 1110
1110 1150 1151 1111
1111 1151 1152 1112
1112 1152 1153 1113
1113 1153 1154 1114
1114 1154 1155 1115
1115 1155 1156 1116
1116 1156 1157 1117
1117 1157 106 105
28 29 1158 1118
1118 1158 1159 1119
1119 1159 1160 1120
1120 1160 1161 1121
1121 1161 1162 1122
1122 1162 1163 1123
1123 1163 1164 1124
1124 1164 1165 1125
1125 1165 1166 1126
1126 1166 1167 1127
1127 1167 1168 1128
1128 1168 1169 1129
1129 1169 1170 1130
1130 1170 1171 1131
1131 1171 1172 1132
1132 1172 1173 1133
1133 1173 1174 1134
1134 1174 1175 1135
1135 1175 1176 1136
1136 1176 1177 1137
1137 1177 1178 1138
1138 1178 1179 1139
1139 1179 1180 1140
1140 1180 1181 1141
1141 1181 1182 1142
1142 1182 1183 1143
1143 1183 1184 1144
1144 1184 1185 1145
1145 1185 1186 1146
1146 1186 1187 1147
1147 1187 1188 1148
1148 1188 1189 1149
1149 1189 1190 1150
1150 1190 1191 1151
1151 1191 1192 1152
1152 1192 1193 1153
1153 1193 1194 1154
1154 1194 1195 1155
1155 1195 1196 1156
1156 1196 1197 1157
1157 1197 107 106
29 30 1198 1158
1158 1198 1199 1159
1159 1199 1200 1160
1160 1200 1201 1161
1161 1201 1202 1162
1162 1202 1203 1163
1163 1203 1204 1164
1164 1204 1205 1165
1165 1205 1206 1166
1166 1206 1207 1167
1167 1207 1208 1168
1168 1208 1209 1169
1169 1209 1210 1170
1170 1210 1211 1171
1171 1211 1212 1172
1172 1212 1213 1173
1173 1213 1214 1174
1174 1214 1215 1175
1175 1215 1216 1176
1176 1216 1217 1177
1177 1217 1218 1178
1178 1218 1219 1179
1179 1219 1220 1180
1180 1220 1221 1181
1181 1221 1222 1182
1182 1222 1223 1183
1183 1223 1224 1184
1184 1224 1225 1185
1185 1225 1226 1186
1186 1226 1227 1187
1187 1227 1228 1188
1188 1228 1229 1189
1189 1229 1230 1190
1190 1230 1231 1191
1191 1231 1232 1192
1192 1232 1233 1193
1193 1233 1234 1194
1194 1234 1235 1195
1195 1235 1236 1196
1196 1236 1237 1197
1197 1237 4 107
30 31 1238 1198
1198 1238 1239 1199
1199 1239 1240 1200
1200 1240 1241 1201
1201 1241 1242 1202
1202 1242 1243 1203
1203 1243 1244 1204
1204 1244 1245 1205
1205 1245 1246 1206
1206 1246 1247 1207
1207 1247 1248 1208
1208 1248 1249 1209
1209 1249 1250 1210
1210 1250 1251 1211
1211 1251 1252 1212
1212 1252 1253 1213
1213 1253 1254 1214
1214 1254 1255 1215
1215 1255 1256 1216
1216 1256 1257 1217
1217 1257 1258 1218
1218 1258 1259 1219
1219 1259 1260 1220
1220 1260 1261 1221
1221 1261 1262 1222
1222 1262 1263 1223
1223 1263 1264 1224
1224 1264 1265 1225
1225 1265 1266 1226
1226 1266 1267 1227
1227 1267 1268 1228
1228 1268 1269 1229
1229 1269 1270 1230
1230 1270 1271 1231
1231 1271 1272 1232
1232 1272 1273 1233
1233 1273 1274 1234
1234 1274 1275 1235
1235 1275 1276 1236
1236 1276 1277 1237
1237 1277 108 4
31 32 1278 1238
1238 1278 1279 1239
1239 1279 1280 1240
1240 1280 1281 1241
1241 1281 1282 1242
1242 1282 1283 1243
1243 1283 1284 1244
1244 1284 1285 1245
1245 1285 1286 1246
1246 1286 1287 1247
1247 1287 1288 1248
1248 1288 1289 1249
1249 1289 1290 1250
1250 1290 1291 1251
1251 1291 1292 1252
1252 1292 1293 1253
1253 1293 1294 1254
1254 1294 1295 1255
1255 1295 1296 1256
1256 1296 1297 1257
1257 1297 1298 1258
1258 1298 1299 1259
1259 1299 1300 1260
1260 1300 1301 1261
1261 1301 1302 1262
1262 1302 1303 1263
1263 1303 1304 1264
1264 1304 1305 1265
1265 1305 1306 1266
1266 1306 1307 1267
1267 1307 1308 1268
1268 1308 1309 1269
1269 1309 1310 1270
1270 1310 1311 1271
1271 1311 1312 1272
1272 1312 1313 1273
1273 1313 1314 1274
1274 1314 1315 1275
1275 1315 1316 1276
1276 1316 1317 1277
1277 1317 109 108
32 33 1318 1278
1278 1318 1319 1279
1279 1319 1320 1280
1280 1320 1321 1281
1281 1321 1322 1282
1282 1322 1323 1283
1283 1323 1324 1284
1284 1324 1325 1285
1285 1325 1326 1286
1286 1326 1327 1287
1287 1327 1328 1288
1288 1328 1329 1289
1289 1329 1330 1290
1290 1330 1331 1291
1291 1331 1332 1292
1292 1332 1333 1293
1293 1333 1334 1294
1294 1334 1335 1295
1295 1335 1336 1296
1296 1336 1337 1297
1297 1337 1338 1298
1298 1338 1339 1299
1299 1339 1340 1300
1300 1340 1341 1301
1301 1341 1342 1302
1302 1342 1343 1303
1303 1343 1344 1304
1304 1344 1345 1305
1305 1345 1346 1306
1306 1346 1347 1307
1307 1347 1348 1308
1308 1348 1349 1309
1309 1349 1350 1310
1310 1350 1351 1311
1311 1351 1352 1312
1312 1352 1353 1313
1313 1353 1354 1314
1314 1354 1355 1315
1315 1355 1356 1316
1316 1356 1357 1317
1317 1357 110 109
33 34 1358 1318
1318 1358 1359 1319
1319 1359 1360 1320
1320 1360 1361 1321
1321 1361 1362 1322
1322 1362 1363 1323
1323 1363 1364 1324
1324 1364 1365 1325
1325 1365 1366 1326
1326 1366 1367 1327
1327 1367 1368 1328
1328 1368 1369 1329
1329 1369 1370 1330
1330 1370 1371 1331
1331 1371 1372 1332
1332 1372 1373 1333
1333 1373 1374 1334
1334 1374 1375 1335
1335 1375 1376 1336
1336 1376 1377 1337
1337 1377 1378 1338
1338 1378 1379 1339
1339 1379 1380 1340
1340 1380 1381 1341
1341 1381 1382 1342
1342 1382 1383 1343
1343 1383 1384 1344
1344 1384 1385 1345
1345 1385 1386 1346
1346 1386 1387 1347
1347 1387 1388 1348
1348 1388 1389 1349
1349 1389 1390 1350
1350 1390 1391 1351
1351 1391 1392 1352
1352 1392 1393 1353
1353 1393 1394 1354
1354 1394 1395 1355
1355 1395 1396 1356
1356 1396 1397 1357
1357 1397 111 110
34 35 1398 1358
1358 1398 1399 1359
1359 1399 1400 1360
1360 1400 1401 1361
1361 1401 1402 1362
1362 1402 1403 1363
1363 1403 1404 1364
1364 1404 1405 1365
1365 1405 1406 1366
1366 1406 1407 1367
1367 1407 1408 1368
1368 1408 1409 1369
1369 1409 1410 1370
1370 1410 1411 1371
1371 1411 1412 1372
1372 1412 1413 1373
1373 1413 1414 1374
1374 1414 1415 1375
1375 1415 1416 1376
1376 1416 1417 1377
1377 1417 1418 1378
1378 1418 1419 1379
1379 1419 1420 1380
1380 1420 1421 1381
1381 1421 1422 1382
1382 1422 1423 1383
1383 1423 1424 1384
1384 1424 1425 1385
1385 1425 1426 1386
1386 1426 1427 1387
1387 1427 1428 1388
1388 1428 1429 1389
1389 1429 1430 1390
1390 1430 1431 1391
1391 1431 1432 1392
1392 1432 1433 1393
1393 1433 1434 1394
1394 1434 1435 1395
1395 1435 1436 1396
1396 1436 1437 1397
1397 1437 112 111
35 36 1438 1398
1398 1438 1439 1399
1399 1439 1440 1400
1400 1440 1441 1401
1401 1441 1442 1402
1402 1442 1443 1403
1403 1443 1444 1404
1404 1444 1445 1405
1405 1445 1446 1406
1406 1446 1447 1407
1407 1447 1448 1408
1408 1448 1449 1409
1409 1449 1450 1410
1410 1450 1451 1411
1411 1451 1452 1412
1412 1452 1453 1413
1413 1453 1454 1414
1414 1454 1455 1415
1415 1455 1456 1416
1416 1456 1457 1417
1417 1457 1458 1418
1418 1458 1459 1419
1419 1459 1460 1420
1420 1460 1461 1421
1421 1461 1462 1422
1422 1462 1463 1423
1423 1463 1464 1424
1424 1464 1465 1425
1425 1465 1466 1426
1426 1466 1467 1427
1427 1467 1468 1428
1428 1468 1469 1429
1429 1469 1470 1430
1430 1470 1471 1431
1431 1471 1472 1432
1432 1472 1473 1433
1433 1473 1474 1434
1434 1474 1475 1435
1435 1475 1476 1436
1436 1476 1477 1437
1437 1477 113 112
36 37 1478 1438
1438 1478 1479 1439
1439 1479 1480 1440
1440 1480 1481 1441
1441 1481 1482 1442
1442 1482 1483 1443
1443 1483 1484 1444
1444 1484 1485 1445
1445 1485 1486 1446
1446 1486 1487 1447
1447 1487 1488 1448
1448 1488 1489 1449
1449 1489 1490 1450
1450 1490 1491 1451
1451 1491 1492 1452
1452 1492 1493 1453
1453 1493 1494 1454
1454 1494 1495 1455
1455 1495 1496 1456
1456 1496 1497 1457
1457 1497 1498 1458
1458 1498 1499 1459
1459 1499 1500 1460
1460 1500 1501 1461
1461 1501 1502 1462
1462 1502 1503 1463
1463 1503 1504 1464
1464 1504 1505 1465
1465 1505 1506 1466
1466 1506 1507 1467
1467 1507 1508 1468
1468 1508 1509 1469
1469 1509 1510 1470
1470 1510 1511 1471
1471 1511 1512 1472
1472 1512 1513 1473
1473 1513 1514 1474
1474 1514 1515 1475
1475 1515 1516 1476
1476 1516 1517 1477
1477 1517 114 113
37 38 1518 1478
1478 1518 1519 1479
1479 1519 1520 1480
1480 1520 1521 1481
1481 1521 1522 1482
1482 1522 1523 1483
1483 1523 1524 1484
1484 1524 1525 1485
1485 1525 1526 1486
1486 1526 1527 1487
1487 1527 1528 1488
1488 1528 1529 1489
1489 1529 1530 1490
1490 1530 1531 1491
1491 1531 1532 1492
1492 1532 1533 1493
1493 1533 1534 1494
1494 1534 1535 1495
1495 1535 1536 1496
1496 1536 1537 1497
1497 1537 1538 1498
1498 1538 1539 1499
1499 1539 1540 1500
1500 1540 1541 1501
1501 1541 1542 1502
1502 1542 1543 1503
1503 1543 1544 1504
1504 1544 1545 1505
1505 1545 1546 1506
1506 1546 1547 1507
1507 1547 1548 1508
1508 1548 1549 1509
1509 1549 1550 1510
1510 1550 1551 1511
1511 1551 1552 1512
1512 1552 1553 1513
1513 1553 1554 1514
1514 1554 1555 1515
1515 1555 1556 1516
1516 1556 1557 1517
1517 1557 115 114
38 39 1558 1518
1518 1558 1559 1519
1519 1559 1560 1520
1520 1560 1561 1521
1521 1561 1562 1522
1522 1562 1563 1523
1523 1563 1564 1524
1524 1564 1565 1525
1525 1565 1566 1526
1526 1566 1567 1527
1527 1567 1568 1528
1528 1568 1569 1529
1529 1569 1570 1530
1530 1570 1571 1531
1531 1571 1572 1532
1532 1572 1573 1533
1533 1573 1574 1534
1534 1574 1575 1535
1535 1575 1576 1536
1536 1576 1577 1537
1537 1577 1578 1538
1538 1578 1579 1539
1539 1579 1580 1540
1540 1580 1581 1541
1541 1581 1582 1542
1542 1582 1583 1543
1543 1583 1584 1544
1544 1584 1585 1545
1545 1585 1586 1546
1546 1586 1587 1547
1547 1587 1588 1548
1548 1588 1589 1549
1549 1589 1590 1550
1550 1590 1591 1551
1551 1591 1592 1552
1552 1592 1593 1553
1553 1593 1594 1554
1554 1594 1595 1555
1555 1595 1596 1556
1556 1596 1597 1557
1557 1597 116 115
39 40 1598 1558
1558 1598 1599 1559
1559 1599 1600 1560
1560 1600 1601 1561
1561 1601 1602 1562
1562 1602 1603 1563
1563 1603 1604 1564
1564 1604 1605 1565
1565 1605 1606 1566
1566 1606 1607 1567
1567 1607 1608 1568
1568 1608 1609 1569
1569 1609 1610 1570
1570 1610 1611 1571
1571 1611 1612 1572
1572 1612 1613 1573
1573 1613 1614 1574
1574 1614 1615 1575
1575 1615 1616 1576
1576 1616 1617 1577
1577 1617 1618 1578
1578 1618 1619 1579
1579 1619 1620 1580
1580 1620 1621 1581
1581 1621 1622 1582
1582 1622 1623 1583
1583 1623 1624 1584
1584 1624 1625 1585
1585 1625 1626 1586
1586 1626 1627 1587
1587 1627 1628 1588
1588 1628 1629 1589
1589 1629 1630 1590
1590 1630 1631 1591
1591 1631 1632 1592
1592 1632 1633 1593
1593 1633 1634 1594
1594 1634 1635 1595
1595 1635 1636 1596
1596 1636 1637 1597
1597 1637 117 116
40 41 1638 1598
1598 1638 1639 1599
1599 1639 1640 1600
1600 1640 1641 1601
1601 1641 1642 1602
1602 1642 1643 1603
1603 1643 1644 1604
1604 1644 1645 1605
1605 1645 1646 1606
1606 1646 1647 1607
1607 1647 1648 1608
1608 1648 1649 1609
1609 1649 1650 1610
1610 1650 1651 1611
1611 1651 1652 1612
1612 1652 1653 1613
1613 1653 1654 1614
1614 1654 1655 1615
1615 1655 1656 1616
1616 1656 1657 1617
1617 1657 1658 1618
1618 1658 1659 1619
1619 1659 1660 1620
1620 1660 1661 1621
1621 1661 1662 1622
1622 1662 1663 1623
1623 1663 1664 1624
1624 1664 1665 1625
1625 1665 1666 1626
1626 1666 1667 1627
1627 1667 1668 1628
1628 1668 1669 1629
1629 1669 1670 1630
1630 1670 1671 1631
1631 1671 1672 1632
1632 1672 1673 1633
1633 1673 1674 1634
1634 1674 1675 1635
1635 1675 1676 1636
1636 1676 1677 1637
1637 1677 118 117
41 42 1678 1638
1638 1678 1679 1639
1639 1679 1680 1640
1640 1680 1681 1641
1641 1681 1682 1642
1642 1682 1683 1643
1643 1683 1684 1644
1644 1684 1685 1645
1645 1685 1686 1646
1646 1686 1687 1647
1647 1687 1688 1648
1648 1688 1689 1649
1649 1689 1690 1650
1650 1690 1691 1651
1651 1691 1692 1652
1652 1692 1693 1653
1653 1693 1694 1654
1654 1694 1695 1655
1655 1695 1696 1656
1656 1696 1697 1657
1657 1697 1698 1658
1658 1698 1699 1659
1659 1699 1700 1660
1660 1700 1701 1661
1661 1701 1702 1662
1662 1702 1703 1663
1663 1703 1704 1664
1664 1704 1705 1665
1665 1705 1706 1666
1666 1706 1707 1667
1667 1707 1708 1668
1668 1708 1709 1669
1669 1709 1710 1670
1670 1710 1711 1671
1671 1711 1712 1672
1672 1712 1713 1673
1673 1713 1714 1674
1674 1714 1715 1675
1675 1715 1716 1676
1676 1716 1717 1677
1677 1717 119 118
42 43 1718 1678
1678 1718 1719 1679
1679 1719 1720 1680
1680 1720 1721 1681
1681 1721 1722 1682
1682 1722 1723 1683
1683 1723 1724 1684
1684 1724 1725 1685
1685 1725 1726 1686
1686 1726 1727 1687
1687 1727 1728 1688
1688 1728 1729 1689
1689 1729 1730 1690
1690 1730 1731 1691
1691 1731 1732 1692
1692 1732 1733 1693
1693 1733 1734 1694
1694 1734 1735 1695
1695 1735 1736 1696
1696 1736 1737 1697
1697 1737 1738 1698
1698 1738 1739 1699
1699 1739 1740 1700
1700 1740 1741 1701
1701 1741 1742 1702
1702 1742 1743 1703
1703 1743 1744 1704
1704 1744 1745 1705
1705 1745 1746 1706
1706 1746 1747 1707
1707 1747 1748 1708
1708 1748 1749 1709
1709 1749 1750 1710
1710 1750 1751 1711
1711 1751 1752 1712
1712 1752 1753 1713
1713 1753 1754 1714
1714 1754 1755 1715
1715 1755 1756 1716
1716 1756 1757 1717
1717 1757 120 119
43 44 1758 1718
1718 1758 1759 1719
1719 1759 1760 1720
1720 1760 1761 1721
1721 1761 1762 1722
1722 1762 1763 1723
1723 1763 1764 1724
1724 1764 1765 1725
1725 1765 1766 1726
1726 1766 1767 1727
1727 1767 1768 1728
1728 1768 1769 1729
1729 1769 1770 1730
1730 1770 1771 1731
1731 1771 1772 1732
1732 1772 1773 1733
1733 1773 1774 1734
1734 1774 1775 1735
1735 1775 1776 1736
1736 1776 1777 1737
1737 1777 1778 1738
1738 1778 1779 1739
1739 1779 1780 1740
1740 1780 1781 1741
1741 1781 1782 1742
1742 1782 1783 1743
1743 1783 1784 1744
1744 1784 1785 1745
1745 1785 1786 1746
1746 1786 1787 1747
1747 1787 1788 1748
1748 1788 1789 1749
1749 1789 1790 1750
1750 1790 1791 1751
1751 1791 1792 1752
1752 1792 1793 1753
1753 1793 1794 1754
1754 1794 1795 1755
1755 1795 1796 1756
1756 1796 1797 1757
1757 1797 121 120
44 45 1798 1758
1758 1798 1799 1759
1759 1799 1800 1760
1760 1800 1801 1761
1761 1801 1802 1762
1762 1802 1803 1763
1763 1803 1804 1764
1764 1804 1805 1765
1765 1805 1806 1766
1766 1806 1807 1767
1767 1807 1808 1768
1768 1808 1809 1769
1769 1809 1810 1770
1770 1810 1811 1771
1771 1811 1812 1772
1772 1812 1813 1773
1773 1813 1814 1774
1774 1814 1815 1775
1775 1815 1816 1776
1776 1816 1817 1777
1777 1817 1818 1778
1778 1818 1819 1779
1779 1819 1820 1780
1780 1820 1821 1781
1781 1821 1822 1782
1782 1822 1823 1783
1783 1823 1824 1784
1784 1824 1825 1785
1785 1825 1826 1786
1786 1826 1827 1787
1787 1827 1828 1788
1788 1828 1829 1789
1789 1829 1830 1790
1790 1830 1831 1791
1791 1831 1832 1792
1792 1832 1833 1793
1793 1833 1834 1794
1794 1834 1835 1795
1795 1835 1836 1796
1796 1836 1837 1797
1797 1837 122 121
45 46 1838 1798
1798 1838 1839 1799
1799 1839 1840 1800
1800 1840 1841 1801
1801 1841 1842 1802
1802 1842 1843 1803
1803 1843 1844 1804
1804 1844 1845 1805
1805 1845 1846 1806
1806 1846 1847 1807
1807 1847 1848 1808
1808 1848 1849 1809
1809 1849 1850 1810
1810 1850 1851 1811
1811 1851 1852 1812
1812 1852 1853 1813
1813 1853 1854 1814
1814 1854 1855 1815
1815 1855 1856 1816
1816 1856 1857 1817
1817 1857 1858 1818
1818 1858 1859 1819
1819 1859 1860 1820
1820 1860 1861 1821
1821 1861 1862 1822
1822 1862 1863 1823
1823 1863 1864 1824
1824 1864 1865 1825
1825 1865 1866 1826
1826 1866 1867 1827
1827 1867 1868 1828
1828 1868 1869 1829
1829 1869 1870 1830
1830 1870 1871 1831
1831 1871 1872 1832
1832 1872 1873 1833
1833 1873 1874 1834
1834 1874 1875 1835
1835 1875 1876 1836
1836 1876 1877 1837
1837 1877 123 122
46 47 1878 1838
1838 1878 1879 1839
1839 1879 1880 1840
1840 1880 1881 1841
1841 1881 1882 1842
1842 1882 1883 1843
1843 1883 1884 1844
1844 1884 1885 1845
1845 1885 1886 1846
1846 1886 1887 1847
1847 1887 1888 1848
1848 1888 1889 1849
1849 1889 1890 1850
1850 1890 1891 1851
1851 1891 1892 1852
1852 1892 1893 1853
1853 1893 1894 1854
1854 1894 1895 1855
1855 1895 1896 1856
1856 1896 1897 1857
1857 1897 1898 1858
1858 1898 1899 1859
1859 1899 1900 1860
1860 1900 1901 1861
1861 1901 1902 1862
1862 1902 1903 1863
1863 1903 1904 1864
1864 1904 1905 1865
1865 1905 1906 1866
1866 1906 1907 1867
1867 1907 1908 1868
1868 1908 1909 1869
1869 1909 1910 1870
1870 1910 1911 1871
1871 1911 1912 1872
1872 1912 1913 1873
1873 1913 1914 1874
1874 1914 1915 1875
1875 1915 1916 1876
1876 1916 1917 1877
1877 1917 124 123
47 48 1918 1878
1878 1918 1919 1879
1879 1919 1920 1880
1880 1920 1921 1881
1881 1921 1922 1882
1882 1922 1923 1883
1883 1923 1924 1884
1884 1924 1925 1885
1885 1925 1926 1886
1886 1926 1927 1887
1887 1927 1928 1888
1888 1928 1929 1889
1889 1929 1930 1890
1890 1930 1931 1891
1891 1931 1932 1892
1892 1932 1933 1893
1893 1933 1934 1894
1894 1934 1935 1895
1895 1935 1936 1896
1896 1936 1937 1897
1897 1937 1938 1898
1898 1938 1939 1899
1899 1939 1940 1900
1900 1940 1941 1901
1901 1941 1942 1902
1902 1942 1943 1903
1903 1943 1944 1904
1904 1944 1945 1905
1905 1945 1946 1906
1906 1946 1947 1907
1907 1947 1948 1908
1908 1948 1949 1909
1909 1949 1950 1910
1910 1950 1951 1911
1911 1951 1952 1912
1912 1952 1953 1913
1913 1953 1954 1914
1914 1954 1955 1915
1915 1955 1956 1916
1916 1956 1957 1917
1917 1957 125 124
48 49 1958 1918
1918 1958 1959 1919
1919 1959 1960 1920
1920 1960 1961 1921
1921 1961 1962 1922
1922 1962 1963 1923
1923 1963 1964 1924
1924 1964 1965 1925
1925 1965 1966 1926
1926 1966 1967 1927
1927 1967 1968 1928
1928 1968 1969 1929
1929 1969 1970 1930
1930 1970 1971 1931
1931 1971 1972 1932
1932 1972 1973 1933
1933 1973 1974 1934
1934 1974 1975 1935
1935 1975 1976 1936
1936 1976 1977 1937
1937 1977 1978 1938
1938 1978 1979 1939
1939 1979 1980 1940
1940 1980 1981 1941
1941 1981 1982 1942
1942 1982 1983 1943
1943 1983 1984 1944
1944 1984 1985 1945
1945 1985 1986 1946
1946 1986 1987 1947
1947 1987 1988 1948
1948 1988 1989 1949
1949 1989 1990 1950
1950 1990 1991 1951
1951 1991 1992 1952
1952 1992 1993 1953
1953 1993 1994 1954
1954 1994 1995 1955
1955 1995 1996 1956
1956 1996 1997 1957
1957 1997 126 125
49 1 1998 1958
1958 1998 1999 1959
1959 1999 2000 1960
1960 2000 2001 1961
1961 2001 2002 1962
1962 2002 2003 1963
1963 2003 2004 1964
1964 2004 2005 1965
1965 2005 2006 1966
1966 2006 2007 1967
1967 2007 2008 1968
1968 2008 2009 1969
1969 2009 2010 1970
1970 2010 2011 1971
1971 2011 2012 1972
1972 2012 2013 1973
1973 2013 2014 1974
1974 2014 2015 1975
1975 2015 2016 1976
1976 2016 2017 1977
1977 2017 2018 1978
1978 2018 2019 1979
1979 2019 2020 1980
1980 2020 2021 1981
1981 2021 2022 1982
1982 2022 2023 1983
1983 2023 2024 1984
1984 2024 2025 1985
1985 2025 2026 1986
1986 2026 2027 1987
1987 2027 2028 1988
1988 2028 2029 1989
1989 2029 2030 1990
1990 2030 2031 1991
1991 2031 2032 1992
1992 2032 2033 1993
1993 2033 2034 1994
1994 2034 2035 1995
1995 2035 2036 1996
1996 2036 2037 1997
1997 2037 127 126
1 50 2038 1998
1998 2038 2039 1999
1999 2039 2040 2000
2000 2040 2041 2001
2001 2041 2042 2002
2002 2042 2043 2003
2003 2043 2044 2004
2004 2044 2045 2005
2005 2045 2046 2006
2006 2046 2047 2007
2007 2047 2048 2008
2008 2048 2049 2009
2009 2049 2050 2010
2010 2050 2051 2011
2011 2051 2052 2012
2012 2052 2053 2013
2013 2053 2054 2014
2014 2054 2055 2015
2015 2055 2056 2016
2016 2056 2057 2017
2017 2057 2058 2018
2018 2058 2059 2019
2019 2059 2060 2020
2020 2060 2061 2021
2021 2061 2062 2022
2022 2062 2063 2023
2023 2063 2064 2024
2024 2064 2065 2025
2025 2065 2066 2026
2026 2066 2067 2027
2027 2067 2068 2028
2028 2068 2069 2029
2029 2069 2070 2030
2030 2070 2071 2031
2031 2071 2072 2032
2032 2072 2073 2033
2033 2073 2074 2034
2034 2074 2075 2035
2035 2075 2076 2036
2036 2076 2077 2037
2037 2077 128 127
50 51 2078 2038
2038 2078 2079 2039
2039 2079 2080 2040
2040 2080 2081 2041
2041 2081 2082 2042
2042 2082 2083 2043
2043 2083 2084 2044
2044 2084 2085 2045
2045 2085 2086 2046
2046 2086 2087 2047
2047 2087 2088 2048
2048 2088 2089 2049
2049 2089 2090 2050
2050 2090 2091 2051
2051 2091 2092 2052
2052 2092 2093 2053
2053 2093 2094 2054
2054 2094 2095 2055
2055 2095 2096 2056
2056 2096 2097 2057
2057 2097 2098 2058
2058 2098 2099 2059
2059 2099 2100 2060
2060 2100 2101 2061
2061 2101 2102 2062
2062 2102 2103 2063
2063 2103 2104 2064
2064 2104 2105 2065
2065 2105 2106 2066
2066 2106 2107 2067
2067 2107 2108 2068
2068 2108 2109 2069
2069 2109 2110 2070
2070 2110 2111 2071
2071 2111 2112 2072
2072 2112 2113 2073
2073 2113 2114 2074
2074 2114 2115 2075
2075 2115 2116 2076
2076 2116 2117 2077
2077 2117 129 128
51 52 2118 2078
2078 2118 2119 2079
2079 2119 2120 2080
2080 2120 2121 2081
2081 2121 2122 2082
2082 2122 2123 2083
2083 2123 2124 2084
2084 2124 2125 2085
2085 2125 2126 2086
2086 2126 2127 2087
2087 2127 2128 2088
2088 2128 2129 2089
2089 2129 2130 2090
2090 2130 2131 2091
2091 2131 2132 2092
2092 2132 2133 2093
2093 2133 2134 2094
2094 2134 2135 2095
2095 2135 2136 2096
2096 2136 2137 2097
2097 2137 2138 2098
2098 2138 2139 2099
2099 2139 2140 2100
2100 2140 2141 2101
2101 2141 2142 2102
2102 2142 2143 2103
2103 2143 2144 2104
2104 2144 2145 2105
2105 2145 2146 2106
2106 2146 2147 2107
2107 2147 2148 2108
2108 2148 2149 2109
2109 2149 2150 2110
2110 2150 2151 2111
2111 2151 2152 2112
2112 2152 2153 2113
2113 2153 2154 2114
2114 2154 2155 2115
2115 2155 2156 2116
2116 2156 2157 2117
2117 2157 130 129
52 53 2158 2118
2118 2158 2159 2119
2119 2159 2160 2120
2120 2160 2161 2121
2121 2161 2162 2122
2122 2162 2163 2123
2123 2163 2164 2124
2124 2164 2165 2125
2125 2165 2166 2126
2126 2166 2167 2127
2127 2167 2168 2128
2128 2168 2169 2129
2129 2169 2170 2130
2130 2170 2171 2131
2131 2171 2172 2132
2132 2172 2173 2133
2133 2173 2174 2134
2134 2174 2175 2135
2135 2175 2176 2136
2136 2176 2177 2137
2137 2177 2178 2138
2138 2178 2179 2139
2139 2179 2180 2140
2140 2180 2181 2141
2141 2181 2182 2142
2142 2182 2183 2143
2143 2183 2184 2144
2144 2184 2185 2145
2145 2185 2186 2146
2146 2186 2187 2147
2147 2187 2188 2148
2148 2188 2189 2149
2149 2189 2190 2150
2150 2190 2191 2151
2151 2191 2192 2152
2152 2192 2193 2153
2153 2193 2194 2154
2154 2194 2195 2155
2155 2195 2196 2156
2156 2196 2197 2157
2157 2197 131 130
53 54 2198 2158
2158 2198 2199 2159
2159 2199 2200 2160
2160 2200 2201 2161
2161 2201 2202 2162
2162 2202 2203 2163
2163 2203 2204 2164
2164 2204 2205 2165
2165 2205 2206 2166
2166 2206 2207 2167
2167 2207 2208 2168
2168 2208 2209 2169
2169 2209 2210 2170
2170 2210 2211 2171
2171 2211 2212 2172
2172 2212 2213 2173
2173 2213 2214 2174
2174 2214 2215 2175
2175 2215 2216 2176
2176 2216 2217 2177
2177 2217 2218 2178
2178 2218 2219 2179
2179 2219 2220 2180
2180 2220 2221 2181
2181 2221 2222 2182
2182 2222 2223 2183
2183 2223 2224 2184
2184 2224 2225 2185
2185 2225 2226 2186
2186 2226 2227 2187
2187 2227 2228 2188
2188 2228 2229 2189
2189 2229 2230 2190
2190 2230 2231 2191
2191 2231 2232 2192
2192 2232 2233 2193
2193 2233 2234 2194
2194 2234 2235 2195
2195 2235 2236 2196
2196 2236 2237 2197
2197 2237 132 131
54 55 2238 2198
2198 2238 2239 2199
2199 2239 2240 2200
2200 2240 2241 2201
2201 2241 2242 2202
2202 2242 2243 2203
2203 2243 2244 2204
2204 2244 2245 2205
2205 2245 2246 2206
2206 2246 2247 2207
2207 2247 2248 2208
2208 2248 2249 2209
2209 2249 2250 2210
2210 2250 2251 2211
2211 2251 2252 2212
2212 2252 2253 2213
2213 2253 2254 2214
2214 2254 2255 2215
2215 2255 2256 2216
2216 2256 2257 2217
2217 2257 2258 2218
2218 2258 2259 2219
2219 2259 2260 2220
2220 2260 2261 2221
2221 2261 2262 2222
2222 2262 2263 2223
2223 2263 2264 2224
2224 2264 2265 2225
2225 2265 2266 2226
2226 2266 2267 2227
2227 2267 2268 2228
2228 2268 2269 2229
2229 2269 2270 2230
2230 2270 2271 2231
2231 2271 2272 2232
2232 2272 2273 2233
2233 2273 2274 2234
2234 2274 2275 2235
2235 2275 2276 2236
2236 2276 2277 2237
2237 2277 133 132
55 56 2278 2238
2238 2278 2279 2239
2239 2279 2280 2240
2240 2280 2281 2241
2241 2281 2282 2242
2242 2282 2283 2243
2243 2283 2284 2244
2244 2284 2285 2245
2245 2285 2286 2246
2246 2286 2287 2247
2247 2287 2288 2248
2248 2288 2289 2249
2249 2289 2290 2250
2250 2290 2291 2251
2251 2291 2292 2252
2252 2292 2293 2253
2253 2293 2294 2254
2254 2294 2295 2255
2255 2295 2296 2256
2256 2296 2297 2257
2257 2297 2298 2258
2258 2298 2299 2259
2259 2299 2300 2260
2260 2300 2301 2261
2261 2301 2302 2262
2262 2302 2303 2263
2263 2303 2304 2264
2264 2304 2305 2265
2265 2305 2306 2266
2266 2306 2307 2267
2267 2307 2308 2268
2268 2308 2309 2269
2269 2309 2310 2270
2270 2310 2311 2271
2271 2311 2312 2272
2272 2312 2313 2273
2273 2313 2314 2274
2274 2314 2315 2275
2275 2315 2316 2276
2276 2316 2317 2277
2277 2317 134 133
56 57 2318 2278
2278 2318 2319 2279
2279 2319 2320 2280
2280 2320 2321 2281
2281 2321 2322 2282
2282 2322 2323 2283
2283 2323 2324 2284
2284 2324 2325 2285
2285 2325 2326 2286
2286 2326 2327 2287
2287 2327 2328 2288
2288 2328 2329 2289
2289 2329 2330 2290
2290 2330 2331 2291
2291 2331 2332 2292
2292 2332 2333 2293
2293 2333 2334 2294
2294 2334 2335 2295
2295 2335 2336 2296
2296 2336 2337 2297
2297 2337 2338 2298
2298 2338 2339 2299
2299 2339 2340 2300
2300 2340 2341 2301
2301 2341 2342 2302
2302 2342 2343 2303
2303 2343 2344 2304
2304 2344 2345 2305
2305 2345 2346 2306
2306 2346 2347 2307
2307 2347 2348 2308
2308 2348 2349 2309
2309 2349 2350 2310
2310 2350 2351 2311
2311 2351 2352 2312
2312 2352 2353 2313
2313 2353 2354 2314
2314 2354 2355 2315
2315 2355 2356 2316
2316 2356 2357 2317
2317 2357 135 134
57 58 2358 2318
2318 2358 2359 2319
2319 2359 2360 2320
2320 2360 2361 2321
2321 2361 2362 2322
2322 2362 2363 2323
2323 2363 2364 2324
2324 2364 2365 2325
2325 2365 2366 2326
2326 2366 2367 2327
2327 2367 2368 2328
2328 2368 2369 2329
2329 2369 2370 2330
2330 2370 2371 2331
2331 2371 2372 2332
2332 2372 2373 2333
2333 2373 2374 2334
2334 2374 2375 2335
2335 2375 2376 2336
2336 2376 2377 2337
2337 2377 2378 2338
2338 2378 2379 2339
2339 2379 2380 2340
2340 2380 2381 2341
2341 2381 2382 2342
2342 2382 2383 2343
2343 2383 2384 2344
2344 2384 2385 2345
2345 2385 2386 2346
2346 2386 2387 2347
2347 2387 2388 2348
2348 2388 2389 2349
2349 2389 2390 2350
2350 2390 2391 2351
2351 2391 2392 2352
2352 2392 2393 2353
2353 2393 2394 2354
2354 2394 2395 2355
2355 2395 2396 2356
2356 2396 2397 2357
2357 2397 136 135
58 59 2398 2358
2358 2398 2399 2359
2359 2399 2400 2360
2360 2400 2401 2361
2361 2401 2402 2362
2362 2402 2403 2363
2363 2403 2404 2364
2364 2404 2405 2365
2365 2405 2406 2366
2366 2406 2407 2367
2367 2407 2408 2368
2368 2408 2409 2369
2369 2409 2410 2370
2370 2410 2411 2371
2371 2411 2412 2372
2372 2412 2413 2373
2373 2413 2414 2374
2374 2414 2415 2375
2375 2415 2416 2376
2376 2416 2417 2377
2377 2417 2418 2378
2378 2418 2419 2379
2379 2419 2420 2380
2380 2420 2421 2381
2381 2421 2422 2382
2382 2422 2423 2383
2383 2423 2424 2384
2384 2424 2425 2385
2385 2425 2426 2386
2386 2426 2427 2387
2387 2427 2428 2388
2388 2428 2429 2389
2389 2429 2430 2390
2390 2430 2431 2391
2391 2431 2432 2392
2392 2432 2433 2393
2393 2433 2434 2394
2394 2434 2435 2395
2395 2435 2436 2396
2396 2436 2437 2397
2397 2437 137 136
59 60 2438 2398
2398 2438 2439 2399
2399 2439 2440 2400
2400 2440 2441 2401
2401 2441 2442 2402
2402 2442 2443 2403
2403 2443 2444 2404
2404 2444 2445 2405
2405 2445 2446 2406
2406 2446 2447 2407
2407 2447 2448 2408
2408 2448 2449 2409
2409 2449 2450 2410
2410 2450 2451 2411
2411 2451 2452 2412
2412 2452 2453 2413
2413 2453 2454 2414
2414 2454 2455 2415
2415 2455 2456 2416
2416 2456 2457 2417
2417 2457 2458 2418
2418 2458 2459 2419
2419 2459 2460 2420
2420 2460 2461 2421
2421 2461 2462 2422
2422 2462 2463 2423
2423 2463 2464 2424
2424 2464 2465 2425
2425 2465 2466 2426
2426 2466 2467 2427
2427 2467 2468 2428
2428 2468 2469 2429
2429 2469 2470 2430
2430 2470 2471 2431
2431 2471 2472 2432
2432 2472 2473 2433
2433 2473 2474 2434
2434 2474 2475 2435
2435 2475 2476 2436
2436 2476 2477 2437
2437 2477 138 137
60 61 2478 2438
2438 2478 2479 2439
2439 2479 2480 2440
2440 2480 2481 2441
2441 2481 2482 2442
2442 2482 2483 2443
2443 2483 2484 2444
2444 2484 2485 2445
2445 2485 2486 2446
2446 2486 2487 2447
2447 2487 2488 2448
2448 2488 2489 2449
2449 2489 2490 2450
2450 2490 2491 2451
2451 2491 2492 2452
2452 2492 2493 2453
2453 2493 2494 2454
2454 2494 2495 2455
2455 2495 2496 2456
2456 2496 2497 2457
2457 2497 2498 2458
2458 2498 2499 2459
2459 2499 2500 2460
2460 2500 2501 2461
2461 2501 2502 2462
2462 2502 2503 2463
2463 2503 2504 2464
2464 2504 2505 2465
2465 2505 2506 2466
2466 2506 2507 2467
2467 2507 2508 2468
2468 2508 2509 2469
2469 2509 2510 2470
2470 2510 2511 2471
2471 2511 2512 2472
2472 2512 2513 2473
2473 2513 2514 2474
2474 2514 2515 2475
2475 2515 2516 2476
2476 2516 2517 2477
2477 2517 139 138
61 62 2518 2478
2478 2518 2519 2479
2479 2519 2520 2480
2480 2520 2521 2481
2481 2521 2522 2482
2482 2522 2523 2483
2483 2523 2524 2484
2484 2524 2525 2485
2485 2525 2526 2486
2486 2526 2527 2487
2487 2527 2528 2488
2488 2528 2529 2489
2489 2529 2530 2490
2490 2530 2531 2491
2491 2531 2532 2492
2492 2532 2533 2493
2493 2533 2534 2494
2494 2534 2535 2495
2495 2535 2536 2496
2496 2536 2537 2497
2497 2537 2538 2498
2498 2538 2539 2499
2499 2539 2540 2500
2500 2540 2541 2501
2501 2541 2542 2502
2502 2542 2543 2503
2503 2543 2544 2504
2504 2544 2545 2505
2505 2545 2546 2506
2506 2546 2547 2507
2507 2547 2548 2508
2508 2548 2549 2509
2509 2549 2550 2510
2510 2550 2551 2511
2511 2551 2552 2512
2512 2552 2553 2513
2513 2553 2554 2514
2514 2554 2555 2515
2515 2555 2556 2516
2516 2556 2557 2517
2517 2557 140 139
62 63 2558 2518
2518 2558 2559 2519
2519 2559 2560 2520
2520 2560 2561 2521
2521 2561 2562 2522
2522 2562 2563 2523
2523 2563 2564 2524
2524 2564 2565 2525
2525 2565 2566 2526
2526 2566 2567 2527
2527 2567 2568 2528
2528 2568 2569 2529
2529 2569 2570 2530
2530 2570 2571 2531
2531 2571 2572 2532
2532 2572 2573 2533
2533 2573 2574 2534
2534 2574 2575 2535
2535 2575 2576 2536
2536 2576 2577 2537
2537 2577 2578 2538
2538 2578 2579 2539
2539 2579 2580 2540
2540 2580 2581 2541
2541 2581 2582 2542
2542 2582 2583 2543
2543 2583 2584 2544
2544 2584 2585 2545
2545 2585 2586 2546
2546 2586 2587 2547
2547 2587 2588 2548
2548 2588 2589 2549
2549 2589 2590 2550
2550 2590 2591 2551
2551 2591 2592 2552
2552 2592 2593 2553
2553 2593 2594 2554
2554 2594 2595 2555
2555 2595 2596 2556
2556 2596 2597 2557
2557 2597 141 140
63 64 2598 2558
2558 2598 2599 2559
2559 2599 2600 2560
2560 2600 2601 2561
2561 2601 2602 2562
2562 2602 2603 2563
2563 2603 2604 2564
2564 2604 2605 2565
2565 2605 2606 2566
2566 2606 2607 2567
2567 2607 2608 2568
2568 2608 2609 2569
2569 2609 2610 2570
2570 2610 2611 2571
2571 2611 2612 2572
2572 2612 2613 2573
2573 2613 2614 2574
2574 2614 2615 2575
2575 2615 2616 2576
2576 2616 2617 2577
2577 2617 2618 2578
2578 2618 2619 2579
2579 2619 2620 2580
2580 2620 2621 2581
2581 2621 2622 2582
2582 2622 2623 2583
2583 2623 2624 2584
2584 2624 2625 2585
2585 2625 2626 2586
2586 2626 2627 2587
2587 2627 2628 2588
2588 2628 2629 2589
2589 2629 2630 2590
2590 2630 2631 2591
2591 2631 2632 2592
2592 2632 2633 2593
2593 2633 2634 2594
2594 2634 2635 2595
2595 2635 2636 2596
2596 2636 2637 2597
2597 2637 142 141
64 65 2638 2598
2598 2638 2639 2599
2599 2639 2640 2600
2600 2640 2641 2601
2601 2641 2642 2602
2602 2642 2643 2603
2603 2643 2644 2604
2604 2644 2645 2605
2605 2645 2646 2606
2606 2646 2647 2607
2607 2647 2648 2608
2608 2648 2649 2609
2609 2649 2650 2610
2610 2650 2651 2611
2611 2651 2652 2612
2612 2652 2653 2613
2613 2653 2654 2614
2614 2654 2655 2615
2615 2655 2656 2616
2616 2656 2657 2617
2617 2657 2658 2618
2618 2658 2659 2619
2619 2659 2660 2620
2620 2660 2661 2621
2621 2661 2662 2622
2622 2662 2663 2623
2623 2663 2664 2624
2624 2664 2665 2625
2625 2665 2666 2626
2626 2666 2667 2627
2627 2667 2668 2628
2628 2668 2669 2629
2629 2669 2670 2630
2630 2670 2671 2631
2631 2671 2672 2632
2632 2672 2673 2633
2633 2673 2674 2634
2634 2674 2675 2635
2635 2675 2676 2636
2636 2676 2677 2637
2637 2677 143 142
65 66 2678 2638
2638 2678 2679 2639
2639 2679 2680 2640
2640 2680 2681 2641
2641 2681 2682 2642
2642 2682 2683 2643
2643 2683 2684 2644
2644 2684 2685 2645
2645 2685 2686 2646
2646 2686 2687 2647
2647 2687 2688 2648
2648 2688 2689 2649
2649 2689 2690 2650
2650 2690 2691 2651
2651 2691 2692 2652
2652 2692 2693 2653
2653 2693 2694 2654
2654 2694 2695 2655
2655 2695 2696 2656
2656 2696 2697 2657
2657 2697 2698 2658
2658 2698 2699 2659
2659 2699 2700 2660
2660 2700 2701 2661
2661 2701 2702 2662
2662 2702 2703 2663
2663 2703 2704 2664
2664 2704 2705 2665
2665 2705 2706 2666
2666 2706 2707 2667
2667 2707 2708 2668
2668 2708 2709 2669
2669 2709 2710 2670
2670 2710 2711 2671
2671 2711 2712 2672
2672 2712 2713 2673
2673 2713 2714 2674
2674 2714 2715 2675
2675 2715 2716 2676
2676 2716 2717 2677
2677 2717 144 143
66 67 2718 2678
2678 2718 2719 2679
2679 2719 2720 2680
2680 2720 2721 2681
2681 2721 2722 2682
2682 2722 2723 2683
2683 2723 2724 2684
2684 2724 2725 2685
2685 2725 2726 2686
2686 2726 2727 2687
2687 2727 2728 2688
2688 2728 2729 2689
2689 2729 2730 2690
2690 2730 2731 2691
2691 2731 2732 2692
2692 2732 2733 2693
2693 2733 2734 2694
2694 2734 2735 2695
2695 2735 2736 2696
2696 2736 2737 2697
2697 2737 2738 2698
2698 2738 2739 2699
2699 2739 2740 2700
2700 2740 2741 2701
2701 2741 2742 2702
2702 2742 2743 2703
2703 2743 2744 2704
2704 2744 2745 2705
2705 2745 2746 2706
2706 2746 2747 2707
2707 2747 2748 2708
2708 2748 2749 2709
2709 2749 2750 2710
2710 2750 2751 2711
2711 2751 2752 2712
2712 2752 2753 2713
2713 2753 2754 2714
2714 2754 2755 2715
2715 2755 2756 2716
2716 2756 2757 2717
2717 2757 145 144
67 68 2758 2718
2718 2758 2759 2719
2719 2759 2760 2720
2720 2760 2761 2721
2721 2761 2762 2722
2722 2762 2763 2723
2723 2763 2764 2724
2724 2764 2765 2725
2725 2765 2766 2726
2726 2766 2767 2727
2727 2767 2768 2728
2728 2768 2769 2729
2729 2769 2770 2730
2730 2770 2771 2731
2731 2771 2772 2732
2732 2772 2773 2733
2733 2773 2774 2734
2734 2774 2775 2735
2735 2775 2776 2736
2736 2776 2777 2737
2737 2777 2778 2738
2738 2778 2779 2739
2739 2779 2780 2740
2740 2780 2781 2741
2741 2781 2782 2742
2742 2782 2783 2743
2743 2783 2784 2744
2744 2784 2785 2745
2745 2785 2786 2746
2746 2786 2787 2747
2747 2787 2788 2748
2748 2788 2789 2749
2749 2789 2790 2750
2750 2790 2791 2751
2751 2791 2792 2752
2752 2792 2793 2753
2753 2793 2794 2754
2754 2794 2795 2755
2755 2795 2796 2756
2756 2796 2797 2757
2757 2797 146 145
68 69 2798 2758
2758 2798 2799 2759
2759 2799 2800 2760
2760 2800 2801 2761
2761 2801 2802 2762
2762 2802 2803 2763
2763 2803 2804 2764
2764 2804 2805 2765
2765 2805 2806 2766
2766 2806 2807 2767
2767 2807 2808 2768
2768 2808 2809 2769
2769 2809 2810 2770
2770 2810 2811 2771
2771 2811 2812 2772
2772 2812 2813 2773
2773 2813 2814 2774
2774 2814 2815 2775
2775 2815 2816 2776
2776 2816 2817 2777
2777 2817 2818 2778
2778 2818 2819 2779
2779 2819 2820 2780
2780 2820 2821 2781
2781 2821 2822 2782
2782 2822 2823 2783
2783 2823 2824 2784
2784 2824 2825 2785
2785 2825 2826 2786
2786 2826 2827 2787
2787 2827 2828 2788
2788 2828 2829 2789
2789 2829 2830 2790
2790 2830 2831 2791
2791 2831 2832 2792
2792 2832 2833 2793
2793 2833 2834 2794
2794 2834 2835 2795
2795 2835 2836 2796
2796 2836 2837 2797
2797 2837 5 146
69 70 2838 2798
2798 2838 2839 2799
2799 2839 2840 2800
2800 2840 2841 2801
2801 2841 2842 2802
2802 2842 2843 2803
2803 2843 2844 2804
2804 2844 2845 2805
2805 2845 2846 2806
2806 2846 2847 2807
2807 2847 2848 2808
2808 2848 2849 2809
2809 2849 2850 2810
2810 2850 2851 2811
2811 2851 2852 2812
2812 2852 2853 2813
2813 2853 2854 2814
2814 2854 2855 2815
2815 2855 2856 2816
2816 2856 2857 2817
2817 2857 2858 2818
2818 2858 2859 2819
2819 2859 2860 2820
2820 2860 2861 2821
2821 2861 2862 2822
2822 2862 2863 2823
2823 2863 2864 2824
2824 2864 2865 2825
2825 2865 2866 2826
2826 2866 2867 2827
2827 2867 2868 2828
2828 2868 2869 2829
2829 2869 2870 2830
2830 2870 2871 2831
2831 2871 2872 2832
2832 2872 2873 2833
2833 2873 2874 2834
2834 2874 2875 2835
2835 2875 2876 2836
2836 2876 2877 2837
2837 2877 147 5
70 71 2878 2838
2838 2878 2879 2839
2839 2879 2880 2840
2840 2880 2881 2841
2841 2881 2882 2842
2842 2882 2883 2843
2843 2883 2884 2844
2844 2884 2885 2845
2845 2885 2886 2846
2846 2886 2887 2847
2847 2887 2888 2848
2848 2888 2889 2849
2849 2889 2890 2850
2850 2890 2891 2851
2851 2891 2892 2852
2852 2892 2893 2853
2853 2893 2894 2854
2854 2894 2895 2855
2855 2895 2896 2856
2856 2896 2897 2857
2857 2897 2898 2858
2858 2898 2899 2859
2859 2899 2900 2860
2860 2900 2901 2861
2861 2901 2902 2862
2862 2902 2903 2863
2863 2903 2904 2864
2864 2904 2905 2865
2865 2905 2906 2866
2866 2906 2907 2867
2867 2907 2908 2868
2868 2908 2909 2869
2869 2909 2910 2870
2870 2910 2911 2871
2871 2911 2912 2872
2872 2912 2913 2873
2873 2913 2914 2874
2874 2914 2915 2875
2875 2915 2916 2876
2876 2916 2917 2877
2877 2917 148 147
71 72 2918 2878
2878 2918 2919 2879
2879 2919 2920 2880
2880 2920 2921 2881
2881 2921 2922 2882
2882 2922 2923 2883
2883 2923 2924 2884
2884 2924 2925 2885
2885 2925 2926 2886
2886 2926 2927 2887
2887 2927 2928 2888
2888 2928 2929 2889
2889 2929 2930 2890
2890 2930 2931 2891
2891 2931 2932 2892
2892 2932 2933 2893
2893 2933 2934 2894
2894 2934 2935 2895
2895 2935 2936 2896
2896 2936 2937 2897
2897 2937 2938 2898
2898 2938 2939 2899
2899 2939 2940 2900
2900 2940 2941 2901
2901 2941 2942 2902
2902 2942 2943 2903
2903 2943 2944 2904
2904 2944 2945 2905
2905 2945 2946 2906
2906 2946 2947 2907
2907 2947 2948 2908
2908 2948 2949 2909
2909 2949 2950 2910
2910 2950 2951 2911
2911 2951 2952 2912
2912 2952 2953 2913
2913 2953 2954 2914
2914 2954 2955 2915
2915 2955 2956 2916
2916 2956 2957 2917
2917 2957 149 148
72 73 2958 2918
2918 2958 2959 2919
2919 2959 2960 2920
2920 2960 2961 2921
2921 2961 2962 2922
2922 2962 2963 2923
2923 2963 2964 2924
2924 2964 2965 2925
2925 2965 2966 2926
2926 2966 2967 2927
2927 2967 2968 2928
2928 2968 2969 2929
2929 2969 2970 2930
2930 2970 2971 2931
2931 2971 2972 2932
2932 2972 2973 2933
2933 2973 2974 2934
2934 2974 2975 2935
2935 2975 2976 2936
2936 2976 2977 2937
2937 2977 2978 2938
2938 2978 2979 2939
2939 2979 2980 2940
2940 2980 2981 2941
2941 2981 2982 2942
2942 2982 2983 2943
2943 2983 2984 2944
2944 2984 2985 2945
2945 2985 2986 2946
2946 2986 2987 2947
2947 2987 2988 2948
2948 2988 2989 2949
2949 2989 2990 2950
2950 2990 2991 2951
2951 2991 2992 2952
2952 2992 2993 2953
2953 2993 2994 2954
2954 2994 2995 2955
2955 2995 2996 2956
2956 2996 2997 2957
2957 2997 150 149
73 74 2998 2958
2958 2998 2999 2959
2959 2999 3000 2960
2960 3000 3001 2961
2961 3001 3002 2962
2962 3002 3003 2963
2963 3003 3004 2964
2964 3004 3005 2965
2965 3005 3006 2966
2966 3006 3007 2967
2967 3007 3008 2968
2968 3008 3009 2969
2969 3009 3010 2970
2970 3010 3011 2971
2971 3011 3012 2972
2972 3012 3013 2973
2973 3013 3014 2974
2974 3014 3015 2975
2975 3015 3016 2976
2976 3016 3017 2977
2977 3017 3018 2978
2978 3018 3019 2979
2979 3019 3020 2980
2980 3020 3021 2981
2981 3021 3022 2982
2982 3022 3023 2983
2983 3023 3024 2984
2984 3024 3025 2985
2985 3025 3026 2986
2986 3026 3027 2987
2987 3027 3028 2988
2988 3028 3029 2989
2989 3029 3030 2990
2990 3030 3031 2991
2991 3031 3032 2992
2992 3032 3033 2993
2993 3033 3034 2994
2994 3034 3035 2995
2995 3035 3036 2996
2996 3036 3037 2997
2997 3037 151 150
74 75 3038 2998
2998 3038 3039 2999
2999 3039 3040 3000
3000 3040 3041 3001
3001 3041 3042 3002
3002 3042 3043 3003
3003 3043 3044 3004
3004 3044 3045 3005
3005 3045 3046 3006
3006 3046 3047 3007
3007 3047 3048 3008
3008 3048 3049 3009
3009 3049 3050 3010
3010 3050 3051 3011
3011 3051 3052 3012
3012 3052 3053 3013
3013 3053 3054 3014
3014 3054 3055 3015
3015 3055 3056 3016
3016 3056 3057 3017
3017 3057 3058 3018
3018 3058 3059 3019
3019 3059 3060 3020
3020 3060 3061 3021
3021 3061 3062 3022
3022 3062 3063 3023
3023 3063 3064 3024
3024 3064 3065 3025
3025 3065 3066 3026
3026 3066 3067 3027
3027 3067 3068 3028
3028 3068 3069 3029
3029 3069 3070 3030
3030 3070 3071 3031
3031 3071 3072 3032
3032 3072 3073 3033
3033 3073 3074 3034
3034 3074 3075 3035
3035 3075 3076 3036
3036 3076 3077 3037
3037 3077 152 151
75 76 3078 3038
3038 3078 3079 3039
3039 3079 3080 3040
3040 3080 3081 3041
3041 3081 3082 3042
3042 3082 3083 3043
3043 3083 3084 3044
3044 3084 3085 3045
3045 3085 3086 3046
3046 3086 3087 3047
3047 3087 3088 3048
3048 3088 3089 3049
3049 3089 3090 3050
3050 3090 3091 3051
3051 3091 3092 3052
3052 3092 3093 3053
3053 3093 3094 3054
3054 3094 3095 3055
3055 3095 3096 3056
3056 3096 3097 3057
3057 3097 3098 3058
3058 3098 3099 3059
3059 3099 3100 3060
3060 3100 3101 3061
3061 3101 3102 3062
3062 3102 3103 3063
3063 3103 3104 3064
3064 3104 3105 3065
3065 3105 3106 3066
3066 3106 3107 3067
3067 3107 3108 3068
3068 3108 3109 3069
3069 3109 3110 3070
3070 3110 3111 3071
3071 3111 3112 3072
3072 3112 3113 3073
3073 3113 3114 3074
3074 3114 3115 3075
3075 3115 3116 3076
3076 3116 3117 3077
3077 3117 153 152
76 77 3118 3078
3078 3118 3119 3079
3079 3119 3120 3080
3080 3120 3121 3081
3081 3121 3122 3082
3082 3122 3123 3083
3083 3123 3124 3084
3084 3124 3125 3085
3085 3125 3126 3086
3086 3126 3127 3087
3087 3127 3128 3088
3088 3128 3129 3089
3089 3129 3130 3090
3090 3130 3131 3091
3091 3131 3132 3092
3092 3132 3133 3093
3093 3133 3134 3094
3094 3134 3135 3095
3095 3135 3136 3096
3096 3136 3137 3097
3097 3137 3138 3098
3098 3138 3139 3099
3099 3139 3140 3100
3100 3140 3141 3101
3101 3141 3142 3102
3102 3142 3143 3103
3103 3143 3144 3104
3104 3144 3145 3105
3105 3145 3146 3106
3106 3146 3147 3107
3107 3147 3148 3108
3108 3148 3149 3109
3109 3149 3150 3110
3110 3150 3151 3111
3111 3151 3152 3112
3112 3152 3153 3113
3113 3153 3154 3114
3114 3154 3155 3115
3115 3155 3156 3116
3116 3156 3157 3117
3117 3157 154 153
77 78 3158 3118
3118 3158 3159 3119
3119 3159 3160 3120
3120 3160 3161 3121
3121 3161 3162 3122
3122 3162 3163 3123
3123 3163 3164 3124
3124 3164 3165 3125
3125 3165 3166 3126
3126 3166 3167 3127
3127 3167 3168 3128
3128 3168 3169 3129
3129 3169 3170 3130
3130 3170 3171 3131
3131 3171 3172 3132
3132 3172 3173 3133
3133 3173 3174 3134
3134 3174 3175 3135
3135 3175 3176 3136
3136 3176 3177 3137
3137 3177 3178 3138
3138 3178 3179 3139
3139 3179 3180 3140
3140 3180 3181 3141
3141 3181 3182 3142
3142 3182 3183 3143
3143 3183 3184 3144
3144 3184 3185 3145
3145 3185 3186 3146
3146 3186 3187 3147
3147 3187 3188 3148
3148 3188 3189 3149
3149 3189 3190 3150
3150 3190 3191 3151
3151 3191 3192 3152
3152 3192 3193 3153
3153 3193 3194 3154
3154 3194 3195 3155
3155 3195 3196 3156
3156 3196 3197 3157
3157 3197 155 154
78 79 3198 3158
3158 3198 3199 3159
3159 3199 3200 3160
3160 3200 3201 3161
3161 3201 3202 3162
3162 3202 3203 3163
3163 3203 3204 3164
3164 3204 3205 3165
3165 3205 3206 3166
3166 3206 3207 3167
3167 3207 3208 3168
3168 3208 3209 3169
3169 3209 3210 3170
3170 3210 3211 3171
3171 3211 3212 3172
3172 3212 3213 3173
3173 3213 3214 3174
3174 3214 3215 3175
3175 3215 3216 3176
3176 3216 3217 3177
3177 3217 3218 3178
3178 3218 3219 3179
3179 3219 3220 3180
3180 3220 3221 3181
3181 3221 3222 3182
3182 3222 3223 3183
3183 3223 3224 3184
3184 3224 3225 3185
3185 3225 3226 3186
3186 3226 3227 3187
3187 3227 3228 3188
3188 3228 3229 3189
3189 3229 3230 3190
3190 3230 3231 3191
3191 3231 3232 3192
3192 3232 3233 3193
3193 3233 3234 3194
3194 3234 3235 3195
3195 3235 3236 3196
3196 3236 3237 3197
3197 3237 156 155
79 80 3238 3198
3198 3238 3239 3199
3199 3239 3240 3200
3200 3240 3241 3201
3201 3241 3242 3202
3202 3242 3243 3203
3203 3243 3244 3204
3204 3244 3245 3205
3205 3245 3246 3206
3206 3246 3247 3207
3207 3247 3248 3208
3208 3248 3249 3209
3209 3249 3250 3210
3210 3250 3251 3211
3211 3251 3252 3212
3212 3252 3253 3213
3213 3253 3254 3214
3214 3254 3255 3215
3215 3255 3256 3216
3216 3256 3257 3217
3217 3257 3258 3218
3218 3258 3259 3219
3219 3259 3260 3220
3220 3260 3261 3221
3221 3261 3262 3222
3222 3262 3263 3223
3223 3263 3264 3224
3224 3264 3265 3225
3225 3265 3266 3226
3226 3266 3267 3227
3227 3267 3268 3228
3228 3268 3269 3229
3229 3269 3270 3230
3230 3270 3271 3231
3231 3271 3272 3232
3232 3272 3273 3233
3233 3273 3274 3234
3234 3274 3275 3235
3235 3275 3276 3236
3236 3276 3277 3237
3237 3277 157 156
80 81 3278 3238
3238 3278 3279 3239
3239 3279 3280 3240
3240 3280 3281 3241
3241 3281 3282 3242
3242 3282 3283 3243
3243 3283 3284 3244
3244 3284 3285 3245
3245 3285 3286 3246
3246 3286 3287 3247
3247 3287 3288 3248
3248 3288 3289 3249
3249 3289 3290 3250
3250 3290 3291 3251
3251 3291 3292 3252
3252 3292 3293 3253
3253 3293 3294 3254
3254 3294 3295 3255
3255 3295 3296 3256
3256 3296 3297 3257
3257 3297 3298 3258
3258 3298 3299 3259
3259 3299 3300 3260
3260 3300 3301 3261
3261 3301 3302 3262
3262 3302 3303 3263
3263 3303 3304 3264
3264 3304 3305 3265
3265 3305 3306 3266
3266 3306 3307 3267
3267 3307 3308 3268
3268 3308 3309 3269
3269 3309 3310 3270
3270 3310 3311 3271
3271 3311 3312 3272
3272 3312 3313 3273
3273 3313 3314 3274
3274 3314 3315 3275
3275 3315 3316 3276
3276 3316 3317 3277
3277 3317 158 157
81 82 3318 3278
3278 3318 3319 3279
3279 3319 3320 3280
3280 3320 3321 3281
3281 3321 3322 3282
3282 3322 3323 3283
3283 3323 3324 3284
3284 3324 3325 3285
3285 3325 3326 3286
3286 3326 3327 3287
3287 3327 3328 3288
3288 3328 3329 3289
3289 3329 3330 3290
3290 3330 3331 3291
3291 3331 3332 3292
3292 3332 3333 3293
3293 3333 3334 3294
3294 3334 3335 3295
3295 3335 3336 3296
3296 3336 3337 3297
3297 3337 3338 3298
3298 3338 3339 3299
3299 3339 3340 3300
3300 3340 3341 3301
3301 3341 3342 3302
3302 3342 3343 3303
3303 3343 3344 3304
3304 3344 3345 3305
3305 3345 3346 3306
3306 3346 3347 3307
3307 3347 3348 3308
3308 3348 3349 3309
3309 3349 3350 3310
3310 3350 3351 3311
3311 3351 3352 3312
3312 3352 3353 3313
3313 3353 3354 3314
3314 3354 3355 3315
3315 3355 3356 3316
3316 3356 3357 3317
3317 3357 159 158
82 83 3358 3318
3318 3358 3359 3319
3319 3359 3360 3320
3320 3360 3361 3321
3321 3361 3362 3322
3322 3362 3363 3323
3323 3363 3364 3324
3324 3364 3365 3325
3325 3365 3366 3326
3326 3366 3367 3327
3327 3367 3368 3328
3328 3368 3369 3329
3329 3369 3370 3330
3330 3370 3371 3331
3331 3371 3372 3332
3332 3372 3373 3333
3333 3373 3374 3334
3334 3374 3375 3335
3335 3375 3376 3336
3336 3376 3377 3337
3337 3377 3378 3338
3338 3378 3379 3339
3339 3379 3380 3340
3340 3380 3381 3341
3341 3381 3382 3342
3342 3382 3383 3343
3343 3383 3384 3344
3344 3384 3385 3345
3345 3385 3386 3346
3346 3386 3387 3347
3347 3387 3388 3348
3348 3388 3389 3349
3349 3389 3390 3350
3350 3390 3391 3351
3351 3391 3392 3352
3352 3392 3393 3353
3353 3393 3394 3354
3354 3394 3395 3355
3355 3395 3396 3356
3356 3396 3397 3357
3357 3397 160 159
83 84 3398 3358
3358 3398 3399 3359
3359 3399 3400 3360
3360 3400 3401 3361
3361 3401 3402 3362
3362 3402 3403 3363
3363 3403 3404 3364
3364 3404 3405 3365
3365 3405 3406 3366
3366 3406 3407 3367
3367 3407 3408 3368
3368 3408 3409 3369
3369 3409 3410 3370
3370 3410 3411 3371
3371 3411 3412 3372
3372 3412 3413 3373
3373 3413 3414 3374
3374 3414 3415 3375
3375 3415 3416 3376
3376 3416 3417 3377
3377 3417 3418 3378
3378 3418 3419 3379
3379 3419 3420 3380
3380 3420 3421 3381
3381 3421 3422 3382
3382 3422 3423 3383
3383 3423 3424 3384
3384 3424 3425 3385
3385 3425 3426 3386
3386 3426 3427 3387
3387 3427 3428 3388
3388 3428 3429 3389
3389 3429 3430 3390
3390 3430 3431 3391
3391 3431 3432 3392
3392 3432 3433 3393
3393 3433 3434 3394
3394 3434 3435 3395
3395 3435 3436 3396
3396 3436 3437 3397
3397 3437 161 160
84 85 3438 3398
3398 3438 3439 3399
3399 3439 3440 3400
3400 3440 3441 3401
3401 3441 3442 3402
3402 3442 3443 3403
3403 3443 3444 3404
3404 3444 3445 3405
3405 3445 3446 3406
3406 3446 3447 3407
3407 3447 3448 3408
3408 3448 3449 3409
3409 3449 3450 3410
3410 3450 3451 3411
3411 3451 3452 3412
3412 3452 3453 3413
3413 3453 3454 3414
3414 3454 3455 3415
3415 3455 3456 3416
3416 3456 3457 3417
3417 3457 3458 3418
3418 3458 3459 3419
3419 3459 3460 3420
3420 3460 3461 3421
3421 3461 3462 3422
3422 3462 3463 3423
3423 3463 3464 3424
3424 3464 3465 3425
3425 3465 3466 3426
3426 3466 3467 3427
3427 3467 3468 3428
3428 3468 3469 3429
3429 3469 3470 3430
3430 3470 3471 3431
3431 3471 3472 3432
3432 3472 3473 3433
3433 3473 3474 3434
3434 3474 3475 3435
3435 3475 3476 3436
3436 3476 3477 3437
3437 3477 162 161
85 86 3478 3438
3438 3478 3479 3439
3439 3479 3480 3440
3440 3480 3481 3441
3441 3481 3482 3442
3442 3482 3483 3443
3443 3483 3484 3444
3444 3484 3485 3445
3445 3485 3486 3446
3446 3486 3487 3447
3447 3487 3488 3448
3448 3488 3489 3449
3449 3489 3490 3450
3450 3490 3491 3451
3451 3491 3492 3452
3452 3492 3493 3453
3453 3493 3494 3454
3454 3494 3495 3455
3455 3495 3496 3456
3456 3496 3497 3457
3457 3497 3498 3458
3458 3498 3499 3459
3459 3499 3500 3460
3460 3500 3501 3461
3461 3501 3502 3462
3462 3502 3503 3463
3463 3503 3504 3464
3464 3504 3505 3465
3465 3505 3506 3466
3466 3506 3507 3467
3467 3507 3508 3468
3468 3508 3509 3469
3469 3509 3510 3470
3470 3510 3511 3471
3471 3511 3512 3472
3472 3512 3513 3473
3473 3513 3514 3474
3474 3514 3515 3475
3475 3515 3516 3476
3476 3516 3517 3477
3477 3517 163 162
86 87 3518 3478
3478 3518 3519 3479
3479 3519 3520 3480
3480 3520 3521 3481
3481 3521 3522 3482
3482 3522 3523 3483
3483 3523 3524 3484
3484 3524 3525 3485
3485 3525 3526 3486
3486 3526 3527 3487
3487 3527 3528 3488
3488 3528 3529 3489
3489 3529 3530 3490
3490 3530 3531 3491
3491 3531 3532 3492
3492 3532 3533 3493
3493 3533 3534 3494
3494 3534 3535 3495
3495 3535 3536 3496
3496 3536 3537 3497
3497 3537 3538 3498
3498 3538 3539 3499
3499 3539 3540 3500
3500 3540 3541 3501
3501 3541 3542 3502
3502 3542 3543 3503
3503 3543 3544 3504
3504 3544 3545 3505
3505 3545 3546 3506
3506 3546 3547 3507
3507 3547 3548 3508
3508 3548 3549 3509
3509 3549 3550 3510
3510 3550 3551 3511
3511 3551 3552 3512
3512 3552 3553 3513
3513 3553 3554 3514
3514 3554 3555 3515
3515 3555 3556 3516
3516 3556 3557 3517
3517 3557 164 163
87 88 3558 3518
3518 3558 3559 3519
3519 3559 3560 3520
3520 3560 3561 3521
3521 3561 3562 3522
3522 3562 3563 3523
3523 3563 3564 3524
3524 3564 3565 3525
3525 3565 3566 3526
3526 3566 3567 3527
3527 3567 3568 3528
3528 3568 3569 3529
3529 3569 3570 3530
3530 3570 3571 3531
3531 3571 3572 3532
3532 3572 3573 3533
3533 3573 3574 3534
3534 3574 3575 3535
3535 3575 3576 3536
3536 3576 3577 3537
3537 3577 3578 3538
3538 3578 3579 3539
3539 3579 3580 3540
3540 3580 3581 3541
3541 3581 3582 3542
3542 3582 3583 3543
3543 3583 3584 3544
3544 3584 3585 3545
3545 3585 3586 3546
3546 3586 3587 3547
3547 3587 3588 3548
3548 3588 3589 3549
3549 3589 3590 3550
3550 3590 3591 3551
3551 3591 3592 3552
3552 3592 3593 3553
3553 3593 3594 3554
3554 3594 3595 3555
3555 3595 3596 3556
3556 3596 3597 3557
3557 3597 165 164
88 2 322 3558
3558 322 321 3559
3559 321 320 3560
3560 320 319 3561
3561 319 318 3562
3562 318 317 3563
3563 317 316 3564
3564 316 315 3565
3565 315 314 3566
3566 314 313 3567
3567 313 312 3568
3568 312 311 3569
3569 311 310 3570
3570 310 309 3571
3571 309 308 3572
3572 308 307 3573
3573 307 306 3574
3574 306 305 3575
3575 305 304 3576
3576 304 303 3577
3577 303 302 3578
3578 302 301 3579
3579 301 300 3580
3580 300 299 3581
3581 299 298 3582
3582 298 297 3583
3583 297 296 3584
3584 296 295 3585
3585 295 294 3586
3586 294 293 3587
3587 293 292 3588
3588 292 291 3589
3589 291 290 3590
3590 290 289 3591
3591 289 288 3592
3592 288 287 3593
3593 287 286 3594
3594 286 285 3595
3595 285 284 3596
3596 284 283 3597
3597 283 6 165
4 108 3598 380
380 3598 3599 379
379 3599 3600 378
378 3600 3601 377
377 3601 3602 376
376 3602 3603 375
375 3603 3604 374
374 3604 3605 373
373 3605 3606 372
372 3606 3607 371
371 3607 3608 370
370 3608 3609 369
369 3609 3610 368
368 3610 3611 367
367 3611 3612 366
366 3612 3613 365
365 3613 3614 364
364 3614 3615 363
363 3615 3616 362
362 3616 323 9
108 109 3617 3598
3598 3617 3618 3599
3599 3618 3619 3600
3600 3619 3620 3601
3601 3620 3621 3602
3602 3621 3622 3603
3603 3622 3623 3604
3604 3623 3624 3605
3605 3624 3625 3606
3606 3625 3626 3607
3607 3626 3627 3608
3608 3627 3628 3609
3609 3628 3629 3610
3610 3629 3630 3611
3611 3630 3631 3612
3612 3631 3632 3613
3613 3632 3633 3614
3614 3633 3634 3615
3615 3634 3635 3616
3616 3635 324 323
109 110 3636 3617
3617 3636 3637 3618
3618 3637 3638 3619
3619 3638 3639 3620
3620 3639 3640 3621
3621 3640 3641 3622
3622 3641 3642 3623
3623 3642 3643 3624
3624 3643 3644 3625
3625 3644 3645 3626
3626 3645 3646 3627
3627 3646 3647 3628
3628 3647 3648 3629
3629 3648 3649 3630
3630 3649 3650 3631
3631 3650 3651 3632
3632 3651 3652 3633
3633 3652 3653 3634
3634 3653 3654 3635
3635 3654 325 324
110 111 3655 3636
3636 3655 3656 3637
3637 3656 3657 3638
3638 3657 3658 3639
3639 3658 3659 3640
3640 3659 3660 3641
3641 3660 3661 3642
3642 3661 3662 3643
3643 3662 3663 3644
3644 3663 3664 3645
3645 3664 3665 3646
3646 3665 3666 3647
3647 3666 3667 3648
3648 3667 3668 3649
3649 3668 3669 3650
3650 3669 3670 3651
3651 3670 3671 3652
3652 3671 3672 3653
3653 3672 3673 3654
3654 3673 326 325
111 112 3674 3655
3655 3674 3675 3656
3656 3675 3676 3657
3657 3676 3677 3658
3658 3677 3678 3659
3659 3678 3679 3660
3660 3679 3680 3661
3661 3680 3681 3662
3662 3681 3682 3663
3663 3682 3683 3664
3664 3683 3684 3665
3665 3684 3685 3666
3666 3685 3686 3667
3667 3686 3687 3668
3668 3687 3688 3669
3669 3688 3689 3670
3670 3689 3690 3671
3671 3690 3691 3672
3672 3691 3692 3673
3673 3692 327 326
112 113 3693 3674
3674 3693 3694 3675
3675 3694 3695 3676
3676 3695 3696 3677
3677 3696 3697 3678
3678 3697 3698 3679
3679 3698 3699 3680
3680 3699 3700 3681
3681 3700 3701 3682
3682 3701 3702 3683
3683 3702 3703 3684
3684 3703 3704 3685
3685 3704 3705 3686
3686 3705 3706 3687
3687 3706 3707 3688
3688 3707 3708 3689
3689 3708 3709 3690
3690 3709 3710 3691
3691 3710 3711 3692
3692 3711 328 327
113 114 3712 3693
3693 3712 3713 3694
3694 3713 3714 3695
3695 3714 3715 3696
3696 3715 3716 3697
3697 3716 3717 3698
3698 3717 3718 3699
3699 3718 3719 3700
3700 3719 3720 3701
3701 3720 3721 3702
3702 3721 3722 3703
3703 3722 3723 3704
3704 3723 3724 3705
3705 3724 3725 3706
3706 3725 3726 3707
3707 3726 3727 3708
3708 3727 3728 3709
3709 3728 3729 3710
3710 3729 3730 3711
3711 3730 329 328
114 115 3731 3712
3712 3731 3732 3713
3713 3732 3733 3714
3714 3733 3734 3715
3715 3734 3735 3716
3716 3735 3736 3717
3717 3736 3737 3718
3718 3737 3738 3719
3719 3738 3739 3720
3720 3739 3740 3721
3721 3740 3741 3722
3722 3741 3742 3723
3723 3742 3743 3724
3724 3743 3744 3725
3725 3744 3745 3726
3726 3745 3746 3727
3727 3746 3747 3728
3728 3747 3748 3729
3729 3748 3749 3730
3730 3749 330 329
115 116 3750 3731
3731 3750 3751 3732
3732 3751 3752 3733
3733 3752 3753 3734
3734 3753 3754 3735
3735 3754 3755 3736
3736 3755 3756 3737
3737 3756 3757 3738
3738 3757 3758 3739
3739 3758 3759 3740
3740 3759 3760 3741
3741 3760 3761 3742
3742 3761 3762 3743
3743 3762 3763 3744
3744 3763 3764 3745
3745 3764 3765 3746
3746 3765 3766 3747
3747 3766 3767 3748
3748 3767 3768 3749
3749 3768 331 330
116 117 3769 3750
3750 3769 3770 3751
3751 3770 3771 3752
3752 3771 3772 3753
3753 3772 3773 3754
3754 3773 3774 3755
3755 3774 3775 3756
3756 3775 3776 3757
3757 3776 3777 3758
3758 3777 3778 3759
3759 3778 3779 3760
3760 3779 3780 3761
3761 3780 3781 3762
3762 3781 3782 3763
3763 3782 3783 3764
3764 3783 3784 3765
3765 3784 3785 3766
3766 3785 3786 3767
3767 3786 3787 3768
3768 3787 332 331
117 118 3788 3769
3769 3788 3789 3770
3770 3789 3790 3771
3771 3790 3791 3772
3772 3791 3792 3773
3773 3792 3793 3774
3774 3793 3794 3775
3775 3794 3795 3776
3776 3795 3796 3777
3777 3796 3797 3778
3778 3797 3798 3779
3779 3798 3799 3780
3780 3799 3800 3781
3781 3800 3801 3782
3782 3801 3802 3783
3783 3802 3803 3784
3784 3803 3804 3785
3785 3804 3805 3786
3786 3805 3806 3787
3787 3806 333 332
118 119 3807 3788
3788 3807 3808 3789
3789 3808 3809 3790
3790 3809 3810 3791
3791 3810 3811 3792
3792 3811 3812 3793
3793 3812 3813 3794
3794 3813 3814 3795
3795 3814 3815 3796
3796 3815 3816 3797
3797 3816 3817 3798
3798 3817 3818 3799
3799 3818 3819 3800
3800 3819 3820 3801
3801 3820 3821 3802
3802 3821 3822 3803
3803 3822 3823 3804
3804 3823 3824 3805
3805 3824 3825 3806
3806 3825 334 333
119 120 3826 3807
3807 3826 3827 3808
3808 3827 3828 3809
3809 3828 3829 3810
3810 3829 3830 3811
3811 3830 3831 3812
3812 3831 3832 3813
3813 3832 3833 3814
3814 3833 3834 3815
3815 3834 3835 3816
3816 3835 3836 3817
3817 3836 3837 3818
3818 3837 3838 3819
3819 3838 3839 3820
3820 3839 3840 3821
3821 3840 3841 3822
3822 3841 3842 3823
3823 3842 3843 3824
3824 3843 3844 3825
3825 3844 335 334
120 121 3845 3826
3826 3845 3846 3827
3827 3846 3847 3828
3828 3847 3848 3829
3829 3848 3849 3830
3830 3849 3850 3831
3831 3850 3851 3832
3832 3851 3852 3833
3833 3852 3853 3834
3834 3853 3854 3835
3835 3854 3855 3836
3836 3855 3856 3837
3837 3856 3857 3838
3838 3857 3858 3839
3839 3858 3859 3840
3840 3859 3860 3841
3841 3860 3861 3842
3842 3861 3862 3843
3843 3862 3863 3844
3844 3863 336 335
121 122 3864 3845
3845 3864 3865 3846
3846 3865 3866 3847
3847 3866 3867 3848
3848 3867 3868 3849
3849 3868 3869 3850
3850 3869 3870 3851
3851 3870 3871 3852
3852 3871 3872 3853
3853 3872 3873 3854
3854 3873 3874 3855
3855 3874 3875 3856
3856 3875 3876 3857
3857 3876 3877 3858
3858 3877 3878 3859
3859 3878 3879 3860
3860 3879 3880 3861
3861 3880 3881 3862
3862 3881 3882 3863
3863 3882 337 336
122 123 3883 3864
3864 3883 3884 3865
3865 3884 3885 3866
3866 3885 3886 3867
3867 3886 3887 3868
3868 3887 3888 3869
3869 3888 3889 3870
3870 3889 3890 3871
3871 3890 3891 3872
3872 3891 3892 3873
3873 3892 3893 3874
3874 3893 3894 3875
3875 3894 3895 3876
3876 3895 3896 3877
3877 3896 3897 3878
3878 3897 3898 3879
3879 3898 3899 3880
3880 3899 3900 3881
3881 3900 3901 3882
3882 3901 338 337
123 124 3902 3883
3883 3902 3903 3884
3884 3903 3904 3885
3885 3904 3905 3886
3886 3905 3906 3887
3887 3906 3907 3888
3888 3907 3908 3889
3889 3908 3909 3890
3890 3909 3910 3891
3891 3910 3911 3892
3892 3911 3912 3893
3893 3912 3913 3894
3894 3913 3914 3895
3895 3914 3915 3896
3896 3915 3916 3897
3897 3916 3917 3898
3898 3917 3918 3899
3899 3918 3919 3900
3900 3919 3920 3901
3901 3920 339 338
124 125 3921 3902
3902 3921 3922 3903
3903 3922 3923 3904
3904 3923 3924 3905
3905 3924 3925 3906
3906 3925 3926 3907
3907 3926 3927 3908
3908 3927 3928 3909
3909 3928 3929 3910
3910 3929 3930 3911
3911 3930 3931 3912
3912 3931 3932 3913
3913 3932 3933 3914
3914 3933 3934 3915
3915 3934 3935 3916
3916 3935 3936 3917
3917 3936 3937 3918
3918 3937 3938 3919
3919 3938 3939 3920
3920 3939 340 339
125 126 3940 3921
3921 3940 3941 3922
3922 3941 3942 3923
3923 3942 3943 3924
3924 3943 3944 3925
3925 3944 3945 3926
3926 3945 3946 3927
3927 3946 3947 3928
3928 3947 3948 3929
3929 3948 3949 3930
3930 3949 3950 3931
3931 3950 3951 3932
3932 3951 3952 3933
3933 3952 3953 3934
3934 3953 3954 3935
3935 3954 3955 3936
3936 3955 3956 3937
3937 3956 3957 3938
3938 3957 3958 3939
3939 3958 341 340
126 127 3959 3940
3940 3959 3960 3941
3941 3960 3961 3942
3942 3961 3962 3943
3943 3962 3963 3944
3944 3963 3964 3945
3945 3964 3965 3946
3946 3965 3966 3947
3947 3966 3967 3948
3948 3967 3968 3949
3949 3968 3969 3950
3950 3969 3970 3951
3951 3970 3971 3952
3952 3971 3972 3953
3953 3972 3973 3954
3954 3973 3974 3955
3955 3974 3975 3956
3956 3975 3976 3957
3957 3976 3977 3958
3958 3977 342 341
127 128 3978 3959
3959 3978 3979 3960
3960 3979 3980 3961
3961 3980 3981 3962
3962 3981 3982 3963
3963 3982 3983 3964
3964 3983 3984 3965
3965 3984 3985 3966
3966 3985 3986 3967
3967 3986 3987 3968
3968 3987 3988 3969
3969 3988 3989 3970
3970 3989 3990 3971
3971 3990 3991 3972
3972 3991 3992 3973
3973 3992 3993 3974
3974 3993 3994 3975
3975 3994 3995 3976
3976 3995 3996 3977
3977 3996 343 342
128 129 3997 3978
3978 3997 3998 3979
3979 3998 3999 3980
3980 3999 4000 3981
3981 4000 4001 3982
3982 4001 4002 3983
3983 4002 4003 3984
3984 4003 4004 3985
3985 4004 4005 3986
3986 4005 4006 3987
3987 4006 4007 3988
3988 4007 4008 3989
3989 4008 4009 3990
3990 4009 4010 3991
3991 4010 4011 3992
3992 4011 4012 3993
3993 4012 4013 3994
3994 4013 4014 3995
3995 4014 4015 3996
3996 4015 344 343
129 130 4016 3997
3997 4016 4017 3998
3998 4017 4018 3999
3999 4018 4019 4000
4000 4019 4020 4001
4001 4020 4021 4002
4002 4021 4022 4003
4003 4022 4023 4004
4004 4023 4024 4005
4005 4024 4025 4006
4006 4025 4026 4007
4007 4026 4027 4008
4008 4027 4028 4009
4009 4028 4029 4010
4010 4029 4030 4011
4011 4030 4031 4012
4012 4031 4032 4013
4013 4032 4033 4014
4014 4033 4034 4015
4015 4034 345 344
130 131 4035 4016
4016 4035 4036 4017
4017 4036 4037 4018
4018 4037 4038 4019
4019 4038 4039 4020
4020 4039 4040 4021
4021 4040 4041 4022
4022 4041 4042 4023
4023 4042 4043 4024
4024 4043 4044 4025
4025 4044 4045 4026
4026 4045 4046 4027
4027 4046 4047 4028
4028 4047 4048 4029
4029 4048 4049 4030
4030 4049 4050 4031
4031 4050 4051 4032
4032 4051 4052 4033
4033 4052 4053 4034
4034 4053 346 345
131 132 4054 4035
4035 4054 4055 4036
4036 4055 4056 4037
4037 4056 4057 4038
4038 4057 4058 4039
4039 4058 4059 4040
4040 4059 4060 4041
4041 4060 4061 4042
4042 4061 4062 4043
4043 4062 4063 4044
4044 4063 4064 4045
4045 4064 4065 4046
4046 4065 4066 4047
4047 4066 4067 4048
4048 4067 4068 4049
4049 4068 4069 4050
4050 4069 4070 4051
4051 4070 4071 4052
4052 4071 4072 4053
4053 4072 347 346
132 133 4073 4054
4054 4073 4074 4055
4055 4074 4075 4056
4056 4075 4076 4057
4057 4076 4077 4058
4058 4077 4078 4059
4059 4078 4079 4060
4060 4079 4080 4061
4061 4080 4081 4062
4062 4081 4082 4063
4063 4082 4083 4064
4064 4083 4084 4065
4065 4084 4085 4066
4066 4085 4086 4067
4067 4086 4087 4068
4068 4087 4088 4069
4069 4088 4089 4070
4070 4089 4090 4071
4071 4090 4091 4072
4072 4091 348 347
133 134 4092 4073
4073 4092 4093 4074
4074 4093 4094 4075
4075 4094 4095 4076
4076 4095 4096 4077
4077 4096 4097 4078
4078 4097 4098 4079
4079 4098 4099 4080
4080 4099 4100 4081
4081 4100 4101 4082
4082 4101 4102 4083
4083 4102 4103 4084
4084 4103 4104 4085
4085 4104 4105 4086
4086 4105 4106 4087
4087 4106 4107 4088
4088 4107 4108 4089
4089 4108 4109 4090
4090 4109 4110 4091
4091 4110 349 348
134 135 4111 4092
4092 4111 4112 4093
4093 4112 4113 4094
4094 4113 4114 4095
4095 4114 4115 4096
4096 4115 4116 4097
4097 4116 4117 4098
4098 4117 4118 4099
4099 4118 4119 4100
4100 4119 4120 4101
4101 4120 4121 4102
4102 4121 4122 4103
4103 4122 4123 4104
4104 4123 4124 4105
4105 4124 4125 4106
4106 4125 4126 4107
4107 4126 4127 4108
4108 4127 4128 4109
4109 4128 4129 4110
4110 4129 350 349
135 136 4130 4111
4111 4130 4131 4112
4112 4131 4132 4113
4113 4132 4133 4114
4114 4133 4134 4115
4115 4134 4135 4116
4116 4135 4136 4117
4117 4136 4137 4118
4118 4137 4138 4119
4119 4138 4139 4120
4120 4139 4140 4121
4121 4140 4141 4122
4122 4141 4142 4123
4123 4142 4143 4124
4124 4143 4144 4125
4125 4144 4145 4126
4126 4145 4146 4127
4127 4146 4147 4128
4128 4147 4148 4129
4129 4148 351 350
136 137 4149 4130
4130 4149 4150 4131
4131 4150 4151 4132
4132 4151 4152 4133
4133 4152 4153 4134
4134 4153 4154 4135
4135 4154 4155 4136
4136 4155 4156 4137
4137 4156 4157 4138
4138 4157 4158 4139
4139 4158 4159 4140
4140 4159 4160 4141
4141 4160 4161 4142
4142 4161 4162 4143
4143 4162 4163 4144
4144 4163 4164 4145
4145 4164 4165 4146
4146 4165 4166 4147
4147 4166 4167 4148
4148 4167 352 351
137 138 4168 4149
4149 4168 4169 4150
4150 4169 4170 4151
4151 4170 4171 4152
4152 4171 4172 4153
4153 4172 4173 4154
4154 4173 4174 4155
4155 4174 4175 4156
4156 4175 4176 4157
4157 4176 4177 4158
4158 4177 4178 4159
4159 4178 4179 4160
4160 4179 4180 4161
4161 4180 4181 4162
4162 4181 4182 4163
4163 4182 4183 4164
4164 4183 4184 4165
4165 4184 4185 4166
4166 4185 4186 4167
4167 4186 353 352
138 139 4187 4168
4168 4187 4188 4169
4169 4188 4189 4170
4170 4189 4190 4171
4171 4190 4191 4172
4172 4191 4192 4173
4173 4192 4193 4174
4174 4193 4194 4175
4175 4194 4195 4176
4176 4195 4196 4177
4177 4196 4197 4178
4178 4197 4198 4179
4179 4198 4199 4180
4180 4199 4200 4181
4181 4200 4201 4182
4182 4201 4202 4183
4183 4202 4203 4184
4184 4203 4204 4185
4185 4204 4205 4186
4186 4205 354 353
139 140 4206 4187
4187 4206 4207 4188
4188 4207 4208 4189
4189 4208 4209 4190
4190 4209 4210 4191
4191 4210 4211 4192
4192 4211 4212 4193
4193 4212 4213 4194
4194 4213 4214 4195
4195 4214 4215 4196
4196 4215 4216 4197
4197 4216 4217 4198
4198 4217 4218 4199
4199 4218 4219 4200
4200 4219 4220 4201
4201 4220 4221 4202
4202 4221 4222 4203
4203 4222 4223 4204
4204 4223 4224 4205
4205 4224 355 354
140 141 4225 4206
4206 4225 4226 4207
4207 4226 4227 4208
4208 4227 4228 4209
4209 4228 4229 4210
4210 4229 4230 4211
4211 4230 4231 4212
4212 4231 4232 4213
4213 4232 4233 4214
4214 4233 4234 4215
4215 4234 4235 4216
4216 4235 4236 4217
4217 4236 4237 4218
4218 4237 4238 4219
4219 4238 4239 4220
4220 4239 4240 4221
4221 4240 4241 4222
4222 4241 4242 4223
4223 4242 4243 4224
4224 4243 356 355
141 142 4244 4225
4225 4244 4245 4226
4226 4245 4246 4227
4227 4246 4247 4228
4228 4247 4248 4229
4229 4248 4249 4230
4230 4249 4250 4231
4231 4250 4251 4232
4232 4251 4252 4233
4233 4252 4253 4234
4234 4253 4254 4235
4235 4254 4255 4236
4236 4255 4256 4237
4237 4256 4257 4238
4238 4257 4258 4239
4239 4258 4259 4240
4240 4259 4260 4241
4241 4260 4261 4242
4242 4261 4262 4243
4243 4262 357 356
142 143 4263 4244
4244 4263 4264 4245
4245 4264 4265 4246
4246 4265 4266 4247
4247 4266 4267 4248
4248 4267 4268 4249
4249 4268 4269 4250
4250 4269 4270 4251
4251 4270 4271 4252
4252 4271 4272 4253
4253 4272 4273 4254
4254 4273 4274 4255
4255 4274 4275 4256
4256 4275 4276 4257
4257 4276 4277 4258
4258 4277 4278 4259
4259 4278 4279 4260
4260 4279 4280 4261
4261 4280 4281 4262
4262 4281 358 357
143 144 4282 4263
4263 4282 4283 4264
4264 4283 4284 4265
4265 4284 4285 4266
4266 4285 4286 4267
4267 4286 4287 4268
4268 4287 4288 4269
4269 4288 4289 4270
4270 4289 4290 4271
4271 4290 4291 4272
4272 4291 4292 4273
4273 4292 4293 4274
4274 4293 4294 4275
4275 4294 4295 4276
4276 4295 4296 4277
4277 4296 4297 4278
4278 4297 4298 4279
4279 4298 4299 4280
4280 4299 4300 4281
4281 4300 359 358
144 145 4301 4282
4282 4301 4302 4283
4283 4302 4303 4284
4284 4303 4304 4285
4285 4304 4305 4286
4286 4305 4306 4287
4287 4306 4307 4288
4288 4307 4308 4289
4289 4308 4309 4290
4290 4309 4310 4291
4291 4310 4311 4292
4292 4311 4312 4293
4293 4312 4313 4294
4294 4313 4314 4295
4295 4314 4315 4296
4296 4315 4316 4297
4297 4316 4317 4298
4298 4317 4318 4299
4299 4318 4319 4300
4300 4319 360 359
145 146 4320 4301
4301 4320 4321 4302
4302 4321 4322 4303
4303 4322 4323 4304
4304 4323 4324 4305
4305 4324 4325 4306
4306 4325 4326 4307
4307 4326 4327 4308
4308 4327 4328 4309
4309 4328 4329 4310
4310 4329 4330 4311
4311 4330 4331 4312
4312 4331 4332 4313
4313 4332 4333 4314
4314 4333 4334 4315
4315 4334 4335 4316
4316 4335 4336 4317
4317 4336 4337 4318
4318 4337 4338 4319
4319 4338 361 360
146 5 399 4320
4320 399 398 4321
4321 398 397 4322
4322 397 396 4323
4323 396 395 4324
4324 395 394 4325
4325 394 393 4326
4326 393 392 4327
4327 392 391 4328
4328 391 390 4329
4329 390 389 4330
4330 389 388 4331
4331 388 387 4332
4332 387 386 4333
4333 386 385 4334
4334 385 384 4335
4335 384 383 4336
4336 383 382 4337
4337 382 381 4338
4338 381 10 361
3 89 4339 166
166 4339 4340 167
167 4340 4341 168
168 4341 4342 169
169 4342 4343 170
170 4343 4344 171
171 4344 4345 172
172 4345 4346 173
173 4346 4347 174
174 4347 4348 175
175 4348 4349 176
176 4349 4350 177
177 4350 4351 178
178 4351 4352 179
179 4352 4353 180
180 4353 4354 181
181 4354 4355 182
182 4355 4356 183
183 4356 4357 184
184 4357 418 7
89 90 4358 4339
4339 4358 4359 4340
4340 4359 4360 4341
4341 4360 4361 4342
4342 4361 4362 4343
4343 4362 4363 4344
4344 4363 4364 4345
4345 4364 4365 4346
4346 4365 4366 4347
4347 4366 4367 4348
4348 4367 4368 4349
4349 4368 4369 4350
4350 4369 4370 4351
4351 4370 4371 4352
4352 4371 4372 4353
4353 4372 4373 4354
4354 4373 4374 4355
4355 4374 4375 4356
4356 4375 4376 4357
4357 4376 417 418
90 91 4377 4358
4358 4377 4378 4359
4359 4378 4379 4360
4360 4379 4380 4361
4361 4380 4381 4362
4362 4381 4382 4363
4363 4382 4383 4364
4364 4383 4384 4365
4365 4384 4385 4366
4366 4385 4386 4367
4367 4386 4387 4368
4368 4387 4388 4369
4369 4388 4389 4370
4370 4389 4390 4371
4371 4390 4391 4372
4372 4391 4392 4373
4373 4392 4393 4374
4374 4393 4394 4375
4375 4394 4395 4376
4376 4395 416 417
91 92 4396 4377
4377 4396 4397 4378
4378 4397 4398 4379
4379 4398 4399 4380
4380 4399 4400 4381
4381 4400 4401 4382
4382 4401 4402 4383
4383 4402 4403 4384
4384 4403 4404 4385
4385 4404 4405 4386
4386 4405 4406 4387
4387 4406 4407 4388
4388 4407 4408 4389
4389 4408 4409 4390
4390 4409 4410 4391
4391 4410 4411 4392
4392 4411 4412 4393
4393 4412 4413 4394
4394 4413 4414 4395
4395 4414 415 416
92 93 4415 4396
4396 4415 4416 4397
4397 4416 4417 4398
4398 4417 4418 4399
4399 4418 4419 4400
4400 4419 4420 4401
4401 4420 4421 4402
4402 4421 4422 4403
4403 4422 4423 4404
4404 4423 4424 4405
4405 4424 4425 4406
4406 4425 4426 4407
4407 4426 4427 4408
4408 4427 4428 4409
4409 4428 4429 4410
4410 4429 4430 4411
4411 4430 4431 4412
4412 4431 4432 4413
4413 4432 4433 4414
4414 4433 414 415
93 94 4434 4415
4415 4434 4435 4416
4416 4435 4436 4417
4417 4436 4437 4418
4418 4437 4438 4419
4419 4438 4439 4420
4420 4439 4440 4421
4421 4440 4441 4422
4422 4441 4442 4423
4423 4442 4443 4424
4424 4443 4444 4425
4425 4444 4445 4426
4426 4445 4446 4427
4427 4446 4447 4428
4428 4447 4448 4429
4429 4448 4449 4430
4430 4449 4450 4431
4431 4450 4451 4432
4432 4451 4452 4433
4433 4452 413 414
94 95 4453 4434
4434 4453 4454 4435
4435 4454 4455 4436
4436 4455 4456 4437
4437 4456 4457 4438
4438 4457 4458 4439
4439 4458 4459 4440
4440 4459 4460 4441
4441 4460 4461 4442
4442 4461 4462 4443
4443 4462 4463 4444
4444 4463 4464 4445
4445 4464 4465 4446
4446 4465 4466 4447
4447 4466 4467 4448
4448 4467 4468 4449
4449 4468 4469 4450
4450 4469 4470 4451
4451 4470 4471 4452
4452 4471 412 413
95 96 4472 4453
4453 4472 4473 4454
4454 4473 4474 4455
4455 4474 4475 4456
4456 4475 4476 4457
4457 4476 4477 4458
4458 4477 4478 4459
4459 4478 4479 4460
4460 4479 4480 4461
4461 4480 4481 4462
4462 4481 4482 4463
4463 4482 4483 4464
4464 4483 4484 4465
4465 4484 4485 4466
4466 4485 4486 4467
4467 4486 4487 4468
4468 4487 4488 4469
4469 4488 4489 4470
4470 4489 4490 4471
4471 4490 411 412
96 97 4491 4472
4472 4491 4492 4473
4473 4492 4493 4474
4474 4493 4494 4475
4475 4494 4495 4476
4476 4495 4496 4477
4477 4496 4497 4478
4478 4497 4498 4479
4479 4498 4499 4480
4480 4499 4500 4481
4481 4500 4501 4482
4482 4501 4502 4483
4483 4502 4503 4484
4484 4503 4504 4485
4485 4504 4505 4486
4486 4505 4506 4487
4487 4506 4507 4488
4488 4507 4508 4489
4489 4508 4509 4490
4490 4509 410 411
97 98 4510 4491
4491 4510 4511 4492
4492 4511 4512 4493
4493 4512 4513 4494
4494 4513 4514 4495
4495 4514 4515 4496
4496 4515 4516 4497
4497 4516 4517 4498
4498 4517 4518 4499
4499 4518 4519 4500
4500 4519 4520 4501
4501 4520 4521 4502
4502 4521 4522 4503
4503 4522 4523 4504
4504 4523 4524 4505
4505 4524 4525 4506
4506 4525 4526 4507
4507 4526 4527 4508
4508 4527 4528 4509
4509 4528 409 410
98 99 4529 4510
4510 4529 4530 4511
4511 4530 4531 4512
4512 4531 4532 4513
4513 4532 4533 4514
4514 4533 4534 4515
4515 4534 4535 4516
4516 4535 4536 4517
4517 4536 4537 4518
4518 4537 4538 4519
4519 4538 4539 4520
4520 4539 4540 4521
4521 4540 4541 4522
4522 4541 4542 4523
4523 4542 4543 4524
4524 4543 4544 4525
4525 4544 4545 4526
4526 4545 4546 4527
4527 4546 4547 4528
4528 4547 408 409
99 100 4548 4529
4529 4548 4549 4530
4530 4549 4550 4531
4531 4550 4551 4532
4532 4551 4552 4533
4533 4552 4553 4534
4534 4553 4554 4535
4535 4554 4555 4536
4536 4555 4556 4537
4537 4556 4557 4538
4538 4557 4558 4539
4539 4558 4559 4540
4540 4559 4560 4541
4541 4560 4561 4542
4542 4561 4562 4543
4543 4562 4563 4544
4544 4563 4564 4545
4545 4564 4565 4546
4546 4565 4566 4547
4547 4566 407 408
100 101 4567 4548
4548 4567 4568 4549
4549 4568 4569 4550
4550 4569 4570 4551
4551 4570 4571 4552
4552 4571 4572 4553
4553 4572 4573 4554
4554 4573 4574 4555
4555 4574 4575 4556
4556 4575 4576 4557
4557 4576 4577 4558
4558 4577 4578 4559
4559 4578 4579 4560
4560 4579 4580 4561
4561 4580 4581 4562
4562 4581 4582 4563
4563 4582 4583 4564
4564 4583 4584 4565
4565 4584 4585 4566
4566 4585 406 407
101 102 4586 4567
4567 4586 4587 4568
4568 4587 4588 4569
4569 4588 4589 4570
4570 4589 4590 4571
4571 4590 4591 4572
4572 4591 4592 4573
4573 4592 4593 4574
4574 4593 4594 4575
4575 4594 4595 4576
4576 4595 4596 4577
4577 4596 4597 4578
4578 4597 4598 4579
4579 4598 4599 4580
4580 4599 4600 4581
4581 4600 4601 4582
4582 4601 4602 4583
4583 4602 4603 4584
4584 4603 4604 4585
4585 4604 405 406
102 103 4605 4586
4586 4605 4606 4587
4587 4606 4607 4588
4588 4607 4608 4589
4589 4608 4609 4590
4590 4609 4610 4591
4591 4610 4611 4592
4592 4611 4612 4593
4593 4612 4613 4594
4594 4613 4614 4595
4595 4614 4615 4596
4596 4615 4616 4597
4597 4616 4617 4598
4598 4617 4618 4599
4599 4618 4619 4600
4600 4619 4620 4601
4601 4620 4621 4602
4602 4621 4622 4603
4603 4622 4623 4604
4604 4623 404 405
103 104 4624 4605
4605 4624 4625 4606
4606 4625 4626 4607
4607 4626 4627 4608
4608 4627 4628 4609
4609 4628 4629 4610
4610 4629 4630 4611
4611 4630 4631 4612
4612 4631 4632 4613
4613 4632 4633 4614
4614 4633 4634 4615
4615 4634 4635 4616
4616 4635 4636 4617
4617 4636 4637 4618
4618 4637 4638 4619
4619 4638 4639 4620
4620 4639 4640 4621
4621 4640 4641 4622
4622 4641 4642 4623
4623 4642 403 404
104 105 4643 4624
4624 4643 4644 4625
4625 4644 4645 4626
4626 4645 4646 4627
4627 4646 4647 4628
4628 4647 4648 4629
4629 4648 4649 4630
4630 4649 4650 4631
4631 4650 4651 4632
4632 4651 4652 4633
4633 4652 4653 4634
4634 4653 4654 4635
4635 4654 4655 4636
4636 4655 4656 4637
4637 4656 4657 4638
4638 4657 4658 4639
4639 4658 4659 4640
4640 4659 4660 4641
4641 4660 4661 4642
4642 4661 402 403
105 106 4662 4643
4643 4662 4663 4644
4644 4663 4664 4645
4645 4664 4665 4646
4646 4665 4666 4647
4647 4666 4667 4648
4648 4667 4668 4649
4649 4668 4669 4650
4650 4669 4670 4651
4651 4670 4671 4652
4652 4671 4672 4653
4653 4672 4673 4654
4654 4673 4674 4655
4655 4674 4675 4656
4656 4675 4676 4657
4657 4676 4677 4658
4658 4677 4678 4659
4659 4678 4679 4660
4660 4679 4680 4661
4661 4680 401 402
106 107 4681 4662
4662 4681 4682 4663
4663 4682 4683 4664
4664 4683 4684 4665
4665 4684 4685 4666
4666 4685 4686 4667
4667 4686 4687 4668
4668 4687 4688 4669
4669 4688 4689 4670
4670 4689 4690 4671
4671 4690 4691 4672
4672 4691 4692 4673
4673 4692 4693 4674
4674 4693 4694 4675
4675 4694 4695 4676
4676 4695 4696 4677
4677 4696 4697 4678
4678 4697 4698 4679
4679 4698 4699 4680
4680 4699 400 401
107 4 380 4681
4681 380 379 4682
4682 379 378 4683
4683 378 377 4684
4684 377 376 4685
4685 376 375 4686
4686 375 374 4687
4687 374 373 4688
4688 373 372 4689
4689 372 371 4690
4690 371 370 4691
4691 370 369 4692
4692 369 368 4693
4693 368 367 4694
4694 367 366 4695
4695 366 365 4696
4696 365 364 4697
4697 364 363 4698
4698 363 362 4699
4699 362 9 400
5 147 4700 399
399 4700 4701 398
398 4701 4702 397
397 4702 4703 396
396 4703 4704 395
395 4704 4705 394
394 4705 4706 393
393 4706 4707 392
392 4707 4708 391
391 4708 4709 390
390 4709 4710 389
389 4710 4711 388
388 4711 4712 387
387 4712 4713 386
386 4713 4714 385
385 4714 4715 384
384 4715 4716 383
383 4716 4717 382
382 4717 4718 381
381 4718 419 10
147 148 4719 4700
4700 4719 4720 4701
4701 4720 4721 4702
4702 4721 4722 4703
4703 4722 4723 4704
4704 4723 4724 4705
4705 4724 4725 4706
4706 4725 4726 4707
4707 4726 4727 4708
4708 4727 4728 4709
4709 4728 4729 4710
4710 4729 4730 4711
4711 4730 4731 4712
4712 4731 4732 4713
4713 4732 4733 4714
4714 4733 4734 4715
4715 4734 4735 4716
4716 4735 4736 4717
4717 4736 4737 4718
4718 4737 420 419
148 149 4738 4719
4719 4738 4739 4720
4720 4739 4740 4721
4721 4740 4741 4722
4722 4741 4742 4723
4723 4742 4743 4724
4724 4743 4744 4725
4725 4744 4745 4726
4726 4745 4746 4727
4727 4746 4747 4728
4728 4747 4748 4729
4729 4748 4749 4730
4730 4749 4750 4731
4731 4750 4751 4732
4732 4751 4752 4733
4733 4752 4753 4734
4734 4753 4754 4735
4735 4754 4755 4736
4736 4755 4756 4737
4737 4756 421 420
149 150 4757 4738
4738 4757 4758 4739
4739 4758 4759 4740
4740 4759 4760 4741
4741 4760 4761 4742
4742 4761 4762 4743
4743 4762 4763 4744
4744 4763 4764 4745
4745 4764 4765 4746
4746 4765 4766 4747
4747 4766 4767 4748
4748 4767 4768 4749
4749 4768 4769 4750
4750 4769 4770 4751
4751 4770 4771 4752
4752 4771 4772 4753
4753 4772 4773 4754
4754 4773 4774 4755
4755 4774 4775 4756
4756 4775 422 421
150 151 4776 4757
4757 4776 4777 4758
4758 4777 4778 4759
4759 4778 4779 4760
4760 4779 4780 4761
4761 4780 4781 4762
4762 4781 4782 4763
4763 4782 4783 4764
4764 4783 4784 4765
4765 4784 4785 4766
4766 4785 4786 4767
4767 4786 4787 4768
4768 4787 4788 4769
4769 4788 4789 4770
4770 4789 4790 4771
4771 4790 4791 4772
4772 4791 4792 4773
4773 4792 4793 4774
4774 4793 4794 4775
4775 4794 423 422
151 152 4795 4776
4776 4795 4796 4777
4777 4796 4797 4778
4778 4797 4798 4779
4779 4798 4799 4780
4780 4799 4800 4781
4781 4800 4801 4782
4782 4801 4802 4783
4783 4802 4803 4784
4784 4803 4804 4785
4785 4804 4805 4786
4786 4805 4806 4787
4787 4806 4807 4788
4788 4807 4808 4789
4789 4808 4809 4790
4790 4809 4810 4791
4791 4810 4811 4792
4792 4811 4812 4793
4793 4812 4813 4794
4794 4813 424 423
152 153 4814 4795
4795 4814 4815 4796
4796 4815 4816 4797
4797 4816 4817 4798
4798 4817 4818 4799
4799 4818 4819 4800
4800 4819 4820 4801
4801 4820 4821 4802
4802 4821 4822 4803
4803 4822 4823 4804
4804 4823 4824 4805
4805 4824 4825 4806
4806 4825 4826 4807
4807 4826 4827 4808
4808 4827 4828 4809
4809 4828 4829 4810
4810 4829 4830 4811
4811 4830 4831 4812
4812 4831 4832 4813
4813 4832 425 424
153 154 4833 4814
4814 4833 4834 4815
4815 4834 4835 4816
4816 4835 4836 4817
4817 4836 4837 4818
4818 4837 4838 4819
4819 4838 4839 4820
4820 4839 4840 4821
4821 4840 4841 4822
4822 4841 4842 4823
4823 4842 4843 4824
4824 4843 4844 4825
4825 4844 4845 4826
4826 4845 4846 4827
4827 4846 4847 4828
4828 4847 4848 4829
4829 4848 4849 4830
4830 4849 4850 4831
4831 4850 4851 4832
4832 4851 426 425
154 155 4852 4833
4833 4852 4853 4834
4834 4853 4854 4835
4835 4854 4855 4836
4836 4855 4856 4837
4837 4856 4857 4838
4838 4857 4858 4839
4839 4858 4859 4840
4840 4859 4860 4841
4841 4860 4861 4842
4842 4861 4862 4843
4843 4862 4863 4844
4844 4863 4864 4845
4845 4864 4865 4846
4846 4865 4866 4847
4847 4866 4867 4848
4848 4867 4868 4849
4849 4868 4869 4850
4850 4869 4870 4851
4851 4870 427 426
155 156 4871 4852
4852 4871 4872 4853
4853 4872 4873 4854
4854 4873 4874 4855
4855 4874 4875 4856
4856 4875 4876 4857
4857 4876 4877 4858
4858 4877 4878 4859
4859 4878 4879 4860
4860 4879 4880 4861
4861 4880 4881 4862
4862 4881 4882 4863
4863 4882 4883 4864
4864 4883 4884 4865
4865 4884 4885 4866
4866 4885 4886 4867
4867 4886 4887 4868
4868 4887 4888 4869
4869 4888 4889 4870
4870 4889 428 427
156 157 4890 4871
4871 4890 4891 4872
4872 4891 4892 4873
4873 4892 4893 4874
4874 4893 4894 4875
4875 4894 4895 4876
4876 4895 4896 4877
4877 4896 4897 4878
4878 4897 4898 4879
4879 4898 4899 4880
4880 4899 4900 4881
4881 4900 4901 4882
4882 4901 4902 4883
4883 4902 4903 4884
4884 4903 4904 4885
4885 4904 4905 4886
4886 4905 4906 4887
4887 4906 4907 4888
4888 4907 4908 4889
4889 4908 429 428
157 158 4909 4890
4890 4909 4910 4891
4891 4910 4911 4892
4892 4911 4912 4893
4893 4912 4913 4894
4894 4913 4914 4895
4895 4914 4915 4896
4896 4915 4916 4897
4897 4916 4917 4898
4898 4917 4918 4899
4899 4918 4919 4900
4900 4919 4920 4901
4901 4920 4921 4902
4902 4921 4922 4903
4903 4922 4923 4904
4904 4923 4924 4905
4905 4924 4925 4906
4906 4925 4926 4907
4907 4926 4927 4908
4908 4927 430 429
158 159 4928 4909
4909 4928 4929 4910
4910 4929 4930 4911
4911 4930 4931 4912
4912 4931 4932 4913
4913 4932 4933 4914
4914 4933 4934 4915
4915 4934 4935 4916
4916 4935 4936 4917
4917 4936 4937 4918
4918 4937 4938 4919
4919 4938 4939 4920
4920 4939 4940 4921
4921 4940 4941 4922
4922 4941 4942 4923
4923 4942 4943 4924
4924 4943 4944 4925
4925 4944 4945 4926
4926 4945 4946 4927
4927 4946 431 430
159 160 4947 4928
4928 4947 4948 4929
4929 4948 4949 4930
4930 4949 4950 4931
4931 4950 4951 4932
4932 4951 4952 4933
4933 4952 4953 4934
4934 4953 4954 4935
4935 4954 4955 4936
4936 4955 4956 4937
4937 4956 4957 4938
4938 4957 4958 4939
4939 4958 4959 4940
4940 4959 4960 4941
4941 4960 4961 4942
4942 4961 4962 4943
4943 4962 4963 4944
4944 4963 4964 4945
4945 4964 4965 4946
4946 4965 432 431
160 161 4966 4947
4947 4966 4967 4948
4948 4967 4968 4949
4949 4968 4969 4950
4950 4969 4970 4951
4951 4970 4971 4952
4952 4971 4972 4953
4953 4972 4973 4954
4954 4973 4974 4955
4955 4974 4975 4956
4956 4975 4976 4957
4957 4976 4977 4958
4958 4977 4978 4959
4959 4978 4979 4960
4960 4979 4980 4961
4961 4980 4981 4962
4962 4981 4982 4963
4963 4982 4983 4964
4964 4983 4984 4965
4965 4984 433 432
161 162 4985 4966
4966 4985 4986 4967
4967 4986 4987 4968
4968 4987 4988 4969
4969 4988 4989 4970
4970 4989 4990 4971
4971 4990 4991 4972
4972 4991 4992 4973
4973 4992 4993 4974
4974 4993 4994 4975
4975 4994 4995 4976
4976 4995 4996 4977
4977 4996 4997 4978
4978 4997 4998 4979
4979 4998 4999 4980
4980 4999 5000 4981
4981 5000 5001 4982
4982 5001 5002 4983
4983 5002 5003 4984
4984 5003 434 433
162 163 5004 4985
4985 5004 5005 4986
4986 5005 5006 4987
4987 5006 5007 4988
4988 5007 5008 4989
4989 5008 5009 4990
4990 5009 5010 4991
4991 5010 5011 4992
4992 5011 5012 4993
4993 5012 5013 4994
4994 5013 5014 4995
4995 5014 5015 4996
4996 5015 5016 4997
4997 5016 5017 4998
4998 5017 5018 4999
4999 5018 5019 5000
5000 5019 5020 5001
5001 5020 5021 5002
5002 5021 5022 5003
5003 5022 435 434
163 164 5023 5004
5004 5023 5024 5005
5005 5024 5025 5006
5006 5025 5026 5007
5007 5026 5027 5008
5008 5027 5028 5009
5009 5028 5029 5010
5010 5029 5030 5011
5011 5030 5031 5012
5012 5031 5032 5013
5013 5032 5033 5014
5014 5033 5034 5015
5015 5034 5035 5016
5016 5035 5036 5017
5017 5036 5037 5018
5018 5037 5038 5019
5019 5038 5039 5020
5020 5039 5040 5021
5021 5040 5041 5022
5022 5041 436 435
164 165 5042 5023
5023 5042 5043 5024
5024 5043 5044 5025
5025 5044 5045 5026
5026 5045 5046 5027
5027 5046 5047 5028
5028 5047 5048 5029
5029 5048 5049 5030
5030 5049 5050 5031
5031 5050 5051 5032
5032 5051 5052 5033
5033 5052 5053 5034
5034 5053 5054 5035
5035 5054 5055 5036
5036 5055 5056 5037
5037 5056 5057 5038
5038 5057 5058 5039
5039 5058 5059 5040
5040 5059 5060 5041
5041 5060 437 436
165 6 242 5042
5042 242 241 5043
5043 241 240 5044
5044 240 239 5045
5045 239 238 5046
5046 238 237 5047
5047 237 236 5048
5048 236 235 5049
5049 235 234 5050
5050 234 233 5051
5051 233 232 5052
5052 232 231 5053
5053 231 230 5054
5054 230 229 5055
5055 229 228 5056
5056 228 227 5057
5057 227 226 5058
5058 226 225 5059
5059 225 224 5060
5060 224 8 437
9 323 5061 400
400 5061 5062 401
401 5062 5063 402
402 5063 5064 403
403 5064 5065 404
404 5065 5066 405
405 5066 5067 406
406 5067 5068 407
407 5068 5069 408
408 5069 5070 409
409 5070 5071 410
410 5071 5072 411
411 5072 5073 412
412 5073 5074 413
413 5074 5075 414
414 5075 5076 415
415 5076 5077 416
416 5077 5078 417
417 5078 5079 418
418 5079 185 7
323 324 5080 5061
5061 5080 5081 5062
5062 5081 5082 5063
5063 5082 5083 5064
5064 5083 5084 5065
5065 5084 5085 5066
5066 5085 5086 5067
5067 5086 5087 5068
5068 5087 5088 5069
5069 5088 5089 5070
5070 5089 5090 5071
5071 5090 5091 5072
5072 5091 5092 5073
5073 5092 5093 5074
5074 5093 5094 5075
5075 5094 5095 5076
5076 5095 5096 5077
5077 5096 5097 5078
5078 5097 5098 5079
5079 5098 186 185
324 325 5099 5080
5080 5099 5100 5081
5081 5100 5101 5082
5082 5101 5102 5083
5083 5102 5103 5084
5084 5103 5104 5085
5085 5104 5105 5086
5086 5105 5106 5087
5087 5106 5107 5088
5088 5107 5108 5089
5089 5108 5109 5090
5090 5109 5110 5091
5091 5110 5111 5092
5092 5111 5112 5093
5093 5112 5113 5094
5094 5113 5114 5095
5095 5114 5115 5096
5096 5115 5116 5097
5097 5116 5117 5098
5098 5117 187 186
325 326 5118 5099
5099 5118 5119 5100
5100 5119 5120 5101
5101 5120 5121 5102
5102 5121 5122 5103
5103 5122 5123 5104
5104 5123 5124 5105
5105 5124 5125 5106
5106 5125 5126 5107
5107 5126 5127 5108
5108 5127 5128 5109
5109 5128 5129 5110
5110 5129 5130 5111
5111 5130 5131 5112
5112 5131 5132 5113
5113 5132 5133 5114
5114 5133 5134 5115
5115 5134 5135 5116
5116 5135 5136 5117
5117 5136 188 187
326 327 5137 5118
5118 5137 5138 5119
5119 5138 5139 5120
5120 5139 5140 5121
5121 5140 5141 5122
5122 5141 5142 5123
5123 5142 5143 5124
5124 5143 5144 5125
5125 5144 5145 5126
5126 5145 5146 5127
5127 5146 5147 5128
5128 5147 5148 5129
5129 5148 5149 5130
5130 5149 5150 5131
5131 5150 5151 5132
5132 5151 5152 5133
5133 5152 5153 5134
5134 5153 5154 5135
5135 5154 5155 5136
5136 5155 189 188
327 328 5156 5137
5137 5156 5157 5138
5138 5157 5158 5139
5139 5158 5159 5140
5140 5159 5160 5141
5141 5160 5161 5142
5142 5161 5162 5143
5143 5162 5163 5144
5144 5163 5164 5145
5145 5164 5165 5146
5146 5165 5166 5147
5147 5166 5167 5148
5148 5167 5168 5149
5149 5168 5169 5150
5150 5169 5170 5151
5151 5170 5171 5152
5152 5171 5172 5153
5153 5172 5173 5154
5154 5173 5174 5155
5155 5174 190 189
328 329 5175 5156
5156 5175 5176 5157
5157 5176 5177 5158
5158 5177 5178 5159
5159 5178 5179 5160
5160 5179 5180 5161
5161 5180 5181 5162
5162 5181 5182 5163
5163 5182 5183 5164
5164 5183 5184 5165
5165 5184 5185 5166
5166 5185 5186 5167
5167 5186 5187 5168
5168 5187 5188 5169
5169 5188 5189 5170
5170 5189 5190 5171
5171 5190 5191 5172
5172 5191 5192 5173
5173 5192 5193 5174
5174 5193 191 190
329 330 5194 5175
5175 5194 5195 5176
5176 5195 5196 5177
5177 5196 5197 5178
5178 5197 5198 5179
5179 5198 5199 5180
5180 5199 5200 5181
5181 5200 5201 5182
5182 5201 5202 5183
5183 5202 5203 5184
5184 5203 5204 5185
5185 5204 5205 5186
5186 5205 5206 5187
5187 5206 5207 5188
5188 5207 5208 5189
5189 5208 5209 5190
5190 5209 5210 5191
5191 5210 5211 5192
5192 5211 5212 5193
5193 5212 192 191
330 331 5213 5194
5194 5213 5214 5195
5195 5214 5215 5196
5196 5215 5216 5197
5197 5216 5217 5198
5198 5217 5218 5199
5199 5218 5219 5200
5200 5219 5220 5201
5201 5220 5221 5202
5202 5221 5222 5203
5203 5222 5223 5204
5204 5223 5224 5205
5205 5224 5225 5206
5206 5225 5226 5207
5207 5226 5227 5208
5208 5227 5228 5209
5209 5228 5229 5210
5210 5229 5230 5211
5211 5230 5231 5212
5212 5231 193 192
331 332 5232 5213
5213 5232 5233 5214
5214 5233 5234 5215
5215 5234 5235 5216
5216 5235 5236 5217
5217 5236 5237 5218
5218 5237 5238 5219
5219 5238 5239 5220
5220 5239 5240 5221
5221 5240 5241 5222
5222 5241 5242 5223
5223 5242 5243 5224
5224 5243 5244 5225
5225 5244 5245 5226
5226 5245 5246 5227
5227 5246 5247 5228
5228 5247 5248 5229
5229 5248 5249 5230
5230 5249 5250 5231
5231 5250 194 193
332 333 5251 5232
5232 5251 5252 5233
5233 5252 5253 5234
5234 5253 5254 5235
5235 5254 5255 5236
5236 5255 5256 5237
5237 5256 5257 5238
5238 5257 5258 5239
5239 5258 5259 5240
5240 5259 5260 5241
5241 5260 5261 5242
5242 5261 5262 5243
5243 5262 5263 5244
5244 5263 5264 5245
5245 5264 5265 5246
5246 5265 5266 5247
5247 5266 5267 5248
5248 5267 5268 5249
5249 5268 5269 5250
5250 5269 195 194
333 334 5270 5251
5251 5270 5271 5252
5252 5271 5272 5253
5253 5272 5273 5254
5254 5273 5274 5255
5255 5274 5275 5256
5256 5275 5276 5257
5257 5276 5277 5258
5258 5277 5278 5259
5259 5278 5279 5260
5260 5279 5280 5261
5261 5280 5281 5262
5262 5281 5282 5263
5263 5282 5283 5264
5264 5283 5284 5265
5265 5284 5285 5266
5266 5285 5286 5267
5267 5286 5287 5268
5268 5287 5288 5269
5269 5288 196 195
334 335 5289 5270
5270 5289 5290 5271
5271 5290 5291 5272
5272 5291 5292 5273
5273 5292 5293 5274
5274 5293 5294 5275
5275 5294 5295 5276
5276 5295 5296 5277
5277 5296 5297 5278
5278 5297 5298 5279
5279 5298 5299 5280
5280 5299 5300 5281
5281 5300 5301 5282
5282 5301 5302 5283
5283 5302 5303 5284
5284 5303 5304 5285
5285 5304 5305 5286
5286 5305 5306 5287
5287 5306 5307 5288
5288 5307 197 196
335 336 5308 5289
5289 5308 5309 5290
5290 5309 5310 5291
5291 5310 5311 5292
5292 5311 5312 5293
5293 5312 5313 5294
5294 5313 5314 5295
5295 5314 5315 5296
5296 5315 5316 5297
5297 5316 5317 5298
5298 5317 5318 5299
5299 5318 5319 5300
5300 5319 5320 5301
5301 5320 5321 5302
5302 5321 5322 5303
5303 5322 5323 5304
5304 5323 5324 5305
5305 5324 5325 5306
5306 5325 5326 5307
5307 5326 198 197
336 337 5327 5308
5308 5327 5328 5309
5309 5328 5329 5310
5310 5329 5330 5311
5311 5330 5331 5312
5312 5331 5332 5313
5313 5332 5333 5314
5314 5333 5334 5315
5315 5334 5335 5316
5316 5335 5336 5317
5317 5336 5337 5318
5318 5337 5338 5319
5319 5338 5339 5320
5320 5339 5340 5321
5321 5340 5341 5322
5322 5341 5342 5323
5323 5342 5343 5324
5324 5343 5344 5325
5325 5344 5345 5326
5326 5345 199 198
337 338 5346 5327
5327 5346 5347 5328
5328 5347 5348 5329
5329 5348 5349 5330
5330 5349 5350 5331
5331 5350 5351 5332
5332 5351 5352 5333
5333 5352 5353 5334
5334 5353 5354 5335
5335 5354 5355 5336
5336 5355 5356 5337
5337 5356 5357 5338
5338 5357 5358 5339
5339 5358 5359 5340
5340 5359 5360 5341
5341 5360 5361 5342
5342 5361 5362 5343
5343 5362 5363 5344
5344 5363 5364 5345
5345 5364 200 199
338 339 5365 5346
5346 5365 5366 5347
5347 5366 5367 5348
5348 5367 5368 5349
5349 5368 5369 5350
5350 5369 5370 5351
5351 5370 5371 5352
5352 5371 5372 5353
5353 5372 5373 5354
5354 5373 5374 5355
5355 5374 5375 5356
5356 5375 5376 5357
5357 5376 5377 5358
5358 5377 5378 5359
5359 5378 5379 5360
5360 5379 5380 5361
5361 5380 5381 5362
5362 5381 5382 5363
5363 5382 5383 5364
5364 5383 201 200
339 340 5384 5365
5365 5384 5385 5366
5366 5385 5386 5367
5367 5386 5387 5368
5368 5387 5388 5369
5369 5388 5389 5370
5370 5389 5390 5371
5371 5390 5391 5372
5372 5391 5392 5373
5373 5392 5393 5374
5374 5393 5394 5375
5375 5394 5395 5376
5376 5395 5396 5377
5377 5396 5397 5378
5378 5397 5398 5379
5379 5398 5399 5380
5380 5399 5400 5381
5381 5400 5401 5382
5382 5401 5402 5383
5383 5402 202 201
340 341 5403 5384
5384 5403 5404 5385
5385 5404 5405 5386
5386 5405 5406 5387
5387 5406 5407 5388
5388 5407 5408 5389
5389 5408 5409 5390
5390 5409 5410 5391
5391 5410 5411 5392
5392 5411 5412 5393
5393 5412 5413 5394
5394 5413 5414 5395
5395 5414 5415 5396
5396 5415 5416 5397
5397 5416 5417 5398
5398 5417 5418 5399
5399 5418 5419 5400
5400 5419 5420 5401
5401 5420 5421 5402
5402 5421 203 202
341 342 5422 5403
5403 5422 5423 5404
5404 5423 5424 5405
5405 5424 5425 5406
5406 5425 5426 5407
5407 5426 5427 5408
5408 5427 5428 5409
5409 5428 5429 5410
5410 5429 5430 5411
5411 5430 5431 5412
5412 5431 5432 5413
5413 5432 5433 5414
5414 5433 5434 5415
5415 5434 5435 5416
5416 5435 5436 5417
5417 5436 5437 5418
5418 5437 5438 5419
5419 5438 5439 5420
5420 5439 5440 5421
5421 5440 204 203
342 343 5441 5422
5422 5441 5442 5423
5423 5442 5443 5424
5424 5443 5444 5425
5425 5444 5445 5426
5426 5445 5446 5427
5427 5446 5447 5428
5428 5447 5448 5429
5429 5448 5449 5430
5430 5449 5450 5431
5431 5450 5451 5432
5432 5451 5452 5433
5433 5452 5453 5434
5434 5453 5454 5435
5435 5454 5455 5436
5436 5455 5456 5437
5437 5456 5457 5438
5438 5457 5458 5439
5439 5458 5459 5440
5440 5459 205 204
343 344 5460 5441
5441 5460 5461 5442
5442 5461 5462 5443
5443 5462 5463 5444
5444 5463 5464 5445
5445 5464 5465 5446
5446 5465 5466 5447
5447 5466 5467 5448
5448 5467 5468 5449
5449 5468 5469 5450
5450 5469 5470 5451
5451 5470 5471 5452
5452 5471 5472 5453
5453 5472 5473 5454
5454 5473 5474 5455
5455 5474 5475 5456
5456 5475 5476 5457
5457 5476 5477 5458
5458 5477 5478 5459
5459 5478 206 205
344 345 5479 5460
5460 5479 5480 5461
5461 5480 5481 5462
5462 5481 5482 5463
5463 5482 5483 5464
5464 5483 5484 5465
5465 5484 5485 5466
5466 5485 5486 5467
5467 5486 5487 5468
5468 5487 5488 5469
5469 5488 5489 5470
5470 5489 5490 5471
5471 5490 5491 5472
5472 5491 5492 5473
5473 5492 5493 5474
5474 5493 5494 5475
5475 5494 5495 5476
5476 5495 5496 5477
5477 5496 5497 5478
5478 5497 207 206
345 346 5498 5479
5479 5498 5499 5480
5480 5499 5500 5481
5481 5500 5501 5482
5482 5501 5502 5483
5483 5502 5503 5484
5484 5503 5504 5485
5485 5504 5505 5486
5486 5505 5506 5487
5487 5506 5507 5488
5488 5507 5508 5489
5489 5508 5509 5490
5490 5509 5510 5491
5491 5510 5511 5492
5492 5511 5512 5493
5493 5512 5513 5494
5494 5513 5514 5495
5495 5514 5515 5496
5496 5515 5516 5497
5497 5516 208 207
346 347 5517 5498
5498 5517 5518 5499
5499 5518 5519 5500
5500 5519 5520 5501
5501 5520 5521 5502
5502 5521 5522 5503
5503 5522 5523 5504
5504 5523 5524 5505
5505 5524 5525 5506
5506 5525 5526 5507
5507 5526 5527 5508
5508 5527 5528 5509
5509 5528 5529 5510
5510 5529 5530 5511
5511 5530 5531 5512
5512 5531 5532 5513
5513 5532 5533 5514
5514 5533 5534 5515
5515 5534 5535 5516
5516 5535 209 208
347 348 5536 5517
5517 5536 5537 5518
5518 5537 5538 5519
5519 5538 5539 5520
5520 5539 5540 5521
5521 5540 5541 5522
5522 5541 5542 5523
5523 5542 5543 5524
5524 5543 5544 5525
5525 5544 5545 5526
5526 5545 5546 5527
5527 5546 5547 5528
5528 5547 5548 5529
5529 5548 5549 5530
5530 5549 5550 5531
5531 5550 5551 5532
5532 5551 5552 5533
5533 5552 5553 5534
5534 5553 5554 5535
5535 5554 210 209
348 349 5555 5536
5536 5555 5556 5537
5537 5556 5557 5538
5538 5557 5558 5539
5539 5558 5559 5540
5540 5559 5560 5541
5541 5560 5561 5542
5542 5561 5562 5543
5543 5562 5563 5544
5544 5563 5564 5545
5545 5564 5565 5546
5546 5565 5566 5547
5547 5566 5567 5548
5548 5567 5568 5549
5549 5568 5569 5550
5550 5569 5570 5551
5551 5570 5571 5552
5552 5571 5572 5553
5553 5572 5573 5554
5554 5573 211 210
349 350 5574 5555
5555 5574 5575 5556
5556 5575 5576 5557
5557 5576 5577 5558
5558 5577 5578 5559
5559 5578 5579 5560
5560 5579 5580 5561
5561 5580 5581 5562
5562 5581 5582 5563
5563 5582 5583 5564
5564 5583 5584 5565
5565 5584 5585 5566
5566 5585 5586 5567
5567 5586 5587 5568
5568 5587 5588 5569
5569 5588 5589 5570
5570 5589 5590 5571
5571 5590 5591 5572
5572 5591 5592 5573
5573 5592 212 211
350 351 5593 5574
5574 5593 5594 5575
5575 5594 5595 5576
5576 5595 5596 5577
5577 5596 5597 5578
5578 5597 5598 5579
5579 5598 5599 5580
5580 5599 5600 5581
5581 5600 5601 5582
5582 5601 5602 5583
5583 5602 5603 5584
5584 5603 5604 5585
5585 5604 5605 5586
5586 5605 5606 5587
5587 5606 5607 5588
5588 5607 5608 5589
5589 5608 5609 5590
5590 5609 5610 5591
5591 5610 5611 5592
5592 5611 213 212
351 352 5612 5593
5593 5612 5613 5594
5594 5613 5614 5595
5595 5614 5615 5596
5596 5615 5616 5597
5597 5616 5617 5598
5598 5617 5618 5599
5599 5618 5619 5600
5600 5619 5620 5601
5601 5620 5621 5602
5602 5621 5622 5603
5603 5622 5623 5604
5604 5623 5624 5605
5605 5624 5625 5606
5606 5625 5626 5607
5607 5626 5627 5608
5608 5627 5628 5609
5609 5628 5629 5610
5610 5629 5630 5611
5611 5630 214 213
352 353 5631 5612
5612 5631 5632 5613
5613 5632 5633 5614
5614 5633 5634 5615
5615 5634 5635 5616
5616 5635 5636 5617
5617 5636 5637 5618
5618 5637 5638 5619
5619 5638 5639 5620
5620 5639 5640 5621
5621 5640 5641 5622
5622 5641 5642 5623
5623 5642 5643 5624
5624 5643 5644 5625
5625 5644 5645 5626
5626 5645 5646 5627
5627 5646 5647 5628
5628 5647 5648 5629
5629 5648 5649 5630
5630 5649 215 214
353 354 5650 5631
5631 5650 5651 5632
5632 5651 5652 5633
5633 5652 5653 5634
5634 5653 5654 5635
5635 5654 5655 5636
5636 5655 5656 5637
5637 5656 5657 5638
5638 5657 5658 5639
5639 5658 5659 5640
5640 5659 5660 5641
5641 5660 5661 5642
5642 5661 5662 5643
5643 5662 5663 5644
5644 5663 5664 5645
5645 5664 5665 5646
5646 5665 5666 5647
5647 5666 5667 5648
5648 5667 5668 5649
5649 5668 216 215
354 355 5669 5650
5650 5669 5670 5651
5651 5670 5671 5652
5652 5671 5672 5653
5653 5672 5673 5654
5654 5673 5674 5655
5655 5674 5675 5656
5656 5675 5676 5657
5657 5676 5677 5658
5658 5677 5678 5659
5659 5678 5679 5660
5660 5679 5680 5661
5661 5680 5681 5662
5662 5681 5682 5663
5663 5682 5683 5664
5664 5683 5684 5665
5665 5684 5685 5666
5666 5685 5686 5667
5667 5686 5687 5668
5668 5687 217 216
355 356 5688 5669
5669 5688 5689 5670
5670 5689 5690 5671
5671 5690 5691 5672
5672 5691 5692 5673
5673 5692 5693 5674
5674 5693 5694 5675
5675 5694 5695 5676
5676 5695 5696 5677
5677 5696 5697 5678
5678 5697 5698 5679
5679 5698 5699 5680
5680 5699 5700 5681
5681 5700 5701 5682
5682 5701 5702 5683
5683 5702 5703 5684
5684 5703 5704 5685
5685 5704 5705 5686
5686 5705 5706 5687
5687 5706 218 217
356 357 5707 5688
5688 5707 5708 5689
5689 5708 5709 5690
5690 5709 5710 5691
5691 5710 5711 5692
5692 5711 5712 5693
5693 5712 5713 5694
5694 5713 5714 5695
5695 5714 5715 5696
5696 5715 5716 5697
5697 5716 5717 5698
5698 5717 5718 5699
5699 5718 5719 5700
5700 5719 5720 5701
5701 5720 5721 5702
5702 5721 5722 5703
5703 5722 5723 5704
5704 5723 5724 5705
5705 5724 5725 5706
5706 5725 219 218
357 358 5726 5707
5707 5726 5727 5708
5708 5727 5728 5709
5709 5728 5729 5710
5710 5729 5730 5711
5711 5730 5731 5712
5712 5731 5732 5713
5713 5732 5733 5714
5714 5733 5734 5715
5715 5734 5735 5716
5716 5735 5736 5717
5717 5736 5737 5718
5718 5737 5738 5719
5719 5738 5739 5720
5720 5739 5740 5721
5721 5740 5741 5722
5722 5741 5742 5723
5723 5742 5743 5724
5724 5743 5744 5725
5725 5744 220 219
358 359 5745 5726
5726 5745 5746 5727
5727 5746 5747 5728
5728 5747 5748 5729
5729 5748 5749 5730
5730 5749 5750 5731
5731 5750 5751 5732
5732 5751 5752 5733
5733 5752 5753 5734
5734 5753 5754 5735
5735 5754 5755 5736
5736 5755 5756 5737
5737 5756 5757 5738
5738 5757 5758 5739
5739 5758 5759 5740
5740 5759 5760 5741
5741 5760 5761 5742
5742 5761 5762 5743
5743 5762 5763 5744
5744 5763 221 220
359 360 5764 5745
5745 5764 5765 5746
5746 5765 5766 5747
5747 5766 5767 5748
5748 5767 5768 5749
5749 5768 5769 5750
5750 5769 5770 5751
5751 5770 5771 5752
5752 5771 5772 5753
5753 5772 5773 5754
5754 5773 5774 5755
5755 5774 5775 5756
5756 5775 5776 5757
5757 5776 5777 5758
5758 5777 5778 5759
5759 5778 5779 5760
5760 5779 5780 5761
5761 5780 5781 5762
5762 5781 5782 5763
5763 5782 222 221
360 361 5783 5764
5764 5783 5784 5765
5765 5784 5785 5766
5766 5785 5786 5767
5767 5786 5787 5768
5768 5787 5788 5769
5769 5788 5789 5770
5770 5789 5790 5771
5771 5790 5791 5772
5772 5791 5792 5773
5773 5792 5793 5774
5774 5793 5794 5775
5775 5794 5795 5776
5776 5795 5796 5777
5777 5796 5797 5778
5778 5797 5798 5779
5779 5798 5799 5780
5780 5799 5800 5781
5781 5800 5801 5782
5782 5801 223 222
361 10 419 5783
5783 419 420 5784
5784 420 421 5785
5785 421 422 5786
5786 422 423 5787
5787 423 424 5788
5788 424 425 5789
5789 425 426 5790
5790 426 427 5791
5791 427 428 5792
5792 428 429 5793
5793 429 430 5794
5794 430 431 5795
5795 431 432 5796
5796 432 433 5797
5797 433 434 5798
5798 434 435 5799
5799 435 436 5800
5800 436 437 5801
5801 437 8 223
</DataArray>
<DataArray type="Int64" Name="offsets" format="ascii">
4
8
12
16
20
24
28
32
36
40
44
48
52
56
60
64
68
72
76
80
84
88
92
96
100
104
108
112
116
120
124
128
132
136
140
144
148
152
156
160
164
168
172
176
180
184
188
192
196
200
204
208
212
216
220
224
228
232
236
240
244
248
252
256
260
264
268
272
276
280
284
288
292
296
300
304
308
312
316
320
324
328
332
336
340
344
348
352
356
360
364
368
372
376
380
384
388
392
396
400
404
408
412
416
420
424
428
432
436
440
444
448
452
456
460
464
468
472
476
480
484
488
492
496
500
504
508
512
516
520
524
528
532
536
540
544
548
552
556
560
564
568
572
576
580
584
588
592
596
600
604
608
612
616
620
624
628
632
636
640
644
648
652
656
660
664
668
672
676
680
684
688
692
696
700
704
708
712
716
720
724
728
732
736
740
744
748
752
756
760
764
768
772
776
780
784
788
792
796
800
804
808
812
816
820
824
828
832
836
840
844
848
852
856
860
864
868
872
876
880
884
888
892
896
900
904
908
912
916
920
924
928
932
936
940
944
948
952
956
960
964
968
972
976
980
984
988
992
996
1000
1004
1008
1012
1016
1020
1024
1028
1032
1036
1040
1044
1048
1052
1056
1060
1064
1068
1072
1076
1080
1084
1088
1092
1096
1100
1104
1108
1112
1116
1120
1124
1128
1132
1136
1140
1144
1148
1152
1156
1160
1164
1168
1172
1176
1180
1184
1188
1192
1196
1200
1204
1208
1212
1216
1220
1224
1228
1232
1236
1240
1244
1248
1252
1256
1260
1264
1268
1272
1276
1280
1284
1288
1292
1296
1300
1304
1308
1312
1316
1320
1324
1328
1332
1336
1340
1344
1348
1352
1356
1360
1364
1368
1372
1376
1380
1384
1388
1392
1396
1400
1404
1408
1412
1416
1420
1424
1428
1432
1436
1440
1444
1448
1452
1456
1460
1464
1468
1472
1476
1480
1484
1488
1492
1496
1500
1504
1508
1512
1516
1520
1524
1528
1532
1536
1540
1544
1548
1552
1556
1560
1564
1568
1572
1576
1580
1584
1588
1592
1596
1600
1604
1608
1612
1616
1620
1624
1628
1632
1636
1640
1644
1648
1652
1656
1660
1664
1668
1672
1676
1680
1684
1688
1692
1696
1700
1704
1708
1712
1716
1720
1724
1728
1732
1736
1740
1744
1748
1752
1756
1760
1764
1768
1772
1776
1780
1784
1788
1792
1796
1800
1804
1808
1812
1816
1820
1824
1828
1832
1836
1840
1844
1848
1852
1856
1860
1864
1868
1872
1876
1880
1884
1888
1892
1896
1900
1904
1908
1912
1916
1920
1924
1928
1932
1936
1940
1944
1948
1952
1956
1960
1964
1968
1972
1976
1980
1984
1988
1992
1996
2000
2004
2008
2012
2016
2020
2024
2028
2032
2036
2040
2044
2048
2052
2056
2060
2064
2068
2072
2076
2080
2084
2088
2092
2096
2100
2104
2108
2112
2116
2120
2124
2128
2132
2136
2140
2144
2148
2152
2156
2160
2164
2168
2172
2176
2180
2184
2188
2192
2196
2200
2204
2208
2212
2216
2220
2224
2228
2232
2236
2240
2244
2248
2252
2256
2260
2264
2268
2272
2276
2280
2284
2288
2292
2296
2300
2304
2308
2312
2316
2320
2324
2328
2332
2336
2340
2344
2348
2352
2356
2360
2364
2368
2372
2376
2380
2384
2388
2392
2396
2400
2404
2408
2412
2416
2420
2424
2428
2432
2436
2440
2444
2448
2452
2456
2460
2464
2468
2472
2476
2480
2484
2488
2492
2496
2500
2504
2508
2512
2516
2520
2524
2528
2532
2536
2540
2544
2548
2552
2556
2560
2564
2568
2572
2576
2580
2584
2588
2592
2596
2600
2604
2608
2612
2616
2620
2624
2628
2632
2636
2640
2644
2648
2652
2656
2660
2664
2668
2672
2676
2680
2684
2688
2692
2696
2700
2704
2708
2712
2716
2720
2724
2728
2732
2736
2740
2744
2748
2752
2756
2760
2764
2768
2772
2776
2780
2784
2788
2792
2796
2800
2804
2808
2812
2816
2820
2824
2828
2832
2836
2840
2844
2848
2852
2856
2860
2864
2868
2872
2876
2880
2884
2888
2892
2896
2900
2904
2908
2912
2916
2920
2924
2928
2932
2936
2940
2944
2948
2952
2956
2960
2964
2968
2972
2976
2980
2984
2988
2992
2996
3000
3004
3008
3012
3016
3020
3024
3028
3032
3036
3040
3044
3048
3052
3056
3060
3064
3068
3072
3076
3080
3084
3088
3092
3096
3100
3104
3108
3112
3116
3120
3124
3128
3132
3136
3140
3144
3148
3152
3156
3160
3164
3168
3172
3176
3180
3184
3188
3192
3196
3200
3204
3208
3212
3216
3220
3224
3228
3232
3236
3240
3244
3248
3252
3256
3260
3264
3268
3272
3276
3280
3284
3288
3292
3296
3300
3304
3308
3312
3316
3320
3324
3328
3332
3336
3340
3344
3348
3352
3356
3360
3364
3368
3372
3376
3380
3384
3388
3392
3396
3400
3404
3408
3412
3416
3420
3424
3428
3432
3436
3440
3444
3448
3452
3456
3460
3464
3468
3472
3476
3480
3484
3488
3492
3496
3500
3504
3508
3512
3516
3520
3524
3528
3532
3536
3540
3544
3548
3552
3556
3560
3564
3568
3572
3576
3580
3584
3588
3592
3596
3600
3604
3608
3612
3616
3620
3624
3628
3632
3636
3640
3644
3648
3652
3656
3660
3664
3668
3672
3676
3680
3684
3688
3692
3696
3700
3704
3708
3712
3716
3720
3724
3728
3732
3736
3740
3744
3748
3752
3756
3760
3764
3768
3772
3776
3780
3784
3788
3792
3796
3800
3804
3808
3812
3816
3820
3824
3828
3832
3836
3840
3844
3848
3852
3856
3860
3864
3868
3872
3876
3880
3884
3888
3892
3896
3900
3904
3908
3912
3916
3920
3924
3928
3932
3936
3940
3944
3948
3952
3956
3960
3964
3968
3972
3976
3980
3984
3988
3992
3996
4000
4004
4008
4012
4016
4020
4024
4028
4032
4036
4040
4044
4048
4052
4056
4060
4064
4068
4072
4076
4080
4084
4088
4092
4096
4100
4104
4108
4112
4116
4120
4124
4128
4132
4136
4140
4144
4148
4152
4156
4160
4164
4168
4172
4176
4180
4184
4188
4192
4196
4200
4204
4208
4212
4216
4220
4224
4228
4232
4236
4240
4244
4248
4252
4256
4260
4264
4268
4272
4276
4280
4284
4288
4292
4296
4300
4304
4308
4312
4316
4320
4324
4328
4332
4336
4340
4344
4348
4352
4356
4360
4364
4368
4372
4376
4380
4384
4388
4392
4396
4400
4404
4408
4412
4416
4420
4424
4428
4432
4436
4440
4444
4448
4452
4456
4460
4464
4468
4472
4476
4480
4484
4488
4492
4496
4500
4504
4508
4512
4516
4520
4524
4528
4532
4536
4540
4544
4548
4552
4556
4560
4564
4568
4572
4576
4580
4584
4588
4592
4596
4600
4604
4608
4612
4616
4620
4624
4628
4632
4636
4640
4644
4648
4652
4656
4660
4664
4668
4672
4676
4680
4684
4688
4692
4696
4700
4704
4708
4712
4716
4720
4724
4728
4732
4736
4740
4744
4748
4752
4756
4760
4764
4768
4772
4776
4780
4784
4788
4792
4796
4800
4804
4808
4812
4816
4820
4824
4828
4832
4836
4840
4844
4848
4852
4856
4860
4864
4868
4872
4876
4880
4884
4888
4892
4896
4900
4904
4908
4912
4916
4920
4924
4928
4932
4936
4940
4944
4948
4952
4956
4960
4964
4968
4972
4976
4980
4984
4988
4992
4996
5000
5004
5008
5012
5016
5020
5024
5028
5032
5036
5040
5044
5048
5052
5056
5060
5064
5068
5072
5076
5080
5084
5088
5092
5096
5100
5104
5108
5112
5116
5120
5124
5128
5132
5136
5140
5144
5148
5152
5156
5160
5164
5168
5172
5176
5180
5184
5188
5192
5196
5200
5204
5208
5212
5216
5220
5224
5228
5232
5236
5240
5244
5248
5252
5256
5260
5264
5268
5272
5276
5280
5284
5288
5292
5296
5300
5304
5308
5312
5316
5320
5324
5328
5332
5336
5340
5344
5348
5352
5356
5360
5364
5368
5372
5376
5380
5384
5388
5392
5396
5400
5404
5408
5412
5416
5420
5424
5428
5432
5436
5440
5444
5448
5452
5456
5460
5464
5468
5472
5476
5480
5484
5488
5492
5496
5500
5504
5508
5512
5516
5520
5524
5528
5532
5536
5540
5544
5548
5552
5556
5560
5564
5568
5572
5576
5580
5584
5588
5592
5596
5600
5604
5608
5612
5616
5620
5624
5628
5632
5636
5640
5644
5648
5652
5656
5660
5664
5668
5672
5676
5680
5684
5688
5692
5696
5700
5704
5708
5712
5716
5720
5724
5728
5732
5736
5740
5744
5748
5752
5756
5760
5764
5768
5772
5776
5780
5784
5788
5792
5796
5800
5804
5808
5812
5816
5820
5824
5828
5832
5836
5840
5844
5848
5852
5856
5860
5864
5868
5872
5876
5880
5884
5888
5892
5896
5900
5904
5908
5912
5916
5920
5924
5928
5932
5936
5940
5944
5948
5952
5956
5960
5964
5968
5972
5976
5980
5984
5988
5992
5996
6000
6004
6008
6012
6016
6020
6024
6028
6032
6036
6040
6044
6048
6052
6056
6060
6064
6068
6072
6076
6080
6084
6088
6092
6096
6100
6104
6108
6112
6116
6120
6124
6128
6132
6136
6140
6144
6148
6152
6156
6160
6164
6168
6172
6176
6180
6184
6188
6192
6196
6200
6204
6208
6212
6216
6220
6224
6228
6232
6236
6240
6244
6248
6252
6256
6260
6264
6268
6272
6276
6280
6284
6288
6292
6296
6300
6304
6308
6312
6316
6320
6324
6328
6332
6336
6340
6344
6348
6352
6356
6360
6364
6368
6372
6376
6380
6384
6388
6392
6396
6400
6404
6408
6412
6416
6420
6424
6428
6432
6436
6440
6444
6448
6452
6456
6460
6464
6468
6472
6476
6480
6484
6488
6492
6496
6500
6504
6508
6512
6516
6520
6524
6528
6532
6536
6540
6544
6548
6552
6556
6560
6564
6568
6572
6576
6580
6584
6588
6592
6596
6600
6604
6608
6612
6616
6620
6624
6628
6632
6636
6640
6644
6648
6652
6656
6660
6664
6668
6672
6676
6680
6684
6688
6692
6696
6700
6704
6708
6712
6716
6720
6724
6728
6732
6736
6740
6744
6748
6752
6756
6760
6764
6768
6772
6776
6780
6784
6788
6792
6796
6800
6804
6808
6812
6816
6820
6824
6828
6832
6836
6840
6844
6848
6852
6856
6860
6864
6868
6872
6876
6880
6884
6888
6892
6896
6900
6904
6908
6912
6916
6920
6924
6928
6932
6936
6940
6944
6948
6952
6956
6960
6964
6968
6972
6976
6980
6984
6988
6992
6996
7000
7004
7008
7012
7016
7020
7024
7028
7032
7036
7040
7044
7048
7052
7056
7060
7064
7068
7072
7076
7080
7084
7088
7092
7096
7100
7104
7108
7112
7116
7120
7124
7128
7132
7136
7140
7144
7148
7152
7156
7160
7164
7168
7172
7176
7180
7184
7188
7192
7196
7200
7204
7208
7212
7216
7220
7224
7228
7232
7236
7240
7244
7248
7252
7256
7260
7264
7268
7272
7276
7280
7284
7288
7292
7296
7300
7304
7308
7312
7316
7320
7324
7328
7332
7336
7340
7344
7348
7352
7356
7360
7364
7368
7372
7376
7380
7384
7388
7392
7396
7400
7404
7408
7412
7416
7420
7424
7428
7432
7436
7440
7444
7448
7452
7456
7460
7464
7468
7472
7476
7480
7484
7488
7492
7496
7500
7504
7508
7512
7516
7520
7524
7528
7532
7536
7540
7544
7548
7552
7556
7560
7564
7568
7572
7576
7580
7584
7588
7592
7596
7600
7604
7608
7612
7616
7620
7624
7628
7632
7636
7640
7644
7648
7652
7656
7660
7664
7668
7672
7676
7680
7684
7688
7692
7696
7700
7704
7708
7712
7716
7720
7724
7728
7732
7736
7740
7744
7748
7752
7756
7760
7764
7768
7772
7776
7780
7784
7788
7792
7796
7800
7804
7808
7812
7816
7820
7824
7828
7832
7836
7840
7844
7848
7852
7856
7860
7864
7868
7872
7876
7880
7884
7888
7892
7896
7900
7904
7908
7912
7916
7920
7924
7928
7932
7936
7940
7944
7948
7952
7956
7960
7964
7968
7972
7976
7980
7984
7988
7992
7996
8000
8004
8008
8012
8016
8020
8024
8028
8032
8036
8040
8044
8048
8052
8056
8060
8064
8068
8072
8076
8080
8084
8088
8092
8096
8100
8104
8108
8112
8116
8120
8124
8128
8132
8136
8140
8144
8148
8152
8156
8160
8164
8168
8172
8176
8180
8184
8188
8192
8196
8200
8204
8208
8212
8216
8220
8224
8228
8232
8236
8240
8244
8248
8252
8256
8260
8264
8268
8272
8276
8280
8284
8288
8292
8296
8300
8304
8308
8312
8316
8320
8324
8328
8332
8336
8340
8344
8348
8352
8356
8360
8364
8368
8372
8376
8380
8384
8388
8392
8396
8400
8404
8408
8412
8416
8420
8424
8428
8432
8436
8440
8444
8448
8452
8456
8460
8464
8468
8472
8476
8480
8484
8488
8492
8496
8500
8504
8508
8512
8516
8520
8524
8528
8532
8536
8540
8544
8548
8552
8556
8560
8564
8568
8572
8576
8580
8584
8588
8592
8596
8600
8604
8608
8612
8616
8620
8624
8628
8632
8636
8640
8644
8648
8652
8656
8660
8664
8668
8672
8676
8680
8684
8688
8692
8696
8700
8704
8708
8712
8716
8720
8724
8728
8732
8736
8740
8744
8748
8752
8756
8760
8764
8768
8772
8776
8780
8784
8788
8792
8796
8800
8804
8808
8812
8816
8820
8824
8828
8832
8836
8840
8844
8848
8852
8856
8860
8864
8868
8872
8876
8880
8884
8888
8892
8896
8900
8904
8908
8912
8916
8920
8924
8928
8932
8936
8940
8944
8948
8952
8956
8960
8964
8968
8972
8976
8980
8984
8988
8992
8996
9000
9004
9008
9012
9016
9020
9024
9028
9032
9036
9040
9044
9048
9052
9056
9060
9064
9068
9072
9076
9080
9084
9088
9092
9096
9100
9104
9108
9112
9116
9120
9124
9128
9132
9136
9140
9144
9148
9152
9156
9160
9164
9168
9172
9176
9180
9184
9188
9192
9196
9200
9204
9208
9212
9216
9220
9224
9228
9232
9236
9240
9244
9248
9252
9256
9260
9264
9268
9272
9276
9280
9284
9288
9292
9296
9300
9304
9308
9312
9316
9320
9324
9328
9332
9336
9340
9344
9348
9352
9356
9360
9364
9368
9372
9376
9380
9384
9388
9392
9396
9400
9404
9408
9412
9416
9420
9424
9428
9432
9436
9440
9444
9448
9452
9456
9460
9464
9468
9472
9476
9480
9484
9488
9492
9496
9500
9504
9508
9512
9516
9520
9524
9528
9532
9536
9540
9544
9548
9552
9556
9560
9564
9568
9572
9576
9580
9584
9588
9592
9596
9600
9604
9608
9612
9616
9620
9624
9628
9632
9636
9640
9644
9648
9652
9656
9660
9664
9668
9672
9676
9680
9684
9688
9692
9696
9700
9704
9708
9712
9716
9720
9724
9728
9732
9736
9740
9744
9748
9752
9756
9760
9764
9768
9772
9776
9780
9784
9788
9792
9796
9800
9804
9808
9812
9816
9820
9824
9828
9832
9836
9840
9844
9848
9852
9856
9860
9864
9868
9872
9876
9880
9884
9888
9892
9896
9900
9904
9908
9912
9916
9920
9924
9928
9932
9936
9940
9944
9948
9952
9956
9960
9964
9968
9972
9976
9980
9984
9988
9992
9996
10000
10004
10008
10012
10016
10020
10024
10028
10032
10036
10040
10044
10048
10052
10056
10060
10064
10068
10072
10076
10080
10084
10088
10092
10096
10100
10104
10108
10112
10116
10120
10124
10128
10132
10136
10140
10144
10148
10152
10156
10160
10164
10168
10172
10176
10180
10184
10188
10192
10196
10200
10204
10208
10212
10216
10220
10224
10228
10232
10236
10240
10244
10248
10252
10256
10260
10264
10268
10272
10276
10280
10284
10288
10292
10296
10300
10304
10308
10312
10316
10320
10324
10328
10332
10336
10340
10344
10348
10352
10356
10360
10364
10368
10372
10376
10380
10384
10388
10392
10396
10400
10404
10408
10412
10416
10420
10424
10428
10432
10436
10440
10444
10448
10452
10456
10460
10464
10468
10472
10476
10480
10484
10488
10492
10496
10500
10504
10508
10512
10516
10520
10524
10528
10532
10536
10540
10544
10548
10552
10556
10560
10564
10568
10572
10576
10580
10584
10588
10592
10596
10600
10604
10608
10612
10616
10620
10624
10628
10632
10636
10640
10644
10648
10652
10656
10660
10664
10668
10672
10676
10680
10684
10688
10692
10696
10700
10704
10708
10712
10716
10720
10724
10728
10732
10736
10740
10744
10748
10752
10756
10760
10764
10768
10772
10776
10780
10784
10788
10792
10796
10800
10804
10808
10812
10816
10820
10824
10828
10832
10836
10840
10844
10848
10852
10856
10860
10864
10868
10872
10876
10880
10884
10888
10892
10896
10900
10904
10908
10912
10916
10920
10924
10928
10932
10936
10940
10944
10948
10952
10956
10960
10964
10968
10972
10976
10980
10984
10988
10992
10996
11000
11004
11008
11012
11016
11020
11024
11028
11032
11036
11040
11044
11048
11052
11056
11060
11064
11068
11072
11076
11080
11084
11088
11092
11096
11100
11104
11108
11112
11116
11120
11124
11128
11132
11136
11140
11144
11148
11152
11156
11160
11164
11168
11172
11176
11180
11184
11188
11192
11196
11200
11204
11208
11212
11216
11220
11224
11228
11232
11236
11240
11244
11248
11252
11256
11260
11264
11268
11272
11276
11280
11284
11288
11292
11296
11300
11304
11308
11312
11316
11320
11324
11328
11332
11336
11340
11344
11348
11352
11356
11360
11364
11368
11372
11376
11380
11384
11388
11392
11396
11400
11404
11408
11412
11416
11420
11424
11428
11432
11436
11440
11444
11448
11452
11456
11460
11464
11468
11472
11476
11480
11484
11488
11492
11496
11500
11504
11508
11512
11516
11520
11524
11528
11532
11536
11540
11544
11548
11552
11556
11560
11564
11568
11572
11576
11580
11584
11588
11592
11596
11600
11604
11608
11612
11616
11620
11624
11628
11632
11636
11640
11644
11648
11652
11656
11660
11664
11668
11672
11676
11680
11684
11688
11692
11696
11700
11704
11708
11712
11716
11720
11724
11728
11732
11736
11740
11744
11748
11752
11756
11760
11764
11768
11772
11776
11780
11784
11788
11792
11796
11800
11804
11808
11812
11816
11820
11824
11828
11832
11836
11840
11844
11848
11852
11856
11860
11864
11868
11872
11876
11880
11884
11888
11892
11896
11900
11904
11908
11912
11916
11920
11924
11928
11932
11936
11940
11944
11948
11952
11956
11960
11964
11968
11972
11976
11980
11984
11988
11992
11996
12000
12004
12008
12012
12016
12020
12024
12028
12032
12036
12040
12044
12048
12052
12056
12060
12064
12068
12072
12076
12080
12084
12088
12092
12096
12100
12104
12108
12112
12116
12120
12124
12128
12132
12136
12140
12144
12148
12152
12156
12160
12164
12168
12172
12176
12180
12184
12188
12192
12196
12200
12204
12208
12212
12216
12220
12224
12228
12232
12236
12240
12244
12248
12252
12256
12260
12264
12268
12272
12276
12280
12284
12288
12292
12296
12300
12304
12308
12312
12316
12320
12324
12328
12332
12336
12340
12344
12348
12352
12356
12360
12364
12368
12372
12376
12380
12384
12388
12392
12396
12400
12404
12408
12412
12416
12420
12424
12428
12432
12436
12440
12444
12448
12452
12456
12460
12464
12468
12472
12476
12480
12484
12488
12492
12496
12500
12504
12508
12512
12516
12520
12524
12528
12532
12536
12540
12544
12548
12552
12556
12560
12564
12568
12572
12576
12580
12584
12588
12592
12596
12600
12604
12608
12612
12616
12620
12624
12628
12632
12636
12640
12644
12648
12652
12656
12660
12664
12668
12672
12676
12680
12684
12688
12692
12696
12700
12704
12708
12712
12716
12720
12724
12728
12732
12736
12740
12744
12748
12752
12756
12760
12764
12768
12772
12776
12780
12784
12788
12792
12796
12800
12804
12808
12812
12816
12820
12824
12828
12832
12836
12840
12844
12848
12852
12856
12860
12864
12868
12872
12876
12880
12884
12888
12892
12896
12900
12904
12908
12912
12916
12920
12924
12928
12932
12936
12940
12944
12948
12952
12956
12960
12964
12968
12972
12976
12980
12984
12988
12992
12996
13000
13004
13008
13012
13016
13020
13024
13028
13032
13036
13040
13044
13048
13052
13056
13060
13064
13068
13072
13076
13080
13084
13088
13092
13096
13100
13104
13108
13112
13116
13120
13124
13128
13132
13136
13140
13144
13148
13152
13156
13160
13164
13168
13172
13176
13180
13184
13188
13192
13196
13200
13204
13208
13212
13216
13220
13224
13228
13232
13236
13240
13244
13248
13252
13256
13260
13264
13268
13272
13276
13280
13284
13288
13292
13296
13300
13304
13308
13312
13316
13320
13324
13328
13332
13336
13340
13344
13348
13352
13356
13360
13364
13368
13372
13376
13380
13384
13388
13392
13396
13400
13404
13408
13412
13416
13420
13424
13428
13432
13436
13440
13444
13448
13452
13456
13460
13464
13468
13472
13476
13480
13484
13488
13492
13496
13500
13504
13508
13512
13516
13520
13524
13528
13532
13536
13540
13544
13548
13552
13556
13560
13564
13568
13572
13576
13580
13584
13588
13592
13596
13600
13604
13608
13612
13616
13620
13624
13628
13632
13636
13640
13644
13648
13652
13656
13660
13664
13668
13672
13676
13680
13684
13688
13692
13696
13700
13704
13708
13712
13716
13720
13724
13728
13732
13736
13740
13744
13748
13752
13756
13760
13764
13768
13772
13776
13780
13784
13788
13792
13796
13800
13804
13808
13812
13816
13820
13824
13828
13832
13836
13840
13844
13848
13852
13856
13860
13864
13868
13872
13876
13880
13884
13888
13892
13896
13900
13904
13908
13912
13916
13920
13924
13928
13932
13936
13940
13944
13948
13952
13956
13960
13964
13968
13972
13976
13980
13984
13988
13992
13996
14000
14004
14008
14012
14016
14020
14024
14028
14032
14036
14040
14044
14048
14052
14056
14060
14064
14068
14072
14076
14080
14084
14088
14092
14096
14100
14104
14108
14112
14116
14120
14124
14128
14132
14136
14140
14144
14148
14152
14156
14160
14164
14168
14172
14176
14180
14184
14188
14192
14196
14200
14204
14208
14212
14216
14220
14224
14228
14232
14236
14240
14244
14248
14252
14256
14260
14264
14268
14272
14276
14280
14284
14288
14292
14296
14300
14304
14308
14312
14316
14320
14324
14328
14332
14336
14340
14344
14348
14352
14356
14360
14364
14368
14372
14376
14380
14384
14388
14392
14396
14400
14404
14408
14412
14416
14420
14424
14428
14432
14436
14440
14444
14448
14452
14456
14460
14464
14468
14472
14476
14480
14484
14488
14492
14496
14500
14504
14508
14512
14516
14520
14524
14528
14532
14536
14540
14544
14548
14552
14556
14560
14564
14568
14572
14576
14580
14584
14588
14592
14596
14600
14604
14608
14612
14616
14620
14624
14628
14632
14636
14640
14644
14648
14652
14656
14660
14664
14668
14672
14676
14680
14684
14688
14692
14696
14700
14704
14708
14712
14716
14720
14724
14728
14732
14736
14740
14744
14748
14752
14756
14760
14764
14768
14772
14776
14780
14784
14788
14792
14796
14800
14804
14808
14812
14816
14820
14824
14828
14832
14836
14840
14844
14848
14852
14856
14860
14864
14868
14872
14876
14880
14884
14888
14892
14896
14900
14904
14908
14912
14916
14920
14924
14928
14932
14936
14940
14944
14948
14952
14956
14960
14964
14968
14972
14976
14980
14984
14988
14992
14996
15000
15004
15008
15012
15016
15020
15024
15028
15032
15036
15040
15044
15048
15052
15056
15060
15064
15068
15072
15076
15080
15084
15088
15092
15096
15100
15104
15108
15112
15116
15120
15124
15128
15132
15136
15140
15144
15148
15152
15156
15160
15164
15168
15172
15176
15180
15184
15188
15192
15196
15200
15204
15208
15212
15216
15220
15224
15228
15232
15236
15240
15244
15248
15252
15256
15260
15264
15268
15272
15276
15280
15284
15288
15292
15296
15300
15304
15308
15312
15316
15320
15324
15328
15332
15336
15340
15344
15348
15352
15356
15360
15364
15368
15372
15376
15380
15384
15388
15392
15396
15400
15404
15408
15412
15416
15420
15424
15428
15432
15436
15440
15444
15448
15452
15456
15460
15464
15468
15472
15476
15480
15484
15488
15492
15496
15500
15504
15508
15512
15516
15520
15524
15528
15532
15536
15540
15544
15548
15552
15556
15560
15564
15568
15572
15576
15580
15584
15588
15592
15596
15600
15604
15608
15612
15616
15620
15624
15628
15632
15636
15640
15644
15648
15652
15656
15660
15664
15668
15672
15676
15680
15684
15688
15692
15696
15700
15704
15708
15712
15716
15720
15724
15728
15732
15736
15740
15744
15748
15752
15756
15760
15764
15768
15772
15776
15780
15784
15788
15792
15796
15800
15804
15808
15812
15816
15820
15824
15828
15832
15836
15840
15844
15848
15852
15856
15860
15864
15868
15872
15876
15880
15884
15888
15892
15896
15900
15904
15908
15912
15916
15920
15924
15928
15932
15936
15940
15944
15948
15952
15956
15960
15964
15968
15972
15976
15980
15984
15988
15992
15996
16000
16004
16008
16012
16016
16020
16024
16028
16032
16036
16040
16044
16048
16052
16056
16060
16064
16068
16072
16076
16080
16084
16088
16092
16096
16100
16104
16108
16112
16116
16120
16124
16128
16132
16136
16140
16144
16148
16152
16156
16160
16164
16168
16172
16176
16180
16184
16188
16192
16196
16200
16204
16208
16212
16216
16220
16224
16228
16232
16236
16240
16244
16248
16252
16256
16260
16264
16268
16272
16276
16280
16284
16288
16292
16296
16300
16304
16308
16312
16316
16320
16324
16328
16332
16336
16340
16344
16348
16352
16356
16360
16364
16368
16372
16376
16380
16384
16388
16392
16396
16400
16404
16408
16412
16416
16420
16424
16428
16432
16436
16440
16444
16448
16452
16456
16460
16464
16468
16472
16476
16480
16484
16488
16492
16496
16500
16504
16508
16512
16516
16520
16524
16528
16532
16536
16540
16544
16548
16552
16556
16560
16564
16568
16572
16576
16580
16584
16588
16592
16596
16600
16604
16608
16612
16616
16620
16624
16628
16632
16636
16640
16644
16648
16652
16656
16660
16664
16668
16672
16676
16680
16684
16688
16692
16696
16700
16704
16708
16712
16716
16720
16724
16728
16732
16736
16740
16744
16748
16752
16756
16760
16764
16768
16772
16776
16780
16784
16788
16792
16796
16800
16804
16808
16812
16816
16820
16824
16828
16832
16836
16840
16844
16848
16852
16856
16860
16864
16868
16872
16876
16880
16884
16888
16892
16896
16900
16904
16908
16912
16916
16920
16924
16928
16932
16936
16940
16944
16948
16952
16956
16960
16964
16968
16972
16976
16980
16984
16988
16992
16996
17000
17004
17008
17012
17016
17020
17024
17028
17032
17036
17040
17044
17048
17052
17056
17060
17064
17068
17072
17076
17080
17084
17088
17092
17096
17100
17104
17108
17112
17116
17120
17124
17128
17132
17136
17140
17144
17148
17152
17156
17160
17164
17168
17172
17176
17180
17184
17188
17192
17196
17200
17204
17208
17212
17216
17220
17224
17228
17232
17236
17240
17244
17248
17252
17256
17260
17264
17268
17272
17276
17280
17284
17288
17292
17296
17300
17304
17308
17312
17316
17320
17324
17328
17332
17336
17340
17344
17348
17352
17356
17360
17364
17368
17372
17376
17380
17384
17388
17392
17396
17400
17404
17408
17412
17416
17420
17424
17428
17432
17436
17440
17444
17448
17452
17456
17460
17464
17468
17472
17476
17480
17484
17488
17492
17496
17500
17504
17508
17512
17516
17520
17524
17528
17532
17536
17540
17544
17548
17552
17556
17560
17564
17568
17572
17576
17580
17584
17588
17592
17596
17600
17604
17608
17612
17616
17620
17624
17628
17632
17636
17640
17644
17648
17652
17656
17660
17664
17668
17672
17676
17680
17684
17688
17692
17696
17700
17704
17708
17712
17716
17720
17724
17728
17732
17736
17740
17744
17748
17752
17756
17760
17764
17768
17772
17776
17780
17784
17788
17792
17796
17800
17804
17808
17812
17816
17820
17824
17828
17832
17836
17840
17844
17848
17852
17856
17860
17864
17868
17872
17876
17880
17884
17888
17892
17896
17900
17904
17908
17912
17916
17920
17924
17928
17932
17936
17940
17944
17948
17952
17956
17960
17964
17968
17972
17976
17980
17984
17988
17992
17996
18000
18004
18008
18012
18016
18020
18024
18028
18032
18036
18040
18044
18048
18052
18056
18060
18064
18068
18072
18076
18080
18084
18088
18092
18096
18100
18104
18108
18112
18116
18120
18124
18128
18132
18136
18140
18144
18148
18152
18156
18160
18164
18168
18172
18176
18180
18184
18188
18192
18196
18200
18204
18208
18212
18216
18220
18224
18228
18232
18236
18240
18244
18248
18252
18256
18260
18264
18268
18272
18276
18280
18284
18288
18292
18296
18300
18304
18308
18312
18316
18320
18324
18328
18332
18336
18340
18344
18348
18352
18356
18360
18364
18368
18372
18376
18380
18384
18388
18392
18396
18400
18404
18408
18412
18416
18420
18424
18428
18432
18436
18440
18444
18448
18452
18456
18460
18464
18468
18472
18476
18480
18484
18488
18492
18496
18500
18504
18508
18512
18516
18520
18524
18528
18532
18536
18540
18544
18548
18552
18556
18560
18564
18568
18572
18576
18580
18584
18588
18592
18596
18600
18604
18608
18612
18616
18620
18624
18628
18632
18636
18640
18644
18648
18652
18656
18660
18664
18668
18672
18676
18680
18684
18688
18692
18696
18700
18704
18708
18712
18716
18720
18724
18728
18732
18736
18740
18744
18748
18752
18756
18760
18764
18768
18772
18776
18780
18784
18788
18792
18796
18800
18804
18808
18812
18816
18820
18824
18828
18832
18836
18840
18844
18848
18852
18856
18860
18864
18868
18872
18876
18880
18884
18888
18892
18896
18900
18904
18908
18912
18916
18920
18924
18928
18932
18936
18940
18944
18948
18952
18956
18960
18964
18968
18972
18976
18980
18984
18988
18992
18996
19000
19004
19008
19012
19016
19020
19024
19028
19032
19036
19040
19044
19048
19052
19056
19060
19064
19068
19072
19076
19080
19084
19088
19092
19096
19100
19104
19108
19112
19116
19120
19124
19128
19132
19136
19140
19144
19148
19152
19156
19160
19164
19168
19172
19176
19180
19184
19188
19192
19196
19200
19204
19208
19212
19216
19220
19224
19228
19232
19236
19240
19244
19248
19252
19256
19260
19264
19268
19272
19276
19280
19284
19288
19292
19296
19300
19304
19308
19312
19316
19320
19324
19328
19332
19336
19340
19344
19348
19352
19356
19360
19364
19368
19372
19376
19380
19384
19388
19392
19396
19400
19404
19408
19412
19416
19420
19424
19428
19432
19436
19440
19444
19448
19452
19456
19460
19464
19468
19472
19476
19480
19484
19488
19492
19496
19500
19504
19508
19512
19516
19520
19524
19528
19532
19536
19540
19544
19548
19552
19556
19560
19564
19568
19572
19576
19580
19584
19588
19592
19596
19600
19604
19608
19612
19616
19620
19624
19628
19632
19636
19640
19644
19648
19652
19656
19660
19664
19668
19672
19676
19680
19684
19688
19692
19696
19700
19704
19708
19712
19716
19720
19724
19728
19732
19736
19740
19744
19748
19752
19756
19760
19764
19768
19772
19776
19780
19784
19788
19792
19796
19800
19804
19808
19812
19816
19820
19824
19828
19832
19836
19840
19844
19848
19852
19856
19860
19864
19868
19872
19876
19880
19884
19888
19892
19896
19900
19904
19908
19912
19916
19920
19924
19928
19932
19936
19940
19944
19948
19952
19956
19960
19964
19968
19972
19976
19980
19984
19988
19992
19996
20000
20004
20008
20012
20016
20020
20024
20028
20032
20036
20040
20044
20048
20052
20056
20060
20064
20068
20072
20076
20080
20084
20088
20092
20096
20100
20104
20108
20112
20116
20120
20124
20128
20132
20136
20140
20144
20148
20152
20156
20160
20164
20168
20172
20176
20180
20184
20188
20192
20196
20200
20204
20208
20212
20216
20220
20224
20228
20232
20236
20240
20244
20248
20252
20256
20260
20264
20268
20272
20276
20280
20284
20288
20292
20296
20300
20304
20308
20312
20316
20320
20324
20328
20332
20336
20340
20344
20348
20352
20356
20360
20364
20368
20372
20376
20380
20384
20388
20392
20396
20400
20404
20408
20412
20416
20420
20424
20428
20432
20436
20440
20444
20448
20452
20456
20460
20464
20468
20472
20476
20480
20484
20488
20492
20496
20500
20504
20508
20512
20516
20520
20524
20528
20532
20536
20540
20544
20548
20552
20556
20560
20564
20568
20572
20576
20580
20584
20588
20592
20596
20600
20604
20608
20612
20616
20620
20624
20628
20632
20636
20640
20644
20648
20652
20656
20660
20664
20668
20672
20676
20680
20684
20688
20692
20696
20700
20704
20708
20712
20716
20720
20724
20728
20732
20736
20740
20744
20748
20752
20756
20760
20764
20768
20772
20776
20780
20784
20788
20792
20796
20800
20804
20808
20812
20816
20820
20824
20828
20832
20836
20840
20844
20848
20852
20856
20860
20864
20868
20872
20876
20880
20884
20888
20892
20896
20900
20904
20908
20912
20916
20920
20924
20928
20932
20936
20940
20944
20948
20952
20956
20960
20964
20968
20972
20976
20980
20984
20988
20992
20996
21000
21004
21008
21012
21016
21020
21024
21028
21032
21036
21040
21044
21048
21052
21056
21060
21064
21068
21072
21076
21080
21084
21088
21092
21096
21100
21104
21108
21112
21116
21120
21124
21128
21132
21136
21140
21144
21148
21152
21156
21160
21164
21168
21172
21176
21180
21184
21188
21192
21196
21200
21204
21208
21212
21216
21220
21224
21228
21232
21236
21240
21244
21248
21252
21256
21260
21264
21268
21272
21276
21280
21284
21288
21292
21296
21300
21304
21308
21312
21316
21320
21324
21328
21332
21336
21340
21344
21348
21352
21356
21360
21364
21368
21372
21376
21380
21384
21388
21392
21396
21400
21404
21408
21412
21416
21420
21424
21428
21432
21436
21440
21444
21448
21452
21456
21460
21464
21468
21472
21476
21480
21484
21488
21492
21496
21500
21504
21508
21512
21516
21520
21524
21528
21532
21536
21540
21544
21548
21552
21556
21560
21564
21568
21572
21576
21580
21584
21588
21592
21596
21600
21604
21608
21612
21616
21620
21624
21628
21632
21636
21640
21644
21648
21652
21656
21660
21664
21668
21672
21676
21680
21684
21688
21692
21696
21700
21704
21708
21712
21716
21720
21724
21728
21732
21736
21740
21744
21748
21752
21756
21760
21764
21768
21772
21776
21780
21784
21788
21792
21796
21800
21804
21808
21812
21816
21820
21824
21828
21832
21836
21840
21844
21848
21852
21856
21860
21864
21868
21872
21876
21880
21884
21888
21892
21896
21900
21904
21908
21912
21916
21920
21924
21928
21932
21936
21940
21944
21948
21952
21956
21960
21964
21968
21972
21976
21980
21984
21988
21992
21996
22000
22004
22008
22012
22016
22020
22024
22028
22032
22036
22040
22044
22048
22052
22056
22060
22064
22068
22072
22076
22080
22084
22088
22092
22096
22100
22104
22108
22112
22116
22120
22124
22128
22132
22136
22140
22144
22148
22152
22156
22160
22164
22168
22172
22176
22180
22184
22188
22192
22196
22200
22204
22208
22212
22216
22220
22224
22228
22232
22236
22240
22244
22248
22252
22256
22260
22264
22268
22272
22276
22280
22284
22288
22292
22296
22300
22304
22308
22312
22316
22320
22324
22328
22332
22336
22340
22344
22348
22352
22356
22360
22364
22368
22372
22376
22380
22384
22388
22392
22396
22400
22404
22408
22412
22416
22420
22424
22428
22432
22436
22440
22444
22448
22452
22456
22460
22464
22468
22472
22476
22480
22484
22488
22492
22496
22500
22504
22508
22512
22516
22520
22524
22528
22532
22536
22540
22544
22548
22552
22556
22560
22564
22568
22572
22576
22580
22584
22588
22592
22596
22600
22604
22608
22612
22616
22620
22624
22628
22632
22636
22640
22644
22648
22652
22656
22660
22664
22668
22672
22676
22680
22684
22688
22692
22696
22700
22704
22708
22712
22716
22720
</DataArray>
<DataArray type="Int64" Name="types" format="ascii">
9
9
9
9
9
9
9
9
9
9
9
9
9
9
9
9
9
9
9
9
9
9
9
9
9
9
9
9
9
9
9
9
9
9
9
9
9
9
9
9
9
9
9
9
9
9
9
9
9
9
9
9
9
9
9
9
9
9
9
9
9
9
9
9
9
9
9
9
9
9
9
9
9
9
9
9
9
9
9
9
9
9
9
9
9
9
9
9
9
9
9
9
9
9
9
9
9
9
9
9
9
9
9
9
9
9
9
9
9
9
9
9
9
9
9
9
9
9
9
9
9
9
9
9
9
9
9
9
9
9
9
9
9
9
9
9
9
9
9
9
9
9
9
9
9
9
9
9
9
9
9
9
9
9
9
9
9
9
9
9
9
9
9
9
9
9
9
9
9
9
9
9
9
9
9
9
9
9
9
9
9
9
9
9
9
9
9
9
9
9
9
9
9
9
9
9
9
9
9
9
9
9
9
9
9
9
9
9
9
9
9
9
9
9
9
9
9
9
9
9
9
9
9
9
9
9
9
9
9
9
9
9
9
9
9
9
9
9
9
9
9
9
9
9
9
9
9
9
9
9
9
9
9
9
9
9
9
9
9
9
9
9
9
9
9
9
9
9
9
9
9
9
9
9
9
9
9
9
9
9
9
9
9
9
9
9
9
9
9
9
9
9
9
9
9
9
9
9
9
9
9
9
9
9
9
9
9
9
9
9
9
9
9
9
9
9
9
9
9
9
9
9
9
9
9
9
9
9
9
9
9
9
9
9
9
9
9
9
9
9
9
9
9
9
9
9
9
9
9
9
9
9
9
9
9
9
9
9
9
9
9
9
9
9
9
9
9
9
9
9
9
9
9
9
9
9
9
9
9
9
9
9
9
9
9
9
9
9
9
9
9
9
9
9
9
9
9
9
9
9
9
9
9
9
9
9
9
9
9
9
9
9
9
9
9
9
9
9
9
9
9
9
9
9
9
9
9
9
9
9
9
9
9
9
9
9
9
9
9
9
9
9
9
9
9
9
9
9
9
9
9
9
9
9
9
9
9
9
9
9
9
9
9
9
9
9
9
9
9
9
9
9
9
9
9
9
9
9
9
9
9
9
9
9
9
9
9
9
9
9
9
9
9
9
9
9
9
9
9
9
9
9
9
9
9
9
9
9
9
9
9
9
9
9
9
9
9
9
9
9
9
9
9
9
9
9
9
9
9
9
9
9
9
9
9
9
9
9
9
9
9
9
9
9
9
9
9
9
9
9
9
9
9
9
9
9
9
9
9
9
9
9
9
9
9
9
9
9
9
9
9
9
9
9
9
9
9
9
9
9
9
9
9
9
9
9
9
9
9
9
9
9
9
9
9
9
9
9
9
9
9
9
9
9
9
9
9
9
9
9
9
9
9
9
9
9
9
9
9
9
9
9
9
9
9
9
9
9
9
9
9
9
9
9
9
9
9
9
9
9
9
9
9
9
9
9
9
9
9
9
9
9
9
9
9
9
9
9
9
9
9
9
9
9
9
9
9
9
9
9
9
9
9
9
9
9
9
9
9
9
9
9
9
9
9
9
9
9
9
9
9
9
9
9
9
9
9
9
9
9
9
9
9
9
9
9
9
9
9
9
9
9
9
9
9
9
9
9
9
9
9
9
9
9
9
9
9
9
9
9
9
9
9
9
9
9
9
9
9
9
9
9
9
9
9
9
9
9
9
9
9
9
9
9
9
9
9
9
9
9
9
9
9
9
9
9
9
9
9
9
9
9
9
9
9
9
9
9
9
9
9
9
9
9
9
9
9
9
9
9
9
9
9
9
9
9
9
9
9
9
9
9
9
9
9
9
9
9
9
9
9
9
9
9
9
9
9
9
9
9
9
9
9
9
9
9
9
9
9
9
9
9
9
9
9
9
9
9
9
9
9
9
9
9
9
9
9
9
9
9
9
9
9
9
9
9
9
9
9
9
9
9
9
9
9
9
9
9
9
9
9
9
9
9
9
9
9
9
9
9
9
9
9
9
9
9
9
9
9
9
9
9
9
9
9
9
9
9
9
9
9
9
9
9
9
9
9
9
9
9
9
9
9
9
9
9
9
9
9
9
9
9
9
9
9
9
9
9
9
9
9
9
9
9
9
9
9
9
9
9
9
9
9
9
9
9
9
9
9
9
9
9
9
9
9
9
9
9
9
9
9
9
9
9
9
9
9
9
9
9
9
9
9
9
9
9
9
9
9
9
9
9
9
9
9
9
9
9
9
9
9
9
9
9
9
9
9
9
9
9
9
9
9
9
9
9
9
9
9
9
9
9
9
9
9
9
9
9
9
9
9
9
9
9
9
9
9
9
9
9
9
9
9
9
9
9
9
9
9
9
9
9
9
9
9
9
9
9
9
9
9
9
9
9
9
9
9
9
9
9
9
9
9
9
9
9
9
9
9
9
9
9
9
9
9
9
9
9
9
9
9
9
9
9
9
9
9
9
9
9
9
9
9
9
9
9
9
9
9
9
9
9
9
9
9
9
9
9
9
9
9
9
9
9
9
9
9
9
9
9
9
9
9
9
9
9
9
9
9
9
9
9
9
9
9
9
9
9
9
9
9
9
9
9
9
9
9
9
9
9
9
9
9
9
9
9
9
9
9
9
9
9
9
9
9
9
9
9
9
9
9
9
9
9
9
9
9
9
9
9
9
9
9
9
9
9
9
9
9
9
9
9
9
9
9
9
9
9
9
9
9
9
9
9
9
9
9
9
9
9
9
9
9
9
9
9
9
9
9
9
9
9
9
9
9
9
9
9
9
9
9
9
9
9
9
9
9
9
9
9
9
9
9
9
9
9
9
9
9
9
9
9
9
9
9
9
9
9
9
9
9
9
9
9
9
9
9
9
9
9
9
9
9
9
9
9
9
9
9
9
9
9
9
9
9
9
9
9
9
9
9
9
9
9
9
9
9
9
9
9
9
9
9
9
9
9
9
9
9
9
9
9
9
9
9
9
9
9
9
9
9
9
9
9
9
9
9
9
9
9
9
9
9
9
9
9
9
9
9
9
9
9
9
9
9
9
9
9
9
9
9
9
9
9
9
9
9
9
9
9
9
9
9
9
9
9
9
9
9
9
9
9
9
9
9
9
9
9
9
9
9
9
9
9
9
9
9
9
9
9
9
9
9
9
9
9
9
9
9
9
9
9
9
9
9
9
9
9
9
9
9
9
9
9
9
9
9
9
9
9
9
9
9
9
9
9
9
9
9
9
9
9
9
9
9
9
9
9
9
9
9
9
9
9
9
9
9
9
9
9
9
9
9
9
9
9
9
9
9
9
9
9
9
9
9
9
9
9
9
9
9
9
9
9
9
9
9
9
9
9
9
9
9
9
9
9
9
9
9
9
9
9
9
9
9
9
9
9
9
9
9
9
9
9
9
9
9
9
9
9
9
9
9
9
9
9
9
9
9
9
9
9
9
9
9
9
9
9
9
9
9
9
9
9
9
9
9
9
9
9
9
9
9
9
9
9
9
9
9
9
9
9
9
9
9
9
9
9
9
9
9
9
9
9
9
9
9
9
9
9
9
9
9
9
9
9
9
9
9
9
9
9
9
9
9
9
9
9
9
9
9
9
9
9
9
9
9
9
9
9
9
9
9
9
9
9
9
9
9
9
9
9
9
9
9
9
9
9
9
9
9
9
9
9
9
9
9
9
9
9
9
9
9
9
9
9
9
9
9
9
9
9
9
9
9
9
9
9
9
9
9
9
9
9
9
9
9
9
9
9
9
9
9
9
9
9
9
9
9
9
9
9
9
9
9
9
9
9
9
9
9
9
9
9
9
9
9
9
9
9
9
9
9
9
9
9
9
9
9
9
9
9
9
9
9
9
9
9
9
9
9
9
9
9
9
9
9
9
9
9
9
9
9
9
9
9
9
9
9
9
9
9
9
9
9
9
9
9
9
9
9
9
9
9
9
9
9
9
9
9
9
9
9
9
9
9
9
9
9
9
9
9
9
9
9
9
9
9
9
9
9
9
9
9
9
9
9
9
9
9
9
9
9
9
9
9
9
9
9
9
9
9
9
9
9
9
9
9
9
9
9
9
9
9
9
9
9
9
9
9
9
9
9
9
9
9
9
9
9
9
9
9
9
9
9
9
9
9
9
9
9
9
9
9
9
9
9
9
9
9
9
9
9
9
9
9
9
9
9
9
9
9
9
9
9
9
9
9
9
9
9
9
9
9
9
9
9
9
9
9
9
9
9
9
9
9
9
9
9
9
9
9
9
9
9
9
9
9
9
9
9
9
9
9
9
9
9
9
9
9
9
9
9
9
9
9
9
9
9
9
9
9
9
9
9
9
9
9
9
9
9
9
9
9
9
9
9
9
9
9
9
9
9
9
9
9
9
9
9
9
9
9
9
9
9
9
9
9
9
9
9
9
9
9
9
9
9
9
9
9
9
9
9
9
9
9
9
9
9
9
9
9
9
9
9
9
9
9
9
9
9
9
9
9
9
9
9
9
9
9
9
9
9
9
9
9
9
9
9
9
9
9
9
9
9
9
9
9
9
9
9
9
9
9
9
9
9
9
9
9
9
9
9
9
9
9
9
9
9
9
9
9
9
9
9
9
9
9
9
9
9
9
9
9
9
9
9
9
9
9
9
9
9
9
9
9
9
9
9
9
9
9
9
9
9
9
9
9
9
9
9
9
9
9
9
9
9
9
9
9
9
9
9
9
9
9
9
9
9
9
9
9
9
9
9
9
9
9
9
9
9
9
9
9
9
9
9
9
9
9
9
9
9
9
9
9
9
9
9
9
9
9
9
9
9
9
9
9
9
9
9
9
9
9
9
9
9
9
9
9
9
9
9
9
9
9
9
9
9
9
9
9
9
9
9
9
9
9
9
9
9
9
9
9
9
9
9
9
9
9
9
9
9
9
9
9
9
9
9
9
9
9
9
9
9
9
9
9
9
9
9
9
9
9
9
9
9
9
9
9
9
9
9
9
9
9
9
9
9
9
9
9
9
9
9
9
9
9
9
9
9
9
9
9
9
9
9
9
9
9
9
9
9
9
9
9
9
9
9
9
9
9
9
9
9
9
9
9
9
9
9
9
9
9
9
9
9
9
9
9
9
9
9
9
9
9
9
9
9
9
9
9
9
9
9
9
9
9
9
9
9
9
9
9
9
9
9
9
9
9
9
9
9
9
9
9
9
9
9
9
9
9
9
9
9
9
9
9
9
9
9
9
9
9
9
9
9
9
9
9
9
9
9
9
9
9
9
9
9
9
9
9
9
9
9
9
9
9
9
9
9
9
9
9
9
9
9
9
9
9
9
9
9
9
9
9
9
9
9
9
9
9
9
9
9
9
9
9
9
9
9
9
9
9
9
9
9
9
9
9
9
9
9
9
9
9
9
9
9
9
9
9
9
9
9
9
9
9
9
9
9
9
9
9
9
9
9
9
9
9
9
9
9
9
9
9
9
9
9
9
9
9
9
9
9
9
9
9
9
9
9
9
9
9
9
9
9
9
9
9
9
9
9
9
9
9
9
9
9
9
9
9
9
9
9
9
9
9
9
9
9
9
9
9
9
9
9
9
9
9
9
9
9
9
9
9
9
9
9
9
9
9
9
9
9
9
9
9
9
9
9
9
9
9
9
9
9
9
9
9
9
9
9
9
9
9
9
9
9
9
9
9
9
9
9
9
9
9
9
9
9
9
9
9
9
9
9
9
9
9
9
9
9
9
9
9
9
9
9
9
9
9
9
9
9
9
9
9
9
9
9
9
9
9
9
9
9
9
9
9
9
9
9
9
9
9
9
9
9
9
9
9
9
9
9
9
9
9
9
9
9
9
9
9
9
9
9
9
9
9
9
9
9
9
9
9
9
9
9
9
9
9
9
9
9
9
9
9
9
9
9
9
9
9
9
9
9
9
9
9
9
9
9
9
9
9
9
9
9
9
9
9
9
9
9
9
9
9
9
9
9
9
9
9
9
9
9
9
9
9
9
9
9
9
9
9
9
9
9
9
9
9
9
9
9
9
9
9
9
9
9
9
9
9
9
9
9
9
9
9
9
9
9
9
9
9
9
9
9
9
9
9
9
9
9
9
9
9
9
9
9
9
9
9
9
9
9
9
9
9
9
9
9
9
9
9
9
9
9
9
9
9
9
9
9
9
9
9
9
9
9
9
9
9
9
9
9
9
9
9
9
9
9
9
9
9
9
9
9
9
9
9
9
9
9
9
9
9
9
9
9
9
9
9
9
9
9
9
9
9
9
9
9
9
9
9
9
9
9
9
9
9
9
9
9
9
9
9
9
9
9
9
9
9
9
9
9
9
9
9
9
9
9
9
9
9
9
9
9
9
9
9
9
9
9
9
9
9
9
9
9
9
9
9
9
9
9
9
9
9
9
9
9
9
9
9
9
9
9
9
9
9
9
9
9
9
9
9
9
9
9
9
9
9
9
9
9
9
9
9
9
9
9
9
9
9
9
9
9
9
9
9
9
9
9
9
9
9
9
9
9
9
9
9
9
9
9
9
9
9
9
9
9
9
9
9
9
9
9
9
9
9
9
9
9
9
9
9
9
9
9
9
9
9
9
9
9
9
9
9
9
9
9
9
9
9
9
9
9
9
9
9
9
9
9
9
9
9
9
9
9
9
9
9
9
9
9
9
9
9
9
9
9
9
9
9
9
9
9
9
9
9
9
9
9
9
9
9
9
9
9
9
9
9
9
9
9
9
9
9
9
9
9
9
9
9
9
9
9
9
9
9
9
9
9
9
9
9
9
9
9
9
9
9
9
9
9
9
9
9
9
9
9
9
9
9
9
9
9
9
9
9
9
9
9
9
9
9
9
9
9
9
9
9
9
9
9
9
9
9
9
9
9
9
9
9
9
9
9
9
9
9
9
9
9
9
9
9
9
9
9
9
9
9
9
9
9
9
9
9
9
9
9
9
9
9
9
9
9
9
9
9
9
9
9
9
9
9
9
9
9
9
9
9
9
9
9
9
9
9
9
9
9
9
9
9
9
9
9
9
9
9
9
9
9
9
9
9
9
9
9
9
9
9
9
9
9
9
9
9
9
9
9
9
9
9
9
9
9
9
9
9
9
9
9
9
9
9
9
9
9
9
9
9
9
9
9
9
9
9
9
9
9
9
9
9
9
9
9
9
9
9
9
9
9
9
9
9
9
9
9
9
9
9
9
9
9
9
9
9
9
9
9
9
9
9
9
9
9
9
9
9
9
9
9
9
9
9
9
9
9
9
9
9
9
9
9
9
9
9
9
9
9
9
9
9
9
9
9
9
9
9
9
9
9
9
9
9
9
9
9
9
9
9
9
9
9
9
9
9
9
9
9
9
9
9
9
9
9
9
9
9
9
9
9
9
9
9
9
9
9
9
9
9
9
9
9
9
9
9
9
9
9
9
9
9
9
9
9
9
9
9
9
9
9
9
9
9
9
9
9
9
9
9
9
9
9
9
9
9
9
9
9
9
9
9
9
9
9
9
9
9
9
9
9
9
9
9
9
9
9
9
9
9
9
9
9
9
9
9
9
9
9
9
9
9
9
9
9
9
9
9
9
9
9
9
9
9
9
9
9
9
9
9
9
9
9
9
9
9
9
9
9
9
9
9
9
9
9
9
9
9
9
9
9
9
9
9
9
9
9
9
9
9
9
9
9
9
9
9
9
9
9
9
9
9
9
9
9
9
9
9
9
9
9
9
9
9
9
9
9
9
9
9
9
9
9
9
9
9
9
9
9
9
9
9
9
9
9
9
9
9
9
9
9
9
9
9
9
9
9
9
9
9
9
9
9
9
9
9
9
9
9
9
9
9
9
9
9
9
9
9
9
9
9
9
9
9
9
9
9
9
9
9
9
9
9
9
9
9
9
9
9
9
9
9
9
9
9
9
9
9
9
9
9
9
9
9
9
9
9
9
9
9
9
9
9
9
9
9
9
9
9
9
9
9
9
9
9
9
9
9
9
9
9
9
9
9
9
9
9
9
9
9
9
9
9
9
9
9
9
9
9
9
9
9
9
9
9
9
9
9
9
9
9
9
9
9
9
9
9
9
9
9
9
9
9
9
9
9
9
9
9
9
9
9
9
9
9
9
9
9
9
9
9
9
9
9
9
9
9
9
9
9
9
9
9
9
9
9
9
9
9
9
9
9
9
9
9
9
9
9
9
9
9
9
9
9
9
9
9
9
9
9
9
9
9
9
9
9
9
9
9
9
9
9
9
9
9
9
9
9
9
9
9
9
9
9
9
9
9
9
9
9
9
9
9
9
9
9
9
9
9
9
9
9
9
9
9
9
9
9
9
9
9
9
9
9
9
9
9
9
9
9
9
9
9
9
9
9
9
9
9
9
9
9
9
9
9
9
9
9
9
9
9
9
9
9
9
9
9
9
9
9
9
9
9
9
9
9
9
9
9
9
9
9
9
9
9
9
9
9
9
9
9
9
9
9
9
9
9
9
9
9
9
9
9
9
9
9
9
9
9
9
9
9
9
9
9
9
9
9
9
9
9
9
9
9
9
9
9
9
9
9
9
9
9
9
9
9
9
9
9
9
9
9
9
9
9
9
9
9
9
9
9
9
9
9
9
9
9
9
9
9
9
9
9
9
9
9
9
9
9
9
9
9
9
9
9
9
9
9
9
9
9
9
9
9
9
9
9
9
9
9
9
9
9
9
9
9
9
9
9
9
9
9
9
9
9
9
9
9
9
9
9
9
9
9
9
9
9
9
9
9
9
9
9
9
9
9
9
9
9
9
9
9
9
9
9
9
9
9
9
9
9
9
9
9
9
9
9
9
9
9
9
9
9
9
9
9
9
9
9
9
9
9
9
9
9
9
9
9
9
9
9
9
9
9
9
9
9
9
9
9
9
9
9
9
9
9
9
9
9
9
9
9
9
9
9
9
9
9
9
9
9
9
9
9
9
9
9
9
9
9
9
9
9
9
9
9
9
9
9
9
9
9
9
9
9
9
9
9
9
9
9
9
9
9
9
9
9
9
9
9
9
9
9
9
9
9
9
9
9
9
9
9
9
9
9
9
9
9
9
9
9
9
9
9
9
9
9
9
9
9
9
9
9
9
9
9
9
9
9
9
9
9
9
9
9
9
9
9
9
9
9
9
9
9
9
9
9
9
9
9
9
9
9
9
9
9
9
9
9
9
9
9
9
9
9
9
9
9
9
9
9
9
9
9
9
9
9
9
9
9
9
9
9
9
9
9
9
9
9
9
9
9
9
9
9
9
9
9
9
9
9
9
9
9
9
9
9
9
9
9
9
9
9
9
9
9
9
9
9
9
9
9
9
9
9
9
9
9
9
9
9
9
9
9
9
9
9
9
9
9
9
9
9
9
9
9
9
9
9
9
9
9
9
9
9
9
9
9
9
9
9
9
9
9
9
9
9
9
9
9
9
9
9
9
9
9
9
9
9
9
9
9
9
9
9
9
9
9
9
9
9
9
9
9
9
9
9
9
9
9
9
9
9
9
9
9
9
9
9
9
9
9
9
9
9
9
9
9
9
9
9
9
9
9
9
9
9
9
9
9
9
9
9
9
9
9
9
9
9
9
9
9
9
9
9
9
9
9
9
9
9
9
9
9
9
9
9
9
9
9
9
9
9
9
9
9
9
9
9
9
9
9
9
9
9
9
9
9
9
9
9
9
9
9
9
9
9
9
9
9
9
9
9
9
9
9
9
9
9
9
9
9
9
9
9
9
9
9
9
9
9
9
9
9
9
9
9
9
9
9
9
9
9
9
9
9
9
9
9
9
9
9
9
9
9
9
9
9
9
9
9
9
9
9
9
9
9
9
9
9
9
9
9
9
9
9
9
9
9
9
9
9
9
9
9
9
9
9
9
9
9
9
9
9
9
9
9
9
9
9
9
9
9
9
9
9
9
9
9
9
9
9
9
9
9
9
9
9
9
9
9
9
9
9
9
9
9
9
9
9
9
9
9
9
9
9
9
9
9
9
9
9
9
9
9
9
9
9
9
9
9
9
9
9
9
9
9
9
9
9
9
9
9
9
9
9
9
9
9
9
9
9
9
9
9
9
9
9
9
9
9
9
9
9
9
9
9
9
9
9
9
9
9
9
9
9
9
9
9
9
9
9
9
9
9
9
9
9
9
9
9
9
9
9
9
9
9
9
9
9
9
9
9
9
9
9
9
9
9
9
9
9
9
9
9
9
9
9
9
9
9
9
9
9
9
9
9
9
9
9
9
9
9
9
9
9
9
9
9
9
9
9
9
9
9
9
9
9
9
9
9
9
9
9
9
9
9
9
9
9
9
9
9
9
9
9
9
9
9
9
9
9
9
9
9
9
9
9
9
9
9
9
9
9
9
9
9
9
9
9
9
9
9
9
9
9
9
9
9
9
9
9
9
9
9
9
9
9
9
9
9
9
9
9
9
9
9
9
9
9
9
9
9
9
9
9
9
9
9
9
9
9
9
9
9
9
9
9
9
9
9
9
9
9
9
9
9
9
9
9
9
9
9
9
9
9
9
9
9
9
9
9
9
9
9
9
9
9
9
9
9
9
9
9
9
9
9
9
9
9
9
9
9
9
9
9
9
9
9
9
9
9
9
9
9
9
9
9
9
9
9
9
9
9
9
9
9
9
9
9
9
9
9
9
9
9
9
9
9
9
9
9
9
9
9
9
9
9
9
9
9
9
9
9
9
9
9
9
9
9
9
9
9
9
9
9
9
9
9
9
9
9
9
9
9
9
9
9
9
9
9
9
9
9
9
9
9
9
9
9
9
9
9
9
9
9
9
9
9
9
9
9
9
9
9
9
9
9
9
9
9
9
9
9
9
9
9
9
9
9
9
9
9
9
9
9
9
9
9
9
9
9
9
9
9
9
9
9
9
9
9
9
9
9
9
9
9
9
9
9
9
9
9
9
9
9
9
9
9
9
9
9
9
9
9
9
9
9
9
9
9
9
9
9
9
9
9
9
9
9
9
9
9
9
9
9
9
9
9
9
9
9
9
9
9
9
9
9
9
9
9
9
9
9
9
9
9
9
9
9
9
9
9
9
9
9
9
9
9
9
9
9
9
9
9
9
9
9
9
9
9
9
9
9
9
9
9
9
9
9
9
9
9
9
9
9
9
9
9
9
9
9
9
9
9
9
9
9
9
9
9
9
9
9
9
9
9
9
9
9
9
9
9
9
9
9
9
9
9
9
9
9
9
9
9
9
9
9
9
9
9
9
9
9
9
9
9
9
9
9
9
9
9
9
9
9
9
9
9
9
9
9
9
9
9
9
9
9
9
9
9
9
9
9
9
9
9
9
9
9
9
9
9
9
9
9
9
9
9
9
9
9
9
9
9
9
9
9
9
9
9
9
9
9
9
9
9
9
9
9
9
9
9
9
9
9
9
9
9
9
9
9
9
9
9
9
9
9
9
9
9
9
9
9
9
9
9
9
9
9
9
9
9
9
9
9
9
9
9
9
9
9
9
9
9
9
9
9
9
9
9
9
9
9
9
9
9
9
9
9
9
9
9
9
9
9
9
9
9
9
9
9
9
9
9
9
9
9
9
9
9
9
9
9
9
9
9
9
9
9
9
9
9
9
9
9
9
9
9
9
9
9
9
9
9
9
9
9
9
9
9
9
9
9
9
9
9
9
9
9
9
9
9
9
9
9
9
9
9
9
9
9
9
9
9
9
9
9
9
9
9
9
9
9
9
9
9
9
9
9
9
9
9
9
9
9
9
9
9
9
9
9
9
9
9
9
9
9
9
9
9
9
9
9
9
9
9
9
9
9
9
9
9
9
9
9
9
9
9
9
9
9
9
9
9
9
9
9
9
9
9
9
9
9
9
9
9
9
9
9
9
9
9
9
9
9
9
9
9
9
9
9
9
9
9
9
9
9
9
9
9
9
9
9
9
9
9
9
9
9
9
9
9
9
9
9
9
9
9
9
9
9
9
9
9
9
9
9
9
9
9
9
9
9
9
9
9
9
9
9
9
9
9
9
9
9
9
9
9
9
9
9
9
9
9
9
9
9
9
9
9
9
9
9
9
9
9
9
9
9
9
9
9
9
9
9
9
9
9
9
9
9
9
9
9
9
9
9
9
9
9
9
9
9
9
9
9
9
9
9
9
9
9
9
9
9
9
9
9
9
9
9
9
9
9
9
9
9
9
9
9
9
9
9
9
9
9
9
9
9
9
9
9
9
9
9
9
9
9
9
9
9
9
9
9
9
9
9
9
9
9
9
9
9
9
9
9
9
9
9
9
9
9
9
9
9
9
9
9
9
9
9
9
9
9
9
9
9
9
9
9
9
9
9
9
9
9
9
9
9
9
9
9
9
9
9
9
9
9
9
9
9
9
9
9
9
9
9
9
9
9
9
9
9
9
9
9
9
9
9
9
9
9
9
9
9
9
9
9
9
9
9
9
9
9
9
9
9
9
9
9
9
9
9
9
9
9
9
9
9
9
9
9
9
9
9
9
9
9
9
9
9
9
9
9
9
9
9
9
9
9
9
9
9
9
9
9
9
9
9
9
9
9
9
9
9
9
9
9
9
9
9
9
9
9
9
9
9
9
9
9
9
9
9
9
9
9
9
9
9
9
9
9
9
9
9
9
9
9
9
9
9
9
9
9
9
9
9
9
9
9
9
9
9
9
9
9
9
9
9
9
9
9
9
9
9
9
9
9
9
9
9
9
9
9
9
9
9
9
9
9
9
9
9
9
9
9
9
9
9
9
9
9
9
9
9
9
9
9
9
9
9
9
9
9
9
9
9
9
9
9
9
9
9
9
9
9
9
9
9
9
9
9
9
9
9
</DataArray>
</Cells>
<PointData Vectors="'U'">
<DataArray type="Float64" Name="U" NumberOfComponents="2" ComponentName0="U1" ComponentName1="U2" format="ascii">
-0.2032650965243E-37 -0.5199310472849E-37
-0.2973144639564E-37 -0.3278972484989E-37
-0.2000212004189E-37  0.5117336425622E-37
-0.7705937508065E-02 -0.3525395152752E-01
 0.1752619607516E-03 -0.1599694923044E-01
 0.1378922091915E-01 -0.1944632734749E-01
 0.2126446443320E-01 -0.4404306277063E-01
-0.2020940036684E+00 -0.3568748241052E+00
 0.3936487282534E+00 -0.3408109126925E+00
-0.2721523495768E+00 -0.5553059087166E+00
 0.4399678834367E+00 -0.4942599626126E+00
-0.1561616599700E-37 -0.8128276328543E-37
-0.1691382523142E-37 -0.7279086984752E-37
-0.1704281275386E-37 -0.6815438671328E-37
-0.1705769795096E-37 -0.6502306519073E-37
-0.1712006320475E-37 -0.6265707863793E-37
-0.1724736301649E-37 -0.6074084116133E-37
-0.1743126716073E-37 -0.5911340782288E-37
-0.1766046922918E-37 -0.5768307409006E-37
-0.1792519449825E-37 -0.5639353539428E-37
-0.1821773943773E-37 -0.5520830849446E-37
-0.1853217514847E-37 -0.5410276850471E-37
-0.1886394966350E-37 -0.5305975265201E-37
-0.1920955007872E-37 -0.5206698761652E-37
-0.1956624429118E-37 -0.5111550654041E-37
-0.1993188924036E-37 -0.5019863989810E-37
-0.2030478936219E-37 -0.4931134877628E-37
-0.2068359162735E-37 -0.4844977183774E-37
-0.2106720683589E-37 -0.4761090940161E-37
-0.2145474850064E-37 -0.4679239633310E-37
-0.2184561395840E-37 -0.4599242484334E-37
-0.2223774774202E-37 -0.4522323882683E-37
-0.2263169628550E-37 -0.4447063051521E-37
-0.2302718317252E-37 -0.4373343518806E-37
-0.2342385089212E-37 -0.4301069460906E-37
-0.2382138552761E-37 -0.4230155608176E-37
-0.2421950741978E-37 -0.4160524017145E-37
-0.2461796313503E-37 -0.4092101250419E-37
-0.2501651862162E-37 -0.4024816445405E-37
-0.2541495377349E-37 -0.3958599697353E-37
-0.2581305801810E-37 -0.3893380856164E-37
-0.2621062686521E-37 -0.3829088530591E-37
-0.2660745929248E-37 -0.3765649239213E-37
-0.2700335567238E-37 -0.3702986829818E-37
-0.2739811626802E-37 -0.3641022003816E-37
-0.2779154021733E-37 -0.3579671937066E-37
-0.2818342481590E-37 -0.3518850090306E-37
-0.2857356532109E-37 -0.3458465930166E-37
-0.2896175495250E-37 -0.3398424834905E-37
-0.2934778520078E-37 -0.3338628017019E-37
-0.3011252850587E-37 -0.3219351040111E-37
-0.3049082217302E-37 -0.3159652283565E-37
-0.3086611995901E-37 -0.3099760635328E-37
-0.3123821778869E-37 -0.3039556368245E-37
-0.3160691659915E-37 -0.2978915632927E-37
-0.3197202419190E-37 -0.2917710470380E-37
-0.3233335724335E-37 -0.2855808845742E-37
-0.3269074367494E-37 -0.2793074498463E-37
-0.3304402504690E-37 -0.2729366953307E-37
-0.3339305928219E-37 -0.2664541363062E-37
-0.3373772361710E-37 -0.2598448304847E-37
-0.3407791775341E-37 -0.2530933546076E-37
-0.3441356742132E-37 -0.2461837566721E-37
-0.3474462816599E-37 -0.2390995043073E-37
-0.3507108935326E-37 -0.2318234278105E-37
-0.3539297863580E-37 -0.2243376329347E-37
-0.3571036659237E-37 -0.2166234126420E-37
-0.3602337252220E-37 -0.2086610781734E-37
-0.3633217146546E-37 -0.2004298617606E-37
-0.3663688328177E-37 -0.1919068957484E-37
-0.3694075867391E-37 -0.1827794600973E-37
-0.3724157323003E-37 -0.1733027659052E-37
-0.3753969482139E-37 -0.1634494015673E-37
-0.3783567423361E-37 -0.1531887323272E-37
-0.3813014807323E-37 -0.1424869119080E-37
-0.3842382918203E-37 -0.1313063495862E-37
-0.3871748464342E-37 -0.1196051243914E-37
-0.3901188854585E-37 -0.1073364497982E-37
-0.3930772881656E-37 -0.9444840102556E-38
-0.3960543161939E-37 -0.8088441637974E-38
-0.3990484273009E-37 -0.6658557462065E-38
-0.4020466283425E-37 -0.5149755351255E-38
-0.4050150471607E-37 -0.3558868418097E-38
-0.4078852135865E-37 -0.1889668888540E-38
-0.4105434221561E-37 -0.1654115486061E-39
-0.4128746393491E-37  0.1534749782981E-38
-0.4151517842202E-37  0.2956036073383E-38
-0.4205194158631E-37  0.3193960920901E-38
-0.4523472672221E-37 -0.1773424121013E-38
-0.7430288994566E-02 -0.3018617945001E-01
-0.6886253419675E-02 -0.2722013816697E-01
-0.6336872924255E-02 -0.2516960188572E-01
-0.5834256745624E-02 -0.2362813756983E-01
-0.5374125518141E-02 -0.2240695647127E-01
-0.4945108925846E-02 -0.2140558543510E-01
-0.4537675451255E-02 -0.2056545473086E-01
-0.4145202869923E-02 -0.1984969336613E-01
-0.3763304256424E-02 -0.1923352521866E-01
-0.3389079576499E-02 -0.1869937370280E-01
-0.3020574661188E-02 -0.1823420955422E-01
-0.2656433987730E-02 -0.1782802818185E-01
-0.2295688428630E-02 -0.1747292994444E-01
-0.1937624275001E-02 -0.1716253412401E-01
-0.1581705919164E-02 -0.1689159359439E-01
-0.1227531500754E-02 -0.1665573141782E-01
-0.8748138860390E-03 -0.1645125657581E-01
-0.5233888364511E-03 -0.1627503179233E-01
-0.1732642508463E-03 -0.1612436705480E-01
 0.5173600129649E-03 -0.1589256972947E-01
 0.8599223282150E-03 -0.1580554966372E-01
 0.1202633286794E-02 -0.1573461275647E-01
 0.1545483603514E-02 -0.1567848432061E-01
 0.1888489759272E-02 -0.1563593687407E-01
 0.2231678345481E-02 -0.1560585009055E-01
 0.2575073496553E-02 -0.1558721163231E-01
 0.2918691640440E-02 -0.1557911282940E-01
 0.3262539325424E-02 -0.1558074220647E-01
 0.3606612209518E-02 -0.1559137919736E-01
 0.3950895041383E-02 -0.1561038852101E-01
 0.4295362290700E-02 -0.1563721536049E-01
 0.4639978710477E-02 -0.1567138128762E-01
 0.4984700208185E-02 -0.1571248085758E-01
 0.5329474901731E-02 -0.1576017879502E-01
 0.5674243960143E-02 -0.1581420764469E-01
 0.6018943048375E-02 -0.1587436593308E-01
 0.6363503419825E-02 -0.1594051666226E-01
 0.6707853150859E-02 -0.1601258615628E-01
 0.7051918392101E-02 -0.1609056321462E-01
 0.7395624607310E-02 -0.1617449854726E-01
 0.7738897833212E-02 -0.1626450449052E-01
 0.8081665916812E-02 -0.1636075499725E-01
 0.8423859687496E-02 -0.1646348590043E-01
 0.8765414098617E-02 -0.1657299548004E-01
 0.9106269311668E-02 -0.1668964535851E-01
 0.9446371602944E-02 -0.1681386172481E-01
 0.9785674583836E-02 -0.1694613711831E-01
 0.1012413979627E-01 -0.1708703251484E-01
 0.1046173749974E-01 -0.1723718007749E-01
 0.1079844726271E-01 -0.1739728654032E-01
 0.1113425824969E-01 -0.1756813728364E-01
 0.1146916958690E-01 -0.1775060143987E-01
 0.1180319012267E-01 -0.1794563786200E-01
 0.1213633727696E-01 -0.1815430189655E-01
 0.1246863480145E-01 -0.1837775296539E-01
 0.1280010754370E-01 -0.1861726062897E-01
 0.1313076798063E-01 -0.1887420879908E-01
 0.1346059881764E-01 -0.1915004120871E-01
 0.1412339808975E-01 -0.1977204720248E-01
 0.1445816392061E-01 -0.2012409257729E-01
 0.1479332481335E-01 -0.2050501287929E-01
 0.1512889425298E-01 -0.2091769078305E-01
 0.1546503425672E-01 -0.2136546539918E-01
 0.1580202070055E-01 -0.2185224461045E-01
 0.1614024345436E-01 -0.2238264725412E-01
 0.1648023130150E-01 -0.2296219942103E-01
 0.1682270302745E-01 -0.2359761441916E-01
 0.1716865421896E-01 -0.2429720208442E-01
 0.1751950261930E-01 -0.2507149325292E-01
 0.1787732337606E-01 -0.2593421949416E-01
 0.1824523300758E-01 -0.2690393912956E-01
 0.1862798876280E-01 -0.2800687356212E-01
 0.1903282413099E-01 -0.2928215038946E-01
 0.1947023045202E-01 -0.3079210348487E-01
 0.1995291796957E-01 -0.3264396441072E-01
 0.2048643785339E-01 -0.3503973384934E-01
 0.2101668053665E-01 -0.3841517533548E-01
-0.1242630663738E+00 -0.1320425455378E+00
-0.1911121042880E+00 -0.1997072447715E+00
-0.2467050307416E+00 -0.2405404701046E+00
-0.2922735508118E+00 -0.2642477058226E+00
-0.3291507561407E+00 -0.2764018592434E+00
-0.3580896647688E+00 -0.2810561800010E+00
-0.3797563516501E+00 -0.2805204128394E+00
-0.3946400506890E+00 -0.2762901366174E+00
-0.4030910522101E+00 -0.2696531612470E+00
-0.4053985939940E+00 -0.2617034120910E+00
-0.4019042359563E+00 -0.2535082059042E+00
-0.3930159164069E+00 -0.2461385012753E+00
-0.3795163290262E+00 -0.2414062356709E+00
-0.3627759983889E+00 -0.2409523468595E+00
-0.3434042846855E+00 -0.2449486139156E+00
-0.3213808988650E+00 -0.2537850612407E+00
-0.2963047820826E+00 -0.2679975934421E+00
-0.2680066729039E+00 -0.2886911809751E+00
-0.2366236089911E+00 -0.3175106171492E+00
-0.1854975956244E+00 -0.3794263827104E+00
-0.1679996632968E+00 -0.4057928086889E+00
-0.1494661643631E+00 -0.4362519570548E+00
-0.1296607712571E+00 -0.4714922885558E+00
-0.1082400450054E+00 -0.5126671868864E+00
-0.8463802588750E-01 -0.5618662333575E+00
-0.5699362852686E-01 -0.6233108036859E+00
-0.2576705774432E-01 -0.6972133644705E+00
 0.5096922975195E-02 -0.7776149263744E+00
 0.3286701121547E-01 -0.8592634201246E+00
 0.5645638969979E-01 -0.9387406583966E+00
 0.7556625368828E-01 -0.1013479474242E+01
 0.9029635299073E-01 -0.1081477127707E+01
 0.1009683266103E+00 -0.1141146572726E+01
 0.1080375634612E+00 -0.1191229110743E+01
 0.1120484255411E+00 -0.1230745016375E+01
 0.1136103951459E+00 -0.1258959559039E+01
 0.1133868867044E+00 -0.1275360664145E+01
 0.1120930648199E+00 -0.1279646395055E+01
 0.1105011950269E+00 -0.1271716271192E+01
 0.1094354918621E+00 -0.1251682356719E+01
 0.1096753033516E+00 -0.1219924681894E+01
 0.1119092102625E+00 -0.1177043147818E+01
 0.1167417140196E+00 -0.1123863499984E+01
 0.1246901492597E+00 -0.1061466945637E+01
 0.1361689772102E+00 -0.9912315483950E+00
 0.1514543477012E+00 -0.9149026928771E+00
 0.1706101985968E+00 -0.8347136391001E+00
 0.1933216487895E+00 -0.7536151676693E+00
 0.2184368178332E+00 -0.6758207577321E+00
 0.2431671795805E+00 -0.6084867127129E+00
 0.2656540126044E+00 -0.5549386457561E+00
 0.2863251849075E+00 -0.5116038241928E+00
 0.3053090263085E+00 -0.4750535199047E+00
 0.3226899592568E+00 -0.4436666305113E+00
 0.3387678920374E+00 -0.4165394688500E+00
 0.3537684194076E+00 -0.3930534897649E+00
 0.3678530568388E+00 -0.3727681934955E+00
 0.3811316547290E+00 -0.3553832616867E+00
 0.4191115793898E+00 -0.3163608504194E+00
 0.4415672553865E+00 -0.2999319200077E+00
 0.4609134416989E+00 -0.2898216335330E+00
 0.4769090427583E+00 -0.2847006591663E+00
 0.4895468716998E+00 -0.2834882276927E+00
 0.4990220038809E+00 -0.2853538191489E+00
 0.5054042157465E+00 -0.2895785108652E+00
 0.5084075125683E+00 -0.2956766223949E+00
 0.5070977139407E+00 -0.3029432894115E+00
 0.5007696539155E+00 -0.3105067100868E+00
 0.4890343723579E+00 -0.3171608347825E+00
 0.4715189539448E+00 -0.3219798239139E+00
 0.4478998605256E+00 -0.3239258487216E+00
 0.4178054967220E+00 -0.3216955436510E+00
 0.3807081343445E+00 -0.3137948027456E+00
 0.3359331101063E+00 -0.2978234137127E+00
 0.2827721607166E+00 -0.2695224887565E+00
 0.2199144734041E+00 -0.2231239983246E+00
 0.1462486959824E+00 -0.1485828099449E+00
-0.2710695852718E-03 -0.4772333032537E-03
-0.4246392830819E-03 -0.8166936146062E-03
-0.5245408196854E-03 -0.1134165140322E-02
-0.5827163478349E-03 -0.1440545061032E-02
-0.6074705503430E-03 -0.1742817749288E-02
-0.6033064179064E-03 -0.2044740684512E-02
-0.5736041490963E-03 -0.2348705813498E-02
-0.5208347541889E-03 -0.2656429804849E-02
-0.4469513146740E-03 -0.2969255999322E-02
-0.3535328194369E-03 -0.3288333454915E-02
-0.2418951009004E-03 -0.3614725324804E-02
-0.1131609291176E-03 -0.3949483335149E-02
 0.3169130619603E-04 -0.4293716271142E-02
 0.1917894506809E-03 -0.4648647567223E-02
 0.3663260038814E-03 -0.5015655723438E-02
 0.5545613231782E-03 -0.5396413723670E-02
 0.7557807613935E-03 -0.5792958411604E-02
 0.9693051293608E-03 -0.6207938478011E-02
 0.1194467287791E-02 -0.6645271274586E-02
 0.1429712556404E-02 -0.7111206021690E-02
 0.1671188209851E-02 -0.7610589426062E-02
 0.1913900016025E-02 -0.8144292025856E-02
 0.2153102423943E-02 -0.8711124343250E-02
 0.2384537674873E-02 -0.9310023255140E-02
 0.2604134325251E-02 -0.9941009495862E-02
 0.2807633689845E-02 -0.1060536852568E-01
 0.2990284569798E-02 -0.1130553984123E-01
 0.3146601896923E-02 -0.1204499392052E-01
 0.3270087694775E-02 -0.1282811141673E-01
 0.3352949435830E-02 -0.1365962599997E-01
 0.3386400012478E-02 -0.1454407278253E-01
 0.3361219055069E-02 -0.1548758375080E-01
 0.3266857199864E-02 -0.1650023129583E-01
 0.3090124721497E-02 -0.1759669695885E-01
 0.2813647172276E-02 -0.1879847709577E-01
 0.2413702452356E-02 -0.2013821997477E-01
 0.1852838804802E-02 -0.2166966606982E-01
 0.1076828621515E-02 -0.2348724299819E-01
-0.6664309162943E-04 -0.2578545387206E-01
-0.1696180648132E-02 -0.2917148253497E-01
 0.1448196463809E-01 -0.3734905107203E-01
 0.1238611410848E-01 -0.3356776950254E-01
 0.1079823454462E-01 -0.3096497933865E-01
 0.9595120916567E-02 -0.2888663914920E-01
 0.8614795537325E-02 -0.2712221135602E-01
 0.7800122225741E-02 -0.2556873327710E-01
 0.7111776711183E-02 -0.2416710637830E-01
 0.6525148279335E-02 -0.2288108689816E-01
 0.6022475201165E-02 -0.2168662985174E-01
 0.5590554318943E-02 -0.2056725690895E-01
 0.5219099116568E-02 -0.1951173909859E-01
 0.4899349721128E-02 -0.1851336761187E-01
 0.4623225754415E-02 -0.1756661847285E-01
 0.4383757529681E-02 -0.1666568185588E-01
 0.4175340150545E-02 -0.1580543651326E-01
 0.3993451514216E-02 -0.1498201470846E-01
 0.3834369233802E-02 -0.1419291260441E-01
 0.3694893089593E-02 -0.1343708526808E-01
 0.3571958272564E-02 -0.1271495195105E-01
 0.3462090895967E-02 -0.1202789710979E-01
 0.3360863712996E-02 -0.1137667327432E-01
 0.3263037140565E-02 -0.1075843142180E-01
 0.3164391369982E-02 -0.1016538050598E-01
 0.3063505850552E-02 -0.9589928456445E-02
 0.2960101081196E-02 -0.9027708611326E-02
 0.2853869373952E-02 -0.8475862223677E-02
 0.2744438917219E-02 -0.7932227640900E-02
 0.2631366097680E-02 -0.7395037633981E-02
 0.2514130421695E-02 -0.6862854238494E-02
 0.2392086983576E-02 -0.6334386173339E-02
 0.2264432820898E-02 -0.5808444910145E-02
 0.2130154279190E-02 -0.5283871423475E-02
 0.1987950767683E-02 -0.4759441551047E-02
 0.1836132874279E-02 -0.4233759059111E-02
 0.1672449514893E-02 -0.3705093096667E-02
 0.1493865381180E-02 -0.3171100229001E-02
 0.1295907283350E-02 -0.2628350295927E-02
 0.1072352805138E-02 -0.2071220623799E-02
 0.8104667123151E-03 -0.1488805697386E-02
 0.4917300928077E-03 -0.8646359716409E-03
-0.2600697968629E+00 -0.5758783927170E+00
-0.2471562981614E+00 -0.5967785892487E+00
-0.2333161839121E+00 -0.6177873785198E+00
-0.2185207804476E+00 -0.6387168781118E+00
-0.2027598118457E+00 -0.6593750518144E+00
-0.1860381673161E+00 -0.6795649606540E+00
-0.1683749023534E+00 -0.6990870925961E+00
-0.1498024937332E+00 -0.7177437629589E+00
-0.1303661949133E+00 -0.7353418345310E+00
-0.1101232999635E+00 -0.7516953790238E+00
-0.8914226795364E-01 -0.7666301274315E+00
-0.6750134304883E-01 -0.7799868889496E+00
-0.4528703787820E-01 -0.7916239202937E+00
-0.2259262178594E-01 -0.8014186226568E+00
 0.4833128721423E-03 -0.8092687964097E+00
 0.2383821230279E-01 -0.8150935991416E+00
 0.4736678815239E-01 -0.8188342167252E+00
 0.7096215571799E-01 -0.8204543164680E+00
 0.9451689788729E-01 -0.8199403065078E+00
 0.1179240857470E+00 -0.8173014113954E+00
 0.1410782872435E+00 -0.8125695625839E+00
 0.1638765806503E+00 -0.8057990368398E+00
 0.1862196084831E+00 -0.7970659268061E+00
 0.2080126917340E+00 -0.7864673781140E+00
 0.2291670148439E+00 -0.7741205725592E+00
 0.2496008818379E+00 -0.7601614142461E+00
 0.2692410281295E+00 -0.7447428867448E+00
 0.2880239456109E+00 -0.7280330315243E+00
 0.3058971888529E+00 -0.7102124537832E+00
 0.3228205218054E+00 -0.6914713562906E+00
 0.3387668115500E+00 -0.6720059628864E+00
 0.3537224857868E+00 -0.6520141445802E+00
 0.3676873230512E+00 -0.6316902268128E+00
 0.3806733164836E+00 -0.6112197742948E+00
 0.3927031451499E+00 -0.5907772837522E+00
 0.4038086891054E+00 -0.5705248165107E+00
 0.4140298327726E+00 -0.5506102975792E+00
 0.4234141385074E+00 -0.5311690615295E+00
 0.4320198965343E+00 -0.5123305390465E+00
-0.2734476818924E+00 -0.5250086959835E+00
-0.2730914385450E+00 -0.4943050538398E+00
-0.2713426147419E+00 -0.4631775361639E+00
-0.2684161521222E+00 -0.4317875072107E+00
-0.2644314485036E+00 -0.4002877455742E+00
-0.2594321258648E+00 -0.3688038915643E+00
-0.2533895111213E+00 -0.3374379587030E+00
-0.2462195076943E+00 -0.3062773556576E+00
-0.2377815243522E+00 -0.2754287753047E+00
-0.2279607265949E+00 -0.2450347173738E+00
-0.2166684032356E+00 -0.2152629665676E+00
-0.2037510418082E+00 -0.1863133215395E+00
-0.1889859738131E+00 -0.1584214563754E+00
-0.1720714912915E+00 -0.1318491721630E+00
-0.1526299021311E+00 -0.1068769369741E+00
-0.1302195164313E+00 -0.8379741284609E-01
-0.1043413223380E+00 -0.6290720010486E-01
-0.7443554179778E-01 -0.4449316186996E-01
-0.3985480986714E-01 -0.2880662783813E-01
 0.4349938087031E+00 -0.4717295880683E+00
 0.4280824548628E+00 -0.4481004891110E+00
 0.4195150619509E+00 -0.4234139098328E+00
 0.4095375661099E+00 -0.3978635602257E+00
 0.3983013720695E+00 -0.3716406583213E+00
 0.3858800193048E+00 -0.3449110409531E+00
 0.3722692536444E+00 -0.3178167612264E+00
 0.3574042537734E+00 -0.2904842155204E+00
 0.3411599204344E+00 -0.2630553173526E+00
 0.3234318716591E+00 -0.2357049563492E+00
 0.3041362309119E+00 -0.2086317684442E+00
 0.2831263953663E+00 -0.1820616155879E+00
 0.2601900440829E+00 -0.1562499362787E+00
 0.2350400377731E+00 -0.1314707613896E+00
 0.2073182401973E+00 -0.1080075425051E+00
 0.1766081709494E+00 -0.8614449242901E-01
 0.1424447795433E+00 -0.6615502944649E-01
 0.1043178399909E+00 -0.4828226983236E-01
 0.6165479762632E-01 -0.3270283989442E-01
-0.2799246609255E+00 -0.5519083251013E+00
-0.2867031137576E+00 -0.5471938650169E+00
-0.2923527867966E+00 -0.5412243767356E+00
-0.2967948900869E+00 -0.5340655801812E+00
-0.2999677116841E+00 -0.5257854505795E+00
-0.3018199146274E+00 -0.5164633773887E+00
-0.3023095290868E+00 -0.5061938964982E+00
-0.3014058714151E+00 -0.4950891951232E+00
-0.2990928541091E+00 -0.4832804805274E+00
-0.2953731140688E+00 -0.4709183233650E+00
-0.2902726019036E+00 -0.4581718231441E+00
-0.2838453116262E+00 -0.4452263374670E+00
-0.2761777015584E+00 -0.4322794276831E+00
-0.2673920841030E+00 -0.4195346270346E+00
-0.2576478608517E+00 -0.4071926862107E+00
-0.2471391105290E+00 -0.3954402619147E+00
-0.2360870187501E+00 -0.3844367530105E+00
-0.2247284282303E+00 -0.3743019220887E+00
-0.2133010810856E+00 -0.3651050278216E+00
 0.4472098129272E+00 -0.4896243061874E+00
 0.4533981184863E+00 -0.4840107879591E+00
 0.4584307119600E+00 -0.4775306676792E+00
 0.4622718230852E+00 -0.4702849243458E+00
 0.4649076607978E+00 -0.4623713029495E+00
 0.4663388132196E+00 -0.4538920145351E+00
 0.4665782469268E+00 -0.4449559596142E+00
 0.4656519206282E+00 -0.4356793232645E+00
 0.4636002108457E+00 -0.4261849160622E+00
 0.4604794081491E+00 -0.4166005264677E+00
 0.4563628075894E+00 -0.4070563798218E+00
 0.4513410486884E+00 -0.3976817958679E+00
 0.4455214162849E+00 -0.3886011870337E+00
 0.4390258818684E+00 -0.3799296442251E+00
 0.4319878186830E+00 -0.3717684997404E+00
 0.4245476624971E+00 -0.3642014139810E+00
 0.4168481658268E+00 -0.3572914863697E+00
 0.4090313719489E+00 -0.3510800656195E+00
 0.4012367881143E+00 -0.3455850565518E+00
-0.2275549733661E-03 -0.4032996782356E-03
-0.3941417515161E-03 -0.7755222464253E-03
-0.4938894316984E-03 -0.1108639512707E-02
-0.5529210231907E-03 -0.1429452934617E-02
-0.5774704244133E-03 -0.1744207884636E-02
-0.5727810662640E-03 -0.2057360682006E-02
-0.5422174627919E-03 -0.2371595927383E-02
-0.4883397403899E-03 -0.2688846340913E-02
-0.4131301803391E-03 -0.3010605469789E-02
-0.3181904856678E-03 -0.3338133647238E-02
-0.2048472263109E-03 -0.3672578643597E-02
-0.7422699219571E-04 -0.4015058123638E-02
 0.7269435282681E-04 -0.4366733192903E-02
 0.2350530949737E-03 -0.4728869185723E-02
 0.4120569418693E-03 -0.5102878347872E-02
 0.6029906246935E-03 -0.5490461211751E-02
 0.8071782009131E-03 -0.5893674363266E-02
 0.1024011552179E-02 -0.6315181970666E-02
 0.1252894075435E-02 -0.6758630825880E-02
 0.1492210851820E-02 -0.7228313456330E-02
 0.1737838261636E-02 -0.7726773846185E-02
 0.1984410333274E-02 -0.8254569450984E-02
 0.2226923542066E-02 -0.8811350432715E-02
 0.2461001486197E-02 -0.9396868528964E-02
 0.2682517089736E-02 -0.1001150939279E-01
 0.2887145317231E-02 -0.1065644866176E-01
 0.3070012440065E-02 -0.1133363613157E-01
 0.3225423316371E-02 -0.1204573781464E-01
 0.3346547968125E-02 -0.1279602016674E-01
 0.3425234054115E-02 -0.1358828218028E-01
 0.3452568137824E-02 -0.1442697766005E-01
 0.3419214183246E-02 -0.1531754598034E-01
 0.3314171072056E-02 -0.1626770563166E-01
 0.3123426670570E-02 -0.1728853199010E-01
 0.2828417773677E-02 -0.1839584894786E-01
 0.2402513867244E-02 -0.1961278089077E-01
 0.1806374047620E-02 -0.2097502597298E-01
 0.9623198364364E-03 -0.2253772402960E-01
-0.2416024480733E-03 -0.2441407390600E-01
-0.2447487990581E-02 -0.2667085433528E-01
-0.1978334282728E-03 -0.3708888370761E-03
-0.3605680606436E-03 -0.7407285656334E-03
-0.4630418365596E-03 -0.1088017507155E-02
-0.5221194488325E-03 -0.1420353089296E-02
-0.5466398708418E-03 -0.1746303514565E-02
-0.5414336110689E-03 -0.2069776936838E-02
-0.5100697233267E-03 -0.2393642051432E-02
-0.4551358705494E-03 -0.2719913552061E-02
-0.3786541409612E-03 -0.3050175319169E-02
-0.2822455279046E-03 -0.3385757997263E-02
-0.1672483069721E-03 -0.3727865656549E-02
-0.3479329707814E-04 -0.4077658785737E-02
 0.1141452605812E-03 -0.4436329220905E-02
 0.2787109216824E-03 -0.4805160847185E-02
 0.4581245778099E-03 -0.5185570001784E-02
 0.6516913225380E-03 -0.5579241541724E-02
 0.8587661326849E-03 -0.5988180451263E-02
 0.1078772724996E-02 -0.6414885119082E-02
 0.1311000083562E-02 -0.6862365249568E-02
 0.1553586470347E-02 -0.7333538744736E-02
 0.1802277887601E-02 -0.7829706666616E-02
 0.2051635990254E-02 -0.8351126432223E-02
 0.2296531147759E-02 -0.8897827390616E-02
 0.2532447992628E-02 -0.9470006678561E-02
 0.2755126405164E-02 -0.1006823827242E-01
 0.2960097127126E-02 -0.1069356000431E-01
 0.3142304728615E-02 -0.1134748844688E-01
 0.3295805888861E-02 -0.1203200591320E-01
 0.3413483760775E-02 -0.1274954605894E-01
 0.3486988364067E-02 -0.1350316336416E-01
 0.3507218066328E-02 -0.1429665663378E-01
 0.3464406290186E-02 -0.1513433688663E-01
 0.3346849140589E-02 -0.1602176302269E-01
 0.3139488409047E-02 -0.1696650627978E-01
 0.2821861260788E-02 -0.1797886101698E-01
 0.2364655648762E-02 -0.1907299514508E-01
 0.1720260778300E-02 -0.2026758684640E-01
 0.8084204237336E-03 -0.2159131234128E-01
-0.5575305430416E-03 -0.2306019566881E-01
-0.2939706576896E-02 -0.2474746027708E-01
-0.1763280076467E-03 -0.3543752068945E-03
-0.3293609971421E-03 -0.7177263100220E-03
-0.4318415710406E-03 -0.1071691324986E-02
-0.4909945898056E-03 -0.1413788461305E-02
-0.5152136531162E-03 -0.1749360604302E-02
-0.5094781440911E-03 -0.2082231004357E-02
-0.4773118300862E-03 -0.2415032133641E-02
-0.4213509962268E-03 -0.2749785090789E-02
-0.3436363597236E-03 -0.3088089888630E-02
-0.2458061808171E-03 -0.3431307109436E-02
-0.1292080170444E-03 -0.3780666859383E-02
 0.5023202672047E-05 -0.4137348400191E-02
 0.1559140160362E-03 -0.4502551883091E-02
 0.3226130649734E-03 -0.4877555629122E-02
 0.5043500372132E-03 -0.5263749974546E-02
 0.7004417006325E-03 -0.5662761577804E-02
 0.9102531119357E-03 -0.6076470868690E-02
 0.1133165419254E-02 -0.6507071561954E-02
 0.1368260238493E-02 -0.6956911006766E-02
 0.1613414274927E-02 -0.7427937494413E-02
 0.1864317777572E-02 -0.7920714339610E-02
 0.2115581546893E-02 -0.8435271221034E-02
 0.2362035364352E-02 -0.8971773092444E-02
 0.2599033864827E-02 -0.9530617486343E-02
 0.2822148330161E-02 -0.1011243383186E-01
 0.3026720244302E-02 -0.1071809577508E-01
 0.3207476642210E-02 -0.1134873637042E-01
 0.3358221630990E-02 -0.1200577418116E-01
 0.3471599295060E-02 -0.1269097867327E-01
 0.3539086661501E-02 -0.1340669761503E-01
 0.3551320491379E-02 -0.1415588304542E-01
 0.3497976328696E-02 -0.1494159292420E-01
 0.3366521885930E-02 -0.1576739468948E-01
 0.3140668905014E-02 -0.1663774935939E-01
 0.2798113727054E-02 -0.1755826296976E-01
 0.2306099322886E-02 -0.1853559669665E-01
 0.1612779368809E-02 -0.1957769443827E-01
 0.6267308451401E-03 -0.2069115950180E-01
-0.8474396636595E-03 -0.2188184644365E-01
-0.3161545231442E-02 -0.2326145432919E-01
-0.1597257956533E-03 -0.3455596549223E-03
-0.3015669530554E-03 -0.7035333605107E-03
-0.4013336653740E-03 -0.1060308234792E-02
-0.4598576755861E-03 -0.1409728728595E-02
-0.4835118596060E-03 -0.1753604596906E-02
-0.4771102103119E-03 -0.2094888999965E-02
-0.4441038123207E-03 -0.2435923165280E-02
-0.3871155710354E-03 -0.2778594525584E-02
-0.3081936888666E-03 -0.3124464111264E-02
-0.2089834745840E-03 -0.3474879177660E-02
-0.9083842899793E-04 -0.3831066364684E-02
 0.4510363113153E-04 -0.4194199351922E-02
 0.1978691024161E-03 -0.4565464195587E-02
 0.3666086465278E-03 -0.4946109810408E-02
 0.5505542842239E-03 -0.5337471729097E-02
 0.7490216873953E-03 -0.5741079034988E-02
 0.9613540108458E-03 -0.6158626332773E-02
 0.1186829888327E-02 -0.6591947091829E-02
 0.1424294527829E-02 -0.7042799671241E-02
 0.1671395243210E-02 -0.7512433622550E-02
 0.1923809324187E-02 -0.8000945745290E-02
 0.2176242753938E-02 -0.8508193892175E-02
 0.2423531090910E-02 -0.9034353232363E-02
 0.2660916944555E-02 -0.9579868227922E-02
 0.2883792919874E-02 -0.1014533137172E-01
 0.3087290711891E-02 -0.1073143468422E-01
 0.3265906284256E-02 -0.1133897475000E-01
 0.3413202869280E-02 -0.1196890430935E-01
 0.3521612342648E-02 -0.1262243308452E-01
 0.3582427535260E-02 -0.1330124127038E-01
 0.3585976550476E-02 -0.1400741372561E-01
 0.3521346236862E-02 -0.1474280979240E-01
 0.3375153661976E-02 -0.1550926896348E-01
 0.3129953115855E-02 -0.1630874922670E-01
 0.2761749539006E-02 -0.1714325943268E-01
 0.2235542303724E-02 -0.1801465434611E-01
 0.1496871808852E-02 -0.1892433869157E-01
 0.4531457100537E-03 -0.1987366068395E-01
-0.1054793306833E-02 -0.2088356558045E-01
-0.3205196066370E-02 -0.2206996711300E-01
-0.1461940100259E-03 -0.3410002293974E-03
-0.2769530587593E-03 -0.6953975993331E-03
-0.3721737304650E-03 -0.1053422454478E-02
-0.4290855236403E-03 -0.1408199614200E-02
-0.4517915779575E-03 -0.1759098579688E-02
-0.4445316645892E-03 -0.2107875177792E-02
-0.4106009928811E-03 -0.2456434946428E-02
-0.3525614553558E-03 -0.2806456920768E-02
-0.2724438291214E-03 -0.3159402986159E-02
-0.1718895567773E-03 -0.3516569797000E-02
-0.5225237050383E-04 -0.3879151587968E-02
 0.8532882799374E-04 -0.4248293022403E-02
 0.2398794452136E-03 -0.4625144357929E-02
 0.4105483843584E-03 -0.5010902541007E-02
 0.5965620876219E-03 -0.5406822209946E-02
 0.7972191040939E-03 -0.5814301495526E-02
 0.1011809071860E-02 -0.6234811839171E-02
 0.1239471992503E-02 -0.6669823523558E-02
 0.1478821291142E-02 -0.7120598246988E-02
 0.1727315746957E-02 -0.7587869895100E-02
 0.1980644512763E-02 -0.8071424995498E-02
 0.2233621803256E-02 -0.8570987436162E-02
 0.2481111254187E-02 -0.9086678447178E-02
 0.2718261709767E-02 -0.9618898721259E-02
 0.2940291811731E-02 -0.1016814549469E-01
 0.3142120958155E-02 -0.1073492292833E-01
 0.3318017067672E-02 -0.1131973482458E-01
 0.3461319773040E-02 -0.1192314594318E-01
 0.3564264780996E-02 -0.1254588753051E-01
 0.3617950156899E-02 -0.1318903582699E-01
 0.3612384317867E-02 -0.1385388132899E-01
 0.3536098190739E-02 -0.1454124548172E-01
 0.3374954653023E-02 -0.1525159606285E-01
 0.3110565918702E-02 -0.1598506762162E-01
 0.2717845387407E-02 -0.1674139053478E-01
 0.2160935904429E-02 -0.1751991462163E-01
 0.1386117902891E-02 -0.1832029924318E-01
 0.3109458876640E-03 -0.1914781167929E-01
-0.1175617463771E-02 -0.2003615031893E-01
-0.3139414276090E-02 -0.2108569920618E-01
-0.1346878428270E-03 -0.3389979586871E-03
-0.2550037201455E-03 -0.6914111441935E-03
-0.3446181108735E-03 -0.1050235015857E-02
-0.3989919789172E-03 -0.1409051199788E-02
-0.4202815465598E-03 -0.1765842741608E-02
-0.4119268400950E-03 -0.2121254458628E-02
-0.3769540220948E-03 -0.2476658239639E-02
-0.3178174422931E-03 -0.2833468436574E-02
-0.2365033626465E-03 -0.3193002352215E-02
-0.1346357045260E-03 -0.3556472057493E-02
-0.1356169480566E-04 -0.3925013298297E-02
 0.1255811836773E-03 -0.4299719712682E-02
 0.2818165506403E-03 -0.4681685547552E-02
 0.4542874016395E-03 -0.5072035330566E-02
 0.6422058397977E-03 -0.5471920503092E-02
 0.8448368404989E-03 -0.5882584008611E-02
 0.1061391719338E-02 -0.6305258775387E-02
 0.1290855800171E-02 -0.6741075236518E-02
 0.1531630671089E-02 -0.7190884410666E-02
 0.1781024379872E-02 -0.7655030923101E-02
 0.2034752241620E-02 -0.8133085952756E-02
 0.2287735620196E-02 -0.8624665130830E-02
 0.2534875453589E-02 -0.9129804594647E-02
 0.2771243080770E-02 -0.9648811671540E-02
 0.2991896223749E-02 -0.1018205667844E-01
 0.3191551997707E-02 -0.1072985999839E-01
 0.3364264225870E-02 -0.1129247345440E-01
 0.3503169300857E-02 -0.1187013980901E-01
 0.3600322037326E-02 -0.1246318782103E-01
 0.3646629510731E-02 -0.1307217606488E-01
 0.3631803994287E-02 -0.1369772582078E-01
 0.3543908324811E-02 -0.1433984224023E-01
 0.3368231457126E-02 -0.1499801659539E-01
 0.3085810101552E-02 -0.1567126166789E-01
 0.2671245838377E-02 -0.1635821703116E-01
 0.2089421257323E-02 -0.1705768751440E-01
 0.1290982924090E-02 -0.1777080978349E-01
 0.2097212260928E-03 -0.1850872267315E-01
-0.1222090434149E-02 -0.1931039054593E-01
-0.3005607291201E-02 -0.2025538449140E-01
-0.1245848495742E-03 -0.3386212625282E-03
-0.2352153655912E-03 -0.6903002417139E-03
-0.3186886528505E-03 -0.1049956755755E-02
-0.3697822833049E-03 -0.1412005264813E-02
-0.3891749685254E-03 -0.1773775127448E-02
-0.3794596418147E-03 -0.2135048697138E-02
-0.3433036528763E-03 -0.2496655358775E-02
-0.2830071110384E-03 -0.2859708715123E-02
-0.2004855790605E-03 -0.3225349289947E-02
-0.9733071405338E-04 -0.3594676736857E-02
 0.2512426304628E-04 -0.3968745415161E-02
 0.1657462222471E-03 -0.4348578175341E-02
 0.3235563548190E-03 -0.4735195090562E-02
 0.4976875462547E-03 -0.5129630560458E-02
 0.6873288697127E-03 -0.5532915253368E-02
 0.8916973591275E-03 -0.5946122365859E-02
 0.1109909794774E-02 -0.6370246681729E-02
 0.1340794757772E-02 -0.6806112734404E-02
 0.1582567507908E-02 -0.7254233959244E-02
 0.1832417281739E-02 -0.7714655272551E-02
 0.2086093787025E-02 -0.8186792997429E-02
 0.2338619103535E-02 -0.8670172900271E-02
 0.2584934387556E-02 -0.9164733524262E-02
 0.2820047861870E-02 -0.9670665739961E-02
 0.3038874010074E-02 -0.1018820089371E-01
 0.3235945857919E-02 -0.1071748807246E-01
 0.3405124248039E-02 -0.1125856646960E-01
 0.3539366065191E-02 -0.1181141714219E-01
 0.3630565827812E-02 -0.1237604309821E-01
 0.3669461323483E-02 -0.1295258671273E-01
 0.3645523174553E-02 -0.1354115214859E-01
 0.3546475546174E-02 -0.1414117329502E-01
 0.3357276092593E-02 -0.1475155968635E-01
 0.3058834154099E-02 -0.1537083392973E-01
 0.2626270682846E-02 -0.1599750379881E-01
 0.2026745196985E-02 -0.1663118834998E-01
 0.1217811817094E-02 -0.1727578033295E-01
 0.1507907796126E-03 -0.1794695033315E-01
-0.1208672184598E-02 -0.1868319734332E-01
-0.2827933887451E-02 -0.1954469074425E-01
-0.1154977186983E-03 -0.3393197774601E-03
-0.2171692749964E-03 -0.6912091792472E-03
-0.2942938873785E-03 -0.1051918716993E-02
-0.3415647688034E-03 -0.1416735972503E-02
-0.3586211715530E-03 -0.1782783950400E-02
-0.3472715532624E-03 -0.2149246196181E-02
-0.3097778374408E-03 -0.2516464841183E-02
-0.2482466267752E-03 -0.2885242632045E-02
-0.1644988064035E-03 -0.3256523062583E-02
-0.6007943169136E-04 -0.3631272467124E-02
 0.6370003708875E-04 -0.4010444761124E-02
 0.2057140060350E-03 -0.4394974945793E-02
 0.3649808122722E-03 -0.4785793267843E-02
 0.5406193308011E-03 -0.5183829462127E-02
 0.7317879004636E-03 -0.5589980928041E-02
 0.9376447373475E-03 -0.6005144953530E-02
 0.1157203830801E-02 -0.6430088306771E-02
 0.1389143735442E-02 -0.6865365969683E-02
 0.1631519665315E-02 -0.7311213898051E-02
 0.1881428251539E-02 -0.7767442561994E-02
 0.2134658517850E-02 -0.8233353873433E-02
 0.2386325658739E-02 -0.8708397935631E-02
 0.2631411564695E-02 -0.9192414172415E-02
 0.2864874609947E-02 -0.9685470884160E-02
 0.3081506290756E-02 -0.1018766216673E-01
 0.3275678863771E-02 -0.1069898470954E-01
 0.3441086223800E-02 -0.1121930412327E-01
 0.3570533523048E-02 -0.1174839755435E-01
 0.3655783464113E-02 -0.1228602029542E-01
 0.3687443446085E-02 -0.1283200719974E-01
 0.3654821388428E-02 -0.1338610568811E-01
 0.3545460774461E-02 -0.1394742034032E-01
 0.3344263625172E-02 -0.1451463612391E-01
 0.3032477924202E-02 -0.1508629805746E-01
 0.2586516746333E-02 -0.1566145818701E-01
 0.1976999624296E-02 -0.1624123973302E-01
 0.1169546695513E-02 -0.1683226139926E-01
 0.1314965400520E-03 -0.1745261260395E-01
-0.1147950882398E-02 -0.1813717960263E-01
-0.2620647497808E-02 -0.1893024750268E-01
-0.1071756644611E-03 -0.3407495028382E-03
-0.2005361051583E-03 -0.6935532515257E-03
-0.2712982808506E-03 -0.1055586064604E-02
-0.3143777759890E-03 -0.1422922381940E-02
-0.3287259027022E-03 -0.1792728534089E-02
-0.3154800663000E-03 -0.2163810008012E-02
-0.2764901229430E-03 -0.2536106466923E-02
-0.2136430145529E-03 -0.2910122639097E-02
-0.1286449413348E-03 -0.3286596238753E-02
-0.2298141171357E-04 -0.3666346132641E-02
 0.1020653285923E-03 -0.4050210930240E-02
 0.2453804799943E-03 -0.4439023729189E-02
 0.4059793735353E-03 -0.4833612091063E-02
 0.5829636077964E-03 -0.5234789926514E-02
 0.7754547350940E-03 -0.5643313706296E-02
 0.9825452041268E-03 -0.6059905117505E-02
 0.1203144391170E-02 -0.6485118375596E-02
 0.1435792598161E-02 -0.6919273751229E-02
 0.1678409929679E-02 -0.7362378667296E-02
 0.1928021938845E-02 -0.7814058145588E-02
 0.2180460303629E-02 -0.8273528121484E-02
 0.2430926537153E-02 -0.8740174910494E-02
 0.2674443534587E-02 -0.9213743920436E-02
 0.2905932682698E-02 -0.9694185538884E-02
 0.3120084167605E-02 -0.1018146762369E-01
 0.3311135934837E-02 -0.1067545797557E-01
 0.3472644515373E-02 -0.1117588780105E-01
 0.3597295364519E-02 -0.1168238662801E-01
 0.3676755987248E-02 -0.1219453966410E-01
 0.3701556447767E-02 -0.1271198287774E-01
 0.3660937812610E-02 -0.1323426209525E-01
 0.3542435370790E-02 -0.1376037217124E-01
 0.3331175554667E-02 -0.1428906933071E-01
 0.3009177534080E-02 -0.1481929401298E-01
 0.2554769784519E-02 -0.1535103176569E-01
 0.1942737535089E-02 -0.1588706844799E-01
 0.1146816334260E-02 -0.1643610427029E-01
 0.1476710630675E-03 -0.1701681972781E-01
-0.1049888229454E-02 -0.1765922416861E-01
-0.2392433647348E-02 -0.1839534152729E-01
-0.9945043472416E-04 -0.3426856970310E-03
-0.1850620012795E-03 -0.6969252640953E-03
-0.2495577807932E-03 -0.1060541655282E-02
-0.2882146571791E-03 -0.1430274168321E-02
-0.2995573472982E-03 -0.1803458284088E-02
-0.2841788444145E-03 -0.2178686563660E-02
-0.2435388828613E-03 -0.2555585940230E-02
-0.1792930465551E-03 -0.2934391266666E-02
-0.9301830957759E-04 -0.3315635858313E-02
 0.1387017554770E-04 -0.3699983243516E-02
 0.1401260838862E-03 -0.4088146063853E-02
 0.2846485737314E-03 -0.4480844611232E-02
 0.4464501399062E-03 -0.4878793818640E-02
 0.6246127263074E-03 -0.5282683954931E-02
 0.8182170430925E-03 -0.5693127121713E-02
 0.1026286563579E-02 -0.6110674290384E-02
 0.1247629028381E-02 -0.6535684988825E-02
 0.1480660872185E-02 -0.6968276508959E-02
 0.1723189925734E-02 -0.7408267682973E-02
 0.1972188648556E-02 -0.7855135989610E-02
 0.2223534186266E-02 -0.8308032444594E-02
 0.2472509248712E-02 -0.8766290180237E-02
 0.2714178873531E-02 -0.9229569715128E-02
 0.2943440421561E-02 -0.9697714872400E-02
 0.3154905240819E-02 -0.1017058426671E-01
 0.3342705303561E-02 -0.1064794332963E-01
 0.3500291966410E-02 -0.1112942795860E-01
 0.3620266931188E-02 -0.1161457455533E-01
 0.3694246078281E-02 -0.1210287302281E-01
 0.3712745249851E-02 -0.1259386313899E-01
 0.3665043541019E-02 -0.1308702955598E-01
 0.3538841411961E-02 -0.1358144244373E-01
 0.3319750283729E-02 -0.1407615299594E-01
 0.2990921903817E-02 -0.1457073145787E-01
 0.2533026659756E-02 -0.1506624448991E-01
 0.1925271845737E-02 -0.1556696886833E-01
 0.1148858125329E-02 -0.1608288519060E-01
 0.1948755743051E-03 -0.1663199764698E-01
-0.9221092832102E-03 -0.1723926886033E-01
-0.2148806784733E-02 -0.1792751780520E-01
-0.9220555015047E-04 -0.3449762423492E-03
-0.1705522631775E-03 -0.7010364326343E-03
-0.2289363730102E-03 -0.1066463442622E-02
-0.2630424871886E-03 -0.1438540878776E-02
-0.2711540732862E-03 -0.1814826069150E-02
-0.2534395305524E-03 -0.2193813658037E-02
-0.2110072917656E-03 -0.2574899262172E-02
-0.1452826309972E-03 -0.2958083550600E-02
-0.5770485100917E-04 -0.3343704609232E-02
 0.5038940398955E-04 -0.3732268288790E-02
 0.1777953654268E-03 -0.4124354572343E-02
 0.3234290771824E-03 -0.4520563171965E-02
 0.4863007155798E-03 -0.4921489335992E-02
 0.6654712239314E-03 -0.5327694988318E-02
 0.8599784793693E-03 -0.5739647873569E-02
 0.1068777014647E-02 -0.6157736137548E-02
 0.1290579287575E-02 -0.6582143088318E-02
 0.1523693347442E-02 -0.7012811228229E-02
 0.1765835390805E-02 -0.7449403658790E-02
 0.2013940205588E-02 -0.7891280493893E-02
 0.2263933325512E-02 -0.8337544233936E-02
 0.2511175513303E-02 -0.8787484723367E-02
 0.2750776458168E-02 -0.9240689096703E-02
 0.2977622853362E-02 -0.9696909934155E-02
 0.3186270113261E-02 -0.1015591716738E-01
 0.3370773638442E-02 -0.1061740198568E-01
 0.3524513625426E-02 -0.1108094335645E-01
 0.3640047058629E-02 -0.1154603633032E-01
 0.3708986756493E-02 -0.1201214503685E-01
 0.3721903100754E-02 -0.1247880543350E-01
 0.3668219664001E-02 -0.1294556068533E-01
 0.3535964658812E-02 -0.1341170095300E-01
 0.3311458123691E-02 -0.1387672351534E-01
 0.2979253419377E-02 -0.1434094174125E-01
 0.2522589583712E-02 -0.1480647805598E-01
 0.1925005088840E-02 -0.1527877144328E-01
 0.1174165792572E-02 -0.1576835654131E-01
 0.2689499303681E-03 -0.1629181128216E-01
-0.7704053842387E-03 -0.1686942179977E-01
-0.1893422114710E-02 -0.1751717803605E-01
-0.8535810124229E-04 -0.3475152054778E-03
-0.1568571730535E-03 -0.7056785831268E-03
-0.2093126199711E-03 -0.1073103664545E-02
-0.2388147037475E-03 -0.1447512598406E-02
-0.2435326557777E-03 -0.1826696246949E-02
-0.2233145137497E-03 -0.2209126931389E-02
-0.1789639252812E-03 -0.2594036668834E-02
-0.1116866000926E-03 -0.2981229293338E-02
-0.2278158085425E-04 -0.3370861971892E-02
 0.8649825265503E-04 -0.3763285085243E-02
 0.2149940491926E-03 -0.4158942848868E-02
 0.3616413268145E-03 -0.4558309583597E-02
 0.5254488086228E-03 -0.4961856528855E-02
 0.7054561612887E-03 -0.5370015325631E-02
 0.9006583782785E-03 -0.5783112060601E-02
 0.1109943722434E-02 -0.6201381754570E-02
 0.1331937970916E-02 -0.6624849535656E-02
 0.1564856475356E-02 -0.7053307871285E-02
 0.1806342433200E-02 -0.7486291465217E-02
 0.2053306587810E-02 -0.7923067725652E-02
 0.2301726241265E-02 -0.8362704012624E-02
 0.2547039055602E-02 -0.8804456336702E-02
 0.2784403405994E-02 -0.9247851243388E-02
 0.3008709202300E-02 -0.9692567524396E-02
 0.3214479026240E-02 -0.1013830878579E-01
 0.3395721595952E-02 -0.1058472049529E-01
 0.3545781052585E-02 -0.1103136153242E-01
 0.3657210682905E-02 -0.1147773356228E-01
 0.3721671508240E-02 -0.1192333725398E-01
 0.3729858624515E-02 -0.1236778392376E-01
 0.3671441647560E-02 -0.1281077122429E-01
 0.3534919477579E-02 -0.1325191286582E-01
 0.3307496935590E-02 -0.1369123768389E-01
 0.2975300409799E-02 -0.1412982120954E-01
 0.2524191061292E-02 -0.1457071138444E-01
 0.1941717336622E-02 -0.1502014118892E-01
 0.1220902210726E-02 -0.1548863352003E-01
 0.3662127895699E-03 -0.1599097538476E-01
-0.5991930990072E-03 -0.1654335878645E-01
-0.1628802910014E-02 -0.1715672195502E-01
-0.7884758781041E-04 -0.3502271170508E-03
-0.1438608296471E-03 -0.7106995365723E-03
-0.1905811935333E-03 -0.1080271796843E-02
-0.2154791038424E-03 -0.1457016672387E-02
-0.2166940715108E-03 -0.1838948664954E-02
-0.1938400337187E-03 -0.2224564546404E-02
-0.1474638410978E-03 -0.2612985906301E-02
-0.7856887179144E-04 -0.3003855021556E-02
 0.1168364914828E-04 -0.3397165200140E-02
 0.1221270094484E-03 -0.3793117010945E-02
 0.2516512739221E-03 -0.4192018874706E-02
 0.3992136191336E-03 -0.4594217601869E-02
 0.5638225031986E-03 -0.5000058579674E-02
 0.7444970609758E-03 -0.5409843586375E-02
 0.9401910553725E-03 -0.5823761751119E-02
 0.1149731187675E-02 -0.6241905624854E-02
 0.1371666564798E-02 -0.6664159227649E-02
 0.1604135242089E-02 -0.7090186642780E-02
 0.1844724337471E-02 -0.7519417182725E-02
 0.2090332948972E-02 -0.7951046150338E-02
 0.2336994158070E-02 -0.8384117083328E-02
 0.2580223227021E-02 -0.8817861269681E-02
 0.2815232733899E-02 -0.9251758002341E-02
 0.3036930223227E-02 -0.9685430604954E-02
 0.3239828553705E-02 -0.1011853921222E-01
 0.3417919680806E-02 -0.1055071146112E-01
 0.3564547161117E-02 -0.1098152061683E-01
 0.3672302347034E-02 -0.1141051811812E-01
 0.3732946138312E-02 -0.1183729489237E-01
 0.3737366206012E-02 -0.1226160213248E-01
 0.3675569830637E-02 -0.1268336371809E-01
 0.3536644137025E-02 -0.1310258227603E-01
 0.3308803502420E-02 -0.1351984940628E-01
 0.2979827985242E-02 -0.1393695632120E-01
 0.2538120815892E-02 -0.1435769606969E-01
 0.1974790497947E-02 -0.1478875450854E-01
 0.1287144793631E-02 -0.1524024705040E-01
 0.4834966999629E-03 -0.1572506070538E-01
-0.4118735674477E-03 -0.1625591450429E-01
-0.1356756395925E-02 -0.1683999928358E-01
-0.7262884928874E-04 -0.3530572483344E-03
-0.1314726795752E-03 -0.7159867818715E-03
-0.1726520615611E-03 -0.1087821276162E-02
-0.1929825830126E-03 -0.1466913026645E-02
-0.1906286184438E-03 -0.1851480063849E-02
-0.1650391247025E-03 -0.2240070293088E-02
-0.1165498586353E-03 -0.2631734853135E-02
-0.4598280659841E-04 -0.3025985708569E-02
 0.4563224634519E-04 -0.3422670251346E-02
 0.1572145735491E-03 -0.3821847281554E-02
 0.2877048113657E-03 -0.4223691922062E-02
 0.4360835450434E-03 -0.4628423705220E-02
 0.6013604359107E-03 -0.5036262492267E-02
 0.7825357447379E-03 -0.5447382558275E-02
 0.9785250745110E-03 -0.5861842200327E-02
 0.1188099777838E-02 -0.6279602520383E-02
 0.1409743104638E-02 -0.6700422289954E-02
 0.1641530679432E-02 -0.7123856144613E-02
 0.1881009039206E-02 -0.7549247588362E-02
 0.2125077208401E-02 -0.7975737331830E-02
 0.2369828743105E-02 -0.8402354932444E-02
 0.2610858854683E-02 -0.8828315728191E-02
 0.2843441174426E-02 -0.9253065105387E-02
 0.3062515758447E-02 -0.9676189219710E-02
 0.3262608681541E-02 -0.1009732712568E-01
 0.3437724685925E-02 -0.1051611505637E-01
 0.3581241871537E-02 -0.1093217203976E-01
 0.3685830925724E-02 -0.1134513688311E-01
 0.3743402631387E-02 -0.1175473514669E-01
 0.3745099767861E-02 -0.1216090747325E-01
 0.3681345437359E-02 -0.1256385279040E-01
 0.3541904372982E-02 -0.1296399506321E-01
 0.3316075318295E-02 -0.1336247866173E-01
 0.2993295954410E-02 -0.1376172426498E-01
 0.2564339257871E-02 -0.1416607759915E-01
 0.2023371466687E-02 -0.1458239363713E-01
 0.1371022103897E-02 -0.1502013140071E-01
 0.6181137120712E-03 -0.1549032459531E-01
-0.2110963810050E-03 -0.1600279830530E-01
-0.1078618197695E-02 -0.1656194271280E-01
-0.6666745012390E-04 -0.3559653776016E-03
-0.1196211946028E-03 -0.7214564177813E-03
-0.1554487289683E-03 -0.1095639344027E-02
-0.1712737567166E-03 -0.1477089270880E-02
-0.1653195397720E-03 -0.1864203863118E-02
-0.1369242356553E-03 -0.2255595354720E-02
-0.8625395276029E-04 -0.2650273392732E-02
-0.1397178370569E-04 -0.3047646100642E-02
 0.7901474378405E-04 -0.3447432484469E-02
 0.1917085309327E-03 -0.3849559070431E-02
 0.3231012033910E-03 -0.4254072139438E-02
 0.4721980723827E-03 -0.4661066151340E-02
 0.6380116970634E-03 -0.5070637596589E-02
 0.8195258940334E-03 -0.5482837146468E-02
 0.1015622301053E-02 -0.5897599351302E-02
 0.1225024191629E-02 -0.6314764859699E-02
 0.1446160150904E-02 -0.6733981767643E-02
 0.1677057594621E-02 -0.7154711859350E-02
 0.1915236816813E-02 -0.7576229659569E-02
 0.2157607782936E-02 -0.7997636364430E-02
 0.2400329881920E-02 -0.8417956261716E-02
 0.2639082036193E-02 -0.8836397129204E-02
 0.2869206911649E-02 -0.9252383416454E-02
 0.3085692283004E-02 -0.9665481765870E-02
 0.3283100024986E-02 -0.1007533137714E-01
 0.3455476476358E-02 -0.1048160139548E-01
 0.3596268396341E-02 -0.1088398433422E-01
 0.3698265448233E-02 -0.1128223794085E-01
 0.3753574892306E-02 -0.1167625726747E-01
 0.3753649608847E-02 -0.1206620768436E-01
 0.3689391199316E-02 -0.1245259161937E-01
 0.3551303038171E-02 -0.1283626021974E-01
 0.3329798205338E-02 -0.1321887208821E-01
 0.3015916274358E-02 -0.1360337188305E-01
 0.2602571646300E-02 -0.1399447689984E-01
 0.2086485066872E-02 -0.1439899274058E-01
 0.1470782881828E-02 -0.1482558718800E-01
 0.7677962084464E-03 -0.1528357484317E-01
 0.1049904071931E-05 -0.1578039455513E-01
-0.7954035238958E-03 -0.1631831665005E-01
-0.6093658511090E-04 -0.3589216724805E-03
-0.1082491675378E-03 -0.7270455262362E-03
-0.1389062147106E-03 -0.1103639349297E-02
-0.1503042322118E-03 -0.1487456163946E-02
-0.1407455701035E-03 -0.1877049079372E-02
-0.1094994081266E-03 -0.2271099120594E-02
-0.5659859680177E-04 -0.2668594671360E-02
 0.1743013307041E-04 -0.3068861720160E-02
 0.1117905457009E-03 -0.3471507204587E-02
 0.2255651066686E-03 -0.3876335571538E-02
 0.3577957763570E-03 -0.4283270144207E-02
 0.5075135032795E-03 -0.4692284102353E-02
 0.6737356088706E-03 -0.5103354205623E-02
 0.8554325152963E-03 -0.5516412597101E-02
 0.1051456938546E-02 -0.5931277759459E-02
 0.1260492037372E-02 -0.6347680606675E-02
 0.1480923012621E-02 -0.6765171863100E-02
 0.1710742620744E-02 -0.7183135046163E-02
 0.1947458302754E-02 -0.7600790270828E-02
 0.2188001595007E-02 -0.8017212302132E-02
 0.2428603673628E-02 -0.8431427938834E-02
 0.2665032107023E-02 -0.8842645340725E-02
 0.2892707484092E-02 -0.9250280332268E-02
 0.3106680674728E-02 -0.9653896611849E-02
 0.3301571391049E-02 -0.1005315308081E-01
 0.3471495297197E-02 -0.1044777353392E-01
 0.3610000314180E-02 -0.1083754767460E-01
 0.3710032130028E-02 -0.1122237758231E-01
 0.3763936334597E-02 -0.1160235345748E-01
 0.3763521948266E-02 -0.1197788769315E-01
 0.3700215587054E-02 -0.1234979753783E-01
 0.3565293693547E-02 -0.1271934712739E-01
 0.3350276005161E-02 -0.1308865321548E-01
 0.3047705478583E-02 -0.1346107438232E-01
 0.2652382348527E-02 -0.1384154187087E-01
 0.2163109032965E-02 -0.1423665464043E-01
 0.1584824843840E-02 -0.1465423642762E-01
 0.9306338436542E-03 -0.1510206078817E-01
 0.2229022447663E-03 -0.1558561600453E-01
-0.5079027111290E-03 -0.1610553801359E-01
-0.5541495279578E-04 -0.3619038941978E-03
-0.9731020568865E-04 -0.7327068138452E-03
-0.1229690912991E-03 -0.1111754914862E-02
-0.1300290621159E-03 -0.1497943639648E-02
-0.1168826607965E-03 -0.1889958825679E-02
-0.8276202208118E-04 -0.2286549330561E-02
-0.2759799367483E-04 -0.2686695838090E-02
 0.4819748657846E-04 -0.3089659555723E-02
 0.1439275752453E-03 -0.3494950039224E-02
 0.2587490026167E-03 -0.3902259985448E-02
 0.3917525349502E-03 -0.4311396603430E-02
 0.5419953092849E-03 -0.4722216800541E-02
 0.7085013899718E-03 -0.5134582400745E-02
 0.8902313251820E-03 -0.5548312950505E-02
 0.1086014557400E-02 -0.5963118854482E-02
 0.1294502505032E-02 -0.6378631577008E-02
 0.1514048157354E-02 -0.6794316567032E-02
 0.1742622498864E-02 -0.7209491922553E-02
 0.1977732723521E-02 -0.7623336021846E-02
 0.2216342284475E-02 -0.8034908590253E-02
 0.2454760602359E-02 -0.8443245903591E-02
 0.2688849766890E-02 -0.8847563929307E-02
 0.2914117858282E-02 -0.9247281315079E-02
 0.3125694212377E-02 -0.9641973995391E-02
 0.3318277678720E-02 -0.1003133811778E-01
 0.3486079587669E-02 -0.1041517098243E-01
 0.3622779401180E-02 -0.1079337900034E-01
 0.3721512533476E-02 -0.1116602790855E-01
 0.3774899106273E-02 -0.1153342019223E-01
 0.3775140683186E-02 -0.1189622630412E-01
 0.3714219642403E-02 -0.1225557597788E-01
 0.3584196343672E-02 -0.1261311817060E-01
 0.3377659784740E-02 -0.1297136294580E-01
 0.3088530042251E-02 -0.1333397778447E-01
 0.2713231332273E-02 -0.1370597829869E-01
 0.2252221795128E-02 -0.1409365159251E-01
 0.1711700304025E-02 -0.1450397918970E-01
 0.1105014173294E-02 -0.1494338699358E-01
 0.4531270309781E-03 -0.1541579072487E-01
-0.2167409244316E-03 -0.1592054341413E-01
-0.5008526215525E-04 -0.3648954515264E-03
-0.8676610333864E-04 -0.7384047808898E-03
-0.1075897231694E-03 -0.1119935501860E-02
-0.1104067225754E-03 -0.1508497426492E-02
-0.9370510290248E-04 -0.1902888667163E-02
-0.5670415545717E-04 -0.2301921782161E-02
 0.7408383043001E-06 -0.2704578379533E-02
 0.7831271771199E-04 -0.3110068478944E-02
 0.1754018571032E-03 -0.3517817158894E-02
 0.2912331448107E-03 -0.3927415434312E-02
 0.4249439569988E-03 -0.4338561809036E-02
 0.5756178682645E-03 -0.4751002801153E-02
 0.7422877357863E-03 -0.5164490946525E-02
 0.9239080883953E-03 -0.5578739707573E-02
 0.1119291140521E-02 -0.5993359494313E-02
 0.1327065135180E-02 -0.6407892078752E-02
 0.1545561784732E-02 -0.6821728601484E-02
 0.1772742554219E-02 -0.7234133074698E-02
 0.2006126333204E-02 -0.7644253185197E-02
 0.2242718603221E-02 -0.8051143529115E-02
 0.2478913883358E-02 -0.8453856076033E-02
 0.2710675382306E-02 -0.8851621446565E-02
 0.2933608700934E-02 -0.9243871551483E-02
 0.3142936828783E-02 -0.9630208152819E-02
 0.3333458133624E-02 -0.1001037996401E-01
 0.3499504301652E-02 -0.1038427360896E-01
 0.3634914189614E-02 -0.1075192754189E-01
 0.3733042759688E-02 -0.1111358475070E-01
 0.3786814711537E-02 -0.1146976955563E-01
 0.3788850855736E-02 -0.1182141216451E-01
 0.3731705497605E-02 -0.1216994218639E-01
 0.3608213906914E-02 -0.1251735647292E-01
 0.3411974952690E-02 -0.1286649132290E-01
 0.3138144190198E-02 -0.1322122869916E-01
 0.2784515890931E-02 -0.1358656703421E-01
 0.2352831545979E-02 -0.1396841763677E-01
 0.1850109457661E-02 -0.1437295631519E-01
 0.1289568322513E-02 -0.1480544669050E-01
 0.6906502184423E-03 -0.1526856843710E-01
 0.7759215343546E-04 -0.1576068184494E-01
-0.4493316401616E-04 -0.3678840125414E-03
-0.7658485863857E-04 -0.7441129386660E-03
-0.9272674652523E-04 -0.1128143016529E-02
-0.9139883311846E-04 -0.1519076218936E-02
-0.7118622204097E-04 -0.1915804990298E-02
-0.3131361959350E-04 -0.2317199770157E-02
 0.2841713300964E-04 -0.2722248152477E-02
 0.1077654851430E-03 -0.3130119434145E-02
 0.2061970618306E-03 -0.3540165360331E-02
 0.3229983628434E-03 -0.3951884814393E-02
 0.4573507098952E-03 -0.4364875253039E-02
 0.6083641252616E-03 -0.4778779265317E-02
 0.7750823397410E-03 -0.5193246330610E-02
 0.9564579327086E-03 -0.5607890689433E-02
 0.1151292161815E-02 -0.6022230769685E-02
 0.1358198683586E-02 -0.6435727827608E-02
 0.1575498544435E-02 -0.6847708614181E-02
 0.1801155339088E-02 -0.7257393055029E-02
 0.2032711016593E-02 -0.7663907763123E-02
 0.2267222978433E-02 -0.8066310786659E-02
 0.2501177982150E-02 -0.8463675293270E-02
 0.2730647475399E-02 -0.8855252769496E-02
 0.2951344866332E-02 -0.9240497724190E-02
 0.3158601633760E-02 -0.9619049632038E-02
 0.3347334961746E-02 -0.9990722760919E-02
 0.3512019719865E-02 -0.1035550580862E-01
 0.3646679201958E-02 -0.1071358057768E-01
 0.3744913545507E-02 -0.1106537566473E-01
 0.3799975766470E-02 -0.1141164026491E-01
 0.3804923350066E-02 -0.1175355863147E-01
 0.3752885810168E-02 -0.1209284043306E-01
 0.3637448403602E-02 -0.1243178894635E-01
 0.3453145443730E-02 -0.1277350190162E-01
 0.3196220510937E-02 -0.1312199456930E-01
 0.2865600772165E-02 -0.1348217217693E-01
 0.2463992438920E-02 -0.1385953750096E-01
 0.1998888943328E-02 -0.1425951668161E-01
 0.1483122067868E-02 -0.1468638025619E-01
 0.9345962627970E-03 -0.1514183684113E-01
 0.3747509244735E-03 -0.1562361111769E-01
-0.3994647317880E-04 -0.3708604777854E-03
-0.6673916285749E-04 -0.7498117724993E-03
-0.7834379093802E-04 -0.1136349186717E-02
-0.7296975075613E-04 -0.1529649333547E-02
-0.4929877838249E-04 -0.1928683467975E-02
-0.6574733776578E-05 -0.2332373378463E-02
 0.5543559018375E-04 -0.2739715201321E-02
 0.1365520299195E-03 -0.3149845447497E-02
 0.2363040327598E-03 -0.3562052034076E-02
 0.3540330209221E-03 -0.3975750596465E-02
 0.4889613075965E-03 -0.4390445207923E-02
 0.6402251971772E-03 -0.4805681313571E-02
 0.8068813760732E-03 -0.5221011921055E-02
 0.9878846594770E-03 -0.5635959069497E-02
 0.1182031707413E-02 -0.6049957022466E-02
 0.1387930077939E-02 -0.6462395089266E-02
 0.1603900383091E-02 -0.6872544577927E-02
 0.1827919422239E-02 -0.7279590135642E-02
 0.2057563044853E-02 -0.7682645643514E-02
 0.2289950234621E-02 -0.8080779967781E-02
 0.2521667304589E-02 -0.8473092287889E-02
 0.2748901403731E-02 -0.8858860497815E-02
 0.2967484106815E-02 -0.9237569878408E-02
 0.3172869711622E-02 -0.9608907743360E-02
 0.3360112296161E-02 -0.9972764552596E-02
 0.3523850726024E-02 -0.1032924083182E-01
 0.3658314792204E-02 -0.1067866927041E-01
 0.3757371124724E-02 -0.1102166779887E-01
 0.3814618628217E-02 -0.1135920814244E-01
 0.3823560389922E-02 -0.1169271731353E-01
 0.3777893503076E-02 -0.1202416065588E-01
 0.3671916192514E-02 -0.1235610507847E-01
 0.3501014649673E-02 -0.1269185005822E-01
 0.3262374212955E-02 -0.1303547693200E-01
 0.2955839333498E-02 -0.1339174358176E-01
 0.2584812843633E-02 -0.1376573434991E-01
 0.2156996819105E-02 -0.1416219027417E-01
 0.1684664611620E-02 -0.1458454121478E-01
 0.1184203576559E-02 -0.1503371028238E-01
 0.6746004605609E-03 -0.1550710198676E-01
-0.3511556663141E-04 -0.3738074534630E-03
-0.5721320275739E-04 -0.7554626095144E-03
-0.6442796472527E-04 -0.1144493317635E-02
-0.5512153108010E-04 -0.1540137083030E-02
-0.2806969105807E-04 -0.1941430905823E-02
 0.1745514695338E-04 -0.2347341373122E-02
 0.8170691604799E-04 -0.2756874119520E-02
 0.1645523076157E-03 -0.3169139004710E-02
 0.2655745794437E-03 -0.3583368504486E-02
 0.3841640560901E-03 -0.3998903683436E-02
 0.5195814838178E-03 -0.4415163443184E-02
 0.6709896841915E-03 -0.4831603894834E-02
 0.8374608862905E-03 -0.5247689390181E-02
 0.1017956907096E-02 -0.5662857997345E-02
 0.1211276709634E-02 -0.6076468647609E-02
 0.1416030596293E-02 -0.6487847992948E-02
 0.1630549039734E-02 -0.6896221255510E-02
 0.1852832895455E-02 -0.7300746753544E-02
 0.2080502343308E-02 -0.7700533871250E-02
 0.2310747069616E-02 -0.8094669358067E-02
 0.2540259523479E-02 -0.8482283196052E-02
 0.2765348966808E-02 -0.8862685064554E-02
 0.2981973820056E-02 -0.9235398338315E-02
 0.3185722888377E-02 -0.9600166512301E-02
 0.3371801358962E-02 -0.9956964034192E-02
 0.3535027562941E-02 -0.1030600898594E-01
 0.3669852659597E-02 -0.1064778715324E-01
 0.3770421533016E-02 -0.1098310289869E-01
 0.3830684021668E-02 -0.1131314052910E-01
 0.3844581819072E-02 -0.1163955079980E-01
 0.3806352755712E-02 -0.1196452385518E-01
 0.3710949912560E-02 -0.1229084442618E-01
 0.3554509113290E-02 -0.1262195773401E-01
 0.3335002054986E-02 -0.1296195641802E-01
 0.3052984343644E-02 -0.1331541717890E-01
 0.2712322791566E-02 -0.1368701776287E-01
 0.2320722178519E-02 -0.1408089160641E-01
 0.1889796199665E-02 -0.1449976522885E-01
 0.1434492449555E-02 -0.1494395907719E-01
 0.9716586770796E-03 -0.1541052917783E-01
-0.3043014379828E-04 -0.3767322614457E-03
-0.4797798037747E-04 -0.7610820053029E-03
-0.5092974743265E-04 -0.1152604210735E-02
-0.3778587635724E-04 -0.1550586023442E-02
-0.7414147578216E-05 -0.1954119010467E-02
 0.4087658832523E-04 -0.2362208217173E-02
 0.1073483948269E-03 -0.2773868566689E-02
 0.1919023268501E-03 -0.3188187689954E-02
 0.2941656929141E-03 -0.3604349384866E-02
 0.4135714361574E-03 -0.4021627505961E-02
 0.5494156890728E-03 -0.4439362911470E-02
 0.7008874839586E-03 -0.4856929148864E-02
 0.8670766305210E-03 -0.5273708544771E-02
 0.1046956112062E-02 -0.5689061952397E-02
 0.1239333356082E-02 -0.6102279967383E-02
 0.1442829318050E-02 -0.6512633707025E-02
 0.1655793529408E-02 -0.6919309272769E-02
 0.1876260667390E-02 -0.7321445149968E-02
 0.2101904858825E-02 -0.7718152081120E-02
 0.2329995332981E-02 -0.8108539618222E-02
 0.2557337766221E-02 -0.8491771789392E-02
 0.2780370909680E-02 -0.8867193934342E-02
 0.2995189688964E-02 -0.9234373028405E-02
 0.3197529893555E-02 -0.9593115072391E-02
 0.3382762622671E-02 -0.9943484322282E-02
 0.3545901630497E-02 -0.1028582042572E-01
 0.3681634836702E-02 -0.1062076318014E-01
 0.3784397838678E-02 -0.1094929980297E-01
 0.3848497561106E-02 -0.1127281750271E-01
 0.3868309350793E-02 -0.1159317350504E-01
 0.3838589033294E-02 -0.1191275601126E-01
 0.3754894855438E-02 -0.1223452955978E-01
 0.3614026399403E-02 -0.1256204091617E-01
 0.3414614721770E-02 -0.1289935371620E-01
 0.3157763609478E-02 -0.1325084261408E-01
 0.2847626857618E-02 -0.1362079507281E-01
 0.2491763296784E-02 -0.1401280150351E-01
 0.2101060945288E-02 -0.1442899335139E-01
 0.1689105561644E-02 -0.1486919780659E-01
 0.1270767751724E-02 -0.1533023882009E-01
-0.2588149160605E-04 -0.3796319040851E-03
-0.3901436548769E-04 -0.7666634772061E-03
-0.3782204259564E-04 -0.1160672612182E-02
-0.2093274572808E-04 -0.1560987095988E-02
 0.1269597792001E-04 -0.1966743604140E-02
 0.6371281439223E-04 -0.2376979730958E-02
 0.1323775458822E-03 -0.2790718761507E-02
 0.2186147298870E-03 -0.3207029328023E-02
 0.3220868657941E-03 -0.3625052221009E-02
 0.4422635882631E-03 -0.4044000710717E-02
 0.5784734406400E-03 -0.4463144356120E-02
 0.7299313285180E-03 -0.4881780740993E-02
 0.8957466242469E-03 -0.5299216675746E-02
 0.1074907554007E-02 -0.5714742341780E-02
 0.1266235997127E-02 -0.6127586601769E-02
 0.1468371160435E-02 -0.6536971566234E-02
 0.1679690384424E-02 -0.6942050416573E-02
 0.1898271425070E-02 -0.7341947428095E-02
 0.2121851520750E-02 -0.7735779611643E-02
 0.2347787976120E-02 -0.8122683299031E-02
 0.2573006688611E-02 -0.8501859213492E-02
 0.2794083204902E-02 -0.8872691573780E-02
 0.3007258285006E-02 -0.9234795376008E-02
 0.3208426383128E-02 -0.9588043894625E-02
 0.3393137937081E-02 -0.9932595063858E-02
 0.3556616053551E-02 -0.1026891184613E-01
 0.3693798044341E-02 -0.1059778648989E-01
 0.3799419098922E-02 -0.1092038297498E-01
 0.3868144973115E-02 -0.1123827953889E-01
 0.3894774748344E-02 -0.1155352134414E-01
 0.3874554741994E-02 -0.1186866842185E-01
 0.3803595798679E-02 -0.1218683051990E-01
 0.3679277359268E-02 -0.1251161882835E-01
 0.3500773198361E-02 -0.1284703787378E-01
 0.3269593834971E-02 -0.1319725015398E-01
 0.2990035555603E-02 -0.1356617568561E-01
 0.2669399395619E-02 -0.1395692370301E-01
 0.2317813865601E-02 -0.1437112304053E-01
 0.1947572474525E-02 -0.1480820059083E-01
 0.1571818594686E-02 -0.1526483346250E-01
-0.2146147713506E-04 -0.3825045969603E-03
-0.3030467544031E-04 -0.7722031538136E-03
-0.2507949306254E-04 -0.1168693185655E-02
-0.4533154843209E-05 -0.1571335868221E-02
 0.3228915161860E-04 -0.1979305025925E-02
 0.8598900640077E-04 -0.2391665420248E-02
 0.1568152882679E-03 -0.2807447357353E-02
 0.2447066586167E-03 -0.3225702801069E-02
 0.3493528493958E-03 -0.3645534283940E-02
 0.4702546894960E-03 -0.4066100423359E-02
 0.6067703004240E-03 -0.4486605790680E-02
 0.7581401281980E-03 -0.4906278346527E-02
 0.9234950283557E-03 -0.5324355680508E-02
 0.1101842423093E-02 -0.5740063563574E-02
 0.1292024411906E-02 -0.6152575304554E-02
 0.1492705708380E-02 -0.6561069954039E-02
 0.1702299756941E-02 -0.6964673257853E-02
 0.1918936150127E-02 -0.7362500096099E-02
 0.2140423950594E-02 -0.7753677779466E-02
 0.2364216730047E-02 -0.8137372513256E-02
 0.2587367432963E-02 -0.8512823792595E-02
 0.2806595542808E-02 -0.8879457292152E-02
 0.3018296564979E-02 -0.9236939406205E-02
 0.3218534448761E-02 -0.9585213985191E-02
 0.3403051018170E-02 -0.9924534717572E-02
 0.3567290699793E-02 -0.1025548762080E-01
 0.3706450242554E-02 -0.1057901374520E-01
 0.3815570082465E-02 -0.1089644578898E-01
 0.3889672794121E-02 -0.1120953970072E-01
 0.3923967371090E-02 -0.1152050965554E-01
 0.3914159906760E-02 -0.1183206263806E-01
 0.3856860327366E-02 -0.1214742289018E-01
 0.3749947815846E-02 -0.1247023563639E-01
 0.3593033303840E-02 -0.1280442487961E-01
 0.3387912533109E-02 -0.1315393905043E-01
 0.3138907145875E-02 -0.1352235746604E-01
 0.2852978275493E-02 -0.1391236624718E-01
 0.2539480243045E-02 -0.1432517082081E-01
 0.2209497794311E-02 -0.1475988277399E-01
 0.1874649085524E-02 -0.1521307936339E-01
-0.1716235510472E-04 -0.3853495070111E-03
-0.2183226181253E-04 -0.7776992273477E-03
-0.1267800504307E-04 -0.1176663704502E-02
 0.1144114850554E-04 -0.1581631631317E-02
 0.5139425334398E-04 -0.1991807297672E-02
 0.1077321449054E-03 -0.2406277815553E-02
 0.1806856346812E-03 -0.2824078964971E-02
 0.2701993802518E-03 -0.3244247702585E-02
 0.3759832585904E-03 -0.3665852284129E-02
 0.4975642647577E-03 -0.4088001964016E-02
 0.6343274578543E-03 -0.4509842182218E-02
 0.7855385230992E-03 -0.4930537296107E-02
 0.9503516549366E-03 -0.5349261689433E-02
 0.1127797275203E-02 -0.5765182653193E-02
 0.1316743220206E-02 -0.6177423680546E-02
 0.1515886600250E-02 -0.6585126145026E-02
 0.1723684798734E-02 -0.6987393169182E-02
 0.1938327509168E-02 -0.7383334301893E-02
 0.2157703875011E-02 -0.7772090366628E-02
 0.2379371554855E-02 -0.8152859708332E-02
 0.2600517138133E-02 -0.8524922124608E-02
 0.2818010942894E-02 -0.8887746705180E-02
 0.3028411644490E-02 -0.9241053634111E-02
 0.3227962636459E-02 -0.9584859281660E-02
 0.3412607822903E-02 -0.9919513543706E-02
 0.3578023058910E-02 -0.1024572348161E-01
 0.3719672208412E-02 -0.1056457358177E-01
 0.3832903784044E-02 -0.1087755577091E-01
 0.3913092072639E-02 -0.1118658957124E-01
 0.3955839250434E-02 -0.1149403952362E-01
 0.3957278595137E-02 -0.1180273658828E-01
 0.3914466165916E-02 -0.1211599282405E-01
 0.3825705755364E-02 -0.1243746326293E-01
 0.3690951078536E-02 -0.1277097720887E-01
 0.3512179576863E-02 -0.1312027320615E-01
 0.3293644183319E-02 -0.1348861868024E-01
 0.3041906648671E-02 -0.1387833005484E-01
 0.2765548604015E-02 -0.1429025911751E-01
 0.2474528945071E-02 -0.1472327065446E-01
 0.2179110059224E-02 -0.1517388135172E-01
-0.1297662006634E-04 -0.3881665455801E-03
-0.1358118793370E-04 -0.7831515086750E-03
-0.5943673696818E-06 -0.1184584393684E-02
 0.2701795794793E-04 -0.1591876636620E-02
 0.7004064851886E-04 -0.2004257387407E-02
 0.1289708805310E-03 -0.2420831851594E-02
 0.2040154171417E-03 -0.2840639669847E-02
 0.2951179311966E-03 -0.3262703961810E-02
 0.4020021766000E-03 -0.3686062051466E-02
 0.5242167698305E-03 -0.4109778536682E-02
 0.6611712904381E-03 -0.4532945122927E-02
 0.8121564125621E-03 -0.4954668225224E-02
 0.9763514583436E-03 -0.5374064710347E-02
 0.1152813484583E-02 -0.5790248956698E-02
 0.1340441306139E-02 -0.6202299931967E-02
 0.1537970939243E-02 -0.6609326171677E-02
 0.1743911079010E-02 -0.7010412356446E-02
 0.1956519294012E-02 -0.7404666068958E-02
 0.2173772601972E-02 -0.7791244095765E-02
 0.2393340168426E-02 -0.8169378415144E-02
 0.2612548547091E-02 -0.8538390141536E-02
 0.2828425481740E-02 -0.8897793153110E-02
 0.3037700705735E-02 -0.9247362896368E-02
 0.3236806113788E-02 -0.9587188963257E-02
 0.3421897079137E-02 -0.9917716464596E-02
 0.3588889267211E-02 -0.1023976999578E-01
 0.3733519218342E-02 -0.1055457074115E-01
 0.3851443947915E-02 -0.1086375936019E-01
 0.3938381901589E-02 -0.1116940449831E-01
 0.3990309706505E-02 -0.1147400318085E-01
 0.4003754479157E-02 -0.1178048958532E-01
 0.3976167178708E-02 -0.1209224088515E-01
 0.3906206787288E-02 -0.1241290318405E-01
 0.3794086282264E-02 -0.1274620281930E-01
 0.3641877285523E-02 -0.1309567704623E-01
 0.3453689025714E-02 -0.1346431081152E-01
 0.3235642239363E-02 -0.1385409973069E-01
 0.2995557903322E-02 -0.1426560195060E-01
 0.2742348125306E-02 -0.1469749101211E-01
 0.2485058401060E-02 -0.1514625198761E-01
-0.8896892650970E-05 -0.3909562051098E-03
-0.5535974292072E-05 -0.7885610737946E-03
 0.1119405973856E-04 -0.1192457402165E-02
 0.4222484859035E-04 -0.1602075470725E-02
 0.8825827355089E-04 -0.2016664589713E-02
 0.1497354532666E-03 -0.2435344330174E-02
 0.2268340772160E-03 -0.2857156605085E-02
 0.3194908273741E-03 -0.3281111511330E-02
 0.4274378227999E-03 -0.3706218261862E-02
 0.5502412353125E-03 -0.4131500979795E-02
 0.6873329876937E-03 -0.4556002583185E-02
 0.8380285559425E-03 -0.4978776826452E-02
 0.1001534110010E-02 -0.5398888394299E-02
 0.1176936795259E-02 -0.5815403938445E-02
 0.1363171355721E-02 -0.6227362744736E-02
 0.1559018831885E-02 -0.6633844828621E-02
 0.1763046139800E-02 -0.7033920018446E-02
 0.1973586008151E-02 -0.7426696645147E-02
 0.2188710651625E-02 -0.7811349199371E-02
 0.2406207739071E-02 -0.8187144068612E-02
 0.2623549788349E-02 -0.8553444215562E-02
 0.2837928204488E-02 -0.8909809132608E-02
 0.3046251097169E-02 -0.9256070155763E-02
 0.3245147034319E-02 -0.9592389679940E-02
 0.3430991011911E-02 -0.9919305769390E-02
 0.3599945315146E-02 -0.1023775578512E-01
 0.3748022875787E-02 -0.1054908980902E-01
 0.3871187658918E-02 -0.1085508610415E-01
 0.3965492882298E-02 -0.1115794807186E-01
 0.4027269692123E-02 -0.1146028844262E-01
 0.4053405864738E-02 -0.1176512622029E-01
 0.4041698582883E-02 -0.1207588475737E-01
 0.3991098676505E-02 -0.1239618727904E-01
 0.3902005123111E-02 -0.1272965362792E-01
 0.3776510226281E-02 -0.1307963142680E-01
 0.3618520243554E-02 -0.1344885223030E-01
 0.3433686913737E-02 -0.1383903499165E-01
 0.3229089196866E-02 -0.1425049531173E-01
 0.3012665045912E-02 -0.1468175975578E-01
 0.2792358753944E-02 -0.1512930378124E-01
-0.4915832840979E-05 -0.3937194250074E-03
 0.2318598830934E-05 -0.7939299721731E-03
 0.2270959017542E-04 -0.1200286362162E-02
 0.5708936979768E-04 -0.1612234520547E-02
 0.1060777024912E-03 -0.2029039975491E-02
 0.1700576139495E-03 -0.2449833419569E-02
 0.2491734647981E-03 -0.2873657529527E-02
 0.3433497776562E-03 -0.3299509938842E-02
 0.4523222129492E-03 -0.3726374138800E-02
 0.5756708929131E-03 -0.4153237491842E-02
 0.7128481514175E-03 -0.4579098644971E-02
 0.8631941489393E-03 -0.5002963589030E-02
 0.1025943552929E-02 -0.5423849794449E-02
 0.1200216859772E-02 -0.5840780984337E-02
 0.1384989391257E-02 -0.6252761168555E-02
 0.1579092933235E-02 -0.6658845664679E-02
 0.1781159067990E-02 -0.7058092485280E-02
 0.1989602480556E-02 -0.7449612819825E-02
 0.2202597426972E-02 -0.7832599946794E-02
 0.2418056632457E-02 -0.8206354775614E-02
 0.2633604227161E-02 -0.8570282201774E-02
 0.2846601120711E-02 -0.8923987652674E-02
 0.3054140528829E-02 -0.9267358212517E-02
 0.3253055002316E-02 -0.9600627661894E-02
 0.3439946162765E-02 -0.9924423658513E-02
 0.3611228320562E-02 -0.1023979052382E-01
 0.3763192945150E-02 -0.1054819864608E-01
 0.3892107832803E-02 -0.1085155243453E-01
 0.3994350318588E-02 -0.1115217605917E-01
 0.4066585629819E-02 -0.1145278248866E-01
 0.4106029925936E-02 -0.1175645954811E-01
 0.4110781078296E-02 -0.1206666130358E-01
 0.4080024602568E-02 -0.1238697824883E-01
 0.4014281718693E-02 -0.1272092393585E-01
 0.3915604073872E-02 -0.1307167002496E-01
 0.3787648526034E-02 -0.1344172275856E-01
 0.3635580093681E-02 -0.1383256387348E-01
 0.3465757950876E-02 -0.1424430953046E-01
 0.3285211474472E-02 -0.1467537454060E-01
 0.3100881795308E-02 -0.1512224147873E-01
-0.1026074104950E-05 -0.3964574826972E-03
 0.9997645195965E-05 -0.7992609893089E-03
 0.3397440812586E-04 -0.1208076027115E-02
 0.7163920460332E-04 -0.1622361526440E-02
 0.1235302066868E-03 -0.2041395921216E-02
 0.1899705617098E-03 -0.2464318214253E-02
 0.2710676656327E-03 -0.2890170446773E-02
 0.3667294294160E-03 -0.3317938167330E-02
 0.4766908499820E-03 -0.3746581179969E-02
 0.6005428303295E-03 -0.4175053386270E-02
 0.7377564250305E-03 -0.4602313273280E-02
 0.8876964330836E-03 -0.5027323586332E-02
 0.1049627596659E-02 -0.5449059181172E-02
 0.1222706827922E-02 -0.5866505266052E-02
 0.1405954365845E-02 -0.6278634558031E-02
 0.1598258061834E-02 -0.6684481031173E-02
 0.1798320145984E-02 -0.7083093404033E-02
 0.2004643566804E-02 -0.7473587276066E-02
 0.2215510981044E-02 -0.7855175191356E-02
 0.2428966264758E-02 -0.8227192085460E-02
 0.2642790432470E-02 -0.8589084462442E-02
 0.2854519323895E-02 -0.8940503546173E-02
 0.3061437395478E-02 -0.9281391337952E-02
 0.3260587663005E-02 -0.9612050707574E-02
 0.3448804321739E-02 -0.9933194608432E-02
 0.3622757884665E-02 -0.1024596768028E-01
 0.3779019212508E-02 -0.1055195146723E-01
 0.3914155641579E-02 -0.1085316498139E-01
 0.4024857211236E-02 -0.1115203976404E-01
 0.4108102874944E-02 -0.1145137497759E-01
 0.4161406374438E-02 -0.1175431357530E-01
 0.4183124257632E-02 -0.1206432799811E-01
 0.4172625656584E-02 -0.1238496960921E-01
 0.4130498953930E-02 -0.1271964876113E-01
 0.4058704254454E-02 -0.1307137603183E-01
 0.3960612970524E-02 -0.1344245898834E-01
 0.3840893220982E-02 -0.1383417710607E-01
 0.3705208143136E-02 -0.1424648329680E-01
 0.3559737233044E-02 -0.1467770865104E-01
 0.3410502614900E-02 -0.1512435537366E-01
 0.2779825837695E-05 -0.3991719037904E-03
 0.1751629084526E-04 -0.8045574505442E-03
 0.4501072168185E-04 -0.1215831969989E-02
 0.8590229606956E-04 -0.1632465203668E-02
 0.1406477999601E-03 -0.2053745700682E-02
 0.2095088841699E-03 -0.2478818341823E-02
 0.2925528415262E-03 -0.2906723254344E-02
 0.3896671292210E-03 -0.3336434152587E-02
 0.5005824280303E-03 -0.3766888895091E-02
 0.6248976567135E-03 -0.4197010857417E-02
 0.7621011327164E-03 -0.4625722102118E-02
 0.9115823172008E-03 -0.5051946282612E-02
 0.1072637529400E-02 -0.5474619880050E-02
 0.1244462959777E-02 -0.5892693629053E-02
 0.1426127790348E-02 -0.6305112534893E-02
 0.1616580855520E-02 -0.6710892145049E-02
 0.1814600551655E-02 -0.7109073929892E-02
 0.2018783908280E-02 -0.7498778936516E-02
 0.2227527851704E-02 -0.7879238897394E-02
 0.2439013033444E-02 -0.8249821724435E-02
 0.2651182230916E-02 -0.8610014836696E-02
 0.2861751205110E-02 -0.8959514703932E-02
 0.3068201196374E-02 -0.9298316801737E-02
 0.3267791384081E-02 -0.9626790027684E-02
 0.3457593532931E-02 -0.9945727543265E-02
 0.3634537485440E-02 -0.1025636700321E-01
 0.3795473321619E-02 -0.1056039158939E-01
 0.3937262818414E-02 -0.1085992347202E-01
 0.4056896999245E-02 -0.1115748889280E-01
 0.4151648762355E-02 -0.1145596061724E-01
 0.4219300542487E-02 -0.1175852520915E-01
 0.4258429297820E-02 -0.1206866391239E-01
 0.4268542587469E-02 -0.1238988543219E-01
 0.4250248713415E-02 -0.1272550220368E-01
 0.4205374268107E-02 -0.1307837921390E-01
 0.4136977491140E-02 -0.1345065030751E-01
 0.4049224836506E-02 -0.1384342350897E-01
 0.3947107284253E-02 -0.1425651880685E-01
 0.3836006690623E-02 -0.1468820585494E-01
 0.3721098893021E-02 -0.1513501546751E-01
 0.6509421142157E-05 -0.4018643883184E-03
 0.2488976441144E-04 -0.8098230597754E-03
 0.5584088285115E-04 -0.1223560333661E-02
 0.9990694744713E-04 -0.1642554925279E-02
 0.1574632731410E-03 -0.2066103136871E-02
 0.2287085027762E-03 -0.2493353620858E-02
 0.3136670865194E-03 -0.2923343432228E-02
 0.4122027045131E-03 -0.3355034611045E-02
 0.5240385586533E-03 -0.3787344569751E-02
 0.6487791904956E-03 -0.4219168772766E-02
 0.7859289421188E-03 -0.4649396250106E-02
 0.9349020257019E-03 -0.5076915373555E-02
 0.1095027762263E-02 -0.5500628146784E-02
 0.1265544277655E-02 -0.5919454518111E-02
 0.1445573406726E-02 -0.6332314985047E-02
 0.1634129481000E-02 -0.6738209180714E-02
 0.1830072119293E-02 -0.7136172936757E-02
 0.2032097759780E-02 -0.7525333316791E-02
 0.2238722972534E-02 -0.7904940660304E-02
 0.2448270331760E-02 -0.8274394306015E-02
 0.2658848851147E-02 -0.8633221565128E-02
 0.2868358761010E-02 -0.8981163238410E-02
 0.3074483048767E-02 -0.9318266297243E-02
 0.3274702022846E-02 -0.9644961947905E-02
 0.3466329166346E-02 -0.9962117816269E-02
 0.3646555901836E-02 -0.1027105675864E-01
 0.3812510583549E-02 -0.1057355386316E-01
 0.3961343853191E-02 -0.1087182324508E-01
 0.4090336083290E-02 -0.1116847397752E-01
 0.4197035310987E-02 -0.1146644126423E-01
 0.4279466007385E-02 -0.1176894576109E-01
 0.4336391124236E-02 -0.1207947035284E-01
 0.4367417048337E-02 -0.1240147991752E-01
 0.4373131777585E-02 -0.1273819588353E-01
 0.4355193982550E-02 -0.1309235332000E-01
 0.4316327609770E-02 -0.1346593553089E-01
 0.4260196453396E-02 -0.1385990617692E-01
 0.4191142421853E-02 -0.1427397772483E-01
 0.4113795963557E-02 -0.1470637602028E-01
 0.4032549543902E-02 -0.1515366646271E-01
 0.1017040351392E-04 -0.4045367500702E-03
 0.3213346504460E-04 -0.8150617667595E-03
 0.6648748005085E-04 -0.1231267624515E-02
 0.1136818998902E-03 -0.1652640457173E-02
 0.1740102181991E-03 -0.2078482306824E-02
 0.2476066207947E-03 -0.2507943765918E-02
 0.3344502954653E-03 -0.2940057769988E-02
 0.4343782629680E-03 -0.3373774778770E-02
 0.5471035167890E-03 -0.3807993056281E-02
 0.6722341678175E-03 -0.4241582491578E-02
 0.8092895491073E-03 -0.4673402164163E-02
 0.9577087718993E-03 -0.5102308657287E-02
 0.1116855503094E-02 -0.5527173074063E-02
 0.1286012253371E-02 -0.5946887934213E-02
 0.1464356902851E-02 -0.6360352083674E-02
 0.1650973391184E-02 -0.6766551383679E-02
 0.1844807154645E-02 -0.7164517240684E-02
 0.2044658877652E-02 -0.7553382880226E-02
 0.2249169650921E-02 -0.7932416214005E-02
 0.2456808636827E-02 -0.8301046011936E-02
 0.2665855146921E-02 -0.8658838165383E-02
 0.2874397983158E-02 -0.9005576574355E-02
 0.3080326280549E-02 -0.9341357264600E-02
 0.3281345763062E-02 -0.9666669473624E-02
 0.3475015039363E-02 -0.9982449010469E-02
 0.3658788652881E-02 -0.1029009573653E-01
 0.3830071748022E-02 -0.1059146682076E-01
 0.3986298075887E-02 -0.1088885743045E-01
 0.4125026145017E-02 -0.1118494842891E-01
 0.4244061625115E-02 -0.1148272764712E-01
 0.4341646828394E-02 -0.1178544211459E-01
 0.4416700151068E-02 -0.1209657126448E-01
 0.4468892468052E-02 -0.1241953689218E-01
 0.4498757504808E-02 -0.1275747751356E-01
 0.4507757983712E-02 -0.1311301384251E-01
 0.4498267641196E-02 -0.1348800007698E-01
 0.4473449125989E-02 -0.1388327932449E-01
 0.4437016943500E-02 -0.1429847781966E-01
 0.4392890743559E-02 -0.1473179142487E-01
 0.4344733871351E-02 -0.1517982354881E-01
 0.1377061940149E-04 -0.4071908663054E-03
 0.3926301175269E-04 -0.8202776569947E-03
 0.7697340669400E-04 -0.1238960540277E-02
 0.1272563886376E-03 -0.1662731734787E-02
 0.1903230388799E-03 -0.2090897289040E-02
 0.2662416671166E-03 -0.2522608130195E-02
 0.3549440354889E-03 -0.2956892123735E-02
 0.4562379984127E-03 -0.3392688192613E-02
 0.5698239943343E-03 -0.3828876581111E-02
 0.6953119586610E-03 -0.4264303696754E-02
 0.8322353707767E-03 -0.4697801474882E-02
 0.9800584414089E-03 -0.5128197916060E-02
 0.1138180443771E-02 -0.5554336507388E-02
 0.1305930513550E-02 -0.5975085397012E-02
 0.1482545650812E-02 -0.6389324320251E-02
 0.1667183111944E-02 -0.6796027176166E-02
 0.1858878285659E-02 -0.7194221805096E-02
 0.2056540450376E-02 -0.7583047362126E-02
 0.2258939595519E-02 -0.7961787893554E-02
 0.2464695653606E-02 -0.8329899211747E-02
 0.2672261881061E-02 -0.8686984226848E-02
 0.2879919310017E-02 -0.9032868435666E-02
 0.3085767082101E-02 -0.9367694082805E-02
 0.3287739999498E-02 -0.9692003691645E-02
 0.3483644563107E-02 -0.1000679453924E-01
 0.3671199423966E-02 -0.1031353501651E-01
 0.3848084706094E-02 -0.1061415454168E-01
 0.4012011596268E-02 -0.1091101881144E-01
 0.4160806231907E-02 -0.1120687025200E-01
 0.4292515965264E-02 -0.1150474076111E-01
 0.4405579371592E-02 -0.1180789761422E-01
 0.4499043568975E-02 -0.1211981345346E-01
 0.4572614498086E-02 -0.1244386927171E-01
 0.4626743202108E-02 -0.1278312960562E-01
 0.4662673805602E-02 -0.1314011608353E-01
 0.4682417981221E-02 -0.1351657358680E-01
 0.4688640291521E-02 -0.1391324564555E-01
 0.4684447663071E-02 -0.1432969013569E-01
 0.4673084251897E-02 -0.1476408364256E-01
 0.4657530715487E-02 -0.1521306885835E-01
 0.1731808053131E-04 -0.4098286367657E-03
 0.4629427840454E-04 -0.8254748619643E-03
 0.8732191156907E-04 -0.1246645829233E-02
 0.1406601833220E-03 -0.1672838679230E-02
 0.2064369526810E-03 -0.2103361953392E-02
 0.2846532401675E-03 -0.2537365489002E-02
 0.3751914249754E-03 -0.2973871209424E-02
 0.4778280091687E-03 -0.3411806502747E-02
 0.5922488688918E-03 -0.3850034579695E-02
 0.7180642998632E-03 -0.4287380252091E-02
 0.8548212571574E-03 -0.4722650876331E-02
 0.1002009296891E-02 -0.5154648821683E-02
 0.1159064472422E-02 -0.5582192983159E-02
 0.1325364574261E-02 -0.6004129926455E-02
 0.1500208479376E-02 -0.6419322537536E-02
 0.1682830068036E-02 -0.6826734269127E-02
 0.1872358357559E-02 -0.7225389942516E-02
 0.2067815078697E-02 -0.7614434078299E-02
 0.2268102998400E-02 -0.7993165067394E-02
 0.2471996518033E-02 -0.8361063034800E-02
 0.2678126071422E-02 -0.8717766137624E-02
 0.2884968140856E-02 -0.9063139740976E-02
 0.3090835215248E-02 -0.9397369143136E-02
 0.3293894267896E-02 -0.9721045021850E-02
 0.3492201913129E-02 -0.1003521906208E-01
 0.3683741484416E-02 -0.1034141951241E-01
 0.3866466137492E-02 -0.1064163826305E-01
 0.4038359128608E-02 -0.1093830140598E-01
 0.4197504659224E-02 -0.1123420347204E-01
 0.4342177570740E-02 -0.1153241299125E-01
 0.4470993840760E-02 -0.1183621273691E-01
 0.4583106335311E-02 -0.1214906668464E-01
 0.4678231221352E-02 -0.1247431852274E-01
 0.4756713389808E-02 -0.1281496832119E-01
 0.4819560246560E-02 -0.1317345350175E-01
 0.4868412692612E-02 -0.1355142792551E-01
 0.4905441070638E-02 -0.1394955410884E-01
 0.4933162410303E-02 -0.1436733662413E-01
 0.4954175633175E-02 -0.1480294093708E-01
 0.4970817973650E-02 -0.1525304851102E-01
 0.2082096917031E-04 -0.4124519506241E-03
 0.5324341732904E-04 -0.8306574867864E-03
 0.9755663450724E-04 -0.1254330176476E-02
 0.1539236150377E-03 -0.1682971047879E-02
 0.2223879850157E-03 -0.2115889789021E-02
 0.3028820509280E-03 -0.2552233860683E-02
 0.3952370177925E-03 -0.2991018430298E-02
 0.4991961258739E-03 -0.3431159315109E-02
 0.6144289845247E-03 -0.3871503557572E-02
 0.7405450417868E-03 -0.4310856082891E-02
 0.8771042182346E-03 -0.4748002027208E-02
 0.1023621700346E-02 -0.5181720860349E-02
 0.1179571406247E-02 -0.5610809683522E-02
 0.1344381599930E-02 -0.6034096037123E-02
 0.1517415474829E-02 -0.6450427977365E-02
 0.1697986441781E-02 -0.6858759773106E-02
 0.1885320365178E-02 -0.7258113505048E-02
 0.2078554797633E-02 -0.7647638210075E-02
 0.2276728663536E-02 -0.8026644531610E-02
 0.2478774050164E-02 -0.8394633887414E-02
 0.2683501388945E-02 -0.8751277737249E-02
 0.2889585400979E-02 -0.9096479402677E-02
 0.3095554768313E-02 -0.9430463800680E-02
 0.3299811209425E-02 -0.9753864318918E-02
 0.3500663214461E-02 -0.1006777972066E-01
 0.3696359088897E-02 -0.1037378930787E-01
 0.3885123099876E-02 -0.1067393775598E-01
 0.4065205706272E-02 -0.1097070179857E-01
 0.4234940744646E-02 -0.1126691931318E-01
 0.4392818262360E-02 -0.1156568901483E-01
 0.4537615555517E-02 -0.1187030559889E-01
 0.4668571915744E-02 -0.1218422370187E-01
 0.4785393168638E-02 -0.1251075415912E-01
 0.4888298986543E-02 -0.1285284247523E-01
 0.4978045761410E-02 -0.1321285632030E-01
 0.5055897328840E-02 -0.1359237552186E-01
 0.5123533921617E-02 -0.1399199813232E-01
 0.5182898002677E-02 -0.1441118817911E-01
 0.5235968684541E-02 -0.1484810610417E-01
 0.5284472391072E-02 -0.1529947017426E-01
 0.2428763920382E-04 -0.4150626602098E-03
 0.6012687364567E-04 -0.8358295526124E-03
 0.1077016296247E-03 -0.1262020113049E-02
 0.1670775913278E-03 -0.1693138314281E-02
 0.2382129546754E-03 -0.2128493764660E-02
 0.3209698618938E-03 -0.2567230359495E-02
 0.4151266876043E-03 -0.3008355733083E-02
 0.5203917421826E-03 -0.3450774058031E-02
 0.6364169368922E-03 -0.3893316970848E-02
 0.7628099002325E-03 -0.4334771071603E-02
 0.8991431571722E-03 -0.4773901462954E-02
 0.1044957843197E-02 -0.5209467264276E-02
 0.1199766734492E-02 -0.5640246393115E-02
 0.1363050175557E-02 -0.6065049728282E-02
 0.1534237798883E-02 -0.6482712314305E-02
 0.1712725052985E-02 -0.6892180287243E-02
 0.1897837411059E-02 -0.7292473041314E-02
 0.2088831128950E-02 -0.7682743042119E-02
 0.2284884170272E-02 -0.8062310841241E-02
 0.2485089046067E-02 -0.8430695889247E-02
 0.2688438596457E-02 -0.8787600868546E-02
 0.2893808146689E-02 -0.9132965002609E-02
 0.3099944945317E-02 -0.9467049177817E-02
 0.3305487557209E-02 -0.9790523799599E-02
 0.3508997728227E-02 -0.1010452717374E-01
 0.3708988849689E-02 -0.1041068076597E-01
 0.3903954547422E-02 -0.1071107245697E-01
 0.4092408274570E-02 -0.1100822021912E-01
 0.4272926365086E-02 -0.1130499713238E-01
 0.4444203814794E-02 -0.1160452648933E-01
 0.4605165962056E-02 -0.1191011230361E-01
 0.4755122750624E-02 -0.1222520016834E-01
 0.4893753091482E-02 -0.1255307325322E-01
 0.5021136323104E-02 -0.1289663265266E-01
 0.5137766781835E-02 -0.1325819033059E-01
 0.5244526782494E-02 -0.1363926796091E-01
 0.5342610374445E-02 -0.1404041404203E-01
 0.5433398285556E-02 -0.1446106298036E-01
 0.5518270584147E-02 -0.1489937465597E-01
 0.5598369257987E-02 -0.1535210101879E-01
 0.2772661424600E-04 -0.4176625613779E-03
 0.6696139348478E-04 -0.8409949537630E-03
 0.1177813811242E-03 -0.1269721948467E-02
 0.1801536053899E-03 -0.1703349579087E-02
 0.2539494578028E-03 -0.2141186225248E-02
 0.3389594300973E-03 -0.2582371087115E-02
 0.4349075216154E-03 -0.3025903502782E-02
 0.5414656592646E-03 -0.3470675886084E-02
 0.6582668754629E-03 -0.3915505142107E-02
 0.7849162279940E-03 -0.4359160987258E-02
 0.9209986255063E-03 -0.4800390540190E-02
 0.1066081500757E-02 -0.5237934973980E-02
 0.1219717388470E-02 -0.5670555484086E-02
 0.1381440108772E-02 -0.6097048498634E-02
 0.1550747539196E-02 -0.6516237708844E-02
 0.1727119274155E-02 -0.6927062000796E-02
 0.1909982701378E-02 -0.7328537956886E-02
 0.2098715173764E-02 -0.7719820192555E-02
 0.2292636078873E-02 -0.8100236620542E-02
 0.2491000612955E-02 -0.8469321273088E-02
 0.2692986030615E-02 -0.8826805875138E-02
 0.2897670211319E-02 -0.9172663393510E-02
 0.3104020891237E-02 -0.9507186871769E-02
 0.3310915149941E-02 -0.9831077851494E-02
 0.3517169051369E-02 -0.1014550649171E-01
 0.3721561102582E-02 -0.1045212748022E-01
 0.3922852818459E-02 -0.1075306242928E-01
 0.4119817225335E-02 -0.1105086145186E-01
 0.4311267430185E-02 -0.1134842519973E-01
 0.4496095230780E-02 -0.1164889662340E-01
 0.4673363551734E-02 -0.1195558723062E-01
 0.4842440666850E-02 -0.1227193462468E-01
 0.5002965757301E-02 -0.1260120005238E-01
 0.5154866293482E-02 -0.1294625051632E-01
 0.5298366314164E-02 -0.1330935596003E-01
 0.5433963551876E-02 -0.1369199489026E-01
 0.5562369295557E-02 -0.1409467987415E-01
 0.5684412769045E-02 -0.1451682520316E-01
 0.5800891241138E-02 -0.1495659340623E-01
 0.5912382727496E-02 -0.1541076612291E-01
 0.3114658343236E-04 -0.4202533793504E-03
 0.7376402693704E-04 -0.8461574267494E-03
 0.1278208117601E-03 -0.1277441721835E-02
 0.1931837376713E-03 -0.1713613505220E-02
 0.2696358456296E-03 -0.2153978816090E-02
 0.3568944460242E-03 -0.2597671052195E-02
 0.4546277121514E-03 -0.3043680483436E-02
 0.5624699293769E-03 -0.3490887606030E-02
 0.6800343053603E-03 -0.3938095193660E-02
 0.8069227863039E-03 -0.4384057427089E-02
 0.9427325786433E-03 -0.4827505387996E-02
 0.1087057787925E-02 -0.5267164601673E-02
 0.1239491514344E-02 -0.5701781895784E-02
 0.1399622236814E-02 -0.6130141348199E-02
 0.1567017567550E-02 -0.6551056838779E-02
 0.1741242956541E-02 -0.6963460762330E-02
 0.1921829556159E-02 -0.7366366630143E-02
 0.2108277723069E-02 -0.7758929784501E-02
 0.2300050157427E-02 -0.8140482798835E-02
 0.2496566528382E-02 -0.8510570692655E-02
 0.2697190109141E-02 -0.8868951987714E-02
 0.2901202875311E-02 -0.9215631168438E-02
 0.3107794536389E-02 -0.9550929508316E-02
 0.3316081954622E-02 -0.9875573666209E-02
 0.3525136309078E-02 -0.1019075785553E-01
 0.3734001241567E-02 -0.1049816101409E-01
 0.3941705060324E-02 -0.1079992910469E-01
 0.4147277830888E-02 -0.1109863552810E-01
 0.4349765214571E-02 -0.1139720128128E-01
 0.4548249836634E-02 -0.1169878458639E-01
 0.4741924574222E-02 -0.1200670321657E-01
 0.4930207076007E-02 -0.1232438840618E-01
 0.5112687545527E-02 -0.1265508562779E-01
 0.5289133342818E-02 -0.1300163821613E-01
 0.5459492420330E-02 -0.1336628749535E-01
 0.5623875928916E-02 -0.1375048311745E-01
 0.5782515084058E-02 -0.1415471438836E-01
 0.5935695167719E-02 -0.1457838395560E-01
 0.6083642485138E-02 -0.1501965930635E-01
 0.6226385887831E-02 -0.1547534716336E-01
 0.3455639582122E-04 -0.4228367600734E-03
 0.8055212806153E-04 -0.8513205314251E-03
 0.1378452876114E-03 -0.1285185172190E-02
 0.2062006544057E-03 -0.1723938278713E-02
 0.2853112010364E-03 -0.2166882437324E-02
 0.3748194738337E-03 -0.2613144122350E-02
 0.4743364519206E-03 -0.3061703731089E-02
 0.5834577049989E-03 -0.3511429633000E-02
 0.7017758961432E-03 -0.3961111007995E-02
 0.8288895243084E-03 -0.4409487781812E-02
 0.9644081404973E-03 -0.4855276878960E-02
 0.1107952925343E-02 -0.5297190410130E-02
 0.1259158258004E-02 -0.5733963124889E-02
 0.1417668247520E-02 -0.6164368784552E-02
 0.1583121414077E-02 -0.6587212927495E-02
 0.1755170374338E-02 -0.7001422136725E-02
 0.1933451439796E-02 -0.7406006505079E-02
 0.2117589390591E-02 -0.7800120581791E-02
 0.2307191632811E-02 -0.8183098795883E-02
 0.2501843624615E-02 -0.8554493463493E-02
 0.2701095863256E-02 -0.8914087625309E-02
 0.2904435559870E-02 -0.9261915025761E-02
 0.3111275460371E-02 -0.9598321170942E-02
 0.3320973101645E-02 -0.9924051728326E-02
 0.3532855348412E-02 -0.1024031709434E-01
 0.3746231039248E-02 -0.1054881146717E-01
 0.3960394620623E-02 -0.1085169584826E-01
 0.4174631622820E-02 -0.1115155824985E-01
 0.4388217614496E-02 -0.1145133307530E-01
 0.4600422287802E-02 -0.1175418980992E-01
 0.4810563658717E-02 -0.1206345168185E-01
 0.5018103096767E-02 -0.1238254557026E-01
 0.5222576005533E-02 -0.1271470760133E-01
 0.5423584473765E-02 -0.1306276793827E-01
 0.5620796784186E-02 -0.1342895249441E-01
 0.5813936335480E-02 -0.1381469592757E-01
 0.6002756060977E-02 -0.1422047632058E-01
 0.6187002151499E-02 -0.1464569247106E-01
 0.6366337460343E-02 -0.1508851855841E-01
 0.6540251013854E-02 -0.1554578141447E-01
 0.3796505411733E-04 -0.4254142667958E-03
 0.8734335343159E-04 -0.8564876435938E-03
 0.1478806210423E-03 -0.1292957727038E-02
 0.2192376047401E-03 -0.1734331593882E-02
 0.3010153147563E-03 -0.2179907227130E-02
 0.3927798925322E-03 -0.2628803006977E-02
 0.4940838314016E-03 -0.3079988597297E-02
 0.6044830909306E-03 -0.3532319975038E-02
 0.7235492941019E-03 -0.3984573213182E-02
 0.8508773625273E-03 -0.4435475221767E-02
 0.9860893727159E-03 -0.4883730616536E-02
 0.1128834011023E-02 -0.5328040302796E-02
 0.1278787556621E-02 -0.5767129221010E-02
 0.1435650508418E-02 -0.6199762827724E-02
 0.1599133151249E-02 -0.6624739762828E-02
 0.1768976180419E-02 -0.7040981443167E-02
 0.1944922004859E-02 -0.7447494153799E-02
 0.2126720760642E-02 -0.7843430081318E-02
 0.2314125458122E-02 -0.8228122649032E-02
 0.2506888190421E-02 -0.8601127729140E-02
 0.2704747487650E-02 -0.8962250603935E-02
 0.2907396536930E-02 -0.9311552022497E-02
 0.3114471769189E-02 -0.9649397699031E-02
 0.3325571927394E-02 -0.9976546155169E-02
 0.3540279930647E-02 -0.1029421605857E-01
 0.3758169953815E-02 -0.1060410786726E-01
 0.3978802409722E-02 -0.1090838834791E-01
 0.4201717724839E-02 -0.1120965154903E-01
 0.4426420341862E-02 -0.1151083850873E-01
 0.4652365499378E-02 -0.1181512618901E-01
 0.4878994356230E-02 -0.1212584270896E-01
 0.5105809607023E-02 -0.1244641283583E-01
 0.5332289367347E-02 -0.1278006994566E-01
 0.5557868241206E-02 -0.1312964158212E-01
 0.5781933307590E-02 -0.1349735136736E-01
 0.6003819726836E-02 -0.1388463259697E-01
 0.6222802949227E-02 -0.1429196384782E-01
 0.6438092191753E-02 -0.1471874752604E-01
 0.6648790101193E-02 -0.1516316597134E-01
 0.6853849872679E-02 -0.1562206101770E-01
 0.4138170842543E-04 -0.4279873817875E-03
 0.9415566074346E-04 -0.8616619588868E-03
 0.1579530739080E-03 -0.1300764508777E-02
 0.2323284184982E-03 -0.1744800662480E-02
 0.3167886627157E-03 -0.2193062573427E-02
 0.4108218387152E-03 -0.2644659270737E-02
 0.5139207380247E-03 -0.3098548743094E-02
 0.6256009982096E-03 -0.3553574245935E-02
 0.7454129363161E-03 -0.4008499193059E-02
 0.8729479781068E-03 -0.4462038703470E-02
 0.1007841045961E-02 -0.4912886937919E-02
 0.1149768794600E-02 -0.5359735823990E-02
 0.1298449933657E-02 -0.5801302786249E-02
 0.1453641900400E-02 -0.6236347011994E-02
 0.1615127283673E-02 -0.6663661704483E-02
 0.1782735369158E-02 -0.7082163771869E-02
 0.1956315144318E-02 -0.7490855306286E-02
 0.2135742545605E-02 -0.7888884559408E-02
 0.2320916590782E-02 -0.8275581079434E-02
 0.2511756384224E-02 -0.8650500549898E-02
 0.2708188901897E-02 -0.9013468250003E-02
 0.2910113649767E-02 -0.9364569713759E-02
 0.3117390980970E-02 -0.9704186853409E-02
 0.3329861021672E-02 -0.1003308488652E-01
 0.3547362922636E-02 -0.1035248282904E-01
 0.3769736426941E-02 -0.1066407839036E-01
 0.3996808244018E-02 -0.1097003483282E-01
 0.4228374154941E-02 -0.1127294368796E-01
 0.4464168076503E-02 -0.1157574590091E-01
 0.4703831526440E-02 -0.1188162218995E-01
 0.4946929628715E-02 -0.1219390507850E-01
 0.5193007247772E-02 -0.1251601953792E-01
 0.5441486018018E-02 -0.1285120285696E-01
 0.5691633734016E-02 -0.1320229055963E-01
 0.5942556718211E-02 -0.1357151711718E-01
 0.6193202028492E-02 -0.1396032809015E-01
 0.6442367399610E-02 -0.1436921425032E-01
 0.6688724453939E-02 -0.1479758906678E-01
 0.6930814643372E-02 -0.1524364454180E-01
 0.7167054044082E-02 -0.1570423249971E-01
 0.4481565074898E-04 -0.4305575132407E-03
 0.1010073090619E-03 -0.8668465080305E-03
 0.1680893631986E-03 -0.1308610359243E-02
 0.2455075068862E-03 -0.1755352247230E-02
 0.3326723864159E-03 -0.2206357154595E-02
 0.4289921520485E-03 -0.2660723378407E-02
 0.5338987575173E-03 -0.3117396184259E-02
 0.6468669995274E-03 -0.3575205707262E-02
 0.7674258656520E-03 -0.4032903123100E-02
 0.8951635906977E-03 -0.4489192997508E-02
 0.1029728411815E-02 -0.4942760933357E-02
 0.1170825452509E-02 -0.5392292170141E-02
 0.1318216295390E-02 -0.5836498979727E-02
 0.1471715653591E-02 -0.6274136385631E-02
 0.1631178640872E-02 -0.6703993681210E-02
 0.1796523243030E-02 -0.7124983980950E-02
 0.1967705048239E-02 -0.7536104849083E-02
 0.2144725748515E-02 -0.7936499074183E-02
 0.2327630276212E-02 -0.8325489499638E-02
 0.2516504653096E-02 -0.8702627916830E-02
 0.2711464317728E-02 -0.9067757421628E-02
 0.2912615039122E-02 -0.9420986181938E-02
 0.3120040916305E-02 -0.9762708353609E-02
 0.3333823278205E-02 -0.1009368972957E-01
 0.3554057488845E-02 -0.1041514176837E-01
 0.3780849179012E-02 -0.1072875041635E-01
 0.4014292182401E-02 -0.1103666612984E-01
 0.4254439116233E-02 -0.1134146931180E-01
 0.4501255602869E-02 -0.1164609400633E-01
 0.4754572425996E-02 -0.1195372087732E-01
 0.5014082319754E-02 -0.1226768627503E-01
 0.5279376412461E-02 -0.1259141760840E-01
 0.5549823971716E-02 -0.1292816270890E-01
 0.5824529562563E-02 -0.1328077572353E-01
 0.6102321196727E-02 -0.1365151524455E-01
 0.6381758604761E-02 -0.1404185294320E-01
 0.6661160556781E-02 -0.1445230377369E-01
 0.6938657732883E-02 -0.1488230004703E-01
 0.7212225174653E-02 -0.1533004526131E-01
 0.7479735273221E-02 -0.1579239653971E-01
 0.4827631094847E-04 -0.4331260074876E-03
 0.1079168622283E-03 -0.8720441837934E-03
 0.1783166711678E-03 -0.1316499882832E-02
 0.2588098681683E-03 -0.1765992720277E-02
 0.3487082778046E-03 -0.2219799009789E-02
 0.4473383240079E-03 -0.2677004771575E-02
 0.5540700769117E-03 -0.3136541368135E-02
 0.6683371847432E-03 -0.3597225339589E-02
 0.7896475446015E-03 -0.4057796031668E-02
 0.9175867463582E-03 -0.4516948737144E-02
 0.1051816972335E-02 -0.4973362480975E-02
 0.1192072360802E-02 -0.5425718210864E-02
 0.1338157725277E-02 -0.5872725525654E-02
 0.1489945181456E-02 -0.6313137507005E-02
 0.1647362268711E-02 -0.6745741176011E-02
 0.1810415378221E-02 -0.7169446671571E-02
 0.1979166259784E-02 -0.7583246790907E-02
 0.2153741825136E-02 -0.7986277421820E-02
 0.2334332331116E-02 -0.8377851960362E-02
 0.2521190151445E-02 -0.8757514688787E-02
 0.2714618806091E-02 -0.9125124435561E-02
 0.2914929869275E-02 -0.9480809953367E-02
 0.3122430588855E-02 -0.9824973784588E-02
 0.3337442945847E-02 -0.1015837625692E-01
 0.3560318284662E-02 -0.1048221341279E-01
 0.3791428506329E-02 -0.1079815041849E-01
 0.4031135865377E-02 -0.1110831555631E-01
 0.4279752290980E-02 -0.1141526935145E-01
 0.4537478950252E-02 -0.1172193193506E-01
 0.4804341122350E-02 -0.1203147985877E-01
 0.5080165627957E-02 -0.1234725246100E-01
 0.5364597237622E-02 -0.1267268158056E-01
 0.5656960339047E-02 -0.1301103208511E-01
 0.5956202842805E-02 -0.1336518742054E-01
 0.6260878997618E-02 -0.1373744381199E-01
 0.6569162717841E-02 -0.1412931332859E-01
 0.6878891612857E-02 -0.1454134768574E-01
 0.7187649373251E-02 -0.1497300647145E-01
 0.7492835168871E-02 -0.1542250714362E-01
 0.7791765804293E-02 -0.1588670797979E-01
 0.5177325491723E-04 -0.4356941668124E-03
 0.1149031970483E-03 -0.8772577802156E-03
 0.1886626621177E-03 -0.1324437509105E-02
 0.2722711004472E-03 -0.1776728147699E-02
 0.3649387701561E-03 -0.2233395640002E-02
 0.4659084504115E-03 -0.2693511978160E-02
 0.5744873886892E-03 -0.3155993282695E-02
 0.6900680150486E-03 -0.3619641943170E-02
 0.8121376658241E-03 -0.4083185886522E-02
 0.9402800968556E-03 -0.4545312487160E-02
 0.1074172244270E-02 -0.5004696296367E-02
 0.1213577862303E-02 -0.5460016518906E-02
 0.1358345272621E-02 -0.5909982723769E-02
 0.1508403909237E-02 -0.6353348435705E-02
 0.1663753315200E-02 -0.6788900197825E-02
 0.1824487584600E-02 -0.7215546139642E-02
 0.1990773725464E-02 -0.7632274193287E-02
 0.2162862840075E-02 -0.8038212044585E-02
 0.2341089420566E-02 -0.8432661034120E-02
 0.2525871153385E-02 -0.8815154449836E-02
 0.2717698858103E-02 -0.9185564896827E-02
 0.2917089048746E-02 -0.9544039799173E-02
 0.3124571092049E-02 -0.9890986369165E-02
 0.3340706678344E-02 -0.1022715355330E-01
 0.3566102651853E-02 -0.1055371419917E-01
 0.3801397585149E-02 -0.1087230368096E-01
 0.4047223866586E-02 -0.1118501864267E-01
 0.4304156152839E-02 -0.1149439076964E-01
 0.4572636556100E-02 -0.1180331894297E-01
 0.4852892298126E-02 -0.1211497113931E-01
 0.5144893604636E-02 -0.1243268841056E-01
 0.5448349611119E-02 -0.1275990860965E-01
 0.5762550801550E-02 -0.1309991988263E-01
 0.6086298168266E-02 -0.1345564566315E-01
 0.6417879038222E-02 -0.1382943366192E-01
 0.6755083936661E-02 -0.1422285129636E-01
 0.7095266296738E-02 -0.1463650052321E-01
 0.7435454118112E-02 -0.1506987764014E-01
 0.7772456946732E-02 -0.1552121746906E-01
 0.8103018644332E-02 -0.1598737607583E-01
 0.5531618581587E-04 -0.4382632732673E-03
 0.1219855180963E-03 -0.8824900450492E-03
 0.1991555083583E-03 -0.1332427576355E-02
 0.2859274241440E-03 -0.1787564401949E-02
 0.3814069370220E-03 -0.2247154141955E-02
 0.4847511889192E-03 -0.2710252756751E-02
 0.5952037963026E-03 -0.3175759599553E-02
 0.7121161752630E-03 -0.3642462269526E-02
 0.8349559583517E-03 -0.4109077707815E-02
 0.9633061730058E-03 -0.4574286834123E-02
 0.1096859516364E-02 -0.5036761998233E-02
 0.1235410026326E-02 -0.5495183410479E-02
 0.1378849733443E-02 -0.5948263463998E-02
 0.1527165094308E-02 -0.6394758720858E-02
 0.1680426907859E-02 -0.6833457242271E-02
 0.1838815856742E-02 -0.7263266307022E-02
 0.2002602835733E-02 -0.7683169069566E-02
 0.2172161612413E-02 -0.8092283894386E-02
 0.2347969323800E-02 -0.8489897639799E-02
 0.2530607453307E-02 -0.8875529291511E-02
 0.2720752934289E-02 -0.9249063435702E-02
 0.2919125940416E-02 -0.9610664425024E-02
 0.3126476477863E-02 -0.9960740610800E-02
 0.3343604580800E-02 -0.1030002381541E-01
 0.3571371817709E-02 -0.1062965603119E-01
 0.3810683788887E-02 -0.1095123384751E-01
 0.4062445069089E-02 -0.1126681268686E-01
 0.4327497316521E-02 -0.1157888615136E-01
 0.4606530478623E-02 -0.1189032409229E-01
 0.4899983342908E-02 -0.1220428088585E-01
 0.5207981710767E-02 -0.1252409740526E-01
 0.5530313232022E-02 -0.1285321851369E-01
 0.5866249119790E-02 -0.1319496149396E-01
 0.6214456588916E-02 -0.1355230043087E-01
 0.6572965463961E-02 -0.1392764880255E-01
 0.6939186493949E-02 -0.1432264520814E-01
 0.7309985293071E-02 -0.1473795654710E-01
 0.7681822881618E-02 -0.1517312661512E-01
 0.8050901068034E-02 -0.1562641226815E-01
 0.8413367775248E-02 -0.1609466501459E-01
 0.5891494928869E-04 -0.4408346190388E-03
 0.1291833811134E-03 -0.8877437466233E-03
 0.2098239279656E-03 -0.1340474437993E-02
 0.2998157167123E-03 -0.1798507304534E-02
 0.3981565010087E-03 -0.2261081377101E-02
 0.5039157221040E-03 -0.2727234277711E-02
 0.6162727205182E-03 -0.3195846852312E-02
 0.7345384227693E-03 -0.3665691184691E-02
 0.8581619873352E-03 -0.4135473707844E-02
 0.9867271495339E-03 -0.4603870498043E-02
 0.1119943596959E-02 -0.5069554189921E-02
 0.1257636397913E-02 -0.5531208995837E-02
 0.1399741420300E-02 -0.5987553245259E-02
 0.1546301634864E-02 -0.6437349386715E-02
 0.1697458018658E-02 -0.6879389241608E-02
 0.1853476311579E-02 -0.7312580632473E-02
 0.2014729451079E-02 -0.7735902252562E-02
 0.2181711845538E-02 -0.8148462252153E-02
 0.2355041182984E-02 -0.8549530808469E-02
 0.2535460748558E-02 -0.8938609520074E-02
 0.2723831995982E-02 -0.9315593351974E-02
 0.2921077055317E-02 -0.9680662049275E-02
 0.3128164622931E-02 -0.1003422180544E-01
 0.3346131249993E-02 -0.1037698180231E-01
 0.3576092097975E-02 -0.1071004568065E-01
 0.3819220022689E-02 -0.1103496229507E-01
 0.4076694075830E-02 -0.1135373613247E-01
 0.4349627940215E-02 -0.1166881312826E-01
 0.4638967679699E-02 -0.1198302577087E-01
 0.4945375384655E-02 -0.1229950908979E-01
 0.5269147459444E-02 -0.1262160108026E-01
 0.5610167744688E-02 -0.1295275382592E-01
 0.5967706688453E-02 -0.1329631906327E-01
 0.6340314596132E-02 -0.1365533210151E-01
 0.6725776172091E-02 -0.1403228696683E-01
 0.7121127558045E-02 -0.1442891037281E-01
 0.7522742546272E-02 -0.1484595041748E-01
 0.7926501397083E-02 -0.1528301092151E-01
 0.8327975609247E-02 -0.1573837706082E-01
 0.8722688275877E-02 -0.1620889471714E-01
 0.6257954370644E-04 -0.4434095441547E-03
 0.1365167271687E-03 -0.8930217568062E-03
 0.2206972370883E-03 -0.1348582594247E-02
 0.3139735620014E-03 -0.1809562801835E-02
 0.4152318536533E-03 -0.2275184178566E-02
 0.5234517258240E-03 -0.2744463343156E-02
 0.6377478048105E-03 -0.3216260651303E-02
 0.7573914301464E-03 -0.3689331864039E-02
 0.8818149435817E-03 -0.4162373456511E-02
 0.1010604597192E-02 -0.4634058463611E-02
 0.1143488547279E-02 -0.5103062554525E-02
 0.1280323731708E-02 -0.5568077237337E-02
 0.1421089915833E-02 -0.6027830195239E-02
 0.1565885861445E-02 -0.6481092911783E-02
 0.1714921310798E-02 -0.6926663499580E-02
 0.1868545106728E-02 -0.7363451997313E-02
 0.2027229907408E-02 -0.7790433225007E-02
 0.2191588234768E-02 -0.8206704496219E-02
 0.2362375728336E-02 -0.8611517382515E-02
 0.2540494997600E-02 -0.9004353279559E-02
 0.2726990012374E-02 -0.9385116155697E-02
 0.2922982724072E-02 -0.9753999856799E-02
 0.3129658076926E-02 -0.1011140540735E-01
 0.3348286805089E-02 -0.1045801411849E-01
 0.3580236102568E-02 -0.1079488400205E-01
 0.3826946077768E-02 -0.1112350730655E-01
 0.4089872660891E-02 -0.1144582773996E-01
 0.4370407191982E-02 -0.1176423360193E-01
 0.4669761393430E-02 -0.1208151103069E-01
 0.4988834421494E-02 -0.1240076908610E-01
 0.5328111159818E-02 -0.1272533917979E-01
 0.5687592955665E-02 -0.1305867982037E-01
 0.6066572132695E-02 -0.1340418178322E-01
 0.6463503086864E-02 -0.1376495198491E-01
 0.6875941241410E-02 -0.1414358032245E-01
 0.7300555340979E-02 -0.1454189986555E-01
 0.7733223349707E-02 -0.1496075807208E-01
 0.8169228626530E-02 -0.1539983346975E-01
 0.8603485205514E-02 -0.1585744783991E-01
 0.9030856231982E-02 -0.1633044192109E-01
 0.6632013673495E-04 -0.4459894822270E-03
 0.1440059306810E-03 -0.8983271519191E-03
 0.2318054213396E-03 -0.1356756852367E-02
 0.3284393194570E-03 -0.1820737178451E-02
 0.4326780915471E-03 -0.2289469601129E-02
 0.5434093477738E-03 -0.2761946651331E-02
 0.6596828246251E-03 -0.3237005940610E-02
 0.7807316266434E-03 -0.3713386025340E-02
 0.9059734286934E-03 -0.4189774080438E-02
 0.1034999228715E-02 -0.4664842141001E-02
 0.1167557407624E-02 -0.5137271976162E-02
 0.1303537718002E-02 -0.5605766030784E-02
 0.1442963817561E-02 -0.6069065110529E-02
 0.1585989318301E-02 -0.6525953224883E-02
 0.1732890973387E-02 -0.6975237638774E-02
 0.1884098344184E-02 -0.7415832597901E-02
 0.2040181003717E-02 -0.7846709949745E-02
 0.2201866553749E-02 -0.8266955861831E-02
 0.2370045478452E-02 -0.8675801695636E-02
 0.2545776750336E-02 -0.9072706143802E-02
 0.2730284438195E-02 -0.9457581063399E-02
 0.2924887739965E-02 -0.9830633393179E-02
 0.3130984887501E-02 -0.1019225631916E-01
 0.3350077905241E-02 -0.1054309840483E-01
 0.3583783945307E-02 -0.1088416504072E-01
 0.3833810014690E-02 -0.1121688312665E-01
 0.4101891282535E-02 -0.1154312563799E-01
 0.4389702817100E-02 -0.1186521285618E-01
 0.4698732637293E-02 -0.1218587483990E-01
 0.5030132633879E-02 -0.1250818702827E-01
 0.5384596867233E-02 -0.1283546932897E-01
 0.5762269262603E-02 -0.1317118462870E-01
 0.6162491097552E-02 -0.1351876636436E-01
 0.6583646479357E-02 -0.1388140310666E-01
 0.7023081460907E-02 -0.1426179649505E-01
 0.7477107260777E-02 -0.1466190570486E-01
 0.7941102472508E-02 -0.1508269799285E-01
 0.8409735230976E-02 -0.1552394389243E-01
 0.8877230213813E-02 -0.1598401250392E-01
 0.9337748853260E-02 -0.1645974176071E-01
 0.7014708954752E-04 -0.4485760158301E-03
 0.1516718635446E-03 -0.9036633345874E-03
 0.2431792281696E-03 -0.1365002519176E-02
 0.3432522129889E-03 -0.1832037311684E-02
 0.4505410651271E-03 -0.2303945216237E-02
 0.5638391886792E-03 -0.2779691104442E-02
 0.6821315892037E-03 -0.3258087292612E-02
 0.8046150240295E-03 -0.3737854190997E-02
 0.9306952188647E-03 -0.4217670482369E-02
 0.1059970619807E-02 -0.4696209538492E-02
 0.1192211896284E-02 -0.5172162665217E-02
 0.1327342679827E-02 -0.5644247283058E-02
 0.1465430452260E-02 -0.6111221484846E-02
 0.1606682512973E-02 -0.6571885679889E-02
 0.1751440523000E-02 -0.7025059515604E-02
 0.1900211939567E-02 -0.7469663792790E-02
 0.2053659953929E-02 -0.7904668639509E-02
 0.2212623703570E-02 -0.8329149122950E-02
 0.2378124902023E-02 -0.8742315155552E-02
 0.2551375439117E-02 -0.9143600589227E-02
 0.2733776652564E-02 -0.9532924350633E-02
 0.2926841965819E-02 -0.9910505788351E-02
 0.3132179394834E-02 -0.1027672798219E-01
 0.3351518746898E-02 -0.1063220229939E-01
 0.3586724448798E-02 -0.1097787488034E-01
 0.3839769563216E-02 -0.1131509872983E-01
 0.4112670639581E-02 -0.1164566606654E-01
 0.4407392778409E-02 -0.1197181835194E-01
 0.4725711823495E-02 -0.1229621902491E-01
 0.5069049813177E-02 -0.1262190108162E-01
 0.5438333443887E-02 -0.1295216657452E-01
 0.5833878154219E-02 -0.1329047919586E-01
 0.6255106027734E-02 -0.1364031742477E-01
 0.6700361698652E-02 -0.1400496099225E-01
 0.7166806581239E-02 -0.1438723965839E-01
 0.7650407678709E-02 -0.1478926014137E-01
 0.8146041741540E-02 -0.1521213261059E-01
 0.8647741422693E-02 -0.1565574004052E-01
 0.9149005228940E-02 -0.1611851248017E-01
 0.9643243945264E-02 -0.1659728958404E-01
 0.7407099055423E-04 -0.4511709427336E-03
 0.1595359798432E-03 -0.9090341796801E-03
 0.2548502867111E-03 -0.1373325631312E-02
 0.3584524468229E-03 -0.1843470974264E-02
 0.4688674474247E-03 -0.2318619460170E-02
 0.5847922933355E-03 -0.2797704168524E-02
 0.7051478436509E-03 -0.3279509249192E-02
 0.8290970356770E-03 -0.3762735989909E-02
 0.9560370178332E-03 -0.4246055593628E-02
 0.1085576917312E-02 -0.4728145463161E-02
 0.1217512094648E-02 -0.5207710308290E-02
 0.1351801255315E-02 -0.5683487012014E-02
 0.1488555574211E-02 -0.6154255557161E-02
 0.1628034647705E-02 -0.6618837047277E-02
 0.1770642584378E-02 -0.7076067147760E-02
 0.1916961467233E-02 -0.7524875956427E-02
 0.2067744310715E-02 -0.7964233525702E-02
 0.2223937729464E-02 -0.8393204263774E-02
 0.2386690542575E-02 -0.8810975805299E-02
 0.2557363628748E-02 -0.9216955433104E-02
 0.2737532354504E-02 -0.9611068654634E-02
 0.2928900898257E-02 -0.9993546912510E-02
 0.3133282989088E-02 -0.1036476137884E-01
 0.3352632036340E-02 -0.1072528228807E-01
 0.3589056345773E-02 -0.1107599035754E-01
 0.3844793550407E-02 -0.1141815643416E-01
 0.4122143299184E-02 -0.1175348195011E-01
 0.4423367021044E-02 -0.1208411834749E-01
 0.4750540552681E-02 -0.1241265105004E-01
 0.5105375026549E-02 -0.1274206048907E-01
 0.5489055892931E-02 -0.1307562285900E-01
 0.5902102989766E-02 -0.1341679725518E-01
 0.6344056191160E-02 -0.1376910800163E-01
 0.6813257327403E-02 -0.1413593467841E-01
 0.7306713625253E-02 -0.1452025194285E-01
 0.7820065592365E-02 -0.1492433733060E-01
 0.8347687517120E-02 -0.1534947013537E-01
 0.8882954715471E-02 -0.1579566994033E-01
 0.9418597561828E-02 -0.1626144485727E-01
 0.9947219440990E-02 -0.1674364334626E-01
 0.7810270070870E-04 -0.4537763550588E-03
 0.1676204252930E-03 -0.9144442086868E-03
 0.2668512597625E-03 -0.1381733229331E-02
 0.3740813513751E-03 -0.1855047192040E-02
 0.4877048227226E-03 -0.2333502040888E-02
 0.6063201481271E-03 -0.2815994288283E-02
 0.7287851652538E-03 -0.3301276709341E-02
 0.8542322812583E-03 -0.3788030495678E-02
 0.9820541905279E-03 -0.4274920654014E-02
 0.1111874525729E-02 -0.4760631742342E-02
 0.1243516109404E-02 -0.5243886234256E-02
 0.1376974055906E-02 -0.5723445458916E-02
 0.1512403037567E-02 -0.6198116368660E-02
 0.1650113322677E-02 -0.6666745509758E-02
 0.1790568640226E-02 -0.7128188639295E-02
 0.1934421971341E-02 -0.7581388322176E-02
 0.2082511851697E-02 -0.8025316606210E-02
 0.2235887795878E-02 -0.8459028117019E-02
 0.2395821097342E-02 -0.8881687836883E-02
 0.2563817216885E-02 -0.9292675207452E-02
 0.2741621906581E-02 -0.9691922193244E-02
 0.2931126180732E-02 -0.1007967242581E-01
 0.3134344821941E-02 -0.1045628390288E-01
 0.3353449928337E-02 -0.1082228239414E-01
 0.3590789467487E-02 -0.1117847758415E-01
 0.3848863347720E-02 -0.1152605029147E-01
 0.4130255387467E-02 -0.1186660121981E-01
 0.4437529354459E-02 -0.1220218024981E-01
 0.4773073584754E-02 -0.1253528252788E-01
 0.5138908513673E-02 -0.1286882439278E-01
 0.5536506958385E-02 -0.1320604630737E-01
 0.5966630039012E-02 -0.1355039520423E-01
 0.6428977902871E-02 -0.1390544007680E-01
 0.6921932837896E-02 -0.1427466786032E-01
 0.7442385116745E-02 -0.1466121508956E-01
 0.7985672078246E-02 -0.1506755533112E-01
 0.8545667795799E-02 -0.1549516675962E-01
 0.9115067264662E-02 -0.1594423415922E-01
 0.9685785346743E-02 -0.1641336498049E-01
 0.1024955263287E-01 -0.1689942654380E-01
 0.8225341300278E-04 -0.4563947339750E-03
 0.1759481768296E-03 -0.9198987981773E-03
 0.2792160342686E-03 -0.1390233683945E-02
 0.3901815639024E-03 -0.1866776665883E-02
 0.5071017967128E-03 -0.2348604411687E-02
 0.6284746834751E-03 -0.2834571362423E-02
 0.7530968504360E-03 -0.3323395365675E-02
 0.8800743726268E-03 -0.3813736601272E-02
 0.1008800473038E-02 -0.4304255517846E-02
 0.1138917768038E-02 -0.4793647464186E-02
 0.1270279708062E-02 -0.5280657595089E-02
 0.1402919296653E-02 -0.5764077212626E-02
 0.1537034438830E-02 -0.6242745828287E-02
 0.1672984206629E-02 -0.6715540661951E-02
 0.1811288745171E-02 -0.7181342103231E-02
 0.1952667737514E-02 -0.7639108814073E-02
 0.2098040422311E-02 -0.8087817370981E-02
 0.2248554113778E-02 -0.8526513966832E-02
 0.2405597443664E-02 -0.8954341054229E-02
 0.2570815577555E-02 -0.9370649464388E-02
 0.2746120618734E-02 -0.9775377894397E-02
 0.2933586056763E-02 -0.1016878271410E-01
 0.3135422463232E-02 -0.1055120808703E-01
 0.3354014922018E-02 -0.1092313269174E-01
 0.3591945911326E-02 -0.1128529025597E-01
 0.3851974331768E-02 -0.1163876422444E-01
 0.4136968342581E-02 -0.1198504484415E-01
 0.4449799459431E-02 -0.1232606864458E-01
 0.4793181005946E-02 -0.1266422739569E-01
 0.5169463848368E-02 -0.1300236033695E-01
 0.5580439037566E-02 -0.1334366024699E-01
 0.6027149837875E-02 -0.1369155180729E-01
 0.6509505001484E-02 -0.1404964505697E-01
 0.7025977937675E-02 -0.1442154013880E-01
 0.7573387221982E-02 -0.1481055234103E-01
 0.8146797428966E-02 -0.1521937844135E-01
 0.8739588841658E-02 -0.1564972925793E-01
 0.9343752682222E-02 -0.1610198860614E-01
 0.9950335173672E-02 -0.1657488954452E-01
 0.1055011900040E-01 -0.1706533173862E-01
 0.8653472941543E-04 -0.4590290626844E-03
 0.1845432194671E-03 -0.9254044286598E-03
 0.2919799591086E-03 -0.1398837083867E-02
 0.4067972514965E-03 -0.1878672268604E-02
 0.5271081329606E-03 -0.2363940321464E-02
 0.6513082837355E-03 -0.2853447286776E-02
 0.7781357941934E-03 -0.3345872194779E-02
 0.9066756836437E-03 -0.3839853433981E-02
 0.1036327663462E-02 -0.4334048990776E-02
 0.1166758527316E-02 -0.4827169244343E-02
 0.1297855935704E-02 -0.5317987572082E-02
 0.1429692407226E-02 -0.5805331360502E-02
 0.1562508738019E-02 -0.6288078806519E-02
 0.1696710682853E-02 -0.6765143538631E-02
 0.1832871210845E-02 -0.7235435611150E-02
 0.1971772030728E-02 -0.7697933901961E-02
 0.2114407739269E-02 -0.8151622545522E-02
 0.2262017822085E-02 -0.8595541162533E-02
 0.2416102612276E-02 -0.9028810338149E-02
 0.2578441644342E-02 -0.9450752072693E-02
 0.2751108965787E-02 -0.9861312503414E-02
 0.2936355754000E-02 -0.1026076178550E-01
 0.3136582491011E-02 -0.1064943026997E-01
 0.3354380701022E-02 -0.1102774773208E-01
 0.3592561175300E-02 -0.1139636784189E-01
 0.3854137350196E-02 -0.1175627000679E-01
 0.4142260730053E-02 -0.1210882466486E-01
 0.4460115034645E-02 -0.1245584309857E-01
 0.4810750629364E-02 -0.1279959984754E-01
 0.5196870433046E-02 -0.1314284253922E-01
 0.5620616510654E-02 -0.1348870205172E-01
 0.6083359002018E-02 -0.1384056782814E-01
 0.6585269751904E-02 -0.1420208433745E-01
 0.7124972220148E-02 -0.1457696853330E-01
 0.7699267995607E-02 -0.1496873077817E-01
 0.8302988164419E-02 -0.1538032012566E-01
 0.8929031520736E-02 -0.1581371825975E-01
 0.9568662538312E-02 -0.1626954805112E-01
 0.1021199954350E-01 -0.1674670048339E-01
 0.1084879099503E-01 -0.1724212500019E-01
 0.9095875934256E-04 -0.4616829622960E-03
 0.1934307683329E-03 -0.9309689834225E-03
 0.3051801383536E-03 -0.1407555698571E-02
 0.4239743804896E-03 -0.1890749630673E-02
 0.5477749135155E-03 -0.2379526452068E-02
 0.6748737968215E-03 -0.2872636569982E-02
 0.8039543508407E-03 -0.3368716000053E-02
 0.9340870913746E-03 -0.3866380804392E-02
 0.1064685280848E-02 -0.4364289187663E-02
 0.1195445856434E-02 -0.4861171506906E-02
 0.1326294700208E-02 -0.5355835593980E-02
 0.1457345610502E-02 -0.5847151650867E-02
 0.1588881844883E-02 -0.6334043239971E-02
 0.1721353456445E-02 -0.6815466651024E-02
 0.1855382247856E-02 -0.7290367145209E-02
 0.1991806785515E-02 -0.7757748450475E-02
 0.2131691141539E-02 -0.8216605817087E-02
 0.2276360811215E-02 -0.8665974701656E-02
 0.2427421696589E-02 -0.9104955065106E-02
 0.2586781923186E-02 -0.9532840450224E-02
 0.2756672729128E-02 -0.9949585604943E-02
 0.2939517789560E-02 -0.1035547605609E-01
 0.3137901004723E-02 -0.1075082912110E-01
 0.3354612906185E-02 -0.1113602478897E-01
 0.3592685245538E-02 -0.1151163354568E-01
 0.3855380176282E-02 -0.1187852496196E-01
 0.4146130102134E-02 -0.1223794089154E-01
 0.4468434064470E-02 -0.1259155556343E-01
 0.4825690613233E-02 -0.1294151182470E-01
 0.5220976315227E-02 -0.1329044970830E-01
 0.5656818481179E-02 -0.1364142156964E-01
 0.6134962489609E-02 -0.1399776534701E-01
 0.6655904145406E-02 -0.1436314971461E-01
 0.7218485043038E-02 -0.1474140905366E-01
 0.7819555570469E-02 -0.1513626393576E-01
 0.8453763640537E-02 -0.1555094640318E-01
 0.9113546935338E-02 -0.1598775209152E-01
 0.9789422062631E-02 -0.1644759025076E-01
 0.1047051366002E-01 -0.1692954953447E-01
 0.1114543625272E-01 -0.1743065115577E-01
 0.9553824473084E-04 -0.4643608561729E-03
 0.2026375464271E-03 -0.9366021092933E-03
 0.3188557913262E-03 -0.1416404532769E-02
 0.4417610391548E-03 -0.1903027832285E-02
 0.5691547240487E-03 -0.2395383156566E-02
 0.6992245389295E-03 -0.2892157029433E-02
 0.8306041694633E-03 -0.3391938009003E-02
 0.9623576825602E-03 -0.3893319687707E-02
 0.1093920187783E-02 -0.4394963908748E-02
 0.1225025553076E-02 -0.4895626777624E-02
 0.1355642324134E-02 -0.5394157566877E-02
 0.1485927467095E-02 -0.5889476668957E-02
 0.1616206167984E-02 -0.6380560250580E-02
 0.1746970119748E-02 -0.6866414036165E-02
 0.1878885560637E-02 -0.7346024558115E-02
 0.2012842243714E-02 -0.7818425567329E-02
 0.2149967283470E-02 -0.8282627548523E-02
 0.2291665482833E-02 -0.8737664786638E-02
 0.2439641691314E-02 -0.9182618483476E-02
 0.2595926427166E-02 -0.9616754735232E-02
 0.2762903053601E-02 -0.1004003856192E-01
 0.2943162186210E-02 -0.1045277302601E-01
 0.3139464049567E-02 -0.1085526402261E-01
 0.3354789827373E-02 -0.1124784191965E-01
 0.3592383622529E-02 -0.1163099203053E-01
 0.3855748938739E-02 -0.1200546936018E-01
 0.4148594891518E-02 -0.1237237922102E-01
 0.4474737207703E-02 -0.1273324732736E-01
 0.4837932313950E-02 -0.1309006998761E-01
 0.5241651369818E-02 -0.1344536230748E-01
 0.5688842005201E-02 -0.1380207901642E-01
 0.6181676425609E-02 -0.1416348664006E-01
 0.6721041732372E-02 -0.1453326354192E-01
 0.7306075766427E-02 -0.1491535826360E-01
 0.7933756382672E-02 -0.1531371468522E-01
 0.8598612266512E-02 -0.1573187975339E-01
 0.9292651264518E-02 -0.1617251129478E-01
 0.1000562489061E-01 -0.1663686078787E-01
 0.1072559150156E-01 -0.1712426355262E-01
 0.1143991523982E-01 -0.1763183994021E-01
 0.1002867186072E-03 -0.4670681692870E-03
 0.2121921317866E-03 -0.9423156535237E-03
 0.3330486943072E-03 -0.1425401992484E-02
 0.4602078233084E-03 -0.1915530222162E-02
 0.5913018660642E-03 -0.2411535313778E-02
 0.7244142926080E-03 -0.2912030575479E-02
 0.8581360021811E-03 -0.3415552527114E-02
 0.9915344263515E-03 -0.3920672737167E-02
 0.1124076181587E-02 -0.4426061035097E-02
 0.1255539708495E-02 -0.4930505994232E-02
 0.1385941074040E-02 -0.5432906126107E-02
 0.1515482397552E-02 -0.5932240042677E-02
 0.1644530138218E-02 -0.6427544301907E-02
 0.1773614686560E-02 -0.6917881347913E-02
 0.1903441904268E-02 -0.7402285575558E-02
 0.2034946547218E-02 -0.7879826491245E-02
 0.2169311775741E-02 -0.8349534526214E-02
 0.2308014449378E-02 -0.8810446408342E-02
 0.2452851261372E-02 -0.9261627108180E-02
 0.2605968530852E-02 -0.9702316966207E-02
 0.2769896413317E-02 -0.1013249345086E-01
 0.2947386588839E-02 -0.1055247993565E-01
 0.3141367937081E-02 -0.1096257340901E-01
 0.3355002995358E-02 -0.1136305595132E-01
 0.3591738263782E-02 -0.1175432702482E-01
 0.3855309503423E-02 -0.1213702363715E-01
 0.4149696319775E-02 -0.1251210770370E-01
 0.4479030299301E-02 -0.1288094562989E-01
 0.4847433389790E-02 -0.1324537227125E-01
 0.5258790902414E-02 -0.1360775935004E-01
 0.5716505919593E-02 -0.1397094240840E-01
 0.6223231663344E-02 -0.1433809269749E-01
 0.6780320223998E-02 -0.1471287873262E-01
 0.7387294624673E-02 -0.1509935499188E-01
 0.8041353705708E-02 -0.1550169861834E-01
 0.8736987562434E-02 -0.1592380386556E-01
 0.9465819953608E-02 -0.1636874425629E-01
 0.1021682693623E-01 -0.1683817909283E-01
 0.1097692143521E-01 -0.1733175101831E-01
 0.1173207890844E-01 -0.1784671342084E-01
 0.1052187057455E-03 -0.4698115731478E-03
 0.2221253903973E-03 -0.9481241982035E-03
 0.3478037189749E-03 -0.1434570691285E-02
 0.4793682895053E-03 -0.1928285390605E-02
 0.6142725882974E-03 -0.2428013317427E-02
 0.7504972816736E-03 -0.2932284089822E-02
 0.8865994655316E-03 -0.3439577643441E-02
 0.1021661794030E-02 -0.3948444817783E-02
 0.1155193536413E-02 -0.4457568928107E-02
 0.1287026213503E-02 -0.4965778817318E-02
 0.1417228650849E-02 -0.5472030892717E-02
 0.1546050165075E-02 -0.5975370659409E-02
 0.1673897688284E-02 -0.6474903371309E-02
 0.1801337075240E-02 -0.6969755964278E-02
 0.1929108582592E-02 -0.7459017809780E-02
 0.2058185265068E-02 -0.7941800480433E-02
 0.2189798754561E-02 -0.8417159693774E-02
 0.2325490155602E-02 -0.8884138897708E-02
 0.2467140425353E-02 -0.9341790063881E-02
 0.2617004730398E-02 -0.9789330188738E-02
 0.2777754473944E-02 -0.1022675189961E-01
 0.2952296269457E-02 -0.1065440229490E-01
 0.3143719449793E-02 -0.1107257294259E-01
 0.3355357659694E-02 -0.1148150025477E-01
 0.3590848425181E-02 -0.1188149864996E-01
 0.3854148784049E-02 -0.1227308524965E-01
 0.4149500292387E-02 -0.1265707313949E-01
 0.4481346934380E-02 -0.1303465968088E-01
 0.4854181128462E-02 -0.1340750371553E-01
 0.5272319660763E-02 -0.1377781436317E-01
 0.5739655281294E-02 -0.1414828412044E-01
 0.6259378122327E-02 -0.1452196093086E-01
 0.6833384917162E-02 -0.1490247815290E-01
 0.7461684251691E-02 -0.1529398177779E-01
 0.8141806428911E-02 -0.1570088756266E-01
 0.8868303816778E-02 -0.1612746898771E-01
 0.9632480797676E-02 -0.1657727377918E-01
 0.1042253856481E-01 -0.1705244568919E-01
 0.1122416065565E-01 -0.1755300952015E-01
 0.1202176596275E-01 -0.1807639475202E-01
 0.1103499768594E-03 -0.4725992868243E-03
 0.2324710176304E-03 -0.9540457139019E-03
 0.3631694917761E-03 -0.1443938426401E-02
 0.4992994911086E-03 -0.1941328325030E-02
 0.6381253434560E-03 -0.2444854217636E-02
 0.7775281271611E-03 -0.2952950404281E-02
 0.9160427646464E-03 -0.3464035987631E-02
 0.1052781344942E-02 -0.3976643560938E-02
 0.1187308525458E-02 -0.4489476840814E-02
 0.1319518259120E-02 -0.5001413960801E-02
 0.1449537684401E-02 -0.5511478767450E-02
 0.1577665365045E-02 -0.6018792942167E-02
 0.1704347735275E-02 -0.6522539202748E-02
 0.1830182586933E-02 -0.7021917193315E-02
 0.1955938931426E-02 -0.7516078885071E-02
 0.2082620895394E-02 -0.8004184822265E-02
 0.2211500415349E-02 -0.8485322013908E-02
 0.2344174452953E-02 -0.8958545612473E-02
 0.2482600177423E-02 -0.9422898571657E-02
 0.2629134324562E-02 -0.9877577716124E-02
 0.2786583856506E-02 -0.1032259409021E-01
 0.2958004014541E-02 -0.1075832258796E-01
 0.3146635912017E-02 -0.1118505387062E-01
 0.3355973122878E-02 -0.1160298269680E-01
 0.3589831360489E-02 -0.1201234090870E-01
 0.3852375933405E-02 -0.1241352565070E-01
 0.4148099230094E-02 -0.1280719752503E-01
 0.4481751094483E-02 -0.1319437663540E-01
 0.4858195988946E-02 -0.1357653214024E-01
 0.5282196305001E-02 -0.1395569109748E-01
 0.5758166564578E-02 -0.1433437715006E-01
 0.6289890184002E-02 -0.1471548266601E-01
 0.6879893371236E-02 -0.1510257405529E-01
 0.7528782450956E-02 -0.1549986677480E-01
 0.8234548706022E-02 -0.1591201416267E-01
 0.8991932180819E-02 -0.1634369872751E-01
 0.9792006475727E-02 -0.1679900621964E-01
 0.1062221603138E-01 -0.1728065152899E-01
 0.1146692844017E-01 -0.1778913728099E-01
 0.1230880346186E-01 -0.1832211828106E-01
 0.1156978719146E-03 -0.4754414586269E-03
 0.2432662135398E-03 -0.9601023735093E-03
 0.3791991927404E-03 -0.1453539379432E-02
 0.5200625905651E-03 -0.1954701796701E-02
 0.6629210380617E-03 -0.2462103042014E-02
 0.8055617353780E-03 -0.2974069382771E-02
 0.9465123234019E-03 -0.3488955520427E-02
 0.1084931218634E-02 -0.4005279907332E-02
 0.1220452860730E-02 -0.4521775297591E-02
 0.1353043765735E-02 -0.5037379488328E-02
 0.1482895161466E-02 -0.5551194196422E-02
 0.1610356845726E-02 -0.6062427104117E-02
 0.1735913586386E-02 -0.6570347540163E-02
 0.1860191295877E-02 -0.7074236453654E-02
 0.1983981703154E-02 -0.7573316521988E-02
 0.2108312260809E-02 -0.8066804775872E-02
 0.2234486435416E-02 -0.8553826229415E-02
 0.2364148060402E-02 -0.9033453483987E-02
 0.2499321992649E-02 -0.9504725253594E-02
 0.2642458974325E-02 -0.9966822163288E-02
 0.2796495773431E-02 -0.1041977748717E-01
 0.2964629877935E-02 -0.1086399864991E-01
 0.3150245120404E-02 -0.1129978099110E-01
 0.3356982930995E-02 -0.1172728312264E-01
 0.3588822879846E-02 -0.1214665860194E-01
 0.3850123408847E-02 -0.1255818656031E-01
 0.4145613815117E-02 -0.1296237362458E-01
 0.4480339772276E-02 -0.1336005647938E-01
 0.4859535287877E-02 -0.1375250248646E-01
 0.5288418242676E-02 -0.1414153765716E-01
 0.5771953504210E-02 -0.1452948961146E-01
 0.6314573010276E-02 -0.1491905881190E-01
 0.6919521167867E-02 -0.1531370584470E-01
 0.7588125874343E-02 -0.1571768441676E-01
 0.8318990049100E-02 -0.1613587574446E-01
 0.9107195775052E-02 -0.1657339712489E-01
 0.9943706449545E-02 -0.1703494005784E-01
 0.1081524693835E-01 -0.1752389275464E-01
 0.1170480119308E-01 -0.1804133734885E-01
 0.1259299893109E-01 -0.1858526598420E-01
 0.1212817121520E-03 -0.4783506621521E-03
 0.2545525287620E-03 -0.9663215519488E-03
 0.3959515327508E-03 -0.1463415602622E-02
 0.5417235629977E-03 -0.1968458019039E-02
 0.6887232783361E-03 -0.2479814318751E-02
 0.8346531211298E-03 -0.2995689107642E-02
 0.9780523371858E-03 -0.3514370351349E-02
 0.1118145567511E-02 -0.4034368637236E-02
 0.1254653100997E-02 -0.4554456455785E-02
 0.1387624803876E-02 -0.5073643108705E-02
 0.1517321858619E-02 -0.5591119463982E-02
 0.1644147136127E-02 -0.6106189461253E-02
 0.1768622344891E-02 -0.6618218447425E-02
 0.1891397427172E-02 -0.7126577563825E-02
 0.2013280423905E-02 -0.7630568744390E-02
 0.2135313862744E-02 -0.8129473643710E-02
 0.2258823344118E-02 -0.8622462754084E-02
 0.2385489961745E-02 -0.9108632693589E-02
 0.2517397255268E-02 -0.9587023568906E-02
 0.2657082167733E-02 -0.1005680461782E-01
 0.2807605548599E-02 -0.1051803571194E-01
 0.2972300794915E-02 -0.1097116219976E-01
 0.3154685113239E-02 -0.1141649078203E-01
 0.3358534883324E-02 -0.1185415099864E-01
 0.3587977714393E-02 -0.1228422438233E-01
 0.3847547847047E-02 -0.1270687631729E-01
 0.4142194582065E-02 -0.1312246052104E-01
 0.4477245533956E-02 -0.1353162674061E-01
 0.4858297005412E-02 -0.1393543077746E-01
 0.5291026883304E-02 -0.1433548001668E-01
 0.5780973779356E-02 -0.1473387842107E-01
 0.6333270198108E-02 -0.1513309465935E-01
 0.6951969422535E-02 -0.1553643717049E-01
 0.7639255639957E-02 -0.1594815591395E-01
 0.8394516810127E-02 -0.1637333889176E-01
 0.9213366065339E-02 -0.1681755695560E-01
 0.1008681576429E-01 -0.1728617816881E-01
 0.1100094510836E-01 -0.1778338175607E-01
 0.1193726867731E-01 -0.1831095528303E-01
 0.1287424164955E-01 -0.1886734387716E-01
 0.1271217874928E-03 -0.4813296638835E-03
 0.2663802236069E-03 -0.9727156503117E-03
 0.4135054090123E-03 -0.1473592776341E-02
 0.5643824849069E-03 -0.1982634692815E-02
 0.7156454801697E-03 -0.2498032695368E-02
 0.8649244006725E-03 -0.3017855322354E-02
 0.1010792563640E-02 -0.3540323154945E-02
 0.1152563043670E-02 -0.4063947830257E-02
 0.1290058901308E-02 -0.4587554707893E-02
 0.1423424017065E-02 -0.5110238242142E-02
 0.1552994811412E-02 -0.5631291004162E-02
 0.1679228347823E-02 -0.6150124470594E-02
 0.1802681139209E-02 -0.6666210476998E-02
 0.1924022273122E-02 -0.7179020556161E-02
 0.2044068765331E-02 -0.7687946103857E-02
 0.2163868844181E-02 -0.8192343508450E-02
 0.2284759595760E-02 -0.8691438359769E-02
 0.2408448611742E-02 -0.9184359996862E-02
 0.2537068376342E-02 -0.9670157543557E-02
 0.2673234193403E-02 -0.1014799548868E-01
 0.2820126167591E-02 -0.1061796646560E-01
 0.2981208596071E-02 -0.1108056108308E-01
 0.3160123912035E-02 -0.1153610617153E-01
 0.3360771370745E-02 -0.1198471134667E-01
 0.3587411290983E-02 -0.1242639426260E-01
 0.3844736673293E-02 -0.1286121239369E-01
 0.4137900200312E-02 -0.1328936876809E-01
 0.4472497988474E-02 -0.1371132325968E-01
 0.4854482268272E-02 -0.1412791004010E-01
 0.5289997342838E-02 -0.1454049854281E-01
 0.5785183081616E-02 -0.1495093716114E-01
 0.6345933367567E-02 -0.1536141456006E-01
 0.6977218369913E-02 -0.1577502818203E-01
 0.7682243556812E-02 -0.1619596695819E-01
 0.8461401555539E-02 -0.1662949092413E-01
 0.9311085114612E-02 -0.1708163867904E-01
 0.1022257720377E-01 -0.1755853941442E-01
 0.1118142074390E-01 -0.1806531288289E-01
 0.1216759149049E-01 -0.1860464861434E-01
 0.1315700748267E-01 -0.1917545160011E-01
 0.1332440057279E-03 -0.4844089544123E-03
 0.2787994508161E-03 -0.9793455819250E-03
 0.4319212525505E-03 -0.1484157206140E-02
 0.5880904013975E-03 -0.1997331217071E-02
 0.7437129477123E-03 -0.2516853862650E-02
 0.8963662592721E-03 -0.3040643335271E-02
 0.1044687217411E-02 -0.3566855375999E-02
 0.1188104121098E-02 -0.4094015371386E-02
 0.1326562003299E-02 -0.4621017469341E-02
 0.1460310296863E-02 -0.5147056277755E-02
 0.1589766229731E-02 -0.5671538780635E-02
 0.1715442361203E-02 -0.6193994674796E-02
 0.1837928144971E-02 -0.6714011817355E-02
 0.1957907282374E-02 -0.7231171377795E-02
 0.2076198732054E-02 -0.7744963678094E-02
 0.2193847143102E-02 -0.8254829517227E-02
 0.2312190223145E-02 -0.8760059080134E-02
 0.2432950819349E-02 -0.9259823239433E-02
 0.2558300036358E-02 -0.9753188060326E-02
 0.2690923086532E-02 -0.1023932028649E-01
 0.2834113749313E-02 -0.1071835111440E-01
 0.2991461154712E-02 -0.1119082343282E-01
 0.3166723096200E-02 -0.1165709353588E-01
 0.3363906901660E-02 -0.1211726197265E-01
 0.3587386277602E-02 -0.1257129359275E-01
 0.3841990431520E-02 -0.1301914803889E-01
 0.4133051376343E-02 -0.1346088553857E-01
 0.4466410361877E-02 -0.1389678024220E-01
 0.4848356059296E-02 -0.1432744277242E-01
 0.5285488785705E-02 -0.1475399357201E-01
 0.5784556755881E-02 -0.1517800057558E-01
 0.6352253486181E-02 -0.1560132769791E-01
 0.6994553878360E-02 -0.1602679882810E-01
 0.7715839495054E-02 -0.1645847141888E-01
 0.8517736663347E-02 -0.1690172111930E-01
 0.9397703395258E-02 -0.1736304504319E-01
 0.1034757764315E-01 -0.1784940350104E-01
 0.1135255230905E-01 -0.1836702038134E-01
 0.1239103821022E-01 -0.1891968468480E-01
 0.1343609523082E-01 -0.1950708183640E-01
 0.1396773295958E-03 -0.4876125707415E-03
 0.2918725746441E-03 -0.9862637709026E-03
 0.4512826442753E-03 -0.1495187779138E-02
 0.6129330856682E-03 -0.2012642270656E-02
 0.7729985949317E-03 -0.2536372926304E-02
 0.9290319687192E-03 -0.3064134449663E-02
 0.1079770019725E-02 -0.3594024758504E-02
 0.1224786721848E-02 -0.4124600335964E-02
 0.1364169384620E-02 -0.4654843210926E-02
 0.1498284334550E-02 -0.5184064664268E-02
 0.1627634608513E-02 -0.5711799154569E-02
 0.1752789086320E-02 -0.6237705044193E-02
 0.1874368038322E-02 -0.6761495372934E-02
 0.1993065139386E-02 -0.7282870008747E-02
 0.2109694128671E-02 -0.7801427872622E-02
 0.2225286455074E-02 -0.8316704508801E-02
 0.2341168948187E-02 -0.8828065213926E-02
 0.2459067679359E-02 -0.9334732388013E-02
 0.2581181437363E-02 -0.9835798141435E-02
 0.2710256744550E-02 -0.1033043953523E-01
 0.2849695867456E-02 -0.1081883269086E-01
 0.3003207262847E-02 -0.1130158037451E-01
 0.3174654408641E-02 -0.1177907875784E-01
 0.3368137390872E-02 -0.1225143185669E-01
 0.3588122665008E-02 -0.1271856507058E-01
 0.3839550929114E-02 -0.1318035326612E-01
 0.4127906301783E-02 -0.1363672560644E-01
 0.4459247224611E-02 -0.1408777951557E-01
 0.4840172764027E-02 -0.1453390588284E-01
 0.5277719769769E-02 -0.1497597113925E-01
 0.5779240193549E-02 -0.1541524285836E-01
 0.6352252427227E-02 -0.1585321699844E-01
 0.7003814027839E-02 -0.1629237603552E-01
 0.7739638473283E-02 -0.1673656077990E-01
 0.8562837512366E-02 -0.1719118282959E-01
 0.9472273416821E-02 -0.1766316408746E-01
 0.1046070655790E-01 -0.1816035662941E-01
 0.1151325510649E-01 -0.1869026760269E-01
 0.1260678911072E-01 -0.1925806666084E-01
 0.1371127543804E-01 -0.1986454281152E-01
 0.1464559497994E-03 -0.4909706815458E-03
 0.3056727728209E-03 -0.9935358054138E-03
 0.4716851706029E-03 -0.1506782101484E-02
 0.6390047310119E-03 -0.2028682997079E-02
 0.8035781505120E-03 -0.2556703265782E-02
 0.9629726026761E-03 -0.3088423840081E-02
 0.1116069145529E-02 -0.3621898208945E-02
 0.1262621413057E-02 -0.4155737051981E-02
 0.1402879844408E-02 -0.4689032816999E-02
 0.1537338295414E-02 -0.5221231297205E-02
 0.1666589729505E-02 -0.5752007482360E-02
 0.1791259560965E-02 -0.6281158245109E-02
 0.1911996498926E-02 -0.6808530281622E-02
 0.2029499544957E-02 -0.7333950792737E-02
 0.2144570072673E-02 -0.7857137037553E-02
 0.2258216490254E-02 -0.8377730285924E-02
 0.2371742642068E-02 -0.8895182594882E-02
 0.2486864927523E-02 -0.9408779247436E-02
 0.2605798176307E-02 -0.9917648850841E-02
 0.2731341481849E-02 -0.1042098800543E-01
 0.2867000945737E-02 -0.1091902466400E-01
 0.3016599630117E-02 -0.1141242956000E-01
 0.3184097424514E-02 -0.1190165012918E-01
 0.3373671511363E-02 -0.1238680795482E-01
 0.3589859284915E-02 -0.1286780454453E-01
 0.3837686226121E-02 -0.1334444604834E-01
 0.4122758366535E-02 -0.1381654639266E-01
 0.4451318981160E-02 -0.1428404074033E-01
 0.4830244812111E-02 -0.1474711099169E-01
 0.5266979884930E-02 -0.1520637251795E-01
 0.5769461502630E-02 -0.1566278044241E-01
 0.6346041102805E-02 -0.1611742455490E-01
 0.7004920601729E-02 -0.1657237582161E-01
 0.7753294747501E-02 -0.1703115931227E-01
 0.8596029911558E-02 -0.1749911580118E-01
 0.9533788528138E-02 -0.1798352502612E-01
 0.1056072188404E-01 -0.1849316992697E-01
 0.1166227033328E-01 -0.1903703781688E-01
 0.1281388612894E-01 -0.1962202467302E-01
 0.1398214288521E-01 -0.2025033438792E-01
 0.1536208515399E-03 -0.4945214039579E-03
 0.3202869554691E-03 -0.1001244190648E-02
 0.4932389243798E-03 -0.1519061295303E-02
 0.6664088427855E-03 -0.2045593326490E-02
 0.8355295696122E-03 -0.2577979393710E-02
 0.9982357356688E-03 -0.3113621893122E-02
 0.1153605863816E-02 -0.3650552125281E-02
 0.1301610292182E-02 -0.4187464987097E-02
 0.1442683174077E-02 -0.4723589427419E-02
 0.1577455196110E-02 -0.5258524526778E-02
 0.1706612134276E-02 -0.5792098375818E-02
 0.1830835411935E-02 -0.6324255163961E-02
 0.1950799569538E-02 -0.6854982660813E-02
 0.2067204414368E-02 -0.7384243313169E-02
 0.2180832017254E-02 -0.7911882336614E-02
 0.2292657859049E-02 -0.8437658318537E-02
 0.2403950143750E-02 -0.8961122988998E-02
 0.2516401749975E-02 -0.9481637467867E-02
 0.2632231059407E-02 -0.9998378892483E-02
 0.2754280830265E-02 -0.1051057392956E-01
 0.2886157028957E-02 -0.1101850980992E-01
 0.3031793635475E-02 -0.1152293370689E-01
 0.3195238314546E-02 -0.1202435651696E-01
 0.3380729514095E-02 -0.1252293286686E-01
 0.3592852756953E-02 -0.1301855795210E-01
 0.3836689843859E-02 -0.1351098817642E-01
 0.4117935892369E-02 -0.1399994226572E-01
 0.4442982611703E-02 -0.1448521356062E-01
 0.4818945230592E-02 -0.1496679378586E-01
 0.5253635304218E-02 -0.1544506024954E-01
 0.5755541541151E-02 -0.1592065463638E-01
 0.6333835340080E-02 -0.1639423187004E-01
 0.6997901052709E-02 -0.1686738391652E-01
 0.7756547357053E-02 -0.1734320993649E-01
 0.8616672491475E-02 -0.1782684343353E-01
 0.9581191441379E-02 -0.1832581102989E-01
 0.1064623505207E-01 -0.1884982891507E-01
 0.1179812886086E-01 -0.1940956820511E-01
 0.1301116195009E-01 -0.2001404999975E-01
 0.1424815244343E-01 -0.2066727826326E-01
 0.1612219446422E-03 -0.4983133017816E-03
 0.3358195773899E-03 -0.1009493419770E-02
 0.5160714556591E-03 -0.1532176205640E-02
 0.6952589199982E-03 -0.2063543188138E-02
 0.8689319206355E-03 -0.2600360019981E-02
 0.1034863668182E-02 -0.3139855315735E-02
 0.1192392897887E-02 -0.3680072365414E-02
 0.1341745764223E-02 -0.4219828325273E-02
 0.1483559325135E-02 -0.4758518071643E-02
 0.1618608330297E-02 -0.5295913056297E-02
 0.1747672663662E-02 -0.5832005936857E-02
 0.1871488379121E-02 -0.6366895480924E-02
 0.1990753055555E-02 -0.6900716473817E-02
 0.2106163073598E-02 -0.7433573452292E-02
 0.2218474716798E-02 -0.7965448840438E-02
 0.2328620846914E-02 -0.8496230674316E-02
 0.2437820934370E-02 -0.9025584679149E-02
 0.2547729441419E-02 -0.9552962670690E-02
 0.2660554772055E-02 -0.1007760425754E-01
 0.2779174199393E-02 -0.1059877822307E-01
 0.2907290408397E-02 -0.1111683908517E-01
 0.3048945916175E-02 -0.1163261917875E-01
 0.3208268412194E-02 -0.1214670563709E-01
 0.3389541792815E-02 -0.1265930268327E-01
 0.3597376088215E-02 -0.1317031848928E-01
 0.3836879495128E-02 -0.1367948135442E-01
 0.4113801220274E-02 -0.1418643900476E-01
 0.4434641584305E-02 -0.1469086970129E-01
 0.4806709235858E-02 -0.1519260286554E-01
 0.5238133437317E-02 -0.1569180283638E-01
 0.5737903568943E-02 -0.1618881159564E-01
 0.6315972710026E-02 -0.1668383560585E-01
 0.6982913867933E-02 -0.1717792995164E-01
 0.7749252413932E-02 -0.1767365265730E-01
 0.8624188549669E-02 -0.1817576388812E-01
 0.9613391572936E-02 -0.1869187099061E-01
 0.1071569867507E-01 -0.1923256758487E-01
 0.1191910178117E-01 -0.1981039744490E-01
 0.1319717721336E-01 -0.2043697218227E-01
 0.1450861766909E-01 -0.2111862253524E-01
 0.1693210108644E-03 -0.5024088885728E-03
 0.3523976548939E-03 -0.1018416928100E-02
 0.5403311794577E-03 -0.1546315491667E-02
 0.7256786893860E-03 -0.2082738741080E-02
 0.9038635116286E-03 -0.2624031180106E-02
 0.1072891063515E-02 -0.3167267805459E-02
 0.1232432489202E-02 -0.3710553706377E-02
 0.1383009235866E-02 -0.4252875154552E-02
 0.1525477606162E-02 -0.4793825060015E-02
 0.1660760771636E-02 -0.5333365716473E-02
 0.1789732089787E-02 -0.5871663961274E-02
 0.1913179927651E-02 -0.6408978294746E-02
 0.2031821988937E-02 -0.6945594528662E-02
 0.2146347473094E-02 -0.7481764661430E-02
 0.2257481142488E-02 -0.8017616889600E-02
 0.2366104068789E-02 -0.8553181231890E-02
 0.2473373644369E-02 -0.9088253285776E-02
 0.2580889886112E-02 -0.9622392718928E-02
 0.2690836385448E-02 -0.1015491791782E-01
 0.2806115389202E-02 -0.1068515368684E-01
 0.2930524105507E-02 -0.1121353047494E-01
 0.3068212807575E-02 -0.1174097459451E-01
 0.3223382602356E-02 -0.1226816245271E-01
 0.3400347207563E-02 -0.1279536506376E-01
 0.3603716925569E-02 -0.1332252409974E-01
 0.3838595310580E-02 -0.1384936365965E-01
 0.4110749080425E-02 -0.1437548859824E-01
 0.4426744786394E-02 -0.1490049523823E-01
 0.4794034583102E-02 -0.1542408835273E-01
 0.5221006223098E-02 -0.1594625835120E-01
 0.5717081859185E-02 -0.1646707969720E-01
 0.6292929581514E-02 -0.1698631839414E-01
 0.6960276985453E-02 -0.1750445379499E-01
 0.7731422979138E-02 -0.1802339282353E-01
 0.8618110257775E-02 -0.1854733161952E-01
 0.9629295921903E-02 -0.1908372722519E-01
 0.1076739986033E-01 -0.1964390805061E-01
 0.1202314394713E-01 -0.2024243453689E-01
 0.1337014549727E-01 -0.2089405319892E-01
 0.1476267672479E-01 -0.2160815279874E-01
 0.1779958620662E-03 -0.5068896470557E-03
 0.3701774136540E-03 -0.1028186785515E-02
 0.5661911678547E-03 -0.1561716233628E-02
 0.7578015080106E-03 -0.2103429702742E-02
 0.9403989473379E-03 -0.2649209157542E-02
 0.1112341884148E-02 -0.3196019989688E-02
 0.1273714175040E-02 -0.3742098617522E-02
 0.1425369771866E-02 -0.4286656188167E-02
 0.1568395951465E-02 -0.4829517103190E-02
 0.1703864987892E-02 -0.5370851104695E-02
 0.1832740869531E-02 -0.5911006106776E-02
 0.1955860976587E-02 -0.6450402798213E-02
 0.2073960186245E-02 -0.6989479618482E-02
 0.2187717445995E-02 -0.7528639470478E-02
 0.2297821361926E-02 -0.8068163780419E-02
 0.2405092994561E-02 -0.8608237247431E-02
 0.2510614363875E-02 -0.9148802889770E-02
 0.2615913825287E-02 -0.9689548168414E-02
 0.2723133671987E-02 -0.1022988955964E-01
 0.2835190943015E-02 -0.1076922415232E-01
 0.2955976219802E-02 -0.1130806776968E-01
 0.3089748655258E-02 -0.1184744944000E-01
 0.3240777561060E-02 -0.1238814770944E-01
 0.3413391193172E-02 -0.1293051760376E-01
 0.3612175473496E-02 -0.1347455538129E-01
 0.3842197550188E-02 -0.1402000650662E-01
 0.4109204191040E-02 -0.1456646457291E-01
 0.4419784340081E-02 -0.1511348331305E-01
 0.4781480390287E-02 -0.1566069062172E-01
 0.5202871542692E-02 -0.1620795737660E-01
 0.5693728437801E-02 -0.1675514462625E-01
 0.6265337304900E-02 -0.1730161451665E-01
 0.6930498342322E-02 -0.1784726263309E-01
 0.7703276912957E-02 -0.1839325587587E-01
 0.8598138520124E-02 -0.1894302415494E-01
 0.9627859897767E-02 -0.1950357418023E-01
 0.1079946653700E-01 -0.2008670579765E-01
 0.1210783119189E-01 -0.2070904832213E-01
 0.1352783048307E-01 -0.2138910432322E-01
 0.1500922949768E-01 -0.2214033216189E-01
 0.1873463361423E-03 -0.5118633969411E-03
 0.3893531449980E-03 -0.1039027439444E-02
 0.5938530858766E-03 -0.1578677883175E-02
 0.7917683287024E-03 -0.2125917721652E-02
 0.9786047305751E-03 -0.2676142723504E-02
 0.1153225543525E-02 -0.3226288235161E-02
 0.1316212334053E-02 -0.3774815153852E-02
 0.1468782784346E-02 -0.4321222952222E-02
 0.1612260314275E-02 -0.4865600141300E-02
 0.1747862603675E-02 -0.5408337083933E-02
 0.1876639049975E-02 -0.5949966021296E-02
 0.1999471775170E-02 -0.6491069000675E-02
 0.2117109936294E-02 -0.7032235807390E-02
 0.2230220047279E-02 -0.7574021262224E-02
 0.2339451406679E-02 -0.8116865833601E-02
 0.2445558340489E-02 -0.8661121365017E-02
 0.2549534719446E-02 -0.9206897549112E-02
 0.2652818859972E-02 -0.9754032952851E-02
 0.2757493187224E-02 -0.1030206535022E-01
 0.2866478321202E-02 -0.1085048351063E-01
 0.2983758148549E-02 -0.1139989919599E-01
 0.3113704031502E-02 -0.1195145263409E-01
 0.3260649890862E-02 -0.1250603661172E-01
 0.3428923694311E-02 -0.1306410654846E-01
 0.3623062104302E-02 -0.1362573401563E-01
 0.3848063805268E-02 -0.1419071226434E-01
 0.4109618056117E-02 -0.1475865806247E-01
 0.4414292195811E-02 -0.1532912760065E-01
 0.4769664175379E-02 -0.1590172960115E-01
 0.5184432210042E-02 -0.1647628587104E-01
 0.5668616965996E-02 -0.1705252280052E-01
 0.6233996007029E-02 -0.1762947069345E-01
 0.6894306826672E-02 -0.1820647770107E-01
 0.7665292140181E-02 -0.1878392474377E-01
 0.8564221679120E-02 -0.1936428683167E-01
 0.9608167049823E-02 -0.1995375993022E-01
 0.1080989820765E-01 -0.2056419628837E-01
 0.1217029315843E-01 -0.2121418121912E-01
 0.1366740162804E-01 -0.2192663977540E-01
 0.1524683784209E-01 -0.2272049078207E-01
 0.1975031563919E-03 -0.5174754082448E-03
 0.4101690305794E-03 -0.1051235560246E-02
 0.6235506942106E-03 -0.1597580601448E-02
 0.8277232947016E-03 -0.2150565444627E-02
 0.1018532958776E-02 -0.2705113905277E-02
 0.1195532257207E-02 -0.3258261820088E-02
 0.1359883609910E-02 -0.3808813784784E-02
 0.1513188843063E-02 -0.4356625399018E-02
 0.1657004234062E-02 -0.4902077879685E-02
 0.1792684337714E-02 -0.5445790142256E-02
 0.1921356341202E-02 -0.5988477427060E-02
 0.2043941941784E-02 -0.6530878486590E-02
 0.2161201839787E-02 -0.7073729852371E-02
 0.2273789002341E-02 -0.7617736322800E-02
 0.2382312145729E-02 -0.8163500900795E-02
 0.2487454307326E-02 -0.8711554172477E-02
 0.2590109649206E-02 -0.9262193320111E-02
 0.2691607093649E-02 -0.9815435360292E-02
 0.2793948030515E-02 -0.1037096769781E-01
 0.2900043839902E-02 -0.1092839449787E-01
 0.3013972665520E-02 -0.1148843573680E-01
 0.3140223883444E-02 -0.1205235090589E-01
 0.3283194200957E-02 -0.1262115755269E-01
 0.3447196974341E-02 -0.1319542581933E-01
 0.3636694693227E-02 -0.1377532171475E-01
 0.3856585709206E-02 -0.1436071253226E-01
 0.4112464962986E-02 -0.1495127464910E-01
 0.4410835453610E-02 -0.1554661664532E-01
 0.4759256915222E-02 -0.1614639492330E-01
 0.5166472046454E-02 -0.1675046845653E-01
 0.5642642720951E-02 -0.1735853380248E-01
 0.6199884108300E-02 -0.1796940246312E-01
 0.6852680925257E-02 -0.1858196983713E-01
 0.7618267174256E-02 -0.1919585548319E-01
 0.8516655364325E-02 -0.1981244523197E-01
 0.9569549190865E-02 -0.2043673595559E-01
 0.1079663940122E-01 -0.2108003274509E-01
 0.1220715009671E-01 -0.2176249205708E-01
 0.1378523162678E-01 -0.2251208699490E-01
 0.1547356739988E-01 -0.2335509171644E-01
 0.2086413784074E-03 -0.5239256759922E-03
 0.4329348755414E-03 -0.1065209233447E-02
 0.6555517026519E-03 -0.1618909167568E-02
 0.8658055968945E-03 -0.2177805299302E-02
 0.1060212710285E-02 -0.2736436029240E-02
 0.1239227766134E-02 -0.3292137873182E-02
 0.1404664456366E-02 -0.3844203019285E-02
 0.1558512779336E-02 -0.4392908941943E-02
 0.1702548702845E-02 -0.4938950048435E-02
 0.1838250220090E-02 -0.5483174629539E-02
 0.1966812458735E-02 -0.6026474170565E-02
 0.2089190777736E-02 -0.6569735214656E-02
 0.2206154934034E-02 -0.7113832770002E-02
 0.2318344422333E-02 -0.7659616208230E-02
 0.2426328327579E-02 -0.8207851422562E-02
 0.2530716791148E-02 -0.8759257514399E-02
 0.2632294935100E-02 -0.9314341056622E-02
 0.2732262425196E-02 -0.9873329548402E-02
 0.2832515295727E-02 -0.1043609515931E-01
 0.2935940425203E-02 -0.1100238731107E-01
 0.3046711965129E-02 -0.1157304922658E-01
 0.3169445766968E-02 -0.1214946718762E-01
 0.3308601299359E-02 -0.1273279128358E-01
 0.3468463438164E-02 -0.1332371692742E-01
 0.3653395770201E-02 -0.1392252042236E-01
 0.3868165204841E-02 -0.1452916796424E-01
 0.4118237192490E-02 -0.1514343305321E-01
 0.4410010361613E-02 -0.1576503042477E-01
 0.4750975913259E-02 -0.1639373871283E-01
 0.5149848467179E-02 -0.1702955451425E-01
 0.5616817401010E-02 -0.1767227489490E-01
 0.6164161053307E-02 -0.1832064974280E-01
 0.6806870822502E-02 -0.1897328690723E-01
 0.7563381782315E-02 -0.1962917055303E-01
 0.8456202576877E-02 -0.2028857602393E-01
 0.9511759718154E-02 -0.2095495605934E-01
 0.1075772481592E-01 -0.2163829855282E-01
 0.1221447565975E-01 -0.2235953550222E-01
 0.1387661542008E-01 -0.2315208814352E-01
 0.1568673044399E-01 -0.2405212094631E-01
 0.2210014225503E-03 -0.5314967468780E-03
 0.4580467355929E-03 -0.1081491780001E-02
 0.6901555140577E-03 -0.1643283547763E-02
 0.9061356223320E-03 -0.2208145859691E-02
 0.1103638845491E-02 -0.2770447243704E-02
 0.1284247765858E-02 -0.3328113547181E-02
 0.1450469017381E-02 -0.3881083821244E-02
 0.1604663128901E-02 -0.4430110964079E-02
 0.1748802291288E-02 -0.4976210419809E-02
 0.1884470003697E-02 -0.5520451880486E-02
 0.2012917622774E-02 -0.6063890216547E-02
 0.2135127731786E-02 -0.6607546302176E-02
 0.2251876984075E-02 -0.7152421460772E-02
 0.2363792686496E-02 -0.7699500329627E-02
 0.2471407697045E-02 -0.8249707983870E-02
 0.2575261421452E-02 -0.8803958597581E-02
 0.2676024238103E-02 -0.9362990064536E-02
 0.2774747147411E-02 -0.9927277563135E-02
 0.2873192859074E-02 -0.1049692219714E-01
 0.2974204899713E-02 -0.1107185747181E-01
 0.3082055503197E-02 -0.1165306946200E-01
 0.3201498109211E-02 -0.1224207821577E-01
 0.3337056503914E-02 -0.1284016971751E-01
 0.3492973486464E-02 -0.1344816892306E-01
 0.3673489498305E-02 -0.1406647277938E-01
 0.3883210399767E-02 -0.1469516842319E-01
 0.4127439543328E-02 -0.1533416420321E-01
 0.4412435174402E-02 -0.1598333749289E-01
 0.4745575660907E-02 -0.1664266933769E-01
 0.5135481566350E-02 -0.1731240558501E-01
 0.5592258142097E-02 -0.1799259647833E-01
 0.6128161292283E-02 -0.1868213081560E-01
 0.6758409430605E-02 -0.1937957205282E-01
 0.7502250120948E-02 -0.2008352492879E-01
 0.8384228169772E-02 -0.2079331875989E-01
 0.9435212292881E-02 -0.2151068609066E-01
 0.1069154069813E-01 -0.2224344878012E-01
 0.1218783384634E-01 -0.2301196652784E-01
 0.1393538722089E-01 -0.2385493327619E-01
 0.1588244679465E-01 -0.2482166894889E-01
 0.2349230608073E-03 -0.5406003668446E-03
 0.4860129618625E-03 -0.1100838791577E-02
 0.7276821527470E-03 -0.1671496127070E-02
 0.9487929448525E-03 -0.2242171411540E-02
 0.1148758612977E-02 -0.2807497138676E-02
 0.1330492851042E-02 -0.3366375156403E-02
 0.1497187758402E-02 -0.3919542960379E-02
 0.1651532135695E-02 -0.4468256890499E-02
 0.1795661701799E-02 -0.5013844651105E-02
 0.1931243915697E-02 -0.5557579271543E-02
 0.2059573360078E-02 -0.6100659615140E-02
 0.2181653176541E-02 -0.6644222810334E-02
 0.2298265134857E-02 -0.7189380394740E-02
 0.2410026744607E-02 -0.7737238772990E-02
 0.2517440496807E-02 -0.8288873482252E-02
 0.2620981714483E-02 -0.8845395222342E-02
 0.2721205785055E-02 -0.9407793163284E-02
 0.2818997844810E-02 -0.9976832429062E-02
 0.2915955450112E-02 -0.1055289913495E-01
 0.3014854821613E-02 -0.1113616304704E-01
 0.3120067796152E-02 -0.1172778041928E-01
 0.3236498781820E-02 -0.1232941167547E-01
 0.3368738377961E-02 -0.1294247506593E-01
 0.3520973634109E-02 -0.1356791941780E-01
 0.3697298598466E-02 -0.1420626414379E-01
 0.3902131045512E-02 -0.1485773494258E-01
 0.4140583196406E-02 -0.1552241235790E-01
 0.4418741924100E-02 -0.1620039472035E-01
 0.4743836694704E-02 -0.1689194877712E-01
 0.5124339433821E-02 -0.1759768774067E-01
 0.5570169755291E-02 -0.1831808359357E-01
 0.6093376894716E-02 -0.1905240166673E-01
 0.6709106284881E-02 -0.1979948162267E-01
 0.7436953870259E-02 -0.2055795350820E-01
 0.8302830777801E-02 -0.2132662423130E-01
 0.9341287094259E-02 -0.2210568432759E-01
 0.1059726475263E-01 -0.2290010956404E-01
 0.1212249166811E-01 -0.2372774098556E-01
 0.1395342997793E-01 -0.2463120154959E-01
 0.1605487246914E-01 -0.2567684466398E-01
 0.2509023306775E-03 -0.5518595081686E-03
 0.5174841242894E-03 -0.1124322539392E-02
 0.7684435697730E-03 -0.1704552055958E-02
 0.9937836971558E-03 -0.2280526586825E-02
 0.1195457669790E-02 -0.2847924136337E-02
 0.1377825068128E-02 -0.3407084751081E-02
 0.1544687123162E-02 -0.3959645607423E-02
 0.1698996400239E-02 -0.4507355952891E-02
 0.1843012759544E-02 -0.5051828047949E-02
 0.1978463712519E-02 -0.5594509249089E-02
 0.2106673554197E-02 -0.6136716438111E-02
 0.2228659436806E-02 -0.6679680487593E-02
 0.2345206878261E-02 -0.7224603264545E-02
 0.2456926849594E-02 -0.7772695205627E-02
 0.2564299454560E-02 -0.8325167795116E-02
 0.2667747451625E-02 -0.8883322264495E-02
 0.2767718624593E-02 -0.9448413592636E-02
 0.2864920237105E-02 -0.1002154275391E-01
 0.2960749540843E-02 -0.1060345229335E-01
 0.3057884531931E-02 -0.1119462063274E-01
 0.3160796098136E-02 -0.1179641474656E-01
 0.3274554135265E-02 -0.1241064221228E-01
 0.3403818113049E-02 -0.1303883890594E-01
 0.3552705051467E-02 -0.1368205643520E-01
 0.3725141272641E-02 -0.1434092590441E-01
 0.3925333639773E-02 -0.1501582305958E-01
 0.4158179003335E-02 -0.1570703758754E-01
 0.4429567395935E-02 -0.1641494879232E-01
 0.4746552913074E-02 -0.1714019296214E-01
 0.5117420139273E-02 -0.1788386893646E-01
 0.5551820148011E-02 -0.1864704469141E-01
 0.6061427273005E-02 -0.1942962378385E-01
 0.6661019238243E-02 -0.2023110864554E-01
 0.7370041171160E-02 -0.2105070915160E-01
 0.8214941657099E-02 -0.2188744083421E-01
 0.9232681474017E-02 -0.2274069988382E-01
 0.1047555706116E-01 -0.2361259450914E-01
 0.1201400526377E-01 -0.2451619628762E-01
 0.1392013598378E-01 -0.2549470006277E-01
 0.1619480345451E-01 -0.2663526935154E-01
 0.2696905600425E-03 -0.5662611716762E-03
 0.5532785709312E-03 -0.1153496547054E-02
 0.8126816038625E-03 -0.1743698711792E-02
 0.1040996987868E-02 -0.2323872391194E-02
 0.1243549419562E-02 -0.2892023337364E-02
 0.1426067231425E-02 -0.3450365655663E-02
 0.1592810395464E-02 -0.4001427413769E-02
 0.1746918331178E-02 -0.4547396844373E-02
 0.1890731904207E-02 -0.5090123381487E-02
 0.2026014069993E-02 -0.5631188376495E-02
 0.2154105772878E-02 -0.6171994700047E-02
 0.2276032099391E-02 -0.6713840450874E-02
 0.2392581379771E-02 -0.7257994536932E-02
 0.2504361832381E-02 -0.7805749713032E-02
 0.2611840530894E-02 -0.8358432762694E-02
 0.2715403675769E-02 -0.8917519539169E-02
 0.2815408627786E-02 -0.9484534516346E-02
 0.2912382679813E-02 -0.1006095982898E-01
 0.3007486500805E-02 -0.1064798465259E-01
 0.3103260018884E-02 -0.1124649954035E-01
 0.3204267997839E-02 -0.1185814568923E-01
 0.3315758881729E-02 -0.1248488588150E-01
 0.3442460000222E-02 -0.1312834130762E-01
 0.3588402824750E-02 -0.1378962156590E-01
 0.3757328225082E-02 -0.1446944069135E-01
 0.3953216108257E-02 -0.1516832806542E-01
 0.4180730205736E-02 -0.1588681994460E-01
 0.4445543609169E-02 -0.1662563967269E-01
 0.4754517972446E-02 -0.1738587569501E-01
 0.5115731084829E-02 -0.1816922303292E-01
 0.5538509359912E-02 -0.1897751106822E-01
 0.6034015124330E-02 -0.1981154672120E-01
 0.6616399689295E-02 -0.2067192241298E-01
 0.7304478093387E-02 -0.2155911021506E-01
 0.8124346068645E-02 -0.2247336835081E-01
 0.9113727122946E-02 -0.2341476288818E-01
 0.1032954414819E-01 -0.2438391525083E-01
 0.1185954163981E-01 -0.2538770507090E-01
 0.1382209216885E-01 -0.2646377509479E-01
 0.1628711654710E-01 -0.2772163798874E-01
 0.2924737306720E-03 -0.5854624770082E-03
 0.5943752674582E-03 -0.1190653477380E-02
 0.8604469254266E-03 -0.1790401824931E-02
 0.1090158126580E-02 -0.2372795813559E-02
 0.1292774246137E-02 -0.2940011269538E-02
 0.1475005100780E-02 -0.3496288649656E-02
 0.1641379910840E-02 -0.4044886031376E-02
 0.1795148582469E-02 -0.4588343706578E-02
 0.1938688178808E-02 -0.5128678858791E-02
 0.2073774326868E-02 -0.5667556453631E-02
 0.2201752879385E-02 -0.6206428276810E-02
 0.2323651611862E-02 -0.6746629769615E-02
 0.2440261175886E-02 -0.7289470820581E-02
 0.2552190971832E-02 -0.7836301353171E-02
 0.2659904704482E-02 -0.8388537072378E-02
 0.2763770909737E-02 -0.8947800886568E-02
 0.2864084674246E-02 -0.9515872034229E-02
 0.2961207975459E-02 -0.1009464884222E-01
 0.3056033080547E-02 -0.1068587767569E-01
 0.3150911892732E-02 -0.1129101315553E-01
 0.3250489005487E-02 -0.1191207494834E-01
 0.3360197452417E-02 -0.1255119228783E-01
 0.3484823634180E-02 -0.1321001011141E-01
 0.3628296337523E-02 -0.1388961491089E-01
 0.3794159921797E-02 -0.1459075007721E-01
 0.3986161974493E-02 -0.1531409269750E-01
 0.4208724497791E-02 -0.1606046544831E-01
 0.4467288175266E-02 -0.1683100569963E-01
 0.4768511790124E-02 -0.1762733606696E-01
 0.5120267042409E-02 -0.1845184183722E-01
 0.5531533455937E-02 -0.1930725018778E-01
 0.6012869402204E-02 -0.2019551168318E-01
 0.6577608534512E-02 -0.2111873709819E-01
 0.7243544609999E-02 -0.2207941874028E-01
 0.8035586278694E-02 -0.2308033644642E-01
 0.8990510906169E-02 -0.2412433263352E-01
 0.1016598196332E-01 -0.2521400446777E-01
 0.1166051645696E-01 -0.2635214464430E-01
 0.1364387849062E-01 -0.2756283418448E-01
 0.1630612497706E-01 -0.2897232238184E-01
 0.3212104852224E-03 -0.6124657492334E-03
 0.6417857545661E-03 -0.1239202575388E-02
 0.9113874930429E-03 -0.1846152443758E-02
 0.1140808796837E-02 -0.2427671190095E-02
 0.1342813578297E-02 -0.2992006021751E-02
 0.1524390123911E-02 -0.3544855861742E-02
 0.1690201492033E-02 -0.4089973111165E-02
 0.1843529303455E-02 -0.4630132988784E-02
 0.1986745583589E-02 -0.5167426233801E-02
 0.2121620484574E-02 -0.5703545855880E-02
 0.2249494777664E-02 -0.6239950831763E-02
 0.2371395021742E-02 -0.6777981953858E-02
 0.2488114070609E-02 -0.7318961999264E-02
 0.2600266254468E-02 -0.7864270278064E-02
 0.2708320776788E-02 -0.8415380446538E-02
 0.2812647249817E-02 -0.8974023734668E-02
 0.2913515813406E-02 -0.9542192680556E-02
 0.3011162960133E-02 -0.1012220710570E-01
 0.3106197324756E-02 -0.1071649568215E-01
 0.3200724893465E-02 -0.1132730560188E-01
 0.3299440009711E-02 -0.1195721383779E-01
 0.3407947574095E-02 -0.1260853318173E-01
 0.3531068465008E-02 -0.1328282025188E-01
 0.3672610979678E-02 -0.1398100192995E-01
 0.3835923994871E-02 -0.1470376473081E-01
 0.4024533605852E-02 -0.1545191701455E-01
 0.4242624847818E-02 -0.1622661282109E-01
 0.4495394667888E-02 -0.1702948774305E-01
 0.4789288503765E-02 -0.1786278643832E-01
 0.5131989144765E-02 -0.1872965352957E-01
 0.5532145052596E-02 -0.1963379377684E-01
 0.5999678479937E-02 -0.2057847688822E-01
 0.6547004614547E-02 -0.2156771989563E-01
 0.7190667288159E-02 -0.2260677065276E-01
 0.7953747014143E-02 -0.2370235007947E-01
 0.8870592066751E-02 -0.2486254717036E-01
 0.9996019972999E-02 -0.2609707686581E-01
 0.1142718941800E-01 -0.2741449080789E-01
 0.1337250166731E-01 -0.2882280711321E-01
 0.1620769343700E-01 -0.3044390572325E-01
 0.3592878474416E-03 -0.6533233943256E-03
 0.6960346716844E-03 -0.1304032722841E-02
 0.9644625233074E-03 -0.1911832321824E-02
 0.1192387692632E-02 -0.2488582512507E-02
 0.1393301196453E-02 -0.3048027410872E-02
 0.1573943620054E-02 -0.3595972721855E-02
 0.1739072834806E-02 -0.4136593494912E-02
 0.1891897199903E-02 -0.4672669183757E-02
 0.2034766248991E-02 -0.5206279934801E-02
 0.2169427382540E-02 -0.5739080935330E-02
 0.2297210414341E-02 -0.6272495830523E-02
 0.2419137923745E-02 -0.6807837323949E-02
 0.2536005332758E-02 -0.7346412060822E-02
 0.2648435065534E-02 -0.7889599367722E-02
 0.2756909196418E-02 -0.8438896593279E-02
 0.2861813459656E-02 -0.8996097229328E-02
 0.2963431770948E-02 -0.9563335714928E-02
 0.3061946233807E-02 -0.1014329483666E-01
 0.3157707081672E-02 -0.1073919625898E-01
 0.3252521612731E-02 -0.1135443049088E-01
 0.3351075233589E-02 -0.1199245386452E-01
 0.3459087929703E-02 -0.1265578685948E-01
 0.3581362003119E-02 -0.1334569431935E-01
 0.3721571769734E-02 -0.1406272377797E-01
 0.3882893037935E-02 -0.1480737857230E-01
 0.4068664381602E-02 -0.1558057240659E-01
 0.4282858157775E-02 -0.1638384289741E-01
 0.4530422623946E-02 -0.1721943209245E-01
 0.4817568073190E-02 -0.1809031965864E-01
 0.5151807456124E-02 -0.1900045060152E-01
 0.5541514249201E-02 -0.1995448568138E-01
 0.5996011753232E-02 -0.2095707635751E-01
 0.6526823720166E-02 -0.2201443694606E-01
 0.7149168263783E-02 -0.2313523030233E-01
 0.7884140073173E-02 -0.2433129355413E-01
 0.8762373085418E-02 -0.2561886039231E-01
 0.9834116019198E-02 -0.2701925195328E-01
 0.1118447035706E-01 -0.2856481755991E-01
 0.1301224201993E-01 -0.3027459834001E-01
 0.1591834772112E-01 -0.3222936775797E-01
 0.4127564150388E-03 -0.7224104117466E-03
 0.7554057825481E-03 -0.1390417763027E-02
 0.1017968329366E-02 -0.1986427127952E-02
 0.1244454397389E-02 -0.2555738181612E-02
 0.1443760226008E-02 -0.3107821893467E-02
 0.1623397766072E-02 -0.3649479873674E-02
 0.1787782367162E-02 -0.4184590913033E-02
 0.1940090609312E-02 -0.4715825662573E-02
 0.2082613114356E-02 -0.5245135747349E-02
 0.2217071411639E-02 -0.5774077923990E-02
 0.2344779954856E-02 -0.6303996532783E-02
 0.2466756665797E-02 -0.6836143239377E-02
 0.2583800170406E-02 -0.7371779534697E-02
 0.2696543389066E-02 -0.7912255094044E-02
 0.2805486377297E-02 -0.8459055134887E-02
 0.2911041331760E-02 -0.9013985519807E-02
 0.3013531386371E-02 -0.9579236303920E-02
 0.3113176432881E-02 -0.1015768892555E-01
 0.3210175256665E-02 -0.1075335502837E-01
 0.3306035675928E-02 -0.1137131356326E-01
 0.3405322483315E-02 -0.1201651969739E-01
 0.3513712969684E-02 -0.1269171781533E-01
 0.3635893338554E-02 -0.1339750559777E-01
 0.3775409525213E-02 -0.1413371255964E-01
 0.3935323054754E-02 -0.1490048781510E-01
 0.4118850175057E-02 -0.1569882075572E-01
 0.4329800398468E-02 -0.1653069355057E-01
 0.4572885303648E-02 -0.1739909038969E-01
 0.4854034945024E-02 -0.1830790848027E-01
 0.5180574085344E-02 -0.1926192897099E-01
 0.5560688640345E-02 -0.2026655951491E-01
 0.6003245815581E-02 -0.2132770640401E-01
 0.6519015736440E-02 -0.2245397512209E-01
 0.7122089567962E-02 -0.2365787626289E-01
 0.7831513608650E-02 -0.2495727114513E-01
 0.8675033210196E-02 -0.2637809247503E-01
 0.9693999634383E-02 -0.2796000656471E-01
 0.1097075943057E-01 -0.2976380092753E-01
 0.1262369841440E-01 -0.3191294931587E-01
 0.1533927654107E-01 -0.3448121546976E-01
-0.3795845315002E-01 -0.2848880901584E-01
-0.7104292611060E-01 -0.4415727690823E-01
-0.9956478973780E-01 -0.6271722736374E-01
-0.1241902469238E+00 -0.8390125194246E-01
-0.1454835741776E+00 -0.1074071642157E+00
-0.1639396033341E+00 -0.1329268186748E+00
-0.1799914928743E+00 -0.1601607870215E+00
-0.1940069336866E+00 -0.1888253053410E+00
-0.2062790906903E+00 -0.2186572723764E+00
-0.2170240014708E+00 -0.2494217345656E+00
-0.2263885504163E+00 -0.2809212099915E+00
-0.2344644691386E+00 -0.3129863420180E+00
-0.2413615549228E+00 -0.3454789085466E+00
-0.2472037346182E+00 -0.3782953236795E+00
-0.2520686309053E+00 -0.4113434427824E+00
-0.2559829970456E+00 -0.4445257791839E+00
-0.2589028371381E+00 -0.4777260804764E+00
-0.2607089945128E+00 -0.5108099238152E+00
-0.2611625330574E+00 -0.5436182826239E+00
-0.3596123211152E-01 -0.2818189471239E-01
-0.6748601475499E-01 -0.4385109750004E-01
-0.9457175547311E-01 -0.6257669652244E-01
-0.1179000943887E+00 -0.8406797688239E-01
-0.1380372295662E+00 -0.1080078845660E+00
-0.1554716289508E+00 -0.1340781325553E+00
-0.1706261877389E+00 -0.1619731851110E+00
-0.1838576508088E+00 -0.1914064281031E+00
-0.1954499466107E+00 -0.2221146171020E+00
-0.2056116088200E+00 -0.2538646001344E+00
-0.2144841736921E+00 -0.2864599200626E+00
-0.2221603439824E+00 -0.3197352176208E+00
-0.2287429922188E+00 -0.3535569302388E+00
-0.2343427625316E+00 -0.3878227463851E+00
-0.2390310338676E+00 -0.4224425192067E+00
-0.2428309357928E+00 -0.4573228075775E+00
-0.2456986289236E+00 -0.4923553471846E+00
-0.2475115911821E+00 -0.5274090229312E+00
-0.2480630064783E+00 -0.5622862315912E+00
-0.3386530302542E-01 -0.2789657472290E-01
-0.6376256060065E-01 -0.4357468377960E-01
-0.8936140390560E-01 -0.6247843872325E-01
-0.1113503141646E+00 -0.8428602721098E-01
-0.1302939148562E+00 -0.1086637972726E+00
-0.1466720226725E+00 -0.1352836327529E+00
-0.1608957116100E+00 -0.1638345477109E+00
-0.1733097136595E+00 -0.1940278380374E+00
-0.1841878220162E+00 -0.2256009567951E+00
-0.1937307676031E+00 -0.2583230378612E+00
-0.2020747019852E+00 -0.2920005073386E+00
-0.2093113260434E+00 -0.3264730363410E+00
-0.2155365136325E+00 -0.3616123564907E+00
-0.2208493276226E+00 -0.3973191836033E+00
-0.2253149416905E+00 -0.4335066205875E+00
-0.2289531666431E+00 -0.4700860548717E+00
-0.2317201529781E+00 -0.5069544163072E+00
-0.2335016132400E+00 -0.5439779322064E+00
-0.2341074710609E+00 -0.5809803481866E+00
-0.3167235373680E-01 -0.2763353127190E-01
-0.5987392347009E-01 -0.4332804128418E-01
-0.8393538939972E-01 -0.6241686018642E-01
-0.1045442210608E+00 -0.8454505191016E-01
-0.1222586822849E+00 -0.1093602539023E+00
-0.1375473847794E+00 -0.1365242825522E+00
-0.1508079452342E+00 -0.1657211657688E+00
-0.1623719430709E+00 -0.1966608155386E+00
-0.1725021831489E+00 -0.2290820771941E+00
-0.1813910663546E+00 -0.2627573021037E+00
-0.1891689878483E+00 -0.2974969910256E+00
-0.1959251842107E+00 -0.3331465959407E+00
-0.2017485243355E+00 -0.3695837404717E+00
-0.2067278368661E+00 -0.4067133202711E+00
-0.2109224035895E+00 -0.4444527317497E+00
-0.2143491212469E+00 -0.4827185262252E+00
-0.2169664341460E+00 -0.5214127473618E+00
-0.2186666687031E+00 -0.5604122251255E+00
-0.2192665793928E+00 -0.5995638434447E+00
-0.2938431169978E-01 -0.2739276097227E-01
-0.5582307772553E-01 -0.4310977961082E-01
-0.7829771400975E-01 -0.6238708625816E-01
-0.9748724928661E-01 -0.8483561813310E-01
-0.1139386598594E+00 -0.1100833400604E+00
-0.1281064368764E+00 -0.1377816180412E+00
-0.1403729761992E+00 -0.1676097928232E+00
-0.1510555072781E+00 -0.1992769728194E+00
-0.1604049323579E+00 -0.2325240937954E+00
-0.1686046758572E+00 -0.2671275144248E+00
-0.1757788783341E+00 -0.3029027312791E+00
-0.1820131671580E+00 -0.3397014859577E+00
-0.1873894669404E+00 -0.3774077087504E+00
-0.1919874744669E+00 -0.4159313388516E+00
-0.1958609465943E+00 -0.4551949245338E+00
-0.1990245753440E+00 -0.4951210842820E+00
-0.2014388709629E+00 -0.5356206407811E+00
-0.2030004573630E+00 -0.5765844741933E+00
-0.2035285998928E+00 -0.6178810197664E+00
-0.2700370352163E-01 -0.2717397826172E-01
-0.5161439283178E-01 -0.4291829465099E-01
-0.7245431473248E-01 -0.6238442060356E-01
-0.9018694038346E-01 -0.8514897113942E-01
-0.1053430759065E+00 -0.1108198493272E+00
-0.1183600441575E+00 -0.1390378264607E+00
-0.1296031256210E+00 -0.1694777708643E+00
-0.1393739286061E+00 -0.2018484686142E+00
-0.1479104869243E+00 -0.2358935292452E+00
-0.1553865362013E+00 -0.2713939519479E+00
-0.1619194100469E+00 -0.3081708828541E+00
-0.1675902304498E+00 -0.3460826774574E+00
-0.1724740703337E+00 -0.3850198389406E+00
-0.1766423689388E+00 -0.4248980055732E+00
-0.1801437297149E+00 -0.4656457190040E+00
-0.1829907602789E+00 -0.5071931829081E+00
-0.1851453234922E+00 -0.5494618519872E+00
-0.1865068505186E+00 -0.5923574763794E+00
-0.1868959602115E+00 -0.6357666944109E+00
-0.2453374518887E-01 -0.2697690274385E-01
-0.4725355082171E-01 -0.4275197436313E-01
-0.6641288488555E-01 -0.6240441085950E-01
-0.8265281803261E-01 -0.8547686551890E-01
-0.9648323276780E-01 -0.1115572500871E+00
-0.1083212130091E+00 -0.1402758073603E+00
-0.1185129589459E+00 -0.1713031622952E+00
-0.1273431255422E+00 -0.2043481593912E+00
-0.1350358778679E+00 -0.2391575268783E+00
-0.1417545188344E+00 -0.2755173528855E+00
-0.1476090108484E+00 -0.3132548507027E+00
-0.1526752631128E+00 -0.3522351491375E+00
-0.1570215890179E+00 -0.3923554658458E+00
-0.1607118440997E+00 -0.4335376279963E+00
-0.1637896774742E+00 -0.4757169577371E+00
-0.1662655044702E+00 -0.5188322244697E+00
-0.1681019457558E+00 -0.5628162114926E+00
-0.1692007076133E+00 -0.6075888031206E+00
-0.1693844908963E+00 -0.6530515622337E+00
-0.2197837367375E-01 -0.2680131842657E-01
-0.4274749577663E-01 -0.4260930991044E-01
-0.6018275840376E-01 -0.6244287173306E-01
-0.7489627246355E-01 -0.8581154469818E-01
-0.8737241997874E-01 -0.1122836797186E+00
-0.9800502448972E-01 -0.1414792499520E+00
-0.1071192251558E+00 -0.1730648928685E+00
-0.1149813629423E+00 -0.2067498077456E+00
-0.1218007203899E+00 -0.2422841385571E+00
-0.1277294174078E+00 -0.2794593238746E+00
-0.1328694925026E+00 -0.3181088466411E+00
-0.1372910742364E+00 -0.3581046170381E+00
-0.1410557904173E+00 -0.3993505837722E+00
-0.1442203952901E+00 -0.4417750745671E+00
-0.1468236802201E+00 -0.4853206650203E+00
-0.1488737436998E+00 -0.5299350866365E+00
-0.1503336955906E+00 -0.5755622597650E+00
-0.1511077568962E+00 -0.6221348078425E+00
-0.1510225357956E+00 -0.6695662742088E+00
-0.1934224107872E-01 -0.2664708962483E-01
-0.3810438173082E-01 -0.4248893079953E-01
-0.5377481947048E-01 -0.6249590830613E-01
-0.6693046424001E-01 -0.8614574545630E-01
-0.7802583722886E-01 -0.1129879699259E+00
-0.8742858164290E-01 -0.1426327066237E+00
-0.9544082660024E-01 -0.1747428877975E+00
-0.1023092446149E+00 -0.2090282848080E+00
-0.1082272318390E+00 -0.2452426101345E+00
-0.1133349881587E+00 -0.2831827328272E+00
-0.1177261003135E+00 -0.3226884114168E+00
-0.1214644521737E+00 -0.3636381974504E+00
-0.1246050327895E+00 -0.4059426477302E+00
-0.1271978386349E+00 -0.4495366656218E+00
-0.1292768701385E+00 -0.4943701889867E+00
-0.1308478823526E+00 -0.5403997756658E+00
-0.1318745509587E+00 -0.5875797193347E+00
-0.1322644113789E+00 -0.6358536665608E+00
-0.1318503917216E+00 -0.6851445238819E+00
-0.1663069191319E-01 -0.2651415656464E-01
-0.3333351147580E-01 -0.4238961642743E-01
-0.4720140813501E-01 -0.6255993287318E-01
-0.5877021383422E-01 -0.8647272187310E-01
-0.6846048401055E-01 -0.1136596944415E+00
-0.7661090628726E-01 -0.1437216865462E+00
-0.8349872320245E-01 -0.1763182265107E+00
-0.8934962331909E-01 -0.2111597996958E+00
-0.9434014525535E-01 -0.2480037022453E+00
-0.9859786174868E-01 -0.2866521424357E+00
-0.1022074138979E+00 -0.3269509786455E+00
-0.1052260566824E+00 -0.3687851150135E+00
-0.1077021674237E+00 -0.4120714331084E+00
-0.1096792421457E+00 -0.4567512351084E+00
-0.1111865796133E+00 -0.5027815799275E+00
-0.1122277033913E+00 -0.5501272983987E+00
-0.1127672332578E+00 -0.5987519222237E+00
-0.1127172110047E+00 -0.6486082476103E+00
-0.1119196051093E+00 -0.6996260587586E+00
-0.1384972721939E-01 -0.2640252367202E-01
-0.2844526655604E-01 -0.4231029578420E-01
-0.4047622456207E-01 -0.6263167758815E-01
-0.5043189343626E-01 -0.8678627380730E-01
-0.5869505182037E-01 -0.1142892243502E+00
-0.6557283898918E-01 -0.1447327526610E+00
-0.7131584203476E-01 -0.1777732960423E+00
-0.7612751824516E-01 -0.2131221233200E+00
-0.8016663120689E-01 -0.2505400003837E+00
-0.8354746392199E-01 -0.2898342238280E+00
-0.8634525967085E-01 -0.3308564075458E+00
-0.8861032716520E-01 -0.3734973699337E+00
-0.9038445192726E-01 -0.4176798663105E+00
-0.9170484261856E-01 -0.4633511792848E+00
-0.9259623459473E-01 -0.5104749470634E+00
-0.9306017088064E-01 -0.5590234087029E+00
-0.9306283313487E-01 -0.6089679695631E+00
-0.9252222720197E-01 -0.6602686472688E+00
-0.9129224175921E-01 -0.7128597746328E+00
-0.1100595742654E-01 -0.2631224568193E-01
-0.2345102248915E-01 -0.4225004314544E-01
-0.3361421608722E-01 -0.6270820625977E-01
-0.4193329630067E-01 -0.8708077989278E-01
-0.4874978526685E-01 -0.1148677909957E+00
-0.5433689746892E-01 -0.1456536266230E+00
-0.5891693400355E-01 -0.1790919515079E+00
-0.6266996735671E-01 -0.2148948186860E+00
-0.6573614103055E-01 -0.2528262305412E+00
-0.6821584344388E-01 -0.2926981742023E+00
-0.7017451711655E-01 -0.3343675191684E+00
-0.7165526768551E-01 -0.3777304147614E+00
-0.7269331410629E-01 -0.4227148766947E+00
-0.7331977460091E-01 -0.4692735352442E+00
-0.7355501549436E-01 -0.5173758234781E+00
-0.7339896801548E-01 -0.5670003042164E+00
-0.7282016418172E-01 -0.6181247705723E+00
-0.7174418694188E-01 -0.6707145842763E+00
-0.7003972344325E-01 -0.7247065865044E+00
-0.8106550449971E-02 -0.2624341356852E-01
-0.1836305964985E-01 -0.4220807231427E-01
-0.2663146178249E-01 -0.6278692522277E-01
-0.3329350432917E-01 -0.8735123083766E-01
-0.3864634009529E-01 -0.1153875491687E+00
-0.4292712899551E-01 -0.1464732918382E+00
-0.4632842056106E-01 -0.1802596707903E+00
-0.4900586496430E-01 -0.2164594602889E+00
-0.5108022962926E-01 -0.2548395576926E+00
-0.5263747320187E-01 -0.2952161101212E+00
-0.5373289091817E-01 -0.3374506019732E+00
-0.5440218636977E-01 -0.3814437956702E+00
-0.5467405177842E-01 -0.4271282067484E+00
-0.5457371150924E-01 -0.4744610005032E+00
-0.5411740728016E-01 -0.5234164345349E+00
-0.5330391167896E-01 -0.5739781677030E+00
-0.5210499360530E-01 -0.6261288595669E+00
-0.5045546638582E-01 -0.6798374810066E+00
-0.4824155105681E-01 -0.7350416992291E+00
-0.5159172529805E-02 -0.2619614122208E-01
-0.1319446419227E-01 -0.4218373067487E-01
-0.1954504597239E-01 -0.6286559360488E-01
-0.2453274324127E-01 -0.8759326194299E-01
-0.2840762624327E-01 -0.1158416385405E+00
-0.3136894405386E-01 -0.1471820923121E+00
-0.3357821701966E-01 -0.1812637010576E+00
-0.3516577051391E-01 -0.2177998400282E+00
-0.3623234336188E-01 -0.2565598643127E+00
-0.3684900939035E-01 -0.2973634335850E+00
-0.3706063280420E-01 -0.3400758828023E+00
-0.3689537263085E-01 -0.3846017508213E+00
-0.3637545432051E-01 -0.4308771663823E+00
-0.3552041098810E-01 -0.4788628737565E+00
-0.3434263969687E-01 -0.5285368502137E+00
-0.3284025218179E-01 -0.5798865414712E+00
-0.3098916413742E-01 -0.6328979805097E+00
-0.2873500479269E-01 -0.6875422043579E+00
-0.2598400748424E-01 -0.7437563957492E+00
-0.2171923087007E-02 -0.2617055343686E-01
-0.7959020435783E-02 -0.4217649368403E-01
-0.1237292191273E-01 -0.6294233286057E-01
-0.1567222647124E-01 -0.8780318348254E-01
-0.1805763725800E-01 -0.1162242408096E+00
-0.1968893294255E-01 -0.1477718238240E+00
-0.2069553444255E-01 -0.1820931927878E+00
-0.2118169081309E-01 -0.2189021543876E+00
-0.2122757539882E-01 -0.2579700026086E+00
-0.2088901114788E-01 -0.2991191631047E+00
-0.2020021540901E-01 -0.3422179529453E+00
-0.1918171536948E-01 -0.3871737513400E+00
-0.1784935193468E-01 -0.4339253119400E+00
-0.1621717533398E-01 -0.4824358939554E+00
-0.1429403435632E-01 -0.5326859990321E+00
-0.1207788060467E-01 -0.5846655158934E+00
-0.9549639760064E-02 -0.6383624242273E+00
-0.6667181743474E-02 -0.6937484890354E+00
-0.3358883367898E-02 -0.7507594455560E+00
 0.8467327910297E-03 -0.2616677540547E-01
-0.2671099840061E-02 -0.4218596001067E-01
-0.5133771322228E-02 -0.6301563522166E-01
-0.6733993518396E-02 -0.8797800769917E-01
-0.7621271574388E-02 -0.1165306303647E+00
-0.7914670352655E-02 -0.1482358143719E+00
-0.7710664468188E-02 -0.1827393174363E+00
-0.7086839097278E-02 -0.2197551681597E+00
-0.6102390750507E-02 -0.2590560146803E+00
-0.4797621488125E-02 -0.3004662224538E+00
-0.3195957663423E-02 -0.3438561396158E+00
-0.1310261064903E-02 -0.3891349721183E+00
 0.8499078876207E-03 -0.4362430341545E+00
 0.3275772043829E-02 -0.4851449605323E+00
 0.5961738527151E-02 -0.5358225276836E+00
 0.8909551395525E-02 -0.5882667207842E+00
 0.1213251901683E-01 -0.6424661216601E+00
 0.1565934181356E-01 -0.6983920760171E+00
 0.1953778653444E-01 -0.7559782087963E+00
 0.3888040111920E-02 -0.2618492381384E-01
 0.2654462523969E-02 -0.4221184720457E-01
 0.2153151079726E-02 -0.6308437049216E-01
 0.2259268434187E-02 -0.8811547117681E-01
 0.2875864589207E-02 -0.1167572164366E+00
 0.3925500284933E-02 -0.1485689910058E+00
 0.5345258229736E-02 -0.1831953648973E+00
 0.7084630729545E-02 -0.2203503496565E+00
 0.9105676434494E-02 -0.2598073139233E+00
 0.1138378298709E-01 -0.3013916781644E+00
 0.1390638517196E-01 -0.3449748108606E+00
 0.1666826842248E-01 -0.3904666768434E+00
 0.1966602898177E-01 -0.4378080359550E+00
 0.2289595769012E-01 -0.4869637132121E+00
 0.2635544826674E-01 -0.5379154843405E+00
 0.3004554547753E-01 -0.5906541010168E+00
 0.3397319100448E-01 -0.6451674838433E+00
 0.3815275911884E-01 -0.7014255711786E+00
 0.4260691951174E-01 -0.7593594507747E+00
 0.6943029644503E-02 -0.2622509971023E-01
 0.8002490947041E-02 -0.4225398796035E-01
 0.9468172021834E-02 -0.6314779083324E-01
 0.1128440197048E-01 -0.8821405160103E-01
 0.1340765431876E-01 -0.1169015750462E+00
 0.1580268424935E-01 -0.1487679306580E+00
 0.1844049794544E-01 -0.1834568176945E+00
 0.2129789777883E-01 -0.2206819736414E+00
 0.2435833775192E-01 -0.2602168230951E+00
 0.2761295960566E-01 -0.3018869201682E+00
 0.3106005446456E-01 -0.3455636071147E+00
 0.3470198740630E-01 -0.3911565094219E+00
 0.3854137054681E-01 -0.4386056920042E+00
 0.4257936853446E-01 -0.4878749645239E+00
 0.4681613090804E-01 -0.5389448224968E+00
 0.5125170286047E-01 -0.5918044805584E+00
 0.5588624799815E-01 -0.6464400038410E+00
 0.6071924869486E-01 -0.7028190519603E+00
 0.6574754530098E-01 -0.7608699082582E+00
 0.1000259674722E-01 -0.2628738309979E-01
 0.1335759688838E-01 -0.4231232682216E-01
 0.1679136003672E-01 -0.6320553317013E-01
 0.2031796375696E-01 -0.8827297826785E-01
 0.2394767510305E-01 -0.1169624697906E+00
 0.2768766244609E-01 -0.1488308936680E+00
 0.3154297120177E-01 -0.1835214001920E+00
 0.3551776124723E-01 -0.2207471897415E+00
 0.3961688129478E-01 -0.2602810660592E+00
 0.4384718584639E-01 -0.3019477816018E+00
 0.4821774295182E-01 -0.3456175941992E+00
 0.5273838289064E-01 -0.3911986853966E+00
 0.5741757868146E-01 -0.4386292828238E+00
 0.6226119039844E-01 -0.4878709781294E+00
 0.6727194174502E-01 -0.5389017202921E+00
 0.7244868859133E-01 -0.5917079134513E+00
 0.7778461428059E-01 -0.6462726238244E+00
 0.8326409430743E-01 -0.7025604298967E+00
 0.8885793238841E-01 -0.7604966214096E+00
 0.1305758155069E-01 -0.2637182930604E-01
 0.1870430877209E-01 -0.4238691726714E-01
 0.2410268816513E-01 -0.6325761895583E-01
 0.2933641157061E-01 -0.8829223578634E-01
 0.3446940718182E-01 -0.1169398605807E+00
 0.3955112234057E-01 -0.1487578387516E+00
 0.4462050502103E-01 -0.1833891011813E+00
 0.4970893369395E-01 -0.2205460542325E+00
 0.5484251000206E-01 -0.2600002105381E+00
 0.6004365469621E-01 -0.3015745944247E+00
 0.6533206021123E-01 -0.3451373336858E+00
 0.7072486332142E-01 -0.3905940787077E+00
 0.7623623107637E-01 -0.4378800987582E+00
 0.8187655917816E-01 -0.4869535889405E+00
 0.8765101791137E-01 -0.5377887130541E+00
 0.9355720075674E-01 -0.5903678221625E+00
 0.9958132364513E-01 -0.6446698705138E+00
 0.1056927934698E+00 -0.7006555745203E+00
 0.1118366914148E+00 -0.7582470391683E+00
 0.1609884941888E-01 -0.2647846709769E-01
 0.2402720212385E-01 -0.4247791911996E-01
 0.3138219697730E-01 -0.6330445114553E-01
 0.3831629163752E-01 -0.8827256070060E-01
 0.4494644227398E-01 -0.1168348999097E+00
 0.5136388942006E-01 -0.1485504188475E+00
 0.5764109592161E-01 -0.1830621691190E+00
 0.6383633525094E-01 -0.2200815242918E+00
 0.6999668112339E-01 -0.2593780607424E+00
 0.7615987123806E-01 -0.3007721794629E+00
 0.8235599933878E-01 -0.3441288689942E+00
 0.8860930832772E-01 -0.3893502020612E+00
 0.9493948205120E-01 -0.4363674122564E+00
 0.1013613109748E+00 -0.4851341641795E+00
 0.1078823376320E+00 -0.5356196393572E+00
 0.1144989333624E+00 -0.5878009249226E+00
 0.1211905670144E+00 -0.6416517616625E+00
 0.1279121546923E+00 -0.6971282005817E+00
 0.1345838680000E+00 -0.7541488975487E+00
 0.1911737114182E-01 -0.2660729858800E-01
 0.2931102930079E-01 -0.4258559630082E-01
 0.3861015708392E-01 -0.6334680837118E-01
 0.4723442533063E-01 -0.8821543100347E-01
 0.5535269147134E-01 -0.1166499166152E+00
 0.6309715752196E-01 -0.1482119578059E+00
 0.7057316732391E-01 -0.1825450800051E+00
 0.7786538557399E-01 -0.2193594147492E+00
 0.8504144249764E-01 -0.2584219999718E+00
 0.9215404482920E-01 -0.2995497710602E+00
 0.9924339768063E-01 -0.3426036275493E+00
 0.1063406107071E+00 -0.3874810814736E+00
 0.1134706978026E+00 -0.4341083194282E+00
 0.1206527203050E+00 -0.4824334068466E+00
 0.1278965656934E+00 -0.5324194025390E+00
 0.1351975244852E+00 -0.5840369541537E+00
 0.1425287263455E+00 -0.6372534849622E+00
 0.1498313848446E+00 -0.6920195178411E+00
 0.1570020342660E+00 -0.7482498563321E+00
 0.2210430164195E-01 -0.2675830089560E-01
 0.3454084692336E-01 -0.4271031494038E-01
 0.4576722878141E-01 -0.6338583642544E-01
 0.5606809243810E-01 -0.8812304875035E-01
 0.6566258899947E-01 -0.1163883874689E+00
 0.7472271408642E-01 -0.1477474084186E+00
 0.8338582061486E-01 -0.1818444786178E+00
 0.9176228778620E-01 -0.2183883183374E+00
 0.9993975869268E-01 -0.2571428845501E+00
 0.1079854685101E+00 -0.2979208781487E+00
 0.1159493816944E+00 -0.3405782413305E+00
 0.1238691991099E+00 -0.3850070279005E+00
 0.1317750688947E+00 -0.4311274543289E+00
 0.1396902126055E+00 -0.4788810054150E+00
 0.1476268715736E+00 -0.5282235514310E+00
 0.1555794778609E+00 -0.5791181689142E+00
 0.1635153863799E+00 -0.6315248504801E+00
 0.1713631641107E+00 -0.6853876422592E+00
 0.1789973823201E+00 -0.7406169025121E+00
 0.2505105601381E-01 -0.2693142953442E-01
 0.3970213918077E-01 -0.4285254192637E-01
 0.5283461655910E-01 -0.6342303729512E-01
 0.6479520831565E-01 -0.8799831624500E-01
 0.7585128867260E-01 -0.1160548973507E+00
 0.8621315654767E-01 -0.1471632929007E+00
 0.9604907531616E-01 -0.1809690946546E+00
 0.1054942989101E+00 -0.2171794915469E+00
 0.1146558203535E+00 -0.2555548918921E+00
 0.1236148776380E+00 -0.2959030853715E+00
 0.1324307864099E+00 -0.3380742903990E+00
 0.1411475302703E+00 -0.3819543114977E+00
 0.1498001873381E+00 -0.4274565823197E+00
 0.1584160373588E+00 -0.4745151364628E+00
 0.1670097064255E+00 -0.5230776866088E+00
 0.1755750452286E+00 -0.5730986661444E+00
 0.1840743144864E+00 -0.6245295185446E+00
 0.1924247036671E+00 -0.6773067664076E+00
 0.2004808290317E+00 -0.7313355128499E+00
 0.2794938243335E-01 -0.2712662351906E-01
 0.4478093640093E-01 -0.4301284400438E-01
 0.5979421782182E-01 -0.6346025610912E-01
 0.7339449419846E-01 -0.8784480648042E-01
 0.8589485211470E-01 -0.1156550890777E+00
 0.9754209857069E-01 -0.1464676273577E+00
 0.1085340965176E+00 -0.1799296358935E+00
 0.1190299842097E+00 -0.2157467089308E+00
 0.1291553332247E+00 -0.2536753264763E+00
 0.1390047830265E+00 -0.2935177991611E+00
 0.1486465433654E+00 -0.3351179755841E+00
 0.1581305430655E+00 -0.3783547459767E+00
 0.1674965789223E+00 -0.4231340809735E+00
 0.1767758911766E+00 -0.4693818290852E+00
 0.1859855275794E+00 -0.5170367003061E+00
 0.1951190585190E+00 -0.5660434967035E+00
 0.2041343995093E+00 -0.6163440051390E+00
 0.2129387815282E+00 -0.6678660852972E+00
 0.2213691331440E+00 -0.7205085570122E+00
 0.3079143099685E-01 -0.2734381215175E-01
 0.4976392746214E-01 -0.4319188757300E-01
 0.6662876409509E-01 -0.6349966646647E-01
 0.8184563864331E-01 -0.8766672872645E-01
 0.9577042634649E-01 -0.1151956042905E+00
 0.1086843632475E+00 -0.1456698322514E+00
 0.1208134060735E+00 -0.1787386611305E+00
 0.1323394511757E+00 -0.2141060895589E+00
 0.1434057816344E+00 -0.2515243886140E+00
 0.1541197722160E+00 -0.2907899451326E+00
 0.1645580292375E+00 -0.3317397283801E+00
 0.1747760649333E+00 -0.3742451928337E+00
 0.1848181794539E+00 -0.4182043197407E+00
 0.1947194776830E+00 -0.4635342029597E+00
 0.2044994559988E+00 -0.5101638612000E+00
 0.2141516967199E+00 -0.5580275948621E+00
 0.2236305351595E+00 -0.6070564685856E+00
 0.2328347438758E+00 -0.6571684725131E+00
 0.2415860147307E+00 -0.7082549229714E+00
 0.3356981691825E-01 -0.2758292337432E-01
 0.5463856359530E-01 -0.4339043927680E-01
 0.7332195166713E-01 -0.6354375467115E-01
 0.9012944657629E-01 -0.8746889036723E-01
 0.1054564067442E+00 -0.1146840171837E+00
 0.1196161587583E+00 -0.1447806314405E+00
 0.1328610725195E+00 -0.1774104364084E+00
 0.1453945574942E+00 -0.2122759002974E+00
 0.1573766600520E+00 -0.2491249121653E+00
 0.1689267715803E+00 -0.2877476247731E+00
 0.1801293667064E+00 -0.3279737681826E+00
 0.1910451606564E+00 -0.3696669978434E+00
 0.2017227430084E+00 -0.4127169527528E+00
 0.2122009901998E+00 -0.4570315956258E+00
 0.2225018506413E+00 -0.5025297592469E+00
 0.2326191698131E+00 -0.5491345336931E+00
 0.2425044295567E+00 -0.5967652840506E+00
 0.2520494533986E+00 -0.6453289035542E+00
 0.2610632588313E+00 -0.6947078485248E+00
 0.3627768135164E-01 -0.2784389393854E-01
 0.5939315901298E-01 -0.4360936782308E-01
 0.7985856868327E-01 -0.6359530362256E-01
 0.9822798391861E-01 -0.8725665614648E-01
 0.1149325937154E+00 -0.1141287627262E+00
 0.1303152447058E+00 -0.1438119420216E+00
 0.1446528873560E+00 -0.1759607775057E+00
 0.1581690997240E+00 -0.2102763399063E+00
 0.1710396781712E+00 -0.2465020766375E+00
 0.1833952730493E+00 -0.2844217388366E+00
 0.1953276791806E+00 -0.3238576167960E+00
 0.2069024223098E+00 -0.3646653726317E+00
 0.2181721774212E+00 -0.4067261404589E+00
 0.2291795082231E+00 -0.4499385969972E+00
 0.2399487859466E+00 -0.4942111295360E+00
 0.2504743010680E+00 -0.5394551236635E+00
 0.2607053175982E+00 -0.5855774178763E+00
 0.2705281567589E+00 -0.6324726289397E+00
 0.2797417699415E+00 -0.6800129441691E+00
 0.3890874210509E-01 -0.2812668077649E-01
 0.6401697628177E-01 -0.4384964666901E-01
 0.8622460389254E-01 -0.6365737671930E-01
 0.1061247014966E+00 -0.8703590617465E-01
 0.1241803262165E+00 -0.1135390618309E+00
 0.1407610724099E+00 -0.1427767585564E+00
 0.1561665117948E+00 -0.1744068834146E+00
 0.1706389681428E+00 -0.2081293099391E+00
 0.1843689267734E+00 -0.2436831011565E+00
 0.1974975147513E+00 -0.2808455868279E+00
 0.2101232907476E+00 -0.3194315819041E+00
 0.2223161934448E+00 -0.3592887355017E+00
 0.2341328012169E+00 -0.4002897164375E+00
 0.2456193023812E+00 -0.4423240087805E+00
 0.2568024268452E+00 -0.4852895724253E+00
 0.2676770010324E+00 -0.5290858678736E+00
 0.2781905682493E+00 -0.5736066054666E+00
 0.2882252621852E+00 -0.6187330840736E+00
 0.2975725623647E+00 -0.6643258683203E+00
 0.4145734013444E-01 -0.2843127382646E-01
 0.6850030563860E-01 -0.4411235803329E-01
 0.9240734813073E-01 -0.6373330268423E-01
 0.1138045498356E+00 -0.8681299427966E-01
 0.1331826030308E+00 -0.1129248458689E+00
 0.1509349084322E+00 -0.1416890350062E+00
 0.1673816008505E+00 -0.1727671652694E+00
 0.1827822717109E+00 -0.2058581784388E+00
 0.1973410049370E+00 -0.2406969284985E+00
 0.2112086122815E+00 -0.2770544539436E+00
 0.2244898635580E+00 -0.3147382253101E+00
 0.2372587141327E+00 -0.3535880329151E+00
 0.2495755016779E+00 -0.3934683270515E+00
 0.2614900193706E+00 -0.4342597629781E+00
 0.2730312629945E+00 -0.4758502108323E+00
 0.2841945829646E+00 -0.5181273203322E+00
 0.2949261223431E+00 -0.5609713795008E+00
 0.3051049480085E+00 -0.6042495725262E+00
 0.3145175892586E+00 -0.6478096750947E+00
 0.4391847860770E-01 -0.2875770994346E-01
 0.7283453382055E-01 -0.4439869792913E-01
 0.9839548373348E-01 -0.6382666171903E-01
 0.1212540801342E+00 -0.8659470816616E-01
 0.1419241874893E+00 -0.1122966830760E+00
 0.1608199376968E+00 -0.1405635678875E+00
 0.1782799021979E+00 -0.1710610751232E+00
 0.1945794320425E+00 -0.2034875417818E+00
 0.2099351093609E+00 -0.2375739057730E+00
 0.2245066435655E+00 -0.2730851939430E+00
 0.2384044778416E+00 -0.3098218274417E+00
 0.2517061935448E+00 -0.3476160572776E+00
 0.2644758008999E+00 -0.3863245640843E+00
 0.2767667527225E+00 -0.4258198234011E+00
 0.2886102060796E+00 -0.4659803118771E+00
 0.3000019188538E+00 -0.5066823789910E+00
 0.3108867501649E+00 -0.5477929805401E+00
 0.3211415768146E+00 -0.5891647378518E+00
 0.3305503690226E+00 -0.6306317983768E+00
 0.4628785361937E-01 -0.2910608728472E-01
 0.7701220162934E-01 -0.4470998158281E-01
 0.1041791615049E+00 -0.6394127318664E-01
 0.1284615312513E+00 -0.8638823288444E-01
 0.1503916954267E+00 -0.1116657095607E+00
 0.1704013459153E+00 -0.1394158842886E+00
 0.1888453295662E+00 -0.1693089390185E+00
 0.2060132464614E+00 -0.2010429899989E+00
 0.2221330865104E+00 -0.2343454681588E+00
 0.2373726890465E+00 -0.2689758160404E+00
 0.2518476575395E+00 -0.3047278593875E+00
 0.2656388133910E+00 -0.3414267777179E+00
 0.2788138314478E+00 -0.3789221136951E+00
 0.2914299973905E+00 -0.4170790992576E+00
 0.3035205437976E+00 -0.4557679056038E+00
 0.3150814250508E+00 -0.4948545528529E+00
 0.3260561042236E+00 -0.5341932077920E+00
 0.3363198609398E+00 -0.5736218822816E+00
 0.3456563105063E+00 -0.6129606694786E+00
 0.4856187897960E-01 -0.2947657949253E-01
 0.8102705579660E-01 -0.4504764822528E-01
 0.1097500737185E+00 -0.6408118479547E-01
 0.1354169132062E+00 -0.8620111897848E-01
 0.1585736780791E+00 -0.1110435671413E+00
 0.1796663939242E+00 -0.1382621370443E+00
 0.1990640242126E+00 -0.1675317964983E+00
 0.2170689346917E+00 -0.1985508776392E+00
 0.2339194632341E+00 -0.2310438276946E+00
 0.2497908444475E+00 -0.2647650776324E+00
 0.2648033611561E+00 -0.2995024655960E+00
 0.2790406836351E+00 -0.3350746915555E+00
 0.2925742417890E+00 -0.3713249380495E+00
 0.3054655032462E+00 -0.4081123945709E+00
 0.3177497593159E+00 -0.4453004261797E+00
 0.3294228834745E+00 -0.4827462270613E+00
 0.3404265731998E+00 -0.5202922545745E+00
 0.3506347455695E+00 -0.5577622526427E+00
 0.3598326159637E+00 -0.5949620646860E+00
 0.5073769938045E-01 -0.2986944729024E-01
 0.8487408645873E-01 -0.4541326229570E-01
 0.1151015110132E+00 -0.6425066300794E-01
 0.1421120697856E+00 -0.8604125928409E-01
 0.1664606759521E+00 -0.1104423550672E+00
 0.1886044533298E+00 -0.1371190166280E+00
 0.2089243676630E+00 -0.1657512590642E+00
 0.2277341263573E+00 -0.1960381171881E+00
 0.2452814070451E+00 -0.2277016893974E+00
 0.2617481518986E+00 -0.2604921106131E+00
 0.2772588806185E+00 -0.2941919908282E+00
 0.2918996914883E+00 -0.3286142427172E+00
 0.3057459683990E+00 -0.3635965571129E+00
 0.3188639525897E+00 -0.3989934903952E+00
 0.3312911246660E+00 -0.4346634878287E+00
 0.3430229987296E+00 -0.4704570400837E+00
 0.3539988485801E+00 -0.5062066522985E+00
 0.3640909476658E+00 -0.5417225410395E+00
 0.3730875578221E+00 -0.5767958263263E+00
 0.5281318988559E-01 -0.3028504253226E-01
 0.8854955574858E-01 -0.4580850338709E-01
 0.1202284179254E+00 -0.6445418183753E-01
 0.1485407428911E+00 -0.8591687489520E-01
 0.1740452740928E+00 -0.1098745960393E+00
 0.1972070438162E+00 -0.1360036749562E+00
 0.2184169984738E+00 -0.1639893781320E+00
 0.2379988552920E+00 -0.1935319809346E+00
 0.2562086951569E+00 -0.2243519752881E+00
 0.2732345420425E+00 -0.2561960524720E+00
 0.2892047563849E+00 -0.2888425090646E+00
 0.3042073740172E+00 -0.3220992463260E+00
 0.3183220255433E+00 -0.3557993736306E+00
 0.3316206226199E+00 -0.3897943128419E+00
 0.3441432168093E+00 -0.4239397614734E+00
 0.3558848323005E+00 -0.4580822726241E+00
 0.3667813837251E+00 -0.4920471469532E+00
 0.3767024342340E+00 -0.5256324038937E+00
 0.3854396547251E+00 -0.5586133033065E+00
 0.5478693835796E-01 -0.3072379131674E-01
 0.9205101891199E-01 -0.4623513308428E-01
 0.1251274476260E+00 -0.6469640710862E-01
 0.1546986268403E+00 -0.8583652514127E-01
 0.1813221290673E+00 -0.1093532304487E+00
 0.2054678265658E+00 -0.1349336767990E+00
 0.2275347725894E+00 -0.1622685408357E+00
 0.2478554842396E+00 -0.1910599420762E+00
 0.2666935967018E+00 -0.2210276007174E+00
 0.2842426707488E+00 -0.2519157410915E+00
 0.3006345743825E+00 -0.2834994243978E+00
 0.3159586647537E+00 -0.3155823999980E+00
 0.3302991737181E+00 -0.3479941214183E+00
 0.3437348824270E+00 -0.3805843917964E+00
 0.3563091574988E+00 -0.4132082290319E+00
 0.3680168257288E+00 -0.4457116063739E+00
 0.3787894487700E+00 -0.4779166717327E+00
 0.3884916884356E+00 -0.5096121385625E+00
 0.3969168717485E+00 -0.5405553637031E+00
 0.5665818939227E-01 -0.3118613418428E-01
 0.9537734472167E-01 -0.4669488387969E-01
 0.1297970431593E+00 -0.6498218572164E-01
 0.1605834415219E+00 -0.8580914725714E-01
 0.1882880036338E+00 -0.1088916499224E+00
 0.2133826078686E+00 -0.1339269552299E+00
 0.2362727506095E+00 -0.1606113681094E+00
 0.2572986688684E+00 -0.1886495205953E+00
 0.2767308010895E+00 -0.2177612623080E+00
 0.2947678053768E+00 -0.2476894154571E+00
 0.3115448215959E+00 -0.2782070616765E+00
 0.3271517219711E+00 -0.3091147545140E+00
 0.3416776996959E+00 -0.3402392516258E+00
 0.3552099054851E+00 -0.3714302722952E+00
 0.3677959182539E+00 -0.4025439562241E+00
 0.3794316231466E+00 -0.4334281261853E+00
 0.3900438824810E+00 -0.4639082431376E+00
 0.3994890878726E+00 -0.4937694173132E+00
 0.4075564653670E+00 -0.5227500992981E+00
 0.5842672868457E-01 -0.3167222429729E-01
 0.9852877124002E-01 -0.4718926146488E-01
 0.1342375873053E+00 -0.6531648715287E-01
 0.1661950220480E+00 -0.8584425833644E-01
 0.1949417469081E+00 -0.1085037593953E+00
 0.2209492894521E+00 -0.1330017905897E+00
 0.2446281260448E+00 -0.1590406314544E+00
 0.2663252493316E+00 -0.1863281892753E+00
 0.2863172463472E+00 -0.2145853092654E+00
 0.3048075766974E+00 -0.2435545329517E+00
 0.3219345765739E+00 -0.2730083828767E+00
 0.3377875717102E+00 -0.3027453061346E+00
 0.3524610330295E+00 -0.3325904192940E+00
 0.3660522334144E+00 -0.3623950193862E+00
 0.3786139130302E+00 -0.3920179793799E+00
 0.3901441983087E+00 -0.4213102066677E+00
 0.4005684828323E+00 -0.4501024372139E+00
 0.4097317093415E+00 -0.4781953558993E+00
 0.4174055324704E+00 -0.5053090881456E+00
 0.6009248470202E-01 -0.3218156126750E-01
 0.1015071082786E+00 -0.4771828578207E-01
 0.1384518035250E+00 -0.6570502544605E-01
 0.1715352881983E+00 -0.8595220508968E-01
 0.2012842315440E+00 -0.1082040447069E+00
 0.2281677950832E+00 -0.1321767779804E+00
 0.2526001411432E+00 -0.1575791827158E+00
 0.2749341749941E+00 -0.1841232295464E+00
 0.2954519783317E+00 -0.2115317299228E+00
 0.3143617255734E+00 -0.2395476288623E+00
 0.3318052168839E+00 -0.2679447323785E+00
 0.3478697597191E+00 -0.2965206454973E+00
 0.3626553719086E+00 -0.3250998813372E+00
 0.3762715225176E+00 -0.3535375189712E+00
 0.3887767032918E+00 -0.3816967017918E+00
 0.4001725476249E+00 -0.4094322526602E+00
 0.4103839733599E+00 -0.4365777937021E+00
 0.4192587194888E+00 -0.4629470366737E+00
 0.4265261281532E+00 -0.4883205181583E+00
-0.1208300290667E+00 -0.1018830179958E+00
-0.1924078504225E+00 -0.1728064377058E+00
-0.2479166265294E+00 -0.2199842964336E+00
-0.2933591114601E+00 -0.2486291396771E+00
-0.3301342417884E+00 -0.2647731637555E+00
-0.3591220453528E+00 -0.2727222674317E+00
-0.3810037617923E+00 -0.2750568993379E+00
-0.3962602917131E+00 -0.2734212545691E+00
-0.4052183259299E+00 -0.2691416757241E+00
-0.4081521039581E+00 -0.2633005249086E+00
-0.4053328738654E+00 -0.2569656101108E+00
-0.3971030082697E+00 -0.2509762538152E+00
-0.3842200418087E+00 -0.2469222211230E+00
-0.3679772848112E+00 -0.2467638286415E+00
-0.3491075031221E+00 -0.2511012163651E+00
-0.3277422470845E+00 -0.2604384749875E+00
-0.3035579212491E+00 -0.2752802191697E+00
-0.2763827395833E+00 -0.2966108283057E+00
-0.2463047424540E+00 -0.3259050838393E+00
-0.1135264370701E+00 -0.8525156694008E-01
-0.1898075960077E+00 -0.1484205492785E+00
-0.2471611550139E+00 -0.1986097577271E+00
-0.2930024381140E+00 -0.2317160220460E+00
-0.3299760964409E+00 -0.2518773264304E+00
-0.3591605276781E+00 -0.2632824665652E+00
-0.3813375399669E+00 -0.2686455371782E+00
-0.3970194601384E+00 -0.2697308479379E+00
-0.4065364751298E+00 -0.2679187497341E+00
-0.4101483986615E+00 -0.2642937183350E+00
-0.4081013074032E+00 -0.2598583778175E+00
-0.4007054232940E+00 -0.2553897090171E+00
-0.3886246783949E+00 -0.2523706061881E+00
-0.3730457407892E+00 -0.2528997678165E+00
-0.3547911823560E+00 -0.2578571547458E+00
-0.3341417144907E+00 -0.2678673551331E+00
-0.3108614969981E+00 -0.2834158301089E+00
-0.2847944319473E+00 -0.3053882560353E+00
-0.2559982001789E+00 -0.3350708795588E+00
-0.1064843062608E+00 -0.7389767915067E-01
-0.1843014032929E+00 -0.1294410216021E+00
-0.2439776322367E+00 -0.1782696712236E+00
-0.2909160024047E+00 -0.2142519938388E+00
-0.3284315756361E+00 -0.2380416844344E+00
-0.3580180022312E+00 -0.2528827263469E+00
-0.3806094999626E+00 -0.2613584495426E+00
-0.3967941545488E+00 -0.2652703720189E+00
-0.4069337221280E+00 -0.2660325721050E+00
-0.4112954264345E+00 -0.2647243297384E+00
-0.4101137605184E+00 -0.2623104188496E+00
-0.4036826062882E+00 -0.2595371913879E+00
-0.3925505221515E+00 -0.2578305415421E+00
-0.3777855461580E+00 -0.2593650807878E+00
-0.3602697849024E+00 -0.2651988683805E+00
-0.3404081238241E+00 -0.2760441421446E+00
-0.3180625994140E+00 -0.2923782102801E+00
-0.2931121142355E+00 -0.3150002161352E+00
-0.2656489083398E+00 -0.3450998167563E+00
-0.1000955617647E+00 -0.6560330488250E-01
-0.1775526151030E+00 -0.1144849650195E+00
-0.2386898879670E+00 -0.1604124710607E+00
-0.2869567392519E+00 -0.1972570407867E+00
-0.3253244558030E+00 -0.2237981059016E+00
-0.3555258394666E+00 -0.2417908627566E+00
-0.3786734743584E+00 -0.2533374465872E+00
-0.3954557554610E+00 -0.2601258925598E+00
-0.4062939136158E+00 -0.2635461748469E+00
-0.4114803479562E+00 -0.2646608491852E+00
-0.4112491835002E+00 -0.2644061982384E+00
-0.4058915748982E+00 -0.2635110702463E+00
-0.3958322143336E+00 -0.2633628366723E+00
-0.3820134081042E+00 -0.2661721054421E+00
-0.3653561445112E+00 -0.2731073584010E+00
-0.3463639741500E+00 -0.2849381673656E+00
-0.3249993444304E+00 -0.3021358970648E+00
-0.3011963493745E+00 -0.3254441775768E+00
-0.2750803359341E+00 -0.3559838018077E+00
-0.9437904482004E-01 -0.5927005399916E-01
-0.1703270131106E+00 -0.1025497398085E+00
-0.2319768695180E+00 -0.1451079655974E+00
-0.2812960925308E+00 -0.1815404161768E+00
-0.3206044072797E+00 -0.2097671869197E+00
-0.3515738894592E+00 -0.2303830533848E+00
-0.3754060382869E+00 -0.2447993566682E+00
-0.3928832735979E+00 -0.2544275156909E+00
-0.4044985050362E+00 -0.2605480619872E+00
-0.4105821796134E+00 -0.2641758076806E+00
-0.4113773814204E+00 -0.2662138373170E+00
-0.4071848672626E+00 -0.2673717228549E+00
-0.3983052019482E+00 -0.2690044244943E+00
-0.3855496336694E+00 -0.2733234696179E+00
-0.3698626770398E+00 -0.2815578070057E+00
-0.3518247482062E+00 -0.2945102072878E+00
-0.3314961052185E+00 -0.3126501337725E+00
-0.3088682322605E+00 -0.3366806483665E+00
-0.2840879089615E+00 -0.3676625291889E+00
-0.8924622536064E-01 -0.5428307241285E-01
-0.1630107584651E+00 -0.9289953268444E-01
-0.2243597238653E+00 -0.1321149676804E+00
-0.2742645223912E+00 -0.1674153276697E+00
-0.3143736869932E+00 -0.1964580361609E+00
-0.3461376305708E+00 -0.2190661728205E+00
-0.3707292697753E+00 -0.2360160829688E+00
-0.3889770374355E+00 -0.2483482468526E+00
-0.4014370725016E+00 -0.2571513190993E+00
-0.4084807938705E+00 -0.2633486191185E+00
-0.4103662216288E+00 -0.2677917354955E+00
-0.4074134719891E+00 -0.2711596426566E+00
-0.3998037980275E+00 -0.2747715733590E+00
-0.3882140871418E+00 -0.2808060750131E+00
-0.3735994941101E+00 -0.2905119440757E+00
-0.3565982218934E+00 -0.3047060537435E+00
-0.3373600970644E+00 -0.3238566056377E+00
-0.3159282946777E+00 -0.3486315683708E+00
-0.2924558931385E+00 -0.3800283512140E+00
-0.8459255540443E-01 -0.5025981161866E-01
-0.1557898901716E+00 -0.8500388465570E-01
-0.2162015730043E+00 -0.1211145114162E+00
-0.2661858530604E+00 -0.1549340628814E+00
-0.3068205349406E+00 -0.1841687406107E+00
-0.3392776196703E+00 -0.2081869185507E+00
-0.3646222718155E+00 -0.2272688957981E+00
-0.3836714120017E+00 -0.2420868124965E+00
-0.3970176911880E+00 -0.2534888449820E+00
-0.4050654384820E+00 -0.2622658846551E+00
-0.4080880427140E+00 -0.2691928572834E+00
-0.4064306004991E+00 -0.2749004646440E+00
-0.4001628527510E+00 -0.2806617910802E+00
-0.3898261800510E+00 -0.2885878021094E+00
-0.3763744475530E+00 -0.2999118934954E+00
-0.3604860052104E+00 -0.3154475749118E+00
-0.3423890609480E+00 -0.3356596187540E+00
-0.3221694765360E+00 -0.3611800127712E+00
-0.2999736014416E+00 -0.3929340452188E+00
-0.8032072348151E-01 -0.4694774996719E-01
-0.1487457887391E+00 -0.7847246215561E-01
-0.2077417870044E+00 -0.1117972881024E+00
-0.2573308812969E+00 -0.1440162745872E+00
-0.2981531278843E+00 -0.1730342139996E+00
-0.3311086235450E+00 -0.1979861084239E+00
-0.3571172259288E+00 -0.2188027686895E+00
-0.3769401538322E+00 -0.2358407458804E+00
-0.3911747413625E+00 -0.2497013270526E+00
-0.4002421391306E+00 -0.2610179560610E+00
-0.4044258369491E+00 -0.2704655821959E+00
-0.4040963672629E+00 -0.2786072410171E+00
-0.3992212912838E+00 -0.2866544330412E+00
-0.3902075946206E+00 -0.2966152293744E+00
-0.3779961483491E+00 -0.3096754744490E+00
-0.3632890424457E+00 -0.3266282635960E+00
-0.3463804500727E+00 -0.3479304954244E+00
-0.3273897428009E+00 -0.3741740390000E+00
-0.3064478607846E+00 -0.4062021745941E+00
-0.7634726020286E-01 -0.4417276907832E-01
-0.1419034756534E+00 -0.7301283579045E-01
-0.1991323661790E+00 -0.1038882005852E+00
-0.2479093797027E+00 -0.1345226913008E+00
-0.2885659413691E+00 -0.1630793016292E+00
-0.3217680423407E+00 -0.1886039522328E+00
-0.3482838355855E+00 -0.2108011588681E+00
-0.3687935233395E+00 -0.2297815470591E+00
-0.3838719880649E+00 -0.2459215229331E+00
-0.3939389020678E+00 -0.2596915904909E+00
-0.3992787144698E+00 -0.2716516315711E+00
-0.4002828703389E+00 -0.2822806726616E+00
-0.3968269217425E+00 -0.2927107879515E+00
-0.3891870409873E+00 -0.3048123824947E+00
-0.3782795028988E+00 -0.3196943003651E+00
-0.3648150242785E+00 -0.3381124066681E+00
-0.3491411549127E+00 -0.3605098461796E+00
-0.3314028800814E+00 -0.3874331812464E+00
-0.3117118629938E+00 -0.4196354436066E+00
-0.7260313765515E-01 -0.4181096301580E-01
-0.1352579628211E+00 -0.6840229130437E-01
-0.1904653550869E+00 -0.9715099964808E-01
-0.2380766857375E+00 -0.1262932604178E+00
-0.2782258792262E+00 -0.1542609986968E+00
-0.3113947784262E+00 -0.1801000235552E+00
-0.3382126461523E+00 -0.2033821848438E+00
-0.3592701032429E+00 -0.2240397353098E+00
-0.3751011688995E+00 -0.2422602710821E+00
-0.3861080746839E+00 -0.2583610456701E+00
-0.3925660253050E+00 -0.2727819612543E+00
-0.3948790758345E+00 -0.2859079595877E+00
-0.3928418759861E+00 -0.2987740439390E+00
-0.3866062757846E+00 -0.3130809160350E+00
-0.3770526328803E+00 -0.3298344987599E+00
-0.3648865414195E+00 -0.3497374422491E+00
-0.3504965323474E+00 -0.3732126181351E+00
-0.3340469112873E+00 -0.4007565050467E+00
-0.3156302525563E+00 -0.4330266380628E+00
-0.6903245728039E-01 -0.3977204552038E-01
-0.1287890526858E+00 -0.6446893851090E-01
-0.1817924194821E+00 -0.9138586532662E-01
-0.2279438808862E+00 -0.1191666433188E+00
-0.2672692117217E+00 -0.1464973008532E+00
-0.3001175300714E+00 -0.1724749260681E+00
-0.3270021078824E+00 -0.1966054877594E+00
-0.3484276105333E+00 -0.2187002180799E+00
-0.3648778109249E+00 -0.2387975997702E+00
-0.3767262014253E+00 -0.2570803617879E+00
-0.3842298457737E+00 -0.2738721829220E+00
-0.3877949794975E+00 -0.2894610876058E+00
-0.3871480184669E+00 -0.3047695841139E+00
-0.3823265223057E+00 -0.3213017937978E+00
-0.3741641690070E+00 -0.3399397762882E+00
-0.3633489446523E+00 -0.3613187905298E+00
-0.3502980121032E+00 -0.3858349589247E+00
-0.3351899015815E+00 -0.4139311106574E+00
-0.3181010648841E+00 -0.4461673347814E+00
-0.6559062740146E-01 -0.3798905163520E-01
-0.1224698714298E+00 -0.6107873373679E-01
-0.1731385492956E+00 -0.8642500203646E-01
-0.2175878079562E+00 -0.1129897575368E+00
-0.2558035887092E+00 -0.1396859946919E+00
-0.2880496499571E+00 -0.1656886620807E+00
-0.3147501284032E+00 -0.1904830725832E+00
-0.3363350867749E+00 -0.2138044207290E+00
-0.3532362352208E+00 -0.2355793570318E+00
-0.3657922675957E+00 -0.2558785283333E+00
-0.3742359643022E+00 -0.2749190038549E+00
-0.3789647202615E+00 -0.2928954899942E+00
-0.3796517314253E+00 -0.3106060055308E+00
-0.3762344962817E+00 -0.3293384184885E+00
-0.3694900317286E+00 -0.3498363930927E+00
-0.3600771683903E+00 -0.3726564448509E+00
-0.3484289230358E+00 -0.3981620240940E+00
-0.3347333923416E+00 -0.4267402965683E+00
-0.3190553576300E+00 -0.4588550000615E+00
-0.6224257258292E-01 -0.3641165728695E-01
-0.1162718713155E+00 -0.5812636055958E-01
-0.1645116796817E+00 -0.8212805762778E-01
-0.2070597726505E+00 -0.1076221182790E+00
-0.2439121660503E+00 -0.1337165902373E+00
-0.2752880401994E+00 -0.1596748669735E+00
-0.3015494173309E+00 -0.1849905250943E+00
-0.3230672767912E+00 -0.2093559943363E+00
-0.3402250286081E+00 -0.2326180976654E+00
-0.3533252958744E+00 -0.2547578984884E+00
-0.3625737749681E+00 -0.2758985575864E+00
-0.3683485741136E+00 -0.2961498047277E+00
-0.3702876632616E+00 -0.3161771391247E+00
-0.3682473948516E+00 -0.3370410359916E+00
-0.3629390124471E+00 -0.3593395522684E+00
-0.3549810503614E+00 -0.3835426667347E+00
-0.3448085217342E+00 -0.4099760719204E+00
-0.3326139778606E+00 -0.4389709042334E+00
-0.3184554034535E+00 -0.4708983667355E+00
-0.5896112815837E-01 -0.3500166513802E-01
-0.1101677358956E+00 -0.5552863405394E-01
-0.1559094399457E+00 -0.7837793387457E-01
-0.1963926770674E+00 -0.1029374192971E+00
-0.2316582807767E+00 -0.1284777557613E+00
-0.2619142483751E+00 -0.1543513463269E+00
-0.2874854988067E+00 -0.1800770700008E+00
-0.3087010555571E+00 -0.2053279109282E+00
-0.3259034654188E+00 -0.2298967077663E+00
-0.3393618820995E+00 -0.2536953790974E+00
-0.3492554351952E+00 -0.2767668445303E+00
-0.3559338333604E+00 -0.2991470962297E+00
-0.3590211259665E+00 -0.3213652088441E+00
-0.3583163051720E+00 -0.3442522194978E+00
-0.3544565852681E+00 -0.3682608221099E+00
-0.3480088252423E+00 -0.3937703926516E+00
-0.3393943719621E+00 -0.4210645880980E+00
-0.3288036576346E+00 -0.4504197535767E+00
-0.3162922688201E+00 -0.4821211848754E+00
-0.5572568955468E-01 -0.3372986206113E-01
-0.1041330636733E+00 -0.5321962254462E-01
-0.1473239569059E+00 -0.7507715332619E-01
-0.1856067899460E+00 -0.9882369321986E-01
-0.2190900465022E+00 -0.1238618932252E+00
-0.2479967240114E+00 -0.1496277381611E+00
-0.2726365317501E+00 -0.1756740422210E+00
-0.2933135642168E+00 -0.2016697195507E+00
-0.3103390300937E+00 -0.2273735118412E+00
-0.3239540583483E+00 -0.2526456106576E+00
-0.3343146515682E+00 -0.2774619736819E+00
-0.3417347436477E+00 -0.3017974202079E+00
-0.3458490393264E+00 -0.3260448694371E+00
-0.3464276845318E+00 -0.3508129628808E+00
-0.3440264844056E+00 -0.3764160510219E+00
-0.3391485180416E+00 -0.4031420542313E+00
-0.3321832329369E+00 -0.4312284305494E+00
-0.3233096375080E+00 -0.4608993905418E+00
-0.3125836165378E+00 -0.4923645254279E+00
-0.5252109825342E-01 -0.3257375561912E-01
-0.9814729137096E-01 -0.5114692507065E-01
-0.1387452640343E+00 -0.7214471745293E-01
-0.1747143300264E+00 -0.9518270270055E-01
-0.2062445253808E+00 -0.1197678539795E+00
-0.2335935309094E+00 -0.1454110088509E+00
-0.2570741996286E+00 -0.1717017786214E+00
-0.2769815579788E+00 -0.1983143302357E+00
-0.2936058712120E+00 -0.2249879811570E+00
-0.3071675639500E+00 -0.2515453851759E+00
-0.3178052840709E+00 -0.2779077232528E+00
-0.3257916669946E+00 -0.3040013729881E+00
-0.3307994766033E+00 -0.3300876328056E+00
-0.3326026650641E+00 -0.3565685909301E+00
-0.3316695579260E+00 -0.3836331110818E+00
-0.3284266314929E+00 -0.4114784989334E+00
-0.3232103023897E+00 -0.4402905689137E+00
-0.3161740718485E+00 -0.4702438929731E+00
-0.3073726712586E+00 -0.5014881484572E+00
-0.4933675190784E-01 -0.3151589179912E-01
-0.9219415715664E-01 -0.4926873380766E-01
-0.1301637122501E+00 -0.6951336029324E-01
-0.1637230640571E+00 -0.9192890874737E-01
-0.1931513569590E+00 -0.1161024434703E+00
-0.2187551273458E+00 -0.1416093691055E+00
-0.2408651816694E+00 -0.1680751307255E+00
-0.2597815623122E+00 -0.1951840672186E+00
-0.2757839706528E+00 -0.2226664791700E+00
-0.2890805031583E+00 -0.2503186960736E+00
-0.2997999051835E+00 -0.2780179337652E+00
-0.3081697495704E+00 -0.3056541989690E+00
-0.3139301690178E+00 -0.3333660451871E+00
-0.3168945762734E+00 -0.3613733194868E+00
-0.3174393715881E+00 -0.3897575076688E+00
-0.3159031371940E+00 -0.4186274589042E+00
-0.3125455637224E+00 -0.4481056476783E+00
-0.3074737938160E+00 -0.4783169701310E+00
-0.3007294810771E+00 -0.5093717028709E+00
-0.4616592873653E-01 -0.3054253583693E-01
-0.8626188842062E-01 -0.4755142089526E-01
-0.1215716424933E+00 -0.6712705753046E-01
-0.1526390578842E+00 -0.8898818973172E-01
-0.1798357884902E+00 -0.1127811181039E+00
-0.2035269688505E+00 -0.1381350571625E+00
-0.2240728765022E+00 -0.1647078573093E+00
-0.2417905222810E+00 -0.1921958962887E+00
-0.2569587974150E+00 -0.2203277037242E+00
-0.2697822845504E+00 -0.2488819587894E+00
-0.2803883398528E+00 -0.2777013854572E+00
-0.2889573590557E+00 -0.3066502887763E+00
-0.2953267064115E+00 -0.3357573874470E+00
-0.2993858151378E+00 -0.3650925921440E+00
-0.3014164181692E+00 -0.3946532632015E+00
-0.3016603135016E+00 -0.4244653324193E+00
-0.3002844292514E+00 -0.4545727313325E+00
-0.2973178993690E+00 -0.4850240121265E+00
-0.2927560170315E+00 -0.5159202945354E+00
-0.4300532807982E-01 -0.2964264905053E-01
-0.8034325138676E-01 -0.4596733970350E-01
-0.1129644617732E+00 -0.6493869674314E-01
-0.1414686626839E+00 -0.8629633133422E-01
-0.1663210357628E+00 -0.1097281873371E+00
-0.1879517852557E+00 -0.1349063538091E+00
-0.2067591468546E+00 -0.1615161492612E+00
-0.2230867701726E+00 -0.1892659261148E+00
-0.2372212867802E+00 -0.2178874394898E+00
-0.2493726361597E+00 -0.2471490722306E+00
-0.2596760698368E+00 -0.2768669304464E+00
-0.2682642940862E+00 -0.3068882150715E+00
-0.2751009648835E+00 -0.3371478710273E+00
-0.2801861401702E+00 -0.3676043485523E+00
-0.2837041847646E+00 -0.3981990924640E+00
-0.2857942914308E+00 -0.4288860159005E+00
-0.2865200816858E+00 -0.4596238058748E+00
-0.2858353854782E+00 -0.4903536216783E+00
-0.2835979448524E+00 -0.5210765040438E+00
 0.6466088618233E-01 -0.3377558550316E-01
 0.1099706018265E+00 -0.5003062436245E-01
 0.1507175507079E+00 -0.6849888460022E-01
 0.1874363119225E+00 -0.8898995065066E-01
 0.2205407468185E+00 -0.1112293477185E+00
 0.2504177454901E+00 -0.1349080182166E+00
 0.2774334220084E+00 -0.1597163293435E+00
 0.3019078921211E+00 -0.1853568731781E+00
 0.3241083719611E+00 -0.2115480865344E+00
 0.3442320129139E+00 -0.2380377845718E+00
 0.3624071932093E+00 -0.2646151899125E+00
 0.3787552357797E+00 -0.2910996577625E+00
 0.3932461640656E+00 -0.3173896574343E+00
 0.4058737516005E+00 -0.3434126768073E+00
 0.4167940130944E+00 -0.3690858967609E+00
 0.4261233022707E+00 -0.3943336974656E+00
 0.4339059972514E+00 -0.4190772088058E+00
 0.4400781890433E+00 -0.4432170394542E+00
 0.4444788896173E+00 -0.4667108680819E+00
 0.6766972368416E-01 -0.3492093849214E-01
 0.1156281611106E+00 -0.5190779618475E-01
 0.1589707064464E+00 -0.7103707085057E-01
 0.1981830727677E+00 -0.9209174646363E-01
 0.2335821554517E+00 -0.1147487225127E+00
 0.2654803293910E+00 -0.1386509966894E+00
 0.2941992186472E+00 -0.1634572946755E+00
 0.3200289166626E+00 -0.1888545836190E+00
 0.3432249426350E+00 -0.2145565936922E+00
 0.3639776612198E+00 -0.2403200505630E+00
 0.3824084762455E+00 -0.2659587346432E+00
 0.3986813698204E+00 -0.2913138736898E+00
 0.4126574484041E+00 -0.3163631968192E+00
 0.4242292089818E+00 -0.3411363942610E+00
 0.4336419433429E+00 -0.3656211697974E+00
 0.4411162849605E+00 -0.3898254424847E+00
 0.4468094303700E+00 -0.4137599491907E+00
 0.4507438619874E+00 -0.4374304570588E+00
 0.4529078712948E+00 -0.4608894558805E+00
 0.7068444620492E-01 -0.3614743650658E-01
 0.1212985095397E+00 -0.5393904183433E-01
 0.1672136284752E+00 -0.7381525482329E-01
 0.2088522463570E+00 -0.9551347089805E-01
 0.2464339615123E+00 -0.1186429228878E+00
 0.2802031417865E+00 -0.1427866783037E+00
 0.3104460052512E+00 -0.1675660732711E+00
 0.3374331332952E+00 -0.1926516307078E+00
 0.3614180536222E+00 -0.2177570664127E+00
 0.3825942929045E+00 -0.2426549405110E+00
 0.4010865660051E+00 -0.2671905242549E+00
 0.4171023556697E+00 -0.2912367630643E+00
 0.4304217862056E+00 -0.3148571999002E+00
 0.4408692905813E+00 -0.3382091846667E+00
 0.4487772402849E+00 -0.3613782008577E+00
 0.4544645053832E+00 -0.3844673966151E+00
 0.4581894256241E+00 -0.4075727569508E+00
 0.4600626581243E+00 -0.4307753826951E+00
 0.4601289189354E+00 -0.4541307963166E+00
 0.7371114741542E-01 -0.3746712896686E-01
 0.1269947837665E+00 -0.5615468887723E-01
 0.1754596692110E+00 -0.7688617496653E-01
 0.2194488547623E+00 -0.9932776427752E-01
 0.2590866686102E+00 -0.1229983415425E+00
 0.2945596186771E+00 -0.1474089158503E+00
 0.3261309428024E+00 -0.1721391401068E+00
 0.3540647821735E+00 -0.1968442933969E+00
 0.3786238006139E+00 -0.2212452063071E+00
 0.4000147099172E+00 -0.2451387538204E+00
 0.4183749269444E+00 -0.2684104057599E+00
 0.4339546232662E+00 -0.2909771613249E+00
 0.4464807103454E+00 -0.3129925088504E+00
 0.4557429182419E+00 -0.3347613860448E+00
 0.4621576812221E+00 -0.3564893434959E+00
 0.4661326853767E+00 -0.3783808582548E+00
 0.4680110226824E+00 -0.4006043629811E+00
 0.4679590811155E+00 -0.4232898392169E+00
 0.4660447604311E+00 -0.4465259249503E+00
 0.7675941503455E-01 -0.3889516019863E-01
 0.1327348486236E+00 -0.5859217269613E-01
 0.1837253228386E+00 -0.8031255849341E-01
 0.2299777477724E+00 -0.1036180890131E+00
 0.2715276997826E+00 -0.1279105128741E+00
 0.3085188243564E+00 -0.1526168839154E+00
 0.3412074990184E+00 -0.1772733246924E+00
 0.3698669241050E+00 -0.2015242781053E+00
 0.3947808560648E+00 -0.2251082335043E+00
 0.4161788375345E+00 -0.2478576772297E+00
 0.4342192187021E+00 -0.2697087268762E+00
 0.4491924121765E+00 -0.2906364444225E+00
 0.4607985735128E+00 -0.3108854454496E+00
 0.4688236690609E+00 -0.3309214888058E+00
 0.4737626448178E+00 -0.3510874205536E+00
 0.4760998955004E+00 -0.3716915260299E+00
 0.4762394866397E+00 -0.3929648631555E+00
 0.4743824106562E+00 -0.4150860439866E+00
 0.4706079752281E+00 -0.4381950734550E+00
 0.7984293183846E-01 -0.4045084426502E-01
 0.1385412554919E+00 -0.6129807006721E-01
 0.1920288929814E+00 -0.8416962973541E-01
 0.2404412688735E+00 -0.1084803572361E+00
 0.2837385680515E+00 -0.1334839854091E+00
 0.3220426519355E+00 -0.1585130591289E+00
 0.3556231405095E+00 -0.1830622420954E+00
 0.3847798664948E+00 -0.2067742080916E+00
 0.4098297969114E+00 -0.2294202427376E+00
 0.4310339098708E+00 -0.2508830627895E+00
 0.4485779436142E+00 -0.2711616692394E+00
 0.4627883263740E+00 -0.2903040099694E+00
 0.4733624980107E+00 -0.3086440109862E+00
 0.4801094866202E+00 -0.3268148641495E+00
 0.4835948566910E+00 -0.3453088931172E+00
 0.4843656510136E+00 -0.3645390758809E+00
 0.4828658251687E+00 -0.3847949897408E+00
 0.4793165849079E+00 -0.4063052621627E+00
 0.4738067996118E+00 -0.4292733534905E+00
 0.8298025549271E-01 -0.4215902377767E-01
 0.1444410506659E+00 -0.6433064452494E-01
 0.2003886208705E+00 -0.8854773949419E-01
 0.2508361268779E+00 -0.1140243473047E+00
 0.2956913893608E+00 -0.1398316538977E+00
 0.3350827375818E+00 -0.1652003784881E+00
 0.3693171388486E+00 -0.1895918178876E+00
 0.3987400513410E+00 -0.2126623945710E+00
 0.4237129630629E+00 -0.2342369564725E+00
 0.4445349563418E+00 -0.2542666573087E+00
 0.4614231494584E+00 -0.2728270812764E+00
 0.4747338279538E+00 -0.2900536884539E+00
 0.4841826498299E+00 -0.3063651193478E+00
 0.4896237734053E+00 -0.3225620627490E+00
 0.4916836445625E+00 -0.3392929830977E+00
 0.4909582129759E+00 -0.3570746034832E+00
 0.4879130178710E+00 -0.3762516564601E+00
 0.4827795342659E+00 -0.3971037286808E+00
 0.4756576065028E+00 -0.4199032579908E+00
 0.8619581052145E-01 -0.4405187713250E-01
 0.1504652895755E+00 -0.6776300131013E-01
 0.2088200353914E+00 -0.9355534111385E-01
 0.2611493953035E+00 -0.1203748617598E+00
 0.3073447920499E+00 -0.1470732332009E+00
 0.3475772490024E+00 -0.1727781804256E+00
 0.3822187402330E+00 -0.1969346190724E+00
 0.4116796073745E+00 -0.2192367579814E+00
 0.4363750154066E+00 -0.2395902182712E+00
 0.4566458078805E+00 -0.2580361474512E+00
 0.4727413599113E+00 -0.2747410609187E+00
 0.4850397509503E+00 -0.2899409783284E+00
 0.4932924493706E+00 -0.3041319792352E+00
 0.4974159779126E+00 -0.3182756929853E+00
 0.4980868030795E+00 -0.3331770477713E+00
 0.4959364944235E+00 -0.3494524128318E+00
 0.4914362231485E+00 -0.3674978927811E+00
 0.4848200696433E+00 -0.3876433743790E+00
 0.4762009588610E+00 -0.4102318504104E+00
 0.8952111757415E-01 -0.4617136749539E-01
 0.1566480522751E+00 -0.7168713165238E-01
 0.2173322326062E+00 -0.9932242947694E-01
 0.2713534654480E+00 -0.1276724572011E+00
 0.3186392753710E+00 -0.1553324322976E+00
 0.3594478039878E+00 -0.1813364391475E+00
 0.3942460525598E+00 -0.2051426931408E+00
 0.4235269052187E+00 -0.2265179667187E+00
 0.4477644442617E+00 -0.2454825620974E+00
 0.4673407530518E+00 -0.2621914790022E+00
 0.4825347509802E+00 -0.2769156339649E+00
 0.4937366563449E+00 -0.2900012576496E+00
 0.5007481290766E+00 -0.3020118439626E+00
 0.5035608024788E+00 -0.3140567873905E+00
 0.5028895411653E+00 -0.3270908592549E+00
 0.4993884775252E+00 -0.3418225509249E+00
 0.4935201237930E+00 -0.3586947532443E+00
 0.4855146002169E+00 -0.3780857340318E+00
 0.4754995765288E+00 -0.4004081522283E+00
 0.9299628104191E-01 -0.4857265307427E-01
 0.1630246379482E+00 -0.7621923184740E-01
 0.2259226486885E+00 -0.1060045421008E+00
 0.2813997252307E+00 -0.1360733633292E+00
 0.3294921352605E+00 -0.1647321224005E+00
 0.3705969318961E+00 -0.1909476434479E+00
 0.4053061726840E+00 -0.2142386744572E+00
 0.4342085498856E+00 -0.2344920409577E+00
 0.4578362647085E+00 -0.2518824250461E+00
 0.4766068810536E+00 -0.2667025519538E+00
 0.4908224653622E+00 -0.2793379780319E+00
 0.5008748103365E+00 -0.2902493183547E+00
 0.5066274061850E+00 -0.3000546504994E+00
 0.5081558535050E+00 -0.3099917009794E+00
 0.5062013609581E+00 -0.3211516699163E+00
 0.5014274972923E+00 -0.3343245810243E+00
 0.4942749845200E+00 -0.3499949996804E+00
 0.4849638002097E+00 -0.3685868953083E+00
 0.4736370425900E+00 -0.3905801572406E+00
 0.9667175660777E-01 -0.5132899035250E-01
 0.1696284359419E+00 -0.8150690419713E-01
 0.2345697190106E+00 -0.1137873917492E+00
 0.2912107567185E+00 -0.1457478875838E+00
 0.3397923118187E+00 -0.1753864146873E+00
 0.3809068238182E+00 -0.2016555447756E+00
 0.4152973383360E+00 -0.2242051345784E+00
 0.4436533362139E+00 -0.2431030849779E+00
 0.4665560718328E+00 -0.2587209277348E+00
 0.4844470191203E+00 -0.2715090574205E+00
 0.4976418654116E+00 -0.2819716292992E+00
 0.5065236315365E+00 -0.2906804610588E+00
 0.5110272767244E+00 -0.2982928442515E+00
 0.5113181233318E+00 -0.3061501081418E+00
 0.5081515980495E+00 -0.3154605166438E+00
 0.5021873204975E+00 -0.3270827796247E+00
 0.4938319150836E+00 -0.3415379847134E+00
 0.4832889967339E+00 -0.3592929107038E+00
 0.4707164071174E+00 -0.3808912448256E+00
 0.1006103320659E+00 -0.5453898676800E-01
 0.1764855343287E+00 -0.8773910831165E-01
 0.2432224251601E+00 -0.1228919479472E+00
 0.3006708322192E+00 -0.1568758460111E+00
 0.3493958402051E+00 -0.1873878551489E+00
 0.3902405021828E+00 -0.2134598518411E+00
 0.4241140439523E+00 -0.2349725968589E+00
 0.4517985435841E+00 -0.2522474262196E+00
 0.4739052990361E+00 -0.2658915220561E+00
 0.4908828446455E+00 -0.2765232254459E+00
 0.5030493243386E+00 -0.2847598780795E+00
 0.5107704073905E+00 -0.2912730719163E+00
 0.5140610294507E+00 -0.2967423561793E+00
 0.5131797029882E+00 -0.3025842132767E+00
 0.5088842354500E+00 -0.3100999462679E+00
 0.5018165644769E+00 -0.3202027795079E+00
 0.4923375571528E+00 -0.3334456480850E+00
 0.4806280057891E+00 -0.3503355874030E+00
 0.4668581289353E+00 -0.3714761437288E+00
 0.1048891549055E+00 -0.5833777500831E-01
 0.1836055073609E+00 -0.9516031319321E-01
 0.2517854032489E+00 -0.1335793645468E+00
 0.3096149570027E+00 -0.1696363887515E+00
 0.3581235719161E+00 -0.2007871791883E+00
 0.3984473749393E+00 -0.2262963836180E+00
 0.4316563209344E+00 -0.2464078586275E+00
 0.4585987047152E+00 -0.2617715209732E+00
 0.4798871308701E+00 -0.2732541436217E+00
 0.4959574951457E+00 -0.2816359733201E+00
 0.5071201060199E+00 -0.2876310529905E+00
 0.5137181814101E+00 -0.2919921400365E+00
 0.5158546978997E+00 -0.2954043253465E+00
 0.5138831930917E+00 -0.2993290113496E+00
 0.5085525604253E+00 -0.3051331297031E+00
 0.5004729290206E+00 -0.3137696677510E+00
 0.4899483981932E+00 -0.3258196604923E+00
 0.4771303002561E+00 -0.3418288060923E+00
 0.4621970349764E+00 -0.3624567117260E+00
 0.1096012285664E+00 -0.6291500008674E-01
 0.1909654271614E+00 -0.1040910772113E+00
 0.2600976681509E+00 -0.1461538068591E+00
 0.3178176919784E+00 -0.1841870817045E+00
 0.3657643610805E+00 -0.2155621358833E+00
 0.4053759138957E+00 -0.2400135389716E+00
 0.4378439509286E+00 -0.2583064760429E+00
 0.4640359816894E+00 -0.2714770456345E+00
 0.4845316776851E+00 -0.2806452213293E+00
 0.4997365969416E+00 -0.2867260342497E+00
 0.5099468209250E+00 -0.2905046835423E+00
 0.5154827683515E+00 -0.2927928019288E+00
 0.5165432146691E+00 -0.2942670236406E+00
 0.5135772734982E+00 -0.2964033973271E+00
 0.5073141880075E+00 -0.3006043620684E+00
 0.4983176776890E+00 -0.3078476348465E+00
 0.4868249646616E+00 -0.3187398965801E+00
 0.4729515636935E+00 -0.3338656719341E+00
 0.4568781968341E+00 -0.3539379192326E+00
 0.1148548712469E+00 -0.6854534716455E-01
 0.1984813912450E+00 -0.1149587249892E+00
 0.2679028069808E+00 -0.1609577305598E+00
 0.3249857781173E+00 -0.2006228514805E+00
 0.3720898962602E+00 -0.2315717657965E+00
 0.4108965616765E+00 -0.2543504152194E+00
 0.4426348265085E+00 -0.2703966327974E+00
 0.4681295760093E+00 -0.2811370322168E+00
 0.4878982703418E+00 -0.2878931175683E+00
 0.5023066915269E+00 -0.2916702429184E+00
 0.5116362191818E+00 -0.2932969162597E+00
 0.5161890979014E+00 -0.2936228512471E+00
 0.5162666718678E+00 -0.2933074360728E+00
 0.5124129525344E+00 -0.2938119146678E+00
 0.5053269958667E+00 -0.2965409404241E+00
 0.4955108172849E+00 -0.3024812539087E+00
 0.4831262072561E+00 -0.3122643893043E+00
 0.4682478311138E+00 -0.3265167591844E+00
 0.4510518558090E+00 -0.3460044451707E+00
 0.1207667345732E+00 -0.7564437348798E-01
 0.2059563351498E+00 -0.1283432604890E+00
 0.2748093780616E+00 -0.1783457736686E+00
 0.3307663778061E+00 -0.2188965288691E+00
 0.3768908608826E+00 -0.2484986970313E+00
 0.4149360199799E+00 -0.2689305440580E+00
 0.4460422492320E+00 -0.2823659652139E+00
 0.4709395408230E+00 -0.2905226696386E+00
 0.4900729760810E+00 -0.2948354094723E+00
 0.5037706358787E+00 -0.2963520287975E+00
 0.5123045496945E+00 -0.2959235131649E+00
 0.5159673147524E+00 -0.2944233559970E+00
 0.5151671744104E+00 -0.2924920405219E+00
 0.5105410486088E+00 -0.2915469925806E+00
 0.5027465183725E+00 -0.2929564256117E+00
 0.4922074408842E+00 -0.2976985176940E+00
 0.4790043562115E+00 -0.3064308483672E+00
 0.4631694655491E+00 -0.3198295873901E+00
 0.4448677017744E+00 -0.3387181898106E+00
 0.1274369305108E+00 -0.8487897488683E-01
 0.2129769660793E+00 -0.1450482130603E+00
 0.2802533248042E+00 -0.1985910858627E+00
 0.3347965759286E+00 -0.2386803384557E+00
 0.3800481161217E+00 -0.2657966891810E+00
 0.4175110383460E+00 -0.2833102205640E+00
 0.4481398891565E+00 -0.2939104989336E+00
 0.4725617627978E+00 -0.2994324279681E+00
 0.4911610332526E+00 -0.3013321499734E+00
 0.5042406204615E+00 -0.3006655666234E+00
 0.5120720968933E+00 -0.2982994792069E+00
 0.5149491719203E+00 -0.2951267493701E+00
 0.5133867986263E+00 -0.2917764649734E+00
 0.5081114362744E+00 -0.2895914317217E+00
 0.4997254420946E+00 -0.2898554349283E+00
 0.4885556802399E+00 -0.2935157527519E+00
 0.4746005747545E+00 -0.3012599805477E+00
 0.4578549327144E+00 -0.3138291656547E+00
 0.4384689177036E+00 -0.3321167803479E+00
 0.1348510451673E+00 -0.9743809163532E-01
 0.2187199525220E+00 -0.1661679472931E+00
 0.2834971686787E+00 -0.2216347809980E+00
 0.3368810155683E+00 -0.2591120408832E+00
 0.3816050769681E+00 -0.2827956323074E+00
 0.4187299145800E+00 -0.2970757783548E+00
 0.4490501014170E+00 -0.3047840035245E+00
 0.4731149697069E+00 -0.3077107976836E+00
 0.4912764580578E+00 -0.3072712613458E+00
 0.5038299548202E+00 -0.3045157093577E+00
 0.5110573997110E+00 -0.3003349036696E+00
 0.5132651939627E+00 -0.2956517858343E+00
 0.5110671943956E+00 -0.2911034613203E+00
 0.5052746690650E+00 -0.2879213942182E+00
 0.4964154587220E+00 -0.2872392930505E+00
 0.4846973799783E+00 -0.2899451740471E+00
 0.4700413959856E+00 -0.2967606313968E+00
 0.4524244581231E+00 -0.3085198376491E+00
 0.4319851998483E+00 -0.3262119457619E+00
 0.1425946270844E+00 -0.1157174029683E+00
 0.2213946473813E+00 -0.1932107272877E+00
 0.2841778658095E+00 -0.2459407271593E+00
 0.3371604603401E+00 -0.2790957300606E+00
 0.3817406251607E+00 -0.2989159036448E+00
 0.4187640813208E+00 -0.3099276063268E+00
 0.4489200367376E+00 -0.3148199241066E+00
 0.4727265009647E+00 -0.3152499005905E+00
 0.4905314673107E+00 -0.3125693901531E+00
 0.5026443183162E+00 -0.3078151486629E+00
 0.5093706069527E+00 -0.3019281105566E+00
 0.5110425494002E+00 -0.2958912896557E+00
 0.5083525294275E+00 -0.2903992062636E+00
 0.5021873289846E+00 -0.2865119359405E+00
 0.4929706130890E+00 -0.2851129348045E+00
 0.4807700410628E+00 -0.2870003238700E+00
 0.4654424829996E+00 -0.2929431222147E+00
 0.4469682455925E+00 -0.3038860181203E+00
 0.4255252954850E+00 -0.3209872526892E+00
-0.2682036470427E+00 -0.5737697655027E+00
-0.2753626901364E+00 -0.5704842604678E+00
-0.2814019580185E+00 -0.5659081845017E+00
-0.2862625946239E+00 -0.5600397491164E+00
-0.2898747846610E+00 -0.5529129712947E+00
-0.2921707366514E+00 -0.5445834179629E+00
-0.2930862393536E+00 -0.5351251600969E+00
-0.2925644725819E+00 -0.5246314671476E+00
-0.2905600648146E+00 -0.5132165150015E+00
-0.2870438955537E+00 -0.5010171152425E+00
-0.2820086040940E+00 -0.4881939174817E+00
-0.2754748075726E+00 -0.4749316369815E+00
-0.2674978949777E+00 -0.4614377781081E+00
-0.2581750219500E+00 -0.4479391387349E+00
-0.2476514752986E+00 -0.4346751393240E+00
-0.2361247648989E+00 -0.4218868366131E+00
-0.2238437459643E+00 -0.4098008189621E+00
-0.2110989374654E+00 -0.3986090946999E+00
-0.1982094827136E+00 -0.3884524779880E+00
-0.2554593284170E+00 -0.5962353852282E+00
-0.2629085639916E+00 -0.5944805770626E+00
-0.2693312150597E+00 -0.5914414469800E+00
-0.2746245355495E+00 -0.5870646198493E+00
-0.2787058654376E+00 -0.5813413071939E+00
-0.2814926422032E+00 -0.5742910224274E+00
-0.2829028572834E+00 -0.5659563634117E+00
-0.2828571034098E+00 -0.5564017061051E+00
-0.2812823035887E+00 -0.5457143536729E+00
-0.2781163264533E+00 -0.5340068194343E+00
-0.2733136161669E+00 -0.5214195338739E+00
-0.2668520315036E+00 -0.5081234335850E+00
-0.2587411680423E+00 -0.4943218776061E+00
-0.2490323970097E+00 -0.4802511353331E+00
-0.2378306157297E+00 -0.4661782804932E+00
-0.2253069990631E+00 -0.4523946668579E+00
-0.2117100260492E+00 -0.4392022247154E+00
-0.1973678547995E+00 -0.4268893762424E+00
-0.1826673257127E+00 -0.4156985189630E+00
-0.2417293418236E+00 -0.6190080037217E+00
-0.2493758946954E+00 -0.6189949105399E+00
-0.2561017985670E+00 -0.6176845521273E+00
-0.2617819209943E+00 -0.6150166161251E+00
-0.2663113181502E+00 -0.6109510079927E+00
-0.2695910784600E+00 -0.6054728981829E+00
-0.2715220309809E+00 -0.5985899133998E+00
-0.2720044964933E+00 -0.5903315247150E+00
-0.2709401069941E+00 -0.5807501724490E+00
-0.2682351246638E+00 -0.5699239113747E+00
-0.2638050235959E+00 -0.5579601486213E+00
-0.2575805905845E+00 -0.5450001539875E+00
-0.2495160675301E+00 -0.5312240244104E+00
-0.2396001275746E+00 -0.5168556626781E+00
-0.2278707284411E+00 -0.5021669815544E+00
-0.2144349353048E+00 -0.4874797450528E+00
-0.1994941226726E+00 -0.4731617599502E+00
-0.1833708315395E+00 -0.4596103048664E+00
-0.1665164943723E+00 -0.4472081663311E+00
-0.2269742983712E+00 -0.6418666653198E+00
-0.2347387115081E+00 -0.6437878467838E+00
-0.2416777721991E+00 -0.6444177440546E+00
-0.2476632824422E+00 -0.6436890431657E+00
-0.2525771943560E+00 -0.6415436621681E+00
-0.2563059480904E+00 -0.6379390446328E+00
-0.2587353244617E+00 -0.6328504625402E+00
-0.2597481326550E+00 -0.6262717439811E+00
-0.2592242416014E+00 -0.6182168870438E+00
-0.2570420488483E+00 -0.6087228820950E+00
-0.2530812097196E+00 -0.5978538715563E+00
-0.2472267791056E+00 -0.5857066849616E+00
-0.2393753136257E+00 -0.5724178357733E+00
-0.2294439401392E+00 -0.5581721034404E+00
-0.2173840617860E+00 -0.5432127763907E+00
-0.2032024439170E+00 -0.5278533334875E+00
-0.1869939823230E+00 -0.5124892327821E+00
-0.1689928618433E+00 -0.4976051598488E+00
-0.1496478260091E+00 -0.4837598674910E+00
-0.2111712594666E+00 -0.6645891733231E+00
-0.2189651086186E+00 -0.6686130173382E+00
-0.2260198491825E+00 -0.6713789273844E+00
-0.2322106277291E+00 -0.6728135408115E+00
-0.2374143021853E+00 -0.6728458016530E+00
-0.2415079315120E+00 -0.6714129654727E+00
-0.2443656730629E+00 -0.6684637601301E+00
-0.2458563650247E+00 -0.6639603104077E+00
-0.2458423115710E+00 -0.6578799670743E+00
-0.2441791406623E+00 -0.6502179126198E+00
-0.2407165404107E+00 -0.6409909313835E+00
-0.2352999311344E+00 -0.6302426831034E+00
-0.2277734072499E+00 -0.6180508990330E+00
-0.2179846983143E+00 -0.6045371292858E+00
-0.2057935975937E+00 -0.5898800062298E+00
-0.1910866195545E+00 -0.5743334870349E+00
-0.1738036010343E+00 -0.5582523045248E+00
-0.1539883725867E+00 -0.5421274787781E+00
-0.1318971339487E+00 -0.5266360948750E+00
-0.1943137570516E+00 -0.6869492496273E+00
-0.2020390114695E+00 -0.6932125500720E+00
-0.2091026636433E+00 -0.6982816574784E+00
-0.2153848514449E+00 -0.7020779771008E+00
-0.2207613698954E+00 -0.7045218936291E+00
-0.2251038625782E+00 -0.7055369593090E+00
-0.2282780697264E+00 -0.7050528722463E+00
-0.2301417470549E+00 -0.7030074593736E+00
-0.2305429321503E+00 -0.6993483850761E+00
-0.2293186806316E+00 -0.6940351539792E+00
-0.2262942033346E+00 -0.6870418681491E+00
-0.2212823310699E+00 -0.6783611308991E+00
-0.2140833391175E+00 -0.6680095913925E+00
-0.2044853347488E+00 -0.6560358845213E+00
-0.1922657158139E+00 -0.6425322250416E+00
-0.1771948699136E+00 -0.6276518828094E+00
-0.1590447175108E+00 -0.6116367106482E+00
-0.1376094932451E+00 -0.5948636605059E+00
-0.1127563117203E+00 -0.5779304722379E+00
-0.1764140840294E+00 -0.7087167918210E+00
-0.1839654079969E+00 -0.7173210915526E+00
-0.1909242120983E+00 -0.7248228414345E+00
-0.1971747844136E+00 -0.7311402574564E+00
-0.2025930712962E+00 -0.7361890290580E+00
-0.2070470371099E+00 -0.7398850208590E+00
-0.2103954656927E+00 -0.7421465661991E+00
-0.2124860724459E+00 -0.7428962165972E+00
-0.2131534363970E+00 -0.7420621898623E+00
-0.2122169068550E+00 -0.7395798714248E+00
-0.2094784180938E+00 -0.7353936852582E+00
-0.2047200281716E+00 -0.7294596431974E+00
-0.1977009109589E+00 -0.7217489392782E+00
-0.1881534139986E+00 -0.7122531352325E+00
-0.1757775768835E+00 -0.7009918514916E+00
-0.1602330298897E+00 -0.6880246024769E+00
-0.1411262410383E+00 -0.6734699425782E+00
-0.1179878726290E+00 -0.6575385091074E+00
-0.9022966913022E-01 -0.6405963242960E+00
-0.1574986404198E+00 -0.7296536352127E+00
-0.1647645555208E+00 -0.7406549832485E+00
-0.1714996559679E+00 -0.7506692654612E+00
-0.1775911449740E+00 -0.7596139031949E+00
-0.1829151098372E+00 -0.7674032193868E+00
-0.1873363843939E+00 -0.7739501150388E+00
-0.1907072810174E+00 -0.7791677678696E+00
-0.1928655696115E+00 -0.7829710989009E+00
-0.1936319757192E+00 -0.7852780528380E+00
-0.1928072673547E+00 -0.7860108533500E+00
-0.1901688087233E+00 -0.7850974196819E+00
-0.1854662842418E+00 -0.7824731216133E+00
-0.1784160941869E+00 -0.7780830549972E+00
-0.1686936125229E+00 -0.7718850519820E+00
-0.1559219320449E+00 -0.7638537020539E+00
-0.1396546112619E+00 -0.7539857303676E+00
-0.1193474334709E+00 -0.7423070533867E+00
-0.9430842680418E-01 -0.7288811184202E+00
-0.6359632608014E-01 -0.7138147170430E+00
-0.1376070693901E+00 -0.7495126001455E+00
-0.1444709155282E+00 -0.7629080152860E+00
-0.1508602381971E+00 -0.7754508769736E+00
-0.1566646757294E+00 -0.7870600719357E+00
-0.1617607622373E+00 -0.7976510295535E+00
-0.1660110912928E+00 -0.8071367594447E+00
-0.1692626773719E+00 -0.8154290508814E+00
-0.1713446044421E+00 -0.8224396123987E+00
-0.1720650510934E+00 -0.8280811005636E+00
-0.1712076709955E+00 -0.8322680763949E+00
-0.1685271605372E+00 -0.8349179447135E+00
-0.1637436768134E+00 -0.8359519047385E+00
-0.1565355530262E+00 -0.8352958776779E+00
-0.1465294368849E+00 -0.8328812645502E+00
-0.1332864485356E+00 -0.8286451633821E+00
-0.1162820186866E+00 -0.8225291836709E+00
-0.9487538489634E-01 -0.8144747955510E+00
-0.6826165981163E-01 -0.8044101464024E+00
-0.3539415342247E-01 -0.7922130190488E+00
-0.1167981773287E+00 -0.7680559242589E+00
-0.1231448285909E+00 -0.7837843758107E+00
-0.1290692010047E+00 -0.7988069952284E+00
-0.1344638566390E+00 -0.8130458099130E+00
-0.1392068726170E+00 -0.8264188743401E+00
-0.1431603802767E+00 -0.8388408725015E+00
-0.1461685170048E+00 -0.8502238641086E+00
-0.1480547475144E+00 -0.8604780093693E+00
-0.1486185449819E+00 -0.8695121838939E+00
-0.1476313681511E+00 -0.8772344365620E+00
-0.1448317768830E+00 -0.8835522374985E+00
-0.1399194121522E+00 -0.8883724099735E+00
-0.1325474246836E+00 -0.8916005330775E+00
-0.1223127579091E+00 -0.8931394130938E+00
-0.1087434699180E+00 -0.8928858849432E+00
-0.9128205869709E-01 -0.8907245783709E+00
-0.6926381096280E-01 -0.8865161106092E+00
-0.4189048224378E-01 -0.8800748603461E+00
-0.8209850488742E-02 -0.8711288660988E+00
-0.9514719821600E-01 -0.7850624059990E+00
-0.1008686663271E+00 -0.8030093917742E+00
-0.1062172031475E+00 -0.8204020378681E+00
-0.1110896499503E+00 -0.8371664613324E+00
-0.1153675721437E+00 -0.8532240217971E+00
-0.1189153805391E+00 -0.8684915636645E+00
-0.1215779952550E+00 -0.8828817194512E+00
-0.1231779843255E+00 -0.8963031573468E+00
-0.1235121407567E+00 -0.9086606724933E+00
-0.1223474455484E+00 -0.9198550276240E+00
-0.1194163241177E+00 -0.9297824242082E+00
-0.1144110583256E+00 -0.9383334230130E+00
-0.1069771818064E+00 -0.9453910241011E+00
-0.9670568940974E-01 -0.9508274442006E+00
-0.8312399643212E-01 -0.9544988663775E+00
-0.6568596135443E-01 -0.9562370581086E+00
-0.4376232677954E-01 -0.9558362860739E+00
-0.1663593658183E-01 -0.9530338627876E+00
 0.1648913959545E-01 -0.9474852429877E+00
-0.7274235634969E-01 -0.8003313330242E+00
-0.7774136975960E-01 -0.8203345222925E+00
-0.8241507065453E-01 -0.8399325843535E+00
-0.8666655503281E-01 -0.8590560254425E+00
-0.9038351518810E-01 -0.8776295761047E+00
-0.9343616541379E-01 -0.8955720803320E+00
-0.9567480669592E-01 -0.9127963632092E+00
-0.9692698419084E-01 -0.9292089877484E+00
-0.9699422035357E-01 -0.9447098049157E+00
-0.9564831614854E-01 -0.9591911894805E+00
-0.9262721710999E-01 -0.9725368261300E+00
-0.8763045727828E-01 -0.9846198595512E+00
-0.8031424493487E-01 -0.9953001471215E+00
-0.7028637651109E-01 -0.1004420255609E+01
-0.5710142763019E-01 -0.1011799739475E+01
-0.4025718712080E-01 -0.1017227184877E+01
-0.1919427291479E-01 -0.1020449681236E+01
 0.6697906621210E-02 -0.1021160288268E+01
 0.3806577046297E-01 -0.1018985898282E+01
-0.4968202571392E-01 -0.8136848974728E+00
-0.5387407201913E-01 -0.8355402008078E+00
-0.5778782626921E-01 -0.8571310900731E+00
-0.6133498017042E-01 -0.8783923090857E+00
-0.6441242021337E-01 -0.8992516610716E+00
-0.6690015434114E-01 -0.9196295482954E+00
-0.6865896490637E-01 -0.9394384269638E+00
-0.6952777573216E-01 -0.9585821088632E+00
-0.6932075119488E-01 -0.9769548296535E+00
-0.6782417187939E-01 -0.9944399909321E+00
-0.6479316382293E-01 -0.1010908463471E+01
-0.5994840983800E-01 -0.1026216312023E+01
-0.5297305937048E-01 -0.1040201772985E+01
-0.4351020169136E-01 -0.1052681299405E+01
-0.3116150335156E-01 -0.1063444515643E+01
-0.1548795230547E-01 -0.1072248062855E+01
 0.3986005671617E-02 -0.1078808686983E+01
 0.2776370396353E-01 -0.1082796568052E+01
 0.5636249024724E-01 -0.1083830548252E+01
-0.2607243118579E-01 -0.8249697229966E+00
-0.2938683080594E-01 -0.8484373749048E+00
-0.3247031836210E-01 -0.8717675926602E+00
-0.3524565287398E-01 -0.8948989480565E+00
-0.3762212167787E-01 -0.9177618711072E+00
-0.3949362767677E-01 -0.9402778623911E+00
-0.4073658393562E-01 -0.9623585812175E+00
-0.4120763287048E-01 -0.9839047617409E+00
-0.4074123878586E-01 -0.1004804901818E+01
-0.3914723723576E-01 -0.1024933663310E+01
-0.3620846814029E-01 -0.1044149916706E+01
-0.3167867884501E-01 -0.1062294360149E+01
-0.2528096551728E-01 -0.1079186651076E+01
-0.1670713024418E-01 -0.1094622023007E+01
-0.5618458689151E-02 -0.1108367444910E+01
 0.8351478422592E-02 -0.1120157548589E+01
 0.2559144852388E-01 -0.1129690807089E+01
 0.4650440069515E-01 -0.1136626718127E+01
 0.7149702563367E-01 -0.1140584872194E+01
-0.2025817138842E-02 -0.8340578685003E+00
-0.4406288147109E-02 -0.8588683089417E+00
-0.6604269243355E-02 -0.8836503096130E+00
-0.8555974770481E-02 -0.9083457472061E+00
-0.1018616554501E-01 -0.9328872338247E+00
-0.1140651854420E-01 -0.9571970454362E+00
-0.1211387291068E-01 -0.9811859069290E+00
-0.1218838701252E-01 -0.1004751608026E+01
-0.1149167159394E-01 -0.1027777423933E+01
-0.9864998692197E-02 -0.1050130317546E+01
-0.7127727165056E-02 -0.1071658907041E+01
-0.3076134697703E-02 -0.1092191197005E+01
 0.2517098765800E-02 -0.1111532098952E+01
 0.9902458796200E-02 -0.1129460817118E+01
 0.1935189091712E-01 -0.1145728256732E+01
 0.3115553800078E-01 -0.1160054724032E+01
 0.4561679506793E-01 -0.1172128302865E+01
 0.6304585452607E-01 -0.1181604349924E+01
 0.8375229284306E-01 -0.1188106471201E+01
 0.2234130842252E-01 -0.8408476733504E+00
 0.2093652973179E-01 -0.8667073062446E+00
 0.1966441360524E-01 -0.8926261817089E+00
 0.1857317476778E-01 -0.9185489343363E+00
 0.1771987709773E-01 -0.9444099955070E+00
 0.1717169367121E-01 -0.9701322966290E+00
 0.1700723919464E-01 -0.9956258233475E+00
 0.1731793630860E-01 -0.1020786016374E+01
 0.1820935171000E-01 -0.1045492020830E+01
 0.1980240937601E-01 -0.1069604796643E+01
 0.2223435657248E-01 -0.1092965118288E+01
 0.2565932593779E-01 -0.1115391514788E+01
 0.3024830966600E-01 -0.1136678232718E+01
 0.3618835138618E-01 -0.1156593347664E+01
 0.4368078594879E-01 -0.1174877201047E+01
 0.5293843630769E-01 -0.1191241388652E+01
 0.6418181708854E-01 -0.1205368552215E+01
 0.7763456422998E-01 -0.1216913196853E+01
 0.9351844996988E-01 -0.1225503642783E+01
 0.4690958309797E-01 -0.8452642598893E+00
 0.4650781316156E-01 -0.8718609957609E+00
 0.4618742329775E-01 -0.8985808577074E+00
 0.4597937283292E-01 -0.9253707085081E+00
 0.4592041194018E-01 -0.9521665411593E+00
 0.4605391179963E-01 -0.9788920241236E+00
 0.4643073463782E-01 -0.1005456898046E+01
 0.4711011356920E-01 -0.1031755237179E+01
 0.4816049415935E-01 -0.1057663599743E+01
 0.4966027024557E-01 -0.1083039107036E+01
 0.5169832675772E-01 -0.1107717511442E+01
 0.5437428486129E-01 -0.1131511338112E+01
 0.5779833535672E-01 -0.1154208213081E+01
 0.6209055358484E-01 -0.1175569518587E+01
 0.6737962282294E-01 -0.1195329538405E+01
 0.7380095872058E-01 -0.1213195262179E+01
 0.8149431653354E-01 -0.1228846997830E+01
 0.9060105018534E-01 -0.1241939891651E+01
 0.1012611925773E+00 -0.1252106392463E+01
 0.7155796738795E-01 -0.8472598370318E+00
 0.7217216165324E-01 -0.8742684370406E+00
 0.7281521612603E-01 -0.9014385219501E+00
 0.7349970655816E-01 -0.9287186750056E+00
 0.7424064202082E-01 -0.9560462798166E+00
 0.7505582733231E-01 -0.9833459783056E+00
 0.7596624816098E-01 -0.1010527980491E+01
 0.7699646534719E-01 -0.1037486250753E+01
 0.7817499631085E-01 -0.1064096608032E+01
 0.7953465292186E-01 -0.1090214795378E+01
 0.8111279690546E-01 -0.1115674596247E+01
 0.8295146721590E-01 -0.1140286099226E+01
 0.8509733158555E-01 -0.1163834236255E+01
 0.8760142051340E-01 -0.1186077736583E+01
 0.9051862005875E-01 -0.1206748642715E+01
 0.9390693126628E-01 -0.1225552518315E+01
 0.9782654548026E-01 -0.1242169438764E+01
 0.1023388269718E+00 -0.1256255798771E+01
 0.1075053481397E+00 -0.1267446934107E+01
 0.9616485690298E-01 -0.8468138646355E+00
 0.9779370031657E-01 -0.8739011601770E+00
 0.9939806096278E-01 -0.9011617608309E+00
 0.1009716492137E+00 -0.9285454663715E+00
 0.1025071197379E+00 -0.9559909226734E+00
 0.1039959459034E+00 -0.9834240627417E+00
 0.1054283080440E+00 -0.1010756397483E+01
 0.1067930008269E+00 -0.1037883183419E+01
 0.1080773677521E+00 -0.1064681507067E+01
 0.1092672737696E+00 -0.1091008343817E+01
 0.1103471298116E+00 -0.1116698671305E+01
 0.1112999848242E+00 -0.1141563741460E+01
 0.1121077005349E+00 -0.1165389638018E+01
 0.1127512205017E+00 -0.1187936261673E+01
 0.1132109374699E+00 -0.1208936885822E+01
 0.1134671530423E+00 -0.1228098405203E+01
 0.1135006169328E+00 -0.1245102353807E+01
 0.1132931408245E+00 -0.1259606703408E+01
 0.1128283460628E+00 -0.1271248370039E+01
 0.1206090379979E+00 -0.8439330394137E+00
 0.1232369104283E+00 -0.8707630562086E+00
 0.1257866623598E+00 -0.8977513420897E+00
 0.1282333584722E+00 -0.9248483872147E+00
 0.1305475598665E+00 -0.9519939581131E+00
 0.1326947097120E+00 -0.9791155917247E+00
 0.1346345206796E+00 -0.1006126935230E+01
 0.1363203864931E+00 -0.1032925951529E+01
 0.1376988536617E+00 -0.1059393020818E+01
 0.1387092041704E+00 -0.1085388984976E+01
 0.1392832144034E+00 -0.1110753202463E+01
 0.1393451672617E+00 -0.1135301706235E+01
 0.1388121984704E+00 -0.1158825583484E+01
 0.1375950479419E+00 -0.1181089719434E+01
 0.1355992563921E+00 -0.1201832060648E+01
 0.1327267952655E+00 -0.1220763546354E+01
 0.1288780522745E+00 -0.1237568820035E+01
 0.1239540429658E+00 -0.1251907759355E+01
 0.1178586833810E+00 -0.1263417752358E+01
 0.1447707994955E+00 -0.8386526565352E+00
 0.1483677738512E+00 -0.8648932313644E+00
 0.1518332395636E+00 -0.8912505929714E+00
 0.1551245411207E+00 -0.9176753365267E+00
 0.1581912880059E+00 -0.9441081218537E+00
 0.1609742722910E+00 -0.9704782908178E+00
 0.1634043627719E+00 -0.9967023278147E+00
 0.1654014083439E+00 -0.1022682167133E+01
 0.1668732067939E+00 -0.1048303357906E+01
 0.1677146206068E+00 -0.1073433109336E+01
 0.1678069485511E+00 -0.1097918256231E+01
 0.1670176877234E+00 -0.1121583208749E+01
 0.1652008387181E+00 -0.1144227981364E+01
 0.1621979050891E+00 -0.1165626433893E+01
 0.1578397023588E+00 -0.1185524896641E+01
 0.1519490080218E+00 -0.1203641380651E+01
 0.1443439553015E+00 -0.1219665571970E+01
 0.1348419131181E+00 -0.1233259756807E+01
 0.1232634723175E+00 -0.1244060703258E+01
 0.1685336284916E+00 -0.8310406626692E+00
 0.1730560625084E+00 -0.8563745201005E+00
 0.1773942110074E+00 -0.8817584078040E+00
 0.1814892416037E+00 -0.9071423193474E+00
 0.1852717340404E+00 -0.9324673886229E+00
 0.1886601761895E+00 -0.9576646998871E+00
 0.1915593907466E+00 -0.9826539448502E+00
 0.1938589264101E+00 -0.1007341909154E+01
 0.1954314763314E+00 -0.1031620772312E+01
 0.1961314199240E+00 -0.1055366209957E+01
 0.1957936230865E+00 -0.1078435296911E+01
 0.1942326757475E+00 -0.1100664227312E+01
 0.1912427894872E+00 -0.1121865898758E+01
 0.1865986098681E+00 -0.1141827457049E+01
 0.1800571933939E+00 -0.1160307970479E+01
 0.1713613244969E+00 -0.1177036489520E+01
 0.1602441698670E+00 -0.1191710824113E+01
 0.1464350043519E+00 -0.1203997388233E+01
 0.1296654014575E+00 -0.1213532391513E+01
 0.1917850989320E+00 -0.8211923068633E+00
 0.1971760061839E+00 -0.8453233092018E+00
 0.2023305357128E+00 -0.8694142704054E+00
 0.2071756917510E+00 -0.8934137603784E+00
 0.2116255580973E+00 -0.9172627529759E+00
 0.2155794467712E+00 -0.9408936933437E+00
 0.2189199112999E+00 -0.9642294283250E+00
 0.2215106476815E+00 -0.9871819608977E+00
 0.2231943352965E+00 -0.1009650984460E+01
 0.2237905055158E+00 -0.1031522147879E+01
 0.2230935713243E+00 -0.1052664999234E+01
 0.2208712107330E+00 -0.1072930559268E+01
 0.2168633722236E+00 -0.1092148492579E+01
 0.2107822578176E+00 -0.1110123888805E+01
 0.2023137205383E+00 -0.1126633756170E+01
 0.1911205289747E+00 -0.1141423484468E+01
 0.1768478204503E+00 -0.1154203734556E+01
 0.1591306927511E+00 -0.1164648396345E+01
 0.1376033925261E+00 -0.1172394302347E+01
 0.2144179342597E+00 -0.8092278719076E+00
 0.2206072846759E+00 -0.8318857902563E+00
 0.2265086133316E+00 -0.8543930866847E+00
 0.2320370730123E+00 -0.8766960208680E+00
 0.2370931961342E+00 -0.8987345921349E+00
 0.2415608004648E+00 -0.9204419153886E+00
 0.2453046807076E+00 -0.9417434934095E+00
 0.2481680863248E+00 -0.9625563297439E+00
 0.2499700099297E+00 -0.9827878147063E+00
 0.2505023398726E+00 -0.1002334301816E+01
 0.2495269717940E+00 -0.1021079273064E+01
 0.2467730360177E+00 -0.1038890971180E+01
 0.2419344927722E+00 -0.1055619362416E+01
 0.2346684901842E+00 -0.1071092299864E+01
 0.2245950783968E+00 -0.1085110816286E+01
 0.2112991131151E+00 -0.1097443641983E+01
 0.1943352909617E+00 -0.1107821395794E+01
 0.1732370169139E+00 -0.1115931360881E+01
 0.1475289347995E+00 -0.1121414161094E+01
 0.2363313319159E+00 -0.7952916843760E+00
 0.2432365078809E+00 -0.8162370371804E+00
 0.2498019295190E+00 -0.8369044088127E+00
 0.2559333214909E+00 -0.8572368930885E+00
 0.2615207902157E+00 -0.8771726102919E+00
 0.2664366216886E+00 -0.8966444195472E+00
 0.2705327856379E+00 -0.9155795801441E+00
 0.2736381161668E+00 -0.9338992971402E+00
 0.2755551527874E+00 -0.9515180717167E+00
 0.2760566396218E+00 -0.9683427544625E+00
 0.2748817020412E+00 -0.9842711665515E+00
 0.2717317609460E+00 -0.9991901075042E+00
 0.2662663249000E+00 -0.1012972509222E+01
 0.2580989520381E+00 -0.1025473430994E+01
 0.2467939533989E+00 -0.1036524543521E+01
 0.2318648809051E+00 -0.1045926789507E+01
 0.2127765987250E+00 -0.1053441205830E+01
 0.1889531346264E+00 -0.1058778797179E+01
 0.1597928818655E+00 -0.1061591463010E+01
 0.2574325147332E+00 -0.7795507087526E+00
 0.2649591194987E+00 -0.7985795369214E+00
 0.2720933707320E+00 -0.8171909702686E+00
 0.2787339078831E+00 -0.8353242619206E+00
 0.2847634709539E+00 -0.8529148204999E+00
 0.2900467499762E+00 -0.8698942558026E+00
 0.2944278741597E+00 -0.8861904412759E+00
 0.2977274810350E+00 -0.9017275282892E+00
 0.2997393076837E+00 -0.9164258355292E+00
 0.3002262378948E+00 -0.9302015154928E+00
 0.2989157268069E+00 -0.9429658616228E+00
 0.2954945177464E+00 -0.9546240564130E+00
 0.2896025814212E+00 -0.9650730630569E+00
 0.2808262807636E+00 -0.9741982186922E+00
 0.2686909693821E+00 -0.9818678844762E+00
 0.2526537452519E+00 -0.9879252602254E+00
 0.2320981940636E+00 -0.9921762855907E+00
 0.2063356054312E+00 -0.9943730091324E+00
 0.1746183513945E+00 -0.9941946649660E+00
 0.2776383710072E+00 -0.7621927599207E+00
 0.2856814663207E+00 -0.7791412568558E+00
 0.2932778428198E+00 -0.7955266456876E+00
 0.3003211396555E+00 -0.8112840514847E+00
 0.3066894840469E+00 -0.8263456535671E+00
 0.3122435628968E+00 -0.8406410298327E+00
 0.3168242899268E+00 -0.8540975908431E+00
 0.3202499894751E+00 -0.8666410425666E+00
 0.3223130119120E+00 -0.8781958172337E+00
 0.3227756648222E+00 -0.8886854033947E+00
 0.3213652924797E+00 -0.8980324782783E+00
 0.3177682662692E+00 -0.9061586871365E+00
 0.3116225630475E+00 -0.9129838088108E+00
 0.3025085155675E+00 -0.9184238638905E+00
 0.2899372562350E+00 -0.9223874062432E+00
 0.2733364575769E+00 -0.9247686880293E+00
 0.2520336524945E+00 -0.9254354705721E+00
 0.2252397803789E+00 -0.9242077840546E+00
 0.1920465386507E+00 -0.9208240996083E+00
 0.2968772612666E+00 -0.7434241700575E+00
 0.3053232338901E+00 -0.7581729285938E+00
 0.3132655208220E+00 -0.7722133055480E+00
 0.3205944492222E+00 -0.7854766494449E+00
 0.3271857821632E+00 -0.7978920241321E+00
 0.3328991751341E+00 -0.8093868000117E+00
 0.3375762032140E+00 -0.8198873990803E+00
 0.3410378833094E+00 -0.8293201299319E+00
 0.3430816118226E+00 -0.8376120736639E+00
 0.3434773914858E+00 -0.8446919991819E+00
 0.3419631378775E+00 -0.8504912854255E+00
 0.3382387328911E+00 -0.8549448007036E+00
 0.3319583125164E+00 -0.8579916228413E+00
 0.3227200062200E+00 -0.8595753481705E+00
 0.3100519267593E+00 -0.8596434622323E+00
 0.2933925626491E+00 -0.8581446707422E+00
 0.2720627682580E+00 -0.8550218002980E+00
 0.2452256882853E+00 -0.8501949722176E+00
 0.2118331673655E+00 -0.8435214268974E+00
 0.3150909827309E+00 -0.7234667029511E+00
 0.3238202530240E+00 -0.7359441758209E+00
 0.3319857382210E+00 -0.7475759614168E+00
 0.3394756714109E+00 -0.7582908811022E+00
 0.3461650838153E+00 -0.7680159778054E+00
 0.3519147818636E+00 -0.7766773251536E+00
 0.3565698636121E+00 -0.7842010309038E+00
 0.3599577392837E+00 -0.7905143477397E+00
 0.3618856293703E+00 -0.7955468686012E+00
 0.3621374599932E+00 -0.7992318372689E+00
 0.3604699782673E+00 -0.8015076385141E+00
 0.3566077693379E+00 -0.8023195505204E+00
 0.3502366451528E+00 -0.8016218494746E+00
 0.3409945310184E+00 -0.7993803477607E+00
 0.3284583710275E+00 -0.7955753972307E+00
 0.3121244267924E+00 -0.7902052107981E+00
 0.2913769767133E+00 -0.7832887872031E+00
 0.2654352121426E+00 -0.7748657463442E+00
 0.2332532483682E+00 -0.7649833711786E+00
 0.3322365507877E+00 -0.7025539173334E+00
 0.3411271333620E+00 -0.7127388564248E+00
 0.3493907393815E+00 -0.7219566912267E+00
 0.3569142653074E+00 -0.7301360514193E+00
 0.3635730570136E+00 -0.7372043227576E+00
 0.3692304989763E+00 -0.7430887390304E+00
 0.3737370527048E+00 -0.7477176743296E+00
 0.3769288096764E+00 -0.7510219975159E+00
 0.3786256414304E+00 -0.7529364806326E+00
 0.3786289653652E+00 -0.7534013431258E+00
 0.3767190504099E+00 -0.7523640737300E+00
 0.3726516721120E+00 -0.7497817254290E+00
 0.3661537735398E+00 -0.7456239547290E+00
 0.3569175474564E+00 -0.7398772077791E+00
 0.3445919211682E+00 -0.7325506937127E+00
 0.3287695550282E+00 -0.7236852261335E+00
 0.3089655522902E+00 -0.7133668671139E+00
 0.2845789214532E+00 -0.7017490030189E+00
 0.2548141607448E+00 -0.6890906738450E+00
 0.3482880024459E+00 -0.6809265045652E+00
 0.3572201732606E+00 -0.6888487388593E+00
 0.3654598855946E+00 -0.6957059282719E+00
 0.3728930909898E+00 -0.7014299033796E+00
 0.3793961330823E+00 -0.7059520726430E+00
 0.3848359743374E+00 -0.7092050544367E+00
 0.3890696618138E+00 -0.7111244575688E+00
 0.3919432996185E+00 -0.7116506361418E+00
 0.3932907700157E+00 -0.7107304627972E+00
 0.3929323460763E+00 -0.7083192895177E+00
 0.3906732459994E+00 -0.7043833358474E+00
 0.3863021173520E+00 -0.6989028154150E+00
 0.3795894073170E+00 -0.6918762313199E+00
 0.3702855677511E+00 -0.6833264993902E+00
 0.3581190665235E+00 -0.6733099961688E+00
 0.3427942643991E+00 -0.6619304963969E+00
 0.3239894834619E+00 -0.6493617951095E+00
 0.3013566842947E+00 -0.6358873048707E+00
 0.2745268167063E+00 -0.6219766545162E+00
 0.3632381360421E+00 -0.6588262849692E+00
 0.3721004100271E+00 -0.6645649895989E+00
 0.3802039196710E+00 -0.6691701732940E+00
 0.3874338759882E+00 -0.6725807274984E+00
 0.3936683911243E+00 -0.6747364276491E+00
 0.3987792502557E+00 -0.6755805009082E+00
 0.4026316061823E+00 -0.6750621517615E+00
 0.4050831992687E+00 -0.6731389020020E+00
 0.4059835487399E+00 -0.6697789238210E+00
 0.4051733772390E+00 -0.6649636706296E+00
 0.4024844272449E+00 -0.6586911583235E+00
 0.3977398246316E+00 -0.6509802975705E+00
 0.3907552450452E+00 -0.6418767883841E+00
 0.3813413741545E+00 -0.6314613081813E+00
 0.3693086296136E+00 -0.6198611296499E+00
 0.3544761165674E+00 -0.6072670429691E+00
 0.3366890709094E+00 -0.5939588715535E+00
 0.3158550366723E+00 -0.5803456480964E+00
 0.2920271081275E+00 -0.5670335400498E+00
 0.3770999855934E+00 -0.6364890532995E+00
 0.3857962153018E+00 -0.6401681522638E+00
 0.3936678960817E+00 -0.6426775449954E+00
 0.4005997214330E+00 -0.6439664256309E+00
 0.4064728765860E+00 -0.6439867265027E+00
 0.4111660533786E+00 -0.6426969815162E+00
 0.4145550572217E+00 -0.6400656297155E+00
 0.4165121163612E+00 -0.6360738132436E+00
 0.4169055499151E+00 -0.6307180738299E+00
 0.4156001201302E+00 -0.6240134075157E+00
 0.4124582739125E+00 -0.6159970724262E+00
 0.4073425334429E+00 -0.6067335100586E+00
 0.4001194916560E+00 -0.5963207563506E+00
 0.3906662330774E+00 -0.5848987933883E+00
 0.3788806440603E+00 -0.5726604021584E+00
 0.3646982509174E+00 -0.5598651628138E+00
 0.3481205364942E+00 -0.5468570897794E+00
 0.3292640144231E+00 -0.5340850679471E+00
 0.3084499176267E+00 -0.5221184647050E+00
 0.3899062934153E+00 -0.6141369714533E+00
 0.3983619256008E+00 -0.6159175011709E+00
 0.4059277401570E+00 -0.6165232492641E+00
 0.4124883156761E+00 -0.6159153246679E+00
 0.4179300032827E+00 -0.6140601917526E+00
 0.4221414155748E+00 -0.6109349416905E+00
 0.4250124041763E+00 -0.6065310118360E+00
 0.4264332820343E+00 -0.6008568787104E+00
 0.4262950157995E+00 -0.5939405361333E+00
 0.4244906103783E+00 -0.5858323160790E+00
 0.4209178068353E+00 -0.5766083906107E+00
 0.4154833227279E+00 -0.5663751149432E+00
 0.4081090928676E+00 -0.5552742727536E+00
 0.3987412811788E+00 -0.5434891692017E+00
 0.3873632583487E+00 -0.5312512840865E+00
 0.3740142977184E+00 -0.5188466418729E+00
 0.3588161932665E+00 -0.5066196796102E+00
 0.3420095779572E+00 -0.4949690317704E+00
 0.3239910629514E+00 -0.4843198594312E+00
 0.4016974607336E+00 -0.5919679521432E+00
 0.4098562873055E+00 -0.5920342302502E+00
 0.4170605630187E+00 -0.5909491149491E+00
 0.4231961544526E+00 -0.5886852465489E+00
 0.4281581738010E+00 -0.5852245829140E+00
 0.4318492955101E+00 -0.5805647179518E+00
 0.4341773746759E+00 -0.5747219842969E+00
 0.4350544728357E+00 -0.5677331692194E+00
 0.4343976614156E+00 -0.5596570116664E+00
 0.4321314339018E+00 -0.5505761185293E+00
 0.4281915811356E+00 -0.5405993862500E+00
 0.4225306103433E+00 -0.5298648083030E+00
 0.4151249633196E+00 -0.5185423824816E+00
 0.4059844186519E+00 -0.5068366218224E+00
 0.3951640704057E+00 -0.4949877962791E+00
 0.3827789430612E+00 -0.4832703244185E+00
 0.3690201335607E+00 -0.4719854775107E+00
 0.3541674666817E+00 -0.4614434860910E+00
 0.3385855598531E+00 -0.4519305030879E+00
 0.4125202282177E+00 -0.5701585711155E+00
 0.4203407419316E+00 -0.5687085650272E+00
 0.4271423086707E+00 -0.5661546788416E+00
 0.4328161028295E+00 -0.5624788059597E+00
 0.4372717004145E+00 -0.5576789347451E+00
 0.4404307917020E+00 -0.5517744703431E+00
 0.4422228919756E+00 -0.5448072053082E+00
 0.4425844937971E+00 -0.5368408661550E+00
 0.4414607606525E+00 -0.5279611907762E+00
 0.4388087999597E+00 -0.5182765757933E+00
 0.4346021777220E+00 -0.5079190545142E+00
 0.4288365473305E+00 -0.4970451901081E+00
 0.4215363747578E+00 -0.4858363683598E+00
 0.4127626681327E+00 -0.4744978110958E+00
 0.4026212956263E+00 -0.4632553655962E+00
 0.3912707243838E+00 -0.4523487588775E+00
 0.3789264135945E+00 -0.4420196640782E+00
 0.3658568668832E+00 -0.4324934644496E+00
 0.3523666527613E+00 -0.4239569709409E+00
 0.4224310131700E+00 -0.5488690202351E+00
 0.4298842618708E+00 -0.5461089526423E+00
 0.4362535513489E+00 -0.5423077817619E+00
 0.4414439601989E+00 -0.5374548114438E+00
 0.4453873957457E+00 -0.5315657658220E+00
 0.4480286469207E+00 -0.5246841101507E+00
 0.4493205051181E+00 -0.5168765167563E+00
 0.4492245070530E+00 -0.5082303372122E+00
 0.4477136181354E+00 -0.4988523893107E+00
 0.4447760451715E+00 -0.4888685211802E+00
 0.4404196861289E+00 -0.4784232707788E+00
 0.4346770108028E+00 -0.4676790420686E+00
 0.4276101435274E+00 -0.4568142430763E+00
 0.4193157380855E+00 -0.4460198102997E+00
 0.4099288563833E+00 -0.4354935178826E+00
 0.3996244356465E+00 -0.4254315555030E+00
 0.3886142798568E+00 -0.4160173707521E+00
 0.3771372100925E+00 -0.4074091140869E+00
 0.3654420209030E+00 -0.3997283380008E+00
 0.4314914412873E+00 -0.5282469984207E+00
 0.4385549531080E+00 -0.5243832275692E+00
 0.4444688159258E+00 -0.5195428841469E+00
 0.4491702121550E+00 -0.5137241896182E+00
 0.4526192524079E+00 -0.5069698150638E+00
 0.4547829186123E+00 -0.4993492123855E+00
 0.4556359521756E+00 -0.4909515481504E+00
 0.4551632160778E+00 -0.4818823310888E+00
 0.4533631468606E+00 -0.4722619599632E+00
 0.4502514041747E+00 -0.4622247699549E+00
 0.4458645226361E+00 -0.4519177993212E+00
 0.4402633328862E+00 -0.4414987503655E+00
 0.4335358451366E+00 -0.4311327588756E+00
 0.4257991154035E+00 -0.4209876844020E+00
 0.4171993965710E+00 -0.4112277923039E+00
 0.4079097443524E+00 -0.4020060555922E+00
 0.3981243523496E+00 -0.3934559733095E+00
 0.3880502337156E+00 -0.3856848949841E+00
 0.3778955321906E+00 -0.3787717839842E+00
 0.4397607044017E+00 -0.5084365767133E+00
 0.4463977986094E+00 -0.5036616490661E+00
 0.4518438367153E+00 -0.4979476920610E+00
 0.4560795729666E+00 -0.4913401016294E+00
 0.4590818054925E+00 -0.4839154861631E+00
 0.4608348606731E+00 -0.4757669106652E+00
 0.4613322513023E+00 -0.4669993657374E+00
 0.4605797393161E+00 -0.4577284599226E+00
 0.4585981016004E+00 -0.4480796953269E+00
 0.4554258016434E+00 -0.4381874039579E+00
 0.4511213016839E+00 -0.4281929194844E+00
 0.4457647680407E+00 -0.4182417738986E+00
 0.4394588419635E+00 -0.4084798218909E+00
 0.4323280962152E+00 -0.3990483209892E+00
 0.4245168218864E+00 -0.3900782016088E+00
 0.4161849914653E+00 -0.3816840836157E+00
 0.4075029400988E+00 -0.3739590636392E+00
 0.3986457912440E+00 -0.3669715574995E+00
 0.3897943271742E+00 -0.3607671898262E+00
</DataArray>
</PointData>
   <DataArray type="Float64" Name="Load" NumberOfComponents="1"    ComponentName0="Load" format="ascii">
 0.2808601781291E+01
 0.2459082091923E+01
 0.2216628095465E+01
 0.2143349256555E+01
 0.2107462382106E+01
 0.2101155818475E+01
 0.2111805234035E+01
 0.2134989407883E+01
 0.2167836947620E+01
 0.2208914024877E+01
 0.2257534286967E+01
 0.2313573189245E+01
 0.2377348417701E+01
 0.2449592035473E+01
 0.2531482817984E+01
 0.2624773348629E+01
 0.2732062053345E+01
 0.2857494280917E+01
 0.3008423915034E+01
 0.3195672536340E+01
 0.3416823145908E+01
 0.3650523966733E+01
 0.3876971597244E+01
 0.4087697757408E+01
 0.4282593228034E+01
 0.4464834729885E+01
 0.4637502825884E+01
 0.4801975207261E+01
 0.4956948817852E+01
 0.5097481959668E+01
 0.5219499507977E+01
 0.5329412168221E+01
 0.5438596717150E+01
 0.5554932757763E+01
 0.5686743804130E+01
 0.5842035311460E+01
 0.6044144262980E+01
 0.6261565447224E+01
 0.6737769920423E+01
 0.6014875607807E+01
 0.1218265709972E+02
 0.2424425305987E+01
 0.2488020833535E+01
 0.2313573204771E+01
 0.2218981503645E+01
 0.2179711998499E+01
 0.2166352813027E+01
 0.2171886287075E+01
 0.2190591785388E+01
 0.2219687645168E+01
 0.2257533458876E+01
 0.2303335234529E+01
 0.2356865289787E+01
 0.2418354864985E+01
 0.2488453340128E+01
 0.2568251334538E+01
 0.2659379834692E+01
 0.2764235066443E+01
 0.2886355246704E+01
 0.3029777737086E+01
 0.3196223976521E+01
 0.3381232974650E+01
 0.3574198852532E+01
 0.3763958528460E+01
 0.3943572921798E+01
 0.4110662731844E+01
 0.4265341387152E+01
 0.4408150432457E+01
 0.4538670972817E+01
 0.4655011593089E+01
 0.4754838333782E+01
 0.4837051653901E+01
 0.4902186639840E+01
 0.4951458106927E+01
 0.4984634220033E+01
 0.4996731999642E+01
 0.4977459243791E+01
 0.4890878940473E+01
 0.4708574672310E+01
 0.4115852368266E+01
 0.3156300807701E+01
 0.1042509437034E+02
 0.2237281352342E+01
 0.2404082961131E+01
 0.2358014599909E+01
 0.2278108471262E+01
 0.2238836589535E+01
 0.2223775033274E+01
 0.2226092163931E+01
 0.2241616097040E+01
 0.2267623676883E+01
 0.2302572978300E+01
 0.2345639273289E+01
 0.2396545111608E+01
 0.2455448173644E+01
 0.2522901280916E+01
 0.2599855595242E+01
 0.2687712759217E+01
 0.2788414061310E+01
 0.2904166956279E+01
 0.3035837702584E+01
 0.3181443908243E+01
 0.3336763639040E+01
 0.3496284434169E+01
 0.3653875712328E+01
 0.3804297207324E+01
 0.3944254049597E+01
 0.4072016643053E+01
 0.4186387687082E+01
 0.4285824055511E+01
 0.4368421201324E+01
 0.4432770155281E+01
 0.4477639389154E+01
 0.4500295302999E+01
 0.4496385286989E+01
 0.4459214595428E+01
 0.4376921115171E+01
 0.4226232713241E+01
 0.3971301313877E+01
 0.3540831820734E+01
 0.2828162876550E+01
 0.3019264466772E+01
 0.9650907142112E+01
 0.2135359086988E+01
 0.2323450103227E+01
 0.2359100722306E+01
 0.2318188913359E+01
 0.2286248512351E+01
 0.2272939922179E+01
 0.2274334570902E+01
 0.2287877033677E+01
 0.2311511771554E+01
 0.2343919192887E+01
 0.2384358637567E+01
 0.2432546532081E+01
 0.2488583426766E+01
 0.2552913135549E+01
 0.2626303099377E+01
 0.2709833046701E+01
 0.2804773385809E+01
 0.2911874203495E+01
 0.3029943458713E+01
 0.3155675022988E+01
 0.3285572457155E+01
 0.3416778071589E+01
 0.3546014321893E+01
 0.3669446752656E+01
 0.3783591257796E+01
 0.3885719784906E+01
 0.3973571157974E+01
 0.4044982753013E+01
 0.4098040009307E+01
 0.4131360325904E+01
 0.4142965207899E+01
 0.4128297979431E+01
 0.4080172858134E+01
 0.3988910569081E+01
 0.3840134060219E+01
 0.3612854540205E+01
 0.3281245876702E+01
 0.2821795351846E+01
 0.2428935820513E+01
 0.3725054375500E+01
 0.8953830544325E+01
 0.2077107499752E+01
 0.2261941018753E+01
 0.2342616686173E+01
 0.2340358066510E+01
 0.2322889156702E+01
 0.2314195804055E+01
 0.2316616486753E+01
 0.2329351220424E+01
 0.2351295887735E+01
 0.2381523679670E+01
 0.2419457327869E+01
 0.2464853111813E+01
 0.2517769407747E+01
 0.2578533002955E+01
 0.2647695226268E+01
 0.2725945147159E+01
 0.2813806761731E+01
 0.2910827896667E+01
 0.3014686530907E+01
 0.3121796357586E+01
 0.3229388558333E+01
 0.3336057613959E+01
 0.3440148682936E+01
 0.3538879100337E+01
 0.3628931178781E+01
 0.3707146579090E+01
 0.3770716306407E+01
 0.3817175633873E+01
 0.3844540732530E+01
 0.3851178508677E+01
 0.3834503954938E+01
 0.3789204152766E+01
 0.3707352630744E+01
 0.3579164232654E+01
 0.3392863101429E+01
 0.3136897324548E+01
 0.2809515088993E+01
 0.2472741090470E+01
 0.2540059385824E+01
 0.4358045416494E+01
 0.8375560872855E+01
 0.2043671737618E+01
 0.2218193643766E+01
 0.2321899611562E+01
 0.2350276463072E+01
 0.2349839685039E+01
 0.2348199527737E+01
 0.2353158825509E+01
 0.2366120720619E+01
 0.2387004222406E+01
 0.2415397019847E+01
 0.2450950156096E+01
 0.2493496382973E+01
 0.2543066948703E+01
 0.2599868908605E+01
 0.2664219234442E+01
 0.2736390348225E+01
 0.2816216760631E+01
 0.2902395202830E+01
 0.2992090441857E+01
 0.3081877320191E+01
 0.3169596693708E+01
 0.3254660701979E+01
 0.3336346836546E+01
 0.3412638524235E+01
 0.3480544450059E+01
 0.3536844666584E+01
 0.3578546635157E+01
 0.3603093175702E+01
 0.3608448806446E+01
 0.3592778232165E+01
 0.3553264820209E+01
 0.3484731626637E+01
 0.3380055560199E+01
 0.3231706892747E+01
 0.3033823155521E+01
 0.2788329522665E+01
 0.2525812133295E+01
 0.2386922187169E+01
 0.2861994935547E+01
 0.4788743038499E+01
 0.7913194902391E+01
 0.2025365603930E+01
 0.2188326392046E+01
 0.2302629651111E+01
 0.2353077565737E+01
 0.2368947795523E+01
 0.2375717581102E+01
 0.2384351692308E+01
 0.2398367011406E+01
 0.2418736459043E+01
 0.2445605673177E+01
 0.2478899237079E+01
 0.2518553235554E+01
 0.2564585592047E+01
 0.2617086871238E+01
 0.2676138255391E+01
 0.2741615601538E+01
 0.2812792240599E+01
 0.2887832824033E+01
 0.2963763200376E+01
 0.3037487241669E+01
 0.3107328955326E+01
 0.3173172222340E+01
 0.3234840147527E+01
 0.3290880711672E+01
 0.3338693464001E+01
 0.3375226709489E+01
 0.3397551124343E+01
 0.3403174959482E+01
 0.3390102194466E+01
 0.3356485123356E+01
 0.3299695834308E+01
 0.3215405688621E+01
 0.3098408564777E+01
 0.2944998174253E+01
 0.2756966285911E+01
 0.2551620109141E+01
 0.2391325536959E+01
 0.2467235315958E+01
 0.3215308835671E+01
 0.5060115617118E+01
 0.7545547195027E+01
 0.2016766126377E+01
 0.2168822632664E+01
 0.2286835028676E+01
 0.2352306628517E+01
 0.2382211839236E+01
 0.2397662344146E+01
 0.2410676847432E+01
 0.2426355867898E+01
 0.2446652906239E+01
 0.2472265699834E+01
 0.2503409845499E+01
 0.2540141996698E+01
 0.2582478722604E+01
 0.2630403202707E+01
 0.2683776582945E+01
 0.2742132012158E+01
 0.2804330899853E+01
 0.2868255388559E+01
 0.2931006554733E+01
 0.2989863252409E+01
 0.3043528855145E+01
 0.3092169040290E+01
 0.3135938226827E+01
 0.3173816199577E+01
 0.3203613481416E+01
 0.3222584575045E+01
 0.3228028432696E+01
 0.3217649340663E+01
 0.3189621166513E+01
 0.3142314764368E+01
 0.3073669011772E+01
 0.2980732083929E+01
 0.2860932943067E+01
 0.2715221170573E+01
 0.2553696352467E+01
 0.2408724124861E+01
 0.2367503092153E+01
 0.2633826797202E+01
 0.3531155343927E+01
 0.5225555619198E+01
 0.7250587182624E+01
 0.2014634913511E+01
 0.2156966477634E+01
 0.2274928763084E+01
 0.2350146605595E+01
 0.2391372971744E+01
 0.2415000976826E+01
 0.2432673901661E+01
 0.2450410892426E+01
 0.2470963955322E+01
 0.2495535453882E+01
 0.2524625375830E+01
 0.2558417693649E+01
 0.2596937678724E+01
 0.2640075472838E+01
 0.2687501877118E+01
 0.2738479013236E+01
 0.2791597653866E+01
 0.2844638127918E+01
 0.2894892264753E+01
 0.2940008650372E+01
 0.2978993625202E+01
 0.3012192298553E+01
 0.3039974944565E+01
 0.3061669647350E+01
 0.3075498372025E+01
 0.3079101441760E+01
 0.3070116616273E+01
 0.3046554871140E+01
 0.3006898799713E+01
 0.2949956001378E+01
 0.2874531079932E+01
 0.2779399485392E+01
 0.2665004108071E+01
 0.2537235546539E+01
 0.2414304408956E+01
 0.2341367837553E+01
 0.2419238391073E+01
 0.2832839642956E+01
 0.3793436520817E+01
 0.5323944348250E+01
 0.7010784212880E+01
 0.2016937684356E+01
 0.2150753489068E+01
 0.2266662228466E+01
 0.2347842662781E+01
 0.2397789056172E+01
 0.2428651934232E+01
 0.2450906134864E+01
 0.2470891788416E+01
 0.2491917698758E+01
 0.2515608140797E+01
 0.2542721672677E+01
 0.2573566732378E+01
 0.2608185238123E+01
 0.2646392625841E+01
 0.2687707834832E+01
 0.2731198382763E+01
 0.2775304997425E+01
 0.2817830693761E+01
 0.2856315399189E+01
 0.2888753742479E+01
 0.2914402348324E+01
 0.2933733565535E+01
 0.2947274854267E+01
 0.2954652053625E+01
 0.2954491009150E+01
 0.2944861460258E+01
 0.2923813865395E+01
 0.2889757332512E+01
 0.2841609495406E+01
 0.2778794048337E+01
 0.2701191599466E+01
 0.2609497925696E+01
 0.2507288448157E+01
 0.2405281052789E+01
 0.2328886232665E+01
 0.2332207181143E+01
 0.2517447956672E+01
 0.3034124500338E+01
 0.4005124817457E+01
 0.5380557944499E+01
 0.6813257087871E+01
 0.2022343513501E+01
 0.2148721926094E+01
 0.2261558380394E+01
 0.2346049910680E+01
 0.2402453132580E+01
 0.2439422650027E+01
 0.2465926658765E+01
 0.2488175914615E+01
 0.2509788032575E+01
 0.2532704129503E+01
 0.2557901103896E+01
 0.2585801213843E+01
 0.2616468790778E+01
 0.2649665133527E+01
 0.2684799434505E+01
 0.2720817182088E+01
 0.2756105704201E+01
 0.2788573222703E+01
 0.2816032008114E+01
 0.2836795234034E+01
 0.2850335333158E+01
 0.2857228517415E+01
 0.2858133084267E+01
 0.2852943132819E+01
 0.2840677969815E+01
 0.2819858219307E+01
 0.2788995326009E+01
 0.2746968074242E+01
 0.2693231516624E+01
 0.2627956943480E+01
 0.2552228305656E+01
 0.2468728072516E+01
 0.2384091483532E+01
 0.2313437727066E+01
 0.2287847618135E+01
 0.2365619831026E+01
 0.2640521440292E+01
 0.3223249158988E+01
 0.4174511159625E+01
 0.5411312431269E+01
 0.6648737401579E+01
 0.2029952532544E+01
 0.2149805392193E+01
 0.2259101966892E+01
 0.2345071429096E+01
 0.2406061987047E+01
 0.2447987604961E+01
 0.2478252873935E+01
 0.2502642434511E+01
 0.2524864053202E+01
 0.2547063478276E+01
 0.2570386616938E+01
 0.2595353182530E+01
 0.2622053584550E+01
 0.2650215985232E+01
 0.2679181429668E+01
 0.2707837438826E+01
 0.2734592055525E+01
 0.2757511373023E+01
 0.2774686150837E+01
 0.2784722757550E+01
 0.2787288005143E+01
 0.2783054841931E+01
 0.2772803943700E+01
 0.2756681012751E+01
 0.2734087581702E+01
 0.2704002770027E+01
 0.2665428435592E+01
 0.2617764649227E+01
 0.2561078193542E+01
 0.2496372560091E+01
 0.2425992616350E+01
 0.2354577026789E+01
 0.2291601468781E+01
 0.2255893714858E+01
 0.2282211157030E+01
 0.2428362177850E+01
 0.2773876658445E+01
 0.3394617757369E+01
 0.4310251077445E+01
 0.5426196216249E+01
 0.6510518630427E+01
 0.2039140007031E+01
 0.2153221907780E+01
 0.2258817296031E+01
 0.2345009689203E+01
 0.2409090427908E+01
 0.2454891913554E+01
 0.2488351741082E+01
 0.2514659781323E+01
 0.2537440942225E+01
 0.2558939030264E+01
 0.2580415995051E+01
 0.2602469035439E+01
 0.2625216375680E+01
 0.2648372956639E+01
 0.2671249927873E+01
 0.2692730508725E+01
 0.2711298313006E+01
 0.2725209373553E+01
 0.2732829689829E+01
 0.2733037505730E+01
 0.2725681434591E+01
 0.2711532746181E+01
 0.2691495354357E+01
 0.2665957267483E+01
 0.2634690764680E+01
 0.2597132008569E+01
 0.2552788173073E+01
 0.2501613461476E+01
 0.2444333328036E+01
 0.2382827202124E+01
 0.2320703137890E+01
 0.2264450338961E+01
 0.2226042285991E+01
 0.2227099759083E+01
 0.2303864368736E+01
 0.2509890421628E+01
 0.2908423011705E+01
 0.3547149045430E+01
 0.4419835307813E+01
 0.5431530574648E+01
 0.6393658532367E+01
 0.2049463049656E+01
 0.2158394318401E+01
 0.2260294697627E+01
 0.2345859165756E+01
 0.2411854887786E+01
 0.2460567291281E+01
 0.2496634306555E+01
 0.2524576916900E+01
 0.2547812493959E+01
 0.2568590290610E+01
 0.2588236514860E+01
 0.2607404290612E+01
 0.2626239723936E+01
 0.2644462295203E+01
 0.2661386541401E+01
 0.2675934492711E+01
 0.2686704591081E+01
 0.2692160951523E+01
 0.2690937055118E+01
 0.2682165793303E+01
 0.2665870660939E+01
 0.2642926987530E+01
 0.2614367017600E+01
 0.2580815560092E+01
 0.2542403877270E+01
 0.2499017465615E+01
 0.2450672297708E+01
 0.2397893005142E+01
 0.2342086664626E+01
 0.2286019097129E+01
 0.2234520286710E+01
 0.2195761653561E+01
 0.2183763909251E+01
 0.2221876905769E+01
 0.2345753990080E+01
 0.2602268474241E+01
 0.3038896664580E+01
 0.3681874901276E+01
 0.4509317890308E+01
 0.5431371958773E+01
 0.6294424498392E+01
 0.2060602639098E+01
 0.2164894021623E+01
 0.2263194329056E+01
 0.2347561416588E+01
 0.2414562658200E+01
 0.2465352017376E+01
 0.2503456588688E+01
 0.2532718161262E+01
 0.2556265349204E+01
 0.2576278188990E+01
 0.2594100140791E+01
 0.2610418857779E+01
 0.2625407060330E+01
 0.2638803769290E+01
 0.2649954547384E+01
 0.2657853583668E+01
 0.2661241182650E+01
 0.2658798392234E+01
 0.2649416532077E+01
 0.2632469346287E+01
 0.2608151620930E+01
 0.2577449892509E+01
 0.2541531081313E+01
 0.2501252822852E+01
 0.2457093103040E+01
 0.2409374535735E+01
 0.2358616448137E+01
 0.2305916465123E+01
 0.2253366607852E+01
 0.2204603119583E+01
 0.2165600832830E+01
 0.2145989327959E+01
 0.2161299518487E+01
 0.2235505814425E+01
 0.2401982510988E+01
 0.2699794902919E+01
 0.3162514311233E+01
 0.3800679588813E+01
 0.4583461143853E+01
 0.5428374551847E+01
 0.6209920178265E+01
 0.2072326359490E+01
 0.2172401211236E+01
 0.2267240717906E+01
 0.2350036958561E+01
 0.2417347962208E+01
 0.2469510419675E+01
 0.2509124128215E+01
 0.2539380913334E+01
 0.2563074851191E+01
 0.2582260756855E+01
 0.2598259329101E+01
 0.2611772891649E+01
 0.2622998559852E+01
 0.2631706926685E+01
 0.2637296555249E+01
 0.2638858599110E+01
 0.2635292885350E+01
 0.2625500093250E+01
 0.2608619172031E+01
 0.2584253500646E+01
 0.2552767254349E+01
 0.2515265116581E+01
 0.2473054589390E+01
 0.2427222322107E+01
 0.2378580094373E+01
 0.2327872136556E+01
 0.2276108905614E+01
 0.2224952790834E+01
 0.2177168612848E+01
 0.2137225701499E+01
 0.2112135239894E+01
 0.2112712058393E+01
 0.2155408646125E+01
 0.2263795350280E+01
 0.2467792024370E+01
 0.2798529958109E+01
 0.3278017686571E+01
 0.3905658462228E+01
 0.4645978141691E+01
 0.5424334687788E+01
 0.6137838110529E+01
 0.2084463732467E+01
 0.2180676623156E+01
 0.2272214205498E+01
 0.2353203072534E+01
 0.2420297479773E+01
 0.2473249904507E+01
 0.2513898216031E+01
 0.2544835464922E+01
 0.2568502336730E+01
 0.2586789712812E+01
 0.2600963490052E+01
 0.2611723278324E+01
 0.2619287804469E+01
 0.2623468380408E+01
 0.2623733270138E+01
 0.2619288200198E+01
 0.2609203091515E+01
 0.2592596890096E+01
 0.2568845988656E+01
 0.2537773943606E+01
 0.2499912989560E+01
 0.2456491784899E+01
 0.2408962985642E+01
 0.2358637837713E+01
 0.2306648257783E+01
 0.2254142267949E+01
 0.2202604308800E+01
 0.2154245164168E+01
 0.2112478153151E+01
 0.2082550206177E+01
 0.2072372063669E+01
 0.2093633202232E+01
 0.2163113044725E+01
 0.2303119051660E+01
 0.2539459954764E+01
 0.2895846645641E+01
 0.3385041729236E+01
 0.3998797090489E+01
 0.4699749720552E+01
 0.5420555582233E+01
 0.6076302750651E+01
 0.2096889443280E+01
 0.2189541271469E+01
 0.2277942025885E+01
 0.2356983202387E+01
 0.2423467959081E+01
 0.2476734936646E+01
 0.2518002510119E+01
 0.2549326165728E+01
 0.2572793595417E+01
 0.2590107886385E+01
 0.2602456102365E+01
 0.2610520750438E+01
 0.2614539172672E+01
 0.2614369935367E+01
 0.2609563038691E+01
 0.2599450490637E+01
 0.2583277567805E+01
 0.2560377426949E+01
 0.2530353941539E+01
 0.2493242464145E+01
 0.2449741805969E+01
 0.2401208864602E+01
 0.2349244288798E+01
 0.2295378540173E+01
 0.2241049356700E+01
 0.2187789207046E+01
 0.2137535995685E+01
 0.2093026507959E+01
 0.2058288391163E+01
 0.2039274571319E+01
 0.2044634193548E+01
 0.2086599825223E+01
 0.2181724156240E+01
 0.2350414798861E+01
 0.2614147628615E+01
 0.2990058746606E+01
 0.3483720777540E+01
 0.4081815712073E+01
 0.4746954241854E+01
 0.5418106802295E+01
 0.6023789229685E+01
 0.2109511646411E+01
 0.2198861775229E+01
 0.2284290127633E+01
 0.2361311408150E+01
 0.2426898114135E+01
 0.2480098061335E+01
 0.2521629305772E+01
 0.2553073352117E+01
 0.2576178220975E+01
 0.2592447380824E+01
 0.2602972446452E+01
 0.2608407599543E+01
 0.2609005874856E+01
 0.2604677389379E+01
 0.2595061945041E+01
 0.2579624805390E+01
 0.2557787914216E+01
 0.2529092784648E+01
 0.2493361041711E+01
 0.2450832000536E+01
 0.2402368972927E+01
 0.2349459632974E+01
 0.2293853633362E+01
 0.2237294213069E+01
 0.2181510116975E+01
 0.2128398064126E+01
 0.2080326727716E+01
 0.2040531979846E+01
 0.2013613202103E+01
 0.2006143359384E+01
 0.2027330559761E+01
 0.2089618473947E+01
 0.2208858726274E+01
 0.2403152467645E+01
 0.2689737537076E+01
 0.3080135218132E+01
 0.3574451412012E+01
 0.4156145052746E+01
 0.4789047444775E+01
 0.5417985292270E+01
 0.5979114461545E+01
 0.2122263581167E+01
 0.2208539727148E+01
 0.2291156022507E+01
 0.2366133999989E+01
 0.2430616488495E+01
 0.2483448351043E+01
 0.2524945098706E+01
 0.2556275617158E+01
 0.2578869603460E+01
 0.2594028359702E+01
 0.2602737901008E+01
 0.2605615934473E+01
 0.2602928547108E+01
 0.2594639866643E+01
 0.2580484288750E+01
 0.2560063574804E+01
 0.2532974723443E+01
 0.2498960530347E+01
 0.2458050808220E+01
 0.2410681170098E+01
 0.2357876518240E+01
 0.2301256135745E+01
 0.2242717950683E+01
 0.2184210552311E+01
 0.2127738587003E+01
 0.2075542503273E+01
 0.2030397712325E+01
 0.1996008688412E+01
 0.1977496512403E+01
 0.1981956173317E+01
 0.2018965385684E+01
 0.2100867230705E+01
 0.2242440663699E+01
 0.2459280179088E+01
 0.2764680899461E+01
 0.3165494167856E+01
 0.3657742873064E+01
 0.4223000685113E+01
 0.4826810842660E+01
 0.5420719002986E+01
 0.5941727101870E+01
 0.2135093486729E+01
 0.2218496467782E+01
 0.2298453897934E+01
 0.2371400183678E+01
 0.2434637213350E+01
 0.2486868846109E+01
 0.2528086969528E+01
 0.2559104740178E+01
 0.2581059746669E+01
 0.2595055976545E+01
 0.2601969658298E+01
 0.2602377215148E+01
 0.2596555979670E+01
 0.2584525361070E+01
 0.2566116560606E+01
 0.2541067979908E+01
 0.2509147428024E+01
 0.2470290328148E+01
 0.2424724241406E+01
 0.2373072239919E+01
 0.2316515914819E+01
 0.2256804251052E+01
 0.2195979770907E+01
 0.2136186372206E+01
 0.2079687134428E+01
 0.2029042926293E+01
 0.1987407637086E+01
 0.1958916909758E+01
 0.1949152758639E+01
 0.1965621535309E+01
 0.2018079239320E+01
 0.2118497570810E+01
 0.2280332046802E+01
 0.2516655478367E+01
 0.2837249978497E+01
 0.3245186703603E+01
 0.3733518521461E+01
 0.4282852290611E+01
 0.4860759237989E+01
 0.5424215009686E+01
 0.5919651611679E+01
 0.2147975600468E+01
 0.2228684028751E+01
 0.2306131891749E+01
 0.2377083450609E+01
 0.2438984638973E+01
 0.2490441347432E+01
 0.2531185163155E+01
 0.2561724463020E+01
 0.2582932663468E+01
 0.2595725900240E+01
 0.2600870577421E+01
 0.2598899357225E+01
 0.2590099390381E+01
 0.2574545443325E+01
 0.2552165602757E+01
 0.2522832801655E+01
 0.2486479849068E+01
 0.2443225615738E+01
 0.2393485068730E+01
 0.2338059777606E+01
 0.2278282265812E+01
 0.2216027957450E+01
 0.2153479121968E+01
 0.2092964541063E+01
 0.2036988699910E+01
 0.1988410278847E+01
 0.1950733358872E+01
 0.1928485415064E+01
 0.1927644513364E+01
 0.1956015142300E+01
 0.2023353126533E+01
 0.2141040952335E+01
 0.2321065620276E+01
 0.2574079302877E+01
 0.2906811016483E+01
 0.3319315653396E+01
 0.3802528852429E+01
 0.4336707554514E+01
 0.4891560241135E+01
 0.5428282213017E+01
 0.5905701109995E+01
 0.2160886921654E+01
 0.2239071000170E+01
 0.2314155577082E+01
 0.2383169723305E+01
 0.2443685854642E+01
 0.2494242041888E+01
 0.2534359926703E+01
 0.2564287547441E+01
 0.2584661562087E+01
 0.2596222066854E+01
 0.2599628135646E+01
 0.2595367586567E+01
 0.2583735940010E+01
 0.2564862245979E+01
 0.2538769859495E+01
 0.2505462617676E+01
 0.2465031809236E+01
 0.2417770863368E+01
 0.2364272694148E+01
 0.2305509188641E+01
 0.2242958352436E+01
 0.2178618770568E+01
 0.2114807900065E+01
 0.2054030312956E+01
 0.1999017445037E+01
 0.1952906541024E+01
 0.1919526851188E+01
 0.1903760596701E+01
 0.1911918558004E+01
 0.1951995583973E+01
 0.2033590494196E+01
 0.2167331573908E+01
 0.2363670722234E+01
 0.2630995906160E+01
 0.2973408634201E+01
 0.3388563373809E+01
 0.3865904133438E+01
 0.4385764681414E+01
 0.4919862950277E+01
 0.5433720853222E+01
 0.5892557519010E+01
 0.2173815077211E+01
 0.2249635000995E+01
 0.2322499183142E+01
 0.2389648324362E+01
 0.2448763079754E+01
 0.2498334145419E+01
 0.2537713089097E+01
 0.2566926116309E+01
 0.2586399547004E+01
 0.2596711033990E+01
 0.2598417158049E+01
 0.2591961419623E+01
 0.2577646722764E+01
 0.2555654776171E+01
 0.2526101449199E+01
 0.2489116677141E+01
 0.2444942932692E+01
 0.2394039050526E+01
 0.2337166376491E+01
 0.2275458646045E+01
 0.2210533214365E+01
 0.2144507626054E+01
 0.2079829185017E+01
 0.2019168922913E+01
 0.1965471089636E+01
 0.1922132632323E+01
 0.1893282586407E+01
 0.1884119169062E+01
 0.1901220915843E+01
 0.1952669851968E+01
 0.2047774129471E+01
 0.2196294740907E+01
 0.2407150032466E+01
 0.2686662285773E+01
 0.3036704282126E+01
 0.3453041337498E+01
 0.3924107988651E+01
 0.4430580113360E+01
 0.4946168187538E+01
 0.5440133351686E+01
 0.5882205386178E+01
 0.2186754617781E+01
 0.2260363450934E+01
 0.2331147745666E+01
 0.2396516145318E+01
 0.2454239923105E+01
 0.2502775890464E+01
 0.2541336991188E+01
 0.2569760605821E+01
 0.2588287461470E+01
 0.2597347179564E+01
 0.2597400281841E+01
 0.2588847708334E+01
 0.2571999168806E+01
 0.2547087033335E+01
 0.2514316107071E+01
 0.2473936769420E+01
 0.2426334840656E+01
 0.2372125227960E+01
 0.2312228124956E+01
 0.2247930374078E+01
 0.2180981980786E+01
 0.2113614515946E+01
 0.2048399199152E+01
 0.1988164066712E+01
 0.1936052372532E+01
 0.1895702233259E+01
 0.1871516777311E+01
 0.1868970454272E+01
 0.1894845093505E+01
 0.1957215342502E+01
 0.2064991617534E+01
 0.2227002068215E+01
 0.2450683508947E+01
 0.2740509459978E+01
 0.3096483743061E+01
 0.3512902745341E+01
 0.3977553965269E+01
 0.4471640867179E+01
 0.4970774476647E+01
 0.5447401744697E+01
 0.5874731595416E+01
 0.2199705472668E+01
 0.2271251459275E+01
 0.2340094889283E+01
 0.2403776405174E+01
 0.2460141496608E+01
 0.2507621676818E+01
 0.2545315991292E+01
 0.2572901069632E+01
 0.2590454753159E+01
 0.2598273159188E+01
 0.2596728177177E+01
 0.2586180837363E+01
 0.2566947416053E+01
 0.2539308707324E+01
 0.2503554293531E+01
 0.2460048751528E+01
 0.2409313048928E+01
 0.2352108717550E+01
 0.2289505151164E+01
 0.2222933325746E+01
 0.2154268749903E+01
 0.2085851526369E+01
 0.2020370426669E+01
 0.1960800988104E+01
 0.1910471955324E+01
 0.1873244339870E+01
 0.1853769481189E+01
 0.1857758101587E+01
 0.1892133519354E+01
 0.1964880274963E+01
 0.2084431613574E+01
 0.2258658108946E+01
 0.2493601636287E+01
 0.2792105785466E+01
 0.3152622142901E+01
 0.3568318877729E+01
 0.4026609412955E+01
 0.4509337756689E+01
 0.4993880463805E+01
 0.5455382363191E+01
 0.5869880462458E+01
 0.2212671737719E+01
 0.2282300129042E+01
 0.2349341039708E+01
 0.2411437505112E+01
 0.2466494316160E+01
 0.2512922843491E+01
 0.2549727626312E+01
 0.2576448281627E+01
 0.2593020290618E+01
 0.2599620423589E+01
 0.2596539884155E+01
 0.2584103048678E+01
 0.2562632785161E+01
 0.2532455928561E+01
 0.2493942287118E+01
 0.2447563990865E+01
 0.2393968724007E+01
 0.2334055132809E+01
 0.2269032117191E+01
 0.2200465634016E+01
 0.2130349213312E+01
 0.2061125580276E+01
 0.1995594385651E+01
 0.1936869157216E+01
 0.1888450862323E+01
 0.1854405335678E+01
 0.1839606260223E+01
 0.1849961405495E+01
 0.1892478421136E+01
 0.1974982987617E+01
 0.2105378452101E+01
 0.2290586187795E+01
 0.2535361100391E+01
 0.2841127090487E+01
 0.3205057174893E+01
 0.3619465198348E+01
 0.4071592106525E+01
 0.4543978746509E+01
 0.5015609254442E+01
 0.5463918243510E+01
 0.5867316905872E+01
 0.2225660708400E+01
 0.2293515198744E+01
 0.2358891960425E+01
 0.2419512006974E+01
 0.2473326075500E+01
 0.2518728169657E+01
 0.2554643501217E+01
 0.2580494661752E+01
 0.2596093118755E+01
 0.2601509765713E+01
 0.2596963229598E+01
 0.2582744857525E+01
 0.2559184326190E+01
 0.2526652047050E+01
 0.2485593250691E+01
 0.2436580725207E+01
 0.2380380310285E+01
 0.2318018237443E+01
 0.2250833196711E+01
 0.2180516850969E+01
 0.2109173037093E+01
 0.2039340898130E+01
 0.1973924073679E+01
 0.1916164579623E+01
 0.1869722524903E+01
 0.1838850677641E+01
 0.1828619496902E+01
 0.1845096269880E+01
 0.1895322124276E+01
 0.1986910187787E+01
 0.2127205569720E+01
 0.2322214264608E+01
 0.2575523341464E+01
 0.2887332501177E+01
 0.3253769428984E+01
 0.3666511612542E+01
 0.4112772291967E+01
 0.4575803321373E+01
 0.5036032929856E+01
 0.5472850321116E+01
 0.5866692072649E+01
 0.2238682103172E+01
 0.2304905949343E+01
 0.2368757550270E+01
 0.2428015736290E+01
 0.2480665354851E+01
 0.2525084184047E+01
 0.2560129967028E+01
 0.2585125049500E+01
 0.2599773147976E+01
 0.2604051874695E+01
 0.2598115294172E+01
 0.2582225530731E+01
 0.2556719413025E+01
 0.2522008425555E+01
 0.2478608268474E+01
 0.2427185350577E+01
 0.2368615050002E+01
 0.2304041670778E+01
 0.2234923981906E+01
 0.2163070010213E+01
 0.2090686038731E+01
 0.2020401222593E+01
 0.1955216145333E+01
 0.1898491813121E+01
 0.1854034529463E+01
 0.1826266309035E+01
 0.1820429462699E+01
 0.1842715867502E+01
 0.1900156798294E+01
 0.2000114324761E+01
 0.2149368217407E+01
 0.2353061419332E+01
 0.2613735991229E+01
 0.2930545123012E+01
 0.3298767787952E+01
 0.3709616587097E+01
 0.4150377032559E+01
 0.4604996655055E+01
 0.5055189335725E+01
 0.5482020872561E+01
 0.5867666770757E+01
 0.2251747435038E+01
 0.2316484320694E+01
 0.2378950854324E+01
 0.2436967004579E+01
 0.2488541305829E+01
 0.2532035343138E+01
 0.2566248637078E+01
 0.2590417349508E+01
 0.2604151776810E+01
 0.2607347879918E+01
 0.2600102904510E+01
 0.2582653599211E+01
 0.2555344358457E+01
 0.2518625223423E+01
 0.2473077335409E+01
 0.2419453622882E+01
 0.2358730383762E+01
 0.2292160526579E+01
 0.2221313219130E+01
 0.2148103491844E+01
 0.2074832137471E+01
 0.2004211786889E+01
 0.1939332808546E+01
 0.1883665691780E+01
 0.1841150082816E+01
 0.1816359819053E+01
 0.1814685146878E+01
 0.1842410981789E+01
 0.1906523677997E+01
 0.2014110292239E+01
 0.2171395910887E+01
 0.2382725377717E+01
 0.2649717130750E+01
 0.2970636771687E+01
 0.3340078809943E+01
 0.3748924091786E+01
 0.4184595576613E+01
 0.4631701538612E+01
 0.5073092534816E+01
 0.5491275866019E+01
 0.5869921285714E+01
 0.2264869501193E+01
 0.2328264195002E+01
 0.2389487250363E+01
 0.2446385942054E+01
 0.2496983338618E+01
 0.2539624121680E+01
 0.2573056780281E+01
 0.2596443070132E+01
 0.2609312449596E+01
 0.2611489872729E+01
 0.2603023130617E+01
 0.2584127383236E+01
 0.2555155030805E+01
 0.2516592157175E+01
 0.2469080291670E+01
 0.2413451772833E+01
 0.2350775236197E+01
 0.2282402792877E+01
 0.2210004382835E+01
 0.2135592701822E+01
 0.2061555094104E+01
 0.1990681049707E+01
 0.1926143472569E+01
 0.1871512801748E+01
 0.1830849248308E+01
 0.1808861400642E+01
 0.1811064881259E+01
 0.1843810058522E+01
 0.1914011842169E+01
 0.2028471692046E+01
 0.2192884971905E+01
 0.2410871289221E+01
 0.2683242117900E+01
 0.3007515997673E+01
 0.3377739129811E+01
 0.3784562410086E+01
 0.4215584754783E+01
 0.4656027679630E+01
 0.5089739886097E+01
 0.5500467213859E+01
 0.5873160133408E+01
 0.2278061967733E+01
 0.2340260815385E+01
 0.2400383781445E+01
 0.2456293931563E+01
 0.2506020828524E+01
 0.2547891048027E+01
 0.2580607622661E+01
 0.2603267773893E+01
 0.2615331153035E+01
 0.2616561397597E+01
 0.2606963773315E+01
 0.2586735512738E+01
 0.2556237455407E+01
 0.2515989224527E+01
 0.2466687693385E+01
 0.2409237529206E+01
 0.2344791184569E+01
 0.2274790651914E+01
 0.2200997087667E+01
 0.2125511567195E+01
 0.2050800045017E+01
 0.1979722207246E+01
 0.1915526165996E+01
 0.1861872735318E+01
 0.1822929983579E+01
 0.1803524633684E+01
 0.1809276779714E+01
 0.1846578998015E+01
 0.1922256652077E+01
 0.2042826884202E+01
 0.2213491434074E+01
 0.2437221853921E+01
 0.2714132708487E+01
 0.3041118786822E+01
 0.3411790130005E+01
 0.3816644118868E+01
 0.4243473906558E+01
 0.4678058906793E+01
 0.5105117309736E+01
 0.5509455026769E+01
 0.5877114432937E+01
 0.2291339031834E+01
 0.2352490314421E+01
 0.2411658610138E+01
 0.2466713133197E+01
 0.2515682850746E+01
 0.2556874705952E+01
 0.2588950579633E+01
 0.2610951453860E+01
 0.2622276854232E+01
 0.2622637905703E+01
 0.2612003829021E+01
 0.2590557428345E+01
 0.2558668388351E+01
 0.2516887383156E+01
 0.2465961615924E+01
 0.2406861051838E+01
 0.2340813515875E+01
 0.2269341649112E+01
 0.2194288350787E+01
 0.2117833863104E+01
 0.2042514851563E+01
 0.1971254509750E+01
 0.1907368758742E+01
 0.1854599161877E+01
 0.1817209018100E+01
 0.1800127124477E+01
 0.1809059016873E+01
 0.1850420729588E+01
 0.1930937954230E+01
 0.2056855003289E+01
 0.2232924473802E+01
 0.2461548763505E+01
 0.2742248134248E+01
 0.3071401360750E+01
 0.3442274235787E+01
 0.3845266690737E+01
 0.4268369145324E+01
 0.4697858807146E+01
 0.5119203459525E+01
 0.5518109692934E+01
 0.5881543215915E+01
 0.2304715148657E+01
 0.2364969334041E+01
 0.2423330575776E+01
 0.2477666090611E+01
 0.2525997948981E+01
 0.2566611719052E+01
 0.2598131436776E+01
 0.2619548847958E+01
 0.2630211883331E+01
 0.2629787165984E+01
 0.2618213921602E+01
 0.2595663850843E+01
 0.2562515850802E+01
 0.2519349175067E+01
 0.2466956383926E+01
 0.2406365771729E+01
 0.2338872172497E+01
 0.2266069733276E+01
 0.2189873708945E+01
 0.2112534379213E+01
 0.2036651276647E+01
 0.1965204399541E+01
 0.1901570009918E+01
 0.1849560740468E+01
 0.1813522594058E+01
 0.1798471021065E+01
 0.1810179968560E+01
 0.1855074619106E+01
 0.1939778157729E+01
 0.2070282099181E+01
 0.2250940477305E+01
 0.2483665392756E+01
 0.2767477848916E+01
 0.3098334633182E+01
 0.3469232373103E+01
 0.3870513395527E+01
 0.4290356970290E+01
 0.4715475210802E+01
 0.5131973130891E+01
 0.5526313713444E+01
 0.5886234165460E+01
 0.2318204812885E+01
 0.2377714722618E+01
 0.2435418840311E+01
 0.2489175411619E+01
 0.2536993941330E+01
 0.2577136729719E+01
 0.2608192493288E+01
 0.2629109701587E+01
 0.2639192264407E+01
 0.2638069630704E+01
 0.2625656693820E+01
 0.2602117209470E+01
 0.2567839614426E+01
 0.2523429288605E+01
 0.2469719222279E+01
 0.2407789134605E+01
 0.2338992584415E+01
 0.2264986167495E+01
 0.2187748191476E+01
 0.2109589929247E+01
 0.2033165995645E+01
 0.1961506481584E+01
 0.1898040455951E+01
 0.1846641889640E+01
 0.1811727084866E+01
 0.1798383417857E+01
 0.1812438236970E+01
 0.1860315765062E+01
 0.1948540291515E+01
 0.2082877530289E+01
 0.2267337810164E+01
 0.2503420658827E+01
 0.2789735694233E+01
 0.3121899977301E+01
 0.3492702260871E+01
 0.3892454317169E+01
 0.4309507298484E+01
 0.4730943804659E+01
 0.5143400074036E+01
 0.5533963261607E+01
 0.5891004033168E+01
 0.2331822387138E+01
 0.2390743297893E+01
 0.2447942610582E+01
 0.2501263515416E+01
 0.2548697763773E+01
 0.2588482379554E+01
 0.2619172677011E+01
 0.2639678984884E+01
 0.2649267995867E+01
 0.2647538751695E+01
 0.2634387150883E+01
 0.2609972020104E+01
 0.2574691629445E+01
 0.2529175051498E+01
 0.2474290824007E+01
 0.2411163246535E+01
 0.2341196389133E+01
 0.2266100314391E+01
 0.2187907155665E+01
 0.2108980213426E+01
 0.2032021455225E+01
 0.1960104343727E+01
 0.1896703158366E+01
 0.1845743433877E+01
 0.1811699508464E+01
 0.1799716666420E+01
 0.1815662587789E+01
 0.1865954237792E+01
 0.1957026127926E+01
 0.2094450692724E+01
 0.2281952299613E+01
 0.2520693929093E+01
 0.2808955241913E+01
 0.3142086000166E+01
 0.3512717268518E+01
 0.3911147348571E+01
 0.4325875966540E+01
 0.4744291038314E+01
 0.5153459291374E+01
 0.5540969464721E+01
 0.5895698850914E+01
 0.2345581972086E+01
 0.2404071668042E+01
 0.2460920928944E+01
 0.2513952441850E+01
 0.2561135352684E+01
 0.2600679298009E+01
 0.2631107639853E+01
 0.2651297071892E+01
 0.2660483283943E+01
 0.2658241246785E+01
 0.2644452952615E+01
 0.2619275208366E+01
 0.2583116390316E+01
 0.2536626850958E+01
 0.2480705832599E+01
 0.2416515420758E+01
 0.2345502039958E+01
 0.2269420297893E+01
 0.2190346988568E+01
 0.2110688540303E+01
 0.2033186589395E+01
 0.1960951238583E+01
 0.1897494324844E+01
 0.1846783140363E+01
 0.1813337948885E+01
 0.1802348609818E+01
 0.1819711831533E+01
 0.1871834321757E+01
 0.1965074457170E+01
 0.2104848159602E+01
 0.2294653438796E+01
 0.2535390887777E+01
 0.2825086136632E+01
 0.3158886119233E+01
 0.3529305676475E+01
 0.3926639109792E+01
 0.4339506774352E+01
 0.4755536450036E+01
 0.5162128891594E+01
 0.5547259419449E+01
 0.5900194068616E+01
 0.2359497313434E+01
 0.2417716104408E+01
 0.2474372525038E+01
 0.2527263717773E+01
 0.2574331565716E+01
 0.2613756102493E+01
 0.2644029838451E+01
 0.2663999885457E+01
 0.2672876730298E+01
 0.2670217314406E+01
 0.2655894649939E+01
 0.2630066372313E+01
 0.2593151233960E+01
 0.2545818476859E+01
 0.2488993236365E+01
 0.2423868624972E+01
 0.2351925303581E+01
 0.2274953544245E+01
 0.2195065679958E+01
 0.2114702414971E+01
 0.2036637402017E+01
 0.1964010638004E+01
 0.1900363814968E+01
 0.1849696156536E+01
 0.1816561895732E+01
 0.1806182753500E+01
 0.1824474674540E+01
 0.1877833806184E+01
 0.1972559569246E+01
 0.2113951265701E+01
 0.2305341286328E+01
 0.2547440254278E+01
 0.2838091271307E+01
 0.3172296757688E+01
 0.3542490198050E+01
 0.3938965733482E+01
 0.4350433103320E+01
 0.4764694481456E+01
 0.5169391533275E+01
 0.5552776967881E+01
 0.5904394566318E+01
 0.2373581743221E+01
 0.2431692461404E+01
 0.2488315723627E+01
 0.2541218276689E+01
 0.2588310140046E+01
 0.2627739411610E+01
 0.2657968602805E+01
 0.2677819009616E+01
 0.2686481473374E+01
 0.2683500793581E+01
 0.2668745861085E+01
 0.2642377979365E+01
 0.2604826565390E+01
 0.2556777383878E+01
 0.2499176672195E+01
 0.2433241828139E+01
 0.2360479647705E+01
 0.2282707204830E+01
 0.2202063271066E+01
 0.2121014000509E+01
 0.2042357424827E+01
 0.1969256670797E+01
 0.1905275541846E+01
 0.1854435359231E+01
 0.1821312512700E+01
 0.1811148388426E+01
 0.1829869567016E+01
 0.1883863366688E+01
 0.1979389990379E+01
 0.2121674161405E+01
 0.2313944032976E+01
 0.2556791264165E+01
 0.2847944663601E+01
 0.3182316023050E+01
 0.3552287664013E+01
 0.3948153483650E+01
 0.4358679136710E+01
 0.4771775830116E+01
 0.5175235492529E+01
 0.5557483238828E+01
 0.5908234605646E+01
 0.2387848153386E+01
 0.2446016140979E+01
 0.2502768405662E+01
 0.2555836430061E+01
 0.2603093688529E+01
 0.2642653874048E+01
 0.2672950196232E+01
 0.2692781772370E+01
 0.2701325284861E+01
 0.2698119268977E+01
 0.2683033385886E+01
 0.2656235495170E+01
 0.2618166008473E+01
 0.2569524870801E+01
 0.2511274637594E+01
 0.2444650246388E+01
 0.2371176519079E+01
 0.2292688461950E+01
 0.2211342181130E+01
 0.2129620455748E+01
 0.2050338055057E+01
 0.1976674448414E+01
 0.1912207774417E+01
 0.1860971620123E+01
 0.1827552841131E+01
 0.1817200677925E+01
 0.1835844570896E+01
 0.1889866073469E+01
 0.1985507512188E+01
 0.2127962355388E+01
 0.2320416216723E+01
 0.2563411852596E+01
 0.2854629947880E+01
 0.3188942785449E+01
 0.3558708816515E+01
 0.3954219200739E+01
 0.4364260714555E+01
 0.4776788384769E+01
 0.5179655384275E+01
 0.5561356977737E+01
 0.5911677716827E+01
 0.2402309000552E+01
 0.2460702100014E+01
 0.2517748020784E+01
 0.2571137888983E+01
 0.2618703733547E+01
 0.2658522213929E+01
 0.2688997867755E+01
 0.2708911299306E+01
 0.2717430620655E+01
 0.2714094119229E+01
 0.2698777255565E+01
 0.2671657441542E+01
 0.2633186479233E+01
 0.2584076175056E+01
 0.2525300609953E+01
 0.2458105487945E+01
 0.2384025512763E+01
 0.2304904719352E+01
 0.2222907414612E+01
 0.2140524153261E+01
 0.2060578777413E+01
 0.1986260283892E+01
 0.1921153345777E+01
 0.1869293992752E+01
 0.1835267945093E+01
 0.1824320718967E+01
 0.1842377265903E+01
 0.1895817051629E+01
 0.1990886537175E+01
 0.2132791752049E+01
 0.2324737562132E+01
 0.2567287485847E+01
 0.2858139411017E+01
 0.3192176086871E+01
 0.3561758166032E+01
 0.3957170559237E+01
 0.4367185836804E+01
 0.4779737766612E+01
 0.5182652555408E+01
 0.5564394675511E+01
 0.5914716523552E+01
 0.2416976341893E+01
 0.2475764900426E+01
 0.2533271651008E+01
 0.2587141836321E+01
 0.2635160779128E+01
 0.2675365293452E+01
 0.2706131897584E+01
 0.2726226538209E+01
 0.2734814625682E+01
 0.2731440507241E+01
 0.2715990716332E+01
 0.2688655381811E+01
 0.2649898180344E+01
 0.2600440481663E+01
 0.2541263072845E+01
 0.2473615597483E+01
 0.2399034433651E+01
 0.2319363679087E+01
 0.2236766651143E+01
 0.2153732780084E+01
 0.2073087273305E+01
 0.1998021807086E+01
 0.1932119770567E+01
 0.1879409824449E+01
 0.1844465002668E+01
 0.1832515586063E+01
 0.1849474707450E+01
 0.1901723311469E+01
 0.1995533756128E+01
 0.2136168187144E+01
 0.2326912428485E+01
 0.2568420607338E+01
 0.2858473528934E+01
 0.3192014841423E+01
 0.3561433886109E+01
 0.3957006132842E+01
 0.4367454825947E+01
 0.4780627493235E+01
 0.5184235163596E+01
 0.5566610504722E+01
 0.5917372510690E+01
 0.2431861902672E+01
 0.2491218802857E+01
 0.2549356126756E+01
 0.2603867050483E+01
 0.2652484422273E+01
 0.2693202193286E+01
 0.2724369635538E+01
 0.2744742253862E+01
 0.2753489091321E+01
 0.2750167311009E+01
 0.2734680145438E+01
 0.2707233832486E+01
 0.2668304516131E+01
 0.2618620846399E+01
 0.2559165449629E+01
 0.2491185000603E+01
 0.2416209251247E+01
 0.2336073305908E+01
 0.2252930219572E+01
 0.2169259322565E+01
 0.2087879418621E+01
 0.2011977977372E+01
 0.1945129272587E+01
 0.1891344794748E+01
 0.1855173346269E+01
 0.1841818362859E+01
 0.1857173444105E+01
 0.1907623757852E+01
 0.1999488164204E+01
 0.2138127461782E+01
 0.2326969857716E+01
 0.2566830681068E+01
 0.2855640982895E+01
 0.3188457807492E+01
 0.3557727733973E+01
 0.3953715264754E+01
 0.4365060154200E+01
 0.4779458773053E+01
 0.5184417948334E+01
 0.5568036068916E+01
 0.5919695737503E+01
 0.2446977176882E+01
 0.2507077906057E+01
 0.2566018197644E+01
 0.2621332082978E+01
 0.2670693504677E+01
 0.2712050310604E+01
 0.2743725531068E+01
 0.2764468990950E+01
 0.2773460363150E+01
 0.2770276992882E+01
 0.2754844898001E+01
 0.2727390100080E+01
 0.2688401927404E+01
 0.2638614032862E+01
 0.2579005944314E+01
 0.2510814348541E+01
 0.2435553947867E+01
 0.2355041679283E+01
 0.2271410955885E+01
 0.2187121934706E+01
 0.2104979168933E+01
 0.2028158992339E+01
 0.1960218721164E+01
 0.1905142879346E+01
 0.1867444452142E+01
 0.1852288162713E+01
 0.1865539596207E+01
 0.1913589379158E+01
 0.2002821414757E+01
 0.2138735873205E+01
 0.2324964221408E+01
 0.2562554833181E+01
 0.2849659157330E+01
 0.3181503833891E+01
 0.3550624998843E+01
 0.3947277744415E+01
 0.4359985936002E+01
 0.4776229930543E+01
 0.5183221695031E+01
 0.5568719967478E+01
 0.5921764501695E+01
 0.2462333563346E+01
 0.2523356335383E+01
 0.2583274762133E+01
 0.2639555493295E+01
 0.2689806306712E+01
 0.2731925474515E+01
 0.2764211152969E+01
 0.2785413002359E+01
 0.2794729196377E+01
 0.2791765405362E+01
 0.2776477083667E+01
 0.2749114042958E+01
 0.2710179646557E+01
 0.2660410264200E+01
 0.2600777290556E+01
 0.2532500263958E+01
 0.2457070260872E+01
 0.2376276733218E+01
 0.2292223944552E+01
 0.2207343688685E+01
 0.2124418329946E+01
 0.2046606089633E+01
 0.1977439473349E+01
 0.1920866237332E+01
 0.1881351877652E+01
 0.1864010136745E+01
 0.1874668992022E+01
 0.1919723609057E+01
 0.2005638503311E+01
 0.2138091239996E+01
 0.2320976475029E+01
 0.2555649110837E+01
 0.2840555144448E+01
 0.3171152403961E+01
 0.3540104494193E+01
 0.3937663296467E+01
 0.4352207082954E+01
 0.4770935455937E+01
 0.5180672387501E+01
 0.5568727176067E+01
 0.5923684962676E+01
 0.2477942540571E+01
 0.2540068485327E+01
 0.2601143161748E+01
 0.2658556145928E+01
 0.2709840785991E+01
 0.2752842078196E+01
 0.2785835195819E+01
 0.2807576139084E+01
 0.2817290555759E+01
 0.2814621531521E+01
 0.2799561272606E+01
 0.2772387758870E+01
 0.2733619374275E+01
 0.2683992891104E+01
 0.2624466410357E+01
 0.2556234989089E+01
 0.2480757319814E+01
 0.2399785884073E+01
 0.2315386142514E+01
 0.2229952205538E+01
 0.2146236209845E+01
 0.2067371237620E+01
 0.1996857117331E+01
 0.1938595017576E+01
 0.1896991142766E+01
 0.1877095464624E+01
 0.1884687352364E+01
 0.1926162846249E+01
 0.2008078766065E+01
 0.2136324416276E+01
 0.2315116034041E+01
 0.2546190393963E+01
 0.2828367303043E+01
 0.3157404522597E+01
 0.3526138623765E+01
 0.3924830890695E+01
 0.4341688112752E+01
 0.4763564664282E+01
 0.5176800037051E+01
 0.5568138239422E+01
 0.5925590730426E+01
 0.2493815884741E+01
 0.2557229322484E+01
 0.2619641547220E+01
 0.2678353575340E+01
 0.2730814862561E+01
 0.2774813225537E+01
 0.2808603467962E+01
 0.2830955695640E+01
 0.2841133354688E+01
 0.2838827156539E+01
 0.2824074129161E+01
 0.2797185197780E+01
 0.2758694878050E+01
 0.2709337976256E+01
 0.2650053982237E+01
 0.2582005935431E+01
 0.2506611176819E+01
 0.2425575543653E+01
 0.2340915881680E+01
 0.2254979160166E+01
 0.2170479145954E+01
 0.2090516705891E+01
 0.2018551107577E+01
 0.1958427075261E+01
 0.1914479547249E+01
 0.1891681317892E+01
 0.1895750507638E+01
 0.1933077108490E+01
 0.2010317168275E+01
 0.2133601285400E+01
 0.2307523292959E+01
 0.2534279014157E+01
 0.2813147445850E+01
 0.3140264018721E+01
 0.3508693571152E+01
 0.3908727889649E+01
 0.4328381600735E+01
 0.4754099941631E+01
 0.5171637170105E+01
 0.5567048268974E+01
 0.5927642427779E+01
 0.2509965936908E+01
 0.2574854757981E+01
 0.2638789327129E+01
 0.2698968427680E+01
 0.2752746755018E+01
 0.2797850891616E+01
 0.2832518857258E+01
 0.2855544206942E+01
 0.2866240131585E+01
 0.2864356471629E+01
 0.2849983977513E+01
 0.2823471706596E+01
 0.2785371520403E+01
 0.2736413803602E+01
 0.2677513927270E+01
 0.2609795143120E+01
 0.2534624238010E+01
 0.2453650524699E+01
 0.2368832255946E+01
 0.2282459665044E+01
 0.2197199908144E+01
 0.2116114516259E+01
 0.2042614291293E+01
 0.1980477597964E+01
 0.1933955922595E+01
 0.1907930791628E+01
 0.1908044634262E+01
 0.1940670795276E+01
 0.2012565851343E+01
 0.2130125216836E+01
 0.2298372808239E+01
 0.2520042145447E+01
 0.2794963748548E+01
 0.3119739355131E+01
 0.3487729674269E+01
 0.3889289048774E+01
 0.4312226249547E+01
 0.4742514540288E+01
 0.5165216948986E+01
 0.5565565730041E+01
 0.5930027242976E+01
 0.2526405926300E+01
 0.2592962099722E+01
 0.2658607710362E+01
 0.2720422987110E+01
 0.2775655368325E+01
 0.2821966090431E+01
 0.2857581263456E+01
 0.2881329184750E+01
 0.2892586653738E+01
 0.2891175603793E+01
 0.2877250295629E+01
 0.2851203503729E+01
 0.2813605715017E+01
 0.2765180309969E+01
 0.2706812809232E+01
 0.2639578644788E+01
 0.2564784589183E+01
 0.2484013330260E+01
 0.2399154382103E+01
 0.2312431519438E+01
 0.2226456962954E+01
 0.2144245755679E+01
 0.2069152306023E+01
 0.2004878620850E+01
 0.1955580298590E+01
 0.1926032782402E+01
 0.1921786480617E+01
 0.1949183516652E+01
 0.2015075890116E+01
 0.2126139956804E+01
 0.2287877165880E+01
 0.2503638051295E+01
 0.2773904510817E+01
 0.3095846082439E+01
 0.3463202084252E+01
 0.3866435404073E+01
 0.4293144552106E+01
 0.4728769875702E+01
 0.5157570888504E+01
 0.5563811008702E+01
 0.5932958421179E+01
 0.2543150359799E+01
 0.2611570598587E+01
 0.2679120358035E+01
 0.2742741797796E+01
 0.2799560735381E+01
 0.2847169042997E+01
 0.2883787485318E+01
 0.2908292781828E+01
 0.2920141440354E+01
 0.2919242067858E+01
 0.2905823137940E+01
 0.2880327086215E+01
 0.2843344314116E+01
 0.2795588441656E+01
 0.2737909150202E+01
 0.2671325733814E+01
 0.2597075214322E+01
 0.2516663324085E+01
 0.2431900529925E+01
 0.2344934317020E+01
 0.2258313588521E+01
 0.2174999738374E+01
 0.2098282833702E+01
 0.2031778415723E+01
 0.1979533469598E+01
 0.1946201796181E+01
 0.1937223558330E+01
 0.1958890948520E+01
 0.2018139209359E+01
 0.2121932917898E+01
 0.2276291556861E+01
 0.2485261292932E+01
 0.2750082940699E+01
 0.3068610125109E+01
 0.3435061854203E+01
 0.3840073107567E+01
 0.4271040023591E+01
 0.4712812266599E+01
 0.5148726137224E+01
 0.5561914729520E+01
 0.5936674752114E+01
 0.2560215489431E+01
 0.2630702106623E+01
 0.2700354164723E+01
 0.2765952395464E+01
 0.2824484514849E+01
 0.2873469337800E+01
 0.2911131049679E+01
 0.2936411372735E+01
 0.2948865199644E+01
 0.2948504142589E+01
 0.2935642494175E+01
 0.2910778580172E+01
 0.2874523939006E+01
 0.2827579447599E+01
 0.2770752672159E+01
 0.2704998146417E+01
 0.2631473115413E+01
 0.2551595789512E+01
 0.2467087127468E+01
 0.2380008415550E+01
 0.2292836840658E+01
 0.2208473013689E+01
 0.2130134703994E+01
 0.2061340744060E+01
 0.2006016448944E+01
 0.1968677671285E+01
 0.1954634273647E+01
 0.1970105667804E+01
 0.2022090589884E+01
 0.2117838802792E+01
 0.2263919053433E+01
 0.2465148990673E+01
 0.2723643143791E+01
 0.3038072113628E+01
 0.3403257626786E+01
 0.3810092271294E+01
 0.4245793944653E+01
 0.4694569013185E+01
 0.5138702262664E+01
 0.5560015809308E+01
 0.5941439945689E+01
 0.2577619873368E+01
 0.2650381869458E+01
 0.2722340192221E+01
 0.2790086162164E+01
 0.2850450542750E+01
 0.2900876066875E+01
 0.2939601959478E+01
 0.2965655030430E+01
 0.2978710166124E+01
 0.2978900164732E+01
 0.2966637583798E+01
 0.2942483036584E+01
 0.2907070255566E+01
 0.2861084108832E+01
 0.2805283461560E+01
 0.2740549151896E+01
 0.2667948325705E+01
 0.2588800867066E+01
 0.2504727629601E+01
 0.2417693753791E+01
 0.2330096351537E+01
 0.2244768196788E+01
 0.2164846819890E+01
 0.2093743944143E+01
 0.2035249780722E+01
 0.1993725185595E+01
 0.1974327962777E+01
 0.1983177913377E+01
 0.2027309684726E+01
 0.2114243481678E+01
 0.2251116570322E+01
 0.2443588249649E+01
 0.2694767559665E+01
 0.3004293069610E+01
 0.3367738188620E+01
 0.3776365951534E+01
 0.4217261573052E+01
 0.4673943679946E+01
 0.5127507479982E+01
 0.5558259229241E+01
 0.5947541791600E+01
 0.2595385050588E+01
 0.2670639482315E+01
 0.2745114786504E+01
 0.2815179322384E+01
 0.2877485435596E+01
 0.2929397918850E+01
 0.2969186336875E+01
 0.2995986880287E+01
 0.3009619330651E+01
 0.3010357744473E+01
 0.2998726097419E+01
 0.2975353687746E+01
 0.2940897210673E+01
 0.2896021918859E+01
 0.2841431069318E+01
 0.2777922561605E+01
 0.2706462825894E+01
 0.2628262379721E+01
 0.2544831258003E+01
 0.2458028522137E+01
 0.2370162964267E+01
 0.2283992620893E+01
 0.2202566898796E+01
 0.2129179840304E+01
 0.2067472693502E+01
 0.2021633530244E+01
 0.1996644806897E+01
 0.1998496226525E+01
 0.2034222959828E+01
 0.2111588013571E+01
 0.2238301450686E+01
 0.2420924832376E+01
 0.2663686099150E+01
 0.2967361800764E+01
 0.3328456224842E+01
 0.3738749448228E+01
 0.4185267755624E+01
 0.4650810359052E+01
 0.5115134217064E+01
 0.5556793542406E+01
 0.5955290875195E+01
 0.2613536354490E+01
 0.2691510046427E+01
 0.2768720914523E+01
 0.2841274098609E+01
 0.2905619235531E+01
 0.2959043198648E+01
 0.2999865926019E+01
 0.3027362304283E+01
 0.3041525549970E+01
 0.3042792902050E+01
 0.3031813393345E+01
 0.3009291175911E+01
 0.2975906240497E+01
 0.2932300222790E+01
 0.2879113550196E+01
 0.2817051657292E+01
 0.2746969361705E+01
 0.2669956543107E+01
 0.2587401608858E+01
 0.2501047681293E+01
 0.2413107194236E+01
 0.2326256796702E+01
 0.2243450008049E+01
 0.2167852446320E+01
 0.2102942062930E+01
 0.2052715615200E+01
 0.2021955589970E+01
 0.2016487917369E+01
 0.2043305462588E+01
 0.2110372671934E+01
 0.2225958571700E+01
 0.2397573136327E+01
 0.2630687271194E+01
 0.2927404460691E+01
 0.3285373739906E+01
 0.3697080215176E+01
 0.4149601903532E+01
 0.4625006572874E+01
 0.5101553827283E+01
 0.5555768173348E+01
 0.5965018370759E+01
 0.2632103898999E+01
 0.2713035573128E+01
 0.2793209765829E+01
 0.2868420044477E+01
 0.2934886078330E+01
 0.2989819728935E+01
 0.3031617406242E+01
 0.3059727958471E+01
 0.3074350516810E+01
 0.3076109121690E+01
 0.3065791654202E+01
 0.3044182761479E+01
 0.3011985455570E+01
 0.2969813314853E+01
 0.2918236434939E+01
 0.2857858026563E+01
 0.2789410146716E+01
 0.2713850542243E+01
 0.2632435108208E+01
 0.2546781306755E+01
 0.2458997491265E+01
 0.2371672647315E+01
 0.2287656855550E+01
 0.2209976415001E+01
 0.2141931128567E+01
 0.2087307150812E+01
 0.2050661246641E+01
 0.2037619297505E+01
 0.2055082318415E+01
 0.2111160813852E+01
 0.2214647818260E+01
 0.2374027503428E+01
 0.2596131631069E+01
 0.2884596862198E+01
 0.3238469803811E+01
 0.3651178885309E+01
 0.4110012418993E+01
 0.4596324345467E+01
 0.5086710041872E+01
 0.5555330737660E+01
 0.5977071611894E+01
 0.2651123781421E+01
 0.2735266698237E+01
 0.2818642677508E+01
 0.2896675577481E+01
 0.2965324858390E+01
 0.3021734578578E+01
 0.3064411461787E+01
 0.3093020570533E+01
 0.3108003582884E+01
 0.3110196335393E+01
 0.3100539027711E+01
 0.3079901538741E+01
 0.3049008829247E+01
 0.3008441516403E+01
 0.2958691651793E+01
 0.2900250317636E+01
 0.2833715460439E+01
 0.2759900984935E+01
 0.2679919326303E+01
 0.2595252770957E+01
 0.2507898312844E+01
 0.2420351524232E+01
 0.2335351832506E+01
 0.2255775218960E+01
 0.2184727936987E+01
 0.2125765468874E+01
 0.2083192162397E+01
 0.2062395634048E+01
 0.2070129863941E+01
 0.2114582404588E+01
 0.2205011683895E+01
 0.2350874772304E+01
 0.2560467830602E+01
 0.2839180185856E+01
 0.3187751417375E+01
 0.3600852099541E+01
 0.4066200850733E+01
 0.4564498814868E+01
 0.5070510258377E+01
 0.5555624680700E+01
 0.5991804696351E+01
 0.2670639560296E+01
 0.2758264786779E+01
 0.2845093453018E+01
 0.2926109729046E+01
 0.2996979843669E+01
 0.3054793536853E+01
 0.3098211532862E+01
 0.3127165471578E+01
 0.3142380420889E+01
 0.3144929845366E+01
 0.3135918771614E+01
 0.3116305681239E+01
 0.3086835407610E+01
 0.3048050244874E+01
 0.3000356398969E+01
 0.2944122907123E+01
 0.2879802130474E+01
 0.2808052219065E+01
 0.2729831138559E+01
 0.2646476751009E+01
 0.2559867994800E+01
 0.2472401985905E+01
 0.2386700780345E+01
 0.2305479020086E+01
 0.2231633451565E+01
 0.2168468010846E+01
 0.2120007153320E+01
 0.2091360757632E+01
 0.2089076319590E+01
 0.2121336992205E+01
 0.2197782684108E+01
 0.2328807870829E+01
 0.2524251517549E+01
 0.2791480865614E+01
 0.3133268503665E+01
 0.3545898189570E+01
 0.4017816434947E+01
 0.4529194035534E+01
 0.5052812783949E+01
 0.5556787832989E+01
 0.6009555544774E+01
 0.2690704089368E+01
 0.2782104533543E+01
 0.2872651167692E+01
 0.2956804131764E+01
 0.3029901175121E+01
 0.3089000233224E+01
 0.3132972166290E+01
 0.3162074824647E+01
 0.3177361530666E+01
 0.3180169218397E+01
 0.3171778449597E+01
 0.3153237767127E+01
 0.3125308588710E+01
 0.3088489115674E+01
 0.3043092002970E+01
 0.2989354510217E+01
 0.2927571926594E+01
 0.2858234544882E+01
 0.2782134770736E+01
 0.2700457106591E+01
 0.2614956468918E+01
 0.2527927389086E+01
 0.2441868526162E+01
 0.2359322257679E+01
 0.2282959336734E+01
 0.2215810468245E+01
 0.2161592099796E+01
 0.2125096302684E+01
 0.2112601957050E+01
 0.2132195960374E+01
 0.2193790201952E+01
 0.2308640073662E+01
 0.2488167151633E+01
 0.2741935513820E+01
 0.3075134165904E+01
 0.3486116858738E+01
 0.3964452653638E+01
 0.4489985319114E+01
 0.5033409327519E+01
 0.5558951083640E+01
 0.6030580753268E+01
 0.2711381820107E+01
 0.2806877181508E+01
 0.2901423575273E+01
 0.2988855242560E+01
 0.3064145130277E+01
 0.3124354747373E+01
 0.3168636840343E+01
 0.3197645483547E+01
 0.3212810572501E+01
 0.3215757162460E+01
 0.3207949197122E+01
 0.3190524200558E+01
 0.3164255477613E+01
 0.3129591069361E+01
 0.3086742738440E+01
 0.3035806692835E+01
 0.2976909814457E+01
 0.2910362264334E+01
 0.2836779669690E+01
 0.2757184570503E+01
 0.2673202770406E+01
 0.2587023233058E+01
 0.2501016117767E+01
 0.2417540868147E+01
 0.2339025302133E+01
 0.2268204431254E+01
 0.2208458077068E+01
 0.2164220443018E+01
 0.2141438649186E+01
 0.2148003865738E+01
 0.2193966336705E+01
 0.2291319365248E+01
 0.2453052744271E+01
 0.2691121662988E+01
 0.3013552585304E+01
 0.3421322660817E+01
 0.3905650479715E+01
 0.4446338270513E+01
 0.5011995988330E+01
 0.5562272837959E+01
 0.6054788246646E+01
 0.2732751763943E+01
 0.2832694442758E+01
 0.2931541334610E+01
 0.3022376752892E+01
 0.3099773993541E+01
 0.3160851512813E+01
 0.3205135126376E+01
 0.3233756428491E+01
 0.3248572535804E+01
 0.3251518424135E+01
 0.3244245103719E+01
 0.3227974772349E+01
 0.3203486351410E+01
 0.3171171544816E+01
 0.3131134613487E+01
 0.3083322273127E+01
 0.3027682044810E+01
 0.2964331540050E+01
 0.2893698176911E+01
 0.2816634236336E+01
 0.2734632327454E+01
 0.2649774253034E+01
 0.2564297750864E+01
 0.2480369112493E+01
 0.2400155951068E+01
 0.2326074447580E+01
 0.2261138851178E+01
 0.2209385998665E+01
 0.2176368720682E+01
 0.2169678732806E+01
 0.2199350332053E+01
 0.2277942181436E+01
 0.2419927043273E+01
 0.2639795659351E+01
 0.2948855113260E+01
 0.3351370530778E+01
 0.3840888236853E+01
 0.4397646607807E+01
 0.4988006754878E+01
 0.5567310373212E+01
 0.6080412694430E+01
 0.2754914655774E+01
 0.2859703645352E+01
 0.2963181922007E+01
 0.3057531362861E+01
 0.3136895199850E+01
 0.3198525919803E+01
 0.3242437273141E+01
 0.3270331734169E+01
 0.3284545487422E+01
 0.3287341046465E+01
 0.3280555324354E+01
 0.3265487670116E+01
 0.3242915248491E+01
 0.3213167808513E+01
 0.3176236863997E+01
 0.3131912385733E+01
 0.3079951823363E+01
 0.3020266976067E+01
 0.2953084324186E+01
 0.2879076785586E+01
 0.2799599802456E+01
 0.2716627070166E+01
 0.2632260220587E+01
 0.2548461094372E+01
 0.2467117246186E+01
 0.2390299267348E+01
 0.2320622997604E+01
 0.2261685010149E+01
 0.2218578338817E+01
 0.2198485508170E+01
 0.2211250799112E+01
 0.2269776054298E+01
 0.2389852224331E+01
 0.2588586392447E+01
 0.2881037739376E+01
 0.3275577261410E+01
 0.3769008037639E+01
 0.4342661744430E+01
 0.4960851019149E+01
 0.5573082902029E+01
 0.6115813410010E+01
 0.2777984609625E+01
 0.2888072659802E+01
 0.2996535147812E+01
 0.3094473264619E+01
 0.3175578774422E+01
 0.3237349804261E+01
 0.3280431872731E+01
 0.3307203225275E+01
 0.3320528663181E+01
 0.3323008110694E+01
 0.3316655907803E+01
 0.3302836487243E+01
 0.3282316292909E+01
 0.3255358187148E+01
 0.3221837651281E+01
 0.3181382738716E+01
 0.3133551296511E+01
 0.3078035987036E+01
 0.3014848995037E+01
 0.2944474718013E+01
 0.2868128589978E+01
 0.2787677197130E+01
 0.2705084099499E+01
 0.2622096128028E+01
 0.2540300694289E+01
 0.2461395431023E+01
 0.2387564746163E+01
 0.2321923080375E+01
 0.2269040635223E+01
 0.2235582118497E+01
 0.2231015823153E+01
 0.2268315668888E+01
 0.2364321619970E+01
 0.2538712741837E+01
 0.2810728112847E+01
 0.3193790487095E+01
 0.3689159982777E+01
 0.4280270604691E+01
 0.4929652647449E+01
 0.5580035580215E+01
 0.6164853293478E+01
 0.2802111663597E+01
 0.2918007320745E+01
 0.3031822856637E+01
 0.3133361175981E+01
 0.3215863326475E+01
 0.3277232882706E+01
 0.3318926087984E+01
 0.3344111327531E+01
 0.3356224194534E+01
 0.3358199702279E+01
 0.3352211073691E+01
 0.3339669838553E+01
 0.3321320676657E+01
 0.3297355455327E+01
 0.3267532974802E+01
 0.3231317366820E+01
 0.3188059751613E+01
 0.3137221336112E+01
 0.3078586869239E+01
 0.3012443907769E+01
 0.2939867204596E+01
 0.2862620449706E+01
 0.2782530608723E+01
 0.2701121979845E+01
 0.2619664577736E+01
 0.2539459074958E+01
 0.2462230108961E+01
 0.2390574830603E+01
 0.2328486831001E+01
 0.2282014745520E+01
 0.2260066203269E+01
 0.2275378853048E+01
 0.2345455984944E+01
 0.2492311681552E+01
 0.2739638476527E+01
 0.3106900778159E+01
 0.3601307198565E+01
 0.4209820209745E+01
 0.4893757841802E+01
 0.5589484512916E+01
 0.6221307042271E+01
 0.2827481730818E+01
 0.2949771934645E+01
 0.3069331264116E+01
 0.3174403371034E+01
 0.3257815489774E+01
 0.3318100834571E+01
 0.3357744999364E+01
 0.3380826127628E+01
 0.3391379560862E+01
 0.3392657272836E+01
 0.3386961582039E+01
 0.3375727415590E+01
 0.3359665300837E+01
 0.3338893720294E+01
 0.3313057722188E+01
 0.3281459503475E+01
 0.3243239090730E+01
 0.3197614439457E+01
 0.3144128660196E+01
 0.3082863446749E+01
 0.3014753161238E+01
 0.2941465071189E+01
 0.2864693305288E+01
 0.2785733478751E+01
 0.2705521689127E+01
 0.2624938684511E+01
 0.2545223181294E+01
 0.2468423851089E+01
 0.2397910409081E+01
 0.2339026608715E+01
 0.2299942074781E+01
 0.2292831115784E+01
 0.2335377990877E+01
 0.2451486382067E+01
 0.2669353953701E+01
 0.3015474975889E+01
 0.3504849488955E+01
 0.4129954500549E+01
 0.4852162522701E+01
 0.5600842872633E+01
 0.6285978836973E+01
 0.2854329066967E+01
 0.2983698374984E+01
 0.3109408864583E+01
 0.3217835102356E+01
 0.3301487687940E+01
 0.3359840155936E+01
 0.3396669222537E+01
 0.3417079677732E+01
 0.3425713789721E+01
 0.3426101765136E+01
 0.3420632383427E+01
 0.3410734478405E+01
 0.3397071135780E+01
 0.3379687482075E+01
 0.3358122342654E+01
 0.3331523274337E+01
 0.3298818819664E+01
 0.3258972945047E+01
 0.3211271528878E+01
 0.3155579997854E+01
 0.3092693161884E+01
 0.3024190566620E+01
 0.2951639581205E+01
 0.2876102377305E+01
 0.2798165605646E+01
 0.2718268959366E+01
 0.2637142673711E+01
 0.2556261521801E+01
 0.2478332502526E+01
 0.2407917746250E+01
 0.2352285863539E+01
 0.2322719775401E+01
 0.2336528718269E+01
 0.2418833701019E+01
 0.2602052185411E+01
 0.2920550867459E+01
 0.3399307359224E+01
 0.4039079149344E+01
 0.4803228383329E+01
 0.5613205000702E+01
 0.6360102229929E+01
 0.2882951502756E+01
 0.3020206205959E+01
 0.3152479795825E+01
 0.3263916096000E+01
 0.3346904208615E+01
 0.3402282897697E+01
 0.3435424498625E+01
 0.3452561209344E+01
 0.3458916556230E+01
 0.3458234751351E+01
 0.3452934578846E+01
 0.3444403910978E+01
 0.3433244844655E+01
 0.3419432326034E+01
 0.3402412163186E+01
 0.3381191441395E+01
 0.3354492459814E+01
 0.3321016417999E+01
 0.3279774680110E+01
 0.3230403684280E+01
 0.3173559367135E+01
 0.3110744196540E+01
 0.3043406980161E+01
 0.2972372875323E+01
 0.2897864725466E+01
 0.2819862807109E+01
 0.2738571681728E+01
 0.2654875008321E+01
 0.2570789328710E+01
 0.2490033286862E+01
 0.2418831417017E+01
 0.2367263549257E+01
 0.2351669541288E+01
 0.2397501791312E+01
 0.2540662615413E+01
 0.2823856844218E+01
 0.3284480192081E+01
 0.3935303816785E+01
 0.4744633639647E+01
 0.5625513735091E+01
 0.6445247405720E+01
 0.2913731779459E+01
 0.3059829998001E+01
 0.3199059291717E+01
 0.3312923053361E+01
 0.3394040121994E+01
 0.3445186793824E+01
 0.3473669940218E+01
 0.3486912831588E+01
 0.3490648281252E+01
 0.3488740522471E+01
 0.3483568190472E+01
 0.3476439003055E+01
 0.3467881092709E+01
 0.3457806216437E+01
 0.3445587073271E+01
 0.3430113110005E+01
 0.3409913471192E+01
 0.3383421250750E+01
 0.3349354186928E+01
 0.3307103463560E+01
 0.3257185535870E+01
 0.3201037712130E+01
 0.3139999968735E+01
 0.3074657538264E+01
 0.3004856333642E+01
 0.2930102705739E+01
 0.2850065850600E+01
 0.2765032360825E+01
 0.2676315353773E+01
 0.2586746690526E+01
 0.2501388476230E+01
 0.2428836585631E+01
 0.2383870534537E+01
 0.2391227514300E+01
 0.2489037251676E+01
 0.2728113987834E+01
 0.3160700649728E+01
 0.3816477110404E+01
 0.4673325995537E+01
 0.5636423941495E+01
 0.6543357888463E+01
 0.2947168072718E+01
 0.3103256832474E+01
 0.3249770607795E+01
 0.3365133437756E+01
 0.3442790071753E+01
 0.3488210101561E+01
 0.3510985556299E+01
 0.3519726445330E+01
 0.3520541664671E+01
 0.3517289330449E+01
 0.3512225837772E+01
 0.3506537032905E+01
 0.3500665652909E+01
 0.3494471559729E+01
 0.3487281764705E+01
 0.3477901500595E+01
 0.3464690609319E+01
 0.3445814549325E+01
 0.3419676737357E+01
 0.3385401765133E+01
 0.3343362997629E+01
 0.3294944499667E+01
 0.3241387468386E+01
 0.3183033949731E+01
 0.3119340994832E+01
 0.3049331671894E+01
 0.2972140086585E+01
 0.2887464619781E+01
 0.2795921456951E+01
 0.2699436189837E+01
 0.2601820083990E+01
 0.2509946013073E+01
 0.2436485705861E+01
 0.2404343195260E+01
 0.2452110937018E+01
 0.2637428696588E+01
 0.3029255856247E+01
 0.3680341066925E+01
 0.4585366834868E+01
 0.5644050538183E+01
 0.6656852157109E+01
 0.2983918705919E+01
 0.3151378365755E+01
 0.3305361457507E+01
 0.3420794421934E+01
 0.3492923072764E+01
 0.3530880985995E+01
 0.3546860333868E+01
 0.3550542890858E+01
 0.3548205134349E+01
 0.3543541961436E+01
 0.3538597382555E+01
 0.3534393699420E+01
 0.3531279411563E+01
 0.3529078239491E+01
 0.3527106793020E+01
 0.3524131974182E+01
 0.3518382661908E+01
 0.3507766668269E+01
 0.3490351854817E+01
 0.3464968044164E+01
 0.3431836378108E+01
 0.3392297355994E+01
 0.3347501563403E+01
 0.3297542539533E+01
 0.3241477636066E+01
 0.3177844132875E+01
 0.3105254100755E+01
 0.3022845105294E+01
 0.2930567712849E+01
 0.2829452687199E+01
 0.2722009430765E+01
 0.2613199883371E+01
 0.2513115989565E+01
 0.2441746793053E+01
 0.2436015375368E+01
 0.2557766272387E+01
 0.2893058467590E+01
 0.3524865557300E+01
 0.4475696192694E+01
 0.5645598292286E+01
 0.6788801833013E+01
 0.3024869403004E+01
 0.3205363785091E+01
 0.3366715115777E+01
 0.3480066996167E+01
 0.3544018696637E+01
 0.3572562484092E+01
 0.3580683106394E+01
 0.3578854605658E+01
 0.3573228668808E+01
 0.3567155763145E+01
 0.3562375557437E+01
 0.3559708407191E+01
 0.3559403348941E+01
 0.3561267845602E+01
 0.3564650823220E+01
 0.3568340631300E+01
 0.3570492561698E+01
 0.3568781954606E+01
 0.3560921908998E+01
 0.3545410676324E+01
 0.3522298891100E+01
 0.3492887155211E+01
 0.3458237910593E+01
 0.3418186107759E+01
 0.3371379679509E+01
 0.3315876955336E+01
 0.3249797103489E+01
 0.3171766313728E+01
 0.3081130907991E+01
 0.2978077805263E+01
 0.2863811949213E+01
 0.2741259120138E+01
 0.2617558243083E+01
 0.2508836864776E+01
 0.2448105809179E+01
 0.2497449846326E+01
 0.2757662042687E+01
 0.3348929206755E+01
 0.4337874118988E+01
 0.5636794409971E+01
 0.6943207401648E+01
 0.3071237491621E+01
 0.3266762675050E+01
 0.3434845286313E+01
 0.3542929184532E+01
 0.3595380113703E+01
 0.3612416532757E+01
 0.3611739682207E+01
 0.3604113199154E+01
 0.3595192356729E+01
 0.3587792190955E+01
 0.3583262555197E+01
 0.3582190377400E+01
 0.3584724553175E+01
 0.3590679365343E+01
 0.3599484596863E+01
 0.3610024086124E+01
 0.3620461092591E+01
 0.3628287255439E+01
 0.3630849036623E+01
 0.3626266441122E+01
 0.3614387059955E+01
 0.3596462987966E+01
 0.3573458842715E+01
 0.3544932010618E+01
 0.3509112929461E+01
 0.3463601174030E+01
 0.3406072366780E+01
 0.3334715569461E+01
 0.3248368118420E+01
 0.3146472367287E+01
 0.3028989377147E+01
 0.2896764544566E+01
 0.2753731615797E+01
 0.2611418256745E+01
 0.2496873512149E+01
 0.2467556737419E+01
 0.2632692303270E+01
 0.3153666901495E+01
 0.4163925059130E+01
 0.5610977994972E+01
 0.7125413410188E+01
 0.3124738852447E+01
 0.3337649983345E+01
 0.3510851041505E+01
 0.3609013228296E+01
 0.3645921944640E+01
 0.3649374853090E+01
 0.3639220865401E+01
 0.3625743073693E+01
 0.3613677811442E+01
 0.3605125807802E+01
 0.3600977447244E+01
 0.3601565445367E+01
 0.3606943196731E+01
 0.3616956506528E+01
 0.3631167214513E+01
 0.3648641257602E+01
 0.3667660578630E+01
 0.3685617511302E+01
 0.3699497432507E+01
 0.3706986097244E+01
 0.3707674269229E+01
 0.3702734240110E+01
 0.3693000155614E+01
 0.3677717813951E+01
 0.3654695484571E+01
 0.3621114312487E+01
 0.3574281716455E+01
 0.3512050247693E+01
 0.3432877986339E+01
 0.3335616713607E+01
 0.3219123884297E+01
 0.3082228554262E+01
 0.2925562048742E+01
 0.2755574859643E+01
 0.2591752403863E+01
 0.2482025564100E+01
 0.2533614414448E+01
 0.2945044191194E+01
 0.3944625008860E+01
 0.5557609499523E+01
 0.7342726305685E+01
 0.3187865820883E+01
 0.3420827448447E+01
 0.3595781276963E+01
 0.3677339579717E+01
 0.3694039547719E+01
 0.3682131295945E+01
 0.3662246326397E+01
 0.3643161449368E+01
 0.3628282340770E+01
 0.3618854584035E+01
 0.3615264235848E+01
 0.3617583354557E+01
 0.3625780318661E+01
 0.3639756740366E+01
 0.3659255463099E+01
 0.3683618553361E+01
 0.3711389571774E+01
 0.3739997838565E+01
 0.3766108841524E+01
 0.3786913791726E+01
 0.3801662348636E+01
 0.3811375552745E+01
 0.3816683281573E+01
 0.3816461746971E+01
 0.3808100151682E+01
 0.3788433129538E+01
 0.3754509935300E+01
 0.3703973725104E+01
 0.3635062557679E+01
 0.3546246769225E+01
 0.3435514249793E+01
 0.3299884067075E+01
 0.3136798418534E+01
 0.2947478166517E+01
 0.2742852061230E+01
 0.2557335816304E+01
 0.2483354375515E+01
 0.2738497381600E+01
 0.3671132899625E+01
 0.5459856692748E+01
 0.7605307040364E+01
 0.3264370622134E+01
 0.3520090725397E+01
 0.3690301082347E+01
 0.3745899519100E+01
 0.3737488679460E+01
 0.3709178462949E+01
 0.3679906926081E+01
 0.3655803975282E+01
 0.3638635666480E+01
 0.3628711204825E+01
 0.3625900283054E+01
 0.3630025320439E+01
 0.3640986153847E+01
 0.3658761962401E+01
 0.3683316932954E+01
 0.3714360537511E+01
 0.3750870706324E+01
 0.3790521896520E+01
 0.3829768135732E+01
 0.3865256741410E+01
 0.3895770081785E+01
 0.3922036450686E+01
 0.3944335692350E+01
 0.3961080067785E+01
 0.3969260167946E+01
 0.3965486574219E+01
 0.3946708829122E+01
 0.3910513423135E+01
 0.3855093887433E+01
 0.3778792723332E+01
 0.3679061447730E+01
 0.3551490881860E+01
 0.3390735903956E+01
 0.3193067958276E+01
 0.2960600388116E+01
 0.2711829250982E+01
 0.2512747712796E+01
 0.2566312259041E+01
 0.3340302449125E+01
 0.5290912956264E+01
 0.7927360376404E+01
 0.3360151172132E+01
 0.3640536043407E+01
 0.3793930801913E+01
 0.3811047166372E+01
 0.3773353397425E+01
 0.3728914099760E+01
 0.3691320884470E+01
 0.3663154681276E+01
 0.3644418877577E+01
 0.3634474790872E+01
 0.3632704782621E+01
 0.3638711540421E+01
 0.3652348575821E+01
 0.3673690234598E+01
 0.3702947216132E+01
 0.3740268772396E+01
 0.3785255685789E+01
 0.3836127153953E+01
 0.3889354023076E+01
 0.3941038811022E+01
 0.3989316487202E+01
 0.4034358330844E+01
 0.4075823460518E+01
 0.4111513714480E+01
 0.4138078642407E+01
 0.4152107789049E+01
 0.4150679212456E+01
 0.4131501080828E+01
 0.4092889960973E+01
 0.4033329411601E+01
 0.3950155917013E+01
 0.3838110459769E+01
 0.3689835787129E+01
 0.3497533492876E+01
 0.3255152897973E+01
 0.2964856058240E+01
 0.2658986728823E+01
 0.2486091715542E+01
 0.2969500616833E+01
 0.5009414526800E+01
 0.8328354050377E+01
 0.3484979704381E+01
 0.3788729381915E+01
 0.3903372293105E+01
 0.3866761332012E+01
 0.3798267110822E+01
 0.3739817618166E+01
 0.3695689848383E+01
 0.3664781599515E+01
 0.3645384273996E+01
 0.3635982323085E+01
 0.3635546963696E+01
 0.3643508277556E+01
 0.3659701203204E+01
 0.3684307663265E+01
 0.3717790501355E+01
 0.3760771875504E+01
 0.3813644750692E+01
 0.3875570422399E+01
 0.3943467489505E+01
 0.4013026884934E+01
 0.4081495641907E+01
 0.4148004074838E+01
 0.4211102376914E+01
 0.4267767559266E+01
 0.4314442437884E+01
 0.4348023953461E+01
 0.4366047947394E+01
 0.4366554114225E+01
 0.4348105572604E+01
 0.4309551601155E+01
 0.4248583544415E+01
 0.4159873525472E+01
 0.4035258824719E+01
 0.3864550859925E+01
 0.3635366559482E+01
 0.3335480004707E+01
 0.2962930420496E+01
 0.2582817071099E+01
 0.2633028375415E+01
 0.4558375712281E+01
 0.8833048801382E+01
 0.3656156887534E+01
 0.3971955887401E+01
 0.4008940122208E+01
 0.3904264689897E+01
 0.3809123902469E+01
 0.3740601487077E+01
 0.3692354000343E+01
 0.3660380634070E+01
 0.3641372022121E+01
 0.3633139974185E+01
 0.3634353370996E+01
 0.3644334170610E+01
 0.3662930721112E+01
 0.3690439254311E+01
 0.3727560955405E+01
 0.3775368352507E+01
 0.3835133144689E+01
 0.3907413840553E+01
 0.3990326528411E+01
 0.4079608956512E+01
 0.4171337697627E+01
 0.4262710003586E+01
 0.4350296850534E+01
 0.4429965277480E+01
 0.4498240201687E+01
 0.4552841975467E+01
 0.4592234207746E+01
 0.4615051931864E+01
 0.4620142592417E+01
 0.4606791463617E+01
 0.4573470532191E+01
 0.4515764729123E+01
 0.4426379407544E+01
 0.4295270199266E+01
 0.4107251320448E+01
 0.3839961887646E+01
 0.3465780753157E+01
 0.2959185423425E+01
 0.2524077881614E+01
 0.3891821301388E+01
 0.9466108819604E+01
 0.3907115434727E+01
 0.4193173751077E+01
 0.4087563637838E+01
 0.3913913584296E+01
 0.3804140320924E+01
 0.3730136524722E+01
 0.3680924513027E+01
 0.3649799208119E+01
 0.3632327615407E+01
 0.3625932820382E+01
 0.3629113817908E+01
 0.3641165464059E+01
 0.3661982912688E+01
 0.3691978158396E+01
 0.3732060395589E+01
 0.3783677488668E+01
 0.3848903386703E+01
 0.3930049770345E+01
 0.4027610456010E+01
 0.4138581710892E+01
 0.4257649369933E+01
 0.4378380499129E+01
 0.4493820483954E+01
 0.4598422560281E+01
 0.4689383472080E+01
 0.4766029606340E+01
 0.4828398586434E+01
 0.4876092405133E+01
 0.4908183206124E+01
 0.4924105828297E+01
 0.4923295925806E+01
 0.4903435850746E+01
 0.4860366137404E+01
 0.4787267465448E+01
 0.4671619193457E+01
 0.4488542374342E+01
 0.4199644054737E+01
 0.3728512272995E+01
 0.2960599218514E+01
 0.3149731107434E+01
 0.1023400646905E+02
 0.4311115742416E+01
 0.4425296991967E+01
 0.4094506395091E+01
 0.3894082176853E+01
 0.3781701653528E+01
 0.3707798800433E+01
 0.3661363409517E+01
 0.3633044613655E+01
 0.3618323067914E+01
 0.3614429408546E+01
 0.3619886693753E+01
 0.3634039521976E+01
 0.3656866902255E+01
 0.3688892924287E+01
 0.3731190289443E+01
 0.3785478141002E+01
 0.3854378110620E+01
 0.3941842955275E+01
 0.4052232755969E+01
 0.4186751814490E+01
 0.4338932923346E+01
 0.4495267915312E+01
 0.4642556172257E+01
 0.4773740718313E+01
 0.4887827706012E+01
 0.4986894392237E+01
 0.5073375819004E+01
 0.5148396928616E+01
 0.5211236116903E+01
 0.5260503093638E+01
 0.5295985558880E+01
 0.5319092777271E+01
 0.5331759761976E+01
 0.5334095156599E+01
 0.5320883638920E+01
 0.5281089376794E+01
 0.5176056155903E+01
 0.4975314250311E+01
 0.4341636952470E+01
 0.3318716999255E+01
 0.1109776359746E+02
 0.5064597720367E+01
 0.4465067371706E+01
 0.4015021708873E+01
 0.3849400054211E+01
 0.3739285292745E+01
 0.3674380715532E+01
 0.3633754120949E+01
 0.3610382598844E+01
 0.3599543362456E+01
 0.3598791789886E+01
 0.3606800094620E+01
 0.3623057222057E+01
 0.3647657278505E+01
 0.3681230937303E+01
 0.3724961683931E+01
 0.3780716305046E+01
 0.3851362927997E+01
 0.3941614324573E+01
 0.4060044022943E+01
 0.4219080525825E+01
 0.4413345913565E+01
 0.4614308317670E+01
 0.4798111558428E+01
 0.4956918693141E+01
 0.5093583630513E+01
 0.5214555624966E+01
 0.5325613894147E+01
 0.5430112178850E+01
 0.5528099047464E+01
 0.5615487447820E+01
 0.5689148311838E+01
 0.5757202421065E+01
 0.5832624912014E+01
 0.5924126202736E+01
 0.6040658663435E+01
 0.6190677760259E+01
 0.6399011523664E+01
 0.6631359207105E+01
 0.7149445974832E+01
 0.6389826280701E+01
 0.1303511117192E+02
 0.8662783077742E+00
 0.1118986299445E+01
 0.1358553670991E+01
 0.1576682958202E+01
 0.1770435221257E+01
 0.1939416546432E+01
 0.2084572365493E+01
 0.2207490576598E+01
 0.2309913859347E+01
 0.2393584523997E+01
 0.2460346400102E+01
 0.2511122189618E+01
 0.2547313929077E+01
 0.2571653127764E+01
 0.2585548834941E+01
 0.2588589583411E+01
 0.2579366516043E+01
 0.2556139141635E+01
 0.2518073960429E+01
 0.2464304259124E+01
 0.8411121250792E+00
 0.1110902362613E+01
 0.1363787794951E+01
 0.1593658260996E+01
 0.1797944429688E+01
 0.1976578743718E+01
 0.2130817911279E+01
 0.2262471103985E+01
 0.2373433919761E+01
 0.2465607869369E+01
 0.2540865093641E+01
 0.2600286415487E+01
 0.2645601130804E+01
 0.2679330733710E+01
 0.2702682453012E+01
 0.2715615915489E+01
 0.2717016892923E+01
 0.2705399971400E+01
 0.2676352922793E+01
 0.2625915121425E+01
 0.8164912526311E+00
 0.1104154870278E+01
 0.1370590659771E+01
 0.1611765322264E+01
 0.1826080504001E+01
 0.2013913909344E+01
 0.2176826141528E+01
 0.2316849015717E+01
 0.2436066387479E+01
 0.2536513826039E+01
 0.2620121924947E+01
 0.2688284601074E+01
 0.2742853093444E+01
 0.2786150819194E+01
 0.2819411216256E+01
 0.2842703690128E+01
 0.2855059588069E+01
 0.2854254805080E+01
 0.2835967750420E+01
 0.2800073701853E+01
 0.7928266741345E+00
 0.1098379002862E+01
 0.1378440591847E+01
 0.1630644229532E+01
 0.1854535048722E+01
 0.2051104635645E+01
 0.2222262422345E+01
 0.2370281635244E+01
 0.2497439402284E+01
 0.2605916705033E+01
 0.2697764815746E+01
 0.2774637310541E+01
 0.2838482104093E+01
 0.2891487030666E+01
 0.2934886083327E+01
 0.2968814856346E+01
 0.2992251022936E+01
 0.3002990810212E+01
 0.2998114986594E+01
 0.2977882143025E+01
 0.7702433240640E+00
 0.1093489560455E+01
 0.1386997016318E+01
 0.1649931788790E+01
 0.1882975563437E+01
 0.2087821807731E+01
 0.2266788431367E+01
 0.2422414023170E+01
 0.2557179416488E+01
 0.2673428951590E+01
 0.2773354101352E+01
 0.2858829898895E+01
 0.2931887157855E+01
 0.2994616942839E+01
 0.3048248926802E+01
 0.3092953470772E+01
 0.3127810279982E+01
 0.3151026604801E+01
 0.3160456417116E+01
 0.3155995929952E+01
 0.7488231143503E+00
 0.1089387112391E+01
 0.1396008943426E+01
 0.1669301229341E+01
 0.1911066557750E+01
 0.2123730730301E+01
 0.2310061552131E+01
 0.2472888359820E+01
 0.2614908399394E+01
 0.2738639366935E+01
 0.2846421033652E+01
 0.2940317517191E+01
 0.3022432968960E+01
 0.3094794441724E+01
 0.3158632927108E+01
 0.3214193365694E+01
 0.3260759880244E+01
 0.3296891498615E+01
 0.3320828339247E+01
 0.3331828445114E+01
 0.7286310149500E+00
 0.1085974831548E+01
 0.1405253497235E+01
 0.1688457347660E+01
 0.1938483949496E+01
 0.2158498339888E+01
 0.2351739488960E+01
 0.2521346320525E+01
 0.2670242402942E+01
 0.2801123916661E+01
 0.2916479707928E+01
 0.3018536844429E+01
 0.3109466810818E+01
 0.3191260812636E+01
 0.3265171405726E+01
 0.3331548985213E+01
 0.3389878546203E+01
 0.3438963241244E+01
 0.3477163514860E+01
 0.3503050323100E+01
 0.7097256828847E+00
 0.1083158209731E+01
 0.1414525531427E+01
 0.1707126292015E+01
 0.1964919325883E+01
 0.2191799932781E+01
 0.2391484850001E+01
 0.2567432054916E+01
 0.2722796483106E+01
 0.2860453572555E+01
 0.2983037800754E+01
 0.3092918250149E+01
 0.3192330224378E+01
 0.3283253565359E+01
 0.3366978986724E+01
 0.3443964743471E+01
 0.3513858015638E+01
 0.3575599790014E+01
 0.3627509388375E+01
 0.3667487196197E+01
 0.6921623144317E+00
 0.1080847195719E+01
 0.1423633552608E+01
 0.1725052363996E+01
 0.1990080809789E+01
 0.2223323497315E+01
 0.2428969576811E+01
 0.2610796622146E+01
 0.2772190321384E+01
 0.2916202194787E+01
 0.3045606141708E+01
 0.3162896210182E+01
 0.3270369115285E+01
 0.3370011084676E+01
 0.3463157274569E+01
 0.3550359561712E+01
 0.3631377971489E+01
 0.3705206255345E+01
 0.3770028301764E+01
 0.3823116253486E+01
 0.6759933471023E+00
 0.1078957279386E+01
 0.1432399000667E+01
 0.1741997070565E+01
 0.2013694164289E+01
 0.2252772778916E+01
 0.2463879105314E+01
 0.2651102787871E+01
 0.2818054161280E+01
 0.2967954012458E+01
 0.3103707343808E+01
 0.3227918585034E+01
 0.3342942792027E+01
 0.3450782655234E+01
 0.3552815562479E+01
 0.3649664739650E+01
 0.3741155535430E+01
 0.3826269199218E+01
 0.3902997586972E+01
 0.3968035207637E+01
 0.6612682449143E+00
 0.1077410252269E+01
 0.1440656526747E+01
 0.1757739471845E+01
 0.2035504161922E+01
 0.2279870031747E+01
 0.2495916234748E+01
 0.2688029849669E+01
 0.2860034712567E+01
 0.3015310742990E+01
 0.3156883862709E+01
 0.3287455458690E+01
 0.3409434193704E+01
 0.3524842761200E+01
 0.3635093053044E+01
 0.3740855332508E+01
 0.3841978943739E+01
 0.3937383503827E+01
 0.4024832366434E+01
 0.4100498049855E+01
 0.6480330073463E+00
 0.1076134765848E+01
 0.1448254721433E+01
 0.1772077124297E+01
 0.2055276222491E+01
 0.2304358646815E+01
 0.2524804772279E+01
 0.2721278250040E+01
 0.2897800772542E+01
 0.3057898248072E+01
 0.3204705562883E+01
 0.3341007894881E+01
 0.3469260938465E+01
 0.3591506098646E+01
 0.3709179285667E+01
 0.3822974866563E+01
 0.3932732821737E+01
 0.4037276316366E+01
 0.4134122474923E+01
 0.4218979975715E+01
 0.6363296243501E+00
 0.1075066785018E+01
 0.1455057004725E+01
 0.1784827295952E+01
 0.2072798179029E+01
 0.2326005700072E+01
 0.2550292963436E+01
 0.2750573914781E+01
 0.2931048501061E+01
 0.3095372775009E+01
 0.3246776963312E+01
 0.3388116653651E+01
 0.3521886419497E+01
 0.3650141925895E+01
 0.3774331894167E+01
 0.3895155210732E+01
 0.4012417946684E+01
 0.4124826452987E+01
 0.4229651985588E+01
 0.4322197075240E+01
 0.6261955904988E+00
 0.1074149980068E+01
 0.1460942552490E+01
 0.1795828258798E+01
 0.2087882039482E+01
 0.2344604349134E+01
 0.2572156636648E+01
 0.2775672201278E+01
 0.2959506217683E+01
 0.3127426666344E+01
 0.3282743989744E+01
 0.3428370423651E+01
 0.3566830129983E+01
 0.3700186792185E+01
 0.3829891400952E+01
 0.3956632192365E+01
 0.4080165941442E+01
 0.4199075681832E+01
 0.4310402645430E+01
 0.4409101322786E+01
 0.6176635193052E+00
 0.1073336071800E+01
 0.1465807193734E+01
 0.1804940557645E+01
 0.2100365666082E+01
 0.2359976040693E+01
 0.2590202041192E+01
 0.2796361435519E+01
 0.2982938700456E+01
 0.3153793510028E+01
 0.3312300128096E+01
 0.3461413316232E+01
 0.3603676846108E+01
 0.3741155406414E+01
 0.3875293224088E+01
 0.4006757534264E+01
 0.4135249168620E+01
 0.4259233476919E+01
 0.4375550023614E+01
 0.4478865963972E+01
 0.6107608750288E+00
 0.1072585135195E+01
 0.1469564232567E+01
 0.1812048178358E+01
 0.2110114297179E+01
 0.2371972469268E+01
 0.2604268330073E+01
 0.2812465989585E+01
 0.3001150929386E+01
 0.3174252643940E+01
 0.3335191824999E+01
 0.3486951389671E+01
 0.3632084434791E+01
 0.3772649554197E+01
 0.3910077075869E+01
 0.4045007526810E+01
 0.4177086779334E+01
 0.4304677997523E+01
 0.4424457183652E+01
 0.4530869174582E+01
 0.6055097921660E+00
 0.1071865849634E+01
 0.1472145152908E+01
 0.1817059556497E+01
 0.2117021850842E+01
 0.2380477234065E+01
 0.2614229640263E+01
 0.2823848849392E+01
 0.3013991209520E+01
 0.3188632917951E+01
 0.3351222989771E+01
 0.3504758025770E+01
 0.3651790141032E+01
 0.3794365040663E+01
 0.3933893927694E+01
 0.4070988924835E+01
 0.4205248025337E+01
 0.4334955125173E+01
 0.4456667969659E+01
 0.4564678784731E+01
 0.6019269804533E+00
 0.1071155693052E+01
 0.1473500184681E+01
 0.1819908389311E+01
 0.2121011967835E+01
 0.2385407152398E+01
 0.2619996729431E+01
 0.2830413626392E+01
 0.3021353612581E+01
 0.3196815627860E+01
 0.3360258484521E+01
 0.3514678041165E+01
 0.3662615284535E+01
 0.3806096698563E+01
 0.3946510766149E+01
 0.4084442586218E+01
 0.4219453707773E+01
 0.4349776645655E+01
 0.4471900811019E+01
 0.4580039142196E+01
 0.6000236809916E+00
 0.1070441068343E+01
 0.1473598703713E+01
 0.1820554214745E+01
 0.2122038754935E+01
 0.2386713192476E+01
 0.2621518133801E+01
 0.2832105975672E+01
 0.3023179691492E+01
 0.3198736563652E+01
 0.3362226536677E+01
 0.3516630482226E+01
 0.3664468369435E+01
 0.3807741569410E+01
 0.3947813408387E+01
 0.4085245319230E+01
 0.4219576398561E+01
 0.4349018247227E+01
 0.4470043843013E+01
 0.4576861571373E+01
 0.5998056457365E+00
 0.1069717355850E+01
 0.1472429453361E+01
 0.1818982741324E+01
 0.2120087211381E+01
 0.2384381008875E+01
 0.2618780830319E+01
 0.2828914400383E+01
 0.3019459440829E+01
 0.3194387136978E+01
 0.3357120035681E+01
 0.3510610079993E+01
 0.3657346627110E+01
 0.3799300353634E+01
 0.3937807575424E+01
 0.4073410236568E+01
 0.4205639768296E+01
 0.4332717650229E+01
 0.4451151693945E+01
 0.4555219000373E+01
 0.6012731201414E+00
 0.1068988886883E+01
 0.1470000577525E+01
 0.1815205915134E+01
 0.2115173323330E+01
 0.2378431065809E+01
 0.2611810388424E+01
 0.2820870426394E+01
 0.3010231484149E+01
 0.3183814566355E+01
 0.3344996694660E+01
 0.3496687360989E+01
 0.3641336021439E+01
 0.3780877209495E+01
 0.3916618359501E+01
 0.4049085789414E+01
 0.4177817179144E+01
 0.4301072929348E+01
 0.4415443954442E+01
 0.4515344763214E+01
 0.6044208165990E+00
 0.1068268836364E+01
 0.1466339461350E+01
 0.1809261719337E+01
 0.2107343822005E+01
 0.2368918345035E+01
 0.2600670609516E+01
 0.2808048146056E+01
 0.2995582487387E+01
 0.3167121120291E+01
 0.3325978081202E+01
 0.3475007428661E+01
 0.3616609749805E+01
 0.3752677955881E+01
 0.3884488155441E+01
 0.4012553541722E+01
 0.4136429556817E+01
 0.4254440896345E+01
 0.4363304664344E+01
 0.4457633410431E+01
 0.6092378782160E+00
 0.1067579035855E+01
 0.1461492381924E+01
 0.1801213709284E+01
 0.2096675609827E+01
 0.2355931644633E+01
 0.2585462662976E+01
 0.2790563142797E+01
 0.2975645813168E+01
 0.3144462436694E+01
 0.3300247539570E+01
 0.3445787442322E+01
 0.3583425269661E+01
 0.3715006704504E+01
 0.3841773061185E+01
 0.3964224646805E+01
 0.4081942424980E+01
 0.4193335378529E+01
 0.4295282585510E+01
 0.4382644917810E+01
 0.6157078432606E+00
 0.1066949711558E+01
 0.1455523977471E+01
 0.1791150294390E+01
 0.2083274868208E+01
 0.2339592485509E+01
 0.2566323739746E+01
 0.2768570822860E+01
 0.2950599448390E+01
 0.3116044956832E+01
 0.3268047046620E+01
 0.3409312834777E+01
 0.3542119880938E+01
 0.3668260924802E+01
 0.3788937702443E+01
 0.3904634905642E+01
 0.4014961898608E+01
 0.4118425107728E+01
 0.4212092560560E+01
 0.4291112337890E+01
 0.6238086298699E+00
 0.1066419154741E+01
 0.1448516549003E+01
 0.1779183784958E+01
 0.2067275868725E+01
 0.2320053651389E+01
 0.2543425254782E+01
 0.2742264192916E+01
 0.2920663252683E+01
 0.3082122529908E+01
 0.3229673062047E+01
 0.3365932324031E+01
 0.3493104897341E+01
 0.3612924928636E+01
 0.3726548394056E+01
 0.3834438220649E+01
 0.3936229324608E+01
 0.4030530812546E+01
 0.4114616992588E+01
 0.4183950781740E+01
 0.6335125676265E+00
 0.1066033334891E+01
 0.1440569213677E+01
 0.1765449228676E+01
 0.2048839516554E+01
 0.2297497395692E+01
 0.2516970638243E+01
 0.2711871132847E+01
 0.2886095588847E+01
 0.3042992261068E+01
 0.3185471452583E+01
 0.3316051792003E+01
 0.3436858449743E+01
 0.3549561756963E+01
 0.3655264523443E+01
 0.3754398198380E+01
 0.3846614169111E+01
 0.3930620858453E+01
 0.4003906332941E+01
 0.4062266688418E+01
 0.6447865031446E+00
 0.1065845468420E+01
 0.1431796935318E+01
 0.1750103070517E+01
 0.2028151665393E+01
 0.2272133359618E+01
 0.2487192767117E+01
 0.2677651226857E+01
 0.2847189413887E+01
 0.2998989698065E+01
 0.3135831597067E+01
 0.3260127133140E+01
 0.3373916992902E+01
 0.3478803469876E+01
 0.3575828039451E+01
 0.3665377618889E+01
 0.3747104651787E+01
 0.3819804648256E+01
 0.3881177487268E+01
 0.3927365665707E+01
 0.6575920076975E+00
 0.1065915555595E+01
 0.1422329455953E+01
 0.1733321666791E+01
 0.2005421238343E+01
 0.2244196239318E+01
 0.2454351081625E+01
 0.2639892209918E+01
 0.2804267907237E+01
 0.2950483456722E+01
 0.3081179793186E+01
 0.3198656197824E+01
 0.3304865614778E+01
 0.3401339871884E+01
 0.3489050950972E+01
 0.3568325473456E+01
 0.3638795563035E+01
 0.3699322906149E+01
 0.3747808823164E+01
 0.3780756710852E+01
 0.6718857117323E+00
 0.1066309903638E+01
 0.1412310169180E+01
 0.1715299706779E+01
 0.1980878213532E+01
 0.2213943262430E+01
 0.2418728450269E+01
 0.2598906104114E+01
 0.2757679730974E+01
 0.2897869407846E+01
 0.3021972116088E+01
 0.3132169990013E+01
 0.3230327283684E+01
 0.3317905741772E+01
 0.3395800771919E+01
 0.3464261264187E+01
 0.3522872589155E+01
 0.3570533750082E+01
 0.3605329960029E+01
 0.3624149184497E+01
 0.6876197553680E+00
 0.1067100643861E+01
 0.1401894967565E+01
 0.1696248592586E+01
 0.1954771531971E+01
 0.2181651532906E+01
 0.2380627846333E+01
 0.2555025121318E+01
 0.2707794026445E+01
 0.2841564573558E+01
 0.2958686928861E+01
 0.3061223354374E+01
 0.3150951264723E+01
 0.3229266758626E+01
 0.3296984022469E+01
 0.3354256472032E+01
 0.3400592602910E+01
 0.3434893343034E+01
 0.3455404548349E+01
 0.3459439210481E+01
 0.7047423681614E+00
 0.1068365257815E+01
 0.1391251112223E+01
 0.1676394842726E+01
 0.1927366994031E+01
 0.2147615303006E+01
 0.2340368891384E+01
 0.2508597396472E+01
 0.2654995238467E+01
 0.2782000875941E+01
 0.2891817264656E+01
 0.2986385439015E+01
 0.3067401004126E+01
 0.3136204380967E+01
 0.3193528010161E+01
 0.3239413369503E+01
 0.3273259677475E+01
 0.3293929761567E+01
 0.3299803176639E+01
 0.3288680287515E+01
 0.7231985417699E+00
 0.1070186110137E+01
 0.1380556178719E+01
 0.1655978605357E+01
 0.1898945226457E+01
 0.2112143236320E+01
 0.2298284318203E+01
 0.2459982605982E+01
 0.2599677837936E+01
 0.2719618856151E+01
 0.2821863297037E+01
 0.2908230266095E+01
 0.2980341851430E+01
 0.3039499966321E+01
 0.3086361074629E+01
 0.3120841534746E+01
 0.3142197333228E+01
 0.3149209151535E+01
 0.3140361658388E+01
 0.3114026784015E+01
 0.7429307382687E+00
 0.1072649975139E+01
 0.1369997150090E+01
 0.1635252385044E+01
 0.1869799796004E+01
 0.2075555692693E+01
 0.2254716364361E+01
 0.2409547482833E+01
 0.2542240957137E+01
 0.2654861400087E+01
 0.2749325050994E+01
 0.2827327768427E+01
 0.2890429139970E+01
 0.2939918530848E+01
 0.2976391380235E+01
 0.2999632179510E+01
 0.3008718545998E+01
 0.3002296434289E+01
 0.2978920891378E+01
 0.2937638274342E+01
 0.7638795047123E+00
 0.1075847515703E+01
 0.1359769789857E+01
 0.1614480185123E+01
 0.1840235602070E+01
 0.2038182100659E+01
 0.2210013160283E+01
 0.2357661337397E+01
 0.2483083063359E+01
 0.2588167585104E+01
 0.2674695560714E+01
 0.2744235869246E+01
 0.2798297665797E+01
 0.2838193315583E+01
 0.2864484631946E+01
 0.2876830056361E+01
 0.2874094606236E+01
 0.2854718826607E+01
 0.2817259736586E+01
 0.2761548756700E+01
 0.7859837521935E+00
 0.1079872613356E+01
 0.1350078594102E+01
 0.1593937392774E+01
 0.1810567681731E+01
 0.2000358350177E+01
 0.2164525073122E+01
 0.2304691616869E+01
 0.2422596699087E+01
 0.2519966544454E+01
 0.2598454231655E+01
 0.2659493598577E+01
 0.2704553640415E+01
 0.2735012830001E+01
 0.2751441527250E+01
 0.2753400535189E+01
 0.2739520526674E+01
 0.2707937148319E+01
 0.2657062709114E+01
 0.2587598296748E+01
 0.8091800379040E+00
 0.1084821438709E+01
 0.1341137877562E+01
 0.1573912129479E+01
 0.1781120400418E+01
 0.1962423985852E+01
 0.2118600892594E+01
 0.2250999706377E+01
 0.2361163514118E+01
 0.2450671391697E+01
 0.2521060196601E+01
 0.2573614714910E+01
 0.2609769757562E+01
 0.2631014997842E+01
 0.2637978282902E+01
 0.2630190717931E+01
 0.2606067167238E+01
 0.2563322984682E+01
 0.2499933525730E+01
 0.2417465839167E+01
 0.8333995752404E+00
 0.1090790449467E+01
 0.1333176480738E+01
 0.1554708978125E+01
 0.1752227022797E+01
 0.1924718178820E+01
 0.2072583830637E+01
 0.2196937250641E+01
 0.2299149907445E+01
 0.2380673182999E+01
 0.2442945111568E+01
 0.2487080743429E+01
 0.2514480630895E+01
 0.2526790976296E+01
 0.2524727478997E+01
 0.2507880339034E+01
 0.2474605327962E+01
 0.2422110928374E+01
 0.2347445776749E+01
 0.2252712952094E+01
 0.8585570182393E+00
 0.1097877324189E+01
 0.1326448780297E+01
 0.1536660259560E+01
 0.1724225679290E+01
 0.1887573440374E+01
 0.2026807410131E+01
 0.2142843848143E+01
 0.2236903705376E+01
 0.2310335414973E+01
 0.2364505237943E+01
 0.2400332040051E+01
 0.2419176947160E+01
 0.2422887429292E+01
 0.2412276144946E+01
 0.2386997077802E+01
 0.2345611076236E+01
 0.2285289679512E+01
 0.2201210700989E+01
 0.2094993371281E+01
 0.8845237466159E+00
 0.1106161972952E+01
 0.1321300742068E+01
 0.1520130143376E+01
 0.1697445485095E+01
 0.1851309019638E+01
 0.1981591367415E+01
 0.2089045183201E+01
 0.2174756569874E+01
 0.2239987285924E+01
 0.2286092861555E+01
 0.2313758662390E+01
 0.2324292332375E+01
 0.2319806966610E+01
 0.2301180968683E+01
 0.2268098752301E+01
 0.2219181211704E+01
 0.2152670156099E+01
 0.2063213093173E+01
 0.1946793702320E+01
 0.9108640582275E+00
 0.1116032813360E+01
 0.1318255084784E+01
 0.1505473908051E+01
 0.1672187895895E+01
 0.1816224951045E+01
 0.1937242157342E+01
 0.2035845281774E+01
 0.2113026381970E+01
 0.2169946114395E+01
 0.2207972749777E+01
 0.2227692430713E+01
 0.2230219777820E+01
 0.2217948451738E+01
 0.2191991720204E+01
 0.2151792742744E+01
 0.2095892290084E+01
 0.2022613070017E+01
 0.1931146217566E+01
 0.1817400238126E+01
 0.2144912432665E+01
 0.8065190527879E+00
 0.1569604060597E+00
 0.1562643804302E-01
 0.1178874589356E+00
 0.1873061034085E+00
 0.2405094807535E+00
 0.2822119886145E+00
 0.3128218061462E+00
 0.3314395975353E+00
 0.3351788001349E+00
 0.3197388861258E+00
 0.2806787724489E+00
 0.2221195218917E+00
 0.1500033262496E+00
 0.7048454384572E-01
 0.1667894042122E-01
 0.8852966415229E-01
 0.1663450653139E+00
 0.2705787922577E+00
 0.2224301059573E+01
 0.1560208950155E+01
 0.6119333960471E+00
 0.2355484029606E+00
 0.6166720694421E-01
 0.4502807424114E-01
 0.1177995629374E+00
 0.1718850600882E+00
 0.2125144757447E+00
 0.2407107436091E+00
 0.2553559139016E+00
 0.2572875491615E+00
 0.2403831533136E+00
 0.2007071302375E+00
 0.1433251109071E+00
 0.7583556712465E-01
 0.1147313435561E-01
 0.6262873860194E-01
 0.1315673706840E+00
 0.2036057907687E+00
 0.2063190155725E+01
 0.1791708240431E+01
 0.1052641384514E+01
 0.5426802909557E+00
 0.2787960028382E+00
 0.1259581877528E+00
 0.2589296395491E-01
 0.4556138686584E-01
 0.9898063921777E-01
 0.1389426666647E+00
 0.1666406209622E+00
 0.1840180678047E+00
 0.1849774297442E+00
 0.1623437720152E+00
 0.1201615127438E+00
 0.6608323003434E-01
 0.1028198544351E-01
 0.4871855205973E-01
 0.1021450828905E+00
 0.1468855136117E+00
 0.1899501687037E+01
 0.1836877813318E+01
 0.1323771985846E+01
 0.8418201370250E+00
 0.5190534599057E+00
 0.3193921195642E+00
 0.1886407316533E+00
 0.9678881378239E-01
 0.2816928619344E-01
 0.2511508287140E-01
 0.6618673407120E-01
 0.9803790997060E-01
 0.1150139113750E+00
 0.1082239995854E+00
 0.8084935978347E-01
 0.4059039672025E-01
 0.4480442908902E-02
 0.4785442784738E-01
 0.8556472568038E-01
 0.1099454185583E+00
 0.1754793042514E+01
 0.1806942326438E+01
 0.1475596134523E+01
 0.1075595837029E+01
 0.7515107762056E+00
 0.5230910308988E+00
 0.3655015950245E+00
 0.2530496404711E+00
 0.1683992279072E+00
 0.1013514569348E+00
 0.4712894573576E-01
 0.3671522623237E-02
 0.3031158432997E-01
 0.3842667155096E-01
 0.2534171344745E-01
 0.2701907281097E-02
 0.3317020222637E-01
 0.6375279432163E-01
 0.8773476057438E-01
 0.9855616205642E-01
 0.1631867145758E+01
 0.1746467162862E+01
 0.1551629629288E+01
 0.1244355154931E+01
 0.9526783764252E+00
 0.7210380801494E+00
 0.5479155549804E+00
 0.4190316170531E+00
 0.3198279050883E+00
 0.2397496699295E+00
 0.1731152565788E+00
 0.1152880771021E+00
 0.7014280524069E-01
 0.4808818442765E-01
 0.4773800852496E-01
 0.6125166897043E-01
 0.8067392663777E-01
 0.9954504858776E-01
 0.1128423681693E+00
 0.1162128257843E+00
 0.1528186416918E+01
 0.1675729951229E+01
 0.1581094283646E+01
 0.1360550714173E+01
 0.1117015777151E+01
 0.9015641813508E+00
 0.7268263234966E+00
 0.5891283967178E+00
 0.4793030852655E+00
 0.3884982764962E+00
 0.3112006322744E+00
 0.2425173352640E+00
 0.1854052686757E+00
 0.1506083368259E+00
 0.1379698548033E+00
 0.1397737935972E+00
 0.1484155047906E+00
 0.1576207618086E+00
 0.1633887486715E+00
 0.1639970412183E+00
 0.1440420810369E+01
 0.1604374653012E+01
 0.1582736175742E+01
 0.1437591997916E+01
 0.1247061086610E+01
 0.1059897957860E+01
 0.8955120897606E+00
 0.7577935106379E+00
 0.6430149849339E+00
 0.5451887545751E+00
 0.4599151957097E+00
 0.3826385216021E+00
 0.3156386268067E+00
 0.2698756291287E+00
 0.2464937483854E+00
 0.2381587289460E+00
 0.2378051738337E+00
 0.2395271209523E+00
 0.2404371199698E+00
 0.2412495241752E+00
 0.1365453056752E+01
 0.1536951811179E+01
 0.1568520308017E+01
 0.1486739914821E+01
 0.1348307945697E+01
 0.1195734482190E+01
 0.1050428675572E+01
 0.9207426208400E+00
 0.8072743536673E+00
 0.7070503794852E+00
 0.6173095764278E+00
 0.5343378356186E+00
 0.4600310542387E+00
 0.4055245301224E+00
 0.3733751021732E+00
 0.3568352188649E+00
 0.3494485326903E+00
 0.3457102844605E+00
 0.3436834524207E+00
 0.3459721607786E+00
 0.1300637203973E+01
 0.1475420155061E+01
 0.1546074646384E+01
 0.1516715710884E+01
 0.1426724670722E+01
 0.1311114817878E+01
 0.1190508832496E+01
 0.1075320362929E+01
 0.9690734836890E+00
 0.8713701487369E+00
 0.7811730339657E+00
 0.6959054989213E+00
 0.6173386307778E+00
 0.5567442924167E+00
 0.5181344027318E+00
 0.4955009142032E+00
 0.4830033935487E+00
 0.4754683023300E+00
 0.4715911868003E+00
 0.4751461631586E+00
 0.1243807418270E+01
 0.1420377942084E+01
 0.1520227789983E+01
 0.1534018973899E+01
 0.1487745066587E+01
 0.1409028934811E+01
 0.1316258279539E+01
 0.1220273801973E+01
 0.1126275860710E+01
 0.1035776699897E+01
 0.9492565844005E+00
 0.8653541549285E+00
 0.7858834851548E+00
 0.7221663579289E+00
 0.6796063489871E+00
 0.6530236942298E+00
 0.6371597502529E+00
 0.6270573666874E+00
 0.6216594478451E+00
 0.6251376425227E+00
 0.1193220562584E+01
 0.1371703786733E+01
 0.1493974077012E+01
 0.1543374805974E+01
 0.1535930925719E+01
 0.1492630024565E+01
 0.1429015432557E+01
 0.1355346869568E+01
 0.1277539862503E+01
 0.1198348438174E+01
 0.1119425431544E+01
 0.1040540641856E+01
 0.9636176149130E+00
 0.8998732479071E+00
 0.8559214298128E+00
 0.8274397098603E+00
 0.8097048065809E+00
 0.7978659987037E+00
 0.7907211903947E+00
 0.7920629515120E+00
 0.1147486889897E+01
 0.1328904452085E+01
 0.1469088069311E+01
 0.1548136728386E+01
 0.1574928214841E+01
 0.1564832609565E+01
 0.1530444082082E+01
 0.1480889059967E+01
 0.1422129439154E+01
 0.1357592978039E+01
 0.1289730248606E+01
 0.1219263458705E+01
 0.1148209542620E+01
 0.1087463234637E+01
 0.1044560761844E+01
 0.1016023618889E+01
 0.9976390615552E+00
 0.9846024889282E+00
 0.9752087085294E+00
 0.9720720042562E+00
 0.1105506175348E+01
 0.1291309176670E+01
 0.1446523650255E+01
 0.1550610472385E+01
 0.1607539360218E+01
 0.1628132324096E+01
 0.1622217909608E+01
 0.1597548123965E+01
 0.1559707579829E+01
 0.1512362502962E+01
 0.1458418499215E+01
 0.1399331544286E+01
 0.1337140807731E+01
 0.1282157837057E+01
 0.1242472160684E+01
 0.1215414864810E+01
 0.1197316425959E+01
 0.1183457147770E+01
 0.1171353220106E+01
 0.1161553707802E+01
 0.1066413279837E+01
 0.1258179951051E+01
 0.1426678881250E+01
 0.1552304098272E+01
 0.1635833043518E+01
 0.1684546368112E+01
 0.1705840382782E+01
 0.1706053939439E+01
 0.1690158253044E+01
 0.1661751748357E+01
 0.1623912865497E+01
 0.1578610024651E+01
 0.1527805733017E+01
 0.1480944997229E+01
 0.1446244486495E+01
 0.1421798472428E+01
 0.1404597167699E+01
 0.1390212651931E+01
 0.1375286864315E+01
 0.1357270071759E+01
 0.1029532685810E+01
 0.1228773624390E+01
 0.1409575630903E+01
 0.1554120035737E+01
 0.1661259360365E+01
 0.1735617614772E+01
 0.1782553558598E+01
 0.1807079037114E+01
 0.1813451218674E+01
 0.1805004540380E+01
 0.1784776818749E+01
 0.1755048111412E+01
 0.1717604660478E+01
 0.1680747086615E+01
 0.1652346086017E+01
 0.1631164551986E+01
 0.1615041613478E+01
 0.1600293824260E+01
 0.1583007312271E+01
 0.1556407558280E+01
 0.9943398321684E+00
 0.1202374556993E+01
 0.1394983851509E+01
 0.1556504312215E+01
 0.1684759469609E+01
 0.1782452019905E+01
 0.1853303461190E+01
 0.1901157204970E+01
 0.1929549237880E+01
 0.1941440777713E+01
 0.1939680138484E+01
 0.1926690415421E+01
 0.1904012251939E+01
 0.1878573690795E+01
 0.1857414585881E+01
 0.1839711678536E+01
 0.1824238363894E+01
 0.1808824233649E+01
 0.1790128166996E+01
 0.1756508054495E+01
 0.9604261388738E+00
 0.1178308378704E+01
 0.1382508877182E+01
 0.1559566785959E+01
 0.1706868688485E+01
 0.1825774647951E+01
 0.1918741116000E+01
 0.1988642090231E+01
 0.2038351131009E+01
 0.2070407325246E+01
 0.2087374415262E+01
 0.2091676280820E+01
 0.2084596423962E+01
 0.2071589453123E+01
 0.2058445118642E+01
 0.2044397302206E+01
 0.2028602205144E+01
 0.2010864445356E+01
 0.1991421179240E+01
 0.1955053112167E+01
 0.9274666440172E+00
 0.1155938463644E+01
 0.1371656792563E+01
 0.1563183593469E+01
 0.1727819282518E+01
 0.1865998345090E+01
 0.1979245856628E+01
 0.2069691379577E+01
 0.2139654670961E+01
 0.2191256651422E+01
 0.2226691123511E+01
 0.2248246971075E+01
 0.2257002947261E+01
 0.2257029681408E+01
 0.2252677426521E+01
 0.2242941308296E+01
 0.2226738869731E+01
 0.2203549320832E+01
 0.2179695355807E+01
 0.2148384620421E+01
 0.8951793148844E+00
 0.1134666067276E+01
 0.1361863983112E+01
 0.1567108592268E+01
 0.1747661650729E+01
 0.1903296719868E+01
 0.2034955988754E+01
 0.2144272783482E+01
 0.2233126128669E+01
 0.2303300513073E+01
 0.2356620352445E+01
 0.2394821152452E+01
 0.2418937746285E+01
 0.2432117027209E+01
 0.2437156688418E+01
 0.2432940660967E+01
 0.2417890594976E+01
 0.2390386780025E+01
 0.2352913631438E+01
 0.2324862047490E+01
 0.9402682583065E+00
 0.1133093443255E+01
 0.1323499939365E+01
 0.1498171695205E+01
 0.1651717921743E+01
 0.1782202624965E+01
 0.1889388059855E+01
 0.1974021367563E+01
 0.2037304857389E+01
 0.2080521880886E+01
 0.2105098740183E+01
 0.2112454729825E+01
 0.2103516046772E+01
 0.2081090823346E+01
 0.2047649988759E+01
 0.2002069236326E+01
 0.1942816667905E+01
 0.1868380253577E+01
 0.1781372120137E+01
 0.1699972341898E+01
 0.9731016365185E+00
 0.1155644280141E+01
 0.1335361277067E+01
 0.1496817863998E+01
 0.1634579999261E+01
 0.1747408088185E+01
 0.1835762182557E+01
 0.1901008493827E+01
 0.1944904966072E+01
 0.1969189606115E+01
 0.1975763304679E+01
 0.1966685880730E+01
 0.1943077204155E+01
 0.1908561024054E+01
 0.1866953141294E+01
 0.1817240409892E+01
 0.1758328700457E+01
 0.1689570142636E+01
 0.1617022052119E+01
 0.1533038612660E+01
 0.1006743186500E+01
 0.1179876278285E+01
 0.1349274276768E+01
 0.1497125537482E+01
 0.1617990666031E+01
 0.1711636949807E+01
 0.1779597342483E+01
 0.1824131170405E+01
 0.1847691805617E+01
 0.1852567376513E+01
 0.1841139988892E+01
 0.1815695899809E+01
 0.1777623189830E+01
 0.1731752708453E+01
 0.1683088628275E+01
 0.1630790251966E+01
 0.1573887772104E+01
 0.1511921651214E+01
 0.1444618723712E+01
 0.1355861716881E+01
 0.1041449296082E+01
 0.1206461843257E+01
 0.1365874042388E+01
 0.1499359087557E+01
 0.1601856346152E+01
 0.1674603086579E+01
 0.1720581669612E+01
 0.1743198586509E+01
 0.1745731866284E+01
 0.1731034937080E+01
 0.1701883451765E+01
 0.1660644623373E+01
 0.1608993348635E+01
 0.1553001122445E+01
 0.1498612792145E+01
 0.1444820008235E+01
 0.1390156144825E+01
 0.1332083900229E+01
 0.1266582923347E+01
 0.1181093613073E+01
 0.1077585249393E+01
 0.1236080155376E+01
 0.1385689424923E+01
 0.1503618680178E+01
 0.1585844138173E+01
 0.1635718127737E+01
 0.1658093284194E+01
 0.1657752650418E+01
 0.1638874468921E+01
 0.1604832767179E+01
 0.1558693917734E+01
 0.1502762082726E+01
 0.1438955711929E+01
 0.1374451410968E+01
 0.1315690878030E+01
 0.1261113190505E+01
 0.1208198684195E+01
 0.1152819075335E+01
 0.1090227201304E+01
 0.1012484915838E+01
 0.1115617957757E+01
 0.1269465703736E+01
 0.1409127114162E+01
 0.1509727660514E+01
 0.1569262660068E+01
 0.1594019018366E+01
 0.1591173759039E+01
 0.1567073066424E+01
 0.1526798647818E+01
 0.1474132233048E+01
 0.1412270773724E+01
 0.1343282456993E+01
 0.1269229715501E+01
 0.1198154836709E+01
 0.1136523971719E+01
 0.1081955159102E+01
 0.1030957945730E+01
 0.9785833077993E+00
 0.9204344345763E+00
 0.8523404366795E+00
 0.1156146362899E+01
 0.1307403182447E+01
 0.1436412212768E+01
 0.1517129753324E+01
 0.1550957776860E+01
 0.1548101438281E+01
 0.1518511806296E+01
 0.1470206214284E+01
 0.1409069642447E+01
 0.1339081700676E+01
 0.1263338168618E+01
 0.1183459936496E+01
 0.1101523747761E+01
 0.1026170283709E+01
 0.9634639092659E+00
 0.9101132065074E+00
 0.8618495237532E+00
 0.8133452435094E+00
 0.7608206243675E+00
 0.7025917917702E+00
 0.1199936107608E+01
 0.1350711109241E+01
 0.1467494794109E+01
 0.1524763774691E+01
 0.1529206374883E+01
 0.1496065774430E+01
 0.1438451028652E+01
 0.1366022178941E+01
 0.1285217448635E+01
 0.1199881037529E+01
 0.1112697488428E+01
 0.1024599721566E+01
 0.9375498451144E+00
 0.8605319039877E+00
 0.7988589671088E+00
 0.7483134983697E+00
 0.7039855785101E+00
 0.6603764368063E+00
 0.6142068223299E+00
 0.5651723462767E+00
 0.1247960600104E+01
 0.1400205390196E+01
 0.1501915698609E+01
 0.1530903839612E+01
 0.1501601198155E+01
 0.1435482032908E+01
 0.1349035524999E+01
 0.1253314744338E+01
 0.1154853746288E+01
 0.1056882640167E+01
 0.9612932683868E+00
 0.8680832356543E+00
 0.7789996716992E+00
 0.7031505536290E+00
 0.6448273796689E+00
 0.5989062708087E+00
 0.5599148111153E+00
 0.5222491998395E+00
 0.4828862017056E+00
 0.4420349571067E+00
 0.1301450272167E+01
 0.1456631928413E+01
 0.1538611772789E+01
 0.1532951861166E+01
 0.1464928028364E+01
 0.1363389462676E+01
 0.1248115729540E+01
 0.1130963474374E+01
 0.1017834303771E+01
 0.9107148253919E+00
 0.8102808558993E+00
 0.7153800304469E+00
 0.6275023495305E+00
 0.5557128110657E+00
 0.5031037575460E+00
 0.4637051144587E+00
 0.4315295747977E+00
 0.4008696566365E+00
 0.3686949802754E+00
 0.3350613367484E+00
 0.1361952168581E+01
 0.1520547552724E+01
 0.1575628545786E+01
 0.1527166089399E+01
 0.1415047281768E+01
 0.1276363742488E+01
 0.1133549424183E+01
 0.9981779704588E+00
 0.8744671415170E+00
 0.7624139799627E+00
 0.6610799347854E+00
 0.5680407754147E+00
 0.4845763895586E+00
 0.4196090539598E+00
 0.3749601283388E+00
 0.3439237144544E+00
 0.3200410514727E+00
 0.2974836531697E+00
 0.2729819234267E+00
 0.2459184956468E+00
 0.1431400279974E+01
 0.1592110330423E+01
 0.1609687217704E+01
 0.1508308792444E+01
 0.1346814713152E+01
 0.1170713392166E+01
 0.1003548274343E+01
 0.8548400929295E+00
 0.7257506499504E+00
 0.6135363643022E+00
 0.5153897403041E+00
 0.4276609768751E+00
 0.3515786024646E+00
 0.2958918018569E+00
 0.2611834392554E+00
 0.2401735910537E+00
 0.2259874281044E+00
 0.2126680222699E+00
 0.1965323262531E+00
 0.1758955553559E+00
 0.1512192370122E+01
 0.1670704130673E+01
 0.1635517997572E+01
 0.1469206819822E+01
 0.1254125899226E+01
 0.1042914635044E+01
 0.8572313245014E+00
 0.7019368195071E+00
 0.5735922679327E+00
 0.4661981758407E+00
 0.3751344706855E+00
 0.2958052446354E+00
 0.2296507794863E+00
 0.1852630095263E+00
 0.1621000157898E+00
 0.1525087925617E+00
 0.1492728065429E+00
 0.1463306425849E+00
 0.1394925029013E+00
 0.1257479170149E+00
 0.1607254833768E+01
 0.1754246718662E+01
 0.1644813360278E+01
 0.1400262032981E+01
 0.1130275937204E+01
 0.8904602445078E+00
 0.6954308599535E+00
 0.5420093382929E+00
 0.4209044345998E+00
 0.3229734147501E+00
 0.2423145767171E+00
 0.1738950812943E+00
 0.1196779411479E+00
 0.8810628509275E-01
 0.7765531471847E-01
 0.8051650975934E-01
 0.8924116881496E-01
 0.9774370406714E-01
 0.1013389843069E+00
 0.9560240849864E-01
 0.1720037393796E+01
 0.1837860387459E+01
 0.1624560915544E+01
 0.1289097414697E+01
 0.9690418852727E+00
 0.7133691480392E+00
 0.5216778848650E+00
 0.3794108880273E+00
 0.2714126816629E+00
 0.1865980918163E+00
 0.1187766431700E+00
 0.6310926653007E-01
 0.2250113767613E-01
 0.6178332693013E-02
 0.8330567143046E-02
 0.2350206234728E-01
 0.4478924419560E-01
 0.6563784199446E-01
 0.8093242032779E-01
 0.8497636393810E-01
 0.1854240784384E+01
 0.1911172421833E+01
 0.1554394390102E+01
 0.1120961830318E+01
 0.7673504410284E+00
 0.5164813569355E+00
 0.3429746391285E+00
 0.2199274243553E+00
 0.1290607445032E+00
 0.5952730023340E-01
 0.6450138743987E-02
 0.3620449127781E-01
 0.6278519723321E-01
 0.6624810427879E-01
 0.4947152475462E-01
 0.1997784257064E-01
 0.1454647875193E-01
 0.4837538322092E-01
 0.7658483653230E-01
 0.9272666107077E-01
 0.2012743477842E+01
 0.1952341760119E+01
 0.1402588269170E+01
 0.8820474910337E+00
 0.5307967128560E+00
 0.3121007765886E+00
 0.1689162451385E+00
 0.6949704747708E-01
 0.2836029001135E-02
 0.5659264310466E-01
 0.9554265492004E-01
 0.1229864653347E+00
 0.1346356984661E+00
 0.1234095629298E+00
 0.9276029258904E-01
 0.4998999150869E-01
 0.3986864596512E-02
 0.4405203211257E-01
 0.8595792187103E-01
 0.1168330916351E+00
 0.2192729233026E+01
 0.1913355109176E+01
 0.1121895443754E+01
 0.5714497684361E+00
 0.2842861944749E+00
 0.1173274676928E+00
 0.8925353945189E-02
 0.6738439805406E-01
 0.1222022370469E+00
 0.1609549964899E+00
 0.1854170410344E+00
 0.1979244010868E+00
 0.1938508124697E+00
 0.1675889131420E+00
 0.1231201897422E+00
 0.6763723432049E-01
 0.1069045804415E-01
 0.5032747809506E-01
 0.1059999999328E+00
 0.1545178789056E+00
 0.2371285212842E+01
 0.1674483533293E+01
 0.6575218963847E+00
 0.2501036318271E+00
 0.6098301210548E-01
 0.5471867978669E-01
 0.1324339569356E+00
 0.1883963708680E+00
 0.2284070641826E+00
 0.2540074167193E+00
 0.2646604874081E+00
 0.2616495839041E+00
 0.2404569725026E+00
 0.1984145808282E+00
 0.1402260393712E+00
 0.7305031869864E-01
 0.1029098434754E-01
 0.6474278495227E-01
 0.1328911568596E+00
 0.2023995628374E+00
 0.2293937209468E+01
 0.8747132219465E+00
 0.1742201282510E+00
 0.1368612418422E-01
 0.1234380094258E+00
 0.1972272764602E+00
 0.2521964542462E+00
 0.2934410525258E+00
 0.3217431112691E+00
 0.3366584663342E+00
 0.3359414819063E+00
 0.3158558611315E+00
 0.2735801054107E+00
 0.2142540846620E+00
 0.1432191572421E+00
 0.6622892265618E-01
 0.1700690082899E-01
 0.8690784107616E-01
 0.1616360308544E+00
 0.2548412814678E+00
 0.2369203186788E+01
 0.2192210974014E+01
 0.2013629779860E+01
 0.1832190578915E+01
 0.1646503476577E+01
 0.1457875617855E+01
 0.1268495381471E+01
 0.1081129823829E+01
 0.8989849258882E+00
 0.7256726051052E+00
 0.5651827290534E+00
 0.4218211034219E+00
 0.3000740165622E+00
 0.2043540604276E+00
 0.1385891878123E+00
 0.1057126812533E+00
 0.1070761249973E+00
 0.1413068824445E+00
 0.2038411639904E+00
 0.2918417986598E+00
 0.2546767248011E+01
 0.2394336047027E+01
 0.2220906692704E+01
 0.2037918003825E+01
 0.1848864329353E+01
 0.1655169371076E+01
 0.1458427142321E+01
 0.1260728477525E+01
 0.1064789908216E+01
 0.8739988346260E+00
 0.6924455838428E+00
 0.5249338490962E+00
 0.3769419059742E+00
 0.2544820243518E+00
 0.1637762672754E+00
 0.1106972919440E+00
 0.1001503801873E+00
 0.1345704764805E+00
 0.2117722117918E+00
 0.3256230753024E+00
 0.2727753302932E+01
 0.2587954758431E+01
 0.2429432917731E+01
 0.2255420924751E+01
 0.2070656625202E+01
 0.1877754146312E+01
 0.1678558817811E+01
 0.1474950525015E+01
 0.1269227305463E+01
 0.1064335557216E+01
 0.8640332305431E+00
 0.6730303200325E+00
 0.4971121284164E+00
 0.3432213753545E+00
 0.2194293309311E+00
 0.1346565274393E+00
 0.9812195209713E-01
 0.1184094475195E+00
 0.1985609736408E+00
 0.3314800200000E+00
 0.2914276922722E+01
 0.2785730132840E+01
 0.2640978926129E+01
 0.2480217277691E+01
 0.2305699292847E+01
 0.2119769344637E+01
 0.1924239865255E+01
 0.1720766107012E+01
 0.1511205904625E+01
 0.1297903481541E+01
 0.1083934457153E+01
 0.8733488098781E+00
 0.6714412338212E+00
 0.4850648017341E+00
 0.3229797153359E+00
 0.1961631089075E+00
 0.1178959129765E+00
 0.1038156662378E+00
 0.1690432930961E+00
 0.3159483885179E+00
 0.3103099797791E+01
 0.2986982831554E+01
 0.2856521220648E+01
 0.2710676681087E+01
 0.2550154437611E+01
 0.2376255530620E+01
 0.2190303775808E+01
 0.1993544756517E+01
 0.1787314950905E+01
 0.1573257295650E+01
 0.1353551013037E+01
 0.1131171053526E+01
 0.9102112210710E+00
 0.6963178618805E+00
 0.4972944060276E+00
 0.3239485342408E+00
 0.1912350673981E+00
 0.1198404402114E+00
 0.1391956822595E+00
 0.2802593466312E+00
 0.3291128411328E+01
 0.3189006896622E+01
 0.3073789708904E+01
 0.2944203654456E+01
 0.2800087646397E+01
 0.2641938876266E+01
 0.2470485704746E+01
 0.2286514448038E+01
 0.2090875690109E+01
 0.1884591511846E+01
 0.1669008109373E+01
 0.1445990685138E+01
 0.1218185758148E+01
 0.9894022215200E+00
 0.7652005868121E+00
 0.5538488603136E+00
 0.3679514222278E+00
 0.2274117439171E+00
 0.1660333922573E+00
 0.2473088497045E+00
 0.3475344674282E+01
 0.3388411181741E+01
 0.3289305104126E+01
 0.3176879180030E+01
 0.3050626350985E+01
 0.2910558010660E+01
 0.2756979638008E+01
 0.2590338891914E+01
 0.2411181928617E+01
 0.2220186876216E+01
 0.2018247847678E+01
 0.1806598827483E+01
 0.1586989210194E+01
 0.1361945621355E+01
 0.1135188575041E+01
 0.9123392428891E+00
 0.7021972931946E+00
 0.5192971151018E+00
 0.3896183865579E+00
 0.3702339728581E+00
 0.3653005383793E+01
 0.3581881633635E+01
 0.3499329730491E+01
 0.3404415190057E+01
 0.3296533922282E+01
 0.3175447159628E+01
 0.3041190913518E+01
 0.2893985213367E+01
 0.2734189778129E+01
 0.2562309542150E+01
 0.2379038063147E+01
 0.2185330311357E+01
 0.1982504116406E+01
 0.1772378873462E+01
 0.1557470265706E+01
 0.1341271683713E+01
 0.1128673413491E+01
 0.9265516399331E+00
 0.7446272990835E+00
 0.5931332020825E+00
 0.3821623054837E+01
 0.3766335617947E+01
 0.3700274116763E+01
 0.3622652613691E+01
 0.3532834792242E+01
 0.3430416907193E+01
 0.3315209131200E+01
 0.3187189239017E+01
 0.3046467437220E+01
 0.2893272600706E+01
 0.2727955622419E+01
 0.2550999644959E+01
 0.2363024243360E+01
 0.2164764794420E+01
 0.1956992297142E+01
 0.1740298677794E+01
 0.1514562640514E+01
 0.1277615521616E+01
 0.1021495710489E+01
 0.7199368185265E+00
 0.3978914635097E+01
 0.3938893534668E+01
 0.3888711101228E+01
 0.3827605864669E+01
 0.3754875338473E+01
 0.3669943785726E+01
 0.3572367512768E+01
 0.3461808815937E+01
 0.3338001677116E+01
 0.3200717113930E+01
 0.3049724083218E+01
 0.2884733291789E+01
 0.2705302611309E+01
 0.2510669169028E+01
 0.2299446849275E+01
 0.2069073718655E+01
 0.1814780691088E+01
 0.1527612193273E+01
 0.1190530790053E+01
 0.7737836949522E+00
 0.4122881246370E+01
 0.4097101522256E+01
 0.4061708074576E+01
 0.4015861658930E+01
 0.3958728872247E+01
 0.3889518014325E+01
 0.3807481847378E+01
 0.3711894139488E+01
 0.3602009695450E+01
 0.3477010777277E+01
 0.3335934672808E+01
 0.3177569319346E+01
 0.3000295162335E+01
 0.2801839295617E+01
 0.2578889192758E+01
 0.2326485255917E+01
 0.2037081383590E+01
 0.1699181838146E+01
 0.1296085889876E+01
 0.8082859314301E+00
 0.4251795555947E+01
 0.4238917996832E+01
 0.4216872216261E+01
 0.4184679810605E+01
 0.4141320649496E+01
 0.4085743210655E+01
 0.4016856108354E+01
 0.3933499583237E+01
 0.3834398942020E+01
 0.3718099396545E+01
 0.3582877036271E+01
 0.3426615550897E+01
 0.3246633107368E+01
 0.3039438704218E+01
 0.2800394265022E+01
 0.2523266277168E+01
 0.2199696430344E+01
 0.1818821329273E+01
 0.1367907251469E+01
 0.8374242764156E+00
 0.4364202251329E+01
 0.4362674421236E+01
 0.4352308530425E+01
 0.4331955873768E+01
 0.4300377468854E+01
 0.4256237435480E+01
 0.4198084204848E+01
 0.4124316732963E+01
 0.4033134987399E+01
 0.3922473147704E+01
 0.3789911894349E+01
 0.3632564126853E+01
 0.3446927567124E+01
 0.3228699750990E+01
 0.2972560181735E+01
 0.2671951096140E+01
 0.2318959651503E+01
 0.1904575763900E+01
 0.1420057799377E+01
 0.8632470610804E+00
 0.4458913019853E+01
 0.4467042258247E+01
 0.4466557936947E+01
 0.4456132072621E+01
 0.4434299254616E+01
 0.4399439621741E+01
 0.4349753470253E+01
 0.4283225404530E+01
 0.4197577168698E+01
 0.4090208367877E+01
 0.3958123994501E+01
 0.3797848000732E+01
 0.3605324310726E+01
 0.3375812605868E+01
 0.3103799488451E+01
 0.2782973216336E+01
 0.2406364787533E+01
 0.1966876794584E+01
 0.1458895954374E+01
 0.8855078767246E+00
 0.4534991903111E+01
 0.4550998863391E+01
 0.4558534154331E+01
 0.4556099188409E+01
 0.4542016074290E+01
 0.4514404494719E+01
 0.4471153392158E+01
 0.4409886586701E+01
 0.4327922391934E+01
 0.4222227884884E+01
 0.4089369209889E+01
 0.3925460831828E+01
 0.3726119912454E+01
 0.3486438260560E+01
 0.3200995592605E+01
 0.2863957426438E+01
 0.2469338066909E+01
 0.2011618680074E+01
 0.1487461376239E+01
 0.9037029228543E+00
 0.4591736529641E+01
 0.4613794206034E+01
 0.4627466924728E+01
 0.4631108967561E+01
 0.4622861434443E+01
 0.4600625766232E+01
 0.4562035058750E+01
 0.4504423437027E+01
 0.4424794656918E+01
 0.4319791973380E+01
 0.4185672431428E+01
 0.4018290492830E+01
 0.3813098796249E+01
 0.3565178493598E+01
 0.3269319002710E+01
 0.2920179939198E+01
 0.2512599850000E+01
 0.2042236699375E+01
 0.1507352633361E+01
 0.9174817690650E+00
 0.4628658084450E+01
 0.4654918170732E+01
 0.4672850748317E+01
 0.4680698397763E+01
 0.4676466134714E+01
 0.4657893120680E+01
 0.4622424804753E+01
 0.4567186608774E+01
 0.4488961200696E+01
 0.4384172365067E+01
 0.4248879605950E+01
 0.4078789045454E+01
 0.3869288081364E+01
 0.3615513938265E+01
 0.3312470631704E+01
 0.2955218979351E+01
 0.2539197371541E+01
 0.2060866456837E+01
 0.1519561045540E+01
 0.9267049831215E+00
 0.4645463840876E+01
 0.4674073209780E+01
 0.4694403668940E+01
 0.4704630569051E+01
 0.4702677384526E+01
 0.4686186252790E+01
 0.4652490956366E+01
 0.4598593930101E+01
 0.4521149801370E+01
 0.4416458974375E+01
 0.4280475783790E+01
 0.4108836749137E+01
 0.3896915479217E+01
 0.3639912052002E+01
 0.3332987515078E+01
 0.2971463623688E+01
 0.2551143667448E+01
 0.2068956637440E+01
 0.1524861646816E+01
 0.9314593348352E+00
 0.4642044308656E+01
 0.4671154445301E+01
 0.4692037925528E+01
 0.4702853487264E+01
 0.4701503753605E+01
 0.4685604584404E+01
 0.4652458237305E+01
 0.4599031717720E+01
 0.4521942846369E+01
 0.4417457682038E+01
 0.4281503894874E+01
 0.4109705493396E+01
 0.3897444940132E+01
 0.3639959418364E+01
 0.3332480312086E+01
 0.2970434394800E+01
 0.2549762150314E+01
 0.2067559444204E+01
 0.1523997680920E+01
 0.9321090372965E+00
 0.4618466727103E+01
 0.4646239012051E+01
 0.4665843827469E+01
 0.4675477695345E+01
 0.4673085814094E+01
 0.4656330627882E+01
 0.4622564512802E+01
 0.4568807153964E+01
 0.4491729920518E+01
 0.4387650687465E+01
 0.4252543588446E+01
 0.4082069132487E+01
 0.3871630988720E+01
 0.3616466786984E+01
 0.3311782857090E+01
 0.2952952234013E+01
 0.2535831332842E+01
 0.2057398669530E+01
 0.1517657324151E+01
 0.9292917788129E+00
 0.4574973302484E+01
 0.4599581221925E+01
 0.4616082375197E+01
 0.4622765776185E+01
 0.4617681257509E+01
 0.4598609344626E+01
 0.4563033139936E+01
 0.4508112780909E+01
 0.4430664301990E+01
 0.4327145839911E+01
 0.4193655280121E+01
 0.4025944795859E+01
 0.3819459392374E+01
 0.3569408788206E+01
 0.3270885779386E+01
 0.2919054037314E+01
 0.2509462310427E+01
 0.2038681283396E+01
 0.1506167397041E+01
 0.9235828035471E+00
 0.4511978020844E+01
 0.4531607086765E+01
 0.4543179064166E+01
 0.4545122890212E+01
 0.4535648686661E+01
 0.4512720615594E+01
 0.4474028343344E+01
 0.4416957654740E+01
 0.4338561348594E+01
 0.4235532412779E+01
 0.4104182658552E+01
 0.3940431756367E+01
 0.3739814307327E+01
 0.3497516691600E+01
 0.3208461849187E+01
 0.2867472088295E+01
 0.2469572536071E+01
 0.2010625427792E+01
 0.1489138217845E+01
 0.9150967834845E+00
 0.4430078436492E+01
 0.4442934170510E+01
 0.4447751649150E+01
 0.4443134486151E+01
 0.4427497284082E+01
 0.4399042569275E+01
 0.4355733035300E+01
 0.4295258947959E+01
 0.4215000835912E+01
 0.4111988037317E+01
 0.3982854568523E+01
 0.3823795559677E+01
 0.3630530863367E+01
 0.3398288421705E+01
 0.3121830225675E+01
 0.2795561041824E+01
 0.2413795474843E+01
 0.1971373767051E+01
 0.1465397194894E+01
 0.9033256634353E+00
 0.4330071346415E+01
 0.4334400266321E+01
 0.4330654162903E+01
 0.4317631620931E+01
 0.4293980778877E+01
 0.4258182094894E+01
 0.4208523519570E+01
 0.4143067087208E+01
 0.4059605850961E+01
 0.3955609939201E+01
 0.3828160655438E+01
 0.3673872546459E+01
 0.3488806191761E+01
 0.3268380886731E+01
 0.3007309438203E+01
 0.2699602895632E+01
 0.2338740772246E+01
 0.1918215055607E+01
 0.1433148119030E+01
 0.8874876844360E+00
 0.4212967447325E+01
 0.4207090502605E+01
 0.4193020659173E+01
 0.4169755857393E+01
 0.4136188880668E+01
 0.4091098313216E+01
 0.4033129666685E+01
 0.3960765089441E+01
 0.3872279614314E+01
 0.3765680991117E+01
 0.3638629091775E+01
 0.3488330152520E+01
 0.3311401632416E+01
 0.3103707121896E+01
 0.2860171943243E+01
 0.2574617941990E+01
 0.2239724310760E+01
 0.1847365564381E+01
 0.1390007013193E+01
 0.8669232995625E+00
 0.4080007282259E+01
 0.4062366543185E+01
 0.4036312713122E+01
 0.4001030695877E+01
 0.3955649124066E+01
 0.3899241938442E+01
 0.3830818746122E+01
 0.3749302295249E+01
 0.3653490824752E+01
 0.3542001396445E+01
 0.3413187857791E+01
 0.3265024040464E+01
 0.3094939480775E+01
 0.2899592331621E+01
 0.2674565282111E+01
 0.2413985678997E+01
 0.2110127655462E+01
 0.1753261216948E+01
 0.1332527766631E+01
 0.8410003249861E+00
 0.3932675930481E+01
 0.3901895379467E+01
 0.3862368450744E+01
 0.3813438610243E+01
 0.3754441437845E+01
 0.3684718860496E+01
 0.3603621238812E+01
 0.3510496436583E+01
 0.3404664822941E+01
 0.3285377018682E+01
 0.3151747565007E+01
 0.3002652598518E+01
 0.2836572500774E+01
 0.2651350298800E+01
 0.2443822461040E+01
 0.2209262008004E+01
 0.1940573449074E+01
 0.1627266325608E+01
 0.1254980881850E+01
 0.8087083636156E+00
 0.3772712621718E+01
 0.3727672641656E+01
 0.3673446855475E+01
 0.3609495864523E+01
 0.3535315960555E+01
 0.3450467443429E+01
 0.3354588868959E+01
 0.3247398569717E+01
 0.3128685706545E+01
 0.2998290638278E+01
 0.2856070107296E+01
 0.2701836861978E+01
 0.2535254715375E+01
 0.2355655807697E+01
 0.2161721304760E+01
 0.1950919246361E+01
 0.1718503451507E+01
 0.1455728869792E+01
 0.1146818801880E+01
 0.7674561398189E+00
 0.3602109819293E+01
 0.3542032734346E+01
 0.3472256746261E+01
 0.3392310436164E+01
 0.3301794249577E+01
 0.3200424150536E+01
 0.3088054801951E+01
 0.2964689054723E+01
 0.2830482190793E+01
 0.2685745919948E+01
 0.2530952406063E+01
 0.2366733695164E+01
 0.2193865703623E+01
 0.2013215295045E+01
 0.1825607222050E+01
 0.1631519050552E+01
 0.1430393406609E+01
 0.1219050520678E+01
 0.9876649269502E+00
 0.7090385027034E+00
 0.3423094761543E+01
 0.3347635462502E+01
 0.3261956044993E+01
 0.3165601775936E+01
 0.3058223023976E+01
 0.2939634820476E+01
 0.2809840021286E+01
 0.2669035229865E+01
 0.2517617801175E+01
 0.2356204915088E+01
 0.2185669992779E+01
 0.2007199056765E+01
 0.1822369220125E+01
 0.1633251823532E+01
 0.1442541541135E+01
 0.1253704355206E+01
 0.1071105667363E+01
 0.8999392166738E+00
 0.7453325486500E+00
 0.6045784412701E+00
 0.3238088348549E+01
 0.3147424269738E+01
 0.3046109969490E+01
 0.2933658100280E+01
 0.2809737518203E+01
 0.2674244398462E+01
 0.2527307495705E+01
 0.2369273465412E+01
 0.2200702776516E+01
 0.2022390892100E+01
 0.1835421433796E+01
 0.1641257863749E+01
 0.1441886287177E+01
 0.1240034690248E+01
 0.1039517224284E+01
 0.8457977384714E+00
 0.6669656444462E+00
 0.5155862525074E+00
 0.4127044457532E+00
 0.4004912478849E+00
 0.3049633709640E+01
 0.2944545966014E+01
 0.2828582089961E+01
 0.2701179746390E+01
 0.2562051938581E+01
 0.2411243182731E+01
 0.2249090394597E+01
 0.2076174710515E+01
 0.1893305396951E+01
 0.1701548517870E+01
 0.1502303334104E+01
 0.1297432466364E+01
 0.1089463831766E+01
 0.8819030864481E+00
 0.6797314292624E+00
 0.4902318413320E+00
 0.3244229303817E+00
 0.1996968711142E+00
 0.1459135002940E+00
 0.2267754226975E+00
 0.2860291676282E+01
 0.2742206277930E+01
 0.2613271200583E+01
 0.2472835338887E+01
 0.2320765176696E+01
 0.2157417815158E+01
 0.1983519910284E+01
 0.1800079856732E+01
 0.1608373428332E+01
 0.1410001911809E+01
 0.1207013529665E+01
 0.1002089044376E+01
 0.7988082948775E+00
 0.6020352509886E+00
 0.4184881691738E+00
 0.2576020071256E+00
 0.1327918364679E+00
 0.6258915893734E-01
 0.7547111082762E-01
 0.2181921176959E+00
 0.2672538277585E+01
 0.2543454177947E+01
 0.2403689267600E+01
 0.2252572112724E+01
 0.2090323970131E+01
 0.1917835420629E+01
 0.1736412037603E+01
 0.1547645600317E+01
 0.1353420273951E+01
 0.1156012151971E+01
 0.9582517975720E+00
 0.7637384530526E+00
 0.5771127903932E+00
 0.4044056890554E+00
 0.2534824727840E+00
 0.1345615741469E+00
 0.6031626575469E-01
 0.4455631119963E-01
 0.1101687275454E+00
 0.2696369432949E+00
 0.2488635822156E+01
 0.2350885455525E+01
 0.2202549946945E+01
 0.2043143872875E+01
 0.1873558429687E+01
 0.1695454697649E+01
 0.1510828325128E+01
 0.1321877537702E+01
 0.1131060819904E+01
 0.9412448513547E+00
 0.7558814736201E+00
 0.5791964100031E+00
 0.4163845355658E+00
 0.2737999824696E+00
 0.1590894708080E+00
 0.8101729891791E-01
 0.4827077596291E-01
 0.7156814755001E-01
 0.1596455954953E+00
 0.3088157505823E+00
 0.2310714421233E+01
 0.2166754813756E+01
 0.2011931665851E+01
 0.1846430208538E+01
 0.1672277464784E+01
 0.1492070089349E+01
 0.1308442649690E+01
 0.1124033712551E+01
 0.9416686170277E+00
 0.7645484850321E+00
 0.5964054064411E+00
 0.4416163579108E+00
 0.3052663037462E+00
 0.1931251000741E+00
 0.1114242580905E+00
 0.6618353957073E-01
 0.6311830194514E-01
 0.1078127335007E+00
 0.1995563367899E+00
 0.3316235344994E+00
 0.2140788308725E+01
 0.1992809837670E+01
 0.1832993957812E+01
 0.1663270559507E+01
 0.1487296821920E+01
 0.1308538254391E+01
 0.1129897172041E+01
 0.9541110969416E+00
 0.7840647494860E+00
 0.6229761780840E+00
 0.4744856297265E+00
 0.3426642720473E+00
 0.2319373688310E+00
 0.1468801479310E+00
 0.9180635898590E-01
 0.7036583272983E-01
 0.8579634880017E-01
 0.1388297504571E+00
 0.2260236679338E+00
 0.3410918186779E+00
 0.1980574533223E+01
 0.1829579884131E+01
 0.1665275186394E+01
 0.1493105653113E+01
 0.1318612086869E+01
 0.1145128178788E+01
 0.9752002129059E+00
 0.8113070753603E+00
 0.6561406548786E+00
 0.5126943025983E+00
 0.3842415386229E+00
 0.2742379431778E+00
 0.1861415891715E+00
 0.1231308888238E+00
 0.8777097452811E-01
 0.8195211475577E-01
 0.1065319989059E+00
 0.1600439511166E+00
 0.2390345929765E+00
 0.3386809785661E+00
 0.1831130201535E+01
 0.1674810324981E+01
 0.1505625712245E+01
 0.1335096952874E+01
 0.1166871383243E+01
 0.1002776283308E+01
 0.8447070444933E+00
 0.6948489320625E+00
 0.5556828895874E+00
 0.4298976203576E+00
 0.3202672826213E+00
 0.2294908620749E+00
 0.1599840966862E+00
 0.1136370811546E+00
 0.9164943556946E-01
 0.9447954222742E-01
 0.1213830216269E+00
 0.1701645204542E+00
 0.2382234812791E+00
 0.3234522605698E+00
 0.1687325816691E+01
 0.1516088164408E+01
 0.1352063400117E+01
 0.1192341895977E+01
 0.1035931208356E+01
 0.8843092226031E+00
 0.7396129636609E+00
 0.6042384550351E+00
 0.4806297855635E+00
 0.3711635076901E+00
 0.2780372833328E+00
 0.2031389464113E+00
 0.1478933049138E+00
 0.1131216039302E+00
 0.9897522991656E-01
 0.1048376105361E+00
 0.1290693033929E+00
 0.1691692676970E+00
 0.2223810222106E+00
 0.2888947461584E+00
</DataArray>
<CellData Tensors="'E_Centroid','S_Centroid'">
<DataArray type="Float64" Name="E_Centroid" NumberOfComponents="4" ComponentName0="E11" ComponentName1="E22" ComponentName2="E33" ComponentName3="E12" format="ascii">
 0.8060931806147E-03 -0.6301350907398E-02  0.0000000000000E+00 -0.2197719645131E-02
 0.1374996900579E-02 -0.5092920728983E-02  0.0000000000000E+00 -0.1336725487799E-03
 0.1142597635084E-02 -0.4655771889666E-02  0.0000000000000E+00 -0.1183801492980E-03
 0.1125068019275E-02 -0.4488386278820E-02  0.0000000000000E+00 -0.4189527991819E-04
 0.1102560174923E-02 -0.4415682931170E-02  0.0000000000000E+00 -0.1153415642122E-04
 0.1100338569596E-02 -0.4401750611155E-02  0.0000000000000E+00  0.8530768035135E-05
 0.1105791218129E-02 -0.4424143110882E-02  0.0000000000000E+00  0.2203150360060E-04
 0.1118026755091E-02 -0.4472649145617E-02  0.0000000000000E+00  0.3227566055617E-04
 0.1135237809347E-02 -0.4541455822993E-02  0.0000000000000E+00  0.4070483492864E-04
 0.1156758461501E-02 -0.4627502757065E-02  0.0000000000000E+00  0.4824477781541E-04
 0.1182214743298E-02 -0.4729361786113E-02  0.0000000000000E+00  0.5550088613976E-04
 0.1211547438796E-02 -0.4846767995369E-02  0.0000000000000E+00  0.6293941386684E-04
 0.1244921869755E-02 -0.4980387607645E-02  0.0000000000000E+00  0.7096921412714E-04
 0.1282719576826E-02 -0.5131755454241E-02  0.0000000000000E+00  0.8000908957524E-04
 0.1325555741962E-02 -0.5303342388383E-02  0.0000000000000E+00  0.9054932586305E-04
 0.1374340718067E-02 -0.5498824892221E-02  0.0000000000000E+00  0.1032722547104E-03
 0.1430418105740E-02 -0.5723657888634E-02  0.0000000000000E+00  0.1192764957111E-03
 0.1495952717580E-02 -0.5986529567469E-02  0.0000000000000E+00  0.1406553619499E-03
 0.1573759156518E-02 -0.6303536565633E-02  0.0000000000000E+00  0.1756989975635E-03
 0.1666109746920E-02 -0.6699609945341E-02  0.0000000000000E+00  0.2591058792995E-03
 0.1770993459474E-02 -0.7170174944486E-02  0.0000000000000E+00  0.4476728319365E-03
 0.1879061047497E-02 -0.7669272000450E-02  0.0000000000000E+00  0.7713526062130E-03
 0.1978946510383E-02 -0.8156064615980E-02  0.0000000000000E+00  0.1214639618361E-02
 0.2063888428486E-02 -0.8614334141694E-02  0.0000000000000E+00  0.1744502594389E-02
 0.2131973449120E-02 -0.9045041948781E-02  0.0000000000000E+00  0.2333912187459E-02
 0.2183519862815E-02 -0.9455672766570E-02  0.0000000000000E+00  0.2968699570800E-02
 0.2218812397331E-02 -0.9853472312220E-02  0.0000000000000E+00  0.3645837588687E-02
 0.2236764754781E-02 -0.1024239694300E-01  0.0000000000000E+00  0.4369721414545E-02
 0.2234197641208E-02 -0.1062118039293E-01  0.0000000000000E+00  0.5148510609660E-02
 0.2207070081247E-02 -0.1098018659642E-01  0.0000000000000E+00  0.5984176375982E-02
 0.2155124755377E-02 -0.1130941737532E-01  0.0000000000000E+00  0.6861294146349E-02
 0.2082117392970E-02 -0.1162179103660E-01  0.0000000000000E+00  0.7768562430044E-02
 0.1989563515938E-02 -0.1194362749119E-01  0.0000000000000E+00  0.8724280042966E-02
 0.1873592511646E-02 -0.1229593438306E-01  0.0000000000000E+00  0.9768327455112E-02
 0.1726954124361E-02 -0.1270251646409E-01  0.0000000000000E+00  0.1096130140635E-01
 0.1525644417860E-02 -0.1319567043576E-01  0.0000000000000E+00  0.1239575471915E-01
 0.1264687082979E-02 -0.1383219592726E-01  0.0000000000000E+00  0.1425048138902E-01
 0.7159736058229E-03 -0.1465697307462E-01  0.0000000000000E+00  0.1679841006923E-01
 0.4096190588251E-03 -0.1596194682528E-01  0.0000000000000E+00  0.2090701586742E-01
-0.5006197330206E-02 -0.1627237493000E-01  0.0000000000000E+00  0.2855412256390E-01
 0.1462446269762E-01 -0.1904069096057E-01  0.0000000000000E+00  0.3264972352933E-01
 0.5527402508953E-03 -0.5522526845518E-02  0.0000000000000E+00 -0.2422689148739E-02
 0.1179956650374E-02 -0.5293184384853E-02  0.0000000000000E+00 -0.1062197317300E-02
 0.1201593442864E-02 -0.4853396790075E-02  0.0000000000000E+00 -0.3356989550379E-03
 0.1146294693712E-02 -0.4659065286353E-02  0.0000000000000E+00 -0.1693660377925E-03
 0.1135347925951E-02 -0.4570402590997E-02  0.0000000000000E+00 -0.5598451927012E-04
 0.1129882958647E-02 -0.4541396767367E-02  0.0000000000000E+00  0.8342804712569E-05
 0.1134271059972E-02 -0.4551996296817E-02  0.0000000000000E+00  0.5307587884079E-04
 0.1144719289130E-02 -0.4590748092207E-02  0.0000000000000E+00  0.8640285266300E-04
 0.1160336820677E-02 -0.4651447999765E-02  0.0000000000000E+00  0.1136242806082E-03
 0.1180316253141E-02 -0.4730625129126E-02  0.0000000000000E+00  0.1376772377595E-03
 0.1204317333069E-02 -0.4826565807949E-02  0.0000000000000E+00  0.1605538145399E-03
 0.1232244176720E-02 -0.4938777504094E-02  0.0000000000000E+00  0.1837444176869E-03
 0.1264225204063E-02 -0.5067739764445E-02  0.0000000000000E+00  0.2085416505608E-03
 0.1300588774164E-02 -0.5214820782912E-02  0.0000000000000E+00  0.2362442611230E-03
 0.1341872163252E-02 -0.5382327867336E-02  0.0000000000000E+00  0.2683738652981E-03
 0.1388849650706E-02 -0.5573730968332E-02  0.0000000000000E+00  0.3070147840343E-03
 0.1442609960910E-02 -0.5794160596833E-02  0.0000000000000E+00  0.3554679937004E-03
 0.1504403551577E-02 -0.6051430061581E-02  0.0000000000000E+00  0.4205124372531E-03
 0.1573066459245E-02 -0.6356177933718E-02  0.0000000000000E+00  0.5184978617281E-03
 0.1644312827524E-02 -0.6715446625985E-02  0.0000000000000E+00  0.6750935745273E-03
 0.1715455016416E-02 -0.7120083765714E-02  0.0000000000000E+00  0.9141070292323E-03
 0.1785498295216E-02 -0.7544810125279E-02  0.0000000000000E+00  0.1247361100181E-02
 0.1851166197941E-02 -0.7964524824833E-02  0.0000000000000E+00  0.1670455343676E-02
 0.1907704794431E-02 -0.8365411383882E-02  0.0000000000000E+00  0.2167637719530E-02
 0.1951363093828E-02 -0.8744092836656E-02  0.0000000000000E+00  0.2722235710875E-02
 0.1979713065481E-02 -0.9102369318489E-02  0.0000000000000E+00  0.3322741875509E-02
 0.1990804240613E-02 -0.9442731628943E-02  0.0000000000000E+00  0.3963761105657E-02
 0.1982213987611E-02 -0.9765585730211E-02  0.0000000000000E+00  0.4644242760017E-02
 0.1951317248036E-02 -0.1006782257781E-01  0.0000000000000E+00  0.5363454110216E-02
 0.1897629346462E-02 -0.1034384405966E-01  0.0000000000000E+00  0.6117077740820E-02
 0.1822097000491E-02 -0.1059012919104E-01  0.0000000000000E+00  0.6900657364418E-02
 0.1722513333185E-02 -0.1080903769717E-01  0.0000000000000E+00  0.7715674221484E-02
 0.1592670192128E-02 -0.1100684715625E-01  0.0000000000000E+00  0.8572324182525E-02
 0.1423262419201E-02 -0.1118782402275E-01  0.0000000000000E+00  0.9492797954269E-02
 0.1196148975478E-02 -0.1134925768856E-01  0.0000000000000E+00  0.1051236979830E-01
 0.8863889977008E-03 -0.1147801834353E-01  0.0000000000000E+00  0.1167844406810E-01
 0.4110540959159E-03 -0.1152718321906E-01  0.0000000000000E+00  0.1305218560151E-01
-0.2207268660521E-03 -0.1140932581609E-01  0.0000000000000E+00  0.1462068125014E-01
-0.1749847694688E-02 -0.1063603606884E-01  0.0000000000000E+00  0.1651607683368E-01
-0.2299572857124E-02 -0.8458441993984E-02  0.0000000000000E+00  0.1308211931773E-01
 0.1705418268838E-01 -0.1166889529386E-01  0.0000000000000E+00  0.9902974523079E-02
 0.4015493847815E-03 -0.5157427723087E-02  0.0000000000000E+00 -0.2340003813401E-02
 0.9854402143045E-03 -0.5213615195406E-02  0.0000000000000E+00 -0.1464675918244E-02
 0.1164383014403E-02 -0.4986479837149E-02  0.0000000000000E+00 -0.6431108103951E-03
 0.1157773109899E-02 -0.4795850060862E-02  0.0000000000000E+00 -0.2913071673960E-03
 0.1151394193257E-02 -0.4704177989408E-02  0.0000000000000E+00 -0.1153774561004E-03
 0.1151257542250E-02 -0.4667477654560E-02  0.0000000000000E+00 -0.1851685938789E-05
 0.1156142274365E-02 -0.4669890623290E-02  0.0000000000000E+00  0.7493826519565E-04
 0.1166400437313E-02 -0.4700995724279E-02  0.0000000000000E+00  0.1327960657955E-03
 0.1181137014479E-02 -0.4754736104105E-02  0.0000000000000E+00  0.1798604025624E-03
 0.1199957709621E-02 -0.4827606984079E-02  0.0000000000000E+00  0.2212973802740E-03
 0.1222593641779E-02 -0.4917772240536E-02  0.0000000000000E+00  0.2604801425811E-03
 0.1248984751532E-02 -0.5024593920328E-02  0.0000000000000E+00  0.2999594511087E-03
 0.1279234591968E-02 -0.5148388365832E-02  0.0000000000000E+00  0.3419262515146E-03
 0.1313602864434E-02 -0.5290333478639E-02  0.0000000000000E+00  0.3885651944028E-03
 0.1352490983118E-02 -0.5452486123352E-02  0.0000000000000E+00  0.4424093160173E-03
 0.1396416048819E-02 -0.5637926771876E-02  0.0000000000000E+00  0.5068602143865E-03
 0.1445906457570E-02 -0.5851046562723E-02  0.0000000000000E+00  0.5872518480816E-03
 0.1500508334035E-02 -0.6097538614982E-02  0.0000000000000E+00  0.6934960225778E-03
 0.1556308424867E-02 -0.6382109549030E-02  0.0000000000000E+00  0.8417147071284E-03
 0.1607256199791E-02 -0.6703893294456E-02  0.0000000000000E+00  0.1047704086867E-02
 0.1651477707817E-02 -0.7053744496605E-02  0.0000000000000E+00  0.1319698360213E-02
 0.1691515236419E-02 -0.7416466683299E-02  0.0000000000000E+00  0.1660548871988E-02
 0.1728216141734E-02 -0.7776528744863E-02  0.0000000000000E+00  0.2069299546721E-02
 0.1758804217136E-02 -0.8122962976249E-02  0.0000000000000E+00  0.2539367988900E-02
 0.1779155842216E-02 -0.8450394255331E-02  0.0000000000000E+00  0.3060941438840E-02
 0.1785479038760E-02 -0.8756998792299E-02  0.0000000000000E+00  0.3624780613102E-02
 0.1774530568356E-02 -0.9041839942338E-02  0.0000000000000E+00  0.4223938912326E-02
 0.1743403284928E-02 -0.9302862092336E-02  0.0000000000000E+00  0.4853037560162E-02
 0.1690324632392E-02 -0.9536349152120E-02  0.0000000000000E+00  0.5506072834506E-02
 0.1615827529510E-02 -0.9738301945429E-02  0.0000000000000E+00  0.6176934913943E-02
 0.1520112270813E-02 -0.9905338864438E-02  0.0000000000000E+00  0.6863781783599E-02
 0.1398439417072E-02 -0.1003337480476E-01  0.0000000000000E+00  0.7568539134609E-02
 0.1241589120803E-02 -0.1011682768376E-01  0.0000000000000E+00  0.8293104231319E-02
 0.1036972077892E-02 -0.1014588376642E-01  0.0000000000000E+00  0.9040236773298E-02
 0.7674254043001E-03 -0.1009985251669E-01  0.0000000000000E+00  0.9810018450246E-02
 0.4019693769094E-03 -0.9935998262486E-02  0.0000000000000E+00  0.1058701960353E-01
-0.8417588543713E-04 -0.9572932335002E-02  0.0000000000000E+00  0.1127749722591E-01
-0.7480523342825E-03 -0.8847293301964E-02  0.0000000000000E+00  0.1166454274838E-01
-0.1433415105739E-02 -0.7389816375307E-02  0.0000000000000E+00  0.1038912637947E-01
 0.1566866597099E-02 -0.6334615217861E-02  0.0000000000000E+00  0.4433402843964E-02
 0.1695910908762E-01 -0.9430719513126E-02  0.0000000000000E+00  0.4203051761663E-02
 0.3110482206873E-03 -0.4962253282507E-02  0.0000000000000E+00 -0.2203012096448E-02
 0.8316496486519E-03 -0.5113747555368E-02  0.0000000000000E+00 -0.1612708987911E-02
 0.1088371368389E-02 -0.5038648524177E-02  0.0000000000000E+00 -0.8711690223590E-03
 0.1144438852338E-02 -0.4902443486348E-02  0.0000000000000E+00 -0.4207748024374E-03
 0.1155819360965E-02 -0.4817013041119E-02  0.0000000000000E+00 -0.1755522643483E-03
 0.1163209684215E-02 -0.4779630229791E-02  0.0000000000000E+00 -0.1906208718708E-04
 0.1171546334062E-02 -0.4777506848320E-02  0.0000000000000E+00  0.9028867215797E-04
 0.1182837915167E-02 -0.4803088194127E-02  0.0000000000000E+00  0.1727880031748E-03
 0.1197512610547E-02 -0.4851074153826E-02  0.0000000000000E+00  0.2401831019051E-03
 0.1215560393130E-02 -0.4918249411390E-02  0.0000000000000E+00  0.2994323642397E-03
 0.1236951439122E-02 -0.5002824870500E-02  0.0000000000000E+00  0.3552816280376E-03
 0.1261700235238E-02 -0.5104098226493E-02  0.0000000000000E+00  0.4112985383047E-03
 0.1289906356138E-02 -0.5222248864648E-02  0.0000000000000E+00  0.4705493596196E-03
 0.1321746625077E-02 -0.5358243294747E-02  0.0000000000000E+00  0.5360642910017E-03
 0.1357438548383E-02 -0.5513811399442E-02  0.0000000000000E+00  0.6113020815338E-03
 0.1397141312227E-02 -0.5691484221386E-02  0.0000000000000E+00  0.7007960202142E-03
 0.1440578221568E-02 -0.5894546683943E-02  0.0000000000000E+00  0.8113598485433E-03
 0.1485738765342E-02 -0.6126158278857E-02  0.0000000000000E+00  0.9536556400859E-03
 0.1527390365753E-02 -0.6386851626738E-02  0.0000000000000E+00  0.1140609792124E-02
 0.1559608610388E-02 -0.6672405887883E-02  0.0000000000000E+00  0.1380558512429E-02
 0.1581507318805E-02 -0.6974762920804E-02  0.0000000000000E+00  0.1673949756990E-02
 0.1597093733594E-02 -0.7284234461917E-02  0.0000000000000E+00  0.2019105290457E-02
 0.1609210847641E-02 -0.7590948393825E-02  0.0000000000000E+00  0.2415758317971E-02
 0.1616609290261E-02 -0.7886372263054E-02  0.0000000000000E+00  0.2861677038171E-02
 0.1615516237818E-02 -0.8164433510596E-02  0.0000000000000E+00  0.3351123378527E-02
 0.1601704071173E-02 -0.8421138074195E-02  0.0000000000000E+00  0.3876425043516E-02
 0.1571422081061E-02 -0.8653259091831E-02  0.0000000000000E+00  0.4429504358483E-02
 0.1521808321204E-02 -0.8857179607124E-02  0.0000000000000E+00  0.5001947823209E-02
 0.1451675875808E-02 -0.9028777697331E-02  0.0000000000000E+00  0.5584698203701E-02
 0.1361636912030E-02 -0.9164075392002E-02  0.0000000000000E+00  0.6170134632555E-02
 0.1251148639065E-02 -0.9258328579381E-02  0.0000000000000E+00  0.6754789420863E-02
 0.1114920977076E-02 -0.9303294884704E-02  0.0000000000000E+00  0.7335945104786E-02
 0.9436573201066E-03 -0.9286425405298E-02  0.0000000000000E+00  0.7905287117736E-02
 0.7265420814076E-03 -0.9189414983143E-02  0.0000000000000E+00  0.8445321848302E-02
 0.4512366717029E-03 -0.8982414897153E-02  0.0000000000000E+00  0.8921077390594E-02
 0.1092201808787E-03 -0.8615724900592E-02  0.0000000000000E+00  0.9249778302762E-02
-0.2849809564372E-03 -0.8013612306670E-02  0.0000000000000E+00  0.9244754580757E-02
-0.6244317555998E-03 -0.7062899624585E-02  0.0000000000000E+00  0.8417324080402E-02
-0.9850445719637E-04 -0.5878073990404E-02  0.0000000000000E+00  0.5514532387354E-02
 0.4393511476182E-02 -0.5893282979800E-02  0.0000000000000E+00  0.3964384264625E-03
 0.1605272337540E-01 -0.8360156716994E-02  0.0000000000000E+00  0.2345077611288E-02
 0.2541501037789E-03 -0.4853121648486E-02  0.0000000000000E+00 -0.2061279981305E-02
 0.7154450804589E-03 -0.5035461715065E-02  0.0000000000000E+00 -0.1639096913995E-02
 0.1004112159612E-02 -0.5052568314338E-02  0.0000000000000E+00 -0.1009877523304E-02
 0.1112021617693E-02 -0.4977673783162E-02  0.0000000000000E+00 -0.5317504558539E-03
 0.1148569604302E-02 -0.4911194200646E-02  0.0000000000000E+00 -0.2336942248210E-03
 0.1166731821783E-02 -0.4878020870833E-02  0.0000000000000E+00 -0.3825441588569E-04
 0.1180434707316E-02 -0.4874871062172E-02  0.0000000000000E+00  0.1011879727704E-03
 0.1194077444063E-02 -0.4896929478733E-02  0.0000000000000E+00  0.2078049222671E-03
 0.1209415261403E-02 -0.4940351264204E-02  0.0000000000000E+00  0.2953435426229E-03
 0.1227087137678E-02 -0.5002453763943E-02  0.0000000000000E+00  0.3724305144203E-03
 0.1247361442121E-02 -0.5081650479452E-02  0.0000000000000E+00  0.4449782154199E-03
 0.1270383338587E-02 -0.5177250138881E-02  0.0000000000000E+00  0.5174981049676E-03
 0.1296263223535E-02 -0.5289321890925E-02  0.0000000000000E+00  0.5938626282276E-03
 0.1325087648876E-02 -0.5418605912982E-02  0.0000000000000E+00  0.6778666777798E-03
 0.1356858219748E-02 -0.5566446588946E-02  0.0000000000000E+00  0.7737551379043E-03
 0.1391305107663E-02 -0.5734703423149E-02  0.0000000000000E+00  0.8869108457139E-03
 0.1427329190485E-02 -0.5925378835782E-02  0.0000000000000E+00  0.1024806931675E-02
 0.1461841052313E-02 -0.6139398206571E-02  0.0000000000000E+00  0.1197272655315E-02
 0.1489268814720E-02 -0.6374731292253E-02  0.0000000000000E+00  0.1413499950169E-02
 0.1504486305212E-02 -0.6625908308753E-02  0.0000000000000E+00  0.1676692059941E-02
 0.1507435645665E-02 -0.6886078200792E-02  0.0000000000000E+00  0.1983306622948E-02
 0.1502642095477E-02 -0.7148755248926E-02  0.0000000000000E+00  0.2329316281931E-02
 0.1493840407237E-02 -0.7407450355813E-02  0.0000000000000E+00  0.2714106729778E-02
 0.1480876574451E-02 -0.7655487262630E-02  0.0000000000000E+00  0.3137128610226E-02
 0.1460638318386E-02 -0.7886766032207E-02  0.0000000000000E+00  0.3594717919776E-02
 0.1429062197641E-02 -0.8096124171401E-02  0.0000000000000E+00  0.4080049726438E-02
 0.1382458557090E-02 -0.8278944805019E-02  0.0000000000000E+00  0.4584174660862E-02
 0.1318292087148E-02 -0.8430659216102E-02  0.0000000000000E+00  0.5096638488667E-02
 0.1235789203016E-02 -0.8546725491278E-02  0.0000000000000E+00  0.5606311854712E-02
 0.1135500506229E-02 -0.8622617345160E-02  0.0000000000000E+00  0.6103565300367E-02
 0.1016720658810E-02 -0.8652229842108E-02  0.0000000000000E+00  0.6581269230120E-02
 0.8750010357669E-03 -0.8624963419846E-02  0.0000000000000E+00  0.7030046681071E-02
 0.7034930784053E-03 -0.8525017141044E-02  0.0000000000000E+00  0.7430612907568E-02
 0.4964162791070E-03 -0.8331021322683E-02  0.0000000000000E+00  0.7747164658456E-02
 0.2537289934172E-03 -0.8013041637393E-02  0.0000000000000E+00  0.7913895908326E-02
-0.5613076330270E-05 -0.7531358566420E-02  0.0000000000000E+00  0.7804710532567E-02
-0.2060386507402E-03 -0.6843494196240E-02  0.0000000000000E+00  0.7170842228434E-02
-0.6454790168653E-04 -0.5966589304286E-02  0.0000000000000E+00  0.5508988516472E-02
 0.1389387104043E-02 -0.5281522348359E-02  0.0000000000000E+00  0.2217252952314E-02
 0.6203842463924E-02 -0.5872007634721E-02  0.0000000000000E+00 -0.1392692421663E-02
 0.1508415209032E-01 -0.7735861761332E-02  0.0000000000000E+00  0.1513330382398E-02
 0.2164315501449E-03 -0.4793013722036E-02  0.0000000000000E+00 -0.1925816788120E-02
 0.6278014538296E-03 -0.4981928335589E-02  0.0000000000000E+00 -0.1605938418188E-02
 0.9242795608476E-03 -0.5052630857403E-02  0.0000000000000E+00 -0.1079651139471E-02
 0.1068928485156E-02 -0.5029718440151E-02  0.0000000000000E+00 -0.6128816533475E-03
 0.1131280140316E-02 -0.4988224727664E-02  0.0000000000000E+00 -0.2839580336816E-03
 0.1162645467510E-02 -0.4963681151051E-02  0.0000000000000E+00 -0.5643251519777E-04
 0.1183194090141E-02 -0.4962249564775E-02  0.0000000000000E+00  0.1098604085511E-03
 0.1200248563929E-02 -0.4982623226435E-02  0.0000000000000E+00  0.2390871371745E-03
 0.1216913228921E-02 -0.5022583019286E-02  0.0000000000000E+00  0.3460863176618E-03
 0.1234570460061E-02 -0.5080217672026E-02  0.0000000000000E+00  0.4406321349638E-03
 0.1253857892452E-02 -0.5154256301349E-02  0.0000000000000E+00  0.5296037821300E-03
 0.1275085686330E-02 -0.5244085928512E-02  0.0000000000000E+00  0.6183182420109E-03
 0.1298392089425E-02 -0.5349690954038E-02  0.0000000000000E+00  0.7113545160856E-03
 0.1323772435515E-02 -0.5471578850794E-02  0.0000000000000E+00  0.8131558028358E-03
 0.1350998203870E-02 -0.5610672425866E-02  0.0000000000000E+00  0.9285750033481E-03
 0.1379362520513E-02 -0.5768099520016E-02  0.0000000000000E+00  0.1063487056863E-02
 0.1407084154841E-02 -0.5944622216402E-02  0.0000000000000E+00  0.1225293969253E-02
 0.1430482825934E-02 -0.6139460723945E-02  0.0000000000000E+00  0.1422224937868E-02
 0.1444214723605E-02 -0.6349150599325E-02  0.0000000000000E+00  0.1660106791159E-02
 0.1444116257032E-02 -0.6567948117921E-02  0.0000000000000E+00  0.1938733201243E-02
 0.1430753702877E-02 -0.6790064175250E-02  0.0000000000000E+00  0.2252503723858E-02
 0.1408736279696E-02 -0.7010955487544E-02  0.0000000000000E+00  0.2596128596577E-02
 0.1382136167135E-02 -0.7226194439626E-02  0.0000000000000E+00  0.2968261131104E-02
 0.1351579674512E-02 -0.7430471347533E-02  0.0000000000000E+00  0.3368599967485E-02
 0.1314723841754E-02 -0.7617984522266E-02  0.0000000000000E+00  0.3794228788866E-02
 0.1268033963088E-02 -0.7783076583669E-02  0.0000000000000E+00  0.4238578272096E-02
 0.1208254031690E-02 -0.7920404002792E-02  0.0000000000000E+00  0.4691979066085E-02
 0.1133349006523E-02 -0.8024866434565E-02  0.0000000000000E+00  0.5142544595625E-02
 0.1042955788467E-02 -0.8091569351263E-02  0.0000000000000E+00  0.5577454753040E-02
 0.9377824251875E-03 -0.8115444679748E-02  0.0000000000000E+00  0.5984666537575E-02
 0.8176452249198E-03 -0.8089563826108E-02  0.0000000000000E+00  0.6352642465567E-02
 0.6800797160879E-03 -0.8002552125749E-02  0.0000000000000E+00  0.6664998094279E-02
 0.5223995629262E-03 -0.7838308336192E-02  0.0000000000000E+00  0.6892433170646E-02
 0.3466404021669E-03 -0.7576964580813E-02  0.0000000000000E+00  0.6984438605956E-02
 0.1682070590863E-03 -0.7195614719179E-02  0.0000000000000E+00  0.6855300262707E-02
 0.3587726909933E-04 -0.6673980106286E-02  0.0000000000000E+00  0.6358578593966E-02
 0.8585198179081E-04 -0.6018567174390E-02  0.0000000000000E+00  0.5246445125584E-02
 0.6904957212600E-03 -0.5352069197966E-02  0.0000000000000E+00  0.3173914861006E-02
 0.2707189887679E-02 -0.5102687955965E-02  0.0000000000000E+00  0.1227842992941E-03
 0.7320088332887E-02 -0.5926451320149E-02  0.0000000000000E+00 -0.2159026853549E-02
 0.1423099384348E-01 -0.7334159025234E-02  0.0000000000000E+00  0.9939485762321E-03
 0.1901576520096E-03 -0.4763008219972E-02  0.0000000000000E+00 -0.1798578701559E-02
 0.5608550350823E-03 -0.4949047635132E-02  0.0000000000000E+00 -0.1543260543720E-02
 0.8531125265833E-03 -0.5050145707880E-02  0.0000000000000E+00 -0.1101263266377E-02
 0.1021478587490E-02 -0.5066931070740E-02  0.0000000000000E+00 -0.6635614842054E-03
 0.1106575378611E-02 -0.5050839453144E-02  0.0000000000000E+00 -0.3221108070919E-03
 0.1151965302129E-02 -0.5037783295553E-02  0.0000000000000E+00 -0.7109870304474E-04
 0.1180369473824E-02 -0.5040215970768E-02  0.0000000000000E+00  0.1180649329431E-03
 0.1201619356669E-02 -0.5060422506191E-02  0.0000000000000E+00  0.2677796394960E-03
 0.1220156539099E-02 -0.5097903981498E-02  0.0000000000000E+00  0.3930821423833E-03
 0.1238113150810E-02 -0.5151627334360E-02  0.0000000000000E+00  0.5043634823650E-03
 0.1256532623803E-02 -0.5220725663021E-02  0.0000000000000E+00  0.6091982393174E-03
 0.1275914654704E-02 -0.5304714414612E-02  0.0000000000000E+00  0.7135454581874E-03
 0.1296439488427E-02 -0.5403517643452E-02  0.0000000000000E+00  0.8225608619427E-03
 0.1318018007190E-02 -0.5517413039882E-02  0.0000000000000E+00  0.9411961527367E-03
 0.1340199591444E-02 -0.5646891809240E-02  0.0000000000000E+00  0.1074708259280E-02
 0.1361891688163E-02 -0.5792362866410E-02  0.0000000000000E+00  0.1229109350215E-02
 0.1380835426708E-02 -0.5953522341837E-02  0.0000000000000E+00  0.1411222714056E-02
 0.1393149006517E-02 -0.6128403432200E-02  0.0000000000000E+00  0.1627442926064E-02
 0.1394006369730E-02 -0.6312831308596E-02  0.0000000000000E+00  0.1880849456841E-02
 0.1380171104373E-02 -0.6501228626555E-02  0.0000000000000E+00  0.2169003315559E-02
 0.1352664706517E-02 -0.6688677148631E-02  0.0000000000000E+00  0.2485249642227E-02
 0.1315995487084E-02 -0.6871855086608E-02  0.0000000000000E+00  0.2823582855282E-02
 0.1274312224377E-02 -0.7047623354952E-02  0.0000000000000E+00  0.3181803488431E-02
 0.1228817253392E-02 -0.7211682771496E-02  0.0000000000000E+00  0.3559113727379E-02
 0.1177956044647E-02 -0.7358682607999E-02  0.0000000000000E+00  0.3952521595843E-02
 0.1118927483659E-02 -0.7482912527136E-02  0.0000000000000E+00  0.4355287186697E-02
 0.1049140890619E-02 -0.7578774225560E-02  0.0000000000000E+00  0.4757092978168E-02
 0.9671954047835E-03 -0.7640958592816E-02  0.0000000000000E+00  0.5144955439066E-02
 0.8732526070823E-03 -0.7664395840742E-02  0.0000000000000E+00  0.5504529684146E-02
 0.7685196247660E-03 -0.7643762960377E-02  0.0000000000000E+00  0.5821240956521E-02
 0.6539689447762E-03 -0.7572007940947E-02  0.0000000000000E+00  0.6079201699765E-02
 0.5299516248721E-03 -0.7438338156797E-02  0.0000000000000E+00  0.6255768925549E-02
 0.3990706073813E-03 -0.7228609721541E-02  0.0000000000000E+00  0.6313742867222E-02
 0.2725201434852E-03 -0.6927794138531E-02  0.0000000000000E+00  0.6193301794552E-02
 0.1815672391635E-03 -0.6524066846319E-02  0.0000000000000E+00  0.5800705346552E-02
 0.2019899173553E-03 -0.6020394400441E-02  0.0000000000000E+00  0.4993284699579E-02
 0.5094760277806E-03 -0.5467458038415E-02  0.0000000000000E+00  0.3576699771831E-02
 0.1483688127372E-02 -0.5038429539744E-02  0.0000000000000E+00  0.1406459046499E-02
 0.3779693588343E-02 -0.5098252547841E-02  0.0000000000000E+00 -0.1170579210523E-02
 0.7999163211830E-02 -0.5975062107171E-02  0.0000000000000E+00 -0.2469035757599E-02
 0.1351635377691E-01 -0.7059506133773E-02  0.0000000000000E+00  0.5934677717122E-03
 0.1710197061324E-03 -0.4752462347808E-02  0.0000000000000E+00 -0.1679219893642E-02
 0.5087784326931E-03 -0.4932102680808E-02  0.0000000000000E+00 -0.1466160316215E-02
 0.7912460443568E-03 -0.5049836246355E-02  0.0000000000000E+00 -0.1090471695516E-02
 0.9735889111269E-03 -0.5095424576855E-02  0.0000000000000E+00 -0.6877089520671E-03
 0.1077046799013E-02 -0.5102185182720E-02  0.0000000000000E+00 -0.3464980280182E-03
 0.1135905584676E-02 -0.5101728769155E-02  0.0000000000000E+00 -0.8041036276314E-04
 0.1172603548009E-02 -0.5109503783164E-02  0.0000000000000E+00  0.1271601520183E-03
 0.1198556773350E-02 -0.5130720263315E-02  0.0000000000000E+00  0.2948412013912E-03
 0.1219369563669E-02 -0.5166546664951E-02  0.0000000000000E+00  0.4369232535941E-03
 0.1237877813051E-02 -0.5216849537425E-02  0.0000000000000E+00  0.5639194530619E-03
 0.1255530319087E-02 -0.5281211352073E-02  0.0000000000000E+00  0.6838044903450E-03
 0.1273028101098E-02 -0.5359311232770E-02  0.0000000000000E+00  0.8029942529945E-03
 0.1290605177322E-02 -0.5451034417245E-02  0.0000000000000E+00  0.9270739617823E-03
 0.1308101946468E-02 -0.5556441211927E-02  0.0000000000000E+00  0.1061349620323E-02
 0.1324875595647E-02 -0.5675608554310E-02  0.0000000000000E+00  0.1211274703130E-02
 0.1339536811826E-02 -0.5808296874845E-02  0.0000000000000E+00  0.1382701809081E-02
 0.1349556433513E-02 -0.5953360952254E-02  0.0000000000000E+00  0.1581585644966E-02
 0.1351126855034E-02 -0.6108072978703E-02  0.0000000000000E+00  0.1812540626323E-02
 0.1340063119650E-02 -0.6267992514355E-02  0.0000000000000E+00  0.2076506851386E-02
 0.1313954666672E-02 -0.6427894470055E-02  0.0000000000000E+00  0.2369589447371E-02
 0.1274158191386E-02 -0.6583562288632E-02  0.0000000000000E+00  0.2684603065167E-02
 0.1225021217406E-02 -0.6732473157711E-02  0.0000000000000E+00  0.3015102918065E-02
 0.1170664511438E-02 -0.6872323143431E-02  0.0000000000000E+00  0.3358029991440E-02
 0.1112744599660E-02 -0.6999582918925E-02  0.0000000000000E+00  0.3711732431526E-02
 0.1050477909894E-02 -0.7109422465374E-02  0.0000000000000E+00  0.4072668160203E-02
 0.9819003410683E-03 -0.7196364043468E-02  0.0000000000000E+00  0.4433650503045E-02
 0.9052263340447E-03 -0.7254888984781E-02  0.0000000000000E+00  0.4783743088775E-02
 0.8198052242276E-03 -0.7279750135033E-02  0.0000000000000E+00  0.5109055572989E-02
 0.7264886907856E-03 -0.7265948015419E-02  0.0000000000000E+00  0.5393857029724E-02
 0.6273283308452E-03 -0.7208297216284E-02  0.0000000000000E+00  0.5621203579759E-02
 0.5249495967225E-03 -0.7100308811659E-02  0.0000000000000E+00  0.5771443535206E-02
 0.4230412360284E-03 -0.6932848953484E-02  0.0000000000000E+00  0.5817081220580E-02
 0.3299755829854E-03 -0.6695302012545E-02  0.0000000000000E+00  0.5715905142411E-02
 0.2661289842267E-03 -0.6379389386669E-02  0.0000000000000E+00  0.5404669700639E-02
 0.2768426323273E-03 -0.5985758755760E-02  0.0000000000000E+00  0.4792710525433E-02
 0.4572028471510E-03 -0.5538760827333E-02  0.0000000000000E+00  0.3760849582984E-02
 0.9967690446191E-03 -0.5117668103719E-02  0.0000000000000E+00  0.2192275739431E-02
 0.2233214032924E-02 -0.4901443966485E-02  0.0000000000000E+00  0.1131510364571E-03
 0.4622007475378E-02 -0.5158906567829E-02  0.0000000000000E+00 -0.1955451012031E-02
 0.8408572199682E-02 -0.6006344711341E-02  0.0000000000000E+00 -0.2577359604959E-02
 0.1292203668642E-01 -0.6864700057264E-02  0.0000000000000E+00  0.2584375463490E-03
 0.1565141923893E-03 -0.4754966433179E-02  0.0000000000000E+00 -0.1566882846580E-02
 0.4674421919323E-03 -0.4927145957376E-02  0.0000000000000E+00 -0.1382484917697E-02
 0.7379213476003E-03 -0.5053339323782E-02  0.0000000000000E+00 -0.1058284926885E-02
 0.9274147923457E-03 -0.5119167807581E-02  0.0000000000000E+00 -0.6904165421289E-03
 0.1044804074907E-02 -0.5145119211888E-02  0.0000000000000E+00 -0.3573707990258E-03
 0.1115713551084E-02 -0.5157038743791E-02  0.0000000000000E+00 -0.8334592107220E-04
 0.1160602325952E-02 -0.5170948194002E-02  0.0000000000000E+00  0.1381276969892E-03
 0.1191491798509E-02 -0.5194008727901E-02  0.0000000000000E+00  0.3210242244770E-03
 0.1214836172370E-02 -0.5228826262963E-02  0.0000000000000E+00  0.4781062315381E-03
 0.1234077861630E-02 -0.5276120233238E-02  0.0000000000000E+00  0.6195567965806E-03
 0.1251041747704E-02 -0.5335928180865E-02  0.0000000000000E+00  0.7534647960522E-03
 0.1266628270511E-02 -0.5408111699244E-02  0.0000000000000E+00  0.8865090964990E-03
 0.1281134440687E-02 -0.5492535784738E-02  0.0000000000000E+00  0.1024549061820E-02
 0.1294350460751E-02 -0.5589064360606E-02  0.0000000000000E+00  0.1173087553500E-02
 0.1305487421313E-02 -0.5697400796900E-02  0.0000000000000E+00  0.1337584055927E-02
 0.1312963357476E-02 -0.5816761350315E-02  0.0000000000000E+00  0.1523513567141E-02
 0.1314159186326E-02 -0.5945383585340E-02  0.0000000000000E+00  0.1735837620806E-02
 0.1305521420472E-02 -0.6080101623939E-02  0.0000000000000E+00  0.1977577039110E-02
 0.1283537305690E-02 -0.6216475312028E-02  0.0000000000000E+00  0.2248046387994E-02
 0.1246511232609E-02 -0.6349698315544E-02  0.0000000000000E+00  0.2542399647073E-02
 0.1196057853850E-02 -0.6476124439451E-02  0.0000000000000E+00  0.2853192777959E-02
 0.1136366743682E-02 -0.6593780416244E-02  0.0000000000000E+00  0.3173683820306E-02
 0.1071507843398E-02 -0.6700933304705E-02  0.0000000000000E+00  0.3499998914669E-02
 0.1003525250581E-02 -0.6794668845074E-02  0.0000000000000E+00  0.3829493160797E-02
 0.9323764151300E-03 -0.6870709072434E-02  0.0000000000000E+00  0.4157831816167E-02
 0.8569767846060E-03 -0.6923992803241E-02  0.0000000000000E+00  0.4477225613451E-02
 0.7764275001868E-03 -0.6949321183280E-02  0.0000000000000E+00  0.4776140895198E-02
 0.6909273947434E-03 -0.6941743249344E-02  0.0000000000000E+00  0.5039917095686E-02
 0.6021856862393E-03 -0.6896596106428E-02  0.0000000000000E+00  0.5251624778129E-02
 0.5133835471049E-03 -0.6809228761744E-02  0.0000000000000E+00  0.5392336751523E-02
 0.4291252621764E-03 -0.6674295002969E-02  0.0000000000000E+00  0.5439543915230E-02
 0.3566440827198E-03 -0.6485082359263E-02  0.0000000000000E+00  0.5362653804727E-02
 0.3099629743834E-03 -0.6235392879013E-02  0.0000000000000E+00  0.5117580819307E-02
 0.3176301031113E-03 -0.5924334085333E-02  0.0000000000000E+00  0.4643135454005E-02
 0.4356285308996E-03 -0.5564221525837E-02  0.0000000000000E+00  0.3860619163555E-02
 0.7687891844504E-03 -0.5195306282324E-02  0.0000000000000E+00  0.2685783456183E-02
 0.1500053902921E-02 -0.4908949438883E-02  0.0000000000000E+00  0.1079762847955E-02
 0.2904520761303E-02 -0.4864123627620E-02  0.0000000000000E+00 -0.8127049885117E-03
 0.5274290759286E-02 -0.5238368471746E-02  0.0000000000000E+00 -0.2422285184924E-02
 0.8651256740306E-02 -0.6024756498968E-02  0.0000000000000E+00 -0.2596839753316E-02
 0.1242431478546E-01 -0.6723746588064E-02  0.0000000000000E+00 -0.2755919304598E-04
 0.1451264595645E-03 -0.4766455323134E-02  0.0000000000000E+00 -0.1460698528060E-02
 0.4339497361400E-03 -0.4931134643165E-02  0.0000000000000E+00 -0.1296418656224E-02
 0.6919538020214E-03 -0.5060906139033E-02  0.0000000000000E+00 -0.1012180550674E-02
 0.8839912860987E-03 -0.5140579308238E-02  0.0000000000000E+00 -0.6765246395640E-03
 0.1011394764635E-02 -0.5181948054814E-02  0.0000000000000E+00 -0.3560440494774E-03
 0.1092530668034E-02 -0.5205193609327E-02  0.0000000000000E+00 -0.7962404535986E-04
 0.1145087756804E-02 -0.5225435094791E-02  0.0000000000000E+00  0.1515775666824E-03
 0.1180893020462E-02 -0.5250844683974E-02  0.0000000000000E+00  0.3468789185732E-03
 0.1206883167779E-02 -0.5285121987159E-02  0.0000000000000E+00  0.5170241844816E-03
 0.1226967907633E-02 -0.5329733202592E-02  0.0000000000000E+00  0.6714896989936E-03
 0.1243296433214E-02 -0.5385144409780E-02  0.0000000000000E+00  0.8182191228858E-03
 0.1256954886016E-02 -0.5451402809280E-02  0.0000000000000E+00  0.9639657377951E-03
 0.1268309637464E-02 -0.5528368475644E-02  0.0000000000000E+00  0.1114708526858E-02
 0.1277125389325E-02 -0.5615736809897E-02  0.0000000000000E+00  0.1275996846710E-02
 0.1282521894486E-02 -0.5712894245581E-02  0.0000000000000E+00  0.1453135457656E-02
 0.1282827541472E-02 -0.5818630057918E-02  0.0000000000000E+00  0.1651079928318E-02
 0.1275476831164E-02 -0.5930763700863E-02  0.0000000000000E+00  0.1873783335887E-02
 0.1257279069451E-02 -0.6045925274237E-02  0.0000000000000E+00  0.2122902779594E-02
 0.1225377671605E-02 -0.6159830217284E-02  0.0000000000000E+00  0.2396533335694E-02
 0.1178693085434E-02 -0.6268103839190E-02  0.0000000000000E+00  0.2689204026560E-02
 0.1119053014251E-02 -0.6367575263635E-02  0.0000000000000E+00  0.2993351377371E-02
 0.1050522047197E-02 -0.6456674838807E-02  0.0000000000000E+00  0.3302012767782E-02
 0.9771374397897E-03 -0.6534089857162E-02  0.0000000000000E+00  0.3610568624534E-02
 0.9012987334569E-03 -0.6597425954988E-02  0.0000000000000E+00  0.3915365865561E-02
 0.8236722773858E-03 -0.6642971574042E-02  0.0000000000000E+00  0.4211184566279E-02
 0.7440604569532E-03 -0.6666201419549E-02  0.0000000000000E+00  0.4489569092032E-02
 0.6624946581355E-03 -0.6662411654448E-02  0.0000000000000E+00  0.4738426125282E-02
 0.5801008571345E-03 -0.6627147685165E-02  0.0000000000000E+00  0.4942460388371E-02
 0.4995834708468E-03 -0.6556333517479E-02  0.0000000000000E+00  0.5083799312086E-02
 0.4254482313141E-03 -0.6446195963761E-02  0.0000000000000E+00  0.5142068981398E-02
 0.3644265282815E-03 -0.6292959851408E-02  0.0000000000000E+00  0.5092971187060E-02
 0.3272102889314E-03 -0.6092775738152E-02  0.0000000000000E+00  0.4904664998001E-02
 0.3328733367068E-03 -0.5844146495763E-02  0.0000000000000E+00  0.4534148635016E-02
 0.4164128708502E-03 -0.5553192838832E-02  0.0000000000000E+00  0.3926758817975E-02
 0.6402542314007E-03 -0.5241629072090E-02  0.0000000000000E+00  0.3021517844083E-02
 0.1110181101827E-02 -0.4959014991287E-02  0.0000000000000E+00  0.1772422530579E-02
 0.1989697411872E-02 -0.4796099663202E-02  0.0000000000000E+00  0.2059688182523E-03
 0.3488730492726E-02 -0.4881162662451E-02  0.0000000000000E+00 -0.1463799234144E-02
 0.5777643877926E-02 -0.5318517870101E-02  0.0000000000000E+00 -0.2689842969959E-02
 0.8789761520553E-02 -0.6036293478091E-02  0.0000000000000E+00 -0.2576999372526E-02
 0.1200288545528E-01 -0.6621155120913E-02  0.0000000000000E+00 -0.2715425669114E-03
 0.1359055181509E-03 -0.4784244425235E-02  0.0000000000000E+00 -0.1359914025130E-02
 0.4062631711363E-03 -0.4941785020483E-02  0.0000000000000E+00 -0.1210230778209E-02
 0.6521360119550E-03 -0.5072209668101E-02  0.0000000000000E+00 -0.9571977130221E-03
 0.8436942138707E-03 -0.5161063269291E-02  0.0000000000000E+00 -0.6501423309010E-03
 0.9778774791252E-03 -0.5214417795361E-02  0.0000000000000E+00 -0.3442839794613E-03
 0.1067323824948E-02 -0.5247525194415E-02  0.0000000000000E+00 -0.6950753446477E-04
 0.1126752874540E-02 -0.5273848608373E-02  0.0000000000000E+00  0.1677837236366E-03
 0.1167243361431E-02 -0.5301820445348E-02  0.0000000000000E+00  0.3727656150116E-03
 0.1195865111563E-02 -0.5335858587723E-02  0.0000000000000E+00  0.5539681245584E-03
 0.1216833813323E-02 -0.5378028314200E-02  0.0000000000000E+00  0.7198883620887E-03
 0.1232555061364E-02 -0.5429172710023E-02  0.0000000000000E+00  0.8781046161025E-03
 0.1244277852203E-02 -0.5489514603513E-02  0.0000000000000E+00  0.1035271871215E-02
 0.1252441418760E-02 -0.5558921044859E-02  0.0000000000000E+00  0.1197343340310E-02
 0.1256811557334E-02 -0.5636951080690E-02  0.0000000000000E+00  0.1369779549159E-02
 0.1256473231478E-02 -0.5722738818824E-02  0.0000000000000E+00  0.1557604604824E-02
 0.1249757494648E-02 -0.5814762051829E-02  0.0000000000000E+00  0.1765175887634E-02
 0.1234259584341E-02 -0.5910587735104E-02  0.0000000000000E+00  0.1995487391084E-02
 0.1207210891427E-02 -0.6006806915255E-02  0.0000000000000E+00  0.2249060343193E-02
 0.1166373795022E-02 -0.6099379097222E-02  0.0000000000000E+00  0.2523080680444E-02
 0.1111204089171E-02 -0.6184352317682E-02  0.0000000000000E+00  0.2811663965858E-02
 0.1043720188032E-02 -0.6258965568484E-02  0.0000000000000E+00  0.3107198156329E-02
 0.9679072625168E-03 -0.6321969857449E-02  0.0000000000000E+00  0.3402546403310E-02
 0.8878064121093E-03 -0.6372390251126E-02  0.0000000000000E+00  0.3692424420475E-02
 0.8061606246628E-03 -0.6408296776650E-02  0.0000000000000E+00  0.3972225497841E-02
 0.7243145330304E-03 -0.6426551463736E-02  0.0000000000000E+00  0.4235847297733E-02
 0.6429447347668E-03 -0.6423242967604E-02  0.0000000000000E+00  0.4474172886742E-02
 0.5630295077653E-03 -0.6394290766109E-02  0.0000000000000E+00  0.4674614804249E-02
 0.4866728528769E-03 -0.6335900908375E-02  0.0000000000000E+00  0.4821400770299E-02
 0.4176649791249E-03 -0.6244794719514E-02  0.0000000000000E+00  0.4896028881456E-02
 0.3619319263301E-03 -0.6118337370663E-02  0.0000000000000E+00  0.4877295759245E-02
 0.3283151393132E-03 -0.5954587756852E-02  0.0000000000000E+00  0.4740216486963E-02
 0.3306370853787E-03 -0.5752705696685E-02  0.0000000000000E+00  0.4453440608867E-02
 0.3920867927951E-03 -0.5515691909573E-02  0.0000000000000E+00  0.3977536433285E-02
 0.5520255934286E-03 -0.5255617801515E-02  0.0000000000000E+00  0.3267493751322E-02
 0.8751902574535E-03 -0.5000675992577E-02  0.0000000000000E+00  0.2282619749611E-02
 0.1461627702483E-02 -0.4803768236856E-02  0.0000000000000E+00  0.1012652672994E-02
 0.2449290259224E-02 -0.4747079005385E-02  0.0000000000000E+00 -0.4676231378292E-03
 0.3989417740982E-02 -0.4926705744663E-02  0.0000000000000E+00 -0.1912695871842E-02
 0.6166807408992E-02 -0.5393314728580E-02  0.0000000000000E+00 -0.2831150736887E-02
 0.8862395454079E-02 -0.6045420133098E-02  0.0000000000000E+00 -0.2539278327894E-02
 0.1164211832629E-01 -0.6547073111569E-02  0.0000000000000E+00 -0.4782303207890E-03
 0.1282341085502E-03 -0.4806503140935E-02  0.0000000000000E+00 -0.1263908466544E-02
 0.3829365099343E-03 -0.4957395699949E-02  0.0000000000000E+00 -0.1125159953843E-02
 0.6173888289994E-03 -0.5086722492010E-02  0.0000000000000E+00 -0.8967349404633E-03
 0.8065361826613E-03 -0.5181392895734E-02  0.0000000000000E+00 -0.6145769539403E-03
 0.9449352798979E-03 -0.5243801828663E-02  0.0000000000000E+00 -0.3239402339187E-03
 0.1040870299078E-02 -0.5285171401520E-02  0.0000000000000E+00 -0.5360099483395E-04
 0.1106230900567E-02 -0.5317029093164E-02  0.0000000000000E+00  0.1867472397099E-03
 0.1151020080026E-02 -0.5347538760531E-02  0.0000000000000E+00  0.3988753779923E-03
 0.1182150989967E-02 -0.5381489711531E-02  0.0000000000000E+00  0.5891341589570E-03
 0.1203983162607E-02 -0.5421379982942E-02  0.0000000000000E+00  0.7648807134868E-03
 0.1219101899555E-02 -0.5468361052266E-02  0.0000000000000E+00  0.9331559716555E-03
 0.1228889927291E-02 -0.5522811365611E-02  0.0000000000000E+00  0.1100367184547E-02
 0.1233860133055E-02 -0.5584613489490E-02  0.0000000000000E+00  0.1272312096244E-02
 0.1233805482839E-02 -0.5653223819481E-02  0.0000000000000E+00  0.1454247185734E-02
 0.1227829373598E-02 -0.5727590033998E-02  0.0000000000000E+00  0.1650824208113E-02
 0.1214342740087E-02 -0.5805983742677E-02  0.0000000000000E+00  0.1865771020758E-02
 0.1191177296634E-02 -0.5885851505719E-02  0.0000000000000E+00  0.2101205384448E-02
 0.1156013232208E-02 -0.5963859367964E-02  0.0000000000000E+00  0.2356718343267E-02
 0.1107187677747E-02 -0.6036259668017E-02  0.0000000000000E+00  0.2628820296932E-02
 0.1044628935637E-02 -0.6099507383436E-02  0.0000000000000E+00  0.2911352391855E-02
 0.9705385498402E-03 -0.6151208261751E-02  0.0000000000000E+00  0.3196691220264E-02
 0.8888709229594E-03 -0.6190389515996E-02  0.0000000000000E+00  0.3477560042378E-02
 0.8037134936112E-03 -0.6216372467709E-02  0.0000000000000E+00  0.3748096401688E-02
 0.7181513316793E-03 -0.6227661447705E-02  0.0000000000000E+00  0.4002832747384E-02
 0.6341788638662E-03 -0.6221696092902E-02  0.0000000000000E+00  0.4234846503543E-02
 0.5533221489377E-03 -0.6195229731579E-02  0.0000000000000E+00  0.4434414926283E-02
 0.4775019895560E-03 -0.6144897214784E-02  0.0000000000000E+00  0.4588552114629E-02
 0.4098214823202E-03 -0.6067691549030E-02  0.0000000000000E+00  0.4681193166949E-02
 0.3551935967170E-03 -0.5961288950431E-02  0.0000000000000E+00  0.4693557215563E-02
 0.3209653011634E-03 -0.5824360008790E-02  0.0000000000000E+00  0.4604247773880E-02
 0.3179314663663E-03 -0.5656902668096E-02  0.0000000000000E+00  0.4388631108915E-02
 0.3625401415652E-03 -0.5460986000985E-02  0.0000000000000E+00  0.4017337436553E-02
 0.4809751056087E-03 -0.5243559872354E-02  0.0000000000000E+00  0.3456358735661E-02
 0.7148356105974E-03 -0.5021217974406E-02  0.0000000000000E+00  0.2672065388272E-02
 0.1127660461294E-02 -0.4825712986548E-02  0.0000000000000E+00  0.1644004564680E-02
 0.1809441639151E-02 -0.4708730150855E-02  0.0000000000000E+00  0.3919347011295E-03
 0.2871183709210E-02 -0.4739918212329E-02  0.0000000000000E+00 -0.9776584927015E-03
 0.4415336036005E-02 -0.4986326788498E-02  0.0000000000000E+00 -0.2213514636507E-02
 0.6469108328446E-02 -0.5461639328748E-02  0.0000000000000E+00 -0.2891129180354E-02
 0.8893027615642E-02 -0.6054948599188E-02  0.0000000000000E+00 -0.2492730797455E-02
 0.1133030398934E-01 -0.6494882223472E-02  0.0000000000000E+00 -0.6516353014199E-03
 0.1216996895574E-03 -0.4831951167462E-02  0.0000000000000E+00 -0.1172177409941E-02
 0.3629328288586E-03 -0.4976698953085E-02  0.0000000000000E+00 -0.1041876791487E-02
 0.5868026809657E-03 -0.5103888648839E-02  0.0000000000000E+00 -0.8330947757439E-03
 0.7723460160461E-03 -0.5201962381310E-02  0.0000000000000E+00 -0.5724176273998E-03
 0.9129825355176E-03 -0.5271008663877E-02  0.0000000000000E+00 -0.2967527729851E-03
 0.1013772714109E-02 -0.5319073310259E-02  0.0000000000000E+00 -0.3268788510335E-04
 0.1084079777688E-02 -0.5355746994808E-02  0.0000000000000E+00  0.2082691259983E-03
 0.1132679518721E-02 -0.5388592447714E-02  0.0000000000000E+00  0.4252577447397E-03
 0.1166112892690E-02 -0.5422483443503E-02  0.0000000000000E+00  0.6226346062005E-03
 0.1188736586215E-02 -0.5460186388857E-02  0.0000000000000E+00  0.8065564955477E-03
 0.1203237542483E-02 -0.5503083824958E-02  0.0000000000000E+00  0.9834065276965E-03
 0.1211099670924E-02 -0.5551682988405E-02  0.0000000000000E+00  0.1159222739544E-02
 0.1212907872925E-02 -0.5605887372276E-02  0.0000000000000E+00  0.1339537803096E-02
 0.1208505941154E-02 -0.5665083526363E-02  0.0000000000000E+00  0.1529311418568E-02
 0.1197062411933E-02 -0.5728095080692E-02  0.0000000000000E+00  0.1732761872144E-02
 0.1177129206427E-02 -0.5793078560147E-02  0.0000000000000E+00  0.1952989381907E-02
 0.1146824998886E-02 -0.5857462443309E-02  0.0000000000000E+00  0.2191331882136E-02
 0.1104284878204E-02 -0.5918065386028E-02  0.0000000000000E+00  0.2446627188050E-02
 0.1048376715011E-02 -0.5971458080350E-02  0.0000000000000E+00  0.2714885400641E-02
 0.9794536486494E-03 -0.6014486318771E-02  0.0000000000000E+00  0.2989767260784E-02
 0.8999017185503E-03 -0.6045095495803E-02  0.0000000000000E+00  0.3263660223057E-02
 0.8136911748291E-03 -0.6062567898827E-02  0.0000000000000E+00  0.3529178700017E-02
 0.7249975346648E-03 -0.6066503663469E-02  0.0000000000000E+00  0.3779970637817E-02
 0.6372511112743E-03 -0.6055826862023E-02  0.0000000000000E+00  0.4009820159319E-02
 0.5530690531745E-03 -0.6028556734944E-02  0.0000000000000E+00  0.4211082592692E-02
 0.4747940985030E-03 -0.5982142597283E-02  0.0000000000000E+00  0.4373520522243E-02
 0.4052674343014E-03 -0.5913996814963E-02  0.0000000000000E+00  0.4483871450230E-02
 0.3485820129044E-03 -0.5821987072451E-02  0.0000000000000E+00  0.4525982738114E-02
 0.3107578256524E-03 -0.5704844731552E-02  0.0000000000000E+00  0.4481156147491E-02
 0.3004807625223E-03 -0.5562621316962E-02  0.0000000000000E+00  0.4328407466253E-02
 0.3302362418829E-03 -0.5397221976964E-02  0.0000000000000E+00  0.4044357919881E-02
 0.4184857409504E-03 -0.5213340273642E-02  0.0000000000000E+00  0.3602780045237E-02
 0.5932402772117E-03 -0.5021121088066E-02  0.0000000000000E+00  0.2976265667025E-02
 0.8964074164942E-03 -0.4840159636893E-02  0.0000000000000E+00  0.2143056574452E-02
 0.1387684498073E-02 -0.4703251902663E-02  0.0000000000000E+00  0.1101114062676E-02
 0.2144757069250E-02 -0.4657841409171E-02  0.0000000000000E+00 -0.1066788748546E-03
 0.3253131694308E-02 -0.4759845939374E-02  0.0000000000000E+00 -0.1356005265705E-02
 0.4776705882202E-02 -0.5052155457191E-02  0.0000000000000E+00 -0.2405681622516E-02
 0.6705411132878E-02 -0.5524195638756E-02  0.0000000000000E+00 -0.2897635923099E-02
 0.8896837732863E-02 -0.6066498634833E-02  0.0000000000000E+00 -0.2441008311372E-02
 0.1105864548217E-01 -0.6459924906389E-02  0.0000000000000E+00 -0.7953413995210E-03
 0.1160194831943E-03 -0.4859675259618E-02  0.0000000000000E+00 -0.1084311081164E-02
 0.3455003336709E-03 -0.4998747549205E-02  0.0000000000000E+00 -0.9607325733242E-03
 0.5596337604012E-03 -0.5123196787998E-02  0.0000000000000E+00 -0.7678462752996E-03
 0.7408732000947E-03 -0.5222945957288E-02  0.0000000000000E+00 -0.5256609775260E-03
 0.8822507381941E-03 -0.5296678987198E-02  0.0000000000000E+00 -0.2642662620530E-03
 0.9864865786025E-03 -0.5349994493011E-02  0.0000000000000E+00 -0.7615270677649E-05
 0.1060778733369E-02 -0.5390691177852E-02  0.0000000000000E+00  0.2320187392137E-03
 0.1112647120308E-02 -0.5425549629862E-02  0.0000000000000E+00  0.4518519952315E-03
 0.1148116913996E-02 -0.5459310273218E-02  0.0000000000000E+00  0.6545117346836E-03
 0.1171420157751E-02 -0.5494859822533E-02  0.0000000000000E+00  0.8449729859423E-03
 0.1185272220607E-02 -0.5533733505825E-02  0.0000000000000E+00  0.1028889908344E-02
 0.1191224899506E-02 -0.5576536829023E-02  0.0000000000000E+00  0.1211839822483E-02
 0.1189931429721E-02 -0.5623196851060E-02  0.0000000000000E+00  0.1399003137616E-02
 0.1181306447691E-02 -0.5673060378537E-02  0.0000000000000E+00  0.1594972779049E-02
 0.1164622259336E-02 -0.5724882904646E-02  0.0000000000000E+00  0.1803498156519E-02
 0.1138617680862E-02 -0.5776781680113E-02  0.0000000000000E+00  0.2027075600685E-02
 0.1101729425416E-02 -0.5826244522321E-02  0.0000000000000E+00  0.2266361423827E-02
 0.1052541086883E-02 -0.5870294655536E-02  0.0000000000000E+00  0.2519588632116E-02
 0.9904107102578E-03 -0.5905833189299E-02  0.0000000000000E+00  0.2782399280890E-02
 0.9160804978198E-03 -0.5930082671892E-02  0.0000000000000E+00  0.3048340238147E-02
 0.8321271527346E-03 -0.5941311971633E-02  0.0000000000000E+00  0.3309826888993E-02
 0.7425787206015E-03 -0.5939051047820E-02  0.0000000000000E+00  0.3559396494894E-02
 0.6517362965127E-03 -0.5923174969296E-02  0.0000000000000E+00  0.3790295845077E-02
 0.5633792882724E-03 -0.5893021734199E-02  0.0000000000000E+00  0.3995681923874E-02
 0.4807207800622E-03 -0.5847189978594E-02  0.0000000000000E+00  0.4167306577843E-02
 0.4068812065466E-03 -0.5783841293527E-02  0.0000000000000E+00  0.4294532428353E-02
 0.3455844118384E-03 -0.5701201858299E-02  0.0000000000000E+00  0.4363960807655E-02
 0.3018754427121E-03 -0.5598064362014E-02  0.0000000000000E+00  0.4359565636253E-02
 0.2828186998529E-03 -0.5474259908959E-02  0.0000000000000E+00  0.4263080259234E-02
 0.2982915711270E-03 -0.5331215026746E-02  0.0000000000000E+00  0.4054469982714E-02
 0.3621366343638E-03 -0.5172602291651E-02  0.0000000000000E+00  0.3712338575162E-02
 0.4941745104056E-03 -0.5005334150298E-02  0.0000000000000E+00  0.3214405967086E-02
 0.7231379371368E-03 -0.4841913970071E-02  0.0000000000000E+00  0.2540408411479E-02
 0.1089648368358E-02 -0.4703518887336E-02  0.0000000000000E+00  0.1679994787828E-02
 0.1647801619102E-02 -0.4622044323268E-02  0.0000000000000E+00  0.6467235338148E-03
 0.2462283105252E-02 -0.4638990184160E-02  0.0000000000000E+00 -0.5001600244827E-03
 0.3596000861719E-02 -0.4797040656120E-02  0.0000000000000E+00 -0.1629072683537E-02
 0.5083467042985E-02 -0.5120022189024E-02  0.0000000000000E+00 -0.2517609072719E-02
 0.6891482522880E-02 -0.5582223159951E-02  0.0000000000000E+00 -0.2868150200335E-02
 0.8883684958349E-02 -0.6080940556544E-02  0.0000000000000E+00 -0.2385472622161E-02
 0.1082041892360E-01 -0.6438791902188E-02  0.0000000000000E+00 -0.9125455431208E-03
 0.1109954494358E-03 -0.4889014341197E-02  0.0000000000000E+00 -0.9999741687022E-03
 0.3300882335201E-03 -0.5022831588366E-02  0.0000000000000E+00 -0.8818962279039E-03
 0.5352839393724E-03 -0.5144206443203E-02  0.0000000000000E+00 -0.7020643830652E-03
 0.7118462766888E-03 -0.5244395891786E-02  0.0000000000000E+00 -0.4758341043732E-03
 0.8528521834808E-03 -0.5321263220897E-02  0.0000000000000E+00 -0.2278048753621E-03
 0.9593502838212E-03 -0.5378548849144E-02  0.0000000000000E+00  0.2078041975060E-04
 0.1036732506468E-02 -0.5422467698036E-02  0.0000000000000E+00  0.2575907154838E-03
 0.1091312185646E-02 -0.5458944432332E-02  0.0000000000000E+00  0.4785181321533E-03
 0.1128516349604E-02 -0.5492433606046E-02  0.0000000000000E+00  0.6847527696514E-03
 0.1152358981233E-02 -0.5525818328326E-02  0.0000000000000E+00  0.8801616688394E-03
 0.1165519841234E-02 -0.5560713097985E-02  0.0000000000000E+00  0.1069641974150E-02
 0.1169586831154E-02 -0.5597790273256E-02  0.0000000000000E+00  0.1258248366389E-02
 0.1165276298525E-02 -0.5637000828771E-02  0.0000000000000E+00  0.1450744718169E-02
 0.1152589525224E-02 -0.5677678115168E-02  0.0000000000000E+00  0.1651308715030E-02
 0.1130932778790E-02 -0.5718557474560E-02  0.0000000000000E+00  0.1863206215674E-02
 0.1099264330702E-02 -0.5757778010189E-02  0.0000000000000E+00  0.2088366904170E-02
 0.1056355571118E-02 -0.5792944232310E-02  0.0000000000000E+00  0.2326859172572E-02
 0.1001225005904E-02 -0.5821317959927E-02  0.0000000000000E+00  0.2576434268100E-02
 0.9336848231242E-03 -0.5840135037366E-02  0.0000000000000E+00  0.2832467456300E-02
 0.8548393495901E-03 -0.5846983233188E-02  0.0000000000000E+00  0.3088441862258E-02
 0.7674640669647E-03 -0.5840445781295E-02  0.0000000000000E+00  0.3336817587041E-02
 0.6756808858298E-03 -0.5820300500439E-02  0.0000000000000E+00  0.3570088492071E-02
 0.5839480994111E-03 -0.5786700461602E-02  0.0000000000000E+00  0.3781187044947E-02
 0.4963964218123E-03 -0.5739395918803E-02  0.0000000000000E+00  0.3962766210494E-02
 0.4168072821354E-03 -0.5677561825859E-02  0.0000000000000E+00  0.4106102952622E-02
 0.3490344933167E-03 -0.5600075788509E-02  0.0000000000000E+00  0.4200288198373E-02
 0.2976332234460E-03 -0.5505991354251E-02  0.0000000000000E+00  0.4231937195630E-02
 0.2685378839563E-03 -0.5395042045113E-02  0.0000000000000E+00  0.4185361824054E-02
 0.2697565292206E-03 -0.5268153427517E-02  0.0000000000000E+00  0.4043043635938E-02
 0.3121642418119E-03 -0.5128054399221E-02  0.0000000000000E+00  0.3786342306753E-02
 0.4105909514473E-03 -0.4979968718887E-02  0.0000000000000E+00  0.3396377682023E-02
 0.5855743149802E-03 -0.4832560001512E-02  0.0000000000000E+00  0.2855278264785E-02
 0.8655987555301E-03 -0.4699866219667E-02  0.0000000000000E+00  0.2149940652525E-02
 0.1288792382020E-02 -0.4603439702847E-02  0.0000000000000E+00  0.1280311289459E-02
 0.1902661680472E-02 -0.4572919712095E-02  0.0000000000000E+00  0.2723560148393E-03
 0.2759248006135E-02 -0.4643160564034E-02  0.0000000000000E+00 -0.8042528560362E-03
 0.3902296862333E-02 -0.4845003500098E-02  0.0000000000000E+00 -0.1818148941849E-02
 0.5344552655400E-02 -0.5187810849844E-02  0.0000000000000E+00 -0.2569678450104E-02
 0.7039238502879E-02 -0.5636995301181E-02  0.0000000000000E+00 -0.2813757120106E-02
 0.8860111776189E-02 -0.6098722621921E-02  0.0000000000000E+00 -0.2326584022013E-02
 0.1061035467626E-01 -0.6428909204501E-02  0.0000000000000E+00 -0.1006116816905E-02
 0.1064864079212E-03 -0.4919485028943E-02  0.0000000000000E+00 -0.9188890530892E-03
 0.3162892247707E-03 -0.5048418037751E-02  0.0000000000000E+00 -0.8054312492363E-03
 0.5132769685432E-03 -0.5166552618422E-02  0.0000000000000E+00 -0.6364880854181E-03
 0.6850037837059E-03 -0.5266301730156E-02  0.0000000000000E+00 -0.4240995746401E-03
 0.8248250238604E-03 -0.5345079812742E-02  0.0000000000000E+00 -0.1884782551718E-03
 0.9326126165064E-03 -0.5405229276358E-02  0.0000000000000E+00  0.5171702866917E-04
 0.1012279605785E-02 -0.5451604912254E-02  0.0000000000000E+00  0.2845485613756E-03
 0.1069026319704E-02 -0.5489272233638E-02  0.0000000000000E+00  0.5050648121632E-03
 0.1107647056333E-02 -0.5522302721136E-02  0.0000000000000E+00  0.7133048436012E-03
 0.1131872018169E-02 -0.5553478688585E-02  0.0000000000000E+00  0.9121352272923E-03
 0.1144292871360E-02 -0.5584429434008E-02  0.0000000000000E+00  0.1105702824312E-02
 0.1146505039427E-02 -0.5615864124314E-02  0.0000000000000E+00  0.1298505020192E-02
 0.1139281774648E-02 -0.5647756276958E-02  0.0000000000000E+00  0.1494846856182E-02
 0.1122722535717E-02 -0.5679447761687E-02  0.0000000000000E+00  0.1698461759839E-02
 0.1096389722825E-02 -0.5709693452854E-02  0.0000000000000E+00  0.1912133583337E-02
 0.1059482438766E-02 -0.5736702207938E-02  0.0000000000000E+00  0.2137270254592E-02
 0.1011112899383E-02 -0.5758236755284E-02  0.0000000000000E+00  0.2373438565876E-02
 0.9507170751741E-03 -0.5771819004302E-02  0.0000000000000E+00  0.2618009811284E-02
 0.8785297790949E-03 -0.5775019350567E-02  0.0000000000000E+00  0.2866171690208E-02
 0.7959967795542E-03 -0.5765781383425E-02  0.0000000000000E+00  0.3111384176853E-02
 0.7061004974186E-03 -0.5742997792784E-02  0.0000000000000E+00  0.3346170723263E-02
 0.6130865090541E-03 -0.5706698088944E-02  0.0000000000000E+00  0.3563017700954E-02
 0.5215954607037E-03 -0.5657319204842E-02  0.0000000000000E+00  0.3754627393348E-02
 0.4361086202609E-03 -0.5595023046953E-02  0.0000000000000E+00  0.3913269566340E-02
 0.3609465399201E-03 -0.5519554235831E-02  0.0000000000000E+00  0.4029877582332E-02
 0.3006473387718E-03 -0.5430499151581E-02  0.0000000000000E+00  0.4093404215848E-02
 0.2605347177276E-03 -0.5327732336547E-02  0.0000000000000E+00  0.4090629561419E-02
 0.2473494715214E-03 -0.5211913682430E-02  0.0000000000000E+00  0.4006400688176E-02
 0.2699144613201E-03 -0.5085016296611E-02  0.0000000000000E+00  0.3824217325101E-02
 0.3398809677375E-03 -0.4950948787889E-02  0.0000000000000E+00  0.3527173538851E-02
 0.4726896419397E-03 -0.4816223582214E-02  0.0000000000000E+00  0.3099246438158E-02
 0.6890055587615E-03 -0.4690774228368E-02  0.0000000000000E+00  0.2527130930941E-02
 0.1016269551361E-02 -0.4589426124324E-02  0.0000000000000E+00  0.1804498993376E-02
 0.1489286947502E-02 -0.4533158162555E-02  0.0000000000000E+00  0.9401192356554E-03
 0.2148596113845E-02 -0.4548515890563E-02  0.0000000000000E+00 -0.3077797020817E-04
 0.3034579731288E-02 -0.4663688163048E-02  0.0000000000000E+00 -0.1032931824745E-02
 0.4175254151440E-02 -0.4899428356834E-02  0.0000000000000E+00 -0.1940125246600E-02
 0.5567662625264E-02 -0.5254505450694E-02  0.0000000000000E+00 -0.2576478553565E-02
 0.7157740283632E-02 -0.5689641950515E-02  0.0000000000000E+00 -0.2741490785058E-02
 0.8830576107512E-02 -0.6120105543377E-02  0.0000000000000E+00 -0.2264499067750E-02
 0.1042419568868E-01 -0.6428302307123E-02  0.0000000000000E+00 -0.1078722155929E-02
 0.1023902715963E-03 -0.4950731916636E-02  0.0000000000000E+00 -0.8408224594584E-03
 0.3037997532532E-03 -0.5075106771430E-02  0.0000000000000E+00 -0.7313395424418E-03
 0.4932360287246E-03 -0.5189940953564E-02  0.0000000000000E+00 -0.5716253989284E-03
 0.6601091993420E-03 -0.5288625380316E-02  0.0000000000000E+00 -0.3713396726900E-03
 0.7981640605011E-03 -0.5368357482811E-02  0.0000000000000E+00 -0.1472016366643E-03
 0.9064558685215E-03 -0.5430433545894E-02  0.0000000000000E+00  0.8448928900560E-04
 0.9877020623839E-03 -0.5478561788049E-02  0.0000000000000E+00  0.3124559012387E-03
 0.1046104405568E-02 -0.5516988328162E-02  0.0000000000000E+00  0.5312728321184E-03
 0.1085824658351E-02 -0.5549347949166E-02  0.0000000000000E+00  0.7400888975265E-03
 0.1110268105260E-02 -0.5578250772061E-02  0.0000000000000E+00  0.9408944000376E-03
 0.1121898089694E-02 -0.5605287449314E-02  0.0000000000000E+00  0.1137118739772E-02
 0.1122293242410E-02 -0.5631176921949E-02  0.0000000000000E+00  0.1332691058074E-02
 0.1112277073342E-02 -0.5655912745441E-02  0.0000000000000E+00  0.1531435278277E-02
 0.1092054787410E-02 -0.5678862949793E-02  0.0000000000000E+00  0.1736628466631E-02
 0.1061359928901E-02 -0.5698833648541E-02  0.0000000000000E+00  0.1950586395133E-02
 0.1019644756139E-02 -0.5714139922326E-02  0.0000000000000E+00  0.2174243895018E-02
 0.9663609938922E-03 -0.5722731915267E-02  0.0000000000000E+00  0.2406744234387E-02
 0.9013428112366E-03 -0.5722404309105E-02  0.0000000000000E+00  0.2645163406152E-02
 0.8252201113976E-03 -0.5711059151890E-02  0.0000000000000E+00  0.2884565252987E-02
 0.7397636294798E-03 -0.5686987910240E-02  0.0000000000000E+00  0.3118421800470E-02
 0.6481697243023E-03 -0.5649389949725E-02  0.0000000000000E+00  0.3339340970281E-02
 0.5548312511743E-03 -0.5598551423921E-02  0.0000000000000E+00  0.3539839196183E-02
 0.4645899125984E-03 -0.5535199186146E-02  0.0000000000000E+00  0.3712469152022E-02
 0.3822731700374E-03 -0.5459905255725E-02  0.0000000000000E+00  0.3849233181283E-02
 0.3127093675217E-03 -0.5372973179296E-02  0.0000000000000E+00  0.3940849793484E-02
 0.2610677420687E-03 -0.5274681137495E-02  0.0000000000000E+00  0.3976265675333E-02
 0.2333686833690E-03 -0.5165701208520E-02  0.0000000000000E+00  0.3942569763303E-02
 0.2370614504258E-03 -0.5047579955348E-02  0.0000000000000E+00  0.3825318342385E-02
 0.2816369603659E-03 -0.4923258822982E-02  0.0000000000000E+00  0.3609243870788E-02
 0.3792903215283E-03 -0.4797670023168E-02  0.0000000000000E+00  0.3279407527171E-02
 0.5457129439366E-03 -0.4678332248811E-02  0.0000000000000E+00  0.2822808475933E-02
 0.8011860622813E-03 -0.4575990506994E-02  0.0000000000000E+00  0.2230618362685E-02
 0.1171497930830E-02 -0.4505623041946E-02  0.0000000000000E+00  0.1502626776260E-02
 0.1687633999614E-02 -0.4486944408577E-02  0.0000000000000E+00  0.6548041068985E-03
 0.2383227353804E-02 -0.4542981883711E-02  0.0000000000000E+00 -0.2712028733124E-03
 0.3288305253839E-02 -0.4695660521566E-02  0.0000000000000E+00 -0.1198272047712E-02
 0.4418297564343E-02 -0.4957439566022E-02  0.0000000000000E+00 -0.2008305868891E-02
 0.5759258915614E-02 -0.5319625464384E-02  0.0000000000000E+00 -0.2548446111350E-02
 0.7253933679927E-02 -0.5741073749599E-02  0.0000000000000E+00 -0.2655677756829E-02
 0.8798255730481E-02 -0.6145338852430E-02  0.0000000000000E+00 -0.2199248083918E-02
 0.1025838247154E-01 -0.6435486638438E-02  0.0000000000000E+00 -0.1133051980352E-02
 0.9863241944351E-04 -0.4982493504808E-02  0.0000000000000E+00 -0.7655750047706E-03
 0.2923922316153E-03 -0.5102598437807E-02  0.0000000000000E+00 -0.6595866700397E-03
 0.4748643638273E-03 -0.5214139380085E-02  0.0000000000000E+00 -0.5078235760205E-03
 0.6369568077738E-03 -0.5311321310116E-02  0.0000000000000E+00 -0.3182218768369E-03
 0.7728411807836E-03 -0.5391265103246E-02  0.0000000000000E+00 -0.1047208446350E-03
 0.8810142395618E-03 -0.5454486048923E-02  0.0000000000000E+00  0.1184778568897E-03
 0.9632351352063E-03 -0.5503737291476E-02  0.0000000000000E+00  0.3408975024843E-03
 0.1022827111335E-02 -0.5542508872886E-02  0.0000000000000E+00  0.5569137724567E-03
 0.1063343218437E-02 -0.5573977688328E-02  0.0000000000000E+00  0.7650118618061E-03
 0.1087843058963E-02 -0.5600533153627E-02  0.0000000000000E+00  0.9664343074326E-03
 0.1098633194324E-02 -0.5623685423485E-02  0.0000000000000E+00  0.1163943932569E-02
 0.1097255914136E-02 -0.5644140192857E-02  0.0000000000000E+00  0.1360910221294E-02
 0.1084578378641E-02 -0.5661907970113E-02  0.0000000000000E+00  0.1560671091589E-02
 0.1060915668164E-02 -0.5676396551990E-02  0.0000000000000E+00  0.1766049380923E-02
 0.1026181385119E-02 -0.5686487754012E-02  0.0000000000000E+00  0.1978915947432E-02
 0.9800861425879E-03 -0.5690629739412E-02  0.0000000000000E+00  0.2199782484978E-02
 0.9224146450921E-03 -0.5686979730854E-02  0.0000000000000E+00  0.2427438799788E-02
 0.8533793625186E-03 -0.5673611584206E-02  0.0000000000000E+00  0.2658736699608E-02
 0.7739810292050E-03 -0.5648754324944E-02  0.0000000000000E+00  0.2888669001577E-02
 0.6863015226174E-03 -0.5611040101989E-02  0.0000000000000E+00  0.3110752005859E-02
 0.5937562623595E-03 -0.5559972849769E-02  0.0000000000000E+00  0.3317701553566E-02
 0.5009031555751E-03 -0.5496099848279E-02  0.0000000000000E+00  0.3502102561881E-02
 0.4127975659988E-03 -0.5420442556588E-02  0.0000000000000E+00  0.3656434396964E-02
 0.3346050058410E-03 -0.5333979401342E-02  0.0000000000000E+00  0.3772540873581E-02
 0.2716280420120E-03 -0.5237557786451E-02  0.0000000000000E+00  0.3841048094727E-02
 0.2296105473341E-03 -0.5132122197119E-02  0.0000000000000E+00  0.3851021919071E-02
 0.2151913039882E-03 -0.5019104653558E-02  0.0000000000000E+00  0.3789990935528E-02
 0.2364206013675E-03 -0.4900878908202E-02  0.0000000000000E+00  0.3644365164308E-02
 0.3033022371811E-03 -0.4781252719799E-02  0.0000000000000E+00  0.3400265272580E-02
 0.4283459408127E-03 -0.4666007437330E-02  0.0000000000000E+00  0.3044850212325E-02
 0.6271674545636E-03 -0.4563386932217E-02  0.0000000000000E+00  0.2568154521431E-02
 0.9192443033451E-03 -0.4484535999320E-02  0.0000000000000E+00  0.1965550127358E-02
 0.1328281357472E-02 -0.4444077455380E-02  0.0000000000000E+00  0.1242126680465E-02
 0.1881218251218E-02 -0.4460001395650E-02  0.0000000000000E+00  0.4194484955680E-03
 0.2605139369694E-02 -0.4551697093428E-02  0.0000000000000E+00 -0.4568572151937E-03
 0.3521127426516E-02 -0.4735453991879E-02  0.0000000000000E+00 -0.1310532635025E-02
 0.4634747023945E-02 -0.5017099106492E-02  0.0000000000000E+00 -0.2033165460177E-02
 0.5924646001754E-02 -0.5382888329838E-02  0.0000000000000E+00 -0.2493109836124E-02
 0.7333140200637E-02 -0.5791874871810E-02  0.0000000000000E+00 -0.2558699211985E-02
 0.8765627930680E-02 -0.6174775839389E-02  0.0000000000000E+00 -0.2130542301753E-02
 0.1010982772450E-01 -0.6449481379211E-02  0.0000000000000E+00 -0.1172224924778E-02
 0.9515789504942E-04 -0.5014578272862E-02  0.0000000000000E+00 -0.6929730199452E-03
 0.2818953778380E-03 -0.5130670817678E-02  0.0000000000000E+00 -0.5901164362140E-03
 0.4579292755408E-03 -0.5238969023450E-02  0.0000000000000E+00 -0.4453164959296E-03
 0.6153725829183E-03 -0.5334347652016E-02  0.0000000000000E+00 -0.2652488628032E-03
 0.7488185248822E-03 -0.5413932447404E-02  0.0000000000000E+00 -0.6163739258293E-04
 0.8563879622363E-03 -0.5477655284490E-02  0.0000000000000E+00  0.1531500454209E-03
 0.9390761467372E-03 -0.5527479590761E-02  0.0000000000000E+00  0.3694924109432E-03
 0.9994441722484E-03 -0.5566213199901E-02  0.0000000000000E+00  0.5817640514395E-03
 0.1040474992012E-02 -0.5596576852672E-02  0.0000000000000E+00  0.7879767958073E-03
 0.1064877721229E-02 -0.5620709868622E-02  0.0000000000000E+00  0.9887499866273E-03
 0.1074784210794E-02 -0.5640011149796E-02  0.0000000000000E+00  0.1186242017105E-02
 0.1071685665494E-02 -0.5655154595235E-02  0.0000000000000E+00  0.1383286573614E-02
 0.1056486703929E-02 -0.5666164465660E-02  0.0000000000000E+00  0.1582745176501E-02
 0.1029613584076E-02 -0.5672498378917E-02  0.0000000000000E+00  0.1787000172572E-02
 0.9911638834069E-03 -0.5673131995721E-02  0.0000000000000E+00  0.1997507393008E-02
 0.9411062962382E-03 -0.5666665507062E-02  0.0000000000000E+00  0.2214405148385E-02
 0.8795484119620E-03 -0.5651475522253E-02  0.0000000000000E+00  0.2436192584622E-02
 0.8070611244971E-03 -0.5625916911935E-02  0.0000000000000E+00  0.2659557905999E-02
 0.7249943019052E-03 -0.5588539691666E-02  0.0000000000000E+00  0.2879468090154E-02
 0.6357286475895E-03 -0.5538309628298E-02  0.0000000000000E+00  0.3089514267576E-02
 0.5429015219656E-03 -0.5475032799161E-02  0.0000000000000E+00  0.3282545448317E-02
 0.4512483091096E-03 -0.5399520665477E-02  0.0000000000000E+00  0.3451253492016E-02
 0.3660450830171E-03 -0.5313091710238E-02  0.0000000000000E+00  0.3588115899306E-02
 0.2927836297468E-03 -0.5217124227129E-02  0.0000000000000E+00  0.3684918718119E-02
 0.2372051102156E-03 -0.5112990132305E-02  0.0000000000000E+00  0.3732309089857E-02
 0.2055692706015E-03 -0.5002267490334E-02  0.0000000000000E+00  0.3719586499311E-02
 0.2050512044286E-03 -0.4887099550061E-02  0.0000000000000E+00  0.3634832288971E-02
 0.2441904299688E-03 -0.4770613439392E-02  0.0000000000000E+00  0.3465421670460E-02
 0.3333482547773E-03 -0.4657367221650E-02  0.0000000000000E+00  0.3198960544869E-02
 0.4851338362251E-03 -0.4553811337764E-02  0.0000000000000E+00  0.2824744857789E-02
 0.7148049510239E-03 -0.4468650685477E-02  0.0000000000000E+00  0.2335735592124E-02
 0.1040709753197E-02 -0.4413078354338E-02  0.0000000000000E+00  0.1731099767852E-02
 0.1484197207041E-02 -0.4400977977081E-02  0.0000000000000E+00  0.1020340683314E-02
 0.2068142493672E-02 -0.4448346723665E-02  0.0000000000000E+00  0.2291218405760E-03
 0.2813614309208E-02 -0.4571025569885E-02  0.0000000000000E+00 -0.5949409292640E-03
 0.3734132482779E-02 -0.4780388390513E-02  0.0000000000000E+00 -0.1378346959430E-02
 0.4827681768480E-02 -0.5077081996688E-02  0.0000000000000E+00 -0.2022953712609E-02
 0.6068108899243E-02 -0.5444102276538E-02  0.0000000000000E+00 -0.2416120386096E-02
 0.7399274494324E-02 -0.5842035134629E-02  0.0000000000000E+00 -0.2451612460542E-02
 0.8734921794813E-02 -0.6208840394713E-02  0.0000000000000E+00 -0.2056987177173E-02
 0.9975787668052E-02 -0.6469926659034E-02  0.0000000000000E+00 -0.1200513198009E-02
 0.9192606528584E-04 -0.5046847382593E-02  0.0000000000000E+00 -0.6228619257182E-03
 0.2721801703885E-03 -0.5159161515031E-02  0.0000000000000E+00 -0.5228592803879E-03
 0.4422491722734E-03 -0.5264295397651E-02  0.0000000000000E+00 -0.3842571169873E-03
 0.5952124746996E-03 -0.5357671894860E-02  0.0000000000000E+00 -0.2127962290162E-03
 0.7260566814194E-03 -0.5436464340725E-02  0.0000000000000E+00 -0.1843153465265E-04
 0.8326538354072E-03 -0.5500167514988E-02  0.0000000000000E+00  0.1880558460794E-03
 0.9153920986736E-03 -0.5550094410573E-02  0.0000000000000E+00  0.3979012853862E-03
 0.9761779230823E-03 -0.5588446816489E-02  0.0000000000000E+00  0.6056149770949E-03
 0.1017470927970E-02 -0.5617506372543E-02  0.0000000000000E+00  0.8088909307236E-03
 0.1041636783971E-02 -0.5639148136691E-02  0.0000000000000E+00  0.1007840996268E-02
 0.1050623618408E-02 -0.5654638958536E-02  0.0000000000000E+00  0.1204087152898E-02
 0.1045861318346E-02 -0.5664606888487E-02  0.0000000000000E+00  0.1399962424128E-02
 0.1028286442821E-02 -0.5669086976508E-02  0.0000000000000E+00  0.1597873104993E-02
 0.9984355198062E-03 -0.5667593722024E-02  0.0000000000000E+00  0.1799783935038E-02
 0.9565900604482E-03 -0.5659209427626E-02  0.0000000000000E+00  0.2006770325349E-02
 0.9029724613732E-03 -0.5642698838586E-02  0.0000000000000E+00  0.2218645874787E-02
 0.8380007226363E-03 -0.5616664585057E-02  0.0000000000000E+00  0.2433675542794E-02
 0.7625846334092E-03 -0.5579740998418E-02  0.0000000000000E+00  0.2648436363636E-02
 0.6784034238672E-03 -0.5530791994817E-02  0.0000000000000E+00  0.2857909229600E-02
 0.5881250074135E-03 -0.5469109542335E-02  0.0000000000000E+00  0.3055789612160E-02
 0.4956091940420E-03 -0.5394798459520E-02  0.0000000000000E+00  0.3235086063391E-02
 0.4057764884902E-03 -0.5308935491490E-02  0.0000000000000E+00  0.3388635102716E-02
 0.3241258105874E-03 -0.5213135854981E-02  0.0000000000000E+00  0.3508978466113E-02
 0.2564601759250E-03 -0.5109168074699E-02  0.0000000000000E+00  0.3587936238680E-02
 0.2089220683383E-03 -0.4998905268142E-02  0.0000000000000E+00  0.3616279190423E-02
 0.1882272146816E-03 -0.4884520512923E-02  0.0000000000000E+00  0.3583641301733E-02
 0.2020037448116E-03 -0.4768811433635E-02  0.0000000000000E+00  0.3478749240556E-02
 0.2591688357557E-03 -0.4655575526261E-02  0.0000000000000E+00  0.3290020718935E-02
 0.3702924266945E-03 -0.4549998905943E-02  0.0000000000000E+00  0.3006589317947E-02
 0.5478895874156E-03 -0.4459025566918E-02  0.0000000000000E+00  0.2619849606089E-02
 0.8066271657764E-03 -0.4391584628219E-02  0.0000000000000E+00  0.2125487692097E-02
 0.1163488050073E-02 -0.4358631079298E-02  0.0000000000000E+00  0.1525982594825E-02
 0.1637325456334E-02 -0.4373038852858E-02  0.0000000000000E+00  0.8343635387587E-03
 0.2247080509697E-02 -0.4448693758179E-02  0.0000000000000E+00  0.7906703570293E-04
 0.3008427116150E-02 -0.4598110366025E-02  0.0000000000000E+00 -0.6918697781390E-03
 0.3928601419535E-02 -0.4828475130305E-02  0.0000000000000E+00 -0.1408939976824E-02
 0.4999863129106E-02 -0.5136464480116E-02  0.0000000000000E+00 -0.1984209210441E-02
 0.6193194121288E-02 -0.5503145540870E-02  0.0000000000000E+00 -0.2321760342797E-02
 0.7454810947732E-02 -0.5891140088385E-02  0.0000000000000E+00 -0.2335696664895E-02
 0.8708325702038E-02 -0.6246627629642E-02  0.0000000000000E+00 -0.1974262444494E-02
 0.9853823018830E-02 -0.6497989655807E-02  0.0000000000000E+00 -0.1224305508279E-02
 0.8889261345972E-04 -0.5079199766430E-02  0.0000000000000E+00 -0.5551010657874E-03
 0.2631429809562E-03 -0.5187940898476E-02  0.0000000000000E+00 -0.4577627915322E-03
 0.4276781706359E-03 -0.5290002022168E-02  0.0000000000000E+00 -0.3247764155337E-03
 0.5763619624068E-03 -0.5381249236597E-02  0.0000000000000E+00 -0.1611907958035E-03
 0.7045296430894E-03 -0.5458921702163E-02  0.0000000000000E+00  0.2446201471321E-04
 0.8098914573121E-03 -0.5522184520976E-02  0.0000000000000E+00  0.2227637678287E-03
 0.8923526097641E-03 -0.5571815798519E-02  0.0000000000000E+00  0.4257727615151E-03
 0.9532612216307E-03 -0.5609485416668E-02  0.0000000000000E+00  0.6282247778365E-03
 0.9946041387731E-03 -0.5637063421958E-02  0.0000000000000E+00  0.8276195865749E-03
 0.1018419577995E-02 -0.5656159118724E-02  0.0000000000000E+00  0.1023665533387E-02
 0.1026470788521E-02 -0.5667896058436E-02  0.0000000000000E+00  0.1217518309900E-02
 0.1020120673901E-02 -0.5672847591404E-02  0.0000000000000E+00  0.1411053945166E-02
 0.1000333384337E-02 -0.5671057907297E-02  0.0000000000000E+00  0.1606254675584E-02
 0.9677532192742E-03 -0.5662103654002E-02  0.0000000000000E+00  0.1804698989007E-02
 0.9228422186203E-03 -0.5645182535526E-02  0.0000000000000E+00  0.2007121426215E-02
 0.8660683317425E-03 -0.5619231272338E-02  0.0000000000000E+00  0.2213059900556E-02
 0.7981447366880E-03 -0.5583080405719E-02  0.0000000000000E+00  0.2420598079412E-02
 0.7202994393183E-03 -0.5535638803654E-02  0.0000000000000E+00  0.2626249431020E-02
 0.6345207329065E-03 -0.5476074993576E-02  0.0000000000000E+00  0.2825045560383E-02
 0.5437501877248E-03 -0.5403997513143E-02  0.0000000000000E+00  0.3010815457315E-02
 0.4520661964268E-03 -0.5319803550540E-02  0.0000000000000E+00  0.3176753822971E-02
 0.3645758253027E-03 -0.5224832056353E-02  0.0000000000000E+00  0.3315877419642E-02
 0.2869963585029E-03 -0.5120989389734E-02  0.0000000000000E+00  0.3420852151702E-02
 0.2254213467384E-03 -0.5010418469220E-02  0.0000000000000E+00  0.3483613892100E-02
 0.1863528741150E-03 -0.4895462894725E-02  0.0000000000000E+00  0.3495146168918E-02
 0.1768991251321E-03 -0.4778843080748E-02  0.0000000000000E+00  0.3445499986661E-02
 0.2050555517071E-03 -0.4663943621984E-02  0.0000000000000E+00  0.3324112631578E-02
 0.2800065808594E-03 -0.4555139390209E-02  0.0000000000000E+00  0.3120479835121E-02
 0.4123920764096E-03 -0.4458117565625E-02  0.0000000000000E+00  0.2825244395342E-02
 0.6144672255220E-03 -0.4380148431379E-02  0.0000000000000E+00  0.2431782107398E-02
 0.9001308473320E-03 -0.4330180578471E-02  0.0000000000000E+00  0.1938218639272E-02
 0.1284857511874E-02 -0.4318712250364E-02  0.0000000000000E+00  0.1349802615683E-02
 0.1784991207309E-02 -0.4357443537393E-02  0.0000000000000E+00  0.6822230292265E-03
 0.2415799068962E-02 -0.4458158350375E-02  0.0000000000000E+00 -0.3445988928000E-04
 0.3188245773406E-02 -0.4630364606558E-02  0.0000000000000E+00 -0.7529750356929E-03
 0.4104463428633E-02 -0.4877772535546E-02  0.0000000000000E+00 -0.1408508480920E-02
 0.5152504965304E-02 -0.5194097226610E-02  0.0000000000000E+00 -0.1922830785633E-02
 0.6301852140395E-02 -0.5559393096515E-02  0.0000000000000E+00 -0.2214337251593E-02
 0.7501620601931E-02 -0.5938651699781E-02  0.0000000000000E+00 -0.2213825918183E-02
 0.8683676217999E-02 -0.6284387521121E-02  0.0000000000000E+00 -0.1881399167175E-02
 0.9760621892038E-02 -0.6538585733877E-02  0.0000000000000E+00 -0.1236263257641E-02
 0.8606532489412E-04 -0.5111569939100E-02  0.0000000000000E+00 -0.4895760082548E-03
 0.2547251315666E-03 -0.5216928189094E-02  0.0000000000000E+00 -0.3947477826364E-03
 0.4141241325944E-03 -0.5316022509788E-02  0.0000000000000E+00 -0.2669254049177E-03
 0.5587412918383E-03 -0.5405071674990E-02  0.0000000000000E+00 -0.1106326699620E-03
 0.6842175046602E-03 -0.5481385588117E-02  0.0000000000000E+00  0.6674964999970E-04
 0.7881590804943E-03 -0.5543878122966E-02  0.0000000000000E+00  0.2569708251577E-03
 0.8700866889029E-03 -0.5592887181896E-02  0.0000000000000E+00  0.4528614039324E-03
 0.9308744546393E-03 -0.5629619323918E-02  0.0000000000000E+00  0.6494393593591E-03
 0.9720870017952E-03 -0.5655565598197E-02  0.0000000000000E+00  0.8441076972746E-03
 0.9954562683470E-03 -0.5672076375970E-02  0.0000000000000E+00  0.1036263083388E-02
 0.1002564791757E-02 -0.5680127473458E-02  0.0000000000000E+00  0.1226663914206E-02
 0.9947060285546E-03 -0.5680232327599E-02  0.0000000000000E+00  0.1416777478512E-02
 0.9728680717705E-03 -0.5672443096023E-02  0.0000000000000E+00  0.1608199120723E-02
 0.9377991934845E-03 -0.5656401776668E-02  0.0000000000000E+00  0.1802156966861E-02
 0.8901362343678E-03 -0.5631426518672E-02  0.0000000000000E+00  0.1999085500458E-02
 0.8305824319332E-03 -0.5596629224936E-02  0.0000000000000E+00  0.2198293345215E-02
 0.7601301143784E-03 -0.5551066738949E-02  0.0000000000000E+00  0.2397730246699E-02
 0.6803056155109E-03 -0.5493915454705E-02  0.0000000000000E+00  0.2593887775063E-02
 0.5933873078607E-03 -0.5424638223408E-02  0.0000000000000E+00  0.2781881064849E-02
 0.5025770870186E-03 -0.5343149574512E-02  0.0000000000000E+00  0.2955700040388E-02
 0.4121661890345E-03 -0.5250131078276E-02  0.0000000000000E+00  0.3108751260187E-02
 0.3274461453719E-03 -0.5147178609528E-02  0.0000000000000E+00  0.3234264682792E-02
 0.2543448053730E-03 -0.5036481563864E-02  0.0000000000000E+00  0.3325083188478E-02
 0.1992239013291E-03 -0.4920539021889E-02  0.0000000000000E+00  0.3373328713928E-02
 0.1689038216548E-03 -0.4802132173489E-02  0.0000000000000E+00  0.3370272065968E-02
 0.1708241086359E-03 -0.4684479031789E-02  0.0000000000000E+00  0.3306445901688E-02
 0.2132666411955E-03 -0.4571482259975E-02  0.0000000000000E+00  0.3172040203722E-02
 0.3055818031987E-03 -0.4468002046065E-02  0.0000000000000E+00  0.2957633002252E-02
 0.4583580078410E-03 -0.4380106848512E-02  0.0000000000000E+00  0.2655317839031E-02
 0.6834558450156E-03 -0.4315245209795E-02  0.0000000000000E+00  0.2260290141943E-02
 0.9938792359445E-03 -0.4282218312396E-02  0.0000000000000E+00  0.1772795327005E-02
 0.1403521549030E-02 -0.4290909874383E-02  0.0000000000000E+00  0.1200315633094E-02
 0.1926282185719E-02 -0.4351761408069E-02  0.0000000000000E+00  0.5604241549920E-03
 0.2574067438135E-02 -0.4474539514930E-02  0.0000000000000E+00 -0.1161307966135E-03
 0.3353790464585E-02 -0.4666091211507E-02  0.0000000000000E+00 -0.7836919549750E-03
 0.4263486914799E-02 -0.4927283579973E-02  0.0000000000000E+00 -0.1382465923357E-02
 0.5288186716040E-02 -0.5249666914218E-02  0.0000000000000E+00 -0.1843201943217E-02
 0.6396797019265E-02 -0.5612915135894E-02  0.0000000000000E+00 -0.2096576666242E-02
 0.7541621261904E-02 -0.5984422068206E-02  0.0000000000000E+00 -0.2086436685592E-02
 0.8660843830380E-02 -0.6321710556250E-02  0.0000000000000E+00 -0.1784280911114E-02
 0.9687960106034E-02 -0.6579716940305E-02  0.0000000000000E+00 -0.1208135952914E-02
 0.8341396472690E-04 -0.5143918505111E-02  0.0000000000000E+00 -0.4261514632384E-03
 0.2468655449396E-03 -0.5246083175154E-02  0.0000000000000E+00 -0.3336968611288E-03
 0.4014919906591E-03 -0.5342332900966E-02  0.0000000000000E+00 -0.2106760740329E-03
 0.5422606238859E-03 -0.5429165584023E-02  0.0000000000000E+00 -0.6120617174004E-04
 0.6650730518824E-03 -0.5503958805264E-02  0.0000000000000E+00  0.1082684520522E-03
 0.7674708423775E-03 -0.5565432867863E-02  0.0000000000000E+00  0.2904977438975E-03
 0.8486674682695E-03 -0.5613562339940E-02  0.0000000000000E+00  0.4790266848399E-03
 0.9091355974705E-03 -0.5649151669156E-02  0.0000000000000E+00  0.6691890975329E-03
 0.9500655992056E-03 -0.5673346658310E-02  0.0000000000000E+00  0.8583676728945E-03
 0.9729066632256E-03 -0.5687250193739E-02  0.0000000000000E+00  0.1045727442238E-02
 0.9790680758527E-03 -0.5691690127711E-02  0.0000000000000E+00  0.1231695207170E-02
 0.9697735238578E-03 -0.5687116821609E-02  0.0000000000000E+00  0.1417379310527E-02
 0.9460318504495E-03 -0.5673588869521E-02  0.0000000000000E+00  0.1604028213555E-02
 0.9086906484938E-03 -0.5650814527101E-02  0.0000000000000E+00  0.1792557182048E-02
 0.8585545202391E-03 -0.5618234055060E-02  0.0000000000000E+00  0.1983140368319E-02
 0.7965510073076E-03 -0.5575134353182E-02  0.0000000000000E+00  0.2174899446782E-02
 0.7239362387421E-03 -0.5520794556606E-02  0.0000000000000E+00  0.2365691726748E-02
 0.6425170807196E-03 -0.5454650641495E-02  0.0000000000000E+00  0.2552022945975E-02
 0.5548455428169E-03 -0.5376449682234E-02  0.0000000000000E+00  0.2729120984465E-02
 0.4643721074523E-03 -0.5286402112314E-02  0.0000000000000E+00  0.2891162415380E-02
 0.3755951438806E-03 -0.5185466097696E-02  0.0000000000000E+00  0.3031790125520E-02
 0.2939876725678E-03 -0.5075488898730E-02  0.0000000000000E+00  0.3144477488940E-02
 0.2256798964330E-03 -0.4958934623102E-02  0.0000000000000E+00  0.3222291024903E-02
 0.1772808640419E-03 -0.4838640986269E-02  0.0000000000000E+00  0.3257599524911E-02
 0.1558919817075E-03 -0.4717795961784E-02  0.0000000000000E+00  0.3242023967896E-02
 0.1692295921593E-03 -0.4600069004979E-02  0.0000000000000E+00  0.3166630071499E-02
 0.2257904236158E-03 -0.4489817478951E-02  0.0000000000000E+00  0.3022387196785E-02
 0.3350028180262E-03 -0.4392303777246E-02  0.0000000000000E+00  0.2800941676093E-02
 0.5073020131141E-03 -0.4313872964093E-02  0.0000000000000E+00  0.2495759484820E-02
 0.7540480756025E-03 -0.4262028717935E-02  0.0000000000000E+00  0.2103679233369E-02
 0.1087262168701E-02 -0.4245295723158E-02  0.0000000000000E+00  0.1626750922421E-02
 0.1519228965319E-02 -0.4272835842862E-02  0.0000000000000E+00  0.1074200297218E-02
 0.2061504678900E-02 -0.4353801428034E-02  0.0000000000000E+00  0.4648228870313E-03
 0.2722945845943E-02 -0.4496060509926E-02  0.0000000000000E+00 -0.1706829753683E-03
 0.3506989603309E-02 -0.4704124224958E-02  0.0000000000000E+00 -0.7888672706604E-03
 0.4408389581224E-02 -0.4976541934567E-02  0.0000000000000E+00 -0.1335065033152E-02
 0.5410030515443E-02 -0.5303300099649E-02  0.0000000000000E+00 -0.1748278349017E-02
 0.6480910741876E-02 -0.5664125187394E-02  0.0000000000000E+00 -0.1969722586206E-02
 0.7576345375162E-02 -0.6028666931608E-02  0.0000000000000E+00 -0.1953972713020E-02
 0.8641404041911E-02 -0.6359207130949E-02  0.0000000000000E+00 -0.1681183750984E-02
 0.9619824464938E-02 -0.6617874186724E-02  0.0000000000000E+00 -0.1167285337359E-02
 0.8092713451654E-04 -0.5176221864723E-02  0.0000000000000E+00 -0.3647111758795E-03
 0.2395246358985E-03 -0.5275375409629E-02  0.0000000000000E+00 -0.2745205604388E-03
 0.3897197977258E-03 -0.5368910689378E-02  0.0000000000000E+00 -0.1560195177546E-03
 0.5268650840261E-03 -0.5453544294406E-02  0.0000000000000E+00 -0.1300328997673E-04
 0.6470802536576E-03 -0.5526713158814E-02  0.0000000000000E+00  0.1488523079307E-03
 0.7478668503594E-03 -0.5586986045141E-02  0.0000000000000E+00  0.3231557322988E-03
 0.8281915526561E-03 -0.5634036458532E-02  0.0000000000000E+00  0.5041062886802E-03
 0.8881874113529E-03 -0.5668321064691E-02  0.0000000000000E+00  0.6873701161183E-03
 0.9287153470763E-03 -0.5690674472349E-02  0.0000000000000E+00  0.8703683279645E-03
 0.9509667720852E-03 -0.5701967385872E-02  0.0000000000000E+00  0.1052103185590E-02
 0.9561879811298E-03 -0.5702883581845E-02  0.0000000000000E+00  0.1232731515069E-02
 0.9455347235694E-03 -0.5693809800774E-02  0.0000000000000E+00  0.1413053066758E-02
 0.9200341988988E-03 -0.5674810178348E-02  0.0000000000000E+00  0.1594011752246E-02
 0.8806282472513E-03 -0.5645659051955E-02  0.0000000000000E+00  0.1776249335642E-02
 0.8282811556704E-03 -0.5605918298140E-02  0.0000000000000E+00  0.1959719427836E-02
 0.7641328952663E-03 -0.5555047196284E-02  0.0000000000000E+00  0.2143397089324E-02
 0.6896878600493E-03 -0.5492541169566E-02  0.0000000000000E+00  0.2325085399962E-02
 0.6070161423789E-03 -0.5418086553973E-02  0.0000000000000E+00  0.2501337205236E-02
 0.5189274131266E-03 -0.5331703679455E-02  0.0000000000000E+00  0.2667520397048E-02
 0.4291085798941E-03 -0.5233887774105E-02  0.0000000000000E+00  0.2818022844359E-02
 0.3422578063426E-03 -0.5125864365101E-02  0.0000000000000E+00  0.2946747065171E-02
 0.2640242414450E-03 -0.5009724664720E-02  0.0000000000000E+00  0.3047437374294E-02
 0.2007301024076E-03 -0.4888197052351E-02  0.0000000000000E+00  0.3113424841535E-02
 0.1592100462893E-03 -0.4764438506764E-02  0.0000000000000E+00  0.3137376909096E-02
 0.1468102310018E-03 -0.4642011771450E-02  0.0000000000000E+00  0.3111315883201E-02
 0.1714724601848E-03 -0.4524991327918E-02  0.0000000000000E+00  0.3026877448331E-02
 0.2418428360458E-03 -0.4418127303682E-02  0.0000000000000E+00  0.2875819053805E-02
 0.3673501875373E-03 -0.4327005955733E-02  0.0000000000000E+00  0.2650819474897E-02
 0.5581922246546E-03 -0.4258155057235E-02  0.0000000000000E+00  0.2346614835574E-02
 0.8251492566118E-03 -0.4219030196141E-02  0.0000000000000E+00  0.1961490650994E-02
 0.1179208771162E-02 -0.4217781859042E-02  0.0000000000000E+00  0.1498983023829E-02
 0.1631062851989E-02 -0.4262785087372E-02  0.0000000000000E+00  0.9696034128051E-03
 0.2190063622991E-02 -0.4361917402775E-02  0.0000000000000E+00  0.3927969597661E-03
 0.2862337216655E-02 -0.4521296247496E-02  0.0000000000000E+00 -0.2013714540164E-03
 0.3648370186201E-02 -0.4743410082407E-02  0.0000000000000E+00 -0.7720542885671E-03
 0.4540315763896E-02 -0.5024941713685E-02  0.0000000000000E+00 -0.1269653890892E-02
 0.5519603467712E-02 -0.5354787288883E-02  0.0000000000000E+00 -0.1640669457839E-02
 0.6555730105305E-02 -0.5713009980568E-02  0.0000000000000E+00 -0.1835343377320E-02
 0.7607076567332E-02 -0.6071443720014E-02  0.0000000000000E+00 -0.1817135046859E-02
 0.8624577011100E-02 -0.6396586200692E-02  0.0000000000000E+00 -0.1572237061342E-02
 0.9559307446307E-02 -0.6655497846983E-02  0.0000000000000E+00 -0.1115566319525E-02
 0.7859699979290E-04 -0.5208471177675E-02  0.0000000000000E+00 -0.3051422946577E-03
 0.2326740754168E-03 -0.5304791673712E-02  0.0000000000000E+00 -0.2171265711713E-03
 0.3787620625846E-03 -0.5395749544465E-02  0.0000000000000E+00 -0.1029269820207E-03
 0.5125144225236E-03 -0.5478230140335E-02  0.0000000000000E+00  0.3392249523998E-04
 0.6302300050189E-03 -0.5549719088480E-02  0.0000000000000E+00  0.1883833214785E-03
 0.7293850103268E-03 -0.5608664033557E-02  0.0000000000000E+00  0.3548028070230E-03
 0.8087462362181E-03 -0.5654487753113E-02  0.0000000000000E+00  0.5279760034853E-03
 0.8681593754021E-03 -0.5687346730495E-02  0.0000000000000E+00  0.7039062328967E-03
 0.9081968621170E-03 -0.5707797402178E-02  0.0000000000000E+00  0.8800977259284E-03
 0.9298174940576E-03 -0.5716495868580E-02  0.0000000000000E+00  0.1055448777035E-02
 0.9341165986851E-03 -0.5713988699260E-02  0.0000000000000E+00  0.1229903142435E-02
 0.9221854217949E-03 -0.5700600536873E-02  0.0000000000000E+00  0.1404001519705E-02
 0.8950678205608E-03 -0.5676400739836E-02  0.0000000000000E+00  0.1578426491247E-02
 0.8537946074731E-03 -0.5641228752042E-02  0.0000000000000E+00  0.1753586402066E-02
 0.7994810268638E-03 -0.5594765900577E-02  0.0000000000000E+00  0.1929253554075E-02
 0.7334670857490E-03 -0.5536639338950E-02  0.0000000000000E+00  0.2104294685662E-02
 0.6574899100962E-03 -0.5466553208441E-02  0.0000000000000E+00  0.2276493978700E-02
 0.5738659548639E-03 -0.5384433912463E-02  0.0000000000000E+00  0.2442481688525E-02
 0.4856468937037E-03 -0.5290563232977E-02  0.0000000000000E+00  0.2597791231001E-02
 0.3967434625741E-03 -0.5185709070619E-02  0.0000000000000E+00  0.2737045168107E-02
 0.3120449116931E-03 -0.5071353725647E-02  0.0000000000000E+00  0.2854427444979E-02
 0.2373692536645E-03 -0.4949823242422E-02  0.0000000000000E+00  0.2943977961515E-02
 0.1792188106367E-03 -0.4824098037237E-02  0.0000000000000E+00  0.2999327633928E-02
 0.1446318447596E-03 -0.4697633589587E-02  0.0000000000000E+00  0.3013485765165E-02
 0.1411646030242E-03 -0.4574334872034E-02  0.0000000000000E+00  0.2978916047179E-02
 0.1769369634818E-03 -0.4458635757157E-02  0.0000000000000E+00  0.2887847649108E-02
 0.2606859363787E-03 -0.4355620084179E-02  0.0000000000000E+00  0.2732819046271E-02
 0.4017747125930E-03 -0.4271126074998E-02  0.0000000000000E+00  0.2507487917094E-02
 0.6100965208870E-03 -0.4211782403483E-02  0.0000000000000E+00  0.2207741258467E-02
 0.8957974404439E-03 -0.4184913130604E-02  0.0000000000000E+00  0.1833105264848E-02
 0.1268811888689E-02 -0.4198225223760E-02  0.0000000000000E+00  0.1388291740564E-02
 0.1738288966660E-02 -0.4259276700947E-02  0.0000000000000E+00  0.8846809595538E-03
 0.2311539238623E-02 -0.4374717156785E-02  0.0000000000000E+00  0.3418819861326E-03
 0.2992272039015E-02 -0.4549076114536E-02  0.0000000000000E+00 -0.2111234250246E-03
 0.3778492279100E-02 -0.4783110715124E-02  0.0000000000000E+00 -0.7363314935358E-03
 0.4660320027286E-02 -0.5072019456438E-02  0.0000000000000E+00 -0.1189039070163E-02
 0.5618251385157E-02 -0.5403975288847E-02  0.0000000000000E+00 -0.1522494371825E-02
 0.6622579647210E-02 -0.5759574229158E-02  0.0000000000000E+00 -0.1694680509417E-02
 0.7634614472152E-02 -0.6112749498596E-02  0.0000000000000E+00 -0.1676243329704E-02
 0.8610293136623E-02 -0.6433589388468E-02  0.0000000000000E+00 -0.1457795049558E-02
 0.9506228498459E-02 -0.6693088203175E-02  0.0000000000000E+00 -0.1053332937407E-02
 0.7641847159610E-04 -0.5240669082585E-02  0.0000000000000E+00 -0.2473339556261E-03
 0.2262943212819E-03 -0.5334332301399E-02  0.0000000000000E+00 -0.1614198748892E-03
 0.3685864258023E-03 -0.5422855987449E-02  0.0000000000000E+00 -0.5135375565215E-04
 0.4991805630886E-03 -0.5503253053222E-02  0.0000000000000E+00  0.7954887947904E-04
 0.6145195633781E-03 -0.5573046372656E-02  0.0000000000000E+00  0.2267839620092E-03
 0.7120620782395E-03 -0.5630584429405E-02  0.0000000000000E+00  0.3853377889529E-03
 0.7904112947988E-03 -0.5675079898470E-02  0.0000000000000E+00  0.5505464649031E-03
 0.8491694031546E-03 -0.5706430417329E-02  0.0000000000000E+00  0.7187478724056E-03
 0.8886572056831E-03 -0.5724945425786E-02  0.0000000000000E+00  0.8875631415745E-03
 0.9096253686333E-03 -0.5731085092069E-02  0.0000000000000E+00  0.1055836580872E-02
 0.9130312218721E-03 -0.5725267684072E-02  0.0000000000000E+00  0.1223350824508E-02
 0.8999060599433E-03 -0.5707758836251E-02  0.0000000000000E+00  0.1390435254968E-02
 0.8713092745001E-03 -0.5678633297701E-02  0.0000000000000E+00  0.1557554095046E-02
 0.8283553273562E-03 -0.5637794060405E-02  0.0000000000000E+00  0.1724922157273E-02
 0.7723013319213E-03 -0.5585038460893E-02  0.0000000000000E+00  0.1892168607975E-02
 0.7046746907479E-03 -0.5520155562353E-02  0.0000000000000E+00  0.2058088075138E-02
 0.6274298589007E-03 -0.5443049418112E-02  0.0000000000000E+00  0.2220478589570E-02
 0.5431131904825E-03 -0.5353875301020E-02  0.0000000000000E+00  0.2376075807452E-02
 0.4550029262308E-03 -0.5253163852803E-02  0.0000000000000E+00  0.2520602521477E-02
 0.3672206354705E-03 -0.5141942564579E-02  0.0000000000000E+00  0.2648937968470E-02
 0.2848368375618E-03 -0.5021938702135E-02  0.0000000000000E+00  0.2755567566605E-02
 0.2138296761479E-03 -0.4895702570383E-02  0.0000000000000E+00  0.2834848479720E-02
 0.1608686030812E-03 -0.4766452931861E-02  0.0000000000000E+00  0.2880741382565E-02
 0.1331736820663E-03 -0.4637922065739E-02  0.0000000000000E+00  0.2886632615444E-02
 0.1384786927034E-03 -0.4514324731259E-02  0.0000000000000E+00  0.2845457099024E-02
 0.1850387144194E-03 -0.4400410210622E-02  0.0000000000000E+00  0.2750049047223E-02
 0.2816307812816E-03 -0.4301540988857E-02  0.0000000000000E+00  0.2593707600707E-02
 0.4374979604060E-03 -0.4223742898735E-02  0.0000000000000E+00  0.2371002273397E-02
 0.6621788266184E-03 -0.4173676331186E-02  0.0000000000000E+00  0.2078840929544E-02
 0.9651530343476E-03 -0.4158469239605E-02  0.0000000000000E+00  0.1717782319030E-02
 0.1355308670088E-02 -0.4185340586247E-02  0.0000000000000E+00  0.1293419685962E-02
 0.1840326134922E-02 -0.4261028871050E-02  0.0000000000000E+00  0.8176302810508E-03
 0.2425649362871E-02 -0.4391025065681E-02  0.0000000000000E+00  0.3097828962666E-03
 0.3112869208010E-02 -0.4578437633024E-02  0.0000000000000E+00 -0.2025607604971E-03
 0.3897921338103E-02 -0.4822556822698E-02  0.0000000000000E+00 -0.6843653809879E-03
 0.4769357088585E-02 -0.5117416286969E-02  0.0000000000000E+00 -0.1095578014023E-02
 0.5707137435268E-02 -0.5450748073325E-02  0.0000000000000E+00 -0.1395488305010E-02
 0.6682529982386E-02 -0.5803811110192E-02  0.0000000000000E+00 -0.1548678581813E-02
 0.7659570760699E-02 -0.6152497071811E-02  0.0000000000000E+00 -0.1531591222914E-02
 0.8598417355025E-02 -0.6469956018502E-02  0.0000000000000E+00 -0.1338059599883E-02
 0.9460162172909E-02 -0.6730401468800E-02  0.0000000000000E+00 -0.9813514625254E-03
 0.7438857869320E-04 -0.5272827115079E-02  0.0000000000000E+00 -0.1911761406980E-03
 0.2203726922787E-03 -0.5364008188182E-02  0.0000000000000E+00 -0.1073027738728E-03
 0.3591710003278E-03 -0.5450246684764E-02  0.0000000000000E+00 -0.1242060143711E-05
 0.4868454775539E-03 -0.5528649152807E-02  0.0000000000000E+00  0.1238790807390E-03
 0.5999518215278E-03 -0.5596764391475E-02  0.0000000000000E+00  0.2640105882885E-03
 0.6959342708356E-03 -0.5652857525456E-02  0.0000000000000E+00  0.4146949645314E-03
 0.7732603213475E-03 -0.5695963917549E-02  0.0000000000000E+00  0.5717598258627E-03
 0.8313252634875E-03 -0.5725758036761E-02  0.0000000000000E+00  0.7318705092096E-03
 0.8702310233945E-03 -0.5742331211467E-02  0.0000000000000E+00  0.8927904937200E-03
 0.8905433663769E-03 -0.5745966588356E-02  0.0000000000000E+00  0.1053352497621E-02
 0.8930949135188E-03 -0.5736964318172E-02  0.0000000000000E+00  0.1213225040729E-02
 0.8788622741950E-03 -0.5715535244575E-02  0.0000000000000E+00  0.1372571447955E-02
 0.8489197036392E-03 -0.5681760059875E-02  0.0000000000000E+00  0.1531679424259E-02
 0.8044600418224E-03 -0.5635603321249E-02  0.0000000000000E+00  0.1690609205985E-02
 0.7468730330735E-03 -0.5576973966749E-02  0.0000000000000E+00  0.1848883532983E-02
 0.6778607828608E-03 -0.5505815881891E-02  0.0000000000000E+00  0.2005259012994E-02
 0.5995798858715E-03 -0.5422223246762E-02  0.0000000000000E+00  0.2157577887239E-02
 0.5147904969252E-03 -0.5326568235023E-02  0.0000000000000E+00  0.2302707102801E-02
 0.4269821576142E-03 -0.5219617027835E-02  0.0000000000000E+00  0.2436581057395E-02
 0.3404739449502E-03 -0.5102642746946E-02  0.0000000000000E+00  0.2554356093484E-02
 0.2605069692776E-03 -0.4977604753219E-02  0.0000000000000E+00  0.2650837242405E-02
 0.1932096953179E-03 -0.4847265832277E-02  0.0000000000000E+00  0.2720717651333E-02
 0.1454051085103E-03 -0.4715068281271E-02  0.0000000000000E+00  0.2758312597849E-02
 0.1244739009058E-03 -0.4584998967234E-02  0.0000000000000E+00  0.2757413268307E-02
 0.1382973399326E-03 -0.4461550640798E-02  0.0000000000000E+00  0.2711446492938E-02
 0.1952277311699E-03 -0.4349746362270E-02  0.0000000000000E+00  0.2613852764123E-02
 0.3040391038008E-03 -0.4255176964482E-02  0.0000000000000E+00  0.2458660808403E-02
 0.4738114275621E-03 -0.4183999694474E-02  0.0000000000000E+00  0.2241275315081E-02
 0.7136941579293E-03 -0.4142850037298E-02  0.0000000000000E+00  0.1959489698473E-02
 0.1032487861156E-02 -0.4138612636487E-02  0.0000000000000E+00  0.1614691522250E-02
 0.1438062098924E-02 -0.4177995120940E-02  0.0000000000000E+00  0.1213082631407E-02
 0.1936720122333E-02 -0.4266935404052E-02  0.0000000000000E+00  0.7667113902239E-03
 0.2532218208838E-02 -0.4409849442738E-02  0.0000000000000E+00  0.2943757795607E-03
 0.3224306194277E-02 -0.4608588459643E-02  0.0000000000000E+00 -0.1780267415949E-03
 0.4007207985501E-02 -0.4861211257636E-02  0.0000000000000E+00 -0.6184673968076E-03
 0.4868283513109E-02 -0.5160850359099E-02  0.0000000000000E+00 -0.9912602071145E-03
 0.5787254189077E-02 -0.5495011289098E-02  0.0000000000000E+00 -0.1261074301085E-02
 0.6736451487808E-02 -0.5845685771499E-02  0.0000000000000E+00 -0.1398100415974E-02
 0.7682394799045E-02 -0.6190557422367E-02  0.0000000000000E+00 -0.1383444323874E-02
 0.8588819405800E-02 -0.6505381757051E-02  0.0000000000000E+00 -0.1213320539003E-02
 0.9420571782562E-02 -0.6767081823222E-02  0.0000000000000E+00 -0.9003489627890E-03
 0.7250597494305E-04 -0.5304963643275E-02  0.0000000000000E+00 -0.1365587875070E-03
 0.2149018537154E-03 -0.5393838374263E-02  0.0000000000000E+00 -0.5467486311559E-04
 0.3505022251446E-03 -0.5477946202235E-02  0.0000000000000E+00  0.4747677957640E-04
 0.4754993580046E-03 -0.5554459428477E-02  0.0000000000000E+00  0.1669374188478E-03
 0.5865345166856E-03 -0.5620942099203E-02  0.0000000000000E+00  0.3000481086627E-03
 0.6810375679947E-03 -0.5675587317814E-02  0.0000000000000E+00  0.4428393693489E-03
 0.7573617080304E-03 -0.5717279637047E-02  0.0000000000000E+00  0.5915864882426E-03
 0.8147257470800E-03 -0.5745501029264E-02  0.0000000000000E+00  0.7432728204450E-03
 0.8530415736999E-03 -0.5760151118138E-02  0.0000000000000E+00  0.8958233961526E-03
 0.8727116867137E-03 -0.5761354585461E-02  0.0000000000000E+00  0.1048095311252E-02
 0.8744571472532E-03 -0.5749304339698E-02  0.0000000000000E+00  0.1199685223179E-02
 0.8592055329367E-03 -0.5724161409598E-02  0.0000000000000E+00  0.1350632739726E-02
 0.8280456272616E-03 -0.5686013264096E-02  0.0000000000000E+00  0.1501089104585E-02
 0.7822434886843E-03 -0.5634883731185E-02  0.0000000000000E+00  0.1650997427625E-02
 0.7233122520279E-03 -0.5570788214196E-02  0.0000000000000E+00  0.1799808940657E-02
 0.6531161154967E-03 -0.5493817471890E-02  0.0000000000000E+00  0.1946274152126E-02
 0.5739988891982E-03 -0.5404245247634E-02  0.0000000000000E+00  0.2088307617707E-02
 0.4889187676940E-03 -0.5302647990775E-02  0.0000000000000E+00  0.2222931492335E-02
 0.4015614725033E-03 -0.5190013443666E-02  0.0000000000000E+00  0.2346312383242E-02
 0.3164300155633E-03 -0.5067845621141E-02  0.0000000000000E+00  0.2453902518696E-02
 0.2389247897404E-03 -0.4938322211282E-02  0.0000000000000E+00  0.2540842698676E-02
 0.1753140356520E-03 -0.4804405731329E-02  0.0000000000000E+00  0.2602177897303E-02
 0.1325604377599E-03 -0.4669746396485E-02  0.0000000000000E+00  0.2632598156631E-02
 0.1181851307328E-03 -0.4538563324468E-02  0.0000000000000E+00  0.2626320698391E-02
 0.1401896386353E-03 -0.4415596566954E-02  0.0000000000000E+00  0.2577276945258E-02
 0.2069906322547E-03 -0.4306104201721E-02  0.0000000000000E+00  0.2479506307157E-02
 0.3273239814310E-03 -0.4215860371058E-02  0.0000000000000E+00  0.2327727853392E-02
 0.5100746475348E-03 -0.4151105910374E-02  0.0000000000000E+00  0.2118098791828E-02
 0.7639828454793E-03 -0.4118406833093E-02  0.0000000000000E+00  0.1849161992834E-02
 0.1097174125417E-02 -0.4124372864381E-02  0.0000000000000E+00  0.1522939161491E-02
 0.1516543836354E-02 -0.4175194570030E-02  0.0000000000000E+00  0.1145992390545E-02
 0.2027120846424E-02 -0.4276044242781E-02  0.0000000000000E+00  0.7302599356945E-03
 0.2631150795414E-02 -0.4430354491128E-02  0.0000000000000E+00  0.2937031766433E-03
 0.3326796060090E-02 -0.4638875345508E-02  0.0000000000000E+00 -0.1396141198968E-03
 0.4106875274080E-02 -0.4898640554259E-02  0.0000000000000E+00 -0.5406458748993E-03
 0.4957859832844E-02 -0.5202096736655E-02  0.0000000000000E+00 -0.8777723031080E-03
 0.5859444725775E-02 -0.5536680748495E-02  0.0000000000000E+00 -0.1120435193061E-02
 0.6785049106835E-02 -0.5885140779472E-02  0.0000000000000E+00 -0.1243583520655E-02
 0.7703424699607E-02 -0.6226775236702E-02  0.0000000000000E+00 -0.1232080828404E-02
 0.8581361121161E-02 -0.6539565231145E-02  0.0000000000000E+00 -0.1083909179937E-02
 0.9386907276490E-02 -0.6802745597296E-02  0.0000000000000E+00 -0.8110373063685E-03
 0.7077055697022E-04 -0.5337102202169E-02  0.0000000000000E+00 -0.8337111142360E-04
 0.2098786223694E-03 -0.5423848082297E-02  0.0000000000000E+00 -0.3432991096784E-05
 0.3425731319355E-03 -0.5505985131740E-02  0.0000000000000E+00  0.9488066905402E-04
 0.4651390621953E-03 -0.5580728534763E-02  0.0000000000000E+00  0.2087658061914E-03
 0.5742794464974E-03 -0.5645647816007E-02  0.0000000000000E+00  0.3349055474478E-03
 0.6674078161073E-03 -0.5698872164740E-02  0.0000000000000E+00  0.4697626290162E-03
 0.7427793677365E-03 -0.5739156795504E-02  0.0000000000000E+00  0.6100219648116E-03
 0.7994616281985E-03 -0.5765817497617E-02  0.0000000000000E+00  0.7529746715848E-03
 0.8372016554057E-03 -0.5778586103407E-02  0.0000000000000E+00  0.8967219408590E-03
 0.8562585486957E-03 -0.5777446644462E-02  0.0000000000000E+00  0.1040175825108E-02
 0.8572544991573E-03 -0.5762495910811E-02  0.0000000000000E+00  0.1182898897105E-02
 0.8410738406500E-03 -0.5733850551233E-02  0.0000000000000E+00  0.1324846215932E-02
 0.8088197812504E-03 -0.5691605828849E-02  0.0000000000000E+00  0.1466070357208E-02
 0.7618265802572E-03 -0.5635842314842E-02  0.0000000000000E+00  0.1606432803348E-02
 0.7017216190075E-03 -0.5566676194728E-02  0.0000000000000E+00  0.1745346144404E-02
 0.6305187496976E-03 -0.5484336491272E-02  0.0000000000000E+00  0.1881584488904E-02
 0.5507343681505E-03 -0.5389265327541E-02  0.0000000000000E+00  0.2013160628741E-02
 0.4655092635912E-03 -0.5282230245349E-02  0.0000000000000E+00  0.2137273942069E-02
 0.3787103567560E-03 -0.5164425987526E-02  0.0000000000000E+00  0.2250342212062E-02
 0.2950108633330E-03 -0.5037572054993E-02  0.0000000000000E+00  0.2348130619752E-02
 0.2199587263554E-03 -0.4904049961860E-02  0.0000000000000E+00  0.2426129891149E-02
 0.1599509747888E-03 -0.4767008463323E-02  0.0000000000000E+00  0.2479749942327E-02
 0.1220762372755E-03 -0.4630289557131E-02  0.0000000000000E+00  0.2504071496496E-02
 0.1139771725844E-03 -0.4498322480328E-02  0.0000000000000E+00  0.2493753182383E-02
 0.1437513410629E-03 -0.4376065360126E-02  0.0000000000000E+00  0.2443236920212E-02
 0.2198520951983E-03 -0.4268975755951E-02  0.0000000000000E+00  0.2347146831900E-02
 0.3509496745425E-03 -0.4182971581852E-02  0.0000000000000E+00  0.2200847357132E-02
 0.5457125021392E-03 -0.4124337704349E-02  0.0000000000000E+00  0.2001162753011E-02
 0.8124642578458E-03 -0.4099537352339E-02  0.0000000000000E+00  0.1747252150481E-02
 0.1158673591952E-02 -0.4114887406458E-02  0.0000000000000E+00  0.1441589105741E-02
 0.1590318490377E-02 -0.4176069955361E-02  0.0000000000000E+00  0.1090873446266E-02
 0.2111262648449E-02 -0.4287538185429E-02  0.0000000000000E+00  0.7066939245767E-03
 0.2722411991236E-02 -0.4451836417729E-02  0.0000000000000E+00  0.3059651926588E-03
 0.3420570043810E-02 -0.4668758891800E-02  0.0000000000000E+00 -0.8919322099135E-04
 0.4197410309190E-02 -0.4934492930630E-02  0.0000000000000E+00 -0.4526516434571E-03
 0.5038755629968E-02 -0.5240972483540E-02  0.0000000000000E+00 -0.7565542705413E-03
 0.5924422182792E-02 -0.5575677572334E-02  0.0000000000000E+00 -0.9745687382507E-03
 0.6828895141593E-02 -0.5922102676356E-02  0.0000000000000E+00 -0.1085681954326E-02
 0.7722915807770E-02 -0.6260986425825E-02  0.0000000000000E+00 -0.1077793226248E-02
 0.8575895829675E-02 -0.6572218442018E-02  0.0000000000000E+00 -0.9501845874450E-03
 0.9358634645609E-02 -0.6837017422182E-02  0.0000000000000E+00 -0.7141194833274E-03
 0.6918316140448E-04 -0.5369270141920E-02  0.0000000000000E+00 -0.3150109532783E-04
 0.2053030164016E-03 -0.5454067118769E-02  0.0000000000000E+00  0.4652877296185E-04
 0.3353819394823E-03 -0.5534398529864E-02  0.0000000000000E+00  0.1410554447193E-03
 0.4557667967538E-03 -0.5607503715178E-02  0.0000000000000E+00  0.2494209330871E-03
 0.5632017251888E-03 -0.5670948922601E-02  0.0000000000000E+00  0.3686123474524E-03
 0.6550807006217E-03 -0.5722805201691E-02  0.0000000000000E+00  0.4954793050790E-03
 0.7295732554971E-03 -0.5761715885491E-02  0.0000000000000E+00  0.6270839238671E-03
 0.7856164512196E-03 -0.5786853145593E-02  0.0000000000000E+00  0.7610150380739E-03
 0.8228144306951E-03 -0.5797802541867E-02  0.0000000000000E+00  0.8955613145192E-03
 0.8413009480779E-03 -0.5794424297837E-02  0.0000000000000E+00  0.1029715857687E-02
 0.8416113509477E-03 -0.5776730141346E-02  0.0000000000000E+00  0.1163040786926E-02
 0.8245924657141E-03 -0.5744798001748E-02  0.0000000000000E+00  0.1295442486238E-02
 0.7913619655223E-03 -0.5698732053666E-02  0.0000000000000E+00  0.1426910057041E-02
 0.7433174456725E-03 -0.5638666903552E-02  0.0000000000000E+00  0.1557256566491E-02
 0.6821915481474E-03 -0.5564813425494E-02  0.0000000000000E+00  0.1685886568826E-02
 0.6101355663918E-03 -0.5477529791434E-02  0.0000000000000E+00  0.1811625195791E-02
 0.5298241594699E-03 -0.5377414825303E-02  0.0000000000000E+00  0.1932607252399E-02
 0.4445655646763E-03 -0.5265413505803E-02  0.0000000000000E+00  0.2046229488473E-02
 0.3583930675287E-03 -0.5142912509908E-02  0.0000000000000E+00  0.2149178173359E-02
 0.2761362836646E-03 -0.5011830857165E-02  0.0000000000000E+00  0.2237546766977E-02
 0.2034787289873E-03 -0.4874738808342E-02  0.0000000000000E+00  0.2307188120971E-02
 0.1469350347823E-03 -0.4734957321786E-02  0.0000000000000E+00  0.2353887676390E-02
 0.1137063531976E-03 -0.4596503772121E-02  0.0000000000000E+00  0.2373128982634E-02
 0.1115394181253E-03 -0.4463995860664E-02  0.0000000000000E+00  0.2360022456426E-02
 0.1486067138112E-03 -0.4342582290761E-02  0.0000000000000E+00  0.2309520873027E-02
 0.2333756972565E-03 -0.4237887993841E-02  0.0000000000000E+00  0.2216813720730E-02
 0.3744308350587E-03 -0.4155940649960E-02  0.0000000000000E+00  0.2077862357098E-02
 0.5802120272798E-03 -0.4103037528332E-02  0.0000000000000E+00  0.1890072551267E-02
 0.8586303843922E-03 -0.4085516022975E-02  0.0000000000000E+00  0.1653092281636E-02
 0.1216527329108E-02 -0.4109394018068E-02  0.0000000000000E+00  0.1369679224035E-02
 0.1659029523177E-02 -0.4179865108045E-02  0.0000000000000E+00  0.1046474360396E-02
 0.2188947492136E-02 -0.4300717809334E-02  0.0000000000000E+00  0.6945156991255E-03
 0.2806009629366E-02 -0.4473703251848E-02  0.0000000000000E+00  0.3295079268794E-03
 0.3505864552528E-02 -0.4697793159974E-02  0.0000000000000E+00 -0.2843890592252E-04
 0.4279259457924E-02 -0.4968481312532E-02  0.0000000000000E+00 -0.3560181489434E-03
 0.5111556044464E-02 -0.5277326339267E-02  0.0000000000000E+00 -0.6288458683060E-03
 0.5982788122120E-02 -0.5611926485140E-02  0.0000000000000E+00 -0.8243304462060E-03
 0.6868455087079E-02 -0.5956489192353E-02  0.0000000000000E+00 -0.9248916091109E-03
 0.7741059664971E-02 -0.6293027620327E-02  0.0000000000000E+00 -0.9208862281845E-03
 0.8572270215965E-02 -0.6603071274421E-02  0.0000000000000E+00 -0.8125276495012E-03
 0.9335250737997E-02 -0.6869542499095E-02  0.0000000000000E+00 -0.6102994349542E-03
 0.6774532555767E-04 -0.5401497526430E-02  0.0000000000000E+00  0.1916488381619E-04
 0.2011774977626E-03 -0.5484528567474E-02  0.0000000000000E+00  0.9531915177391E-04
 0.3289309138405E-03 -0.5563224617182E-02  0.0000000000000E+00  0.1860938358073E-03
 0.4473890099116E-03 -0.5634833854526E-02  0.0000000000000E+00  0.2889719783222E-03
 0.5533191029838E-03 -0.5696911509918E-02  0.0000000000000E+00  0.4012152605798E-03
 0.6440916420929E-03 -0.5747474585496E-02  0.0000000000000E+00  0.5200236796241E-03
 0.7177997437871E-03 -0.5785068789800E-02  0.0000000000000E+00  0.6428094326757E-03
 0.7732671751755E-03 -0.5808742051580E-02  0.0000000000000E+00  0.7674499254681E-03
 0.8099741520697E-03 -0.5817952953157E-02  0.0000000000000E+00  0.8924303179583E-03
 0.8279453702735E-03 -0.5812453667911E-02  0.0000000000000E+00  0.1016847150056E-02
 0.8276405841824E-03 -0.5792181636858E-02  0.0000000000000E+00  0.1140291912250E-02
 0.8098746692229E-03 -0.5757181782464E-02  0.0000000000000E+00  0.1262654861644E-02
 0.7757798790277E-03 -0.5707568338943E-02  0.0000000000000E+00  0.1383893993699E-02
 0.7268124312189E-03 -0.5643527095271E-02  0.0000000000000E+00  0.1503804635971E-02
 0.6648014350034E-03 -0.5565357211314E-02  0.0000000000000E+00  0.1621811487909E-02
 0.5920236672092E-03 -0.5473536505575E-02  0.0000000000000E+00  0.1736815796877E-02
 0.5112980353904E-03 -0.5368808427551E-02  0.0000000000000E+00  0.1847096024849E-02
 0.4260853614998E-03 -0.5252281339747E-02  0.0000000000000E+00  0.1950264586730E-02
 0.3405706186297E-03 -0.5125518356194E-02  0.0000000000000E+00  0.2043291877220E-02
 0.2597260231571E-03 -0.4990621591315E-02  0.0000000000000E+00  0.2122613223624E-02
 0.1893585911979E-03 -0.4850334535854E-02  0.0000000000000E+00  0.2184453927596E-02
 0.1360893679853E-03 -0.4708135952907E-02  0.0000000000000E+00  0.2224983238415E-02
 0.1072191354516E-03 -0.4568202125534E-02  0.0000000000000E+00  0.2240096397335E-02
 0.1105828508934E-03 -0.4435318247811E-02  0.0000000000000E+00  0.2225361826914E-02
 0.1544099229089E-03 -0.4314797992216E-02  0.0000000000000E+00  0.2176239169528E-02
 0.2471642574392E-03 -0.4212405044967E-02  0.0000000000000E+00  0.2088460406369E-02
 0.3973312553425E-03 -0.4134248239782E-02  0.0000000000000E+00  0.1958533905401E-02
 0.6131189290871E-03 -0.4086613038916E-02  0.0000000000000E+00  0.1784363651060E-02
 0.9020395071547E-03 -0.4075697127626E-02  0.0000000000000E+00  0.1565967024466E-02
 0.1270346186583E-02 -0.4107223199480E-02  0.0000000000000E+00  0.1306233919295E-02
 0.1722386787808E-02 -0.4185925216997E-02  0.0000000000000E+00  0.1011575035571E-02
 0.2260030780494E-02 -0.4314986535307E-02  0.0000000000000E+00  0.6923104623880E-03
 0.2881980984663E-02 -0.4495457924481E-02  0.0000000000000E+00  0.3628104423483E-03
 0.3582911586998E-02 -0.4725609262326E-02  0.0000000000000E+00  0.4114414753839E-04
 0.4352826059175E-02 -0.5000370364366E-02  0.0000000000000E+00 -0.2520963035902E-03
 0.5176768911486E-02 -0.5311031656857E-02  0.0000000000000E+00 -0.4957247984510E-03
 0.6035048649431E-02 -0.5645355863093E-02  0.0000000000000E+00 -0.6704658659382E-03
 0.6904107664069E-02 -0.5988214896265E-02  0.0000000000000E+00 -0.7616664785745E-03
 0.7757997709124E-02 -0.6322741611793E-02  0.0000000000000E+00 -0.7616750734121E-03
 0.8570328183794E-02 -0.6631873551604E-02  0.0000000000000E+00 -0.6713397823604E-03
 0.9316290584589E-02 -0.6899992344099E-02  0.0000000000000E+00 -0.5002875623617E-03
 0.6645909685196E-04 -0.5433816234617E-02  0.0000000000000E+00  0.6874231883587E-04
 0.1975063664460E-03 -0.5515267721895E-02  0.0000000000000E+00  0.1430496492707E-03
 0.3232254441319E-03 -0.5592503698969E-02  0.0000000000000E+00  0.2300946173271E-03
 0.4400154660660E-03 -0.5662768657709E-02  0.0000000000000E+00  0.3274987230157E-03
 0.5446513587815E-03 -0.5723600021982E-02  0.0000000000000E+00  0.4327757125205E-03
 0.6344756516088E-03 -0.5772963625447E-02  0.0000000000000E+00  0.5434469203024E-03
 0.7075118904792E-03 -0.5809319263490E-02  0.0000000000000E+00  0.6572524040153E-03
 0.7624847010043E-03 -0.5831607307695E-02  0.0000000000000E+00  0.7723503314221E-03
 0.7987667985094E-03 -0.5839176646740E-02  0.0000000000000E+00  0.8874298405275E-03
 0.8162884483329E-03 -0.5831686054431E-02  0.0000000000000E+00  0.1001710223438E-02
 0.8154442450034E-03 -0.5809009050026E-02  0.0000000000000E+00  0.1114838688585E-02
 0.7970224110329E-03 -0.5771163192597E-02  0.0000000000000E+00  0.1226718618510E-02
 0.7621699200936E-03 -0.5718273902519E-02  0.0000000000000E+00  0.1337306300890E-02
 0.7123970411055E-03 -0.5650575177855E-02  0.0000000000000E+00  0.1446407280697E-02
 0.6496207642210E-03 -0.5568447826969E-02  0.0000000000000E+00  0.1553492029403E-02
 0.5762316565986E-03 -0.5472479513679E-02  0.0000000000000E+00  0.1657560619488E-02
 0.4951791584859E-03 -0.5363545919533E-02  0.0000000000000E+00  0.1757054676159E-02
 0.4100620812794E-03 -0.5242904405286E-02  0.0000000000000E+00  0.1849818716984E-02
 0.3252025768910E-03 -0.5112278664493E-02  0.0000000000000E+00  0.1933121222304E-02
 0.2457017327274E-03 -0.4973937121722E-02  0.0000000000000E+00  0.2003751266755E-02
 0.1774780167762E-03 -0.4830780666889E-02  0.0000000000000E+00  0.2058315165036E-02
 0.1272478480882E-03 -0.4686431254993E-02  0.0000000000000E+00  0.2093372213104E-02
 0.1023994061642E-03 -0.4545207710720E-02  0.0000000000000E+00  0.2105235426240E-02
 0.1108416753171E-03 -0.4412042577611E-02  0.0000000000000E+00  0.2089934093892E-02
 0.1608460243913E-03 -0.4292390860882E-02  0.0000000000000E+00  0.2043427537011E-02
 0.2608597967414E-03 -0.4192129826919E-02  0.0000000000000E+00  0.1961965316203E-02
 0.4192623192818E-03 -0.4117425972672E-02  0.0000000000000E+00  0.1842553230965E-02
 0.6440340083993E-03 -0.4074535538533E-02  0.0000000000000E+00  0.1683514322673E-02
 0.9423101624537E-03 -0.4069510689340E-02  0.0000000000000E+00  0.1485125492464E-02
 0.1319802145852E-02 -0.4107791021919E-02  0.0000000000000E+00  0.1250273357322E-02
 0.1780155678433E-02 -0.4193686493835E-02  0.0000000000000E+00  0.9849906810087E-03
 0.2324409528477E-02 -0.4329837709342E-02  0.0000000000000E+00  0.6987423474702E-03
 0.2950382073613E-02 -0.4516684183437E-02  0.0000000000000E+00  0.4044711198203E-03
 0.3651931856988E-02 -0.4751902234350E-02  0.0000000000000E+00  0.1181982013091E-03
 0.4418469888792E-02 -0.5029966648854E-02  0.0000000000000E+00 -0.1420844379707E-03
 0.5234831908455E-02 -0.5341981648966E-02  0.0000000000000E+00 -0.3581376474795E-03
 0.6081628146463E-02 -0.5675898473031E-02  0.0000000000000E+00 -0.5136348766652E-03
 0.6936160478273E-02 -0.6017195369452E-02  0.0000000000000E+00 -0.5964297159216E-03
 0.7773832040014E-02 -0.6349980742381E-02  0.0000000000000E+00 -0.6004847861999E-03
 0.8569915293655E-02 -0.6658396509417E-02  0.0000000000000E+00 -0.5270424500839E-03
 0.9301330971090E-02 -0.6928067743356E-02  0.0000000000000E+00 -0.3848033599139E-03
 0.6532688005577E-04 -0.5466259227912E-02  0.0000000000000E+00  0.1173487481128E-03
 0.1942952760264E-03 -0.5546321213785E-02  0.0000000000000E+00  0.1898345136012E-03
 0.3182732951333E-03 -0.5622277272858E-02  0.0000000000000E+00  0.2731618994024E-03
 0.4336584789018E-03 -0.5691357946327E-02  0.0000000000000E+00  0.3650899700542E-03
 0.5372197713151E-03 -0.5751076912917E-02  0.0000000000000E+00  0.4633675430454E-03
 0.6262671727776E-03 -0.5799350838705E-02  0.0000000000000E+00  0.5658145650316E-03
 0.6987596320914E-03 -0.5834563296724E-02  0.0000000000000E+00  0.6704812334969E-03
 0.7533343058352E-03 -0.5855561543994E-02  0.0000000000000E+00  0.7758002720059E-03
 0.7892706313991E-03 -0.5861600284477E-02  0.0000000000000E+00  0.8806713248431E-03
 0.8064175642692E-03 -0.5852258477562E-02  0.0000000000000E+00  0.9844532177417E-03
 0.8051141704244E-03 -0.5827355613283E-02  0.0000000000000E+00  0.1086872049600E-02
 0.7861270220720E-03 -0.5786887385914E-02  0.0000000000000E+00  0.1187870350232E-02
 0.7506179434738E-03 -0.5730991471463E-02  0.0000000000000E+00  0.1287429041923E-02
 0.7001468150544E-03 -0.5659947000285E-02  0.0000000000000E+00  0.1385388994851E-02
 0.6367101296949E-03 -0.5574209612219E-02  0.0000000000000E+00  0.1481289424034E-02
 0.5628008126547E-03 -0.5474466783534E-02  0.0000000000000E+00  0.1574249505267E-02
 0.4814854039875E-03 -0.5361713777786E-02  0.0000000000000E+00  0.1662891381892E-02
 0.3964863612385E-03 -0.5237342291878E-02  0.0000000000000E+00  0.1745306249184E-02
 0.3122486828780E-03 -0.5103220444582E-02  0.0000000000000E+00  0.1819072955118E-02
 0.2339887173729E-03 -0.4961765908690E-02  0.0000000000000E+00  0.1881344542143E-02
 0.1677244507093E-03 -0.4816020931767E-02  0.0000000000000E+00  0.1929115274623E-02
 0.1202568916629E-03 -0.4669735953103E-02  0.0000000000000E+00  0.1959338954332E-02
 0.9905012717509E-04 -0.4527356195482E-02  0.0000000000000E+00  0.1968750154554E-02
 0.1120746221314E-03 -0.4393942321789E-02  0.0000000000000E+00  0.1953839302771E-02
 0.1676316281104E-03 -0.4275069002902E-02  0.0000000000000E+00  0.1911056074109E-02
 0.2741432073659E-03 -0.4176705206184E-02  0.0000000000000E+00  0.1837141998250E-02
 0.4398812674093E-03 -0.4105056351193E-02  0.0000000000000E+00  0.1729552595320E-02
 0.6726096118671E-03 -0.4066338143370E-02  0.0000000000000E+00  0.1586956470102E-02
 0.9791154826323E-03 -0.4066458383217E-02  0.0000000000000E+00  0.1409790830792E-02
 0.1364620549169E-02 -0.4110592459131E-02  0.0000000000000E+00  0.1200820001112E-02
 0.1832147745091E-02 -0.4202666983137E-02  0.0000000000000E+00  0.9655732456810E-03
 0.2382012529252E-02 -0.4344843529332E-02  0.0000000000000E+00  0.7125488073235E-03
 0.3011279196693E-02 -0.4537034928250E-02  0.0000000000000E+00  0.4531939486478E-03
 0.3713129874394E-02 -0.4776420557148E-02  0.0000000000000E+00  0.2014913151721E-03
 0.4476507688538E-02 -0.5057111160417E-02  0.0000000000000E+00 -0.2705394997965E-04
 0.5286119239639E-02 -0.5370086159281E-02  0.0000000000000E+00 -0.2169249908295E-03
 0.6122880741845E-02 -0.5703492373431E-02  0.0000000000000E+00 -0.3544302479046E-03
 0.6964862431104E-02 -0.6043350263166E-02  0.0000000000000E+00 -0.4295816509361E-03
 0.7788634221698E-02 -0.6374609281713E-02  0.0000000000000E+00 -0.4376499193220E-03
 0.8570882995443E-02 -0.6682434029451E-02  0.0000000000000E+00 -0.3800764016512E-03
 0.9289992303343E-02 -0.6953500505329E-02  0.0000000000000E+00 -0.2645764525169E-03
 0.6435131667218E-04 -0.5498859956424E-02  0.0000000000000E+00  0.1651038595184E-03
 0.1915508484892E-03 -0.5577726305890E-02  0.0000000000000E+00  0.2357906744674E-03
 0.3140840076098E-03 -0.5652587297020E-02  0.0000000000000E+00  0.3154045149749E-03
 0.4283322839543E-03 -0.5720651065345E-02  0.0000000000000E+00  0.4018421967281E-03
 0.5310466702767E-03 -0.5779402333089E-02  0.0000000000000E+00  0.4930750447240E-03
 0.6194999288941E-03 -0.5826709959105E-02  0.0000000000000E+00  0.5872042742701E-03
 0.6915899262455E-03 -0.5860889387565E-02  0.0000000000000E+00  0.6825766117201E-03
 0.7458760025414E-03 -0.5880707356354E-02  0.0000000000000E+00  0.7778948847866E-03
 0.7815566775551E-03 -0.5885338365265E-02  0.0000000000000E+00  0.8722752466342E-03
 0.7984113905592E-03 -0.5874294168232E-02  0.0000000000000E+00  0.9652307335414E-03
 0.7967325659884E-03 -0.5847349636903E-02  0.0000000000000E+00  0.1056586602587E-02
 0.7772698299708E-03 -0.5804483916620E-02  0.0000000000000E+00  0.1146347404569E-02
 0.7411999619721E-03 -0.5745847931591E-02  0.0000000000000E+00  0.1234541937124E-02
 0.6901281336425E-03 -0.5671762778169E-02  0.0000000000000E+00  0.1321068561540E-02
 0.6261221619212E-03 -0.5582751970857E-02  0.0000000000000E+00  0.1405555473646E-02
 0.5517661445506E-03 -0.5479592583698E-02  0.0000000000000E+00  0.1487258755687E-02
 0.4702305494395E-03 -0.5363386603957E-02  0.0000000000000E+00  0.1564996254445E-02
 0.3853473700920E-03 -0.5235645173306E-02  0.0000000000000E+00  0.1637118547219E-02
 0.3016702983041E-03 -0.5098364440371E-02  0.0000000000000E+00  0.1701525462021E-02
 0.2245174878076E-03 -0.4954094057696E-02  0.0000000000000E+00  0.1755742633412E-02
 0.1599946850516E-03 -0.4806001461077E-02  0.0000000000000E+00  0.1797157731916E-02
 0.1149770288573E-03 -0.4657950862214E-02  0.0000000000000E+00  0.1823122009924E-02
 0.9699379713312E-04 -0.4514498042372E-02  0.0000000000000E+00  0.1830793546545E-02
 0.1140659769821E-03 -0.4380813496550E-02  0.0000000000000E+00  0.1817122300766E-02
 0.1745153024543E-03 -0.4262571792344E-02  0.0000000000000E+00  0.1779037810038E-02
 0.2867337220350E-03 -0.4165814787559E-02  0.0000000000000E+00  0.1713748453541E-02
 0.4588893870482E-03 -0.4096772388244E-02  0.0000000000000E+00  0.1619114932638E-02
 0.6985462256882E-03 -0.4061613826187E-02  0.0000000000000E+00  0.1494084788256E-02
 0.1012178008173E-02 -0.4066109618284E-02  0.0000000000000E+00  0.1339167715852E-02
 0.1404573224979E-02 -0.4115195320290E-02  0.0000000000000E+00  0.1156902930580E-02
 0.1878212665524E-02 -0.4212458507042E-02  0.0000000000000E+00  0.9522108965179E-03
 0.2432792244232E-02 -0.4359645645111E-02  0.0000000000000E+00  0.7325338767284E-03
 0.3064742300113E-02 -0.4556222610853E-02  0.0000000000000E+00  0.5077750931768E-03
 0.3766690522464E-02 -0.4798957826095E-02  0.0000000000000E+00  0.2898982407279E-03
 0.4527214311637E-02 -0.5081673658840E-02  0.0000000000000E+00  0.9202874796443E-04
 0.5330947657263E-02 -0.5395269447158E-02  0.0000000000000E+00 -0.7284185428066E-04
 0.6159099821667E-02 -0.5728081783215E-02  0.0000000000000E+00 -0.1933920561619E-03
 0.6990413689984E-02 -0.6066605598222E-02  0.0000000000000E+00 -0.2615057883051E-03
 0.7802452569794E-02 -0.6396505256605E-02  0.0000000000000E+00 -0.2735143101153E-03
 0.8573092388267E-02 -0.6703803719522E-02  0.0000000000000E+00 -0.2309003807967E-03
 0.9281939493921E-02 -0.6976054643229E-02  0.0000000000000E+00 -0.1403464688067E-03
 0.6353518988514E-04 -0.5531651882978E-02  0.0000000000000E+00  0.2121295380578E-03
 0.1892803705778E-03 -0.5609520325088E-02  0.0000000000000E+00  0.2810376590917E-03
 0.3106684222991E-03 -0.5683475599251E-02  0.0000000000000E+00  0.3569354812578E-03
 0.4240525330750E-03 -0.5750696394115E-02  0.0000000000000E+00  0.4378583882854E-03
 0.5261550649569E-03 -0.5808633856244E-02  0.0000000000000E+00  0.5219912406171E-03
 0.6142067863678E-03 -0.5855109923152E-02  0.0000000000000E+00  0.6077038071416E-03
 0.6860468595368E-03 -0.5888378750085E-02  0.0000000000000E+00  0.6936294936240E-03
 0.7401648372372E-03 -0.5907137656257E-02  0.0000000000000E+00  0.7787386129303E-03
 0.7756891438286E-03 -0.5910493639104E-02  0.0000000000000E+00  0.8623696239402E-03
 0.7923403677868E-03 -0.5897903003130E-02  0.0000000000000E+00  0.9442026896897E-03
 0.7903725246849E-03 -0.5869104963048E-02  0.0000000000000E+00  0.1024179819102E-02
 0.7705227251277E-03 -0.5824067241958E-02  0.0000000000000E+00  0.1102387394918E-02
 0.7339827798560E-03 -0.5762954922383E-02  0.0000000000000E+00  0.1178922207994E-02
 0.6823989405474E-03 -0.5686127823334E-02  0.0000000000000E+00  0.1253759268757E-02
 0.6179023542240E-03 -0.5594170266454E-02  0.0000000000000E+00  0.1326633194656E-02
 0.5431573303684E-03 -0.5487938563545E-02  0.0000000000000E+00  0.1396952263687E-02
 0.4614253268028E-03 -0.5368628396282E-02  0.0000000000000E+00  0.1463743022507E-02
 0.3766339737351E-03 -0.5237855269563E-02  0.0000000000000E+00  0.1525626256946E-02
 0.2934316777793E-03 -0.5097726772560E-02  0.0000000000000E+00  0.1580831733634E-02
 0.2172251148583E-03 -0.4950907119499E-02  0.0000000000000E+00  0.1627264779096E-02
 0.1541962462916E-03 -0.4800672699654E-02  0.0000000000000E+00  0.1662710595624E-02
 0.1112842385365E-03 -0.4650986843693E-02  0.0000000000000E+00  0.1684919571477E-02
 0.9607360568733E-04 -0.4506500398340E-02  0.0000000000000E+00  0.1691473831429E-02
 0.1166263758860E-03 -0.4372476326453E-02  0.0000000000000E+00  0.1679780027671E-02
 0.1812777833273E-03 -0.4254671090476E-02  0.0000000000000E+00  0.1647236762053E-02
 0.2983882674606E-03 -0.4159183406530E-02  0.0000000000000E+00  0.1591495663378E-02
 0.4760302274519E-03 -0.4092257039476E-02  0.0000000000000E+00  0.1510782329998E-02
 0.7215893131738E-03 -0.4060013446216E-02  0.0000000000000E+00  0.1404264403716E-02
 0.1041265045458E-02 -0.4068097892012E-02  0.0000000000000E+00  0.1272448072773E-02
 0.1439472521255E-02 -0.4121234839590E-02  0.0000000000000E+00  0.1117560338196E-02
 0.1918231482761E-02 -0.4222719708004E-02  0.0000000000000E+00  0.9438259970700E-03
 0.2476718200713E-02 -0.4373947267478E-02  0.0000000000000E+00  0.7575607199224E-03
 0.3110839832487E-02 -0.4574011401480E-02  0.0000000000000E+00  0.5670899591463E-03
 0.3812776736088E-02 -0.4819346163339E-02  0.0000000000000E+00  0.3823832445963E-03
 0.4570824196082E-02 -0.5103548376478E-02  0.0000000000000E+00  0.2142834584954E-03
 0.5369581763275E-02 -0.5417468662459E-02  0.0000000000000E+00  0.7342555052534E-04
 0.6190525890398E-02 -0.5749617868488E-02  0.0000000000000E+00 -0.3101896753122E-04
 0.7012973761327E-02 -0.6086895556032E-02  0.0000000000000E+00 -0.9257323750847E-04
 0.7815318185366E-02 -0.6415561940279E-02  0.0000000000000E+00 -0.1084305088661E-03
 0.8576417391354E-02 -0.6722347868666E-02  0.0000000000000E+00 -0.7998924343294E-04
 0.9276882322914E-02 -0.6995527208634E-02  0.0000000000000E+00 -0.1286209266185E-04
 0.6288135046935E-04 -0.5564668108866E-02  0.0000000000000E+00  0.2585498695745E-03
 0.1874915584010E-03 -0.5641740216314E-02  0.0000000000000E+00  0.3256974890971E-03
 0.3080383092567E-03 -0.5714983409161E-02  0.0000000000000E+00  0.3978715138206E-03
 0.4208358970333E-03 -0.5781540953169E-02  0.0000000000000E+00  0.4732470075219E-03
 0.5225683480007E-03 -0.5838826251525E-02  0.0000000000000E+00  0.5502163474251E-03
 0.6104196429522E-03 -0.5884614846062E-02  0.0000000000000E+00  0.6274091776802E-03
 0.6821717343634E-03 -0.5917105472098E-02  0.0000000000000E+00  0.7037392013836E-03
 0.7362511366259E-03 -0.5934935951477E-02  0.0000000000000E+00  0.7784434660126E-03
 0.7717257695567E-03 -0.5937157451062E-02  0.0000000000000E+00  0.8510885630682E-03
 0.7882671184763E-03 -0.5923181876715E-02  0.0000000000000E+00  0.9215332068913E-03
 0.7860984827075E-03 -0.5892721362639E-02  0.0000000000000E+00  0.9898512677270E-03
 0.7659486609707E-03 -0.5845737166191E-02  0.0000000000000E+00  0.1056227786442E-02
 0.7290245524339E-03 -0.5782409362677E-02  0.0000000000000E+00  0.1120844533456E-02
 0.6770093782549E-03 -0.5703133185668E-02  0.0000000000000E+00  0.1183769269881E-02
 0.6120897871455E-03 -0.5608546606732E-02  0.0000000000000E+00  0.1244857629285E-02
 0.5369995370541E-03 -0.5499574696106E-02  0.0000000000000E+00  0.1303682826929E-02
 0.4550783405508E-03 -0.5377493657632E-02  0.0000000000000E+00  0.1359490898749E-02
 0.3703357501755E-03 -0.5244008119293E-02  0.0000000000000E+00  0.1411181783214E-02
 0.2875010718185E-03 -0.5101320365887E-02  0.0000000000000E+00  0.1457322511241E-02
 0.2120563965652E-03 -0.4952191649128E-02  0.0000000000000E+00  0.1496203751581E-02
 0.1502485787906E-03 -0.4799991055070E-02  0.0000000000000E+00  0.1526011177521E-02
 0.1090710689690E-03 -0.4648766475482E-02  0.0000000000000E+00  0.1544894974953E-02
 0.9615437448119E-04 -0.4503248684616E-02  0.0000000000000E+00  0.1550860831327E-02
 0.1195934078746E-03 -0.4368776608606E-02  0.0000000000000E+00  0.1541768592325E-02
 0.1877320394287E-03 -0.4251172188702E-02  0.0000000000000E+00  0.1515475567696E-02
 0.3089007640957E-03 -0.4156577405895E-02  0.0000000000000E+00  0.1470055427506E-02
 0.4910879051334E-03 -0.4091242535229E-02  0.0000000000000E+00  0.1404063521192E-02
 0.7415264493208E-03 -0.4061243865398E-02  0.0000000000000E+00  0.1316837245933E-02
 0.1066184587117E-02 -0.4072117497301E-02  0.0000000000000E+00  0.1208815336046E-02
 0.1469166197065E-02 -0.4128408951229E-02  0.0000000000000E+00  0.1081840583914E-02
 0.1952110964643E-02 -0.4233170132881E-02  0.0000000000000E+00  0.9393719704230E-03
 0.2513771649260E-02 -0.4387506619745E-02  0.0000000000000E+00  0.7865437509918E-03
 0.3149634767914E-02 -0.4590210844809E-02  0.0000000000000E+00  0.6300808317438E-03
 0.3851527948934E-02 -0.4837451027087E-02  0.0000000000000E+00  0.4779846138102E-03
 0.4607532908771E-02 -0.5122650753743E-02  0.0000000000000E+00  0.3388999988773E-03
 0.5402238540949E-02 -0.5436632773631E-02  0.0000000000000E+00  0.2212459360428E-03
 0.6217352994451E-02 -0.5768059412940E-02  0.0000000000000E+00  0.1322227530649E-03
 0.7032668002952E-02 -0.6104163883874E-02  0.0000000000000E+00  0.7685398952759E-04
 0.7827249885227E-02 -0.6431689066749E-02  0.0000000000000E+00  0.5724110896904E-04
 0.8580747343040E-02 -0.6737934248657E-02  0.0000000000000E+00  0.7216833380802E-04
 0.9274575465613E-02 -0.7011748901277E-02  0.0000000000000E+00  0.1171203050259E-03
 0.6239266239655E-04 -0.5597941089558E-02  0.0000000000000E+00  0.3044911102055E-03
 0.1861923813132E-03 -0.5674422204050E-02  0.0000000000000E+00  0.3698945630752E-03
 0.3062060896771E-03 -0.5747151002309E-02  0.0000000000000E+00  0.4383325805079E-03
 0.4186997659465E-03 -0.5813230103084E-02  0.0000000000000E+00  0.5081210687437E-03
 0.5203100719274E-03 -0.5870031306826E-02  0.0000000000000E+00  0.5778563835548E-03
 0.6081693464306E-03 -0.5915284002137E-02  0.0000000000000E+00  0.6464229555369E-03
 0.6800031441862E-03 -0.5947136639123E-02  0.0000000000000E+00  0.7130116385507E-03
 0.7341807133750E-03 -0.5964176571228E-02  0.0000000000000E+00  0.7771273487097E-03
 0.7697181204341E-03 -0.5965410022716E-02  0.0000000000000E+00  0.8385708401061E-03
 0.7862467953294E-03 -0.5950215011657E-02  0.0000000000000E+00  0.8973895160759E-03
 0.7839666060845E-03 -0.5918284872051E-02  0.0000000000000E+00  0.9538018817007E-03
 0.7636020802727E-03 -0.5869579220923E-02  0.0000000000000E+00  0.1008105540227E-02
 0.7263752633793E-03 -0.5804293902159E-02  0.0000000000000E+00  0.1060581090936E-02
 0.6740023298176E-03 -0.5722856203643E-02  0.0000000000000E+00  0.1111402052067E-02
 0.6087177450834E-03 -0.5625950514904E-02  0.0000000000000E+00  0.1160556780171E-02
 0.5333141179798E-03 -0.5514560083740E-02  0.0000000000000E+00  0.1207793592133E-02
 0.4511968483991E-03 -0.5390028341390E-02  0.0000000000000E+00  0.1252586579773E-02
 0.3664438516440E-03 -0.5254133664789E-02  0.0000000000000E+00  0.1294121894421E-02
 0.2838516611644E-03 -0.5109156163806E-02  0.0000000000000E+00  0.1331309548285E-02
 0.2089648416793E-03 -0.4957936528265E-02  0.0000000000000E+00  0.1362829826278E-02
 0.1480840336610E-03 -0.4803920288427E-02  0.0000000000000E+00  0.1387270758985E-02
 0.1082475614470E-03 -0.4651225449385E-02  0.0000000000000E+00  0.1403182178550E-02
 0.9712331285136E-04 -0.4504647908860E-02  0.0000000000000E+00  0.1408992164260E-02
 0.1228320655516E-03 -0.4369586811199E-02  0.0000000000000E+00  0.1403010082459E-02
 0.1937232486478E-03 -0.4251914524023E-02  0.0000000000000E+00  0.1383542666091E-02
 0.3181014396742E-03 -0.4157804761142E-02  0.0000000000000E+00  0.1349067529523E-02
 0.5038855733896E-03 -0.4093509688526E-02  0.0000000000000E+00  0.1298440469667E-02
 0.7581848199925E-03 -0.4065066228958E-02  0.0000000000000E+00  0.1231127297649E-02
 0.1086781836296E-02 -0.4077920642946E-02  0.0000000000000E+00  0.1147447477445E-02
 0.1493533163875E-02 -0.4136474268864E-02  0.0000000000000E+00  0.1048802088780E-02
 0.1979779007317E-02 -0.4243585310493E-02  0.0000000000000E+00  0.9378293312889E-03
 0.2543941329303E-02 -0.4400131601945E-02  0.0000000000000E+00  0.8184405398907E-03
 0.3181181592882E-02 -0.4604670800656E-02  0.0000000000000E+00  0.6957451375883E-03
 0.3883059108125E-02 -0.4853167170579E-02  0.0000000000000E+00  0.5758006667570E-03
 0.4637498643980E-02 -0.5138914976955E-02  0.0000000000000E+00  0.4651241579214E-03
 0.5429091159298E-02 -0.5452721820945E-02  0.0000000000000E+00  0.3700313476129E-03
 0.6239733922609E-02 -0.5783373385177E-02  0.0000000000000E+00  0.2958920543543E-03
 0.7049592838828E-02 -0.6118365010076E-02  0.0000000000000E+00  0.2464206802701E-03
 0.7838258174048E-02 -0.6444813820687E-02  0.0000000000000E+00  0.2231336584665E-03
 0.8585989046331E-02 -0.6750456769642E-02  0.0000000000000E+00  0.2250725295314E-03
 0.9274818448231E-02 -0.7024584547657E-02  0.0000000000000E+00  0.2488385041827E-03
 0.6207196307315E-04 -0.5631502431413E-02  0.0000000000000E+00  0.3500816328729E-03
 0.1853909365640E-03 -0.5707601550667E-02  0.0000000000000E+00  0.4137555294859E-03
 0.3051846382765E-03 -0.5780017446330E-02  0.0000000000000E+00  0.4784414851951E-03
 0.4176620377121E-03 -0.5845807330266E-02  0.0000000000000E+00  0.5425972893618E-03
 0.5194037946714E-03 -0.5902297705240E-02  0.0000000000000E+00  0.6050218861221E-03
 0.6074856465056E-03 -0.5947171816713E-02  0.0000000000000E+00  0.6648526771623E-03
 0.6795770435552E-03 -0.5978532433378E-02  0.0000000000000E+00  0.7215575915101E-03
 0.7339950356493E-03 -0.5994924842085E-02  0.0000000000000E+00  0.7749124452422E-03
 0.7697118270943E-03 -0.5995320672595E-02  0.0000000000000E+00  0.8249585142936E-03
 0.7863273636041E-03 -0.5979074204324E-02  0.0000000000000E+00  0.8719408908988E-03
 0.7840251051934E-03 -0.5945868062649E-02  0.0000000000000E+00  0.9162332589893E-03
 0.7635292633349E-03 -0.5895664973122E-02  0.0000000000000E+00  0.9582568085691E-03
 0.7260771159171E-03 -0.5828677290214E-02  0.0000000000000E+00  0.9984016703240E-03
 0.6734138640649E-03 -0.5745360956587E-02  0.0000000000000E+00  0.1036956996443E-02
 0.6078142242130E-03 -0.5646439483139E-02  0.0000000000000E+00  0.1074052649889E-02
 0.5321191886431E-03 -0.5532943623903E-02  0.0000000000000E+00  0.1109619611106E-02
 0.4497874064157E-03 -0.5406270634183E-02  0.0000000000000E+00  0.1143366359117E-02
 0.3649517168056E-03 -0.5268257150227E-02  0.0000000000000E+00  0.1174770436191E-02
 0.2824623269627E-03 -0.5121244133160E-02  0.0000000000000E+00  0.1203088969832E-02
 0.2079134766219E-03 -0.4968134056224E-02  0.0000000000000E+00  0.1227394826441E-02
 0.1476486738717E-03 -0.4812432656562E-02  0.0000000000000E+00  0.1246679344349E-02
 0.1087419926773E-03 -0.4658313710184E-02  0.0000000000000E+00  0.1259891216306E-02
 0.9889061040885E-04 -0.4510623722029E-02  0.0000000000000E+00  0.1265879333858E-02
 0.1262350729801E-03 -0.4374806938702E-02  0.0000000000000E+00  0.1263399139639E-02
 0.1991287219792E-03 -0.4256772210671E-02  0.0000000000000E+00  0.1251199088963E-02
 0.3258561972524E-03 -0.4162715108833E-02  0.0000000000000E+00  0.1228146329582E-02
 0.5142840943583E-03 -0.4098887239345E-02  0.0000000000000E+00  0.1193374189688E-02
 0.7714291098435E-03 -0.4071294466413E-02  0.0000000000000E+00  0.1146444926792E-02
 0.1102936328278E-02 -0.4085315023318E-02  0.0000000000000E+00  0.1087519048365E-02
 0.1512480021346E-02 -0.4145242765007E-02  0.0000000000000E+00  0.1017512331695E-02
 0.2001180966186E-02 -0.4253792759403E-02  0.0000000000000E+00  0.9382011187887E-03
 0.2567220166668E-02 -0.4411675537112E-02  0.0000000000000E+00  0.8522436346657E-03
 0.3205524044715E-02 -0.4617277480709E-02  0.0000000000000E+00  0.7631242912957E-03
 0.3907460056239E-02 -0.4866415536317E-02  0.0000000000000E+00  0.6749770179404E-03
 0.4660843551396E-02 -0.5152292129564E-02  0.0000000000000E+00  0.5922453636806E-03
 0.5450272052839E-02 -0.5465706384578E-02  0.0000000000000E+00  0.5192273351276E-03
 0.6257784307677E-02 -0.5795535388837E-02  0.0000000000000E+00  0.4595672850592E-03
 0.7063819836974E-02 -0.6129464900965E-02  0.0000000000000E+00  0.4157768969704E-03
 0.7848348343040E-02 -0.6454881604763E-02  0.0000000000000E+00  0.3888754131064E-03
 0.8592068339876E-02 -0.6759835979050E-02  0.0000000000000E+00  0.3782153192108E-03
 0.9277455419708E-02 -0.7033933418645E-02  0.0000000000000E+00  0.3815266474000E-03
 0.6192203889077E-04 -0.5665382762975E-02  0.0000000000000E+00  0.3954518573615E-03
 0.1850953706415E-03 -0.5741312403305E-02  0.0000000000000E+00  0.4574091521035E-03
 0.3049871601115E-03 -0.5813620440833E-02  0.0000000000000E+00  0.5183234708447E-03
 0.4177409893997E-03 -0.5879314114330E-02  0.0000000000000E+00  0.5767952938294E-03
 0.5198729932046E-03 -0.5935670953827E-02  0.0000000000000E+00  0.6318267024759E-03
 0.6083971833814E-03 -0.5980327872592E-02  0.0000000000000E+00  0.6828093332823E-03
 0.6809268187916E-03 -0.6011346211591E-02  0.0000000000000E+00  0.7294910918945E-03
 0.7357313662956E-03 -0.6027237216464E-02  0.0000000000000E+00  0.7719236438748E-03
 0.7717467715146E-03 -0.6026947973680E-02  0.0000000000000E+00  0.8103955666616E-03
 0.7885498178037E-03 -0.6009818999479E-02  0.0000000000000E+00  0.8453576031735E-03
 0.7863144750115E-03 -0.5975530234560E-02  0.0000000000000E+00  0.8773469953940E-03
 0.7657685948016E-03 -0.5924052251081E-02  0.0000000000000E+00  0.9069166815342E-03
 0.7281648347680E-03 -0.5855614652744E-02  0.0000000000000E+00  0.9345738600401E-03
 0.6752735821460E-03 -0.5770698610775E-02  0.0000000000000E+00  0.9607300292663E-03
 0.6094023309265E-03 -0.5670059402270E-02  0.0000000000000E+00  0.9856623859304E-03
 0.5334300810929E-03 -0.5554764531302E-02  0.0000000000000E+00  0.1009489511967E-02
 0.4508563803586E-03 -0.5426251573916E-02  0.0000000000000E+00  0.1032158360732E-02
 0.3658556362885E-03 -0.5286399833690E-02  0.0000000000000E+00  0.1053441166177E-02
 0.2833182618573E-03 -0.5137594061837E-02  0.0000000000000E+00  0.1072944747479E-02
 0.2088754836542E-03 -0.4982780815636E-02  0.0000000000000E+00  0.1090136267915E-02
 0.1489029070757E-03 -0.4825509815987E-02  0.0000000000000E+00  0.1104410484405E-02
 0.1105014523106E-03 -0.4669996352579E-02  0.0000000000000E+00  0.1115113673034E-02
 0.1013898887495E-03 -0.4521123243190E-02  0.0000000000000E+00  0.1121513767855E-02
 0.1297231195716E-03 -0.4384365195684E-02  0.0000000000000E+00  0.1122809383258E-02
 0.2038578094633E-03 -0.4265654429219E-02  0.0000000000000E+00  0.1118184973514E-02
 0.3320660753260E-03 -0.4171199727370E-02  0.0000000000000E+00  0.1106886931015E-02
 0.5221809481921E-03 -0.4107251288039E-02  0.0000000000000E+00  0.1088309990641E-02
 0.7811598005704E-03 -0.4079794060342E-02  0.0000000000000E+00  0.1062090520218E-02
 0.1114559644803E-02 -0.4094161865790E-02  0.0000000000000E+00  0.1028202477698E-02
 0.1525938343313E-02 -0.4154579144507E-02  0.0000000000000E+00  0.9870461801234E-03
 0.2016276822029E-02 -0.4263668872575E-02  0.0000000000000E+00  0.9395079026423E-03
 0.2583602766570E-02 -0.4422033894362E-02  0.0000000000000E+00  0.8869723571284E-03
 0.3222693442108E-02 -0.4627950434366E-02  0.0000000000000E+00  0.8312930173486E-03
 0.3924795137105E-02 -0.4877140924431E-02  0.0000000000000E+00  0.7746947994202E-03
 0.4677654813121E-02 -0.5162748821131E-02  0.0000000000000E+00  0.7195856098391E-03
 0.5465875291220E-02 -0.5475567192729E-02  0.0000000000000E+00  0.6683043791033E-03
 0.6271585728087E-02 -0.5804529986374E-02  0.0000000000000E+00  0.6228413237760E-03
 0.7075398769031E-02 -0.6137441678312E-02  0.0000000000000E+00  0.5845769563865E-03
 0.7857522782207E-02 -0.6461856588770E-02  0.0000000000000E+00  0.5540916608092E-03
 0.8598931212467E-02 -0.6766019394309E-02  0.0000000000000E+00  0.5310835337831E-03
 0.9282374900949E-02 -0.7039729397197E-02  0.0000000000000E+00  0.5144175624195E-03
 0.6194561405151E-04 -0.5699611676927E-02  0.0000000000000E+00  0.4407341727600E-03
 0.1853138434737E-03 -0.5775587725212E-02  0.0000000000000E+00  0.5009861736874E-03
 0.3056271362960E-03 -0.5847996247826E-02  0.0000000000000E+00  0.5581058376369E-03
 0.4189552268124E-03 -0.5913789876502E-02  0.0000000000000E+00  0.6108368531751E-03
 0.5217410431490E-03 -0.5970193367846E-02  0.0000000000000E+00  0.6583868305308E-03
 0.6109315139190E-03 -0.6014796937135E-02  0.0000000000000E+00  0.7004059050929E-03
 0.6840833617719E-03 -0.6045624568918E-02  0.0000000000000E+00  0.7369278166933E-03
 0.7394228737459E-03 -0.6061161359860E-02  0.0000000000000E+00  0.7682869849538E-03
 0.7758572215074E-03 -0.6060339851765E-02  0.0000000000000E+00  0.7950265527671E-03
 0.7929483307024E-03 -0.6042496795379E-02  0.0000000000000E+00  0.8178098917916E-03
 0.7908676573225E-03 -0.6007317533849E-02  0.0000000000000E+00  0.8373440390572E-03
 0.7703507443632E-03 -0.5954785286471E-02  0.0000000000000E+00  0.8543189680780E-03
 0.7326658739867E-03 -0.5885147674987E-02  0.0000000000000E+00  0.8693632818878E-03
 0.6796048609914E-03 -0.5798907657852E-02  0.0000000000000E+00  0.8830143339251E-03
 0.6135005670464E-03 -0.5696844866914E-02  0.0000000000000E+00  0.8956994946349E-03
 0.5372596739946E-03 -0.5580052716149E-02  0.0000000000000E+00  0.9077272431976E-03
 0.4544103207923E-03 -0.5449995503100E-02  0.0000000000000E+00  0.9192848453091E-03
 0.3691551699059E-03 -0.5308579513208E-02  0.0000000000000E+00  0.9304406577747E-03
 0.2864114217382E-03 -0.5158216150029E-02  0.0000000000000E+00  0.9411522339611E-03
 0.2118346722263E-03 -0.5001878314478E-02  0.0000000000000E+00  0.9512815466788E-03
 0.1518219514669E-03 -0.4843143492155E-02  0.0000000000000E+00  0.9606261149201E-03
 0.1134922654720E-03 -0.4686254282732E-02  0.0000000000000E+00  0.9689281321649E-03
 0.1045785278726E-03 -0.4536115663822E-02  0.0000000000000E+00  0.9758727698814E-03
 0.1332450220696E-03 -0.4398218466936E-02  0.0000000000000E+00  0.9810996685531E-03
 0.2078518166361E-03 -0.4278505697781E-02  0.0000000000000E+00  0.9842258112111E-03
 0.3366668330531E-03 -0.4183191500938E-02  0.0000000000000E+00  0.9848709721765E-03
 0.5275094124784E-03 -0.4118524851584E-02  0.0000000000000E+00  0.9826822382955E-03
 0.7873119052755E-03 -0.4090481112928E-02  0.0000000000000E+00  0.9773575541356E-03
 0.1121593729806E-02 -0.4104374472576E-02  0.0000000000000E+00  0.9686687885450E-03
 0.1533862695992E-02 -0.4164398904482E-02  0.0000000000000E+00  0.9564837201153E-03
 0.2025039132366E-02 -0.4273136638188E-02  0.0000000000000E+00  0.9407824911893E-03
 0.2593083623960E-02 -0.4431141913166E-02  0.0000000000000E+00  0.9216646191789E-03
 0.3232707518005E-02 -0.4636640382446E-02  0.0000000000000E+00  0.8993490782060E-03
 0.3935102952333E-02 -0.4885310329584E-02  0.0000000000000E+00  0.8741596465672E-03
 0.4687985444636E-02 -0.5170266212144E-02  0.0000000000000E+00  0.8464893621846E-03
 0.5475958279530E-02 -0.5482294832917E-02  0.0000000000000E+00  0.8167502875768E-03
 0.6281187901689E-02 -0.5810350903193E-02  0.0000000000000E+00  0.7853174576292E-03
 0.7084359752983E-02 -0.6142286020617E-02  0.0000000000000E+00  0.7524788495966E-03
 0.7865782571321E-02 -0.6465722054408E-02  0.0000000000000E+00  0.7184067722169E-03
 0.8606544515161E-02 -0.6768981676246E-02  0.0000000000000E+00  0.6831620372692E-03
 0.9289509478119E-02 -0.7041941020861E-02  0.0000000000000E+00  0.6467452691838E-03
 0.6214535226449E-04 -0.5734217740500E-02  0.0000000000000E+00  0.4860628595111E-03
 0.1860545337401E-03 -0.5810459308721E-02  0.0000000000000E+00  0.5446191816791E-03
 0.3071183360642E-03 -0.5883179709953E-02  0.0000000000000E+00  0.5979175703992E-03
 0.4213237101968E-03 -0.5949272007529E-02  0.0000000000000E+00  0.6448451422520E-03
 0.5250312640346E-03 -0.6005904110709E-02  0.0000000000000E+00  0.6848192809919E-03
 0.6151151767629E-03 -0.6050619011600E-02  0.0000000000000E+00  0.7177559197573E-03
 0.6890751490287E-03 -0.6081407390624E-02  0.0000000000000E+00  0.7439835003882E-03
 0.7450987164294E-03 -0.6096736197352E-02  0.0000000000000E+00  0.7641281138371E-03
 0.7820719138064E-03 -0.6095533623254E-02  0.0000000000000E+00  0.7789952577264E-03
 0.7995503337610E-03 -0.6077142875960E-02  0.0000000000000E+00  0.7894669377691E-03
 0.7977101228678E-03 -0.6041262988507E-02  0.0000000000000E+00  0.7964240604610E-03
 0.7772987589399E-03 -0.5987894767403E-02  0.0000000000000E+00  0.8006960049560E-03
 0.7396005285315E-03 -0.5917304685571E-02  0.0000000000000E+00  0.8030338660273E-03
 0.6864249921968E-03 -0.5830014041680E-02  0.0000000000000E+00  0.8041011131452E-03
 0.6201230011558E-03 -0.5726819353212E-02  0.0000000000000E+00  0.8044751121633E-03
 0.5436185985028E-03 -0.5608829016867E-02  0.0000000000000E+00  0.8046538782206E-03
 0.4604562029228E-03 -0.5477520356959E-02  0.0000000000000E+00  0.8050645775610E-03
 0.3748534173585E-03 -0.5334810867403E-02  0.0000000000000E+00  0.8060712621387E-03
 0.2917408210571E-03 -0.5183121397050E-02  0.0000000000000E+00  0.8079817495888E-03
 0.2167857880227E-03 -0.5025433408141E-02  0.0000000000000E+00  0.8110521662261E-03
 0.1563961413920E-03 -0.4865335920160E-02  0.0000000000000E+00  0.8154814152656E-03
 0.1177002698520E-03 -0.4707084653785E-02  0.0000000000000E+00  0.8214056138529E-03
 0.1084378802150E-03 -0.4555592645026E-02  0.0000000000000E+00  0.8289254192730E-03
 0.1367778310410E-03 -0.4416352632125E-02  0.0000000000000E+00  0.8381202365960E-03
 0.2110839508059E-03 -0.4295306048454E-02  0.0000000000000E+00  0.8490385193410E-03
 0.3396286808568E-03 -0.4198664893577E-02  0.0000000000000E+00  0.8616721635133E-03
 0.5302380293198E-03 -0.4132677570362E-02  0.0000000000000E+00  0.8759187862746E-03
 0.7898541476354E-03 -0.4103321733332E-02  0.0000000000000E+00  0.8915352802995E-03
 0.1124009799340E-02 -0.4115917267932E-02  0.0000000000000E+00  0.9080879206548E-03
 0.1536229358629E-02 -0.4174667071504E-02  0.0000000000000E+00  0.9249077504492E-03
 0.2027451712723E-02 -0.4282164161371E-02  0.0000000000000E+00  0.9410644450661E-03
 0.2595655974469E-02 -0.4438973067076E-02  0.0000000000000E+00  0.9553687632411E-03
 0.3235569670116E-02 -0.4643327818350E-02  0.0000000000000E+00  0.9664032854879E-03
 0.3938396197352E-02 -0.4890911863481E-02  0.0000000000000E+00  0.9725912008360E-03
 0.4691854784503E-02 -0.5174839369031E-02  0.0000000000000E+00  0.9723141150043E-03
 0.5480542801398E-02 -0.5485889531872E-02  0.0000000000000E+00  0.9640632248581E-03
 0.6286610021548E-02 -0.5813001106177E-02  0.0000000000000E+00  0.9466057380353E-03
 0.7090714537910E-02 -0.6144001353642E-02  0.0000000000000E+00  0.9191439325286E-03
 0.7873128396942E-02 -0.6466480536628E-02  0.0000000000000E+00  0.8814463806671E-03
 0.8614896296197E-02 -0.6768724644168E-02  0.0000000000000E+00  0.8339369546841E-03
 0.9298835457822E-02 -0.7040571385630E-02  0.0000000000000E+00  0.7777475583295E-03
 0.6252387129074E-04 -0.5769228573954E-02  0.0000000000000E+00  0.5315740183239E-03
 0.1873256849346E-03 -0.5845957869510E-02  0.0000000000000E+00  0.5884424802628E-03
 0.3094748946981E-03 -0.5919204356431E-02  0.0000000000000E+00  0.6378889708068E-03
 0.4248658559719E-03 -0.5985795975562E-02  0.0000000000000E+00  0.6789439986698E-03
 0.5297670307668E-03 -0.6042839290827E-02  0.0000000000000E+00  0.7112409363534E-03
 0.6209737975316E-03 -0.6087829404253E-02  0.0000000000000E+00  0.7349719968513E-03
 0.6959283272064E-03 -0.6118727892733E-02  0.0000000000000E+00  0.7507723334373E-03
 0.7527841010532E-03 -0.6133991919587E-02  0.0000000000000E+00  0.7595707190526E-03
 0.7904140851069E-03 -0.6132555971431E-02  0.0000000000000E+00  0.7624433400018E-03
 0.8083765273562E-03 -0.6113780368100E-02  0.0000000000000E+00  0.7604958358178E-03
 0.8068598712926E-03 -0.6077386460631E-02  0.0000000000000E+00  0.7547848293459E-03
 0.7866280640841E-03 -0.6023397799835E-02  0.0000000000000E+00  0.7462784834774E-03
 0.7489819475924E-03 -0.5952100639529E-02  0.0000000000000E+00  0.7358481533717E-03
 0.6957452148993E-03 -0.5864031171971E-02  0.0000000000000E+00  0.7242803856923E-03
 0.6292793252313E-03 -0.5759995268311E-02  0.0000000000000E+00  0.7122993140927E-03
 0.5525153197106E-03 -0.5641105287105E-02  0.0000000000000E+00  0.7005894599873E-03
 0.4690015314588E-03 -0.5508837786803E-02  0.0000000000000E+00  0.6898152325813E-03
 0.3829571433009E-03 -0.5365105611884E-02  0.0000000000000E+00  0.6806341062943E-03
 0.2993126733606E-03 -0.5212321785562E-02  0.0000000000000E+00  0.6737021994529E-03
 0.2237346624453E-03 -0.5053458504410E-02  0.0000000000000E+00  0.6696679873018E-03
 0.1626310769710E-03 -0.4892100061154E-02  0.0000000000000E+00  0.6691296767526E-03
 0.1231309535827E-03 -0.4732501081569E-02  0.0000000000000E+00  0.6726150045507E-03
 0.1129733808900E-03 -0.4579568516434E-02  0.0000000000000E+00  0.6806384371715E-03
 0.1403268929968E-03 -0.4438782726790E-02  0.0000000000000E+00  0.6937187975818E-03
 0.2135593104562E-03 -0.4316071123894E-02  0.0000000000000E+00  0.7123374055308E-03
 0.3409561706607E-03 -0.4217635950649E-02  0.0000000000000E+00  0.7368616726837E-03
 0.5303703728273E-03 -0.4149725583140E-02  0.0000000000000E+00  0.7674452124709E-03
 0.7887885933829E-03 -0.4118331760491E-02  0.0000000000000E+00  0.8039111864172E-03
 0.1121807843396E-02 -0.4128805357525E-02  0.0000000000000E+00  0.8456288224308E-03
 0.1533035730387E-02 -0.4185397610101E-02  0.0000000000000E+00  0.8914010814818E-03
 0.2023509016008E-02 -0.4290763964625E-02  0.0000000000000E+00  0.9393944785485E-03
 0.2591311241512E-02 -0.4445538328524E-02  0.0000000000000E+00  0.9871354168154E-03
 0.3231268580771E-02 -0.4648022327510E-02  0.0000000000000E+00  0.1031569673470E-02
 0.3934661538312E-02 -0.4893954213513E-02  0.0000000000000E+00  0.1069212906630E-02
 0.4689248657238E-02 -0.5176476911795E-02  0.0000000000000E+00  0.1096421313937E-02
 0.5479615418414E-02 -0.5486360985958E-02  0.0000000000000E+00  0.1109745093044E-02
 0.6287841269102E-02 -0.5812492755820E-02  0.0000000000000E+00  0.1106319599908E-02
 0.7094456971446E-02 -0.6142603836025E-02  0.0000000000000E+00  0.1084236762284E-02
 0.7879560827362E-02 -0.6464153766144E-02  0.0000000000000E+00  0.1042839615904E-02
 0.8623995779482E-02 -0.6765277133845E-02  0.0000000000000E+00  0.9828989096961E-03
 0.9310372493450E-02 -0.7035657915484E-02  0.0000000000000E+00  0.9066685835235E-03
 0.6308377054428E-04 -0.5804670998469E-02  0.0000000000000E+00  0.5774055134529E-03
 0.1891356931078E-03 -0.5882113223849E-02  0.0000000000000E+00  0.6325919732672E-03
 0.3127114587932E-03 -0.5956102598569E-02  0.0000000000000E+00  0.6781512900081E-03
 0.4296017162149E-03 -0.6023395515815E-02  0.0000000000000E+00  0.7132571675144E-03
 0.5359719528721E-03 -0.6081032116664E-02  0.0000000000000E+00  0.7377673814810E-03
 0.6285322350347E-03 -0.6126458827722E-02  0.0000000000000E+00  0.7521643570230E-03
 0.7046668049446E-03 -0.6157612651103E-02  0.0000000000000E+00  0.7574053207853E-03
 0.7625003139014E-03 -0.6172949946813E-02  0.0000000000000E+00  0.7547349353042E-03
 0.8009014494811E-03 -0.6171422859100E-02  0.0000000000000E+00  0.7455089498420E-03
 0.8194408188536E-03 -0.6152420121581E-02  0.0000000000000E+00  0.7310605526198E-03
 0.8183273468851E-03 -0.6115694512495E-02  0.0000000000000E+00  0.7126215901628E-03
 0.7983463728692E-03 -0.6061297775363E-02  0.0000000000000E+00  0.6912952847106E-03
 0.7608160484044E-03 -0.5989536998802E-02  0.0000000000000E+00  0.6680676136058E-03
 0.7075706419009E-03 -0.5900959823855E-02  0.0000000000000E+00  0.6438418029496E-03
 0.6409747963516E-03 -0.5796373871300E-02  0.0000000000000E+00  0.6194824464942E-03
 0.5639560938950E-03 -0.5676884337292E-02  0.0000000000000E+00  0.5958548664980E-03
 0.4800543110884E-03 -0.5543953119380E-02  0.0000000000000E+00  0.5738558210067E-03
 0.3934767576911E-03 -0.5399472472499E-02  0.0000000000000E+00  0.5544321068434E-03
 0.3091403783044E-03 -0.5245830264780E-02  0.0000000000000E+00  0.5385847023296E-03
 0.2326982042467E-03 -0.5085971553420E-02  0.0000000000000E+00  0.5273514848710E-03
 0.1705476200429E-03 -0.4923459597227E-02  0.0000000000000E+00  0.5217271730504E-03
 0.1298094570042E-03 -0.4762533644125E-02  0.0000000000000E+00  0.5226284824899E-03
 0.1182145581963E-03 -0.4608080281571E-02  0.0000000000000E+00  0.5309820408516E-03
 0.1439258732270E-03 -0.4465552955755E-02  0.0000000000000E+00  0.5477465927337E-03
 0.2153149237115E-03 -0.4340852201470E-02  0.0000000000000E+00  0.5738400991886E-03
 0.3406882519553E-03 -0.4240162336126E-02  0.0000000000000E+00  0.6100134634132E-03
 0.5279451223293E-03 -0.4169731578730E-02  0.0000000000000E+00  0.6566889961410E-03
 0.7841507367386E-03 -0.4135576828237E-02  0.0000000000000E+00  0.7137733871820E-03
 0.1115016717433E-02 -0.4143104603070E-02  0.0000000000000E+00  0.7804594705086E-03
 0.1524300414572E-02 -0.4196653499465E-02  0.0000000000000E+00  0.8550437696844E-03
 0.2013216193625E-02 -0.4298993056029E-02  0.0000000000000E+00  0.9348088186373E-03
 0.2580039057133E-02 -0.4450886216089E-02  0.0000000000000E+00  0.1016009339987E-02
 0.3219778181974E-02 -0.4650762601532E-02  0.0000000000000E+00  0.1093955707749E-02
 0.3923859510473E-02 -0.4894466614045E-02  0.0000000000000E+00  0.1163241881078E-02
 0.4680119201131E-02 -0.5175200936703E-02  0.0000000000000E+00  0.1218167371720E-02
 0.5473127231371E-02 -0.5483728233933E-02  0.0000000000000E+00  0.1253295000528E-02
 0.6284840520443E-02 -0.5808847031753E-02  0.0000000000000E+00  0.1264072539666E-02
 0.7095562668377E-02 -0.6138122142957E-02  0.0000000000000E+00  0.1247424956316E-02
 0.7885079960850E-02 -0.6458782415511E-02  0.0000000000000E+00  0.1202221330985E-02
 0.8633872999028E-02 -0.6758694701165E-02  0.0000000000000E+00  0.1129546233276E-02
 0.9324183187918E-02 -0.7027271999879E-02  0.0000000000000E+00  0.1032761407147E-02
 0.6382767252190E-04 -0.5840571256487E-02  0.0000000000000E+00  0.6236969380444E-03
 0.1914932386694E-03 -0.5918954552481E-02  0.0000000000000E+00  0.6772050622974E-03
 0.3168434024910E-03 -0.5993906018585E-02  0.0000000000000E+00  0.7188363567248E-03
 0.4355522396657E-03 -0.6062102904764E-02  0.0000000000000E+00  0.7479075147959E-03
 0.5436701241838E-03 -0.6120513110969E-02  0.0000000000000E+00  0.7645116790920E-03
 0.6378147693505E-03 -0.6166533519456E-02  0.0000000000000E+00  0.7694392626561E-03
 0.7153123501912E-03 -0.6198081616037E-02  0.0000000000000E+00  0.7639885729888E-03
 0.7742647228676E-03 -0.6213622847021E-02  0.0000000000000E+00  0.7497356904921E-03
 0.8135461193298E-03 -0.6212139373432E-02  0.0000000000000E+00  0.7283253085499E-03
 0.8327501857583E-03 -0.6193060507931E-02  0.0000000000000E+00  0.7013208629826E-03
 0.8321152677930E-03 -0.6156180183340E-02  0.0000000000000E+00  0.6701264293498E-03
 0.8124535005274E-03 -0.6101584142894E-02  0.0000000000000E+00  0.6359733160980E-03
 0.7751013293677E-03 -0.6029601508338E-02  0.0000000000000E+00  0.5999529700583E-03
 0.7219000783403E-03 -0.5940787921892E-02  0.0000000000000E+00  0.5630754745249E-03
 0.6552100631586E-03 -0.5835945064460E-02  0.0000000000000E+00  0.5263364658939E-03
 0.5779448015161E-03 -0.5716159729839E-02  0.0000000000000E+00  0.4907736835370E-03
 0.4936228827135E-03 -0.5582865151464E-02  0.0000000000000E+00  0.4575091189119E-03
 0.4064261516442E-03 -0.5437916974833E-02  0.0000000000000E+00  0.4277729859002E-03
 0.3212443553485E-03 -0.5283660532058E-02  0.0000000000000E+00  0.4029062202241E-03
 0.2437042333827E-03 -0.5122995821973E-02  0.0000000000000E+00  0.3843320060548E-03
 0.1801817363099E-03 -0.4959448703990E-02  0.0000000000000E+00  0.3734380347113E-03
 0.1377804379710E-03 -0.4797228664123E-02  0.0000000000000E+00  0.3715269538411E-03
 0.1242149438259E-03 -0.4641187428494E-02  0.0000000000000E+00  0.3799358190419E-03
 0.1476367386144E-03 -0.4496736557555E-02  0.0000000000000E+00  0.4000644911308E-03
 0.2164198350606E-03 -0.4369736143377E-02  0.0000000000000E+00  0.4332735346485E-03
 0.3388984929771E-03 -0.4266343403992E-02  0.0000000000000E+00  0.4807097038390E-03
 0.5230364408705E-03 -0.4192805022707E-02  0.0000000000000E+00  0.5430837799859E-03
 0.7760100418892E-03 -0.4155172771439E-02  0.0000000000000E+00  0.6204131086838E-03
 0.1103694824441E-02 -0.4158932211519E-02  0.0000000000000E+00  0.7117469782714E-03
 0.1510063981771E-02 -0.4208547478471E-02  0.0000000000000E+00  0.8149104188057E-03
 0.1996589840535E-02 -0.4306953766149E-02  0.0000000000000E+00  0.9263335885421E-03
 0.2561827859150E-02 -0.4455103625818E-02  0.0000000000000E+00  0.1041021238539E-02
 0.3201057968056E-02 -0.4651617149005E-02  0.0000000000000E+00  0.1152652394137E-02
 0.3905924439988E-02 -0.4892499332524E-02  0.0000000000000E+00  0.1253878627290E-02
 0.4664384362156E-02 -0.5171047216335E-02  0.0000000000000E+00  0.1336894494863E-02
 0.5460993003596E-02 -0.5478019574456E-02  0.0000000000000E+00  0.1394202541934E-02
 0.6277535245038E-02 -0.5802093834032E-02  0.0000000000000E+00  0.1419474634485E-02
 0.7093987879066E-02 -0.6130597050174E-02  0.0000000000000E+00  0.1408378935367E-02
 0.7889684446773E-02 -0.6450425651558E-02  0.0000000000000E+00  0.1359234245306E-02
 0.8644578091974E-02 -0.6749059176108E-02  0.0000000000000E+00  0.1273388091282E-02
 0.9340372680785E-02 -0.7015518506438E-02  0.0000000000000E+00  0.1155290421878E-02
 0.6475827941818E-04 -0.5876955309445E-02  0.0000000000000E+00  0.6705896097963E-03
 0.1944074661961E-03 -0.5956510757197E-02  0.0000000000000E+00  0.7224205648717E-03
 0.3218871206305E-03 -0.6032645757918E-02  0.0000000000000E+00  0.7600761954414E-03
 0.4427396201972E-03 -0.6101949323509E-02  0.0000000000000E+00  0.7830161912167E-03
 0.5528864468395E-03 -0.6161310385814E-02  0.0000000000000E+00  0.7915830616033E-03
 0.6488453325441E-03 -0.6208075383678E-02  0.0000000000000E+00  0.7868973586466E-03
 0.7278846909615E-03 -0.6240148108452E-02  0.0000000000000E+00  0.7706215014725E-03
 0.7880907466493E-03 -0.6256014203327E-02  0.0000000000000E+00  0.7446809754892E-03
 0.8283544660229E-03 -0.6254699498603E-02  0.0000000000000E+00  0.7110192346887E-03
 0.8483044607301E-03 -0.6235687134965E-02  0.0000000000000E+00  0.6714312549054E-03
 0.8482183665098E-03 -0.6198822675090E-02  0.0000000000000E+00  0.6274876271127E-03
 0.8289410835969E-03 -0.6144232083586E-02  0.0000000000000E+00  0.5805373410938E-03
 0.7918285819510E-03 -0.6072267867904E-02  0.0000000000000E+00  0.5317645204519E-03
 0.7387257328339E-03 -0.5983490209065E-02  0.0000000000000E+00  0.4822727889451E-03
 0.6719808772478E-03 -0.5878687055485E-02  0.0000000000000E+00  0.4331762715491E-03
 0.5944826562817E-03 -0.5758915428651E-02  0.0000000000000E+00  0.3856740660519E-03
 0.5097156257687E-03 -0.5625565780318E-02  0.0000000000000E+00  0.3411040826065E-03
 0.4218223889601E-03 -0.5480441050427E-02  0.0000000000000E+00  0.3009722691573E-03
 0.3356517238899E-03 -0.5325826613003E-02  0.0000000000000E+00  0.2669531697650E-03
 0.2567911561352E-03 -0.5164559451731E-02  0.0000000000000E+00  0.2408500140553E-03
 0.1915841817189E-03 -0.5000111599462E-02  0.0000000000000E+00  0.2244391201777E-03
 0.1471077974664E-03 -0.4836648271426E-02  0.0000000000000E+00  0.2194055038798E-03
 0.1310518781239E-03 -0.4678971541322E-02  0.0000000000000E+00  0.2274946499760E-03
 0.1515496943906E-03 -0.4532435513571E-02  0.0000000000000E+00  0.2505491665386E-03
 0.2169752332764E-03 -0.4402845264521E-02  0.0000000000000E+00  0.2903800598696E-03
 0.3356954598050E-03 -0.4296320294249E-02  0.0000000000000E+00  0.3485463501859E-03
 0.5157546532472E-03 -0.4219102549651E-02  0.0000000000000E+00  0.4260738535014E-03
 0.7644709374472E-03 -0.4177286365785E-02  0.0000000000000E+00  0.5231274236774E-03
 0.1087931391704E-02 -0.4176457836275E-02  0.0000000000000E+00  0.6386579528610E-03
 0.1490390424428E-02 -0.4221243464043E-02  0.0000000000000E+00  0.7700676805057E-03
 0.1973659445651E-02 -0.4314795367932E-02  0.0000000000000E+00  0.9129792874965E-03
 0.2536666092681E-02 -0.4458317469732E-02  0.0000000000000E+00  0.1061179523027E-02
 0.3175053685617E-02 -0.4650685731797E-02  0.0000000000000E+00  0.1206724161711E-02
 0.3880764413031E-02 -0.4888124699385E-02  0.0000000000000E+00  0.1340296370643E-02
 0.4641927065432E-02 -0.5164065700201E-02  0.0000000000000E+00  0.1451921048231E-02
 0.5443089642501E-02 -0.5469272542281E-02  0.0000000000000E+00  0.1531940623857E-02
 0.6265819581005E-02 -0.5792271365913E-02  0.0000000000000E+00  0.1572128697570E-02
 0.7089667537999E-02 -0.6120080820383E-02  0.0000000000000E+00  0.1566771426323E-02
 0.7893369864538E-02 -0.6439160497496E-02  0.0000000000000E+00  0.1513530943988E-02
 0.8656180245019E-02 -0.6736478073474E-02  0.0000000000000E+00  0.1413947495577E-02
 0.9359088231576E-02 -0.7000535181135E-02  0.0000000000000E+00  0.1273533591243E-02
 0.6587844662131E-04 -0.5913849219904E-02  0.0000000000000E+00  0.7182266062129E-03
 0.1978882177954E-03 -0.5994810918753E-02  0.0000000000000E+00  0.7683786577431E-03
 0.3278604071613E-03 -0.6072353013735E-02  0.0000000000000E+00  0.8020026282784E-03
 0.4511877408985E-03 -0.6142965316519E-02  0.0000000000000E+00  0.8187017253333E-03
 0.5636470345428E-03 -0.6203449980233E-02  0.0000000000000E+00  0.8190855076622E-03
 0.6616477824933E-03 -0.6251102152008E-02  0.0000000000000E+00  0.8046318787954E-03
 0.7424016162718E-03 -0.6283818791727E-02  0.0000000000000E+00  0.7773948881532E-03
 0.8039877860182E-03 -0.6300118423983E-02  0.0000000000000E+00  0.7396700155219E-03
 0.8453269152542E-03 -0.6299085810764E-02  0.0000000000000E+00  0.6937096043371E-03
 0.8660960348169E-03 -0.6280272473746E-02  0.0000000000000E+00  0.6415397958409E-03
 0.8666230396579E-03 -0.6243586945960E-02  0.0000000000000E+00  0.5848889873679E-03
 0.8477922030021E-03 -0.6189202089663E-02  0.0000000000000E+00  0.5252097938754E-03
 0.8109805016959E-03 -0.6117495301155E-02  0.0000000000000E+00  0.4637624424307E-03
 0.7580328218405E-03 -0.6029027802595E-02  0.0000000000000E+00  0.4017272149112E-03
 0.6912776903857E-03 -0.5924565892478E-02  0.0000000000000E+00  0.3403210125571E-03
 0.6135677911611E-03 -0.5805125304593E-02  0.0000000000000E+00  0.2808905684648E-03
 0.5283405273597E-03 -0.5672039471425E-02  0.0000000000000E+00  0.2249782271369E-03
 0.4396852536636E-03 -0.5527042460759E-02  0.0000000000000E+00  0.1743562443099E-03
 0.3523958293660E-03 -0.5372342240554E-02  0.0000000000000E+00  0.1310249945665E-03
 0.2720074796915E-03 -0.5210694800661E-02  0.0000000000000E+00  0.9716130043499E-04
 0.2048200293425E-03 -0.5045501866931E-02  0.0000000000000E+00  0.7492487236038E-04
 0.1578742593385E-03 -0.4880869741126E-02  0.0000000000000E+00  0.6637886352326E-04
 0.1388262013600E-03 -0.4721535704867E-02  0.0000000000000E+00  0.7367467936920E-04
 0.1557830628625E-03 -0.4572780090433E-02  0.0000000000000E+00  0.9909939444572E-04
 0.2171146061572E-03 -0.4440337103063E-02  0.0000000000000E+00  0.1449237398654E-03
 0.3312232381155E-03 -0.4330276035632E-02  0.0000000000000E+00  0.2131390080213E-03
 0.5062472103088E-03 -0.4248828502572E-02  0.0000000000000E+00  0.3051189925661E-03
 0.7496742568604E-03 -0.4202136386323E-02  0.0000000000000E+00  0.4212223973862E-03
 0.1067848346500E-02 -0.4195905184346E-02  0.0000000000000E+00  0.5603592667455E-03
 0.1465369322659E-02 -0.4234958650987E-02  0.0000000000000E+00  0.7195720978679E-03
 0.1944469584427E-02 -0.4322716505574E-02  0.0000000000000E+00  0.8937354516442E-03
 0.2504544066408E-02 -0.4460697164906E-02  0.0000000000000E+00  0.1075462005790E-02
 0.3141698454771E-02 -0.4648101581605E-02  0.0000000000000E+00  0.1255198400200E-02
 0.3848261335692E-02 -0.4881438736961E-02  0.0000000000000E+00  0.1421629795462E-02
 0.4612594083232E-02 -0.5154321359342E-02  0.0000000000000E+00  0.1562531174143E-02
 0.5419254027914E-02 -0.5457533967364E-02  0.0000000000000E+00  0.1665957556781E-02
 0.6249551552065E-02 -0.5779425605221E-02  0.0000000000000E+00  0.1721625853555E-02
 0.7082512450785E-02 -0.6106636392053E-02  0.0000000000000E+00  0.1722276596979E-02
 0.7896126428231E-02 -0.6425081005975E-02  0.0000000000000E+00  0.1664775675023E-02
 0.8668766280280E-02 -0.6721083867704E-02  0.0000000000000E+00  0.1550764164126E-02
 0.9380518807465E-02 -0.6982491946642E-02  0.0000000000000E+00  0.1386784458640E-02
 0.6719127538582E-04 -0.5951279627437E-02  0.0000000000000E+00  0.7667528498181E-03
 0.2019463275164E-03 -0.6033884867237E-02  0.0000000000000E+00  0.8152208504483E-03
 0.3347829299163E-03 -0.6113059654477E-02  0.0000000000000E+00  0.8447468517470E-03
 0.4609227242513E-03 -0.6185181352699E-02  0.0000000000000E+00  0.8550790205037E-03
 0.5759797008293E-03 -0.6246956260899E-02  0.0000000000000E+00  0.8471161662551E-03
 0.6762462192867E-03 -0.6295627556712E-02  0.0000000000000E+00  0.8227266790650E-03
 0.7588790717422E-03 -0.6329093609113E-02  0.0000000000000E+00  0.7843887978086E-03
 0.8219611094816E-03 -0.6345920484053E-02  0.0000000000000E+00  0.7347913226967E-03
 0.8644576698813E-03 -0.6345269086196E-02  0.0000000000000E+00  0.6765057351608E-03
 0.8861094736262E-03 -0.6326775391736E-02  0.0000000000000E+00  0.6117869562630E-03
 0.8873069040045E-03 -0.6290423208450E-02  0.0000000000000E+00  0.5425091439600E-03
 0.8689809096819E-03 -0.6236439445445E-02  0.0000000000000E+00  0.4702105761162E-03
 0.8325311978073E-03 -0.6165228021019E-02  0.0000000000000E+00  0.3962070783532E-03
 0.7797990669417E-03 -0.6077347635474E-02  0.0000000000000E+00  0.3217350751901E-03
 0.7130851370888E-03 -0.5973534869994E-02  0.0000000000000E+00  0.2480953603350E-03
 0.6351947205911E-03 -0.5854752494370E-02  0.0000000000000E+00  0.1767659339158E-03
 0.5495046170722E-03 -0.5722262560141E-02  0.0000000000000E+00  0.1094799588172E-03
 0.4600366517684E-03 -0.5577714034779E-02  0.0000000000000E+00  0.4826487133400E-04
 0.3715156124139E-03 -0.5423220027593E-02  0.0000000000000E+00 -0.4562307523659E-05
 0.2894111614570E-03 -0.5261437560534E-02  0.0000000000000E+00 -0.4645883581453E-04
 0.2199680294679E-03 -0.5095681542033E-02  0.0000000000000E+00 -0.7488783312573E-04
 0.1701807935700E-03 -0.4929984593720E-02  0.0000000000000E+00 -0.8741309079971E-04
 0.1476618166133E-03 -0.4769003684489E-02  0.0000000000000E+00 -0.8148060661387E-04
 0.1604830857952E-03 -0.4617928192501E-02  0.0000000000000E+00 -0.5435747250959E-04
 0.2170039006057E-03 -0.4482404065002E-02  0.0000000000000E+00 -0.3303057709181E-05
 0.3256620751661E-03 -0.4368435622272E-02  0.0000000000000E+00  0.7412919244751E-04
 0.4946999203984E-03 -0.4282235586042E-02  0.0000000000000E+00  0.1796998111384E-03
 0.7317991153483E-03 -0.4229994956611E-02  0.0000000000000E+00  0.3140168272122E-03
 0.1043602798752E-02 -0.4217554114691E-02  0.0000000000000E+00  0.4760194366719E-03
 0.1435118753739E-02 -0.4249966300547E-02  0.0000000000000E+00  0.6624684636379E-03
 0.1909082913312E-02 -0.4330968467731E-02  0.0000000000000E+00  0.8675656069402E-03
 0.2465456545575E-02 -0.4462458036769E-02  0.0000000000000E+00  0.1082807545388E-02
 0.3100914411421E-02 -0.4644034480155E-02  0.0000000000000E+00  0.1297054532945E-02
 0.3808271159544E-02 -0.4872563473719E-02  0.0000000000000E+00  0.1496962938149E-02
 0.4576194636847E-02 -0.5141895444403E-02  0.0000000000000E+00  0.1667963339093E-02
 0.5389280175754E-02 -0.5442860156532E-02  0.0000000000000E+00  0.1795668076994E-02
 0.6228549375459E-02 -0.5763609676577E-02  0.0000000000000E+00  0.1867540262610E-02
 0.7072405557005E-02 -0.6090336371341E-02  0.0000000000000E+00  0.1874568650777E-02
 0.7897935965304E-02 -0.6408297247699E-02  0.0000000000000E+00  0.1812645845372E-02
 0.8682438855096E-02 -0.6703033139460E-02  0.0000000000000E+00  0.1683397170211E-02
 0.9404894674422E-02 -0.6961590124011E-02  0.0000000000000E+00  0.1494353831279E-02
 0.6870022874277E-04 -0.5989274330656E-02  0.0000000000000E+00  0.8163152547920E-03
 0.2065939872287E-03 -0.6073763880722E-02  0.0000000000000E+00  0.8630899956066E-03
 0.3426768171221E-03 -0.6154798970534E-02  0.0000000000000E+00  0.8884389786100E-03
 0.4719736028319E-03 -0.6228628500449E-02  0.0000000000000E+00  0.8922582266986E-03
 0.5899145406185E-03 -0.6291852389845E-02  0.0000000000000E+00  0.8757635870973E-03
 0.6926653446683E-03 -0.6341661513345E-02  0.0000000000000E+00  0.8412540558246E-03
 0.7773312446961E-03 -0.6375965679760E-02  0.0000000000000E+00  0.7916703002888E-03
 0.8420116864375E-03 -0.6393395592546E-02  0.0000000000000E+00  0.7301206090082E-03
 0.8857343550596E-03 -0.6393207820422E-02  0.0000000000000E+00  0.6595056831724E-03
 0.9083210447228E-03 -0.6375140595230E-02  0.0000000000000E+00  0.5823043831810E-03
 0.9102382605795E-03 -0.6339266339737E-02  0.0000000000000E+00  0.5005208337494E-03
 0.8924716573120E-03 -0.6285873622083E-02  0.0000000000000E+00  0.4157568203427E-03
 0.8564456073937E-03 -0.6215394604882E-02  0.0000000000000E+00  0.3293591760050E-03
 0.8039940917053E-03 -0.6128381798119E-02  0.0000000000000E+00  0.2425962618628E-03
 0.7373814093489E-03 -0.6025533820860E-02  0.0000000000000E+00  0.1568307080186E-03
 0.6593536856068E-03 -0.5907748627835E-02  0.0000000000000E+00  0.7365279767141E-04
 0.5732132739968E-03 -0.5776202402665E-02  0.0000000000000E+00 -0.5029188711814E-05
 0.4828998732306E-03 -0.5632442735653E-02  0.0000000000000E+00 -0.7694541111095E-04
 0.3930548256865E-03 -0.5478470448635E-02  0.0000000000000E+00 -0.1394727622967E-03
 0.3090687952085E-03 -0.5316825665016E-02  0.0000000000000E+00 -0.1897115047341E-03
 0.2371198011974E-03 -0.5150719976328E-02  0.0000000000000E+00 -0.2247549093999E-03
 0.1841458762537E-03 -0.4984097465911E-02  0.0000000000000E+00 -0.2417998595192E-03
 0.1577051110798E-03 -0.4821518884103E-02  0.0000000000000E+00 -0.2378942569003E-03
 0.1658236301135E-03 -0.4668064520116E-02  0.0000000000000E+00 -0.2098588742939E-03
 0.2168416607923E-03 -0.4529272930336E-02  0.0000000000000E+00 -0.1544727894643E-03
 0.3192291099330E-03 -0.4411066044483E-02  0.0000000000000E+00 -0.6880896966191E-04
 0.4813384159117E-03 -0.4319625609364E-02  0.0000000000000E+00  0.4932371195018E-04
 0.7110651994642E-03 -0.4261189167996E-02  0.0000000000000E+00  0.2008467060976E-03
 0.1015390125275E-02 -0.4241743220834E-02  0.0000000000000E+00  0.3848107701828E-03
 0.1399788968570E-02 -0.4266599235973E-02  0.0000000000000E+00  0.5977888567479E-03
 0.1867584023471E-02 -0.4339859357642E-02  0.0000000000000E+00  0.8334026405343E-03
 0.2419406168762E-02 -0.4463865724933E-02  0.0000000000000E+00  0.1082107681891E-02
 0.3052614969439E-02 -0.4638694816868E-02  0.0000000000000E+00  0.1331212549942E-02
 0.3760624354152E-02 -0.4861650060866E-02  0.0000000000000E+00  0.1565316036280E-02
 0.4532498764535E-02 -0.5126887249598E-02  0.0000000000000E+00  0.1767397521827E-02
 0.5352915703756E-02 -0.5425317245620E-02  0.0000000000000E+00  0.1920443007739E-02
 0.6202586776605E-02 -0.5744883130407E-02  0.0000000000000E+00  0.2009422787612E-02
 0.7059197174112E-02 -0.6071261815832E-02  0.0000000000000E+00  0.2023319800096E-02
 0.7898768107685E-02 -0.6388934110075E-02  0.0000000000000E+00  0.1956833224054E-02
 0.8697314236210E-02 -0.6682505595373E-02  0.0000000000000E+00  0.1811427384754E-02
 0.9432487044783E-02 -0.6938061570089E-02  0.0000000000000E+00  0.1595571198823E-02
 0.7040927272330E-04 -0.6027862990915E-02  0.0000000000000E+00  0.8670629503094E-03
 0.2118451958151E-03 -0.6114481530245E-02  0.0000000000000E+00  0.9121303416540E-03
 0.3515673728477E-03 -0.6197606576594E-02  0.0000000000000E+00  0.9332075296433E-03
 0.4843731256599E-03 -0.6273339225312E-02  0.0000000000000E+00  0.9303434484416E-03
 0.6054846111218E-03 -0.6338160855777E-02  0.0000000000000E+00  0.9051057054797E-03
 0.7109308598199E-03 -0.6389210298232E-02  0.0000000000000E+00  0.8602723000235E-03
 0.7977706265088E-03 -0.6424421132686E-02  0.0000000000000E+00  0.7992909683292E-03
 0.8641359533065E-03 -0.6442508764101E-02  0.0000000000000E+00  0.7257185440906E-03
 0.9091375731982E-03 -0.6442847641207E-02  0.0000000000000E+00  0.6427944514598E-03
 0.9326981477948E-03 -0.6425297969119E-02  0.0000000000000E+00  0.5532136312456E-03
 0.9353754622637E-03 -0.6390035196648E-02  0.0000000000000E+00  0.4590901464903E-03
 0.9182186399240E-03 -0.6337417580367E-02  0.0000000000000E+00  0.3620626285001E-03
 0.8826788129848E-03 -0.6267907274028E-02  0.0000000000000E+00  0.2634800917651E-03
 0.8305787164078E-03 -0.6182046773166E-02  0.0000000000000E+00  0.1646148985383E-03
 0.7641375208938E-03 -0.6080488284687E-02  0.0000000000000E+00  0.6686630346089E-04
 0.6860298783453E-03 -0.5964052912428E-02  0.0000000000000E+00 -0.2808468576193E-04
 0.5994694015382E-03 -0.5833816362995E-02  0.0000000000000E+00 -0.1181724013975E-03
 0.5082987085840E-03 -0.5691208541508E-02  0.0000000000000E+00 -0.2008989651764E-03
 0.4170610910914E-03 -0.5538100613192E-02  0.0000000000000E+00 -0.2733470791904E-03
 0.3310546240893E-03 -0.5376897967986E-02  0.0000000000000E+00 -0.3322702082377E-03
 0.2563788415461E-03 -0.5210692452845E-02  0.0000000000000E+00 -0.3744003119593E-03
 0.1999045669764E-03 -0.5043324721743E-02  0.0000000000000E+00 -0.3965748155426E-03
 0.1691242101550E-03 -0.4879243044508E-02  0.0000000000000E+00 -0.3954496146753E-03
 0.1720057643527E-03 -0.4723399486682E-02  0.0000000000000E+00 -0.3674001719488E-03
 0.2168591055504E-03 -0.4581204164057E-02  0.0000000000000E+00 -0.3087154606984E-03
 0.3121791492197E-03 -0.4458476208496E-02  0.0000000000000E+00 -0.2159614447264E-03
 0.4664298159356E-03 -0.4361350251191E-02  0.0000000000000E+00 -0.8646837265583E-04
 0.6877354440614E-03 -0.4296102906743E-02  0.0000000000000E+00  0.8107063920448E-04
 0.9834476582391E-03 -0.4268872856072E-02  0.0000000000000E+00  0.2859125333624E-03
 0.1359566879710E-02 -0.4285254040540E-02  0.0000000000000E+00  0.5245526029498E-03
 0.1820084248684E-02 -0.4349759206524E-02  0.0000000000000E+00  0.7901447789205E-03
 0.2366407829072E-02 -0.4465241693109E-02  0.0000000000000E+00  0.1072198333767E-02
 0.2996707865963E-02 -0.4632338769238E-02  0.0000000000000E+00  0.1356520901426E-02
 0.3705126771342E-02 -0.4848882851186E-02  0.0000000000000E+00  0.1625631043730E-02
 0.4481235534558E-02 -0.5109416517124E-02  0.0000000000000E+00  0.1859940599243E-02
 0.5309857582153E-02 -0.5404981798858E-02  0.0000000000000E+00  0.2039597062803E-02
 0.6171387209586E-02 -0.5723311145808E-02  0.0000000000000E+00  0.2146793182433E-02
 0.7042699097401E-02 -0.6049500802364E-02  0.0000000000000E+00  0.2168197345543E-02
 0.7898575593741E-02 -0.6367129908921E-02  0.0000000000000E+00  0.2097044682806E-02
 0.8713519611556E-02 -0.6659702975329E-02  0.0000000000000E+00  0.1934459577442E-02
 0.9463607644024E-02 -0.6912167733736E-02  0.0000000000000E+00  0.1689785678186E-02
 0.7232305085384E-04 -0.6067077977651E-02  0.0000000000000E+00  0.9191475947673E-03
 0.2177163094878E-03 -0.6156074695020E-02  0.0000000000000E+00  0.9624876327685E-03
 0.3614839464948E-03 -0.6241521487980E-02  0.0000000000000E+00  0.9791788536692E-03
 0.4981587216943E-03 -0.6319348322461E-02  0.0000000000000E+00  0.9694312391010E-03
 0.6227267214036E-03 -0.6385904066312E-02  0.0000000000000E+00  0.9352075178398E-03
 0.7310698969657E-03 -0.6438276705170E-02  0.0000000000000E+00  0.8798229295188E-03
 0.8202080387224E-03 -0.6474438857125E-02  0.0000000000000E+00  0.8072841127440E-03
 0.8883254972066E-03 -0.6493214275322E-02  0.0000000000000E+00  0.7216283414188E-03
 0.9346403566745E-03 -0.6494120602073E-02  0.0000000000000E+00  0.6264421102492E-03
 0.9591986409964E-03 -0.6477161808323E-02  0.0000000000000E+00  0.5246248571479E-03
 0.9626661831185E-03 -0.6442631835724E-02  0.0000000000000E+00  0.4183757556910E-03
 0.9461650355776E-03 -0.6390966985478E-02  0.0000000000000E+00  0.3093387840950E-03
 0.9111752652838E-03 -0.6322661081936E-02  0.0000000000000E+00  0.1988319479381E-03
 0.8595041519457E-03 -0.6238242566909E-02  0.0000000000000E+00  0.8809993610991E-04
 0.7933164611359E-03 -0.6138308554646E-02  0.0000000000000E+00 -0.2144970033491E-04
 0.7152025450136E-03 -0.6023591074416E-02  0.0000000000000E+00 -0.1280693086558E-03
 0.6282724683285E-03 -0.5895050634071E-02  0.0000000000000E+00 -0.2295555310503E-03
 0.5362564177719E-03 -0.5753983137140E-02  0.0000000000000E+00 -0.3231983348453E-03
 0.4435847935439E-03 -0.5602112826281E-02  0.0000000000000E+00 -0.4057994080982E-03
 0.3554493739577E-03 -0.5441692685203E-02  0.0000000000000E+00 -0.4737769021544E-03
 0.2778593415489E-03 -0.5275678542831E-02  0.0000000000000E+00 -0.5235113334527E-03
 0.2176073876335E-03 -0.5107792787480E-02  0.0000000000000E+00 -0.5514896746842E-03
 0.1821080414001E-03 -0.4942354657235E-02  0.0000000000000E+00 -0.5539839492721E-03
 0.1792571750657E-03 -0.4784167859103E-02  0.0000000000000E+00 -0.5269275042213E-03
 0.2173201065336E-03 -0.4638490984187E-02  0.0000000000000E+00 -0.4661108875132E-03
 0.3048054464004E-03 -0.4511016685716E-02  0.0000000000000E+00 -0.3675663042159E-03
 0.4502845438632E-03 -0.4407811779388E-02  0.0000000000000E+00 -0.2280942973871E-03
 0.6621190703651E-03 -0.4335178826910E-02  0.0000000000000E+00 -0.4592357666677E-04
 0.9480589839007E-03 -0.4299408560493E-02  0.0000000000000E+00  0.1785153985931E-03
 0.1314681418340E-02 -0.4306395959857E-02  0.0000000000000E+00  0.4417674392739E-03
 0.1766727549274E-02 -0.4361106094073E-02  0.0000000000000E+00  0.7366524207347E-03
 0.2306494203840E-02 -0.4466969977583E-02  0.0000000000000E+00  0.1051851700775E-02
 0.2933099210280E-02 -0.4625274800104E-02  0.0000000000000E+00  0.1371743720946E-02
 0.3641561106972E-02 -0.4834484659345E-02  0.0000000000000E+00  0.1676755563795E-02
 0.4422091229987E-02 -0.5089626673907E-02  0.0000000000000E+00  0.1944609489420E-02
 0.5259747168850E-02 -0.5381941770868E-02  0.0000000000000E+00  0.2152374270449E-02
 0.6134616865908E-02 -0.5698963685799E-02  0.0000000000000E+00  0.2279130366702E-02
 0.7022677401274E-02 -0.6025146769096E-02  0.0000000000000E+00  0.2308859627286E-02
 0.7897288587052E-02 -0.6343034826238E-02  0.0000000000000E+00  0.2233002375269E-02
 0.8731189850235E-02 -0.6634847864838E-02  0.0000000000000E+00  0.2052124063933E-02
 0.9498608313658E-02 -0.6884198671358E-02  0.0000000000000E+00  0.1776366397564E-02
 0.7444709708141E-04 -0.6106955381081E-02  0.0000000000000E+00  0.9727238022067E-03
 0.2242267137134E-03 -0.6198584779536E-02  0.0000000000000E+00  0.1014309264328E-02
 0.3724609852711E-03 -0.6286587400794E-02  0.0000000000000E+00  0.1026476451885E-02
 0.5133736444650E-03 -0.6366694001157E-02  0.0000000000000E+00  0.1009608824082E-02
 0.6416823389458E-03 -0.6435104999791E-02  0.0000000000000E+00  0.9661183764764E-03
 0.7531114766659E-03 -0.6488860165107E-02  0.0000000000000E+00  0.8999275388102E-03
 0.8446526055464E-03 -0.6525990147824E-02  0.0000000000000E+00  0.8156617200300E-03
 0.9145666398271E-03 -0.6545454988938E-02  0.0000000000000E+00  0.7178731637639E-03
 0.9622075074400E-03 -0.6546944349810E-02  0.0000000000000E+00  0.6105018346407E-03
 0.9877700611386E-03 -0.6530629945480E-02  0.0000000000000E+00  0.4966354863340E-03
 0.9920465943528E-03 -0.6496940651631E-02  0.0000000000000E+00  0.3785281321573E-03
 0.9762421653773E-03 -0.6446399351975E-02  0.0000000000000E+00  0.2577924270974E-03
 0.9418679220564E-03 -0.6379533031428E-02  0.0000000000000E+00  0.1356777200287E-03
 0.8907111035711E-03 -0.6296851756902E-02  0.0000000000000E+00  0.1336564623307E-04
 0.8248722484333E-03 -0.6198888620701E-02  0.0000000000000E+00 -0.1077593220342E-03
 0.7468439760151E-03 -0.6086274173993E-02  0.0000000000000E+00 -0.2259094205813E-03
 0.6596174232880E-03 -0.5959838909679E-02  0.0000000000000E+00 -0.3387651981802E-03
 0.5667945583740E-03 -0.5820728433273E-02  0.0000000000000E+00 -0.4434217918041E-03
 0.4726778165474E-03 -0.5670502952472E-02  0.0000000000000E+00 -0.5364142629800E-03
 0.3823389086940E-03 -0.5511245614361E-02  0.0000000000000E+00 -0.6138382138536E-03
 0.3016848049345E-03 -0.5345760215499E-02  0.0000000000000E+00 -0.6717340205725E-03
 0.2374189895991E-03 -0.5177636215943E-02  0.0000000000000E+00 -0.7062490230098E-03
 0.1968651839967E-03 -0.5011047090077E-02  0.0000000000000E+00 -0.7132820383874E-03
 0.1878313849664E-03 -0.4850627104304E-02  0.0000000000000E+00 -0.6883304368469E-03
 0.2185210136919E-03 -0.4701458152797E-02  0.0000000000000E+00 -0.6266805353969E-03
 0.2974404155609E-03 -0.4569079239543E-02  0.0000000000000E+00 -0.5238050393875E-03
 0.4332582255021E-03 -0.4459463660029E-02  0.0000000000000E+00 -0.3759220130164E-03
 0.6345749171720E-03 -0.4378920399745E-02  0.0000000000000E+00 -0.1807110686810E-03
 0.9095588112896E-03 -0.4333884837218E-02  0.0000000000000E+00  0.6182739474631E-04
 0.1265409772583E-02 -0.4330564498891E-02  0.0000000000000E+00  0.3484321643209E-03
 0.1707697557899E-02 -0.4374413335976E-02  0.0000000000000E+00  0.6717461132777E-03
 0.2239722596012E-02 -0.4469505319041E-02  0.0000000000000E+00  0.1019768586665E-02
 0.2861698751742E-02 -0.4617871693689E-02  0.0000000000000E+00  0.1375547423091E-02
 0.3569689169366E-02 -0.4818723464112E-02  0.0000000000000E+00  0.1717425008415E-02
 0.4354707626219E-02 -0.5067689133680E-02  0.0000000000000E+00  0.2020311625859E-02
 0.5202164491032E-02 -0.5356297965231E-02  0.0000000000000E+00  0.2257930474580E-02
 0.6091876274242E-02 -0.5671914611121E-02  0.0000000000000E+00  0.2405860348274E-02
 0.6998843703872E-02 -0.5998296573126E-02  0.0000000000000E+00  0.2444950696198E-02
 0.7894807870562E-02 -0.6316809152428E-02  0.0000000000000E+00  0.2364443400862E-02
 0.8750463677732E-02 -0.6608182409881E-02  0.0000000000000E+00  0.2164077841934E-02
 0.9537880432279E-02 -0.6854471948677E-02  0.0000000000000E+00  0.1854702396406E-02
 0.7678809656337E-04 -0.6147536224521E-02  0.0000000000000E+00  0.1027949703821E-02
 0.2313996442832E-03 -0.6242059170240E-02  0.0000000000000E+00  0.1067744498117E-02
 0.3845393070681E-03 -0.6332854208646E-02  0.0000000000000E+00  0.1075220167367E-02
 0.5300683265747E-03 -0.6415419134449E-02  0.0000000000000E+00  0.1050951971776E-02
 0.6623986198510E-03 -0.6485787903834E-02  0.0000000000000E+00  0.9978688084751E-03
 0.7770869754477E-03 -0.6540956795712E-02  0.0000000000000E+00  0.9205841906504E-03
 0.8711116457120E-03 -0.6579038205347E-02  0.0000000000000E+00  0.8244110542180E-03
 0.9428398948002E-03 -0.6599161511435E-02  0.0000000000000E+00  0.7144533452648E-03
 0.9917948047142E-03 -0.6601221143544E-02  0.0000000000000E+00  0.5950078790997E-03
 0.1018348728591E-02 -0.6585582764516E-02  0.0000000000000E+00  0.4693288773395E-03
 0.1023440445192E-02 -0.6552827431848E-02  0.0000000000000E+00  0.3396887609189E-03
 0.1008368569699E-02 -0.6503573120414E-02  0.0000000000000E+00  0.2076267032204E-03
 0.9746773051395E-03 -0.6438381121338E-02  0.0000000000000E+00  0.7428125720089E-04
 0.9241287843755E-03 -0.6357738452968E-02  0.0000000000000E+00 -0.5926798884709E-04
 0.8587488798616E-03 -0.6262105002049E-02  0.0000000000000E+00 -0.1916939573820E-03
 0.7809183781926E-03 -0.6151997282798E-02  0.0000000000000E+00 -0.3211976810166E-03
 0.6934934784278E-03 -0.6028100892495E-02  0.0000000000000E+00 -0.4453670434489E-03
 0.5999316659026E-03 -0.5891394896470E-02  0.0000000000000E+00 -0.5611210328479E-03
 0.5043921108616E-03 -0.5743258564500E-02  0.0000000000000E+00 -0.6647435946690E-03
 0.4118126959216E-03 -0.5585588111733E-02  0.0000000000000E+00 -0.7520217943640E-03
 0.3279864531224E-03 -0.5421019674333E-02  0.0000000000000E+00 -0.8186686882439E-03
 0.2595165861637E-03 -0.5252995446632E-02  0.0000000000000E+00 -0.8605048709903E-03
 0.2136224714342E-03 -0.5085526379898E-02  0.0000000000000E+00 -0.8730696619867E-03
 0.1980067291091E-03 -0.4923055382591E-02  0.0000000000000E+00 -0.8514343512693E-03
 0.2207902715666E-03 -0.4770460412098E-02  0.0000000000000E+00 -0.7903788560349E-03
 0.2904562132606E-03 -0.4633096031721E-02  0.0000000000000E+00 -0.6847930598795E-03
 0.4157535959143E-03 -0.4516810941212E-02  0.0000000000000E+00 -0.5302596877841E-03
 0.6055150053781E-03 -0.4427893921819E-02  0.0000000000000E+00 -0.3238204392207E-03
 0.8683383887319E-03 -0.4372909180532E-02  0.0000000000000E+00 -0.6491829503036E-04
 0.1212084555024E-02 -0.4358379670757E-02  0.0000000000000E+00  0.2435411847221E-03
 0.1643225934080E-02 -0.4390277786425E-02  0.0000000000000E+00  0.5942060872939E-03
 0.2166183343015E-02 -0.4473382841976E-02  0.0000000000000E+00  0.9745714569143E-03
 0.2782426705275E-02 -0.4610568408279E-02  0.0000000000000E+00  0.1366486765163E-02
 0.3489255304059E-02 -0.4801920902029E-02  0.0000000000000E+00  0.1746242739970E-02
 0.4278680612223E-02 -0.5043809003855E-02  0.0000000000000E+00  0.2085822157957E-02
 0.5136621812327E-02 -0.5328166214889E-02  0.0000000000000E+00  0.2355312063331E-02
 0.6042690284834E-02 -0.5642240795930E-02  0.0000000000000E+00  0.2526340998040E-02
 0.6970844587606E-02 -0.5969048192735E-02  0.0000000000000E+00  0.2576093295438E-02
 0.7890996764552E-02 -0.6288621322537E-02  0.0000000000000E+00  0.2491118864247E-02
 0.8771479189784E-02 -0.6579966971476E-02  0.0000000000000E+00  0.2270004975992E-02
 0.9581853980641E-02 -0.6823331320143E-02  0.0000000000000E+00  0.1924201699613E-02
 0.7935420689598E-04 -0.6188867918096E-02  0.0000000000000E+00  0.1084987672822E-02
 0.2392631933700E-03 -0.6286552981955E-02  0.0000000000000E+00  0.1122944742771E-02
 0.3977676417105E-03 -0.6380379800071E-02  0.0000000000000E+00  0.1125525190045E-02
 0.5483019795388E-03 -0.6465572693447E-02  0.0000000000000E+00  0.1093522411939E-02
 0.6849295695168E-03 -0.6537979027903E-02  0.0000000000000E+00  0.1030466746459E-02
 0.8030305842899E-03 -0.6594559345660E-02  0.0000000000000E+00  0.9417632668108E-03
 0.8995904527323E-03 -0.6633537452043E-02  0.0000000000000E+00  0.8334908886304E-03
 0.9731192716444E-03 -0.6654251156199E-02  0.0000000000000E+00  0.7113434368317E-03
 0.1023348066561E-02 -0.6656836715753E-02  0.0000000000000E+00  0.5799735156505E-03
 0.1050858736519E-02 -0.6641882107776E-02  0.0000000000000E+00  0.4427730102193E-03
 0.1056758058503E-02 -0.6610138347341E-02  0.0000000000000E+00  0.3019893741275E-03
 0.1042449016650E-02 -0.6562326691180E-02  0.0000000000000E+00  0.1590403810888E-03
 0.1009510491433E-02 -0.6499043349244E-02  0.0000000000000E+00  0.1490721129697E-04
 0.9596738525935E-03 -0.6420747196111E-02  0.0000000000000E+00 -0.1294750285580E-03
 0.8948791890158E-03 -0.6327815490261E-02  0.0000000000000E+00 -0.2728737602471E-03
 0.8173806388132E-03 -0.6220638043022E-02  0.0000000000000E+00 -0.4135100056387E-03
 0.7298827682638E-03 -0.6099740656695E-02  0.0000000000000E+00 -0.5489041823236E-03
 0.6356817948054E-03 -0.5965919708841E-02  0.0000000000000E+00 -0.6758190873163E-03
 0.5387781039094E-03 -0.5820356896769E-02  0.0000000000000E+00 -0.7903040774605E-03
 0.4439620877938E-03 -0.5664744846053E-02  0.0000000000000E+00 -0.8878528774637E-03
 0.3569014153652E-03 -0.5501536938789E-02  0.0000000000000E+00 -0.9638656119097E-03
 0.2840881399098E-03 -0.5334014275190E-02  0.0000000000000E+00 -0.1013851322324E-02
 0.2326233240974E-03 -0.5166008696104E-02  0.0000000000000E+00 -0.1033007099318E-02
 0.2100850484239E-03 -0.5001749174889E-02  0.0000000000000E+00 -0.1015992660470E-02
 0.2244877644217E-03 -0.4845880529706E-02  0.0000000000000E+00 -0.9570841926443E-03
 0.2842651032893E-03 -0.4703538444463E-02  0.0000000000000E+00 -0.8505694069162E-03
 0.3982223126816E-03 -0.4580410320688E-02  0.0000000000000E+00 -0.6913446018262E-03
 0.5754082314077E-03 -0.4482730374373E-02  0.0000000000000E+00 -0.4757226094879E-03
 0.8248513906344E-03 -0.4417166256970E-02  0.0000000000000E+00 -0.2024534160796E-03
 0.1155101889097E-02 -0.4390548846708E-02  0.0000000000000E+00  0.1260913540189E-03
 0.1573602125967E-02 -0.4409389300915E-02  0.0000000000000E+00  0.5027738165490E-03
 0.2086010023596E-02 -0.4479229461428E-02  0.0000000000000E+00  0.9147986537936E-03
 0.2695222478056E-02 -0.4603886067097E-02  0.0000000000000E+00  0.1342990592957E-02
 0.3399991355692E-02 -0.4784462975275E-02  0.0000000000000E+00  0.1761658061945E-02
 0.4193559443650E-02 -0.5018232629096E-02  0.0000000000000E+00  0.2139757311901E-02
 0.5062556524884E-02 -0.5297680589739E-02  0.0000000000000E+00  0.2443430006778E-02
 0.5986496137720E-02 -0.5610021293937E-02  0.0000000000000E+00  0.2639842754732E-02
 0.6938248707480E-02 -0.5937497907725E-02  0.0000000000000E+00  0.2701879769877E-02
 0.7885671560080E-02 -0.6258645661441E-02  0.0000000000000E+00  0.2612792523135E-02
 0.8794368749429E-02 -0.6550478726229E-02  0.0000000000000E+00  0.2369616090658E-02
 0.9630995829625E-02 -0.6791144989281E-02  0.0000000000000E+00  0.1984289255000E-02
 0.8215545360828E-04 -0.6231006007304E-02  0.0000000000000E+00  0.1144005249000E-02
 0.2478515456865E-03 -0.6332131156633E-02  0.0000000000000E+00  0.1180063902192E-02
 0.4122044989558E-03 -0.6429232188371E-02  0.0000000000000E+00  0.1177500806994E-02
 0.5681444781108E-03 -0.6517211382415E-02  0.0000000000000E+00  0.1137364668653E-02
 0.7093373339700E-03 -0.6591707362916E-02  0.0000000000000E+00  0.1063893030344E-02
 0.8309797249948E-03 -0.6649656978540E-02  0.0000000000000E+00  0.9634026832929E-03
 0.9300919184123E-03 -0.6689432605420E-02  0.0000000000000E+00  0.8428273389225E-03
 0.1005371388619E-02 -0.6710626669900E-02  0.0000000000000E+00  0.7084890984297E-03
 0.1056802044773E-02 -0.6713658955890E-02  0.0000000000000E+00  0.5653889830488E-03
 0.1085210820813E-02 -0.6699370077300E-02  0.0000000000000E+00  0.4170192447807E-03
 0.1091895248992E-02 -0.6668698892196E-02  0.0000000000000E+00  0.2655512294871E-03
 0.1078373455467E-02 -0.6622477433196E-02  0.0000000000000E+00  0.1122274465114E-03
 0.1046260050156E-02 -0.6561336686594E-02  0.0000000000000E+00 -0.4217913392114E-04
 0.9972492814769E-03 -0.6485701806758E-02  0.0000000000000E+00 -0.1969234878245E-03
 0.9331836162857E-03 -0.6395857808432E-02  0.0000000000000E+00 -0.3509072226406E-03
 0.8561749824857E-03 -0.6292055108145E-02  0.0000000000000E+00 -0.5024047277646E-03
 0.7687588855862E-03 -0.6174644861998E-02  0.0000000000000E+00 -0.6488958800069E-03
 0.6740529196980E-03 -0.6044224753385E-02  0.0000000000000E+00 -0.7870084482270E-03
 0.5758829489360E-03 -0.5901762599717E-02  0.0000000000000E+00 -0.9125746228473E-03
 0.4788784135352E-03 -0.5748731325322E-02  0.0000000000000E+00 -0.1020811062029E-02
 0.3885706956285E-03 -0.5587387164815E-02  0.0000000000000E+00 -0.1106820919221E-02
 0.3113302881859E-03 -0.5420837019859E-02  0.0000000000000E+00 -0.1165819384516E-02
 0.2541257824162E-03 -0.5252717451469E-02  0.0000000000000E+00 -0.1192682660885E-02
 0.2243900537812E-03 -0.5087020502533E-02  0.0000000000000E+00 -0.1181678883786E-02
 0.2300038206573E-03 -0.4928126885550E-02  0.0000000000000E+00 -0.1126589273932E-02
 0.2793195090798E-03 -0.4780915417684E-02  0.0000000000000E+00 -0.1021085666931E-02
 0.3811665579345E-03 -0.4650869761938E-02  0.0000000000000E+00 -0.8593307314507E-03
 0.5447840652609E-03 -0.4544126973703E-02  0.0000000000000E+00 -0.6368177604295E-03
 0.7796201764212E-03 -0.4467422081890E-02  0.0000000000000E+00 -0.3514622609985E-03
 0.1094930392203E-02 -0.4427874100451E-02  0.0000000000000E+00 -0.4908393541059E-05
 0.1499184649701E-02 -0.4432541365416E-02  0.0000000000000E+00  0.3961562114031E-03
 0.1999391744811E-02 -0.4487777193606E-02  0.0000000000000E+00  0.8389003518855E-03
 0.2600055740649E-02 -0.4598442456426E-02  0.0000000000000E+00  0.1303347625959E-02
 0.3301623687983E-02 -0.4766813497276E-02  0.0000000000000E+00  0.1761941977315E-02
 0.4098847071069E-02 -0.4991257549657E-02  0.0000000000000E+00  0.2180543256526E-02
 0.4979323521013E-02 -0.5264998099368E-02  0.0000000000000E+00  0.2521027988755E-02
 0.5922629282796E-02 -0.5575336692321E-02  0.0000000000000E+00  0.2745523832962E-02
 0.6900530887143E-02 -0.5903736690362E-02  0.0000000000000E+00  0.2821860132804E-02
 0.7878590160369E-02 -0.6227059621756E-02  0.0000000000000E+00  0.2729239354662E-02
 0.8819253410141E-02 -0.6520010225120E-02  0.0000000000000E+00  0.2462646779889E-02
 0.9685806511068E-02 -0.6758302870224E-02  0.0000000000000E+00  0.2034403316771E-02
 0.8520422132222E-04 -0.6274016285682E-02  0.0000000000000E+00  0.1205176305118E-02
 0.2572065050703E-03 -0.6378870993453E-02  0.0000000000000E+00  0.1239258787262E-02
 0.4279204383109E-03 -0.6479492035218E-02  0.0000000000000E+00  0.1231248796112E-02
 0.5896785746623E-03 -0.6570401486037E-02  0.0000000000000E+00  0.1182502128146E-02
 0.7356936142452E-03 -0.6647005341874E-02  0.0000000000000E+00  0.1098095999848E-02
 0.8609753750262E-03 -0.6706234816190E-02  0.0000000000000E+00  0.9854023588598E-03
 0.9626159377614E-03 -0.6746657428360E-02  0.0000000000000E+00  0.8523092747562E-03
 0.1039554344856E-02 -0.6768174664464E-02  0.0000000000000E+00  0.7058038797723E-03
 0.1092079125658E-02 -0.6771536387928E-02  0.0000000000000E+00  0.5512195139183E-03
 0.1121301103301E-02 -0.6757867724608E-02  0.0000000000000E+00  0.3921012102813E-03
 0.1128732168684E-02 -0.6728312779232E-02  0.0000000000000E+00  0.2304844750134E-03
 0.1116015923284E-02 -0.6683820677356E-02  0.0000000000000E+00  0.6737669098134E-04
 0.1084802932130E-02 -0.6625056031785E-02  0.0000000000000E+00 -0.9671213493510E-04
 0.1036743161242E-02 -0.6552404179223E-02  0.0000000000000E+00 -0.2612754241328E-03
 0.9735688840565E-03 -0.6466048172974E-02  0.0000000000000E+00 -0.4253909657747E-03
 0.8972335079911E-03 -0.6366086442603E-02  0.0000000000000E+00 -0.5874219794009E-03
 0.8100852778513E-03 -0.6252680789710E-02  0.0000000000000E+00 -0.7448364394128E-03
 0.7150451806575E-03 -0.6126214391765E-02  0.0000000000000E+00 -0.8941494086956E-03
 0.6157485978944E-03 -0.5987425259948E-02  0.0000000000000E+00 -0.1030994094418E-02
 0.5166508666453E-03 -0.5837551159738E-02  0.0000000000000E+00 -0.1150327288346E-02
 0.4231368957989E-03 -0.5678637664111E-02  0.0000000000000E+00 -0.1246972651896E-02
 0.3414459801241E-03 -0.5513605338246E-02  0.0000000000000E+00 -0.1315871894334E-02
 0.2784002041661E-03 -0.5345880001583E-02  0.0000000000000E+00 -0.1351606231717E-02
 0.2412653091785E-03 -0.5179193661025E-02  0.0000000000000E+00 -0.1348078557591E-02
 0.2377578039803E-03 -0.5017630492347E-02  0.0000000000000E+00 -0.1298591263556E-02
 0.2761116553996E-03 -0.4865771154413E-02  0.0000000000000E+00 -0.1196194018992E-02
 0.3651403065950E-03 -0.4728847468622E-02  0.0000000000000E+00 -0.1034274883173E-02
 0.5142361217868E-03 -0.4612848187457E-02  0.0000000000000E+00 -0.8074201031988E-03
 0.7332423179727E-03 -0.4524527960642E-02  0.0000000000000E+00 -0.5125663736117E-03
 0.1032121040121E-02 -0.4471259866923E-02  0.0000000000000E+00 -0.1504239534725E-03
 0.1420414034716E-02 -0.4460642843274E-02  0.0000000000000E+00  0.2730332755872E-03
 0.1906587883622E-02 -0.4499878537037E-02  0.0000000000000E+00  0.7452371011151E-03
 0.2496940446863E-02 -0.4594969457482E-02  0.0000000000000E+00  0.1245692889192E-02
 0.3193883003676E-02 -0.4749530929979E-02  0.0000000000000E+00  0.1745160795287E-02
 0.3994002242737E-02 -0.4963245647543E-02  0.0000000000000E+00  0.2206379826662E-02
 0.4886187440403E-02 -0.5230305616395E-02  0.0000000000000E+00  0.2586643166244E-02
 0.5850306703722E-02 -0.5538269011051E-02  0.0000000000000E+00  0.2842397874786E-02
 0.6857052199110E-02 -0.5867845477225E-02  0.0000000000000E+00  0.2935525757428E-02
 0.7869438335371E-02 -0.6194039970685E-02  0.0000000000000E+00  0.2840244573423E-02
 0.8846237470073E-02 -0.6488867911485E-02  0.0000000000000E+00  0.2548855038656E-02
 0.9746813376962E-02 -0.6725211361850E-02  0.0000000000000E+00  0.2073988921125E-02
 0.8851586904459E-04 -0.6317977362934E-02  0.0000000000000E+00  0.1268682508531E-02
 0.2673793909601E-03 -0.6426865215075E-02  0.0000000000000E+00  0.1300689581882E-02
 0.4450008367122E-03 -0.6531255648395E-02  0.0000000000000E+00  0.1286861327503E-02
 0.6130024974714E-03 -0.6625220943072E-02  0.0000000000000E+00  0.1228932111641E-02
 0.7640811880932E-03 -0.6703909443599E-02  0.0000000000000E+00  0.1132984961116E-02
 0.8930622363231E-03 -0.6764273147370E-02  0.0000000000000E+00  0.1007617820645E-02
 0.9971585231472E-03 -0.6805133071584E-02  0.0000000000000E+00  0.8617833074496E-03
 0.1075616302287E-02 -0.6826763706738E-02  0.0000000000000E+00  0.7031659587577E-03
 0.1129087819472E-02 -0.6830296434756E-02  0.0000000000000E+00  0.5374035277879E-03
 0.1159009717752E-02 -0.6817173652578E-02  0.0000000000000E+00  0.3680338952042E-03
 0.1167132104946E-02 -0.6788760832129E-02  0.0000000000000E+00  0.1968876325438E-03
 0.1155233435943E-02 -0.6746128740848E-02  0.0000000000000E+00  0.2467128887015E-04
 0.1124999339794E-02 -0.6689973185153E-02  0.0000000000000E+00 -0.1484261993496E-03
 0.1078027455659E-02 -0.6620633059718E-02  0.0000000000000E+00 -0.3221872571683E-03
 0.1015926592338E-02 -0.6538179787273E-02  0.0000000000000E+00 -0.4959098127723E-03
 0.9404746153008E-03 -0.6442547502874E-02  0.0000000000000E+00 -0.6680833647346E-03
 0.8538135126071E-03 -0.6333694220223E-02  0.0000000000000E+00 -0.8361943727622E-03
 0.7586489819239E-03 -0.6211773055144E-02  0.0000000000000E+00 -0.9966686732986E-03
 0.6584097088749E-03 -0.6077276710897E-02  0.0000000000000E+00 -0.1144959298157E-02
 0.5573641970909E-03 -0.5931193090271E-02  0.0000000000000E+00 -0.1275781093670E-02
 0.4607417015295E-03 -0.5775344654591E-02  0.0000000000000E+00 -0.1383697099380E-02
 0.3746418230470E-03 -0.5612454725587E-02  0.0000000000000E+00 -0.1463398680121E-02
 0.3057266093837E-03 -0.5445723955700E-02  0.0000000000000E+00 -0.1509202970722E-02
 0.2610717947731E-03 -0.5278601471333E-02  0.0000000000000E+00 -0.1514681147706E-02
 0.2481962185089E-03 -0.5114841419717E-02  0.0000000000000E+00 -0.1472681540739E-02
 0.2751726821009E-03 -0.4958682115244E-02  0.0000000000000E+00 -0.1375634573463E-02
 0.3507500939072E-03 -0.4815050076740E-02  0.0000000000000E+00 -0.1216121465620E-02
 0.4844253981355E-03 -0.4689726014525E-02  0.0000000000000E+00 -0.9877404224751E-03
 0.6863971838949E-03 -0.4589423954597E-02  0.0000000000000E+00 -0.6863060489117E-03
 0.9673177667409E-03 -0.4521720698371E-02  0.0000000000000E+00 -0.3113789150994E-03
 0.1337827452053E-02 -0.4494730743813E-02  0.0000000000000E+00  0.1320701083938E-03
 0.1807945563677E-02 -0.4516524061691E-02  0.0000000000000E+00  0.6320819942625E-03
 0.2385952379742E-02 -0.4594333873129E-02  0.0000000000000E+00  0.1167995660802E-02
 0.3076517754155E-02 -0.4733289359825E-02  0.0000000000000E+00  0.1709147925286E-02
 0.3878444176359E-02 -0.4934640419828E-02  0.0000000000000E+00  0.2215198620388E-02
 0.4782315353703E-02 -0.5193829977628E-02  0.0000000000000E+00  0.2638558139935E-02
 0.5768607581569E-02 -0.5498902881212E-02  0.0000000000000E+00  0.2929291443051E-02
 0.6807034628587E-02 -0.5829888936499E-02  0.0000000000000E+00  0.3042286149626E-02
 0.7857812150209E-02 -0.6159756856580E-02  0.0000000000000E+00  0.2945603383783E-02
 0.8875404699604E-02 -0.6457369759241E-02  0.0000000000000E+00  0.2628019526954E-02
 0.9814555872802E-02 -0.6692282325202E-02  0.0000000000000E+00  0.2102485850912E-02
 0.9210950501654E-04 -0.6362983809618E-02  0.0000000000000E+00  0.1334715145697E-02
 0.2784334080040E-03 -0.6476225702776E-02  0.0000000000000E+00  0.1364520339093E-02
 0.4635492729753E-03 -0.6584638548034E-02  0.0000000000000E+00  0.1344418180584E-02
 0.6382329891728E-03 -0.6681761647259E-02  0.0000000000000E+00  0.1276619644351E-02
 0.7945955006008E-03 -0.6762460603579E-02  0.0000000000000E+00  0.1168422255093E-02
 0.9272886505870E-03 -0.6823746164448E-02  0.0000000000000E+00  0.1029852821934E-02
 0.1033710527903E-02 -0.6864765890551E-02  0.0000000000000E+00  0.8710483779745E-03
 0.1113493711562E-02 -0.6886241998335E-02  0.0000000000000E+00  0.7004149470145E-03
 0.1167721014093E-02 -0.6889743451865E-02  0.0000000000000E+00  0.5238511147570E-03
 0.1198199325373E-02 -0.6877062545519E-02  0.0000000000000E+00  0.3448130338259E-03
 0.1206940253855E-02 -0.6849799905877E-02  0.0000000000000E+00  0.1648472536155E-03
 0.1195864889236E-02 -0.6809150016288E-02  0.0000000000000E+00 -0.1571162417728E-04
 0.1166691599419E-02 -0.6755835873233E-02  0.0000000000000E+00 -0.1970563546616E-03
 0.1120956725130E-02 -0.6690142823367E-02  0.0000000000000E+00 -0.3793103593540E-03
 0.1060131735851E-02 -0.6612021268517E-02  0.0000000000000E+00 -0.5620371867264E-03
 0.9858013153035E-03 -0.6521229288421E-02  0.0000000000000E+00 -0.7438919627205E-03
 0.8998814005501E-03 -0.6417507131744E-02  0.0000000000000E+00 -0.9224118791978E-03
 0.8048429330597E-03 -0.6300762624765E-02  0.0000000000000E+00 -0.1093958252879E-02
 0.7038913794108E-03 -0.6171228111992E-02  0.0000000000000E+00 -0.1253823249115E-02
 0.6010962009376E-03 -0.6029627763882E-02  0.0000000000000E+00 -0.1396498148855E-02
 0.5015231213405E-03 -0.5877549725090E-02  0.0000000000000E+00 -0.1516305414633E-02
 0.4111251231768E-03 -0.5717510675758E-02  0.0000000000000E+00 -0.1607711986734E-02
 0.3363916465943E-03 -0.5552473071147E-02  0.0000000000000E+00 -0.1664807213698E-02
 0.2841850035667E-03 -0.5385581000181E-02  0.0000000000000E+00 -0.1680872036009E-02
 0.2617902493482E-03 -0.5220224536429E-02  0.0000000000000E+00 -0.1648335302996E-02
 0.2770711050358E-03 -0.5060253160018E-02  0.0000000000000E+00 -0.1559022086373E-02
 0.3386551009007E-03 -0.4910229848783E-02  0.0000000000000E+00 -0.1404685924271E-02
 0.4560829441694E-03 -0.4775659232502E-02  0.0000000000000E+00 -0.1177866271531E-02
 0.6398523307200E-03 -0.4663141515984E-02  0.0000000000000E+00 -0.8731182480283E-03
 0.9012686102383E-03 -0.4580388767041E-02  0.0000000000000E+00 -0.4886326345155E-03
 0.1252075027297E-02 -0.4535983785970E-02  0.0000000000000E+00 -0.2806560346383E-04
 0.1703920185335E-02 -0.4538862264659E-02  0.0000000000000E+00  0.4976278420105E-03
 0.2267250977868E-02 -0.4597562110875E-02  0.0000000000000E+00  0.1068050261740E-02
 0.2949312163606E-02 -0.4718904556564E-02  0.0000000000000E+00  0.1651474388646E-02
 0.3751560961592E-02 -0.4905989419235E-02  0.0000000000000E+00  0.2204615271670E-02
 0.4666770731818E-02 -0.5155852768509E-02  0.0000000000000E+00  0.2674742400810E-02
 0.5676451812017E-02 -0.5457329004522E-02  0.0000000000000E+00  0.3004788727542E-02
 0.6749528425589E-02 -0.5789908618974E-02  0.0000000000000E+00  0.3141433040374E-02
 0.7843194253956E-02 -0.6124362794414E-02  0.0000000000000E+00  0.3045121651881E-02
 0.8906817575644E-02 -0.6425842274139E-02  0.0000000000000E+00  0.2699937687798E-02
 0.9889555155637E-02 -0.6659899511284E-02  0.0000000000000E+00  0.2119315727747E-02
 0.9600897721441E-04 -0.6409150043726E-02  0.0000000000000E+00  0.1403477386331E-02
 0.2904466295672E-03 -0.6527088072496E-02  0.0000000000000E+00  0.1430919461120E-02
 0.4836916866503E-03 -0.6639779724246E-02  0.0000000000000E+00  0.1403983015104E-02
 0.6655088535719E-03 -0.6740131971604E-02  0.0000000000000E+00  0.1325489511478E-02
 0.8273462659523E-03 -0.6822704302894E-02  0.0000000000000E+00  0.1204213595307E-02
 0.9637061375305E-03 -0.6884620062436E-02  0.0000000000000E+00  0.1051850851850E-02
 0.1072255867411E-02 -0.6925444612525E-02  0.0000000000000E+00  0.8798500119760E-03
 0.1153109122828E-02 -0.6946434595297E-02  0.0000000000000E+00  0.6973489191627E-03
 0.1207853989603E-02 -0.6949656546265E-02  0.0000000000000E+00  0.5104429651369E-03
 0.1238713554922E-02 -0.6937283685072E-02  0.0000000000000E+00  0.3224148949451E-03
 0.1247982523017E-02 -0.6911161912546E-02  0.0000000000000E+00  0.1344377912501E-03
 0.1237730029358E-02 -0.6872608207703E-02  0.0000000000000E+00 -0.5360138393293E-04
 0.1209703090122E-02 -0.6822366901090E-02  0.0000000000000E+00 -0.2423390314387E-03
 0.1165366861728E-02 -0.6760662321085E-02  0.0000000000000E+00 -0.4322920046541E-03
 0.1106041177667E-02 -0.6687315068849E-02  0.0000000000000E+00 -0.6233359374167E-03
 0.1033099449676E-02 -0.6601896315869E-02  0.0000000000000E+00 -0.8143327638137E-03
 0.9482110017772E-03 -0.6503915272017E-02  0.0000000000000E+00 -0.1002904726645E-02
 0.8535916620569E-03 -0.6393019660587E-02  0.0000000000000E+00 -0.1185374735290E-02
 0.7522067416063E-03 -0.6269166868117E-02  0.0000000000000E+00 -0.1356893810720E-02
 0.6479150482194E-03 -0.6132804344140E-02  0.0000000000000E+00 -0.1511748188820E-02
 0.5456125205002E-03 -0.5985276119722E-02  0.0000000000000E+00 -0.1644040653481E-02
 0.4511006573912E-03 -0.5828884623070E-02  0.0000000000000E+00 -0.1748042344962E-02
 0.3706852043719E-03 -0.5666342853187E-02  0.0000000000000E+00 -0.1817656813781E-02
 0.3109915704780E-03 -0.5500468860275E-02  0.0000000000000E+00 -0.1845924875426E-02
 0.2790326935039E-03 -0.5334254649116E-02  0.0000000000000E+00 -0.1824901343737E-02
 0.2824105118669E-03 -0.5171112854570E-02  0.0000000000000E+00 -0.1745832437797E-02
 0.3295663560150E-03 -0.5015180797195E-02  0.0000000000000E+00 -0.1599637205048E-02
 0.4300116654333E-03 -0.4871611427116E-02  0.0000000000000E+00 -0.1377740057883E-02
 0.5944693246247E-03 -0.4746804996622E-02  0.0000000000000E+00 -0.1073310887693E-02
 0.8348370367549E-03 -0.4648520767184E-02  0.0000000000000E+00 -0.6829530229935E-03
 0.1163937615236E-02 -0.4585736490831E-02  0.0000000000000E+00 -0.2086795630804E-03
 0.1595099166283E-02 -0.4568221705365E-02  0.0000000000000E+00  0.3400009017290E-03
 0.2141106005967E-02 -0.4605869236549E-02  0.0000000000000E+00  0.9434711793125E-03
 0.2812110202609E-02 -0.4707366122217E-02  0.0000000000000E+00  0.1569419365238E-02
 0.3612722359109E-02 -0.4877973561780E-02  0.0000000000000E+00  0.2171874468598E-02
 0.4538510766911E-02 -0.5116730149815E-02  0.0000000000000E+00  0.2692784744750E-02
 0.5572575506884E-02 -0.5413654856725E-02  0.0000000000000E+00  0.3067155300653E-02
 0.6683374356554E-02 -0.5747911141767E-02  0.0000000000000E+00  0.3232094503127E-02
 0.7824912848550E-02 -0.6087986635380E-02  0.0000000000000E+00  0.3138594189706E-02
 0.8940536912950E-02 -0.6394595033280E-02  0.0000000000000E+00  0.2764449475443E-02
 0.9972206045298E-02 -0.6628347429266E-02  0.0000000000000E+00  0.2123822869353E-02
 0.1002441413833E-03 -0.6456615196251E-02  0.0000000000000E+00  0.1475187066678E-02
 0.3035157703703E-03 -0.6579617282474E-02  0.0000000000000E+00  0.1500060073035E-02
 0.5055815007214E-03 -0.6696846738472E-02  0.0000000000000E+00  0.1465598338548E-02
 0.6949950668777E-03 -0.6800459465283E-02  0.0000000000000E+00  0.1375416026817E-02
 0.8624589577214E-03 -0.6884690112253E-02  0.0000000000000E+00  0.1240096262392E-02
 0.1002368360613E-02 -0.6946850247322E-02  0.0000000000000E+00  0.1073285427621E-02
 0.1112769069098E-02 -0.6987036660773E-02  0.0000000000000E+00  0.8878743700920E-03
 0.1194368485258E-02 -0.7007140071277E-02  0.0000000000000E+00  0.6937218962194E-03
 0.1249342164947E-02 -0.7009787158567E-02  0.0000000000000E+00  0.4970299606002E-03
 0.1280375378287E-02 -0.6997559468275E-02  0.0000000000000E+00  0.3007966258845E-03
 0.1290064389294E-02 -0.6972552978727E-02  0.0000000000000E+00  0.1057217747764E-03
 0.1280628516208E-02 -0.6936201733305E-02  0.0000000000000E+00 -0.8883420605257E-04
 0.1253837241784E-02 -0.6889263436894E-02  0.0000000000000E+00 -0.2840130611924E-03
 0.1211073830823E-02 -0.6831893777930E-02  0.0000000000000E+00 -0.4807766947952E-03
 0.1153492054213E-02 -0.6763775845155E-02  0.0000000000000E+00 -0.6793596151779E-03
 0.1082235778528E-02 -0.6684284443112E-02  0.0000000000000E+00 -0.8788735377489E-03
 0.9987064631470E-03 -0.6592685507319E-02  0.0000000000000E+00 -0.1077062497367E-02
 0.9048434474651E-03 -0.6488352369238E-02  0.0000000000000E+00 -0.1270238850109E-02
 0.8033543710459E-03 -0.6370953276689E-02  0.0000000000000E+00 -0.1453432591535E-02
 0.6978764069144E-03 -0.6240646845809E-02  0.0000000000000E+00 -0.1620743201665E-02
 0.5931314119875E-03 -0.6098524733426E-02  0.0000000000000E+00 -0.1766075095530E-02
 0.4947671404350E-03 -0.5946669556719E-02  0.0000000000000E+00 -0.1883534750773E-02
 0.4088966303252E-03 -0.5787535744988E-02  0.0000000000000E+00 -0.1966887807576E-02
 0.3418853844100E-03 -0.5623595954342E-02  0.0000000000000E+00 -0.2008994238711E-02
 0.3004342042396E-03 -0.5457410859859E-02  0.0000000000000E+00 -0.2001591973459E-02
 0.2918263656066E-03 -0.5291907695648E-02  0.0000000000000E+00 -0.1935388872362E-02
 0.3242448510601E-03 -0.5130733388413E-02  0.0000000000000E+00 -0.1800479223198E-02
 0.4070869673060E-03 -0.4978607325656E-02  0.0000000000000E+00 -0.1587134869576E-02
 0.5512086320463E-03 -0.4841631418859E-02  0.0000000000000E+00 -0.1287033054235E-02
 0.7690130895177E-03 -0.4727503527681E-02  0.0000000000000E+00 -0.8949830828108E-03
 0.1074345893829E-02 -0.4645493195508E-02  0.0000000000000E+00 -0.4110186348943E-03
 0.1482229143776E-02 -0.4606135156853E-02  0.0000000000000E+00  0.1572834436855E-03
 0.2007930244152E-02 -0.4620692788082E-02  0.0000000000000E+00  0.7916952127168E-03
 0.2664846621297E-02 -0.4699876980928E-02  0.0000000000000E+00  0.1459941957530E-02
 0.3461301111050E-02 -0.4851444971425E-02  0.0000000000000E+00  0.2113790198773E-02
 0.4396382179343E-02 -0.5076920794790E-02  0.0000000000000E+00  0.2689805596623E-02
 0.5455520722988E-02 -0.5368017508771E-02  0.0000000000000E+00  0.3114269183554E-02
 0.6607130445510E-02 -0.5703883547779E-02  0.0000000000000E+00  0.3313097120081E-02
 0.7802134459502E-02 -0.6050657341341E-02  0.0000000000000E+00  0.3225906936345E-02
 0.8976582035141E-02 -0.6364067060911E-02  0.0000000000000E+00  0.2821154640728E-02
 0.1006263291196E-01 -0.6597175230725E-02  0.0000000000000E+00  0.2115646301448E-02
 0.1048524985474E-03 -0.6505549365962E-02  0.0000000000000E+00  0.1550079906853E-02
 0.3177609685520E-03 -0.6634014345431E-02  0.0000000000000E+00  0.1572120166368E-02
 0.5294059849769E-03 -0.6756042017777E-02  0.0000000000000E+00  0.1529278731720E-02
 0.7268875194878E-03 -0.6862893547886E-02  0.0000000000000E+00  0.1426209639997E-02
 0.9000760019141E-03 -0.6948470417605E-02  0.0000000000000E+00  0.1275724711990E-02
 0.1043329281156E-02 -0.7010377331013E-02  0.0000000000000E+00  0.1093749066396E-02
 0.1155211959599E-02 -0.7049383431323E-02  0.0000000000000E+00  0.8947423137036E-03
 0.1237157852546E-02 -0.7068126552319E-02  0.0000000000000E+00  0.6892420825971E-03
 0.1292018576380E-02 -0.7069856429798E-02  0.0000000000000E+00  0.4834336756598E-03
 0.1322985465292E-02 -0.7057583991703E-02  0.0000000000000E+00  0.2798973014164E-03
 0.1332969868039E-02 -0.7033652808062E-02  0.0000000000000E+00  0.7875034742612E-04
 0.1324339132251E-02 -0.6999603362466E-02  0.0000000000000E+00 -0.1212535791742E-03
 0.1298876641632E-02 -0.6956196482744E-02  0.0000000000000E+00 -0.3218209487712E-03
 0.1257872439962E-02 -0.6903511777131E-02  0.0000000000000E+00 -0.5244079582131E-03
 0.1202300109821E-02 -0.6841088786281E-02  0.0000000000000E+00 -0.7296543026768E-03
 0.1133055913813E-02 -0.6768098525493E-02  0.0000000000000E+00 -0.9369662338615E-03
 0.1051251653256E-02 -0.6683552910559E-02  0.0000000000000E+00 -0.1144249268563E-02
 0.9585276364146E-03 -0.6586537265184E-02  0.0000000000000E+00 -0.1347835360779E-02
 0.8573154849805E-03 -0.6476416862461E-02  0.0000000000000E+00 -0.1542654105574E-02
 0.7510203488114E-03 -0.6353050166442E-02  0.0000000000000E+00 -0.1722635872214E-02
 0.6441879993489E-03 -0.6217269809312E-02  0.0000000000000E+00 -0.1881507849276E-02
 0.5423133886971E-03 -0.6070935313212E-02  0.0000000000000E+00 -0.2013245183777E-02
 0.4513105592675E-03 -0.5916235918828E-02  0.0000000000000E+00 -0.2111529482825E-02
 0.3772631741779E-03 -0.5755281663466E-02  0.0000000000000E+00 -0.2169108702356E-02
 0.3265188083041E-03 -0.5590170107095E-02  0.0000000000000E+00 -0.2177473301401E-02
 0.3059818134424E-03 -0.5423295147251E-02  0.0000000000000E+00 -0.2126848284199E-02
 0.3234983692524E-03 -0.5257747603721E-02  0.0000000000000E+00 -0.2006531634420E-02
 0.3882559075907E-03 -0.5097727046206E-02  0.0000000000000E+00 -0.1805628232977E-02
 0.5111331078937E-03 -0.4948927926903E-02  0.0000000000000E+00 -0.1514241025229E-02
 0.7049238360106E-03 -0.4818857580191E-02  0.0000000000000E+00 -0.1125200437842E-02
 0.9844003654720E-03 -0.4716941236481E-02  0.0000000000000E+00 -0.6362287374944E-03
 0.1366246802670E-02 -0.4654365329916E-02  0.0000000000000E+00 -0.5245208649934E-04
 0.1868318847674E-02 -0.4643731646627E-02  0.0000000000000E+00  0.6099938127826E-03
 0.2507588225967E-02 -0.4697901681941E-02  0.0000000000000E+00  0.1319657736068E-02
 0.3296700874313E-02 -0.4827475570142E-02  0.0000000000000E+00  0.2026678585188E-02
 0.4239134320731E-02 -0.5037024753565E-02  0.0000000000000E+00  0.2662361115647E-02
 0.5323580433605E-02 -0.5320601169724E-02  0.0000000000000E+00  0.3143495918635E-02
 0.6519150893491E-02 -0.5657814722594E-02  0.0000000000000E+00  0.3382977209032E-02
 0.7773402642797E-02 -0.6012322712008E-02  0.0000000000000E+00  0.3306500467669E-02
 0.9016052907482E-02 -0.6334665802517E-02  0.0000000000000E+00  0.2870662684861E-02
 0.1015739338227E-01 -0.6565009401657E-02  0.0000000000000E+00  0.2091348095753E-02
 0.1098930197079E-03 -0.6556163705635E-02  0.0000000000000E+00  0.1628412829577E-02
 0.3333405749952E-03 -0.6690544579326E-02  0.0000000000000E+00  0.1647308052143E-02
 0.5554135423206E-03 -0.6817644693830E-02  0.0000000000000E+00  0.1595036717546E-02
 0.7614490528688E-03 -0.6927660757146E-02  0.0000000000000E+00  0.1477643238675E-02
 0.9404019663482E-03 -0.7014167767634E-02  0.0000000000000E+00  0.1310693402343E-02
 0.1086697573618E-02 -0.7075206758957E-02  0.0000000000000E+00  0.1112771346161E-02
 0.1199598225117E-02 -0.7112392814719E-02  0.0000000000000E+00  0.9000195876738E-03
 0.1281418590983E-02 -0.7129237698840E-02  0.0000000000000E+00  0.6835708149809E-03
 0.1335779993090E-02 -0.7129675402072E-02  0.0000000000000E+00  0.4694316065963E-03
 0.1366419640527E-02 -0.7117158990949E-02  0.0000000000000E+00  0.2596082079634E-03
 0.1376571314213E-02 -0.7094269059103E-02  0.0000000000000E+00  0.5351811129869E-04
 0.1368743613615E-02 -0.7062637035554E-02  0.0000000000000E+00 -0.1507714668186E-03
 0.1344723140978E-02 -0.7023015358272E-02  0.0000000000000E+00 -0.3555876237309E-03
 0.1305695249100E-02 -0.6975401654215E-02  0.0000000000000E+00 -0.5629276645401E-03
 0.1252439836024E-02 -0.6919188916564E-02  0.0000000000000E+00 -0.7738834863653E-03
 0.1185587523090E-02 -0.6853340004030E-02  0.0000000000000E+00 -0.9882047105718E-03
 0.1105937121175E-02 -0.6776603883533E-02  0.0000000000000E+00 -0.1204003851454E-02
 0.1014804393406E-02 -0.6687764368987E-02  0.0000000000000E+00 -0.1417667460672E-02
 0.9143235598901E-03 -0.6585868962477E-02  0.0000000000000E+00 -0.1624047266985E-02
 0.8076560254534E-03 -0.6470463799264E-02  0.0000000000000E+00 -0.1816921786780E-02
 0.6991704200156E-03 -0.6342115838126E-02  0.0000000000000E+00 -0.1989861839525E-02
 0.5942118931017E-03 -0.6202459052559E-02  0.0000000000000E+00 -0.2136746901269E-02
 0.4984904628323E-03 -0.6053411615253E-02  0.0000000000000E+00 -0.2251235210431E-02
 0.4177847909789E-03 -0.5896703303245E-02  0.0000000000000E+00 -0.2326042025637E-02
 0.3580439162773E-03 -0.5733934867906E-02  0.0000000000000E+00 -0.2352492182241E-02
 0.3257260472709E-03 -0.5566915615542E-02  0.0000000000000E+00 -0.2320397083837E-02
 0.3282523227878E-03 -0.5398109421741E-02  0.0000000000000E+00 -0.2218302841666E-02
 0.3744906816227E-03 -0.5231101235751E-02  0.0000000000000E+00 -0.2034152256370E-02
 0.4752116827192E-03 -0.5071053880564E-02  0.0000000000000E+00 -0.1756413680649E-02
 0.6434544369179E-03 -0.4925129446220E-02  0.0000000000000E+00 -0.1375770205363E-02
 0.8947803662782E-03 -0.4802733202864E-02  0.0000000000000E+00 -0.8872964119249E-03
 0.1247454994794E-02 -0.4715536514952E-02  0.0000000000000E+00 -0.2931006092476E-03
 0.1721987923630E-02 -0.4677389900323E-02  0.0000000000000E+00  0.3935977746511E-03
 0.2339255379080E-02 -0.4703395669819E-02  0.0000000000000E+00  0.1143167981222E-02
 0.3116924841660E-02 -0.4807365474341E-02  0.0000000000000E+00  0.1905028368719E-02
 0.4063932956264E-02 -0.4997593809687E-02  0.0000000000000E+00  0.2605580584155E-02
 0.5173503154592E-02 -0.5271325641982E-02  0.0000000000000E+00  0.3151367474660E-02
 0.6416399445768E-02 -0.5609313513095E-02  0.0000000000000E+00  0.3440116630795E-02
 0.7737291937234E-02 -0.5972826611110E-02  0.0000000000000E+00  0.3379833277381E-02
 0.9056871966286E-02 -0.6305819921060E-02  0.0000000000000E+00  0.2914288107611E-02
 0.1027472917062E-01 -0.6535884180110E-02  0.0000000000000E+00  0.2029691476057E-02
 0.1153988773022E-03 -0.6608714579027E-02  0.0000000000000E+00  0.1710491007076E-02
 0.3504279382338E-03 -0.6749513554642E-02  0.0000000000000E+00  0.1725826832441E-02
 0.5838685737827E-03 -0.6881952193369E-02  0.0000000000000E+00  0.1662816297547E-02
 0.7989411288269E-03 -0.6994964859783E-02  0.0000000000000E+00  0.1529362579907E-02
 0.9836052800214E-03 -0.7081833340223E-02  0.0000000000000E+00  0.1344451363698E-02
 0.1132511477570E-02 -0.7141231662721E-02  0.0000000000000E+00  0.1129758217396E-02
 0.1245846364410E-02 -0.7175833390461E-02  0.0000000000000E+00  0.9031919813061E-03
 0.1326982450524E-02 -0.7190162394104E-02  0.0000000000000E+00  0.6763365315253E-03
 0.1380405438051E-02 -0.7188890249631E-02  0.0000000000000E+00  0.4548091993561E-03
 0.1410429617685E-02 -0.7175910876086E-02  0.0000000000000E+00  0.2398617672875E-03
 0.1420609176029E-02 -0.7154019376414E-02  0.0000000000000E+00  0.3008917688145E-04
 0.1413580935860E-02 -0.7124915620621E-02  0.0000000000000E+00 -0.1772025576482E-03
 0.1391121532352E-02 -0.7089329945380E-02  0.0000000000000E+00 -0.3850093928056E-03
 0.1354300557194E-02 -0.7047173555964E-02  0.0000000000000E+00 -0.5959105077144E-03
 0.1303692566471E-02 -0.6997693545347E-02  0.0000000000000E+00 -0.8114950589329E-03
 0.1239646087630E-02 -0.6939644409821E-02  0.0000000000000E+00 -0.1031907582519E-02
 0.1162623565612E-02 -0.6871506341028E-02  0.0000000000000E+00 -0.1255518909618E-02
 0.1073588886612E-02 -0.6791749432793E-02  0.0000000000000E+00 -0.1478810723351E-02
 0.9743554170476E-03 -0.6699088721770E-02  0.0000000000000E+00 -0.1696581815996E-02
 0.8678288569866E-03 -0.6592746209162E-02  0.0000000000000E+00 -0.1902475391369E-02
 0.7582023218861E-03 -0.6473018075505E-02  0.0000000000000E+00 -0.2089925417102E-02
 0.6506789396886E-03 -0.6341312856886E-02  0.0000000000000E+00 -0.2252753110468E-02
 0.5507639330018E-03 -0.6199274722669E-02  0.0000000000000E+00 -0.2384661409044E-02
 0.4639098163505E-03 -0.6048238276835E-02  0.0000000000000E+00 -0.2478424251477E-02
 0.3956213215580E-03 -0.5889276334519E-02  0.0000000000000E+00 -0.2525297641094E-02
 0.3518407745103E-03 -0.5723565085246E-02  0.0000000000000E+00 -0.2514766714799E-02
 0.3394712165103E-03 -0.5552873100679E-02  0.0000000000000E+00 -0.2434693937983E-02
 0.3669423115747E-03 -0.5380076046891E-02  0.0000000000000E+00 -0.2271897745239E-02
 0.4447677690830E-03 -0.5209674463793E-02  0.0000000000000E+00 -0.2013194471637E-02
 0.5860539516337E-03 -0.5048311020466E-02  0.0000000000000E+00 -0.1646999444958E-02
 0.8069605870715E-03 -0.4905155796346E-02  0.0000000000000E+00 -0.1165441244185E-02
 0.1127179220841E-02 -0.4792133945639E-02  0.0000000000000E+00 -0.5670378295133E-03
 0.1569855239677E-02 -0.4724170525709E-02  0.0000000000000E+00  0.1388268093114E-03
 0.2160042399855E-02 -0.4718618480926E-02  0.0000000000000E+00  0.9255659729051E-03
 0.2921155668231E-02 -0.4792840937863E-02  0.0000000000000E+00  0.1743146365480E-02
 0.3868846343160E-02 -0.4959613083203E-02  0.0000000000000E+00  0.2513821269542E-02
 0.5002476781506E-02 -0.5220448722018E-02  0.0000000000000E+00  0.3133372441269E-02
 0.6295954701646E-02 -0.5558229806643E-02  0.0000000000000E+00  0.3481826761730E-02
 0.7691465468297E-02 -0.5932176919805E-02  0.0000000000000E+00  0.3445713528181E-02
 0.9099829008943E-02 -0.6277956295333E-02  0.0000000000000E+00  0.2947149535730E-02
 0.1041692394320E-01 -0.6518727362073E-02  0.0000000000000E+00  0.1957241206677E-02
 0.1214595718071E-03 -0.6663515555359E-02  0.0000000000000E+00  0.1796621447268E-02
 0.3692660106162E-03 -0.6811279267829E-02  0.0000000000000E+00  0.1807833907515E-02
 0.6151177337910E-03 -0.6949289893908E-02  0.0000000000000E+00  0.1732421920784E-02
 0.8396762788770E-03 -0.7064987383149E-02  0.0000000000000E+00  0.1580800819197E-02
 0.1029854194005E-02 -0.7151440080046E-02  0.0000000000000E+00  0.1376221464866E-02
 0.1180760010692E-02 -0.7208224073070E-02  0.0000000000000E+00  0.1143927383665E-02
 0.1293791321798E-02 -0.7239328765358E-02  0.0000000000000E+00  0.9036158683116E-03
 0.1373577368117E-02 -0.7250434276071E-02  0.0000000000000E+00  0.6670923779009E-03
 0.1425557822740E-02 -0.7246986553397E-02  0.0000000000000E+00  0.4393151136594E-03
 0.1454640620794E-02 -0.7233298133262E-02  0.0000000000000E+00  0.2205765581027E-03
 0.1464685005285E-02 -0.7212340097285E-02  0.0000000000000E+00  0.8525966586154E-05
 0.1458434751529E-02 -0.7185849234673E-02  0.0000000000000E+00 -0.2003561219223E-03
 0.1437640235771E-02 -0.7154517065557E-02  0.0000000000000E+00 -0.4097696343973E-03
 0.1403245053867E-02 -0.7118165390467E-02  0.0000000000000E+00 -0.6229053849769E-03
 0.1355609915774E-02 -0.7075900404920E-02  0.0000000000000E+00 -0.8418886449308E-03
 0.1294788327916E-02 -0.7026273497389E-02  0.0000000000000E+00 -0.1067310075509E-02
 0.1220885074743E-02 -0.6967494906317E-02  0.0000000000000E+00 -0.1297854349082E-02
 0.1134484882371E-02 -0.6897711459547E-02  0.0000000000000E+00 -0.1530143786964E-02
 0.1037056325810E-02 -0.6815292210267E-02  0.0000000000000E+00 -0.1758950927351E-02
 0.9312391175693E-03 -0.6719124621239E-02  0.0000000000000E+00 -0.1977798220327E-02
 0.8210575315333E-03 -0.6609231709158E-02  0.0000000000000E+00 -0.2179999659142E-02
 0.7115877034183E-03 -0.6486801012286E-02  0.0000000000000E+00 -0.2359356167519E-02
 0.6081366926122E-03 -0.6353205321908E-02  0.0000000000000E+00 -0.2509689002487E-02
 0.5158156909610E-03 -0.6209375676251E-02  0.0000000000000E+00 -0.2623931882197E-02
 0.4396439517575E-03 -0.6055833837835E-02  0.0000000000000E+00 -0.2693381670991E-02
 0.3849821900049E-03 -0.5893084597194E-02  0.0000000000000E+00 -0.2707302393539E-02
 0.3581254932924E-03 -0.5722145089239E-02  0.0000000000000E+00 -0.2652968718350E-02
 0.3669462038692E-03 -0.5545098938757E-02  0.0000000000000E+00 -0.2516156302178E-02
 0.4215427219885E-03 -0.5365660093514E-02  0.0000000000000E+00 -0.2282077296442E-02
 0.5348821232455E-03 -0.5189769935360E-02  0.0000000000000E+00 -0.1936844303175E-02
 0.7234727647351E-03 -0.5026114780735E-02  0.0000000000000E+00 -0.1469433208736E-02
 0.1008178175752E-02 -0.4886570661171E-02  0.0000000000000E+00 -0.8742646540363E-03
 0.1414626661163E-02 -0.4786849669533E-02  0.0000000000000E+00 -0.1559476705416E-03
 0.1972183435393E-02 -0.4746428361141E-02  0.0000000000000E+00  0.6633848411376E-03
 0.2710667388921E-02 -0.4786455725686E-02  0.0000000000000E+00  0.1535919376265E-02
 0.3653800153849E-02 -0.4924960665720E-02  0.0000000000000E+00  0.2381088852612E-02
 0.4809059850812E-02 -0.5169011509479E-02  0.0000000000000E+00  0.3083865181034E-02
 0.6155520421667E-02 -0.5505029152978E-02  0.0000000000000E+00  0.3504209274892E-02
 0.7633865633286E-02 -0.5890720833681E-02  0.0000000000000E+00  0.3501760758533E-02
 0.9145672504079E-02 -0.6254137865502E-02  0.0000000000000E+00  0.2971251480904E-02
 0.1057197978179E-01 -0.6508660714244E-02  0.0000000000000E+00  0.1876593539311E-02
 0.1281726741516E-03 -0.6720961929255E-02  0.0000000000000E+00  0.1887169747139E-02
 0.3901550607165E-03 -0.6876307358542E-02  0.0000000000000E+00  0.1893517731906E-02
 0.6495870365154E-03 -0.7020089297429E-02  0.0000000000000E+00  0.1803607484244E-02
 0.8840336121518E-03 -0.7137986061143E-02  0.0000000000000E+00  0.1631275551697E-02
 0.1079354064098E-02 -0.7223003572978E-02  0.0000000000000E+00  0.1405103185691E-02
 0.1231449452168E-02 -0.7275983456226E-02  0.0000000000000E+00  0.1154408557220E-02
 0.1343284130381E-02 -0.7302536993528E-02  0.0000000000000E+00  0.9006022857942E-03
 0.1420960401230E-02 -0.7309642575184E-02  0.0000000000000E+00  0.6553727766119E-03
 0.1470948455113E-02 -0.7303531680368E-02  0.0000000000000E+00  0.4226849423553E-03
 0.1498746349257E-02 -0.7288887239248E-02  0.0000000000000E+00  0.2016477990962E-03
 0.1508487544069E-02 -0.7268800523776E-02  0.0000000000000E+00 -0.1115200249484E-04
 0.1502993099853E-02 -0.7245005441464E-02  0.0000000000000E+00 -0.2201081958225E-03
 0.1483968413200E-02 -0.7218136396268E-02  0.0000000000000E+00 -0.4296438158849E-03
 0.1452222610023E-02 -0.7187925868489E-02  0.0000000000000E+00 -0.6435787987377E-03
 0.1407898112239E-02 -0.7153350223123E-02  0.0000000000000E+00 -0.8646073307756E-03
 0.1350744558410E-02 -0.7112770095308E-02  0.0000000000000E+00 -0.1093818869012E-02
 0.1280489493222E-02 -0.7064130318258E-02  0.0000000000000E+00 -0.1330275067066E-02
 0.1197309525304E-02 -0.7005247471973E-02  0.0000000000000E+00 -0.1570793275234E-02
 0.1102301248334E-02 -0.6934130842473E-02  0.0000000000000E+00 -0.1810150823077E-02
 0.9978270074309E-03 -0.6849322142999E-02  0.0000000000000E+00 -0.2041762251291E-02
 0.8877521389122E-03 -0.6750569379258E-02  0.0000000000000E+00 -0.2258834403613E-02
 0.7770470442440E-03 -0.6638845632288E-02  0.0000000000000E+00 -0.2455185019351E-02
 0.6708332221768E-03 -0.6515257915553E-02  0.0000000000000E+00 -0.2624832377835E-02
 0.5738689554884E-03 -0.6380328640115E-02  0.0000000000000E+00 -0.2760979961469E-02
 0.4906484662145E-03 -0.6234009876731E-02  0.0000000000000E+00 -0.2855085379937E-02
 0.4258864683285E-03 -0.6076103718712E-02  0.0000000000000E+00 -0.2896309315315E-02
 0.3851821388494E-03 -0.5906829708864E-02  0.0000000000000E+00 -0.2871454737121E-02
 0.3757322243766E-03 -0.5727408106620E-02  0.0000000000000E+00 -0.2765371734904E-02
 0.4070555692239E-03 -0.5540650279121E-02  0.0000000000000E+00 -0.2561774605016E-02
 0.4917512775144E-03 -0.5351611083932E-02  0.0000000000000E+00 -0.2244522241939E-02
 0.6463746839113E-03 -0.5168216413922E-02  0.0000000000000E+00 -0.1799331543158E-02
 0.8926118048609E-03 -0.5001921565444E-02  0.0000000000000E+00 -0.1216104148245E-02
 0.1258279269956E-02 -0.4868817675726E-02  0.0000000000000E+00 -0.4937383858405E-03
 0.1777028134141E-02 -0.4790217552138E-02  0.0000000000000E+00  0.3516735227879E-03
 0.2485641755298E-02 -0.4791148301564E-02  0.0000000000000E+00  0.1276660184722E-02
 0.3417377187871E-02 -0.4895654270350E-02  0.0000000000000E+00  0.2199857434301E-02
 0.4590248226173E-02 -0.5117897074241E-02  0.0000000000000E+00  0.2996074863715E-02
 0.5991271452965E-02 -0.5449722734110E-02  0.0000000000000E+00  0.3502864647794E-02
 0.7561595992891E-02 -0.5848695843254E-02  0.0000000000000E+00  0.3546892383288E-02
 0.9192416480075E-02 -0.6234885418107E-02  0.0000000000000E+00  0.2989733093221E-02
 0.1074203070789E-01 -0.6505622039758E-02  0.0000000000000E+00  0.1782912834633E-02
 0.1356646593576E-03 -0.6781549863777E-02  0.0000000000000E+00  0.1982556511190E-02
 0.4134783263407E-03 -0.6945178309014E-02  0.0000000000000E+00  0.1983056609688E-02
 0.6878020617064E-03 -0.7094870091149E-02  0.0000000000000E+00  0.1875987426662E-02
 0.9324531017610E-03 -0.7214242453205E-02  0.0000000000000E+00  0.1679878485281E-02
 0.1132313121540E-02 -0.7296500067291E-02  0.0000000000000E+00  0.1429978021376E-02
 0.1284548304888E-02 -0.7344237044148E-02  0.0000000000000E+00  0.1160181978161E-02
 0.1394124234198E-02 -0.7365041675027E-02  0.0000000000000E+00  0.8933874080854E-03
 0.1468841085344E-02 -0.7367316112616E-02  0.0000000000000E+00  0.6406879838604E-03
 0.1516251485459E-02 -0.7358049627007E-02  0.0000000000000E+00  0.4046535636490E-03
 0.1542412874331E-02 -0.7342214571684E-02  0.0000000000000E+00  0.1829745168201E-03
 0.1551683848203E-02 -0.7322947458259E-02  0.0000000000000E+00 -0.2892671451057E-04
 0.1546924261565E-02 -0.7301931426125E-02  0.0000000000000E+00 -0.2363449163559E-03
 0.1529773889367E-02 -0.7279724660153E-02  0.0000000000000E+00 -0.4444249707744E-03
 0.1500901669898E-02 -0.7255974511257E-02  0.0000000000000E+00 -0.6576178656525E-03
 0.1460232824934E-02 -0.7229546133420E-02  0.0000000000000E+00 -0.8792111325248E-03
 0.1407210112791E-02 -0.7198630873865E-02  0.0000000000000E+00 -0.1110846512061E-02
 0.1341167332643E-02 -0.7160920482650E-02  0.0000000000000E+00 -0.1352035098424E-02
 0.1261842487217E-02 -0.7113898075051E-02  0.0000000000000E+00 -0.1599855889607E-02
 0.1169928669518E-02 -0.7055199008364E-02  0.0000000000000E+00 -0.1849129166668E-02
 0.1067497209624E-02 -0.6983006271670E-02  0.0000000000000E+00 -0.2093173134419E-02
 0.9582674726561E-03 -0.6896790516585E-02  0.0000000000000E+00 -0.2325095016242E-02
 0.8471323484717E-03 -0.6797318258381E-02  0.0000000000000E+00 -0.2538764388983E-02
 0.7390470917781E-03 -0.6685438701226E-02  0.0000000000000E+00 -0.2728479589690E-02
 0.6384093969702E-03 -0.6561263530796E-02  0.0000000000000E+00 -0.2887831519868E-02
 0.5491508898881E-03 -0.6424161328303E-02  0.0000000000000E+00 -0.3008566084915E-02
 0.4752785066757E-03 -0.6273208856350E-02  0.0000000000000E+00 -0.3079867431779E-02
 0.4216124160122E-03 -0.6107795390485E-02  0.0000000000000E+00 -0.3088199712862E-02
 0.3945614541562E-03 -0.5928223776707E-02  0.0000000000000E+00 -0.3017638944404E-02
 0.4029022916825E-03 -0.5736303712971E-02  0.0000000000000E+00 -0.2850570607740E-02
 0.4586236352484E-03 -0.5536025933416E-02  0.0000000000000E+00 -0.2568747930802E-02
 0.5779798951726E-03 -0.5334262455037E-02  0.0000000000000E+00 -0.2154655123672E-02
 0.7830299889557E-03 -0.5141612926930E-02  0.0000000000000E+00 -0.1593393057632E-02
 0.1103315410250E-02 -0.4974007163902E-02  0.0000000000000E+00 -0.8772900633616E-03
 0.1576525522378E-02 -0.4854102249240E-02  0.0000000000000E+00 -0.1469332284618E-04
 0.2246779488874E-02 -0.4810671087360E-02  0.0000000000000E+00  0.9578597929912E-03
 0.3158361772898E-02 -0.4874435113553E-02  0.0000000000000E+00  0.1961117649010E-02
 0.4342709497705E-02 -0.5068405565133E-02  0.0000000000000E+00  0.2861402959449E-02
 0.5798566834133E-02 -0.5392401045539E-02  0.0000000000000E+00  0.3471971738133E-02
 0.7470439887953E-02 -0.5805921145452E-02  0.0000000000000E+00  0.3579843272862E-02
 0.9237883276792E-02 -0.6219998379567E-02  0.0000000000000E+00  0.3003925282401E-02
 0.1092978302610E-01 -0.6510168802875E-02  0.0000000000000E+00  0.1672607689173E-02
 0.1441012722891E-03 -0.6845907466549E-02  0.0000000000000E+00  0.2083271567560E-02
 0.4397288433315E-03 -0.7018620046918E-02  0.0000000000000E+00  0.2076604150098E-02
 0.7304123463296E-03 -0.7174256399788E-02  0.0000000000000E+00  0.1948978252199E-02
 0.9854392509422E-03 -0.7294052267912E-02  0.0000000000000E+00  0.1725406334542E-02
 0.1188928139556E-02 -0.7371841231427E-02  0.0000000000000E+00  0.1449466666651E-02
 0.1339968378629E-02 -0.7412615048883E-02  0.0000000000000E+00  0.1160069518349E-02
 0.1446045403100E-02 -0.7426336157571E-02  0.0000000000000E+00  0.8811441243674E-03
 0.1516874289358E-02 -0.7422916662749E-02  0.0000000000000E+00  0.6225410923586E-03
 0.1561101927851E-02 -0.7410020351917E-02  0.0000000000000E+00  0.3849693439183E-03
 0.1585279506172E-02 -0.7392788736458E-02  0.0000000000000E+00  0.1644685131698E-03
 0.1593921347887E-02 -0.7374308682712E-02  0.0000000000000E+00 -0.4477783641761E-04
 0.1589878981094E-02 -0.7356157575359E-02  0.0000000000000E+00 -0.2489632245126E-03
 0.1574704786897E-02 -0.7338798546801E-02  0.0000000000000E+00 -0.4539283168326E-03
 0.1548925638274E-02 -0.7321803157846E-02  0.0000000000000E+00 -0.6647380652102E-03
 0.1512257793052E-02 -0.7303953034144E-02  0.0000000000000E+00 -0.8852865066205E-03
 0.1463842117064E-02 -0.7283303146959E-02  0.0000000000000E+00 -0.1117820670494E-02
 0.1402607177200E-02 -0.7257314973084E-02  0.0000000000000E+00 -0.1362384548582E-02
 0.1327820848212E-02 -0.7223140573693E-02  0.0000000000000E+00 -0.1616401954080E-02
 0.1239735605496E-02 -0.7178026943548E-02  0.0000000000000E+00 -0.1874785530474E-02
 0.1140114184912E-02 -0.7119782366324E-02  0.0000000000000E+00 -0.2130768717204E-02
 0.1032545521493E-02 -0.7047595757706E-02  0.0000000000000E+00 -0.2377360174118E-02
 0.9218808334650E-03 -0.6962034980091E-02  0.0000000000000E+00 -0.2608512854213E-02
 0.8129357843128E-03 -0.6863700596470E-02  0.0000000000000E+00 -0.2818891559040E-02
 0.7097437559194E-03 -0.6752293593648E-02  0.0000000000000E+00 -0.3002598117357E-02
 0.6156382983096E-03 -0.6626590224757E-02  0.0000000000000E+00 -0.3151798324671E-02
 0.5338605687533E-03 -0.6484929615134E-02  0.0000000000000E+00 -0.3255830597534E-02
 0.4683765957990E-03 -0.6325855216309E-02  0.0000000000000E+00 -0.3300964582692E-02
 0.4247067902360E-03 -0.6148721942660E-02  0.0000000000000E+00 -0.3270684036038E-02
 0.4107337748014E-03 -0.5954265429873E-02  0.0000000000000E+00 -0.3146278173556E-02
 0.4375915299261E-03 -0.5745256234346E-02  0.0000000000000E+00 -0.2907653275352E-02
 0.5208508746713E-03 -0.5527219125359E-02  0.0000000000000E+00 -0.2534251336494E-02
 0.6823971292056E-03 -0.5309414343562E-02  0.0000000000000E+00 -0.2006292990142E-02
 0.9528431990506E-03 -0.5106935939961E-02  0.0000000000000E+00 -0.1308851229232E-02
 0.1373379512597E-02 -0.4943047109210E-02  0.0000000000000E+00 -0.4408147264603E-03
 0.1995517462694E-02 -0.4849808276631E-02  0.0000000000000E+00  0.5712404118663E-03
 0.2875944912704E-02 -0.4865035598370E-02  0.0000000000000E+00  0.1654145011986E-02
 0.4062854474905E-02 -0.5022486343445E-02  0.0000000000000E+00  0.2668905955195E-02
 0.5571713636593E-02 -0.5333251181850E-02  0.0000000000000E+00  0.3403662377630E-02
 0.7354758392089E-02 -0.5761750320308E-02  0.0000000000000E+00  0.3598097088125E-02
 0.9279525181982E-02 -0.6209251270058E-02  0.0000000000000E+00  0.3014343115020E-02
 0.1113833659479E-01 -0.6523411574206E-02  0.0000000000000E+00  0.1542905207649E-02
 0.1537025493953E-03 -0.6914838027006E-02  0.0000000000000E+00  0.2189892229288E-02
 0.4695466365383E-03 -0.7097551560442E-02  0.0000000000000E+00  0.2174263747148E-02
 0.7782214348796E-03 -0.7258993993439E-02  0.0000000000000E+00  0.2021712759807E-02
 0.1043560247549E-02 -0.7377706034734E-02  0.0000000000000E+00  0.1766269757373E-02
 0.1249361252973E-02 -0.7448837241740E-02  0.0000000000000E+00  0.1461882113936E-02
 0.1397539468796E-02 -0.7480619013537E-02  0.0000000000000E+00  0.1152733771215E-02
 0.1498699372785E-02 -0.7485806093817E-02  0.0000000000000E+00  0.8630035421383E-03
 0.1564653365087E-02 -0.7475833351080E-02  0.0000000000000E+00  0.6004518716936E-03
 0.1605094831636E-02 -0.7458880773274E-02  0.0000000000000E+00  0.3634118759086E-03
 0.1626960845724E-02 -0.7440094393418E-02  0.0000000000000E+00  0.1460648448946E-03
 0.1634830944965E-02 -0.7422397683663E-02  0.0000000000000E+00 -0.5867841780213E-04
 0.1631493616727E-02 -0.7407202168580E-02  0.0000000000000E+00 -0.2578717015965E-03
 0.1618392014116E-02 -0.7394858699245E-02  0.0000000000000E+00 -0.4579966139710E-03
 0.1595913968726E-02 -0.7384878438562E-02  0.0000000000000E+00 -0.6646924965835E-03
 0.1563583811058E-02 -0.7375997586662E-02  0.0000000000000E+00 -0.8824581615825E-03
 0.1520256086128E-02 -0.7366181689419E-02  0.0000000000000E+00 -0.1114196069590E-02
 0.1464450396176E-02 -0.7352698798164E-02  0.0000000000000E+00 -0.1360578830958E-02
 0.1394933044054E-02 -0.7332380823548E-02  0.0000000000000E+00 -0.1619480170895E-02
 0.1311471789836E-02 -0.7302072271504E-02  0.0000000000000E+00 -0.1885971827169E-02
 0.1215496973137E-02 -0.7259186212524E-02  0.0000000000000E+00 -0.2153216660546E-02
 0.1110484254762E-02 -0.7202621154885E-02  0.0000000000000E+00 -0.2414118497798E-02
 0.1001287115996E-02 -0.7132752069064E-02  0.0000000000000E+00 -0.2662740244964E-02
 0.8926160088151E-03 -0.7049939233161E-02  0.0000000000000E+00 -0.2894201701360E-02
 0.7881398873018E-03 -0.6953473606406E-02  0.0000000000000E+00 -0.3103242307932E-02
 0.6905605939164E-03 -0.6841535099468E-02  0.0000000000000E+00 -0.3282578352675E-02
 0.6023002967864E-03 -0.6711724922445E-02  0.0000000000000E+00 -0.3421830673230E-02
 0.5264068444911E-03 -0.6561745965101E-02  0.0000000000000E+00 -0.3507222899528E-02
 0.4674297247407E-03 -0.6390004568356E-02  0.0000000000000E+00 -0.3521851808883E-02
 0.4322268888773E-03 -0.6196127119504E-02  0.0000000000000E+00 -0.3446202733444E-02
 0.4308466282475E-03 -0.5981545880450E-02  0.0000000000000E+00 -0.3258710394622E-02
 0.4777769403155E-03 -0.5750167907555E-02  0.0000000000000E+00 -0.2936156237824E-02
 0.5941002113519E-03 -0.5509407292153E-02  0.0000000000000E+00 -0.2454068672658E-02
 0.8106489130963E-03 -0.5272728684790E-02  0.0000000000000E+00 -0.1789875135100E-02
 0.1171222438850E-02 -0.5062988628988E-02  0.0000000000000E+00 -0.9314519098652E-03
 0.1734308742064E-02 -0.4914635590856E-02  0.0000000000000E+00  0.1079215637736E-03
 0.2570034240132E-02 -0.4872547607706E-02  0.0000000000000E+00  0.1266307822692E-02
 0.3746988708191E-02 -0.4983080718138E-02  0.0000000000000E+00  0.2404647747958E-02
 0.5303814784898E-02 -0.5272701604818E-02  0.0000000000000E+00  0.3287016488231E-02
 0.7207199771738E-02 -0.5715223278532E-02  0.0000000000000E+00  0.3597223004800E-02
 0.9313999745207E-02 -0.6202469755082E-02  0.0000000000000E+00  0.3021270559500E-02
 0.1137134498306E-01 -0.6546941829687E-02  0.0000000000000E+00  0.1391294899883E-02
 0.1647650647346E-03 -0.6989381432934E-02  0.0000000000000E+00  0.2303106833907E-02
 0.5037709381913E-03 -0.7183141800813E-02  0.0000000000000E+00  0.2276044075182E-02
 0.8322231261688E-03 -0.7349966318465E-02  0.0000000000000E+00  0.2092913168605E-02
 0.1107438346129E-02 -0.7465453748540E-02  0.0000000000000E+00  0.1800374459923E-02
 0.1313703895431E-02 -0.7527143710254E-02  0.0000000000000E+00  0.1465182514744E-02
 0.1456976402257E-02 -0.7547582552274E-02  0.0000000000000E+00  0.1136691360613E-02
 0.1551637815137E-02 -0.7542711502397E-02  0.0000000000000E+00  0.8380900656046E-03
 0.1611704497149E-02 -0.7525379262709E-02  0.0000000000000E+00  0.5739884617060E-03
 0.1647786186193E-02 -0.7504028092716E-02  0.0000000000000E+00  0.3398131455773E-03
 0.1667050304469E-02 -0.7483597872230E-02  0.0000000000000E+00  0.1277335405869E-03
 0.1674031285544E-02 -0.7466719753226E-02  0.0000000000000E+00 -0.7059026104883E-04
 0.1671394329118E-02 -0.7454577282459E-02  0.0000000000000E+00 -0.2629915467516E-03
 0.1660452759491E-02 -0.7447394927323E-02  0.0000000000000E+00 -0.4565062112452E-03
 0.1641464170210E-02 -0.7444645475401E-02  0.0000000000000E+00 -0.6572827101669E-03
 0.1613788287160E-02 -0.7445069157612E-02  0.0000000000000E+00 -0.8704035529133E-03
 0.1576022429881E-02 -0.7446605757635E-02  0.0000000000000E+00 -0.1099469869115E-02
 0.1526285022697E-02 -0.7446385339326E-02  0.0000000000000E+00 -0.1345891041302E-02
 0.1462811560048E-02 -0.7440943419966E-02  0.0000000000000E+00 -0.1608124098985E-02
 0.1384832692883E-02 -0.7426709697359E-02  0.0000000000000E+00 -0.1881492644468E-02
 0.1293413276112E-02 -0.7400675280447E-02  0.0000000000000E+00 -0.2159110568574E-02
 0.1191932819889E-02 -0.7361432094957E-02  0.0000000000000E+00 -0.2433763201863E-02
 0.1085299239970E-02 -0.7309162387081E-02  0.0000000000000E+00 -0.2699643626616E-02
 0.9781598549161E-03 -0.7243990409909E-02  0.0000000000000E+00 -0.2952415649270E-02
 0.8738217736006E-03 -0.7164796055831E-02  0.0000000000000E+00 -0.3187582181101E-02
 0.7743227451445E-03 -0.7069163376746E-02  0.0000000000000E+00 -0.3398532651721E-02
 0.6812184437235E-03 -0.6953969349681E-02  0.0000000000000E+00 -0.3575287421923E-02
 0.5965886313551E-03 -0.6816106145044E-02  0.0000000000000E+00 -0.3704167862117E-02
 0.5239535920801E-03 -0.6653066792627E-02  0.0000000000000E+00 -0.3768102856254E-02
 0.4690485523579E-03 -0.6463380892269E-02  0.0000000000000E+00 -0.3747117059584E-02
 0.4406367802111E-03 -0.6247080214366E-02  0.0000000000000E+00 -0.3618663549243E-02
 0.4517329280384E-03 -0.6006234903242E-02  0.0000000000000E+00 -0.3357453566892E-02
 0.5219320793808E-03 -0.5745922117468E-02  0.0000000000000E+00 -0.2934838784012E-02
 0.6812485936896E-03 -0.5477102921018E-02  0.0000000000000E+00 -0.2320643087995E-02
 0.9747957438120E-03 -0.5220939839213E-02  0.0000000000000E+00 -0.1490572685573E-02
 0.1466971895004E-02 -0.5012817213641E-02  0.0000000000000E+00 -0.4412319346719E-03
 0.2241704567754E-02 -0.4903913621832E-02  0.0000000000000E+00  0.7829847280582E-03
 0.3391626797524E-02 -0.4954649999955E-02  0.0000000000000E+00  0.2050913180167E-02
 0.4986669630724E-02 -0.5211762757535E-02  0.0000000000000E+00  0.3106768389338E-02
 0.7018162134282E-02 -0.5665146066173E-02  0.0000000000000E+00  0.3570026676113E-02
 0.9336595487325E-02 -0.6199432228678E-02  0.0000000000000E+00  0.3024893844974E-02
 0.1163325474537E-01 -0.6582862124279E-02  0.0000000000000E+00  0.1215198951470E-02
 0.1776956743343E-03 -0.7070903450341E-02  0.0000000000000E+00  0.2423745065382E-02
 0.5435144379430E-03 -0.7276889905239E-02  0.0000000000000E+00  0.2381781387130E-02
 0.8936434221100E-03 -0.7448204452882E-02  0.0000000000000E+00  0.2160701933741E-02
 0.1177724206043E-02 -0.7557443267755E-02  0.0000000000000E+00  0.1824968615830E-02
 0.1381922426754E-02 -0.7606186786100E-02  0.0000000000000E+00  0.1456932163720E-02
 0.1517837687631E-02 -0.7612624694672E-02  0.0000000000000E+00  0.1110349707821E-02
 0.1604294063592E-02 -0.7596170524189E-02  0.0000000000000E+00  0.8055741052082E-03
 0.1657483566184E-02 -0.7570791852397E-02  0.0000000000000E+00  0.5428073621208E-03
 0.1688696224545E-02 -0.7544826154991E-02  0.0000000000000E+00  0.3140815648614E-03
 0.1705125352221E-02 -0.7522754827849E-02  0.0000000000000E+00  0.1094920750699E-03
 0.1711134308996E-02 -0.7506779547296E-02  0.0000000000000E+00 -0.8045917881896E-04
 0.1709202387943E-02 -0.7497795969286E-02  0.0000000000000E+00 -0.2642576795145E-03
 0.1700495143231E-02 -0.7495892795345E-02  0.0000000000000E+00 -0.4493736329185E-03
 0.1685154998856E-02 -0.7500533118230E-02  0.0000000000000E+00 -0.6423710538037E-03
 0.1662415695613E-02 -0.7510522135495E-02  0.0000000000000E+00 -0.8488704104662E-03
 0.1630663053124E-02 -0.7523856647852E-02  0.0000000000000E+00 -0.1073201389573E-02
 0.1587638665901E-02 -0.7537608414705E-02  0.0000000000000E+00 -0.1317628663624E-02
 0.1531023941368E-02 -0.7548059712691E-02  0.0000000000000E+00 -0.1581361192445E-02
 0.1459450861405E-02 -0.7551218096550E-02  0.0000000000000E+00 -0.1860105501926E-02
 0.1373572458997E-02 -0.7543618061881E-02  0.0000000000000E+00 -0.2146963842526E-02
 0.1276686549623E-02 -0.7523516762082E-02  0.0000000000000E+00 -0.2434583550567E-02
 0.1173815422259E-02 -0.7490892913400E-02  0.0000000000000E+00 -0.2717300787779E-02
 0.1069592265845E-02 -0.7445629663929E-02  0.0000000000000E+00 -0.2991410575930E-02
 0.9669659040686E-03 -0.7386189530640E-02  0.0000000000000E+00 -0.3253298170809E-02
 0.8672779262465E-03 -0.7309565353996E-02  0.0000000000000E+00 -0.3497131105582E-02
 0.7711767293642E-03 -0.7211940096943E-02  0.0000000000000E+00 -0.3713425028594E-02
 0.6797411512015E-03 -0.7089453599966E-02  0.0000000000000E+00 -0.3888728120676E-02
 0.5954338793755E-03 -0.6938761976827E-02  0.0000000000000E+00 -0.4006022391741E-02
 0.5228131569016E-03 -0.6757367406854E-02  0.0000000000000E+00 -0.4045251078856E-02
 0.4692097892035E-03 -0.6543912960485E-02  0.0000000000000E+00 -0.3983477377058E-02
 0.4458150468234E-03 -0.6298496350385E-02  0.0000000000000E+00 -0.3794143661756E-02
 0.4700405258284E-03 -0.6023435068461E-02  0.0000000000000E+00 -0.3445311411334E-02
 0.5699012127324E-03 -0.5726300596507E-02  0.0000000000000E+00 -0.2899811921272E-02
 0.7901166117730E-03 -0.5425048291712E-02  0.0000000000000E+00 -0.2120718568999E-02
 0.1199105027927E-02 -0.5153919042825E-02  0.0000000000000E+00 -0.1084988187901E-02
 0.1893836654669E-02 -0.4968563619490E-02  0.0000000000000E+00  0.1877127913696E-03
 0.2994062381046E-02 -0.4943983319115E-02  0.0000000000000E+00  0.1585360533567E-02
 0.4610769444883E-02 -0.5152613994039E-02  0.0000000000000E+00  0.2841566975160E-02
 0.6775006476982E-02 -0.5610160842719E-02  0.0000000000000E+00  0.3505096685476E-02
 0.9340403004196E-02 -0.6199705026930E-02  0.0000000000000E+00  0.3025108223100E-02
 0.1192965139007E-01 -0.6633922944851E-02  0.0000000000000E+00  0.1011772563310E-02
 0.1930640556775E-03 -0.7161228922943E-02  0.0000000000000E+00  0.2552816683265E-02
 0.5902701327776E-03 -0.7380735077225E-02  0.0000000000000E+00  0.2491002799724E-02
 0.9639850900183E-03 -0.7554880537712E-02  0.0000000000000E+00  0.2222317711839E-02
 0.1255042953113E-02 -0.7653616163362E-02  0.0000000000000E+00  0.1836453187987E-02
 0.1453778586495E-02 -0.7685060000037E-02  0.0000000000000E+00  0.1434286905201E-02
 0.1579476294218E-02 -0.7674598147601E-02  0.0000000000000E+00  0.1072080221108E-02
 0.1655967264580E-02 -0.7645148537651E-02  0.0000000000000E+00  0.7647461129879E-03
 0.1701377246206E-02 -0.7611239090334E-02  0.0000000000000E+00  0.5067010477138E-03
 0.1727315790064E-02 -0.7580615493199E-02  0.0000000000000E+00  0.2862277272575E-03
 0.1740754684613E-02 -0.7557020096051E-02  0.0000000000000E+00  0.9141791243869E-04
 0.1745752110749E-02 -0.7542090106491E-02  0.0000000000000E+00 -0.8821042154489E-04
 0.1744540620004E-02 -0.7536380699532E-02  0.0000000000000E+00 -0.2616199250975E-03
 0.1738124145980E-02 -0.7539841682968E-02  0.0000000000000E+00 -0.4365624264385E-03
 0.1726551139161E-02 -0.7551961050036E-02  0.0000000000000E+00 -0.6198942745968E-03
 0.1708979371493E-02 -0.7571680198925E-02  0.0000000000000E+00 -0.8176975340128E-03
 0.1683648384845E-02 -0.7597156341430E-02  0.0000000000000E+00 -0.1035037305989E-02
 0.1647970356301E-02 -0.7625513524743E-02  0.0000000000000E+00 -0.1275156333981E-02
 0.1599061530495E-02 -0.7652852966830E-02  0.0000000000000E+00 -0.1538225789555E-02
 0.1534884789314E-02 -0.7674763855207E-02  0.0000000000000E+00 -0.1820521250556E-02
 0.1455616857126E-02 -0.7687280481783E-02  0.0000000000000E+00 -0.2115200203401E-02
 0.1364481601055E-02 -0.7688278790269E-02  0.0000000000000E+00 -0.2414751353224E-02
 0.1266681830655E-02 -0.7677503789949E-02  0.0000000000000E+00 -0.2713659649034E-02
 0.1166890450687E-02 -0.7654574789182E-02  0.0000000000000E+00 -0.3008933425451E-02
 0.1067699642977E-02 -0.7617520120926E-02  0.0000000000000E+00 -0.3297942417307E-02
 0.9697220032515E-03 -0.7562750270455E-02  0.0000000000000E+00 -0.3575705625352E-02
 0.8726661755180E-03 -0.7485804939682E-02  0.0000000000000E+00 -0.3833296034404E-02
 0.7765972905344E-03 -0.7382163154405E-02  0.0000000000000E+00 -0.4057593147455E-02
 0.6829264721393E-03 -0.7247765564324E-02  0.0000000000000E+00 -0.4231842404548E-02
 0.5950343586941E-03 -0.7079219812531E-02  0.0000000000000E+00 -0.4336300652536E-02
 0.5187443851573E-03 -0.6873882012670E-02  0.0000000000000E+00 -0.4348309625112E-02
 0.4631514430177E-03 -0.6629859335510E-02  0.0000000000000E+00 -0.4241036605248E-02
 0.4428337795880E-03 -0.6346417829874E-02  0.0000000000000E+00 -0.3980524255108E-02
 0.4825609756711E-03 -0.6026943473762E-02  0.0000000000000E+00 -0.3523901186694E-02
 0.6245946571080E-03 -0.5684565419650E-02  0.0000000000000E+00 -0.2822171438218E-02
 0.9385401171050E-03 -0.5349691707331E-02  0.0000000000000E+00 -0.1830739028801E-02
 0.1531988286250E-02 -0.5079204923600E-02  0.0000000000000E+00 -0.5372242776536E-03
 0.2553334284562E-02 -0.4961396251519E-02  0.0000000000000E+00  0.9802601579574E-03
 0.4165533135778E-02 -0.5099609998638E-02  0.0000000000000E+00  0.2461591784126E-02
 0.6460998458419E-02 -0.5548932387495E-02  0.0000000000000E+00  0.3384303845908E-02
 0.9315022624840E-02 -0.6202407889025E-02  0.0000000000000E+00  0.3020901531368E-02
 0.1226774911100E-01 -0.6703787745705E-02  0.0000000000000E+00  0.7777875798807E-03
 0.2116868767749E-03 -0.7262846418974E-02  0.0000000000000E+00  0.2691559736485E-02
 0.6460667298228E-03 -0.7497207148101E-02  0.0000000000000E+00  0.2602682561561E-02
 0.1045065798653E-02 -0.7671263069365E-02  0.0000000000000E+00  0.2273686967395E-02
 0.1339891766209E-02 -0.7753535452442E-02  0.0000000000000E+00  0.1830160138788E-02
 0.1528717147238E-02 -0.7762387306012E-02  0.0000000000000E+00  0.1394033689241E-02
 0.1640985918399E-02 -0.7732038873679E-02  0.0000000000000E+00  0.1020344558150E-02
 0.1705813366042E-02 -0.7688458131097E-02  0.0000000000000E+00  0.7151136142458E-03
 0.1742710350232E-02 -0.7645833380585E-02  0.0000000000000E+00  0.4656507498352E-03
 0.1763116332427E-02 -0.7610727540249E-02  0.0000000000000E+00  0.2563901223039E-03
 0.1773507428098E-02 -0.7585859818959E-02  0.0000000000000E+00  0.7366023911129E-04
 0.1777505111410E-02 -0.7572183288451E-02  0.0000000000000E+00 -0.9374462121110E-04
 0.1777040985845E-02 -0.7569873011268E-02  0.0000000000000E+00 -0.2550442026988E-03
 0.1772948922435E-02 -0.7578744387695E-02  0.0000000000000E+00 -0.4180898147616E-03
 0.1765209755478E-02 -0.7598349154286E-02  0.0000000000000E+00 -0.5898777683265E-03
 0.1752965333973E-02 -0.7627843379521E-02  0.0000000000000E+00 -0.7768387527512E-03
 0.1734395513890E-02 -0.7665668244680E-02  0.0000000000000E+00 -0.9847434866297E-03
 0.1706661449315E-02 -0.7709148722930E-02  0.0000000000000E+00 -0.1217927024606E-02
 0.1666325288150E-02 -0.7754320015714E-02  0.0000000000000E+00 -0.1477778234074E-02
 0.1610604280336E-02 -0.7796379009023E-02  0.0000000000000E+00 -0.1761405134052E-02
 0.1539110566037E-02 -0.7830808092732E-02  0.0000000000000E+00 -0.2062139376273E-02
 0.1454989084764E-02 -0.7855028853718E-02  0.0000000000000E+00 -0.2372299824818E-02
 0.1363692037363E-02 -0.7868489851190E-02  0.0000000000000E+00 -0.2686521229255E-02
 0.1269986341493E-02 -0.7870492943755E-02  0.0000000000000E+00 -0.3002597131580E-02
 0.1176102647727E-02 -0.7858597403891E-02  0.0000000000000E+00 -0.3318951284968E-02
 0.1081890091741E-02 -0.7828645588217E-02  0.0000000000000E+00 -0.3631475556718E-02
 0.9860964463821E-03 -0.7775611964908E-02  0.0000000000000E+00 -0.3931813833867E-02
 0.8877839142735E-03 -0.7694445402378E-02  0.0000000000000E+00 -0.4207248954841E-02
 0.7873552568147E-03 -0.7580539760468E-02  0.0000000000000E+00 -0.4441478555000E-02
 0.6870732542431E-03 -0.7429806653096E-02  0.0000000000000E+00 -0.4615459423910E-02
 0.5912702524656E-03 -0.7238517834939E-02  0.0000000000000E+00 -0.4707518005983E-02
 0.5067870855038E-03 -0.7002920182960E-02  0.0000000000000E+00 -0.4691688283637E-02
 0.4448347052688E-03 -0.6719135932139E-02  0.0000000000000E+00 -0.4533620528367E-02
 0.4257432730640E-03 -0.6385791486572E-02  0.0000000000000E+00 -0.4186758369844E-02
 0.4870446227179E-03 -0.6009672187607E-02  0.0000000000000E+00 -0.3591927035011E-02
 0.6957750803628E-03 -0.5614237618685E-02  0.0000000000000E+00 -0.2682983864648E-02
 0.1165517112627E-02 -0.5252725518126E-02  0.0000000000000E+00 -0.1409449759276E-02
 0.2071794856899E-02 -0.5022460916051E-02  0.0000000000000E+00  0.2021420772257E-03
 0.3640077046807E-02 -0.5061031275393E-02  0.0000000000000E+00  0.1925372781637E-02
 0.6053979011133E-02 -0.5480680576683E-02  0.0000000000000E+00  0.3178561331986E-02
 0.9244444914048E-02 -0.6205874613099E-02  0.0000000000000E+00  0.3008908381389E-02
 0.1265708305397E-01 -0.6797486873449E-02  0.0000000000000E+00  0.5095774661416E-03
 0.2347668105270E-03 -0.7379233349565E-02  0.0000000000000E+00  0.2841496658404E-02
 0.7136963608646E-03 -0.7629630714317E-02  0.0000000000000E+00  0.2714799579303E-02
 0.1139027502440E-02 -0.7798589667083E-02  0.0000000000000E+00  0.2308777616196E-02
 0.1432456297088E-02 -0.7856106225869E-02  0.0000000000000E+00  0.1800125562378E-02
 0.1605714692903E-02 -0.7836151991671E-02  0.0000000000000E+00  0.1332735456312E-02
 0.1701151371918E-02 -0.7783130323754E-02  0.0000000000000E+00  0.9538919890115E-03
 0.1752849224130E-02 -0.7724776948084E-02  0.0000000000000E+00  0.6565179945461E-03
 0.1780761226354E-02 -0.7673654732674E-02  0.0000000000000E+00  0.4198797234222E-03
 0.1795563766821E-02 -0.7634503111510E-02  0.0000000000000E+00  0.2248586278046E-03
 0.1802964321922E-02 -0.7608765717397E-02  0.0000000000000E+00  0.5644988008888E-04
 0.1806031378314E-02 -0.7596621394956E-02  0.0000000000000E+00 -0.9693465479997E-04
 0.1806353120461E-02 -0.7597844139666E-02  0.0000000000000E+00 -0.2445136322890E-03
 0.1804591444534E-02 -0.7612128133389E-02  0.0000000000000E+00 -0.3940325657671E-03
 0.1800689193583E-02 -0.7639129366354E-02  0.0000000000000E+00 -0.5524494837990E-03
 0.1793838930943E-02 -0.7678298826304E-02  0.0000000000000E+00 -0.7263894446934E-03
 0.1782268411290E-02 -0.7728501407135E-02  0.0000000000000E+00 -0.9222446687786E-03
 0.1763005872756E-02 -0.7787455861294E-02  0.0000000000000E+00 -0.1145525037506E-02
 0.1732107722492E-02 -0.7851308400878E-02  0.0000000000000E+00 -0.1399133814957E-02
 0.1685970498498E-02 -0.7914931627396E-02  0.0000000000000E+00 -0.1681379841294E-02
 0.1623524087691E-02 -0.7973201477683E-02  0.0000000000000E+00 -0.1985975944777E-02
 0.1547808075320E-02 -0.8022974118720E-02  0.0000000000000E+00 -0.2305090792506E-02
 0.1464588744067E-02 -0.8063285345241E-02  0.0000000000000E+00 -0.2633512592526E-02
 0.1378773325649E-02 -0.8093013882465E-02  0.0000000000000E+00 -0.2969873460739E-02
 0.1292212373387E-02 -0.8109186195133E-02  0.0000000000000E+00 -0.3313661823745E-02
 0.1203955585255E-02 -0.8107099731597E-02  0.0000000000000E+00 -0.3661581429159E-02
 0.1111786163979E-02 -0.8081280626842E-02  0.0000000000000E+00 -0.4005794541046E-02
 0.1013802743818E-02 -0.8026326302614E-02  0.0000000000000E+00 -0.4334023595457E-02
 0.9094804134134E-03 -0.7937299877437E-02  0.0000000000000E+00 -0.4630580921089E-02
 0.8000855844079E-03 -0.7809676383281E-02  0.0000000000000E+00 -0.4877475142537E-02
 0.6885805490178E-03 -0.7638948715595E-02  0.0000000000000E+00 -0.5054708621425E-02
 0.5795454011852E-03 -0.7419804789606E-02  0.0000000000000E+00 -0.5138397951547E-02
 0.4804801903029E-03 -0.7145395939716E-02  0.0000000000000E+00 -0.5095697341589E-02
 0.4062810707206E-03 -0.6809387013785E-02  0.0000000000000E+00 -0.4879062953310E-02
 0.3875251844621E-03 -0.6411096146581E-02  0.0000000000000E+00 -0.4422532214938E-02
 0.4842630615084E-03 -0.5963920110161E-02  0.0000000000000E+00 -0.3641218198025E-02
 0.8089068902211E-03 -0.5511072702015E-02  0.0000000000000E+00 -0.2443938833413E-02
 0.1557551036191E-02 -0.5150400629333E-02  0.0000000000000E+00 -0.7874690087638E-03
 0.3025075549905E-02 -0.5052126111763E-02  0.0000000000000E+00  0.1175864843741E-02
 0.5524902787862E-02 -0.5406549165887E-02  0.0000000000000E+00  0.2840706686804E-02
 0.9103470954638E-02 -0.6207184905719E-02  0.0000000000000E+00  0.2980137537585E-02
 0.1311045709907E-01 -0.6922195686193E-02  0.0000000000000E+00  0.2030002210157E-03
 0.2641299074111E-03 -0.7515392829664E-02  0.0000000000000E+00  0.3004487357762E-02
 0.7970488769494E-03 -0.7782392578535E-02  0.0000000000000E+00  0.2823515641495E-02
 0.1248265899412E-02 -0.7937766266339E-02  0.0000000000000E+00  0.2318631519988E-02
 0.1532295238136E-02 -0.7959133685240E-02  0.0000000000000E+00  0.1738937059253E-02
 0.1683091608382E-02 -0.7903507007898E-02  0.0000000000000E+00  0.1247063442157E-02
 0.1758420733434E-02 -0.7825706132205E-02  0.0000000000000E+00  0.8720392263232E-03
 0.1795977343240E-02 -0.7752690307202E-02  0.0000000000000E+00  0.5892587377957E-03
 0.1814786086544E-02 -0.7693783386070E-02  0.0000000000000E+00  0.3699004681620E-03
 0.1824136085503E-02 -0.7651314971002E-02  0.0000000000000E+00  0.1920935022659E-03
 0.1828730706466E-02 -0.7625271251409E-02  0.0000000000000E+00  0.4010623657900E-04
 0.1830996860448E-02 -0.7615009684649E-02  0.0000000000000E+00 -0.9762388188936E-04
 0.1832153599072E-02 -0.7619906330189E-02  0.0000000000000E+00 -0.2300294996049E-03
 0.1832696305740E-02 -0.7639556719137E-02  0.0000000000000E+00 -0.3645314105208E-03
 0.1832560032810E-02 -0.7673760085765E-02  0.0000000000000E+00 -0.5078519992069E-03
 0.1831055325533E-02 -0.7722336356418E-02  0.0000000000000E+00 -0.6666140724102E-03
 0.1826581899777E-02 -0.7784720445571E-02  0.0000000000000E+00 -0.8476727016731E-03
 0.1816200675992E-02 -0.7859264033950E-02  0.0000000000000E+00 -0.1057725414427E-02
 0.1795569916288E-02 -0.7942488215352E-02  0.0000000000000E+00 -0.1301507622930E-02
 0.1760208108322E-02 -0.8029084888224E-02  0.0000000000000E+00 -0.1579033433915E-02
 0.1708212319232E-02 -0.8113281026993E-02  0.0000000000000E+00 -0.1884748789139E-02
 0.1642456631302E-02 -0.8191204178704E-02  0.0000000000000E+00 -0.2210764218612E-02
 0.1569068870281E-02 -0.8261273385903E-02  0.0000000000000E+00 -0.2552044613093E-02
 0.1493119269260E-02 -0.8321752064821E-02  0.0000000000000E+00 -0.2908081011180E-02
 0.1416035257642E-02 -0.8369026155431E-02  0.0000000000000E+00 -0.3279334010288E-02
 0.1336032175469E-02 -0.8397888947190E-02  0.0000000000000E+00 -0.3663129982723E-02
 0.1249953919449E-02 -0.8402593651103E-02  0.0000000000000E+00 -0.4052009975073E-02
 0.1155011804452E-02 -0.8377627126520E-02  0.0000000000000E+00 -0.4434141761409E-02
 0.1049868903743E-02 -0.8317983554551E-02  0.0000000000000E+00 -0.4794596503727E-02
 0.9349716190643E-03 -0.8219007560613E-02  0.0000000000000E+00 -0.5116730398165E-02
 0.8121424756520E-03 -0.8075809911015E-02  0.0000000000000E+00 -0.5382832693568E-02
 0.6838727180240E-03 -0.7881999798417E-02  0.0000000000000E+00 -0.5572287534138E-02
 0.5538682252038E-03 -0.7628248717335E-02  0.0000000000000E+00 -0.5655770480233E-02
 0.4309575849221E-03 -0.7303580445646E-02  0.0000000000000E+00 -0.5587955400792E-02
 0.3369286161158E-03 -0.6899462843644E-02  0.0000000000000E+00 -0.5300923083707E-02
 0.3203601448229E-03 -0.6416815810518E-02  0.0000000000000E+00 -0.4697262271786E-02
 0.4830884980570E-03 -0.5881786235597E-02  0.0000000000000E+00 -0.3648717647529E-02
 0.1028047876687E-02 -0.5379153500539E-02  0.0000000000000E+00 -0.2028940638809E-02
 0.2316719858299E-02 -0.5100311351098E-02  0.0000000000000E+00  0.1364423912512E-03
 0.4836808093410E-02 -0.5332901299007E-02  0.0000000000000E+00  0.2293724612742E-02
 0.8851581578972E-02 -0.6201670371242E-02  0.0000000000000E+00  0.2912583540431E-02
 0.1364510430918E-01 -0.7088621490187E-02  0.0000000000000E+00 -0.1468396470636E-03
 0.3026454583412E-03 -0.7678781370879E-02  0.0000000000000E+00  0.3182739191057E-02
 0.9015975624027E-03 -0.7961259512085E-02  0.0000000000000E+00  0.2921606809210E-02
 0.1375165932245E-02 -0.8088704663345E-02  0.0000000000000E+00  0.2289952679945E-02
 0.1637820509880E-02 -0.8058652161509E-02  0.0000000000000E+00  0.1637851863937E-02
 0.1758312960274E-02 -0.7960620928458E-02  0.0000000000000E+00  0.1134433463757E-02
 0.1810929542490E-02 -0.7857326398750E-02  0.0000000000000E+00  0.7750175816917E-03
 0.1834037021912E-02 -0.7770760828469E-02  0.0000000000000E+00  0.5142006205557E-03
 0.1844051340485E-02 -0.7705340437522E-02  0.0000000000000E+00  0.3165498198223E-03
 0.1848344407863E-02 -0.7660594187084E-02  0.0000000000000E+00  0.1587376545453E-03
 0.1850451005055E-02 -0.7634969175829E-02  0.0000000000000E+00  0.2503991174180E-04
 0.1852106206123E-02 -0.7627009378642E-02  0.0000000000000E+00 -0.9562614312994E-04
 0.1854155637775E-02 -0.7635724489580E-02  0.0000000000000E+00 -0.2116120306545E-03
 0.1856941377668E-02 -0.7660643393122E-02  0.0000000000000E+00 -0.3297933178184E-03
 0.1860418475137E-02 -0.7701742911725E-02  0.0000000000000E+00 -0.4564507360553E-03
 0.1864074973941E-02 -0.7759269828816E-02  0.0000000000000E+00 -0.5979715793819E-03
 0.1866612008652E-02 -0.7833364487297E-02  0.0000000000000E+00 -0.7614225152324E-03
 0.1865339145234E-02 -0.7923288968810E-02  0.0000000000000E+00 -0.9545754027492E-03
 0.1855712920172E-02 -0.8026318631343E-02  0.0000000000000E+00 -0.1184285094833E-02
 0.1832365748632E-02 -0.8137239756338E-02  0.0000000000000E+00 -0.1452937699537E-02
 0.1792381913929E-02 -0.8249635056745E-02  0.0000000000000E+00 -0.1756297331879E-02
 0.1738359594226E-02 -0.8358671587074E-02  0.0000000000000E+00 -0.2086660217190E-02
 0.1676794043636E-02 -0.8461803109557E-02  0.0000000000000E+00 -0.2439246479825E-02
 0.1612889176503E-02 -0.8556342281804E-02  0.0000000000000E+00 -0.2814366506589E-02
 0.1547566081759E-02 -0.8637862639524E-02  0.0000000000000E+00 -0.3213181803022E-02
 0.1478179671164E-02 -0.8700729573350E-02  0.0000000000000E+00 -0.3633254934997E-02
 0.1400709435221E-02 -0.8739189380251E-02  0.0000000000000E+00 -0.4067254574644E-02
 0.1311606937769E-02 -0.8747944019634E-02  0.0000000000000E+00 -0.4503787407573E-02
 0.1208868738403E-02 -0.8722224274537E-02  0.0000000000000E+00 -0.4928839103985E-02
 0.1092333585620E-02 -0.8657570463468E-02  0.0000000000000E+00 -0.5327344763042E-02
 0.9630139787635E-03 -0.8549167087037E-02  0.0000000000000E+00 -0.5684336160145E-02
 0.8216760649826E-03 -0.8390189020348E-02  0.0000000000000E+00 -0.5983482500988E-02
 0.6684625367369E-03 -0.8169665053087E-02  0.0000000000000E+00 -0.6200903683712E-02
 0.5060171230081E-03 -0.7872949755011E-02  0.0000000000000E+00 -0.6296892452960E-02
 0.3462684668552E-03 -0.7484359345002E-02  0.0000000000000E+00 -0.6207487867540E-02
 0.2226630977178E-03 -0.6991492321982E-02  0.0000000000000E+00 -0.5832329621097E-02
 0.2162376379345E-03 -0.6397576701074E-02  0.0000000000000E+00 -0.5018414085262E-02
 0.5148355943500E-03 -0.5756672206006E-02  0.0000000000000E+00 -0.3556830533830E-02
 0.1524485324863E-02 -0.5253742723017E-02  0.0000000000000E+00 -0.1290901039286E-02
 0.3945915197839E-02 -0.5278953118899E-02  0.0000000000000E+00  0.1411911461911E-02
 0.8422464428424E-02 -0.6183027143762E-02  0.0000000000000E+00  0.2754545397273E-02
 0.1428362579702E-01 -0.7313616959550E-02  0.0000000000000E+00 -0.5472575446329E-03
 0.3549968682460E-03 -0.7881002097755E-02  0.0000000000000E+00  0.3378640698918E-02
 0.1035078557652E-02 -0.8173642178252E-02  0.0000000000000E+00  0.2995370672993E-02
 0.1521392407128E-02 -0.8248907074303E-02  0.0000000000000E+00  0.2203182260396E-02
 0.1745489346487E-02 -0.8147990015590E-02  0.0000000000000E+00  0.1487632183491E-02
 0.1827860461165E-02 -0.8002694869340E-02  0.0000000000000E+00  0.9940663579501E-03
 0.1856618111677E-02 -0.7875461578469E-02  0.0000000000000E+00  0.6643071957409E-03
 0.1865879060018E-02 -0.7777615397967E-02  0.0000000000000E+00  0.4328332435464E-03
 0.1867871383897E-02 -0.7707535105029E-02  0.0000000000000E+00  0.2610102183176E-03
 0.1867757219079E-02 -0.7661859694418E-02  0.0000000000000E+00  0.1256190183080E-03
 0.1867823988560E-02 -0.7637529535027E-02  0.0000000000000E+00  0.1174980717375E-04
 0.1869113694042E-02 -0.7632350677497E-02  0.0000000000000E+00 -0.9072777257976E-04
 0.1872118815477E-02 -0.7645027678339E-02  0.0000000000000E+00 -0.1893010487887E-03
 0.1877048745794E-02 -0.7675063791932E-02  0.0000000000000E+00 -0.2900911869445E-03
 0.1883901488339E-02 -0.7722640788379E-02  0.0000000000000E+00 -0.3987362100826E-03
 0.1892384826931E-02 -0.7788464552589E-02  0.0000000000000E+00 -0.5211335644934E-03
 0.1901616313021E-02 -0.7873479257768E-02  0.0000000000000E+00 -0.6642118312342E-03
 0.1909410822068E-02 -0.7978145099275E-02  0.0000000000000E+00 -0.8365042916442E-03
 0.1911343396253E-02 -0.8101010658846E-02  0.0000000000000E+00 -0.1047134529793E-02
 0.1901258830645E-02 -0.8237453189108E-02  0.0000000000000E+00 -0.1301688370478E-02
 0.1875040896933E-02 -0.8380540469556E-02  0.0000000000000E+00 -0.1598199585878E-02
 0.1834830747086E-02 -0.8524163345848E-02  0.0000000000000E+00 -0.1929697584882E-02
 0.1787409589379E-02 -0.8664218997715E-02  0.0000000000000E+00 -0.2291864650493E-02
 0.1737982238611E-02 -0.8796495118610E-02  0.0000000000000E+00 -0.2685677687437E-02
 0.1686818518222E-02 -0.8915492435694E-02  0.0000000000000E+00 -0.3112418091191E-02
 0.1630414098465E-02 -0.9015296255829E-02  0.0000000000000E+00 -0.3569199878091E-02
 0.1564043260361E-02 -0.9090552591989E-02  0.0000000000000E+00 -0.4048430412327E-02
 0.1483601225122E-02 -0.9136623881904E-02  0.0000000000000E+00 -0.4539172642792E-02
 0.1386587571125E-02 -0.9149328145150E-02  0.0000000000000E+00 -0.5028557732876E-02
 0.1272446377082E-02 -0.9124705581936E-02  0.0000000000000E+00 -0.5503288806702E-02
 0.1141777096977E-02 -0.9058466416500E-02  0.0000000000000E+00 -0.5951361369855E-02
 0.9941697589818E-03 -0.8944112888905E-02  0.0000000000000E+00 -0.6361408322798E-02
 0.8267738235726E-03 -0.8770208438455E-02  0.0000000000000E+00 -0.6716547469063E-02
 0.6365733372675E-03 -0.8520142877527E-02  0.0000000000000E+00 -0.6985829884604E-02
 0.4256755221938E-03 -0.8173143760881E-02  0.0000000000000E+00 -0.7115610569522E-02
 0.2104960878045E-03 -0.7704991791892E-02  0.0000000000000E+00 -0.7014521671302E-02
 0.4306118817378E-04 -0.7094026241571E-02  0.0000000000000E+00 -0.6525992342414E-02
 0.6871985242257E-04 -0.6346930729388E-02  0.0000000000000E+00 -0.5384410671157E-02
 0.6852687497063E-03 -0.5594398626278E-02  0.0000000000000E+00 -0.3219014874293E-02
 0.2809388608532E-02 -0.5293947448209E-02  0.0000000000000E+00 -0.6910216388489E-05
 0.7706689047572E-02 -0.6146555272338E-02  0.0000000000000E+00  0.2387066041717E-02
 0.1505288343119E-01 -0.7625461100058E-02  0.0000000000000E+00 -0.1015482111666E-02
 0.4291517751813E-03 -0.8141113976386E-02  0.0000000000000E+00  0.3593975029354E-02
 0.1208336110446E-02 -0.8428367158718E-02  0.0000000000000E+00  0.3018294631502E-02
 0.1686186299518E-02 -0.8410487678645E-02  0.0000000000000E+00  0.2030364842864E-02
 0.1848684321568E-02 -0.8216740486360E-02  0.0000000000000E+00  0.1281036915093E-02
 0.1887373655241E-02 -0.8024419118841E-02  0.0000000000000E+00  0.8284404007793E-03
 0.1893469072975E-02 -0.7877765441367E-02  0.0000000000000E+00  0.5427678084411E-03
 0.1890443876187E-02 -0.7772028658130E-02  0.0000000000000E+00  0.3472794320396E-03
 0.1885651797568E-02 -0.7699721965680E-02  0.0000000000000E+00  0.2048176337156E-03
 0.1882027091238E-02 -0.7654748292080E-02  0.0000000000000E+00  0.9373716805558E-04
 0.1880617605588E-02 -0.7632717207793E-02  0.0000000000000E+00  0.8149425576587E-06
 0.1881833914122E-02 -0.7630845297882E-02  0.0000000000000E+00 -0.8269206440258E-04
 0.1885858344441E-02 -0.7647619873305E-02  0.0000000000000E+00 -0.1631565588271E-03
 0.1892795291116E-02 -0.7682568292364E-02  0.0000000000000E+00 -0.2457608111073E-03
 0.1902702499681E-02 -0.7736096075029E-02  0.0000000000000E+00 -0.3353188357721E-03
 0.1915524926976E-02 -0.7809369277678E-02  0.0000000000000E+00 -0.4369881161130E-03
 0.1930868819972E-02 -0.7904166650843E-02  0.0000000000000E+00 -0.5571340328127E-03
 0.1947316831335E-02 -0.8022382562647E-02  0.0000000000000E+00 -0.7044656082884E-03
 0.1961035968310E-02 -0.8164492645039E-02  0.0000000000000E+00 -0.8901880530603E-03
 0.1965385592439E-02 -0.8327319851065E-02  0.0000000000000E+00 -0.1123990265315E-02
 0.1954918181968E-02 -0.8503837126585E-02  0.0000000000000E+00 -0.1407684805883E-02
 0.1931045591351E-02 -0.8686257978729E-02  0.0000000000000E+00 -0.1736181129704E-02
 0.1900577954169E-02 -0.8867911205660E-02  0.0000000000000E+00 -0.2106107099195E-02
 0.1868390973579E-02 -0.9042082590876E-02  0.0000000000000E+00 -0.2518727362691E-02
 0.1833871073881E-02 -0.9201829518061E-02  0.0000000000000E+00 -0.2974321966119E-02
 0.1792722867717E-02 -0.9341247228282E-02  0.0000000000000E+00 -0.3468432084815E-02
 0.1739812929214E-02 -0.9456002096709E-02  0.0000000000000E+00 -0.3992657186254E-02
 0.1670798404172E-02 -0.9542731805737E-02  0.0000000000000E+00 -0.4536612456424E-02
 0.1582874598155E-02 -0.9598250847605E-02  0.0000000000000E+00 -0.5088990238138E-02
 0.1475248842572E-02 -0.9619325820287E-02  0.0000000000000E+00 -0.5638491488106E-02
 0.1348502469122E-02 -0.9602529874658E-02  0.0000000000000E+00 -0.6175995824777E-02
 0.1201749403453E-02 -0.9542473423327E-02  0.0000000000000E+00 -0.6695214209248E-02
 0.1030049596024E-02 -0.9428739272771E-02  0.0000000000000E+00 -0.7187119340512E-02
 0.8259467785500E-03 -0.9245196561194E-02  0.0000000000000E+00 -0.7631844153983E-02
 0.5831761129088E-03 -0.8969573260207E-02  0.0000000000000E+00 -0.7991896703380E-02
 0.3015801179493E-03 -0.8570179725288E-02  0.0000000000000E+00 -0.8197677146637E-02
 0.1185113223404E-05 -0.8004559408774E-02  0.0000000000000E+00 -0.8114907060148E-02
-0.2377393910379E-03 -0.7226921516899E-02  0.0000000000000E+00 -0.7477651368554E-02
-0.1135050850199E-03 -0.6254734085620E-02  0.0000000000000E+00 -0.5746456356300E-02
 0.1411073850988E-02 -0.5494447144719E-02  0.0000000000000E+00 -0.2274082880506E-02
 0.6525713519346E-02 -0.6104486690084E-02  0.0000000000000E+00  0.1540070752266E-02
 0.1597479804465E-01 -0.8075459356606E-02  0.0000000000000E+00 -0.1608030292325E-02
 0.5392640705123E-03 -0.8492707791070E-02  0.0000000000000E+00  0.3826928388330E-02
 0.1435953243417E-02 -0.8733255389781E-02  0.0000000000000E+00  0.2937531756964E-02
 0.1862479163391E-02 -0.8554054308749E-02  0.0000000000000E+00  0.1734713418786E-02
 0.1936604761239E-02 -0.8250617332846E-02  0.0000000000000E+00  0.1018674921436E-02
 0.1932434672535E-02 -0.8021193861709E-02  0.0000000000000E+00  0.6444298716082E-03
 0.1919789357048E-02 -0.7862253588937E-02  0.0000000000000E+00  0.4143400914472E-03
 0.1906816154776E-02 -0.7753019040077E-02  0.0000000000000E+00  0.2603387569921E-03
 0.1896947331008E-02 -0.7681468343908E-02  0.0000000000000E+00  0.1498277330870E-03
 0.1890914455910E-02 -0.7639038787639E-02  0.0000000000000E+00  0.6423423745777E-04
 0.1888682951668E-02 -0.7620409827244E-02  0.0000000000000E+00 -0.7117703906767E-05
 0.1890151720077E-02 -0.7622397275244E-02  0.0000000000000E+00 -0.7126745877523E-04
 0.1895253256038E-02 -0.7643389598992E-02  0.0000000000000E+00 -0.1332589348637E-03
 0.1904022366787E-02 -0.7682993075880E-02  0.0000000000000E+00 -0.1971954083132E-03
 0.1916585857432E-02 -0.7741846935848E-02  0.0000000000000E+00 -0.2669167032825E-03
 0.1933117566119E-02 -0.7821548308314E-02  0.0000000000000E+00 -0.3466226867210E-03
 0.1953713268775E-02 -0.7924652982005E-02  0.0000000000000E+00 -0.4416827766883E-03
 0.1977915556935E-02 -0.8054569535916E-02  0.0000000000000E+00 -0.5601055345365E-03
 0.2003101266770E-02 -0.8214397231596E-02  0.0000000000000E+00 -0.7143342343463E-03
 0.2022802180634E-02 -0.8403798821863E-02  0.0000000000000E+00 -0.9188365766042E-03
 0.2030329793798E-02 -0.8616719985287E-02  0.0000000000000E+00 -0.1181511080271E-02
 0.2025998316061E-02 -0.8843259451409E-02  0.0000000000000E+00 -0.1501488241574E-02
 0.2016037438425E-02 -0.9072403274690E-02  0.0000000000000E+00 -0.1877404400180E-02
 0.2004293846463E-02 -0.9293268632041E-02  0.0000000000000E+00 -0.2309953560755E-02
 0.1988932659362E-02 -0.9496995089522E-02  0.0000000000000E+00 -0.2796342881967E-02
 0.1965084941972E-02 -0.9678255873913E-02  0.0000000000000E+00 -0.3328798338403E-02
 0.1927722555940E-02 -0.9834672252658E-02  0.0000000000000E+00 -0.3897417416526E-02
 0.1872752317122E-02 -0.9965000918700E-02  0.0000000000000E+00 -0.4492609800913E-02
 0.1797299880401E-02 -0.1006756282570E-01  0.0000000000000E+00 -0.5105382090364E-02
 0.1700362354859E-02 -0.1013994665327E-01  0.0000000000000E+00 -0.5726906399339E-02
 0.1582766772724E-02 -0.1017961914434E-01  0.0000000000000E+00 -0.6350549504940E-02
 0.1443910628532E-02 -0.1018291270758E-01  0.0000000000000E+00 -0.6974346732907E-02
 0.1278007847631E-02 -0.1014216937091E-01  0.0000000000000E+00 -0.7596817243789E-02
 0.1075011713031E-02 -0.1004493197992E-01  0.0000000000000E+00 -0.8210277239406E-02
 0.8232721238251E-03 -0.9872327241859E-02  0.0000000000000E+00 -0.8797325878101E-02
 0.5094346510631E-03 -0.9592807996730E-02  0.0000000000000E+00 -0.9321888862490E-02
 0.1240600872106E-03 -0.9153252224602E-02  0.0000000000000E+00 -0.9696587320605E-02
-0.3179967493094E-03 -0.8472312008400E-02  0.0000000000000E+00 -0.9722682700148E-02
-0.7039530068830E-03 -0.7427807287599E-02  0.0000000000000E+00 -0.8877592387944E-02
-0.1686677248895E-03 -0.6140359448532E-02  0.0000000000000E+00 -0.5817731077557E-02
 0.4604948566138E-02 -0.6143730171140E-02  0.0000000000000E+00 -0.3896730844949E-03
 0.1702870984190E-01 -0.8767278353338E-02  0.0000000000000E+00 -0.2530587847842E-02
 0.7114849244393E-03 -0.9001068758239E-02  0.0000000000000E+00  0.4060500485699E-02
 0.1734762577023E-02 -0.9083464744805E-02  0.0000000000000E+00  0.2643784828962E-02
 0.2028415893461E-02 -0.8637384864938E-02  0.0000000000000E+00  0.1280126137035E-02
 0.1994851664809E-02 -0.8235734522856E-02  0.0000000000000E+00  0.7198224985040E-03
 0.1960345472572E-02 -0.7990531252996E-02  0.0000000000000E+00  0.4515493535371E-03
 0.1934182946339E-02 -0.7827132379207E-02  0.0000000000000E+00  0.2837798736291E-03
 0.1914326505635E-02 -0.7720102345784E-02  0.0000000000000E+00  0.1756058575863E-03
 0.1901528213270E-02 -0.7652566676087E-02  0.0000000000000E+00  0.9805905403858E-04
 0.1894298548149E-02 -0.7614686722479E-02  0.0000000000000E+00  0.3838902718412E-04
 0.1891971126497E-02 -0.7600609893995E-02  0.0000000000000E+00 -0.1136374297964E-04
 0.1894028962465E-02 -0.7607012734587E-02  0.0000000000000E+00 -0.5619477852781E-04
 0.1900253645996E-02 -0.7632317609395E-02  0.0000000000000E+00 -0.9971041232620E-04
 0.1910643856982E-02 -0.7676269177135E-02  0.0000000000000E+00 -0.1448371858286E-03
 0.1925398926129E-02 -0.7739741418698E-02  0.0000000000000E+00 -0.1943384016049E-03
 0.1944892553294E-02 -0.7824707123313E-02  0.0000000000000E+00 -0.2512865353637E-03
 0.1969633067298E-02 -0.7934365600554E-02  0.0000000000000E+00 -0.3197133155138E-03
 0.2000123742240E-02 -0.8073448977468E-02  0.0000000000000E+00 -0.4059174812258E-03
 0.2035586411350E-02 -0.8248121142640E-02  0.0000000000000E+00 -0.5216874726864E-03
 0.2070935296672E-02 -0.8462958620659E-02  0.0000000000000E+00 -0.6858912958550E-03
 0.2098946504710E-02 -0.8715376135911E-02  0.0000000000000E+00 -0.9157923160666E-03
 0.2118433691397E-02 -0.8993097799496E-02  0.0000000000000E+00 -0.1219538032179E-02
 0.2133708678322E-02 -0.9277511711284E-02  0.0000000000000E+00 -0.1600047055373E-02
 0.2146199035759E-02 -0.9550706141764E-02  0.0000000000000E+00 -0.2055493382170E-02
 0.2152431656808E-02 -0.9801435651772E-02  0.0000000000000E+00 -0.2576265336189E-02
 0.2147495225241E-02 -0.1002604638313E-01  0.0000000000000E+00 -0.3148734697017E-02
 0.2127294553225E-02 -0.1022548839197E-01  0.0000000000000E+00 -0.3760748745212E-02
 0.2088701688000E-02 -0.1040175627456E-01  0.0000000000000E+00 -0.4403969526515E-02
 0.2029114173334E-02 -0.1055537717330E-01  0.0000000000000E+00 -0.5072949873857E-02
 0.1947147535246E-02 -0.1068474405199E-01  0.0000000000000E+00 -0.5762465036891E-02
 0.1843748482326E-02 -0.1078761410051E-01  0.0000000000000E+00 -0.6467843381754E-02
 0.1719259607708E-02 -0.1086209553277E-01  0.0000000000000E+00 -0.7189280245780E-02
 0.1568574178620E-02 -0.1090529360773E-01  0.0000000000000E+00 -0.7930760820309E-02
 0.1381777159693E-02 -0.1091244780961E-01  0.0000000000000E+00 -0.8696094864453E-02
 0.1145320755992E-02 -0.1087388742018E-01  0.0000000000000E+00 -0.9490168323433E-02
 0.8406556177278E-03 -0.1076789650702E-01  0.0000000000000E+00 -0.1031499594686E-01
 0.4342321326369E-03 -0.1054881980847E-01  0.0000000000000E+00 -0.1115584955908E-01
-0.1010977985194E-03 -0.1012931437947E-01  0.0000000000000E+00 -0.1191398591903E-01
-0.8281714036899E-03 -0.9333726345211E-02  0.0000000000000E+00 -0.1235944378226E-01
-0.1584122865427E-02 -0.7763802051191E-02  0.0000000000000E+00 -0.1103704275266E-01
 0.1598834228076E-02 -0.6632045727168E-02  0.0000000000000E+00 -0.4710411705935E-02
 0.1803119944125E-01 -0.9943035390120E-02  0.0000000000000E+00 -0.4544895325535E-02
 0.9945655700124E-03 -0.9813482033731E-02  0.0000000000000E+00  0.4211167475181E-02
 0.2111539726583E-02 -0.9406332722620E-02  0.0000000000000E+00  0.1903591269042E-02
 0.2130829665941E-02 -0.8586578436229E-02  0.0000000000000E+00  0.6840907172399E-03
 0.2013845419896E-02 -0.8174702754147E-02  0.0000000000000E+00  0.4289938851356E-03
 0.1971297852255E-02 -0.7928429219990E-02  0.0000000000000E+00  0.2537801796986E-03
 0.1934898643107E-02 -0.7772075392312E-02  0.0000000000000E+00  0.1593984492595E-03
 0.1913034945004E-02 -0.7673162462075E-02  0.0000000000000E+00  0.9636202048847E-04
 0.1899279623910E-02 -0.7613120776171E-02  0.0000000000000E+00  0.5186139521730E-04
 0.1892237596540E-02 -0.7581835595273E-02  0.0000000000000E+00  0.1750000641465E-04
 0.1890530892717E-02 -0.7573457215512E-02  0.0000000000000E+00 -0.1121165743495E-04
 0.1893513881070E-02 -0.7584806409347E-02  0.0000000000000E+00 -0.3722349898111E-04
 0.1900884832761E-02 -0.7614482517419E-02  0.0000000000000E+00 -0.6263525765610E-04
 0.1912652036025E-02 -0.7662428714514E-02  0.0000000000000E+00 -0.8916771084153E-04
 0.1929082424850E-02 -0.7729747932606E-02  0.0000000000000E+00 -0.1184584131650E-03
 0.1950701556705E-02 -0.7818711502401E-02  0.0000000000000E+00 -0.1523498930690E-03
 0.1978317205419E-02 -0.7932982506946E-02  0.0000000000000E+00 -0.1933124435549E-03
 0.2013105749940E-02 -0.8078183924947E-02  0.0000000000000E+00 -0.2452476909346E-03
 0.2056382160329E-02 -0.8263099187861E-02  0.0000000000000E+00 -0.3163077341915E-03
 0.2106301768571E-02 -0.8499608941640E-02  0.0000000000000E+00 -0.4263392550816E-03
 0.2157365954208E-02 -0.8794297340994E-02  0.0000000000000E+00 -0.6057399244766E-03
 0.2206744561138E-02 -0.9133200461839E-02  0.0000000000000E+00 -0.8818363977803E-03
 0.2253896731273E-02 -0.9483649187424E-02  0.0000000000000E+00 -0.1266654881064E-02
 0.2295164213748E-02 -0.9815826794602E-02  0.0000000000000E+00 -0.1751213265127E-02
 0.2325130775518E-02 -0.1011607213530E-01  0.0000000000000E+00 -0.2312467176601E-02
 0.2339989527441E-02 -0.1038442816518E-01  0.0000000000000E+00 -0.2927542383591E-02
 0.2337838058253E-02 -0.1062713929281E-01  0.0000000000000E+00 -0.3581482831837E-02
 0.2317472509241E-02 -0.1085082038541E-01  0.0000000000000E+00 -0.4267986331646E-02
 0.2277150259394E-02 -0.1105918895081E-01  0.0000000000000E+00 -0.4986792615225E-02
 0.2214800152598E-02 -0.1125161329609E-01  0.0000000000000E+00 -0.5738764612359E-02
 0.2130490344201E-02 -0.1142441541092E-01  0.0000000000000E+00 -0.6521442281529E-02
 0.2025576903971E-02 -0.1157594327788E-01  0.0000000000000E+00 -0.7332570924791E-02
 0.1897827703834E-02 -0.1171066420741E-01  0.0000000000000E+00 -0.8176257816996E-02
 0.1740620847942E-02 -0.1183681411895E-01  0.0000000000000E+00 -0.9065981895378E-02
 0.1543905226083E-02 -0.1195986100750E-01  0.0000000000000E+00 -0.1002819203162E-01
 0.1288005198467E-02 -0.1207730890204E-01  0.0000000000000E+00 -0.1110318883775E-01
 0.9458473418033E-03 -0.1217519410350E-01  0.0000000000000E+00 -0.1234399445831E-01
 0.4278480278205E-03 -0.1220308369853E-01  0.0000000000000E+00 -0.1381830886989E-01
-0.2567788266133E-03 -0.1206707276058E-01  0.0000000000000E+00 -0.1551472783685E-01
-0.1907957287605E-02 -0.1124206343159E-01  0.0000000000000E+00 -0.1758170474867E-01
-0.2520473679677E-02 -0.8920222019945E-02  0.0000000000000E+00 -0.1395200215782E-01
 0.1819090526422E-01 -0.1238062436806E-01  0.0000000000000E+00 -0.1066307077320E-01
 0.1462946674546E-02 -0.1135735230473E-01  0.0000000000000E+00  0.3839346644418E-02
 0.2497331785190E-02 -0.9246981893393E-02  0.0000000000000E+00  0.2405301333382E-03
 0.2069761426857E-02 -0.8432989495177E-02  0.0000000000000E+00  0.2443089598875E-03
 0.2020628318369E-02 -0.8061002702263E-02  0.0000000000000E+00  0.1206259439254E-03
 0.1956172007406E-02 -0.7834849354692E-02  0.0000000000000E+00  0.7522879944200E-04
 0.1924112857324E-02 -0.7697592920605E-02  0.0000000000000E+00  0.4579408785216E-04
 0.1902609744652E-02 -0.7612635284154E-02  0.0000000000000E+00  0.2697643956713E-04
 0.1890545894873E-02 -0.7563556913082E-02  0.0000000000000E+00  0.1342381133305E-04
 0.1884897450963E-02 -0.7540831011687E-02  0.0000000000000E+00  0.2911840309303E-05
 0.1884535813656E-02 -0.7539235230249E-02  0.0000000000000E+00 -0.5974183943561E-05
 0.1888739361009E-02 -0.7556005485670E-02  0.0000000000000E+00 -0.1412144032452E-04
 0.1897251491319E-02 -0.7590063807961E-02  0.0000000000000E+00 -0.2218252779491E-04
 0.1910120368594E-02 -0.7641608087379E-02  0.0000000000000E+00 -0.3069729701097E-04
 0.1927675347054E-02 -0.7711960145476E-02  0.0000000000000E+00 -0.4018877347453E-04
 0.1950533138000E-02 -0.7803601327515E-02  0.0000000000000E+00 -0.5125058407446E-04
 0.1979663276040E-02 -0.7920447778614E-02  0.0000000000000E+00 -0.6468808951468E-04
 0.2016547494752E-02 -0.8068521494204E-02  0.0000000000000E+00 -0.8180152692749E-04
 0.2063645961575E-02 -0.8257700565631E-02  0.0000000000000E+00 -0.1050953244612E-03
 0.2124102051168E-02 -0.8506843285976E-02  0.0000000000000E+00 -0.1449667341431E-03
 0.2200251043260E-02 -0.8844765689620E-02  0.0000000000000E+00 -0.2451954867303E-03
 0.2288848758216E-02 -0.9260477479092E-02  0.0000000000000E+00 -0.4756193376604E-03
 0.2377688445397E-02 -0.9692376042263E-02  0.0000000000000E+00 -0.8675181509464E-03
 0.2453113499587E-02 -0.1009124663927E-01  0.0000000000000E+00 -0.1392868931200E-02
 0.2508266074216E-02 -0.1044247582862E-01  0.0000000000000E+00 -0.2004319970149E-02
 0.2542656945374E-02 -0.1075331435294E-01  0.0000000000000E+00 -0.2665751914303E-02
 0.2558414217948E-02 -0.1103803482266E-01  0.0000000000000E+00 -0.3359505131386E-02
 0.2557375457095E-02 -0.1130943900991E-01  0.0000000000000E+00 -0.4082743427473E-02
 0.2539558144722E-02 -0.1157557127044E-01  0.0000000000000E+00 -0.4841939295797E-02
 0.2502457294205E-02 -0.1183801063503E-01  0.0000000000000E+00 -0.5648093690022E-02
 0.2442488646118E-02 -0.1208889450588E-01  0.0000000000000E+00 -0.6505657177972E-02
 0.2360044504473E-02 -0.1232009465169E-01  0.0000000000000E+00 -0.7400650768681E-02
 0.2259615615533E-02 -0.1254820341724E-01  0.0000000000000E+00 -0.8324249441779E-02
 0.2142925537851E-02 -0.1280327328463E-01  0.0000000000000E+00 -0.9299881863876E-02
 0.2005627609239E-02 -0.1310859494560E-01  0.0000000000000E+00 -0.1037387242788E-01
 0.1839612488114E-02 -0.1348997235562E-01  0.0000000000000E+00 -0.1161422307288E-01
 0.1618671100964E-02 -0.1398201320186E-01  0.0000000000000E+00 -0.1312274783135E-01
 0.1337056765996E-02 -0.1464538482753E-01  0.0000000000000E+00 -0.1509350044861E-01
 0.7487729966146E-03 -0.1552765969474E-01  0.0000000000000E+00 -0.1782126749171E-01
 0.4241556894273E-03 -0.1694266022524E-01  0.0000000000000E+00 -0.2224097035521E-01
-0.5401605659532E-02 -0.1730549733537E-01  0.0000000000000E+00 -0.3048942758133E-01
 0.1568589029474E-01 -0.2033807664231E-01  0.0000000000000E+00 -0.3502991173179E-01
 0.9352179699388E-01 -0.1494158136431E+00  0.0000000000000E+00 -0.4356784758311E+00
 0.1307650394868E+00 -0.1842862643954E+00  0.0000000000000E+00 -0.3621749826878E+00
 0.1660208517264E+00 -0.2171795701960E+00  0.0000000000000E+00 -0.3026878742330E+00
 0.1981226986352E+00 -0.2470288762624E+00  0.0000000000000E+00 -0.2550342079126E+00
 0.2266557132635E+00 -0.2734733892434E+00  0.0000000000000E+00 -0.2177611269989E+00
 0.2515651737653E+00 -0.2964856311887E+00  0.0000000000000E+00 -0.1897942715772E+00
 0.2729888506898E+00 -0.3162118458658E+00  0.0000000000000E+00 -0.1702522352952E+00
 0.2911544971411E+00 -0.3328833012492E+00  0.0000000000000E+00 -0.1583720380298E+00
 0.3063092135471E+00 -0.3467518980448E+00  0.0000000000000E+00 -0.1534558480515E+00
 0.3186993938051E+00 -0.3580679925094E+00  0.0000000000000E+00 -0.1549253914236E+00
 0.3285894853360E+00 -0.3670914719872E+00  0.0000000000000E+00 -0.1623019833191E+00
 0.3360936573653E+00 -0.3739702484773E+00  0.0000000000000E+00 -0.1749669917018E+00
 0.3414182062356E+00 -0.3788961380407E+00  0.0000000000000E+00 -0.1930052261243E+00
 0.3449640954993E+00 -0.3822423455630E+00  0.0000000000000E+00 -0.2163782774765E+00
 0.3469255937797E+00 -0.3842135132363E+00  0.0000000000000E+00 -0.2441829603496E+00
 0.3472601242440E+00 -0.3847363818121E+00  0.0000000000000E+00 -0.2756981856645E+00
 0.3457723743679E+00 -0.3836075898979E+00  0.0000000000000E+00 -0.3103092961326E+00
 0.3422049322253E+00 -0.3805913099091E+00  0.0000000000000E+00 -0.3476116205790E+00
 0.3365033490074E+00 -0.3755078560666E+00  0.0000000000000E+00 -0.3867442952017E+00
 0.3280220294044E+00 -0.3687372460713E+00  0.0000000000000E+00 -0.4237961884076E+00
 0.8919999541316E-01 -0.1464455039477E+00  0.0000000000000E+00 -0.4173284155135E+00
 0.1290215308862E+00 -0.1836669520553E+00  0.0000000000000E+00 -0.3451011016048E+00
 0.1662241711949E+00 -0.2184151443669E+00  0.0000000000000E+00 -0.2877665539622E+00
 0.2000244956107E+00 -0.2499033755331E+00  0.0000000000000E+00 -0.2423740565965E+00
 0.2300723192094E+00 -0.2778214622822E+00  0.0000000000000E+00 -0.2072040958742E+00
 0.2563639830163E+00 -0.3021871688343E+00  0.0000000000000E+00 -0.1811010180068E+00
 0.2790815099284E+00 -0.3231921491566E+00  0.0000000000000E+00 -0.1631545322713E+00
 0.2984842101609E+00 -0.3410994910387E+00  0.0000000000000E+00 -0.1525951187449E+00
 0.3148419975102E+00 -0.3561819908263E+00  0.0000000000000E+00 -0.1487566587429E+00
 0.3284249814836E+00 -0.3687115972342E+00  0.0000000000000E+00 -0.1511038083814E+00
 0.3394956119956E+00 -0.3789581004576E+00  0.0000000000000E+00 -0.1591657151104E+00
 0.3482039214260E+00 -0.3870788701779E+00  0.0000000000000E+00 -0.1724797932659E+00
 0.3547952796345E+00 -0.3933190431461E+00  0.0000000000000E+00 -0.1911165572863E+00
 0.3596322279876E+00 -0.3980305403285E+00  0.0000000000000E+00 -0.2149286584318E+00
 0.3628913663466E+00 -0.4013789476399E+00  0.0000000000000E+00 -0.2431969315202E+00
 0.3645699458398E+00 -0.4033558022122E+00  0.0000000000000E+00 -0.2753124112171E+00
 0.3645086620524E+00 -0.4038049475913E+00  0.0000000000000E+00 -0.3106501479614E+00
 0.3625022649750E+00 -0.4025111481060E+00  0.0000000000000E+00 -0.3485528862327E+00
 0.3578194939241E+00 -0.3989525863780E+00  0.0000000000000E+00 -0.3875458374880E+00
 0.3500627947059E+00 -0.3924104308569E+00  0.0000000000000E+00 -0.4285727409262E+00
 0.8499559542838E-01 -0.1435074599802E+00  0.0000000000000E+00 -0.3980781014432E+00
 0.1274680929423E+00 -0.1832353270260E+00  0.0000000000000E+00 -0.3275391751246E+00
 0.1666626541012E+00 -0.2198612816671E+00  0.0000000000000E+00 -0.2722793155401E+00
 0.2021030828880E+00 -0.2529229627113E+00  0.0000000000000E+00 -0.2291014740848E+00
 0.2335959756233E+00 -0.2822411762820E+00  0.0000000000000E+00 -0.1960066651855E+00
 0.2612055360914E+00 -0.3078959216073E+00  0.0000000000000E+00 -0.1717197549940E+00
 0.2851586732573E+00 -0.3301216102352E+00  0.0000000000000E+00 -0.1552943468017E+00
 0.3057468770426E+00 -0.3492128999637E+00  0.0000000000000E+00 -0.1459665532484E+00
 0.3232674322141E+00 -0.3654688849234E+00  0.0000000000000E+00 -0.1431026362715E+00
 0.3380088403204E+00 -0.3791812310690E+00  0.0000000000000E+00 -0.1461989611222E+00
 0.3502436394735E+00 -0.3906263611314E+00  0.0000000000000E+00 -0.1548401229988E+00
 0.3601665265178E+00 -0.4000056711410E+00  0.0000000000000E+00 -0.1686608429924E+00
 0.3680393537903E+00 -0.4075823357993E+00  0.0000000000000E+00 -0.1876791640979E+00
 0.3741946525965E+00 -0.4136821838949E+00  0.0000000000000E+00 -0.2117342811942E+00
 0.3788096077782E+00 -0.4184775559376E+00  0.0000000000000E+00 -0.2402264979337E+00
 0.3818937550310E+00 -0.4219786884494E+00  0.0000000000000E+00 -0.2726031231461E+00
 0.3833073676692E+00 -0.4240510301649E+00  0.0000000000000E+00 -0.3082446139424E+00
 0.3827113543690E+00 -0.4244031330946E+00  0.0000000000000E+00 -0.3464147430798E+00
 0.3795042995661E+00 -0.4224130377990E+00  0.0000000000000E+00 -0.3866403597426E+00
 0.3736974473723E+00 -0.4180342708461E+00  0.0000000000000E+00 -0.4296469215339E+00
 0.8094298601172E-01 -0.1406813075989E+00  0.0000000000000E+00 -0.3777984781824E+00
 0.1260715123288E+00 -0.1829232387176E+00  0.0000000000000E+00 -0.3093296622114E+00
 0.1672640283708E+00 -0.2214425157275E+00  0.0000000000000E+00 -0.2562702320740E+00
 0.2043088855943E+00 -0.2560353398670E+00  0.0000000000000E+00 -0.2152870082190E+00
 0.2371836896685E+00 -0.2866882064932E+00  0.0000000000000E+00 -0.1842239221502E+00
 0.2660459235948E+00 -0.3135659586113E+00  0.0000000000000E+00 -0.1616918054474E+00
 0.2911740978115E+00 -0.3369517689884E+00  0.0000000000000E+00 -0.1467073043564E+00
 0.3128949309233E+00 -0.3571741158637E+00  0.0000000000000E+00 -0.1385143063623E+00
 0.3315334613130E+00 -0.3745593899311E+00  0.0000000000000E+00 -0.1365105997043E+00
 0.3473993528499E+00 -0.3894194486539E+00  0.0000000000000E+00 -0.1402322474837E+00
 0.3607824609895E+00 -0.4020476586712E+00  0.0000000000000E+00 -0.1493145506231E+00
 0.3719147201490E+00 -0.4126817445291E+00  0.0000000000000E+00 -0.1634595049384E+00
 0.3810709859346E+00 -0.4215992477611E+00  0.0000000000000E+00 -0.1826494152220E+00
 0.3885623807253E+00 -0.4291089833984E+00  0.0000000000000E+00 -0.2067180340443E+00
 0.3945635398813E+00 -0.4353859367926E+00  0.0000000000000E+00 -0.2351597011296E+00
 0.3990909964900E+00 -0.4404520229605E+00  0.0000000000000E+00 -0.2674734466418E+00
 0.4019907381331E+00 -0.4441715815594E+00  0.0000000000000E+00 -0.3030897858849E+00
 0.4029444007344E+00 -0.4462387951994E+00  0.0000000000000E+00 -0.3415198223495E+00
 0.4015350290655E+00 -0.4462437219671E+00  0.0000000000000E+00 -0.3824865092430E+00
 0.3978085092071E+00 -0.4442130827889E+00  0.0000000000000E+00 -0.4261484989405E+00
 0.7706199478007E-01 -0.1379836060511E+00  0.0000000000000E+00 -0.3565009744182E+00
 0.1248210840197E+00 -0.1827176504461E+00  0.0000000000000E+00 -0.2904487905473E+00
 0.1679852614838E+00 -0.2231058081511E+00  0.0000000000000E+00 -0.2397441565923E+00
 0.2065919285955E+00 -0.2591876661555E+00  0.0000000000000E+00 -0.2009786887827E+00
 0.2407895193981E+00 -0.2911143695316E+00  0.0000000000000E+00 -0.1719053407916E+00
 0.2708395203465E+00 -0.3191497441792E+00  0.0000000000000E+00 -0.1510598667115E+00
 0.2970808879172E+00 -0.3436337679065E+00  0.0000000000000E+00 -0.1374295451816E+00
 0.3198790470590E+00 -0.3649320132200E+00  0.0000000000000E+00 -0.1302679676970E+00
 0.3395885291346E+00 -0.3833993685978E+00  0.0000000000000E+00 -0.1290053755231E+00
 0.3565425034365E+00 -0.3993705956644E+00  0.0000000000000E+00 -0.1332172261357E+00
 0.3710508620338E+00 -0.4131587997782E+00  0.0000000000000E+00 -0.1425833229482E+00
 0.3833769946561E+00 -0.4250329838442E+00  0.0000000000000E+00 -0.1568561022810E+00
 0.3938067549586E+00 -0.4352831586131E+00  0.0000000000000E+00 -0.1759928044081E+00
 0.4026355647752E+00 -0.4442064092093E+00  0.0000000000000E+00 -0.1998287132179E+00
 0.4100352336440E+00 -0.4519792752529E+00  0.0000000000000E+00 -0.2279362287146E+00
 0.4160242284381E+00 -0.4586315008064E+00  0.0000000000000E+00 -0.2598752762156E+00
 0.4204642962092E+00 -0.4640406005216E+00  0.0000000000000E+00 -0.2951870753293E+00
 0.4230926247301E+00 -0.4679614626266E+00  0.0000000000000E+00 -0.3334967804730E+00
 0.4235961935717E+00 -0.4700988863499E+00  0.0000000000000E+00 -0.3745088968208E+00
 0.4219525069086E+00 -0.4704448254797E+00  0.0000000000000E+00 -0.4179528340867E+00
 0.7336712852694E-01 -0.1354243381720E+00  0.0000000000000E+00 -0.3342085673632E+00
 0.1237056200616E+00 -0.1826021254971E+00  0.0000000000000E+00 -0.2709069952690E+00
 0.1687932514482E+00 -0.2248133478232E+00  0.0000000000000E+00 -0.2227183188429E+00
 0.2089081179520E+00 -0.2623315844735E+00  0.0000000000000E+00 -0.1862101014191E+00
 0.2443671721075E+00 -0.2954709855905E+00  0.0000000000000E+00 -0.1590938358669E+00
 0.2755399708120E+00 -0.3245988950558E+00  0.0000000000000E+00 -0.1398652714852E+00
 0.3028314914976E+00 -0.3501181886823E+00  0.0000000000000E+00 -0.1274982069527E+00
 0.3266495964196E+00 -0.3724349614799E+00  0.0000000000000E+00 -0.1212602058779E+00
 0.3473801248310E+00 -0.3919343587956E+00  0.0000000000000E+00 -0.1206137632537E+00
 0.3653811463851E+00 -0.4089754654110E+00  0.0000000000000E+00 -0.1251715912791E+00
 0.3809836218993E+00 -0.4238923717577E+00  0.0000000000000E+00 -0.1346522312433E+00
 0.3944776405836E+00 -0.4369809407214E+00  0.0000000000000E+00 -0.1488468341863E+00
 0.4061586363117E+00 -0.4485423599370E+00  0.0000000000000E+00 -0.1676965543918E+00
 0.4163112283383E+00 -0.4588663659368E+00  0.0000000000000E+00 -0.1910437284660E+00
 0.4251052899725E+00 -0.4681317609601E+00  0.0000000000000E+00 -0.2185290945442E+00
 0.4325683556931E+00 -0.4763802991791E+00  0.0000000000000E+00 -0.2497818407131E+00
 0.4385891820009E+00 -0.4835202919596E+00  0.0000000000000E+00 -0.2844243706234E+00
 0.4429515128993E+00 -0.4893595391106E+00  0.0000000000000E+00 -0.3221219295392E+00
 0.4453901442562E+00 -0.4936640993232E+00  0.0000000000000E+00 -0.3625049482069E+00
 0.4457813877909E+00 -0.4963461161495E+00  0.0000000000000E+00 -0.4050100467754E+00
 0.6987130520254E-01 -0.1330106555332E+00  0.0000000000000E+00 -0.3109551625828E+00
 0.1227140487992E+00 -0.1825608104842E+00  0.0000000000000E+00 -0.2507285162948E+00
 0.1696586774910E+00 -0.2265314834465E+00  0.0000000000000E+00 -0.2052171425659E+00
 0.2112174035584E+00 -0.2654236029402E+00  0.0000000000000E+00 -0.1710128006836E+00
 0.2478721115640E+00 -0.2997108564143E+00  0.0000000000000E+00 -0.1458272715932E+00
 0.2801011546405E+00 -0.3298652553542E+00  0.0000000000000E+00 -0.1281476806262E+00
 0.3083784137519E+00 -0.3563556484621E+00  0.0000000000000E+00 -0.1169513704642E+00
 0.3331568073324E+00 -0.3796313284334E+00  0.0000000000000E+00 -0.1115261122321E+00
 0.3548548930396E+00 -0.4001090694346E+00  0.0000000000000E+00 -0.1113666022524E+00
 0.3738563234256E+00 -0.4181730327015E+00  0.0000000000000E+00 -0.1161201921500E+00
 0.3905131832055E+00 -0.4341784479616E+00  0.0000000000000E+00 -0.1255390293677E+00
 0.4051384397216E+00 -0.4484444532639E+00  0.0000000000000E+00 -0.1394447606952E+00
 0.4180362605382E+00 -0.4612825583521E+00  0.0000000000000E+00 -0.1577695066122E+00
 0.4294846079429E+00 -0.4729789809680E+00  0.0000000000000E+00 -0.1803666400058E+00
 0.4396546712560E+00 -0.4837172746335E+00  0.0000000000000E+00 -0.2069369151172E+00
 0.4485869702432E+00 -0.4935560084591E+00  0.0000000000000E+00 -0.2371675244134E+00
 0.4561962073247E+00 -0.5024343320258E+00  0.0000000000000E+00 -0.2707324881355E+00
 0.4622965929407E+00 -0.5101985495788E+00  0.0000000000000E+00 -0.3073005236710E+00
 0.4666342023509E+00 -0.5166373127174E+00  0.0000000000000E+00 -0.3464262192010E+00
 0.4689795467719E+00 -0.5215737922930E+00  0.0000000000000E+00 -0.3873576457339E+00
 0.6658674202605E-01 -0.1307489398434E+00  0.0000000000000E+00 -0.2867825708154E+00
 0.1218355777496E+00 -0.1825782113238E+00  0.0000000000000E+00 -0.2299452902315E+00
 0.1705544859507E+00 -0.2282292898152E+00  0.0000000000000E+00 -0.1872695553734E+00
 0.2134826165414E+00 -0.2684233844445E+00  0.0000000000000E+00 -0.1554183654314E+00
 0.2512619381890E+00 -0.3037890800065E+00  0.0000000000000E+00 -0.1321414839702E+00
 0.2844781476018E+00 -0.3349018420501E+00  0.0000000000000E+00 -0.1159455760694E+00
 0.3136748273746E+00 -0.3622974856488E+00  0.0000000000000E+00 -0.1058280353891E+00
 0.3393512313801E+00 -0.3864698596665E+00  0.0000000000000E+00 -0.1011037001579E+00
 0.3619593127812E+00 -0.4078680938968E+00  0.0000000000000E+00 -0.1012999733190E+00
 0.3819083822589E+00 -0.4269015551288E+00  0.0000000000000E+00 -0.1060963926716E+00
 0.3995711214829E+00 -0.4439461554246E+00  0.0000000000000E+00 -0.1152743242264E+00
 0.4152803460691E+00 -0.4593414057246E+00  0.0000000000000E+00 -0.1286799721325E+00
 0.4293484715045E+00 -0.4734086273648E+00  0.0000000000000E+00 -0.1462415321452E+00
 0.4420504449841E+00 -0.4864338111866E+00  0.0000000000000E+00 -0.1678252692130E+00
 0.4535611377918E+00 -0.4986075914156E+00  0.0000000000000E+00 -0.1931808728817E+00
 0.4639342513522E+00 -0.5100058308708E+00  0.0000000000000E+00 -0.2220393616694E+00
 0.4731046172298E+00 -0.5205933734455E+00  0.0000000000000E+00 -0.2541049358166E+00
 0.4809020074019E+00 -0.5302398536216E+00  0.0000000000000E+00 -0.2890361710712E+00
 0.4870614880607E+00 -0.5387331252805E+00  0.0000000000000E+00 -0.3263290016477E+00
 0.4912516599348E+00 -0.5458082198836E+00  0.0000000000000E+00 -0.3651233092192E+00
 0.6352523797938E-01 -0.1286453154961E+00  0.0000000000000E+00 -0.2617398887611E+00
 0.1210599151794E+00 -0.1826395676081E+00  0.0000000000000E+00 -0.2085945015047E+00
 0.1714554071243E+00 -0.2298779050185E+00  0.0000000000000E+00 -0.1689075140445E+00
 0.2156690186727E+00 -0.2712932925354E+00  0.0000000000000E+00 -0.1394589775619E+00
 0.2544965177005E+00 -0.3076631686649E+00  0.0000000000000E+00 -0.1180715912113E+00
 0.2886277779292E+00 -0.3396635128649E+00  0.0000000000000E+00 -0.1032971263910E+00
 0.3186751969451E+00 -0.3678963896192E+00  0.0000000000000E+00 -0.9416844701279E-01
 0.3451843642297E+00 -0.3929003129392E+00  0.0000000000000E+00 -0.9003435298585E-01
 0.3686404944475E+00 -0.4151567042096E+00  0.0000000000000E+00 -0.9045590065391E-01
 0.3894780714419E+00 -0.4350997082487E+00  0.0000000000000E+00 -0.9514276847271E-01
 0.4080894703062E+00 -0.4531250575260E+00  0.0000000000000E+00 -0.1039018514302E+00
 0.4248249032350E+00 -0.4695902567449E+00  0.0000000000000E+00 -0.1165994087149E+00
 0.4400047234966E+00 -0.4848260665237E+00  0.0000000000000E+00 -0.1331629509677E+00
 0.4539034671425E+00 -0.4991206717711E+00  0.0000000000000E+00 -0.1534711100222E+00
 0.4667006086369E+00 -0.5126726445361E+00  0.0000000000000E+00 -0.1773115235658E+00
 0.4784609555221E+00 -0.5255731844134E+00  0.0000000000000E+00 -0.2044466490064E+00
 0.4891325049372E+00 -0.5378058291747E+00  0.0000000000000E+00 -0.2345980677296E+00
 0.4985488213163E+00 -0.5492512437515E+00  0.0000000000000E+00 -0.2674123400168E+00
 0.5064211828588E+00 -0.5596825869041E+00  0.0000000000000E+00 -0.3023480059978E+00
 0.5123229404114E+00 -0.5687520894056E+00  0.0000000000000E+00 -0.3384980750881E+00
 0.6069819489214E-01 -0.1267058015634E+00  0.0000000000000E+00 -0.2358830001687E+00
 0.1203774041302E+00 -0.1827310227051E+00  0.0000000000000E+00 -0.1867174649046E+00
 0.1723378612596E+00 -0.2314504232857E+00  0.0000000000000E+00 -0.1501652233255E+00
 0.2177441908034E+00 -0.2739982373603E+00  0.0000000000000E+00 -0.1231675514668E+00
 0.2575381273047E+00 -0.3112932156738E+00  0.0000000000000E+00 -0.1036526961388E+00
 0.2925090477558E+00 -0.3441074123253E+00  0.0000000000000E+00 -0.9024085647033E-01
 0.3233358530939E+00 -0.3731070038951E+00  0.0000000000000E+00 -0.8201457017464E-01
 0.3506093210346E+00 -0.3988741404495E+00  0.0000000000000E+00 -0.7836322831039E-01
 0.3748470113504E+00 -0.4219216993392E+00  0.0000000000000E+00 -0.7888277981934E-01
 0.3965075836640E+00 -0.4427076587988E+00  0.0000000000000E+00 -0.8331141448542E-01
 0.4160019120853E+00 -0.4616464044843E+00  0.0000000000000E+00 -0.9147845513708E-01
 0.4336955240154E+00 -0.4791113842636E+00  0.0000000000000E+00 -0.1032666041369E+00
 0.4499163036086E+00 -0.4954423347524E+00  0.0000000000000E+00 -0.1186043026960E+00
 0.4649398825140E+00 -0.5109309812739E+00  0.0000000000000E+00 -0.1373807419271E+00
 0.4789500803552E+00 -0.5257834663985E+00  0.0000000000000E+00 -0.1594120292684E+00
 0.4920197208116E+00 -0.5401031139693E+00  0.0000000000000E+00 -0.1844829978855E+00
 0.5041033952285E+00 -0.5538852815360E+00  0.0000000000000E+00 -0.2123262286684E+00
 0.5150295705109E+00 -0.5670120925309E+00  0.0000000000000E+00 -0.2425802266185E+00
 0.5244782543954E+00 -0.5792334888779E+00  0.0000000000000E+00 -0.2746852622072E+00
 0.5319353573799E+00 -0.5901254338113E+00  0.0000000000000E+00 -0.3077294624748E+00
 0.5811652807835E-01 -0.1249362982893E+00  0.0000000000000E+00 -0.2092741532564E+00
 0.1197791084514E+00 -0.1828397501317E+00  0.0000000000000E+00 -0.1643589854001E+00
 0.1731799979147E+00 -0.2329219366631E+00  0.0000000000000E+00 -0.1310786791593E+00
 0.2196780835136E+00 -0.2765057248328E+00  0.0000000000000E+00 -0.1065777342276E+00
 0.2603516459662E+00 -0.3146420930798E+00  0.0000000000000E+00 -0.8892024784025E-01
 0.2960835110298E+00 -0.3481933724737E+00  0.0000000000000E+00 -0.7681609262296E-01
 0.3276155296819E+00 -0.3778864837218E+00  0.0000000000000E+00 -0.6941044542234E-01
 0.3555815092931E+00 -0.4043451813321E+00  0.0000000000000E+00 -0.6613950805213E-01
 0.3805297239838E+00 -0.4281122514804E+00  0.0000000000000E+00 -0.6663551862036E-01
 0.4029415448973E+00 -0.4496680896546E+00  0.0000000000000E+00 -0.7066390255847E-01
 0.4232448933607E+00 -0.4694442978196E+00  0.0000000000000E+00 -0.7807378499639E-01
 0.4418187076557E+00 -0.4878283683084E+00  0.0000000000000E+00 -0.8876128304141E-01
 0.4589977687153E+00 -0.5051683072427E+00  0.0000000000000E+00 -0.1026562929757E+00
 0.4750593905666E+00 -0.5217597967747E+00  0.0000000000000E+00 -0.1196563570589E+00
 0.4901907421279E+00 -0.5378153606018E+00  0.0000000000000E+00 -0.1395986607665E+00
 0.5044693584554E+00 -0.5534468741871E+00  0.0000000000000E+00 -0.1622845882769E+00
 0.5178508048622E+00 -0.5686554448544E+00  0.0000000000000E+00 -0.1874558622378E+00
 0.5301518695655E+00 -0.5833173413467E+00  0.0000000000000E+00 -0.2147501778739E+00
 0.5410166463760E+00 -0.5971536249485E+00  0.0000000000000E+00 -0.2436084618372E+00
 0.5498527066034E+00 -0.6096706773637E+00  0.0000000000000E+00 -0.2731491682606E+00
 0.5579054254431E-01 -0.1233425112663E+00  0.0000000000000E+00 -0.1819815003315E+00
 0.1192568768950E+00 -0.1829540456256E+00  0.0000000000000E+00 -0.1415669133725E+00
 0.1739617949878E+00 -0.2342696442052E+00  0.0000000000000E+00 -0.1116853721599E+00
 0.2214431497498E+00 -0.2787859921464E+00  0.0000000000000E+00 -0.8972387785181E-01
 0.2629047825253E+00 -0.3176756875030E+00  0.0000000000000E+00 -0.7391024519619E-01
 0.2993156388240E+00 -0.3518842913404E+00  0.0000000000000E+00 -0.6306324598986E-01
 0.3314758711197E+00 -0.3821950200054E+00  0.0000000000000E+00 -0.5640241851766E-01
 0.3600592725127E+00 -0.4092703232028E+00  0.0000000000000E+00 -0.5341650441021E-01
 0.3856425636663E+00 -0.4336807127948E+00  0.0000000000000E+00 -0.5377548164643E-01
 0.4087279401706E+00 -0.4559271570388E+00  0.0000000000000E+00 -0.5727101943741E-01
 0.4297586735311E+00 -0.4764567819378E+00  0.0000000000000E+00 -0.6376981687708E-01
 0.4491252576926E+00 -0.4956692502410E+00  0.0000000000000E+00 -0.7317884718322E-01
 0.4671684879808E+00 -0.5139198587024E+00  0.0000000000000E+00 -0.8542938409407E-01
 0.4841672795698E+00 -0.5315079637683E+00  0.0000000000000E+00 -0.1004252786831E+00
 0.5003108004000E+00 -0.5486508557723E+00  0.0000000000000E+00 -0.1180194899513E+00
 0.5156782367385E+00 -0.5654655360181E+00  0.0000000000000E+00 -0.1380268458927E+00
 0.5302216779110E+00 -0.5819538777075E+00  0.0000000000000E+00 -0.1601995320418E+00
 0.5437416948369E+00 -0.5979809897745E+00  0.0000000000000E+00 -0.1841840211004E+00
 0.5558445690913E+00 -0.6132359517236E+00  0.0000000000000E+00 -0.2094418365761E+00
 0.5658688752011E+00 -0.6271627150463E+00  0.0000000000000E+00 -0.2351515812557E+00
 0.5372979610447E-01 -0.1219298533767E+00  0.0000000000000E+00 -0.1540785950423E+00
 0.1188033943251E+00 -0.1830634029237E+00  0.0000000000000E+00 -0.1183917718591E+00
 0.1746651789580E+00 -0.2354729854894E+00  0.0000000000000E+00 -0.9202405879439E-01
 0.2230145131651E+00 -0.2808121842722E+00  0.0000000000000E+00 -0.7264098546258E-01
 0.2651683213264E+00 -0.3203631545645E+00  0.0000000000000E+00 -0.5865932584379E-01
 0.3021731737982E+00 -0.3551464995541E+00  0.0000000000000E+00 -0.4902394513682E-01
 0.3348819101283E+00 -0.3859963321550E+00  0.0000000000000E+00 -0.4303920987913E-01
 0.3640044947396E+00 -0.4136101250525E+00  0.0000000000000E+00 -0.4025158740592E-01
 0.3901432671740E+00 -0.4385833731319E+00  0.0000000000000E+00 -0.4037022552038E-01
 0.4138189813352E+00 -0.4614353883982E+00  0.0000000000000E+00 -0.4321227650791E-01
 0.4354883314444E+00 -0.4826268872502E+00  0.0000000000000E+00 -0.4866014637652E-01
 0.4555514938062E+00 -0.5025677867419E+00  0.0000000000000E+00 -0.5662954488452E-01
 0.4743541870945E+00 -0.5216194581652E+00  0.0000000000000E+00 -0.6705280993824E-01
 0.4921764162441E+00 -0.5400841860291E+00  0.0000000000000E+00 -0.7983850467957E-01
 0.5092079244085E+00 -0.5581822829263E+00  0.0000000000000E+00 -0.9485189287834E-01
 0.5255269967448E+00 -0.5760328911563E+00  0.0000000000000E+00 -0.1119202540300E+00
 0.5410790718707E+00 -0.5936348857512E+00  0.0000000000000E+00 -0.1308097475079E+00
 0.5556460385048E+00 -0.6108389294836E+00  0.0000000000000E+00 -0.1511866663543E+00
 0.5687970061982E+00 -0.6273015992441E+00  0.0000000000000E+00 -0.1725527394801E+00
 0.5798106051821E+00 -0.6424117212220E+00  0.0000000000000E+00 -0.1941718572465E+00
 0.5194296529861E-01 -0.1207033424072E+00  0.0000000000000E+00 -0.1256438523761E+00
 0.1184122262101E+00 -0.1831585793235E+00  0.0000000000000E+00 -0.9488642351384E-01
 0.1752741502943E+00 -0.2365137790862E+00  0.0000000000000E+00 -0.7213457564138E-01
 0.2243701468518E+00 -0.2825605417131E+00  0.0000000000000E+00 -0.5536465089465E-01
 0.2671163672417E+00 -0.3226771726065E+00  0.0000000000000E+00 -0.4320478907638E-01
 0.3046274640350E+00 -0.3579501046975E+00  0.0000000000000E+00 -0.3474106357070E-01
 0.3378025059671E+00 -0.3892581195338E+00  0.0000000000000E+00 -0.2937185774333E-01
 0.3673831507937E+00 -0.4173293840346E+00  0.0000000000000E+00 -0.2670596815385E-01
 0.3939940447773E+00 -0.4427811491160E+00  0.0000000000000E+00 -0.2649306952218E-01
 0.4181719014080E+00 -0.4661485032768E+00  0.0000000000000E+00 -0.2857523581139E-01
 0.4403847038436E+00 -0.4879036018521E+00  0.0000000000000E+00 -0.3284906221794E-01
 0.4610403954331E+00 -0.5084646350032E+00  0.0000000000000E+00 -0.3923730931143E-01
 0.4804883802606E+00 -0.5281976577580E+00  0.0000000000000E+00 -0.4767306550000E-01
 0.4990090038763E+00 -0.5474068680308E+00  0.0000000000000E+00 -0.5806854588517E-01
 0.5167912769187E+00 -0.5663139291680E+00  0.0000000000000E+00 -0.7029933896694E-01
 0.5339106795547E+00 -0.5850377411606E+00  0.0000000000000E+00 -0.8420570563824E-01
 0.5503041417509E+00 -0.6035716925981E+00  0.0000000000000E+00 -0.9957259006462E-01
 0.5657343679438E+00 -0.6217506733573E+00  0.0000000000000E+00 -0.1160974091541E+00
 0.5797360734950E+00 -0.6392004802230E+00  0.0000000000000E+00 -0.1333400737645E+00
 0.5915368498493E+00 -0.6552623776245E+00  0.0000000000000E+00 -0.1506708909312E+00
 0.5043772052527E-01 -0.1196675031896E+00  0.0000000000000E+00 -0.9675995535673E-01
 0.1180778581650E+00 -0.1832316532957E+00  0.0000000000000E+00 -0.7110573835698E-01
 0.1757749050883E+00 -0.2373763563359E+00  0.0000000000000E+00 -0.5205766171556E-01
 0.2254910487208E+00 -0.2840105847939E+00  0.0000000000000E+00 -0.3793097808010E-01
 0.2687265792165E+00 -0.3245941845233E+00  0.0000000000000E+00 -0.2758455770360E-01
 0.3066537706101E+00 -0.3602693083308E+00  0.0000000000000E+00 -0.2025865221625E-01
 0.3402107400406E+00 -0.3919524687603E+00  0.0000000000000E+00 -0.1545354269137E-01
 0.3701657991944E+00 -0.4203976431819E+00  0.0000000000000E+00 -0.1284434476066E-01
 0.3971621789084E+00 -0.4462402015950E+00  0.0000000000000E+00 -0.1222250897672E-01
 0.4217496710778E+00 -0.4700281537424E+00  0.0000000000000E+00 -0.1345465138962E-01
 0.4444052402603E+00 -0.4922427573288E+00  0.0000000000000E+00 -0.1645038478800E-01
 0.4655426411576E+00 -0.5133084332563E+00  0.0000000000000E+00 -0.2113826209500E-01
 0.4855136404510E+00 -0.5335944200508E+00  0.0000000000000E+00 -0.2745193951677E-01
 0.5045980789312E+00 -0.5534056926059E+00  0.0000000000000E+00 -0.3530673852506E-01
 0.5229831566888E+00 -0.5729637911643E+00  0.0000000000000E+00 -0.4458771088879E-01
 0.5407403434315E+00 -0.5923856559246E+00  0.0000000000000E+00 -0.5514958203618E-01
 0.5577974486858E+00 -0.6116579281792E+00  0.0000000000000E+00 -0.6680134042307E-01
 0.5738991963831E+00 -0.6306001268517E+00  0.0000000000000E+00 -0.7928205787725E-01
 0.5885504004069E+00 -0.6488108161657E+00  0.0000000000000E+00 -0.9222532882107E-01
 0.6009367447026E+00 -0.6655917681670E+00  0.0000000000000E+00 -0.1051253370541E+00
 0.4922061655937E-01 -0.1188262792841E+00  0.0000000000000E+00 -0.6751322796249E-01
 0.1177957314394E+00 -0.1832760747348E+00  0.0000000000000E+00 -0.4710626227717E-01
 0.1761559470169E+00 -0.2380476833048E+00  0.0000000000000E+00 -0.3183478582923E-01
 0.2263614032511E+00 -0.2851452829969E+00  0.0000000000000E+00 -0.2037648479664E-01
 0.2699803821296E+00 -0.3260946166479E+00  0.0000000000000E+00 -0.1183709277410E-01
 0.3082315407476E+00 -0.3620826870544E+00  0.0000000000000E+00 -0.5621795105049E-02
 0.3420842622181E+00 -0.3940562098338E+00  0.0000000000000E+00 -0.1339311795672E-02
 0.3723280112055E+00 -0.4227896329953E+00  0.0000000000000E+00  0.1265572133644E-02
 0.3996205455742E+00 -0.4489324732372E+00  0.0000000000000E+00  0.2358513969552E-02
 0.4245216252992E+00 -0.4730425720704E+00  0.0000000000000E+00  0.2048563624716E-02
 0.4475147527685E+00 -0.4956078067065E+00  0.0000000000000E+00  0.4139196903914E-03
 0.4690175122218E+00 -0.5170567427804E+00  0.0000000000000E+00 -0.2478916409691E-02
 0.4893826770182E+00 -0.5377602489469E+00  0.0000000000000E+00 -0.6564175519494E-02
 0.5088887354696E+00 -0.5580229186477E+00  0.0000000000000E+00 -0.1176017144998E-01
 0.5277202790170E+00 -0.5780649526285E+00  0.0000000000000E+00 -0.1796132000209E-01
 0.5459442282439E+00 -0.5980002613335E+00  0.0000000000000E+00 -0.2503872585540E-01
 0.5634797421858E+00 -0.6178085558888E+00  0.0000000000000E+00 -0.3283041709789E-01
 0.5800561484803E+00 -0.6372957972912E+00  0.0000000000000E+00 -0.4112613085243E-01
 0.5951541877368E+00 -0.6560382874259E+00  0.0000000000000E+00 -0.4964570025354E-01
 0.6079272899878E+00 -0.6733070716375E+00  0.0000000000000E+00 -0.5802109444404E-01
 0.4829699541729E-01 -0.1181829559367E+00  0.0000000000000E+00 -0.3799296261373E-01
 0.1175622716028E+00 -0.1832867069545E+00  0.0000000000000E+00 -0.2294587190409E-01
 0.1764081827658E+00 -0.2385174658131E+00  0.0000000000000E+00 -0.1150796486728E-01
 0.2269687206189E+00 -0.2859512016041E+00  0.0000000000000E+00 -0.2737983799604E-02
 0.2708631477980E+00 -0.3271630666795E+00  0.0000000000000E+00  0.3998736963190E-02
 0.3093446384690E+00 -0.3633734306242E+00  0.0000000000000E+00  0.9123603400514E-02
 0.3434055806313E+00 -0.3955512148399E+00  0.0000000000000E+00  0.1291428592389E-01
 0.3738507284631E+00 -0.4244856402124E+00  0.0000000000000E+00  0.1555364111346E-01
 0.4013480489631E+00 -0.4508361374115E+00  0.0000000000000E+00  0.1716346845746E-01
 0.4264639860429E+00 -0.4751671122147E+00  0.0000000000000E+00  0.1782852842639E-01
 0.4496860401009E+00 -0.4979704738252E+00  0.0000000000000E+00  0.1761532459039E-01
 0.4714336356872E+00 -0.5196768255857E+00  0.0000000000000E+00  0.1658587117495E-01
 0.4920592013442E+00 -0.5406571024125E+00  0.0000000000000E+00  0.1480515320917E-01
 0.5118390754290E+00 -0.5612143944571E+00  0.0000000000000E+00  0.1235165422022E-01
 0.5309547197774E+00 -0.5815666098966E+00  0.0000000000000E+00  0.9321247315484E-02
 0.5494685393247E+00 -0.6018241225422E+00  0.0000000000000E+00  0.5824535119817E-02
 0.5672923730006E+00 -0.6219603952888E+00  0.0000000000000E+00  0.1990251642285E-02
 0.5841437720746E+00 -0.6417707080141E+00  0.0000000000000E+00 -0.2029006308344E-02
 0.5994862213894E+00 -0.6608151184519E+00  0.0000000000000E+00 -0.6048617129672E-02
 0.6124511580788E+00 -0.6783434302099E+00  0.0000000000000E+00 -0.9848456955440E-02
 0.4767090895126E-01 -0.1177400963255E+00  0.0000000000000E+00 -0.8290710988344E-02
 0.1173749112527E+00 -0.1832598589547E+00  0.0000000000000E+00  0.1316583131128E-02
 0.1765249992484E+00 -0.2387782333037E+00  0.0000000000000E+00  0.8880425906508E-02
 0.2273039491090E+00 -0.2864186193535E+00  0.0000000000000E+00  0.1494755265803E-01
 0.2713643401238E+00 -0.3277884537105E+00  0.0000000000000E+00  0.1988381827703E-01
 0.3099815277102E+00 -0.3641295304405E+00  0.0000000000000E+00  0.2393108148480E-01
 0.3441622899156E+00 -0.3964246327499E+00  0.0000000000000E+00  0.2724963023300E-01
 0.3747205433227E+00 -0.4254717965671E+00  0.0000000000000E+00  0.2994795346133E-01
 0.4023299612687E+00 -0.4519359490750E+00  0.0000000000000E+00  0.3210319281289E-01
 0.4275602698326E+00 -0.4763846722250E+00  0.0000000000000E+00  0.3377570909744E-01
 0.4509003710587E+00 -0.4993112571744E+00  0.0000000000000E+00  0.3502048026243E-01
 0.4727695518685E+00 -0.5211462398949E+00  0.0000000000000E+00  0.3589513094258E-01
 0.4935185720813E+00 -0.5422590756409E+00  0.0000000000000E+00  0.3646346047303E-01
 0.5134208918396E+00 -0.5629502909021E+00  0.0000000000000E+00  0.3680031981000E-01
 0.5326545564621E+00 -0.5834347757667E+00  0.0000000000000E+00  0.3699133099843E-01
 0.5512779249686E+00 -0.6038192949932E+00  0.0000000000000E+00  0.3712721357749E-01
 0.5691974587025E+00 -0.6240723653160E+00  0.0000000000000E+00  0.3730041741840E-01
 0.5861232448072E+00 -0.6439821762137E+00  0.0000000000000E+00  0.3760116754180E-01
 0.6015089642085E+00 -0.6630992317824E+00  0.0000000000000E+00  0.3811266412387E-01
 0.6144748057698E+00 -0.6806621185088E+00  0.0000000000000E+00  0.3890107126307E-01
 0.4734505924068E-01 -0.1174994922698E+00  0.0000000000000E+00  0.2150043651638E-01
 0.1172321044561E+00 -0.1831933067757E+00  0.0000000000000E+00  0.2562163564895E-01
 0.1765023180143E+00 -0.2388253982297E+00  0.0000000000000E+00  0.2928784007614E-01
 0.2273615551577E+00 -0.2865416124436E+00  0.0000000000000E+00  0.3264313490288E-01
 0.2714776184148E+00 -0.3279641252723E+00  0.0000000000000E+00  0.3577897675873E-01
 0.3101354022343E+00 -0.3643439135404E+00  0.0000000000000E+00  0.3875391704335E-01
 0.3443472325172E+00 -0.3966690556711E+00  0.0000000000000E+00  0.4160850797602E-01
 0.3749298962854E+00 -0.4257402825308E+00  0.0000000000000E+00  0.4437555718876E-01
 0.4025581610360E+00 -0.4522234914409E+00  0.0000000000000E+00  0.4708692773987E-01
 0.4278015718312E+00 -0.4766859895634E+00  0.0000000000000E+00  0.4977832617952E-01
 0.4511478180184E+00 -0.4996197788015E+00  0.0000000000000E+00  0.5249306394360E-01
 0.4730140991112E+00 -0.5214532459002E+00  0.0000000000000E+00  0.5528413955130E-01
 0.4937482209456E+00 -0.5425528547833E+00  0.0000000000000E+00  0.5821359083045E-01
 0.5136201006740E+00 -0.5632155691941E+00  0.0000000000000E+00  0.6135206992316E-01
 0.5328042443365E+00 -0.5836526993635E+00  0.0000000000000E+00  0.6477439302256E-01
 0.5513557129103E+00 -0.6039676099609E+00  0.0000000000000E+00  0.6855033543615E-01
 0.5691778898344E+00 -0.6241255400457E+00  0.0000000000000E+00  0.7273436619429E-01
 0.5859780673587E+00 -0.6439115525437E+00  0.0000000000000E+00  0.7735204751547E-01
 0.6012078445089E+00 -0.6628735780729E+00  0.0000000000000E+00  0.8238275666240E-01
 0.6139870959807E+00 -0.6802492208330E+00  0.0000000000000E+00  0.8773688279203E-01
 0.4732075775765E-01 -0.1174621292787E+00  0.0000000000000E+00  0.5128659110216E-01
 0.1171333321769E+00 -0.1830863029050E+00  0.0000000000000E+00  0.4990956427434E-01
 0.1763386253974E+00 -0.2386572890391E+00  0.0000000000000E+00  0.4967175326928E-01
 0.2271395689414E+00 -0.2863181024341E+00  0.0000000000000E+00  0.5031190804794E-01
 0.2712008966174E+00 -0.3276879187955E+00  0.0000000000000E+00  0.5164517787824E-01
 0.3098042601346E+00 -0.3640145195954E+00  0.0000000000000E+00  0.5354545097578E-01
 0.3439585908269E+00 -0.3962826140441E+00  0.0000000000000E+00  0.5593262546557E-01
 0.3744771878088E+00 -0.4252894430685E+00  0.0000000000000E+00  0.5876322299708E-01
 0.4020312663997E+00 -0.4516973144362E+00  0.0000000000000E+00  0.6202340018989E-01
 0.4271867217823E+00 -0.4760698040954E+00  0.0000000000000E+00  0.6572382286091E-01
 0.4504274355117E+00 -0.4988949725097E+00  0.0000000000000E+00  0.6989569987591E-01
 0.4721666130812E+00 -0.5205970179836E+00  0.0000000000000E+00  0.7458685516908E-01
 0.4927478624629E+00 -0.5415379435270E+00  0.0000000000000E+00  0.7985682866683E-01
 0.5124369354037E+00 -0.5620101963811E+00  0.0000000000000E+00  0.8577142110034E-01
 0.5314047559778E+00 -0.5822210299674E+00  0.0000000000000E+00  0.9239417159614E-01
 0.5497039474141E+00 -0.6022707372798E+00  0.0000000000000E+00  0.9977347472043E-01
 0.5672372226808E+00 -0.6221230653913E+00  0.0000000000000E+00  0.1079255347023E+00
 0.5837137886721E+00 -0.6415639663211E+00  0.0000000000000E+00  0.1168113540014E+00
 0.5985907906516E+00 -0.6601456919834E+00  0.0000000000000E+00  0.1263074538181E+00
 0.6109985211395E+00 -0.6771148866615E+00  0.0000000000000E+00  0.1361708476618E+00
 0.4759790370643E-01 -0.1176281663783E+00  0.0000000000000E+00  0.8097381232559E-01
 0.1170790979993E+00 -0.1829395729660E+00  0.0000000000000E+00  0.7412075779800E-01
 0.1760349769455E+00 -0.2382751552940E+00  0.0000000000000E+00  0.6998985684138E-01
 0.2266395935848E+00 -0.2857498660701E+00  0.0000000000000E+00  0.6791730727049E-01
 0.2705363563473E+00 -0.3269621753335E+00  0.0000000000000E+00  0.6744373518305E-01
 0.3089909208384E+00 -0.3631443187955E+00  0.0000000000000E+00  0.6825942172528E-01
 0.3429999080732E+00 -0.3952689986897E+00  0.0000000000000E+00  0.7016413552329E-01
 0.3733668022559E+00 -0.4241238131014E+00  0.0000000000000E+00  0.7303822770756E-01
 0.4007546605868E+00 -0.4503629621894E+00  0.0000000000000E+00  0.7682192743834E-01
 0.4257223088898E+00 -0.4745428855883E+00  0.0000000000000E+00  0.8150035598714E-01
 0.4487472813531E+00 -0.4971451084413E+00  0.0000000000000E+00  0.8709190361635E-01
 0.4702369402201E+00 -0.5185876625713E+00  0.0000000000000E+00  0.9363837457489E-01
 0.4905294920595E+00 -0.5392266664385E+00  0.0000000000000E+00  0.1011959169126E+00
 0.5098859156739E+00 -0.5593491197156E+00  0.0000000000000E+00  0.1098247524748E+00
 0.5284735032828E+00 -0.5791577442357E+00  0.0000000000000E+00  0.1195767756674E+00
 0.5463432509907E+00 -0.5987500502713E+00  0.0000000000000E+00  0.1304791816669E+00
 0.5633994802369E+00 -0.6180899599800E+00  0.0000000000000E+00  0.1425109839095E+00
 0.5793577714103E+00 -0.6369680853965E+00  0.0000000000000E+00  0.1555709932352E+00
 0.5936880183401E+00 -0.6549474718191E+00  0.0000000000000E+00  0.1694369626558E+00
 0.6055410256615E+00 -0.6712931688631E+00  0.0000000000000E+00  0.1837188249511E+00
 0.4817498157310E-01 -0.1179969307826E+00  0.0000000000000E+00  0.1104688541274E+00
 0.1170709138547E+00 -0.1827552994191E+00  0.0000000000000E+00  0.9819607849279E-01
 0.1755949756034E+00 -0.2376831443991E+00  0.0000000000000E+00  0.9020025050387E-01
 0.2258667773455E+00 -0.2848425063896E+00  0.0000000000000E+00  0.8542321228221E-01
 0.2694904131079E+00 -0.3257937049378E+00  0.0000000000000E+00  0.8313651789750E-01
 0.3077029841638E+00 -0.3617412701694E+00  0.0000000000000E+00  0.8285029875570E-01
 0.3414800377101E+00 -0.3936374094394E+00  0.0000000000000E+00  0.8424616193057E-01
 0.3716090438298E+00 -0.4222540525120E+00  0.0000000000000E+00  0.8712913246966E-01
 0.3987404095912E+00 -0.4482328894150E+00  0.0000000000000E+00  0.9139351237497E-01
 0.4234225757125E+00 -0.4721199257093E+00  0.0000000000000E+00  0.9699827375252E-01
 0.4461242809683E+00 -0.4943876545704E+00  0.0000000000000E+00  0.1039480071654E+00
 0.4672452675264E+00 -0.5154460436462E+00  0.0000000000000E+00  0.1122773633769E+00
 0.4871171772438E+00 -0.5356439537555E+00  0.0000000000000E+00  0.1220380374156E+00
 0.5059955978084E+00 -0.5552620077837E+00  0.0000000000000E+00  0.1332838429412E+00
 0.5240440516078E+00 -0.5744978469446E+00  0.0000000000000E+00  0.1460547121942E+00
 0.5413125187583E+00 -0.5934463018765E+00  0.0000000000000E+00  0.1603573402782E+00
 0.5577088632386E+00 -0.6120728023233E+00  0.0000000000000E+00  0.1761358240503E+00
 0.5729589765760E+00 -0.6301758742785E+00  0.0000000000000E+00  0.1932311937404E+00
 0.5865519755648E+00 -0.6473350898902E+00  0.0000000000000E+00  0.2113294001155E+00
 0.5976681188356E+00 -0.6628421400170E+00  0.0000000000000E+00  0.2299032777125E+00
 0.4904907788978E-01 -0.1185669273886E+00  0.0000000000000E+00  0.1396799022729E+00
 0.1171112759405E+00 -0.1825370924625E+00  0.0000000000000E+00  0.1220772217149E+00
 0.1750247239865E+00 -0.2368882502627E+00  0.0000000000000E+00  0.1102616317931E+00
 0.2248297492189E+00 -0.2836053855352E+00  0.0000000000000E+00  0.1027940967252E+00
 0.2680736363149E+00 -0.3241937042792E+00  0.0000000000000E+00  0.9868614997430E-01
 0.3059527323209E+00 -0.3598182212207E+00  0.0000000000000E+00  0.9727360259942E-01
 0.3394130225485E+00 -0.3914024315976E+00  0.0000000000000E+00  0.9812330402147E-01
 0.3692199861459E+00 -0.4196967923576E+00  0.0000000000000E+00  0.1009665329808E+00
 0.3960070741068E+00 -0.4453262688057E+00  0.0000000000000E+00  0.1056519009300E+00
 0.4203091836437E+00 -0.4688232971356E+00  0.0000000000000E+00  0.1121115440256E+00
 0.4425839380378E+00 -0.4906489783037E+00  0.0000000000000E+00  0.1203350221321E+00
 0.4632217723791E+00 -0.5112034197960E+00  0.0000000000000E+00  0.1303484119477E+00
 0.4825466459488E+00 -0.5308269119846E+00  0.0000000000000E+00  0.1421977071683E+00
 0.5008081105356E+00 -0.5497927622175E+00  0.0000000000000E+00  0.1559293212665E+00
 0.5181656264348E+00 -0.5682928463075E+00  0.0000000000000E+00  0.1715708378482E+00
 0.5346684399101E+00 -0.5864191067966E+00  0.0000000000000E+00  0.1891094857982E+00
 0.5502293540191E+00 -0.6041392884974E+00  0.0000000000000E+00  0.2084576672804E+00
 0.5645877469918E+00 -0.6212623243123E+00  0.0000000000000E+00  0.2294047651841E+00
 0.5772574041226E+00 -0.6373890088486E+00  0.0000000000000E+00  0.2515543542246E+00
 0.5874555396501E+00 -0.6518444208506E+00  0.0000000000000E+00  0.2742549221616E+00
 0.5021591688537E-01 -0.1193358629222E+00  0.0000000000000E+00  0.1685172921752E+00
 0.1172036314435E+00 -0.1822899488394E+00  0.0000000000000E+00  0.1457070665299E+00
 0.1743327519149E+00 -0.2359002351182E+00  0.0000000000000E+00  0.1301334781465E+00
 0.2235405195200E+00 -0.2820515208684E+00  0.0000000000000E+00  0.1199951665345E+00
 0.2663006250440E+00 -0.3221776284703E+00  0.0000000000000E+00  0.1140561913472E+00
 0.3037569772196E+00 -0.3573927512810E+00  0.0000000000000E+00  0.1114861981334E+00
 0.3368179065770E+00 -0.3885838432405E+00  0.0000000000000E+00  0.1117421034341E+00
 0.3662212391165E+00 -0.4164743960571E+00  0.0000000000000E+00  0.1144837584279E+00
 0.3925794202223E+00 -0.4416686940844E+00  0.0000000000000E+00  0.1195145721737E+00
 0.4164108552765E+00 -0.4646826853084E+00  0.0000000000000E+00  0.1267390969525E+00
 0.4381598972616E+00 -0.4859638943369E+00  0.0000000000000E+00  0.1361303977755E+00
 0.4582060979889E+00 -0.5059008988626E+00  0.0000000000000E+00  0.1477042688725E+00
 0.4768646760052E+00 -0.5248241848977E+00  0.0000000000000E+00  0.1614995425776E+00
 0.4943784760177E+00 -0.5429988008330E+00  0.0000000000000E+00  0.1775539909665E+00
 0.5109024058551E+00 -0.5606099978249E+00  0.0000000000000E+00  0.1958822180032E+00
 0.5264848287879E+00 -0.5777462130160E+00  0.0000000000000E+00  0.2164530974635E+00
 0.5410441851491E+00 -0.5943776308216E+00  0.0000000000000E+00  0.2391511658483E+00
 0.5543355473328E+00 -0.6103251174506E+00  0.0000000000000E+00  0.2637215959253E+00
 0.5659015812477E+00 -0.6252141260877E+00  0.0000000000000E+00  0.2896968877069E+00
 0.5750023803265E+00 -0.6384082233770E+00  0.0000000000000E+00  0.3163158472441E+00
 0.5166991441855E-01 -0.1203006844127E+00  0.0000000000000E+00  0.1968941998493E+00
 0.1173523370646E+00 -0.1820201997196E+00  0.0000000000000E+00  0.1690300151426E+00
 0.1735299211222E+00 -0.2347315265445E+00  0.0000000000000E+00  0.1497762199141E+00
 0.2220143479644E+00 -0.2801974470006E+00  0.0000000000000E+00  0.1369924835654E+00
 0.2641898425307E+00 -0.3197650201926E+00  0.0000000000000E+00  0.1292112942954E+00
 0.3011368566852E+00 -0.3544869622617E+00  0.0000000000000E+00  0.1254465499983E+00
 0.3337184838456E+00 -0.3852063578256E+00  0.0000000000000E+00  0.1250514575453E+00
 0.3626396385481E+00 -0.4126146411090E+00  0.0000000000000E+00  0.1276174987156E+00
 0.3884880354841E+00 -0.4372917855693E+00  0.0000000000000E+00  0.1329036348089E+00
 0.4117629013873E+00 -0.4597346009458E+00  0.0000000000000E+00  0.1407860487967E+00
 0.4328933675361E+00 -0.4803750676195E+00  0.0000000000000E+00  0.1512196337353E+00
 0.4522466619232E+00 -0.4995887184003E+00  0.0000000000000E+00  0.1642079054678E+00
 0.4701282899325E+00 -0.5176951100689E+00  0.0000000000000E+00  0.1797808432097E+00
 0.4867737138462E+00 -0.5349501108625E+00  0.0000000000000E+00  0.1979659870311E+00
 0.5023325860012E+00 -0.5515313047888E+00  0.0000000000000E+00  0.2187638658724E+00
 0.5168517390977E+00 -0.5675225364685E+00  0.0000000000000E+00  0.2421258663287E+00
 0.5302551280394E+00 -0.5828957541556E+00  0.0000000000000E+00  0.2679126745030E+00
 0.5423146058548E+00 -0.5974841633546E+00  0.0000000000000E+00  0.2958334855197E+00
 0.5526045843571E+00 -0.6109399294998E+00  0.0000000000000E+00  0.3253622698591E+00
 0.5604324124307E+00 -0.6226685684728E+00  0.0000000000000E+00  0.3556437491462E+00
 0.5340424957318E-01 -0.1214576315960E+00  0.0000000000000E+00  0.2247272997620E+00
 0.1175626107647E+00 -0.1817354492204E+00  0.0000000000000E+00  0.1919923195599E+00
 0.1726293098133E+00 -0.2333970924506E+00  0.0000000000000E+00  0.1691514032459E+00
 0.2202695827133E+00 -0.2780630472662E+00  0.0000000000000E+00  0.1537530714359E+00
 0.2617634134797E+00 -0.3169793002407E+00  0.0000000000000E+00  0.1441173286175E+00
 0.2981175842769E+00 -0.3511272215550E+00  0.0000000000000E+00  0.1391149301427E+00
 0.3301429900069E+00 -0.3812993077959E+00  0.0000000000000E+00  0.1380029656558E+00
 0.3585068653418E+00 -0.4081503283889E+00  0.0000000000000E+00  0.1403083416634E+00
 0.3837688588229E+00 -0.4322327070372E+00  0.0000000000000E+00  0.1457466063650E+00
 0.4064066425967E+00 -0.4540217838530E+00  0.0000000000000E+00  0.1541647766209E+00
 0.4268324164416E+00 -0.4739322830416E+00  0.0000000000000E+00  0.1654977091563E+00
 0.4453998075215E+00 -0.4923253627482E+00  0.0000000000000E+00  0.1797343646652E+00
 0.4624037605406E+00 -0.5095086776691E+00  0.0000000000000E+00  0.1968939422140E+00
 0.4780717247922E+00 -0.5257280704259E+00  0.0000000000000E+00  0.2169917115186E+00
 0.4925472026596E+00 -0.5411522597594E+00  0.0000000000000E+00  0.2400123176985E+00
 0.5058743258965E+00 -0.5558589244513E+00  0.0000000000000E+00  0.2658899158383E+00
 0.5179815452251E+00 -0.5698202327672E+00  0.0000000000000E+00  0.2944650521666E+00
 0.5286573617404E+00 -0.5828809203422E+00  0.0000000000000E+00  0.3254194023863E+00
 0.5375094264823E+00 -0.5947205022673E+00  0.0000000000000E+00  0.3581815560482E+00
 0.5438954720763E+00 -0.6047885265406E+00  0.0000000000000E+00  0.3918177353933E+00
 0.5541095284362E-01 -0.1228023024714E+00  0.0000000000000E+00  0.2519373778190E+00
 0.1178404784599E+00 -0.1814445055513E+00  0.0000000000000E+00  0.2145423894724E+00
 0.1716460806046E+00 -0.2319142977002E+00  0.0000000000000E+00  0.1882218382969E+00
 0.2183274750771E+00 -0.2756713594662E+00  0.0000000000000E+00  0.1702449978769E+00
 0.2590468896738E+00 -0.3138475250765E+00  0.0000000000000E+00  0.1587414672513E+00
 0.2947281589256E+00 -0.3473438634017E+00  0.0000000000000E+00  0.1524535661372E+00
 0.3261237437646E+00 -0.3768962765486E+00  0.0000000000000E+00  0.1505511935580E+00
 0.3538590031259E+00 -0.4031188280577E+00  0.0000000000000E+00  0.1525012024480E+00
 0.3784626352866E+00 -0.4265336051816E+00  0.0000000000000E+00  0.1579770528593E+00
 0.4003887388727E+00 -0.4475925117897E+00  0.0000000000000E+00  0.1667958151386E+00
 0.4200311507108E+00 -0.4666915974100E+00  0.0000000000000E+00  0.1788702907781E+00
 0.4377288121278E+00 -0.4841765318745E+00  0.0000000000000E+00  0.1941723457785E+00
 0.4537654366159E+00 -0.5003423023616E+00  0.0000000000000E+00  0.2127082639512E+00
 0.4683599536122E+00 -0.5154240393062E+00  0.0000000000000E+00  0.2344784808834E+00
 0.4816486916920E+00 -0.5295803113416E+00  0.0000000000000E+00  0.2594489766001E+00
 0.4936714150061E+00 -0.5428806082500E+00  0.0000000000000E+00  0.2875359211084E+00
 0.5043591349943E+00 -0.5552948977104E+00  0.0000000000000E+00  0.3185625824463E+00
 0.5135156077897E+00 -0.5666773876873E+00  0.0000000000000E+00  0.3521911831174E+00
 0.5207819080342E+00 -0.5767342226795E+00  0.0000000000000E+00  0.3878180471183E+00
 0.5255686496284E+00 -0.5849602497785E+00  0.0000000000000E+00  0.4244456618611E+00
 0.5768100965059E-01 -0.1243297318352E+00  0.0000000000000E+00  0.2784499093494E+00
 0.1181927173152E+00 -0.1811573068056E+00  0.0000000000000E+00  0.2366310930055E+00
 0.1705973349763E+00 -0.2303027459760E+00  0.0000000000000E+00  0.2069517423511E+00
 0.2162119740387E+00 -0.2730483603957E+00  0.0000000000000E+00  0.1864374386373E+00
 0.2560689885882E+00 -0.3104001164194E+00  0.0000000000000E+00  0.1730522324845E+00
 0.2910010396024E+00 -0.3431708542074E+00  0.0000000000000E+00  0.1654267260940E+00
 0.3216967443616E+00 -0.3720346851658E+00  0.0000000000000E+00  0.1626538489554E+00
 0.3487360422256E+00 -0.3975615702987E+00  0.0000000000000E+00  0.1641456347408E+00
 0.3726143061709E+00 -0.4202409827275E+00  0.0000000000000E+00  0.1695350743984E+00
 0.3937604406689E+00 -0.4404998289256E+00  0.0000000000000E+00  0.1786085547787E+00
 0.4125487992059E+00 -0.4587143913405E+00  0.0000000000000E+00  0.1912546889695E+00
 0.4293027690488E+00 -0.4752139803975E+00  0.0000000000000E+00  0.2074254796932E+00
 0.4442944017653E+00 -0.4902804232866E+00  0.0000000000000E+00  0.2271120265141E+00
 0.4577338342316E+00 -0.5041377246775E+00  0.0000000000000E+00  0.2502968058405E+00
 0.4697491734870E+00 -0.5169330439329E+00  0.0000000000000E+00  0.2769231317676E+00
 0.4803737366853E+00 -0.5287253037066E+00  0.0000000000000E+00  0.3068870321936E+00
 0.4895382887810E+00 -0.5394790346806E+00  0.0000000000000E+00  0.3399959377838E+00
 0.4970592045099E+00 -0.5490546451216E+00  0.0000000000000E+00  0.3758996352679E+00
 0.5026099992439E+00 -0.5571829720889E+00  0.0000000000000E+00  0.4139746956892E+00
 0.5056569632333E+00 -0.5634054962908E+00  0.0000000000000E+00  0.4531734383188E+00
 0.6020448009913E-01 -0.1260344812113E+00  0.0000000000000E+00  0.3041955785464E+00
 0.1186267986768E+00 -0.1808848436237E+00  0.0000000000000E+00  0.2582120353239E+00
 0.1695019605694E+00 -0.2285841121749E+00  0.0000000000000E+00  0.2253068677110E+00
 0.2139495085760E+00 -0.2702227363192E+00  0.0000000000000E+00  0.2023007142616E+00
 0.2528613137137E+00 -0.3066705708155E+00  0.0000000000000E+00  0.1870194931447E+00
 0.2869717939043E+00 -0.3386454299962E+00  0.0000000000000E+00  0.1780007296010E+00
 0.3169012344680E+00 -0.3667553426295E+00  0.0000000000000E+00  0.1742718570475E+00
 0.3431813407768E+00 -0.3915234911746E+00  0.0000000000000E+00  0.1751960133172E+00
 0.3662723481102E+00 -0.4134050184638E+00  0.0000000000000E+00  0.1803676260470E+00
 0.3865767790116E+00 -0.4328007112639E+00  0.0000000000000E+00  0.1895417268034E+00
 0.4044487193720E+00 -0.4500663425867E+00  0.0000000000000E+00  0.2025805388722E+00
 0.4201953652512E+00 -0.4655142498567E+00  0.0000000000000E+00  0.2194132562020E+00
 0.4340769847993E+00 -0.4794129519785E+00  0.0000000000000E+00  0.2400135314179E+00
 0.4462950261108E+00 -0.4919753325591E+00  0.0000000000000E+00  0.2643422241593E+00
 0.4569684511520E+00 -0.5033360627408E+00  0.0000000000000E+00  0.2923145474919E+00
 0.4661217789800E+00 -0.5135409175312E+00  0.0000000000000E+00  0.3238024728677E+00
 0.4736819661901E+00 -0.5225450765075E+00  0.0000000000000E+00  0.3585970649288E+00
 0.4794742135729E+00 -0.5302107817475E+00  0.0000000000000E+00  0.3963409730037E+00
 0.4832024914664E+00 -0.5362905978150E+00  0.0000000000000E+00  0.4364024403142E+00
 0.4843930049654E+00 -0.5403751309153E+00  0.0000000000000E+00  0.4776964420229E+00
 0.6297062729108E-01 -0.1279107378408E+00  0.0000000000000E+00  0.3291107347675E+00
 0.1191508305494E+00 -0.1806390809906E+00  0.0000000000000E+00  0.2792418182966E+00
 0.1683804745446E+00 -0.2267819711247E+00  0.0000000000000E+00  0.2432546162669E+00
 0.2115687638059E+00 -0.2672256475995E+00  0.0000000000000E+00  0.2178062964144E+00
 0.2494580637312E+00 -0.3026951582352E+00  0.0000000000000E+00  0.2006144037193E+00
 0.2826787280556E+00 -0.3338077151092E+00  0.0000000000000E+00  0.1901438717456E+00
 0.3117792366339E+00 -0.3611019690797E+00  0.0000000000000E+00  0.1853693219721E+00
 0.3372410531478E+00 -0.3850524450315E+00  0.0000000000000E+00  0.1856115741114E+00
 0.3594880752640E+00 -0.4060788495828E+00  0.0000000000000E+00  0.1904286599509E+00
 0.3788957147129E+00 -0.4245551906944E+00  0.0000000000000E+00  0.1995436580558E+00
 0.3957973544435E+00 -0.4408163500782E+00  0.0000000000000E+00  0.2127901781891E+00
 0.4104835867292E+00 -0.4551573288255E+00  0.0000000000000E+00  0.2300715525636E+00
 0.4232031528256E+00 -0.4678336024812E+00  0.0000000000000E+00  0.2513419599894E+00
 0.4341494672889E+00 -0.4790475336487E+00  0.0000000000000E+00  0.2765365744991E+00
 0.4434317356900E+00 -0.4889206018320E+00  0.0000000000000E+00  0.3055354664747E+00
 0.4510632444078E+00 -0.4974828491485E+00  0.0000000000000E+00  0.3381805943238E+00
 0.4569630084308E+00 -0.5046757158797E+00  0.0000000000000E+00  0.3742437138429E+00
 0.4609602830048E+00 -0.5103580398560E+00  0.0000000000000E+00  0.4133633472993E+00
 0.4627866734484E+00 -0.5143003678732E+00  0.0000000000000E+00  0.4549092862734E+00
 0.4620350640214E+00 -0.5161471557241E+00  0.0000000000000E+00  0.4977724626532E+00
 0.6596805675406E-01 -0.1299524207120E+00  0.0000000000000E+00  0.3531377977702E+00
 0.1197735027038E+00 -0.1804328805571E+00  0.0000000000000E+00  0.2996802952662E+00
 0.1672548707127E+00 -0.2249216286608E+00  0.0000000000000E+00  0.2607641549320E+00
 0.2091004608385E+00 -0.2640904961684E+00  0.0000000000000E+00  0.2329267918308E+00
 0.2458957405019E+00 -0.2985126185373E+00  0.0000000000000E+00  0.2138092865366E+00
 0.2781625072161E+00 -0.3287003299381E+00  0.0000000000000E+00  0.2018262577851E+00
 0.3063750716686E+00 -0.3551206994827E+00  0.0000000000000E+00  0.1959133720621E+00
 0.3309635352025E+00 -0.3781985921137E+00  0.0000000000000E+00  0.1953563129082E+00
 0.3523149178513E+00 -0.3983178288615E+00  0.0000000000000E+00  0.1996790944592E+00
 0.3707772671506E+00 -0.4158254576734E+00  0.0000000000000E+00  0.2085723040174E+00
 0.3866631722944E+00 -0.4310354399571E+00  0.0000000000000E+00  0.2218387244725E+00
 0.4002463911971E+00 -0.4442252821318E+00  0.0000000000000E+00  0.2393527424837E+00
 0.4117648280103E+00 -0.4556381471446E+00  0.0000000000000E+00  0.2610476191854E+00
 0.4214052793490E+00 -0.4654672809407E+00  0.0000000000000E+00  0.2868286207977E+00
 0.4292671292350E+00 -0.4738208873659E+00  0.0000000000000E+00  0.3165319055978E+00
 0.4353501308804E+00 -0.4807109168937E+00  0.0000000000000E+00  0.3499611735068E+00
 0.4395608501356E+00 -0.4860604096265E+00  0.0000000000000E+00  0.3868632369593E+00
 0.4417270899454E+00 -0.4897189824158E+00  0.0000000000000E+00  0.4268730126639E+00
 0.4416046500350E+00 -0.4914709908796E+00  0.0000000000000E+00  0.4693700376900E+00
 0.4388629900775E+00 -0.4910225311744E+00  0.0000000000000E+00  0.5132371237230E+00
 0.6918486006976E-01 -0.1321532882139E+00  0.0000000000000E+00  0.3762255961749E+00
 0.1205040338672E+00 -0.1802799234242E+00  0.0000000000000E+00  0.3194908240701E+00
 0.1661484774041E+00 -0.2230299634037E+00  0.0000000000000E+00  0.2778065369565E+00
 0.2065771518248E+00 -0.2608527086236E+00  0.0000000000000E+00  0.2476359010706E+00
 0.2422128670094E+00 -0.2941638678046E+00  0.0000000000000E+00  0.2265774460324E+00
 0.2734657748803E+00 -0.3233679969457E+00  0.0000000000000E+00  0.2130195356876E+00
 0.3007348661994E+00 -0.3488595752670E+00  0.0000000000000E+00  0.2058738797371E+00
 0.3243987339048E+00 -0.3710137692850E+00  0.0000000000000E+00  0.2043987392918E+00
 0.3448076869863E+00 -0.3901787667725E+00  0.0000000000000E+00  0.2080866150010E+00
 0.3622826393259E+00 -0.4066749592406E+00  0.0000000000000E+00  0.2165950752724E+00
 0.3771156164373E+00 -0.4207956843827E+00  0.0000000000000E+00  0.2296938710525E+00
 0.3895633938677E+00 -0.4328008974034E+00  0.0000000000000E+00  0.2472253804213E+00
 0.3998541782033E+00 -0.4429226525075E+00  0.0000000000000E+00  0.2691015779482E+00
 0.4081705630901E+00 -0.4513475215612E+00  0.0000000000000E+00  0.2951939169824E+00
 0.4146028925497E+00 -0.4581712817808E+00  0.0000000000000E+00  0.3252841223867E+00
 0.4191354899206E+00 -0.4633859564676E+00  0.0000000000000E+00  0.3591268183216E+00
 0.4216576856248E+00 -0.4668913620749E+00  0.0000000000000E+00  0.3964352181789E+00
 0.4219896976168E+00 -0.4685215638904E+00  0.0000000000000E+00  0.4368392062684E+00
 0.4199076360837E+00 -0.4680705247519E+00  0.0000000000000E+00  0.4797357546946E+00
 0.4151702771531E+00 -0.4653171036151E+00  0.0000000000000E+00  0.5240219635277E+00
 0.7260875596218E-01 -0.1345070382896E+00  0.0000000000000E+00  0.3983296560850E+00
 0.1213521194277E+00 -0.1801946313633E+00  0.0000000000000E+00  0.3386405588475E+00
 0.1650858357399E+00 -0.2211352896555E+00  0.0000000000000E+00  0.2943548648454E+00
 0.2040330444022E+00 -0.2575495501140E+00  0.0000000000000E+00  0.2619083657887E+00
 0.2384497258680E+00 -0.2896917254369E+00  0.0000000000000E+00  0.2388929111878E+00
 0.2686327760688E+00 -0.3178571489964E+00  0.0000000000000E+00  0.2236965202755E+00
 0.2949060512076E+00 -0.3423680252871E+00  0.0000000000000E+00  0.2152230559406E+00
 0.3175975630026E+00 -0.3635508453909E+00  0.0000000000000E+00  0.2127114910743E+00
 0.3370218278215E+00 -0.3817191605360E+00  0.0000000000000E+00  0.2156253175531E+00
 0.3534733450991E+00 -0.3971674967061E+00  0.0000000000000E+00  0.2235884855102E+00
 0.3672240914174E+00 -0.4101691540135E+00  0.0000000000000E+00  0.2363354516904E+00
 0.3785136170591E+00 -0.4209663995364E+00  0.0000000000000E+00  0.2536735009915E+00
 0.3875619514239E+00 -0.4297817724133E+00  0.0000000000000E+00  0.2754946517696E+00
 0.3945511380446E+00 -0.4367988626220E+00  0.0000000000000E+00  0.3016337599681E+00
 0.3995645089746E+00 -0.4421032205431E+00  0.0000000000000E+00  0.3318060743299E+00
 0.4025698851158E+00 -0.4456661007164E+00  0.0000000000000E+00  0.3657034293125E+00
 0.4034343218424E+00 -0.4473591882956E+00  0.0000000000000E+00  0.4029928715860E+00
 0.4019630641578E+00 -0.4469935042997E+00  0.0000000000000E+00  0.4432963060157E+00
 0.3979476989737E+00 -0.4443676233443E+00  0.0000000000000E+00  0.4860398769320E+00
 0.3912507938963E+00 -0.4393478089313E+00  0.0000000000000E+00  0.5301707723595E+00
 0.7622721243042E-01 -0.1370073824401E+00  0.0000000000000E+00  0.4194124369579E+00
 0.1223278736334E+00 -0.1801920807303E+00  0.0000000000000E+00  0.3571008158645E+00
 0.1640926154426E+00 -0.2192672618692E+00  0.0000000000000E+00  0.3103845207159E+00
 0.2015038817938E+00 -0.2542199998375E+00  0.0000000000000E+00  0.2757198850382E+00
 0.2346481365501E+00 -0.2851406812679E+00  0.0000000000000E+00  0.2507300585850E+00
 0.2637089932926E+00 -0.3122155495420E+00  0.0000000000000E+00  0.2338306680275E+00
 0.2889368604789E+00 -0.3356963452166E+00  0.0000000000000E+00  0.2239348954079E+00
 0.3106112790374E+00 -0.3558630777810E+00  0.0000000000000E+00  0.2202707909359E+00
 0.3290126778153E+00 -0.3729964287942E+00  0.0000000000000E+00  0.2222751730402E+00
 0.3444103538040E+00 -0.3873663401478E+00  0.0000000000000E+00  0.2295376115611E+00
 0.3570570142221E+00 -0.3992269309495E+00  0.0000000000000E+00  0.2417548231712E+00
 0.3671743843715E+00 -0.4088023156457E+00  0.0000000000000E+00  0.2586956152117E+00
 0.3749759991547E+00 -0.4163072476803E+00  0.0000000000000E+00  0.2802357396314E+00
 0.3806483762237E+00 -0.4219273703214E+00  0.0000000000000E+00  0.3061729863379E+00
 0.3842715952246E+00 -0.4257419971282E+00  0.0000000000000E+00  0.3361434712846E+00
 0.3857975269908E+00 -0.4277026983869E+00  0.0000000000000E+00  0.3697595607742E+00
 0.3850658961281E+00 -0.4276483881238E+00  0.0000000000000E+00  0.4066236743119E+00
 0.3818569502363E+00 -0.4253570606542E+00  0.0000000000000E+00  0.4463434211680E+00
 0.3759681429569E+00 -0.4206221518322E+00  0.0000000000000E+00  0.4883941969391E+00
 0.3673813118805E+00 -0.4134131658066E+00  0.0000000000000E+00  0.5318397893856E+00
 0.8002752617481E-01 -0.1396480525964E+00  0.0000000000000E+00  0.4394435215856E+00
 0.1234417566806E+00 -0.1802878905159E+00  0.0000000000000E+00  0.3748476426309E+00
 0.1631956075945E+00 -0.2174568659362E+00  0.0000000000000E+00  0.3258735600626E+00
 0.1990269253887E+00 -0.2509047340588E+00  0.0000000000000E+00  0.2890469986151E+00
 0.2308512903697E+00 -0.2805567214338E+00  0.0000000000000E+00  0.2620630725238E+00
 0.2587407902973E+00 -0.3064919108304E+00  0.0000000000000E+00  0.2433953950107E+00
 0.2828758245445E+00 -0.3288951688630E+00  0.0000000000000E+00  0.2319845157427E+00
 0.3034908634660E+00 -0.3480034735640E+00  0.0000000000000E+00  0.2270557934123E+00
 0.3208347333263E+00 -0.3640671566566E+00  0.0000000000000E+00  0.2280213421215E+00
 0.3351532393078E+00 -0.3773333434709E+00  0.0000000000000E+00  0.2344353972570E+00
 0.3466808974997E+00 -0.3880381477200E+00  0.0000000000000E+00  0.2459541610148E+00
 0.3556203747490E+00 -0.3963864738979E+00  0.0000000000000E+00  0.2623037027072E+00
 0.3621801303373E+00 -0.4025867744200E+00  0.0000000000000E+00  0.2833497983101E+00
 0.3665573660826E+00 -0.4068327390610E+00  0.0000000000000E+00  0.3088565588718E+00
 0.3688347290712E+00 -0.4092035546297E+00  0.0000000000000E+00  0.3383697085995E+00
 0.3689517800248E+00 -0.4096354952243E+00  0.0000000000000E+00  0.3714041530501E+00
 0.3667171766865E+00 -0.4079322629251E+00  0.0000000000000E+00  0.4074700302508E+00
 0.3618720055592E+00 -0.4038248261286E+00  0.0000000000000E+00  0.4461442163284E+00
 0.3541989461528E+00 -0.3970806059814E+00  0.0000000000000E+00  0.4869748528551E+00
 0.3438116640595E+00 -0.3877837626870E+00  0.0000000000000E+00  0.5292431516440E+00
 0.8399678359285E-01 -0.1424226333842E+00  0.0000000000000E+00  0.4583998796879E+00
 0.1247044610687E+00 -0.1804980774733E+00  0.0000000000000E+00  0.3918628802629E+00
 0.1624228707050E+00 -0.2157365782742E+00  0.0000000000000E+00  0.3408034361627E+00
 0.1966411220061E+00 -0.2476463378111E+00  0.0000000000000E+00  0.3018668309697E+00
 0.2271036475781E+00 -0.2759872015060E+00  0.0000000000000E+00  0.2728650512043E+00
 0.2537750280639E+00 -0.3007354831114E+00  0.0000000000000E+00  0.2523631745384E+00
 0.2767712472353E+00 -0.3220149121774E+00  0.0000000000000E+00  0.2393474040808E+00
 0.2962864325096E+00 -0.3400241911152E+00  0.0000000000000E+00  0.2330478276290E+00
 0.3125409543553E+00 -0.3549863849747E+00  0.0000000000000E+00  0.2328532660756E+00
 0.3257593339080E+00 -0.3671280713440E+00  0.0000000000000E+00  0.2382816846677E+00
 0.3361594386324E+00 -0.3766690188659E+00  0.0000000000000E+00  0.2489455970722E+00
 0.3439227484737E+00 -0.3837930733678E+00  0.0000000000000E+00  0.2645222657659E+00
 0.3492534616154E+00 -0.3887032592540E+00  0.0000000000000E+00  0.2848762532637E+00
 0.3523659528436E+00 -0.3916075896445E+00  0.0000000000000E+00  0.3097450513734E+00
 0.3533527046750E+00 -0.3925917193090E+00  0.0000000000000E+00  0.3385785189975E+00
 0.3521497165733E+00 -0.3915870767646E+00  0.0000000000000E+00  0.3707802158765E+00
 0.3485363018061E+00 -0.3883656452226E+00  0.0000000000000E+00  0.4057300562890E+00
 0.3421967595146E+00 -0.3825962849628E+00  0.0000000000000E+00  0.4429316945487E+00
 0.3328588095811E+00 -0.3739779033852E+00  0.0000000000000E+00  0.4820173717226E+00
 0.3207688087771E+00 -0.3627074579619E+00  0.0000000000000E+00  0.5226327576139E+00
 0.8812153997481E-01 -0.1453240249901E+00  0.0000000000000E+00  0.4762662205205E+00
 0.1261267135215E+00 -0.1808386991149E+00  0.0000000000000E+00  0.4081366003678E+00
 0.1618042936865E+00 -0.2141411270187E+00  0.0000000000000E+00  0.3551604276238E+00
 0.1943876337491E+00 -0.2444898292789E+00  0.0000000000000E+00  0.3141563577151E+00
 0.2234508672665E+00 -0.2714807928209E+00  0.0000000000000E+00  0.2831064907491E+00
 0.2488585551758E+00 -0.2949954258461E+00  0.0000000000000E+00  0.2607044322898E+00
 0.2706706426693E+00 -0.3151052032344E+00  0.0000000000000E+00  0.2459988491577E+00
 0.2890467242812E+00 -0.3319760116725E+00  0.0000000000000E+00  0.2382296593349E+00
 0.3041821458666E+00 -0.3458069951078E+00  0.0000000000000E+00  0.2367635754045E+00
 0.3162828895493E+00 -0.3568069294895E+00  0.0000000000000E+00  0.2410819361359E+00
 0.3255525270894E+00 -0.3651817954966E+00  0.0000000000000E+00  0.2507501577125E+00
 0.3321482220533E+00 -0.3710916409193E+00  0.0000000000000E+00  0.2653875739448E+00
 0.3362697907974E+00 -0.3747341552408E+00  0.0000000000000E+00  0.2848682503697E+00
 0.3381554536472E+00 -0.3763378407433E+00  0.0000000000000E+00  0.3089127604857E+00
 0.3379118686355E+00 -0.3759990757235E+00  0.0000000000000E+00  0.3368714454774E+00
 0.3354856855069E+00 -0.3736554208125E+00  0.0000000000000E+00  0.3680497115464E+00
 0.3306442227020E+00 -0.3690739790521E+00  0.0000000000000E+00  0.4016547380742E+00
 0.3230023239392E+00 -0.3618496476896E+00  0.0000000000000E+00  0.4370248889353E+00
 0.3121615243423E+00 -0.3515453300782E+00  0.0000000000000E+00  0.4738292544191E+00
 0.2984619411123E+00 -0.3384166054141E+00  0.0000000000000E+00  0.5122896261119E+00
 0.9238687545409E-01 -0.1483422558591E+00  0.0000000000000E+00  0.4930379369385E+00
 0.1277191622049E+00 -0.1813262098612E+00  0.0000000000000E+00  0.4236732920583E+00
 0.1613732297830E+00 -0.2127089866860E+00  0.0000000000000E+00  0.3689382907382E+00
 0.1923111170528E+00 -0.2414845513257E+00  0.0000000000000E+00  0.3258901579610E+00
 0.2199394857060E+00 -0.2670866748399E+00  0.0000000000000E+00  0.2927519745331E+00
 0.2440372990007E+00 -0.2893199337631E+00  0.0000000000000E+00  0.2683868782950E+00
 0.2646201934654E+00 -0.3082142611415E+00  0.0000000000000E+00  0.2519136945781E+00
 0.2818187377268E+00 -0.3239080456102E+00  0.0000000000000E+00  0.2425848033263E+00
 0.2958064986282E+00 -0.3365792278944E+00  0.0000000000000E+00  0.2397466486679E+00
 0.3067742882172E+00 -0.3464223961874E+00  0.0000000000000E+00  0.2428454023750E+00
 0.3149151618510E+00 -0.3536336080261E+00  0.0000000000000E+00  0.2513961187680E+00
 0.3203578486201E+00 -0.3583457231822E+00  0.0000000000000E+00  0.2649467041269E+00
 0.3232968985356E+00 -0.3607505098679E+00  0.0000000000000E+00  0.2833926823766E+00
 0.3240008781839E+00 -0.3611031280143E+00  0.0000000000000E+00  0.3064484095340E+00
 0.3225925124537E+00 -0.3595113872352E+00  0.0000000000000E+00  0.3333570392030E+00
 0.3190289681855E+00 -0.3559204142034E+00  0.0000000000000E+00  0.3633474608467E+00
 0.3131123766995E+00 -0.3501207360048E+00  0.0000000000000E+00  0.3955263598863E+00
 0.3044263025782E+00 -0.3417270962060E+00  0.0000000000000E+00  0.4288696072166E+00
 0.2923279919109E+00 -0.3300178019013E+00  0.0000000000000E+00  0.4628408896275E+00
 0.2771071629665E+00 -0.3151624896677E+00  0.0000000000000E+00  0.4984933952575E+00
 0.9677238588209E-01 -0.1514608084824E+00  0.0000000000000E+00  0.5087206199645E+00
 0.1294917248530E+00 -0.1819729415973E+00  0.0000000000000E+00  0.4385129368126E+00
 0.1611730059078E+00 -0.2114943615436E+00  0.0000000000000E+00  0.3821435037144E+00
 0.1904616462930E+00 -0.2386835068889E+00  0.0000000000000E+00  0.3370271362411E+00
 0.2166148014471E+00 -0.2628527050079E+00  0.0000000000000E+00  0.3017588044788E+00
 0.2393554100770E+00 -0.2837552252179E+00  0.0000000000000E+00  0.2753754964232E+00
 0.2586641096601E+00 -0.3013883728856E+00  0.0000000000000E+00  0.2570661933488E+00
 0.2746476238734E+00 -0.3158673188154E+00  0.0000000000000E+00  0.2460978809188E+00
 0.2874596773542E+00 -0.3273512662371E+00  0.0000000000000E+00  0.2417967375907E+00
 0.2972792301474E+00 -0.3360219318287E+00  0.0000000000000E+00  0.2435819213191E+00
 0.3042962601968E+00 -0.3420752291505E+00  0.0000000000000E+00  0.2509175051742E+00
 0.3086056939313E+00 -0.3456116252989E+00  0.0000000000000E+00  0.2632557054508E+00
 0.3103948271299E+00 -0.3468149738256E+00  0.0000000000000E+00  0.2805301894479E+00
 0.3099713500267E+00 -0.3459765196151E+00  0.0000000000000E+00  0.3024586480102E+00
 0.3074701347256E+00 -0.3432106072912E+00  0.0000000000000E+00  0.3281581353037E+00
 0.3028558896058E+00 -0.3384635287987E+00  0.0000000000000E+00  0.3567940525939E+00
 0.2959380297719E+00 -0.3315354643169E+00  0.0000000000000E+00  0.3874498455787E+00
 0.2864822777691E+00 -0.3221631001589E+00  0.0000000000000E+00  0.4191044150765E+00
 0.2736160129715E+00 -0.3096984603731E+00  0.0000000000000E+00  0.4498808687521E+00
 0.2570259926344E+00 -0.2933262174483E+00  0.0000000000000E+00  0.4814439502626E+00
 0.1012424474187E+00 -0.1545948010969E+00  0.0000000000000E+00  0.5234704185527E+00
 0.1314787999655E+00 -0.1828524068196E+00  0.0000000000000E+00  0.4528375725598E+00
 0.1612767302731E+00 -0.2105722031132E+00  0.0000000000000E+00  0.3947379320799E+00
 0.1888877883376E+00 -0.2361386445468E+00  0.0000000000000E+00  0.3475047755952E+00
 0.2135187387785E+00 -0.2588223010076E+00  0.0000000000000E+00  0.3100773135786E+00
 0.2348542676958E+00 -0.2783448403777E+00  0.0000000000000E+00  0.2816348560700E+00
 0.2528446537238E+00 -0.2946720078157E+00  0.0000000000000E+00  0.2614294318866E+00
 0.2675754614182E+00 -0.3078977979887E+00  0.0000000000000E+00  0.2487531088906E+00
 0.2791860857176E+00 -0.3181686835753E+00  0.0000000000000E+00  0.2429130933959E+00
 0.2878399784991E+00 -0.3256530025643E+00  0.0000000000000E+00  0.2432922685463E+00
 0.2937340869411E+00 -0.3305433801368E+00  0.0000000000000E+00  0.2493464069043E+00
 0.2969380597022E+00 -0.3329369530080E+00  0.0000000000000E+00  0.2603903725453E+00
 0.2976161917185E+00 -0.3329860653602E+00  0.0000000000000E+00  0.2763648382494E+00
 0.2961237468112E+00 -0.3310140568074E+00  0.0000000000000E+00  0.2970677802531E+00
 0.2926198098012E+00 -0.3271771778115E+00  0.0000000000000E+00  0.3214333008008E+00
 0.2870459187710E+00 -0.3213769822155E+00  0.0000000000000E+00  0.3485281143741E+00
 0.2792064448918E+00 -0.3133962356452E+00  0.0000000000000E+00  0.3774556767026E+00
 0.2688572317687E+00 -0.3030035882879E+00  0.0000000000000E+00  0.4074824724397E+00
 0.2559597461886E+00 -0.2900108347512E+00  0.0000000000000E+00  0.4372081989507E+00
 0.2392936976038E+00 -0.2744509633171E+00  0.0000000000000E+00  0.4623399713743E+00
 0.2347835382106E+00 -0.3671817485913E+00  0.0000000000000E+00 -0.2600526237925E+00
 0.1096592912956E+00 -0.1184498124142E+00  0.0000000000000E+00  0.1950790015928E+00
 0.2196641355996E-01 -0.2243710983340E-01  0.0000000000000E+00  0.6745563510707E-01
-0.1150894578781E-03  0.3769634961464E-02  0.0000000000000E+00 -0.7780533559145E-02
-0.1417943759187E-01  0.1905224508617E-01  0.0000000000000E+00 -0.4115517280318E-01
-0.2376481459773E-01  0.2913364881079E-01  0.0000000000000E+00 -0.5346627620703E-01
-0.3115989814469E-01  0.3680258900357E-01  0.0000000000000E+00 -0.5411186202794E-01
-0.3696538753341E-01  0.4280170528275E-01  0.0000000000000E+00 -0.4793150030885E-01
-0.4125977148034E-01  0.4717217038359E-01  0.0000000000000E+00 -0.3772930302520E-01
-0.4390632000352E-01  0.4979678774142E-01  0.0000000000000E+00 -0.2421988287957E-01
-0.4444574802090E-01  0.5031628717511E-01  0.0000000000000E+00 -0.8327606347540E-02
-0.4245849988429E-01  0.4794075781172E-01  0.0000000000000E+00  0.8882705468468E-02
-0.3716203024029E-01  0.4218938504459E-01  0.0000000000000E+00  0.3177648582501E-01
-0.2892404510892E-01  0.3384955011165E-01  0.0000000000000E+00  0.5700222850718E-01
-0.1853155650640E-01  0.2379565631943E-01  0.0000000000000E+00  0.7866781412880E-01
-0.6902727762620E-02  0.1274964592160E-01  0.0000000000000E+00  0.9556881836792E-01
 0.4682568588347E-02  0.1837953960003E-02  0.0000000000000E+00  0.1075096733252E+00
 0.1590970675139E-01 -0.8796473323450E-02  0.0000000000000E+00  0.1145187600024E+00
 0.2722175325783E-01 -0.1963314120526E-01  0.0000000000000E+00  0.1162807950387E+00
 0.4170978182136E-01 -0.3473129315903E-01  0.0000000000000E+00  0.1177661097454E+00
 0.2756050328638E+00 -0.3521015548011E+00  0.0000000000000E+00 -0.4317921320373E+00
 0.2009168146273E+00 -0.2398947906304E+00  0.0000000000000E+00  0.2216965869283E-01
 0.8276854112542E-01 -0.9029388574053E-01  0.0000000000000E+00  0.7882459193046E-01
 0.3278972535285E-01 -0.3384451941125E-01  0.0000000000000E+00  0.2742535975198E-01
 0.9532286849784E-02 -0.7887605665324E-02  0.0000000000000E+00 -0.1004242643184E-01
-0.4970318101667E-02  0.7672315520016E-02  0.0000000000000E+00 -0.2957118357284E-01
-0.1499256526561E-01  0.1827906176521E-01  0.0000000000000E+00 -0.3677377351504E-01
-0.2246855818733E-01  0.2611247393251E-01  0.0000000000000E+00 -0.3585762008226E-01
-0.2811006646054E-01  0.3196932252203E-01  0.0000000000000E+00 -0.2975575658460E-01
-0.3203758286410E-01  0.3602103201510E-01  0.0000000000000E+00 -0.1967759661078E-01
-0.3412051802073E-01  0.3808383780052E-01  0.0000000000000E+00 -0.6032564292846E-02
-0.3444997589431E-01  0.3830308840617E-01  0.0000000000000E+00  0.9885977872774E-02
-0.3211016596806E-01  0.3586014744820E-01  0.0000000000000E+00  0.2952491595613E-01
-0.2650339958343E-01  0.3023606360745E-01  0.0000000000000E+00  0.5009655177469E-01
-0.1827986232243E-01  0.2220370886804E-01  0.0000000000000E+00  0.6702149441168E-01
-0.8500400868588E-02  0.1280890735431E-01  0.0000000000000E+00  0.7939405775063E-01
 0.1494517282165E-02  0.3242468671115E-02  0.0000000000000E+00  0.8709035746242E-01
 0.1129245865192E-01 -0.6177470421527E-02  0.0000000000000E+00  0.9041252708834E-01
 0.2116231997094E-01 -0.1593578345544E-01  0.0000000000000E+00  0.8968350609940E-01
 0.3134880428559E-01 -0.2617407230235E-01  0.0000000000000E+00  0.8978621917672E-01
 0.2613649233476E+00 -0.3212886858340E+00  0.0000000000000E+00 -0.4964529470291E+00
 0.2337084803740E+00 -0.2726693405224E+00  0.0000000000000E+00 -0.1274217449543E+00
 0.1394075624744E+00 -0.1581889192744E+00  0.0000000000000E+00  0.2010558379984E-01
 0.7352321344454E-01 -0.7995698315904E-01  0.0000000000000E+00  0.3359278452452E-01
 0.3835446478508E-01 -0.4050758240917E-01  0.0000000000000E+00  0.9403970570163E-02
 0.1770775490591E-01 -0.1792579956047E-01  0.0000000000000E+00 -0.1080556019548E-01
 0.4034835177744E-02 -0.3277256606283E-02  0.0000000000000E+00 -0.2202397386893E-01
-0.5761341997066E-02  0.7104693190127E-02  0.0000000000000E+00 -0.2551631370297E-01
-0.1313323327261E-01  0.1485098319357E-01  0.0000000000000E+00 -0.2339051477204E-01
-0.1866876163883E-01  0.2062216280770E-01  0.0000000000000E+00 -0.1678450374640E-01
-0.2253111638856E-01  0.2459670070981E-01  0.0000000000000E+00 -0.6256650501902E-02
-0.2495603223428E-01  0.2708841992392E-01  0.0000000000000E+00  0.6855269313710E-02
-0.2504383946782E-01  0.2727078012833E-01  0.0000000000000E+00  0.2296542033758E-01
-0.2180342229864E-01  0.2410467377858E-01  0.0000000000000E+00  0.3938345647681E-01
-0.1577372182147E-01  0.1819149394421E-01  0.0000000000000E+00  0.5198027691517E-01
-0.8004372558085E-02  0.1062915975873E-01  0.0000000000000E+00  0.5999697841857E-01
 0.2243945479026E-03  0.2623776809843E-02  0.0000000000000E+00  0.6354226671133E-01
 0.8331525433463E-02 -0.5342572524164E-02  0.0000000000000E+00  0.6319930073858E-01
 0.1593099672479E-01 -0.1291344855723E-01  0.0000000000000E+00  0.5944293328485E-01
 0.2216462121181E-01 -0.1935792269139E-01  0.0000000000000E+00  0.5428640055968E-01
 0.2424171434744E+00 -0.2941250872296E+00  0.0000000000000E+00 -0.5288885368590E+00
 0.2404997186657E+00 -0.2786880715898E+00  0.0000000000000E+00 -0.2325454897937E+00
 0.1752657041850E+00 -0.1989811654801E+00  0.0000000000000E+00 -0.5675796256275E-01
 0.1127504154808E+00 -0.1252917757826E+00  0.0000000000000E+00  0.6986187501530E-02
 0.7023783696472E-01 -0.7655789081312E-01  0.0000000000000E+00  0.1107776755288E-01
 0.4344082914279E-01 -0.4689372834494E-01  0.0000000000000E+00 -0.1012061338451E-02
 0.2570106340857E-01 -0.2765379735756E-01  0.0000000000000E+00 -0.1202490808073E-01
 0.1314509901093E-01 -0.1422945636773E-01  0.0000000000000E+00 -0.1808059195509E-01
 0.3717971446945E-02 -0.4245346750968E-02  0.0000000000000E+00 -0.1922423384050E-01
-0.3628743154335E-02  0.3475806087279E-02  0.0000000000000E+00 -0.1603892806096E-01
-0.9316830051958E-02  0.9407431945519E-02  0.0000000000000E+00 -0.9011094887972E-02
-0.1371439436301E-01  0.1402012862391E-01  0.0000000000000E+00  0.7183469360719E-03
-0.1600250390713E-01  0.1653367404635E-01  0.0000000000000E+00  0.1299935797518E-01
-0.1497232273170E-01  0.1564198207241E-01  0.0000000000000E+00  0.2523497883207E-01
-0.1106555043557E-01  0.1180290327054E-01  0.0000000000000E+00  0.3362184451252E-01
-0.5334177797557E-02  0.6139494895165E-02  0.0000000000000E+00  0.3740505717319E-01
 0.1006288337305E-02 -0.1643150537065E-03  0.0000000000000E+00  0.3683066901467E-01
 0.7170128422062E-02 -0.6359882778172E-02  0.0000000000000E+00  0.3253879609867E-01
 0.1243088962212E-01 -0.1177252635279E-01  0.0000000000000E+00  0.2455946250104E-01
 0.1565712133867E-01 -0.1544637898595E-01  0.0000000000000E+00  0.1289538157839E-01
 0.2241908467812E+00 -0.2714912651868E+00  0.0000000000000E+00 -0.5457009378858E+00
 0.2365770565869E+00 -0.2741494058862E+00  0.0000000000000E+00 -0.3065296581431E+00
 0.1952619668729E+00 -0.2219031223169E+00  0.0000000000000E+00 -0.1285812511642E+00
 0.1435187497818E+00 -0.1606090463099E+00  0.0000000000000E+00 -0.3589818117510E-01
 0.1009438392222E+00 -0.1115712288206E+00  0.0000000000000E+00 -0.5022830755763E-02
 0.7051720525216E-01 -0.7741254273956E-01  0.0000000000000E+00 -0.2635626864276E-02
 0.4925674432727E-01 -0.5410633799668E-01  0.0000000000000E+00 -0.8795362648677E-02
 0.3395604985046E-01 -0.3760116605675E-01  0.0000000000000E+00 -0.1481437393491E-01
 0.2236811601374E-01 -0.2524336973405E-01  0.0000000000000E+00 -0.1799191904342E-01
 0.1314672144400E-01 -0.1549373373489E-01  0.0000000000000E+00 -0.1777194517613E-01
 0.5655822184039E-02 -0.7628308892214E-02  0.0000000000000E+00 -0.1422988584116E-01
-0.5993915967335E-03 -0.1034331074097E-02  0.0000000000000E+00 -0.8100416839816E-02
-0.4927118121909E-02  0.3614526875366E-02  0.0000000000000E+00  0.1672934510022E-03
-0.5991850326921E-02  0.4859439724139E-02  0.0000000000000E+00  0.8089210678443E-02
-0.4122215498754E-02  0.3018627082485E-02  0.0000000000000E+00  0.1222257597671E-01
-0.3851393444385E-03 -0.7643663565626E-03  0.0000000000000E+00  0.1177779378968E-01
 0.4043890131163E-02 -0.5311434772555E-02  0.0000000000000E+00  0.6994560851027E-02
 0.8271253525752E-02 -0.9744449279329E-02  0.0000000000000E+00 -0.1633078174325E-02
 0.1148246540773E-01 -0.1331527452749E-01  0.0000000000000E+00 -0.1449737331325E-01
 0.1264119047398E-01 -0.1520130254850E-01  0.0000000000000E+00 -0.3298880957943E-01
 0.2080350905504E+00 -0.2528956769640E+00  0.0000000000000E+00 -0.5541425771902E+00
 0.2281151279136E+00 -0.2654918040600E+00  0.0000000000000E+00 -0.3584200309359E+00
 0.2049830965363E+00 -0.2336630391142E+00  0.0000000000000E+00 -0.1897158315172E+00
 0.1656138912076E+00 -0.1862152183875E+00  0.0000000000000E+00 -0.8310467917868E-01
 0.1274589535239E+00 -0.1419258575314E+00  0.0000000000000E+00 -0.3245225401873E-01
 0.9675397701657E-01 -0.1071407052675E+00  0.0000000000000E+00 -0.1505079790466E-01
 0.7353421246709E-01 -0.8140536212587E-01  0.0000000000000E+00 -0.1324937787883E-01
 0.5608024444164E-01 -0.6240817280590E-01  0.0000000000000E+00 -0.1668065808153E-01
 0.4255122211668E-01 -0.4787636427092E-01  0.0000000000000E+00 -0.2033260730095E-01
 0.3157043728053E-01 -0.3620239395469E-01  0.0000000000000E+00 -0.2227265411799E-01
 0.2239383776604E-01 -0.2652270154966E-01  0.0000000000000E+00 -0.2188230159650E-01
 0.1443155561420E-01 -0.1811425135699E-01  0.0000000000000E+00 -0.1931038271277E-01
 0.8231190602471E-02 -0.1152120147497E-01  0.0000000000000E+00 -0.1512228642889E-01
 0.5201630776423E-02 -0.8285575127203E-02  0.0000000000000E+00 -0.1162661381368E-01
 0.5148407084367E-02 -0.8238402460098E-02  0.0000000000000E+00 -0.1183348527261E-01
 0.6998496604682E-02 -0.1022902889708E-01  0.0000000000000E+00 -0.1656276318581E-01
 0.9623765620856E-02 -0.1311008706548E-01  0.0000000000000E+00 -0.2566106164990E-01
 0.1210532289457E-01 -0.1596770638721E-01  0.0000000000000E+00 -0.3883260837942E-01
 0.1369020837734E-01 -0.1813000307724E-01  0.0000000000000E+00 -0.5678464489476E-01
 0.1363891532097E-01 -0.1908706426864E-01  0.0000000000000E+00 -0.8170770886702E-01
 0.1940004598567E+00 -0.2375927665442E+00  0.0000000000000E+00 -0.5576626882313E+00
 0.2180170350391E+00 -0.2555540738001E+00  0.0000000000000E+00 -0.3945015100231E+00
 0.2082999518241E+00 -0.2386508289502E+00  0.0000000000000E+00 -0.2394044505932E+00
 0.1806101463566E+00 -0.2040538120296E+00  0.0000000000000E+00 -0.1284885528474E+00
 0.1490054024193E+00 -0.1668325227142E+00  0.0000000000000E+00 -0.6514683726961E-01
 0.1206073033716E+00 -0.1343237038836E+00  0.0000000000000E+00 -0.3520389762226E-01
 0.9729833069793E-01 -0.1082252215515E+00  0.0000000000000E+00 -0.2475513176496E-01
 0.7874425078178E-01 -0.8783840903404E-01  0.0000000000000E+00 -0.2390996896557E-01
 0.6382721462684E-01 -0.7169235352503E-01  0.0000000000000E+00 -0.2658416360519E-01
 0.5141379355705E-01 -0.5841857072426E-01  0.0000000000000E+00 -0.2971459730480E-01
 0.4079273725365E-01 -0.4716941848919E-01  0.0000000000000E+00 -0.3191747905734E-01
 0.3134515061555E-01 -0.3718062690932E-01  0.0000000000000E+00 -0.3265734086474E-01
 0.2348543971223E-01 -0.2887367812301E-01  0.0000000000000E+00 -0.3248396591747E-01
 0.1866734594482E-01 -0.2383539369202E-01  0.0000000000000E+00 -0.3345211184954E-01
 0.1685479924028E-01 -0.2206118098247E-01  0.0000000000000E+00 -0.3805187248132E-01
 0.1699444697382E-01 -0.2242336508393E-01  0.0000000000000E+00 -0.4709286544592E-01
 0.1802207378771E-01 -0.2383076639000E-01  0.0000000000000E+00 -0.6051843240370E-01
 0.1904657865818E-01 -0.2539375893457E-01  0.0000000000000E+00 -0.7821317905277E-01
 0.1945259973142E-01 -0.2658647555553E-01  0.0000000000000E+00 -0.1010448330932E+00
 0.1887065906007E-01 -0.2727022610940E-01  0.0000000000000E+00 -0.1314961472367E+00
 0.1818310440553E+00 -0.2249067386203E+00  0.0000000000000E+00 -0.5580629198311E+00
 0.2076852818083E+00 -0.2456649407359E+00  0.0000000000000E+00 -0.4190731847111E+00
 0.2077564287336E+00 -0.2396240475779E+00  0.0000000000000E+00 -0.2785611260706E+00
 0.1902724685419E+00 -0.2161501330857E+00  0.0000000000000E+00 -0.1691409358884E+00
 0.1658996882608E+00 -0.1866916404058E+00  0.0000000000000E+00 -0.9887206315726E-01
 0.1414333946194E+00 -0.1582561209725E+00  0.0000000000000E+00 -0.5975934178844E-01
 0.1196454216667E+00 -0.1335688413338E+00  0.0000000000000E+00 -0.4158142064259E-01
 0.1011895643399E+00 -0.1130814853725E+00  0.0000000000000E+00 -0.3591221687509E-01
 0.8566982320709E-01 -0.9613970464432E-01  0.0000000000000E+00 -0.3662283090418E-01
 0.7234208104602E-01 -0.8179609434885E-01  0.0000000000000E+00 -0.4004902396546E-01
 0.6065250784636E-01 -0.6936106840385E-01  0.0000000000000E+00 -0.4419164293232E-01
 0.5003254841236E-01 -0.5811586554167E-01  0.0000000000000E+00 -0.4785534539088E-01
 0.4079628142625E-01 -0.4839068697101E-01  0.0000000000000E+00 -0.5150064162575E-01
 0.3443047944421E-01 -0.4179915420071E-01  0.0000000000000E+00 -0.5685771009648E-01
 0.3108189984449E-01 -0.3851925428947E-01  0.0000000000000E+00 -0.6581009541848E-01
 0.2974793862793E-01 -0.3747952058798E-01  0.0000000000000E+00 -0.7909232350330E-01
 0.2944307931728E-01 -0.3766472408839E-01  0.0000000000000E+00 -0.9671319919139E-01
 0.2932973967285E-01 -0.3823743260686E-01  0.0000000000000E+00 -0.1186813031418E+00
 0.2894945540443E-01 -0.3883092432448E-01  0.0000000000000E+00 -0.1458695546120E+00
 0.2828534272537E-01 -0.3964849466599E-01  0.0000000000000E+00 -0.1806516197155E+00
 0.1712090431937E+00 -0.2142786757114E+00  0.0000000000000E+00 -0.5563124678760E+00
 0.1977958072324E+00 -0.2364376320283E+00  0.0000000000000E+00 -0.4351258759231E+00
 0.2049963487928E+00 -0.2383232396833E+00  0.0000000000000E+00 -0.3085454008023E+00
 0.1961145934890E+00 -0.2241744425347E+00  0.0000000000000E+00 -0.2039044895038E+00
 0.1788691743714E+00 -0.2023287947035E+00  0.0000000000000E+00 -0.1309662871932E+00
 0.1591882257640E+00 -0.1788956027394E+00  0.0000000000000E+00 -0.8594321228260E-01
 0.1400985065395E+00 -0.1569109093130E+00  0.0000000000000E+00 -0.6169985522925E-01
 0.1228353348838E+00 -0.1375064962479E+00  0.0000000000000E+00 -0.5152909935220E-01
 0.1075733605741E+00 -0.1206804634107E+00  0.0000000000000E+00 -0.4986849409943E-01
 0.9397299456312E-01 -0.1059334802385E+00  0.0000000000000E+00 -0.5294404387243E-01
 0.8170422520493E-01 -0.9281579011709E-01  0.0000000000000E+00 -0.5840761951922E-01
 0.7031558070951E-01 -0.8072983875982E-01  0.0000000000000E+00 -0.6453685038003E-01
 0.6006190895387E-01 -0.6995619602313E-01  0.0000000000000E+00 -0.7168969640165E-01
 0.5245915546486E-01 -0.6212848735162E-01  0.0000000000000E+00 -0.8122858246538E-01
 0.4785596075558E-01 -0.5762187241847E-01  0.0000000000000E+00 -0.9436442357034E-01
 0.4532920968617E-01 -0.5545077609565E-01  0.0000000000000E+00 -0.1116850154407E+00
 0.4398007048421E-01 -0.5468606608780E-01  0.0000000000000E+00 -0.1332137793844E+00
 0.4302864287079E-01 -0.5454700806135E-01  0.0000000000000E+00 -0.1590163883493E+00
 0.4215345763512E-01 -0.5480058255752E-01  0.0000000000000E+00 -0.1898412460285E+00
 0.4161677012180E-01 -0.5591077748827E-01  0.0000000000000E+00 -0.2276706710708E+00
 0.1618360842229E+00 -0.2052611514504E+00  0.0000000000000E+00 -0.5529368839867E+00
 0.1886498674602E+00 -0.2281261789553E+00  0.0000000000000E+00 -0.4447658050980E+00
 0.2010767307773E+00 -0.2358493252659E+00  0.0000000000000E+00 -0.3307313704822E+00
 0.1993226958619E+00 -0.2294069587836E+00  0.0000000000000E+00 -0.2325297717427E+00
 0.1887179013732E+00 -0.2146275390225E+00  0.0000000000000E+00 -0.1598841511210E+00
 0.1741464781602E+00 -0.1965445537894E+00  0.0000000000000E+00 -0.1117022486787E+00
 0.1585151581129E+00 -0.1780920235183E+00  0.0000000000000E+00 -0.8323647797962E-01
 0.1433230097502E+00 -0.1607209963324E+00  0.0000000000000E+00 -0.6938712264883E-01
 0.1291282357716E+00 -0.1448734779423E+00  0.0000000000000E+00 -0.6542523917590E-01
 0.1159344630184E+00 -0.1304353652207E+00  0.0000000000000E+00 -0.6780637907015E-01
 0.1036440127221E+00 -0.1172122305058E+00  0.0000000000000E+00 -0.7409382546722E-01
 0.9196037458022E-01 -0.1047733931001E+00  0.0000000000000E+00 -0.8222581423570E-01
 0.8111532790171E-01 -0.9338700531637E-01  0.0000000000000E+00 -0.9248838422731E-01
 0.7264902362827E-01 -0.8470106824113E-01  0.0000000000000E+00 -0.1058691166334E+00
 0.6711976622672E-01 -0.7929271920158E-01  0.0000000000000E+00 -0.1228782572024E+00
 0.6370566187801E-01 -0.7628411393685E-01  0.0000000000000E+00 -0.1438953802990E+00
 0.6159504531570E-01 -0.7483347075523E-01  0.0000000000000E+00 -0.1689072652551E+00
 0.6005583422373E-01 -0.7420658151337E-01  0.0000000000000E+00 -0.1979784228327E+00
 0.5886042749698E-01 -0.7425701950013E-01  0.0000000000000E+00 -0.2316438907511E+00
 0.5844959857343E-01 -0.7560463349218E-01  0.0000000000000E+00 -0.2713224527694E+00
 0.1534551914639E+00 -0.1974998975212E+00  0.0000000000000E+00 -0.5482144106589E+00
 0.1803501532765E+00 -0.2207979337700E+00  0.0000000000000E+00 -0.4494910434921E+00
 0.1966707376059E+00 -0.2328953586691E+00  0.0000000000000E+00 -0.3463560115437E+00
 0.2007878037071E+00 -0.2327950479556E+00  0.0000000000000E+00 -0.2552236543161E+00
 0.1961849847288E+00 -0.2243854855403E+00  0.0000000000000E+00 -0.1848139505672E+00
 0.1867146377767E+00 -0.2116420569279E+00  0.0000000000000E+00 -0.1356214412418E+00
 0.1749663294431E+00 -0.1971842770522E+00  0.0000000000000E+00 -0.1046475008862E+00
 0.1624848960189E+00 -0.1825383503631E+00  0.0000000000000E+00 -0.8814244935325E-01
 0.1500449034315E+00 -0.1684040184762E+00  0.0000000000000E+00 -0.8225787142019E-01
 0.1379028492232E+00 -0.1549546409269E+00  0.0000000000000E+00 -0.8386310524947E-01
 0.1261638197619E+00 -0.1422223249337E+00  0.0000000000000E+00 -0.9062843999383E-01
 0.1146949635065E+00 -0.1299565189762E+00  0.0000000000000E+00 -0.1003397980830E+00
 0.1037286330130E+00 -0.1184368561713E+00  0.0000000000000E+00 -0.1132594266195E+00
 0.9481675412992E-01 -0.1093137666133E+00  0.0000000000000E+00 -0.1300247514080E+00
 0.8871932296451E-01 -0.1033566045460E+00  0.0000000000000E+00 -0.1504646775821E+00
 0.8472847618727E-01 -0.9980774108258E-01  0.0000000000000E+00 -0.1747123982815E+00
 0.8211473894644E-01 -0.9790801956492E-01  0.0000000000000E+00 -0.2026804150038E+00
 0.8017756303297E-01 -0.9695338441003E-01  0.0000000000000E+00 -0.2343947112216E+00
 0.7872957550417E-01 -0.9682820059720E-01  0.0000000000000E+00 -0.2701342515769E+00
 0.7828063382017E-01 -0.9819759115327E-01  0.0000000000000E+00 -0.3106710533754E+00
 0.1458534720433E+00 -0.1907154199819E+00  0.0000000000000E+00 -0.5422818553829E+00
 0.1728932420021E+00 -0.2144225548271E+00  0.0000000000000E+00 -0.4503735679534E+00
 0.1921979189740E+00 -0.2298892017549E+00  0.0000000000000E+00 -0.3564783361103E+00
 0.2011612605505E+00 -0.2350240595848E+00  0.0000000000000E+00 -0.2724060097651E+00
 0.2018950624411E+00 -0.2322683045402E+00  0.0000000000000E+00 -0.2054094380762E+00
 0.1973239493997E+00 -0.2246487211514E+00  0.0000000000000E+00 -0.1567838488975E+00
 0.1896367742723E+00 -0.2143815137382E+00  0.0000000000000E+00 -0.1247474330398E+00
 0.1802889677721E+00 -0.2029182197034E+00  0.0000000000000E+00 -0.1066100975302E+00
 0.1701426470226E+00 -0.1910733818675E+00  0.0000000000000E+00 -0.9933119001521E-01
 0.1596168392506E+00 -0.1792091243014E+00  0.0000000000000E+00 -0.1002604381419E+00
 0.1489719666219E+00 -0.1675339340271E+00  0.0000000000000E+00 -0.1072936634820E+00
 0.1382261294407E+00 -0.1559662779822E+00  0.0000000000000E+00 -0.1182183239493E+00
 0.1276222957820E+00 -0.1448061106545E+00  0.0000000000000E+00 -0.1333154353428E+00
 0.1187019590180E+00 -0.1356847599072E+00  0.0000000000000E+00 -0.1529173201334E+00
 0.1124016412501E+00 -0.1295377265050E+00  0.0000000000000E+00 -0.1762373619030E+00
 0.1081319306890E+00 -0.1257314732538E+00  0.0000000000000E+00 -0.2031539373141E+00
 0.1052388313795E+00 -0.1235830082109E+00  0.0000000000000E+00 -0.2334893427681E+00
 0.1030374516229E+00 -0.1224030568306E+00  0.0000000000000E+00 -0.2672210950381E+00
 0.1013251477504E+00 -0.1220508935225E+00  0.0000000000000E+00 -0.3043763199679E+00
 0.1005698432077E+00 -0.1231272670083E+00  0.0000000000000E+00 -0.3450628960185E+00
 0.1388582992093E+00 -0.1846874915869E+00  0.0000000000000E+00 -0.5351940299324E+00
 0.1662202025467E+00 -0.2089198719648E+00  0.0000000000000E+00 -0.4481820549821E+00
 0.1879082627187E+00 -0.2270832561966E+00  0.0000000000000E+00 -0.3619809294642E+00
 0.2009072378337E+00 -0.2365786778680E+00  0.0000000000000E+00 -0.2845787111828E+00
 0.2063498186368E+00 -0.2388057288852E+00  0.0000000000000E+00 -0.2216118840697E+00
 0.2063748438528E+00 -0.2359885661905E+00  0.0000000000000E+00 -0.1746391799213E+00
 0.2027562059082E+00 -0.2299246925008E+00  0.0000000000000E+00 -0.1426738889174E+00
 0.1967857563077E+00 -0.2219090023562E+00  0.0000000000000E+00 -0.1238134392981E+00
 0.1893234166875E+00 -0.2127714917657E+00  0.0000000000000E+00 -0.1156982305164E+00
 0.1808740620369E+00 -0.2029791038326E+00  0.0000000000000E+00 -0.1161488180773E+00
 0.1718024627851E+00 -0.1928616914052E+00  0.0000000000000E+00 -0.1233391496039E+00
 0.1622526185348E+00 -0.1824812279500E+00  0.0000000000000E+00 -0.1351670670530E+00
 0.1524771288371E+00 -0.1721544962988E+00  0.0000000000000E+00 -0.1519567650036E+00
 0.1439761718543E+00 -0.1634631573205E+00  0.0000000000000E+00 -0.1737891310251E+00
 0.1378222177515E+00 -0.1574679668026E+00  0.0000000000000E+00 -0.1993650109815E+00
 0.1335427746061E+00 -0.1536572693201E+00  0.0000000000000E+00 -0.2283276520639E+00
 0.1305555982978E+00 -0.1514209102123E+00  0.0000000000000E+00 -0.2604162042170E+00
 0.1281822792213E+00 -0.1500764048483E+00  0.0000000000000E+00 -0.2955794901180E+00
 0.1261535371857E+00 -0.1494077273385E+00  0.0000000000000E+00 -0.3336455925771E+00
 0.1247801391094E+00 -0.1498397576561E+00  0.0000000000000E+00 -0.3740920830479E+00
 0.1323317837334E+00 -0.1792427713118E+00  0.0000000000000E+00 -0.5269583747939E+00
 0.1602450715330E+00 -0.2041864299638E+00  0.0000000000000E+00 -0.4434664548174E+00
 0.1839373297216E+00 -0.2246122013629E+00  0.0000000000000E+00 -0.3635867001260E+00
 0.2003459533190E+00 -0.2377912286237E+00  0.0000000000000E+00 -0.2922551985057E+00
 0.2099363509803E+00 -0.2444035726521E+00  0.0000000000000E+00 -0.2335345434354E+00
 0.2142114949729E+00 -0.2460234619619E+00  0.0000000000000E+00 -0.1888984336322E+00
 0.2145561580081E+00 -0.2440557901123E+00  0.0000000000000E+00 -0.1578328238901E+00
 0.2120665244067E+00 -0.2396027402244E+00  0.0000000000000E+00 -0.1389889235746E+00
 0.2075435462722E+00 -0.2334467588749E+00  0.0000000000000E+00 -0.1305463547467E+00
 0.2015192169664E+00 -0.2260952600788E+00  0.0000000000000E+00 -0.1307440639842E+00
 0.1944162396876E+00 -0.2179489677274E+00  0.0000000000000E+00 -0.1380392493446E+00
 0.1864743855161E+00 -0.2091816507993E+00  0.0000000000000E+00 -0.1505057166077E+00
 0.1779475019898E+00 -0.2001152417879E+00  0.0000000000000E+00 -0.1685145312740E+00
 0.1702576454201E+00 -0.1922447013284E+00  0.0000000000000E+00 -0.1919495834908E+00
 0.1645609496706E+00 -0.1867038887690E+00  0.0000000000000E+00 -0.2191251671803E+00
 0.1604974802782E+00 -0.1830976997892E+00  0.0000000000000E+00 -0.2494875767061E+00
 0.1575610852705E+00 -0.1808937047683E+00  0.0000000000000E+00 -0.2827162818227E+00
 0.1550845166207E+00 -0.1794224433493E+00  0.0000000000000E+00 -0.3187784340595E+00
 0.1526915033609E+00 -0.1783548218401E+00  0.0000000000000E+00 -0.3574108501170E+00
 0.1504068552790E+00 -0.1778172917184E+00  0.0000000000000E+00 -0.3975511729807E+00
 0.1261652224311E+00 -0.1742450532334E+00  0.0000000000000E+00 -0.5175558138538E+00
 0.1548711297518E+00 -0.2001104358092E+00  0.0000000000000E+00 -0.4366174619036E+00
 0.1803431009674E+00 -0.2225310516482E+00  0.0000000000000E+00 -0.3618796017827E+00
 0.1996875638759E+00 -0.2388784927968E+00  0.0000000000000E+00 -0.2959229653235E+00
 0.2129413474468E+00 -0.2493605646042E+00  0.0000000000000E+00 -0.2413877526852E+00
 0.2211130269526E+00 -0.2550450484712E+00  0.0000000000000E+00 -0.1994544527738E+00
 0.2252451481785E+00 -0.2569916830904E+00  0.0000000000000E+00 -0.1698434492677E+00
 0.2262337488202E+00 -0.2561035015787E+00  0.0000000000000E+00 -0.1515692057081E+00
 0.2247894144857E+00 -0.2530800527151E+00  0.0000000000000E+00 -0.1432147203898E+00
 0.2214300038444E+00 -0.2484238746161E+00  0.0000000000000E+00 -0.1433653003810E+00
 0.2165980382124E+00 -0.2425648777736E+00  0.0000000000000E+00 -0.1507369073786E+00
 0.2105987649179E+00 -0.2357563267070E+00  0.0000000000000E+00 -0.1636099606672E+00
 0.2036750927236E+00 -0.2283095700198E+00  0.0000000000000E+00 -0.1823896848972E+00
 0.1971311223681E+00 -0.2215925330025E+00  0.0000000000000E+00 -0.2068164959486E+00
 0.1921462404797E+00 -0.2167519809898E+00  0.0000000000000E+00 -0.2349522748934E+00
 0.1884670535854E+00 -0.2135022667577E+00  0.0000000000000E+00 -0.2660873657473E+00
 0.1856801463463E+00 -0.2114050201119E+00  0.0000000000000E+00 -0.2998633617962E+00
 0.1831575991510E+00 -0.2098341406785E+00  0.0000000000000E+00 -0.3363288999995E+00
 0.1804009773042E+00 -0.2083355029051E+00  0.0000000000000E+00 -0.3753025176328E+00
 0.1769977235348E+00 -0.2065957529430E+00  0.0000000000000E+00 -0.4153700576657E+00
 0.1202740436737E+00 -0.1695875245627E+00  0.0000000000000E+00 -0.5069537588908E+00
 0.1500001518958E+00 -0.1965800963617E+00  0.0000000000000E+00 -0.4279090345924E+00
 0.1771310950116E+00 -0.2208408379036E+00  0.0000000000000E+00 -0.3573248124187E+00
 0.1990584604244E+00 -0.2399697007448E+00  0.0000000000000E+00 -0.2960240852051E+00
 0.2155664382916E+00 -0.2538855340712E+00  0.0000000000000E+00 -0.2454300470122E+00
 0.2272936388280E+00 -0.2632757462584E+00  0.0000000000000E+00 -0.2063235258024E+00
 0.2349959748043E+00 -0.2689110411491E+00  0.0000000000000E+00 -0.1784900061253E+00
 0.2393820027904E+00 -0.2715070422934E+00  0.0000000000000E+00 -0.1611579929948E+00
 0.2410589654099E+00 -0.2716649404582E+00  0.0000000000000E+00 -0.1531945025810E+00
 0.2405043123315E+00 -0.2698532026511E+00  0.0000000000000E+00 -0.1534545644202E+00
 0.2381516487928E+00 -0.2664993007023E+00  0.0000000000000E+00 -0.1608729232547E+00
 0.2343443151760E+00 -0.2619065854296E+00  0.0000000000000E+00 -0.1739423284265E+00
 0.2293018439033E+00 -0.2563601268401E+00  0.0000000000000E+00 -0.1930804306492E+00
 0.2241714003905E+00 -0.2510611792893E+00  0.0000000000000E+00 -0.2179411717155E+00
 0.2200880125844E+00 -0.2471031079898E+00  0.0000000000000E+00 -0.2464705105317E+00
 0.2168930738057E+00 -0.2442947717450E+00  0.0000000000000E+00 -0.2778271594718E+00
 0.2142926134509E+00 -0.2423186849299E+00  0.0000000000000E+00 -0.3116052986176E+00
 0.2117627780503E+00 -0.2406555311882E+00  0.0000000000000E+00 -0.3479755684263E+00
 0.2087244617244E+00 -0.2387746964865E+00  0.0000000000000E+00 -0.3870824499679E+00
 0.2041621261113E+00 -0.2357697898677E+00  0.0000000000000E+00 -0.4275426587104E+00
 0.1145932597438E+00 -0.1651864221174E+00  0.0000000000000E+00 -0.4951145413879E+00
 0.1455373591090E+00 -0.1934879162692E+00  0.0000000000000E+00 -0.4175290071141E+00
 0.1742717924529E+00 -0.2195063266228E+00  0.0000000000000E+00 -0.3502864631170E+00
 0.1985218546284E+00 -0.2411281335687E+00  0.0000000000000E+00 -0.2929455146873E+00
 0.2179430533098E+00 -0.2581135417518E+00  0.0000000000000E+00 -0.2459358310179E+00
 0.2329074722379E+00 -0.2708744481103E+00  0.0000000000000E+00 -0.2096028892440E+00
 0.2439408082579E+00 -0.2799494295618E+00  0.0000000000000E+00 -0.1836820854757E+00
 0.2515867562841E+00 -0.2858889760384E+00  0.0000000000000E+00 -0.1675034128207E+00
 0.2563490280136E+00 -0.2891941194644E+00  0.0000000000000E+00 -0.1601196249398E+00
 0.2586502334432E+00 -0.2902828069371E+00  0.0000000000000E+00 -0.1605834830668E+00
 0.2588951977331E+00 -0.2895578407527E+00  0.0000000000000E+00 -0.1680027921916E+00
 0.2574424128253E+00 -0.2873479146587E+00  0.0000000000000E+00 -0.1810716099410E+00
 0.2544796317170E+00 -0.2839006447219E+00  0.0000000000000E+00 -0.2001946981290E+00
 0.2509648609267E+00 -0.2802182612715E+00  0.0000000000000E+00 -0.2250073714030E+00
 0.2479193216044E+00 -0.2772729319663E+00  0.0000000000000E+00 -0.2534859300285E+00
 0.2452426062517E+00 -0.2749324728777E+00  0.0000000000000E+00 -0.2846794567031E+00
 0.2427791024706E+00 -0.2730057617021E+00  0.0000000000000E+00 -0.3180335316754E+00
 0.2402144092460E+00 -0.2711922721161E+00  0.0000000000000E+00 -0.3537827936268E+00
 0.2370515866996E+00 -0.2690416896104E+00  0.0000000000000E+00 -0.3926465575737E+00
 0.2315644514140E+00 -0.2649798969819E+00  0.0000000000000E+00 -0.4340348237354E+00
 0.1090732143873E+00 -0.1609754293397E+00  0.0000000000000E+00 -0.4820009014990E+00
 0.1413935706362E+00 -0.1907324438955E+00  0.0000000000000E+00 -0.4056007312722E+00
 0.1717129409219E+00 -0.2184684057044E+00  0.0000000000000E+00 -0.3410418969314E+00
 0.1980943991382E+00 -0.2423684947710E+00  0.0000000000000E+00 -0.2870142441107E+00
 0.2201465542454E+00 -0.2621208911667E+00  0.0000000000000E+00 -0.2431737954894E+00
 0.2380561630682E+00 -0.2779447983040E+00  0.0000000000000E+00 -0.2094401145962E+00
 0.2521712181044E+00 -0.2901995631696E+00  0.0000000000000E+00 -0.1854235062067E+00
 0.2628987137960E+00 -0.2992987232425E+00  0.0000000000000E+00 -0.1704730098051E+00
 0.2706475073169E+00 -0.3056511170127E+00  0.0000000000000E+00 -0.1637525007587E+00
 0.2757793923888E+00 -0.3096163359898E+00  0.0000000000000E+00 -0.1644511546554E+00
 0.2786577839053E+00 -0.3115582607206E+00  0.0000000000000E+00 -0.1718044665922E+00
 0.2796371396259E+00 -0.3118098833946E+00  0.0000000000000E+00 -0.1846854925299E+00
 0.2788729297507E+00 -0.3105786348382E+00  0.0000000000000E+00 -0.2034539979918E+00
 0.2771195934852E+00 -0.3086535824973E+00  0.0000000000000E+00 -0.2278061923069E+00
 0.2752230948828E+00 -0.3068284304130E+00  0.0000000000000E+00 -0.2559177780272E+00
 0.2730913450876E+00 -0.3049788978780E+00  0.0000000000000E+00 -0.2867958242703E+00
 0.2706220485086E+00 -0.3029688803965E+00  0.0000000000000E+00 -0.3196576132752E+00
 0.2678158400674E+00 -0.3007432560999E+00  0.0000000000000E+00 -0.3543227502443E+00
 0.2646490780696E+00 -0.2983903219428E+00  0.0000000000000E+00 -0.3921516261151E+00
 0.2588775493251E+00 -0.2938416602383E+00  0.0000000000000E+00 -0.4347008031789E+00
 0.1036752872633E+00 -0.1569008133658E+00  0.0000000000000E+00 -0.4675806715070E+00
 0.1374851524569E+00 -0.1882173491637E+00  0.0000000000000E+00 -0.3921974255826E+00
 0.1693885422980E+00 -0.2176535725253E+00  0.0000000000000E+00 -0.3297909322151E+00
 0.1977605409595E+00 -0.2436715379797E+00  0.0000000000000E+00 -0.2784943638771E+00
 0.2222102746916E+00 -0.2659401483227E+00  0.0000000000000E+00 -0.2373923762786E+00
 0.2427982725727E+00 -0.2845451788188E+00  0.0000000000000E+00 -0.2060126077482E+00
 0.2597413632611E+00 -0.2997147031183E+00  0.0000000000000E+00 -0.1837892848169E+00
 0.2733415209393E+00 -0.3117573209913E+00  0.0000000000000E+00 -0.1700329920865E+00
 0.2839286234704E+00 -0.3210045661018E+00  0.0000000000000E+00 -0.1639662924970E+00
 0.2918038777158E+00 -0.3277585462282E+00  0.0000000000000E+00 -0.1648741353891E+00
 0.2972792873510E+00 -0.3323301307456E+00  0.0000000000000E+00 -0.1720800225870E+00
 0.3006862432876E+00 -0.3350372124952E+00  0.0000000000000E+00 -0.1846021470510E+00
 0.3021562646305E+00 -0.3360535573815E+00  0.0000000000000E+00 -0.2027072138759E+00
 0.3022534502992E+00 -0.3359671794322E+00  0.0000000000000E+00 -0.2262214741115E+00
 0.3016185333768E+00 -0.3353696036010E+00  0.0000000000000E+00 -0.2537062935479E+00
 0.3001225341732E+00 -0.3341058117836E+00  0.0000000000000E+00 -0.2842603215413E+00
 0.2976330097224E+00 -0.3320024443786E+00  0.0000000000000E+00 -0.3170032634858E+00
 0.2940858684420E+00 -0.3289762810580E+00  0.0000000000000E+00 -0.3511479759756E+00
 0.2905362922245E+00 -0.3257675045092E+00  0.0000000000000E+00 -0.3865728856067E+00
 0.2856408190694E+00 -0.3217823982046E+00  0.0000000000000E+00 -0.4290842784895E+00
 0.9836756793333E-01 -0.1529143607653E+00  0.0000000000000E+00 -0.4518251095379E+00
 0.1337328183642E+00 -0.1858525287206E+00  0.0000000000000E+00 -0.3773510755965E+00
 0.1672245605566E+00 -0.2169767030977E+00  0.0000000000000E+00 -0.3166598559430E+00
 0.1974870691998E+00 -0.2450009911983E+00  0.0000000000000E+00 -0.2675776574122E+00
 0.2241422437909E+00 -0.2695777001528E+00  0.0000000000000E+00 -0.2288147616893E+00
 0.2471594953181E+00 -0.2906991502402E+00  0.0000000000000E+00 -0.1995187323553E+00
 0.2666723098475E+00 -0.3085130135538E+00  0.0000000000000E+00 -0.1789098416442E+00
 0.2829125958762E+00 -0.3232582819026E+00  0.0000000000000E+00 -0.1662313777637E+00
 0.2961479807642E+00 -0.3352044897220E+00  0.0000000000000E+00 -0.1607331771726E+00
 0.3066320028545E+00 -0.3446065182937E+00  0.0000000000000E+00 -0.1617602122263E+00
 0.3146199461364E+00 -0.3517274785991E+00  0.0000000000000E+00 -0.1687386836013E+00
 0.3203706899829E+00 -0.3568015460748E+00  0.0000000000000E+00 -0.1807962336192E+00
 0.3240133549020E+00 -0.3599927282325E+00  0.0000000000000E+00 -0.1979635319618E+00
 0.3259801705031E+00 -0.3617595404048E+00  0.0000000000000E+00 -0.2202750116973E+00
 0.3266970307800E+00 -0.3624691751963E+00  0.0000000000000E+00 -0.2468424478626E+00
 0.3260109730099E+00 -0.3619589209792E+00  0.0000000000000E+00 -0.2769648364313E+00
 0.3237090403005E+00 -0.3599952599410E+00  0.0000000000000E+00 -0.3098809712130E+00
 0.3195880866106E+00 -0.3563235564985E+00  0.0000000000000E+00 -0.3448568909442E+00
 0.3139932317471E+00 -0.3513012748933E+00  0.0000000000000E+00 -0.3804639957325E+00
 0.3106692427450E+00 -0.3467088056964E+00  0.0000000000000E+00 -0.4184909665207E+00
 0.1060889428082E+00 -0.1582070813451E+00  0.0000000000000E+00  0.5359927878314E+00
 0.1345962228655E+00 -0.1846523500778E+00  0.0000000000000E+00  0.4650220476096E+00
 0.1627161969670E+00 -0.2106787073049E+00  0.0000000000000E+00  0.4059857797657E+00
 0.1885444444497E+00 -0.2344608956556E+00  0.0000000000000E+00  0.3573409936472E+00
 0.2113088010720E+00 -0.2552749174187E+00  0.0000000000000E+00  0.3182610739695E+00
 0.2307284040048E+00 -0.2728721697102E+00  0.0000000000000E+00  0.2881818260792E+00
 0.2467649867353E+00 -0.2872350412897E+00  0.0000000000000E+00  0.2664771912337E+00
 0.2595222952182E+00 -0.2984784744706E+00  0.0000000000000E+00  0.2524605030330E+00
 0.2691706286756E+00 -0.3067771322784E+00  0.0000000000000E+00  0.2453986036066E+00
 0.2758922626563E+00 -0.3123149998240E+00  0.0000000000000E+00  0.2446030398123E+00
 0.2798869223298E+00 -0.3152979154399E+00  0.0000000000000E+00  0.2494372753353E+00
 0.2813692016765E+00 -0.3159147745279E+00  0.0000000000000E+00  0.2589608466139E+00
 0.2804575026112E+00 -0.3143095820906E+00  0.0000000000000E+00  0.2730620912355E+00
 0.2775382904962E+00 -0.3108907116838E+00  0.0000000000000E+00  0.2916779379781E+00
 0.2729920723500E+00 -0.3059783091459E+00  0.0000000000000E+00  0.3138210392227E+00
 0.2666701313803E+00 -0.2994031473617E+00  0.0000000000000E+00  0.3386162423522E+00
 0.2583723994697E+00 -0.2909320416536E+00  0.0000000000000E+00  0.3650709569761E+00
 0.2479191525792E+00 -0.2803175903118E+00  0.0000000000000E+00  0.3922230884611E+00
 0.2356723810482E+00 -0.2679363153512E+00  0.0000000000000E+00  0.4185032931134E+00
 0.2252338350400E+00 -0.2553761460366E+00  0.0000000000000E+00  0.4452313098039E+00
 0.1114375393376E+00 -0.1622847552962E+00  0.0000000000000E+00  0.5479428296573E+00
 0.1384924417685E+00 -0.1872281297351E+00  0.0000000000000E+00  0.4765841787585E+00
 0.1651407538153E+00 -0.2116784337259E+00  0.0000000000000E+00  0.4159729668535E+00
 0.1891534396347E+00 -0.2335232141351E+00  0.0000000000000E+00  0.3649379339841E+00
 0.2097366342619E+00 -0.2520431714200E+00  0.0000000000000E+00  0.3231245784585E+00
 0.2267046620932E+00 -0.2670897595751E+00  0.0000000000000E+00  0.2904006344437E+00
 0.2401185369187E+00 -0.2787426044891E+00  0.0000000000000E+00  0.2663811077167E+00
 0.2501692227785E+00 -0.2872039563367E+00  0.0000000000000E+00  0.2504672121836E+00
 0.2571055423980E+00 -0.2927267567740E+00  0.0000000000000E+00  0.2419149511264E+00
 0.2611741650508E+00 -0.2955589561017E+00  0.0000000000000E+00  0.2399829705514E+00
 0.2626461349126E+00 -0.2959693203351E+00  0.0000000000000E+00  0.2439422095787E+00
 0.2618219600948E+00 -0.2942417490680E+00  0.0000000000000E+00  0.2527513654933E+00
 0.2588423802651E+00 -0.2905523760243E+00  0.0000000000000E+00  0.2665550106137E+00
 0.2542103240291E+00 -0.2854238782905E+00  0.0000000000000E+00  0.2852169268823E+00
 0.2484924237327E+00 -0.2793707054318E+00  0.0000000000000E+00  0.3073034144591E+00
 0.2415629550867E+00 -0.2722322947781E+00  0.0000000000000E+00  0.3317472054084E+00
 0.2332944150496E+00 -0.2638271920813E+00  0.0000000000000E+00  0.3574543395796E+00
 0.2236105229727E+00 -0.2540484694349E+00  0.0000000000000E+00  0.3834322956174E+00
 0.2135419567143E+00 -0.2435872130952E+00  0.0000000000000E+00  0.4093498579166E+00
 0.2016264466301E+00 -0.2317244140205E+00  0.0000000000000E+00  0.4407762698280E+00
 0.1168794037811E+00 -0.1664861804354E+00  0.0000000000000E+00  0.5586294209374E+00
 0.1426181072214E+00 -0.1900457648034E+00  0.0000000000000E+00  0.4867772956849E+00
 0.1678552196271E+00 -0.2129670629568E+00  0.0000000000000E+00  0.4240811582048E+00
 0.1900049627986E+00 -0.2328125769589E+00  0.0000000000000E+00  0.3700672247269E+00
 0.2082584736958E+00 -0.2488727191130E+00  0.0000000000000E+00  0.3250539448858E+00
 0.2225676395977E+00 -0.2611447498230E+00  0.0000000000000E+00  0.2893671633068E+00
 0.2331441864264E+00 -0.2698603293307E+00  0.0000000000000E+00  0.2628301321196E+00
 0.2403049219790E+00 -0.2753480017211E+00  0.0000000000000E+00  0.2449028971355E+00
 0.2443975048575E+00 -0.2779582717755E+00  0.0000000000000E+00  0.2347982846491E+00
 0.2457477622847E+00 -0.2780153565323E+00  0.0000000000000E+00  0.2316864365957E+00
 0.2446940881428E+00 -0.2758565904226E+00  0.0000000000000E+00  0.2347586646566E+00
 0.2415724849188E+00 -0.2717944058177E+00  0.0000000000000E+00  0.2428429249488E+00
 0.2365573001524E+00 -0.2660469064604E+00  0.0000000000000E+00  0.2561870833572E+00
 0.2303171030077E+00 -0.2593124681155E+00  0.0000000000000E+00  0.2746270104053E+00
 0.2235877800139E+00 -0.2522726392381E+00  0.0000000000000E+00  0.2964402094447E+00
 0.2162714446907E+00 -0.2447879153940E+00  0.0000000000000E+00  0.3204730824369E+00
 0.2082542317607E+00 -0.2366982385064E+00  0.0000000000000E+00  0.3457267741211E+00
 0.1995084383884E+00 -0.2279023990480E+00  0.0000000000000E+00  0.3717973325244E+00
 0.1899478686765E+00 -0.2184067027170E+00  0.0000000000000E+00  0.3998412636173E+00
 0.1772148375308E+00 -0.2060004470210E+00  0.0000000000000E+00  0.4311363654897E+00
 0.1224476818194E+00 -0.1708516584470E+00  0.0000000000000E+00  0.5680830645433E+00
 0.1470604362218E+00 -0.1932080814273E+00  0.0000000000000E+00  0.4955484020390E+00
 0.1709447787184E+00 -0.2146388667905E+00  0.0000000000000E+00  0.4301737921676E+00
 0.1911350253281E+00 -0.2323675627684E+00  0.0000000000000E+00  0.3725221286408E+00
 0.2068608258457E+00 -0.2457503749427E+00  0.0000000000000E+00  0.3238190324220E+00
 0.2182764998186E+00 -0.2549968406674E+00  0.0000000000000E+00  0.2848921865055E+00
 0.2257971661108E+00 -0.2605446073824E+00  0.0000000000000E+00  0.2557261452765E+00
 0.2299011747733E+00 -0.2628847396222E+00  0.0000000000000E+00  0.2357823444548E+00
 0.2310537491821E+00 -0.2624831753763E+00  0.0000000000000E+00  0.2241759736052E+00
 0.2296617161891E+00 -0.2597428343190E+00  0.0000000000000E+00  0.2199461099652E+00
 0.2261202508462E+00 -0.2550554420575E+00  0.0000000000000E+00  0.2221640685799E+00
 0.2207807342222E+00 -0.2487409148751E+00  0.0000000000000E+00  0.2294879274521E+00
 0.2138546589992E+00 -0.2410610835448E+00  0.0000000000000E+00  0.2422119391228E+00
 0.2061818552384E+00 -0.2328939324327E+00  0.0000000000000E+00  0.2601886562107E+00
 0.1986298446474E+00 -0.2250555486617E+00  0.0000000000000E+00  0.2815701880728E+00
 0.1910770719389E+00 -0.2173826094082E+00  0.0000000000000E+00  0.3052371776057E+00
 0.1833411322548E+00 -0.2096430271634E+00  0.0000000000000E+00  0.3304035373046E+00
 0.1750653564745E+00 -0.2014747659091E+00  0.0000000000000E+00  0.3570609453737E+00
 0.1656696476584E+00 -0.1923182601765E+00  0.0000000000000E+00  0.3857157393496E+00
 0.1533149113508E+00 -0.1804508974676E+00  0.0000000000000E+00  0.4155606311981E+00
 0.1281869251005E+00 -0.1754404849264E+00  0.0000000000000E+00  0.5763541721791E+00
 0.1519097842881E+00 -0.1968168243406E+00  0.0000000000000E+00  0.5028220099867E+00
 0.1744803466533E+00 -0.2167722780746E+00  0.0000000000000E+00  0.4340318824827E+00
 0.1925565128387E+00 -0.2322033437560E+00  0.0000000000000E+00  0.3720171899347E+00
 0.2054968590000E+00 -0.2426285396749E+00  0.0000000000000E+00  0.3191572091955E+00
 0.2137487629870E+00 -0.2485618524922E+00  0.0000000000000E+00  0.2768018910551E+00
 0.2179899542319E+00 -0.2507068671964E+00  0.0000000000000E+00  0.2450230298893E+00
 0.2188927496517E+00 -0.2497496822782E+00  0.0000000000000E+00  0.2231992485353E+00
 0.2170509644393E+00 -0.2462820403844E+00  0.0000000000000E+00  0.2102695911714E+00
 0.2129470007433E+00 -0.2407783689496E+00  0.0000000000000E+00  0.2050777825928E+00
 0.2070191412762E+00 -0.2336693848758E+00  0.0000000000000E+00  0.2065262615189E+00
 0.1996147147916E+00 -0.2252611953632E+00  0.0000000000000E+00  0.2130748803878E+00
 0.1909773926448E+00 -0.2158521196887E+00  0.0000000000000E+00  0.2250275833797E+00
 0.1820992488305E+00 -0.2064804182381E+00  0.0000000000000E+00  0.2423042696161E+00
 0.1739149684613E+00 -0.1980355207614E+00  0.0000000000000E+00  0.2630707899547E+00
 0.1662258242267E+00 -0.1902748715991E+00  0.0000000000000E+00  0.2862968612952E+00
 0.1586949444205E+00 -0.1828224594186E+00  0.0000000000000E+00  0.3113237853488E+00
 0.1507468024444E+00 -0.1750847490905E+00  0.0000000000000E+00  0.3380550744298E+00
 0.1416995139837E+00 -0.1663977331918E+00  0.0000000000000E+00  0.3664303516040E+00
 0.1303934503181E+00 -0.1556682367892E+00  0.0000000000000E+00  0.3949408055780E+00
 0.1341551888892E+00 -0.1803271540856E+00  0.0000000000000E+00  0.5834952786710E+00
 0.1572640640162E+00 -0.2009817899446E+00  0.0000000000000E+00  0.5084710253264E+00
 0.1785163822849E+00 -0.2194276040623E+00  0.0000000000000E+00  0.4353553522235E+00
 0.1942439793599E+00 -0.2322950645467E+00  0.0000000000000E+00  0.3681965392878E+00
 0.2040700655861E+00 -0.2394078444476E+00  0.0000000000000E+00  0.3107800855064E+00
 0.2088501649436E+00 -0.2417013777641E+00  0.0000000000000E+00  0.2649487404281E+00
 0.2095885767388E+00 -0.2402097737291E+00  0.0000000000000E+00  0.2307436861613E+00
 0.2071781126636E+00 -0.2358404572146E+00  0.0000000000000E+00  0.2073432887720E+00
 0.2023424661511E+00 -0.2293106409788E+00  0.0000000000000E+00  0.1934059812426E+00
 0.1956246973494E+00 -0.2211492637575E+00  0.0000000000000E+00  0.1875036234421E+00
 0.1874847727275E+00 -0.2118021796486E+00  0.0000000000000E+00  0.1883199765528E+00
 0.1782424600857E+00 -0.2015362911761E+00  0.0000000000000E+00  0.1941005807864E+00
 0.1681608688321E+00 -0.1906710156855E+00  0.0000000000000E+00  0.2051325013332E+00
 0.1583507512462E+00 -0.1803707083083E+00  0.0000000000000E+00  0.2214407417375E+00
 0.1497467199249E+00 -0.1715316648321E+00  0.0000000000000E+00  0.2413176464906E+00
 0.1420344399485E+00 -0.1637945066071E+00  0.0000000000000E+00  0.2638334347225E+00
 0.1347413391292E+00 -0.1566440789517E+00  0.0000000000000E+00  0.2883507404672E+00
 0.1271784705187E+00 -0.1493677684636E+00  0.0000000000000E+00  0.3146272595440E+00
 0.1187179677647E+00 -0.1413464866580E+00  0.0000000000000E+00  0.3422859376103E+00
 0.1087421398724E+00 -0.1320118034634E+00  0.0000000000000E+00  0.3698648934137E+00
 0.1404278409863E+00 -0.1856061287285E+00  0.0000000000000E+00  0.5895573206776E+00
 0.1632280259972E+00 -0.2058201115341E+00  0.0000000000000E+00  0.5122977295135E+00
 0.1830822248317E+00 -0.2226388658014E+00  0.0000000000000E+00  0.4337492726403E+00
 0.1961194623993E+00 -0.2325629699259E+00  0.0000000000000E+00  0.3606372827584E+00
 0.2024199491909E+00 -0.2359219894481E+00  0.0000000000000E+00  0.2983890889629E+00
 0.2033855551704E+00 -0.2342130663230E+00  0.0000000000000E+00  0.2492340416477E+00
 0.2004104051572E+00 -0.2288648282787E+00  0.0000000000000E+00  0.2130050376187E+00
 0.1946235446626E+00 -0.2210208730192E+00  0.0000000000000E+00  0.1885221604854E+00
 0.1868656920284E+00 -0.2115084303509E+00  0.0000000000000E+00  0.1740349981322E+00
 0.1777124358583E+00 -0.2008797549696E+00  0.0000000000000E+00  0.1677613989607E+00
 0.1676141751560E+00 -0.1895615579177E+00  0.0000000000000E+00  0.1681227608012E+00
 0.1568342963947E+00 -0.1777505940780E+00  0.0000000000000E+00  0.1731528689332E+00
 0.1456385515426E+00 -0.1657675364949E+00  0.0000000000000E+00  0.1831023656491E+00
 0.1352190717293E+00 -0.1548645178683E+00  0.0000000000000E+00  0.1981299462797E+00
 0.1264497242643E+00 -0.1458847243765E+00  0.0000000000000E+00  0.2167574505611E+00
 0.1188897707103E+00 -0.1383377916048E+00  0.0000000000000E+00  0.2381710980757E+00
 0.1119581762097E+00 -0.1315966851795E+00  0.0000000000000E+00  0.2617412064860E+00
 0.1049158310852E+00 -0.1248916505603E+00  0.0000000000000E+00  0.2871160093542E+00
 0.9722322806445E-01 -0.1176895748857E+00  0.0000000000000E+00  0.3138312335646E+00
 0.8861769184375E-01 -0.1097711102813E+00  0.0000000000000E+00  0.3408111816623E+00
 0.1471018346037E+00 -0.1913973483258E+00  0.0000000000000E+00  0.5945835596682E+00
 0.1699106610897E+00 -0.2114542101393E+00  0.0000000000000E+00  0.5140090249863E+00
 0.1881689641622E+00 -0.2264005054822E+00  0.0000000000000E+00  0.4287067664675E+00
 0.1980350885089E+00 -0.2328543802795E+00  0.0000000000000E+00  0.3488536201817E+00
 0.2003075030025E+00 -0.2319222457877E+00  0.0000000000000E+00  0.2816987019930E+00
 0.1970916369531E+00 -0.2258226266129E+00  0.0000000000000E+00  0.2296411860494E+00
 0.1902253740109E+00 -0.2164333615238E+00  0.0000000000000E+00  0.1920519521948E+00
 0.1810709927234E+00 -0.2051292082114E+00  0.0000000000000E+00  0.1671886351085E+00
 0.1705530078994E+00 -0.1928099600778E+00  0.0000000000000E+00  0.1527446468116E+00
 0.1592346004326E+00 -0.1800018814605E+00  0.0000000000000E+00  0.1465058918071E+00
 0.1475146537636E+00 -0.1670668091822E+00  0.0000000000000E+00  0.1466044079810E+00
 0.1355672096050E+00 -0.1540962481324E+00  0.0000000000000E+00  0.1508923374392E+00
 0.1236440847935E+00 -0.1413922849853E+00  0.0000000000000E+00  0.1595766412624E+00
 0.1129830572787E+00 -0.1302584214266E+00  0.0000000000000E+00  0.1729791846000E+00
 0.1043478663797E+00 -0.1214352122358E+00  0.0000000000000E+00  0.1899550606634E+00
 0.9716952295426E-01 -0.1142984716684E+00  0.0000000000000E+00  0.2098413008401E+00
 0.9077805365943E-01 -0.1081285300147E+00  0.0000000000000E+00  0.2320331543793E+00
 0.8441238571174E-01 -0.1021289606400E+00  0.0000000000000E+00  0.2561241194042E+00
 0.7760347657363E-01 -0.9583743791144E-01  0.0000000000000E+00  0.2817087891655E+00
 0.7028249866378E-01 -0.8923097469486E-01  0.0000000000000E+00  0.3082240795443E+00
 0.1543005328012E+00 -0.1978529767395E+00  0.0000000000000E+00  0.5986006859520E+00
 0.1774197014762E+00 -0.2180069721093E+00  0.0000000000000E+00  0.5131826994731E+00
 0.1937105992530E+00 -0.2306482763784E+00  0.0000000000000E+00  0.4195887672121E+00
 0.1997510276748E+00 -0.2329205657841E+00  0.0000000000000E+00  0.3323065684810E+00
 0.1973996058281E+00 -0.2270605171782E+00  0.0000000000000E+00  0.2604712043017E+00
 0.1896324605139E+00 -0.2161784360377E+00  0.0000000000000E+00  0.2062818933740E+00
 0.1787624373104E+00 -0.2026329956595E+00  0.0000000000000E+00  0.1683006846460E+00
 0.1663518606783E+00 -0.1879927155853E+00  0.0000000000000E+00  0.1439699825426E+00
 0.1533477441559E+00 -0.1731619231760E+00  0.0000000000000E+00  0.1302715854728E+00
 0.1402362150646E+00 -0.1585701798974E+00  0.0000000000000E+00  0.1245016798296E+00
 0.1273128944942E+00 -0.1444583217413E+00  0.0000000000000E+00  0.1245076400882E+00
 0.1146283739968E+00 -0.1307767518765E+00  0.0000000000000E+00  0.1280281250446E+00
 0.1024078542952E+00 -0.1177933325864E+00  0.0000000000000E+00  0.1352383204927E+00
 0.9190383314670E-01 -0.1068318084213E+00  0.0000000000000E+00  0.1466599713131E+00
 0.8373164142309E-01 -0.9849191922803E-01  0.0000000000000E+00  0.1615830951270E+00
 0.7719718862714E-01 -0.9201815808441E-01  0.0000000000000E+00  0.1795312936580E+00
 0.7155228603585E-01 -0.8660978795059E-01  0.0000000000000E+00  0.1999448305024E+00
 0.6602232614005E-01 -0.8145394742828E-01  0.0000000000000E+00  0.2223996829569E+00
 0.6017294909464E-01 -0.7612551456029E-01  0.0000000000000E+00  0.2466241108308E+00
 0.5400412176420E-01 -0.7067723670023E-01  0.0000000000000E+00  0.2725861533293E+00
 0.1621791942501E+00 -0.2051657862742E+00  0.0000000000000E+00  0.6016049326784E+00
 0.1858515815992E+00 -0.2255927030323E+00  0.0000000000000E+00  0.5092210184076E+00
 0.1995567973053E+00 -0.2352314036713E+00  0.0000000000000E+00  0.4056014488681E+00
 0.2009070693798E+00 -0.2323865093710E+00  0.0000000000000E+00  0.3104245023319E+00
 0.1932526581935E+00 -0.2208710022580E+00  0.0000000000000E+00  0.2345695383680E+00
 0.1805998611226E+00 -0.2048510271328E+00  0.0000000000000E+00  0.1794598866846E+00
 0.1657243243031E+00 -0.1871528436914E+00  0.0000000000000E+00  0.1423919762865E+00
 0.1503092641395E+00 -0.1694512212790E+00  0.0000000000000E+00  0.1196963756418E+00
 0.1352264508144E+00 -0.1525468413897E+00  0.0000000000000E+00  0.1075021472151E+00
 0.1207999222315E+00 -0.1366796132687E+00  0.0000000000000E+00  0.1026030016773E+00
 0.1071643735987E+00 -0.1219073157708E+00  0.0000000000000E+00  0.1026169843291E+00
 0.9421689387144E-01 -0.1080085802551E+00  0.0000000000000E+00  0.1052840280485E+00
 0.8215120544514E-01 -0.9521005479334E-01  0.0000000000000E+00  0.1107820484902E+00
 0.7221066085252E-01 -0.8483241982373E-01  0.0000000000000E+00  0.1198759389040E+00
 0.6483711212005E-01 -0.7730948470664E-01  0.0000000000000E+00  0.1323775689838E+00
 0.5921997818083E-01 -0.7176292232384E-01  0.0000000000000E+00  0.1480196780928E+00
 0.5453908838627E-01 -0.6731818091019E-01  0.0000000000000E+00  0.1662951422286E+00
 0.5000558344383E-01 -0.6314700981749E-01  0.0000000000000E+00  0.1867756381151E+00
 0.4518186066428E-01 -0.5882471494245E-01  0.0000000000000E+00  0.2093442862381E+00
 0.4004087577077E-01 -0.5438600541899E-01  0.0000000000000E+00  0.2344610580770E+00
 0.1709310742063E+00 -0.2135798125268E+00  0.0000000000000E+00  0.6035396896767E+00
 0.1952738557796E+00 -0.2343009939251E+00  0.0000000000000E+00  0.5012859821382E+00
 0.2054329085194E+00 -0.2398713064994E+00  0.0000000000000E+00  0.3857731604638E+00
 0.2009858244068E+00 -0.2307109605801E+00  0.0000000000000E+00  0.2826433888102E+00
 0.1872972975015E+00 -0.2127520351832E+00  0.0000000000000E+00  0.2040385610773E+00
 0.1695233673092E+00 -0.1913422145284E+00  0.0000000000000E+00  0.1497576805736E+00
 0.1508152821694E+00 -0.1696826362711E+00  0.0000000000000E+00  0.1152520402407E+00
 0.1328314317310E+00 -0.1493928163692E+00  0.0000000000000E+00  0.9542093907746E-01
 0.1162274038305E+00 -0.1310134433859E+00  0.0000000000000E+00  0.8545548671155E-01
 0.1010642524663E+00 -0.1144846883221E+00  0.0000000000000E+00  0.8171494465894E-01
 0.8726095006156E-01 -0.9962339535594E-01  0.0000000000000E+00  0.8171370439131E-01
 0.7454307214535E-01 -0.8601992297872E-01  0.0000000000000E+00  0.8335577106534E-01
 0.6307993714253E-01 -0.7386599957429E-01  0.0000000000000E+00  0.8687504976709E-01
 0.5409114111425E-01 -0.6446573260503E-01  0.0000000000000E+00  0.9332135249209E-01
 0.4783516822334E-01 -0.5807673425963E-01  0.0000000000000E+00  0.1030873709060E+00
 0.4340053508585E-01 -0.5371368026557E-01  0.0000000000000E+00  0.1161157573788E+00
 0.3990064775675E-01 -0.5043497896249E-01  0.0000000000000E+00  0.1319433938378E+00
 0.3652915341719E-01 -0.4739530108327E-01  0.0000000000000E+00  0.1501296868849E+00
 0.3281209902500E-01 -0.4413761588902E-01  0.0000000000000E+00  0.1706955733540E+00
 0.2862120741838E-01 -0.4060465961787E-01  0.0000000000000E+00  0.1945140802310E+00
 0.1807935717011E+00 -0.2234039335300E+00  0.0000000000000E+00  0.6042582272618E+00
 0.2056944565022E+00 -0.2441680903063E+00  0.0000000000000E+00  0.4882073458723E+00
 0.2108801279355E+00 -0.2440989640864E+00  0.0000000000000E+00  0.3589356378771E+00
 0.1992656747817E+00 -0.2271338876686E+00  0.0000000000000E+00  0.2484827550410E+00
 0.1788291968192E+00 -0.2019529163166E+00  0.0000000000000E+00  0.1692305262355E+00
 0.1558979427333E+00 -0.1751129350854E+00  0.0000000000000E+00  0.1181518372379E+00
 0.1337884916716E+00 -0.1499633239855E+00  0.0000000000000E+00  0.8815376347194E-01
 0.1138983253295E+00 -0.1278040305488E+00  0.0000000000000E+00  0.7241706674479E-01
 0.9648325418665E-01 -0.1087113735127E+00  0.0000000000000E+00  0.6523648455388E-01
 0.8123929367260E-01 -0.9221542280671E-01  0.0000000000000E+00  0.6273052207884E-01
 0.6783336711517E-01 -0.7785635179871E-01  0.0000000000000E+00  0.6251803500137E-01
 0.5582372748926E-01 -0.6504506491259E-01  0.0000000000000E+00  0.6286498494707E-01
 0.4537741155244E-01 -0.5396120543747E-01  0.0000000000000E+00  0.6411898803232E-01
 0.3768555186481E-01 -0.4588863591908E-01  0.0000000000000E+00  0.6764184749376E-01
 0.3282861706614E-01 -0.4091303377146E-01  0.0000000000000E+00  0.7442810187551E-01
 0.2981700237900E-01 -0.3796543459608E-01  0.0000000000000E+00  0.8460753123837E-01
 0.2770478930850E-01 -0.3604579468837E-01  0.0000000000000E+00  0.9773920400958E-01
 0.2566631691362E-01 -0.3429137954228E-01  0.0000000000000E+00  0.1133480220228E+00
 0.2316681127110E-01 -0.3218801286460E-01  0.0000000000000E+00  0.1315489385764E+00
 0.1992106700264E-01 -0.2952986506457E-01  0.0000000000000E+00  0.1535123028951E+00
 0.1920526079055E+00 -0.2350289189697E+00  0.0000000000000E+00  0.6034595915973E+00
 0.2170070456947E+00 -0.2551252372358E+00  0.0000000000000E+00  0.4683491340209E+00
 0.2151642771135E+00 -0.2471575833960E+00  0.0000000000000E+00  0.3237215238324E+00
 0.1947634541257E+00 -0.2206095974640E+00  0.0000000000000E+00  0.2076872127945E+00
 0.1670178396122E+00 -0.1875777966634E+00  0.0000000000000E+00  0.1309983840656E+00
 0.1392441435231E+00 -0.1556460999755E+00  0.0000000000000E+00  0.8615698336801E-01
 0.1145212094516E+00 -0.1278684668128E+00  0.0000000000000E+00  0.6275741054658E-01
 0.9364042881414E-01 -0.1048334644732E+00  0.0000000000000E+00  0.5212790487379E-01
 0.7625125798589E-01 -0.8592282848163E-01  0.0000000000000E+00  0.4794356825132E-01
 0.6161282496679E-01 -0.7018256065954E-01  0.0000000000000E+00  0.4644251717157E-01
 0.4914429905745E-01 -0.5688764915430E-01  0.0000000000000E+00  0.4562594103728E-01
 0.3827199484527E-01 -0.4531299700864E-01  0.0000000000000E+00  0.4431946968818E-01
 0.2919710461075E-01 -0.3566409908470E-01  0.0000000000000E+00  0.4302155352677E-01
 0.2308483723478E-01 -0.2920704439174E-01  0.0000000000000E+00  0.4340465654119E-01
 0.1985546041425E-01 -0.2587118505250E-01  0.0000000000000E+00  0.4704521599888E-01
 0.1846952465847E-01 -0.2453319398614E-01  0.0000000000000E+00  0.5421840096589E-01
 0.1793096083357E-01 -0.2414584372136E-01  0.0000000000000E+00  0.6447785889896E-01
 0.1739709818763E-01 -0.2383298119428E-01  0.0000000000000E+00  0.7728615140216E-01
 0.1625982259259E-01 -0.2300992783220E-01  0.0000000000000E+00  0.9279121103403E-01
 0.1404200453242E-01 -0.2128560847184E-01  0.0000000000000E+00  0.1123060214557E+00
 0.2050400973626E+00 -0.2489477113571E+00  0.0000000000000E+00  0.6005743146058E+00
 0.2288911614882E+00 -0.2669026254662E+00  0.0000000000000E+00  0.4394118237493E+00
 0.2171344913718E+00 -0.2478478969677E+00  0.0000000000000E+00  0.2786074228570E+00
 0.1861736203226E+00 -0.2097292745100E+00  0.0000000000000E+00  0.1604894142952E+00
 0.1509593997641E+00 -0.1686346264868E+00  0.0000000000000E+00  0.9098714766001E-01
 0.1192238060276E+00 -0.1325709598776E+00  0.0000000000000E+00  0.5598014975173E-01
 0.9312321362294E-01 -0.1035236547131E+00  0.0000000000000E+00  0.4108368867831E-01
 0.7239988745576E-01 -0.8085766565556E-01  0.0000000000000E+00  0.3603011819048E-01
 0.5592725928980E-01 -0.6307574552609E-01  0.0000000000000E+00  0.3452146360880E-01
 0.4253733435031E-01 -0.4876167463045E-01  0.0000000000000E+00  0.3344059280904E-01
 0.3146831672084E-01 -0.3700821483778E-01  0.0000000000000E+00  0.3145623309526E-01
 0.2208156879244E-01 -0.2703058519023E-01  0.0000000000000E+00  0.2809171947900E-01
 0.1465545259384E-01 -0.1910407134610E-01  0.0000000000000E+00  0.2398490169257E-01
 0.1033244849830E-01 -0.1447779510979E-01  0.0000000000000E+00  0.2108262291556E-01
 0.8897816212513E-02 -0.1294630049664E-01  0.0000000000000E+00  0.2148862661076E-01
 0.9292652290683E-02 -0.1336399125220E-01  0.0000000000000E+00  0.2557267369075E-01
 0.1048123240227E-01 -0.1465023840757E-01  0.0000000000000E+00  0.3285978843241E-01
 0.1161274362040E-01 -0.1592671092449E-01  0.0000000000000E+00  0.4272638524017E-01
 0.1200904369144E-01 -0.1654030628355E-01  0.0000000000000E+00  0.5528401389484E-01
 0.1099278803381E-01 -0.1590422942496E-01  0.0000000000000E+00  0.7179301249579E-01
 0.2201107827597E+00 -0.2657758387965E+00  0.0000000000000E+00  0.5945524067502E+00
 0.2406220311090E+00 -0.2788431774305E+00  0.0000000000000E+00  0.3981321505799E+00
 0.2150030759085E+00 -0.2442769830051E+00  0.0000000000000E+00  0.2220761752464E+00
 0.1718317992974E+00 -0.1926576945399E+00  0.0000000000000E+00  0.1080980736291E+00
 0.1298286929584E+00 -0.1441894300320E+00  0.0000000000000E+00  0.5204980732259E-01
 0.9584206392879E-01 -0.1058878718996E+00  0.0000000000000E+00  0.3061405752328E-01
 0.7006893925527E-01 -0.7745299819014E-01  0.0000000000000E+00  0.2532823188886E-01
 0.5076626087253E-01 -0.5651831147121E-01  0.0000000000000E+00  0.2537270913828E-01
 0.3602159059607E-01 -0.4071369702133E-01  0.0000000000000E+00  0.2557315825998E-01
 0.2439021059484E-01 -0.2834918604343E-01  0.0000000000000E+00  0.2402624359917E-01
 0.1505971463385E-01 -0.1848417543513E-01  0.0000000000000E+00  0.2022985748079E-01
 0.7408323520561E-02 -0.1036367024679E-01  0.0000000000000E+00  0.1442563376053E-01
 0.1827249235943E-02 -0.4367151788594E-02  0.0000000000000E+00  0.7314442825602E-02
-0.5690817063799E-03 -0.1715754146758E-02  0.0000000000000E+00  0.1053601257792E-02
-0.1034582374873E-03 -0.2090750497316E-02  0.0000000000000E+00 -0.1800379232050E-02
 0.2173568942568E-02 -0.4354844258521E-02  0.0000000000000E+00 -0.8299845462236E-03
 0.5196702211236E-02 -0.7409668181293E-02  0.0000000000000E+00  0.3454758983555E-02
 0.8125630846362E-02 -0.1039705588852E-01  0.0000000000000E+00  0.1033463818441E-01
 0.1023641423863E-01 -0.1261816844158E-01  0.0000000000000E+00  0.1981575871940E-01
 0.1067781829406E-01 -0.1331390878768E-01  0.0000000000000E+00  0.3286922491644E-01
 0.2375554080940E+00 -0.2862581698453E+00  0.0000000000000E+00  0.5834436173049E+00
 0.2506907437699E+00 -0.2895181345176E+00  0.0000000000000E+00  0.3398233219822E+00
 0.2060057438183E+00 -0.2334494183892E+00  0.0000000000000E+00  0.1530797559598E+00
 0.1497947882428E+00 -0.1671684653602E+00  0.0000000000000E+00  0.5360942290822E-01
 0.1032386529928E+00 -0.1137610168553E+00  0.0000000000000E+00  0.1874510235071E-01
 0.6975160086228E-01 -0.7631270596861E-01  0.0000000000000E+00  0.1367193595050E-01
 0.4629914214623E-01 -0.5069573372778E-01  0.0000000000000E+00  0.1737876749623E-01
 0.2953055739345E-01 -0.3266101307406E-01  0.0000000000000E+00  0.2079797833766E-01
 0.1707903208996E-01 -0.1940770132506E-01  0.0000000000000E+00  0.2120923432538E-01
 0.7512022523175E-02 -0.9296792794822E-02  0.0000000000000E+00  0.1819160030176E-01
 0.1158532601684E-03 -0.1519169121219E-02  0.0000000000000E+00  0.1199714325499E-01
-0.5645350940366E-02  0.4578418360685E-02  0.0000000000000E+00  0.3473162394651E-02
-0.9253923484636E-02  0.8502816768502E-02  0.0000000000000E+00 -0.6752971153219E-02
-0.9646025302803E-02  0.9092951058704E-02  0.0000000000000E+00 -0.1638480044425E-01
-0.7228297023390E-02  0.6764718616021E-02  0.0000000000000E+00 -0.2248977768455E-01
-0.3023824624011E-02  0.2623204726852E-02  0.0000000000000E+00 -0.2463107989939E-01
 0.1879142830596E-02 -0.2231060902078E-02  0.0000000000000E+00 -0.2332906178475E-01
 0.6684039989224E-02 -0.7000217354618E-02  0.0000000000000E+00 -0.1938029409333E-01
 0.1067461845696E-01 -0.1099058874273E-01  0.0000000000000E+00 -0.1294621196581E-01
 0.1289523868012E-01 -0.1333605043938E-01  0.0000000000000E+00 -0.3625777204827E-02
 0.2573384713824E+00 -0.3112195455126E+00  0.0000000000000E+00  0.5635178968526E+00
 0.2559695862035E+00 -0.2958704530495E+00  0.0000000000000E+00  0.2576406349286E+00
 0.1859379907503E+00 -0.2106009471758E+00  0.0000000000000E+00  0.7235708582988E-01
 0.1183130222228E+00 -0.1311102444829E+00  0.0000000000000E+00  0.3611346827241E-02
 0.7197665676359E-01 -0.7814437194945E-01  0.0000000000000E+00 -0.2376475331610E-02
 0.4257946614803E-01 -0.4569601648984E-01  0.0000000000000E+00  0.8486956217849E-02
 0.2312205131211E-01 -0.2465641826689E-01  0.0000000000000E+00  0.1795265706474E-01
 0.9511781541609E-02 -0.1014564038980E-01  0.0000000000000E+00  0.2206753313969E-01
-0.4357932820671E-03  0.3654967656184E-03  0.0000000000000E+00  0.2104168023046E-01
-0.7856711040601E-02  0.8152529041775E-02  0.0000000000000E+00  0.1568679095482E-01
-0.1325237810483E-01  0.1377510991503E-01  0.0000000000000E+00  0.6706710018908E-02
-0.1703931099379E-01  0.1775133211812E-01  0.0000000000000E+00 -0.4646544579733E-02
-0.1858899390890E-01  0.1949606442764E-01  0.0000000000000E+00 -0.1800432904228E-01
-0.1693579871726E-01  0.1797184347732E-01  0.0000000000000E+00 -0.3098542581961E-01
-0.1255091844716E-01  0.1368297905278E-01  0.0000000000000E+00 -0.4034390818476E-01
-0.6428446176738E-02  0.7694889598505E-02  0.0000000000000E+00 -0.4562138103400E-01
 0.3179812051375E-03  0.1096150513803E-02  0.0000000000000E+00 -0.4727162427036E-01
 0.6990152815898E-02 -0.5440063716975E-02  0.0000000000000E+00 -0.4610643140753E-01
 0.1297656977713E-01 -0.1132230342138E-01  0.0000000000000E+00 -0.4249623609346E-01
 0.1734517913402E-01 -0.1569333123688E-01  0.0000000000000E+00 -0.3695502497092E-01
 0.2780342307680E+00 -0.3412188842269E+00  0.0000000000000E+00  0.5269440462499E+00
 0.2498038338203E+00 -0.2909655171636E+00  0.0000000000000E+00  0.1417383792314E+00
 0.1487295307708E+00 -0.1684521910296E+00  0.0000000000000E+00 -0.1410234459679E-01
 0.7754508729556E-01 -0.8407501915725E-01  0.0000000000000E+00 -0.2903416831069E-01
 0.3923684467290E-01 -0.4118035557371E-01  0.0000000000000E+00 -0.4309923954130E-02
 0.1665487781066E-01 -0.1653718468668E-01  0.0000000000000E+00  0.1580824672224E-01
 0.1787309451089E-02 -0.6509655572988E-03  0.0000000000000E+00  0.2610796540214E-01
-0.8655388292735E-02  0.1038169510603E-01  0.0000000000000E+00  0.2815237734110E-01
-0.1623386319564E-01  0.1831643371724E-01  0.0000000000000E+00  0.2435628726922E-01
-0.2161434531060E-01  0.2390094414105E-01  0.0000000000000E+00  0.1613744429121E-01
-0.2503872044445E-01  0.2739836878214E-01  0.0000000000000E+00  0.4286858514008E-02
-0.2679842442274E-01  0.2917785669876E-01  0.0000000000000E+00 -0.9771459123630E-02
-0.2620052455909E-01  0.2862235849276E-01  0.0000000000000E+00 -0.2618819351111E-01
-0.2246295591548E-01  0.2492687495693E-01  0.0000000000000E+00 -0.4250788076597E-01
-0.1610906994572E-01  0.1868994538282E-01  0.0000000000000E+00 -0.5519842732673E-01
-0.8124892458396E-02  0.1094060977075E-01  0.0000000000000E+00 -0.6373288640484E-01
 0.3266173104723E-03  0.2767152271356E-02  0.0000000000000E+00 -0.6836872046121E-01
 0.8719864986522E-02 -0.5387251211628E-02  0.0000000000000E+00 -0.6977124592383E-01
 0.1672084212255E-01 -0.1319766273774E-01  0.0000000000000E+00 -0.6853241117166E-01
 0.2363887476860E-01 -0.2002465289776E-01  0.0000000000000E+00 -0.6649383883870E-01
 0.2938381988067E+00 -0.3753495313047E+00  0.0000000000000E+00  0.4558204290123E+00
 0.2157354180453E+00 -0.2573684821623E+00  0.0000000000000E+00 -0.2237319165700E-01
 0.8898354094852E-01 -0.9697327138322E-01  0.0000000000000E+00 -0.8148371198956E-01
 0.3487391753183E-01 -0.3587843109246E-01  0.0000000000000E+00 -0.2650214514151E-01
 0.9559457373523E-02 -0.7657763817854E-02  0.0000000000000E+00  0.1308944055396E-01
-0.6177689020050E-02  0.9203429766570E-02  0.0000000000000E+00  0.3308449141600E-01
-0.1689321245551E-01  0.2051419786664E-01  0.0000000000000E+00  0.3970501529041E-01
-0.2464612331818E-01  0.2860254565187E-01  0.0000000000000E+00  0.3769301316209E-01
-0.3022144880981E-01  0.3435127597500E-01  0.0000000000000E+00  0.3033614312562E-01
-0.3380946500714E-01  0.3800873678918E-01  0.0000000000000E+00  0.1912828975161E-01
-0.3535796978895E-01  0.3947713479125E-01  0.0000000000000E+00  0.4707771696212E-02
-0.3502175217175E-01  0.3896433482563E-01  0.0000000000000E+00 -0.1159409831845E-01
-0.3211054783154E-01  0.3588029539120E-01  0.0000000000000E+00 -0.3090167816630E-01
-0.2619442004938E-01  0.2989667589686E-01  0.0000000000000E+00 -0.5067061614365E-01
-0.1786765655847E-01  0.2173948659761E-01  0.0000000000000E+00 -0.6695703582250E-01
-0.8134953612842E-02  0.1238491661256E-01  0.0000000000000E+00 -0.7901024878633E-01
 0.1799873854375E-02  0.2881665897151E-02  0.0000000000000E+00 -0.8679408624780E-01
 0.1157690183923E-01 -0.6503171851732E-02  0.0000000000000E+00 -0.9065786530938E-01
 0.2137529836658E-01 -0.1609606861062E-01  0.0000000000000E+00 -0.9100993697560E-01
 0.3129438434747E-01 -0.2587936859199E-01  0.0000000000000E+00 -0.9169888785903E-01
 0.2508503635572E+00 -0.3929048287088E+00  0.0000000000000E+00  0.2697950232302E+00
 0.1187896855940E+00 -0.1286032401514E+00  0.0000000000000E+00 -0.2124023697137E+00
 0.2431701521402E-01 -0.2496870716802E-01  0.0000000000000E+00 -0.7396704473436E-01
 0.3219165828026E-03  0.3502448936021E-02  0.0000000000000E+00  0.7515104885496E-02
-0.1482270129650E-01  0.1997136464875E-01  0.0000000000000E+00  0.4338376512364E-01
-0.2501305609280E-01  0.3068662702065E-01  0.0000000000000E+00  0.5623090698857E-01
-0.3266762115925E-01  0.3859699187223E-01  0.0000000000000E+00  0.5643850442331E-01
-0.3843236435591E-01  0.4450843464207E-01  0.0000000000000E+00  0.4942104545789E-01
-0.4243308382563E-01  0.4852068474840E-01  0.0000000000000E+00  0.3831432010749E-01
-0.4459514810288E-01  0.5058331105275E-01  0.0000000000000E+00  0.2409049367434E-01
-0.4454604808847E-01  0.5043157939800E-01  0.0000000000000E+00  0.7868375424851E-02
-0.4194084771476E-01  0.4736048850156E-01  0.0000000000000E+00 -0.9290794361973E-02
-0.3623444624436E-01  0.4111059355362E-01  0.0000000000000E+00 -0.3134951522847E-01
-0.2791905282274E-01  0.3263265373318E-01  0.0000000000000E+00 -0.5523139952223E-01
-0.1769852572113E-01  0.2271476811966E-01  0.0000000000000E+00 -0.7568851361213E-01
-0.6448354576274E-02  0.1201064829484E-01  0.0000000000000E+00 -0.9158112712490E-01
 0.4705676706893E-02  0.1484641120772E-02  0.0000000000000E+00 -0.1027616856872E+00
 0.1550316861167E-01 -0.8774335222761E-02  0.0000000000000E+00 -0.1092338964181E+00
 0.2634081069910E-01 -0.1920005664323E-01  0.0000000000000E+00 -0.1108504191725E+00
 0.3939553340945E-01 -0.3259240713888E-01  0.0000000000000E+00 -0.1116232296235E+00
 0.3144102943394E+00 -0.3554227657207E+00  0.0000000000000E+00 -0.4561134616127E+00
 0.2907592171726E+00 -0.3290271680866E+00  0.0000000000000E+00 -0.4626253810362E+00
 0.2663438303796E+00 -0.3029236977918E+00  0.0000000000000E+00 -0.4661174231946E+00
 0.2415153814162E+00 -0.2764223719631E+00  0.0000000000000E+00 -0.4659256956836E+00
 0.2161179160407E+00 -0.2492867859812E+00  0.0000000000000E+00 -0.4613528839530E+00
 0.1903701655287E+00 -0.2216691643457E+00  0.0000000000000E+00 -0.4519538392313E+00
 0.1645945495375E+00 -0.1938666883445E+00  0.0000000000000E+00 -0.4373315733276E+00
 0.1391890122793E+00 -0.1662646400314E+00  0.0000000000000E+00 -0.4171512889775E+00
 0.1146093671196E+00 -0.1393146385160E+00  0.0000000000000E+00 -0.3911664167938E+00
 0.9136635772085E-01 -0.1135284735480E+00  0.0000000000000E+00 -0.3592618617510E+00
 0.7002228483074E-01 -0.8947394307827E-01  0.0000000000000E+00 -0.3215057401329E+00
 0.5118247011396E-01 -0.6776666215080E-01  0.0000000000000E+00 -0.2782093746193E+00
 0.3547630110965E-01 -0.4905249303578E-01  0.0000000000000E+00 -0.2299934691428E+00
 0.2352183261785E-01 -0.3397442532098E-01  0.0000000000000E+00 -0.1778549187378E+00
 0.1586666453768E-01 -0.2311638058409E-01  0.0000000000000E+00 -0.1232216267585E+00
 0.1289932200194E-01 -0.1691688037275E-01  0.0000000000000E+00 -0.6796996428953E-01
 0.1473435491988E-01 -0.1555395935271E-01  0.0000000000000E+00 -0.1436383332246E-01
 0.2111709147817E-01 -0.1883717888421E-01  0.0000000000000E+00  0.3513373371733E-01
 0.3139088624527E-01 -0.2619812655374E-01  0.0000000000000E+00  0.7805228501231E-01
 0.4524421522226E-01 -0.3718715714763E-01  0.0000000000000E+00  0.1119786588716E+00
 0.3387190547627E+00 -0.3813451179068E+00  0.0000000000000E+00 -0.4667295593287E+00
 0.3178102855434E+00 -0.3591310468301E+00  0.0000000000000E+00 -0.4752686799907E+00
 0.2941207359448E+00 -0.3337604374848E+00  0.0000000000000E+00 -0.4808455661151E+00
 0.2690257246316E+00 -0.3070856933592E+00  0.0000000000000E+00 -0.4844703995169E+00
 0.2431130223775E+00 -0.2795113875691E+00  0.0000000000000E+00 -0.4846599842275E+00
 0.2166054847761E+00 -0.2512180166302E+00  0.0000000000000E+00 -0.4804794954918E+00
 0.1897485455221E+00 -0.2224116801392E+00  0.0000000000000E+00 -0.4711998910813E+00
 0.1628500028994E+00 -0.1933764192378E+00  0.0000000000000E+00 -0.4562384778286E+00
 0.1363025359334E+00 -0.1644883917438E+00  0.0000000000000E+00 -0.4351204511293E+00
 0.1105909616041E+00 -0.1362215261685E+00  0.0000000000000E+00 -0.4074845663367E+00
 0.8629738445854E-01 -0.1091517058241E+00  0.0000000000000E+00 -0.3731152473036E+00
 0.6410270790381E-01 -0.8395879106561E-01  0.0000000000000E+00 -0.3319983312766E+00
 0.4478099078078E-01 -0.6142275710268E-01  0.0000000000000E+00 -0.2844002346581E+00
 0.2917982223185E-01 -0.4240735675888E-01  0.0000000000000E+00 -0.2309718469384E+00
 0.1817603040674E-01 -0.2782071609941E-01  0.0000000000000E+00 -0.1728753863583E+00
 0.1259091931153E-01 -0.1853680435419E-01  0.0000000000000E+00 -0.1119202835288E+00
 0.1304764552368E-01 -0.1525634896168E-01  0.0000000000000E+00 -0.5065772179828E-01
 0.1976553203869E-01 -0.1829520985539E-01  0.0000000000000E+00  0.7696837038922E-02
 0.3243756215151E-01 -0.2740257590516E-01  0.0000000000000E+00  0.5972811492896E-01
 0.5023756905990E-01 -0.4175134311113E-01  0.0000000000000E+00  0.1030611345497E+00
 0.3631878142104E+00 -0.4080629921454E+00  0.0000000000000E+00 -0.4688309277614E+00
 0.3439247302534E+00 -0.3877740567140E+00  0.0000000000000E+00 -0.4829201056943E+00
 0.3221070757029E+00 -0.3647425109877E+00  0.0000000000000E+00 -0.4930411014345E+00
 0.2981792936333E+00 -0.3394381590430E+00  0.0000000000000E+00 -0.5006106469351E+00
 0.2727794505091E+00 -0.3125622211257E+00  0.0000000000000E+00 -0.5053051422482E+00
 0.2463013366914E+00 -0.2844613105879E+00  0.0000000000000E+00 -0.5062229783739E+00
 0.2190210570963E+00 -0.2553817205073E+00  0.0000000000000E+00 -0.5025035538616E+00
 0.1912193060997E+00 -0.2255748929205E+00  0.0000000000000E+00 -0.4933587874251E+00
 0.1632336247550E+00 -0.1953536522572E+00  0.0000000000000E+00 -0.4780758060855E+00
 0.1354917830855E+00 -0.1651240579626E+00  0.0000000000000E+00 -0.4560140262311E+00
 0.1085349871843E+00 -0.1354085106613E+00  0.0000000000000E+00 -0.4266215394301E+00
 0.8303768840627E-01 -0.1068660257476E+00  0.0000000000000E+00 -0.3894762511468E+00
 0.5982464771836E-01 -0.8031092561570E-01  0.0000000000000E+00 -0.3443588224052E+00
 0.3988222539631E-01 -0.5672736736007E-01  0.0000000000000E+00 -0.2913672866895E+00
 0.2435530847351E-01 -0.3727203549267E-01  0.0000000000000E+00 -0.2310868945556E+00
 0.1451150310964E-01 -0.2324766364397E-01  0.0000000000000E+00 -0.1648280805381E+00
 0.1163336890892E-01 -0.1601023222822E-01  0.0000000000000E+00 -0.9492812404380E-01
 0.1676668177663E-01 -0.1673153798716E-01  0.0000000000000E+00 -0.2502707996418E-01
 0.3023011698090E-01 -0.2588711576105E-01  0.0000000000000E+00  0.4013468482116E-01
 0.5102531025635E-01 -0.4262544338418E-01  0.0000000000000E+00  0.9587569894527E-01
 0.3884077824868E+00 -0.4355956556278E+00  0.0000000000000E+00 -0.4656267366777E+00
 0.3705809030609E+00 -0.4170498963208E+00  0.0000000000000E+00 -0.4842477060690E+00
 0.3505568672626E+00 -0.3961171928568E+00  0.0000000000000E+00 -0.4993400318543E+00
 0.3283452187326E+00 -0.3728418355229E+00  0.0000000000000E+00 -0.5115943546531E+00
 0.3042648298141E+00 -0.3475425238872E+00  0.0000000000000E+00 -0.5210492892719E+00
 0.2786503923862E+00 -0.3205477522388E+00  0.0000000000000E+00 -0.5271708839590E+00
 0.2517729537934E+00 -0.2920995222250E+00  0.0000000000000E+00 -0.5291814318366E+00
 0.2238814489931E+00 -0.2624174033859E+00  0.0000000000000E+00 -0.5262455367641E+00
 0.1952541423627E+00 -0.2317489380358E+00  0.0000000000000E+00 -0.5175134510753E+00
 0.1662381640331E+00 -0.2004104140329E+00  0.0000000000000E+00 -0.5021340605774E+00
 0.1372842841068E+00 -0.1688214892262E+00  0.0000000000000E+00 -0.4792630197857E+00
 0.1089812642188E+00 -0.1375397562129E+00  0.0000000000000E+00 -0.4480840150941E+00
 0.8209396304524E-01 -0.1072995942435E+00  0.0000000000000E+00 -0.4078555447157E+00
 0.5760744571523E-01 -0.7905818207247E-01  0.0000000000000E+00 -0.3579991500787E+00
 0.3677654606003E-01 -0.5404912009871E-01  0.0000000000000E+00 -0.2982538502400E+00
 0.2117282529234E-01 -0.3383816968183E-01  0.0000000000000E+00 -0.2289379666401E+00
 0.1270104248667E-01 -0.2035765919659E-01  0.0000000000000E+00 -0.1513840055285E+00
 0.1349417805044E-01 -0.1584408986624E-01  0.0000000000000E+00 -0.6864266486351E-01
 0.2538862494761E-01 -0.2240292070762E-01  0.0000000000000E+00  0.1352917173012E-01
 0.4864810907461E-01 -0.4061375986933E-01  0.0000000000000E+00  0.8670702833322E-01
 0.4139328975345E+00 -0.4634730327138E+00  0.0000000000000E+00 -0.4572278968288E+00
 0.3977226189880E+00 -0.4468240439957E+00  0.0000000000000E+00 -0.4794419911891E+00
 0.3795596975988E+00 -0.4280693464356E+00  0.0000000000000E+00 -0.4988552846460E+00
 0.3592977208788E+00 -0.4070611518139E+00  0.0000000000000E+00 -0.5156712154273E+00
 0.3370367476898E+00 -0.3838986008475E+00  0.0000000000000E+00 -0.5298867587810E+00
 0.3129684788931E+00 -0.3587580661065E+00  0.0000000000000E+00 -0.5411471034044E+00
 0.2872915330190E+00 -0.3318155404437E+00  0.0000000000000E+00 -0.5488334030593E+00
 0.2601975542815E+00 -0.3032319527461E+00  0.0000000000000E+00 -0.5521727532267E+00
 0.2318928969883E+00 -0.2731792501252E+00  0.0000000000000E+00 -0.5502993347060E+00
 0.2026290860501E+00 -0.2418709453566E+00  0.0000000000000E+00 -0.5422716549800E+00
 0.1727353711326E+00 -0.2095946290848E+00  0.0000000000000E+00 -0.5270732611300E+00
 0.1426557672104E+00 -0.1767484449222E+00  0.0000000000000E+00 -0.5036106965001E+00
 0.1129952206945E+00 -0.1438866208786E+00  0.0000000000000E+00 -0.4707206288103E+00
 0.8458160324538E-01 -0.1117809336102E+00  0.0000000000000E+00 -0.4271997171512E+00
 0.5855232089254E-01 -0.8150743664118E-01  0.0000000000000E+00 -0.3718797830612E+00
 0.3647708731711E-01 -0.5457113496973E-01  0.0000000000000E+00 -0.3037921681086E+00
 0.2052788356338E-01 -0.3308487394824E-01  0.0000000000000E+00 -0.2225174075216E+00
 0.1369486589373E-01 -0.2001147422744E-01  0.0000000000000E+00 -0.1289378507115E+00
 0.1994088603238E-01 -0.1943672379442E-01  0.0000000000000E+00 -0.2702476345049E-01
 0.4318882421424E-01 -0.3598792723908E-01  0.0000000000000E+00  0.7237441758726E-01
 0.4393485625611E+00 -0.4912349891077E+00  0.0000000000000E+00 -0.4435684274383E+00
 0.4249729066533E+00 -0.4767077600810E+00  0.0000000000000E+00 -0.4684540763791E+00
 0.4088056161896E+00 -0.4602667867132E+00  0.0000000000000E+00 -0.4912938168145E+00
 0.3906712879916E+00 -0.4417269711560E+00  0.0000000000000E+00 -0.5119944883496E+00
 0.3705526616665E+00 -0.4210598010743E+00  0.0000000000000E+00 -0.5304494562626E+00
 0.3485280960537E+00 -0.3983275006338E+00  0.0000000000000E+00 -0.5463624660940E+00
 0.3247125972339E+00 -0.3736211783686E+00  0.0000000000000E+00 -0.5592323516872E+00
 0.2992324978039E+00 -0.3470370875991E+00  0.0000000000000E+00 -0.5683923009686E+00
 0.2722263115824E+00 -0.3186775533863E+00  0.0000000000000E+00 -0.5730441318693E+00
 0.2438596993655E+00 -0.2886663473815E+00  0.0000000000000E+00 -0.5722707317731E+00
 0.2143474699668E+00 -0.2571699148430E+00  0.0000000000000E+00 -0.5650282453602E+00
 0.1839818802067E+00 -0.2244243195319E+00  0.0000000000000E+00 -0.5501249983582E+00
 0.1531709238636E+00 -0.1907714022263E+00  0.0000000000000E+00 -0.5261918117739E+00
 0.1224940651733E+00 -0.1567114065216E+00  0.0000000000000E+00 -0.4916479811608E+00
 0.9278863160830E-01 -0.1229847174559E+00  0.0000000000000E+00 -0.4446694167895E+00
 0.6529050566251E-01 -0.9070564781859E-01  0.0000000000000E+00 -0.3831747829006E+00
 0.4187658416904E-01 -0.6159317714974E-01  0.0000000000000E+00 -0.3048719846017E+00
 0.2550514135625E-01 -0.3839794053223E-01  0.0000000000000E+00 -0.2075026886994E+00
 0.2112603558649E-01 -0.2576854397426E-01  0.0000000000000E+00 -0.8967936430648E-01
 0.3750129714409E-01 -0.3240077954719E-01  0.0000000000000E+00  0.4475444495756E-01
 0.4642436412050E+00 -0.5184390142693E+00  0.0000000000000E+00 -0.4246301351001E+00
 0.4518678312634E+00 -0.5062057224398E+00  0.0000000000000E+00 -0.4513201179877E+00
 0.4378137841482E+00 -0.4922059604590E+00  0.0000000000000E+00 -0.4765990997149E+00
 0.4219261638497E+00 -0.4762703039895E+00  0.0000000000000E+00 -0.5002291913993E+00
 0.4041402570603E+00 -0.4583198430692E+00  0.0000000000000E+00 -0.5220117147498E+00
 0.3844665485807E+00 -0.4383472230654E+00  0.0000000000000E+00 -0.5416548174529E+00
 0.3629596623008E+00 -0.4163842326622E+00  0.0000000000000E+00 -0.5587247866931E+00
 0.3396973108454E+00 -0.3924798810994E+00  0.0000000000000E+00 -0.5726454475734E+00
 0.3147741558057E+00 -0.3666941801978E+00  0.0000000000000E+00 -0.5827087145113E+00
 0.2883068575748E+00 -0.3391025935134E+00  0.0000000000000E+00 -0.5880769708268E+00
 0.2604464954142E+00 -0.3098074472018E+00  0.0000000000000E+00 -0.5877706737442E+00
 0.2313970710263E+00 -0.2789546042354E+00  0.0000000000000E+00 -0.5806391330650E+00
 0.2014418841133E+00 -0.2467570051769E+00  0.0000000000000E+00 -0.5653122677221E+00
 0.1709830366538E+00 -0.2135297612346E+00  0.0000000000000E+00 -0.5401276283946E+00
 0.1406044688509E+00 -0.1797461404157E+00  0.0000000000000E+00 -0.5030211105212E+00
 0.1111793913023E+00 -0.1461327370391E+00  0.0000000000000E+00 -0.4513590927629E+00
 0.8406527952009E-01 -0.1138421846234E+00  0.0000000000000E+00 -0.3816690606723E+00
 0.6149841423102E-01 -0.8479459462901E-01  0.0000000000000E+00 -0.2891697094913E+00
 0.4745354708561E-01 -0.6243043699574E-01  0.0000000000000E+00 -0.1668849663785E+00
 0.5070758623515E-01 -0.5401480281101E-01  0.0000000000000E+00 -0.3208422732124E-02
 0.4882439184011E+00 -0.5446834141704E+00  0.0000000000000E+00 -0.4005414973885E+00
 0.4779521899072E+00 -0.5348356302202E+00  0.0000000000000E+00 -0.4282143823948E+00
 0.4660695956898E+00 -0.5233440716800E+00  0.0000000000000E+00 -0.4549492475386E+00
 0.4524709692444E+00 -0.5100693663817E+00  0.0000000000000E+00 -0.4804462894601E+00
 0.4370779702347E+00 -0.4949187692987E+00  0.0000000000000E+00 -0.5044400539668E+00
 0.4198650811359E+00 -0.4778500927417E+00  0.0000000000000E+00 -0.5266127302865E+00
 0.4008475536155E+00 -0.4588581655903E+00  0.0000000000000E+00 -0.5465457048537E+00
 0.3800689516336E+00 -0.4379616203965E+00  0.0000000000000E+00 -0.5637015244248E+00
 0.3575951995632E+00 -0.4151963173777E+00  0.0000000000000E+00 -0.5774184943606E+00
 0.3335156896165E+00 -0.3906158270563E+00  0.0000000000000E+00 -0.5869037091981E+00
 0.3079499550298E+00 -0.3642970941362E+00  0.0000000000000E+00 -0.5912159645301E+00
 0.2810587887535E+00 -0.3363500174054E+00  0.0000000000000E+00 -0.5892328729573E+00
 0.2530598741816E+00 -0.3069307151432E+00  0.0000000000000E+00 -0.5795956267684E+00
 0.2242493963337E+00 -0.2762595205066E+00  0.0000000000000E+00 -0.5606202813565E+00
 0.1950328109038E+00 -0.2446460009012E+00  0.0000000000000E+00 -0.5301544169021E+00
 0.1659700867885E+00 -0.2125246968148E+00  0.0000000000000E+00 -0.4853373240695E+00
 0.1378452787915E+00 -0.1805068641985E+00  0.0000000000000E+00 -0.4221746822004E+00
 0.1117687360395E+00 -0.1494498743409E+00  0.0000000000000E+00 -0.3347165004241E+00
 0.8935086634365E-01 -0.1205346378787E+00  0.0000000000000E+00 -0.2132564936649E+00
 0.7245379815620E-01 -0.9484579149834E-01  0.0000000000000E+00 -0.3888870056923E-01
 0.5110112189064E+00 -0.5696028292730E+00  0.0000000000000E+00 -0.3715284276380E+00
 0.5028048523979E+00 -0.5621466689659E+00  0.0000000000000E+00 -0.3994074848261E+00
 0.4930817600422E+00 -0.5531570599329E+00  0.0000000000000E+00 -0.4266634748733E+00
 0.4817365424170E+00 -0.5425168412141E+00  0.0000000000000E+00 -0.4529785824946E+00
 0.4686850786267E+00 -0.5301298570409E+00  0.0000000000000E+00 -0.4780389307070E+00
 0.4538769449187E+00 -0.5159320353958E+00  0.0000000000000E+00 -0.5014848586012E+00
 0.4372932382016E+00 -0.4998882980065E+00  0.0000000000000E+00 -0.5228717542205E+00
 0.4189403633930E+00 -0.4819856715947E+00  0.0000000000000E+00 -0.5416461565698E+00
 0.3988452916821E+00 -0.4622280769216E+00  0.0000000000000E+00 -0.5571300882285E+00
 0.3770538463007E+00 -0.4406341477255E+00  0.0000000000000E+00 -0.5685049091851E+00
 0.3536314590992E+00 -0.4172374236675E+00  0.0000000000000E+00 -0.5747873764068E+00
 0.3286650149959E+00 -0.3920874073140E+00  0.0000000000000E+00 -0.5747915173154E+00
 0.3022639919694E+00 -0.3652496171633E+00  0.0000000000000E+00 -0.5670689230274E+00
 0.2745582831950E+00 -0.3368019310743E+00  0.0000000000000E+00 -0.5498162988820E+00
 0.2456877859385E+00 -0.3068222681878E+00  0.0000000000000E+00 -0.5207312596004E+00
 0.2157730564372E+00 -0.2753569662532E+00  0.0000000000000E+00 -0.4767822326871E+00
 0.1848399539876E+00 -0.2423441046464E+00  0.0000000000000E+00 -0.4138279335920E+00
 0.1526271685612E+00 -0.2074250334715E+00  0.0000000000000E+00 -0.3259654637998E+00
 0.1180290725890E+00 -0.1694261539214E+00  0.0000000000000E+00 -0.2043319128166E+00
 0.7707185656860E-01 -0.1247320897998E+00  0.0000000000000E+00 -0.3573028071338E-01
 0.5322380055722E+00 -0.5928591820197E+00  0.0000000000000E+00 -0.3378879535249E+00
 0.5260371844207E+00 -0.5877131326292E+00  0.0000000000000E+00 -0.3652227537072E+00
 0.5183877803657E+00 -0.5811382310543E+00  0.0000000000000E+00 -0.3921310611932E+00
 0.5091856637967E+00 -0.5730228590434E+00  0.0000000000000E+00 -0.4182938727929E+00
 0.4983353631594E+00 -0.5632633639033E+00  0.0000000000000E+00 -0.4433642779619E+00
 0.4857598108526E+00 -0.5517734837424E+00  0.0000000000000E+00 -0.4669408406307E+00
 0.4714013452348E+00 -0.5384848358744E+00  0.0000000000000E+00 -0.4885383730462E+00
 0.4552181928392E+00 -0.5233430433387E+00  0.0000000000000E+00 -0.5075639815098E+00
 0.4371797116021E+00 -0.5063027513510E+00  0.0000000000000E+00 -0.5232968231289E+00
 0.4172615181579E+00 -0.4873226412693E+00  0.0000000000000E+00 -0.5348669820915E+00
 0.3954399294927E+00 -0.4663598385655E+00  0.0000000000000E+00 -0.5412285092313E+00
 0.3716839035235E+00 -0.4433619246770E+00  0.0000000000000E+00 -0.5411218359278E+00
 0.3459413891095E+00 -0.4182535568456E+00  0.0000000000000E+00 -0.5330204362980E+00
 0.3181149531231E+00 -0.3909128170964E+00  0.0000000000000E+00 -0.5150554552443E+00
 0.2880175749760E+00 -0.3611287601342E+00  0.0000000000000E+00 -0.4849102590581E+00
 0.2552911519618E+00 -0.3285241404906E+00  0.0000000000000E+00 -0.4396757082435E+00
 0.2192523286444E+00 -0.2924116263095E+00  0.0000000000000E+00 -0.3756630927671E+00
 0.1785903579760E+00 -0.2515176634325E+00  0.0000000000000E+00 -0.2882046148434E+00
 0.1307386060378E+00 -0.2034388262172E+00  0.0000000000000E+00 -0.1717014389723E+00
 0.7099929975127E-01 -0.1438290021642E+00  0.0000000000000E+00 -0.2108581199377E-01
 0.5516544275148E+00 -0.6141570461271E+00  0.0000000000000E+00 -0.3000412798016E+00
 0.5473192964723E+00 -0.6111710125065E+00  0.0000000000000E+00 -0.3261249853456E+00
 0.5415942361596E+00 -0.6068517563053E+00  0.0000000000000E+00 -0.3519050311728E+00
 0.5343618680028E+00 -0.6010787704590E+00  0.0000000000000E+00 -0.3770643243791E+00
 0.5255057926316E+00 -0.5937321241614E+00  0.0000000000000E+00 -0.4012369684537E+00
 0.5149156992632E+00 -0.5846974788569E+00  0.0000000000000E+00 -0.4239918542882E+00
 0.5024878082848E+00 -0.5738663942541E+00  0.0000000000000E+00 -0.4448112155937E+00
 0.4881215723451E+00 -0.5611329400422E+00  0.0000000000000E+00 -0.4630697112453E+00
 0.4717139601793E+00 -0.5463880238440E+00  0.0000000000000E+00 -0.4780147235648E+00
 0.4531517127621E+00 -0.5295118498773E+00  0.0000000000000E+00 -0.4887460898780E+00
 0.4323007903775E+00 -0.5103637745794E+00  0.0000000000000E+00 -0.4941928835725E+00
 0.4089910821975E+00 -0.4887677209118E+00  0.0000000000000E+00 -0.4930851403133E+00
 0.3829931353677E+00 -0.4644900943482E+00  0.0000000000000E+00 -0.4839192013217E+00
 0.3539817872605E+00 -0.4372054380467E+00  0.0000000000000E+00 -0.4649169191229E+00
 0.3214785939409E+00 -0.4064423929924E+00  0.0000000000000E+00 -0.4339826715887E+00
 0.2847601666390E+00 -0.3714983723448E+00  0.0000000000000E+00 -0.3886717470870E+00
 0.2427133245423E+00 -0.3313059687020E+00  0.0000000000000E+00 -0.3262082647562E+00
 0.1936134504411E+00 -0.2842322349832E+00  0.0000000000000E+00 -0.2436599555107E+00
 0.1348742988442E+00 -0.2278406968040E+00  0.0000000000000E+00 -0.1385400490358E+00
 0.6303708981942E-01 -0.1588380832577E+00  0.0000000000000E+00 -0.1004687658221E-01
 0.5690277257942E+00 -0.6332407093107E+00  0.0000000000000E+00 -0.2584842503926E+00
 0.5663775681045E+00 -0.6322166418047E+00  0.0000000000000E+00 -0.2826818899002E+00
 0.5623820238434E+00 -0.6299401917425E+00  0.0000000000000E+00 -0.3066563296006E+00
 0.5569018031809E+00 -0.6262732443074E+00  0.0000000000000E+00 -0.3300963425511E+00
 0.5497916213745E+00 -0.6210717360825E+00  0.0000000000000E+00 -0.3526315342481E+00
 0.5409016250562E+00 -0.6141871133080E+00  0.0000000000000E+00 -0.3738201468917E+00
 0.5300761461269E+00 -0.6054651239140E+00  0.0000000000000E+00 -0.3931330588533E+00
 0.5171495711787E+00 -0.5947417957681E+00  0.0000000000000E+00 -0.4099372523294E+00
 0.5019395743012E+00 -0.5818368990355E+00  0.0000000000000E+00 -0.4234799835681E+00
 0.4842375930808E+00 -0.5665448280112E+00  0.0000000000000E+00 -0.4328736266954E+00
 0.4637957449983E+00 -0.5486221628362E+00  0.0000000000000E+00 -0.4370809251619E+00
 0.4403086156167E+00 -0.5277704420759E+00  0.0000000000000E+00 -0.4349010300029E+00
 0.4133875336253E+00 -0.5036119187558E+00  0.0000000000000E+00 -0.4249582443685E+00
 0.3825240736676E+00 -0.4756552832232E+00  0.0000000000000E+00 -0.4056983235199E+00
 0.3470387667155E+00 -0.4432476777026E+00  0.0000000000000E+00 -0.3754027725252E+00
 0.3060113324188E+00 -0.4055096261961E+00  0.0000000000000E+00 -0.3322422596129E+00
 0.2581930134321E+00 -0.3612534755820E+00  0.0000000000000E+00 -0.2744101533246E+00
 0.2019236591809E+00 -0.3089033812046E+00  0.0000000000000E+00 -0.2004068859676E+00
 0.1351256686195E+00 -0.2464798128759E+00  0.0000000000000E+00 -0.1095219415816E+00
 0.5545940672443E-01 -0.1717383083473E+00  0.0000000000000E+00 -0.2391031236325E-02
 0.5841624008428E+00 -0.6498941438364E+00  0.0000000000000E+00 -0.2137462139490E+00
 0.5829894310819E+00 -0.6506008210833E+00  0.0000000000000E+00 -0.2355123280193E+00
 0.5805002905774E+00 -0.6501186626875E+00  0.0000000000000E+00 -0.2571140632595E+00
 0.5765294827966E+00 -0.6482874260498E+00  0.0000000000000E+00 -0.2782547474206E+00
 0.5708983941554E+00 -0.6449342612338E+00  0.0000000000000E+00 -0.2985758998458E+00
 0.5634142867813E+00 -0.6398727878593E+00  0.0000000000000E+00 -0.3176474463467E+00
 0.5538675344319E+00 -0.6329004601274E+00  0.0000000000000E+00 -0.3349558931067E+00
 0.5420266808986E+00 -0.6237938269226E+00  0.0000000000000E+00 -0.3498924645522E+00
 0.5276311863464E+00 -0.6123015912566E+00  0.0000000000000E+00 -0.3617425563878E+00
 0.5103815998338E+00 -0.5981352491247E+00  0.0000000000000E+00 -0.3696774355268E+00
 0.4899265834522E+00 -0.5809567840328E+00  0.0000000000000E+00 -0.3727492770497E+00
 0.4658458883024E+00 -0.5603625789579E+00  0.0000000000000E+00 -0.3698914476683E+00
 0.4376281852726E+00 -0.5358625197983E+00  0.0000000000000E+00 -0.3599275416299E+00
 0.4046427978180E+00 -0.5068533969560E+00  0.0000000000000E+00 -0.3415953192660E+00
 0.3661053760958E+00 -0.4725866062505E+00  0.0000000000000E+00 -0.3135957752518E+00
 0.3210404654936E+00 -0.4321327910520E+00  0.0000000000000E+00 -0.2746831136653E+00
 0.2682514565747E+00 -0.3843525622662E+00  0.0000000000000E+00 -0.2238161450611E+00
 0.2063215235263E+00 -0.3278946720169E+00  0.0000000000000E+00 -0.1603811805727E+00
 0.1336753022401E+00 -0.2612514348003E+00  0.0000000000000E+00 -0.8445149716899E-01
 0.4871577083265E-01 -0.1828869923892E+00  0.0000000000000E+00  0.3008947545881E-02
 0.5968994738388E+00 -0.6639403235097E+00  0.0000000000000E+00 -0.1663668587816E+00
 0.5969787398758E+00 -0.6661240967112E+00  0.0000000000000E+00 -0.1852505247308E+00
 0.5957576895055E+00 -0.6671660875408E+00  0.0000000000000E+00 -0.2040210329155E+00
 0.5930435284073E+00 -0.6668824805826E+00  0.0000000000000E+00 -0.2224082889843E+00
 0.5886234580556E+00 -0.6650703557392E+00  0.0000000000000E+00 -0.2400833484015E+00
 0.5822621749345E+00 -0.6615052984069E+00  0.0000000000000E+00 -0.2566507503151E+00
 0.5736981463291E+00 -0.6559378326801E+00  0.0000000000000E+00 -0.2716401813065E+00
 0.5626383503454E+00 -0.6480883811295E+00  0.0000000000000E+00 -0.2844989249329E+00
 0.5487513329802E+00 -0.6376406249114E+00  0.0000000000000E+00 -0.2945864551999E+00
 0.5316584329613E+00 -0.6242331386599E+00  0.0000000000000E+00 -0.3011725332459E+00
 0.5109229642248E+00 -0.6074491122919E+00  0.0000000000000E+00 -0.3034404808309E+00
 0.4860371559910E+00 -0.5868039742884E+00  0.0000000000000E+00 -0.3004980021709E+00
 0.4564068836604E+00 -0.5617309404830E+00  0.0000000000000E+00 -0.2913990195757E+00
 0.4213349083620E+00 -0.5315651359834E+00  0.0000000000000E+00 -0.2751814117100E+00
 0.3800048303087E+00 -0.4955282996360E+00  0.0000000000000E+00 -0.2509269318580E+00
 0.3314707720186E+00 -0.4527186248822E+00  0.0000000000000E+00 -0.2178496912916E+00
 0.2746618173900E+00 -0.4021141007500E+00  0.0000000000000E+00 -0.1754146706836E+00
 0.2084124780004E+00 -0.3426003785606E+00  0.0000000000000E+00 -0.1234731412821E+00
 0.1315265205068E+00 -0.2730308282012E+00  0.0000000000000E+00 -0.6238114880219E-01
 0.4286860276169E-01 -0.1923150078253E+00  0.0000000000000E+00  0.6946683910508E-02
 0.6071143375000E+00 -0.6752392254839E+00  0.0000000000000E+00 -0.1168841499017E+00
 0.6082109124935E+00 -0.6786319661954E+00  0.0000000000000E+00 -0.1325262358799E+00
 0.6080134153114E+00 -0.6809162777047E+00  0.0000000000000E+00 -0.1481079330528E+00
 0.6063032247325E+00 -0.6818857664224E+00  0.0000000000000E+00 -0.1633986903625E+00
 0.6028356212418E+00 -0.6813091388469E+00  0.0000000000000E+00 -0.1781162889687E+00
 0.5973364123540E+00 -0.6789269444799E+00  0.0000000000000E+00 -0.1919212300098E+00
 0.5894977884216E+00 -0.6744475801055E+00  0.0000000000000E+00 -0.2044112970142E+00
 0.5789732705903E+00 -0.6675424248749E+00  0.0000000000000E+00 -0.2151174917893E+00
 0.5653717390795E+00 -0.6578401015564E+00  0.0000000000000E+00 -0.2235026208382E+00
 0.5482506020326E+00 -0.6449199292167E+00  0.0000000000000E+00 -0.2289639385810E+00
 0.5271082475710E+00 -0.6283047078014E+00  0.0000000000000E+00 -0.2308415220941E+00
 0.5013761004809E+00 -0.6074531377358E+00  0.0000000000000E+00 -0.2284344493520E+00
 0.4704109843957E+00 -0.5817525258958E+00  0.0000000000000E+00 -0.2210272758693E+00
 0.4334891872580E+00 -0.5505130737747E+00  0.0000000000000E+00 -0.2079294957323E+00
 0.3898047345248E+00 -0.5129660718287E+00  0.0000000000000E+00 -0.1885300777195E+00
 0.3384757353066E+00 -0.4682696353523E+00  0.0000000000000E+00 -0.1623666894299E+00
 0.2785634006529E+00 -0.4155264587269E+00  0.0000000000000E+00 -0.1292036880324E+00
 0.2091069758195E+00 -0.3538169432789E+00  0.0000000000000E+00 -0.8910501357482E-01
 0.1291732482175E+00 -0.2822469066018E+00  0.0000000000000E+00 -0.4248141523004E-01
 0.3791292754022E-01 -0.2000026938491E+00  0.0000000000000E+00  0.9907195129877E-02
 0.6147140264860E+00 -0.6836852460709E+00  0.0000000000000E+00 -0.6582906764695E-01
 0.6165881529262E+00 -0.6880102350519E+00  0.0000000000000E+00 -0.7795634319756E-01
 0.6171691104156E+00 -0.6912499607984E+00  0.0000000000000E+00 -0.9008247807424E-01
 0.6162160680724E+00 -0.6931784940971E+00  0.0000000000000E+00 -0.1020284564510E+00
 0.6134571778166E+00 -0.6935403038792E+00  0.0000000000000E+00 -0.1135739860550E+00
 0.6085857233398E+00 -0.6920465139150E+00  0.0000000000000E+00 -0.1244537381913E+00
 0.6012559282520E+00 -0.6883708307482E+00  0.0000000000000E+00 -0.1343541371433E+00
 0.5910784502387E+00 -0.6821451682494E+00  0.0000000000000E+00 -0.1429116923050E+00
 0.5776157082296E+00 -0.6729551124451E+00  0.0000000000000E+00 -0.1497139636807E+00
 0.5603773012445E+00 -0.6603354772101E+00  0.0000000000000E+00 -0.1543043647352E+00
 0.5388159132624E+00 -0.6437663287828E+00  0.0000000000000E+00 -0.1561921458176E+00
 0.5123243018382E+00 -0.6226700465371E+00  0.0000000000000E+00 -0.1548690016864E+00
 0.4802342776317E+00 -0.5964102763853E+00  0.0000000000000E+00 -0.1498336606133E+00
 0.4418190076951E+00 -0.5642940341012E+00  0.0000000000000E+00 -0.1406252870181E+00
 0.3963004334469E+00 -0.5255786616930E+00  0.0000000000000E+00 -0.1268651951275E+00
 0.3428637931885E+00 -0.4794855732665E+00  0.0000000000000E+00 -0.1083039143443E+00
 0.2806806901202E+00 -0.4252222698236E+00  0.0000000000000E+00 -0.8486733411471E-01
 0.2089403368538E+00 -0.3620124826604E+00  0.0000000000000E+00 -0.5669287458386E-01
 0.1268855996222E+00 -0.2891313820460E+00  0.0000000000000E+00 -0.2414646565154E-01
 0.3384755151688E-01 -0.2059397911927E+00  0.0000000000000E+00  0.1218583144054E-01
 0.6196343303039E+00 -0.6892044172487E+00  0.0000000000000E+00 -0.1372287990841E-01
 0.6220447639446E+00 -0.6941804476992E+00  0.0000000000000E+00 -0.2214134291524E-01
 0.6231615571836E+00 -0.6980875770707E+00  0.0000000000000E+00 -0.3062571689438E-01
 0.6227270130718E+00 -0.7006850452375E+00  0.0000000000000E+00 -0.3905824116328E-01
 0.6204488812505E+00 -0.7016990995311E+00  0.0000000000000E+00 -0.4729263298488E-01
 0.6159962522447E+00 -0.7008189828879E+00  0.0000000000000E+00 -0.5515185302729E-01
 0.6089954921500E+00 -0.6976929546592E+00  0.0000000000000E+00 -0.6242641461975E-01
 0.5990263652200E+00 -0.6919244852731E+00  0.0000000000000E+00 -0.6887399370217E-01
 0.5856186175999E+00 -0.6830688870198E+00  0.0000000000000E+00 -0.7422115280496E-01
 0.5682494188134E+00 -0.6706307621265E+00  0.0000000000000E+00 -0.7816804530983E-01
 0.5463421909861E+00 -0.6540627772720E+00  0.0000000000000E+00 -0.8039699274230E-01
 0.5192675046035E+00 -0.6327664157945E+00  0.0000000000000E+00 -0.8058575512915E-01
 0.4863468731941E+00 -0.6060955066093E+00  0.0000000000000E+00 -0.7842601688332E-01
 0.4468603921698E+00 -0.5733634421633E+00  0.0000000000000E+00 -0.7364692989418E-01
 0.4000591337996E+00 -0.5338549803730E+00  0.0000000000000E+00 -0.6604237257064E-01
 0.3451828734638E+00 -0.4868432249183E+00  0.0000000000000E+00 -0.5549899418322E-01
 0.2814829405137E+00 -0.4316116555344E+00  0.0000000000000E+00 -0.4202063172957E-01
 0.2082488639621E+00 -0.3674799785360E+00  0.0000000000000E+00 -0.2574433550057E-01
 0.1248360839210E+00 -0.2938313605658E+00  0.0000000000000E+00 -0.6945619202437E-02
 0.3069003703596E-01 -0.2101366619665E+00  0.0000000000000E+00  0.1396542571136E-01
 0.6218372760429E+00 -0.6917519787129E+00  0.0000000000000E+00  0.3892287252337E-01
 0.6245432339527E+00 -0.6970960592440E+00  0.0000000000000E+00  0.3433362085181E-01
 0.6259568104300E+00 -0.7013834806642E+00  0.0000000000000E+00  0.2960515956540E-01
 0.6258100904657E+00 -0.7043646152031E+00  0.0000000000000E+00  0.2478736629710E-01
 0.6237985261093E+00 -0.7057548536792E+00  0.0000000000000E+00  0.1994424569468E-01
 0.6195766682892E+00 -0.7052304175226E+00  0.0000000000000E+00  0.1515499240868E-01
 0.6127542278746E+00 -0.7024244809294E+00  0.0000000000000E+00  0.1051478474587E-01
 0.6028926821962E+00 -0.6969238071676E+00  0.0000000000000E+00  0.6134822476460E-02
 0.5895027674442E+00 -0.6882662228676E+00  0.0000000000000E+00  0.2141131137472E-02
 0.5720433237056E+00 -0.6759393794794E+00  0.0000000000000E+00 -0.1328335514360E-02
 0.5499220741191E+00 -0.6593813629597E+00  0.0000000000000E+00 -0.4128741409957E-02
 0.5224990023102E+00 -0.6379837956841E+00  0.0000000000000E+00 -0.6115911879569E-02
 0.4890930091309E+00 -0.6110980967278E+00  0.0000000000000E+00 -0.7156479478228E-02
 0.4489924246267E+00 -0.5780454747368E+00  0.0000000000000E+00 -0.7140274869183E-02
 0.4014696587464E+00 -0.5381309571078E+00  0.0000000000000E+00 -0.5993921256303E-02
 0.3457997586085E+00 -0.4906612695479E+00  0.0000000000000E+00 -0.3693812556440E-02
 0.2812819730579E+00 -0.4349657256962E+00  0.0000000000000E+00 -0.2761055453551E-03
 0.2072628313441E+00 -0.3704186842501E+00  0.0000000000000E+00  0.4158576984185E-02
 0.1231596084912E+00 -0.2964622260982E+00  0.0000000000000E+00  0.9446786263833E-02
 0.2848323507389E-01 -0.2126288496128E+00  0.0000000000000E+00  0.1536376554944E-01
 0.6213092867006E+00 -0.6913105814916E+00  0.0000000000000E+00  0.9160483126119E-01
 0.6240713942950E+00 -0.6967396456323E+00  0.0000000000000E+00  0.9089512365943E-01
 0.6255460256149E+00 -0.7011218039305E+00  0.0000000000000E+00  0.8997030711277E-01
 0.6254625772640E+00 -0.7042053845742E+00  0.0000000000000E+00  0.8880931076673E-01
 0.6235131896418E+00 -0.7057031492248E+00  0.0000000000000E+00  0.8738975629425E-01
 0.6193483102557E+00 -0.7052879339877E+00  0.0000000000000E+00  0.8568817579351E-01
 0.6125727793014E+00 -0.7025887927283E+00  0.0000000000000E+00  0.8368034363876E-01
 0.6027426314692E+00 -0.6971878111339E+00  0.0000000000000E+00  0.8134151576968E-01
 0.5893629545422E+00 -0.6886179198590E+00  0.0000000000000E+00  0.7864649855077E-01
 0.5718872891518E+00 -0.6763621722751E+00  0.0000000000000E+00  0.7556949841218E-01
 0.5497191588604E+00 -0.6598550567027E+00  0.0000000000000E+00  0.7208371915393E-01
 0.5222163713798E+00 -0.6384864680186E+00  0.0000000000000E+00  0.6816069431590E-01
 0.4886986885242E+00 -0.6116089304251E+00  0.0000000000000E+00  0.6376938207407E-01
 0.4484592705970E+00 -0.5785484892951E+00  0.0000000000000E+00  0.5887512185122E-01
 0.4007799179798E+00 -0.5386193301121E+00  0.0000000000000E+00  0.5343866121983E-01
 0.3449495699751E+00 -0.4911416414311E+00  0.0000000000000E+00  0.4741559778187E-01
 0.2802848942238E+00 -0.4354616151440E+00  0.0000000000000E+00  0.4075675365433E-01
 0.2061513556457E+00 -0.3709720063591E+00  0.0000000000000E+00  0.3341023242790E-01
 0.1219832162958E+00 -0.2971316542784E+00  0.0000000000000E+00  0.2532715934402E-01
 0.2730640012438E-01 -0.2134858023694E+00  0.0000000000000E+00  0.1647569731077E-01
 0.6180602416993E+00 -0.6878893852193E+00  0.0000000000000E+00  0.1438256474094E+00
 0.6206409032063E+00 -0.6931214030646E+00  0.0000000000000E+00  0.1469767154539E+00
 0.6219431738084E+00 -0.6973141781946E+00  0.0000000000000E+00  0.1498391521737E+00
 0.6217018334387E+00 -0.7002213475960E+00  0.0000000000000E+00  0.1523215599853E+00
 0.6196151001827E+00 -0.7015616448232E+00  0.0000000000000E+00  0.1543152956477E+00
 0.6153400599989E+00 -0.7010144529542E+00  0.0000000000000E+00  0.1556942027728E+00
 0.6084886817748E+00 -0.6982158848082E+00  0.0000000000000E+00  0.1563145884247E+00
 0.5986244757718E+00 -0.6927554661041E+00  0.0000000000000E+00  0.1560157385576E+00
 0.5852601063795E+00 -0.6841737170841E+00  0.0000000000000E+00  0.1546213269672E+00
 0.5678564163912E+00 -0.6719610720953E+00  0.0000000000000E+00  0.1519420988491E+00
 0.5458234370749E+00 -0.6555586909890E+00  0.0000000000000E+00  0.1477802076864E+00
 0.5185240307330E+00 -0.6343617907713E+00  0.0000000000000E+00  0.1419355138674E+00
 0.4852808043054E+00 -0.6077261265877E+00  0.0000000000000E+00  0.1342139668442E+00
 0.4453867871741E+00 -0.5749781228699E+00  0.0000000000000E+00  0.1244378513901E+00
 0.3981200240167E+00 -0.5354288394953E+00  0.0000000000000E+00  0.1124571943253E+00
 0.3427616743944E+00 -0.4883914242915E+00  0.0000000000000E+00  0.9816112844486E-01
 0.2786164822398E+00 -0.4332010034985E+00  0.0000000000000E+00  0.8148773969121E-01
 0.2050337580013E+00 -0.3692352248663E+00  0.0000000000000E+00  0.6243135173849E-01
 0.1214261217695E+00 -0.2959329538086E+00  0.0000000000000E+00  0.4104745751065E-01
 0.2728118968103E-01 -0.2128067160809E+00  0.0000000000000E+00  0.1746736377739E-01
 0.6121232032464E+00 -0.6815238319582E+00  0.0000000000000E+00  0.1950915813423E+00
 0.6142865044955E+00 -0.6862785184251E+00  0.0000000000000E+00  0.2020143681414E+00
 0.6151838679751E+00 -0.6899988134894E+00  0.0000000000000E+00  0.2085833274243E+00
 0.6145636246677E+00 -0.6924510098340E+00  0.0000000000000E+00  0.2146404980782E+00
 0.6121392699579E+00 -0.6933682169246E+00  0.0000000000000E+00  0.2199953323503E+00
 0.6075850867063E+00 -0.6924460948338E+00  0.0000000000000E+00  0.2244238512698E+00
 0.6005320370050E+00 -0.6893388371474E+00  0.0000000000000E+00  0.2276679757235E+00
 0.5905639936363E+00 -0.6836554643261E+00  0.0000000000000E+00  0.2294358782138E+00
 0.5772145524902E+00 -0.6749566590771E+00  0.0000000000000E+00  0.2294041156342E+00
 0.5599648123048E+00 -0.6627525125190E+00  0.0000000000000E+00  0.2272223467827E+00
 0.5382426444781E+00 -0.6465016816009E+00  0.0000000000000E+00  0.2225214611992E+00
 0.5114241103258E+00 -0.6256125891655E+00  0.0000000000000E+00  0.2149258638871E+00
 0.4788377952686E+00 -0.5994474103656E+00  0.0000000000000E+00  0.2040703616313E+00
 0.4397728632841E+00 -0.5673296334352E+00  0.0000000000000E+00  0.1896214558257E+00
 0.3934914934408E+00 -0.5285558640958E+00  0.0000000000000E+00  0.1713018048900E+00
 0.3392459121725E+00 -0.4824121409396E+00  0.0000000000000E+00  0.1489152987969E+00
 0.2762994166182E+00 -0.4281942454360E+00  0.0000000000000E+00  0.1223690495223E+00
 0.2039495384501E+00 -0.3652303537889E+00  0.0000000000000E+00  0.9168819561977E-01
 0.1215503327912E+00 -0.2929030268935E+00  0.0000000000000E+00  0.5702033857687E-01
 0.2852383696251E-01 -0.2106634686830E+00  0.0000000000000E+00  0.1862185996928E-01
 0.6035539108209E+00 -0.6722752474226E+00  0.0000000000000E+00  0.2449123586776E+00
 0.6050648815330E+00 -0.6762747510499E+00  0.0000000000000E+00  0.2554471145961E+00
 0.6053238882102E+00 -0.6792401962364E+00  0.0000000000000E+00  0.2655766888689E+00
 0.6040999125159E+00 -0.6809568842790E+00  0.0000000000000E+00  0.2750831246247E+00
 0.6011300211548E+00 -0.6811797956227E+00  0.0000000000000E+00  0.2837025147998E+00
 0.5961154159697E+00 -0.6796297490269E+00  0.0000000000000E+00  0.2911228750088E+00
 0.5887172575574E+00 -0.6759893455610E+00  0.0000000000000E+00  0.2969821938235E+00
 0.5785523331219E+00 -0.6698987548060E+00  0.0000000000000E+00  0.3008677252694E+00
 0.5651887118596E+00 -0.6609514779079E+00  0.0000000000000E+00  0.3023175902738E+00
 0.5481416412064E+00 -0.6486903276295E+00  0.0000000000000E+00  0.3008258513794E+00
 0.5268700805913E+00 -0.6326040004618E+00  0.0000000000000E+00  0.2958523504490E+00
 0.5007744693378E+00 -0.6121248042551E+00  0.0000000000000E+00  0.2868386492169E+00
 0.4691965978807E+00 -0.5866283637507E+00  0.0000000000000E+00  0.2732312352378E+00
 0.4314227812606E+00 -0.5554364439142E+00  0.0000000000000E+00  0.2545125234730E+00
 0.3866918082063E+00 -0.5178243181677E+00  0.0000000000000E+00  0.2302388042174E+00
 0.3342091172401E+00 -0.4730341210410E+00  0.0000000000000E+00  0.2000820463505E+00
 0.2731679486214E+00 -0.4202950373772E+00  0.0000000000000E+00  0.1638696800257E+00
 0.2027767756587E+00 -0.3588497310447E+00  0.0000000000000E+00  0.1216142949699E+00
 0.1222898914051E+00 -0.2879843754033E+00  0.0000000000000E+00  0.7352445427710E-01
 0.3104191579842E-01 -0.2070601777746E+00  0.0000000000000E+00  0.1998397725004E-01
 0.5924325068327E+00 -0.6602324534192E+00  0.0000000000000E+00  0.2927979944844E+00
 0.5930576526295E+00 -0.6632030621738E+00  0.0000000000000E+00  0.3067114607311E+00
 0.5924433435835E+00 -0.6651327934686E+00  0.0000000000000E+00  0.3201835186411E+00
 0.5903844799030E+00 -0.6658305497463E+00  0.0000000000000E+00  0.3329455569306E+00
 0.5866483534938E+00 -0.6650790684672E+00  0.0000000000000E+00  0.3446724022833E+00
 0.5809712723721E+00 -0.6626316727483E+00  0.0000000000000E+00  0.3549782847910E+00
 0.5730544871293E+00 -0.6582083495955E+00  0.0000000000000E+00  0.3634128305746E+00
 0.5625593858343E+00 -0.6514911247536E+00  0.0000000000000E+00  0.3694581862442E+00
 0.5491019563931E+00 -0.6421187322170E+00  0.0000000000000E+00  0.3725284724742E+00
 0.5322465664156E+00 -0.6296806244868E+00  0.0000000000000E+00  0.3719729523258E+00
 0.5114992162055E+00 -0.6137104665555E+00  0.0000000000000E+00  0.3670845864602E+00
 0.4863006303710E+00 -0.5936794497587E+00  0.0000000000000E+00  0.3571159772962E+00
 0.4560199393001E+00 -0.5689901180462E+00  0.0000000000000E+00  0.3413049507172E+00
 0.4199503344737E+00 -0.5389719919393E+00  0.0000000000000E+00  0.3189119162369E+00
 0.3773089923894E+00 -0.5028811321882E+00  0.0000000000000E+00  0.2892701716638E+00
 0.3272444678952E+00 -0.4599067262983E+00  0.0000000000000E+00  0.2518475910163E+00
 0.2688550154143E+00 -0.4091880833357E+00  0.0000000000000E+00  0.2063133266415E+00
 0.2012198030224E+00 -0.3498442830666E+00  0.0000000000000E+00  0.1525971763930E+00
 0.1234423007275E+00 -0.2810156577499E+00  0.0000000000000E+00  0.9092565828163E-01
 0.3470159999806E-01 -0.2019140725258E+00  0.0000000000000E+00  0.2182792276133E-01
 0.5788658687640E+00 -0.6455138756072E+00  0.0000000000000E+00  0.3382590905783E+00
 0.5783757878300E+00 -0.6471893270663E+00  0.0000000000000E+00  0.3552414716702E+00
 0.5766535053763E+00 -0.6478067004499E+00  0.0000000000000E+00  0.3717583775840E+00
 0.5735230394184E+00 -0.6472010641460E+00  0.0000000000000E+00  0.3875021480035E+00
 0.5687863921134E+00 -0.6451866772464E+00  0.0000000000000E+00  0.4021012963691E+00
 0.5622210056112E+00 -0.6415545729058E+00  0.0000000000000E+00  0.4151142396326E+00
 0.5535761026042E+00 -0.6360690716293E+00  0.0000000000000E+00  0.4260225989813E+00
 0.5425677564471E+00 -0.6284630801184E+00  0.0000000000000E+00  0.4342251301353E+00
 0.5288725165267E+00 -0.6184320129095E+00  0.0000000000000E+00  0.4390334183847E+00
 0.5121193817943E+00 -0.6056261412284E+00  0.0000000000000E+00  0.4396707049620E+00
 0.4918799154955E+00 -0.5896411697934E+00  0.0000000000000E+00  0.4352756422867E+00
 0.4676563987651E+00 -0.5700069335591E+00  0.0000000000000E+00  0.4249134362936E+00
 0.4388682450371E+00 -0.5461743996876E+00  0.0000000000000E+00  0.4075977176842E+00
 0.4048376361888E+00 -0.5175018305115E+00  0.0000000000000E+00  0.3823274669671E+00
 0.3647767458494E+00 -0.4832422638123E+00  0.0000000000000E+00  0.3481439231833E+00
 0.3177813226327E+00 -0.4425366548002E+00  0.0000000000000E+00  0.3042113583057E+00
 0.2628379653119E+00 -0.3944197750983E+00  0.0000000000000E+00  0.2499196987059E+00
 0.1988532114735E+00 -0.3378467396150E+00  0.0000000000000E+00  0.1849956217541E+00
 0.1247080524102E+00 -0.2717448899128E+00  0.0000000000000E+00  0.1095955585778E+00
 0.3933064778295E-01 -0.1950847152083E+00  0.0000000000000E+00  0.2435164353365E-01
 0.5629897601510E+00 -0.6282695431941E+00  0.0000000000000E+00  0.3808090013628E+00
 0.5611635458044E+00 -0.6283960730934E+00  0.0000000000000E+00  0.4004701210028E+00
 0.5581031538830E+00 -0.6274336799485E+00  0.0000000000000E+00  0.4196467363964E+00
 0.5536626239929E+00 -0.6252439501718E+00  0.0000000000000E+00  0.4380048900611E+00
 0.5476805736260E+00 -0.6216739225350E+00  0.0000000000000E+00  0.4551435276761E+00
 0.5399788330242E+00 -0.6165548265598E+00  0.0000000000000E+00  0.4705859326279E+00
 0.5303596436724E+00 -0.6096994455827E+00  0.0000000000000E+00  0.4837700412874E+00
 0.5186011795297E+00 -0.6008978803814E+00  0.0000000000000E+00  0.4940385509964E+00
 0.5044510767935E+00 -0.5899114221405E+00  0.0000000000000E+00  0.5006296963928E+00
 0.4876175160798E+00 -0.5764641084950E+00  0.0000000000000E+00  0.5026697185025E+00
 0.4677572293497E+00 -0.5602313714710E+00  0.0000000000000E+00  0.4991684908894E+00
 0.4444596635224E+00 -0.5408250488351E+00  0.0000000000000E+00  0.4890206174780E+00
 0.4172265349370E+00 -0.5177740215378E+00  0.0000000000000E+00  0.4710157498723E+00
 0.3854463772875E+00 -0.4905000659350E+00  0.0000000000000E+00  0.4438641115435E+00
 0.3483649371098E+00 -0.4582896094307E+00  0.0000000000000E+00  0.4062463945492E+00
 0.3050552357187E+00 -0.4202647930513E+00  0.0000000000000E+00  0.3569007403897E+00
 0.2543979307694E+00 -0.3753630482455E+00  0.0000000000000E+00  0.2947602391266E+00
 0.1950899123414E+00 -0.3223429276039E+00  0.0000000000000E+00  0.2191386722134E+00
 0.1256999698231E+00 -0.2598342427673E+00  0.0000000000000E+00  0.1299310596610E+00
 0.4477456373204E-01 -0.1864393881224E+00  0.0000000000000E+00  0.2775672448853E-01
 0.5449711724140E+00 -0.6086832632144E+00  0.0000000000000E+00  0.4199687450758E+00
 0.5416027046272E+00 -0.6070265166723E+00  0.0000000000000E+00  0.4418344735608E+00
 0.5369854085571E+00 -0.6042337799397E+00  0.0000000000000E+00  0.4631902257548E+00
 0.5310018079642E+00 -0.6001911962026E+00  0.0000000000000E+00  0.4836882065583E+00
 0.5235261581949E+00 -0.5947770824269E+00  0.0000000000000E+00  0.5029147123617E+00
 0.5144246195794E+00 -0.5878621516989E+00  0.0000000000000E+00  0.5203795217572E+00
 0.5035537996436E+00 -0.5793081692083E+00  0.0000000000000E+00  0.5355033741359E+00
 0.4907574123777E+00 -0.5689648110328E+00  0.0000000000000E+00  0.5476042839684E+00
 0.4758607122591E+00 -0.5566644134668E+00  0.0000000000000E+00  0.5558831496605E+00
 0.4586621127334E+00 -0.5422140663760E+00  0.0000000000000E+00  0.5594090034912E+00
 0.4389210271125E+00 -0.5253841516412E+00  0.0000000000000E+00  0.5571044589505E+00
 0.4163404978055E+00 -0.5058919822896E+00  0.0000000000000E+00  0.5477326022632E+00
 0.3905426333682E+00 -0.4833786868877E+00  0.0000000000000E+00  0.5298880386277E+00
 0.3610343559680E+00 -0.4573769956901E+00  0.0000000000000E+00  0.5019976118720E+00
 0.3271607996040E+00 -0.4272674292437E+00  0.0000000000000E+00  0.4623415336945E+00
 0.2880451653508E+00 -0.3922215605531E+00  0.0000000000000E+00  0.4091148890746E+00
 0.2425194404345E+00 -0.3511361726881E+00  0.0000000000000E+00  0.3405642941813E+00
 0.1890729302823E+00 -0.3025792759094E+00  0.0000000000000E+00  0.2552479338172E+00
 0.1258683626400E+00 -0.2447995866983E+00  0.0000000000000E+00  0.1524116819692E+00
 0.5087316034278E-01 -0.1758431156128E+00  0.0000000000000E+00  0.3237659179416E-01
 0.5250105045188E+00 -0.5869746021536E+00  0.0000000000000E+00  0.4552745201920E+00
 0.5199167662631E+00 -0.5833285125712E+00  0.0000000000000E+00  0.4787850177765E+00
 0.5135448191931E+00 -0.5784821251214E+00  0.0000000000000E+00  0.5017380546488E+00
 0.5058017783106E+00 -0.5723419958635E+00  0.0000000000000E+00  0.5237824038921E+00
 0.4965936161715E+00 -0.5648134613649E+00  0.0000000000000E+00  0.5445066817398E+00
 0.4858271800345E+00 -0.5558026147223E+00  0.0000000000000E+00  0.5634271735853E+00
 0.4734104557913E+00 -0.5452165828477E+00  0.0000000000000E+00  0.5799730188749E+00
 0.4592509423106E+00 -0.5329619869744E+00  0.0000000000000E+00  0.5934695096962E+00
 0.4432519659515E+00 -0.5189414459866E+00  0.0000000000000E+00  0.6031195192251E+00
 0.4253064496063E+00 -0.5030476825167E+00  0.0000000000000E+00  0.6079824932795E+00
 0.4052871145370E+00 -0.4851542805843E+00  0.0000000000000E+00  0.6069501615661E+00
 0.3830313306870E+00 -0.4651014259779E+00  0.0000000000000E+00  0.5987182294339E+00
 0.3583177450767E+00 -0.4426739515444E+00  0.0000000000000E+00  0.5817539956383E+00
 0.3308302148830E+00 -0.4175675440010E+00  0.0000000000000E+00  0.5542616924177E+00
 0.3001022450443E+00 -0.3893368466415E+00  0.0000000000000E+00  0.5141517975896E+00
 0.2654319561749E+00 -0.3573164138743E+00  0.0000000000000E+00  0.4590312372977E+00
 0.2257558177296E+00 -0.3205034440015E+00  0.0000000000000E+00  0.3862559443881E+00
 0.1794745163827E+00 -0.2773970697853E+00  0.0000000000000E+00  0.2931471142035E+00
 0.1243153867528E+00 -0.2258479637955E+00  0.0000000000000E+00  0.1775647871281E+00
 0.5739348980534E-01 -0.1631010488950E+00  0.0000000000000E+00  0.3878591431929E-01
 0.5033430475108E+00 -0.5634001274407E+00  0.0000000000000E+00  0.4862891419802E+00
 0.4963744140637E+00 -0.5575977006380E+00  0.0000000000000E+00  0.5108012717257E+00
 0.4880838323303E+00 -0.5505149990049E+00  0.0000000000000E+00  0.5346676983569E+00
 0.4783971555194E+00 -0.5420731132641E+00  0.0000000000000E+00  0.5575401743545E+00
 0.4672455666832E+00 -0.5321978105478E+00  0.0000000000000E+00  0.5790202494397E+00
 0.4545696546396E+00 -0.5208234525975E+00  0.0000000000000E+00  0.5986458958099E+00
 0.4403214848845E+00 -0.5078949297510E+00  0.0000000000000E+00  0.6158749897961E+00
 0.4244648452299E+00 -0.4933678066362E+00  0.0000000000000E+00  0.6300669154816E+00
 0.4069739701179E+00 -0.4772070076121E+00  0.0000000000000E+00  0.6404620111959E+00
 0.3878306939469E+00 -0.4593840197131E+00  0.0000000000000E+00  0.6461573283572E+00
 0.3670193625725E+00 -0.4398719880846E+00  0.0000000000000E+00  0.6460762878814E+00
 0.3445179707815E+00 -0.4186372567118E+00  0.0000000000000E+00  0.6389291039137E+00
 0.3202827092848E+00 -0.3956247069300E+00  0.0000000000000E+00  0.6231601317742E+00
 0.2942209559165E+00 -0.3707322647754E+00  0.0000000000000E+00  0.5968776254863E+00
 0.2661438166506E+00 -0.3437663945944E+00  0.0000000000000E+00  0.5577613980889E+00
 0.2356818707945E+00 -0.3143637012743E+00  0.0000000000000E+00  0.5029467780304E+00
 0.2021328928131E+00 -0.2818510356547E+00  0.0000000000000E+00  0.4288980407903E+00
 0.1641838910549E+00 -0.2449929187456E+00  0.0000000000000E+00  0.3313360252057E+00
 0.1194039745495E+00 -0.2015478925590E+00  0.0000000000000E+00  0.2055374218666E+00
 0.6384376034405E-01 -0.1477918949189E+00  0.0000000000000E+00  0.4790141480772E-01
 0.4802389910669E+00 -0.5382531473726E+00  0.0000000000000E+00  0.5126182580652E+00
 0.4712911375718E+00 -0.5301787582507E+00  0.0000000000000E+00  0.5374151485758E+00
 0.4609671394960E+00 -0.5207337090370E+00  0.0000000000000E+00  0.5614172063949E+00
 0.4492045096438E+00 -0.5098467769273E+00  0.0000000000000E+00  0.5842798017117E+00
 0.4359515043511E+00 -0.4974562679725E+00  0.0000000000000E+00  0.6056216101399E+00
 0.4211734433635E+00 -0.4835160440710E+00  0.0000000000000E+00  0.6250093784397E+00
 0.4048561541812E+00 -0.4679986299702E+00  0.0000000000000E+00  0.6419395785323E+00
 0.3870074794667E+00 -0.4508963791937E+00  0.0000000000000E+00  0.6558195803787E+00
 0.3676580394313E+00 -0.4322218957376E+00  0.0000000000000E+00  0.6659479317860E+00
 0.3468619592501E+00 -0.4120084150063E+00  0.0000000000000E+00  0.6714913171054E+00
 0.3246976079706E+00 -0.3903101729772E+00  0.0000000000000E+00  0.6714544654576E+00
 0.3012676942623E+00 -0.3672021022672E+00  0.0000000000000E+00  0.6646380075807E+00
 0.2766971654617E+00 -0.3427773240759E+00  0.0000000000000E+00  0.6495773120483E+00
 0.2511257983498E+00 -0.3171394274574E+00  0.0000000000000E+00  0.6244518797279E+00
 0.2246891533032E+00 -0.2903835112212E+00  0.0000000000000E+00  0.5869487771739E+00
 0.1974742516020E+00 -0.2625532709794E+00  0.0000000000000E+00  0.5340530655427E+00
 0.1694182355913E+00 -0.2335451270785E+00  0.0000000000000E+00  0.4617200081800E+00
 0.1400700916068E+00 -0.2028888984657E+00  0.0000000000000E+00  0.3643627039832E+00
 0.1079686863750E+00 -0.1691980474770E+00  0.0000000000000E+00  0.2340758074824E+00
 0.6885357285513E-01 -0.1287329309318E+00  0.0000000000000E+00  0.6063915723547E-01
 0.4560009834759E+00 -0.5118609347434E+00  0.0000000000000E+00  0.5339308570428E+00
 0.4450275588245E+00 -0.5014632995011E+00  0.0000000000000E+00  0.5582419519599E+00
 0.4326218675036E+00 -0.4896042042651E+00  0.0000000000000E+00  0.5815292184316E+00
 0.4187255674697E+00 -0.4762130876889E+00  0.0000000000000E+00  0.6034459181851E+00
 0.4032959683216E+00 -0.4612334325385E+00  0.0000000000000E+00  0.6236252263505E+00
 0.3863147060736E+00 -0.4446309496542E+00  0.0000000000000E+00  0.6416596429077E+00
 0.3677913087512E+00 -0.4263965714256E+00  0.0000000000000E+00  0.6570789128326E+00
 0.3477643420553E+00 -0.4065469877202E+00  0.0000000000000E+00  0.6693310868588E+00
 0.3263027250487E+00 -0.3851253209619E+00  0.0000000000000E+00  0.6777657983770E+00
 0.3035088125048E+00 -0.3622034603687E+00  0.0000000000000E+00  0.6816162251581E+00
 0.2795240451583E+00 -0.3378867589976E+00  0.0000000000000E+00  0.6799751783835E+00
 0.2545376143850E+00 -0.3123214067172E+00  0.0000000000000E+00  0.6717597673426E+00
 0.2287985660593E+00 -0.2857047184631E+00  0.0000000000000E+00  0.6556569763776E+00
 0.2026318904939E+00 -0.2582985933755E+00  0.0000000000000E+00  0.6300379564177E+00
 0.1764591152117E+00 -0.2304461777710E+00  0.0000000000000E+00  0.5928195460496E+00
 0.1508229892122E+00 -0.2025904663074E+00  0.0000000000000E+00  0.5412321183650E+00
 0.1264118799871E+00 -0.1752888189847E+00  0.0000000000000E+00  0.4714094933303E+00
 0.1040593931190E+00 -0.1491975750421E+00  0.0000000000000E+00  0.3776083201312E+00
 0.8463648064773E-01 -0.1249319436923E+00  0.0000000000000E+00  0.2505449511003E+00
 0.6785987902328E-01 -0.1020344711068E+00  0.0000000000000E+00  0.7301756145151E-01
 0.4309584921598E+00 -0.4845787387258E+00  0.0000000000000E+00  0.5499874744272E+00
 0.4179837228040E+00 -0.4718837760321E+00  0.0000000000000E+00  0.5730234970949E+00
 0.4035319831356E+00 -0.4576508564570E+00  0.0000000000000E+00  0.5947112741016E+00
 0.3875416813798E+00 -0.4418034923065E+00  0.0000000000000E+00  0.6146932333428E+00
 0.3699741382259E+00 -0.4242864432846E+00  0.0000000000000E+00  0.6326111870918E+00
 0.3508240335249E+00 -0.4050754061586E+00  0.0000000000000E+00  0.6480716900798E+00
 0.3301206054397E+00 -0.3841773157355E+00  0.0000000000000E+00  0.6606159669554E+00
 0.3079259751004E+00 -0.3616278739869E+00  0.0000000000000E+00  0.6696997199885E+00
 0.2843349822459E+00 -0.3374905671682E+00  0.0000000000000E+00  0.6746791911969E+00
 0.2594786774652E+00 -0.3118591875415E+00  0.0000000000000E+00  0.6747977889841E+00
 0.2335325206708E+00 -0.2848647278716E+00  0.0000000000000E+00  0.6691678493352E+00
 0.2067303373391E+00 -0.2566874818678E+00  0.0000000000000E+00  0.6567423729462E+00
 0.1793860221497E+00 -0.2275760086878E+00  0.0000000000000E+00  0.6362706203658E+00
 0.1519269487275E+00 -0.1978763614344E+00  0.0000000000000E+00  0.6062283132390E+00
 0.1249467418511E+00 -0.1680781680995E+00  0.0000000000000E+00  0.5647062231791E+00
 0.9929248546110E-01 -0.1388903979739E+00  0.0000000000000E+00  0.5092260081537E+00
 0.7621774638533E-01 -0.1113730743469E+00  0.0000000000000E+00  0.4364184962956E+00
 0.5767711445886E-01 -0.8718475758689E-01  0.0000000000000E+00  0.3414079721589E+00
 0.4695307103055E-01 -0.6909944690282E-01  0.0000000000000E+00  0.2164929401421E+00
 0.5069126801755E-01 -0.6240629305496E-01  0.0000000000000E+00  0.4692258805852E-01
 0.4054578032128E+00 -0.4567795736062E+00  0.0000000000000E+00  0.5606792318750E+00
 0.3905879105796E+00 -0.4419019547486E+00  0.0000000000000E+00  0.5816850023965E+00
 0.3742232499447E+00 -0.4254406902763E+00  0.0000000000000E+00  0.6009140984523E+00
 0.3562924066137E+00 -0.4073079116081E+00  0.0000000000000E+00  0.6180002017474E+00
 0.3367633674091E+00 -0.3874542057918E+00  0.0000000000000E+00  0.6325978968692E+00
 0.3156523198344E+00 -0.3658757425898E+00  0.0000000000000E+00  0.6443207533891E+00
 0.2930186613861E+00 -0.3426082052238E+00  0.0000000000000E+00  0.6527010031646E+00
 0.2689585905594E+00 -0.3177195605948E+00  0.0000000000000E+00  0.6571698103673E+00
 0.2436031709451E+00 -0.2913074263883E+00  0.0000000000000E+00  0.6570482561312E+00
 0.2171227916128E+00 -0.2635027020904E+00  0.0000000000000E+00  0.6515398387112E+00
 0.1897385394075E+00 -0.2344797945429E+00  0.0000000000000E+00  0.6397184618470E+00
 0.1617414568409E+00 -0.2044741843642E+00  0.0000000000000E+00  0.6205084372077E+00
 0.1335223932881E+00 -0.1738097647832E+00  0.0000000000000E+00  0.5926542725437E+00
 0.1056182433343E+00 -0.1429412729431E+00  0.0000000000000E+00  0.5546782750509E+00
 0.7878588225470E-01 -0.1125222600510E+00  0.0000000000000E+00  0.5048240246493E+00
 0.5412608613127E-01 -0.8351913792882E-01  0.0000000000000E+00  0.4409850261967E+00
 0.3330400204103E-01 -0.5741403773668E-01  0.0000000000000E+00  0.3606240088617E+00
 0.1897473133496E-01 -0.3659622213956E-01  0.0000000000000E+00  0.2607213509127E+00
 0.1570881735954E-01 -0.2520466017620E-01  0.0000000000000E+00  0.1378918768232E+00
 0.3259358571508E-01 -0.3155876941432E-01  0.0000000000000E+00 -0.9741185635274E-02
 0.3798472816734E+00 -0.4288393762174E+00  0.0000000000000E+00  0.5660706726455E+00
 0.3632763265634E+00 -0.4119883529823E+00  0.0000000000000E+00  0.5843795051963E+00
 0.3452268446154E+00 -0.3935453278499E+00  0.0000000000000E+00  0.6003785638486E+00
 0.3256142090558E+00 -0.3734104718444E+00  0.0000000000000E+00  0.6137284946264E+00
 0.3044273424351E+00 -0.3515568156673E+00  0.0000000000000E+00  0.6241238408614E+00
 0.2817259507664E+00 -0.3280254176123E+00  0.0000000000000E+00  0.6311957788063E+00
 0.2576240217226E+00 -0.3029076088470E+00  0.0000000000000E+00  0.6344671630577E+00
 0.2322776212678E+00 -0.2763323173515E+00  0.0000000000000E+00  0.6333429577870E+00
 0.2058829685546E+00 -0.2484638783987E+00  0.0000000000000E+00  0.6271150817713E+00
 0.1786847514522E+00 -0.2195100900540E+00  0.0000000000000E+00  0.6149684346210E+00
 0.1509935096981E+00 -0.1897390677111E+00  0.0000000000000E+00  0.5959831266767E+00
 0.1232122196086E+00 -0.1595049784283E+00  0.0000000000000E+00  0.5691333794973E+00
 0.9587445829664E-01 -0.1292849478156E+00  0.0000000000000E+00  0.5332870301572E+00
 0.6969943130156E-01 -0.9973237709916E-01  0.0000000000000E+00  0.4872133995122E+00
 0.4567329470244E-01 -0.7175606785041E-01  0.0000000000000E+00  0.4296145121100E+00
 0.2517278003291E-01 -0.4664143255842E-01  0.0000000000000E+00  0.3592112427913E+00
 0.1015866599151E-01 -0.2624258072268E-01  0.0000000000000E+00  0.2749573965651E+00
 0.3480735559224E-02 -0.1329477317926E-01  0.0000000000000E+00  0.1765661357303E+00
 0.9358998493358E-02 -0.1193984403860E-01  0.0000000000000E+00  0.6591040774024E-01
 0.3342198230737E-01 -0.2823215657580E-01  0.0000000000000E+00 -0.4869086399971E-01
 0.3544621672570E+00 -0.4011231681262E+00  0.0000000000000E+00  0.5664179925508E+00
 0.3364638767642E+00 -0.3825904671106E+00  0.0000000000000E+00  0.5814665356768E+00
 0.3170216600087E+00 -0.3624793028334E+00  0.0000000000000E+00  0.5935841414142E+00
 0.2960458456963E+00 -0.3406890187390E+00  0.0000000000000E+00  0.6025370007900E+00
 0.2735733289460E+00 -0.3172449635063E+00  0.0000000000000E+00  0.6081081054544E+00
 0.2497375437878E+00 -0.2922653593081E+00  0.0000000000000E+00  0.6099671177788E+00
 0.2247328660259E+00 -0.2659249070033E+00  0.0000000000000E+00  0.6076393330079E+00
 0.1987963370469E+00 -0.2384365639610E+00  0.0000000000000E+00  0.6005243846308E+00
 0.1722081373589E+00 -0.2100527273420E+00  0.0000000000000E+00  0.5879266083003E+00
 0.1453053891327E+00 -0.1810794725298E+00  0.0000000000000E+00  0.5690817583973E+00
 0.1185048898980E+00 -0.1518996088629E+00  0.0000000000000E+00  0.5431794262413E+00
 0.9233315916679E-01 -0.1230028875873E+00  0.0000000000000E+00  0.5093873055096E+00
 0.6746454514595E-01 -0.9502439008263E-01  0.0000000000000E+00  0.4668873125016E+00
 0.4476952773078E-01 -0.6879359597733E-01  0.0000000000000E+00  0.4149380441860E+00
 0.2537553320918E-01 -0.4539725645755E-01  0.0000000000000E+00  0.3529871534302E+00
 0.1074042742196E-01 -0.2625800338984E-01  0.0000000000000E+00  0.2808756571251E+00
 0.2728224848485E-02 -0.1322326765928E-01  0.0000000000000E+00  0.1992134438255E+00
 0.3641758117787E-02 -0.8629897077363E-02  0.0000000000000E+00  0.1100753658063E+00
 0.1598776838630E-01 -0.1517561700540E-01  0.0000000000000E+00  0.1829229813847E-01
 0.4134041392646E-01 -0.3484816926130E-01  0.0000000000000E+00 -0.6721583507016E-01
 0.3296109199265E+00 -0.3739624014774E+00  0.0000000000000E+00  0.5620752795776E+00
 0.3105068457862E+00 -0.3540863807376E+00  0.0000000000000E+00  0.5733674626200E+00
 0.2899813757088E+00 -0.3326367376755E+00  0.0000000000000E+00  0.5810691151632E+00
 0.2679667881693E+00 -0.3095432950338E+00  0.0000000000000E+00  0.5851719416851E+00
 0.2445912713651E+00 -0.2849295588156E+00  0.0000000000000E+00  0.5856000098265E+00
 0.2200946847825E+00 -0.2590252915044E+00  0.0000000000000E+00  0.5820695300539E+00
 0.1947673721710E+00 -0.2321044799649E+00  0.0000000000000E+00  0.5741130039869E+00
 0.1689302397615E+00 -0.2044677925522E+00  0.0000000000000E+00  0.5611495498843E+00
 0.1429421769880E+00 -0.1764513743200E+00  0.0000000000000E+00  0.5425476755672E+00
 0.1172201554632E+00 -0.1484484575609E+00  0.0000000000000E+00  0.5176715437774E+00
 0.9226372877914E-01 -0.1209347249034E+00  0.0000000000000E+00  0.4859195111700E+00
 0.6868106816330E-01 -0.9449532551483E-01  0.0000000000000E+00  0.4467681364944E+00
 0.4721561739372E-01 -0.6985294979705E-01  0.0000000000000E+00  0.3998341572224E+00
 0.2877163210009E-01 -0.4789584150021E-01  0.0000000000000E+00  0.3449687095137E+00
 0.1443343898581E-01 -0.2970153069085E-01  0.0000000000000E+00  0.2824022047633E+00
 0.5464690278252E-02 -0.1654445770752E-01  0.0000000000000E+00  0.2129646095816E+00
 0.3255288729655E-02 -0.9857765582453E-02  0.0000000000000E+00  0.1384085165848E+00
 0.9138113108452E-02 -0.1107764280162E-01  0.0000000000000E+00  0.6183790918504E-01
 0.2393503064464E-01 -0.2120138375671E-01  0.0000000000000E+00 -0.1199481783940E-01
 0.4725625944224E-01 -0.4000793470793E-01  0.0000000000000E+00 -0.7731440022028E-01
 0.3055842869736E+00 -0.3476688793355E+00  0.0000000000000E+00  0.5534780671951E+00
 0.2857158382181E+00 -0.3268034487116E+00  0.0000000000000E+00  0.5605537102872E+00
 0.2643935937393E+00 -0.3043182185733E+00  0.0000000000000E+00  0.5634316003002E+00
 0.2416376351231E+00 -0.2802446975456E+00  0.0000000000000E+00  0.5624904894366E+00
 0.2177312118311E+00 -0.2548725790819E+00  0.0000000000000E+00  0.5578072292569E+00
 0.1930449955457E+00 -0.2285655948650E+00  0.0000000000000E+00  0.5491076115428E+00
 0.1679582592524E+00 -0.2016896432576E+00  0.0000000000000E+00  0.5359133673162E+00
 0.1428530442104E+00 -0.1746089412098E+00  0.0000000000000E+00  0.5176834652048E+00
 0.1181376524483E+00 -0.1477140956322E+00  0.0000000000000E+00  0.4939003257048E+00
 0.9427275521838E-01 -0.1214493933749E+00  0.0000000000000E+00  0.4641192920608E+00
 0.7179269343323E-01 -0.9633532066199E-01  0.0000000000000E+00  0.4280103548102E+00
 0.5132098594735E-01 -0.7298530451264E-01  0.0000000000000E+00  0.3854071879643E+00
 0.3357868548162E-01 -0.5211591512823E-01  0.0000000000000E+00  0.3363740798125E+00
 0.1938195444184E-01 -0.3454730447272E-01  0.0000000000000E+00  0.2812981497807E+00
 0.9620581653596E-02 -0.2118616290963E-01  0.0000000000000E+00  0.2210112563180E+00
 0.5201717347815E-02 -0.1297578291464E-01  0.0000000000000E+00  0.1569377570309E+00
 0.6931304769842E-02 -0.1078575318366E-01  0.0000000000000E+00  0.9124017960336E-01
 0.1530018869379E-01 -0.1520015484761E-01  0.0000000000000E+00  0.2686353926539E-01
 0.3019802770610E-01 -0.2620980844424E-01  0.0000000000000E+00 -0.3274105460162E-01
 0.5072279625120E-01 -0.4298769050684E-01  0.0000000000000E+00 -0.8434335320582E-01
 0.2826556707944E+00 -0.3225389318007E+00  0.0000000000000E+00  0.5411342619235E+00
 0.2623308937563E+00 -0.3009961218347E+00  0.0000000000000E+00  0.5435216476450E+00
 0.2404204183880E+00 -0.2776899342129E+00  0.0000000000000E+00  0.5413511111771E+00
 0.2171746978049E+00 -0.2529146036190E+00  0.0000000000000E+00  0.5355172203066E+00
 0.1931058613302E+00 -0.2271923488527E+00  0.0000000000000E+00  0.5261424093778E+00
 0.1687051560971E+00 -0.2010122343661E+00  0.0000000000000E+00  0.5128429817176E+00
 0.1443923911632E+00 -0.1747756687269E+00  0.0000000000000E+00  0.4950998750924E+00
 0.1205627948079E+00 -0.1488618468343E+00  0.0000000000000E+00  0.4724464538769E+00
 0.9763113459939E-01 -0.1236719450867E+00  0.0000000000000E+00  0.4445272519889E+00
 0.7605728665691E-01 -0.9965624477689E-01  0.0000000000000E+00  0.4111298007158E+00
 0.5635862821677E-01 -0.7732710243376E-01  0.0000000000000E+00  0.3722140876731E+00
 0.3911116343122E-01 -0.5726109180132E-01  0.0000000000000E+00  0.3279523692854E+00
 0.2493938705605E-01 -0.4009038335459E-01  0.0000000000000E+00  0.2787825180665E+00
 0.1449173760189E-01 -0.2648035496748E-01  0.0000000000000E+00  0.2254731118622E+00
 0.8395600153136E-02 -0.1708718491132E-01  0.0000000000000E+00  0.1691913464822E+00
 0.7183416251292E-02 -0.1248634232970E-01  0.0000000000000E+00  0.1115515548626E+00
 0.1118436418682E-01 -0.1306330854524E-01  0.0000000000000E+00  0.5459630285035E-01
 0.2039158662391E-01 -0.1887379928155E-01  0.0000000000000E+00  0.6295064724285E-03
 0.3435612596503E-01 -0.2952548642188E-01  0.0000000000000E+00 -0.4813221548274E-01
 0.5220424613190E-01 -0.4417990749581E-01  0.0000000000000E+00 -0.8997030789025E-01
 0.2610548473322E+00 -0.2988283383978E+00  0.0000000000000E+00  0.5254847582000E+00
 0.2404298799262E+00 -0.2767366206988E+00  0.0000000000000E+00  0.5227138364973E+00
 0.2180001143885E+00 -0.2526831987720E+00  0.0000000000000E+00  0.5156102684018E+00
 0.1945076174073E+00 -0.2274655985615E+00  0.0000000000000E+00  0.5055469932337E+00
 0.1707143559754E+00 -0.2018887008562E+00  0.0000000000000E+00  0.4922605322880E+00
 0.1471113185027E+00 -0.1764055188613E+00  0.0000000000000E+00  0.4751101200701E+00
 0.1240693089602E+00 -0.1513659255086E+00  0.0000000000000E+00  0.4535995480911E+00
 0.1019473866764E+00 -0.1271123909282E+00  0.0000000000000E+00  0.4274074730866E+00
 0.8113112122939E-01 -0.1040210998598E+00  0.0000000000000E+00  0.3963907196960E+00
 0.6204589514108E-01 -0.8251395571523E-01  0.0000000000000E+00  0.3605841409568E+00
 0.4515425463322E-01 -0.6305583707920E-01  0.0000000000000E+00  0.3202140622946E+00
 0.3094276175443E-01 -0.4614173658876E-01  0.0000000000000E+00  0.2757233529936E+00
 0.1989861471222E-01 -0.3227416403678E-01  0.0000000000000E+00  0.2278033589129E+00
 0.1247457261326E-01 -0.2192901899701E-01  0.0000000000000E+00  0.1774241194804E+00
 0.9040503640706E-02 -0.1550770867162E-01  0.0000000000000E+00  0.1258487069380E+00
 0.9822969984811E-02 -0.1327556521808E-01  0.0000000000000E+00  0.7460862576980E-01
 0.1484210693095E-01 -0.1529483589430E-01  0.0000000000000E+00  0.2540919940503E-01
 0.2387561405050E-01 -0.2137811434561E-01  0.0000000000000E+00 -0.2006055999100E-01
 0.3646285415894E-01 -0.3108921597350E-01  0.0000000000000E+00 -0.6042641598440E-01
 0.5192328353667E-01 -0.4377454248053E-01  0.0000000000000E+00 -0.9488586924341E-01
 0.2409208895550E+00 -0.2766968770101E+00  0.0000000000000E+00  0.5065749934716E+00
 0.2196921665227E+00 -0.2537072359695E+00  0.0000000000000E+00  0.4984063893068E+00
 0.1967367911737E+00 -0.2288046104366E+00  0.0000000000000E+00  0.4875533941398E+00
 0.1735228135755E+00 -0.2037742523222E+00  0.0000000000000E+00  0.4745029611469E+00
 0.1506483866928E+00 -0.1790538064495E+00  0.0000000000000E+00  0.4580639857908E+00
 0.1283918943506E+00 -0.1548825695023E+00  0.0000000000000E+00  0.4376618996740E+00
 0.1070367616060E+00 -0.1315140120097E+00  0.0000000000000E+00  0.4130052477572E+00
 0.8689892206403E-01 -0.1092509176196E+00  0.0000000000000E+00  0.3840153931935E+00
 0.6833175431729E-01 -0.8844246879520E-01  0.0000000000000E+00  0.3507835809941E+00
 0.5171488250733E-01 -0.6947102414832E-01  0.0000000000000E+00  0.3135646711145E+00
 0.3743804403109E-01 -0.5273464725150E-01  0.0000000000000E+00  0.2727860406456E+00
 0.2587963419404E-01 -0.3862532028578E-01  0.0000000000000E+00  0.2290624269241E+00
 0.1737928593652E-01 -0.2750158327637E-01  0.0000000000000E+00  0.1832082162442E+00
 0.1220416958350E-01 -0.1965484999834E-01  0.0000000000000E+00  0.1362383148069E+00
 0.1051100956939E-01 -0.1527072576172E-01  0.0000000000000E+00  0.8934680131885E-01
 0.1231020492495E-01 -0.1439119486157E-01  0.0000000000000E+00  0.4385218675564E-01
 0.1744689739335E-01 -0.1689105792321E-01  0.0000000000000E+00  0.1102820127396E-02
 0.2561571272307E-01 -0.2249027650456E-01  0.0000000000000E+00 -0.3764273189162E-01
 0.3647578348736E-01 -0.3083941758917E-01  0.0000000000000E+00 -0.7135402603376E-01
 0.4974994187894E-01 -0.4163521533512E-01  0.0000000000000E+00 -0.9965250399662E-01
 0.2214203965336E+00 -0.2555206539735E+00  0.0000000000000E+00  0.4814776539899E+00
 0.1986227436460E+00 -0.2299007428913E+00  0.0000000000000E+00  0.4727233254145E+00
 0.1763526742101E+00 -0.2057709859110E+00  0.0000000000000E+00  0.4606156469243E+00
 0.1546578531867E+00 -0.1822804048864E+00  0.0000000000000E+00  0.4448966804907E+00
 0.1334389554449E+00 -0.1592485968286E+00  0.0000000000000E+00  0.4252751502440E+00
 0.1129345252288E+00 -0.1368564628392E+00  0.0000000000000E+00  0.4017124879076E+00
 0.9345612022227E-01 -0.1153977582702E+00  0.0000000000000E+00  0.3742543119050E+00
 0.7534526709234E-01 -0.9520961600168E-01  0.0000000000000E+00  0.3430419079334E+00
 0.5894619019678E-01 -0.7664045042947E-01  0.0000000000000E+00  0.3083268408279E+00
 0.4459151298502E-01 -0.6003214120354E-01  0.0000000000000E+00  0.2704905518813E+00
 0.3258768505365E-01 -0.4570412964376E-01  0.0000000000000E+00  0.2300590563894E+00
 0.2319754588785E-01 -0.3393542215496E-01  0.0000000000000E+00  0.1877097999487E+00
 0.1661912842783E-01 -0.2494319529016E-01  0.0000000000000E+00  0.1442666814429E+00
 0.1296190372169E-01 -0.1885877064480E-01  0.0000000000000E+00  0.1006788848323E+00
 0.1222393170690E-01 -0.1570413576647E-01  0.0000000000000E+00  0.5798016915275E-01
 0.1427660673976E-01 -0.1537533964981E-01  0.0000000000000E+00  0.1722951236399E-01
 0.1886498110699E-01 -0.1764210900179E-01  0.0000000000000E+00 -0.2055346416232E-01
 0.2564077324174E-01 -0.2217565575403E-01  0.0000000000000E+00 -0.5443515174136E-01
 0.3420783096380E-01 -0.2862139147268E-01  0.0000000000000E+00 -0.8348361370903E-01
 0.4465789041476E-01 -0.3694964768656E-01  0.0000000000000E+00 -0.1065644713445E+00
</DataArray>
<DataArray type="Float64" Name="S_Centroid" NumberOfComponents="4" ComponentName0="S11" ComponentName1="S22" ComponentName2="S33" ComponentName3="S12" format="ascii">
-0.4273580991352E+00 -0.3388793128452E+01 -0.7632302568905E+00 -0.4578582582652E+00
 0.5653705277599E-01 -0.2638428619515E+01 -0.5163783210424E+00 -0.2784844759332E-01
-0.1185853282874E-01 -0.2427845828808E+01 -0.4879408795982E+00 -0.2466253104249E-01
 0.1650793711521E-02 -0.2337288491353E+01 -0.4671275464890E+00 -0.8728183294614E-02
-0.7558769090121E-03 -0.2300023832071E+01 -0.4601559486528E+00 -0.2402949248454E-02
-0.5505760592706E-04 -0.2292592210558E+01 -0.4585294604655E+00  0.1777243336239E-02
-0.1358778857490E-03 -0.2304275175918E+01 -0.4608822176284E+00  0.4589896572059E-02
-0.7530674523226E-04 -0.2329523592922E+01 -0.4659197868761E+00  0.6724095932503E-02
-0.7009308298722E-04 -0.2365359100684E+01 -0.4730858458029E+00  0.8480173922405E-02
-0.6513850773193E-04 -0.2410173973592E+01 -0.4820478296030E+00  0.1005099535325E-01
-0.6984736308802E-04 -0.2463226728500E+01 -0.4926593225139E+00  0.1156268458373E-01
-0.8032367575617E-04 -0.2524378414975E+01 -0.5048917552536E+00  0.1311237785636E-01
-0.9725297167429E-04 -0.2593976195446E+01 -0.5188146974145E+00  0.1478525290643E-01
-0.1218392398411E-03 -0.2672819762213E+01 -0.5345883282566E+00  0.1666856028678E-01
-0.1554887949481E-03 -0.2762196369579E+01 -0.5524703799073E+00  0.1886444284129E-01
-0.2030725530892E-03 -0.2864022069727E+01 -0.5728450369922E+00  0.2151505301123E-01
-0.2757739295431E-03 -0.2981140764183E+01 -0.5962833165077E+00  0.2484926987809E-01
-0.3776123145793E-03 -0.3118078556676E+01 -0.6236912430918E+00  0.2930320033346E-01
-0.1180563472904E-02 -0.3283387106218E+01 -0.6569135437270E+00  0.3660395773483E-01
-0.4884872580828E-02 -0.3490601402366E+01 -0.6990972654068E+00  0.5398039138666E-01
-0.1197239450916E-01 -0.3737459220240E+01 -0.7498863341241E+00  0.9326517308847E-01
-0.2125388248366E-01 -0.3999725975914E+01 -0.8041959836631E+00  0.1606984592286E+00
-0.3337204545285E-01 -0.4256293337617E+01 -0.8579330893981E+00  0.2530499198634E+00
-0.4983063743639E-01 -0.4499090030628E+01 -0.9097841471697E+00  0.3634380395952E+00
-0.7182615593129E-01 -0.4728915893490E+01 -0.9601484241917E+00  0.4862317045130E+00
-0.1002213186281E+00 -0.4949884902161E+01 -0.1010021259208E+01  0.6184790757140E+00
-0.1358642930658E+00 -0.5165982909553E+01 -0.1060369456325E+01  0.7595494957568E+00
-0.1799080721499E+00 -0.5379558766645E+01 -0.1111893384327E+01  0.9103586257693E+00
-0.2339430600293E+00 -0.5590350560952E+01 -0.1164858741554E+01  0.1072606374349E+01
-0.2988759005518E+00 -0.5793566169268E+01 -0.1218488432121E+01  0.1246703408567E+01
-0.3734609131222E+00 -0.5983686786978E+01 -0.1271429558966E+01  0.1429436276939E+01
-0.4574057907585E+00 -0.6167367622231E+01 -0.1324954702341E+01  0.1618450502240E+01
-0.5535241201044E+00 -0.6359020358655E+01 -0.1382508916353E+01  0.1817558337771E+01
-0.6668839699159E+00 -0.6570853494715E+01 -0.1447547514496E+01  0.2035068214761E+01
-0.8048194756715E+00 -0.6817098872595E+01 -0.1524383692368E+01  0.2283604453984E+01
-0.9851518106296E+00 -0.7119032984406E+01 -0.1620836983159E+01  0.2582448893409E+01
-0.1218534428565E+01 -0.7508902333874E+01 -0.1745487378498E+01  0.2968850282006E+01
-0.1637927634481E+01 -0.8043322068757E+01 -0.1936249969500E+01  0.3499668755732E+01
-0.1989370963980E+01 -0.8810856732083E+01 -0.2160045571400E+01  0.4355628294895E+01
-0.5041272873492E+01 -0.9735513528416E+01 -0.2955357324420E+01  0.5948775519373E+01
 0.5480161058645E+01 -0.8546986264097E+01 -0.6133650502304E+00  0.6802025718385E+01
-0.4599397162692E+00 -0.2991301000155E+01 -0.6902481535703E+00 -0.5047269047339E+00
-0.7963303945660E-01 -0.2776775130769E+01 -0.5712816425579E+00 -0.2212911072213E+00
-0.6530987388308E-02 -0.2529443578181E+01 -0.5071949206716E+00 -0.6993728212587E-01
-0.1026202757805E-01 -0.2429162013265E+01 -0.4878848154386E+00 -0.3528459111913E-01
-0.4029301726291E-02 -0.2381425344550E+01 -0.4770909363645E+00 -0.1166344148564E-01
-0.3036807979279E-02 -0.2366070021283E+01 -0.4738213729130E+00  0.1738084310802E-02
-0.2071130801455E-02 -0.2371349190246E+01 -0.4746840712828E+00  0.1105747473104E-01
-0.1648752950028E-02 -0.2391426822572E+01 -0.4786151222364E+00  0.1800059426009E-01
-0.1402889407461E-02 -0.2422979891911E+01 -0.4848765634889E+00  0.2367172506792E-01
-0.1300028432218E-02 -0.2464192264927E+01 -0.4930984660195E+00  0.2868275779532E-01
-0.1291189668198E-02 -0.2514159158852E+01 -0.5030900772006E+00  0.3344871127941E-01
-0.1361234617057E-02 -0.2572620261904E+01 -0.5147963069753E+00  0.3828008692303E-01
-0.1505422587030E-02 -0.2639824152913E+01 -0.5282659229718E+00  0.4344617709226E-01
-0.1731358810570E-02 -0.2716485334183E+01 -0.5436433466997E+00  0.4921755427839E-01
-0.2061015921997E-02 -0.2803811021709E+01 -0.5611744158883E+00  0.5591122179825E-01
-0.2546176304906E-02 -0.2903621427033E+01 -0.5812335293285E+00  0.6396141318164E-01
-0.3294564056547E-02 -0.3018615622294E+01 -0.6043820462761E+00  0.7405583183699E-01
-0.4696662238474E-02 -0.3152960659902E+01 -0.6315314738387E+00  0.8760675754349E-01
-0.8876696579002E-02 -0.3312728518775E+01 -0.6643210529700E+00  0.1080203875917E+00
-0.1919381131789E-01 -0.3502426908296E+01 -0.7043241544180E+00  0.1406444943439E+00
-0.3586997689347E-01 -0.3717344460305E+01 -0.7506428986251E+00  0.1904389639504E+00
-0.5594681756253E-01 -0.3943575316447E+01 -0.7999044387214E+00  0.2598668952256E+00
-0.7775835882001E-01 -0.4167629608152E+01 -0.8490776060467E+00  0.3480115290682E+00
-0.1020267173212E+00 -0.4382491780988E+01 -0.8969037130267E+00  0.4515911904473E+00
-0.1303667538488E+00 -0.4586806713816E+01 -0.9434347075913E+00  0.5671324383572E+00
-0.1643773931277E+00 -0.4781911708314E+01 -0.9892578350295E+00  0.6922378890119E+00
-0.2054881733179E+00 -0.4969461440468E+01 -0.1034989938180E+01  0.8257835616278E+00
-0.2551013845146E+00 -0.5150017921451E+01 -0.1081023877302E+01  0.9675505726006E+00
-0.3142435807814E+00 -0.5322218495782E+01 -0.1127292432111E+01  0.1117386270187E+01
-0.3824065106579E+00 -0.5483020417208E+01 -0.1173085403054E+01  0.1274391192839E+01
-0.4585751942536E+00 -0.5630336094546E+01 -0.1217782275906E+01  0.1437636947350E+01
-0.5443034139390E+00 -0.5765782996952E+01 -0.1262017300984E+01  0.1607432125484E+01
-0.6439120291707E+00 -0.5893710911291E+01 -0.1307524607576E+01  0.1785900866924E+01
-0.7631631353902E+00 -0.6017782473154E+01 -0.1356189141918E+01  0.1977666235561E+01
-0.9117586142359E+00 -0.6139011377937E+01 -0.1410154019447E+01  0.2190077035872E+01
-0.1101730916121E+01 -0.6253567295505E+01 -0.1471059664246E+01  0.2433009174811E+01
-0.1372634317628E+01 -0.6346899853180E+01 -0.1543906857168E+01  0.2719205326895E+01
-0.1707254658139E+01 -0.6369170875743E+01 -0.1615285130846E+01  0.3045975252880E+01
-0.2449364876584E+01 -0.6151943356620E+01 -0.1720261672275E+01  0.3440849331805E+01
-0.2452324117473E+01 -0.5018519584791E+01 -0.1494168762718E+01  0.2725441517758E+01
 0.7853866035133E+01 -0.4114083094411E+01  0.7479565992898E+00  0.2063119687184E+01
-0.4932264296188E+00 -0.2809466885478E+01 -0.6605386728622E+00 -0.4875007932478E+00
-0.1766464500051E+00 -0.2759586197636E+01 -0.5872465382790E+00 -0.3051408155430E+00
-0.4568720467256E-01 -0.2608546719787E+01 -0.5308467928022E+00 -0.1339814184996E+00
-0.2288301544591E-01 -0.2503559330435E+01 -0.5052884767056E+00 -0.6068899305677E-01
-0.1369462560672E-01 -0.2453516362324E+01 -0.4934422049391E+00 -0.2403696996123E-01
-0.8673273990540E-02 -0.2433146266640E+01 -0.4883639154034E+00 -0.3857679029563E-03
-0.6294668469938E-02 -0.2433808369797E+01 -0.4880206149255E+00  0.1561213854365E-01
-0.4915842044599E-02 -0.2449664236636E+01 -0.4909160230514E+00  0.2766584697202E-01
-0.4192796509186E-02 -0.2477473256443E+01 -0.4963332179864E+00  0.3747091710744E-01
-0.3857810502850E-02 -0.2515343093307E+01 -0.5038401882698E+00  0.4610362077591E-01
-0.3805245155854E-02 -0.2562291023100E+01 -0.5132192612987E+00  0.5426669623629E-01
-0.3979862207978E-02 -0.2617970968991E+01 -0.5243901740538E+00  0.6249155215911E-01
-0.4368068607533E-02 -0.2682544294373E+01 -0.5373824806037E+00  0.7123463555530E-01
-0.4989183274702E-02 -0.2756629319388E+01 -0.5523237087628E+00  0.8095108196620E-01
-0.5905873971960E-02 -0.2841312994626E+01 -0.5694437822050E+00  0.9216860727470E-01
-0.7258705807008E-02 -0.2938234873818E+01 -0.5890987247032E+00  0.1055958777349E+00
-0.9364005788876E-02 -0.3049761090027E+01 -0.6118250282800E+00  0.1223441347132E+00
-0.1326463788518E-01 -0.3179117525446E+01 -0.6384764421803E+00  0.1444783376782E+00
-0.2178832903088E-01 -0.3329462476607E+01 -0.6702501711151E+00  0.1753572302162E+00
-0.3817619738697E-01 -0.3501155144723E+01 -0.7078662789699E+00  0.2182716842220E+00
-0.6219913866566E-01 -0.3689375048166E+01 -0.7503148485470E+00  0.2749371576950E+00
-0.9033414974829E-01 -0.3885326606873E+01 -0.7951321631726E+00  0.3459476808050E+00
-0.1199533786104E+00 -0.4080263738190E+01 -0.8400434358777E+00  0.4311040711628E+00
-0.1510758698695E+00 -0.4268478856888E+01 -0.8839109585227E+00  0.5290349963737E+00
-0.1852459790048E+00 -0.4447558509064E+01 -0.9265609114206E+00  0.6376961315079E+00
-0.2243170564429E+00 -0.4617016141808E+01 -0.9682666540785E+00  0.7551626258540E+00
-0.2699608117461E+00 -0.4776781846676E+01 -0.1009348546725E+01  0.8799872712158E+00
-0.3235068242473E+00 -0.4926117386676E+01 -0.1049924857830E+01  0.1011049489189E+01
-0.3854237236832E+00 -0.5063204455612E+01 -0.1089725652097E+01  0.1147098504340E+01
-0.4548600029136E+00 -0.5185747272389E+01 -0.1128121471871E+01  0.1286861437209E+01
-0.5312347194355E+00 -0.5291839347300E+01 -0.1164614830701E+01  0.1429954534698E+01
-0.6166135194298E+00 -0.5379869433362E+01 -0.1199296608429E+01  0.1576778982461E+01
-0.7153432511357E+00 -0.5448016907950E+01 -0.1232672050185E+01  0.1727730043901E+01
-0.8330549536362E+00 -0.5492578210529E+01 -0.1265126651685E+01  0.1883382656426E+01
-0.9764098769173E+00 -0.5504442332752E+01 -0.1296170461248E+01  0.2043753838726E+01
-0.1156683468187E+01 -0.5464169973904E+01 -0.1324170708150E+01  0.2205629078591E+01
-0.1376338346108E+01 -0.5329986856941E+01 -0.1341265060596E+01  0.2349478582896E+01
-0.1644375395555E+01 -0.5019059123707E+01 -0.1332686923711E+01  0.2430113066543E+01
-0.1822705136777E+01 -0.4304538992934E+01 -0.1225448844203E+01  0.2164401323680E+01
-0.9326242737148E-02 -0.3301610324127E+01 -0.6621873232402E+00  0.9236255901987E+00
 0.8111905122122E+01 -0.2883856767548E+01  0.1045609686496E+01  0.8756357815051E+00
-0.5163972925053E+00 -0.2713606246713E+01 -0.6460007174698E+00 -0.4589608522868E+00
-0.2482151475929E+00 -0.2725463976449E+01 -0.5947358336706E+00 -0.3359810383138E+00
-0.9516154819828E-01 -0.2648086497094E+01 -0.5486496172339E+00 -0.1814935458740E+00
-0.4509557910001E-01 -0.2564629880629E+01 -0.5219450997233E+00 -0.8766141695675E-01
-0.2690773440346E-01 -0.2515587895758E+01 -0.5084991336095E+00 -0.3657338831507E-01
-0.1760994200433E-01 -0.2493793233357E+01 -0.5022806425569E+00 -0.3971268154113E-02
-0.1268355575015E-01 -0.2491455708920E+01 -0.5008278603969E+00  0.1881013998619E-01
-0.9963419887608E-02 -0.2504099292566E+01 -0.5028125499832E+00  0.3599750057202E-01
-0.8475528086602E-02 -0.2528720006983E+01 -0.5074391145753E+00  0.5003814610596E-01
-0.7778879262271E-02 -0.2563532958132E+01 -0.5142623751419E+00  0.6238174239501E-01
-0.7641556583344E-02 -0.2607548345802E+01 -0.5230379882710E+00  0.7401700565735E-01
-0.7957969558935E-02 -0.2660373988693E+01 -0.5336663996027E+00  0.8568719526734E-01
-0.8697713555456E-02 -0.2722095715478E+01 -0.5461586939450E+00  0.9803111634395E-01
-0.9896790904133E-02 -0.2793225917251E+01 -0.5606245499851E+00  0.1116800603480E+00
-0.1167462623949E-01 -0.2874695430723E+01 -0.5772740199945E+00  0.1273546000033E+00
-0.1429431651025E-01 -0.2967888281514E+01 -0.5964365284924E+00  0.1459991705154E+00
-0.1836582054956E-01 -0.3074667856922E+01 -0.6186067447123E+00  0.1690333013601E+00
-0.2544490726098E-01 -0.3197068667801E+01 -0.6445027246162E+00  0.1986782578578E+00
-0.3851253940599E-01 -0.3336113361421E+01 -0.6749251902225E+00  0.2376270394357E+00
-0.6027382947647E-01 -0.3490279861904E+01 -0.7101107488577E+00  0.2876163560417E+00
-0.9010191359942E-01 -0.3655214504582E+01 -0.7490632947983E+00  0.3487395318400E+00
-0.1244249536884E+00 -0.3824978359295E+01 -0.7898806743667E+00  0.4206469344671E+00
-0.1602923817988E+00 -0.3993692056223E+01 -0.8307968999841E+00  0.5032829816607E+00
-0.1972132297492E+00 -0.4156788867130E+01 -0.8708004323518E+00  0.5961827148049E+00
-0.2364400996859E+00 -0.4311419151405E+01 -0.9095718637719E+00  0.6981507021260E+00
-0.2797669380367E+00 -0.4455951154902E+01 -0.9471436327012E+00  0.8075885487268E+00
-0.3288292968871E+00 -0.4589113108345E+01 -0.9835884957030E+00  0.9228134057254E+00
-0.3847147913341E+00 -0.4709293084064E+01 -0.1018801590261E+01  0.1042072460581E+01
-0.4475103297606E+00 -0.4814365974390E+01 -0.1052375276512E+01  0.1163478789548E+01
-0.5163233233925E+00 -0.4902036772513E+01 -0.1083672035329E+01  0.1285444711923E+01
-0.5907964182524E+00 -0.4969745248396E+01 -0.1112108349901E+01  0.1407247792518E+01
-0.6727237732958E+00 -0.5013647038257E+01 -0.1137274179257E+01  0.1528321893035E+01
-0.7655272664414E+00 -0.5028061724774E+01 -0.1158717815509E+01  0.1646934812105E+01
-0.8726731739007E+00 -0.5004321940536E+01 -0.1175399040402E+01  0.1759442047360E+01
-0.9968706117209E+00 -0.4927558755649E+01 -0.1184885891130E+01  0.1858557785091E+01
-0.1135950606670E+01 -0.4771344381588E+01 -0.1181459015257E+01  0.1927037141623E+01
-0.1271324488303E+01 -0.4491587542903E+01 -0.1152582423416E+01  0.1925990532874E+01
-0.1327864835300E+01 -0.4010559774048E+01 -0.1067684937779E+01  0.1753609179062E+01
-0.8711238822281E+00 -0.3279277848417E+01 -0.8300803584983E+00  0.1148860911179E+01
 0.1622328174815E+01 -0.2663836171199E+01 -0.2083016023807E+00  0.8259133864123E-01
 0.7757046782909E+01 -0.2414986563659E+01  0.1068412059770E+01  0.4885578344717E+00
-0.5328501858415E+00 -0.2660880077333E+01 -0.6387460621530E+00 -0.4294333283721E+00
-0.3019002076555E+00 -0.2698111366506E+01 -0.6000023237731E+00 -0.3414785229008E+00
-0.1439055241472E+00 -0.2667522382026E+01 -0.5622855896133E+00 -0.2103911501658E+00
-0.7355380653870E-01 -0.2610926883927E+01 -0.5368961460934E+00 -0.1107813446944E+00
-0.4401609390246E-01 -0.2568917673027E+01 -0.5225867611730E+00 -0.4868629671680E-01
-0.2931856602049E-01 -0.2547965515022E+01 -0.5154568238895E+00 -0.7969669956392E-02
-0.2126837837221E-01 -0.2544312442726E+01 -0.5131161718657E+00  0.2108082760815E-01
-0.1675274918664E-01 -0.2554672294049E+01 -0.5142850163105E+00  0.4329269203146E-01
-0.1426254319396E-01 -0.2576665255833E+01 -0.5181855675269E+00  0.6152990456029E-01
-0.1307018149420E-01 -0.2608712217390E+01 -0.5243564875904E+00  0.7758969031153E-01
-0.1280622305050E-01 -0.2649894517157E+01 -0.5325401559770E+00  0.9270379464892E-01
-0.1329401129497E-01 -0.2699807953568E+01 -0.5426204010583E+00  0.1078121049338E+00
-0.1448181884639E-01 -0.2758475609723E+01 -0.5545914939780E+00  0.1237213805735E+00
-0.1642436372899E-01 -0.2826296674191E+01 -0.5685442160560E+00  0.1412222241867E+00
-0.1930747418794E-01 -0.2904017803980E+01 -0.5846650643457E+00  0.1611989866631E+00
-0.2353931943698E-01 -0.2992709533235E+01 -0.6032497795235E+00  0.1847730923982E+00
-0.3000863680780E-01 -0.3093636973477E+01 -0.6247291313662E+00  0.2135014435687E+00
-0.4056029343930E-01 -0.3207743310109E+01 -0.6496607303903E+00  0.2494318025711E+00
-0.5800779912048E-01 -0.3334674502222E+01 -0.6785364703794E+00  0.2944791555539E+00
-0.8443933522024E-01 -0.3472103749292E+01 -0.7113086275019E+00  0.3493108449536E+00
-0.1189355207756E+00 -0.3616232948114E+01 -0.7470337049095E+00  0.4131888787546E+00
-0.1580815283908E+00 -0.3762830412940E+01 -0.7841823999513E+00  0.4852742241971E+00
-0.1989012319684E+00 -0.3907772374028E+01 -0.8213347334382E+00  0.5654389006329E+00
-0.2405529324825E+00 -0.4047371188478E+01 -0.8575848369712E+00  0.6535684588406E+00
-0.2839184601642E+00 -0.4178670263238E+01 -0.8925177579800E+00  0.7488995647601E+00
-0.3305382695144E+00 -0.4299365913425E+01 -0.9259808503861E+00  0.8500103575637E+00
-0.3818209362649E+00 -0.4407405660479E+01 -0.9578453336219E+00  0.9550363853078E+00
-0.4385404217090E+00 -0.4500603454642E+01 -0.9878287899900E+00  0.1061799682502E+01
-0.5004956738657E+00 -0.4576543453032E+01 -0.1015407840510E+01  0.1167981633498E+01
-0.5667521522296E+00 -0.4632634580211E+01 -0.1039877361983E+01  0.1271576101085E+01
-0.6368538034875E+00 -0.4665583168865E+01 -0.1060487410273E+01  0.1371097752870E+01
-0.7117999245171E+00 -0.4670118437859E+01 -0.1076383688515E+01  0.1464593054919E+01
-0.7932006954846E+00 -0.4638413277372E+01 -0.1086322810759E+01  0.1548044351899E+01
-0.8812994979266E+00 -0.4559398489538E+01 -0.1088139613707E+01  0.1613992633170E+01
-0.9719619220902E+00 -0.4416449676373E+01 -0.1077682335751E+01  0.1648728310140E+01
-0.1049140422245E+01 -0.4184867701995E+01 -0.1046801640446E+01  0.1625981356913E+01
-0.1064951243783E+01 -0.3830557714206E+01 -0.9791018061875E+00  0.1493925460547E+01
-0.8645529229664E+00 -0.3323736834609E+01 -0.8376579639971E+00  0.1147705938081E+01
 0.3833694034260E-01 -0.2741208657922E+01 -0.5405743515710E+00  0.4619276972516E+00
 0.2631022525301E+01 -0.2400581669971E+01  0.4608817175284E-01 -0.2901442537926E+00
 0.7305659257196E+01 -0.2202679824045E+01  0.1020595901838E+01  0.3152771622167E+00
-0.5454566146338E+00 -0.2632725472859E+01 -0.6356364269702E+00 -0.4012118298620E+00
-0.3431559197598E+00 -0.2680543326213E+01 -0.6047398582058E+00 -0.3345705029582E+00
-0.1882656546076E+00 -0.2678644989360E+01 -0.5733821373376E+00 -0.2249273201645E+00
-0.1047228605587E+00 -0.2645825739793E+01 -0.5501097282675E+00 -0.1276836774636E+00
-0.6432003625556E-01 -0.2614113724915E+01 -0.5356867602164E+00 -0.5915792353675E-01
-0.4348602425459E-01 -0.2596122108982E+01 -0.5279216345140E+00 -0.1175677397034E-01
-0.3187129131863E-01 -0.2592472807841E+01 -0.5248688276531E+00  0.2288758505796E-01
-0.2522625891749E-01 -0.2601422831838E+01 -0.5253298259791E+00  0.4980982012098E-01
-0.2151808301841E-01 -0.2621308179981E+01 -0.5285652604762E+00  0.7210131600048E-01
-0.1971332318572E-01 -0.2650875038354E+01 -0.5341176802670E+00  0.9179836122282E-01
-0.1928122612015E-01 -0.2689328800239E+01 -0.5417220133442E+00  0.1103341210031E+00
-0.1996434463973E-01 -0.2736285844078E+01 -0.5512500459578E+00  0.1288163000990E+00
-0.2168370785610E-01 -0.2791718302420E+01 -0.5626804104397E+00  0.1481988571498E+00
-0.2451239045913E-01 -0.2855908752723E+01 -0.5760842372207E+00  0.1694074585034E+00
-0.2870551606430E-01 -0.2929401604584E+01 -0.5916214329455E+00  0.1934531252171E+00
-0.3481243699146E-01 -0.3012921613149E+01 -0.6095468191110E+00  0.2215598029628E+00
-0.4392857068651E-01 -0.3107139551097E+01 -0.6302136337476E+00  0.2552695762938E+00
-0.5799021334988E-01 -0.3212133351300E+01 -0.6540247226756E+00  0.2962968613199E+00
-0.7948497573616E-01 -0.3326720518892E+01 -0.6812411090770E+00  0.3458555806325E+00
-0.1099282243168E+00 -0.3448288372256E+01 -0.7116433299189E+00  0.4039027492558E+00
-0.1482013186376E+00 -0.3573542092684E+01 -0.7443486933559E+00  0.4692716079715E+00
-0.1911125700661E+00 -0.3699317464370E+01 -0.7780860184816E+00  0.5408601229436E+00
-0.2357847100012E+00 -0.3822589120577E+01 -0.8116747782105E+00  0.6183877341108E+00
-0.2811323326985E+00 -0.3940320249463E+01 -0.8442905290132E+00  0.7017916581497E+00
-0.3276512924906E+00 -0.4049613101589E+01 -0.8754528918612E+00  0.7904643290505E+00
-0.3765195675540E+00 -0.4147815619337E+01 -0.9048670508617E+00  0.8830371378269E+00
-0.4288038937587E+00 -0.4232411398680E+01 -0.9322430723792E+00  0.9774956363401E+00
-0.4849264681879E+00 -0.4300849559165E+01 -0.9571552197332E+00  0.1071363454761E+01
-0.5444092170437E+00 -0.4350461349146E+01 -0.9789741278257E+00  0.1161969737331E+01
-0.6061548814470E+00 -0.4378332832468E+01 -0.9968975576380E+00  0.1246805525565E+01
-0.6693032076473E+00 -0.4380640303025E+01 -0.1009988717184E+01  0.1323467177040E+01
-0.7336435319631E+00 -0.4351406790410E+01 -0.1017010079629E+01  0.1388541266193E+01
-0.7984319794309E+00 -0.4282060262078E+01 -0.1016098463443E+01  0.1435923573652E+01
-0.8597782133803E+00 -0.4161280281423E+01 -0.1004211713925E+01  0.1455091372627E+01
-0.9059425890503E+00 -0.3974201655707E+01 -0.9760288634955E+00  0.1428187551184E+01
-0.9070098859068E+00 -0.3702783785374E+01 -0.9219587479944E+00  0.1324703870453E+01
-0.7882165806212E+00 -0.3331724556046E+01 -0.8239882396118E+00  0.1093009398449E+01
-0.3597342253146E+00 -0.2877469602073E+01 -0.6474407751251E+00  0.6612322610675E+00
 0.7952877112555E+00 -0.2458828048848E+01 -0.3327080724762E+00  0.2558006228942E-01
 0.3243597498335E+01 -0.2275794010056E+01  0.1935607005401E+00 -0.4497972600389E+00
 0.6887474499556E+01 -0.2098005840091E+01  0.9578937461666E+00  0.2070726195341E+00
-0.5558857938280E+00 -0.2619704902028E+01 -0.6351181486352E+00 -0.3747038952276E+00
-0.3757816107035E+00 -0.2671574384258E+01 -0.6094712080740E+00 -0.3215126124766E+00
-0.2274577363492E+00 -0.2687148661267E+01 -0.5829212882095E+00 -0.2294298465921E+00
-0.1362523359462E+00 -0.2673089687242E+01 -0.5618684130101E+00 -0.1382419755328E+00
-0.8674139376485E-01 -0.2652330900624E+01 -0.5478144670409E+00 -0.6710641797749E-01
-0.5971141423266E-01 -0.2638773323528E+01 -0.5396969555943E+00 -0.1481222976420E-01
-0.4426919035313E-01 -0.2636179785829E+01 -0.5360898032248E+00  0.2459686096873E-01
-0.3527016315506E-01 -0.2644454266200E+01 -0.5359448938572E+00  0.5578742475646E-01
-0.3017748900912E-01 -0.2662702699387E+01 -0.5385760457046E+00  0.8189211279314E-01
-0.2766317053052E-01 -0.2690055032739E+01 -0.5435436487534E+00  0.1050757252317E+00
-0.2702712024689E-01 -0.2725884733054E+01 -0.5505823788646E+00  0.1269162995426E+00
-0.2792442991034E-01 -0.2769853201982E+01 -0.5595555347166E+00  0.1486553034198E+00
-0.3024441544477E-01 -0.2821893213461E+01 -0.5704275342812E+00  0.1713668458125E+00
-0.3407515483422E-01 -0.2882171417374E+01 -0.5832493231328E+00  0.1960825313332E+00
-0.3973521523755E-01 -0.2951023291626E+01 -0.5981517102858E+00  0.2238975534606E+00
-0.4788836429631E-01 -0.3028827754632E+01 -0.6153432329550E+00  0.2560644473254E+00
-0.5974732604157E-01 -0.3115729722012E+01 -0.6350954190744E+00  0.2940047313648E+00
-0.7719548921586E-01 -0.3211175664231E+01 -0.6576742404895E+00  0.3390506087546E+00
-0.1023341597233E+00 -0.3313516517717E+01 -0.6831701456681E+00  0.3918436358687E+00
-0.1361867130290E+00 -0.3420103259427E+01 -0.7112580050897E+00  0.4518756896192E+00
-0.1775025627656E+00 -0.3528061660756E+01 -0.7411128557478E+00  0.5177603408447E+00
-0.2233157322584E+00 -0.3634920129491E+01 -0.7716471838482E+00  0.5882464267228E+00
-0.2708853605528E+00 -0.3738358509995E+01 -0.8018487860580E+00  0.6628757251102E+00
-0.3189463751124E+00 -0.3835821376749E+01 -0.8309535627544E+00  0.7414820246958E+00
-0.3676192467135E+00 -0.3924552009815E+01 -0.8584342640975E+00  0.8234419970889E+00
-0.4176670476503E+00 -0.4001767043247E+01 -0.8838868313505E+00  0.9073514949751E+00
-0.4697515023401E+00 -0.4064716125153E+01 -0.9068935390125E+00  0.9910610346570E+00
-0.5239134902859E+00 -0.4110644313711E+01 -0.9269115746115E+00  0.1071865713810E+01
-0.5793591070435E+00 -0.4136712618136E+01 -0.9432143590908E+00  0.1146777014682E+01
-0.6346784195434E+00 -0.4139796154648E+01 -0.9548949290673E+00  0.1212758529597E+01
-0.6883517112979E+00 -0.4115842071837E+01 -0.9608387709446E+00  0.1266500350972E+01
-0.7386849743988E+00 -0.4058805708515E+01 -0.9594981508805E+00  0.1303285189586E+01
-0.7822677010612E+00 -0.3960467830219E+01 -0.9485471203905E+00  0.1315363094071E+01
-0.8107935715803E+00 -0.3810924514970E+01 -0.9243436310838E+00  0.1290271203994E+01
-0.8052497267754E+00 -0.3599263922121E+01 -0.8809027429057E+00  0.1208480277530E+01
-0.7239492864690E+00 -0.3316609412445E+01 -0.8081117518246E+00  0.1040267643162E+01
-0.4763269502651E+00 -0.2966716138328E+01 -0.6886086279798E+00  0.7451457839475E+00
 0.1244892887829E+00 -0.2593059732433E+01 -0.4937140960870E+00  0.2930123006262E+00
 0.1391739131652E+01 -0.2307405082571E+01 -0.1831331929126E+00 -0.2438706682533E+00
 0.3614109823027E+01 -0.2208484045430E+01  0.2811251597085E+00 -0.5143824482223E+00
 0.6528598474652E+01 -0.2044676466842E+01  0.8967844149253E+00  0.1236391187996E+00
-0.5650532815216E+00 -0.2616504132235E+01 -0.6363114922331E+00 -0.3498374769733E+00
-0.4023595906522E+00 -0.2669393382314E+01 -0.6143506037478E+00 -0.3054500651196E+00
-0.2617850236125E+00 -0.2695569305365E+01 -0.5914708746090E+00 -0.2271816026683E+00
-0.1668151432961E+00 -0.2695570757008E+01 -0.5724771885915E+00 -0.1432726979915E+00
-0.1102775117586E+00 -0.2684957497753E+01 -0.5590470102328E+00 -0.7218708899117E-01
-0.7751479549403E-01 -0.2676529103136E+01 -0.5508087879336E+00 -0.1675215886738E-01
-0.5820690109187E-01 -0.2675751615913E+01 -0.5467917115488E+00  0.2649169827135E-01
-0.4673517593525E-01 -0.2683933934663E+01 -0.5461338302577E+00  0.6142525013729E-01
-0.4014840383122E-01 -0.2700946825815E+01 -0.5482190540983E+00  0.9102567760604E-01
-0.3685255324726E-01 -0.2726322275933E+01 -0.5526349740709E+00  0.1174832190961E+00
-0.3598474653625E-01 -0.2759627102755E+01 -0.5591223781899E+00  0.1424592684681E+00
-0.3711096238876E-01 -0.2800585677970E+01 -0.5675393365288E+00  0.1672904689584E+00
-0.4008525146741E-01 -0.2849101742227E+01 -0.5778374073494E+00  0.1931404082250E+00
-0.4500465704983E-01 -0.2905230965944E+01 -0.5900471333912E+00  0.2211145036848E+00
-0.5223698317215E-01 -0.2969105371743E+01 -0.6042684799874E+00  0.2523488958588E+00
-0.6252079686209E-01 -0.3040784825579E+01 -0.6206611337367E+00  0.2880628761764E+00
-0.7710212932762E-01 -0.3119984365840E+01 -0.6394173085616E+00  0.3294970085497E+00
-0.9771745485561E-01 -0.3205717377861E+01 -0.6606869763883E+00  0.3776126295462E+00
-0.1260750216512E+00 -0.3296098194613E+01 -0.6844346534518E+00  0.4326055929644E+00
-0.1627883232586E+00 -0.3388558788884E+01 -0.7102694330123E+00  0.4936644669762E+00
-0.2065180071186E+00 -0.3480568198995E+01 -0.7374172522111E+00  0.5592923038542E+00
-0.2544983917102E+00 -0.3570121039775E+01 -0.7649238976953E+00  0.6281464397035E+00
-0.3041201713673E+00 -0.3655365019239E+01 -0.7918970499215E+00  0.6995895798125E+00
-0.3539728694663E+00 -0.3734109327149E+01 -0.8176164515064E+00  0.7732775879807E+00
-0.4038209679240E+00 -0.3803779449175E+01 -0.8415200959594E+00  0.8484725312683E+00
-0.4539948368631E+00 -0.3861604988624E+01 -0.8631199779588E+00  0.9236771858403E+00
-0.5047199718434E+00 -0.3904768012910E+01 -0.8818976100920E+00  0.9966131410196E+00
-0.5556290817531E+00 -0.3930443806397E+01 -0.8972145909996E+00  0.1064386575063E+01
-0.6055546394247E+00 -0.3935736592073E+01 -0.9082582598336E+00  0.1123720211735E+01
-0.6526366728712E+00 -0.3917480642733E+01 -0.9140234767409E+00  0.1171084076208E+01
-0.6945153577293E+00 -0.3871706353331E+01 -0.9132443558205E+00  0.1202384066848E+01
-0.7278727997261E+00 -0.3792827037745E+01 -0.9041399809669E+00  0.1211891917944E+01
-0.7465833090747E+00 -0.3673782299942E+01 -0.8840731349771E+00  0.1190813568378E+01
-0.7381768872760E+00 -0.3507142868272E+01 -0.8490639637617E+00  0.1125972851503E+01
-0.6775539383497E+00 -0.3286971176906E+01 -0.7929050348663E+00  0.9984813569855E+00
-0.5152707716273E+00 -0.3013588963124E+01 -0.7057719574671E+00  0.7835103278425E+00
-0.1570266701081E+00 -0.2704708808922E+01 -0.5723471043346E+00  0.4567241112471E+00
 0.5599183456852E+00 -0.2412855813353E+01 -0.3705874990556E+00  0.2357313253668E-01
 0.1851267123228E+01 -0.2224113717986E+01 -0.7456932006275E-01 -0.4073856264948E+00
 0.3837214455338E+01 -0.2169000909339E+01  0.3336427141715E+00 -0.5369499163662E+00
 0.6225478712159E+01 -0.2018994910568E+01  0.8412967728545E+00  0.5384115535565E-01
-0.5734596899404E+00 -0.2619909945511E+01 -0.6386739366073E+00 -0.3264339255602E+00
-0.4246357351127E+00 -0.2672380791742E+01 -0.6194033146007E+00 -0.2880176904716E+00
-0.2918963937967E+00 -0.2704921667547E+01 -0.5993636211999E+00 -0.2204760258868E+00
-0.1957651026113E+00 -0.2715174512990E+01 -0.5821879317956E+00 -0.1438367792530E+00
-0.1341531960685E+00 -0.2713287892494E+01 -0.5694882261986E+00 -0.7445224961214E-01
-0.9641453306947E-01 -0.2710061316110E+01 -0.5612951781997E+00 -0.1736373351359E-01
-0.7340819284432E-01 -0.2711554236273E+01 -0.5569924941234E+00  0.2877660346794E-01
-0.5945022669510E-01 -0.2720075439425E+01 -0.5559051415077E+00  0.6688004659995E-01
-0.5131689892419E-01 -0.2736176240312E+01 -0.5574986361546E+00  0.9960546465640E-01
-0.4719567864696E-01 -0.2759778211439E+01 -0.5613947863826E+00  0.1290743323004E+00
-0.4607795703817E-01 -0.2790648753792E+01 -0.5673453506202E+00  0.1569718321210E+00
-0.4744426655641E-01 -0.2828585913714E+01 -0.5752060446253E+00  0.1846893946453E+00
-0.5111085078720E-01 -0.2873473437705E+01 -0.5849168664143E+00  0.2134477206823E+00
-0.5717536433908E-01 -0.2925264866115E+01 -0.5964880549791E+00  0.2443932397055E+00
-0.6603489160300E-01 -0.2983904975278E+01 -0.6099879824658E+00  0.2786633442928E+00
-0.7845944873093E-01 -0.3049178069599E+01 -0.6255275129871E+00  0.3173986590328E+00
-0.9565929907565E-01 -0.3120468779757E+01 -0.6432256253514E+00  0.3616328367698E+00
-0.1191688970138E+00 -0.3196511824542E+01 -0.6631361541927E+00  0.4119952154580E+00
-0.1503230845957E+00 -0.3275328334217E+01 -0.6851302939718E+00  0.4683429963355E+00
-0.1893963206196E+00 -0.3354483624490E+01 -0.7087759995834E+00  0.5296665918249E+00
-0.2349851598587E+00 -0.3431727774128E+01 -0.7333425977250E+00  0.5944151605985E+00
-0.2844879961062E+00 -0.3505382638076E+01 -0.7579741381311E+00  0.6611841275883E+00
-0.3354030645726E+00 -0.3573920201573E+01 -0.7818646648798E+00  0.7291664387450E+00
-0.3861899971764E+00 -0.3635437528963E+01 -0.8043255172132E+00  0.7978110731846E+00
-0.4362782710545E+00 -0.3687563882798E+01 -0.8247684430605E+00  0.8662149595503E+00
-0.4855674731682E+00 -0.3727638126719E+01 -0.8426411325339E+00  0.9327553338191E+00
-0.5338349064295E+00 -0.3752896849879E+01 -0.8573463640372E+00  0.9950293506951E+00
-0.5802824743381E+00 -0.3760561901476E+01 -0.8681688880996E+00  0.1049982725660E+01
-0.6233129870345E+00 -0.3747805392886E+01 -0.8742236890111E+00  0.1094088492726E+01
-0.6605131552601E+00 -0.3711601609703E+01 -0.8744229660225E+00  0.1123403487111E+01
-0.6885825134793E+00 -0.3648340949939E+01 -0.8673847056088E+00  0.1133238312858E+01
-0.7025703011142E+00 -0.3553289644861E+01 -0.8511720018784E+00  0.1117219539877E+01
-0.6938251550323E+00 -0.3421056753841E+01 -0.8229763940380E+00  0.1066162668041E+01
-0.6463630278575E+00 -0.3247181433250E+01 -0.7787089038252E+00  0.9673198838486E+00
-0.5307927111274E+00 -0.3030730228559E+01 -0.7123045985514E+00  0.8042956570765E+00
-0.2944652290543E+00 -0.2779505000705E+01 -0.6147940551131E+00  0.5595382186484E+00
 0.1515647340877E+00 -0.2518853318365E+01 -0.4734577239106E+00  0.2249505927652E+00
 0.9380499100209E+00 -0.2298885243991E+01 -0.2721670708497E+00 -0.1693135388528E+00
 0.2202610350959E+01 -0.2177664317759E+01  0.4989206714272E-02 -0.5046427456059E+00
 0.3969482007848E+01 -0.2145523493330E+01  0.3647917083395E+00 -0.5410082805973E+00
 0.5968543415088E+01 -0.2009815470734E+01  0.7917456006687E+00 -0.5741498536986E-02
-0.5813818873960E+00 -0.2627874291771E+01 -0.6418512453977E+00 -0.3043121925901E+00
-0.4437966392165E+00 -0.2679248458375E+01 -0.6246090288258E+00 -0.2700872193759E+00
-0.3184848657995E+00 -0.2715509835286E+01 -0.6067989492591E+00 -0.2108709475334E+00
-0.2228630924404E+00 -0.2733100833846E+01 -0.5911927940668E+00 -0.1409426328925E+00
-0.1578290412538E+00 -0.2738388542949E+01 -0.5792435254720E+00 -0.7417584345691E-01
-0.1159820885077E+00 -0.2740033864225E+01 -0.5712031990581E+00 -0.1658834274211E-01
-0.8959502323774E-01 -0.2743979538143E+01 -0.5667149207209E+00  0.3157865964708E-01
-0.7323231970769E-01 -0.2753123023234E+01 -0.5652710770115E+00  0.7226644118993E-01
-0.6355408558230E-01 -0.2768556226755E+01 -0.5664220709078E+00  0.1077133714995E+00
-0.5859189901476E-01 -0.2790550688157E+01 -0.5698285259255E+00  0.1398936869429E+00
-0.5721649705093E-01 -0.2819066841439E+01 -0.5752566762700E+00  0.1704623168445E+00
-0.5883102337952E-01 -0.2853980056144E+01 -0.5825622245856E+00  0.2008261948752E+00
-0.6321250423044E-01 -0.2895161710992E+01 -0.5916748518611E+00  0.2322309425186E+00
-0.7044935542882E-01 -0.2942475264639E+01 -0.6025849329927E+00  0.2658326757377E+00
-0.8094538558626E-01 -0.2995702103375E+01 -0.6153295069614E+00  0.3027365529265E+00
-0.9546111152366E-01 -0.3054401770588E+01 -0.6299725858096E+00  0.3439749842120E+00
-0.1151189569114E+00 -0.3117719171132E+01 -0.6465676352433E+00  0.3903715273403E+00
-0.1412234878940E+00 -0.3184225290207E+01 -0.6650897655307E+00  0.4422714113170E+00
-0.1747666180956E+00 -0.3251936564157E+01 -0.6853406466629E+00  0.4992777770297E+00
-0.2157405027770E+00 -0.3318572546998E+01 -0.7068626204880E+00  0.5602508374753E+00
-0.2626893517057E+00 -0.3382117793078E+01 -0.7289614398191E+00  0.6236148687368E+00
-0.3131370525948E+00 -0.3441135747328E+01 -0.7508545711732E+00  0.6879193249128E+00
-0.3646583652071E+00 -0.3494336397831E+01 -0.7717989641084E+00  0.7522017949098E+00
-0.4155876604436E+00 -0.3540056272869E+01 -0.7911287984513E+00  0.8157012199660E+00
-0.4650392500982E+00 -0.3576140847133E+01 -0.8082360314900E+00  0.8773301157958E+00
-0.5124944068958E+00 -0.3600103514437E+01 -0.8225195965230E+00  0.9353268918504E+00
-0.5572823834654E+00 -0.3609326672796E+01 -0.8333218236697E+00  0.9871721069820E+00
-0.5981589439043E+00 -0.3601179162404E+01 -0.8398676337767E+00  0.1029679245020E+01
-0.6330555240546E+00 -0.3573020928556E+01 -0.8412153030571E+00  0.1059124854054E+01
-0.6589448855901E+00 -0.3522129959761E+01 -0.8362149815307E+00  0.1071264368464E+01
-0.6715630379876E+00 -0.3445474022636E+01 -0.8234074243944E+00  0.1061035661336E+01
-0.6644353769077E+00 -0.3339429548216E+01 -0.8007729969571E+00  0.1021805205379E+01
-0.6267573992503E+00 -0.3200515656387E+01 -0.7654546225337E+00  0.9446142966157E+00
-0.5399363157430E+00 -0.3027272021933E+01 -0.7134416781664E+00  0.8180747517130E+00
-0.3723072575147E+00 -0.2823091961216E+01 -0.6390798532691E+00  0.6294828826207E+00
-0.7198481642741E-01 -0.2600816515611E+01 -0.5345602743733E+00  0.3692546929536E+00
 0.4392624870461E+00 -0.2388152953879E+01 -0.3897780991748E+00  0.4291017036266E-01
 0.1260244340464E+01 -0.2227211132199E+01 -0.1933933612289E+00 -0.3049581730225E+00
 0.2471119112336E+01 -0.2152281604526E+01  0.6376750251217E-01 -0.5603839506830E+00
 0.4044826750025E+01 -0.2132696150735E+01  0.3824261255566E+00 -0.5368748679429E+00
 0.5748664823759E+01 -0.2011352063715E+01  0.7474625631469E+00 -0.5657136796605E-01
-0.5889753413253E+00 -0.2639037812645E+01 -0.6456026404142E+00 -0.2833154211985E+00
-0.4606572833807E+00 -0.2689010691021E+01 -0.6299336042671E+00 -0.2521314115007E+00
-0.3421757949912E+00 -0.2727319822424E+01 -0.6138991326309E+00 -0.1994161897177E+00
-0.2480953495270E+00 -0.2750077627964E+01 -0.5996346044335E+00 -0.1354463186013E+00
-0.1809594417833E+00 -0.2761082466411E+01 -0.5884083904069E+00 -0.7172582887631E-01
-0.1358652772238E+00 -0.2767052362090E+01 -0.5805835365142E+00 -0.1448073631086E-01
-0.1065051682367E+00 -0.2773422446160E+01 -0.5759855314622E+00  0.3495494233747E-01
-0.8789543065750E-01 -0.2783338676788E+01 -0.5742468300460E+00  0.7765950293455E-01
-0.7672197818289E-01 -0.2798273512793E+01 -0.5749991067633E+00  0.1154100256631E+00
-0.7092960596985E-01 -0.2818788818947E+01 -0.5779436935954E+00  0.1499767417293E+00
-0.6929896771565E-01 -0.2845018865567E+01 -0.5828635753418E+00  0.1829384612337E+00
-0.7116712484146E-01 -0.2876913974422E+01 -0.5896162286386E+00  0.2156816393007E+00
-0.7627159380634E-01 -0.2914339279933E+01 -0.5981221836605E+00  0.2494465286117E+00
-0.8468124425297E-01 -0.2957082336296E+01 -0.6083527251749E+00  0.2853707386995E+00
-0.9678416695870E-01 -0.3004789180696E+01 -0.6203146787743E+00  0.3245009585324E+00
-0.1132961367480E+00 -0.3056845940469E+01 -0.6340284248912E+00  0.3677449756771E+00
-0.1352152099252E+00 -0.3112234918967E+01 -0.6494900354566E+00  0.4157265387767E+00
-0.1636060369195E+00 -0.3169446782239E+01 -0.6666105737649E+00  0.4685542370016E+00
-0.1991505605674E+00 -0.3226547591484E+01 -0.6851396406196E+00  0.5256418071203E+00
-0.2416022337043E+00 -0.3281417395677E+01 -0.7046039363757E+00  0.5857633247657E+00
-0.2894562417641E+00 -0.3332241966089E+01 -0.7243396523641E+00  0.6473329476274E+00
-0.3403251297592E+00 -0.3377773922202E+01 -0.7436198214729E+00  0.7088638322624E+00
-0.3918284349853E+00 -0.3416910370487E+01 -0.7617477724454E+00  0.7692550856885E+00
-0.4421742235032E+00 -0.3448198133251E+01 -0.7780744829451E+00  0.8275469766616E+00
-0.4901796478425E+00 -0.3469707139095E+01 -0.7919773691889E+00  0.8824681848361E+00
-0.5349255781287E+00 -0.3479170446804E+01 -0.8028192169495E+00  0.9321193490897E+00
-0.5753017874419E+00 -0.3474185227690E+01 -0.8098974150948E+00  0.9738780817999E+00
-0.6096124487825E+00 -0.3452351508911E+01 -0.8123928036443E+00  0.1004458491318E+01
-0.6352965189406E+00 -0.3411321386479E+01 -0.8093235931438E+00  0.1020006014437E+01
-0.6486958050979E+00 -0.3348808005473E+01 -0.7995007740276E+00  0.1016103280652E+01
-0.6446287955281E+00 -0.3262504995762E+01 -0.7814267699022E+00  0.9875450989980E+00
-0.6152996498370E+00 -0.3150025802735E+01 -0.7530651017359E+00  0.9278001245430E+00
-0.5482423410883E+00 -0.3009816794295E+01 -0.7116118376805E+00  0.8286534215430E+00
-0.4232660468122E+00 -0.2843117455362E+01 -0.6532767101695E+00  0.6807278631682E+00
-0.2083215363188E+00 -0.2656599134418E+01 -0.5729841426855E+00  0.4755457799880E+00
 0.1448253454838E+00 -0.2465756289424E+01 -0.4641861957050E+00  0.2109693063497E+00
 0.7014002724862E+00 -0.2297086913654E+01 -0.3191373329890E+00 -0.9742148680579E-01
 0.1532078495638E+01 -0.2182972947488E+01 -0.1301788923099E+00 -0.3984783056441E+00
 0.2676932622046E+01 -0.2139784923313E+01  0.1074295413474E+00 -0.5898230687199E+00
 0.4083911344466E+01 -0.2127678468098E+01  0.3912465811036E+00 -0.5290163169975E+00
 0.5558527808433E+01 -0.2020301938518E+01  0.7076451845278E+00 -0.9963131658360E-01
-0.5963287239246E+00 -0.2652469239437E+01 -0.6497596023545E+00 -0.2633142632094E+00
-0.4757846896267E+00 -0.2700923104885E+01 -0.6353415683698E+00 -0.2344083231351E+00
-0.3634954556263E+00 -0.2740208500144E+01 -0.6207408004039E+00 -0.1868197787992E+00
-0.2715622595672E+00 -0.2766532702702E+01 -0.6076190015081E+00 -0.1280368650863E+00
-0.2033417794720E+00 -0.2781982234968E+01 -0.5970648117850E+00 -0.6748754856545E-01
-0.1557903205317E+00 -0.2791641022568E+01 -0.5894862774040E+00 -0.1116687389601E-01
-0.1239035546192E+00 -0.2800261878693E+01 -0.5848330953772E+00  0.3890567484293E-01
-0.1032581309450E+00 -0.2810990974452E+01 -0.5828498297646E+00  0.8309903687534E-01
-0.9067859087953E-01 -0.2825528876378E+01 -0.5832415021426E+00  0.1227362828112E+00
-0.8408992163191E-01 -0.2844657892088E+01 -0.5857495714723E+00  0.1593501482473E+00
-0.8221577195905E-01 -0.2868658661631E+01 -0.5901748955123E+00  0.1944074936121E+00
-0.8434052244179E-01 -0.2897549387497E+01 -0.5963779908745E+00  0.2292431628780E+00
-0.9016292551519E-01 -0.2931193594520E+01 -0.6042713130114E+00  0.2650650193925E+00
-0.9972249945845E-01 -0.2969318034965E+01 -0.6138081160312E+00  0.3029681629421E+00
-0.1133712012959E+00 -0.3011462613930E+01 -0.6249667723580E+00  0.3439217091695E+00
-0.1317517908346E+00 -0.3056887818055E+01 -0.6377279312808E+00  0.3887022950258E+00
-0.1557142268047E+00 -0.3104476220462E+01 -0.6520380991694E+00  0.4377511206728E+00
-0.1860842437792E+00 -0.3152697819817E+01 -0.6677564226695E+00  0.4909829869613E+00
-0.2232651493684E+00 -0.3199701536044E+01 -0.6845933472838E+00  0.5476708938340E+00
-0.2668044113412E+00 -0.3243527870229E+01 -0.7020664667757E+00  0.6065317467969E+00
-0.3151464146414E+00 -0.3282540912101E+01 -0.7195374760705E+00  0.6659773359009E+00
-0.3659591596221E+00 -0.3315651001861E+01 -0.7363220432687E+00  0.7244916736961E+00
-0.4168775861437E+00 -0.3341913396096E+01 -0.7517582076501E+00  0.7808534150790E+00
-0.4659800346508E+00 -0.3360068685540E+01 -0.7652097554407E+00  0.8339234869672E+00
-0.5118028843129E+00 -0.3368417442538E+01 -0.7760440769342E+00  0.8822596860469E+00
-0.5530473980635E+00 -0.3364944007962E+01 -0.7835982928816E+00  0.9238364406812E+00
-0.5881790814991E+00 -0.3347512076454E+01 -0.7871382433200E+00  0.9559483548403E+00
-0.6150563540647E+00 -0.3314020110424E+01 -0.7858153046074E+00  0.9752485740256E+00
-0.6306270404883E+00 -0.3262494761930E+01 -0.7786243720861E+00  0.9778244174805E+00
-0.6306248513247E+00 -0.3191177057446E+01 -0.7643603931440E+00  0.9592182838428E+00
-0.6090523506021E+00 -0.3098566567112E+01 -0.7415237945924E+00  0.9142981454200E+00
-0.5570591043589E+00 -0.2983528324395E+01 -0.7081174963026E+00  0.8369452972033E+00
-0.4610638277715E+00 -0.2846286729332E+01 -0.6614701212774E+00  0.7200747348077E+00
-0.3002605046664E+00 -0.2690282825816E+01 -0.5981086750089E+00  0.5566802878408E+00
-0.4375989339352E-01 -0.2524332157167E+01 -0.5136184177656E+00  0.3425009501244E+00
 0.3512550454810E+00 -0.2364649860277E+01 -0.4026789689595E+00  0.8165306253252E-01
 0.9367800779654E+00 -0.2234512381467E+01 -0.2595464645678E+00 -0.2036788521403E+00
 0.1760419070814E+01 -0.2156940429667E+01 -0.7930427295226E-01 -0.4611488814603E+00
 0.2835388049910E+01 -0.2135756794908E+01  0.1399262530856E+00 -0.6023185777445E+00
 0.4099605813966E+01 -0.2128717593411E+01  0.3941776499848E+00 -0.5193189148467E+00
 0.5392546355217E+01 -0.2034614548344E+01  0.6715863713820E+00 -0.1357573541253E+00
-0.6034934049197E+00 -0.2667514590218E+01 -0.6542016087760E+00 -0.2442036264646E+00
-0.4895788532612E+00 -0.2714425423546E+01 -0.6408008649100E+00 -0.2170576643540E+00
-0.3828719486545E+00 -0.2753993330184E+01 -0.6273730651164E+00 -0.1735614111823E+00
-0.2934136697069E+00 -0.2782708829089E+01 -0.6152245089268E+00 -0.1192536720788E+00
-0.2248720313914E+00 -0.2801535024740E+01 -0.6052814202456E+00 -0.6182349421835E-01
-0.1755531330012E+00 -0.2814238969935E+01 -0.5979584294975E+00 -0.6809976046285E-02
-0.1415872205018E+00 -0.2824848369044E+01 -0.5932871267499E+00  0.4338940114188E-01
-0.1191492328328E+00 -0.2836345878766E+01 -0.5910990311278E+00  0.8859536326740E-01
-0.1052822189680E+00 -0.2850530685564E+01 -0.5911625897153E+00  0.1297155426363E+00
-0.9795002060121E-01 -0.2868334586668E+01 -0.5932569302940E+00  0.1680326028218E+00
-0.9585191112509E-01 -0.2890152473953E+01 -0.5972008859145E+00  0.2048763594280E+00
-0.9823394593806E-01 -0.2916060046994E+01 -0.6028588075696E+00  0.2415047368051E+00
-0.1047577760839E+00 -0.2945922454528E+01 -0.6101360552142E+00  0.2790703749520E+00
-0.1154249819949E+00 -0.2979420586347E+01 -0.6189691228918E+00  0.3186065447438E+00
-0.1305341032159E+00 -0.3016016384644E+01 -0.6293101069494E+00  0.3609920558001E+00
-0.1506335897752E+00 -0.3054886818635E+01 -0.6411040912352E+00  0.4068727868867E+00
-0.1764114668891E+00 -0.3094864560556E+01 -0.6542552152381E+00  0.4565274743112E+00
-0.2084619429214E+00 -0.3134441212418E+01 -0.6685806410306E+00  0.5097139962444E+00
-0.2469376858548E+00 -0.3171868843324E+01 -0.6837613160247E+00  0.5656011237290E+00
-0.2912044227795E+00 -0.3205346068634E+01 -0.6993101087032E+00  0.6228681777831E+00
-0.3396512143487E+00 -0.3233400046476E+01 -0.7146102628134E+00  0.6799292114484E+00
-0.3899726837353E+00 -0.3255080623976E+01 -0.7290106724054E+00  0.7352455606775E+00
-0.4397935624449E+00 -0.3269585721306E+01 -0.7418758678050E+00  0.7874938809227E+00
-0.4870586864984E+00 -0.3275841168446E+01 -0.7525799822033E+00  0.8353791977835E+00
-0.5300389789936E+00 -0.3272383050566E+01 -0.7604844172439E+00  0.8773088712987E+00
-0.5670786569316E+00 -0.3257468940161E+01 -0.7649095308165E+00  0.9111501065378E+00
-0.5962398894315E+00 -0.3229266653419E+01 -0.7651013199710E+00  0.9341398831446E+00
-0.6149526591348E+00 -0.3186023104981E+01 -0.7601951641509E+00  0.9429130680986E+00
-0.6196963266423E+00 -0.3126197385919E+01 -0.7491787536759E+00  0.9335741950754E+00
-0.6056525537124E+00 -0.3048611747430E+01 -0.7308528711191E+00  0.9017515532298E+00
-0.5661496007150E+00 -0.2952590519308E+01 -0.7037480344912E+00  0.8425745645493E+00
-0.4915829750183E+00 -0.2838177141937E+01 -0.6659520333145E+00  0.7505791742271E+00
-0.3678000114736E+00 -0.2707117241196E+01 -0.6149834596980E+00  0.6200553457570E+00
-0.1742402869090E+00 -0.2564476553217E+01 -0.5477433761873E+00  0.4464701185687E+00
 0.1177063896085E+00 -0.2420183771062E+01 -0.4604954831526E+00  0.2293987624879E+00
 0.5446092771774E+00 -0.2289806748459E+01 -0.3490394994573E+00 -0.2222476553952E-01
 0.1146205663881E+01 -0.2192535008528E+01 -0.2092658720477E+00 -0.2825010963203E+00
 0.1952037226371E+01 -0.2143321654872E+01 -0.3825688627032E-01 -0.5011836701128E+00
 0.2957979009611E+01 -0.2137690465915E+01  0.1640577111840E+00 -0.6036741491463E+00
 0.4100118374111E+01 -0.2134605096946E+01  0.3931026612907E+00 -0.5085433969395E+00
 0.5246480144819E+01 -0.2052924165620E+01  0.6387112053574E+00 -0.1656961244887E+00
-0.6104996435742E+00 -0.2683705781264E+01 -0.6588410947851E+00 -0.2258981413482E+00
-0.5023258779310E+00 -0.2729095823599E+01 -0.6462843499364E+00 -0.2001526189455E+00
-0.4006474795230E+00 -0.2768493535475E+01 -0.6338282124444E+00 -0.1599679736235E+00
-0.3138129531405E+00 -0.2798737595879E+01 -0.6225101190800E+00 -0.1095127033793E+00
-0.2455105749535E+00 -0.2820064620806E+01 -0.6131150482881E+00 -0.5505547112431E-01
-0.1950067060393E+00 -0.2835207145988E+01 -0.6060427794362E+00 -0.1586514720570E-02
-0.1593856040363E+00 -0.2847498060369E+01 -0.6013767418423E+00  0.4833723721614E-01
-0.1354112851833E+00 -0.2859659924322E+01 -0.5990142508270E+00  0.9413583210610E-01
-0.1203948225208E+00 -0.2873489477023E+01 -0.5987768688312E+00  0.1363566110538E+00
-0.1123860134575E+00 -0.2890002665011E+01 -0.6004777446415E+00  0.1760360383008E+00
-0.1100895457530E+00 -0.2909675258147E+01 -0.6039529697796E+00  0.2143520637059E+00
-0.1127274080408E+00 -0.2932628121258E+01 -0.6090711149356E+00  0.2524666290570E+00
-0.1199265611297E+00 -0.2958730004405E+01 -0.6157313222821E+00  0.2914589862795E+00
-0.1316437079132E+00 -0.2987629878415E+01 -0.6238547265619E+00  0.3322859948100E+00
-0.1481102747096E+00 -0.3018737419240E+01 -0.6333695482278E+00  0.3757287816749E+00
-0.1697654262249E+00 -0.3051181819475E+01 -0.6441894587392E+00  0.4223074157606E+00
-0.1971287408981E+00 -0.3083784545286E+01 -0.6561826670147E+00  0.4721586287914E+00
-0.2305736699350E+00 -0.3115088555446E+01 -0.6691324550470E+00  0.5249142970539E+00
-0.2700264535437E+00 -0.3143461404556E+01 -0.6826975817930E+00  0.5796665154125E+00
-0.3146889999319E+00 -0.3167256980227E+01 -0.6963892064089E+00  0.6350708813700E+00
-0.3628893723740E+00 -0.3185155667185E+01 -0.7096090184857E+00  0.6895472668278E+00
-0.4123244843191E+00 -0.3196336880914E+01 -0.7217322838012E+00  0.7415409345947E+00
-0.4605874869343E+00 -0.3200133840884E+01 -0.7321442764735E+00  0.7896449657632E+00
-0.5054867645047E+00 -0.3195653850520E+01 -0.7402281340352E+00  0.8324337320731E+00
-0.5450426363717E+00 -0.3181672112597E+01 -0.7453429609002E+00  0.8681888682278E+00
-0.5772661931328E+00 -0.3156733895091E+01 -0.7468000287729E+00  0.8946942536849E+00
-0.5998422685039E+00 -0.3119336541471E+01 -0.7438357730789E+00  0.9091584993369E+00
-0.6098003766380E+00 -0.3068108622502E+01 -0.7355818107890E+00  0.9082428386304E+00
-0.6031923927351E+00 -0.3001975140449E+01 -0.7210335173811E+00  0.8881417184681E+00
-0.5747290079104E+00 -0.2920356751199E+01 -0.6990171622380E+00  0.8446812443009E+00
-0.5172299811689E+00 -0.2823371194614E+01 -0.6681202451124E+00  0.7734038679047E+00
-0.4206439184986E+00 -0.2712105854767E+01 -0.6265499639895E+00  0.6696679081465E+00
-0.2707447665241E+00 -0.2589516388769E+01 -0.5720522395828E+00  0.5292517510770E+00
-0.4790631983308E-01 -0.2461726003711E+01 -0.5019264721881E+00  0.3499989132615E+00
 0.2734947325535E+00 -0.2338941070279E+01 -0.4130892737007E+00  0.1347340692101E+00
 0.7236308569234E+00 -0.2235233006317E+01 -0.3023204343836E+00 -0.1042000048418E+00
 0.1331522602378E+01 -0.2165578021370E+01 -0.1668110862841E+00 -0.3393901415608E+00
 0.2113034158920E+01 -0.2138419677192E+01 -0.5077103729968E-02 -0.5245018888472E+00
 0.3053292626318E+01 -0.2144084728621E+01  0.1818415822491E+00 -0.5975312902526E+00
 0.4090805454626E+01 -0.2144455161093E+01  0.3892700645072E+00 -0.4969734617159E+00
 0.5117067195768E+01 -0.2074270630450E+01  0.6085593221318E+00 -0.1901136543447E+00
-0.6173656459830E+00 -0.2700703053572E+01 -0.6636137497997E+00 -0.2083279512956E+00
-0.5142331613384E+00 -0.2744616414918E+01 -0.6517699249635E+00 -0.1837283803570E+00
-0.4170931656554E+00 -0.2783547485851E+01 -0.6401281398400E+00 -0.1462634127753E+00
-0.3329181793951E+00 -0.2814685743429E+01 -0.6295207939455E+00 -0.9913210483155E-01
-0.2652575823896E+00 -0.2837805661158E+01 -0.6206126579574E+00 -0.4745934891591E-01
-0.2140483083033E+00 -0.2854839607147E+01 -0.6137775922361E+00  0.4329254103957E-02
-0.1771580247110E+00 -0.2868491436570E+01 -0.6091299013329E+00  0.5366473225919E-01
-0.1519021938198E+00 -0.2881175777866E+01 -0.6066156033764E+00  0.9969127728434E-01
-0.1358844879974E+00 -0.2894613629333E+01 -0.6060996324977E+00  0.1426568266564E+00
-0.1272753485745E+00 -0.2909849220647E+01 -0.6074249228956E+00  0.1833670138861E+00
-0.1248102555516E+00 -0.2927407306599E+01 -0.6104435215265E+00  0.2228420773945E+00
-0.1277004244909E+00 -0.2947440877659E+01 -0.6150282695945E+00  0.2621350756800E+00
-0.1355410754589E+00 -0.2969823204793E+01 -0.6210728653051E+00  0.3022384822013E+00
-0.1482389061113E+00 -0.2994183749207E+01 -0.6284845404288E+00  0.3440226481103E+00
-0.1659481208844E+00 -0.3019902386025E+01 -0.6371701108765E+00  0.3881679606347E+00
-0.1889889999577E+00 -0.3046089968234E+01 -0.6470158032796E+00  0.4350764372883E+00
-0.2177113974414E+00 -0.3071586308449E+01 -0.6578595509810E+00  0.4847623264153E+00
-0.2522802849315E+00 -0.3095006513634E+01 -0.6694573696889E+00  0.5367571378545E+00
-0.2924160918741E+00 -0.3114841026736E+01 -0.6814514338764E+00  0.5900973852637E+00
-0.3371702712194E+00 -0.3129596340442E+01 -0.6933533326640E+00  0.6434253863724E+00
-0.3848041156311E+00 -0.3138099878901E+01 -0.7045808094055E+00  0.6951703289070E+00
-0.4329968162702E+00 -0.3139655720494E+01 -0.7145305180001E+00  0.7437684340009E+00
-0.4792928034165E+00 -0.3133729697246E+01 -0.7226045109002E+00  0.7877472990742E+00
-0.5213625489503E+00 -0.3119609351087E+01 -0.7281943908584E+00  0.8255762918026E+00
-0.5569906691680E+00 -0.3096311124526E+01 -0.7306603696265E+00  0.8554381130052E+00
-0.5838802687795E+00 -0.3062676213384E+01 -0.7293113073003E+00  0.8750600391544E+00
-0.5993692470973E+00 -0.3017546148466E+01 -0.7233830898918E+00  0.8816535802334E+00
-0.6001236980381E+00 -0.2959948662623E+01 -0.7120144827420E+00  0.8719503778457E+00
-0.5818232533844E+00 -0.2889285729628E+01 -0.6942218069471E+00  0.8423007553952E+00
-0.5388052141587E+00 -0.2805562975626E+01 -0.6688736479239E+00  0.7888213119479E+00
-0.4635562525404E+00 -0.2709622776268E+01 -0.6346358152186E+00  0.7075786819975E+00
-0.3458698390113E+00 -0.2603425798610E+01 -0.5898591363138E+00  0.5948496370196E+00
-0.1718710124581E+00 -0.2490814746365E+01 -0.5325371597000E+00  0.4479043014970E+00
 0.7662913077003E-01 -0.2378467565161E+01 -0.4603676937382E+00  0.2667315179748E+00
 0.4219065188796E+00 -0.2276252387989E+01 -0.3708691793483E+00  0.5674083628394E-01
 0.8880321385890E+00 -0.2196304757988E+01 -0.2616545277788E+00 -0.1675526779248E+00
 0.1495025541540E+01 -0.2149682933755E+01 -0.1309314803939E+00 -0.3787810286112E+00
 0.2248666629922E+01 -0.2139818153031E+01  0.2176969570276E-01 -0.5353496757754E+00
 0.3127772040171E+01 -0.2153992031737E+01  0.1947560045890E+00 -0.5861993985663E+00
 0.4075239510909E+01 -0.2157608139491E+01  0.3835262799985E+00 -0.4847050033822E+00
 0.5001737432631E+01 -0.2097955833386E+01  0.5807563285029E+00 -0.2096076696680E+00
-0.6241027091154E+00 -0.2718257469275E+01 -0.6684720456390E+00 -0.1914352189182E+00
-0.5254529509439E+00 -0.2760747638110E+01 -0.6572401276044E+00 -0.1677981765075E+00
-0.4324228961224E+00 -0.2799018551480E+01 -0.6462882991510E+00 -0.1326016841328E+00
-0.3508731531717E+00 -0.2830583777789E+01 -0.6362913956736E+00 -0.8835407783058E-01
-0.2841360867335E+00 -0.2854929762266E+01 -0.6278131791551E+00 -0.3926630306328E-01
-0.2326081829515E+00 -0.2873375631753E+01 -0.6211967721975E+00  0.1077438094599E-01
-0.1947898049839E+00 -0.2888075014144E+01 -0.6165729730133E+00  0.5928095013935E-01
-0.1684954252206E+00 -0.2901119815660E+01 -0.6139230573243E+00  0.1052218356060E+00
-0.1516270281572E+00 -0.2914106095242E+01 -0.6131466338165E+00  0.1486051753812E+00
-0.1424987115516E+00 -0.2928061499114E+01 -0.6141120512842E+00  0.1900281718806E+00
-0.1398969522690E+00 -0.2943531239210E+01 -0.6166856474850E+00  0.2303547544930E+00
-0.1430338993120E+00 -0.2960687710540E+01 -0.6207443312202E+00  0.2705218785347E+00
-0.1514762899483E+00 -0.2979408804427E+01 -0.6261770282059E+00  0.3114264275979E+00
-0.1650774623661E+00 -0.2999315079245E+01 -0.6328785177529E+00  0.3538461990878E+00
-0.1839075934496E+00 -0.3019775576273E+01 -0.6407366434923E+00  0.3983611622058E+00
-0.2081628562936E+00 -0.3039906452054E+01 -0.6496138713496E+00  0.4452646352675E+00
-0.2380257321380E+00 -0.3058588081244E+01 -0.6593227725011E+00  0.4944663666629E+00
-0.2734653914512E+00 -0.3074522084276E+01 -0.6695975051233E+00  0.5454187093297E+00
-0.3140139375247E+00 -0.3086326067999E+01 -0.6800680112385E+00  0.5971191006438E+00
-0.3585825530864E+00 -0.3092656780871E+01 -0.6902478770769E+00  0.6482050352346E+00
-0.4053605445769E+00 -0.3092484825488E+01 -0.6995690844373E+00  0.6971188989485E+00
-0.4519933571038E+00 -0.3085236933063E+01 -0.7074460685752E+00  0.7422953525219E+00
-0.4959635389870E+00 -0.3070511309904E+01 -0.7132949804071E+00  0.7822140383382E+00
-0.5348039839541E+00 -0.3047775505719E+01 -0.7165159086115E+00  0.8152644909627E+00
-0.5660789158532E+00 -0.3016287566331E+01 -0.7164733071131E+00  0.8395578275674E+00
-0.5872097101937E+00 -0.2975187408577E+01 -0.7124794343709E+00  0.8527925428505E+00
-0.5952213306720E+00 -0.2923665930837E+01 -0.7037774627889E+00  0.8522144898458E+00
-0.5864605429380E+00 -0.2861153518102E+01 -0.6895228224826E+00  0.8346668079636E+00
-0.5562998001344E+00 -0.2787520943731E+01 -0.6687641587385E+00  0.7967119407508E+00
-0.4988090309079E+00 -0.2703321423611E+01 -0.6404261004468E+00  0.7348278187690E+00
-0.4063145993143E+00 -0.2610028437239E+01 -0.6032686163000E+00  0.6456763396794E+00
-0.2687155677642E+00 -0.2510290473501E+01 -0.5558012165352E+00  0.5264856093051E+00
-0.7282611198845E-01 -0.2408532637723E+01 -0.4962717573373E+00  0.3759372893529E+00
 0.1977763261557E+00 -0.2311575796803E+01 -0.4227599004290E+00  0.1958581736085E+00
 0.5619261798845E+00 -0.2228537148356E+01 -0.3333221986611E+00 -0.6412077110778E-02
 0.1038143153206E+01 -0.2169468461468E+01 -0.2262650650242E+00 -0.2151941296207E+00
 0.1639109472449E+01 -0.2142008229941E+01 -0.1005797529972E+00 -0.4041927587046E+00
 0.2363353474428E+01 -0.2145883212689E+01  0.4349405299581E-01 -0.5367663639931E+00
 0.3186294328263E+01 -0.2166781589336E+01  0.2039025508238E+00 -0.5711439121353E+00
 0.4055860955759E+01 -0.2173589716641E+01  0.3764542534331E+00 -0.4717706379429E+00
 0.4898400063785E+01 -0.2123474083694E+01  0.5549852042880E+00 -0.2247337819272E+00
-0.6307181860253E+00 -0.2736185759226E+01 -0.6733807990845E+00 -0.1751713452855E+00
-0.5360983149067E+00 -0.2777309361292E+01 -0.6626815451145E+00 -0.1523624042970E+00
-0.4468051315722E+00 -0.2814795534978E+01 -0.6523201430303E+00 -0.1190886244810E+00
-0.3678039849057E+00 -0.2846443386941E+01 -0.6428494839485E+00 -0.7736243161829E-01
-0.3021807429036E+00 -0.2871564712903E+01 -0.6347491006197E+00 -0.3066700756223E-01
-0.2506403027333E+00 -0.2891010885516E+01 -0.6283302470126E+00  0.1760193516578E-01
-0.2121880064238E+00 -0.2906464604080E+01 -0.6237305313950E+00  0.6509497926307E-01
-0.1850792796688E+00 -0.2919701245265E+01 -0.6209561142397E+00  0.1106818397498E+00
-0.1675068643914E+00 -0.2932162110657E+01 -0.6199338042475E+00  0.1541851866018E+00
-0.1579414526610E+00 -0.2944824311290E+01 -0.6205531620372E+00  0.1960196661877E+00
-0.1552354443208E+00 -0.2958229411946E+01 -0.6226929805322E+00  0.2368997368642E+00
-0.1586116752017E+00 -0.2972557570030E+01 -0.6262338583779E+00  0.2776439697425E+00
-0.1676117447106E+00 -0.2987690828866E+01 -0.6310605241190E+00  0.3190490155154E+00
-0.1820338765016E+00 -0.3003249593330E+01 -0.6370567034592E+00  0.3617975963162E+00
-0.2018602839581E+00 -0.3018607600897E+01 -0.6440935865687E+00  0.4063721646435E+00
-0.2271612514300E+00 -0.3032904860489E+01 -0.6520132320996E+00  0.4529674770038E+00
-0.2579566740572E+00 -0.3045078712618E+01 -0.6606070871789E+00  0.5014050475854E+00
-0.2940323859212E+00 -0.3053927012542E+01 -0.6695918896704E+00  0.5510757082463E+00
-0.3347470585632E+00 -0.3058196744836E+01 -0.6785887707916E+00  0.6009510928798E+00
-0.3788796539461E+00 -0.3056692788846E+01 -0.6871144987972E+00  0.6496712068179E+00
-0.4245432179349E+00 -0.3048526408930E+01 -0.6946139357235E+00  0.6956960337474E+00
-0.4693370189019E+00 -0.3033246460491E+01 -0.7005167063171E+00  0.7374664973734E+00
-0.5106721739654E+00 -0.3010584292234E+01 -0.7042513037339E+00  0.7734310714170E+00
-0.5459462072108E+00 -0.2980187211899E+01 -0.7052266943307E+00  0.8019235774424E+00
-0.5725188645340E+00 -0.2941553253158E+01 -0.7028144340112E+00  0.8210103716036E+00
-0.5875569837817E+00 -0.2894119011205E+01 -0.6963352093735E+00  0.8283886803036E+00
-0.5878092481984E+00 -0.2837421697565E+01 -0.6850461993607E+00  0.8213686986481E+00
-0.5693519809631E+00 -0.2771285894567E+01 -0.6681275850618E+00  0.7969413193510E+00
-0.5273209843563E+00 -0.2696027555365E+01 -0.6446697175506E+00  0.7519258045467E+00
-0.4556262275887E+00 -0.2612693032522E+01 -0.6136638611663E+00  0.6832098997972E+00
-0.3465945235419E+00 -0.2523280015114E+01 -0.5739749162841E+00  0.5880850976922E+00
-0.1904508816960E+00 -0.2430941113330E+01 -0.5242784068175E+00  0.4647121577385E+00
 0.2505119418372E-01 -0.2340415871932E+01 -0.4630729424499E+00  0.3130472442767E+00
 0.3143877103800E+00 -0.2258353286644E+01 -0.3887931210462E+00  0.1364175219317E+00
 0.6930454813160E+00 -0.2192875027148E+01 -0.2999659136363E+00 -0.5650059846643E-01
 0.1174661171921E+01 -0.2151991226236E+01 -0.1954660137756E+00 -0.2496400093201E+00
 0.1766076478664E+01 -0.2140480649286E+01 -0.7488083524027E-01 -0.4183970549798E+00
 0.2460751411804E+01 -0.2155450401731E+01  0.6106020292447E-01 -0.5309262718794E+00
 0.3232591798594E+01 -0.2181994616928E+01  0.2101194394643E+00 -0.5532661979654E+00
 0.4034400564339E+01 -0.2192097163077E+01  0.3684606857428E+00 -0.4581766830116E+00
 0.4805283785658E+01 -0.2150494992891E+01  0.5309577664653E+00 -0.2360524953203E+00
-0.6372172134628E+00 -0.2754353009976E+01 -0.6783140547955E+00 -0.1594947922644E+00
-0.5462541140335E+00 -0.2794166887377E+01 -0.6680842102372E+00 -0.1374138892503E+00
-0.4603725047563E+00 -0.2830790725500E+01 -0.6582326558596E+00 -0.1057965780748E+00
-0.3838186372566E+00 -0.2862267846889E+01 -0.6492173065032E+00 -0.6629622417636E-01
-0.3194306234861E+00 -0.2887808235453E+01 -0.6414477813461E+00 -0.2181684257811E-01
-0.2681151665923E+00 -0.2907906946905E+01 -0.6352044321647E+00  0.2468288679072E-01
-0.2292773415716E+00 -0.2923849179331E+01 -0.6306253135775E+00  0.7102031284119E-01
-0.2015556300262E+00 -0.2937112283324E+01 -0.6277335920241E+00  0.1160237023070E+00
-0.1834173504613E+00 -0.2948967721412E+01 -0.6264770237098E+00  0.1593774708138E+00
-0.1734945870482E+00 -0.2960318002039E+01 -0.6267625271570E+00  0.2013404802151E+00
-0.1707156604887E+00 -0.2971681744286E+01 -0.6284794903200E+00  0.2424883186830E+00
-0.1743217564051E+00 -0.2983236794010E+01 -0.6315117194932E+00  0.2835229620654E+00
-0.1838325786031E+00 -0.2994868550269E+01 -0.6357402352477E+00  0.3251398099403E+00
-0.1989908320006E+00 -0.3006204250093E+01 -0.6410390259709E+00  0.3679269534451E+00
-0.2196892118541E+00 -0.3016634679545E+01 -0.6472647879249E+00  0.4122741546911E+00
-0.2458729557850E+00 -0.3025337899715E+01 -0.6542421808490E+00  0.4582880165656E+00
-0.2774057310909E+00 -0.3031320047562E+01 -0.6617451655915E+00  0.5057164153666E+00
-0.3139019789209E+00 -0.3033481533302E+01 -0.6694767124206E+00  0.5539034777094E+00
-0.3545597670625E+00 -0.3030699491312E+01 -0.6770518617637E+00  0.6018060405006E+00
-0.3980325175985E+00 -0.3021924854668E+01 -0.6839914846456E+00  0.6480733329445E+00
-0.4423538771887E+00 -0.3006407667541E+01 -0.6897523192241E+00  0.6911878219431E+00
-0.4850676863003E+00 -0.2983818931701E+01 -0.6937773339383E+00  0.7296046985799E+00
-0.5235072788331E+00 -0.2954023990541E+01 -0.6955062642388E+00  0.7617571641423E+00
-0.5549388183633E+00 -0.2916848982157E+01 -0.6943575704508E+00  0.7859460133774E+00
-0.5765341293644E+00 -0.2872028218856E+01 -0.6897124799216E+00  0.8002183510808E+00
-0.5852333498712E+00 -0.2819288654512E+01 -0.6809044110228E+00  0.8022962311474E+00
-0.5775471592479E+00 -0.2758503802809E+01 -0.6672102023536E+00  0.7895814429407E+00
-0.5493328623267E+00 -0.2689874319331E+01 -0.6478414459852E+00  0.7592427406787E+00
-0.4955616490867E+00 -0.2614126209234E+01 -0.6219375809316E+00  0.7083885966949E+00
-0.4100866349986E+00 -0.2532733870620E+01 -0.5885641098940E+00  0.6343437926589E+00
-0.2853773898078E+00 -0.2448108378928E+01 -0.5466971618937E+00  0.5350321906360E+00
-0.1121609545110E+00 -0.2363736075030E+01 -0.4951794132869E+00  0.4094896088493E+00
 0.1207010965232E+00 -0.2284448402859E+01 -0.4327494677155E+00  0.2587763911208E+00
 0.4256766024395E+00 -0.2216498243860E+01 -0.3581643336212E+00  0.8738510302630E-01
 0.8151194892262E+00 -0.2166895696335E+01 -0.2703552454504E+00 -0.9517858626231E-01
 0.1298479952890E+01 -0.2141762296230E+01 -0.1686564711813E+00 -0.2730276316187E+00
 0.1878040131418E+01 -0.2143562412943E+01 -0.5310445709621E-01 -0.4235761364849E+00
 0.2543846617381E+01 -0.2167626009081E+01  0.7524412278133E-01 -0.5193978812359E+00
 0.3269539709799E+01 -0.2199216556805E+01  0.2140646337886E+00 -0.5330623345064E+00
 0.4012185538324E+01 -0.2212982683744E+01  0.3598405762780E+00 -0.4438629784295E+00
 0.4720809656290E+01 -0.2178902453121E+01  0.5083814482092E+00 -0.2442135253888E+00
-0.6436037226849E+00 -0.2772660454027E+01 -0.6832528455237E+00 -0.1443693787967E+00
-0.5559846412229E+00 -0.2811220550420E+01 -0.6734410483636E+00 -0.1229409239059E+00
-0.4732294488283E+00 -0.2846937067513E+01 -0.6640333131631E+00 -0.9277426975493E-01
-0.3990079764452E+00 -0.2878058068178E+01 -0.6554132186910E+00 -0.5526017961343E-01
-0.3359247857955E+00 -0.2903737684537E+01 -0.6479325037215E+00 -0.1284112342289E-01
-0.2850143812804E+00 -0.2924199060862E+01 -0.6418426979926E+00  0.3190625938345E-01
-0.2459965435233E+00 -0.2940394760789E+01 -0.6372782703587E+00  0.7697758542200E-01
-0.2178384195040E+00 -0.2953528984439E+01 -0.6342734902399E+00  0.1212008437489E+00
-0.1992606936407E+00 -0.2964698955391E+01 -0.6327919392356E+00  0.1641618320522E+00
-0.1890554296486E+00 -0.2974716918501E+01 -0.6327544790588E+00  0.2059895800358E+00
-0.1862325578705E+00 -0.2984063951168E+01 -0.6340593112559E+00  0.2471337529498E+00
-0.1900572282905E+00 -0.2992907329966E+01 -0.6365929211374E+00  0.2881847021206E+00
-0.2000302445624E+00 -0.3001134891601E+01 -0.6402330367730E+00  0.3297385776188E+00
-0.2158394658418E+00 -0.3008386110153E+01 -0.6448451248080E+00  0.3722917016946E+00
-0.2372884130734E+00 -0.3014078355814E+01 -0.6502733634673E+00  0.4161473725098E+00
-0.2642000603812E+00 -0.3017438304918E+01 -0.6563276828400E+00  0.4613344047679E+00
-0.2962891649471E+00 -0.3017549130779E+01 -0.6627676690211E+00  0.5075401205358E+00
-0.3330100732874E+00 -0.3013417581811E+01 -0.6692855409928E+00  0.5540745623738E+00
-0.3734114719661E+00 -0.3004050629421E+01 -0.6754924303430E+00  0.5998891839590E+00
-0.4160271044803E+00 -0.2988543046378E+01 -0.6809140403180E+00  0.6436488041464E+00
-0.4588092813312E+00 -0.2966281908906E+01 -0.6850182482551E+00  0.6838636333677E+00
-0.4992399365282E+00 -0.2937060336552E+01 -0.6872600648569E+00  0.7190111423843E+00
-0.5345710404823E+00 -0.2900878031795E+01 -0.6870898246939E+00  0.7475241438322E+00
-0.5619430306098E+00 -0.2857737965273E+01 -0.6839362093680E+00  0.7676913977016E+00
-0.5783569169711E+00 -0.2807604929151E+01 -0.6771923793155E+00  0.7775643917891E+00
-0.5805542384270E+00 -0.2750486216761E+01 -0.6662081009649E+00  0.7749138520985E+00
-0.5648465053508E+00 -0.2686575981119E+01 -0.6502845069839E+00  0.7572567249884E+00
-0.5269238642374E+00 -0.2616425471282E+01 -0.6286698764717E+00  0.7219628462195E+00
-0.4616630974546E+00 -0.2541127874135E+01 -0.6005582032669E+00  0.6664501118593E+00
-0.3629550121416E+00 -0.2462515496089E+01 -0.5650941100667E+00  0.5884885105779E+00
-0.2235320792516E+00 -0.2383305255763E+01 -0.5213674747719E+00  0.4866115804840E+00
-0.3475547565045E-01 -0.2307167181479E+01 -0.4683845384054E+00  0.3606457840734E+00
 0.2133070520598E+00 -0.2238849268568E+01 -0.4051084493382E+00  0.2125709751626E+00
 0.5311421086682E+00 -0.2184061725145E+01 -0.3305839282215E+00  0.4773371666812E-01
 0.9282543898197E+00 -0.2148678885494E+01 -0.2440849027720E+00 -0.1239460266222E+00
 0.1410575206860E+01 -0.2137141814867E+01 -0.1453133237666E+00 -0.2871556158347E+00
 0.1976895143846E+01 -0.2150089748058E+01 -0.3463892135867E-01 -0.4214486890801E+00
 0.2615046290163E+01 -0.2181708354500E+01  0.8666758842395E-01 -0.5033584125200E+00
 0.3299314280881E+01 -0.2217898050814E+01  0.2162832492364E+00 -0.5107525946778E+00
 0.3990395385545E+01 -0.2236172177961E+01  0.3508446467448E+00 -0.4285389941801E+00
 0.4643503335724E+01 -0.2208877616877E+01  0.4869251510251E+00 -0.2501069156307E+00
-0.6498810045675E+00 -0.2791036602533E+01 -0.6881835316748E+00 -0.1297629008690E+00
-0.5653390201025E+00 -0.2828398050074E+01 -0.6787474241494E+00 -0.1089290164770E+00
-0.4854581693936E+00 -0.2863185067624E+01 -0.6697286573832E+00 -0.8005356584021E-01
-0.4134475148536E+00 -0.2893815996010E+01 -0.6614527120292E+00 -0.4433254760161E-01
-0.3516996841310E+00 -0.2919416770314E+01 -0.6542233006377E+00 -0.3839903043098E-02
-0.3013267060959E+00 -0.2940002262207E+01 -0.6482658033206E+00  0.3917830116924E-01
-0.2622952953184E+00 -0.2956248000814E+01 -0.6437086688185E+00  0.8289610091624E-01
-0.2338521159062E+00 -0.2969112417268E+01 -0.6405929161804E+00  0.1261697865814E+00
-0.2149476070919E+00 -0.2979521475440E+01 -0.6388938260267E+00  0.1685189434822E+00
-0.2045279321290E+00 -0.2988188308825E+01 -0.6385432577059E+00  0.2099668737011E+00
-0.2016867493943E+00 -0.2995546149516E+01 -0.6394465893105E+00  0.2508514895640E+00
-0.2057169064072E+00 -0.3001745318977E+01 -0.6414924546359E+00  0.2916588376356E+00
-0.2161029606411E+00 -0.3006675211764E+01 -0.6445556440857E+00  0.3328902293802E+00
-0.2324794103613E+00 -0.3009991587559E+01 -0.6484942092474E+00  0.3749549855350E+00
-0.2545624025100E+00 -0.3011145515695E+01 -0.6531415933736E+00  0.4180771500761E+00
-0.2820568202447E+00 -0.3009419855121E+01 -0.6582953448825E+00  0.4622178894327E+00
-0.3145363621620E+00 -0.3003980233688E+01 -0.6637033290600E+00  0.5070157368229E+00
-0.3513059136298E+00 -0.2993941586995E+01 -0.6690495100945E+00  0.5517575743872E+00
-0.3912747795642E+00 -0.2978439530924E+01 -0.6739428721402E+00  0.5953977546880E+00
-0.4328624480780E+00 -0.2956710170872E+01 -0.6779145338917E+00  0.6366228342855E+00
-0.4739391384097E+00 -0.2928275654632E+01 -0.6804429687477E+00  0.6739762615325E+00
-0.5119207847426E+00 -0.2893050770488E+01 -0.6809943211936E+00  0.7059656446458E+00
-0.5439767672673E+00 -0.2851169122191E+01 -0.6790291880100E+00  0.7310371786247E+00
-0.5671288168578E+00 -0.2802807249065E+01 -0.6739872232278E+00  0.7474867145352E+00
-0.5782245976957E+00 -0.2748152649173E+01 -0.6652754592872E+00  0.7533914961338E+00
-0.5738349667458E+00 -0.2687479847999E+01 -0.6522629726684E+00  0.7465919360069E+00
-0.5501106330513E+00 -0.2621283618927E+01 -0.6342788598471E+00  0.7247394233159E+00
-0.5026250393661E+00 -0.2550435185121E+01 -0.6106120539962E+00  0.6854209814093E+00
-0.4262262910205E+00 -0.2476347674528E+01 -0.5805148017601E+00  0.6263727730167E+00
-0.3149260151054E+00 -0.2401140657563E+01 -0.5432133426283E+00  0.5458019999130E+00
-0.1618161182296E+00 -0.2327737693682E+01 -0.4979107698018E+00  0.4428099347538E+00
 0.4101681123748E-01 -0.2259866153619E+01 -0.4437698750891E+00  0.3179130397991E+00
 0.3022587359904E+00 -0.2202059719954E+01 -0.3799602024545E+00  0.1738257368097E+00
 0.6305039187022E+00 -0.2159402019317E+01 -0.3057796246795E+00  0.1647229906387E-01
 0.1032721950087E+01 -0.2136668659614E+01 -0.2207893451955E+00 -0.1441395367543E+00
 0.1511934791452E+01 -0.2136847095253E+01 -0.1249824626227E+00 -0.2935291611093E+00
 0.2064303888334E+01 -0.2159165938353E+01 -0.1897241028657E-01 -0.4133769178152E+00
 0.2676337626884E+01 -0.2197137220245E+01  0.9584008275577E-01 -0.4837000702147E+00
 0.3323347733604E+01 -0.2237465184301E+01  0.2171765130968E+00 -0.4866034706447E+00
 0.3970371551202E+01 -0.2260858988190E+01  0.3419025176972E+00 -0.4113046749147E+00
 0.4571847558487E+01 -0.2241407705691E+01  0.4660879775044E+00 -0.2550636469247E+00
-0.6560596423328E+00 -0.2809431461939E+01 -0.6930982311823E+00 -0.1156460550852E+00
-0.5743568175958E+00 -0.2845641761718E+01 -0.6839997260552E+00 -0.9536724799903E-01
-0.4971235349294E+00 -0.2879490276014E+01 -0.6753227722518E+00 -0.6766175306815E-01
-0.4271946525919E+00 -0.2909532646012E+01 -0.6673454696650E+00 -0.3358141570900E-01
-0.3667782279617E+00 -0.2934882948772E+01 -0.6603322451865E+00  0.5096253052596E-02
-0.3170303893180E+00 -0.2955395373719E+01 -0.6544851623600E+00  0.4640911818239E-01
-0.2781118709312E+00 -0.2971515367693E+01 -0.6499254574095E+00  0.8870265842868E-01
-0.2495056446281E+00 -0.2983983403795E+01 -0.6466978193211E+00  0.1308801617242E+00
-0.2303676358394E+00 -0.2993562445948E+01 -0.6447860259656E+00  0.1724207467749E+00
-0.2197890163878E+00 -0.3000863466447E+01 -0.6441305061653E+00  0.2132636522592E+00
-0.2169462521867E+00 -0.3006265764825E+01 -0.6446424130082E+00  0.2536496472659E+00
-0.2211618065826E+00 -0.3009898576867E+01 -0.6462120863193E+00  0.2939695711795E+00
-0.2319061780281E+00 -0.3011652542638E+01 -0.6487117537998E+00  0.3346363899155E+00
-0.2487626234782E+00 -0.3011202980483E+01 -0.6519931305076E+00  0.3759789551093E+00
-0.2713630240935E+00 -0.3008039998191E+01 -0.6558806142303E+00  0.4181502960897E+00
-0.2992997302864E+00 -0.3001507891942E+01 -0.6601615342829E+00  0.4610541448041E+00
-0.3320141072036E+00 -0.2990857909937E+01 -0.6645744133310E+00  0.5042912652917E+00
-0.3686723832470E+00 -0.2975313311345E+01 -0.6687971488843E+00  0.5471352967704E+00
-0.4080544687354E+00 -0.2954136015113E+01 -0.6724381067898E+00  0.5885511569514E+00
-0.4484717881848E+00 -0.2926699990725E+01 -0.6750343658408E+00  0.6272532187161E+00
-0.4877137329171E+00 -0.2892659454847E+01 -0.6760746476271E+00  0.6618237114754E+00
-0.5231290092352E+00 -0.2852048954141E+01 -0.6750356027340E+00  0.6908077940430E+00
-0.5518061202650E+00 -0.2805133509767E+01 -0.6713879360110E+00  0.7126775298346E+00
-0.5706573876248E+00 -0.2752257305523E+01 -0.6645829485325E+00  0.7257528923850E+00
-0.5763960423487E+00 -0.2693819274107E+01 -0.6540430730371E+00  0.7281554500495E+00
-0.5654509283887E+00 -0.2630343509044E+01 -0.6391588970107E+00  0.7178124954383E+00
-0.5338502106039E+00 -0.2562599861270E+01 -0.6192900236030E+00  0.6925234631923E+00
-0.4770990506132E+00 -0.2491743200222E+01 -0.5937684590148E+00  0.6500999640358E+00
-0.3900762990956E+00 -0.2419455311570E+01 -0.5619063305062E+00  0.5885925809012E+00
-0.2669832802832E+00 -0.2348073132157E+01 -0.5230112902815E+00  0.5066212711163E+00
-0.1013412878496E+00 -0.2280637709855E+01 -0.4763958066398E+00  0.4037955488455E+00
 0.1139885721874E+00 -0.2220832156280E+01 -0.4213687230974E+00  0.2812088775690E+00
 0.3864612807004E+00 -0.2172886523236E+01 -0.3572850538310E+00  0.1421297974025E+00
 0.7229219252534E+00 -0.2141226992357E+01 -0.2836610176476E+00 -0.7179143582170E-02
 0.1128141448761E+01 -0.2129612868134E+01 -0.2002942868591E+00 -0.1568697987131E+00
 0.1602789045989E+01 -0.2139809263124E+01 -0.1074040450274E+00 -0.2934392661296E+00
 0.2141100360457E+01 -0.2169983875468E+01 -0.5776703088239E-02 -0.4005897460119E+00
 0.2728891032598E+01 -0.2213294470507E+01  0.1031193139549E+00 -0.4613202596028E+00
 0.3342754262082E+01 -0.2257359183057E+01  0.2170790190396E+00 -0.4612137318093E+00
 0.3951432963862E+01 -0.2285260245283E+01  0.3332345486814E+00 -0.3919581588546E+00
 0.4514430810218E+01 -0.2276905683713E+01  0.4475050319693E+00 -0.2575548447022E+00
-0.6621262156242E+00 -0.2827807570243E+01 -0.6979867675743E+00 -0.1019950014665E+00
-0.5830594132832E+00 -0.2862914957896E+01 -0.6891948845057E+00 -0.8223912117834E-01
-0.5082675127863E+00 -0.2895828607849E+01 -0.6808192342721E+00 -0.5560945921975E-01
-0.4402925861283E+00 -0.2925214649469E+01 -0.6731014571494E+00 -0.2304847285152E-01
-0.3811827335832E+00 -0.2950184015860E+01 -0.6662733598169E+00  0.1390617704874E-01
-0.3321169323834E+00 -0.2970465760606E+01 -0.6605165484404E+00  0.5353558844157E-01
-0.2934084081013E+00 -0.2986314180913E+01 -0.6559445275772E+00  0.9434612558493E-01
-0.2647391135169E+00 -0.2998278181127E+01 -0.6526034686533E+00  0.1352998661971E+00
-0.2454469031865E+00 -0.3006968812992E+01 -0.6504831529286E+00  0.1758557698288E+00
-0.2347571409069E+00 -0.3012895735806E+01 -0.6495305850214E+00  0.2158881418364E+00
-0.2319261692296E+00 -0.3016381272821E+01 -0.6496614980908E+00  0.2555549814915E+00
-0.2363067118780E+00 -0.3017531020035E+01 -0.6507675560797E+00  0.2951619739571E+00
-0.2473570723935E+00 -0.3016236718764E+01 -0.6527187679578E+00  0.3350414826519E+00
-0.2646118215536E+00 -0.3012195552293E+01 -0.6553614845350E+00  0.3754493671636E+00
-0.2876224574735E+00 -0.3004940264492E+01 -0.6585125542056E+00  0.4164761448945E+00
-0.3158749458223E+00 -0.2993879796200E+01 -0.6619509582683E+00  0.4579777791158E+00
-0.3486869991924E+00 -0.2978352348215E+01 -0.6654078793968E+00  0.4995271334884E+00
-0.3850962646282E+00 -0.2957688370829E+01 -0.6685569370538E+00  0.5403932851295E+00
-0.4237623756073E+00 -0.2931273007408E+01 -0.6710070866020E+00  0.5795585537375E+00
-0.4628946303302E+00 -0.2898614066586E+01 -0.6723017494012E+00  0.6157708402182E+00
-0.5002036712980E+00 -0.2859494193485E+01 -0.6719395829692E+00  0.6476565109305E+00
-0.5329714080846E+00 -0.2814065050294E+01 -0.6694073016507E+00  0.6738051405749E+00
-0.5582086737717E+00 -0.2762719655479E+01 -0.6641856757473E+00  0.6927256625459E+00
-0.5727282671648E+00 -0.2705962813208E+01 -0.6557382258457E+00  0.7027768136562E+00
-0.5731273599568E+00 -0.2644392352790E+01 -0.6435039521382E+00  0.7021400119995E+00
-0.5557198193620E+00 -0.2578762789515E+01 -0.6268965311168E+00  0.6888428944743E+00
-0.5164466380827E+00 -0.2510092008619E+01 -0.6053077383602E+00  0.6608417074675E+00
-0.4507881845256E+00 -0.2439781450112E+01 -0.5781139355421E+00  0.6161735406056E+00
-0.3537048483640E+00 -0.2369731866837E+01 -0.5446873511568E+00  0.5531912150909E+00
-0.2196419327780E+00 -0.2302434033776E+01 -0.5044152008273E+00  0.4708937784021E+00
-0.4259742354482E-01 -0.2240971396560E+01 -0.4567137708266E+00  0.3693323588754E+00
 0.1837744787140E+00 -0.2188905275148E+01 -0.4010261652626E+00  0.2500657562736E+00
 0.4657454536445E+00 -0.2150106037271E+01 -0.3368721217450E+00  0.1167550320000E+00
 0.8085736355490E+00 -0.2128345920934E+01 -0.2639544610103E+00 -0.2419391590106E-01
 0.1215148693405E+01 -0.2126468663335E+01 -0.1822639967020E+00 -0.1632691568810E+00
 0.1684258893419E+01 -0.2145228803225E+01 -0.9219398333492E-01 -0.2880137333175E+00
 0.2208761098806E+01 -0.2182011236230E+01  0.5349972594904E-02 -0.3840004038831E+00
 0.2774204570976E+01 -0.2229842147913E+01  0.1088724862350E+00 -0.4367868043823E+00
 0.3358619855281E+01 -0.2277231518268E+01  0.2162776706255E+00 -0.4346743084188E+00
 0.3933564549031E+01 -0.2309166429894E+01  0.3248796286685E+00 -0.3717251888922E+00
 0.4468350483490E+01 -0.2309848268984E+01  0.4317004493339E+00 -0.2516949895653E+00
-0.6680920499911E+00 -0.2846147240348E+01 -0.7028478685410E+00 -0.8878155462085E-01
-0.5914751540245E+00 -0.2880203781713E+01 -0.6943357974938E+00 -0.6952017922918E-01
-0.5189395905219E+00 -0.2912199956089E+01 -0.6862279195477E+00 -0.4389084864786E-01
-0.4527948891320E+00 -0.2940889136248E+01 -0.6787368151900E+00 -0.1275128574751E-01
-0.3949537098399E+00 -0.2965383643934E+01 -0.6720674807693E+00  0.2255592745486E-01
-0.3466041126825E+00 -0.2985313985396E+01 -0.6663836295456E+00  0.6052036316167E-01
-0.3081795249568E+00 -0.3000775271690E+01 -0.6617909691909E+00  0.9979722576045E-01
-0.2795290822216E+00 -0.3012148769863E+01 -0.6583355802268E+00  0.1394143949731E+00
-0.2601506075194E+00 -0.3019905707964E+01 -0.6560112728720E+00  0.1788265980756E+00
-0.2493921740915E+00 -0.3024457524268E+01 -0.6547699494288E+00  0.2178598832585E+00
-0.2465858245736E+00 -0.3026068402489E+01 -0.6545308551657E+00  0.2566031675232E+00
-0.2511142831728E+00 -0.3024818586895E+01 -0.6551865837767E+00  0.2952873556265E+00
-0.2624252195056E+00 -0.3020600512643E+01 -0.6566051562139E+00  0.3341725436607E+00
-0.2800072285960E+00 -0.3013134378306E+01 -0.6586283311948E+00  0.3734494119992E+00
-0.3033355676233E+00 -0.3001997467296E+01 -0.6610666168345E+00  0.4131542423738E+00
-0.3317958939856E+00 -0.2986664787596E+01 -0.6636921462062E+00  0.4531040502876E+00
-0.3645902380902E+00 -0.2966561396356E+01 -0.6662303368169E+00  0.4928524418485E+00
-0.4006364487449E+00 -0.2941122993358E+01 -0.6683518983799E+00  0.5316714457577E+00
-0.4384816142877E+00 -0.2909854618588E+01 -0.6696672565539E+00  0.5685668703514E+00
-0.4762380269092E+00 -0.2872393945861E+01 -0.6697264045337E+00  0.6023255017083E+00
-0.5115396711780E+00 -0.2828648516080E+01 -0.6680376474062E+00  0.6316229412479E+00
-0.5416025441006E+00 -0.2778884443252E+01 -0.6640974073663E+00  0.6550994752355E+00
-0.5633632145623E+00 -0.2723619259004E+01 -0.6573965045092E+00  0.6713106285209E+00
-0.5735441160572E+00 -0.2663511548496E+01 -0.6474111425579E+00  0.6786665660044E+00
-0.5686427969558E+00 -0.2599346101700E+01 -0.6335977891726E+00  0.6754216583009E+00
-0.5448820467555E+00 -0.2532089790628E+01 -0.6153943766468E+00  0.6597145965905E+00
-0.4981466502053E+00 -0.2462983271395E+01 -0.5922259931449E+00  0.6296639977663E+00
-0.4239295275452E+00 -0.2393640604017E+01 -0.5635140347094E+00  0.5835295144036E+00
-0.3173145834028E+00 -0.2326137485584E+01 -0.5286904216754E+00  0.5199498913795E+00
-0.1730328471601E+00 -0.2263064839277E+01 -0.4872195445475E+00  0.4382665058634E+00
 0.1441012124410E-01 -0.2207488994846E+01 -0.4386157812562E+00  0.3389064413295E+00
 0.2505666591037E+00 -0.2162793671645E+01 -0.3824454082071E+00  0.2237917280312E+00
 0.5405857251345E+00 -0.2132458479449E+01 -0.3183745556071E+00  0.9683810122436E-01
 0.8882948352677E+00 -0.2119624472207E+01 -0.2462659310576E+00 -0.3555895311342E-01
 0.1294976963249E+01 -0.2126320456699E+01 -0.1662687011677E+00 -0.1643473476461E+00
 0.1757918936776E+01 -0.2152469185093E+01 -0.7891005083926E-01 -0.2781385478825E+00
 0.2269003045028E+01 -0.2194884700174E+01  0.1482366919160E-01 -0.3642246551407E+00
 0.2813821909733E+01 -0.2246609714895E+01  0.1134424406580E+00 -0.4103588711072E+00
 0.3371765909331E+01 -0.2296989204411E+01  0.2149553441871E+00 -0.4070776475348E+00
 0.3917556808795E+01 -0.2332697831041E+01  0.3169718002741E+00 -0.3502466139184E+00
 0.4425197731730E+01 -0.2340510022993E+01  0.4169375479602E+00 -0.2431844446791E+00
-0.6739602001595E+00 -0.2864438944403E+01 -0.7076798394577E+00 -0.7598149478619E-01
-0.5996218028305E+00 -0.2897496816094E+01 -0.6994237342071E+00 -0.5719178328271E-01
-0.5291710573156E+00 -0.2928600420983E+01 -0.6915543059647E+00 -0.3250406611814E-01
-0.4647338989371E+00 -0.2956571133762E+01 -0.6842610167361E+00 -0.2709018738424E-02
-0.4081100358435E+00 -0.2980523951318E+01 -0.6777268075312E+00  0.3101089740854E-01
-0.3604887163108E+00 -0.3000010749547E+01 -0.6720999031867E+00  0.6732411072839E-01
-0.3223986613190E+00 -0.3014993659293E+01 -0.6674784740687E+00  0.1050221432142E+00
-0.2938293795474E+00 -0.3025707904448E+01 -0.6639074666921E+00  0.1432021071690E+00
-0.2744184996391E+00 -0.3032497584216E+01 -0.6613832266265E+00  0.1813267345423E+00
-0.2636250570568E+00 -0.3035680949321E+01 -0.6598612111083E+00  0.2191881631202E+00
-0.2608516347982E+00 -0.3035464779147E+01 -0.6592632926128E+00  0.2568190650017E+00
-0.2655098638436E+00 -0.3031903408783E+01 -0.6594826643524E+00  0.2943860548435E+00
-0.2770379855396E+00 -0.3024889802568E+01 -0.6603855674621E+00  0.3320857808932E+00
-0.2948814133357E+00 -0.3014167781251E+01 -0.6618098487792E+00  0.3700519440064E+00
-0.3184435817248E+00 -0.2999360014154E+01 -0.6635607290637E+00  0.4082748797853E+00
-0.3470160733329E+00 -0.2980007771606E+01 -0.6654047789032E+00  0.4465410591669E+00
-0.3796930335917E+00 -0.2955621789534E+01 -0.6670629745652E+00  0.4843927904558E+00
-0.4152808467383E+00 -0.2925740297317E+01 -0.6682042387680E+00  0.5211119164633E+00
-0.4522214081095E+00 -0.2889984357297E+01 -0.6684411630419E+00  0.5557334146714E+00
-0.4885352173779E+00 -0.2848117025684E+01 -0.6673304585564E+00  0.5870880911168E+00
-0.5217823957226E+00 -0.2800166628166E+01 -0.6643898146778E+00  0.6139056370527E+00
-0.5491149731920E+00 -0.2746510345304E+01 -0.6591250735208E+00  0.6348827847345E+00
-0.5673995484708E+00 -0.2687785857688E+01 -0.6510370909329E+00  0.6486301737088E+00
-0.5732775591289E+00 -0.2624797784473E+01 -0.6396150782513E+00  0.6536201877717E+00
-0.5631626318073E+00 -0.2558505127874E+01 -0.6243335612395E+00  0.6481908073903E+00
-0.5332085535786E+00 -0.2490068460428E+01 -0.6046554118115E+00  0.6305994668361E+00
-0.4792716742566E+00 -0.2420925894321E+01 -0.5800395223588E+00  0.5991289680547E+00
-0.3968896245591E+00 -0.2352871346064E+01 -0.5499522023195E+00  0.5522540558986E+00
-0.2813036452049E+00 -0.2288115007675E+01 -0.5138837382334E+00  0.4888780895304E+00
-0.1275601738473E+00 -0.2229301607275E+01 -0.4713723632484E+00  0.4086438846089E+00
 0.6931293734786E-01 -0.2179433152986E+01 -0.4220240494162E+00  0.3122881291887E+00
 0.3140925346678E+00 -0.2141677433967E+01 -0.3655169853064E+00  0.2020007104994E+00
 0.6108801422675E+00 -0.2119111945021E+01 -0.3016463650456E+00  0.8183269974803E-01
 0.9622295223217E+00 -0.2114284413434E+01 -0.2304109816559E+00 -0.4195238614922E-01
 0.1368065362603E+01 -0.2128509740634E+01 -0.1520888778725E+00 -0.1608446430520E+00
 0.1824489069061E+01 -0.2161034870033E+01 -0.6730916119736E-01 -0.2645112266123E+00
 0.2322725908962E+01 -0.2208270228367E+01  0.2289113646017E-01 -0.3418061362009E+00
 0.2848598668145E+01 -0.2263376354940E+01  0.1170444643852E+00 -0.3823632026586E+00
 0.3382897573189E+01 -0.2316485865717E+01  0.2132823446725E+00 -0.3785698004887E+00
 0.3903016920729E+01 -0.2355801068640E+01  0.3094431750289E+00 -0.3275493869662E+00
 0.4386351657212E+01 -0.2369817198213E+01  0.4033068978096E+00 -0.2324096493238E+00
-0.6797337907987E+00 -0.2882678859272E+01 -0.7124825406310E+00 -0.6357131122913E-01
-0.6075132621041E+00 -0.2914790651844E+01 -0.7044607932870E+00 -0.4523470221502E-01
-0.5389863068176E+00 -0.2945032803779E+01 -0.6968038325026E+00 -0.2144312120106E-01
-0.4761350784793E+00 -0.2972278640138E+01 -0.6896827540005E+00  0.7067186490778E-02
-0.4206665532027E+00 -0.2995645335766E+01 -0.6832623879750E+00  0.3924652521055E-01
-0.3737672370479E+00 -0.3014620998774E+01 -0.6776776572626E+00  0.7391725127955E-01
-0.3360420725802E+00 -0.3029056228114E+01 -0.6730196701675E+00  0.1099950004529E+00
-0.3075985198711E+00 -0.3039059390544E+01 -0.6693315920569E+00  0.1466471314893E+00
-0.2881958427438E+00 -0.3044860112687E+01 -0.6666112010195E+00  0.1833536924464E+00
-0.2773925008706E+00 -0.3046689728425E+01 -0.6648164557657E+00  0.2198851613362E+00
-0.2746558914331E+00 -0.3044699758697E+01 -0.6638711399185E+00  0.2562298207043E+00
-0.2794248560237E+00 -0.3038918998615E+01 -0.6636687808172E+00  0.2925003158787E+00
-0.2911291071018E+00 -0.3029241000467E+01 -0.6640740314093E+00  0.3288388515264E+00
-0.3091736715997E+00 -0.3015433398010E+01 -0.6649214238300E+00  0.3653304995231E+00
-0.3328947092030E+00 -0.2997164255687E+01 -0.6660118029023E+00  0.4019278227674E+00
-0.3614959873302E+00 -0.2974040324466E+01 -0.6671072723000E+00  0.4383947250908E+00
-0.3939713445064E+00 -0.2945655970893E+01 -0.6679254730328E+00  0.4742695777180E+00
-0.4290236395567E+00 -0.2911648578111E+01 -0.6681344534895E+00  0.5088503505124E+00
-0.4649966346082E+00 -0.2871750848081E+01 -0.6673495064822E+00  0.5412065051143E+00
-0.4998243514334E+00 -0.2825846234487E+01 -0.6651341270954E+00  0.5702177419394E+00
-0.5309964149415E+00 -0.2774079174929E+01 -0.6610151278240E+00  0.5946723828937E+00
-0.5556036576201E+00 -0.2716933858955E+01 -0.6545075130680E+00  0.6133287404590E+00
-0.5704476249788E+00 -0.2655162973082E+01 -0.6451221292253E+00  0.6248599221831E+00
-0.5720980990824E+00 -0.2589708691716E+01 -0.6323613675826E+00  0.6278095328501E+00
-0.5568995222330E+00 -0.2521690965294E+01 -0.6157181066803E+00  0.6206075082878E+00
-0.5209566667016E+00 -0.2452445295504E+01 -0.5946804013025E+00  0.6016349254033E+00
-0.4601217266854E+00 -0.2383582563807E+01 -0.5687408665735E+00  0.5693372998924E+00
-0.3700037936258E+00 -0.2317045783620E+01 -0.5374099234572E+00  0.5223933147639E+00
-0.2460272784701E+00 -0.2255143491968E+01 -0.5002341615417E+00  0.4599460943717E+00
-0.8357270125279E-01 -0.2200535433932E+01 -0.4568216338441E+00  0.3818969292282E+00
 0.1218086466758E+00 -0.2156123477854E+01 -0.4068629722984E+00  0.2892274452326E+00
 0.3741498744990E+00 -0.2124835814131E+01 -0.3501371931438E+00  0.1843085327826E+00
 0.6765888519958E+00 -0.2109351305838E+01 -0.2865524950385E+00  0.7122541360073E-01
 0.1030557220060E+01 -0.2111671169449E+01 -0.2162227930998E+00 -0.4398404677090E-01
 0.1434841437593E+01 -0.2132493134474E+01 -0.1395303414555E+00 -0.1534023941056E+00
 0.1884619528997E+01 -0.2170521912483E+01 -0.5718047754925E-01 -0.2477164723355E+00
 0.2370698640932E+01 -0.2221895795164E+01  0.2976056959712E-01 -0.3171863266758E+00
 0.2879270045782E+01 -0.2279960723225E+01  0.1198618662975E+00 -0.3530584385851E+00
 0.3392459495437E+01 -0.2335608811482E+01  0.2113701399406E+00 -0.3492173594876E+00
 0.3889942103129E+01 -0.2378342266759E+01  0.3023199717789E+00 -0.3037073012370E+00
 0.4351642469821E+01 -0.2398072805763E+01  0.3907139386336E+00 -0.2194443614147E+00
-0.6854160155834E+00 -0.2900869157657E+01 -0.7172570453360E+00 -0.5152790729414E-01
-0.6151604350182E+00 -0.2932088188714E+01 -0.7094497353181E+00 -0.3362914051840E-01
-0.5484042222164E+00 -0.2961505221745E+01 -0.7019818992526E+00 -0.1069869906763E-01
-0.4870181828383E+00 -0.2988032183423E+01 -0.6950100836087E+00  0.1657268318364E-01
-0.4326344770213E+00 -0.3010786943966E+01 -0.6886842944596E+00  0.4724665863457E-01
-0.3864355877346E+00 -0.3029204959356E+01 -0.6831281195976E+00  0.8027870583247E-01
-0.3490881714368E+00 -0.3043042828608E+01 -0.6784262101184E+00  0.1146971799033E+00
-0.3207990166119E+00 -0.3052298935030E+01 -0.6746196003809E+00  0.1497391397126E+00
-0.3014328774686E+00 -0.3057100633737E+01 -0.6717067122503E+00  0.1849089873688E+00
-0.2906366294556E+00 -0.3057599314543E+01 -0.6696471987782E+00  0.2199659538020E+00
-0.2879365154095E+00 -0.3053894386017E+01 -0.6683661902447E+00  0.2548647544729E+00
-0.2927964875897E+00 -0.3045990187500E+01 -0.6677573449682E+00  0.2896740107323E+00
-0.3046383768951E+00 -0.3033781108534E+01 -0.6676839070352E+00  0.3244904356621E+00
-0.3228295645349E+00 -0.3017058469411E+01 -0.6679776167429E+00  0.3593587818727E+00
-0.3466435064632E+00 -0.2995535080224E+01 -0.6684357272979E+00  0.3942017923491E+00
-0.3752023489230E+00 -0.2968881614607E+01 -0.6688168026721E+00  0.4287683479222E+00
-0.4074069576140E+00 -0.2936773316754E+01 -0.6688360648401E+00  0.4625997050116E+00
-0.4418642570368E+00 -0.2898942789060E+01 -0.6681614191758E+00  0.4950157919897E+00
-0.4768267025718E+00 -0.2855229521263E+01 -0.6664112546972E+00  0.5251255240035E+00
-0.5101472405773E+00 -0.2805631901564E+01 -0.6631558383100E+00  0.5518620753940E+00
-0.5392488138740E+00 -0.2750405283256E+01 -0.6579308292300E+00  0.5740765749504E+00
-0.5611644405601E+00 -0.2690136204661E+01 -0.6502601387338E+00  0.5905934318083E+00
-0.5726359199553E+00 -0.2625686554416E+01 -0.6396645044060E+00  0.6001544532106E+00
-0.5701704776605E+00 -0.2558127034309E+01 -0.6256595117170E+00  0.6013817933906E+00
-0.5500569526784E+00 -0.2488725041181E+01 -0.6077564078282E+00  0.5928035608243E+00
-0.5083688122977E+00 -0.2418972526320E+01 -0.5854682764477E+00  0.5729268834152E+00
-0.4409747160667E+00 -0.2350629615548E+01 -0.5583208746426E+00  0.5403557488054E+00
-0.3435765479167E+00 -0.2285760234402E+01 -0.5258673642998E+00  0.4939588057310E+00
-0.2118001539075E+00 -0.2226739797988E+01 -0.4877079976466E+00  0.4330918592461E+00
-0.4136905288643E-01 -0.2176211661732E+01 -0.4435161495325E+00  0.3578713155759E+00
 0.1716519473265E+00 -0.2136951903746E+01 -0.3930599971410E+00  0.2694624339062E+00
 0.4305938334473E+00 -0.2111637412727E+01 -0.3362087208659E+00  0.1703396414625E+00
 0.7377183783058E+00 -0.2102562626537E+01 -0.2729688537138E+00  0.6453810322859E-01
 0.1093477658759E+01 -0.2111233517046E+01 -0.2035511746905E+00 -0.4220015833210E-01
 0.1495712288890E+01 -0.2137820269087E+01 -0.1284215979531E+00 -0.1425761206851E+00
 0.1938890558897E+01 -0.2180598337353E+01 -0.4834155641169E-01 -0.2282454190212E+00
 0.2413583559855E+01 -0.2235535390512E+01  0.3560963439922E-01 -0.2907267294885E+00
 0.2906431776278E+01 -0.2296210332708E+01  0.1220442905325E+00 -0.3226413704097E+00
 0.3400803603834E+01 -0.2354224645419E+01  0.2093157948020E+00 -0.3190815039812E+00
 0.3878293525710E+01 -0.2400195364334E+01  0.2956196366802E+00 -0.2787624159499E+00
 0.4320867668523E+01 -0.2425200498768E+01  0.3791334396006E+00 -0.2044482208517E+00
-0.6910101273687E+00 -0.2919016660907E+01 -0.7220053684139E+00 -0.3982836254651E-01
-0.6225718799553E+00 -0.2949397241035E+01 -0.7143938348434E+00 -0.2235474450131E-01
-0.5574392777671E+00 -0.2978029973877E+01 -0.7070938608653E+00 -0.2587625292972E-03
-0.4973982442933E+00 -0.3003854334052E+01 -0.7002505261036E+00  0.2580814175653E-01
-0.4440218363224E+00 -0.3025986918661E+01 -0.6940017613382E+00  0.5500220575683E-01
-0.3984889664020E+00 -0.3043818874954E+01 -0.6884615785300E+00  0.8639478406281E-01
-0.3615170483266E+00 -0.3057027141173E+01 -0.6837088480879E+00  0.1191166300922E+00
-0.3333968192228E+00 -0.3065514854208E+01 -0.6797823448156E+00  0.1524730223733E+00
-0.3140843379546E+00 -0.3069318595638E+01 -0.6766805968018E+00  0.1859980190631E+00
-0.3033046163904E+00 -0.3068517090662E+01 -0.6743643514592E+00  0.2194484364594E+00
-0.3006367748638E+00 -0.3063161447874E+01 -0.6727596545725E+00  0.2527552161909E+00
-0.3055675364515E+00 -0.3053233162449E+01 -0.6717601497900E+00  0.2859523842805E+00
-0.3175112999536E+00 -0.3038627861327E+01 -0.6712278422581E+00  0.3190998792615E+00
-0.3358004538802E+00 -0.3019160181829E+01 -0.6709921371405E+00  0.3522102503721E+00
-0.3596502705529E+00 -0.2994586513935E+01 -0.6708473668940E+00  0.3851840684149E+00
-0.3881073421404E+00 -0.2964639279388E+01 -0.6705493342977E+00  0.4177622933363E+00
-0.4199866410469E+00 -0.2929071273413E+01 -0.6698115928729E+00  0.4494953920585E+00
-0.4538064387096E+00 -0.2887705904310E+01 -0.6683024785624E+00  0.4797306452255E+00
-0.4877345149560E+00 -0.2840484169717E+01 -0.6656437468534E+00  0.5076210523632E+00
-0.5195482050174E+00 -0.2787513487675E+01 -0.6614123483943E+00  0.5321575181542E+00
-0.5466079143730E+00 -0.2729154459993E+01 -0.6551524846357E+00  0.5522577574629E+00
-0.5658926606210E+00 -0.2666090791903E+01 -0.6463967001369E+00  0.5668161759534E+00
-0.5740899931185E+00 -0.2599287233831E+01 -0.6346754548473E+00  0.5746484564581E+00
-0.5676532589221E+00 -0.2529933615774E+01 -0.6195173841707E+00  0.5744610961373E+00
-0.5428279692681E+00 -0.2459431289812E+01 -0.6004518607635E+00  0.5648846846258E+00
-0.4956716016536E+00 -0.2389410802550E+01 -0.5770164894390E+00  0.5445526578400E+00
-0.4220861999805E+00 -0.2321759557047E+01 -0.5487691595828E+00  0.5122210004786E+00
-0.3178825098174E+00 -0.2258637139179E+01 -0.5153039374779E+00  0.4669323561489E+00
-0.1788990954924E+00 -0.2202459171811E+01 -0.4762716605578E+00  0.4082270195014E+00
-0.1202954025306E-02 -0.2155828156025E+01 -0.4314062284386E+00  0.3363940662999E+00
 0.2186462781665E+00 -0.2121377557632E+01 -0.3805462615637E+00  0.2527255475821E+00
 0.4833256970509E+00 -0.2101530765857E+01 -0.3236410185838E+00  0.1597315392333E+00
 0.7943087960802E+00 -0.2098219384893E+01 -0.2607821216484E+00  0.6132828725617E-01
 0.1151199480903E+01 -0.2112506616792E+01 -0.1922614300426E+00 -0.3708890440683E-01
 0.1551058421586E+01 -0.2144116253877E+01 -0.1186115682255E+00 -0.1288473740149E+00
 0.1987817173684E+01 -0.2190988596024E+01 -0.4063428507356E-01 -0.2065125426360E+00
 0.2451945198698E+01 -0.2248998738867E+01  0.4058929257095E-01 -0.2627238120736E+00
 0.2930572242980E+01 -0.2311984935378E+01  0.1237174633638E+00 -0.2912709192712E+00
 0.3408197465266E+01 -0.2372199279299E+01  0.2071996402810E+00 -0.2882175667579E+00
 0.3868041090101E+01 -0.2421209378801E+01  0.2893663465718E+00 -0.2527751116645E+00
 0.4293778513354E+01 -0.2451077138972E+01  0.3685402803681E+00 -0.1875727001152E+00
-0.6965194251386E+00 -0.2937131760498E+01 -0.7267302479565E+00 -0.2844974732664E-01
-0.6297543162167E+00 -0.2966729405404E+01 -0.7192967550424E+00 -0.1139059645412E-01
-0.5661024192883E+00 -0.2994622591332E+01 -0.7121450127359E+00  0.9890995720520E-02
-0.5072864046563E+00 -0.3019769226117E+01 -0.7054111366662E+00  0.3477862884025E-01
-0.4548339096331E+00 -0.3041282493163E+01 -0.6992232909785E+00  0.6251002248282E-01
-0.4099218281315E+00 -0.3058515523974E+01 -0.6936874807578E+00  0.9225820171856E-01
-0.3733101279765E+00 -0.3071077348392E+01 -0.6888775055388E+00  0.1232471847445E+00
-0.3453608551702E+00 -0.3078788671858E+01 -0.6848299156105E+00  0.1548485038748E+00
-0.3261090193578E+00 -0.3081605967447E+01 -0.6815430075167E+00  0.1866298737350E+00
-0.3153483269970E+00 -0.3079542600205E+01 -0.6789781955579E+00  0.2183531893019E+00
-0.3127049814113E+00 -0.3072605594120E+01 -0.6770621251953E+00  0.2499344208749E+00
-0.3176860268046E+00 -0.3060755579381E+01 -0.6756883313057E+00  0.2813818200775E+00
-0.3296987319170E+00 -0.3043889929908E+01 -0.6747177424192E+00  0.3127268960119E+00
-0.3480430403806E+00 -0.3021846042019E+01 -0.6739778265229E+00  0.3439577965677E+00
-0.3718804610865E+00 -0.2994422315500E+01 -0.6732605653497E+00  0.3749601950389E+00
-0.4001879337455E+00 -0.2961410255462E+01 -0.6723196478599E+00  0.4054737806859E+00
-0.4317013615392E+00 -0.2922636412366E+01 -0.6708675647778E+00  0.4350640859418E+00
-0.4648573654496E+00 -0.2878010175485E+01 -0.6685735181495E+00  0.4631107264197E+00
-0.4977455088437E+00 -0.2827568384795E+01 -0.6650627886379E+00  0.4888150786281E+00
-0.5280730093677E+00 -0.2771521185756E+01 -0.6599188488583E+00  0.5112296901254E+00
-0.5531421054361E+00 -0.2710328350504E+01 -0.6526941009140E+00  0.5293422275762E+00
-0.5698819018744E+00 -0.2644765132963E+01 -0.6429294165480E+00  0.5421203939251E+00
-0.5749312149787E+00 -0.2575892390945E+01 -0.6301647305748E+00  0.5484579479360E+00
-0.5646976251695E+00 -0.2505009476684E+01 -0.6139414295192E+00  0.5471501441393E+00
-0.5353941818084E+00 -0.2433638429423E+01 -0.5938065310947E+00  0.5369326955952E+00
-0.4830752452593E+00 -0.2363531421412E+01 -0.5693213418179E+00  0.5165638127082E+00
-0.4036895187068E+00 -0.2296682994209E+01 -0.5400745106310E+00  0.4849433015855E+00
-0.2931676951970E+00 -0.2235326256169E+01 -0.5056987978087E+00  0.4412705805349E+00
-0.1475660460897E+00 -0.2181895073776E+01 -0.4658922309155E+00  0.3852420808836E+00
 0.3671160575674E-01 -0.2138932967922E+01 -0.4204442786982E+00  0.3172789911894E+00
 0.2626362089808E+00 -0.2108921454456E+01 -0.3692570545975E+00  0.2387484141040E+00
 0.5322832052145E+00 -0.2094035575432E+01 -0.3123504786979E+00  0.1521374862252E+00
 0.8464234209318E+00 -0.2095870441153E+01 -0.2498894077679E+00  0.6118816164873E-01
 0.1203931783436E+01 -0.2115097960654E+01 -0.1822332381590E+00 -0.2908627490627E-01
 0.1601230624134E+01 -0.2151067628355E+01 -0.1099674024829E+00 -0.1126345569910E+00
 0.2031853132267E+01 -0.2201462094510E+01 -0.3392179295408E-01 -0.1828692293600E+00
 0.2486263627523E+01 -0.2262121974964E+01  0.4482833117985E-01 -0.2334239979746E+00
 0.2952091057976E+01 -0.2327154714874E+01  0.1249872704830E+00 -0.2590798994930E+00
 0.3414850491297E+01 -0.2389399467750E+01  0.2050902077654E+00 -0.2566835052801E+00
 0.3859149893778E+01 -0.2441236070702E+01  0.2835827688408E+00 -0.2258144119261E+00
 0.4270122707845E+01 -0.2475565972812E+01  0.3589113523548E+00 -0.1689661050738E+00
-0.7019472350733E+00 -0.2955227545785E+01 -0.7314349670710E+00 -0.1736898150345E-01
-0.6367130154062E+00 -0.2984099136521E+01 -0.7241624411762E+00 -0.7152064767204E-03
-0.5744017669392E+00 -0.3011301037419E+01 -0.7171405715578E+00  0.1976680600383E-01
-0.5166906116374E+00 -0.3035802104114E+01 -0.7104985537375E+00  0.4349287618185E-01
-0.4650736316181E+00 -0.3056709984559E+01 -0.7043567337311E+00  0.6977198887833E-01
-0.4207279191313E+00 -0.3073344571230E+01 -0.6988145084854E+00  0.9786721413531E-01
-0.3844499224680E+00 -0.3085256650444E+01 -0.6939413249229E+00  0.1270879090201E+00
-0.3566626530259E+00 -0.3092195615322E+01 -0.6897716639479E+00  0.1568697228572E+00
-0.3374693886764E+00 -0.3094047614669E+01 -0.6863034108958E+00  0.1868170705483E+00
-0.3267239675077E+00 -0.3090767791125E+01 -0.6834983619115E+00  0.2167032963593E+00
-0.3240941708625E+00 -0.3082323501499E+01 -0.6812835446243E+00  0.2464372696182E+00
-0.3291049033696E+00 -0.3068656726517E+01 -0.6795523361035E+00  0.2760096276338E+00
-0.3411565026406E+00 -0.3049667166789E+01 -0.6781647439913E+00  0.3054313236598E+00
-0.3595189039489E+00 -0.3025214270287E+01 -0.6769466449344E+00  0.3346734998664E+00
-0.3833041434260E+00 -0.2995136559329E+01 -0.6756881506196E+00  0.3636137791810E+00
-0.4114252230098E+00 -0.2959281567086E+01 -0.6741413680647E+00  0.3919967675482E+00
-0.4425455509989E+00 -0.2917545418057E+01 -0.6720182038251E+00  0.4194084632794E+00
-0.4750268475159E+00 -0.2869918303626E+01 -0.6689890401972E+00  0.4452654034919E+00
-0.5068867597629E+00 -0.2816526897478E+01 -0.6646827413527E+00  0.4688212930152E+00
-0.5357678763699E+00 -0.2757677420154E+01 -0.6586890691201E+00  0.4891938779001E+00
-0.5589187726076E+00 -0.2693922387395E+01 -0.6505682416947E+00  0.5054437260674E+00
-0.5732228706022E+00 -0.2626122631384E+01 -0.6398691099320E+00  0.5166145700352E+00
-0.5752756541257E+00 -0.2555428063544E+01 -0.6261407528642E+00  0.5216815604744E+00
-0.5614463734496E+00 -0.2483237890724E+01 -0.6089368619085E+00  0.5195319117062E+00
-0.5279250127146E+00 -0.2411181966866E+01 -0.5878214046754E+00  0.5090076904467E+00
-0.4707732593473E+00 -0.2341118192681E+01 -0.5623782987858E+00  0.4889889220980E+00
-0.3859962461041E+00 -0.2275130098244E+01 -0.5322252768003E+00  0.4585098649304E+00
-0.2696510805343E+00 -0.2215505328405E+01 -0.4970312891943E+00  0.4169089058419E+00
-0.1180111667334E+00 -0.2164678499227E+01 -0.4565379399951E+00  0.3640108637795E+00
 0.7219540092218E-01 -0.2125121676291E+01 -0.4105852611920E+00  0.3003310629501E+00
 0.3035005467364E+00 -0.2099161299687E+01 -0.3591321559416E+00  0.2272653007410E+00
 0.5774322699990E+00 -0.2088734737495E+01 -0.3022604980033E+00  0.1472279005878E+00
 0.8941404844827E+00 -0.2095129678495E+01 -0.2401978423817E+00  0.6374274831228E-01
 0.1251877948619E+01 -0.2118675766181E+01 -0.1733595660957E+00 -0.1858192099372E-01
 0.1646548369220E+01 -0.2158411304589E+01 -0.1023725885994E+00 -0.9430242548602E-01
 0.2071395832537E+01 -0.2211824204120E+01 -0.2808567473507E-01 -0.1576154726380E+00
 0.2516945989235E+01 -0.2274762230168E+01  0.4843675253516E-01 -0.2030351532980E+00
 0.2971316369362E+01 -0.2341599374922E+01  0.1259434007646E+00 -0.2261837399230E+00
 0.3420927330610E+01 -0.2405698585584E+01  0.2030457520307E+00 -0.2245402549108E+00
 0.3851578452441E+01 -0.2460135811756E+01  0.2782885322837E+00 -0.1979551218927E+00
 0.4249655714846E+01 -0.2498532629975E+01  0.3502246221929E+00 -0.1487748919904E+00
-0.7072968910116E+00 -0.2973319095102E+01 -0.7361232081919E+00 -0.6562728176999E-02
-0.6434521072238E+00 -0.3001522991022E+01 -0.7289950305120E+00  0.9693494342978E-02
-0.5823431792557E+00 -0.3028085035409E+01 -0.7220856536929E+00  0.2938655091020E-01
-0.5256162009318E+00 -0.3051978907963E+01 -0.7155190324409E+00  0.5196269426410E-01
-0.4747419639180E+00 -0.3072304727379E+01 -0.7094093488305E+00  0.7679423886186E-01
-0.4309003496330E+00 -0.3088352802330E+01 -0.7038506408809E+00  0.1032248549684E+00
-0.3949198585300E+00 -0.3099623660558E+01 -0.6989087142321E+00  0.1306424838145E+00
-0.3672760358825E+00 -0.3105805027753E+01 -0.6946162230777E+00  0.1585447992050E+00
-0.3481312411690E+00 -0.3106721639552E+01 -0.6909705864405E+00  0.1865752733948E+00
-0.3373917531256E+00 -0.3102277265390E+01 -0.6879338139541E+00  0.2145241364854E+00
-0.3347617852964E+00 -0.3092404066903E+01 -0.6854331806537E+00  0.2423001633411E+00
-0.3397817020847E+00 -0.3077027723396E+01 -0.6833618952790E+00  0.2698838506294E+00
-0.3518450426614E+00 -0.3056050877274E+01 -0.6815791941434E+00  0.2972729278119E+00
-0.3701940605305E+00 -0.3029354199437E+01 -0.6799096621249E+00  0.3244284505465E+00
-0.3938954648780E+00 -0.2996814197431E+01 -0.6781419425668E+00  0.3512263676332E+00
-0.4218038387789E+00 -0.2958331064907E+01 -0.6760269908107E+00  0.3774219148524E+00
-0.4525164305171E+00 -0.2913866001393E+01 -0.6732764964146E+00  0.4026265099165E+00
-0.4843265775229E+00 -0.2863484517647E+01 -0.6695622290113E+00  0.4262978090397E+00
-0.5151861596397E+00 -0.2807396811212E+01 -0.6645166040724E+00  0.4477454516712E+00
-0.5426785875577E+00 -0.2745998224098E+01 -0.6577353721322E+00  0.4661555752958E+00
-0.5640033330999E+00 -0.2679927301732E+01 -0.6487861366341E+00  0.4806641906753E+00
-0.5760024008752E+00 -0.2610124211060E+01 -0.6372253318825E+00  0.4903932646966E+00
-0.5752331194966E+00 -0.2537820666838E+01 -0.6226107665446E+00  0.4944018701542E+00
-0.5580330953165E+00 -0.2464506123411E+01 -0.6045078527533E+00  0.4916713438677E+00
-0.5205771569953E+00 -0.2391905904253E+01 -0.5824966209295E+00  0.4811501806857E+00
-0.4589424022308E+00 -0.2321968935561E+01 -0.5561822758462E+00  0.4618361906718E+00
-0.3691968606998E+00 -0.2256851641436E+01 -0.5252097082534E+00  0.4328879899871E+00
-0.2475263197608E+00 -0.2198880296420E+01 -0.4892813305269E+00  0.3937651138695E+00
-0.9041591165693E-01 -0.2150476909610E+01 -0.4481785709318E+00  0.3443942244855E+00
 0.1050993367557E+00 -0.2114034552390E+01 -0.4017870491139E+00  0.2853498376320E+00
 0.3411462383275E+00 -0.2091726518640E+01 -0.3501160612795E+00  0.2180154912078E+00
 0.6187600132913E+00 -0.2085267188939E+01 -0.2933014395001E+00  0.1446907702918E+00
 0.9375465565879E+00 -0.2095667136385E+01 -0.2316241194108E+00  0.6864748459606E-01
 0.1295231249635E+01 -0.2122959455418E+01 -0.1655456436233E+00 -0.5924772052478E-02
 0.1687299509983E+01 -0.2165925801471E+01 -0.9572525972403E-01 -0.7417044751234E-01
 0.2106791360667E+01 -0.2221909621804E+01 -0.2302365257058E-01 -0.1310095555717E+00
 0.2544336939869E+01 -0.2286794134491E+01  0.5150856184296E-01 -0.1717355091997E+00
 0.2988518211830E+01 -0.2355208557996E+01  0.1266619326542E+00 -0.1926857514196E+00
 0.3426557085312E+01 -0.2420979269040E+01  0.2011155662513E+00 -0.1918512970620E+00
 0.3845279106887E+01 -0.2477779831737E+01  0.2734998591055E+00 -0.1692765932257E+00
 0.4232147283118E+01 -0.2519849882235E+01  0.3424594852798E+00 -0.1271457152997E+00
-0.7125717144336E+00 -0.2991422897102E+01 -0.7407989333459E+00  0.3992684118457E-02
-0.6499748188909E+00 -0.3019019006856E+01 -0.7337987760838E+00  0.1985815657025E-01
-0.5899307057315E+00 -0.3044995504227E+01 -0.7269852528246E+00  0.3876954903024E-01
-0.5340663797446E+00 -0.3068325900300E+01 -0.7204784667448E+00  0.6020249533427E-01
-0.4838382245935E+00 -0.3088100973501E+01 -0.7143878502642E+00  0.8358651241321E-01
-0.4404316855545E+00 -0.3103584273769E+01 -0.7088032024267E+00  0.1083382663193E+00
-0.4047041573976E+00 -0.3114232706330E+01 -0.7037873832327E+00  0.1339186314748E+00
-0.3771768707209E+00 -0.3119680708391E+01 -0.6993715262439E+00  0.1598854007421E+00
-0.3580633976181E+00 -0.3119699684604E+01 -0.6955526268090E+00  0.1859229824462E+00
-0.3473155978330E+00 -0.3114148523538E+01 -0.6922928345902E+00  0.2118431557355E+00
-0.3446693635085E+00 -0.3102928615425E+01 -0.6895196060614E+00  0.2375608144620E+00
-0.3496782253038E+00 -0.3085951740045E+01 -0.6871260033086E+00  0.2630530955225E+00
-0.3617290192842E+00 -0.3063124103396E+01 -0.6849706347429E+00  0.2883112479713E+00
-0.3800385396816E+00 -0.3034346669127E+01 -0.6828770519374E+00  0.3132926317158E+00
-0.4036321646931E+00 -0.2999531594212E+01 -0.6806327619232E+00  0.3378773924753E+00
-0.4313113819804E+00 -0.2958628114364E+01 -0.6779879093717E+00  0.3618366234508E+00
-0.4616133886628E+00 -0.2911657742137E+01 -0.6746542362131E+00  0.3848116708880E+00
-0.4927694451106E+00 -0.2858755564754E+01 -0.6703050119612E+00  0.4063051212264E+00
-0.5226716654395E+00 -0.2800208732626E+01 -0.6645760895162E+00  0.4256858066970E+00
-0.5488496675508E+00 -0.2736494501481E+01 -0.6570688435975E+00  0.4422110871568E+00
-0.5684583717575E+00 -0.2668330502814E+01 -0.6473577845607E+00  0.4550945671190E+00
-0.5783025811351E+00 -0.2596729793161E+01 -0.6350064843215E+00  0.4635381735185E+00
-0.5749063450329E+00 -0.2522998532272E+01 -0.6195809846935E+00  0.4666867482857E+00
-0.5545815196842E+00 -0.2448706972773E+01 -0.6006577074420E+00  0.4636170461224E+00
-0.5134942214893E+00 -0.2375664181500E+01 -0.5778316892082E+00  0.4533831591923E+00
-0.4477427924558E+00 -0.2305896663844E+01 -0.5507278994664E+00  0.4350959169130E+00
-0.3534615701249E+00 -0.2241619688404E+01 -0.5190162594398E+00  0.4080278959452E+00
-0.2269635284408E+00 -0.2185185176912E+01 -0.4824297482593E+00  0.3717424263810E+00
-0.6493599675899E-01 -0.2138992922767E+01 -0.4407857904733E+00  0.3262431292868E+00
 0.1353002047190E+00 -0.2105353700576E+01 -0.3940107050426E+00  0.2721320658440E+00
 0.3755030369913E+00 -0.2086293625563E+01 -0.3421581228130E+00  0.2107447985539E+00
 0.6562689616525E+00 -0.2083321579794E+01 -0.2854105278812E+00  0.1442313459726E+00
 0.9767313828657E+00 -0.2097201488310E+01 -0.2240940244281E+00  0.7558550863485E-01
 0.1334171810199E+01 -0.2127711868422E+01 -0.1587080140096E+00  0.8571697382543E-02
 0.1723740809088E+01 -0.2173424357709E+01 -0.8993671106449E-01 -0.5252006311752E-01
 0.2138339437155E+01 -0.2231577455468E+01 -0.1864760394051E-01 -0.1032759994208E+00
 0.2568727596997E+01 -0.2298107604468E+01  0.5412399931235E-01 -0.1396803883902E+00
 0.3003918851256E+01 -0.2367882202209E+01  0.1272073317050E+00 -0.1586805159756E+00
 0.3431840166526E+01 -0.2435134535953E+01  0.1993411290850E+00 -0.1586823065668E+00
 0.3840199883756E+01 -0.2494050823595E+01  0.2692298160441E+00 -0.1398624543111E+00
 0.4217384719285E+01 -0.2539399817554E+01  0.3355969853470E+00 -0.1042265752332E+00
-0.7177749955103E+00 -0.3009556377931E+01 -0.7454662857965E+00  0.1432131638857E-01
-0.6562836633949E+00 -0.3036606194292E+01 -0.7385779825431E+00  0.2980201019072E-01
-0.5971669503649E+00 -0.3062054087202E+01 -0.7318442184187E+00  0.4793637849076E-01
-0.5420426268695E+00 -0.3084869338794E+01 -0.7253824039417E+00  0.6822890045882E-01
-0.4923603759267E+00 -0.3104131778092E+01 -0.7192984415221E+00  0.9016160655118E-01
-0.4493140470268E+00 -0.3119080405836E+01 -0.7136789012073E+00  0.1132181081151E+00
-0.4137877528998E+00 -0.3129134060310E+01 -0.7085843732007E+00  0.1369275838298E+00
-0.3863428642586E+00 -0.3133881194393E+01 -0.7040448222214E+00  0.1609063186466E+00
-0.3672374404605E+00 -0.3133047202445E+01 -0.7000569390129E+00  0.1848812163174E+00
-0.3564628304561E+00 -0.3126452199728E+01 -0.6965830164168E+00  0.2086896293646E+00
-0.3537822482921E+00 -0.3113971114366E+01 -0.6935506828663E+00  0.2322580595451E+00
-0.3587602313311E+00 -0.3095504226047E+01 -0.6908529017701E+00  0.2555663782215E+00
-0.3707769914723E+00 -0.3070961910855E+01 -0.6883477907226E+00  0.2786054786602E+00
-0.3890259901552E+00 -0.3040264408138E+01 -0.6858580898787E+00  0.3013348493969E+00
-0.4124951228986E+00 -0.3003357029460E+01 -0.6831704406518E+00  0.3236441719885E+00
-0.4399379168080E+00 -0.2960234231498E+01 -0.6800344397944E+00  0.3453251282023E+00
-0.4698374164021E+00 -0.2910972859514E+01 -0.6761620652588E+00  0.3660530566241E+00
-0.5003689154508E+00 -0.2855771612337E+01 -0.6712281155596E+00  0.3853788984145E+00
-0.5293706203266E+00 -0.2794987798610E+01 -0.6648716936946E+00  0.4027335869799E+00
-0.5543236525454E+00 -0.2729173169831E+01 -0.6566993742609E+00  0.4174481795372E+00
-0.5723428757106E+00 -0.2659117322055E+01 -0.6462920491837E+00  0.4288156583176E+00
-0.5801999952074E+00 -0.2585899616510E+01 -0.6332199317792E+00  0.4361192099802E+00
-0.5743903036293E+00 -0.2510893264188E+01 -0.6170567227584E+00  0.4385907127107E+00
-0.5512049962927E+00 -0.2435740096999E+01 -0.5973890275601E+00  0.4354029351463E+00
-0.5068065078976E+00 -0.2362321872153E+01 -0.5738256845609E+00  0.4257140691533E+00
-0.4373181569122E+00 -0.2292730495496E+01 -0.5460097386178E+00  0.4087427731938E+00
-0.3389412196291E+00 -0.2229228003249E+01 -0.5136338522293E+00  0.3838652554977E+00
-0.2081110536683E+00 -0.2174181693341E+01 -0.4764585565016E+00  0.3507321496859E+00
-0.4170418283950E-01 -0.2129962865901E+01 -0.4343334162201E+00  0.3094011434950E+00
 0.1626968735194E+00 -0.2098800274102E+01 -0.3872206858866E+00  0.2604736154619E+00
 0.4065189100955E+00 -0.2082581988834E+01 -0.3352126207428E+00  0.2052063913672E+00
 0.6899722697812E+00 -0.2082630739091E+01 -0.2785316980124E+00  0.1455713220281E+00
 0.1011783896392E+01 -0.2099493702985E+01 -0.2175419645603E+00  0.8426481641995E-01
 0.1368864603029E+01 -0.2132732926333E+01 -0.1527736669373E+00  0.2462462521158E-01
 0.1756099008295E+01 -0.2180749539280E+01 -0.8493010746249E-01 -0.2960092450372E-01
 0.2166298047702E+01 -0.2240707590278E+01 -0.1488190873694E-01 -0.7461200970627E-01
 0.2590363066191E+01 -0.2308606346431E+01  0.5635134479176E-01 -0.1070072657062E+00
 0.3017700904514E+01 -0.2379530685300E+01  0.1276340457446E+00 -0.1242561905084E+00
 0.3436853804386E+01 -0.2448068173663E+01  0.1977571290914E+00 -0.1251009968143E+00
 0.3836286756122E+01 -0.2508843146066E+01  0.2654887259672E+00 -0.1098005101615E+00
 0.4205174461771E+01 -0.2557074985787E+01  0.3296199001084E+00 -0.8016736644964E-01
-0.7229099762355E+00 -0.3027737515498E+01 -0.7501295095245E+00  0.2444765579613E-01
-0.6623805876048E+00 -0.3054304119086E+01 -0.7433369524147E+00  0.3954885690204E-01
-0.6040533629513E+00 -0.3079282760134E+01 -0.7366672355942E+00  0.5690872890084E-01
-0.5495450210375E+00 -0.3101635191878E+01 -0.7302360534645E+00  0.7606041023905E-01
-0.5003052705831E+00 -0.3120428882506E+01 -0.7241468414084E+00  0.9653490456137E-01
-0.4575392038734E+00 -0.3134880035342E+01 -0.7184838585493E+00  0.1178780340888E+00
-0.4221562344943E+00 -0.3144374114740E+01 -0.7133060804759E+00  0.1396835899649E+00
-0.3947533944874E+00 -0.3148459991744E+01 -0.7086426878059E+00  0.1616250562665E+00
-0.3756274830745E+00 -0.3146823691141E+01 -0.7044902453408E+00  0.1834731922200E+00
-0.3648039360107E+00 -0.3139252279883E+01 -0.7008112536217E+00  0.2050944198535E+00
-0.3620693124778E+00 -0.3125598382159E+01 -0.6975335493215E+00  0.2264316764376E+00
-0.3669971410082E+00 -0.3105753137534E+01 -0.6945500660580E+00  0.2474729890170E+00
-0.3789610853444E+00 -0.3079631668194E+01 -0.6917185610151E+00  0.2682143830679E+00
-0.3971333133533E+00 -0.3047172396496E+01 -0.6888611522348E+00  0.2886227065437E+00
-0.4204679456313E+00 -0.3008351165002E+01 -0.6857638323453E+00  0.3086019625740E+00
-0.4476755065129E+00 -0.2963203665344E+01 -0.6821758445367E+00  0.3279686461161E+00
-0.4771905936812E+00 -0.2911856913373E+01 -0.6778095115111E+00  0.3464357037004E+00
-0.5071384663999E+00 -0.2854567066035E+01 -0.6723411165056E+00  0.3636054676770E+00
-0.5353091420115E+00 -0.2791754606182E+01 -0.6654127595542E+00  0.3789735313751E+00
-0.5591404370299E+00 -0.2724038192513E+01 -0.6566357356932E+00  0.3919467786397E+00
-0.5757115602885E+00 -0.2652272131163E+01 -0.6455967479105E+00  0.4018990145484E+00
-0.5817650679218E+00 -0.2577595414951E+01 -0.6318721059902E+00  0.4081956144721E+00
-0.5737716370139E+00 -0.2501440933333E+01 -0.6150425232343E+00  0.4101562811801E+00
-0.5480061013618E+00 -0.2425513156666E+01 -0.5947038604673E+00  0.4070498537331E+00
-0.5006309143775E+00 -0.2351756172702E+01 -0.5704774259167E+00  0.3981366811173E+00
-0.4277961758322E+00 -0.2282316343539E+01 -0.5420225119510E+00  0.3827379153515E+00
-0.3257682453828E+00 -0.2219492248430E+01 -0.5090521063481E+00  0.3603234564634E+00
-0.1910971912179E+00 -0.2165658750996E+01 -0.4713511954665E+00  0.3306159304501E+00
-0.2083285124859E-01 -0.2123155290131E+01 -0.4287976346655E+00  0.2937064223523E+00
 0.1872068980556E+00 -0.2094131849737E+01 -0.3813849960193E+00  0.2501708329438E+00
 0.4341561014710E+00 -0.2080350029046E+01 -0.3292387904210E+00  0.2011610923506E+00
 0.7198897952855E+00 -0.2082966888830E+01 -0.2726154227712E+00  0.1484476678237E+00
 0.1042789139164E+01 -0.2102341738418E+01 -0.2119105230084E+00  0.9441540573381E-01
 0.1399458179027E+01 -0.2137854491997E+01 -0.1476792647945E+00  0.4197735722326E-01
 0.1784572159362E+01 -0.2187769017837E+01 -0.8063937289673E-01 -0.5636239565096E-02
 0.2190887605280E+01 -0.2249197966576E+01 -0.1166207243310E-01 -0.4519270631058E-01
 0.2609448688570E+01 -0.2318206763890E+01  0.5824838580392E-01 -0.7383963479674E-01
 0.3030013809716E+01 -0.2390074799436E+01  0.1279878039633E+00 -0.8949617705609E-01
 0.3441656608147E+01 -0.2459694836952E+01  0.1963923571655E+00 -0.9117706629898E-01
 0.3833485823705E+01 -0.2522062920884E+01  0.2622845844725E+00 -0.7918258348069E-01
 0.4195342873758E+01 -0.2572779113047E+01  0.3245127569777E+00 -0.5512009413747E-01
-0.7279798349563E+00 -0.3045984526323E+01 -0.7547928835032E+00  0.3439663731424E-01
-0.6682670880210E+00 -0.3072132563042E+01 -0.7480799413599E+00  0.4912305705872E-01
-0.6105904705897E+00 -0.3096703508011E+01 -0.7414588067687E+00  0.6570927378992E-01
-0.5565725070850E+00 -0.3118648896264E+01 -0.7350442916227E+00  0.8371712411045E-01
-0.5076688573957E+00 -0.3137022602268E+01 -0.7289383027948E+00  0.1027239673957E+00
-0.4650986617408E+00 -0.3151019441737E+01 -0.7232236314723E+00  0.1223342235024E+00
-0.4297958060109E+00 -0.3159995513318E+01 -0.7179582745642E+00  0.1422034604219E+00
-0.4023893703498E+00 -0.3163465763032E+01 -0.7131710373035E+00  0.1620614339281E+00
-0.3832099687426E+00 -0.3161082896352E+01 -0.7088585835818E+00  0.1817240092641E+00
-0.3723123229720E+00 -0.3152606298897E+01 -0.7049837348788E+00  0.2010897356550E+00
-0.3695027071910E+00 -0.3137870284854E+01 -0.7014746088617E+00  0.2201222083257E+00
-0.3743617659577E+00 -0.3116759153560E+01 -0.6982241943079E+00  0.2388223753588E+00
-0.3862566945956E+00 -0.3089193310201E+01 -0.6950900113169E+00  0.2571962362621E+00
-0.4043403277902E+00 -0.3055128201128E+01 -0.6918937160937E+00  0.2752226163039E+00
-0.4275365886981E+00 -0.3014567470931E+01 -0.6884208221840E+00  0.2928240562823E+00
-0.4545177944100E+00 -0.2967583924939E+01 -0.6844203540684E+00  0.3098455733320E+00
-0.4836756276491E+00 -0.2914349435528E+01 -0.6796050227623E+00  0.3260408855330E+00
-0.5130910839197E+00 -0.2855171304519E+01 -0.6736524877259E+00  0.3410663631569E+00
-0.5405115773079E+00 -0.2790526046168E+01 -0.6662075346224E+00  0.3544844703740E+00
-0.5633366963684E+00 -0.2721091501636E+01 -0.6568856493893E+00  0.3657797143857E+00
-0.5786142813762E+00 -0.2647779337124E+01 -0.6452787333155E+00  0.3744078598860E+00
-0.5830615068312E+00 -0.2571781456505E+01 -0.6309686020694E+00  0.3798170844575E+00
-0.5731281879585E+00 -0.2494583116314E+01 -0.6135422699969E+00  0.3814153212496E+00
-0.5450763451168E+00 -0.2417942787771E+01 -0.5926038354079E+00  0.3785671450527E+00
-0.4950709271115E+00 -0.2343857212019E+01 -0.5677856362868E+00  0.3706328761708E+00
-0.4192888872583E+00 -0.2274517428315E+01 -0.5387612711428E+00  0.3570309269344E+00
-0.3140576284421E+00 -0.2212250030100E+01 -0.5052615392373E+00  0.3373156101285E+00
-0.1760318060846E+00 -0.2159431822773E+01 -0.4670927327318E+00  0.3112676634469E+00
-0.2416341860536E-02 -0.2118369514296E+01 -0.4241571775517E+00  0.2789932734430E+00
 0.2087635428577E+00 -0.2091140011960E+01 -0.3764752994303E+00  0.2410214432722E+00
 0.4583877901229E+00 -0.2079391858810E+01 -0.3242008185684E+00  0.1983772696152E+00
 0.7460448986977E+00 -0.2084137548166E+01 -0.2676185338816E+00  0.1526112239394E+00
 0.1069825907420E+01 -0.2105576130929E+01 -0.2071500477886E+00  0.1057864774824E+00
 0.1426083918420E+01 -0.2142936217949E+01 -0.1433704620422E+00  0.6039546666831E-01
 0.1809331047442E+01 -0.2194372263647E+01 -0.7700824438841E-01  0.1917265577831E-01
 0.2212294602880E+01 -0.2256962512862E+01 -0.8933582129487E-02 -0.1517538627078E-01
 0.2626155203777E+01 -0.2326837119289E+01  0.5986361778969E-01 -0.4029001160033E-01
 0.3040979045872E+01 -0.2399445644035E+01  0.1283066822793E+00 -0.5448037242826E-01
 0.3446292360537E+01 -0.2469940052437E+01  0.1952704645298E+00 -0.5698214779917E-01
 0.3831745251591E+01 -0.2533628110846E+01  0.2596234320176E+00 -0.4810424587983E-01
 0.4187736571505E+01 -0.2586427635483E+01  0.3202617919767E+00 -0.2923884759544E-01
-0.7329876730740E+00 -0.3064315614310E+01 -0.7594606687937E+00  0.4419365365228E-01
-0.6739443007415E+00 -0.3090111251268E+01 -0.7528111216197E+00  0.5854951216537E-01
-0.6167780600639E+00 -0.3114338062840E+01 -0.7462232357004E+00  0.7436155841069E-01
-0.5631231088937E+00 -0.3135935155500E+01 -0.7398116639028E+00  0.9122049733291E-01
-0.5144463497791E+00 -0.3153941727058E+01 -0.7336776263000E+00  0.1087481748585E+00
-0.4719837360277E+00 -0.3167532358300E+01 -0.7279032297121E+00  0.1266049595067E+00
-0.4366932546292E+00 -0.3176037251835E+01 -0.7225461120596E+00  0.1445061441461E+00
-0.4092331150435E+00 -0.3178942480454E+01 -0.7176351297931E+00  0.1622372106242E+00
-0.3899634978251E+00 -0.3175872983795E+01 -0.7131673069510E+00  0.1796603378747E+00
-0.3789641183339E+00 -0.3166565515959E+01 -0.7091059374252E+00  0.1967088931968E+00
-0.3760576366272E+00 -0.3150839916291E+01 -0.7053795210947E+00  0.2133707951163E+00
-0.3808300639089E+00 -0.3128575876704E+01 -0.7018811985814E+00  0.2296640400374E+00
-0.3926422112269E+00 -0.3099699580437E+01 -0.6984683687407E+00  0.2456087927222E+00
-0.4106294691765E+00 -0.3064182280870E+01 -0.6949623603651E+00  0.2611998470090E+00
-0.4336890229708E+00 -0.3022052608492E+01 -0.6911483365914E+00  0.2763819148670E+00
-0.4604596328671E+00 -0.2973416249090E+01 -0.6867751866252E+00  0.2910317208786E+00
-0.4892954447491E+00 -0.2918484490002E+01 -0.6815559971061E+00  0.3049464622649E+00
-0.5182388175118E+00 -0.2857609329743E+01 -0.6751696395117E+00  0.3178388027411E+00
-0.5450000237519E+00 -0.2791316039148E+01 -0.6672632225230E+00  0.3293399436891E+00
-0.5669453843737E+00 -0.2720333810008E+01 -0.6574558486732E+00  0.3390134948030E+00
-0.5810955304852E+00 -0.2645624252835E+01 -0.6453439662805E+00  0.3463980398946E+00
-0.5841458322009E+00 -0.2568425444868E+01 -0.6305142648093E+00  0.3510249098526E+00
-0.5725286215121E+00 -0.2490267785094E+01 -0.6125592904490E+00  0.3523903806725E+00
-0.5424959609588E+00 -0.2412955415621E+01 -0.5910902841239E+00  0.3499541715622E+00
-0.4902166735507E+00 -0.2338528699712E+01 -0.5657490830828E+00  0.3431743245754E+00
-0.4118931146120E+00 -0.2269214640829E+01 -0.5362215590785E+00  0.3315615957136E+00
-0.3039078075061E+00 -0.2207360830665E+01 -0.5022537351184E+00  0.3147463179679E+00
-0.1630078157662E+00 -0.2155342293897E+01 -0.4636700288419E+00  0.2925550833810E+00
 0.1346697422340E-01 -0.2115434244435E+01 -0.4203934603067E+00  0.2650933478360E+00
 0.2273132187169E+00 -0.2089648175881E+01 -0.3724669969830E+00  0.2328250698792E+00
 0.4791952996164E+00 -0.2079534356847E+01 -0.3200678162156E+00  0.1966304155679E+00
 0.7684618714606E+00 -0.2085982066530E+01 -0.2635040429404E+00  0.1578251495919E+00
 0.1092964982304E+01 -0.2109056357230E+01 -0.2032182780135E+00  0.1181437411954E+00
 0.1448855656959E+01 -0.2147862208870E+01 -0.1398013124652E+00  0.7966317575972E-01
 0.1830520605818E+01 -0.2200467956071E+01 -0.7398947115318E-01  0.4464238707567E-01
 0.2230674770773E+01 -0.2263929562121E+01 -0.6650958368628E-02  0.1529698965479E-01
 0.2640623007894E+01 -0.2334436879286E+01  0.6123722663400E-01 -0.6462284886287E-02
 0.3050694369128E+01 -0.2407584499549E+01  0.1286219758326E+00 -0.1928609109970E-01
 0.3450793163089E+01 -0.2478740207870E+01  0.1944105939408E+00 -0.2258968929100E-01
 0.3831016899207E+01 -0.2543468609970E+01  0.2575096616847E+00 -0.1666442567381E-01
 0.4182222509013E+01 -0.2597948112293E+01  0.3168548840655E+00 -0.2679602631231E-02
-0.7379365042266E+00 -0.3082748773126E+01 -0.7641370668571E+00  0.5386455602757E-01
-0.6794130702804E+00 -0.3108259637046E+01 -0.7575345527535E+00  0.6785364339338E-01
-0.6226153187894E+00 -0.3132207695231E+01 -0.7509646139942E+00  0.8288989850676E-01
-0.5691940955544E+00 -0.3153517776720E+01 -0.7445423855495E+00  0.9859312632221E-01
-0.5206323586449E+00 -0.3171213435198E+01 -0.7383691697711E+00  0.1146284054289E+00
-0.4781856106513E+00 -0.3184449974353E+01 -0.7325271279164E+00  0.1307102450254E+00
-0.4428359245468E+00 -0.3192534753743E+01 -0.7270741464923E+00  0.1466123332575E+00
-0.4152682675914E+00 -0.3194929547398E+01 -0.7220395737570E+00  0.1621757216832E+00
-0.3958686797280E+00 -0.3191236681377E+01 -0.7174210829114E+00  0.1773101168655E+00
-0.3847379893690E+00 -0.3181175063754E+01 -0.7131826212518E+00  0.1919860842922E+00
-0.3817121599733E+00 -0.3164553755290E+01 -0.7092531936213E+00  0.2062190135976E+00
-0.3863809224385E+00 -0.3141250010248E+01 -0.7055261970504E+00  0.2200474549622E+00
-0.3980987876839E+00 -0.3111196245575E+01 -0.7018590171104E+00  0.2335092772235E+00
-0.4159855263938E+00 -0.3074378254760E+01 -0.6980727666328E+00  0.2466185972794E+00
-0.4389149408874E+00 -0.3030846765232E+01 -0.6939523515647E+00  0.2593453387903E+00
-0.4654967587240E+00 -0.2980736016294E+01 -0.6892465652742E+00  0.2716005882691E+00
-0.4940528345617E+00 -0.2924291161102E+01 -0.6836688093203E+00  0.2832272698694E+00
-0.5225923930951E+00 -0.2861902332897E+01 -0.6768989552850E+00  0.2939962041061E+00
-0.5487939150490E+00 -0.2794136175183E+01 -0.6685860280092E+00  0.3036088557545E+00
-0.5699953014442E+00 -0.2721765315139E+01 -0.6583521331269E+00  0.3117091141385E+00
-0.5831940062441E+00 -0.2645793848564E+01 -0.6457975805847E+00  0.3179189945273E+00
-0.5850669863735E+00 -0.2567499291638E+01 -0.6305132649977E+00  0.3218531189826E+00
-0.5720321230436E+00 -0.2488450059575E+01 -0.6120964456446E+00  0.3230960057240E+00
-0.5403337601355E+00 -0.2410487929024E+01 -0.5901643466261E+00  0.3212017892700E+00
-0.4861450171126E+00 -0.2335688440907E+01 -0.5643667000136E+00  0.3157240758192E+00
-0.4056908941411E+00 -0.2266306793683E+01 -0.5343995455280E+00  0.3062615466365E+00
-0.2954015276145E+00 -0.2204705873024E+01 -0.5000214875786E+00  0.2925132328552E+00
-0.1521025205335E+00 -0.2153256813363E+01 -0.4610718736498E+00  0.2743410922214E+00
 0.2675288556072E-01 -0.2114206310963E+01 -0.4174906913016E+00  0.2518365277175E+00
 0.2428133009233E+00 -0.2089509671740E+01 -0.3693392796669E+00  0.2253834544223E+00
 0.4965657861336E+00 -0.2080634664767E+01 -0.3168137804477E+00  0.1957024933521E+00
 0.7871638773176E+00 -0.2088368727627E+01 -0.2602409739397E+00  0.1638632810497E+00
 0.1112267801553E+01 -0.2112667862406E+01 -0.2000800151520E+00  0.1312668396206E+00
 0.1467869544155E+01 -0.2152538353529E+01 -0.1369337639154E+00  0.9958012762981E-01
 0.1848261227153E+01 -0.2205981955493E+01 -0.7154414673402E-01  0.7060416625742E-01
 0.2246155742937E+01 -0.2270040626922E+01 -0.4776976868217E-02  0.4609290322777E-01
 0.2652965628970E+01 -0.2340956195040E+01  0.6240188771586E-01  0.2754640682011E-01
 0.3059237235596E+01 -0.2414442703654E+01  0.1289589083100E+00  0.1601124777848E-01
 0.3455182006533E+01 -0.2486042542036E+01  0.1938278957877E+00  0.1192523100560E-01
 0.3831257652883E+01 -0.2551526327805E+01  0.2559462688295E+00  0.1503506950600E-01
 0.4178687908702E+01 -0.2607280560649E+01  0.3142814742936E+00  0.2440006348646E-01
-0.7428292450230E+00 -0.3101301635813E+01 -0.7688261876236E+00  0.6343564780193E-01
-0.6846740003967E+00 -0.3126596738234E+01 -0.7622541590845E+00  0.7706136711595E-01
-0.6281009399301E+00 -0.3150333055327E+01 -0.7556868103120E+00  0.9131928737901E-01
-0.5747821059714E+00 -0.3171419544952E+01 -0.7492403413492E+00  0.1058585557254E+00
-0.5262209920235E+00 -0.3188863226558E+01 -0.7430168547881E+00  0.1203867462749E+00
-0.4836953804957E+00 -0.3201800935648E+01 -0.7370992742125E+00  0.1346714487357E+00
-0.4482116923854E+00 -0.3209519928573E+01 -0.7315463350926E+00  0.1485440909958E+00
-0.4204797000135E+00 -0.3211461895000E+01 -0.7263883298267E+00  0.1619015305791E+00
-0.4009080087288E+00 -0.3207211394738E+01 -0.7216238914465E+00  0.1747022579216E+00
-0.3896149932807E+00 -0.3196474072554E+01 -0.7172178238543E+00  0.1869561487182E+00
-0.3864470233771E+00 -0.3179051798998E+01 -0.7130997751010E+00  0.1987087248608E+00
-0.3909959749513E+00 -0.3154821510252E+01 -0.7091635076081E+00  0.2100219870258E+00
-0.4026101343824E+00 -0.3123722279932E+01 -0.7052664933722E+00  0.2209543933962E+00
-0.4203954169785E+00 -0.3085753132634E+01 -0.7012297203717E+00  0.2315420936057E+00
-0.4432055071180E+00 -0.3040983942328E+01 -0.6968379002729E+00  0.2417826619352E+00
-0.4696255176575E+00 -0.2989573095449E+01 -0.6918397329305E+00  0.2516236644027E+00
-0.4979501474370E+00 -0.2931793970471E+01 -0.6859488338031E+00  0.2609555368046E+00
-0.5261608847488E+00 -0.2868068177446E+01 -0.6788458225547E+00  0.2696087273348E+00
-0.5519096707107E+00 -0.2798996258868E+01 -0.6701811959022E+00  0.2773561552038E+00
-0.5725107318407E+00 -0.2725386297304E+01 -0.6595794156575E+00  0.2839228797694E+00
-0.5849422581878E+00 -0.2648277387267E+01 -0.6466439387267E+00  0.2890147407375E+00
-0.5858660147148E+00 -0.2568979764303E+01 -0.6309691652057E+00  0.2923296198053E+00
-0.5716881606519E+00 -0.2489092831603E+01 -0.6121562075728E+00  0.2935400334919E+00
-0.5386470340042E+00 -0.2410488228001E+01 -0.5898270611902E+00  0.2922937664530E+00
-0.4829196696643E+00 -0.2335268737010E+01 -0.5636376897337E+00  0.2882380547198E+00
-0.4007498736999E+00 -0.2265710786075E+01 -0.5332921399016E+00  0.2810557346193E+00
-0.2886065942995E+00 -0.2204187948674E+01 -0.4985589160237E+00  0.2705084305089E+00
-0.1433787539654E+00 -0.2153066686037E+01 -0.4592890948444E+00  0.2564848530398E+00
 0.3738980934502E-01 -0.2114569551662E+01 -0.4154359546538E+00  0.2390515572073E+00
 0.2552303217268E+00 -0.2090606102755E+01 -0.3670751616755E+00  0.2185004346198E+00
 0.5104903685314E+00 -0.2082578090783E+01 -0.3144175491355E+00  0.1953811101999E+00
 0.8021713409480E+00 -0.2091192373220E+01 -0.2578042102959E+00  0.1705084453871E+00
 0.1127785488243E+01 -0.2116319667674E+01 -0.1977068388323E+00  0.1449469033042E+00
 0.1483204057126E+01 -0.2156890216627E+01 -0.1347372339079E+00  0.1199584719431E+00
 0.1862649937945E+01 -0.2210855727328E+01 -0.6964115891424E-01  0.9690086599297E-01
 0.2258839274343E+01 -0.2275249456164E+01 -0.3282036413158E-02  0.7708986389457E-01
 0.2663272537357E+01 -0.2346355495112E+01  0.6338340939334E-01  0.6164417783738E-01
 0.3066667543545E+01 -0.2419981546538E+01  0.1293372013286E+00  0.5133764159545E-01
 0.3459474840035E+01 -0.2491805142991E+01  0.1935339422926E+00  0.4648617873174E-01
 0.3832430471214E+01 -0.2557755269572E+01  0.2549350441272E+00  0.4689011020259E-01
 0.4177040170342E+01 -0.2614377727745E+01  0.3125324931764E+00  0.5184135490931E-01
-0.7476687088985E+00 -0.3119991367376E+01 -0.7735320267814E+00  0.7293367333405E-01
-0.6897274901699E+00 -0.3145141020418E+01 -0.7669737135464E+00  0.8619906842881E-01
-0.6332331969264E+00 -0.3168734059216E+01 -0.7603934625591E+00  0.9967530916811E-01
-0.5798832366469E+00 -0.3189662133490E+01 -0.7539090852614E+00  0.1130411016696E+00
-0.5312059237142E+00 -0.3206914875366E+01 -0.7476241709564E+00  0.1260462259624E+00
-0.4885040770233E+00 -0.3219611346582E+01 -0.7416230957720E+00  0.1385109740648E+00
-0.4528089420363E+00 -0.3227021217202E+01 -0.7359660428144E+00  0.1503244978579E+00
-0.4248534475761E+00 -0.3228570056336E+01 -0.7306847116704E+00  0.1614400923579E+00
-0.4050657620491E+00 -0.3223829296586E+01 -0.7257790225419E+00  0.1718663567177E+00
-0.3935784544213E+00 -0.3212495767390E+01 -0.7212148551093E+00  0.1816543518194E+00
-0.3902455226519E+00 -0.3194367668956E+01 -0.7169226490045E+00  0.1908819284820E+00
-0.3946594500254E+00 -0.3169323708325E+01 -0.7127966422915E+00  0.1996368346228E+00
-0.4061623536121E+00 -0.3137310016050E+01 -0.7086944844929E+00  0.2080003474676E+00
-0.4238480025989E+00 -0.3098337504562E+01 -0.7044371119290E+00  0.2160327070557E+00
-0.4465531532552E+00 -0.3052492191513E+01 -0.6998090793817E+00  0.2237609681711E+00
-0.4728426368156E+00 -0.2999952135767E+01 -0.6945589648662E+00  0.2311707517396E+00
-0.5009890448135E+00 -0.2941013222336E+01 -0.6884004636880E+00  0.2382013242245E+00
-0.5289514437946E+00 -0.2876121799229E+01 -0.6810146587526E+00  0.2447438402652E+00
-0.5543604077179E+00 -0.2805904760511E+01 -0.6720530436601E+00  0.2506435347591E+00
-0.5745111469006E+00 -0.2731197613564E+01 -0.6611417619446E+00  0.2557072548735E+00
-0.5863663981168E+00 -0.2653066947331E+01 -0.6478866787439E+00  0.2597248627610E+00
-0.5865758113856E+00 -0.2572849015978E+01 -0.6318849748886E+00  0.2624773360785E+00
-0.5715363027417E+00 -0.2492167269821E+01 -0.6127407236430E+00  0.2637248605654E+00
-0.5374814920396E+00 -0.2412915658916E+01 -0.5900794389840E+00  0.2632081534378E+00
-0.4805913076296E+00 -0.2337216691623E+01 -0.5635616082483E+00  0.2606664762198E+00
-0.3971236677794E+00 -0.2267361707337E+01 -0.5328970829640E+00  0.2558638180274E+00
-0.2835765202591E+00 -0.2205731237862E+01 -0.4978615590429E+00  0.2486196222343E+00
-0.1368858481312E+00 -0.2154687333227E+01 -0.4583146431010E+00  0.2388426924885E+00
 0.4533752984934E-01 -0.2116433861280E+01 -0.4142192724585E+00  0.2265664678468E+00
 0.2645385069805E+00 -0.2092845981478E+01 -0.3656615003483E+00  0.2119817352434E+00
 0.5209626444555E+00 -0.2085276401401E+01 -0.3128627560510E+00  0.1954585659289E+00
 0.8135007040564E+00 -0.2094372498630E+01 -0.2561743627320E+00  0.1775507567811E+00
 0.1139558144821E+01 -0.2119942482677E+01 -0.1960768704930E+00  0.1589842269584E+00
 0.1494920088624E+01 -0.2160861399195E+01 -0.1331882640989E+00  0.1406202117217E+00
 0.1873761393099E+01 -0.2215045130480E+01 -0.6825674849338E-01  0.1233844504604E+00
 0.2268803025809E+01 -0.2279521311819E+01 -0.2143657233895E-02  0.1081723612163E+00
 0.2671611361886E+01 -0.2350605165855E+01  0.6420124016289E-01  0.9574318414956E-01
 0.3073029779887E+01 -0.2424172180602E+01  0.1297715217908E+00  0.8662018665371E-01
 0.3463682186121E+01 -0.2495996943996E+01  0.1935370513088E+00  0.8101571086264E-01
 0.3834505188527E+01 -0.2562121595140E+01  0.2544767224694E+00  0.7879485797324E-01
 0.4177206700168E+01 -0.2619205298933E+01  0.3116002848902E+00  0.7948471801093E-01
-0.7524576018222E+00 -0.3138834596673E+01 -0.7782584512960E+00  0.8238580341236E-01
-0.6945737564318E+00 -0.3163910322777E+01 -0.7716968273409E+00  0.9529357311823E-01
-0.6380099896926E+00 -0.3187429817088E+01 -0.7650879727568E+00  0.1079840561578E+00
-0.5844930947109E+00 -0.3208266048082E+01 -0.7585518398619E+00  0.1201656859160E+00
-0.5355804313798E+00 -0.3225390402629E+01 -0.7521941780104E+00  0.1316305626889E+00
-0.4926026755099E+00 -0.3237904775348E+01 -0.7461015012893E+00  0.1422519440805E+00
-0.4566165362003E+00 -0.3245063625268E+01 -0.7403360433255E+00  0.1519773104339E+00
-0.4283766493108E+00 -0.3246280218462E+01 -0.7349313845060E+00  0.1608174254079E+00
-0.4083279181715E+00 -0.3241117388301E+01 -0.7298890721706E+00  0.1688324093019E+00
-0.3966138681728E+00 -0.3229267535006E+01 -0.7251762914417E+00  0.1761161668904E+00
-0.3930933967167E+00 -0.3210528685374E+01 -0.7207244271578E+00  0.1827806235865E+00
-0.3973580545662E+00 -0.3184783400094E+01 -0.7164283016077E+00  0.1889409748504E+00
-0.4087438102368E+00 -0.3151985256554E+01 -0.7121458239700E+00  0.1947028870248E+00
-0.4263339445991E+00 -0.3112155684979E+01 -0.7076979364612E+00  0.2001520889334E+00
-0.4489514161415E+00 -0.3065393798475E+01 -0.7028690533969E+00  0.2053463298922E+00
-0.4751450448806E+00 -0.3011892793745E+01 -0.6974075781173E+00  0.2103103144708E+00
-0.5031703009790E+00 -0.2951965275845E+01 -0.6910271256619E+00  0.2150329912850E+00
-0.5309690835062E+00 -0.2886075523482E+01 -0.6834089315811E+00  0.2194669090752E+00
-0.5561557118083E+00 -0.2814869174405E+01 -0.6742049872891E+00  0.2235301551696E+00
-0.5760109707333E+00 -0.2739201090065E+01 -0.6630424220398E+00  0.2271117219183E+00
-0.5874858740727E+00 -0.2660157836868E+01 -0.6495287518669E+00  0.2300855170129E+00
-0.5872209230656E+00 -0.2579095003489E+01 -0.6332631947473E+00  0.2323153479718E+00
-0.5716060816301E+00 -0.2497653215155E+01 -0.6138518685041E+00  0.2336487010562E+00
-0.5368712240920E+00 -0.2417741350777E+01 -0.5909225237793E+00  0.2339186209311E+00
-0.4791976782879E+00 -0.2341494439781E+01 -0.5641384320200E+00  0.2329552022369E+00
-0.3948521547710E+00 -0.2271212901234E+01 -0.5332130191465E+00  0.2306014433888E+00
-0.2803510526798E+00 -0.2209281146319E+01 -0.4979264472194E+00  0.2267312474871E+00
-0.1326604080015E+00 -0.2158057845018E+01 -0.4581436574309E+00  0.2212688578292E+00
 0.5056619979432E-01 -0.2119734424230E+01 -0.4138336510537E+00  0.2142088489884E+00
 0.2707186331418E+00 -0.2096163647572E+01 -0.3650890083262E+00  0.2056346203483E+00
 0.5279775486506E+00 -0.2088666484269E+01 -0.3121377917749E+00  0.1957308125644E+00
 0.8211634877188E+00 -0.2097851780420E+01 -0.2553376623451E+00  0.1847859072762E+00
 0.1147614344256E+01 -0.2123487262817E+01 -0.1951745866206E+00  0.1731860448508E+00
 0.1503061051869E+01 -0.2164412297995E+01 -0.1322702511962E+00  0.1613947494784E+00
 0.1881648664675E+01 -0.2218519506081E+01 -0.6737416928510E-01  0.1499136683442E+00
 0.2276101934891E+01 -0.2282832422099E+01 -0.1346097461802E-02  0.1392300786341E+00
 0.2678029568012E+01 -0.2353685300517E+01  0.6486885446575E-01  0.1297586087978E+00
 0.3078354634175E+01 -0.2426995538545E+01  0.1302718210671E+00  0.1217868656114E+00
 0.3467810348987E+01 -0.2498597707435E+01  0.1938425311990E+00  0.1154357623819E+00
 0.3837459087842E+01 -0.2564603649082E+01  0.2545710915454E+00  0.1106424025967E+00
 0.4179134748273E+01 -0.2621742025731E+01  0.3114785491500E+00  0.1071703252379E+00
-0.7571985204436E+00 -0.3157847385722E+01 -0.7830091929010E+00  0.9181961909696E-01
-0.6992128441181E+00 -0.3182921824902E+01 -0.7764269453737E+00  0.1043721192590E+00
-0.6424288651112E+00 -0.3206438602128E+01 -0.7697735049183E+00  0.1162720492189E+00
-0.5886068187768E+00 -0.3227250605272E+01 -0.7631714961818E+00  0.1272576774288E+00
-0.5393374056833E+00 -0.3244310070214E+01 -0.7567295064555E+00  0.1371639226866E+00
-0.4959820842774E+00 -0.3256702265360E+01 -0.7505368811114E+00  0.1459178965320E+00
-0.4596237842731E+00 -0.3263668748430E+01 -0.7446585176369E+00  0.1535266280965E+00
-0.4310374985189E+00 -0.3264614255484E+01 -0.7391303618145E+00  0.1600597881345E+00
-0.4106820957824E+00 -0.3259097535905E+01 -0.7339559372743E+00  0.1656305314151E+00
-0.3987088327520E+00 -0.3246810961546E+01 -0.7291039697241E+00  0.1703770603668E+00
-0.3949787537567E+00 -0.3227555909710E+01 -0.7245069434894E+00  0.1744466743703E+00
-0.3990808931443E+00 -0.3201220899033E+01 -0.7200603691652E+00  0.1779831179076E+00
-0.4103450416203E+00 -0.3167767346845E+01 -0.7156224883566E+00  0.1811173499435E+00
-0.4278456018577E+00 -0.3127225811338E+01 -0.7110142932342E+00  0.1839613191109E+00
-0.4503948217945E+00 -0.3079705412748E+01 -0.7060200574290E+00  0.1866040609188E+00
-0.4765297412346E+00 -0.3025409897464E+01 -0.7003879381763E+00  0.1891098418632E+00
-0.5044936576356E+00 -0.2964662744814E+01 -0.6938312908288E+00  0.1915176756304E+00
-0.5322165203804E+00 -0.2897939299136E+01 -0.6860311741259E+00  0.1938418032217E+00
-0.5573014686255E+00 -0.2825896284561E+01 -0.6766395607200E+00  0.1960733815883E+00
-0.5770194075301E+00 -0.2749399813262E+01 -0.6652838540719E+00  0.1981836550659E+00
-0.5883133044830E+00 -0.2669548900823E+01 -0.6515724507705E+00  0.2001304401113E+00
-0.5878174060970E+00 -0.2587711796215E+01 -0.6351058499262E+00  0.2018600270330E+00
-0.5719168961338E+00 -0.2505539471204E+01 -0.6154912826392E+00  0.2033068265537E+00
-0.5368386770805E+00 -0.2424948459477E+01 -0.5923574361383E+00  0.2043957637743E+00
-0.4787636838572E+00 -0.2348079310222E+01 -0.5653686072405E+00  0.2050470434931E+00
-0.3939617023903E+00 -0.2277236003543E+01 -0.5342395491474E+00  0.2051814520272E+00
-0.2789565674815E+00 -0.2214804172700E+01 -0.4987521554683E+00  0.2047254658031E+00
-0.1307268849338E+00 -0.2163140637471E+01 -0.4587735113172E+00  0.2036161566059E+00
 0.5305560716936E-01 -0.2124431138415E+01 -0.4142751124224E+00  0.2018059971123E+00
 0.2737571957309E+00 -0.2100518465237E+01 -0.3653522593453E+00  0.1992674411958E+00
 0.5315305313808E+00 -0.2092709366499E+01 -0.3122357716764E+00  0.1959963518443E+00
 0.8251656280932E+00 -0.2101595005107E+01 -0.2552858792069E+00  0.1920134618521E+00
 0.1151970782515E+01 -0.2126924167863E+01 -0.1949906799751E+00  0.1873643908276E+00
 0.1507652976277E+01 -0.2167519215395E+01 -0.1319732497902E+00  0.1821165925825E+00
 0.1886343822319E+01 -0.2221261024472E+01 -0.6698344142884E-01  0.1763519500171E+00
 0.2280769200592E+01 -0.2285169584921E+01 -0.8800768789612E-03  0.1701563094893E+00
 0.2682555648235E+01 -0.2355585507954E+01  0.6539402903059E-01  0.1636078032664E+00
 0.3082660133276E+01 -0.2428442258703E+01  0.1308435768642E+00  0.1567664266100E+00
 0.3471862250495E+01 -0.2499597995395E+01  0.1944528539176E+00  0.1496680771735E+00
 0.3841277272409E+01 -0.2565191958100E+01  0.2552170666650E+00  0.1423254240776E+00
 0.4182791232311E+01 -0.2621979792031E+01  0.3121622927077E+00  0.1347385974120E+00
-0.7618939525952E+00 -0.3177045235249E+01 -0.7877878493078E+00  0.1012630954800E+00
-0.7036446251197E+00 -0.3202192053273E+01 -0.7811673473189E+00  0.1134623292347E+00
-0.6464870128638E+00 -0.3225777858965E+01 -0.7744529859061E+00  0.1245661601905E+00
-0.5922190685334E+00 -0.3246633944327E+01 -0.7677706140127E+00  0.1343427376355E+00
-0.5424693306930E+00 -0.3263692396745E+01 -0.7612323568308E+00  0.1426706831856E+00
-0.4986331153645E+00 -0.3276022353618E+01 -0.7549311050458E+00  0.1495324829114E+00
-0.4618204055793E+00 -0.3282854790095E+01 -0.7489350502949E+00  0.1549965621959E+00
-0.4328252023339E+00 -0.3283589742663E+01 -0.7432830000751E+00  0.1591933566540E+00
-0.4121175128639E+00 -0.3277786479522E+01 -0.7379808094739E+00  0.1622906782899E+00
-0.3998530090050E+00 -0.3265141839273E+01 -0.7329989805781E+00  0.1644722782934E+00
-0.3958920305808E+00 -0.3245464153243E+01 -0.7282712476169E+00  0.1659216788506E+00
-0.3998194241529E+00 -0.3218650053128E+01 -0.7236939062401E+00  0.1668116672849E+00
-0.4109587073176E+00 -0.3184669206305E+01 -0.7191255934404E+00  0.1672987216735E+00
-0.4283769712465E+00 -0.3143559895285E+01 -0.7143873839515E+00  0.1675210648225E+00
-0.4508788149101E+00 -0.3095438122662E+01 -0.7092633980833E+00  0.1675989812845E+00
-0.4769937139060E+00 -0.3040513547277E+01 -0.7035014627196E+00  0.1676362242130E+00
-0.5049577306720E+00 -0.2979114624478E+01 -0.6968144814134E+00  0.1677217865753E+00
-0.5326940710591E+00 -0.2911720850468E+01 -0.6888829945706E+00  0.1679315125285E+00
-0.5577997533786E+00 -0.2838992338591E+01 -0.6793584285171E+00  0.1683295307463E+00
-0.5775403284927E+00 -0.2761798321470E+01 -0.6678677399445E+00  0.1689692008775E+00
-0.5888543695848E+00 -0.2681242723368E+01 -0.6540194283363E+00  0.1698919610917E+00
-0.5883727330327E+00 -0.2598699779556E+01 -0.6374145120159E+00  0.1711261691277E+00
-0.5724779478299E+00 -0.2515823995187E+01 -0.6176603978073E+00  0.1726927952530E+00
-0.5373946395328E+00 -0.2434532327807E+01 -0.5943854023251E+00  0.1746083821905E+00
-0.4793014358463E+00 -0.2356963930875E+01 -0.5672530817969E+00  0.1768830244234E+00
-0.3944653137412E+00 -0.2285420965059E+01 -0.5359772637468E+00  0.1795150336194E+00
-0.2794063246603E+00 -0.2222287819703E+01 -0.5003388363282E+00  0.1824830800207E+00
-0.1310979476023E+00 -0.2169921226275E+01 -0.4602038416331E+00  0.1857365162678E+00
 0.5279470196941E-01 -0.2130508237305E+01 -0.4155427132592E+00  0.1891849829999E+00
 0.2736458739709E+00 -0.2105894299341E+01 -0.3664496905346E+00  0.1926891141984E+00
 0.5316170311134E+00 -0.2097389576563E+01 -0.3131545137563E+00  0.1960550922352E+00
 0.8255070514251E+00 -0.2105588375273E+01 -0.2560162685845E+00  0.1990351585143E+00
 0.1152632056464E+01 -0.2130241888910E+01 -0.1955219694027E+00  0.2013340173100E+00
 0.1508704566013E+01 -0.2170173783531E+01 -0.1322938454749E+00  0.2026231663376E+00
 0.1887858294893E+01 -0.2223264258869E+01 -0.6708119379493E-01  0.2025654401228E+00
 0.2282816893440E+01 -0.2286529900741E+01 -0.7426014713116E-03  0.2008465046800E+00
 0.2685199853300E+01 -0.2356304770731E+01  0.6577901749407E-01  0.1972095282676E+00
 0.3085952328657E+01 -0.2428512612461E+01  0.1314879451984E+00  0.1914883188012E+00
 0.3475837919989E+01 -0.2498999120826E+01  0.1953677627438E+00  0.1836346621829E+00
 0.3845952849680E+01 -0.2563889192886E+01  0.2564127351797E+00  0.1737368651277E+00
 0.4188162559285E+01 -0.2619923608579E+01  0.3136477948150E+00  0.1620307409162E+00
-0.7665462801127E+00 -0.3196443126263E+01 -0.7925978930858E+00  0.1107445868758E+00
-0.7078687857843E+00 -0.3221736927226E+01 -0.7859211543132E+00  0.1225921830836E+00
-0.6501812368516E+00 -0.3245464251710E+01 -0.7791291093223E+00  0.1328935352547E+00
-0.5953239832134E+00 -0.3266433073052E+01 -0.7723514227620E+00  0.1414466660383E+00
-0.5449682354074E+00 -0.3283554195937E+01 -0.7657044976787E+00  0.1481751947056E+00
-0.5005464362427E+00 -0.3295881096711E+01 -0.7592855179049E+00  0.1531191656304E+00
-0.4631964875419E+00 -0.3302636572132E+01 -0.7531666231577E+00  0.1564109024110E+00
-0.4337299501754E+00 -0.3303219951649E+01 -0.7473899915019E+00  0.1582438994096E+00
-0.4126249661525E+00 -0.3297195815879E+01 -0.7419641674625E+00  0.1588423621059E+00
-0.4000381087894E+00 -0.3284270141400E+01 -0.7368616610179E+00  0.1584366320686E+00
-0.3958259860108E+00 -0.3264261950522E+01 -0.7320175982144E+00  0.1572468390565E+00
-0.3995674536681E+00 -0.3237078223254E+01 -0.7273291462225E+00  0.1554746836717E+00
-0.4105795793109E+00 -0.3202697317010E+01 -0.7226553900327E+00  0.1533016982384E+00
-0.4279236712608E+00 -0.3161163825669E+01 -0.7178175100822E+00  0.1508917466445E+00
-0.4503997342715E+00 -0.3112597474969E+01 -0.7125994524666E+00  0.1483956900674E+00
-0.4765339064052E+00 -0.3057209152836E+01 -0.7067486223796E+00  0.1459561371349E+00
-0.5045599690433E+00 -0.2995326345467E+01 -0.6999772733324E+00  0.1437115064309E+00
-0.5323996045685E+00 -0.2927425746614E+01 -0.6919650805476E+00  0.1417987717925E+00
-0.5576487783561E+00 -0.2854163130537E+01 -0.6823623919466E+00  0.1403546245374E+00
-0.5775722172567E+00 -0.2776402697985E+01 -0.6707949930441E+00  0.1395141636747E+00
-0.5891077583602E+00 -0.2695245727348E+01 -0.6568707069298E+00  0.1394020156439E+00
-0.5888857459976E+00 -0.2612065755619E+01 -0.6401903098630E+00  0.1401281256001E+00
-0.5732882074377E+00 -0.2528513993133E+01 -0.6203604493583E+00  0.1417996740586E+00
-0.5385382294342E+00 -0.2446500566274E+01 -0.5970077680377E+00  0.1445247491373E+00
-0.4808102743553E+00 -0.2368156283980E+01 -0.5697933201577E+00  0.1484036257837E+00
-0.3963626884996E+00 -0.2295776067661E+01 -0.5384277592554E+00  0.1535128480945E+00
-0.2817005800945E+00 -0.2231740556904E+01 -0.5026882348904E+00  0.1598844188677E+00
-0.1337746482302E+00 -0.2178408123933E+01 -0.4624365613235E+00  0.1674814967543E+00
 0.4978138062369E-01 -0.2137974114327E+01 -0.4176385529639E+00  0.1761726709022E+00
 0.2703812834361E+00 -0.2112299269183E+01 -0.3683836026388E+00  0.1857085581808E+00
 0.5282322268964E+00 -0.2102714841833E+01 -0.3148965276797E+00  0.1957071825449E+00
 0.8221814689962E+00 -0.2109839177904E+01 -0.2575315456190E+00  0.2056532113258E+00
 0.1149590547199E+01 -0.2133447323098E+01 -0.1967713581118E+00  0.2149103481059E+00
 0.1506207206802E+01 -0.2172382680656E+01 -0.1332350967561E+00  0.2227526883281E+00
 0.1886183009907E+01 -0.2224535966981E+01 -0.6767059242328E-01  0.2284211065029E+00
 0.2282236200934E+01 -0.2286920622874E+01 -0.9368844019789E-03  0.2311968938100E+00
 0.2685954483940E+01 -0.2355851347256E+01  0.6602062832044E-01  0.2304832494085E+00
 0.3088225558080E+01 -0.2427216431335E+01  0.1322018273189E+00  0.2258826582482E+00
 0.3479734655032E+01 -0.2496813077419E+01  0.1965843184521E+00  0.2172582527738E+00
 0.3851486939080E+01 -0.2560710092215E+01  0.2581553732198E+00  0.2047706056781E+00
 0.4195254449971E+01 -0.2615591536836E+01  0.3159325873347E+00  0.1888892877649E+00
-0.7711577840411E+00 -0.3216055598391E+01 -0.7974426883693E+00  0.1202928150039E+00
-0.7118848027882E+00 -0.3241571845238E+01 -0.7906913413874E+00  0.1317899941034E+00
-0.6535079016480E+00 -0.3265513752395E+01 -0.7838043424883E+00  0.1412815184008E+00
-0.5979151082204E+00 -0.3286663948222E+01 -0.7769158228654E+00  0.1485952428631E+00
-0.5468256157098E+00 -0.3303910637836E+01 -0.7701472621852E+00  0.1537015374268E+00
-0.5017125021048E+00 -0.3316292104597E+01 -0.7636009327189E+00  0.1567009073239E+00
-0.4637424386746E+00 -0.3323025538260E+01 -0.7573536066724E+00  0.1577927747717E+00
-0.4337428913642E+00 -0.3323513826152E+01 -0.7514513547007E+00  0.1572364444645E+00
-0.4121968315532E+00 -0.3317331952914E+01 -0.7459057680082E+00  0.1553143641647E+00
-0.3992579127047E+00 -0.3304199964005E+01 -0.7406915863790E+00  0.1523042814175E+00
-0.3947757290913E+00 -0.3283951496658E+01 -0.7357454561133E+00  0.1484628309152E+00
-0.3983211677042E+00 -0.3256506222369E+01 -0.7309654889069E+00  0.1440198506237E+00
-0.4092045732950E+00 -0.3221851669313E+01 -0.7262112593429E+00  0.1391807524889E+00
-0.4264829691117E+00 -0.3180037323005E+01 -0.7213040691716E+00  0.1341337086147E+00
-0.4489548341529E+00 -0.3131183439013E+01 -0.7160276653028E+00  0.1290588426991E+00
-0.4751472333606E+00 -0.3075497406564E+01 -0.7101289385667E+00  0.1241364302121E+00
-0.5032966655264E+00 -0.3013299755321E+01 -0.7033192946498E+00  0.1195532957462E+00
-0.5313285495221E+00 -0.2945057389440E+01 -0.6952771981529E+00  0.1155066886388E+00
-0.5568428978069E+00 -0.2871413993344E+01 -0.6856513884472E+00  0.1122051460400E+00
-0.5771081731454E+00 -0.2793220566669E+01 -0.6740657580073E+00  0.1098648924086E+00
-0.5890651700781E+00 -0.2711568172003E+01 -0.6601266782528E+00  0.1086931607822E+00
-0.5893466556424E+00 -0.2627822942717E+01 -0.6434339292598E+00  0.1088809335816E+00
-0.5743364097254E+00 -0.2543625921404E+01 -0.6235924755182E+00  0.1106212582360E+00
-0.5402568834049E+00 -0.2460873057377E+01 -0.6002259971005E+00  0.1141138732028E+00
-0.4832767500612E+00 -0.2381679714172E+01 -0.5729913013849E+00  0.1195500203674E+00
-0.3996401969450E+00 -0.2308327937239E+01 -0.5415936349071E+00  0.1270861378955E+00
-0.2858265520482E+00 -0.2243191839295E+01 -0.5058036858057E+00  0.1368102071896E+00
-0.1387463836160E+00 -0.2188632863932E+01 -0.4654758564456E+00  0.1487027886269E+00
 0.4402252648233E-01 -0.2146861351620E+01 -0.4205677712944E+00  0.1625957226188E+00
 0.2639650121855E+00 -0.2119765779410E+01 -0.3711601589756E+00  0.1781341182418E+00
 0.5213710628304E+00 -0.2108716117993E+01 -0.3174690157633E+00  0.1947518367324E+00
 0.8151763821393E+00 -0.2114375807761E+01 -0.2598398889963E+00  0.2116686119715E+00
 0.1142826398665E+01 -0.2136565586318E+01 -0.1987478404921E+00  0.2279074385483E+00
 0.1500134913460E+01 -0.2174167629297E+01 -0.1348065451761E+00  0.2423420579560E+00
 0.1881288308595E+01 -0.2225095071971E+01 -0.6876135369970E-01  0.2537848684780E+00
 0.2278997312574E+01 -0.2286359119964E+01 -0.1472361499843E-02  0.2611031244615E+00
 0.2684793751921E+01 -0.2354242715646E+01  0.6611020824012E-01  0.2633484451096E+00
 0.3089462291540E+01 -0.2424573032822E+01  0.1329778537251E+00  0.2598801985872E+00
 0.3483546861253E+01 -0.2493062447388E+01  0.1980968857249E+00  0.2504627766665E+00
 0.3857888510074E+01 -0.2555681349078E+01  0.2604414360802E+00  0.2353221313480E+00
 0.4204091768564E+01 -0.2609014542764E+01  0.3190154499137E+00  0.2151586259546E+00
-0.7757306522216E+00 -0.3235896866532E+01 -0.8023255157064E+00  0.1299368617699E+00
-0.7156919065623E+00 -0.3261711813218E+01 -0.7954807558097E+00  0.1410843876282E+00
-0.6564628524825E+00 -0.3285941771400E+01 -0.7884809365258E+00  0.1497575739457E+00
-0.5999852882097E+00 -0.3307341591665E+01 -0.7814653876196E+00  0.1558140651955E+00
-0.5480323254079E+00 -0.3324775333159E+01 -0.7745615432552E+00  0.1592732660819E+00
-0.5021214681087E+00 -0.3337266581404E+01 -0.7678776213447E+00  0.1602998459886E+00
-0.4634489365488E+00 -0.3344029748657E+01 -0.7614957483882E+00  0.1591642856440E+00
-0.4328561226248E+00 -0.3344475936180E+01 -0.7554664230184E+00  0.1561949351313E+00
-0.4108270865059E+00 -0.3338196034553E+01 -0.7498046353848E+00  0.1517344389044E+00
-0.3975083181826E+00 -0.3324929433283E+01 -0.7444875613868E+00  0.1461085127585E+00
-0.3927387829680E+00 -0.3304528547042E+01 -0.7394534770207E+00  0.1396096724345E+00
-0.3960792034803E+00 -0.3276928214418E+01 -0.7346014945260E+00  0.1324944405247E+00
-0.4068328214014E+00 -0.3242125663404E+01 -0.7297917078358E+00  0.1249902017851E+00
-0.4240538514668E+00 -0.3200173844669E+01 -0.7248455500282E+00  0.1173073902347E+00
-0.4465423517370E+00 -0.3151190314861E+01 -0.7195465440417E+00  0.1096534301222E+00
-0.4728306448512E+00 -0.3095374193069E+01 -0.7136409782182E+00  0.1022445171496E+00
-0.5011630191724E+00 -0.3033033027125E+01 -0.7068392197922E+00  0.9531439953659E-01
-0.5294739560760E+00 -0.2964616919394E+01 -0.6988181855072E+00  0.8911937184120E-01
-0.5553726699967E+00 -0.2890749700616E+01 -0.6892244843928E+00  0.8393879567156E-01
-0.5761359721276E+00 -0.2812260989639E+01 -0.6776794024515E+00  0.8006916772923E-01
-0.5887113704053E+00 -0.2730224048545E+01 -0.6637870936813E+00  0.7779959037164E-01
-0.5897370857517E+00 -0.2645990873184E+01 -0.6471456014304E+00  0.7740144852466E-01
-0.5756010770941E+00 -0.2561185393963E+01 -0.6273573035597E+00  0.7915329543715E-01
-0.5425263474176E+00 -0.2477681882682E+01 -0.6040416550209E+00  0.8334676877858E-01
-0.4866745691084E+00 -0.2397572888712E+01 -0.5768495001597E+00  0.9026531949426E-01
-0.4042707669992E+00 -0.2323121552637E+01 -0.5454784720556E+00  0.1001478547177E+00
-0.2917582423816E+00 -0.2256692180659E+01 -0.5096900922031E+00  0.1131424538827E+00
-0.1459906507214E+00 -0.2200650151172E+01 -0.4693281673723E+00  0.1292527306548E+00
 0.3553430690702E-01 -0.2157226952631E+01 -0.4243385354678E+00  0.1482806201050E+00
 0.2544039412566E+00 -0.2128350827926E+01 -0.3747893829188E+00  0.1697730034962E+00
 0.5110285457604E+00 -0.2115447950502E+01 -0.3208838857298E+00  0.1929861638003E+00
 0.8044732985243E+00 -0.2119248146284E+01 -0.2629549734703E+00  0.2168794241571E+00
 0.1132307592632E+01 -0.2139640364685E+01 -0.2014665574127E+00  0.2401359148489E+00
 0.1490444218927E+01 -0.2175565677181E+01 -0.1370242936927E+00  0.2612247133700E+00
 0.1873123636974E+01 -0.2224972843886E+01 -0.7036984243109E-01  0.2785196857380E+00
 0.2273048944286E+01 -0.2284872951916E+01 -0.2364801561208E-02  0.2904588621815E+00
 0.2681673209719E+01 -0.2351505560727E+01  0.6603353078233E-01  0.2957238814499E+00
 0.3089632560385E+01 -0.2420611146447E+01  0.1338042847813E+00  0.2934122774727E+00
 0.3487265570684E+01 -0.2487780288782E+01  0.1998970593590E+00  0.2831738004022E+00
 0.3865174051354E+01 -0.2548841461084E+01  0.2632665219770E+00  0.2652891850249E+00
 0.4214718360983E+01 -0.2600236283435E+01  0.3228964203210E+00  0.2406855039603E+00
-0.7802669891900E+00 -0.3255980978401E+01 -0.8072496055472E+00  0.1397061683606E+00
-0.7192890309242E+00 -0.3282171617640E+01 -0.8002921416381E+00  0.1505042839745E+00
-0.6590413063110E+00 -0.3306763332464E+01 -0.7931609395740E+00  0.1583492069904E+00
-0.6015265239600E+00 -0.3328480243732E+01 -0.7860013652507E+00  0.1631283727650E+00
-0.5485784344352E+00 -0.3346160441093E+01 -0.7789477867129E+00  0.1649131374245E+00
-0.5017630809159E+00 -0.3358813372246E+01 -0.7721153021378E+00  0.1639369493109E+00
-0.4623068712831E+00 -0.3365653863828E+01 -0.7655921584305E+00  0.1605461457414E+00
-0.4310626867805E+00 -0.3366106408648E+01 -0.7594338304022E+00  0.1551418695083E+00
-0.4085113558293E+00 -0.3359783833761E+01 -0.7536590491484E+00  0.1481290068589E+00
-0.3947874192753E+00 -0.3346450576818E+01 -0.7482476103684E+00  0.1398815110912E+00
-0.3897151854119E+00 -0.3325982278786E+01 -0.7431395039133E+00  0.1307265886571E+00
-0.3928427603028E+00 -0.3298331572746E+01 -0.7382348776104E+00  0.1209452790942E+00
-0.4034657866703E+00 -0.3263505967007E+01 -0.7333943616639E+00  0.1107842748190E+00
-0.4206371389532E+00 -0.3221560441122E+01 -0.7284395268696E+00  0.1004734974474E+00
-0.4431616205388E+00 -0.3172606585732E+01 -0.7231536520300E+00  0.9024505634860E-01
-0.4695812393594E+00 -0.3116830434840E+01 -0.7172823455282E+00  0.8034876356126E-01
-0.4981532493596E+00 -0.3054520495547E+01 -0.7105347595692E+00  0.7106335036653E-01
-0.5268266126109E+00 -0.2986103039581E+01 -0.7025859409078E+00  0.6270255591872E-01
-0.5532249765950E+00 -0.2912174277775E+01 -0.6930798612018E+00  0.5561524356292E-01
-0.5746381859445E+00 -0.2833534266945E+01 -0.6816345007351E+00  0.5017708613691E-01
-0.5880243029852E+00 -0.2751230873105E+01 -0.6678510451698E+00  0.4675814992089E-01
-0.5900301649272E+00 -0.2666595188475E+01 -0.6513250803860E+00  0.4570947986143E-01
-0.5770505738134E+00 -0.2581226993605E+01 -0.6316555228961E+00  0.4739471862730E-01
-0.5453106715359E+00 -0.2496971170006E+01 -0.6084563773752E+00  0.5219774289924E-01
-0.4909645036935E+00 -0.2415889706328E+01 -0.5813708506675E+00  0.6049584565593E-01
-0.4102136869524E+00 -0.2340220246348E+01 -0.5500867948571E+00  0.7261382277505E-01
-0.2994561143446E+00 -0.2272313277319E+01 -0.5143538859973E+00  0.8876538592568E-01
-0.1554725969409E+00 -0.2214538134841E+01 -0.4740021534195E+00  0.1089848796621E+00
 0.2434272963895E-01 -0.2169152776571E+01 -0.4289620157785E+00  0.1330537398489E+00
 0.2417108557674E+00 -0.2138136591852E+01 -0.3792851528686E+00  0.1604307663736E+00
 0.4972003260609E+00 -0.2122989173091E+01 -0.3251577742513E+00  0.1902040177561E+00
 0.7900481721025E+00 -0.2124528304998E+01 -0.2668960305561E+00  0.2210790667482E+00
 0.1117990132505E+01 -0.2142734616653E+01 -0.2049488998837E+00  0.2514008663988E+00
 0.1477074014071E+01 -0.2176629773695E+01 -0.1399111540097E+00  0.2792284098571E+00
 0.1861617016010E+01 -0.2224213292857E+01 -0.7251925644996E-01  0.3024835509636E+00
 0.2264317498137E+01 -0.2282500067564E+01 -0.3636513939616E-02  0.3191542958443E+00
 0.2676528739168E+01 -0.2347675809570E+01  0.6577058689960E-01  0.3275268111803E+00
 0.3088692958398E+01 -0.2415368843925E+01  0.1346648249011E+00  0.3264107130067E+00
 0.3490877629771E+01 -0.2481010006245E+01  0.2019735277149E+00  0.3153189458811E+00
 0.3873367067363E+01 -0.2540240549414E+01  0.2666253075630E+00  0.2945723941803E+00
 0.4227196906689E+01 -0.2589312831679E+01  0.3275768198832E+00  0.2653194975166E+00
-0.7847688284198E+00 -0.3276322016618E+01 -0.8122181811105E+00  0.1496305425894E+00
-0.7226747470302E+00 -0.3302966047517E+01 -0.8051281709068E+00  0.1600788866323E+00
-0.6612377105462E+00 -0.3327993295964E+01 -0.7978462131908E+00  0.1670838804764E+00
-0.6025297893761E+00 -0.3350093556476E+01 -0.7905246809502E+00  0.1705628590208E+00
-0.5484530517112E+00 -0.3368076800865E+01 -0.7833059821875E+00  0.1706428136725E+00
-0.5006265488748E+00 -0.3380939014430E+01 -0.7763131242290E+00  0.1676316409994E+00
-0.4603072855599E+00 -0.3387899114955E+01 -0.7696412915716E+00  0.1619572679630E+00
-0.4283565845485E+00 -0.3388400831364E+01 -0.7633514945574E+00  0.1540979195177E+00
-0.4052469830481E+00 -0.3382085611496E+01 -0.7574665301959E+00  0.1445228338780E+00
-0.3910956197150E+00 -0.3368749157555E+01 -0.7519689666591E+00  0.1336541238016E+00
-0.3857076269402E+00 -0.3348295113590E+01 -0.7468005592342E+00  0.1218518720657E+00
-0.3886157504668E+00 -0.3320696698462E+01 -0.7418625008404E+00  0.1094187067856E+00
-0.3991074193088E+00 -0.3285972329994E+01 -0.7370159608429E+00  0.9661717526644E-01
-0.4162356442634E+00 -0.3244177564088E+01 -0.7320826525792E+00  0.8369316956531E-01
-0.4388132295915E+00 -0.3195414715605E+01 -0.7268455998702E+00  0.7090021077331E-01
-0.4653964250778E+00 -0.3139851875000E+01 -0.7210496707600E+00  0.5851886828484E-01
-0.4942607612351E+00 -0.3077752420979E+01 -0.7144026470883E+00  0.4687046387044E-01
-0.5233752170961E+00 -0.3009511758598E+01 -0.7065774056676E+00  0.3632421747434E-01
-0.5503831997112E+00 -0.2935690722921E+01 -0.6972147949157E+00  0.2729687380022E-01
-0.5725923603208E+00 -0.2857051638128E+01 -0.6859288099108E+00  0.2024193754035E-01
-0.5869752582340E+00 -0.2774609376248E+01 -0.6723169369148E+00  0.1560934836965E-01
-0.5901906681272E+00 -0.2689667329773E+01 -0.6559716093548E+00  0.1382892986633E-01
-0.5786431948462E+00 -0.2603793984078E+01 -0.6364874452692E+00  0.1534889149713E-01
-0.5485622137322E+00 -0.2518796856046E+01 -0.6134718230970E+00  0.2064570712492E-01
-0.4960942742290E+00 -0.2436699148251E+01 -0.5865586932365E+00  0.3019244573030E-01
-0.4174143298644E+00 -0.2359705689102E+01 -0.5554240120697E+00  0.4440395989416E-01
-0.3088666317725E+00 -0.2290148173886E+01 -0.5198029688773E+00  0.6356645662673E-01
-0.1671443668938E+00 -0.2230398796429E+01 -0.4795086398099E+00  0.8775466590419E-01
 0.1048446163605E-01 -0.2182746170769E+01 -0.4344523483005E+00  0.1167415136154E+00
 0.2259053565036E+00 -0.2149231293284E+01 -0.3846651930879E+00  0.1499108533502E+00
 0.4798835784012E+00 -0.2131443952614E+01 -0.3303120797646E+00  0.1861948852968E+00
 0.7718720886587E+00 -0.2130311750515E+01 -0.2716879364197E+00  0.2240545839832E+00
 0.1099818358389E+01 -0.2145931648707E+01 -0.2092226611812E+00  0.2614996660588E+00
 0.1459945354728E+01 -0.2177429666511E+01 -0.1434968644949E+00  0.2961728733191E+00
 0.1846674295432E+01 -0.2222873795533E+01 -0.7523990114138E-01  0.3255273271381E+00
 0.2252705847647E+01 -0.2279289139130E+01 -0.5316658375840E-02  0.3470744901340E+00
 0.2669275078748E+01 -0.2342798724341E+01  0.6529527185440E-01  0.3586720519331E+00
 0.3086585191685E+01 -0.2408893479183E+01  0.1355383445201E+00  0.3588076234796E+00
 0.3494364539027E+01 -0.2472805210406E+01  0.2043118687688E+00  0.3468282647684E+00
 0.3882497393384E+01 -0.2529940152351E+01  0.2705114522375E+00  0.3230758667239E+00
 0.4241608787074E+01 -0.2576312343539E+01  0.3330592936699E+00  0.2889134281657E+00
-0.7892381469325E+00 -0.3296934350214E+01 -0.8172345116070E+00  0.1597401766487E+00
-0.7258471790319E+00 -0.3324110170393E+01 -0.8099914819548E+00  0.1698376767549E+00
-0.6630455647863E+00 -0.3349646634945E+01 -0.8025384519050E+00  0.1759889270102E+00
-0.6029848037604E+00 -0.3372194828946E+01 -0.7950359383881E+00  0.1781414621625E+00
-0.5476441095319E+00 -0.3390534086525E+01 -0.7876356509481E+00  0.1764825341982E+00
-0.4987003903065E+00 -0.3403647789758E+01 -0.7804696476429E+00  0.1714013910462E+00
-0.4574413128198E+00 -0.3410763255842E+01 -0.7736409252604E+00  0.1634143324710E+00
-0.4247328021835E+00 -0.3411350125405E+01 -0.7672165969502E+00  0.1530815251816E+00
-0.4010331299468E+00 -0.3405085937518E+01 -0.7612238248362E+00  0.1409386944751E+00
-0.3864357813114E+00 -0.3391804467749E+01 -0.7556480610720E+00  0.1274556155716E+00
-0.3807216277517E+00 -0.3371442500514E+01 -0.7504328368354E+00  0.1130227380443E+00
-0.3834049907173E+00 -0.3343996798001E+01 -0.7454803688521E+00  0.9796053644759E-01
-0.3937643548873E+00 -0.3309497355490E+01 -0.7406523531121E+00  0.8254314111858E-01
-0.4108543738787E+00 -0.3267998826123E+01 -0.7357706509641E+00  0.6702814049815E-01
-0.4334992284072E+00 -0.3219590891106E+01 -0.7306180347896E+00  0.5168653327476E-01
-0.4602741296394E+00 -0.3164418795824E+01 -0.7249385958951E+00  0.3682623614099E-01
-0.4894783627175E+00 -0.3102714680066E+01 -0.7184386192623E+00  0.2280832469694E-01
-0.5191066035448E+00 -0.3034836050025E+01 -0.7107885413055E+00  0.1005518150294E-01
-0.5468274574472E+00 -0.2961300634787E+01 -0.7016256289018E+00 -0.9504807317351E-03
-0.5699712538884E+00 -0.2882824882307E+01 -0.6905592375293E+00 -0.9678924103989E-02
-0.5855291020528E+00 -0.2800383084677E+01 -0.6771824474368E+00 -0.1560163186245E-01
-0.5901752120969E+00 -0.2715244118190E+01 -0.6610838759083E+00 -0.1821106053805E-01
-0.5803272947821E+00 -0.2628937915154E+01 -0.6418530515515E+00 -0.1697512633573E-01
-0.5522216597427E+00 -0.2543226354088E+01 -0.6190896119913E+00 -0.1132447341137E-01
-0.5019984110466E+00 -0.2460085058520E+01 -0.5924167027410E+00 -0.6881370210370E-03
-0.4258038075551E+00 -0.2381677843297E+01 -0.5614963385373E+00  0.1544358172154E-01
-0.3199216656655E+00 -0.2310311455072E+01 -0.5260466319863E+00  0.3743746056086E-01
-0.1809442470640E+00 -0.2248358438579E+01 -0.4858605443685E+00  0.6542017217340E-01
-0.5992083111395E-02 -0.2198140791602E+01 -0.4408265815114E+00  0.9917071572702E-01
 0.2070150890002E+00 -0.2161770344403E+01 -0.3909510569061E+00  0.1380142629151E+00
 0.4590782107169E+00 -0.2140943191594E+01 -0.3363730011878E+00  0.1807428343303E+00
 0.7499122336842E+00 -0.2136718835124E+01 -0.2773613244209E+00  0.2255849047290E+00
 0.1077725431658E+01 -0.2149336598484E+01 -0.2143222365590E+00  0.2702196936925E+00
 0.1438961265596E+01 -0.2178053155947E+01 -0.1478183802727E+00  0.3118672780065E+00
 0.1828178202256E+01 -0.2221025988208E+01 -0.7856955836120E-01  0.3474923614481E+00
 0.2238091736824E+01 -0.2275300057086E+01 -0.7441664163288E-02  0.3740975151113E+00
 0.2659803859618E+01 -0.2336929066321E+01  0.6457495962154E-01  0.3890708870774E+00
 0.3083234142491E+01 -0.2401241647365E+01  0.1363985010576E+00  0.3905351346086E+00
 0.3497700914995E+01 -0.2463229575618E+01  0.2068942709584E+00  0.3776345501812E+00
 0.3892600313955E+01 -0.2518013001189E+01  0.2749174666498E+00  0.3507077429230E+00
 0.4258053966419E+01 -0.2561314682659E+01  0.3393478618088E+00  0.3113237140767E+00
-0.7936768817406E+00 -0.3317832941888E+01 -0.8223019769790E+00  0.1700656776593E+00
-0.7288038978456E+00 -0.3345619669660E+01 -0.8148847256437E+00  0.1798104153048E+00
-0.6644571992374E+00 -0.3371738770704E+01 -0.8072392060170E+00  0.1850914534174E+00
-0.6028797529597E+00 -0.3394797289060E+01 -0.7995354203179E+00  0.1858871301006E+00
-0.5461381054464E+00 -0.3413540986018E+01 -0.7919358300937E+00  0.1824507468588E+00
-0.4959722591803E+00 -0.3426941776073E+01 -0.7845828187419E+00  0.1752612611949E+00
-0.4537001155426E+00 -0.3434240493331E+01 -0.7775881333616E+00  0.1649313121505E+00
-0.4201873579378E+00 -0.3434940383360E+01 -0.7710255597488E+00  0.1521084598323E+00
-0.3958709069284E+00 -0.3428763472514E+01 -0.7649268872867E+00  0.1373970169863E+00
-0.3808134090693E+00 -0.3415589084846E+01 -0.7592805100972E+00  0.1213134128614E+00
-0.3747657535485E+00 -0.3395392662845E+01 -0.7540316945147E+00  0.1042751734388E+00
-0.3772204333384E+00 -0.3368197625658E+01 -0.7490836229615E+00  0.8661600402294E-01
-0.3874461529820E+00 -0.3334046234112E+01 -0.7442984885098E+00  0.6861649483063E-01
-0.4045007717079E+00 -0.3292990718628E+01 -0.7394983090865E+00  0.5054088776257E-01
-0.4272233759941E+00 -0.3245104714916E+01 -0.7344656291264E+00  0.3267306408940E-01
-0.4542130566154E+00 -0.3190505680420E+01 -0.7289437582692E+00  0.1534433281010E-01
-0.4837985315617E+00 -0.3129388390267E+01 -0.7226373951339E+00 -0.1047747645692E-02
-0.5140060224208E+00 -0.3062065436461E+01 -0.7152143024339E+00 -0.1603029394164E-01
-0.5425348975674E+00 -0.2989003755792E+01 -0.7063077411968E+00 -0.2905682540632E-01
-0.5667431386690E+00 -0.2910865824607E+01 -0.6955218030194E+00 -0.3952323005479E-01
-0.5836445671018E+00 -0.2828577802162E+01 -0.6824444840220E+00 -0.4682393934203E-01
-0.5899325096604E+00 -0.2743367230214E+01 -0.6666599579089E+00 -0.5037497060805E-01
-0.5820414646116E+00 -0.2656718124119E+01 -0.6477519273983E+00 -0.4956130339780E-01
-0.5562180696569E+00 -0.2570338127250E+01 -0.6253112486993E+00 -0.4372059870264E-01
-0.5085981090518E+00 -0.2486145850444E+01 -0.5989488008242E+00 -0.3218183105847E-01
-0.4352985692485E+00 -0.2406254878693E+01 -0.5683106980569E+00 -0.1433520197730E-01
-0.3325377826523E+00 -0.2332939454883E+01 -0.5330954554507E+00  0.1027577329743E-01
-0.1967956187206E+00 -0.2268568266684E+01 -0.4930727844282E+00  0.4184306366641E-01
-0.2502538880739E-01 -0.2215497610913E+01 -0.4481046066213E+00  0.8016891025565E-01
 0.1850773005277E+00 -0.2175917778835E+01 -0.3981681015946E+00  0.1245393448465E+00
 0.4347884259818E+00 -0.2151646309725E+01 -0.3433715818653E+00  0.1736255496801E+00
 0.7241331786658E+00 -0.2143896769918E+01 -0.2839527224816E+00  0.2254390998342E+00
 0.1051634028152E+01 -0.2153078374851E+01 -0.2202888726223E+00  0.2773359472159E+00
 0.1414006569877E+01 -0.2178607760791E+01 -0.1529202404616E+00  0.3261075067485E+00
 0.1805987189095E+01 -0.2218756973464E+01 -0.8255395810399E-01  0.3682078161328E+00
 0.2220325767764E+01 -0.2270604616656E+01 -0.1005576992815E-01  0.4000922922853E+00
 0.2647981102782E+01 -0.2330131346110E+01  0.6356995228161E-01  0.4186297463796E+00
 0.3078545395847E+01 -0.2392479169708E+01  0.1372132472725E+00  0.4215249573065E+00
 0.3500852541050E+01 -0.2452356701565E+01  0.2096991710219E+00  0.4076735873321E+00
 0.3903715462458E+01 -0.2504542784786E+01  0.2798345397043E+00  0.3773807042198E+00
 0.4276650915906E+01 -0.2544410990018E+01  0.3464479903401E+00  0.3324106655958E+00
-0.7980869491258E+00 -0.3339033719331E+01 -0.8274241460210E+00  0.1806381141992E+00
-0.7315417889580E+00 -0.3367511251603E+01 -0.8198106203284E+00  0.1900271540393E+00
-0.6654635025683E+00 -0.3394285974725E+01 -0.8119499075578E+00  0.1944182348595E+00
-0.6022009521770E+00 -0.3417914424756E+01 -0.8040230873674E+00  0.1938215512773E+00
-0.5439197977690E+00 -0.3437105401792E+01 -0.7962050517765E+00  0.1885636881733E+00
-0.4924287487734E+00 -0.3450820890614E+01 -0.7886499396293E+00  0.1792233953931E+00
-0.4490748275500E+00 -0.3458321386408E+01 -0.7814792544365E+00  0.1665189513217E+00
-0.4147173725000E+00 -0.3459152663859E+01 -0.7747740188168E+00  0.1511913629767E+00
-0.3897635387328E+00 -0.3453090703794E+01 -0.7685708599579E+00  0.1339155103882E+00
-0.3742368760636E+00 -0.3440068583830E+01 -0.7628611033463E+00  0.1152528395566E+00
-0.3678518717338E+00 -0.3420106305367E+01 -0.7575916467091E+00  0.9564378028128E-01
-0.3700754373112E+00 -0.3393257188258E+01 -0.7526665363293E+00  0.7542971408352E-01
-0.3801655762548E+00 -0.3359576438444E+01 -0.7479484140851E+00  0.5489168564808E-01
-0.3971850046303E+00 -0.3319112284696E+01 -0.7432594689407E+00  0.3429477044364E-01
-0.4199914341159E+00 -0.3271918846025E+01 -0.7383820670310E+00  0.1393047985309E-01
-0.4472129891849E+00 -0.3218080811792E+01 -0.7330587711189E+00 -0.5850976185871E-02
-0.4772137330980E+00 -0.3157749461663E+01 -0.7269926497853E+00 -0.2461925023001E-01
-0.5080574759453E+00 -0.3091185490402E+01 -0.7198486039959E+00 -0.4185395097447E-01
-0.5374800508886E+00 -0.3018797421511E+01 -0.7112555050784E+00 -0.5694730802324E-01
-0.5628721648443E+00 -0.2941185738969E+01 -0.7008115912056E+00 -0.6922295987760E-01
-0.5812746110150E+00 -0.2859220978021E+01 -0.6880991280606E+00 -0.7800006479781E-01
-0.5894036893868E+00 -0.2774082554261E+01 -0.6726972587535E+00 -0.8261975303285E-01
-0.5837147653371E+00 -0.2687201116222E+01 -0.6541831860600E+00 -0.8238533618608E-01
-0.5604689628172E+00 -0.2600221145682E+01 -0.6321380311195E+00 -0.7654170229924E-01
-0.5158010890308E+00 -0.2514994113069E+01 -0.6061590494524E+00 -0.6431572081909E-01
-0.4457999592528E+00 -0.2433573020031E+01 -0.5758746044380E+00 -0.4499196753959E-01
-0.3466154274975E+00 -0.2358190450471E+01 -0.5409611836547E+00 -0.1801424425856E-01
-0.2146057244826E+00 -0.2291205032161E+01 -0.5011621587965E+00  0.1688971645899E-01
-0.4653920887193E-01 -0.2235006084400E+01 -0.4563090654539E+00  0.5956511096923E-01
 0.1601407503854E+00 -0.2191867960544E+01 -0.4063454480867E+00  0.1092817920098E+00
 0.4070246830707E+00 -0.2163743416882E+01 -0.3513437519976E+00  0.1646134951996E+00
 0.6944985498105E+00 -0.2152022077362E+01 -0.2915047098541E+00  0.2233746523133E+00
 0.1021457310518E+01 -0.2157312112922E+01 -0.2271709638659E+00  0.2826085204285E+00
 0.1384947802918E+01 -0.2179222864283E+01 -0.1588550146401E+00  0.3386731332693E+00
 0.1779934107455E+01 -0.2216170904154E+01 -0.8724736063990E-01  0.3874876238800E+00
 0.2199228956676E+01 -0.2265287440991E+01 -0.1321169705988E-01  0.4249160536953E+00
 0.2633644118968E+01 -0.2322480183471E+01  0.6223278802691E-01  0.4472485785628E+00
 0.3072402160690E+01 -0.2382681117331E+01  0.1379442107274E+00  0.4517077791996E+00
 0.3503773950198E+01 -0.2440269994483E+01  0.2127007943124E+00  0.4368843078329E+00
 0.3915885479428E+01 -0.2489623915866E+01  0.2852523169629E+00  0.4030124109662E+00
 0.4297536504011E+01 -0.2525703219777E+01  0.3543666621274E+00  0.3520386820811E+00
-0.8024702651067E+00 -0.3360554020631E+01 -0.8326048695543E+00  0.1914890817676E+00
-0.7340568876977E+00 -0.3389803132980E+01 -0.8247720164257E+00  0.2005182563288E+00
-0.6660535883505E+00 -0.3417305845882E+01 -0.8166718990159E+00  0.2039955940078E+00
-0.6009324402096E+00 -0.3441560368220E+01 -0.8084985737334E+00  0.2019648409778E+00
-0.5409718491882E+00 -0.3461234670151E+01 -0.8004413157952E+00  0.1948348990661E+00
-0.4880551736556E+00 -0.3475282917127E+01 -0.7926676299682E+00  0.1832964431945E+00
-0.4435565048234E+00 -0.3482992703878E+01 -0.7853098534423E+00  0.1681841897373E+00
-0.4083211692212E+00 -0.3483962733469E+01 -0.7784567921380E+00  0.1503392374222E+00
-0.3827165703615E+00 -0.3478033628819E+01 -0.7721500513420E+00  0.1305087726445E+00
-0.3667176909472E+00 -0.3465201203802E+01 -0.7663837903698E+00  0.1092968449677E+00
-0.3599954490152E+00 -0.3445536282537E+01 -0.7611063576517E+00  0.8716161555249E-01
-0.3619870794330E+00 -0.3419125413947E+01 -0.7562225099446E+00  0.6444557985973E-01
-0.3719389095202E+00 -0.3386037380043E+01 -0.7515952691123E+00  0.4142332238424E-01
-0.3889202896881E+00 -0.3346314748533E+01 -0.7470470187760E+00  0.1835415331065E-01
-0.4118115049281E+00 -0.3299988587664E+01 -0.7423600295805E+00 -0.4468687558674E-02
-0.4392751414364E+00 -0.3247105809225E+01 -0.7372762011186E+00 -0.2668110590370E-01
-0.4697167893277E+00 -0.3187768075244E+01 -0.7314969838145E+00 -0.4782406885003E-01
-0.5012441092601E+00 -0.3122177250631E+01 -0.7246842827768E+00 -0.6733298625888E-01
-0.5316352459323E+00 -0.3050675914603E+01 -0.7164622427832E+00 -0.8454154314384E-01
-0.5583187924593E+00 -0.2973794644444E+01 -0.7064226979072E+00 -0.9870352103704E-01
-0.5783668458910E+00 -0.2892340958636E+01 -0.6941415712489E+00 -0.1090648608651E+00
-0.5885226872044E+00 -0.2807439421324E+01 -0.6791924318265E+00 -0.1148936819405E+00
-0.5852670276932E+00 -0.2720459813488E+01 -0.6611453780882E+00 -0.1154133224784E+00
-0.5648804532088E+00 -0.2632974212310E+01 -0.6395709426340E+00 -0.1097765631068E+00
-0.5235014803462E+00 -0.2546756096455E+01 -0.6140515245103E+00 -0.9710643465741E-01
-0.4571937495002E+00 -0.2463786299565E+01 -0.5841960185183E+00 -0.7657631318814E-01
-0.3620380132983E+00 -0.2386244809626E+01 -0.5496565727753E+00 -0.4751964517096E-01
-0.2342642545114E+00 -0.2316471706538E+01 -0.5101471998117E+00 -0.9567411781817E-02
-0.7044065373079E-01 -0.2256885458465E+01 -0.4654652293750E+00  0.3719070794786E-01
 0.1322680051162E+00 -0.2209847563316E+01 -0.4155159178315E+00  0.9203488295349E-01
 0.3758061155376E+00 -0.2177457896183E+01 -0.3603303614983E+00  0.1534692539386E+00
 0.6609731628197E+00 -0.2161303572430E+01 -0.3000660863935E+00  0.2191357704505E+00
 0.9871002751860E+00 -0.2162222221319E+01 -0.2350243927288E+00  0.2857799411541E+00
 0.1351633293715E+01 -0.2180052433479E+01 -0.1656838304218E+00  0.3493240749231E+00
 0.1749824749746E+01 -0.2213391033700E+01 -0.9271325817226E-01  0.4051269759563E+00
 0.2174589842030E+01 -0.2259447205174E+01 -0.1697147288173E-01  0.4484113052298E+00
 0.2616597741926E+01 -0.2314060809040E+01  0.6050738747878E-01  0.4748188252171E+00
 0.3064661500830E+01 -0.2371931889989E+01  0.1385459242325E+00  0.4810124211567E+00
 0.3506405485815E+01 -0.2427062588320E+01  0.2158685827158E+00  0.4652088270257E+00
 0.3929154377487E+01 -0.2473361321226E+01  0.2911586155909E+00  0.4275258455909E+00
 0.4320865912631E+01 -0.2505303647507E+01  0.3631124584356E+00  0.3700763319068E+00
-0.8068287677982E+00 -0.3382413127303E+01 -0.8378483915051E+00  0.2026507916231E+00
-0.7363441749847E+00 -0.3412515623859E+01 -0.8297719721333E+00  0.2113144295435E+00
-0.6662143881495E+00 -0.3440817875453E+01 -0.8214064649603E+00  0.2138492602783E+00
-0.5990554941602E+00 -0.3465750339383E+01 -0.8129611788227E+00  0.2103351711614E+00
-0.5372744136502E+00 -0.3485935797467E+01 -0.8046420542136E+00  0.2012746612660E+00
-0.4828353322581E+00 -0.3500323508836E+01 -0.7966317800895E+00  0.1874849034532E+00
-0.4371360915167E+00 -0.3508237231127E+01 -0.7890746762869E+00  0.1699295245842E+00
-0.4009984114311E+00 -0.3509340749030E+01 -0.7820678437460E+00  0.1495569087460E+00
-0.3747381183400E+00 -0.3503551384424E+01 -0.7756579121110E+00  0.1271878819009E+00
-0.3582708100247E+00 -0.3490937471669E+01 -0.7698416678103E+00  0.1034657260626E+00
-0.3512158895354E+00 -0.3471627234279E+01 -0.7645686361558E+00  0.7886002733692E-01
-0.3529765027787E+00 -0.3445743793995E+01 -0.7597440706757E+00  0.5370675551191E-01
-0.3627863155224E+00 -0.3413370038565E+01 -0.7552312820713E+00  0.2826619160244E-01
-0.3797232597349E+00 -0.3374541110828E+01 -0.7508528853011E+00  0.2784509624974E-02
-0.4026944101712E+00 -0.3329261431709E+01 -0.7463911794981E+00 -0.2244985870136E-01
-0.4304025548393E+00 -0.3277535110272E+01 -0.7415875440728E+00 -0.4706446250422E-01
-0.4613012972098E+00 -0.3219408095763E+01 -0.7361418895639E+00 -0.7057608277892E-01
-0.4935486557547E+00 -0.3155016562331E+01 -0.7297130544907E+00 -0.9237953972975E-01
-0.5249710841645E+00 -0.3084629731566E+01 -0.7219201739035E+00 -0.1117529711766E+00
-0.5530402912602E+00 -0.3008700503101E+01 -0.7123481694871E+00 -0.1278829609019E+00
-0.5748640431601E+00 -0.2927966129164E+01 -0.7005660449040E+00 -0.1399445872717E+00
-0.5872167180192E+00 -0.2843489714725E+01 -0.6861412967731E+00 -0.1471352127616E+00
-0.5866092309948E+00 -0.2756572673137E+01 -0.6686363907897E+00 -0.1486004242950E+00
-0.5693474541749E+00 -0.2668705152824E+01 -0.6476105310499E+00 -0.1434021739870E+00
-0.5315797499804E+00 -0.2581571064260E+01 -0.6226301721259E+00 -0.1305584445501E+00
-0.4693496770825E+00 -0.2497066195006E+01 -0.5932831832584E+00 -0.1091260496014E+00
-0.3786709515613E+00 -0.2417305065470E+01 -0.5591952117388E+00 -0.7831708585058E-01
-0.2556417804830E+00 -0.2344598157344E+01 -0.5200479953147E+00 -0.3764813921504E-01
-0.9661801046894E-01 -0.2281386191921E+01 -0.4756008475650E+00  0.1288070720682E-01
 0.1015381268750E+00 -0.2230117813782E+01 -0.4257159437250E+00  0.7259003405325E-01
 0.3411634476791E+00 -0.2193049418475E+01 -0.3703771996782E+00  0.1399471065853E+00
 0.6235256942331E+00 -0.2171985930096E+01 -0.3096920517874E+00  0.2124517883609E+00
 0.9484615628759E+00 -0.2168026114981E+01 -0.2439129140555E+00  0.2865723790988E+00
 0.1313893494283E+01 -0.2181278427652E+01 -0.1734769892589E+00  0.3577968758645E+00
 0.1715436294835E+01 -0.2210562345372E+01 -0.9902521158297E-01  0.4208982543420E+00
 0.2146161105096E+01 -0.2253198240754E+01 -0.2140742745050E-01  0.4704021810358E+00
 0.2596609784701E+01 -0.2304969738694E+01  0.5832801007055E-01  0.5012209046456E+00
 0.3055149751747E+01 -0.2360325350219E+01  0.1389648823764E+00  0.5093647271095E+00
 0.3508669764760E+01 -0.2412837313447E+01  0.2191664935285E+00  0.4925923739561E+00
 0.3943565594963E+01 -0.2455870258982E+01  0.2975390716299E+00  0.4508495492832E+00
 0.4346812467966E+01 -0.2483334340470E+01  0.3726956310528E+00  0.3863963316249E+00
-0.8111644409072E+00 -0.3404632901585E+01 -0.8431594810625E+00  0.2141561877643E+00
-0.7383973234972E+00 -0.3435671822850E+01 -0.8348138417091E+00  0.2224467698885E+00
-0.6659301550269E+00 -0.3464844112957E+01 -0.8261548659073E+00  0.2240042009785E+00
-0.5965480505065E+00 -0.3490501152079E+01 -0.8174098526975E+00  0.2189483269097E+00
-0.5328046610456E+00 -0.3511215705184E+01 -0.8088040852981E+00  0.2078893345827E+00
-0.4767512539644E+00 -0.3525936151041E+01 -0.8005374929301E+00  0.1917883725759E+00
-0.4298044106349E+00 -0.3534033507533E+01 -0.7927675954468E+00  0.1717523025355E+00
-0.3927502869011E+00 -0.3535250865028E+01 -0.7856002420922E+00  0.1488444465605E+00
-0.3658391746468E+00 -0.3529595811897E+01 -0.7790870089180E+00  0.1239599745046E+00
-0.3489149975246E+00 -0.3517219778450E+01 -0.7732269667170E+00  0.9777684920289E-01
-0.3415369142077E+00 -0.3498315188468E+01 -0.7679704319788E+00  0.7076849168234E-01
-0.3430693016605E+00 -0.3473044998101E+01 -0.7632228713252E+00  0.4325556306350E-01
-0.3527322264118E+00 -0.3441506563106E+01 -0.7588477692113E+00  0.1547526187842E-01
-0.3696143671947E+00 -0.3403725708552E+01 -0.7546680263949E+00 -0.1234749764581E-01
-0.3926541124687E+00 -0.3359676555896E+01 -0.7504661448558E+00 -0.3993624102207E-01
-0.4206005410971E+00 -0.3309315392669E+01 -0.7459831978692E+00 -0.6691618337893E-01
-0.4519620976650E+00 -0.3252626411927E+01 -0.7409177129590E+00 -0.9278480048808E-01
-0.4849539382782E+00 -0.3189673332550E+01 -0.7349254651168E+00 -0.1169002148863E+00
-0.5174569780429E+00 -0.3120644752978E+01 -0.7276203570467E+00 -0.1384882485454E+00
-0.5469913120497E+00 -0.3045908309033E+01 -0.7185799349242E+00 -0.1566712067701E+00
-0.5707047191841E+00 -0.2966123933008E+01 -0.7073657409790E+00 -0.1705559762939E+00
-0.5854068354894E+00 -0.2882286843450E+01 -0.6935387461224E+00 -0.1792718476778E+00
-0.5876439728679E+00 -0.2795622655439E+01 -0.6766533357444E+00 -0.1818895124622E+00
-0.5737539685059E+00 -0.2707529843081E+01 -0.6562567720965E+00 -0.1773821560739E+00
-0.5399026984958E+00 -0.2619590478191E+01 -0.6318986447534E+00 -0.1646622612650E+00
-0.4821210108206E+00 -0.2533601107801E+01 -0.6031444327119E+00 -0.1426652204539E+00
-0.3963606461553E+00 -0.2451595864854E+01 -0.5695913106893E+00 -0.1104707680140E+00
-0.2785880542020E+00 -0.2375841768659E+01 -0.5308859724830E+00 -0.6746259133677E-01
-0.1249382931121E+00 -0.2308791441548E+01 -0.4867459541852E+00 -0.1352464476440E-01
 0.6804978749746E-01 -0.2252976967480E+01 -0.4369854425081E+00  0.5073774669109E-01
 0.3031424828129E+00 -0.2210817394487E+01 -0.3815349880202E+00  0.1237929345454E+00
 0.5821320086631E+00 -0.2184353894879E+01 -0.3204443820182E+00  0.2030357196862E+00
 0.9054358821149E+00 -0.2174978740882E+01 -0.2539085755370E+00  0.2846847420352E+00
 0.1271541702621E+01 -0.2183115041336E+01 -0.1823146704598E+00  0.3638005699235E+00
 0.1676515749452E+01 -0.2207854914266E+01 -0.1062678345463E+00  0.4345462818285E+00
 0.2113655693315E+01 -0.2246672640530E+01 -0.2660338983937E-01  0.4906900119753E+00
 0.2573405598241E+01 -0.2295315673319E+01  0.5561798581316E-01  0.5263210399511E+00
 0.3043656962243E+01 -0.2347965016176E+01  0.1391383912866E+00  0.5366861018835E+00
 0.3510467460096E+01 -0.2397706728184E+01  0.2225521496987E+00  0.5189830954293E+00
 0.3959159690457E+01 -0.2437276194182E+01  0.3043767037906E+00  0.4729177021572E+00
 0.4375567304540E+01 -0.2459926553811E+01  0.3831281558549E+00  0.4008753530905E+00
-0.8154793371753E+00 -0.3427238549436E+01 -0.8485435899665E+00  0.2260390979433E+00
-0.7402083813090E+00 -0.3459298447608E+01 -0.8399013782989E+00  0.2339468208296E+00
-0.6651818569325E+00 -0.3489409950661E+01 -0.8309183739003E+00  0.2344844140104E+00
-0.5933840155053E+00 -0.3515831788658E+01 -0.8218431730791E+00  0.2278171685882E+00
-0.5275362341340E+00 -0.3537081475585E+01 -0.8129235540572E+00  0.2146805716457E+00
-0.4697829366575E+00 -0.3552112066482E+01 -0.8043790126140E+00  0.1962006800983E+00
-0.4215521911084E+00 -0.3560355476970E+01 -0.7963815454826E+00  0.1736439347001E+00
-0.3835797505354E+00 -0.3561650754244E+01 -0.7890461127136E+00  0.1481965489719E+00
-0.3560339698685E+00 -0.3556110954552E+01 -0.7824289965432E+00  0.1208278154604E+00
-0.3386732353470E+00 -0.3543981912509E+01 -0.7765310411425E+00  0.9224437689994E-01
-0.3309869785181E+00 -0.3525527139686E+01 -0.7713028351342E+00  0.6291445278698E-01
-0.3322959382951E+00 -0.3500952475355E+01 -0.7666496941540E+00  0.3313341264455E-01
-0.3418057657962E+00 -0.3470369858308E+01 -0.7624351361821E+00  0.3105669012490E-02
-0.3586183215211E+00 -0.3433793750844E+01 -0.7584824257753E+00 -0.2697396421592E-01
-0.3817081753196E+00 -0.3391164284211E+01 -0.7545745031501E+00 -0.5684869991029E-01
-0.4098771686988E+00 -0.3342384945514E+01 -0.7504524340251E+00 -0.8614791762745E-01
-0.4416957929310E+00 -0.3287372212930E+01 -0.7458136122856E+00 -0.1143550377001E+00
-0.4754434240967E+00 -0.3226110710451E+01 -0.7403108379411E+00 -0.1407956428412E+00
-0.5090617504442E+00 -0.3158701327480E+01 -0.7335526265156E+00 -0.1646466823954E+00
-0.5401245298443E+00 -0.3085419079292E+01 -0.7251087326323E+00 -0.1849693490122E+00
-0.5658238048583E+00 -0.3006839779694E+01 -0.7145327275577E+00 -0.2008053353158E+00
-0.5830085875753E+00 -0.2923884588053E+01 -0.7013786455770E+00 -0.2112190249596E+00
-0.5882660432941E+00 -0.2837696046125E+01 -0.6851924280940E+00 -0.2152098118235E+00
-0.5779734847029E+00 -0.2749571072357E+01 -0.6655089213288E+00 -0.2116651370722E+00
-0.5483235523595E+00 -0.2660977002999E+01 -0.6418601206362E+00 -0.1993925396390E+00
-0.4953441850281E+00 -0.2573595658097E+01 -0.6137879777712E+00 -0.1772019593341E+00
-0.4149334953345E+00 -0.2489363754087E+01 -0.5808594585397E+00 -0.1440301250228E+00
-0.3029302139396E+00 -0.2410487961114E+01 -0.5426836430973E+00 -0.9910887673051E-01
-0.1552445528990E+00 -0.2339418567310E+01 -0.4989326314764E+00 -0.4217779491184E-01
 0.3192480954952E-01 -0.2278762991297E+01 -0.4493676430456E+00  0.2626903202203E-01
 0.2618082122003E+00 -0.2231104876142E+01 -0.3938593386574E+00  0.1047445448542E+00
 0.5367792449894E+00 -0.2198737200310E+01 -0.3323915960172E+00  0.1905830524003E+00
 0.8579171919977E+00 -0.2183378027596E+01 -0.2650921710699E+00  0.2797897061712E+00
 0.1224375332113E+01 -0.2185813963987E+01 -0.1922877292400E+00  0.3670120953271E+00
 0.1632778485532E+01 -0.2205468201913E+01 -0.1145379449831E+00  0.4457827722056E+00
 0.2076742425947E+01 -0.2240023027758E+01 -0.3265612084875E-01  0.5090479168145E+00
 0.2546661558438E+01 -0.2285220692752E+01  0.5228817391639E-01  0.5499672392033E+00
 0.3029930124010E+01 -0.2334964285669E+01  0.1389931697393E+00  0.5628916173265E+00
 0.3511672299513E+01 -0.2381793194818E+01  0.2259758243064E+00  0.5443317743012E+00
 0.3975971702239E+01 -0.2417714730073E+01  0.3116513990771E+00  0.4936700176611E+00
 0.4407338655686E+01 -0.2435220001864E+01  0.3944237366416E+00  0.4133935937651E+00
-0.8197756015167E+00 -0.3450259537031E+01 -0.8540070404352E+00  0.2383344262830E+00
-0.7417673766289E+00 -0.3483426829120E+01 -0.8450388537417E+00  0.2458466456793E+00
-0.6639464347375E+00 -0.3514545047378E+01 -0.8356983088759E+00  0.2453126675145E+00
-0.5895324454413E+00 -0.3541764046662E+01 -0.8262593107328E+00  0.2369509720476E+00
-0.5214386338615E+00 -0.3563540583342E+01 -0.8169958556149E+00  0.2216443807711E+00
-0.4619080853903E+00 -0.3578840037456E+01 -0.8081496366115E+00  0.2007088918542E+00
-0.4123701482544E+00 -0.3587172025300E+01 -0.7999084466304E+00  0.1755890285061E+00
-0.3734918403382E+00 -0.3588491023404E+01 -0.7923965845560E+00  0.1476018951396E+00
-0.3453404043214E+00 -0.3583032479890E+01 -0.7856745885497E+00  0.1177893711760E+00
-0.3275731843915E+00 -0.3571148550550E+01 -0.7797443586073E+00  0.8687900911354E-01
-0.3195997262523E+00 -0.3553180610383E+01 -0.7745560788689E+00  0.5532317267241E-01
-0.3206921865670E+00 -0.3529380048874E+01 -0.7700144585624E+00  0.2338071796515E-01
-0.3300411968109E+00 -0.3499873162584E+01 -0.7659828832931E+00 -0.8787319545081E-02
-0.3467645570774E+00 -0.3464660836099E+01 -0.7622850899942E+00 -0.4102572652822E-01
-0.3698782600475E+00 -0.3423645512762E+01 -0.7587047658676E+00 -0.7310567120190E-01
-0.3982437925115E+00 -0.3376672989544E+01 -0.7549833676613E+00 -0.1046676513577E+00
-0.4305013119738E+00 -0.3323586199615E+01 -0.7508175135059E+00 -0.1351866413324E+00
-0.4650018332844E+00 -0.3264284190117E+01 -0.7458572157944E+00 -0.1639600929734E+00
-0.4997542954593E+00 -0.3198773267362E+01 -0.7397055235867E+00 -0.1901197126210E+00
-0.5323913600749E+00 -0.3127228744821E+01 -0.7319240318857E+00 -0.2126689707278E+00
-0.5601534029721E+00 -0.3050135838640E+01 -0.7220578590819E+00 -0.2305876909317E+00
-0.5799327755058E+00 -0.2968335814593E+01 -0.7096537285944E+00 -0.2428790378377E+00
-0.5883631160312E+00 -0.2882881124452E+01 -0.6942488584417E+00 -0.2484755537339E+00
-0.5818694996900E+00 -0.2794957225991E+01 -0.6753653552000E+00 -0.2461831001773E+00
-0.5566821818952E+00 -0.2705903304144E+01 -0.6525171069311E+00 -0.2347060981530E+00
-0.5088385394533E+00 -0.2617269753702E+01 -0.6252216679475E+00 -0.2127261800823E+00
-0.4341949483994E+00 -0.2530876743139E+01 -0.5930143471443E+00 -0.1790272352743E+00
-0.3284709452931E+00 -0.2448850539595E+01 -0.5554643052548E+00 -0.1326703664267E+00
-0.1873529811726E+00 -0.2373620583373E+01 -0.5121947205414E+00 -0.7322130419283E-01
-0.6687863096508E-02 -0.2307856395987E+01 -0.4629088587146E+00 -0.1022581985181E-02
 0.2172496050905E+00 -0.2254302895070E+01 -0.4074106640668E+00  0.8253254383733E-01
 0.4874707937670E+00 -0.2215516257194E+01 -0.3456090978353E+00  0.1747709062088E+00
 0.8058028391846E+00 -0.2193571402148E+01 -0.2775537167285E+00  0.2715307547338E+00
 0.1172177944071E+01 -0.2189670874772E+01 -0.2034985891726E+00  0.3670712443623E+00
 0.1583907039463E+01 -0.2203636543100E+01 -0.1239459025743E+00  0.4542798439814E+00
 0.2035041102944E+01 -0.2233426228280E+01 -0.3967702565845E-01  0.5252141630197E+00
 0.2515997278125E+01 -0.2274821866276E+01  0.4823508308864E-01  0.5719841304466E+00
 0.3013664837372E+01 -0.2321446640006E+01  0.1384436415362E+00  0.5878875262075E+00
 0.3512125138602E+01 -0.2365228922687E+01  0.2293792466010E+00  0.5685915308091E+00
 0.3994028250157E+01 -0.2397331581996E+01  0.3193393383908E+00  0.5130514112026E+00
 0.4442350439906E+01 -0.2409361785283E+01  0.4065977369833E+00  0.4238340232746E+00
-0.8240554915777E+00 -0.3473730696249E+01 -0.8595572503737E+00  0.2510783962760E+00
-0.7430618210998E+00 -0.3508094105284E+01 -0.8502311979462E+00  0.2581789133717E+00
-0.6621958917259E+00 -0.3540284415215E+01 -0.8404960739126E+00  0.2565101652196E+00
-0.5849565729806E+00 -0.3568323257529E+01 -0.8306559784797E+00  0.2463546094185E+00
-0.5144765309032E+00 -0.3590601088313E+01 -0.8210155360774E+00  0.2287699994002E+00
-0.4531018684933E+00 -0.3606106107003E+01 -0.8118416071966E+00  0.2052921575859E+00
-0.4022491408014E+00 -0.3614446368708E+01 -0.8033391138726E+00  0.1775644317999E+00
-0.3624940862262E+00 -0.3615714498697E+01 -0.7956417288406E+00  0.1470424745874E+00
-0.3337805583858E+00 -0.3610287014242E+01 -0.7888135262799E+00  0.1148373984478E+00
-0.3156477007982E+00 -0.3598634704274E+01 -0.7828564926798E+00  0.8168775193907E-01
-0.3074144775091E+00 -0.3581183197677E+01 -0.7777195466261E+00  0.4801759884186E-01
-0.3082995995814E+00 -0.3558231508443E+01 -0.7733062331281E+00  0.1403681058625E-01
-0.3174783937752E+00 -0.3529919620762E+01 -0.7694796143736E+00 -0.2014836139477E-01
-0.3340877312867E+00 -0.3496232448627E+01 -0.7660640473980E+00 -0.5443237989249E-01
-0.3571906620512E+00 -0.3457031094782E+01 -0.7628443627339E+00 -0.8862311764962E-01
-0.3857156304947E+00 -0.3412098935726E+01 -0.7595629245625E+00 -0.1223795787379E+00
-0.4183805286100E+00 -0.3361199716119E+01 -0.7559160602097E+00 -0.1551742578256E+00
-0.4536158049183E+00 -0.3304140619682E+01 -0.7515512961189E+00 -0.1862811263489E+00
-0.4895043045867E+00 -0.3240826738521E+01 -0.7460662197389E+00 -0.2147904358037E+00
-0.5237427522135E+00 -0.3171326923298E+01 -0.7390139461144E+00 -0.2396515178103E+00
-0.5536236391024E+00 -0.3096029699417E+01 -0.7299306785807E+00 -0.2597859684997E+00
-0.5760863244306E+00 -0.3015691034359E+01 -0.7183554824623E+00 -0.2741399773055E+00
-0.5878165694806E+00 -0.2931266649389E+01 -0.7038166542617E+00 -0.2815846309083E+00
-0.5852961856222E+00 -0.2843820750931E+01 -0.6858233975303E+00 -0.2808496988007E+00
-0.5648054701439E+00 -0.2754550588175E+01 -0.6638712215563E+00 -0.2705398459023E+00
-0.5224061996470E+00 -0.2664857365081E+01 -0.6374527224445E+00 -0.2492070866710E+00
-0.4539286586805E+00 -0.2576423559750E+01 -0.6060704527172E+00 -0.2154739334592E+00
-0.3549866382990E+00 -0.2491271761845E+01 -0.5692516885113E+00 -0.1682125210820E+00
-0.2210498304106E+00 -0.2411787441060E+01 -0.5265674621405E+00 -0.1067846609039E+00
-0.4760774874990E-01 -0.2340683120990E+01 -0.4776581810656E+00 -0.3133832356228E-01
 0.1695851690352E+00 -0.2280855190708E+01 -0.4222540106267E+00  0.5688193227273E-01
 0.4342323507336E+00 -0.2235128651245E+01 -0.3601792654694E+00  0.1552577290134E+00
 0.7489989256212E+00 -0.2205963527184E+01 -0.2913929246546E+00  0.2595193512704E+00
 0.1114722364744E+01 -0.2195033432726E+01 -0.2160622168160E+00  0.3635751647817E+00
 0.1529550454442E+01 -0.2202636157239E+01 -0.1346171425654E+00  0.4596624627463E+00
 0.1988117236267E+01 -0.2227088193597E+01 -0.4779419217820E-01  0.5388839916292E+00
 0.2480966356559E+01 -0.2264273512812E+01  0.4333856939518E-01  0.5921662224431E+00
 0.2994494901421E+01 -0.2307545783884E+01  0.1373898255549E+00  0.6115678646120E+00
 0.3511626854113E+01 -0.2348155758857E+01  0.2326942225186E+00  0.5917176179935E+00
 0.4013344716054E+01 -0.2376282510393E+01  0.3274124460110E+00  0.5310114650678E+00
 0.4480839186239E+01 -0.2382504437888E+01  0.4196669559237E+00  0.4320810241614E+00
-0.8283213925909E+00 -0.3497693565953E+01 -0.8652030046013E+00  0.2643088552876E+00
-0.7440760820697E+00 -0.3533344660991E+01 -0.8554841613598E+00  0.2709769955524E+00
-0.6598961723472E+00 -0.3566669700590E+01 -0.8453131871835E+00  0.2680961092307E+00
-0.5796126516858E+00 -0.3595539077755E+01 -0.8350303583312E+00  0.2560275226227E+00
-0.5066090041228E+00 -0.3618271759600E+01 -0.8249761650376E+00  0.2360385329797E+00
-0.4433367138838E+00 -0.3633893115832E+01 -0.8154459780943E+00  0.2099203787797E+00
-0.3911804328115E+00 -0.3642135255876E+01 -0.8066631497577E+00  0.1795381886061E+00
-0.3505970325210E+00 -0.3643255361438E+01 -0.7987704906943E+00  0.1464929077107E+00
-0.3213812906545E+00 -0.3637791388347E+01 -0.7918345475995E+00  0.1119590680111E+00
-0.3029354050938E+00 -0.3626345134478E+01 -0.7858561196245E+00  0.7667372797711E-01
-0.2944767425962E+00 -0.3609432124811E+01 -0.7807817851160E+00  0.4101825667809E-01
-0.2951659903680E+00 -0.3587400222521E+01 -0.7765132541488E+00  0.5139851835184E-02
-0.3041633276034E+00 -0.3560401871578E+01 -0.7729130513535E+00 -0.3092212478770E-01
-0.3206282456945E+00 -0.3528403452468E+01 -0.7698063511036E+00 -0.6712234507669E-01
-0.3436768817947E+00 -0.3491221198816E+01 -0.7669796275510E+00 -0.1033145440710E+00
-0.3723123849526E+00 -0.3448571593219E+01 -0.7641768070214E+00 -0.1391840339741E+00
-0.4053389303668E+00 -0.3400133811608E+01 -0.7610945597363E+00 -0.1742071605595E+00
-0.4412746187483E+00 -0.3345617126980E+01 -0.7573783604315E+00 -0.2076393064215E+00
-0.4782830557533E+00 -0.3284819057022E+01 -0.7526204337699E+00 -0.2385331865236E+00
-0.5141300591909E+00 -0.3217695588877E+01 -0.7463651407354E+00 -0.2657877271879E+00
-0.5461636070412E+00 -0.3144532915638E+01 -0.7381393155351E+00 -0.2882702283215E+00
-0.5713732712867E+00 -0.3065996827022E+01 -0.7274740305020E+00 -0.3048747242681E+00
-0.5865024493515E+00 -0.2982940178851E+01 -0.7138885362783E+00 -0.3144172847862E+00
-0.5880992231023E+00 -0.2896296411581E+01 -0.6968791373209E+00 -0.3155585716550E+00
-0.5725078689317E+00 -0.2807106879309E+01 -0.6759229597203E+00 -0.3068086535587E+00
-0.5358321518855E+00 -0.2716604978697E+01 -0.6504874358094E+00 -0.2865905354265E+00
-0.4738958060430E+00 -0.2626312538467E+01 -0.6200416781414E+00 -0.2533586380415E+00
-0.3822256277207E+00 -0.2538122044308E+01 -0.5840695431091E+00 -0.2057792541713E+00
-0.2560882376904E+00 -0.2454347039936E+01 -0.5420870636030E+00 -0.1429804265015E+00
-0.9061801639750E-01 -0.2377717371181E+01 -0.4936670848719E+00 -0.6487060715126E-01
 0.1189693033153E+00 -0.2311263272260E+01 -0.4384588003225E+00  0.2751460584703E-01
 0.3771191831951E+00 -0.2258076487497E+01 -0.3761914664660E+00  0.1316837484776E+00
 0.6874271637086E+00 -0.2221025434431E+01 -0.3067196587150E+00  0.2433324287293E+00
 0.1051775221783E+01 -0.2202311067627E+01 -0.2301071725975E+00  0.3560724835503E+00
 0.1469324476820E+01 -0.2202794095805E+01 -0.1466939259829E+00  0.4614997114347E+00
 0.1935476582272E+01 -0.2221250628793E+01 -0.5715481015595E-01  0.5496996111213E+00
 0.2441045473349E+01 -0.2253750541150E+01  0.3745898699795E-01  0.6102690491199E+00
 0.2971979104024E+01 -0.2293405701685E+01  0.1357146824901E+00  0.6338096129314E+00
 0.3509929406064E+01 -0.2330724332259E+01  0.2358410182754E+00  0.6136673700974E+00
 0.4033923475986E+01 -0.2354732532667E+01  0.3358381936681E+00  0.5475040667556E+00
 0.4523047383704E+01 -0.2354801848383E+01  0.4336491135263E+00  0.4380178845188E+00
-0.8325758236671E+00 -0.3522198031419E+01 -0.8709547839954E+00  0.2780656546629E+00
-0.7447905849120E+00 -0.3559231874081E+01 -0.8608045046255E+00  0.2842750699384E+00
-0.6570057772782E+00 -0.3593750695405E+01 -0.8501513072049E+00  0.2800871202593E+00
-0.5734485875564E+00 -0.3623446345161E+01 -0.8393789990513E+00  0.2659624252460E+00
-0.4977887139567E+00 -0.3646562082878E+01 -0.8288701717182E+00  0.2434213025399E+00
-0.4325821806674E+00 -0.3662180012245E+01 -0.8189524507858E+00  0.2145526707035E+00
-0.3791560995798E+00 -0.3670187932429E+01 -0.8098688184697E+00  0.1814684116273E+00
-0.3378149013073E+00 -0.3671038105486E+01 -0.8017706133061E+00  0.1459197802656E+00
-0.3081749350124E+00 -0.3665451787491E+01 -0.7947253563429E+00  0.1091356486367E+00
-0.2894813027622E+00 -0.3654173740611E+01 -0.7887310204276E+00  0.7183604853531E-01
-0.2808387535523E+00 -0.3637813811770E+01 -0.7837305247430E+00  0.3434317775126E-01
-0.2813459157946E+00 -0.3616768784812E+01 -0.7796229517387E+00 -0.3273255028804E-02
-0.2901485568301E+00 -0.3591201662237E+01 -0.7762700553807E+00 -0.4105340711921E-01
-0.3064327855109E+00 -0.3561057589302E+01 -0.7734980864886E+00 -0.7902299133584E-01
-0.3293742301538E+00 -0.3526104640701E+01 -0.7710957856613E+00 -0.1170910802772E+00
-0.3580589108719E+00 -0.3485988321322E+01 -0.7688094578949E+00 -0.1549774918485E+00
-0.3913863416079E+00 -0.3440298222492E+01 -0.7663369242393E+00 -0.1921691410223E+00
-0.4279709751898E+00 -0.3388639950264E+01 -0.7633221964651E+00 -0.2279079687838E+00
-0.4660642669163E+00 -0.3330697381220E+01 -0.7593523409424E+00 -0.2612131762502E+00
-0.5035059841594E+00 -0.3266307629306E+01 -0.7539627339280E+00 -0.2909371136222E+00
-0.5377024116150E+00 -0.3195649424360E+01 -0.7466703783212E+00 -0.3158969605974E+00
-0.5656958756557E+00 -0.3119294118870E+01 -0.7369980098873E+00 -0.3349399964045E+00
-0.5842925838701E+00 -0.3037986210169E+01 -0.7244557696030E+00 -0.3468348353257E+00
-0.5901168197301E+00 -0.2952519315424E+01 -0.7085272375888E+00 -0.3501816732988E+00
-0.5795921738635E+00 -0.2863764995598E+01 -0.6886714441543E+00 -0.3434031872713E+00
-0.5488845623405E+00 -0.2772769667256E+01 -0.6643308558187E+00 -0.3247962671877E+00
-0.4938346597064E+00 -0.2680870049976E+01 -0.6349409513979E+00 -0.2926429001630E+00
-0.4099066049684E+00 -0.2589799173168E+01 -0.5999411645670E+00 -0.2453888059595E+00
-0.2921850399721E+00 -0.2501765803945E+01 -0.5587901771100E+00 -0.1818996345541E+00
-0.1354603354219E+00 -0.2419484236949E+01 -0.5109889220885E+00 -0.1017984652712E+00
 0.6559947784533E-01 -0.2346091688360E+01 -0.4560984488993E+00 -0.5847000707110E-02
 0.3162247778638E+00 -0.2284934569840E+01 -0.3937419642625E+00  0.1036724668281E+00
 0.6210335738357E+00 -0.2239305206037E+01 -0.3236543312630E+00  0.2225104706432E+00
 0.9831033383797E+00 -0.2211986953756E+01 -0.2457767267376E+00  0.3440571634468E+00
 0.1402813107413E+01 -0.2204499542306E+01 -0.1603372893677E+00  0.4592948471240E+00
 0.1876559737925E+01 -0.2216200043713E+01 -0.6792806216986E-01  0.5572379987849E+00
 0.2395621973077E+01 -0.2243453355627E+01  0.3043372394345E-01  0.6259976500166E+00
 0.2945584035353E+01 -0.2279181386905E+01  0.1332805316757E+00  0.6544652151193E+00
 0.3506724194638E+01 -0.2313091227729E+01  0.2387265969390E+00  0.6344003425662E+00
 0.4055753891324E+01 -0.2332854363553E+01  0.3445799106888E+00  0.5624870168942E+00
 0.4569211265246E+01 -0.2326394828846E+01  0.4485632939641E+00  0.4415241088507E+00
-0.8368214273186E+00 -0.3547304345979E+01 -0.8768251677252E+00  0.2923911214262E+00
-0.7451807910821E+00 -0.3585820243220E+01 -0.8662002197678E+00  0.2981082203264E+00
-0.6534740442844E+00 -0.3621587124786E+01 -0.8550122465548E+00  0.2924964607536E+00
-0.5664023191741E+00 -0.3652085988668E+01 -0.8436976741404E+00  0.2761436475388E+00
-0.4879610248966E+00 -0.3675482087333E+01 -0.8326886348539E+00  0.2508778317326E+00
-0.4208049516441E+00 -0.3690940860175E+01 -0.8223491746179E+00  0.2191355935912E+00
-0.3661696224579E+00 -0.3698544814155E+01 -0.8129428994364E+00  0.1833020853731E+00
-0.3241664225091E+00 -0.3698976296680E+01 -0.8046285558277E+00  0.1452810244648E+00
-0.2942001007210E+00 -0.3693162815558E+01 -0.7974725951390E+00  0.1063422841394E+00
-0.2753374447205E+00 -0.3682002952924E+01 -0.7914680913227E+00  0.6716976961342E-01
-0.2665599939388E+00 -0.3666203500314E+01 -0.7865527105710E+00  0.2800787310756E-01
-0.2669011424227E+00 -0.3646208732806E+01 -0.7826219867076E+00 -0.1116695495829E-01
-0.2754937048704E+00 -0.3622189526230E+01 -0.7795366578362E+00 -0.5048729809101E-01
-0.2915548622109E+00 -0.3594067013515E+01 -0.7771243867251E+00 -0.9006083407927E-01
-0.3143264571072E+00 -0.3561558218424E+01 -0.7751769466574E+00 -0.1298616533060E+00
-0.3429859235189E+00 -0.3524234151262E+01 -0.7734440264813E+00 -0.1696526587065E+00
-0.3765376939101E+00 -0.3481590300280E+01 -0.7716256103360E+00 -0.2089384841987E+00
-0.4137018253521E+00 -0.3433123202288E+01 -0.7693650169925E+00 -0.2469530692387E+00
-0.4528250042514E+00 -0.3378397334371E+01 -0.7662444791423E+00 -0.2826862098645E+00
-0.4918255942621E+00 -0.3317125334062E+01 -0.7617901970163E+00 -0.3149475385552E+00
-0.5281703004684E+00 -0.3249373893803E+01 -0.7555088501122E+00 -0.3425084686246E+00
-0.5589558495930E+00 -0.3175616376620E+01 -0.7469144563725E+00 -0.3641754876293E+00
-0.5810558551150E+00 -0.3096484206184E+01 -0.7355080232197E+00 -0.3786785019305E+00
-0.5911809300936E+00 -0.3012622770227E+01 -0.7207607508043E+00 -0.3845676814254E+00
-0.5858505541906E+00 -0.2924720274474E+01 -0.7021141761952E+00 -0.3801877790011E+00
-0.5613154053441E+00 -0.2833616802383E+01 -0.6789864516631E+00 -0.3637150903045E+00
-0.5134604833781E+00 -0.2740438458352E+01 -0.6507797980433E+00 -0.3332577502241E+00
-0.4377173427589E+00 -0.2646726959168E+01 -0.6168888695778E+00 -0.2870291780127E+00
-0.3290177493561E+00 -0.2554548711015E+01 -0.5767133006679E+00 -0.2236064343807E+00
-0.1818295432816E+00 -0.2466561955915E+01 -0.5296783077322E+00 -0.1422818794369E+00
 0.9724150688461E-02 -0.2385973387556E+01 -0.4752498544554E+00 -0.4347490886711E-01
 0.2516909557539E+00 -0.2316359401055E+01 -0.4129336952134E+00  0.7083352101763E-01
 0.5497992661495E+00 -0.2261440411251E+01 -0.3423282341213E+00  0.1965564952020E+00
 0.9084825867922E+00 -0.2224632540771E+01 -0.2632299947182E+00  0.3269623669460E+00
 0.1329571641591E+01 -0.2208218316660E+01 -0.1757293376322E+00  0.4524738465008E+00
 0.1810737898763E+01 -0.2212279139882E+01 -0.8030824942054E-01  0.5609968204296E+00
 0.2343978768451E+01 -0.2233617205018E+01  0.2207231301544E-01  0.6389906860491E+00
 0.2914664757717E+01 -0.2265037520386E+01  0.1299254494022E+00  0.6733530198125E+00
 0.3501620102686E+01 -0.2295421334554E+01  0.2412397572213E+00  0.6538737878983E+00
 0.4078826751224E+01 -0.2310811543836E+01  0.3536030467467E+00  0.5759269726203E+00
 0.4619510660051E+01 -0.2297386603839E+01  0.4644248181629E+00  0.4424630966829E+00
-0.8410609407695E+00 -0.3573085657999E+01 -0.8828293329088E+00  0.3073306381279E+00
-0.7452158810467E+00 -0.3613187979276E+01 -0.8716807850536E+00  0.3125125144395E+00
-0.6492390107971E+00 -0.3650250769675E+01 -0.8598979689078E+00  0.3053329864393E+00
-0.5583999082526E+00 -0.3681505955563E+01 -0.8479811853991E+00  0.2865450048752E+00
-0.4770631142224E+00 -0.3705041885362E+01 -0.8364210123805E+00  0.2583533873568E+00
-0.4079690201678E+00 -0.3720143431915E+01 -0.8256225027192E+00  0.2236011301990E+00
-0.3522167394407E+00 -0.3727135785172E+01 -0.8158705170800E+00  0.1849738266431E+00
-0.3096758707042E+00 -0.3726971094107E+01 -0.8073294049923E+00  0.1445253946868E+00
-0.2795025884505E+00 -0.3720806464701E+01 -0.8000618225522E+00  0.1035479082012E+00
-0.2605636239519E+00 -0.3709703134787E+01 -0.7940533635801E+00  0.6266596357031E-01
-0.2517077164134E+00 -0.3694464944539E+01 -0.7892345439509E+00  0.2202536969038E-01
-0.2519010839482E+00 -0.3675580346076E+01 -0.7854962977096E+00 -0.1850712621499E-01
-0.2602659173695E+00 -0.3653224525059E+01 -0.7826981001488E+00 -0.5916938760146E-01
-0.2760553596245E+00 -0.3627291854948E+01 -0.7806694545475E+00 -0.1001618111669E+00
-0.2985844114304E+00 -0.3597446027974E+01 -0.7792060994919E+00 -0.1415332528106E+00
-0.3271307586498E+00 -0.3563180842963E+01 -0.7780623319166E+00 -0.1830986532430E+00
-0.3608138593343E+00 -0.3523893839173E+01 -0.7769415512787E+00 -0.2243880197276E+00
-0.3984692654057E+00 -0.3478967514715E+01 -0.7754873675798E+00 -0.2646330931154E+00
-0.4385466559634E+00 -0.3427841501762E+01 -0.7732776430678E+00 -0.3027984558177E+00
-0.4790474093391E+00 -0.3370098757460E+01 -0.7698292448312E+00 -0.3376548328416E+00
-0.5174998906876E+00 -0.3305689944352E+01 -0.7646379784019E+00 -0.3679323106551E+00
-0.5510557111840E+00 -0.3234987661666E+01 -0.7572086858533E+00 -0.3924030721031E+00
-0.5766596315216E+00 -0.3158506448157E+01 -0.7470332270673E+00 -0.4097682922273E+00
-0.5911186857368E+00 -0.3076735904044E+01 -0.7335709288872E+00 -0.4185404653587E+00
-0.5910658556120E+00 -0.2990167959695E+01 -0.7162467737342E+00 -0.4169983267684E+00
-0.5728614371051E+00 -0.2899417290183E+01 -0.6944557558059E+00 -0.4032060140740E+00
-0.5324658463920E+00 -0.2805373440528E+01 -0.6675678673315E+00 -0.3750998372347E+00
-0.4653138280064E+00 -0.2709353111167E+01 -0.6349333972960E+00 -0.3306530970071E+00
-0.3662218042610E+00 -0.2613238486558E+01 -0.5958920670433E+00 -0.2681318856330E+00
-0.2293682310859E+00 -0.2519583482564E+01 -0.5497903509225E+00 -0.1864548084559E+00
-0.4834857055803E-01 -0.2431614851863E+01 -0.4959926918751E+00 -0.8562888205699E-01
 0.1837196301918E+00 -0.2353098822103E+01 -0.4338758448476E+00  0.3276738401976E-01
 0.4737539048844E+00 -0.2288172351687E+01 -0.3628836947680E+00  0.1649365022397E+00
 0.8277096442943E+00 -0.2240925182345E+01 -0.2826431118219E+00  0.3041545737300E+00
 0.1249133252210E+01 -0.2214510940219E+01 -0.1930755404788E+00  0.4403729569840E+00
 0.1737306649252E+01 -0.2209902913500E+01 -0.9451925425813E-01  0.5603761645714E+00
 0.2285286853401E+01 -0.2224520731965E+01  0.1215322446843E-01  0.6488060782957E+00
 0.2878421972948E+01 -0.2251167178183E+01  0.1254509608223E+00  0.6902285649694E+00
 0.3494150066345E+01 -0.2277846503005E+01  0.2432607162930E+00  0.6720639434028E+00
 0.4103091815440E+01 -0.2288845292041E+01  0.3628493100866E+00  0.5877405486919E+00
 0.4674077280499E+01 -0.2267509428379E+01  0.4813135775962E+00  0.4407596450403E+00
-0.8452971549473E+00 -0.3599631258319E+01 -0.8889856959002E+00  0.3229333131256E+00
-0.7448570298292E+00 -0.3641430070128E+01 -0.8772574330637E+00  0.3275250338465E+00
-0.6442247529153E+00 -0.3679828079857E+01 -0.8648105794411E+00  0.3185997349838E+00
-0.5493532795140E+00 -0.3711762049733E+01 -0.8522230785484E+00  0.2971270075948E+00
-0.4650231322009E+00 -0.3735250798879E+01 -0.8400547987337E+00  0.2657759810045E+00
-0.3940361593799E+00 -0.3749747239450E+01 -0.8287566921154E+00  0.2278643882667E+00
-0.3372966296220E+00 -0.3755878034016E+01 -0.8186349449263E+00  0.1864046482253E+00
-0.2943743446785E+00 -0.3754909504778E+01 -0.8098567819590E+00  0.1435921001844E+00
-0.2641364254233E+00 -0.3748251002678E+01 -0.8024774975782E+00  0.1007153488457E+00
-0.2452280928571E+00 -0.3737132024599E+01 -0.7964720353596E+00  0.5831193765026E-01
-0.2363574268413E+00 -0.3722450199892E+01 -0.7917615371449E+00  0.1640632233970E-01
-0.2364231903032E+00 -0.3704732554488E+01 -0.7882311607039E+00 -0.2526116226523E-01
-0.2445402850480E+00 -0.3684154078329E+01 -0.7857388843838E+00 -0.6704603082748E-01
-0.2600030767839E+00 -0.3660579825461E+01 -0.7841165921331E+00 -0.1092516576897E+00
-0.2822067336099E+00 -0.3633618765329E+01 -0.7831651114579E+00 -0.1520113126801E+00
-0.3105381950884E+00 -0.3602685869956E+01 -0.7826448246712E+00 -0.1952012982364E+00
-0.3442425598969E+00 -0.3567077786816E+01 -0.7822640809993E+00 -0.2383852636918E+00
-0.3822815072865E+00 -0.3526058541812E+01 -0.7816680214674E+00 -0.2807990327982E+00
-0.4232159797950E+00 -0.3478937783640E+01 -0.7804307643163E+00 -0.3213862711963E+00
-0.4651345697232E+00 -0.3425163943727E+01 -0.7780597142841E+00 -0.3588824724867E+00
-0.5056274918450E+00 -0.3364568238353E+01 -0.7740391575738E+00 -0.3919808009590E+00
-0.5419002619497E+00 -0.3297420547568E+01 -0.7678641733457E+00 -0.4194260789118E+00
-0.5709713621209E+00 -0.3224115721405E+01 -0.7590174280154E+00 -0.4399019744960E+00
-0.5897540402463E+00 -0.3144981049585E+01 -0.7469470290967E+00 -0.4518976452018E+00
-0.5950131936060E+00 -0.3060300235567E+01 -0.7310626967282E+00 -0.4536402699987E+00
-0.5832455569641E+00 -0.2970444284658E+01 -0.7107379789152E+00 -0.4430933914410E+00
-0.5505214221404E+00 -0.2876040571771E+01 -0.6853124089942E+00 -0.4180274227994E+00
-0.4923199338890E+00 -0.2778146158961E+01 -0.6540932283167E+00 -0.3761725476027E+00
-0.4033882775457E+00 -0.2678413703061E+01 -0.6163604053059E+00 -0.3154668794726E+00
-0.2776614351881E+00 -0.2579237019556E+01 -0.5713796994631E+00 -0.2344167573016E+00
-0.1082416479662E+00 -0.2483800642880E+01 -0.5184084658942E+00 -0.1325476533155E+00
 0.1125863607068E+00 -0.2396002021641E+01 -0.4566831389919E+00 -0.1092751799356E-01
 0.3929921761270E+00 -0.2320362189760E+01 -0.3854740084705E+00  0.1270820440141E+00
 0.7406182158733E+00 -0.2261669238299E+01 -0.3042102090182E+00  0.2749286943314E+00
 0.1161017759491E+01 -0.2224055750626E+01 -0.2126076013951E+00  0.4222247041989E+00
 0.1655487844436E+01 -0.2209578426922E+01 -0.1108181181484E+00  0.5546585643822E+00
 0.2218572295153E+01 -0.2216503361887E+01  0.4137866593936E-03  0.6548949814225E+00
 0.2835942891952E+01 -0.2237792768816E+01  0.1196300264097E+00  0.7047869167980E+00
 0.3483512200087E+01 -0.2260540016816E+01  0.2445944402988E+00  0.6888542623870E+00
 0.4129103586135E+01 -0.2267029193813E+01  0.3724148840137E+00  0.5980547245275E+00
 0.4731189462783E+01 -0.2236478346548E+01  0.4989422306817E+00  0.4356975188665E+00
-0.8495266349594E+00 -0.3627050263621E+01 -0.8953153930573E+00  0.3392526719859E+00
-0.7440531144338E+00 -0.3670671921466E+01 -0.8829450203368E+00  0.3431891766776E+00
-0.6383320373135E+00 -0.3710439628080E+01 -0.8697543460390E+00  0.3322993153302E+00
-0.5391478734958E+00 -0.3742943619712E+01 -0.8564183114032E+00  0.3078423406261E+00
-0.4517444506954E+00 -0.3766148498290E+01 -0.8435786023673E+00  0.2730611248099E+00
-0.3789467508936E+00 -0.3779740214354E+01 -0.8317374054433E+00  0.2318273632079E+00
-0.3213888965762E+00 -0.3784718487907E+01 -0.8212214891337E+00  0.1875040802997E+00
-0.2782727048838E+00 -0.3782712816940E+01 -0.8121971164675E+00  0.1424105861007E+00
-0.2481327179397E+00 -0.3775405790497E+01 -0.8047077136785E+00  0.9779825113135E-01
-0.2293723010501E+00 -0.3764196722053E+01 -0.7987138165223E+00  0.5408504319138E-01
-0.2205533250425E+00 -0.3750070138492E+01 -0.7941247045403E+00  0.1114960649287E-01
-0.2205087109114E+00 -0.3733583972673E+01 -0.7908185485011E+00 -0.3141072217588E-01
-0.2283504071247E+00 -0.3714908106487E+01 -0.7886517144741E+00 -0.7408075475997E-01
-0.2434195547599E+00 -0.3693876589239E+01 -0.7874592405337E+00 -0.1172765964879E+00
-0.2651985706198E+00 -0.3670043875742E+01 -0.7870485010002E+00 -0.1612257259257E+00
-0.2931930621091E+00 -0.3642746190090E+01 -0.7871878621699E+00 -0.2058759808578E+00
-0.3267854908086E+00 -0.3611177567947E+01 -0.7875926234871E+00 -0.2508341350965E+00
-0.3650759624615E+00 -0.3574479605488E+01 -0.7879111253307E+00 -0.2953473869065E+00
-0.4067465078469E+00 -0.3531826717739E+01 -0.7877146568550E+00 -0.3383431797816E+00
-0.4499777541724E+00 -0.3482527673606E+01 -0.7865010972755E+00 -0.3785253713058E+00
-0.4924214290837E+00 -0.3426290696023E+01 -0.7837424367000E+00 -0.4145545488716E+00
-0.5313349458241E+00 -0.3363281166149E+01 -0.7789232340016E+00 -0.4451556033256E+00
-0.5638124849722E+00 -0.3293771677395E+01 -0.7715168439699E+00 -0.4690073343416E+00
-0.5868839256813E+00 -0.3217920625074E+01 -0.7609609214902E+00 -0.4845920874709E+00
-0.5974665730036E+00 -0.3135791060109E+01 -0.7466515377486E+00 -0.4901025367497E+00
-0.5922238258382E+00 -0.3047491179246E+01 -0.7279430118640E+00 -0.4834160579322E+00
-0.5673750342160E+00 -0.2953359088511E+01 -0.7041468350380E+00 -0.4621464241994E+00
-0.5184914750840E+00 -0.2854154768189E+01 -0.6745292587059E+00 -0.4237817190246E+00
-0.4403065633267E+00 -0.2751250542289E+01 -0.6383114306347E+00 -0.3659195158932E+00
-0.3265710832008E+00 -0.2646814362079E+01 -0.5946770979174E+00 -0.2866187920721E+00
-0.1699460877455E+00 -0.2543910068992E+01 -0.5427712394355E+00 -0.1848534186919E+00
 0.3809491352952E-01 -0.2446484876027E+01 -0.4816779996772E+00 -0.6106262677494E-01
 0.3070224604593E+00 -0.2359384959566E+01 -0.4104725059378E+00  0.8199953618199E-01
 0.6463369133655E+00 -0.2288101016388E+01 -0.3283528254973E+00  0.2381599954965E+00
 0.1063935254346E+01 -0.2237852369121E+01 -0.2347834264536E+00  0.3968809091640E+00
 0.1563630272809E+01 -0.2212005870294E+01 -0.1296751214294E+00  0.5428292870174E+00
 0.2142039852174E+01 -0.2209972135590E+01 -0.1358645688560E-01  0.6565348889236E+00
 0.2785595033362E+01 -0.2225118687053E+01  0.1120952709322E+00  0.7166909629691E+00
 0.3468936266614E+01 -0.2243613114343E+01  0.2450646341059E+00  0.7041319310390E+00
 0.4155787213624E+01 -0.2245334390206E+01  0.3820905703772E+00  0.6071433542445E+00
 0.4800421181860E+01 -0.2204001030216E+01  0.5192840380669E+00  0.4228523897950E+00
-0.8537665577520E+00 -0.3655480490931E+01 -0.9018494231752E+00  0.3563522922559E+00
-0.7427502704651E+00 -0.3701059218483E+01 -0.8887619110332E+00  0.3595472558656E+00
-0.6314552838002E+00 -0.3742213929054E+01 -0.8747338556055E+00  0.3464200611285E+00
-0.5276667345722E+00 -0.3775127555095E+01 -0.8605588707567E+00  0.3186172033560E+00
-0.4371406060794E+00 -0.3797740022835E+01 -0.8469761384038E+00  0.2800940334081E+00
-0.3626647076646E+00 -0.3810057674224E+01 -0.8345444888134E+00  0.2353662947063E+00
-0.3045066770347E+00 -0.3813539899516E+01 -0.8236093275829E+00  0.1881649956381E+00
-0.2614212129096E+00 -0.3810231556024E+01 -0.8143305659212E+00  0.1409034437178E+00
-0.2315650885474E+00 -0.3802104949547E+01 -0.8067340196402E+00  0.9475191629720E-01
-0.2130822978785E+00 -0.3790724161398E+01 -0.8007613037875E+00  0.4997120139413E-01
-0.2043865015325E+00 -0.3777148389510E+01 -0.7963069900745E+00  0.6268578501401E-02
-0.2042488910235E+00 -0.3761955780722E+01 -0.7932409461692E+00 -0.3691719941835E-01
-0.2117838824586E+00 -0.3745305322738E+01 -0.7914178528324E+00 -0.8021028996862E-01
-0.2263849256281E+00 -0.3726999130750E+01 -0.7906768230577E+00 -0.1241480221322E+00
-0.2476282522844E+00 -0.3706539123618E+01 -0.7908334869648E+00 -0.1690614701911E+00
-0.2751472494362E+00 -0.3683184948244E+01 -0.7916664513327E+00 -0.2149807458243E+00
-0.3084739187284E+00 -0.3656028038182E+01 -0.7929004031971E+00 -0.2615664388540E+00
-0.3468602808551E+00 -0.3624084572468E+01 -0.7941889824990E+00 -0.3080855665997E+00
-0.3891204428885E+00 -0.3586388826122E+01 -0.7951018656500E+00 -0.3534545441214E+00
-0.4335320716171E+00 -0.3542105008125E+01 -0.7951274277968E+00 -0.3963490388841E+00
-0.4778067946313E+00 -0.3490815286061E+01 -0.7937244279659E+00 -0.4354011274816E+00
-0.5192496153021E+00 -0.3432579523306E+01 -0.7903658394991E+00 -0.4693235635153E+00
-0.5550304334749E+00 -0.3367546533020E+01 -0.7845154049891E+00 -0.4968044589836E+00
-0.5823054360706E+00 -0.3295700468159E+01 -0.7756011924033E+00 -0.5163383844420E+00
-0.5981654408371E+00 -0.3216872791032E+01 -0.7630076577436E+00 -0.5261036739214E+00
-0.5994725152630E+00 -0.3130891617208E+01 -0.7460728376115E+00 -0.5239097309486E+00
-0.5826372713466E+00 -0.3037780730745E+01 -0.7240836112079E+00 -0.5072279024867E+00
-0.5433759604692E+00 -0.2937966937216E+01 -0.6962685899123E+00 -0.4733120290826E+00
-0.4764727079554E+00 -0.2832490299136E+01 -0.6617926112797E+00 -0.4194155138828E+00
-0.3755687941719E+00 -0.2723220860050E+01 -0.6197579400794E+00 -0.3431248835141E+00
-0.2329602146769E+00 -0.2613008701857E+01 -0.5691937917883E+00 -0.2428002586022E+00
-0.3936349341521E-01 -0.2505743973323E+01 -0.5090215009327E+00 -0.1181328808552E+00
 0.2160069931662E+00 -0.2406503735898E+01 -0.4380993550746E+00  0.2892225186804E-01
 0.5446598673907E+00 -0.2321448825817E+01 -0.3553577969805E+00  0.1928262438763E+00
 0.9571918988137E+00 -0.2256973345743E+01 -0.2599562932595E+00  0.3631554919065E+00
 0.1460523921699E+01 -0.2218000830150E+01 -0.1514953839477E+00  0.5237127631873E+00
 0.2054091439147E+01 -0.2205460843409E+01 -0.3027388130340E-01  0.6527859236431E+00
 0.2725776245767E+01 -0.2213467287087E+01  0.1024617932629E+00  0.7253805735589E+00
 0.3449122907694E+01 -0.2227394739917E+01  0.2443456371965E+00  0.7178569832549E+00
 0.4183522185516E+01 -0.2223888342020E+01  0.3919267745394E+00  0.6139894850856E+00
 0.4881801169480E+01 -0.2174720190193E+01  0.5414162039252E+00  0.4077585837118E+00
-0.8580107521197E+00 -0.3685083714751E+01 -0.9086189069136E+00  0.3742961339180E+00
-0.7408632461258E+00 -0.3732757104714E+01 -0.8947240835005E+00  0.3766320631303E+00
-0.6234470979037E+00 -0.3775283601617E+01 -0.8797461530134E+00  0.3609212326002E+00
-0.5147614462560E+00 -0.3808371297254E+01 -0.8646265615859E+00  0.3293335031815E+00
-0.4211143678508E+00 -0.3829986973573E+01 -0.8502202809539E+00  0.2867128044683E+00
-0.3451644685868E+00 -0.3840574494807E+01 -0.8371478051532E+00  0.2383182043383E+00
-0.2866893917638E+00 -0.3842156085916E+01 -0.8257691078408E+00  0.1882533054307E+00
-0.2439062423884E+00 -0.3837244418542E+01 -0.8162301443489E+00  0.1389775783842E+00
-0.2145493615524E+00 -0.3828109509302E+01 -0.8085317862189E+00  0.9152398178507E-01
-0.1964910819566E+00 -0.3816465553823E+01 -0.8025913391154E+00  0.4595344949060E-01
-0.1880000299344E+00 -0.3803427147026E+01 -0.7982854472875E+00  0.1776243034371E-02
-0.1877931065890E+00 -0.3789578091895E+01 -0.7954742515503E+00 -0.4174085863015E-01
-0.1949939251344E+00 -0.3775059458463E+01 -0.7940106885512E+00 -0.8536867362075E-01
-0.2090535157215E+00 -0.3759641192043E+01 -0.7937389533805E+00 -0.1297719548812E+00
-0.2296473444143E+00 -0.3742776635978E+01 -0.7944848079173E+00 -0.1753934672583E+00
-0.2565444893721E+00 -0.3723653574639E+01 -0.7960396246641E+00 -0.2223562651789E+00
-0.2894381590120E+00 -0.3701263142647E+01 -0.7981402722250E+00 -0.2703863220540E+00
-0.3277461204631E+00 -0.3674494587951E+01 -0.8004481536104E+00 -0.3187799548258E+00
-0.3704259783204E+00 -0.3642237860227E+01 -0.8025327796681E+00 -0.3664481089546E+00
-0.4158567065653E+00 -0.3603508256486E+01 -0.8038730045888E+00 -0.4120412948782E+00
-0.4618057942386E+00 -0.3557759636838E+01 -0.8039130981945E+00 -0.4541665945267E+00
-0.5056181018057E+00 -0.3504946725900E+01 -0.8021129774936E+00 -0.4915325336791E+00
-0.5445359283892E+00 -0.3445095093902E+01 -0.7979262163483E+00 -0.5228518742195E+00
-0.5758490338209E+00 -0.3378012096533E+01 -0.7907722378543E+00 -0.5466524741000E+00
-0.5968414110573E+00 -0.3303290483333E+01 -0.7800263905013E+00 -0.5611211800628E+00
-0.6046049948831E+00 -0.3220466149719E+01 -0.7650142403201E+00 -0.5640213305866E+00
-0.5957837831434E+00 -0.3129229852906E+01 -0.7450027383113E+00 -0.5527018149502E+00
-0.5662936446882E+00 -0.3029645781331E+01 -0.7191878959206E+00 -0.5241992283186E+00
-0.5110401832237E+00 -0.2922374683695E+01 -0.6866829836161E+00 -0.4754327689113E+00
-0.4236446597789E+00 -0.2808916344941E+01 -0.6465122105777E+00 -0.4035092288261E+00
-0.2961421976884E+00 -0.2691803669018E+01 -0.5975891822461E+00 -0.3061319177264E+00
-0.1185913961616E+00 -0.2574736738780E+01 -0.5386656350150E+00 -0.1821384691385E+00
 0.1210634568342E+00 -0.2462885007872E+01 -0.4683643171867E+00 -0.3248909794880E-01
 0.4364312921842E+00 -0.2362990282752E+01 -0.3853118038552E+00  0.1382051748938E+00
 0.8411408004726E+00 -0.2282660489522E+01 -0.2883039421060E+00  0.3199832025939E+00
 0.1345866651950E+01 -0.2228617013993E+01 -0.1765500750394E+00  0.4960601763955E+00
 0.1953781645818E+01 -0.2203748077311E+01 -0.4999328704351E-01  0.6424719111197E+00
 0.2655146180884E+01 -0.2203416129818E+01  0.9034601155952E-01  0.7300435971227E+00
 0.3422880789104E+01 -0.2212363558137E+01  0.2421034498011E+00  0.7295334895493E+00
 0.4212298909348E+01 -0.2204288728708E+01  0.4016020421122E+00  0.6190107236509E+00
 0.4969341447913E+01 -0.2147592074426E+01  0.5643498831067E+00  0.3909569863856E+00
-0.8622599140228E+00 -0.3716065991688E+01 -0.9156651947867E+00  0.3931603630108E+00
-0.7382898977166E+00 -0.3765982564888E+01 -0.9008545059447E+00  0.3944828598339E+00
-0.6141307359166E+00 -0.3809829200457E+01 -0.8847920004592E+00  0.3757515582842E+00
-0.5002571887374E+00 -0.3842765377642E+01 -0.8686045262192E+00  0.3398490724261E+00
-0.4035538141594E+00 -0.3862869487683E+01 -0.8532846730835E+00  0.2927298296253E+00
-0.3264146933105E+00 -0.3871178396338E+01 -0.8395186304395E+00  0.2405017821569E+00
-0.2679723076683E+00 -0.3870397767017E+01 -0.8276740272704E+00  0.1876254757412E+00
-0.2258057100660E+00 -0.3863556941204E+01 -0.8178725424412E+00  0.1365359947884E+00
-0.1971858335062E+00 -0.3853219214210E+01 -0.8100810216144E+00  0.8805936277199E-01
-0.1797086087232E+00 -0.3841222594840E+01 -0.8041862526960E+00  0.4200995804072E-01
-0.1715070121518E+00 -0.3828710364671E+01 -0.8000434872861E+00 -0.2323333847321E-02
-0.1712546085545E+00 -0.3816253991717E+01 -0.7975017319381E+00 -0.4585587401580E-01
-0.1780920670405E+00 -0.3803969061981E+01 -0.7964122376717E+00 -0.8950912808705E-01
-0.1915327176971E+00 -0.3791594574803E+01 -0.7966254703707E+00 -0.1340789160707E+00
-0.2113552657051E+00 -0.3778542063247E+01 -0.7979794776812E+00 -0.1801265267976E+00
-0.2374711111839E+00 -0.3763935541475E+01 -0.8002813424569E+00 -0.2278789304781E+00
-0.2697461783588E+00 -0.3746671091174E+01 -0.8032834658764E+00 -0.2771406382837E+00
-0.3077790985410E+00 -0.3725511172252E+01 -0.8066580661787E+00 -0.3272485981944E+00
-0.3506841649587E+00 -0.3699197527812E+01 -0.8099763506238E+00 -0.3771147538712E+00
-0.3969464238196E+00 -0.3666591895045E+01 -0.8127076758832E+00 -0.4253671346293E+00
-0.4443834668427E+00 -0.3627017424843E+01 -0.8142801904708E+00 -0.4705904995840E+00
-0.4903691100170E+00 -0.3580324384231E+01 -0.8141387109813E+00 -0.5114968777611E+00
-0.5322118281217E+00 -0.3526416461406E+01 -0.8117256700012E+00 -0.5468400773575E+00
-0.5673406878085E+00 -0.3464923012114E+01 -0.8064527520015E+00 -0.5752041572108E+00
-0.5932522422087E+00 -0.3395193211477E+01 -0.7976891026237E+00 -0.5948094526764E+00
-0.6072997187310E+00 -0.3316462289936E+01 -0.7847524134271E+00 -0.6033977725255E+00
-0.6064029555215E+00 -0.3228074552224E+01 -0.7668955129768E+00 -0.5982197354144E+00
-0.5867332404906E+00 -0.3129708372090E+01 -0.7432883335920E+00 -0.5761191100076E+00
-0.5433927944449E+00 -0.3021603558434E+01 -0.7129992812003E+00 -0.5337030413861E+00
-0.4700841786339E+00 -0.2904818489856E+01 -0.6749805437561E+00 -0.4676087992427E+00
-0.3587108033560E+00 -0.2781457088103E+01 -0.6280335876502E+00 -0.3748607372269E+00
-0.1988158950696E+00 -0.2654871459930E+01 -0.5707374795046E+00 -0.2533550302551E+00
 0.2281934916963E-01 -0.2530137705191E+01 -0.5014636786766E+00 -0.1028621634613E+00
 0.3219298477552E+00 -0.2414422514732E+01 -0.4184985396315E+00  0.7326531706553E-01
 0.7154748124415E+00 -0.2316521037055E+01 -0.3202092496941E+00  0.2659708711565E+00
 0.1218590892032E+01 -0.2245172206958E+01 -0.2053162660447E+00  0.4583036310079E+00
 0.1839318858952E+01 -0.2205741672841E+01 -0.7328456386975E-01  0.6241822617239E+00
 0.2571578200724E+01 -0.2195502698717E+01  0.7521510152217E-01  0.7297634664781E+00
 0.3388567793091E+01 -0.2199053791425E+01  0.2379028038782E+00  0.7389359113499E+00
 0.4240941736085E+01 -0.2187100705527E+01  0.4107682122324E+00  0.6228610595408E+00
 0.5064236223118E+01 -0.2122285737220E+01  0.5883901059474E+00  0.3714401729595E+00
-0.8665126910978E+00 -0.3748685401912E+01 -0.9230396323564E+00  0.4130326054722E+00
-0.7348979378787E+00 -0.3801004861662E+01 -0.9071805734261E+00  0.4131367926590E+00
-0.6032863878690E+00 -0.3846066443505E+01 -0.8898705795350E+00  0.3908307129172E+00
-0.4839486379884E+00 -0.3878405110794E+01 -0.8724707627573E+00  0.3499746835643E+00
-0.3843399621316E+00 -0.3896345448756E+01 -0.8561370949349E+00  0.2979120870467E+00
-0.3063949957791E+00 -0.3901722215615E+01 -0.8416234548200E+00  0.2417045781833E+00
-0.2484090114001E+00 -0.3898061464513E+01 -0.8292941075401E+00  0.1861223762222E+00
-0.2072155436148E+00 -0.3888947700288E+01 -0.8192326609880E+00  0.1334766629728E+00
-0.1795894204225E+00 -0.3877214874767E+01 -0.8113608711281E+00  0.8430282555085E-01
-0.1628560021511E+00 -0.3864784095463E+01 -0.8055280315262E+00  0.3811969090952E-01
-0.1550294730562E+00 -0.3852792508232E+01 -0.8015644082019E+00 -0.6026398841403E-02
-0.1547547944480E+00 -0.3841777988495E+01 -0.7993065684992E+00 -0.4923852411852E-01
-0.1611985059173E+00 -0.3831822892434E+01 -0.7986042915705E+00 -0.9258853534805E-01
-0.1739399960392E+00 -0.3822638395792E+01 -0.7993156902770E+00 -0.1370037216707E+00
-0.1928631907664E+00 -0.3813604414422E+01 -0.8012935329779E+00 -0.1831689854878E+00
-0.2180264670323E+00 -0.3803793535900E+01 -0.8043640125725E+00 -0.2314263561046E+00
-0.2494793461324E+00 -0.3792015927039E+01 -0.8082990666790E+00 -0.2816739781388E+00
-0.2870178147759E+00 -0.3776909707054E+01 -0.8127855164773E+00 -0.3333033095070E+00
-0.3299283986884E+00 -0.3757064922628E+01 -0.8173986764434E+00 -0.3852352420992E+00
-0.3768079962982E+00 -0.3731184438507E+01 -0.8215984992038E+00 -0.4360777352543E+00
-0.4255167730329E+00 -0.3698457593755E+01 -0.8247948856480E+00 -0.4843947938473E+00
-0.4734429171949E+00 -0.3658630662140E+01 -0.8264147281815E+00 -0.5289092463912E+00
-0.5179514545184E+00 -0.3611487193921E+01 -0.8258877419945E+00 -0.5684332464404E+00
-0.5566147333414E+00 -0.3556478445794E+01 -0.8226186480850E+00 -0.6016315651449E+00
-0.5871608200220E+00 -0.3492707570385E+01 -0.8159736902404E+00 -0.6267845994674E+00
-0.6072354114975E+00 -0.3419105139108E+01 -0.8052681221205E+00 -0.6416390466939E+00
-0.6140758134269E+00 -0.3334662392711E+01 -0.7897476529957E+00 -0.6433749385818E+00
-0.6041636231540E+00 -0.3238657462804E+01 -0.7685642286441E+00 -0.6286747785228E+00
-0.5728742595075E+00 -0.3130876755094E+01 -0.7407502139583E+00 -0.5938688751377E+00
-0.5141015985177E+00 -0.3011872245924E+01 -0.7051947793967E+00 -0.5351558175880E+00
-0.4197698590228E+00 -0.2883204165492E+01 -0.6605948147466E+00 -0.4488864829834E+00
-0.2790962603282E+00 -0.2747697469150E+01 -0.6053587549161E+00 -0.3319568861822E+00
-0.7788133578333E-01 -0.2610099068724E+01 -0.5375960889124E+00 -0.1827687627464E+00
 0.2016666326758E+00 -0.2477761598844E+01 -0.4552190000169E+00 -0.3061108918684E-02
 0.5800620547344E+00 -0.2360542344727E+01 -0.3560960633047E+00  0.1995541230442E+00
 0.1077640543910E+01 -0.2269358150466E+01 -0.2383435248628E+00  0.4085661758624E+00
 0.1708671163488E+01 -0.2212626769623E+01 -0.1007911227289E+00  0.5961256150714E+00
 0.2472481424565E+01 -0.2190421847051E+01  0.5641191634342E-01  0.7233274436479E+00
 0.3343866442765E+01 -0.2187950640749E+01  0.2311831638480E+00  0.7458006799941E+00
 0.4268268711976E+01 -0.2172515295511E+01  0.4191506895389E+00  0.6258177656127E+00
 0.5167911572065E+01 -0.2098735005293E+01  0.6138353225011E+00  0.3484599343789E+00
-0.8707642400365E+00 -0.3783267873986E+01 -0.9308064366745E+00  0.4340149088305E+00
-0.7305145588775E+00 -0.3838159922097E+01 -0.9137349098106E+00  0.4326258635294E+00
-0.5906398838809E+00 -0.3884251853250E+01 -0.8949783607624E+00  0.4060371348663E+00
-0.4655965850685E+00 -0.3915384709357E+01 -0.8761962719414E+00  0.3594596521369E+00
-0.3633512250364E+00 -0.3930338454087E+01 -0.8587379486209E+00  0.3019722214690E+00
-0.2851030111232E+00 -0.3932012763529E+01 -0.8434231674985E+00  0.2416811490559E+00
-0.2280770402245E+00 -0.3924902681323E+01 -0.8305959566862E+00  0.1835716921206E+00
-0.1882527289760E+00 -0.3913165616437E+01 -0.8202836813057E+00  0.1296960605859E+00
-0.1618906642884E+00 -0.3899858271575E+01 -0.8123497992776E+00  0.8020194645045E-01
-0.1460653963043E+00 -0.3886927154776E+01 -0.8065985222353E+00  0.3426427349195E-01
-0.1386976989222E+00 -0.3875460202391E+01 -0.8028315922258E+00 -0.9328715897168E-02
-0.1384224710713E+00 -0.3865937693669E+01 -0.8008720448820E+00 -0.5186733831131E-01
-0.1444416027479E+00 -0.3858401315898E+01 -0.8005685956586E+00 -0.9456839910526E-01
-0.1564028812953E+00 -0.3852539870499E+01 -0.8017885623065E+00 -0.1384870965749E+00
-0.1742947225915E+00 -0.3847715891467E+01 -0.8044021347982E+00 -0.1844346884212E+00
-0.1983242805119E+00 -0.3842968131470E+01 -0.8082584944403E+00 -0.2328793057746E+00
-0.2287342229998E+00 -0.3837035109990E+01 -0.8131538787149E+00 -0.2838301135829E+00
-0.2655357392372E+00 -0.3828436322849E+01 -0.8187944246182E+00 -0.3367504062637E+00
-0.3082062032682E+00 -0.3815607256659E+01 -0.8247627042754E+00 -0.3905803178787E+00
-0.3554619123371E+00 -0.3797085466805E+01 -0.8305094882039E+00 -0.4439101483149E+00
-0.4051963630380E+00 -0.3771921887676E+01 -0.8354236625917E+00 -0.4952833683779E+00
-0.4547933039038E+00 -0.3739758218061E+01 -0.8389103168936E+00 -0.5434401766113E+00
-0.5016607778502E+00 -0.3700259261899E+01 -0.8403840204726E+00 -0.5872690733416E+00
-0.5435164875443E+00 -0.3652698708809E+01 -0.8392430517763E+00 -0.6255412728957E+00
-0.5783384958973E+00 -0.3595933706347E+01 -0.8348544528893E+00 -0.6566246493424E+00
-0.6040954829327E+00 -0.3528591385623E+01 -0.8265373860275E+00 -0.6782980394683E+00
-0.6183818010455E+00 -0.3449311715726E+01 -0.8135387154770E+00 -0.6877009530195E+00
-0.6180409601142E+00 -0.3356969592019E+01 -0.7950021222731E+00 -0.6813925058158E+00
-0.5987958968938E+00 -0.3250878892255E+01 -0.7699349693026E+00 -0.6554746178629E+00
-0.5548458661857E+00 -0.3131032428234E+01 -0.7371756698688E+00 -0.6057610975272E+00
-0.4783077420078E+00 -0.2998336902429E+01 -0.6953289392485E+00 -0.5279690271250E+00
-0.3583091576730E+00 -0.2854897265126E+01 -0.6426412941359E+00 -0.4179777052415E+00
-0.1799393394041E+00 -0.2704847307722E+01 -0.5769573380225E+00 -0.2726773387461E+00
 0.7645428488320E-01 -0.2555390134334E+01 -0.4957871772779E+00 -0.9183640111783E-01
 0.4350363188163E+00 -0.2417182732152E+01 -0.3964292885744E+00  0.1190084188433E+00
 0.9220477759107E+00 -0.2303360762360E+01 -0.2762626014064E+00  0.3446135433080E+00
 0.1559573820063E+01 -0.2225984844848E+01 -0.1332822069429E+00  0.5560220726181E+00
 0.2354667128936E+01 -0.2189068200797E+01  0.3311978612130E-01  0.7090963269118E+00
 0.3285733781786E+01 -0.2179478168140E+01  0.2212511260260E+00  0.7496035581643E+00
 0.4292895757967E+01 -0.2160761081022E+01  0.4264269417431E+00  0.6279881474028E+00
 0.5281935392376E+01 -0.2077126326428E+01  0.6409618227406E+00  0.3214385841286E+00
-0.8750038863463E+00 -0.3820229119199E+01 -0.9390466151019E+00  0.4562275466352E+00
-0.7249118286020E+00 -0.3877869402847E+01 -0.9205562600071E+00  0.4529716128642E+00
-0.5758483895244E+00 -0.3924688143007E+01 -0.9001073199189E+00  0.4211901572470E+00
-0.4449257213739E+00 -0.3953786663611E+01 -0.8797424901061E+00  0.3679728652054E+00
-0.3404711635732E+00 -0.3964720527369E+01 -0.8610383510189E+00  0.3045587729803E+00
-0.2625640673239E+00 -0.3961796759109E+01 -0.8448721778761E+00  0.2401528684067E+00
-0.2070845482870E+00 -0.3950628483407E+01 -0.8315426187298E+00  0.1797924041656E+00
-0.1690583381269E+00 -0.3935927793841E+01 -0.8209972386274E+00  0.1250941396255E+00
-0.1442363318795E+00 -0.3920892824546E+01 -0.8130258434001E+00  0.7571080729292E-01
-0.1294793267469E+00 -0.3907419000340E+01 -0.8073796774483E+00  0.3043017594414E-01
-0.1226491729646E+00 -0.3896494425521E+01 -0.8038287316751E+00 -0.1222467034508E-01
-0.1223927559620E+00 -0.3888515990487E+01 -0.8021817612431E+00 -0.5372327103252E-01
-0.1279570533267E+00 -0.3883478174567E+01 -0.8022870575338E+00 -0.9541596100700E-01
-0.1390587090195E+00 -0.3881055536096E+01 -0.8040228610041E+00 -0.1384776031110E+00
-0.1557864561106E+00 -0.3880612029243E+01 -0.8072797091002E+00 -0.1838454498731E+00
-0.1784940954027E+00 -0.3881176492685E+01 -0.8119341297163E+00 -0.2321241805882E+00
-0.2076246327753E+00 -0.3881436787960E+01 -0.8178122963333E+00 -0.2834539224122E+00
-0.2434234431165E+00 -0.3879804212253E+01 -0.8246455433621E+00 -0.3373917014320E+00
-0.2855812855323E+00 -0.3874557968844E+01 -0.8320278632734E+00 -0.3929107963510E+00
-0.3329442311274E+00 -0.3864062216383E+01 -0.8394013020102E+00 -0.4485868031664E+00
-0.3834283722613E+00 -0.3847222284345E+01 -0.8461301439296E+00 -0.5029413524588E+00
-0.4343894096651E+00 -0.3823572395023E+01 -0.8515923736273E+00 -0.5547375496565E+00
-0.4832604641914E+00 -0.3792658473462E+01 -0.8551838002740E+00 -0.6029586862859E+00
-0.5279047501218E+00 -0.3753577031156E+01 -0.8562963690153E+00 -0.6465088125468E+00
-0.5665684536712E+00 -0.3704941651454E+01 -0.8543020337551E+00 -0.6838704884422E+00
-0.5975727606032E+00 -0.3645083261048E+01 -0.8485312169743E+00 -0.7128813884859E+00
-0.6189053786054E+00 -0.3572302375267E+01 -0.8382415632653E+00 -0.7306714355869E+00
-0.6278174729522E+00 -0.3485081754646E+01 -0.8225798577771E+00 -0.7337191250285E+00
-0.6204471800068E+00 -0.3382261343307E+01 -0.8005417165917E+00 -0.7179589010177E+00
-0.5914110409358E+00 -0.3263241246258E+01 -0.7709304689264E+00 -0.6788979971934E+00
-0.5332028149583E+00 -0.3128179828460E+01 -0.7322765395953E+00 -0.6116992146942E+00
-0.4351398001441E+00 -0.2978267920289E+01 -0.6826815542593E+00 -0.5112643055340E+00
-0.2819629358584E+00 -0.2816703595349E+01 -0.6197333154763E+00 -0.3728906522197E+00
-0.5251374573663E-01 -0.2650101684218E+01 -0.5405230940453E+00 -0.1940524807400E+00
 0.2809165685270E+00 -0.2489476896643E+01 -0.4417120722051E+00  0.2248365906366E-01
 0.7510540669734E+00 -0.2350021695258E+01 -0.3197935304221E+00  0.2638141290724E+00
 0.1389565841539E+01 -0.2247963077064E+01 -0.1716794496633E+00  0.5009682795804E+00
 0.2214244096660E+01 -0.2192637721443E+01  0.4321275107742E-02  0.6847951000142E+00
 0.3210218859454E+01 -0.2174124064786E+01  0.2072189620214E+00  0.7494214574721E+00
 0.4312990170264E+01 -0.2152205438800E+01  0.4321569527323E+00  0.6294313649993E+00
 0.5408116406343E+01 -0.2057836413760E+01  0.6700560085011E+00  0.2898531034224E+00
-0.8792112955230E+00 -0.3860105662148E+01 -0.9478634056586E+00  0.4798139225389E+00
-0.7177858612635E+00 -0.3920666161228E+01 -0.9276904183219E+00  0.4741758478186E+00
-0.5584824952324E+00 -0.3967728088696E+01 -0.9052421302749E+00  0.4360235757098E+00
-0.4216250714431E+00 -0.3993663435350E+01 -0.8830577145173E+00  0.3750780115523E+00
-0.3156011496107E+00 -0.3999287642831E+01 -0.8629777713477E+00  0.3052463564802E+00
-0.2388440403107E+00 -0.3990743595381E+01 -0.8459175397435E+00  0.2368106995395E+00
-0.1855778315722E+00 -0.3974890037801E+01 -0.8320935862737E+00  0.1746020965673E+00
-0.1498001969866E+00 -0.3956918420805E+01 -0.8213437357974E+00  0.1195809292251E+00
-0.1267893737661E+00 -0.3940045313841E+01 -0.8133669496416E+00  0.7079440515277E-01
-0.1132495551089E+00 -0.3926019619264E+01 -0.8078538469126E+00  0.2661115422285E-01
-0.1070270490276E+00 -0.3915673305723E+01 -0.8045400829387E+00 -0.1470630434865E-01
-0.1068055705147E+00 -0.3909293732561E+01 -0.8032198725841E+00 -0.5478990543717E-01
-0.1118866709833E+00 -0.3906823197731E+01 -0.8037419857196E+00 -0.9510546043989E-01
-0.1220540189587E+00 -0.3907933028561E+01 -0.8059974215142E+00 -0.1369338976114E+00
-0.1374883543518E+00 -0.3912012280299E+01 -0.8099001389987E+00 -0.1813340730732E+00
-0.1586828029264E+00 -0.3918111205055E+01 -0.8153588137460E+00 -0.2290562221634E+00
-0.1862840822545E+00 -0.3924896723813E+01 -0.8222361734657E+00 -0.2803939662415E+00
-0.2207912950408E+00 -0.3930689194167E+01 -0.8302961102139E+00 -0.3350258531231E+00
-0.2621359821098E+00 -0.3933611968926E+01 -0.8391496027115E+00 -0.3919776332906E+00
-0.3093086558536E+00 -0.3931845545423E+01 -0.8482308528950E+00 -0.4498147006691E+00
-0.3602362447476E+00 -0.3924138283749E+01 -0.8568749184678E+00 -0.5070339991290E+00
-0.4122174408889E+00 -0.3909909776807E+01 -0.8644254564201E+00 -0.5624257541483E+00
-0.4626876579979E+00 -0.3888583593167E+01 -0.8702542632007E+00 -0.6150865920703E+00
-0.5096540428547E+00 -0.3859078130133E+01 -0.8737464476174E+00 -0.6640796194134E+00
-0.5516489642552E+00 -0.3819768173593E+01 -0.8742834405975E+00 -0.7080276340168E+00
-0.5873744055652E+00 -0.3768702644916E+01 -0.8712154230784E+00 -0.7448515443840E+00
-0.6152433004285E+00 -0.3703866116257E+01 -0.8638218962091E+00 -0.7717016360244E+00
-0.6329517451675E+00 -0.3623376898035E+01 -0.8512657413254E+00 -0.7850214264366E+00
-0.6371092805994E+00 -0.3525621542020E+01 -0.8325461769298E+00 -0.7806493854745E+00
-0.6228518370262E+00 -0.3409400577846E+01 -0.8064504949915E+00 -0.7538882375533E+00
-0.5832365720287E+00 -0.3274056495046E+01 -0.7714586249106E+00 -0.6994694913653E+00
-0.5080824889721E+00 -0.3119688397840E+01 -0.7255541881740E+00 -0.6114247451506E+00
-0.3822373136849E+00 -0.2948217105107E+01 -0.6660908936839E+00 -0.4834673087983E+00
-0.1835773564079E+00 -0.2765133842924E+01 -0.5897422486542E+00 -0.3105359753898E+00
 0.1187597605820E+00 -0.2581152361315E+01 -0.4924785274851E+00 -0.9192331949501E-01
 0.5642923018023E+00 -0.2413048603131E+01 -0.3697512657755E+00  0.1631218179403E+00
 0.1196091268047E+01 -0.2281524055600E+01 -0.2170865607455E+00  0.4272735781404E+00
 0.2046516072663E+01 -0.2202830745224E+01 -0.3126293497806E-01  0.6472434128380E+00
 0.3112153117904E+01 -0.2172558619161E+01  0.1879189025488E+00  0.7437555556763E+00
 0.4325965239053E+01 -0.2147379626538E+01  0.4357171289955E+00  0.6301862161379E+00
 0.5548632900477E+01 -0.2041415776363E+01  0.7014434352751E+00  0.2531664475941E+00
-0.8833501261671E+00 -0.3903599753948E+01 -0.9573899902891E+00  0.5049468873671E+00
-0.7087267094471E+00 -0.3967228511014E+01 -0.9351910580276E+00  0.4962044544198E+00
-0.5380042941119E+00 -0.4013774233393E+01 -0.9103557190663E+00  0.4501462350780E+00
-0.3953536937439E+00 -0.4035006798787E+01 -0.8860721117098E+00  0.3802017940203E+00
-0.2886801706253E+00 -0.4033725666680E+01 -0.8644811803428E+00  0.3035275333545E+00
-0.2140658460674E+00 -0.4018425162579E+01 -0.8464982143431E+00  0.2313228552215E+00
-0.1637492244030E+00 -0.3997276126458E+01 -0.8322050825730E+00  0.1678279381682E+00
-0.1306746850254E+00 -0.3975789433218E+01 -0.8212928358869E+00  0.1130848668276E+00
-0.1097279722620E+00 -0.3957028954180E+01 -0.8133513974084E+00  0.6543365918363E-01
-0.9753521690342E-01 -0.3942485282384E+01 -0.8080041118976E+00  0.2281084891624E-01
-0.9197811855598E-01 -0.3932775549139E+01 -0.8049507455337E+00 -0.1676232887899E-01
-0.9180368883817E-01 -0.3928052994823E+01 -0.8039713487122E+00 -0.5505368309546E-01
-0.9637671730938E-01 -0.3928205015533E+01 -0.8049163585627E+00 -0.9361950662551E-01
-0.1055435090759E+00 -0.3932913548356E+01 -0.8076914235220E+00 -0.1338273025434E+00
-0.1195638189088E+00 -0.3941621239045E+01 -0.8122370236941E+00 -0.1768480017413E+00
-0.1390561915592E+00 -0.3953439390826E+01 -0.8184991286736E+00 -0.2235836222724E+00
-0.1648685966560E+00 -0.3967054870799E+01 -0.8263847058051E+00 -0.2745059709066E+00
-0.1977727907107E+00 -0.3980724303840E+01 -0.8356994313630E+00 -0.3294502476078E+00
-0.2379742774951E+00 -0.3992419667319E+01 -0.8460788015703E+00 -0.3875219786056E+00
-0.2846289408386E+00 -0.4000124981977E+01 -0.8569507973327E+00 -0.4472841327488E+00
-0.3356625989901E+00 -0.4002413969761E+01 -0.8676153266787E+00 -0.5072049051085E+00
-0.3882821353202E+00 -0.3998577266212E+01 -0.8773718933803E+00 -0.5661043293813E+00
-0.4398973265325E+00 -0.3987906455127E+01 -0.8855607695278E+00 -0.6232105351043E+00
-0.4886563979238E+00 -0.3969137820408E+01 -0.8915588569517E+00 -0.6777704505687E+00
-0.5333963610372E+00 -0.3940414386010E+01 -0.8947621627424E+00 -0.7285689785202E+00
-0.5732268512770E+00 -0.3899525520644E+01 -0.8945504877141E+00 -0.7736302123691E+00
-0.6070123810406E+00 -0.3844176852654E+01 -0.8902378600045E+00 -0.8101516897955E+00
-0.6329203618813E+00 -0.3772168627503E+01 -0.8810178110050E+00 -0.8345879962066E+00
-0.6480715170133E+00 -0.3681480077711E+01 -0.8659103318479E+00 -0.8427606393354E+00
-0.6482047142982E+00 -0.3570339186078E+01 -0.8437087926474E+00 -0.8298911181594E+00
-0.6271161523932E+00 -0.3437245894251E+01 -0.8128724214416E+00 -0.7904465942361E+00
-0.5754545962191E+00 -0.3281069420454E+01 -0.7713048148279E+00 -0.7177732089120E+00
-0.4787077590387E+00 -0.3102125173040E+01 -0.7161665970874E+00 -0.6041274820981E+00
-0.3145252714036E+00 -0.2904177308091E+01 -0.6437405254914E+00 -0.4418163674441E+00
-0.4965264283973E-01 -0.2696745999079E+01 -0.5492797365686E+00 -0.2260392052513E+00
 0.3620531828268E+00 -0.2497280257638E+01 -0.4270454213258E+00  0.3910683143822E-01
 0.9767036304411E+00 -0.2330815403078E+01 -0.2708223585630E+00  0.3302834436728E+00
 0.1845897741532E+01 -0.2222178681249E+01 -0.7525618906497E-01  0.5919931183547E+00
 0.2984703477884E+01 -0.2175782892508E+01  0.1617841194860E+00  0.7302284743274E+00
 0.4328042637564E+01 -0.2147002359324E+01  0.4362080621481E+00  0.6302308782474E+00
 0.5706205922903E+01 -0.2028616697437E+01  0.7355178560534E+00  0.2107859501662E+00
-0.8873573413087E+00 -0.3951646074790E+01 -0.9678006976411E+00  0.5318368076928E+00
-0.6971742642071E+00 -0.4018426426793E+01 -0.9431201522536E+00  0.5189589153204E+00
-0.5137417127971E+00 -0.4063269048869E+01 -0.9154021659738E+00  0.4629828554833E+00
-0.3657561810111E+00 -0.4077697470324E+01 -0.8886907435095E+00  0.3825944132139E+00
-0.2597146950237E+00 -0.4067564096622E+01 -0.8654557712254E+00  0.2988097711747E+00
-0.1884295998238E+00 -0.4044293941006E+01 -0.8465447207804E+00  0.2233500455095E+00
-0.1418443924356E+00 -0.4017309300407E+01 -0.8318307509638E+00  0.1593221064768E+00
-0.1119069792061E+00 -0.3992163776461E+01 -0.8208141633645E+00  0.1055627180115E+00
-0.9324339953398E-01 -0.3971548091261E+01 -0.8129583102731E+00  0.5963077636389E-01
-0.8250020841275E-01 -0.3956573024068E+01 -0.8078146585335E+00  0.1904539837743E-01
-0.7765025084168E-01 -0.3947584498414E+01 -0.8050469618473E+00 -0.1837717110954E-01
-0.7753032805141E-01 -0.3944580868254E+01 -0.8044222512480E+00 -0.5450415092662E-01
-0.8157572801077E-01 -0.3947394813805E+01 -0.8057941203703E+00 -0.9095050528214E-01
-0.8968842173123E-01 -0.3955735157628E+01 -0.8090847279282E+00 -0.1291446402203E+00
-0.1021892856566E+00 -0.3969130763727E+01 -0.8142640220102E+00 -0.1703536524962E+00
-0.1198004092736E+00 -0.3986802368951E+01 -0.8213205678836E+00 -0.2156327715456E+00
-0.1435600340866E+00 -0.4007511641592E+01 -0.8302143475069E+00 -0.2656575689196E+00
-0.1745287488994E+00 -0.4029493113211E+01 -0.8408043849510E+00 -0.3204637053615E+00
-0.2132256731422E+00 -0.4050579265496E+01 -0.8527610004347E+00 -0.3792752595906E+00
-0.2590018338071E+00 -0.4068542382225E+01 -0.8655088561034E+00 -0.4406667079474E+00
-0.3097711857725E+00 -0.4081754672790E+01 -0.8783051848002E+00 -0.5030731973389E+00
-0.3626078638973E+00 -0.4089351863227E+01 -0.8903919586927E+00 -0.5653457588113E+00
-0.4148629361303E+00 -0.4090473443614E+01 -0.9010672893758E+00 -0.6268611287455E+00
-0.4648224588017E+00 -0.4083664018107E+01 -0.9096973089373E+00 -0.6870713352325E+00
-0.5116475572277E+00 -0.4066844329109E+01 -0.9156983909123E+00 -0.7449386700983E+00
-0.5548806099899E+00 -0.4037576899341E+01 -0.9184915155527E+00 -0.7986033385175E+00
-0.5938575202360E+00 -0.3993341030518E+01 -0.9174397238217E+00 -0.8453319036204E+00
-0.6272305316098E+00 -0.3931685538596E+01 -0.9117832276278E+00 -0.8816338320912E+00
-0.6526503509889E+00 -0.3850256247725E+01 -0.9005813331624E+00 -0.9033959670347E+00
-0.6665145302714E+00 -0.3746775521716E+01 -0.8826580235502E+00 -0.9058978363152E+00
-0.6635074589898E+00 -0.3618928609370E+01 -0.8564872264345E+00 -0.8835492905657E+00
-0.6354281731635E+00 -0.3464283003414E+01 -0.8199422475336E+00 -0.8292758844213E+00
-0.5689860692500E+00 -0.3281279583111E+01 -0.7700531419469E+00 -0.7341460787379E+00
-0.4425259595793E+00 -0.3071342651700E+01 -0.7027737327279E+00 -0.5879523815020E+00
-0.2216015756250E+00 -0.2841698162633E+01 -0.6126599567809E+00 -0.3814039633863E+00
 0.1456594625969E+00 -0.2609004367999E+01 -0.4926689884218E+00 -0.1119217242332E+00
 0.7294362241502E+00 -0.2401701491441E+01 -0.3344530584419E+00  0.2042208657339E+00
 0.1605905901744E+01 -0.2254570394675E+01 -0.1297329005193E+00  0.5128316204194E+00
 0.2818758530338E+01 -0.2185379309699E+01  0.1266758460154E+00  0.7050632994798E+00
 0.4313567029237E+01 -0.2152029002149E+01  0.4323076118594E+00  0.6293544841387E+00
 0.5884334546010E+01 -0.2020472457987E+01  0.7727724291197E+00  0.1620390787394E+00
-0.8911248709802E+00 -0.4005513736474E+01 -0.9793277360840E+00  0.5607416103750E+00
-0.6823528314942E+00 -0.4075383605536E+01 -0.9515473015851E+00  0.5422255323118E+00
-0.4848611153677E+00 -0.4116664801355E+01 -0.9203051970582E+00  0.4736847836975E+00
-0.3324956306868E+00 -0.4121423629048E+01 -0.8907838652207E+00  0.3812833613006E+00
-0.2288220649702E+00 -0.4100115577543E+01 -0.8657875414039E+00  0.2904236845372E+00
-0.1622354650631E+00 -0.4067662452063E+01 -0.8459795960314E+00  0.2125717824200E+00
-0.1201673351892E+00 -0.4034447115943E+01 -0.8309229026081E+00  0.1489820025979E+00
-0.9374890619241E-01 -0.4005642117651E+01 -0.8198782169858E+00  0.9701057264141E-01
-0.7753643810864E-01 -0.3983304708690E+01 -0.8121682414620E+00  0.5341460868066E-01
-0.6830975690234E-01 -0.3968046100157E+01 -0.8072711834412E+00  0.1534588311007E-01
-0.6418930355199E-01 -0.3959892793819E+01 -0.8048164314669E+00 -0.1953012937048E-01
-0.6412627925123E-01 -0.3958673768376E+01 -0.8045600215143E+00 -0.5313420876362E-01
-0.6763178346332E-01 -0.3964170653007E+01 -0.8063604993097E+00 -0.8710204452568E-01
-0.7465420498705E-01 -0.3976137074366E+01 -0.8101582679429E+00 -0.1228912014295E+00
-0.8555308166723E-01 -0.3994223369249E+01 -0.8159553023419E+00 -0.1618414064212E+00
-0.1011231020302E+00 -0.4017816325041E+01 -0.8237878976896E+00 -0.2051548925384E+00
-0.1225698711878E+00 -0.4045824099880E+01 -0.8336788066363E+00 -0.2537347961628E+00
-0.1512526405009E+00 -0.4076521507362E+01 -0.8455548421724E+00 -0.3078704646674E+00
-0.1880502830477E+00 -0.4107626643880E+01 -0.8591353981876E+00 -0.3669594020160E+00
-0.2325508306503E+00 -0.4136683595441E+01 -0.8738468982396E+00 -0.4296123689899E+00
-0.2826489817437E+00 -0.4161823113144E+01 -0.8888944322231E+00 -0.4942291289430E+00
-0.3352391468458E+00 -0.4181981590856E+01 -0.9034441610028E+00 -0.5596919213715E+00
-0.3875760742746E+00 -0.4196109100336E+01 -0.9167370485826E+00 -0.6255410675255E+00
-0.4380815237655E+00 -0.4202539869257E+01 -0.9281242924346E+00 -0.6914481826512E+00
-0.4862618583495E+00 -0.4198985049111E+01 -0.9370493954553E+00 -0.7565574057707E+00
-0.5321147692340E+00 -0.4182826598205E+01 -0.9429882875394E+00 -0.8191278800213E+00
-0.5754597088944E+00 -0.4151388581952E+01 -0.9453696722563E+00 -0.8765101967483E+00
-0.6154331792937E+00 -0.4102056094502E+01 -0.9434978688184E+00 -0.9253080299936E+00
-0.6502102488826E+00 -0.4032243535208E+01 -0.9364907707729E+00 -0.9615540442598E+00
-0.6768662469528E+00 -0.3939277941936E+01 -0.9232288515349E+00 -0.9807329154775E+00
-0.6910794430445E+00 -0.3820124130467E+01 -0.9022407281467E+00 -0.9774350566635E+00
-0.6860829520306E+00 -0.3671070710204E+01 -0.8714307454323E+00 -0.9445042743973E+00
-0.6503914625980E+00 -0.3488530938731E+01 -0.8277844926008E+00 -0.8722413248847E+00
-0.5640963644173E+00 -0.3271061695330E+01 -0.7670316233791E+00 -0.7483181304354E+00
-0.3932135294936E+00 -0.3022385480901E+01 -0.6831198122582E+00 -0.5589549704135E+00
-0.8203571773030E-01 -0.2756303473903E+01 -0.5676678467855E+00 -0.2936353657866E+00
 0.4534331152993E+00 -0.2502506782755E+01 -0.4098147395979E+00  0.4211293265077E-01
 0.1319344007354E+01 -0.2306117784558E+01 -0.1973547583816E+00  0.4011193285116E+00
 0.2602116032716E+01 -0.2203992116938E+01  0.7962478434220E-01  0.6622002758526E+00
 0.4273875700297E+01 -0.2163757420027E+01  0.4220236623426E+00  0.6268559112325E+00
 0.6087617413763E+01 -0.2018453369196E+01  0.8138328210405E+00  0.1061619718492E+00
-0.8944675373468E+00 -0.4066967596173E+01 -0.9922870414901E+00  0.5919784690307E+00
-0.6631729764944E+00 -0.4139559249187E+01 -0.9605464594495E+00  0.5655832442835E+00
-0.4503444187030E+00 -0.4174351563422E+01 -0.9249392102077E+00  0.4809953355129E+00
-0.2953168321905E+00 -0.4165551207144E+01 -0.8921736211613E+00  0.3750261578973E+00
-0.1962907460118E+00 -0.4130401854814E+01 -0.8653385330596E+00  0.2776532193753E+00
-0.1359062478747E+00 -0.4087690277924E+01 -0.8447193177471E+00  0.1987274972172E+00
-0.9908058307017E-01 -0.4048091478352E+01 -0.8294344246439E+00  0.1367745818574E+00
-0.7647360725564E-01 -0.4015813580400E+01 -0.8184574497272E+00  0.8747494216237E-01
-0.6281224834898E-01 -0.3992006771229E+01 -0.8109638159999E+00  0.4684554734294E-01
-0.5512619068211E-01 -0.3976680363993E+01 -0.8063613229507E+00  0.1176039165598E-01
-0.5173555897019E-01 -0.3969507538103E+01 -0.8042486313988E+00 -0.2019471969984E-01
-0.5172663899039E-01 -0.3970142154312E+01 -0.8043737706466E+00 -0.5094033993369E-01
-0.5468923590360E-01 -0.3978322383627E+01 -0.8066023359254E+00 -0.8209011766428E-01
-0.6060732443588E-01 -0.3993865047975E+01 -0.8108944865654E+00 -0.1150936421723E+00
-0.6985322880906E-01 -0.4016577284527E+01 -0.8172861148457E+00 -0.1513311339353E+00
-0.8325387613363E-01 -0.4046074623969E+01 -0.8258657123269E+00 -0.1921343055184E+00
-0.1021434052864E+00 -0.4081502451258E+01 -0.8367291837771E+00 -0.2386510488877E+00
-0.1281774528597E+00 -0.4121267494347E+01 -0.8498890021056E+00 -0.2914862107254E+00
-0.1626458034991E+00 -0.4163021679353E+01 -0.8651335094620E+00 -0.3502874660664E+00
-0.2054312890197E+00 -0.4204066931328E+01 -0.8818996572109E+00 -0.4137449874677E+00
-0.2544086074588E+00 -0.4242234511738E+01 -0.8993286372405E+00 -0.4802272472461E+00
-0.3062403510247E+00 -0.4276187878377E+01 -0.9164856595370E+00 -0.5486484554137E+00
-0.3580445472525E+00 -0.4304622540832E+01 -0.9325334315127E+00 -0.6187236361173E+00
-0.4083801199419E+00 -0.4325629513763E+01 -0.9468019408495E+00 -0.6903462115657E+00
-0.4571218824782E+00 -0.4336728254865E+01 -0.9587700417554E+00 -0.7628294625136E+00
-0.5047411298595E+00 -0.4335185616522E+01 -0.9679853637004E+00 -0.8345405273121E+00
-0.5515438182829E+00 -0.4318264244942E+01 -0.9739616271581E+00 -0.9029215801445E+00
-0.5971358871728E+00 -0.4283294332539E+01 -0.9760860584872E+00 -0.9647043561643E+00
-0.6401853067066E+00 -0.4227586117668E+01 -0.9735542993820E+00 -0.1016140652172E+01
-0.6784203722231E+00 -0.4148224223861E+01 -0.9653289336013E+00 -0.1053064293515E+01
-0.7085587975105E+00 -0.4041621368729E+01 -0.9500360474046E+00 -0.1070499570580E+01
-0.7254826848690E+00 -0.3902931064486E+01 -0.9256827636647E+00 -0.1061603610195E+01
-0.7200365107014E+00 -0.3726564871779E+01 -0.8893202897479E+00 -0.1016471446082E+01
-0.6751382703135E+00 -0.3507897151213E+01 -0.8366070967717E+00 -0.9213608758239E+00
-0.5592872208632E+00 -0.3246030202386E+01 -0.7610634959906E+00 -0.7585871227046E+00
-0.3160340628138E+00 -0.2949358886372E+01 -0.6530785995689E+00 -0.5091539223632E+00
 0.1499726977113E+00 -0.2645007155983E+01 -0.4990068990900E+00 -0.1640560430850E+00
 0.9789133361125E+00 -0.2386587347891E+01 -0.2815348065509E+00  0.2449718418376E+00
 0.2318480825978E+01 -0.2236290810105E+01  0.1643800341960E-01  0.5918138916144E+00
 0.4195374848575E+01 -0.2184065077396E+01  0.4022619602300E+00  0.6208619854549E+00
 0.6322171215378E+01 -0.2024767424418E+01  0.8594807709993E+00  0.4229171260656E-01
-0.8970657450091E+00 -0.4138533544073E+01 -0.1007119872824E+01  0.6259348646460E+00
-0.6380829490015E+00 -0.4212850213242E+01 -0.9701866469056E+00  0.5882324238506E+00
-0.4089865038214E+00 -0.4236499896712E+01 -0.9290972939513E+00  0.4830482321312E+00
-0.2541601233003E+00 -0.4208922164885E+01 -0.8926164709382E+00  0.3622785531112E+00
-0.1626584341595E+00 -0.4157074514356E+01 -0.8639466025769E+00  0.2598048831374E+00
-0.1100032426646E+00 -0.4103389426763E+01 -0.8426785464424E+00  0.1816748383661E+00
-0.7899737232858E-01 -0.4057608883465E+01 -0.8273212634868E+00  0.1227622367359E+00
-0.6036655344723E-01 -0.4022270490531E+01 -0.8165274209628E+00  0.7706259734236E-01
-0.4927371844847E-01 -0.3997378315520E+01 -0.8093304188537E+00  0.4001947953933E-01
-0.4310396787948E-01 -0.3982271440544E+01 -0.8050750936813E+00  0.8355465933208E-02
-0.4041977580284E-01 -0.3976255826485E+01 -0.8033351324282E+00 -0.2033830867644E-01
-0.4045723290549E-01 -0.3978815526983E+01 -0.8038545639561E+00 -0.4792281229867E-01
-0.4288494994789E-01 -0.3989657033845E+01 -0.8065084087764E+00 -0.7594404366988E-01
-0.4771112482516E-01 -0.4008677831061E+01 -0.8112778032662E+00 -0.1058024995720E+00
-0.5529377772349E-01 -0.4035873635317E+01 -0.8182334948008E+00 -0.1388779314072E+00
-0.6644347128438E-01 -0.4071152771900E+01 -0.8275192609679E+00 -0.1765984790766E+00
-0.8256409424813E-01 -0.4114007713379E+01 -0.8393143740321E+00 -0.2203594607916E+00
-0.1055845418016E+00 -0.4163108753241E+01 -0.8537386717303E+00 -0.2711474207704E+00
-0.1372573066905E+00 -0.4216129378454E+01 -0.8706773500031E+00 -0.3289652979154E+00
-0.1778377647161E+00 -0.4270126648813E+01 -0.8895928959619E+00 -0.3926559967620E+00
-0.2251913627931E+00 -0.4322550023453E+01 -0.9095482908026E+00 -0.4605758777337E+00
-0.2756941758404E+00 -0.4371670105744E+01 -0.9294728701672E+00 -0.5316759597405E+00
-0.3262882154914E+00 -0.4415817927869E+01 -0.9484212428046E+00 -0.6058502091579E+00
-0.3756785126145E+00 -0.4452787424603E+01 -0.9656932018334E+00 -0.6831945837799E+00
-0.4241333907104E+00 -0.4479933848412E+01 -0.9808134624398E+00 -0.7631520778386E+00
-0.4726080753463E+00 -0.4494502886421E+01 -0.9934222071566E+00 -0.8441687427104E+00
-0.5218861220493E+00 -0.4493819000090E+01 -0.1003141039376E+01 -0.9237795313326E+00
-0.5720150152580E+00 -0.4475286863186E+01 -0.1009460390731E+01 -0.9988742691290E+00
-0.6221001741851E+00 -0.4436258156245E+01 -0.1011671681161E+01 -0.1065985496970E+01
-0.6704500245575E+00 -0.4373763509805E+01 -0.1008842721905E+01 -0.1121423475042E+01
-0.7147929294871E+00 -0.4283906469140E+01 -0.9997398946228E+00 -0.1160893233396E+01
-0.7517744414959E+00 -0.4160989825753E+01 -0.9825528680911E+00 -0.1178285513789E+01
-0.7749653142756E+00 -0.3997689485675E+01 -0.9545309742138E+00 -0.1164157372274E+01
-0.7710761844965E+00 -0.3786239285241E+01 -0.9114631075294E+00 -0.1104358973030E+01
-0.7132465791500E+00 -0.3520403220237E+01 -0.8467299724946E+00 -0.9785963041918E+00
-0.5485322732831E+00 -0.3200563405719E+01 -0.7498191469737E+00 -0.7601495080140E+00
-0.1759669581533E+00 -0.2845634192034E+01 -0.6043202390425E+00 -0.4226959653688E+00
 0.5786900003641E+00 -0.2511739662543E+01 -0.3866099381967E+00  0.2842549810674E-01
 0.1946434864932E+01 -0.2290944038052E+01 -0.6890183565068E-01  0.4778592931345E+00
 0.4056202213601E+01 -0.2215986083411E+01  0.3680432315221E+00  0.6067882360829E+00
 0.6596082748806E+01 -0.2042969646140E+01  0.9106226341026E+00 -0.3059159306228E-01
-0.8983610700887E+00 -0.4223955574005E+01 -0.1024463344084E+01  0.6630706631567E+00
-0.6048429759704E+00 -0.4297700081169E+01 -0.9805086260386E+00  0.6086680837405E+00
-0.3594501520374E+00 -0.4302729557073E+01 -0.9324359557165E+00  0.4770734738038E+00
-0.2093569830150E+00 -0.4249553919393E+01 -0.8917821937702E+00  0.3412191374727E+00
-0.1288012832076E+00 -0.4178357060122E+01 -0.8614316815023E+00  0.2363403043624E+00
-0.8522338575394E-01 -0.4113663351266E+01 -0.8397773599177E+00  0.1614619957848E+00
-0.6036290099769E-01 -0.4062361995384E+01 -0.8245449915630E+00  0.1071251290164E+00
-0.4571322504613E-01 -0.4024626456000E+01 -0.8140679483398E+00  0.6594787896587E-01
-0.3711343046056E-01 -0.3999171168515E+01 -0.8072569318242E+00  0.3307034461481E-01
-0.3238406926243E-01 -0.3984642468148E+01 -0.8034053194538E+00  0.5216648266585E-02
-0.3035898569817E-01 -0.3979990469541E+01 -0.8020699029997E+00 -0.1992211310259E-01
-0.3043084465610E-01 -0.3984547554567E+01 -0.8029956918102E+00 -0.4408583961019E-01
-0.3234417027895E-01 -0.3998004481592E+01 -0.8060697423857E+00 -0.6870694104153E-01
-0.3612071605598E-01 -0.4020354617354E+01 -0.8112950787712E+00 -0.9509390310868E-01
-0.4207917759868E-01 -0.4051806168789E+01 -0.8187770814783E+00 -0.1245774120618E+00
-0.5096063888385E-01 -0.4092617502158E+01 -0.8287156405573E+00 -0.1586296902795E+00
-0.6415729682995E-01 -0.4142752334219E+01 -0.8413819387474E+00 -0.1988698750788E+00
-0.8381487533403E-01 -0.4201328011572E+01 -0.8570285901520E+00 -0.2467260608108E+00
-0.1121912383870E+00 -0.4266193521808E+01 -0.8756769650876E+00 -0.3026953533185E+00
-0.1500149387103E+00 -0.4334188666099E+01 -0.8968407343259E+00 -0.3658952765662E+00
-0.1951713015415E+00 -0.4402267616634E+01 -0.9194877973366E+00 -0.4347208775016E+00
-0.2436982082170E+00 -0.4468113678223E+01 -0.9423623913302E+00 -0.5081763487015E+00
-0.2923313531954E+00 -0.4529511116967E+01 -0.9643685084027E+00 -0.5863263540831E+00
-0.3399442336803E+00 -0.4583872857008E+01 -0.9847634328118E+00 -0.6694128739671E+00
-0.3872237584923E+00 -0.4628435933173E+01 -0.1003131953281E+01 -0.7569281095778E+00
-0.4356044185879E+00 -0.4660562247875E+01 -0.1019233348480E+01 -0.8473447009464E+00
-0.4863217284093E+00 -0.4677801283584E+01 -0.1032824617789E+01 -0.9382890409142E+00
-0.5398263191484E+00 -0.4677781730930E+01 -0.1043521625565E+01 -0.1026841477447E+01
-0.5955883747533E+00 -0.4658048385117E+01 -0.1050727367631E+01 -0.1109863489544E+01
-0.6523765762114E+00 -0.4615785343785E+01 -0.1053632399700E+01 -0.1184236697089E+01
-0.7088173521818E+00 -0.4547094461537E+01 -0.1051182378408E+01 -0.1246558851277E+01
-0.7633076498312E+00 -0.4445860803112E+01 -0.1041833706113E+01 -0.1291854930898E+01
-0.8123446432517E+00 -0.4303580833756E+01 -0.1023185110648E+01 -0.1311852591109E+01
-0.8471230055152E+00 -0.4109884585686E+01 -0.9914015330132E+00 -0.1293226635859E+01
-0.8473389005645E+00 -0.3853236984641E+01 -0.9401151910499E+00 -0.1215068668044E+01
-0.7684203179320E+00 -0.3524176285675E+01 -0.8585193335143E+00 -0.1045502931833E+01
-0.5135180485563E+00 -0.3126646292215E+01 -0.7280328790028E+00 -0.7410063593742E+00
 0.1172497891281E+00 -0.2707011890475E+01 -0.5179524279874E+00 -0.2689377158499E+00
 0.1458987168509E+01 -0.2384707953920E+01 -0.1851441598411E+00  0.2941482205010E+00
 0.3820393132950E+01 -0.2265228340347E+01  0.3110329631552E+00  0.5738636230066E+00
 0.6919567538597E+01 -0.2079283587625E+01  0.9680568046195E+00 -0.1140119881820E+00
-0.8973631660605E+00 -0.4329029393372E+01 -0.1045278527462E+01  0.7038834771931E+00
-0.5601844604047E+00 -0.4397151424169E+01 -0.9914671916888E+00  0.6240355553238E+00
-0.3004635565971E+00 -0.4371421663749E+01 -0.9343770579926E+00  0.4589963031093E+00
-0.1619489980215E+00 -0.4284232055316E+01 -0.8892362239181E+00  0.3099233707910E+00
-0.9600738559965E-01 -0.4192072096471E+01 -0.8576159091935E+00  0.2070971573919E+00
-0.6235962223977E-01 -0.4117392816396E+01 -0.8359505001839E+00  0.1383973321023E+00
-0.4362490332403E-01 -0.4061747584172E+01 -0.8210745097342E+00  0.9017359218155E-01
-0.3278468248382E-01 -0.4022537376294E+01 -0.8110644238414E+00  0.5437712868112E-01
-0.2650430021180E-01 -0.3997178004308E+01 -0.8047364728954E+00  0.2617062874917E-01
-0.2308801717588E-01 -0.3983651975501E+01 -0.8013480104764E+00  0.2447876488452E-02
-0.2165222834375E-01 -0.3980595706653E+01 -0.8004495989269E+00 -0.1890161924051E-01
-0.2174341102966E-01 -0.3987221106938E+01 -0.8017929155412E+00 -0.3943771839970E-01
-0.2317624337981E-01 -0.4003223124214E+01 -0.8052798855185E+00 -0.6043566379667E-01
-0.2597708049493E-01 -0.4028703019187E+01 -0.8109360320202E+00 -0.8307004356091E-01
-0.3040630427136E-01 -0.4064093535720E+01 -0.8188999802008E+00 -0.1085694923332E+00
-0.3708529907428E-01 -0.4110041776787E+01 -0.8294254275318E+00 -0.1383774644968E+00
-0.4729193901038E-01 -0.4167106896005E+01 -0.8428797795630E+00 -0.1742717269931E+00
-0.6328294811473E-01 -0.4235097127379E+01 -0.8596760279088E+00 -0.2181530264983E+00
-0.8783583643287E-01 -0.4312299167505E+01 -0.8800270139010E+00 -0.2711850765093E+00
-0.1222745890559E+00 -0.4395433481147E+01 -0.9035416275045E+00 -0.3329582462309E+00
-0.1645611834295E+00 -0.4480808711432E+01 -0.9290739928166E+00 -0.4020203291853E+00
-0.2103584454478E+00 -0.4565203679255E+01 -0.9551124391729E+00 -0.4774718010003E+00
-0.2561897687341E+00 -0.4645555323341E+01 -0.9803490330234E+00 -0.5595161834932E+00
-0.3011414634652E+00 -0.4718771016626E+01 -0.1003982510979E+01 -0.6484204340543E+00
-0.3463388943306E+00 -0.4782051530937E+01 -0.1025678100337E+01 -0.7435833060889E+00
-0.3936638514483E+00 -0.4833078778902E+01 -0.1045348541647E+01 -0.8434230004734E+00
-0.4447526616013E+00 -0.4869846445206E+01 -0.1062919837200E+01 -0.9456609648997E+00
-0.5004136172906E+00 -0.4890378488169E+01 -0.1078158437158E+01 -0.1047616191747E+01
-0.5604055914720E+00 -0.4892552230304E+01 -0.1090591580606E+01 -0.1146518498549E+01
-0.6237997519517E+00 -0.4873901205345E+01 -0.1099540207844E+01 -0.1239866948974E+01
-0.6899213941778E+00 -0.4830872487180E+01 -0.1104158792725E+01 -0.1325293397291E+01
-0.7587657399825E+00 -0.4757508339229E+01 -0.1103254832282E+01 -0.1399280719246E+01
-0.8297013485294E+00 -0.4644999761885E+01 -0.1094940238399E+01 -0.1455381222345E+01
-0.8986724789510E+00 -0.4481513838001E+01 -0.1076037279425E+01 -0.1482418864969E+01
-0.9531955013552E+00 -0.4251315443038E+01 -0.1040902204389E+01 -0.1461358677892E+01
-0.9613585620553E+00 -0.3935144983730E+01 -0.9793007237498E+00 -0.1359581734626E+01
-0.8433404806304E+00 -0.3516528216413E+01 -0.8719737524021E+00 -0.1121752220372E+01
-0.3962949642063E+00 -0.3012823031035E+01 -0.6818236092082E+00 -0.6706280971455E+00
 0.8255009596461E+00 -0.2550889055611E+01 -0.3450776243350E+00 -0.1439628410693E-02
 0.3427805679917E+01 -0.2344379439043E+01  0.2166852514037E+00  0.4973054241227E+00
 0.7303621205358E+01 -0.2145688992529E+01  0.1031586457938E+01 -0.2115587727384E+00
-0.8922926460048E+00 -0.4463236700289E+01 -0.1071105885220E+01  0.7487447959226E+00
-0.4993087343497E+00 -0.4514601753196E+01 -0.1002782112452E+01  0.6288113800012E+00
-0.2313531449218E+00 -0.4438300625375E+01 -0.9339307679760E+00  0.4229926745462E+00
-0.1141671328052E+00 -0.4308094125693E+01 -0.8844522648790E+00  0.2668826899815E+00
-0.6596175682129E-01 -0.4195875402432E+01 -0.8523674445519E+00  0.1725917497337E+00
-0.4220684685216E-01 -0.4113554551050E+01 -0.8311522919656E+00  0.1130766264777E+00
-0.2920184707347E-01 -0.4055232059707E+01 -0.8168867935286E+00  0.7234988149523E-01
-0.2182151658490E-01 -0.4015727241353E+01 -0.8075097636204E+00  0.4267034025145E-01
-0.1758889863614E-01 -0.3991245298483E+01 -0.8017668513711E+00  0.1952857662975E-01
-0.1531207333652E-01 -0.3979201569068E+01 -0.7989027403854E+00  0.1697796990906E-03
-0.1437635887680E-01 -0.3977992687368E+01 -0.7984738211472E+00 -0.1722751337442E-01
-0.1447036644106E-01 -0.3986752947304E+01 -0.8002446746735E+00 -0.3399094967123E-01
-0.1547045436294E-01 -0.4005205270904E+01 -0.8041351570360E+00 -0.5120016885354E-01
-0.1740086400922E-01 -0.4033566926831E+01 -0.8101935702409E+00 -0.6985809061235E-01
-0.2045412719189E-01 -0.4072493369068E+01 -0.8185895114499E+00 -0.9103919063077E-01
-0.2509604428533E-01 -0.4123027480281E+01 -0.8296247172757E+00 -0.1160695898811E+00
-0.3237713716742E-01 -0.4186418541010E+01 -0.8437591482084E+00 -0.1467636680289E+00
-0.4449290625958E-01 -0.4263463151344E+01 -0.8615912243594E+00 -0.1854558439270E+00
-0.6469133863213E-01 -0.4353318596108E+01 -0.8836020001147E+00 -0.2341646380258E+00
-0.9502285550792E-01 -0.4452837556582E+01 -0.9095720959718E+00 -0.2932676671640E+00
-0.1336216359312E+00 -0.4557498112478E+01 -0.9382239636624E+00 -0.3617044011233E+00
-0.1757777165106E+00 -0.4662648188629E+01 -0.9676851954476E+00 -0.4387723112426E+00
-0.2178498431703E+00 -0.4763880483736E+01 -0.9963460802280E+00 -0.5247348659241E+00
-0.2592146390119E+00 -0.4857423207568E+01 -0.1023327584565E+01 -0.6196504080692E+00
-0.3014383249295E+00 -0.4940592520075E+01 -0.1048406184623E+01 -0.7225900158752E+00
-0.3467709118453E+00 -0.5011693827728E+01 -0.1071692963884E+01 -0.8318035784038E+00
-0.3971581079793E+00 -0.5069462350504E+01 -0.1093324107988E+01 -0.9451275927412E+00
-0.4537156452689E+00 -0.5112517902765E+01 -0.1113246726196E+01 -0.1060206296979E+01
-0.5164348115313E+00 -0.5139174242908E+01 -0.1131121827743E+01 -0.1174685723771E+01
-0.5845166934321E+00 -0.5147446825341E+01 -0.1146392720837E+01 -0.1286665793633E+01
-0.6577050006804E+00 -0.5134464500721E+01 -0.1158433917542E+01 -0.1394836290129E+01
-0.7372973727881E+00 -0.5095126057297E+01 -0.1166484703399E+01 -0.1497316525555E+01
-0.8251957835184E+00 -0.5021505497990E+01 -0.1169340273726E+01 -0.1589967528131E+01
-0.9217873611621E+00 -0.4902099590075E+01 -0.1164777407604E+01 -0.1664978475736E+01
-0.1022758255633E+01 -0.4719324847801E+01 -0.1148416637800E+01 -0.1707849401308E+01
-0.1111085990941E+01 -0.4446812866823E+01 -0.1111579788117E+01 -0.1690605633332E+01
-0.1135816561962E+01 -0.4047975773839E+01 -0.1036758482609E+01 -0.1557844031246E+01
-0.9317714676660E+00 -0.3490616878228E+01 -0.8844776823584E+00 -0.1197178404589E+01
 0.2081224408992E-01 -0.2856488163642E+01 -0.5671351923614E+00 -0.4737672655955E+00
 0.2777551020569E+01 -0.2485032386957E+01  0.5850372759405E-01  0.3208480725918E+00
 0.7753296233271E+01 -0.2267644325700E+01  0.1097130397863E+01 -0.3350063100690E+00
-0.8799516237239E+00 -0.4643273223370E+01 -0.1104644985879E+01  0.7972767455886E+00
-0.4152003597108E+00 -0.4652370613021E+01 -0.1013514209649E+01  0.6119857811810E+00
-0.1533524748097E+00 -0.4493574744089E+01 -0.9293854576287E+00  0.3613986280162E+00
-0.7002756158974E-01 -0.4314703423584E+01 -0.8769462101022E+00  0.2122239414388E+00
-0.4047990584199E-01 -0.4187825118144E+01 -0.8456610173984E+00  0.1342562229183E+00
-0.2543004275998E-01 -0.4101281260131E+01 -0.8253422728768E+00  0.8632085217046E-01
-0.1746591192395E-01 -0.4042397233117E+01 -0.8119726411075E+00  0.5423724090532E-01
-0.1301099490320E-01 -0.4004017516206E+01 -0.8034057141936E+00  0.3121411098226E-01
-0.1046959813434E-01 -0.3981283439752E+01 -0.7983506194736E+00  0.1338213277047E-01
-0.9121967049754E-02 -0.3971243948423E+01 -0.7960731949569E+00 -0.1482854976894E-02
-0.8582019047982E-02 -0.3972144090588E+01 -0.7961452337907E+00 -0.1484738720796E-01
-0.8663432978053E-02 -0.3983097946036E+01 -0.7983522876993E+00 -0.2776227802766E-01
-0.9292187789888E-02 -0.4003881945647E+01 -0.8026348386477E+00 -0.4108237662989E-01
-0.1048661813927E-01 -0.4034833605345E+01 -0.8090640567528E+00 -0.5560764637909E-01
-0.1237197081347E-01 -0.4076816075066E+01 -0.8178376213627E+00 -0.7221305955419E-01
-0.1525000762784E-01 -0.4131235935231E+01 -0.8292972009292E+00 -0.9201724491487E-01
-0.1984825815791E-01 -0.4200050369798E+01 -0.8439797381674E+00 -0.1166886527386E+00
-0.2805448864904E-01 -0.4285345519062E+01 -0.8626800143971E+00 -0.1488196317859E+00
-0.4341531347556E-01 -0.4387832387060E+01 -0.8862495533133E+00 -0.1914242863171E+00
-0.6880569061631E-01 -0.4505076420884E+01 -0.9147764359313E+00 -0.2461481411118E+00
-0.1026758825884E+00 -0.4631533274454E+01 -0.9468418455174E+00 -0.3128100495510E+00
-0.1400352352408E+00 -0.4760218854231E+01 -0.9800508324982E+00 -0.3911259157329E+00
-0.1772351977837E+00 -0.4884552885470E+01 -0.1012357631736E+01 -0.4812403239620E+00
-0.2140645325985E+00 -0.4999867749415E+01 -0.1042786471941E+01 -0.5825714322963E+00
-0.2524883740372E+00 -0.5103880368607E+01 -0.1071273764492E+01 -0.6934996521117E+00
-0.2949697527772E+00 -0.5195967577521E+01 -0.1098187482424E+01 -0.8119619597598E+00
-0.3436099784781E+00 -0.5276007147821E+01 -0.1123923442008E+01 -0.9359603728658E+00
-0.3997727086584E+00 -0.5343465490589E+01 -0.1148647656966E+01 -0.1063621266184E+01
-0.4636801993249E+00 -0.5397142273793E+01 -0.1172164512090E+01 -0.1193105496899E+01
-0.5345211468595E+00 -0.5435515266798E+01 -0.1194007300524E+01 -0.1323031143577E+01
-0.6121208888247E+00 -0.5456630600172E+01 -0.1213750315886E+01 -0.1452988899080E+01
-0.6986303038945E+00 -0.5457037466469E+01 -0.1231133572418E+01 -0.1582670255192E+01
-0.7979007411532E+00 -0.5431210601710E+01 -0.1245822287137E+01 -0.1710474420628E+01
-0.9137831881882E+00 -0.5370282912822E+01 -0.1256813238930E+01 -0.1832776220053E+01
-0.1049315222125E+01 -0.5258582981585E+01 -0.1261579659541E+01 -0.1942060174862E+01
-0.1202362788681E+01 -0.5067909575669E+01 -0.1254054491557E+01 -0.2020122353442E+01
-0.1353374888854E+01 -0.4751006238370E+01 -0.1220876243637E+01 -0.2025558890834E+01
-0.1422724929395E+01 -0.4224330872735E+01 -0.1129411177256E+01 -0.1849498409562E+01
-0.9465320122015E+00 -0.3434736890873E+01 -0.8762537936721E+00 -0.1212027304814E+01
 0.1705008892320E+01 -0.2773607237089E+01 -0.2137196721384E+00 -0.8118189240148E-01
 0.8242716815564E+01 -0.2505611572426E+01  0.1147421065725E+01 -0.5272058003243E+00
-0.8548790626485E+00 -0.4901776420381E+01 -0.1151331113762E+01  0.8459375990863E+00
-0.2978353630411E+00 -0.4805430069274E+01 -0.1020653101672E+01  0.5507885046658E+00
-0.7273909082375E-01 -0.4516822729120E+01 -0.9179123776666E+00  0.2666929445533E+00
-0.3560111360824E-01 -0.4298345347882E+01 -0.8667893052142E+00  0.1499630201492E+00
-0.2071521001354E-01 -0.4166913835370E+01 -0.8375258215568E+00  0.9407278175327E-01
-0.1255565833045E-01 -0.4079770367207E+01 -0.8184652173036E+00  0.5912080685923E-01
-0.8721731566315E-02 -0.4023067076354E+01 -0.8063577735998E+00  0.3658455357296E-01
-0.6451939683357E-02 -0.3987324800362E+01 -0.7987553599115E+00  0.2042896954063E-01
-0.5207315535801E-02 -0.3967284501791E+01 -0.7944983753042E+00  0.7997713976828E-02
-0.4545212458575E-02 -0.3959787294508E+01 -0.7928665132078E+00 -0.2367446448211E-02
-0.4291253685249E-02 -0.3963058617625E+01 -0.7934699860857E+00 -0.1170724549755E-01
-0.4347662179231E-02 -0.3976252342061E+01 -0.7961200127112E+00 -0.2077300251637E-01
-0.4679707265732E-02 -0.3999226794894E+01 -0.8007813123645E+00 -0.3017441363936E-01
-0.5298035901063E-02 -0.4032439836244E+01 -0.8075475864625E+00 -0.4048716690048E-01
-0.6269035562662E-02 -0.4076935557373E+01 -0.8166409307560E+00 -0.5235136140408E-01
-0.7754649910778E-02 -0.4134420751267E+01 -0.8284350925803E+00 -0.6660694056661E-01
-0.1013252210561E-01 -0.4207454478227E+01 -0.8435174126358E+00 -0.8456614171202E-01
-0.1469106267611E-01 -0.4299569199530E+01 -0.8628520652988E+00 -0.1086848898731E+00
-0.2489133226024E-01 -0.4414013786915E+01 -0.8877810370639E+00 -0.1428940196149E+00
-0.4438753897172E-01 -0.4550355294706E+01 -0.9189485804290E+00 -0.1907900653734E+00
-0.7213377824342E-01 -0.4701938554617E+01 -0.9548144808000E+00 -0.2540704227397E+00
-0.1031496074401E+00 -0.4857824757968E+01 -0.9921948878664E+00 -0.3333431357083E+00
-0.1341541916973E+00 -0.5007864670228E+01 -0.1028403787709E+01 -0.4282277868886E+00
-0.1655151682703E+00 -0.5146293201142E+01 -0.1062361689713E+01 -0.5367219437063E+00
-0.1994535658699E+00 -0.5271762556760E+01 -0.1094243240832E+01 -0.6559863935827E+00
-0.2383764411018E+00 -0.5385369322152E+01 -0.1124749169411E+01 -0.7834893199733E+00
-0.2842985727682E+00 -0.5488656044243E+01 -0.1154590940607E+01 -0.9174936490787E+00
-0.3387389841186E+00 -0.5582277032193E+01 -0.1184203220908E+01 -0.1056864554429E+01
-0.4022436278908E+00 -0.5665531776167E+01 -0.1213555098895E+01 -0.1200513546371E+01
-0.4739750534523E+00 -0.5737042783230E+01 -0.1242203585847E+01 -0.1347467367852E+01
-0.5534801832093E+00 -0.5795711478722E+01 -0.1269838351308E+01 -0.1497766714151E+01
-0.6431940435600E+00 -0.5840638941632E+01 -0.1296766616362E+01 -0.1652241833461E+01
-0.7479638047442E+00 -0.5870557529231E+01 -0.1323704286520E+01 -0.1811686425595E+01
-0.8739728641939E+00 -0.5881976258496E+01 -0.1351189844672E+01 -0.1977118395805E+01
-0.1028510314480E+01 -0.5865407021111E+01 -0.1378783487664E+01 -0.2148957483592E+01
-0.1223873820450E+01 -0.5800145451213E+01 -0.1404803875266E+01 -0.2324135319037E+01
-0.1463014694648E+01 -0.5641438259668E+01 -0.1420890612036E+01 -0.2482080393635E+01
-0.1756446136241E+01 -0.5300427353073E+01 -0.1411374718894E+01 -0.2574884114910E+01
-0.1958374126394E+01 -0.4533240447401E+01 -0.1298322934106E+01 -0.2299383901094E+01
-0.3287624156618E-01 -0.3462409547734E+01 -0.6990571682768E+00 -0.9813357696326E+00
 0.8636355891851E+01 -0.3019575258939E+01  0.1123356143322E+01 -0.9468531904683E+00
-0.8104472164180E+00 -0.5313800373460E+01 -0.1224849536227E+01  0.8773265551506E+00
-0.1333574993154E+00 -0.4932471007898E+01 -0.1013165716540E+01  0.3965815133987E+00
-0.8786101755504E-02 -0.4474372799903E+01 -0.8966317936925E+00  0.1425188990710E+00
-0.1657239267666E-01 -0.4261800787985E+01 -0.8556746488829E+00  0.8937372584796E-01
-0.6005272056860E-02 -0.4130891541915E+01 -0.8273793751233E+00  0.5287087063924E-01
-0.4511245106893E-02 -0.4049083749820E+01 -0.8107190110660E+00  0.3320801017992E-01
-0.2919836813826E-02 -0.3997168746510E+01 -0.8000177285860E+00  0.2007542088524E-01
-0.2222558666117E-02 -0.3965722715523E+01 -0.7935890666633E+00  0.1080445731011E-01
-0.1789631997858E-02 -0.3949320118783E+01 -0.7902219619313E+00  0.3645834660664E-02
-0.1574136909943E-02 -0.3944902505545E+01 -0.7892953402525E+00 -0.2335761959814E-02
-0.1493198108893E-02 -0.3950793309308E+01 -0.7904573132621E+00 -0.7754895601805E-02
-0.1519906700798E-02 -0.3966256292763E+01 -0.7935552517176E+00 -0.1304901197928E-01
-0.1641765719738E-02 -0.3991258735203E+01 -0.7985801120843E+00 -0.1857660637918E-01
-0.1863663504619E-02 -0.4026376302450E+01 -0.8056480051959E+00 -0.2467883601475E-01
-0.2209086287978E-02 -0.4072797850806E+01 -0.8150013995633E+00 -0.3173956097721E-01
-0.2738032375951E-02 -0.4132446235605E+01 -0.8270368659200E+00 -0.4027342564058E-01
-0.3577927187722E-02 -0.4208281947948E+01 -0.8423719875795E+00 -0.5109326881783E-01
-0.5218152860959E-02 -0.4305002037261E+01 -0.8620440508699E+00 -0.6589744445957E-01
-0.1033361471529E-01 -0.4429463066328E+01 -0.8879593494404E+00 -0.8882067792141E-01
-0.2289356785876E-01 -0.4586086596193E+01 -0.9217960465462E+00 -0.1261958172859E+00
-0.4253088729806E-01 -0.4767507968470E+01 -0.9620077854887E+00 -0.1837159157480E+00
-0.6500867232244E-01 -0.4955652792967E+01 -0.1004132308021E+01 -0.2638864328997E+00
-0.8821807289046E-01 -0.5134464313837E+01 -0.1044536492910E+01 -0.3648360959954E+00
-0.1132707256523E+00 -0.5297105258954E+01 -0.1082075213045E+01 -0.4817639939287E+00
-0.1422875350916E+00 -0.5444128227185E+01 -0.1117283169104E+01 -0.6099046617334E+00
-0.1771926753464E+00 -0.5579266558205E+01 -0.1151291863866E+01 -0.7461422547796E+00
-0.2195736883950E+00 -0.5706362380872E+01 -0.1185187231514E+01 -0.8891638168847E+00
-0.2709150175685E+00 -0.5827723008019E+01 -0.1219727623293E+01 -0.1038915125592E+01
-0.3322795700259E+00 -0.5943285159709E+01 -0.1255112964650E+01 -0.1195575957939E+01
-0.4031186469067E+00 -0.6050996030849E+01 -0.1290822954786E+01 -0.1358633805278E+01
-0.4824494292440E+00 -0.6149749490942E+01 -0.1326439803803E+01 -0.1527618938871E+01
-0.5721324479920E+00 -0.6242337396927E+01 -0.1362893989292E+01 -0.1703387040977E+01
-0.6769904119194E+00 -0.6334254967409E+01 -0.1402249096761E+01 -0.1888746223513E+01
-0.8033667149279E+00 -0.6429935964945E+01 -0.1446660557532E+01 -0.2089206668066E+01
-0.9618456054061E+00 -0.6530726466786E+01 -0.1498514436768E+01 -0.2313164335453E+01
-0.1165528471435E+01 -0.6632629060068E+01 -0.1559631529541E+01 -0.2571665505761E+01
-0.1457179424115E+01 -0.6720067630357E+01 -0.1635449435265E+01 -0.2878814340745E+01
-0.1818637269525E+01 -0.6739593063124E+01 -0.1711646092035E+01 -0.3232234957984E+01
-0.2621374008572E+01 -0.6510584892238E+01 -0.1826391807377E+01 -0.3662855146876E+01
-0.2639182913277E+01 -0.5305744715100E+01 -0.1588985549353E+01 -0.2906667108994E+01
 0.8386527317103E+01 -0.4351609998045E+01  0.8069834758366E+00 -0.2221473072234E+01
-0.7646619220283E+00 -0.6106453150127E+01 -0.1374223034909E+01  0.7998638822672E+00
 0.1031034830410E+00 -0.4790360537549E+01 -0.9374514248707E+00  0.5011044432101E-01
-0.2138110352785E-01 -0.4397527310174E+01 -0.8837816959096E+00  0.5089769985015E-01
 0.2987558492405E-02 -0.4197692023005E+01 -0.8389409054037E+00  0.2513040492205E-01
-0.1411315422409E-02 -0.4081003539498E+01 -0.8164829831506E+00  0.1567266651149E-01
-0.1585603741545E-03 -0.4009202624555E+01 -0.8018722489346E+00  0.9540434945506E-02
-0.3050621320149E-03 -0.3964990480955E+01 -0.7930591204348E+00  0.5620091562528E-02
-0.1907603438667E-03 -0.3939400253876E+01 -0.7879182145848E+00  0.2796627354108E-02
-0.1724094858564E-03 -0.3927559259170E+01 -0.7855463454367E+00  0.6066333962648E-03
-0.1516827860220E-03 -0.3926722941328E+01 -0.7853749365258E+00 -0.1244621651817E-02
-0.1455808862443E-03 -0.3935455923896E+01 -0.7871203126854E+00 -0.2941966726968E-02
-0.1469422312306E-03 -0.3953194973781E+01 -0.7906683949842E+00 -0.4621359945797E-02
-0.1564937978726E-03 -0.3980043340569E+01 -0.7960399787353E+00 -0.6395270194735E-02
-0.1748473485532E-03 -0.4016689625928E+01 -0.8033729066264E+00 -0.8372661119734E-02
-0.2040167877688E-03 -0.4064426700659E+01 -0.8129261556029E+00 -0.1067720498899E-01
-0.2492808320103E-03 -0.4125295543360E+01 -0.8251089771335E+00 -0.1347668528209E-01
-0.3238424292873E-03 -0.4202435910725E+01 -0.8405519631561E+00 -0.1704198473424E-01
-0.4328990493752E-03 -0.4300993941371E+01 -0.8602853809033E+00 -0.2189485920837E-01
-0.1449338860406E-02 -0.4431009885003E+01 -0.8864918579824E+00 -0.3020140287147E-01
-0.6078011317684E-02 -0.4608168305255E+01 -0.9228492770661E+00 -0.5108239294195E-01
-0.1459480820986E-01 -0.4826814061803E+01 -0.9682817884312E+00 -0.9908736176650E-01
-0.2522533915073E-01 -0.5054418863186E+01 -0.1015928855606E+01 -0.1807329476650E+00
-0.3872122637845E-01 -0.5265537937921E+01 -0.1060851848668E+01 -0.2901810266127E+00
-0.5686273997095E-01 -0.5453005186085E+01 -0.1101973601632E+01 -0.4175666594107E+00
-0.8092871859860E-01 -0.5620916745803E+01 -0.1140369109873E+01 -0.5553649807672E+00
-0.1117191888142E+00 -0.5776906274997E+01 -0.1177725110312E+01 -0.6998969006340E+00
-0.1499913050284E+00 -0.5927830651929E+01 -0.1215564409505E+01 -0.8505715452778E+00
-0.1968526267278E+00 -0.6078156535104E+01 -0.1255001851067E+01 -0.1008737350786E+01
-0.2539141229891E+00 -0.6229109078664E+01 -0.1296604659652E+01 -0.1176686182499E+01
-0.3220750215589E+00 -0.6376817986522E+01 -0.1339778621581E+01 -0.1355345242045E+01
-0.3999884547236E+00 -0.6516713087936E+01 -0.1383340329145E+01 -0.1541802239646E+01
-0.4874640558214E+00 -0.6657388637488E+01 -0.1428970559955E+01 -0.1734218629397E+01
-0.5877182482596E+00 -0.6815301075493E+01 -0.1480603886813E+01 -0.1937475383496E+01
-0.7064006627440E+00 -0.7003993378285E+01 -0.1542078831185E+01 -0.2161223417107E+01
-0.8516003718444E+00 -0.7238927374206E+01 -0.1618105573322E+01 -0.2419629800840E+01
-0.1042684595334E+01 -0.7542969705366E+01 -0.1717130885727E+01 -0.2733905791409E+01
-0.1291271954302E+01 -0.7950622601733E+01 -0.1848378938750E+01 -0.3144479252318E+01
-0.1740634450582E+01 -0.8522481388468E+01 -0.2052623198396E+01 -0.3712764051552E+01
-0.2117505255543E+01 -0.9353678535349E+01 -0.2294236792365E+01 -0.4633535479162E+01
-0.5404433394555E+01 -0.1036438824717E+02 -0.3153764375340E+01 -0.6351964063669E+01
 0.5889650599417E+01 -0.9120335587077E+01 -0.6461370071602E+00 -0.7297898259331E+01
-0.1405365912364E+01 -0.2396947997401E+01 -0.1787087533057E+01 -0.8891397473151E+00
-0.1177487910784E+01 -0.2463411601141E+01 -0.1711222766265E+01 -0.7391326183296E+00
-0.9580507191923E+00 -0.2522134075246E+01 -0.1635686849237E+01 -0.6177303560784E+00
-0.7550027621772E+00 -0.2571947967314E+01 -0.1563666838895E+01 -0.5204779757539E+00
-0.5717662579179E+00 -0.2613109535111E+01 -0.1496891618927E+01 -0.4444104636234E+00
-0.4094356241802E+00 -0.2646377687031E+01 -0.1436232252627E+01 -0.3873352484309E+00
-0.2677194446086E+00 -0.2672620248826E+01 -0.1381959652409E+01 -0.3474535417006E+00
-0.1458004949012E+00 -0.2692893551621E+01 -0.1334186198481E+01 -0.3232082411393E+00
-0.4282368014131E-01 -0.2708379239821E+01 -0.1293065369103E+01 -0.3131752003591E+00
 0.4209000135962E-01 -0.2720225863389E+01 -0.1258723851961E+01 -0.3161742684678E+00
 0.1101657251975E+00 -0.2729348388629E+01 -0.1231015848690E+01 -0.3312285376545E+00
 0.1607906376702E+00 -0.2737429388528E+01 -0.1211020209831E+01 -0.3570754935586E+00
 0.1952697396378E+00 -0.2744788810813E+01 -0.1198273960413E+01 -0.3938882168997E+00
 0.2161271389956E+00 -0.2752062418768E+01 -0.1191889578470E+01 -0.4415883217388E+00
 0.2238240969864E+00 -0.2760417158560E+01 -0.1192198735916E+01 -0.4983325725462E+00
 0.2191678329832E+00 -0.2768573010485E+01 -0.1198220430387E+01 -0.5626493589553E+00
 0.2016184977590E+00 -0.2775442583291E+01 -0.1209697317132E+01 -0.6332842783353E+00
 0.1694353188323E+00 -0.2780753426966E+01 -0.1227319507710E+01 -0.7094114711447E+00
 0.1264002312295E+00 -0.2779767955103E+01 -0.1247082827057E+01 -0.7892740724802E+00
 0.3708644491254E-01 -0.2806828967498E+01 -0.1301778982314E+01 -0.8648901811250E+00
-0.1466216882078E+01 -0.2428035247596E+01 -0.1830298496305E+01 -0.8516906445957E+00
-0.1220547960893E+01 -0.2496827484139E+01 -0.1747166454734E+01 -0.7042879630299E+00
-0.9902249043537E+00 -0.2560181295675E+01 -0.1668690909781E+01 -0.5872786820317E+00
-0.7783403295996E+00 -0.2614780621472E+01 -0.1594766842959E+01 -0.4946409322308E+00
-0.5876025272091E+00 -0.2660638371713E+01 -0.1526673218621E+01 -0.4228655021270E+00
-0.4187113910246E+00 -0.2698512012672E+01 -0.1465094996021E+01 -0.3695939145994E+00
-0.2712319026114E+00 -0.2729491737605E+01 -0.1410340107324E+01 -0.3329684334768E+00
-0.1442264325121E+00 -0.2754772153811E+01 -0.1362529332116E+01 -0.3114186099361E+00
-0.3668545489960E-01 -0.2775558878902E+01 -0.1321754833534E+01 -0.3035850180888E+00
 0.5243471342048E-01 -0.2793020712225E+01 -0.1288075416171E+01 -0.3083751193958E+00
 0.1239706073576E+00 -0.2808493527482E+01 -0.1261725769258E+01 -0.3248279902846E+00
 0.1783000099771E+00 -0.2822854243901E+01 -0.1242940486792E+01 -0.3519995783791E+00
 0.2164318840545E+00 -0.2837095966506E+01 -0.1231712115628E+01 -0.3900337906966E+00
 0.2401855540657E+00 -0.2852315543610E+01 -0.1227701091972E+01 -0.4386299155227E+00
 0.2506339823546E+00 -0.2868836689508E+01 -0.1230555269241E+01 -0.4963202688110E+00
 0.2479486414253E+00 -0.2886442169492E+01 -0.1240091955046E+01 -0.5618620641640E+00
 0.2313786600915E+00 -0.2904595259365E+01 -0.1256411798472E+01 -0.6339798943128E+00
 0.2004055526680E+00 -0.2922098176726E+01 -0.1279195530063E+01 -0.7113324214600E+00
 0.1453480953124E+00 -0.2943517541079E+01 -0.1315139636174E+01 -0.7909098730660E+00
 0.7485575058894E-01 -0.2955647213349E+01 -0.1353971984063E+01 -0.8746382474974E+00
-0.1523866630564E+01 -0.2456532163600E+01 -0.1870787428512E+01 -0.8124042893185E+00
-0.1262756010193E+01 -0.2530933235582E+01 -0.1783033940992E+01 -0.6684472967148E+00
-0.1020652698305E+01 -0.2598301417006E+01 -0.1700908429882E+01 -0.5556720729815E+00
-0.7999426900368E+00 -0.2657191857254E+01 -0.1624853233106E+01 -0.4675540291237E+00
-0.6018697151591E+00 -0.2707327479745E+01 -0.1555322677660E+01 -0.4000136027437E+00
-0.4266767417981E+00 -0.2749539836329E+01 -0.1492821787934E+01 -0.3504484798638E+00
-0.2736774893931E+00 -0.2785025587317E+01 -0.1437590442408E+01 -0.3169272386278E+00
-0.1417834890107E+00 -0.2815088703449E+01 -0.1389729926931E+01 -0.2978909252382E+00
-0.2983918383943E-01 -0.2841007827497E+01 -0.1349298091906E+01 -0.2920461967092E+00
 0.6323180858216E-01 -0.2864074607626E+01 -0.1316396112212E+01 -0.2983652270219E+00
 0.1384176866126E+00 -0.2885541501982E+01 -0.1291148189949E+01 -0.3160002512742E+00
 0.1962989395917E+00 -0.2906444726838E+01 -0.1273768516775E+01 -0.3442058023044E+00
 0.2379020729008E+00 -0.2927900744318E+01 -0.1264299372359E+01 -0.3830187025512E+00
 0.2647986553233E+00 -0.2951025169698E+01 -0.1262526458554E+01 -0.4321107782977E+00
 0.2778667770878E+00 -0.2976366546840E+01 -0.1268294888567E+01 -0.4902581594459E+00
 0.2771229520359E+00 -0.3003989064831E+01 -0.1281627069763E+01 -0.5563329048310E+00
 0.2618313945464E+00 -0.3033509007449E+01 -0.1302688474760E+01 -0.6290706412090E+00
 0.2290847681754E+00 -0.3065260081287E+01 -0.1333002393781E+01 -0.7069688640015E+00
 0.1770851604853E+00 -0.3096046831414E+01 -0.1371911981857E+01 -0.7890619592982E+00
 0.1077238565871E+00 -0.3123834179578E+01 -0.1417571848210E+01 -0.8768304528210E+00
-0.1579621144029E+01 -0.2484210098276E+01 -0.1910000679039E+01 -0.7710173030384E+00
-0.1303130581565E+01 -0.2564333648084E+01 -0.1817708183325E+01 -0.6312850254332E+00
-0.1049526958606E+01 -0.2636084282743E+01 -0.1732237279040E+01 -0.5230004740446E+00
-0.8199251261631E+00 -0.2698881149978E+01 -0.1653838945591E+01 -0.4393612416196E+00
-0.6147007177738E+00 -0.2752953356902E+01 -0.1582797411083E+01 -0.3759671883666E+00
-0.4334462655154E+00 -0.2799209051949E+01 -0.1519347995354E+01 -0.3299832766908E+00
-0.2751740597413E+00 -0.2838953109984E+01 -0.1463639766058E+01 -0.2994026621947E+00
-0.1386068155417E+00 -0.2873582518931E+01 -0.1415728983611E+01 -0.2826822581115E+00
-0.2246108280006E-01 -0.2904472722868E+01 -0.1375658885175E+01 -0.2785930608469E+00
 0.7445693733569E-01 -0.2932966744710E+01 -0.1343499606059E+01 -0.2861882604028E+00
 0.1532180660312E+00 -0.2960374261640E+01 -0.1319363408590E+01 -0.3047235729472E+00
 0.2145838478137E+00 -0.2987850704490E+01 -0.1303435419332E+01 -0.3335908266753E+00
 0.2595902657108E+00 -0.3016614772439E+01 -0.1295801514876E+01 -0.3727539089186E+00
 0.2895809793337E+00 -0.3047853162653E+01 -0.1296387922872E+01 -0.4218735392081E+00
 0.3052575958688E+00 -0.3082291291261E+01 -0.1305205833524E+01 -0.4799177577966E+00
 0.3065155220198E+00 -0.3120190682598E+01 -0.1322427322118E+01 -0.5458641772626E+00
 0.2921393686506E+00 -0.3161584387997E+01 -0.1348639155672E+01 -0.6185505839402E+00
 0.2604285380138E+00 -0.3205625325751E+01 -0.1384242486726E+01 -0.6969792298499E+00
 0.2094569367987E+00 -0.3250864498793E+01 -0.1429461550512E+01 -0.7805847133737E+00
 0.1400246185475E+00 -0.3296798208713E+01 -0.1483683583615E+01 -0.8696908148696E+00
-0.1633294994535E+01 -0.2511032141497E+01 -0.1947833748994E+01 -0.7275530096068E+00
-0.1341640819382E+01 -0.2596900961077E+01 -0.1851114632121E+01 -0.5927526342507E+00
-0.1076703412399E+01 -0.2672993493836E+01 -0.1762357541461E+01 -0.4892737893607E+00
-0.8383999933657E+00 -0.2739541197973E+01 -0.1681632355664E+01 -0.4101605896850E+00
-0.6262113881949E+00 -0.2797247671301E+01 -0.1609025753882E+01 -0.3508272263899E+00
-0.4391451038079E+00 -0.2847264552804E+01 -0.1544612534690E+01 -0.3082854425183E+00
-0.2758502992030E+00 -0.2891012161829E+01 -0.1488425352910E+01 -0.2804684597817E+00
-0.1348401618127E+00 -0.2929987348892E+01 -0.1440468926377E+01 -0.2658529955156E+00
-0.1467904281211E-01 -0.2965650056358E+01 -0.1400754673057E+01 -0.2632762767913E+00
 0.8594202115607E-01 -0.2999417569513E+01 -0.1369333504255E+01 -0.2718718902932E+00
 0.1681851578736E+00 -0.3032670607220E+01 -0.1346308157778E+01 -0.2909863735996E+00
 0.2329459585952E+00 -0.3066686609388E+01 -0.1331858102494E+01 -0.3201144947105E+00
 0.2812582590004E+00 -0.3102782207301E+01 -0.1326116252338E+01 -0.3591689888793E+00
 0.3142746824595E+00 -0.3142223173341E+01 -0.1329135787343E+01 -0.4078137007755E+00
 0.3325452584894E+00 -0.3185881311290E+01 -0.1341067941415E+01 -0.4651759773458E+00
 0.3357847988936E+00 -0.3234238588673E+01 -0.1362273277741E+01 -0.5303577069926E+00
 0.3229248717922E+00 -0.3287299199425E+01 -0.1393255930453E+01 -0.6024226032014E+00
 0.2923268413186E+00 -0.3344628620229E+01 -0.1434581832449E+01 -0.6806056749867E+00
 0.2421433289350E+00 -0.3405591694111E+01 -0.1486820727862E+01 -0.7643038716826E+00
 0.1718205205175E+00 -0.3470617573817E+01 -0.1550434611118E+01 -0.8529649682156E+00
-0.1684684327120E+01 -0.2536894395970E+01 -0.1984141994820E+01 -0.6820583012944E+00
-0.1378164571244E+01 -0.2628400268416E+01 -0.1883085469864E+01 -0.5528714193646E+00
-0.1102166606088E+01 -0.2708724155437E+01 -0.1791118653374E+01 -0.4545271816806E+00
-0.8554109616810E+00 -0.2778838320080E+01 -0.1708097158095E+01 -0.3800206154493E+00
-0.6365143539319E+00 -0.2839935407547E+01 -0.1633931383751E+01 -0.3246812979509E+00
-0.4438976310501E+00 -0.2893444024334E+01 -0.1568550574052E+01 -0.2854393297931E+00
-0.2758406293010E+00 -0.2940941366890E+01 -0.1511887534375E+01 -0.2602004225634E+00
-0.1306221010215E+00 -0.2984028462109E+01 -0.1463885760958E+01 -0.2474698081148E+00
-0.6645006013548E-02 -0.3024255145712E+01 -0.1424523067698E+01 -0.2461505374522E+00
 0.9751970804303E-01 -0.3063119526341E+01 -0.1393831911065E+01 -0.2554522273073E+00
 0.1831228391314E+00 -0.3102085300908E+01 -0.1371912353555E+01 -0.2748004721480E+00
 0.2511638243330E+00 -0.3142544673542E+01 -0.1358948995681E+01 -0.3037690496061E+00
 0.3026645524148E+00 -0.3185910945307E+01 -0.1355125801222E+01 -0.3422378663833E+00
 0.3386231209878E+00 -0.3233530327930E+01 -0.1360606383812E+01 -0.3898851604509E+00
 0.3594474077119E+00 -0.3286418109255E+01 -0.1375676226236E+01 -0.4459777443295E+00
 0.3647951549632E+00 -0.3345199357728E+01 -0.1400789971746E+01 -0.5097588590116E+00
 0.3535870841098E+00 -0.3410125057557E+01 -0.1436572843876E+01 -0.5804578997022E+00
 0.3241713864313E+00 -0.3481179849348E+01 -0.1483793973807E+01 -0.6573916934703E+00
 0.2744660364826E+00 -0.3558408430215E+01 -0.1543452921139E+01 -0.7398060173487E+00
 0.2028205405408E+00 -0.3642597846008E+01 -0.1616695329469E+01 -0.8265511165385E+00
-0.1733552048263E+01 -0.2561641684591E+01 -0.2018741049321E+01 -0.6346023731327E+00
-0.1412594142300E+01 -0.2658613977120E+01 -0.1913467811274E+01 -0.5116908499961E+00
-0.1125897757352E+01 -0.2743000456367E+01 -0.1818382155836E+01 -0.4188104953722E+00
-0.8710114577786E+00 -0.2816484955269E+01 -0.1733123309737E+01 -0.3490057159639E+00
-0.6457062832371E+00 -0.2880738807410E+01 -0.1657429188400E+01 -0.2976066769622E+00
-0.4478270118113E+00 -0.2937485830136E+01 -0.1591097031679E+01 -0.2615258790410E+00
-0.2752785400528E+00 -0.2988478796188E+01 -0.1533965944142E+01 -0.2386762664471E+00
-0.1260962963024E+00 -0.3035435628318E+01 -0.1485920000803E+01 -0.2276043108624E+00
 0.1485141215579E-02 -0.3080000422403E+01 -0.1446902178488E+01 -0.2272787802913E+00
 0.1090154372570E+00 -0.3123757447516E+01 -0.1416928741228E+01 -0.2369799841717E+00
 0.1978311174776E+00 -0.3168257175730E+01 -0.1396100243838E+01 -0.2562021009582E+00
 0.2690123049027E+00 -0.3214999506027E+01 -0.1384613981016E+01 -0.2845811445067E+00
 0.3235657498519E+00 -0.3265490656692E+01 -0.1382704702708E+01 -0.3219785851841E+00
 0.3623620423971E+00 -0.3321162813288E+01 -0.1390636358791E+01 -0.3680951839838E+00
 0.3857045964602E+00 -0.3383160491859E+01 -0.1408804267264E+01 -0.4223202352756E+00
 0.3931817109690E+00 -0.3452299837873E+01 -0.1437785515998E+01 -0.4840153563382E+00
 0.3836635886563E+00 -0.3529114126152E+01 -0.1478361748873E+01 -0.5525152823572E+00
 0.3553657763613E+00 -0.3614002155509E+01 -0.1531559094315E+01 -0.6271439263677E+00
 0.3058905623087E+00 -0.3707462563674E+01 -0.1598738836587E+01 -0.7069922846569E+00
 0.2326175822557E+00 -0.3810457274349E+01 -0.1681584651019E+01 -0.7905258082613E+00
-0.1779661714220E+01 -0.2585113477605E+01 -0.2051444334955E+01 -0.5852705531590E+00
-0.1444823260223E+01 -0.2687328522755E+01 -0.1942111333074E+01 -0.4692761028939E+00
-0.1147883505245E+01 -0.2775572387242E+01 -0.1844024264792E+01 -0.3821827663781E+00
-0.8852518939439E+00 -0.2852215164869E+01 -0.1756609513187E+01 -0.3171803378723E+00
-0.6538802263323E+00 -0.2919394588151E+01 -0.1679439158548E+01 -0.2696764981170E+00
-0.4510507849082E+00 -0.2979132377374E+01 -0.1612186082184E+01 -0.2366236248234E+00
-0.2742965158908E+00 -0.3033367183530E+01 -0.1554601934785E+01 -0.2159755826020E+00
-0.1214068351764E+00 -0.3083941903075E+01 -0.1506513903157E+01 -0.2063340821222E+00
 0.9553235020325E-02 -0.3132599447846E+01 -0.1467831716305E+01 -0.2067346395942E+00
 0.1202525566031E+00 -0.3181012496636E+01 -0.1438557168167E+01 -0.2165232505258E+00
 0.2121089945951E+00 -0.3230818669044E+01 -0.1418793543392E+01 -0.2352537231018E+00
 0.2862669118980E+00 -0.3283617792196E+01 -0.1408754910167E+01 -0.2626121882384E+00
 0.3437167289403E+00 -0.3341006126576E+01 -0.1408726013316E+01 -0.2984521066608E+00
 0.3852275830109E+00 -0.3404504077902E+01 -0.1419059949000E+01 -0.3425005496920E+00
 0.4110092492644E+00 -0.3475393730244E+01 -0.1440260702407E+01 -0.3942466796701E+00
 0.4205723556313E+00 -0.3554693289319E+01 -0.1473036835097E+01 -0.4531415547949E+00
 0.4126913306706E+00 -0.3643218838640E+01 -0.1518347924895E+01 -0.5185815020871E+00
 0.3853968507294E+00 -0.3741712789448E+01 -0.1577468487197E+01 -0.5898697373583E+00
 0.3359197837403E+00 -0.3850997008803E+01 -0.1652086291589E+01 -0.6659775549231E+00
 0.2607835038896E+00 -0.3972113968189E+01 -0.1744325313797E+01 -0.7451496112558E+00
-0.1822783733471E+01 -0.2607153340130E+01 -0.2082070419312E+01 -0.5341630387211E+00
-0.1474751056111E+01 -0.2714340782779E+01 -0.1968873159284E+01 -0.4257030646405E+00
-0.1168112138502E+01 -0.2806207291434E+01 -0.1867930127332E+01 -0.3447092126152E+00
-0.8981813946026E+00 -0.2885782666451E+01 -0.1778463104185E+01 -0.2846101585204E+00
-0.6611247512102E+00 -0.2955654085175E+01 -0.1699886048789E+01 -0.2409624312389E+00
-0.4536821588726E+00 -0.3018136409092E+01 -0.1631754722804E+01 -0.2108104621933E+00
-0.2730236575128E+00 -0.3075356666170E+01 -0.1573738748140E+01 -0.1921805042636E+00
-0.1166961287782E+00 -0.3129286650278E+01 -0.1525611902287E+01 -0.1837435776712E+00
 0.1740217707931E-01 -0.3181770064932E+01 -0.1487252903519E+01 -0.1846038790352E+00
 0.1310555030792E+00 -0.3234568090224E+01 -0.1458650912258E+01 -0.1941689154079E+00
 0.2257580355490E+00 -0.3289403305392E+01 -0.1439913273174E+01 -0.2120445949274E+00
 0.3027060501675E+00 -0.3347968075160E+01 -0.1431273148116E+01 -0.2379579771621E+00
 0.3628743593126E+00 -0.3411945194852E+01 -0.1433063289069E+01 -0.2717611246444E+00
 0.4069471262801E+00 -0.3482947321420E+01 -0.1445720088049E+01 -0.3132063472380E+00
 0.4350462968803E+00 -0.3562395556047E+01 -0.1469854148080E+01 -0.3618602524686E+00
 0.4465925642037E+00 -0.3651505969469E+01 -0.1506309296654E+01 -0.4172380595352E+00
 0.4402373385662E+00 -0.3751347702024E+01 -0.1556221866878E+01 -0.4787715671833E+00
 0.4137953569213E+00 -0.3862939606007E+01 -0.1621097792959E+01 -0.5457394698645E+00
 0.3641096688998E+00 -0.3987334292845E+01 -0.1702915568935E+01 -0.6170367474346E+00
 0.2869168382281E+00 -0.4125634307461E+01 -0.1804197205963E+01 -0.6908123986992E+00
-0.1862699466171E+01 -0.2627613738038E+01 -0.2110447200625E+01 -0.4813938782857E+00
-0.1502282670846E+01 -0.2739459924238E+01 -0.1993619014633E+01 -0.3810560511346E+00
-0.1186573558938E+01 -0.2834689007398E+01 -0.1889993401384E+01 -0.3064596396884E+00
-0.9098468929748E+00 -0.2916958846291E+01 -0.1798598692893E+01 -0.2513623501360E+00
-0.6675240023912E+00 -0.2989284587860E+01 -0.1718700033059E+01 -0.2115361147406E+00
-0.4558290790860E+00 -0.3054263612136E+01 -0.1649743560690E+01 -0.1841650133541E+00
-0.2715842656672E+00 -0.3114208174050E+01 -0.1591322442631E+01 -0.1673766739615E+00
-0.1121023745123E+00 -0.3171218546316E+01 -0.1543160828875E+01 -0.1599249558652E+00
 0.2487879332243E-01 -0.3227238395803E+01 -0.1505109009348E+01 -0.1609852650680E+00
 0.1412531038159E+00 -0.3284115235545E+01 -0.1477145198166E+01 -0.1700232950061E+00
 0.2385853202243E+00 -0.3343652709495E+01 -0.1459381669256E+01 -0.1866907249209E+00
 0.3181141517265E+00 -0.3407628334066E+01 -0.1452071662017E+01 -0.2107481718789E+00
 0.3807989447619E+00 -0.3477807745555E+01 -0.1455594132681E+01 -0.2420495975350E+00
 0.4272501668394E+00 -0.3555896219199E+01 -0.1470463640879E+01 -0.2803688613031E+00
 0.4575043753022E+00 -0.3643448880080E+01 -0.1497393913447E+01 -0.3253306722402E+00
 0.4708836343921E+00 -0.3741862633436E+01 -0.1537360125651E+01 -0.3764959143574E+00
 0.4658991934551E+00 -0.3852421939698E+01 -0.1591665686697E+01 -0.4333188343685E+00
 0.4401353686583E+00 -0.3976361218767E+01 -0.1662026145336E+01 -0.4950616873781E+00
 0.3900500781963E+00 -0.4114895816369E+01 -0.1750677492501E+01 -0.5605821682243E+00
 0.3106657605331E+00 -0.4269174207227E+01 -0.1860498965227E+01 -0.6280193116824E+00
-0.1899204014251E+01 -0.2646358408194E+01 -0.2136414333130E+01 -0.4270901090329E+00
-0.1527330193739E+01 -0.2762509209365E+01 -0.2016224514345E+01 -0.3354265010885E+00
-0.1203259194848E+01 -0.2860818112836E+01 -0.1910116329767E+01 -0.2675075087052E+00
-0.9202928769462E+00 -0.2945532912656E+01 -0.1816938116505E+01 -0.2175055802327E+00
-0.6731571642687E+00 -0.3020070386768E+01 -0.1735816944584E+01 -0.1814698936987E+00
-0.4575934140795E+00 -0.3087294981532E+01 -0.1666097541712E+01 -0.1567675360923E+00
-0.2700963008340E+00 -0.3149696357878E+01 -0.1607302545518E+01 -0.1416539703645E+00
-0.1077574376309E+00 -0.3209499034535E+01 -0.1559110537964E+01 -0.1349785879709E+00
 0.3183649397256E-01 -0.3268743000395E+01 -0.1521346054160E+01 -0.1359908544375E+00
 0.1506814685773E+00 -0.3329357858946E+01 -0.1493977899684E+01 -0.1442120461546E+00
 0.2504064235962E+00 -0.3393222931115E+01 -0.1477123754787E+01 -0.1593342552239E+00
 0.3322845490252E+00 -0.3462193315130E+01 -0.1471057116338E+01 -0.1811454757416E+00
 0.3972594515026E+00 -0.3538112290293E+01 -0.1476200830487E+01 -0.2095026388958E+00
 0.4458757448536E+00 -0.3622774002696E+01 -0.1493142177399E+01 -0.2441966472571E+00
 0.4780867208734E+00 -0.3717856558977E+01 -0.1522691820047E+01 -0.2848952262852E+00
 0.4931108906396E+00 -0.3824914552219E+01 -0.1565947716971E+01 -0.3311930375685E+00
 0.4893107830356E+00 -0.3945408607159E+01 -0.1624365973218E+01 -0.3825629844691E+00
 0.4640368366416E+00 -0.4080735456481E+01 -0.1699848347013E+01 -0.4382656694859E+00
 0.4133755084196E+00 -0.4232217439529E+01 -0.1794855703069E+01 -0.4971601266015E+00
 0.3317494783177E+00 -0.4400999031508E+01 -0.1912547285149E+01 -0.5574472826165E+00
-0.1932108260380E+01 -0.2663263582649E+01 -0.2159824760745E+01 -0.3713908173042E+00
-0.1549813295417E+01 -0.2783327265889E+01 -0.2036576058648E+01 -0.2889120683415E+00
-0.1218161921716E+01 -0.2884412695283E+01 -0.1928210065099E+01 -0.2279293311235E+00
-0.9295609396739E+00 -0.2971312540906E+01 -0.1833410531222E+01 -0.1831099549481E+00
-0.6780977760492E+00 -0.3047813982168E+01 -0.1751178521920E+01 -0.1508372352166E+00
-0.4590698853274E+00 -0.3117028786113E+01 -0.1680766371314E+01 -0.1287005021245E+00
-0.2686698438511E+00 -0.3181612258969E+01 -0.1621632584212E+01 -0.1151069766600E+00
-0.1037847957193E+00 -0.3243905597105E+01 -0.1573414480637E+01 -0.1090132743950E+00
 0.3813773363807E-01 -0.3306038907690E+01 -0.1535913547909E+01 -0.1097458810001E+00
 0.1591867633896E+00 -0.3370017717878E+01 -0.1509090544782E+01 -0.1168796315997E+00
 0.2610483259635E+00 -0.3437790270787E+01 -0.1493068710280E+01 -0.1301424835281E+00
 0.3450231219491E+00 -0.3511280995193E+01 -0.1488141196650E+01 -0.1493445862093E+00
 0.4120385015943E+00 -0.3592403733013E+01 -0.1494771654976E+01 -0.1743456819660E+00
 0.4625793297236E+00 -0.3683033911753E+01 -0.1513613649715E+01 -0.2049495484991E+00
 0.4965185690729E+00 -0.3784957582042E+01 -0.1545566332175E+01 -0.2408561021367E+00
 0.5129703767493E+00 -0.3899861352366E+01 -0.1591838754502E+01 -0.2816874408258E+00
 0.5101474696749E+00 -0.4029344597756E+01 -0.1654022646003E+01 -0.3269378207586E+00
 0.4851723913575E+00 -0.4174920202672E+01 -0.1734181466919E+01 -0.3758857576527E+00
 0.4337908471910E+00 -0.4337966384495E+01 -0.1834962497879E+01 -0.4274323198897E+00
 0.3499339460407E+00 -0.4519582752796E+01 -0.1959734934204E+01 -0.4799011866253E+00
-0.1961240668032E+01 -0.2678218829761E+01 -0.2180545958432E+01 -0.3144461125863E+00
-0.1569659804340E+01 -0.2801769181865E+01 -0.2054571618306E+01 -0.2416158611330E+00
-0.1231275995836E+01 -0.2905309321468E+01 -0.1944195094202E+01 -0.1878042017735E+00
-0.9376893532856E+00 -0.2994124854697E+01 -0.1847952673065E+01 -0.1482469092275E+00
-0.6824130104637E+00 -0.3072337403793E+01 -0.1764732690225E+01 -0.1197129099824E+00
-0.4603450088706E+00 -0.3143282453300E+01 -0.1693704902925E+01 -0.1000488677073E+00
-0.2674056280608E+00 -0.3209765803032E+01 -0.1634270568469E+01 -0.8783512227353E-01
-0.1002976583863E+00 -0.3274234884601E+01 -0.1586030291181E+01 -0.8214609681340E-01
 0.4365627164189E-01 -0.3338901446635E+01 -0.1548765228319E+01 -0.8238821541453E-01
 0.1666277896963E+00 -0.3405839028439E+01 -0.1522429278348E+01 -0.8818831947540E-01
 0.2703523535855E+00 -0.3477056705349E+01 -0.1507151041506E+01 -0.9930642125710E-01
 0.3561518970740E+00 -0.3554539047110E+01 -0.1503241956704E+01 -0.1155704998581E+00
 0.4249370589515E+00 -0.3640261496426E+01 -0.1511202481780E+01 -0.1368424693727E+00
 0.4771383764096E+00 -0.3736170207714E+01 -0.1531744956828E+01 -0.1629357239680E+00
 0.5125529211095E+00 -0.3844141806239E+01 -0.1565846772039E+01 -0.1935752917454E+00
 0.5301939075550E+00 -0.3965968903851E+01 -0.1614814244163E+01 -0.2284086818791E+00
 0.5281301250923E+00 -0.4103355419977E+01 -0.1680355884334E+01 -0.2669586686001E+00
 0.5032724253625E+00 -0.4257890713145E+01 -0.1764670590782E+01 -0.3085442172998E+00
 0.4510654971505E+00 -0.4430969631063E+01 -0.1870554938194E+01 -0.3521484482041E+00
 0.3650417020613E+00 -0.4623620858736E+01 -0.2001532198560E+01 -0.3962690967429E+00
-0.1986448842222E+01 -0.2691127649756E+01 -0.2198460945654E+01 -0.2564160254653E+00
-0.1586806198858E+01 -0.2817707446932E+01 -0.2070121408271E+01 -0.1936457624302E+00
-0.1242596960044E+01 -0.2923364020103E+01 -0.1958001655702E+01 -0.1472134197957E+00
-0.9447126278104E+00 -0.3013817480774E+01 -0.1860509146316E+01 -0.1129890835501E+00
-0.6861629517850E+00 -0.3093483524546E+01 -0.1776433839370E+01 -0.8817303900290E-01
-0.4614960690712E+00 -0.3165894310989E+01 -0.1704873474304E+01 -0.7090012979361E-01
-0.2663936734152E+00 -0.3233988065621E+01 -0.1645179413174E+01 -0.5994256687174E-01
-0.9739725064123E-01 -0.3300305558660E+01 -0.1596920316321E+01 -0.5450197586838E-01
 0.4827922566835E-01 -0.3367129731768E+01 -0.1559859733911E+01 -0.5406748886462E-01
 0.1728783783264E+00 -0.3436592664130E+01 -0.1533945710437E+01 -0.5831680782564E-01
 0.2781769465335E+00 -0.3510754916522E+01 -0.1519311642041E+01 -0.6703890253996E-01
 0.3655123860289E+00 -0.3591651006716E+01 -0.1516285147877E+01 -0.8007614151683E-01
 0.4357784588408E+00 -0.3681307413962E+01 -0.1525398605038E+01 -0.9729197048707E-01
 0.4893568059443E+00 -0.3781728388977E+01 -0.1547414640100E+01 -0.1185072365965E+00
 0.5259749012343E+00 -0.3894862678215E+01 -0.1583377251165E+01 -0.1434680388244E+00
 0.5445525742032E+00 -0.4022583840583E+01 -0.1634674691053E+01 -0.1718483789929E+00
 0.5430272565747E+00 -0.4166670030302E+01 -0.1703112099332E+01 -0.2032093676436E+00
 0.5181224252654E+00 -0.4328755298261E+01 -0.1790997445765E+01 -0.2369334882618E+00
 0.4650268322808E+00 -0.4510224411419E+01 -0.1901242857373E+01 -0.2721225997401E+00
 0.3769533474296E+00 -0.4712023095366E+01 -0.2037482776362E+01 -0.3074916143947E+00
-0.2007600902667E+01 -0.2701907938801E+01 -0.2213469149876E+01 -0.1974692968065E+00
-0.1601198023546E+01 -0.2831032765199E+01 -0.2083148465426E+01 -0.1451137518666E+00
-0.1252121535516E+01 -0.2938453216166E+01 -0.1969570128295E+01 -0.1062401260363E+00
-0.9506610802558E+00 -0.3030259586084E+01 -0.1871032708434E+01 -0.7741015940991E-01
-0.6893999074438E+00 -0.3111117312427E+01 -0.1786243088809E+01 -0.5629501576728E-01
-0.4625901654705E+00 -0.3184725183763E+01 -0.1714238209792E+01 -0.4134418822996E-01
-0.2657120456425E+00 -0.3254133308478E+01 -0.1654327312241E+01 -0.3153784225286E-01
-0.9517127384855E-01 -0.3321960837185E+01 -0.1606052088112E+01 -0.2621294851240E-01
 0.5190891479843E-01 -0.3390549783926E+01 -0.1569161204510E+01 -0.2494389589109E-01
 0.1778295492280E+00 -0.3462079942786E+01 -0.1543597681057E+01 -0.2745847224597E-01
 0.2844001596785E+00 -0.3538652894806E+01 -0.1529498781631E+01 -0.3357221388029E-01
 0.3729685126881E+00 -0.3622341998364E+01 -0.1527205534394E+01 -0.4313931043294E-01
 0.4444117670550E+00 -0.3715212973060E+01 -0.1537276562923E+01 -0.5602436640620E-01
 0.4990685227514E+00 -0.3819314221719E+01 -0.1560515474556E+01 -0.7205456847693E-01
 0.5366049113789E+00 -0.3936647940629E+01 -0.1598020219694E+01 -0.9099532841827E-01
 0.5558588276749E+00 -0.4069145255080E+01 -0.1651244616692E+01 -0.1125501675121E+00
 0.5546546010863E+00 -0.4218632655295E+01 -0.1722069681110E+01 -0.1363292662801E+00
 0.5295588840556E+00 -0.4386764888236E+01 -0.1812886817367E+01 -0.1618001182481E+00
 0.4755530490284E+00 -0.4574900900262E+01 -0.1926693485193E+01 -0.1882149569303E+00
 0.3856016968057E+00 -0.4783902441548E+01 -0.2067201344786E+01 -0.2145415043661E+00
-0.2024586607364E+01 -0.2710492305240E+01 -0.2225487083279E+01 -0.1377820979944E+00
-0.1612790216375E+01 -0.2841654732369E+01 -0.2093589120600E+01 -0.9613522921505E-01
-0.1259847484331E+01 -0.2950474548240E+01 -0.1978851350289E+01 -0.6496895072458E-01
-0.9555604169333E+00 -0.3043342811475E+01 -0.1879484512585E+01 -0.4158466288401E-01
-0.6921677679716E+00 -0.3125126948629E+01 -0.1794128512252E+01 -0.2415733221163E-01
-0.4636833506772E+00 -0.3199659792904E+01 -0.1721771273116E+01 -0.1147305124410E-01
-0.2654257562480E+00 -0.3270080746652E+01 -0.1661688052148E+01 -0.2733289381139E-02
-0.9369255560421E-01 -0.3339070697831E+01 -0.1613398725022E+01  0.2582800274837E-02
 0.5446447028665E-01 -0.3409017241956E+01 -0.1576639798686E+01  0.4813293819315E-02
 0.1813913946689E+00 -0.3482135944504E+01 -0.1551349934488E+01  0.4180742094648E-02
 0.2889218213758E+00 -0.3560558016338E+01 -0.1537669007732E+01  0.8447340627083E-03
 0.3784090700497E+00 -0.3646383810774E+01 -0.1535948124245E+01 -0.5059013085105E-02
 0.4507144749066E+00 -0.3741705634473E+01 -0.1546765841073E+01 -0.1339627658126E-01
 0.5061400691659E+00 -0.3848601379742E+01 -0.1570956811986E+01 -0.2400034991738E-01
 0.5443007585295E+00 -0.3969108353888E+01 -0.1609659565736E+01 -0.3665575513604E-01
 0.5639672913964E+00 -0.4105193894339E+01 -0.1664376499161E+01 -0.5109944056266E-01
 0.5628736855006E+00 -0.4258711208510E+01 -0.1737043631409E+01 -0.6700085127452E-01
 0.5374649735639E+00 -0.4431318482594E+01 -0.1830111144602E+01 -0.8393087935873E-01
 0.4825663690954E+00 -0.4624341696935E+01 -0.1946634399147E+01 -0.1013177557016E+00
 0.3909619950709E+00 -0.4838566015804E+01 -0.2090373884442E+01 -0.1184103969206E+00
-0.2037318391487E+01 -0.2716828397565E+01 -0.2234448985187E+01 -0.7753665845825E-01
-0.1621547417185E+01 -0.2849502432701E+01 -0.2101393424116E+01 -0.4682831004632E-01
-0.1265773527032E+01 -0.2959347604238E+01 -0.1985806926660E+01 -0.2348564260534E-01
-0.9594314058137E+00 -0.3052982110463E+01 -0.1885834347867E+01 -0.5587722044539E-02
-0.6945014895313E+00 -0.3135424815909E+01 -0.1800065358991E+01  0.8160687686598E-02
-0.4648199276789E+00 -0.3210607967021E+01 -0.1727451106127E+01  0.1861959879166E-01
-0.2655858644397E+00 -0.3281736052483E+01 -0.1667241296725E+01  0.2635568558032E-01
-0.9301794622268E-01 -0.3351533739377E+01 -0.1618939288126E+01  0.3174212474709E-01
 0.5588315312477E-01 -0.3422419651225E+01 -0.1582272150094E+01  0.3502748667629E-01
 0.1834946143968E+00 -0.3496632320251E+01 -0.1557174717802E+01  0.3638475192010E-01
 0.2916652733623E+00 -0.3576320500901E+01 -0.1543787953028E+01  0.3594964205036E-01
 0.3817496497959E+00 -0.3663599175007E+01 -0.1542469272937E+01  0.3384871671101E-01
 0.4545945271789E+00 -0.3760574063002E+01 -0.1553810377896E+01  0.3021459841056E-01
 0.5104724877275E+00 -0.3869337596992E+01 -0.1578666597350E+01  0.2520745761273E-01
 0.5489589008665E+00 -0.3991944489241E+01 -0.1618203222431E+01  0.1902295372050E-01
 0.5687747819203E+00 -0.4130378943796E+01 -0.1673953951836E+01  0.1188680637661E-01
 0.5675899998285E+00 -0.4286502935901E+01 -0.1747889075521E+01  0.4061738048773E-02
 0.5417665023342E+00 -0.4461966073514E+01 -0.1842493793781E+01 -0.4140829204061E-02
 0.4860267270945E+00 -0.4658060378470E+01 -0.1960855811173E+01 -0.1234411660118E-01
 0.3930410133966E+00 -0.4875508330830E+01 -0.2106759633850E+01 -0.2009889176210E-01
-0.2045732119800E+01 -0.2720879080661E+01 -0.2240307258534E+01 -0.1691981835728E-01
-0.1627444180625E+01 -0.2854524876344E+01 -0.2106525451432E+01  0.2686904351420E-02
-0.1269899240091E+01 -0.2965014476372E+01 -0.1990409441689E+01  0.1812331819124E-01
-0.9622895853974E+00 -0.3059116397149E+01 -0.1890060807003E+01  0.3050520953093E-01
-0.6964266575205E+00 -0.3141948266991E+01 -0.1804036209945E+01  0.4057922100644E-01
-0.4660318741750E+00 -0.3217505583144E+01 -0.1731262600549E+01  0.4883894184532E-01
-0.2662287552386E+00 -0.3289032523672E+01 -0.1670972796850E+01  0.5561149031652E-01
-0.9318744341948E-01 -0.3359278629292E+01 -0.1622659050059E+01  0.6111827241962E-01
 0.5612138730744E-01 -0.3430678249576E+01 -0.1586041721244E+01  0.6551672007944E-01
 0.1840917032514E+00 -0.3505479491812E+01 -0.1561052256664E+01  0.6893001862211E-01
 0.2925786907797E+00 -0.3585836121480E+01 -0.1547830988503E+01  0.7147036794048E-01
 0.3829340615939E+00 -0.3673865091750E+01 -0.1546737580250E+01  0.7325536932997E-01
 0.4559917432427E+00 -0.3771672128439E+01 -0.1558369777090E+01  0.7441522551550E-01
 0.5120025130020E+00 -0.3881349256853E+01 -0.1583592965594E+01  0.7510269355069E-01
 0.5505150564655E+00 -0.4004951609387E+01 -0.1623585175755E+01  0.7549251230292E-01
 0.5702199072952E+00 -0.4144462626985E+01 -0.1679894073993E+01  0.7576982368898E-01
 0.5687511912120E+00 -0.4301737890364E+01 -0.1754503744151E+01  0.7612330091560E-01
 0.5424284410460E+00 -0.4478410016172E+01 -0.1849911335617E+01  0.7673707667815E-01
 0.4859260763454E+00 -0.4675740033926E+01 -0.1969212555068E+01  0.7778094725465E-01
 0.3918675291549E+00 -0.4894405635453E+01 -0.2116192904593E+01  0.7938994141758E-01
-0.2049787659854E+01 -0.2722622564525E+01 -0.2243032799769E+01  0.4387844190574E-01
-0.1630465138217E+01 -0.2856691307505E+01 -0.2108963524140E+01  0.5228905238721E-01
-0.1272224993014E+01 -0.2967440162732E+01 -0.1992642618147E+01  0.5977110224467E-01
-0.9641450646665E+00 -0.3061709015760E+01 -0.1892151413001E+01  0.6661864271296E-01
-0.6979591839589E+00 -0.3144660180584E+01 -0.1806031096754E+01  0.7301831997500E-01
-0.4673384427430E+00 -0.3220315244056E+01 -0.1733197228399E+01  0.7908962668322E-01
-0.2673756391112E+00 -0.3291931919884E+01 -0.1672874548485E+01  0.8491532246890E-01
-0.9422358842144E-01 -0.3362265137260E+01 -0.1624549696950E+01  0.9056236168316E-01
 0.5515546661708E-01 -0.3433749240200E+01 -0.1587939069556E+01  0.9609577097563E-01
 0.1831577516421E+00 -0.3508628216228E+01 -0.1562971114391E+01  0.1015884208569E+00
 0.2916359509915E+00 -0.3589048120808E+01 -0.1549783715883E+01  0.1071287020126E+00
 0.3819352328438E+00 -0.3677115158250E+01 -0.1548734561013E+01  0.1128247746860E+00
 0.4548786617772E+00 -0.3774921650751E+01 -0.1560420200860E+01  0.1188032466891E+00
 0.5107031855426E+00 -0.3884544450137E+01 -0.1585705390337E+01  0.1252083060672E+00
 0.5489443411100E+00 -0.4008022779728E+01 -0.1625766862027E+01  0.1321926389288E+00
 0.5682824634637E+00 -0.4147322939835E+01 -0.1682149019628E+01  0.1398986438607E+00
 0.5663455026660E+00 -0.4304280745692E+01 -0.1756829559766E+01  0.1484374821495E+00
 0.5394521878929E+00 -0.4480505448433E+01 -0.1852295027756E+01  0.1578613215882E+00
 0.4822841582567E+00 -0.4677231856465E+01 -0.1971625413157E+01  0.1681280749576E+00
 0.3874849251292E+00 -0.4895112290639E+01 -0.2118584856416E+01  0.1790548629861E+00
-0.2049469236753E+01 -0.2722052449692E+01 -0.2242615186941E+01  0.1046665125383E+00
-0.1630605103448E+01 -0.2855991370082E+01 -0.2108700337210E+01  0.1018562537037E+00
-0.1272751915972E+01 -0.2966612792597E+01 -0.1992501407974E+01  0.1013709251216E+00
-0.9650024109388E+00 -0.3060748010089E+01 -0.1892102693084E+01  0.1026773634464E+00
-0.6991051369184E+00 -0.3143549283443E+01 -0.1806047572989E+01  0.1053983222860E+00
-0.4687459365313E+00 -0.3219026672354E+01 -0.1733253121780E+01  0.1092764306514E+00
-0.2690322738841E+00 -0.3290424949277E+01 -0.1672944890643E+01  0.1141482153284E+00
-0.9613113572382E-01 -0.3360484733789E+01 -0.1624609454550E+01  0.1199249449892E+00
 0.5298193157940E-01 -0.3431624523638E+01 -0.1587962014240E+01  0.1265783678371E+00
 0.1806908566771E+00 -0.3506070476426E+01 -0.1562928417318E+01  0.1341302508453E+00
 0.2888370549714E+00 -0.3585948287034E+01 -0.1549642275139E+01  0.1426442855767E+00
 0.3787556086700E+00 -0.3673340847942E+01 -0.1548455058530E+01  0.1522180718971E+00
 0.4512608586677E+00 -0.3770313863082E+01 -0.1559954908118E+01  0.1629731198604E+00
 0.5065839765854E+00 -0.3878914524052E+01 -0.1584995353289E+01  0.1750437166733E+00
 0.5442610612031E+00 -0.4001150313688E+01 -0.1624737944547E+01  0.1885595340226E+00
 0.5629827659262E+00 -0.4138954726433E+01 -0.1680706817175E+01  0.2036193363293E+00
 0.5604005703441E+00 -0.4294131221642E+01 -0.1754853401659E+01  0.2202561934486E+00
 0.5328738082328E+00 -0.4468259889673E+01 -0.1849631453586E+01  0.2383905185634E+00
 0.4751459212133E+00 -0.4662554012075E+01 -0.1968081797713E+01  0.2577703141236E+00
 0.3799469925973E+00 -0.4877658757793E+01 -0.2113924524280E+01  0.2778996893311E+00
-0.2044785569142E+01 -0.2719177692484E+01 -0.2239062727285E+01  0.1652526783495E+00
-0.1627869120086E+01 -0.2852435125019E+01 -0.2105742989859E+01  0.1512668527716E+00
-0.1271481903782E+01 -0.2962543669396E+01 -0.1989992014346E+01  0.1428364426493E+00
-0.9648606319781E+00 -0.3056246183286E+01 -0.1889920198381E+01  0.1386067496440E+00
-0.6998607095207E+00 -0.3138630228563E+01 -0.1804090736324E+01  0.1376402759954E+00
-0.4702476679724E+00 -0.3213656811560E+01 -0.1731435100989E+01  0.1393049424095E+00
-0.2711889163353E+00 -0.3284531395362E+01 -0.1671188542259E+01  0.1431921134289E+00
-0.9889700372461E-01 -0.3353960742516E+01 -0.1622843136617E+01  0.1490576076873E+00
 0.4961761007929E-01 -0.3424331873457E+01 -0.1586115699765E+01  0.1567794438789E+00
 0.1767121399443E+00 -0.3497839677232E+01 -0.1560929938566E+01  0.1663272572515E+00
 0.2842081030410E+00 -0.3576577164557E+01 -0.1547413454988E+01  0.1777385789530E+00
 0.3734270662069E+00 -0.3662591723970E+01 -0.1545907385227E+01  0.1910987237772E+00
 0.4451767713114E+00 -0.3757909593313E+01 -0.1556984422392E+01  0.2065222795810E+00
 0.4996904781974E+00 -0.3864534159585E+01 -0.1581476526241E+01  0.2241321480894E+00
 0.5365182287434E+00 -0.3984425642346E+01 -0.1620516480283E+01  0.2440342362538E+00
 0.5543809826808E+00 -0.4119469230342E+01 -0.1675591472151E+01  0.2662840444341E+00
 0.5509826141577E+00 -0.4271423268189E+01 -0.1748607102960E+01  0.2908387429084E+00
 0.5227632559131E+00 -0.4441832082018E+01 -0.1841962343597E+01  0.3174918231864E+00
 0.4645808971384E+00 -0.4631890495399E+01 -0.1958635506215E+01  0.3457897199862E+00
 0.3693167037924E+00 -0.4842251441351E+01 -0.2102279321320E+01  0.3749363777553E+00
-0.2035769787150E+01 -0.2714022491193E+01 -0.2232402365159E+01  0.2254466412591E+00
-0.1622272455666E+01 -0.2846052919001E+01 -0.2100112920767E+01  0.2004001603519E+00
-0.1268417658457E+01 -0.2955267129223E+01 -0.1985131845174E+01  0.1840821440347E+00
-0.9637132550855E+00 -0.3048240945491E+01 -0.1885618469488E+01  0.1743330864316E+00
-0.7002123308337E+00 -0.3129943426868E+01 -0.1800173201554E+01  0.1696663631937E+00
-0.4718241023662E+00 -0.3204249632473E+01 -0.1727754650992E+01  0.1690822424957E+00
-0.2738205045687E+00 -0.3274299883122E+01 -0.1667616577985E+01  0.1719309428549E+00
-0.1024905065191E+00 -0.3342748045236E+01 -0.1619262115218E+01  0.1778145562047E+00
 0.4509932259431E-01 -0.3411934553704E+01 -0.1582412554608E+01  0.1865173723451E+00
 0.1712653750917E+00 -0.3484010143880E+01 -0.1556990037381E+01  0.1979556608800E+00
 0.2778008317912E+00 -0.3561023398011E+01 -0.1543114602209E+01  0.2121387903054E+00
 0.3660103562819E+00 -0.3644974590532E+01 -0.1541113186189E+01  0.2291374764653E+00
 0.4366970505751E+00 -0.3737838181379E+01 -0.1551536327542E+01  0.2490572194174E+00
 0.4901036846795E+00 -0.3841560015127E+01 -0.1575184471315E+01  0.2720078429577E+00
 0.5258068229181E+00 -0.3958037664605E+01 -0.1613148491502E+01  0.2980708414544E+00
 0.5425764695385E+00 -0.4089092189870E+01 -0.1666862384328E+01  0.3272598783842E+00
 0.5381960211597E+00 -0.4236423025822E+01 -0.1738166687783E+01  0.3594608657002E+00
 0.5092243413114E+00 -0.4401530155955E+01 -0.1829383728242E+01  0.3943493753002E+00
 0.4506840825831E+00 -0.4585589658052E+01 -0.1943405615541E+01  0.4312844903813E+00
 0.3556665628594E+00 -0.4789273273364E+01 -0.2083795148652E+01  0.4691903630591E+00
-0.2022479131564E+01 -0.2706626092439E+01 -0.2222679449644E+01  0.2850610252778E+00
-0.1613840539336E+01 -0.2836895105238E+01 -0.2091845747644E+01  0.2491371873753E+00
-0.1263562768472E+01 -0.2944840215751E+01 -0.1977949397568E+01  0.2250237385357E+00
-0.9615485006270E+00 -0.3036793950286E+01 -0.1879220947163E+01  0.2097838710378E+00
-0.7001369154867E+00 -0.3117554634158E+01 -0.1794315023782E+01  0.2014003062333E+00
-0.4734431822502E+00 -0.3190875647889E+01 -0.1722229845797E+01  0.1985175564863E+00
-0.2768870660240E+00 -0.3259807289447E+01 -0.1662246342855E+01  0.2002516410225E+00
-0.1068638604840E+00 -0.3326932346783E+01 -0.1613884213322E+01  0.2060541491076E+00
 0.3948325974694E-01 -0.3394530387578E+01 -0.1576872146081E+01  0.2156161245219E+00
 0.1644162342360E+00 -0.3464695935153E+01 -0.1551131455497E+01  0.2287990696255E+00
 0.2696917221428E+00 -0.3539422225197E+01 -0.1536773332538E+01  0.2455816780198E+00
 0.3565940826083E+00 -0.3620651602964E+01 -0.1534107030676E+01  0.2660171674559E+00
 0.4259234479214E+00 -0.3710295159243E+01 -0.1543654700406E+01  0.2901994026196E+00
 0.4779388653440E+00 -0.3810227965697E+01 -0.1566175873194E+01  0.3182231048835E+00
 0.5122547787717E+00 -0.3922269603365E+01 -0.1602706963494E+01  0.3501445673211E+00
 0.5277070743140E+00 -0.4048160466975E+01 -0.1654613090354E+01  0.3859377264317E+00
 0.5221832050093E+00 -0.4189525543777E+01 -0.1723650894849E+01  0.4254238111213E+00
 0.4923955517509E+00 -0.4347808824844E+01 -0.1812044233758E+01  0.4681729905514E+00
 0.4335776344225E+00 -0.4524162830704E+01 -0.1922575037376E+01  0.5133762335278E+00
 0.3390856801438E+00 -0.4719281509675E+01 -0.2058692034658E+01  0.5597039232326E+00
-0.2004994440461E+01 -0.2697042521869E+01 -0.2209957366690E+01  0.3439128414527E+00
-0.1602608844587E+01 -0.2825031622243E+01 -0.2080991014132E+01  0.2973613605062E+00
-0.1256921821933E+01 -0.2931342178527E+01 -0.1968484075223E+01  0.2655785270449E+00
-0.9583495449962E+00 -0.3021990527847E+01 -0.1870759829491E+01  0.2448880951669E+00
-0.6996022453001E+00 -0.3101554302408E+01 -0.1786543572892E+01  0.2327677376320E+00
-0.4750608241973E+00 -0.3173631146796E+01 -0.1714885222017E+01  0.2275228535180E+00
-0.2803343409575E+00 -0.3241157812002E+01 -0.1655101307693E+01  0.2280451092340E+00
-0.1119529536044E+00 -0.3306629018128E+01 -0.1606733522639E+01  0.2336403235118E+00
 0.3284404584230E-01 -0.3372250301028E+01 -0.1569520935956E+01  0.2439072903483E+00
 0.1562511675194E+00 -0.3440049001049E+01 -0.1543384977845E+01  0.2586512184801E+00
 0.2599806913729E+00 -0.3511953154945E+01 -0.1528427054002E+01  0.2778171385427E+00
 0.3452932258774E+00 -0.3589837376708E+01 -0.1524935747022E+01  0.3014372836576E+00
 0.4129872339229E+00 -0.3675538732262E+01 -0.1533399200330E+01  0.3295909034869E+00
 0.4633440047206E+00 -0.3770848965451E+01 -0.1554527327600E+01  0.3623550838990E+00
 0.4960256543542E+00 -0.3877494364213E+01 -0.1589290289603E+01  0.3997596289021E+00
 0.5099483105162E+00 -0.3997117169889E+01 -0.1638969359748E+01  0.4417410155899E+00
 0.5031246740480E+00 -0.4131250088774E+01 -0.1705218940596E+01  0.4880636041678E+00
 0.4724514287524E+00 -0.4281265574218E+01 -0.1790142643828E+01  0.5382073390596E+00
 0.4134149648580E+00 -0.4448281803719E+01 -0.1896387409455E+01  0.5912181386567E+00
 0.3196869285300E+00 -0.4633009417133E+01 -0.2027261564502E+01  0.6455425459197E+00
-0.1983419434845E+01 -0.2685340246971E+01 -0.2194317044888E+01  0.4018248979774E+00
-0.1588622718237E+01 -0.2810551440796E+01 -0.2067611849502E+01  0.3449592148564E+00
-0.1248500549665E+01 -0.2914873806798E+01 -0.1956785942574E+01  0.3056657551746E+00
-0.9540948656129E+00 -0.3003938928357E+01 -0.1860275878447E+01  0.2795764972989E+00
-0.6985674730218E+00 -0.3082056710560E+01 -0.1776893361777E+01  0.2636965191841E+00
-0.4766215758864E+00 -0.3152637165595E+01 -0.1705751604170E+01  0.2560133675510E+00
-0.2840946068226E+00 -0.3218481718064E+01 -0.1646210868521E+01  0.2552070564218E+00
-0.1176783604907E+00 -0.3281981545331E+01 -0.1597840151684E+01  0.2604438751410E+00
 0.2527350741016E-01 -0.3345256377174E+01 -0.1560391944831E+01  0.2712319079932E+00
 0.1468759350779E+00 -0.3410256730391E+01 -0.1533788969907E+01  0.2873184671651E+00
 0.2487893849863E+00 -0.3478836883978E+01 -0.1518122320676E+01  0.3086114976692E+00
 0.3322472187575E+00 -0.3552795153061E+01 -0.1513657525283E+01  0.3351181746958E+00
 0.3980471348084E+00 -0.3633885113365E+01 -0.1520843846064E+01  0.3668996803174E+00
 0.4464977684102E+00 -0.3723803560313E+01 -0.1540333718288E+01  0.4040122187585E+00
 0.4773168920445E+00 -0.3824168379974E+01 -0.1573020195337E+01  0.4464568694894E+00
 0.4895122853169E+00 -0.3936505169563E+01 -0.1620086651486E+01  0.4941344214798E+00
 0.4812390788658E+00 -0.4062233913370E+01 -0.1683067567948E+01  0.5467605606536E+00
 0.4496044508756E+00 -0.4202635427221E+01 -0.1763924554409E+01  0.6037418076727E+00
 0.3903853066660E+00 -0.4358775978234E+01 -0.1865143610906E+01  0.6640046329041E+00
 0.2976158262662E+00 -0.4531367773174E+01 -0.1989863410000E+01  0.7258035702748E+00
-0.1957879812760E+01 -0.2671601777295E+01 -0.2175856341807E+01  0.4586271427433E+00
-0.1571937154562E+01 -0.2793561890186E+01 -0.2051784545828E+01  0.3918210606440E+00
-0.1238305990351E+01 -0.2895556613180E+01 -0.1942915418731E+01  0.3452069456798E+00
-0.9487586557933E+00 -0.2982769392053E+01 -0.1847818177801E+01  0.3137817786951E+00
-0.6969837333443E+00 -0.3059198893303E+01 -0.1765405830046E+01  0.2941169974172E+00
-0.4780594160963E+00 -0.3128038217559E+01 -0.1694865883519E+01  0.2839080209297E+00
-0.2880876834985E+00 -0.3191933799334E+01 -0.1635610092783E+01  0.2816387056484E+00
-0.1239465800527E+00 -0.3253159618226E+01 -0.1587239909165E+01  0.2863435546472E+00
 0.1687917222791E-01 -0.3313739466637E+01 -0.1549524334442E+01  0.2974420540473E+00
 0.1364138172114E+00 -0.3375538946656E+01 -0.1522388806978E+01  0.3146219933591E+00
 0.2362590900061E+00 -0.3440331523111E+01 -0.1505914039740E+01  0.3377504271235E+00
 0.3176175803304E+00 -0.3509832097344E+01 -0.1500340819191E+01  0.3668048261448E+00
 0.3812867702383E+00 -0.3585702776692E+01 -0.1506075519213E+01  0.4018243721911E+00
 0.4276069382088E+00 -0.3669535086412E+01 -0.1523706225791E+01  0.4428402279481E+00
 0.4563575710066E+00 -0.3762823911676E+01 -0.1554039176173E+01  0.4898210569247E+00
 0.4666462062380E+00 -0.3866958900736E+01 -0.1598146962361E+01  0.5426324817427E+00
 0.4567830342908E+00 -0.3983224226421E+01 -0.1657427356097E+01  0.6009490865417E+00
 0.4241068193167E+00 -0.4112784131639E+01 -0.1733678332394E+01  0.6641212298983E+00
 0.3647184429268E+00 -0.4256628208778E+01 -0.1829197585311E+01  0.7309827680382E+00
 0.2730608122088E+00 -0.4415445308397E+01 -0.1946920708270E+01  0.7996280320634E+00
-0.1928522165882E+01 -0.2655923208574E+01 -0.2154689320529E+01  0.5141579143333E+00
-0.1552616515660E+01 -0.2774187879962E+01 -0.2033598060785E+01  0.4378416115233E+00
-0.1226346667748E+01 -0.2873531886654E+01 -0.1926942915681E+01  0.3841262009174E+00
-0.9423112945681E+00 -0.2958633069849E+01 -0.1833443846626E+01  0.3474387714591E+00
-0.6947948420626E+00 -0.3033139393960E+01 -0.1752129086487E+01  0.3239621783266E+00
-0.4792986754133E+00 -0.3100000809487E+01 -0.1682270753636E+01  0.3111297270630E+00
-0.2922220936970E+00 -0.3161691566690E+01 -0.1623339416265E+01  0.3072473340410E+00
-0.1306514662066E+00 -0.3220356902115E+01 -0.1574973929116E+01  0.3112269440239E+00
 0.7782532089585E-02 -0.3277916411262E+01 -0.1536962919313E+01  0.3224021489538E+00
 0.1250035374649E+00 -0.3336144427229E+01 -0.1509236214361E+01  0.3403996230080E+00
 0.2225483009348E+00 -0.3396728224942E+01 -0.1491864560500E+01  0.3650414100472E+00
 0.3015851274256E+00 -0.3461293830737E+01 -0.1485063086790E+01  0.3962700937468E+00
 0.3629115800160E+00 -0.3531405725091E+01 -0.1489192244408E+01  0.4340984982116E+00
 0.4069032571776E+00 -0.3608541615134E+01 -0.1504770024423E+01  0.4785275123950E+00
 0.4334055254211E+00 -0.3694059796431E+01 -0.1532507503488E+01  0.5294877077766E+00
 0.4416302761023E+00 -0.3789194312048E+01 -0.1573355092904E+01  0.5868080027379E+00
 0.4300503836884E+00 -0.3895068120655E+01 -0.1628558332244E+01  0.6501277198054E+00
 0.3962517671037E+00 -0.4012699238419E+01 -0.1699730307207E+01  0.7187575171491E+00
 0.3366889601684E+00 -0.4142968719847E+01 -0.1788951482511E+01  0.7914654029241E+00
 0.2462631353808E+00 -0.4286507886283E+01 -0.1898915028108E+01  0.8662156371536E+00
-0.1895512758242E+01 -0.2638413744501E+01 -0.2130945450884E+01  0.5682651215820E+00
-0.1530734203324E+01 -0.2752571037461E+01 -0.2013153458063E+01  0.4829205983620E+00
-0.1212632782278E+01 -0.2848959644635E+01 -0.1908948435808E+01  0.4223504949366E+00
-0.9347198658068E+00 -0.2931700824301E+01 -0.1817217719742E+01  0.3804845689562E+00
-0.6919380744311E+00 -0.3004056872256E+01 -0.1737117620537E+01  0.3531678216834E+00
-0.4802550651288E+00 -0.3068711776656E+01 -0.1668014411408E+01  0.3376055637309E+00
-0.2963963618849E+00 -0.3127953219395E+01 -0.1609444299119E+01  0.3319466307904E+00
-0.1376758294133E+00 -0.3183788536065E+01 -0.1561088247815E+01  0.3349910915794E+00
-0.1882902388736E-02 -0.3238026941333E+01 -0.1522757622687E+01  0.3459899480323E+00
 0.1127969312575E+00 -0.3292347029033E+01 -0.1494388542164E+01  0.3645072549460E+00
 0.2078299706656E+00 -0.3348346320163E+01 -0.1476042680520E+01  0.3903156920910E+00
 0.2843467839887E+00 -0.3407558318786E+01 -0.1467909417632E+01  0.4233173058395E+00
 0.3431452318840E+00 -0.3471445893870E+01 -0.1470301307404E+01  0.4634939320372E+00
 0.3846396238703E+00 -0.3541366742208E+01 -0.1483661741856E+01  0.5108098082519E+00
 0.4087436899308E+00 -0.3618530670151E+01 -0.1508599876877E+01  0.5651492489637E+00
 0.4147747392315E+00 -0.3703996857545E+01 -0.1545934391686E+01  0.6263000662091E+00
 0.4013705953115E+00 -0.3798700116101E+01 -0.1596744870721E+01  0.6938692613460E+00
 0.3663738925539E+00 -0.3903478558384E+01 -0.1662439188724E+01  0.7671421134136E+00
 0.3066193064899E+00 -0.4019066294295E+01 -0.1744850079843E+01  0.8448463184181E+00
 0.2175243814223E+00 -0.4145995865072E+01 -0.1846381592632E+01  0.9248437524209E+00
-0.1859036083741E+01 -0.2619195110115E+01 -0.2104768655774E+01  0.6208073036594E+00
-0.1506372243907E+01 -0.2728868744084E+01 -0.1990563259307E+01  0.5269633378231E+00
-0.1197176357881E+01 -0.2822017472440E+01 -0.1889021095460E+01  0.4598099344769E+00
-0.9259486678742E+00 -0.2902161913947E+01 -0.1799211968893E+01  0.4128586008686E+00
-0.6883449628659E+00 -0.2972148575042E+01 -0.1720431958453E+01  0.3816724352987E+00
-0.4808367556464E+00 -0.3034376447107E+01 -0.1652150201104E+01  0.3632667953987E+00
-0.3005003932557E+00 -0.3090935404080E+01 -0.1593974820705E+01  0.3556568514058E+00
-0.1448931484096E+00 -0.3143688383296E+01 -0.1545633315982E+01  0.3575428846108E+00
-0.1197369001964E-01 -0.3194330290861E+01 -0.1506962867192E+01  0.3680971963128E+00
 0.9995642868783E-01 -0.3244441493516E+01 -0.1477907976721E+01  0.3868198509329E+00
 0.1922885142887E+00 -0.3295528067963E+01 -0.1458522586527E+01  0.4134296715030E+00
 0.2661120444943E+00 -0.3349029244592E+01 -0.1448971080371E+01  0.4477821558774E+00
 0.3222255386628E+00 -0.3406304818556E+01 -0.1449517257873E+01  0.4898235339032E+00
 0.3610856086983E+00 -0.3468589327754E+01 -0.1460526744252E+01  0.5394739272931E+00
 0.3826755474958E+00 -0.3536934716470E+01 -0.1482501805658E+01  0.5965603014876E+00
 0.3864158208463E+00 -0.3612207433462E+01 -0.1516122054084E+01  0.6608213737353E+00
 0.3711059249976E+00 -0.3695126905637E+01 -0.1562289856938E+01  0.7318307453461E+00
 0.3348480805670E+00 -0.3786315168981E+01 -0.1622189527440E+01  0.8088591292349E+00
 0.2748803103507E+00 -0.3886315975805E+01 -0.1697374758458E+01  0.8906172258532E+00
 0.1872096745551E+00 -0.3995517414064E+01 -0.1789904633029E+01  0.9748906987965E+00
-0.1819293404921E+01 -0.2598401018336E+01 -0.2076316373664E+01  0.6716545612946E+00
-0.1479620861929E+01 -0.2703253154921E+01 -0.1965950782933E+01  0.5698812622920E+00
-0.1179991413175E+01 -0.2792899355990E+01 -0.1867258656772E+01  0.4964379927841E+00
-0.9159597591693E+00 -0.2870222664449E+01 -0.1779505734587E+01  0.4445026461041E+00
-0.6839421458122E+00 -0.2937628767911E+01 -0.1702138325133E+01  0.4094171507796E+00
-0.4809455252895E+00 -0.2997216723921E+01 -0.1634736252983E+01  0.3880487181628E+00
-0.3044169438885E+00 -0.3050870846988E+01 -0.1576985257712E+01  0.3783047390253E+00
-0.1521693910451E+00 -0.3100306120699E+01 -0.1528663486642E+01  0.3787991311468E+00
-0.2233867269183E-01 -0.3147101633784E+01 -0.1489636940266E+01  0.3886299185824E+00
 0.8665238637149E-01 -0.3192739066930E+01 -0.1459860736160E+01  0.4072319555462E+00
 0.1761166132558E+00 -0.3238633203887E+01 -0.1439382793946E+01  0.4342656701259E+00
 0.2470991366685E+00 -0.3286129092951E+01 -0.1428344075830E+01  0.4695337811228E+00
 0.3003999130421E+00 -0.3336484805445E+01 -0.1426959895810E+01  0.5129427759045E+00
 0.3365222955278E+00 -0.3390812405199E+01 -0.1435516347905E+01  0.5643603565782E+00
 0.3555195892984E+00 -0.3450000158776E+01 -0.1454405863965E+01  0.6235417688215E+00
 0.3569102967938E+00 -0.3514706414739E+01 -0.1484164171670E+01  0.6901644787716E+00
 0.3396468678150E+00 -0.3585409152962E+01 -0.1525508270150E+01  0.7637626819314E+00
 0.3020865472970E+00 -0.3662478039024E+01 -0.1579383997106E+01  0.8435986686420E+00
 0.2418887791576E+00 -0.3746221596818E+01 -0.1647036420123E+01  0.9283862992701E+00
 0.1557429808144E+00 -0.3836837511180E+01 -0.1730114424884E+01  0.1015862169504E+01
-0.1776501115982E+01 -0.2576176534859E+01 -0.2045758490707E+01  0.7206893837889E+00
-0.1450577975571E+01 -0.2675910153140E+01 -0.1939449415575E+01  0.6115924398147E+00
-0.1161094072173E+01 -0.2761814479078E+01 -0.1843767014411E+01  0.5321717451907E+00
-0.9047134607455E+00 -0.2836105123564E+01 -0.1758184730166E+01  0.4753608000402E+00
-0.6786521911038E+00 -0.2900727127760E+01 -0.1682308275599E+01  0.4363454830817E+00
-0.4804779080271E+00 -0.2957469082094E+01 -0.1615835081259E+01  0.4118903223443E+00
-0.3080231161694E+00 -0.3008005857752E+01 -0.1558533613790E+01  0.3998232086143E+00
-0.1593648775164E+00 -0.3053904175032E+01 -0.1510236450867E+01  0.3986863531972E+00
-0.3282123742274E-01 -0.3096628369348E+01 -0.1470841311451E+01  0.4075083563696E+00
 0.7306036593308E-01 -0.3137563003299E+01 -0.1440316235909E+01  0.4256577636460E+00
 0.1595119333107E+00 -0.3178033425525E+01 -0.1418705097742E+01  0.4527320911273E+00
 0.2275309938102E+00 -0.3219292165429E+01 -0.1406127747094E+01  0.4884749850566E+00
 0.2779204464274E+00 -0.3262499863199E+01 -0.1402752322325E+01  0.5327502436675E+00
 0.3112365232637E+00 -0.3308651480854E+01 -0.1408785026494E+01  0.5853645327149E+00
 0.3276028790239E+00 -0.3358470661112E+01 -0.1424507853968E+01  0.6459834813357E+00
 0.3266285259651E+00 -0.3412396161859E+01 -0.1450310785192E+01  0.7142064771236E+00
 0.3074053724458E+00 -0.3470640588831E+01 -0.1486720547930E+01  0.7895168107612E+00
 0.2685331219265E+00 -0.3533287584672E+01 -0.1534434593598E+01  0.8711694143063E+00
 0.2081020271006E+00 -0.3600369979721E+01 -0.1594365933688E+01  0.9578980368789E+00
 0.1235915732556E+00 -0.3671859536973E+01 -0.1667685938717E+01  0.1047422702325E+01
-0.1730889006333E+01 -0.2552677367341E+01 -0.2013276190521E+01  0.7678073397552E+00
-0.1419348631908E+01 -0.2647038254501E+01 -0.1911201831765E+01  0.6520220904678E+00
-0.1140502629865E+01 -0.2728986063022E+01 -0.1818659681044E+01  0.5669521166976E+00
-0.8921688107634E+00 -0.2800045793733E+01 -0.1735340859712E+01  0.5053793903499E+00
-0.6723943761249E+00 -0.2861687173060E+01 -0.1661018323904E+01  0.4624029514615E+00
-0.4793263191950E+00 -0.2915382532705E+01 -0.1595513156346E+01  0.4347337466538E+00
-0.3111918596866E+00 -0.2962597745373E+01 -0.1538681110475E+01  0.4201507753143E+00
-0.1663361680428E+00 -0.3004754550711E+01 -0.1490412634034E+01  0.4171402846073E+00
-0.4326159043302E-01 -0.3043206302085E+01 -0.1450639905804E+01  0.4246665615709E+00
 0.5935842737212E-01 -0.3079244018302E+01 -0.1419346224137E+01  0.4420307662205E+00
 0.1426738722075E+00 -0.3114106950107E+01 -0.1396573543071E+01  0.4687630025282E+00
 0.2076311450191E+00 -0.3148957801666E+01 -0.1382423525118E+01  0.5045415931057E+00
 0.2550386821743E+00 -0.3184866752088E+01 -0.1377019189367E+01  0.5491868942172E+00
 0.2855145690654E+00 -0.3222722513989E+01 -0.1380487730613E+01  0.6024365657588E+00
 0.2992538424204E+00 -0.3263089729164E+01 -0.1393002863237E+01  0.6638451482664E+00
 0.2959463265914E+00 -0.3306182028935E+01 -0.1414810776513E+01  0.7329118747201E+00
 0.2748050413576E+00 -0.3351925768521E+01 -0.1446246738099E+01  0.8090514663274E+00
 0.2346534446054E+00 -0.3400086401229E+01 -0.1487753485839E+01  0.8915085849443E+00
 0.1740069013581E+00 -0.3450393758053E+01 -0.1539901818741E+01  0.9790525613952E+00
 0.9123872037114E-01 -0.3502587326495E+01 -0.1603333840812E+01  0.1069432579495E+01
-0.1682698375946E+01 -0.2528068965415E+01 -0.1979060645420E+01  0.8129176661388E+00
-0.1386044373574E+01 -0.2616847439025E+01 -0.1881359147150E+01  0.6911031818818E+00
-0.1118237557527E+01 -0.2694650315522E+01 -0.1792057295788E+01  0.6007242144574E+00
-0.8782839433751E+00 -0.2762294534765E+01 -0.1711071880386E+01  0.5345068693900E+00
-0.6650853901466E+00 -0.2820764784976E+01 -0.1638349578152E+01  0.4875365538399E+00
-0.4773801183341E+00 -0.2871216549113E+01 -0.1573840429708E+01  0.4565235111366E+00
-0.3137934561670E+00 -0.2914912137847E+01 -0.1517491625338E+01  0.4392307267656E+00
-0.1729379613192E+00 -0.2953135548853E+01 -0.1469254546054E+01  0.4341050841771E+00
-0.5349903531404E-01 -0.2987135724866E+01 -0.1429098333660E+01  0.4400516688326E+00
 0.4572451151918E-01 -0.3018115661599E+01 -0.1397023836994E+01  0.4563030320236E+00
 0.1258004707215E+00 -0.3047233186672E+01 -0.1373073373014E+01  0.4823172487388E+00
 0.1876197350289E+00 -0.3075564008823E+01 -0.1357333805241E+01  0.5177010228515E+00
 0.2320001402721E+00 -0.3104096694422E+01 -0.1349885377027E+01  0.5622339836593E+00
 0.2596352771289E+00 -0.3133630034466E+01 -0.1350777532523E+01  0.6155791024749E+00
 0.2707943503207E+00 -0.3164584140293E+01 -0.1360081197837E+01  0.6771552542836E+00
 0.2652362336092E+00 -0.3196951466473E+01 -0.1377906155951E+01  0.7463335298145E+00
 0.2422702689203E+00 -0.3230356305888E+01 -0.1404400433813E+01  0.8224344324752E+00
 0.2009168625732E+00 -0.3264211991084E+01 -0.1439748706748E+01  0.9046863395413E+00
 0.1401019325288E+00 -0.3297919794006E+01 -0.1484174391130E+01  0.9919181169921E+00
 0.5914636215110E-01 -0.3331052019487E+01 -0.1537795655047E+01  0.1081981168958E+01
-0.1632179998000E+01 -0.2502525283891E+01 -0.1943311477560E+01  0.8559437495877E+00
-0.1350782570337E+01 -0.2585557895272E+01 -0.1850080014143E+01  0.7287771758246E+00
-0.1094321483725E+01 -0.2659055678103E+01 -0.1764087261585E+01  0.6334377978931E+00
-0.8630164310091E+00 -0.2723113908563E+01 -0.1685481255324E+01  0.5626936433914E+00
-0.6566399203400E+00 -0.2778226933563E+01 -0.1614387417240E+01  0.5116939975271E+00
-0.4745265905836E+00 -0.2825239012223E+01 -0.1550889829385E+01  0.4772054453410E+00
-0.3156969573263E+00 -0.2865220247947E+01 -0.1495031082686E+01  0.4570099909989E+00
-0.1790250183879E+00 -0.2899328517812E+01 -0.1446826158344E+01  0.4495322267643E+00
-0.6337424612394E-01 -0.2928717540731E+01 -0.1406283136255E+01  0.4536228024907E+00
 0.3233391159905E-01 -0.2954509739606E+01 -0.1373422635680E+01  0.4684441056066E+00
 0.1090857707891E+00 -0.2977787477312E+01 -0.1348289798646E+01  0.4933771905454E+00
 0.1677099450671E+00 -0.2999541894307E+01 -0.1330961012767E+01  0.5279502355542E+00
 0.2090390453018E+00 -0.3020688495420E+01 -0.1321475238204E+01  0.5719096731809E+00
 0.2338623245196E+00 -0.3041957051791E+01 -0.1319804518470E+01  0.6248428297678E+00
 0.2425311323547E+00 -0.3063646798297E+01 -0.1325924359630E+01  0.6860070848105E+00
 0.2348586325627E+00 -0.3085550453304E+01 -0.1339825152350E+01  0.7546113491307E+00
 0.2102165563427E+00 -0.3106984606559E+01 -0.1361480980149E+01  0.8298442339626E+00
 0.1677799989128E+00 -0.3126971068618E+01 -0.1390819799234E+01  0.9109049418980E+00
 0.1068507003039E+00 -0.3144538260656E+01 -0.1427713149744E+01  0.9967228517045E+00
 0.2774886275133E-01 -0.3159167375291E+01 -0.1471766697160E+01  0.1085387326157E+01
-0.1579591474963E+01 -0.2476226491083E+01 -0.1906234439206E+01  0.8968235141672E+00
-0.1313685468569E+01 -0.2553398315274E+01 -0.1817529373796E+01  0.7649951896630E+00
-0.1068779176846E+01 -0.2622462743537E+01 -0.1734883698180E+01  0.6650480822997E+00
-0.8463233694564E+00 -0.2682779123793E+01 -0.1658678167620E+01  0.5898918343867E+00
-0.6469710338856E+00 -0.2734350675593E+01 -0.1589221199424E+01  0.5348225974210E+00
-0.4706515843294E+00 -0.2777723835701E+01 -0.1526736443542E+01  0.4967252963431E+00
-0.3167715269720E+00 -0.2813795991885E+01 -0.1471366730131E+01  0.4734377876140E+00
-0.1844540174078E+00 -0.2843614578870E+01 -0.1423192236641E+01  0.4633791706049E+00
-0.7273157194502E-01 -0.2868249492510E+01 -0.1382261096788E+01  0.4653496781764E+00
 0.1935688708378E-01 -0.2888751616412E+01 -0.1348615519364E+01  0.4784395866267E+00
 0.9271748770364E-01 -0.2906135760523E+01 -0.1322306584871E+01  0.5019472677842E+00
 0.1481058977309E+00 -0.2921309813521E+01 -0.1303405837116E+01  0.5353136794285E+00
 0.1863731909097E+00 -0.2935124382060E+01 -0.1291913056564E+01  0.5782648949794E+00
 0.2084365624343E+00 -0.2948257746834E+01 -0.1287715953402E+01  0.6303195084129E+00
 0.2147439820662E+00 -0.2960922484595E+01 -0.1290703892915E+01  0.6905504262732E+00
 0.2051538413933E+00 -0.2972753407098E+01 -0.1300771792582E+01  0.7579676599006E+00
 0.1790435979607E+00 -0.2982790851998E+01 -0.1317761206055E+01  0.8315714909821E+00
 0.1356799660598E+00 -0.2989613227037E+01 -0.1341348629257E+01  0.9104984014086E+00
 0.7466377568993E-01 -0.2991783378365E+01 -0.1371046209780E+01  0.9938262311224E+00
-0.2597662429695E-02 -0.2988701447490E+01 -0.1405910578096E+01  0.1080088065456E+01
-0.1525193281887E+01 -0.2449354168257E+01 -0.1868037296830E+01  0.9355099593055E+00
-0.1274879656645E+01 -0.2520604304766E+01 -0.1783877457339E+01  0.7997201644503E+00
-0.1041637365195E+01 -0.2585145321464E+01 -0.1704587858406E+01  0.6955172172227E+00
-0.8281621159478E+00 -0.2641580320754E+01 -0.1630778941114E+01  0.6160547575807E+00
-0.6359898318209E+00 -0.2689421870564E+01 -0.1562943496157E+01  0.5568674518890E+00
-0.4656402218382E+00 -0.2728948432552E+01 -0.1501456663755E+01  0.5150268872307E+00
-0.3168875369773E+00 -0.2760912679419E+01 -0.1446566098037E+01  0.4884640903568E+00
-0.1890856957383E+00 -0.2786271916721E+01 -0.1398418074309E+01  0.4756078118734E+00
-0.8142138009859E-01 -0.2806022767329E+01 -0.1357098745849E+01  0.4752107474784E+00
 0.6956072213571E-02 -0.2821155788251E+01 -0.1322673863183E+01  0.4862891527774E+00
 0.7687513020144E-01 -0.2832628780315E+01 -0.1295204212268E+01  0.5080522393348E+00
 0.1290008844829E+00 -0.2841267778504E+01 -0.1274765436956E+01  0.5398413591436E+00
 0.1642043260203E+00 -0.2847863924869E+01 -0.1261320008260E+01  0.5813801091729E+00
 0.1835638541539E+00 -0.2853062852342E+01 -0.1254664525966E+01  0.6321327584175E+00
 0.1876752506360E+00 -0.2856995870135E+01 -0.1254580687982E+01  0.6909765699431E+00
 0.1764234347017E+00 -0.2859236948731E+01 -0.1260922348396E+01  0.7566943187289E+00
 0.1491420065100E+00 -0.2858621045026E+01 -0.1273455144873E+01  0.8280205237103E+00
 0.1050360145696E+00 -0.2853302944880E+01 -0.1291685453970E+01  0.9039422345059E+00
 0.4391532683338E-01 -0.2841132483532E+01 -0.1314692060314E+01  0.9837089226806E+00
-0.3163508553363E-01 -0.2821334135710E+01 -0.1340895530584E+01  0.1066597465383E+01
-0.1469243159165E+01 -0.2422082200611E+01 -0.1828922914456E+01  0.9719718794014E+00
-0.1234491792198E+01 -0.2487411844792E+01 -0.1749294704949E+01  0.8329318381607E+00
-0.1012928776677E+01 -0.2547399882841E+01 -0.1673354465729E+01  0.7248171998201E+00
-0.8084879515824E+00 -0.2599824536823E+01 -0.1601906865487E+01  0.6411354244283E+00
-0.6236062603905E+00 -0.2643735486875E+01 -0.1535650617320E+01  0.5777683489362E+00
-0.4593751696117E+00 -0.2679187338848E+01 -0.1475124375235E+01  0.5320498622475E+00
-0.3159186412493E+00 -0.2706840463204E+01 -0.1420696775489E+01  0.5020384680759E+00
-0.1927864466925E+00 -0.2727573126110E+01 -0.1372568995736E+01  0.4861829786287E+00
-0.8930269152303E-01 -0.2742319595611E+01 -0.1330862471577E+01  0.4831909706051E+00
-0.4715958764573E-02 -0.2752021344824E+01 -0.1295666529400E+01  0.4920039516967E+00
 0.6172763687596E-01 -0.2757596131067E+01 -0.1267058189056E+01  0.5117350161547E+00
 0.1105773626711E+00 -0.2759789427300E+01 -0.1245129667217E+01  0.5416072942042E+00
 0.1427167976442E+00 -0.2759340127314E+01 -0.1229812961826E+01  0.5813637767362E+00
 0.1594289825954E+00 -0.2756870180547E+01 -0.1220797359941E+01  0.6304342055842E+00
 0.1614779282594E+00 -0.2752444295977E+01 -0.1217754189739E+01  0.6874927464298E+00
 0.1489364827851E+00 -0.2745517014744E+01 -0.1220392846925E+01  0.7511218609079E+00
 0.1208618124190E+00 -0.2735130850118E+01 -0.1228706444602E+01  0.8197035477549E+00
 0.7631959499092E-01 -0.2718994577189E+01 -0.1242057238483E+01  0.8918875291627E+00
 0.1491860866198E-01 -0.2694088962598E+01 -0.1259210063156E+01  0.9669984791906E+00
-0.5924999741183E-01 -0.2658754271056E+01 -0.1277462002940E+01  0.1045489033729E+01
-0.1411960215523E+01 -0.2394528099231E+01 -0.1789049503396E+01  0.1006199872119E+01
-0.1192664055463E+01 -0.2454073738388E+01 -0.1713966758763E+01  0.8646393722487E+00
-0.9826810169539E+00 -0.2509547207861E+01 -0.1641347261500E+01  0.7529352878314E+00
-0.7872684433659E+00 -0.2557863009612E+01 -0.1572211778912E+01  0.6650819555619E+00
-0.6097148857895E+00 -0.2597576767181E+01 -0.1507427073073E+01  0.5974530097358E+00
-0.4517414628551E+00 -0.2628709761616E+01 -0.1447812071829E+01  0.5477283234952E+00
-0.3137414515270E+00 -0.2651841268145E+01 -0.1393823874711E+01  0.5141095811886E+00
-0.1954319461019E+00 -0.2667786165809E+01 -0.1345712509185E+01  0.4950710275980E+00
-0.9624435568184E-01 -0.2677410588479E+01 -0.1303617820449E+01  0.4892788752293E+00
-0.1552058948524E-01 -0.2681629507585E+01 -0.1267660542408E+01  0.4956028623917E+00
 0.4743134548363E-01 -0.2681339146024E+01 -0.1237936663114E+01  0.5130533040242E+00
 0.9300480468743E-01 -0.2677213857977E+01 -0.1214578251965E+01  0.5407075598812E+00
 0.1220828116697E+00 -0.2669947428976E+01 -0.1197496367097E+01  0.5783524134825E+00
 0.1361902047308E+00 -0.2660152679978E+01 -0.1186262360358E+01  0.6254049179236E+00
 0.1363047846990E+00 -0.2647792767309E+01 -0.1180399348833E+01  0.6803204887212E+00
 0.1226366800772E+00 -0.2632258760479E+01 -0.1179522374797E+01  0.7415254309008E+00
 0.9474928332873E-01 -0.2612324648272E+01 -0.1183260418522E+01  0.8071966534838E+00
 0.4994597900069E-01 -0.2587414834502E+01 -0.1192610359061E+01  0.8752440970702E+00
-0.1187281851344E-01 -0.2552059734092E+01 -0.1205048296668E+01  0.9445732449038E+00
-0.8568523922028E-01 -0.2503112394790E+01 -0.1216734884899E+01  0.1017333460534E+01
-0.1353551999919E+01 -0.2366748712432E+01 -0.1748541330370E+01  0.1038205347708E+01
-0.1149433153034E+01 -0.2420717506924E+01 -0.1677970805924E+01  0.8949243615678E+00
-0.9510650208076E+00 -0.2472156317761E+01 -0.1608914025047E+01  0.7798847020904E+00
-0.7643928403736E+00 -0.2516005711924E+01 -0.1541787315669E+01  0.6878104826824E+00
-0.5942126309653E+00 -0.2551222862981E+01 -0.1478354678405E+01  0.6158342953541E+00
-0.4426250091647E+00 -0.2577770461079E+01 -0.1419585867414E+01  0.5619908094828E+00
-0.3102419245724E+00 -0.2596170426613E+01 -0.1366013801592E+01  0.5246248848108E+00
-0.1968978485527E+00 -0.2607162922706E+01 -0.1317908559149E+01  0.5022405737109E+00
-0.1021404994792E+00 -0.2611572924336E+01 -0.1275445305958E+01  0.4934627301770E+00
-0.2532756543810E-01 -0.2610230269477E+01 -0.1238712179268E+01  0.4971059622789E+00
 0.3412659555184E-01 -0.2604124383515E+01 -0.1207898957279E+01  0.5120765415871E+00
 0.7643228770457E-01 -0.2593842486829E+01 -0.1183182790588E+01  0.5372565421719E+00
 0.1024640411984E+00 -0.2580024944469E+01 -0.1164453621584E+01  0.5725105911742E+00
 0.1140035382174E+00 -0.2563334707390E+01 -0.1151185646591E+01  0.6172625474602E+00
 0.1122575978992E+00 -0.2543582167589E+01 -0.1142722544856E+01  0.6697104807548E+00
 0.9767099757206E-01 -0.2519959283753E+01 -0.1138475491617E+01  0.7281511283331E+00
 0.6976110600206E-01 -0.2491355198478E+01 -0.1138149220577E+01  0.7907139712101E+00
 0.2850005797046E-01 -0.2455766792730E+01 -0.1140815362443E+01  0.8553151335027E+00
-0.3685637986325E-01 -0.2417731783201E+01 -0.1153656433714E+01  0.9181242226875E+00
-0.1115336996314E+00 -0.2357869252811E+01 -0.1160619384704E+01  0.9825386748021E+00
-0.1292589002658E+01 -0.2336822670915E+01 -0.1705823482252E+01  0.1068306977505E+01
-0.1105909266391E+01 -0.2388893784921E+01 -0.1642557429950E+01  0.9241583120961E+00
-0.9178413231299E+00 -0.2435592072876E+01 -0.1576113692125E+01  0.8055876171428E+00
-0.7397710332031E+00 -0.2474572801485E+01 -0.1510741598472E+01  0.7091934201571E+00
-0.5769761243377E+00 -0.2504898737273E+01 -0.1448481181283E+01  0.6328108445510E+00
-0.4319260027087E+00 -0.2526616241442E+01 -0.1390514851224E+01  0.5747650128538E+00
-0.3053181205672E+00 -0.2540080006214E+01 -0.1337337116195E+01  0.5335294532626E+00
-0.1970727689967E+00 -0.2545943217460E+01 -0.1289217510365E+01  0.5076594063109E+00
-0.1068472841366E+00 -0.2545030017922E+01 -0.1246382328806E+01  0.4957410073324E+00
-0.3413073808601E-01 -0.2538183724049E+01 -0.1208987794137E+01  0.4965148341707E+00
 0.2201892150084E-01 -0.2526052374761E+01 -0.1176895720047E+01  0.5088702185847E+00
 0.6100710505810E-01 -0.2509911316252E+01 -0.1150984976342E+01  0.5314089239927E+00
 0.8388650307960E-01 -0.2490000262594E+01 -0.1130873464104E+01  0.5640098744358E+00
 0.9312787787318E-01 -0.2466618261421E+01 -0.1115540477438E+01  0.6062607765185E+00
 0.8947117761382E-01 -0.2440312447347E+01 -0.1104895393972E+01  0.6559863286969E+00
 0.7395618981789E-01 -0.2409402591733E+01 -0.1097659806116E+01  0.7112818666465E+00
 0.4647521899628E-01 -0.2372311234136E+01 -0.1093142924343E+01  0.7703177081811E+00
 0.5622246300341E-02 -0.2328503551742E+01 -0.1091754210788E+01  0.8315968832043E+00
-0.4397456987298E-01 -0.2272425922455E+01 -0.1088708228633E+01  0.8922616312353E+00
-0.1473668253246E+00 -0.2244283810375E+01 -0.1124075795928E+01  0.9435509627536E+00
-0.3274839727537E+01 -0.5731840900150E+01 -0.4233139884276E+01 -0.5307196408232E+00
 0.1665314781369E+00 -0.7645260887803E+00 -0.2810574662895E+00  0.3981204117367E+00
 0.7460935886541E-01 -0.1066295122749E+00 -0.1504947206427E-01  0.1376645615546E+00
 0.1163762549654E+00  0.1322322730164E+00  0.1168460078550E+00 -0.1587863992950E-01
 0.9792198443295E-01  0.2335615056778E+00  0.1557972399569E+00 -0.8399014864604E-01
 0.7465735363943E-01  0.2905694493595E+00  0.1716565969741E+00 -0.1091148494906E+00
 0.5322929955879E-01  0.3306272065113E+00  0.1804125573954E+00 -0.1104323715752E+00
 0.3572421596298E-01  0.3613041869052E+00  0.1866033488748E+00 -0.9781938846473E-01
 0.2062864479481E-01  0.3815753465730E+00  0.1890358754634E+00 -0.7699857766490E-01
 0.9125205420320E-02  0.3915868699955E+00  0.1883346749678E+00 -0.4942833244737E-01
 0.6286286031616E-02  0.3930701034719E+00  0.1876975025906E+00 -0.1699511500876E-01
 0.1983069655549E-02  0.3709596319793E+00  0.1752830693238E+00  0.1812797035851E-01
 0.9056792096808E-02  0.3329401200528E+00  0.1607385483026E+00  0.6484997112403E-01
 0.3942479914021E-01  0.2956435553503E+00  0.1574821262111E+00  0.1163310786804E+00
 0.9266894001759E-01  0.2654330741407E+00  0.1683079462275E+00  0.1605465595767E+00
 0.1587678744687E+00  0.2389816446735E+00  0.1869422735227E+00  0.1950384049907E+00
 0.2275918085842E+00  0.2159811366223E+00  0.2084792837183E+00  0.2194074967600E+00
 0.2923674815220E+00  0.1915259301143E+00  0.2274299028922E+00  0.2337117552965E+00
 0.3537382798383E+00  0.1624938124870E+00  0.2426290827775E+00  0.2373077451693E+00
 0.3933657446675E+00  0.8136135673943E-01  0.2231217370953E+00  0.2403389996752E+00
-0.1320888560176E+01 -0.3882956267009E+01 -0.2445807062574E+01 -0.8812084334438E+00
-0.4261659234339E+00 -0.2225396966761E+01 -0.1246234555231E+01  0.4524420145064E-01
 0.9722453395230E-01 -0.6091527191346E+00 -0.2406062464254E+00  0.1608665142743E+00
 0.1001109072025E+00 -0.1718656022592E+00 -0.3372470659111E-01  0.5597012198821E-01
 0.9149233578891E-01  0.2039073362877E-01  0.5258504249293E-01 -0.2049474783670E-01
 0.6610337738968E-01  0.1177059636425E+00  0.8639039006599E-01 -0.6034935427923E-01
 0.4388431116363E-01  0.1796868705832E+00  0.1050784551545E+00 -0.7504851743850E-01
 0.2479774400634E-01  0.2230876711869E+00  0.1165061448453E+00 -0.7317881655375E-01
 0.8656209842919E-02  0.2538782058890E+00  0.1233911750810E+00 -0.6072603389537E-01
-0.3403670072060E-02  0.2743865949663E+00  0.1273619743772E+00 -0.4015836046273E-01
-0.1254903834267E-01  0.2821626183096E+00  0.1267183822631E+00 -0.1231135570967E-01
-0.1741739794880E-01  0.2795338851511E+00  0.1231947486726E+00  0.2017546506284E-01
-0.1116453993572E-01  0.2662653109679E+00  0.1198973620810E+00  0.6025493057158E-01
 0.1116653348664E-01  0.2427561793515E+00  0.1193436747312E+00  0.1022378608476E+00
 0.5084462991405E-01  0.2160836961316E+00  0.1254563129232E+00  0.1367785601347E+00
 0.1030594497822E+00  0.1900362181095E+00  0.1377549635597E+00  0.1620286894184E+00
 0.1575547171928E+00  0.1646892126637E+00  0.1514546466484E+00  0.1777354235368E+00
 0.2096321012432E+00  0.1383262682325E+00  0.1635404332388E+00  0.1845153615544E+00
 0.2534837591647E+00  0.1020629287302E+00  0.1671069428868E+00  0.1830275636166E+00
 0.2934049108806E+00  0.5861765931088E-01  0.1654506075704E+00  0.1832371821419E+00
-0.8491341351901E+00 -0.3227312133778E+01 -0.1915929741556E+01 -0.1013169280473E+01
-0.2917751480759E+00 -0.2358623398308E+01 -0.1245687313641E+01 -0.2600443776686E+00
-0.3148187583416E-01 -0.1246161394161E+01 -0.6004923353746E+00  0.4103180370641E-01
 0.9438919522503E-01 -0.5320605873384E+00 -0.2057055537715E+00  0.6855670316687E-01
 0.8770766310257E-01 -0.2341782440738E+00 -0.6884117288186E-01  0.1919177668937E-01
 0.6530505522608E-01 -0.8013802434650E-01 -0.6971495468916E-02 -0.2205216368212E-01
 0.4069061392413E-01  0.1084534131207E-01  0.2422189889958E-01 -0.4494688548324E-01
 0.1943500098343E-01  0.7194943036150E-01  0.4295068262318E-01 -0.5207410964013E-01
 0.1316219889955E-02  0.1155375116813E+00  0.5492125369917E-01 -0.4773574447144E-01
-0.1374334611802E-01  0.1466277742020E+00  0.6245568104105E-01 -0.3425408930615E-01
-0.2592125127038E-01  0.1664371860218E+00  0.6604248916566E-01 -0.1276867450403E-01
-0.3368297705396E-01  0.1787433584579E+00  0.6817837908692E-01  0.1399034554953E-01
-0.3101825185322E-01  0.1825108078960E+00  0.7120150115953E-01  0.4686820480858E-01
-0.1541613525543E-01  0.1719638488852E+00  0.7357742521936E-01  0.8037440103827E-01
 0.1292037690602E-01  0.1515539107559E+00  0.7730291500503E-01  0.1060821978721E+00
 0.5125085573320E-01  0.1273060897410E+00  0.8392176416004E-01  0.1224428131984E+00
 0.9197987452537E-01  0.1017732715208E+00  0.9106397841074E-01  0.1296780954344E+00
 0.1295713833699E+00  0.7375873859965E-01  0.9556515708331E-01  0.1289781648772E+00
 0.1615039036880E+00  0.4377147387001E-01  0.9647942720756E-01  0.1213121088430E+00
 0.1802058179382E+00  0.1072604676726E-01  0.8973797618395E-01  0.1107885726606E+00
-0.6637893834724E+00 -0.2853757673836E+01 -0.1653247112742E+01 -0.1079364361812E+01
-0.2393565985380E+00 -0.2358490438034E+01 -0.1220988104092E+01 -0.4745826326169E+00
-0.4287918958725E-01 -0.1570417434357E+01 -0.7582494113307E+00 -0.1158325767526E+00
 0.5922352631818E-01 -0.9123772551363E+00 -0.4009822515275E+00  0.1425752552489E-01
 0.8461530855214E-01 -0.5145509277617E+00 -0.2020697405160E+00  0.2260768890176E-01
 0.6691069339869E-01 -0.3018017864421E+00 -0.1103988134504E+00 -0.2065431304635E-02
 0.4246795155026E-01 -0.1753069905289E+00 -0.6243434816161E-01 -0.2454062875609E-01
 0.1898353773654E-01 -0.9274934145065E-01 -0.3466992765770E-01 -0.3689916728522E-01
-0.1686265007888E-02 -0.3418960461756E-01 -0.1686165868119E-01 -0.3923313031855E-01
-0.1970102095052E-01  0.9297139242848E-02 -0.4889824390206E-02 -0.3273250627339E-01
-0.3513108267774E-01  0.4129447655761E-01  0.2896795116188E-02 -0.1838998958220E-01
-0.4620194325047E-01  0.6700019148179E-01  0.9775176643928E-02  0.1466014156438E-02
-0.4833335238965E-01  0.8446737405878E-01  0.1698299014142E-01  0.2652930201168E-01
-0.3970064541131E-01  0.8525570082923E-01  0.2141087599212E-01  0.5149995684192E-01
-0.2159028629969E-01  0.7175034114785E-01  0.2357522571884E-01  0.6861600926488E-01
 0.3976078372051E-02  0.5080739552318E-01  0.2574823266545E-01  0.7633685143576E-01
 0.3102753246059E-01  0.2624955943218E-01  0.2692023312133E-01  0.7516463070315E-01
 0.5517164234771E-01 -0.5289320822829E-04  0.2590581202985E-01  0.6640570637767E-01
 0.7178803412839E-01 -0.2700141891057E-01  0.2104970909899E-01  0.5012135208358E-01
 0.7064463828249E-01 -0.5630842436993E-01  0.6738020521810E-02  0.2631710528337E-01
-0.5972615585773E+00 -0.2620453853965E+01 -0.1512326240059E+01 -0.1113675384344E+01
-0.2356721110051E+00 -0.2320269918708E+01 -0.1201292750918E+01 -0.6255707314115E+00
-0.5480438895567E-01 -0.1757519040091E+01 -0.8517920094914E+00 -0.2624107168745E+00
 0.3936639174977E-01 -0.1201971552488E+01 -0.5464244241612E+00 -0.7326159429432E-01
 0.7222839823759E-01 -0.7951800434572E+00 -0.3397872723914E+00 -0.1025067502007E-01
 0.6736216556810E-01 -0.5364327246837E+00 -0.2204631622251E+00 -0.5378830339620E-02
 0.4599290693291E-01 -0.3758972253437E+00 -0.1550550292598E+00 -0.1794971970573E-01
 0.2205159501749E-01 -0.2700186742284E+00 -0.1165445269335E+00 -0.3023341621822E-01
-0.6314442586951E-03 -0.1949640393052E+00 -0.9192987704189E-01 -0.3671820215920E-01
-0.2138043834709E-01 -0.1382802554986E+00 -0.7504052591714E-01 -0.3626927589906E-01
-0.3998091041408E-01 -0.9420185362643E-01 -0.6306589893908E-01 -0.2904058337286E-01
-0.5468116457736E-01 -0.5645642775171E-01 -0.5223466826218E-01 -0.1653146295181E-01
-0.6207788760892E-01 -0.2721403044891E-01 -0.4196720138073E-01  0.3414152064038E-03
-0.6066285586033E-01 -0.1637187602416E-01 -0.3620632389388E-01  0.1650859323470E-01
-0.5211016763719E-01 -0.2296387136360E-01 -0.3528479824088E-01  0.2494403262576E-01
-0.3832489916701E-01 -0.3987276452388E-01 -0.3675290184150E-01  0.2403631387598E-01
-0.2402126181546E-01 -0.6220626145344E-01 -0.4052693583359E-01  0.1427461399326E-01
-0.1334195670243E-01 -0.8687543759912E-01 -0.4710217520226E-01 -0.3332812603367E-02
-0.1173281126163E-01 -0.1129480763854E+00 -0.5860001704549E-01 -0.2958647617348E-01
-0.3025722422301E-01 -0.1439000529784E+00 -0.8185392007703E-01 -0.6732410123711E-01
-0.5851951902742E+00 -0.2466545263288E+01 -0.1434318009536E+01 -0.1130903219673E+01
-0.2639543792200E+00 -0.2278676552175E+01 -0.1195036534724E+01 -0.7314694514827E+00
-0.8031201704682E-01 -0.1870704408909E+01 -0.9169777178734E+00 -0.3871751666756E+00
 0.1729320458616E-01 -0.1418743978599E+01 -0.6586818621154E+00 -0.1696013862165E+00
 0.5769337524192E-01 -0.1041836466692E+01 -0.4625472518082E+00 -0.6622908988786E-01
 0.6282153402407E-01 -0.7694016596472E+00 -0.3320926582006E+00 -0.3071591411605E-01
 0.4847704526279E-01 -0.5839293821601E+00 -0.2516625977034E+00 -0.2703954671343E-01
 0.2657744634935E-01 -0.4570487468900E+00 -0.2023215107409E+00 -0.3404215937766E-01
 0.3418817710613E-02 -0.3656733719258E+00 -0.1702596400493E+00 -0.4149511697436E-01
-0.1923764001527E-01 -0.2958614411997E+00 -0.1480965677954E+00 -0.4545439619603E-01
-0.4060786604005E-01 -0.2402672103477E+00 -0.1320112855674E+00 -0.4465775839643E-01
-0.5884174080228E-01 -0.1916817693638E+00 -0.1177460494794E+00 -0.3940894434373E-01
-0.7159412308946E-01 -0.1522161316342E+00 -0.1051908194533E+00 -0.3086180906357E-01
-0.7737115224021E-01 -0.1324209722997E+00 -0.9860229828364E-01 -0.2372778331248E-01
-0.7778185993646E-01 -0.1324218989378E+00 -0.9879576642031E-01 -0.2414996996368E-01
-0.7472383114628E-01 -0.1450402618227E+00 -0.1032891234335E+00 -0.3380155754948E-01
-0.7218673968127E-01 -0.1649779752109E+00 -0.1114674157166E+00 -0.5236951361370E-01
-0.7408168653135E-01 -0.1886654796112E+00 -0.1234911677738E+00 -0.7925022124676E-01
-0.8607421218574E-01 -0.2159526263914E+00 -0.1419526137712E+00 -0.1158870304914E+00
-0.1185234679805E+00 -0.2520988949852E+00 -0.1741925101521E+00 -0.1667504263944E+00
-0.6019289586949E+00 -0.2363533965841E+01 -0.1393767570997E+01 -0.1138087119762E+01
-0.3102983247082E+00 -0.2243241627660E+01 -0.1200163774569E+01 -0.8051051231491E+00
-0.1201982679057E+00 -0.1944487170505E+01 -0.9704021535915E+00 -0.4885805118109E+00
-0.1237507614238E-01 -0.1582432050421E+01 -0.7495593475834E+00 -0.2622215366359E+00
 0.3820258239415E-01 -0.1250931806951E+01 -0.5699827340962E+00 -0.1329527292295E+00
 0.5372314522747E-01 -0.9868115791071E+00 -0.4385515628111E+00 -0.7184468908329E-01
 0.4777288152272E-01 -0.7910987609918E+00 -0.3493631624643E+00 -0.5052067711231E-01
 0.3063951356431E-01 -0.6492897107251E+00 -0.2907655919281E+00 -0.4879585507134E-01
 0.9048826655526E-02 -0.5440922682905E+00 -0.2514704169306E+00 -0.5425339515663E-01
-0.1411003511283E-01 -0.4624053998899E+00 -0.2239622538832E+00 -0.6064203536510E-01
-0.3737930743121E-01 -0.3964085148360E+00 -0.2038802759485E+00 -0.6513771241474E-01
-0.5863705482301E-01 -0.3383341061717E+00 -0.1865764451943E+00 -0.6664763447188E-01
-0.7641806559096E-01 -0.2901287508061E+00 -0.1722770032696E+00 -0.6629380804860E-01
-0.8904364509361E-01 -0.2625242151806E+00 -0.1652368939098E+00 -0.6826961607483E-01
-0.9766743960095E-01 -0.2565081753328E+00 -0.1664625385967E+00 -0.7765688267790E-01
-0.1042125569186E+00 -0.2651015858562E+00 -0.1735776466639E+00 -0.9610788874309E-01
-0.1121606110030E+00 -0.2829885302342E+00 -0.1857200959104E+00 -0.1235070050057E+00
-0.1251959105983E+00 -0.3065850437770E+00 -0.2029370480417E+00 -0.1596187328902E+00
-0.1486915315294E+00 -0.3366061246898E+00 -0.2280898978445E+00 -0.2062139452553E+00
-0.1915344765290E+00 -0.3798646202306E+00 -0.2685575747958E+00 -0.2683594843741E+00
-0.6350825138778E+00 -0.2295236730226E+01 -0.1377250041236E+01 -0.1138903918946E+01
-0.3666205467529E+00 -0.2217029619862E+01 -0.1214315575229E+01 -0.8552513980632E+00
-0.1709111905911E+00 -0.1996953952527E+01 -0.1018896614681E+01 -0.5684920944826E+00
-0.5075875575346E-01 -0.1709626518844E+01 -0.8273810769623E+00 -0.3451855837257E+00
 0.1236491161577E-01 -0.1426783369823E+01 -0.6647766736714E+00 -0.2017797208927E+00
 0.3940970244569E-01 -0.1183812811166E+01 -0.5378694597345E+00 -0.1219578404835E+00
 0.4317811793219E-01 -0.9903494869893E+00 -0.4451705423277E+00 -0.8486004219654E-01
 0.3280076270173E-01 -0.8417749511194E+00 -0.3802178675919E+00 -0.7329023858002E-01
 0.1492145068867E-01 -0.7271582554291E+00 -0.3347512973789E+00 -0.7474047129363E-01
-0.6997360667739E-02 -0.6361327709529E+00 -0.3022711610950E+00 -0.8173270203660E-01
-0.3087570194462E-01 -0.5615433605391E+00 -0.2784369586611E+00 -0.9018702646563E-01
-0.5423169973344E-01 -0.4956537978630E+00 -0.2584461832148E+00 -0.9766397026467E-01
-0.7629888234577E-01 -0.4403273250788E+00 -0.2428143168737E+00 -0.1051033503419E+00
-0.9506450500909E-01 -0.4062058670774E+00 -0.2355970742831E+00 -0.1160361431481E+00
-0.1109280579611E+00 -0.3950144015953E+00 -0.2377929553884E+00 -0.1343063172895E+00
-0.1257800715263E+00 -0.4001778644669E+00 -0.2472002292898E+00 -0.1614129052397E+00
-0.1426930695059E+00 -0.4166024713839E+00 -0.2628689035515E+00 -0.1973738760609E+00
-0.1650905526259E+00 -0.4408749295015E+00 -0.2848037758775E+00 -0.2422067413022E+00
-0.1977770662713E+00 -0.4744316776341E+00 -0.3159381088342E+00 -0.2976929688373E+00
-0.2478612670585E+00 -0.5251422362277E+00 -0.3633116456230E+00 -0.3686767752286E+00
-0.6782437989178E+00 -0.2251663061031E+01 -0.1377056220683E+01 -0.1135331568015E+01
-0.4281570379266E+00 -0.2200538424101E+01 -0.1235486864019E+01 -0.8880119923999E+00
-0.2288338184735E+00 -0.2038301528006E+01 -0.1065553610143E+01 -0.6296844919440E+00
-0.9668386978166E-01 -0.1812149324331E+01 -0.8971515989575E+00 -0.4161316115697E+00
-0.1999119918190E-01 -0.1575901278300E+01 -0.7500694625142E+00 -0.2672781373458E+00
 0.1964807885446E-01 -0.1360285916156E+01 -0.6300997819335E+00 -0.1753943109231E+00
 0.3429125328419E-01 -0.1177992077709E+01 -0.5375393861162E+00 -0.1259180719985E+00
 0.3229078528841E-01 -0.1030328934478E+01 -0.4690779289294E+00 -0.1051614273347E+00
 0.2000432393818E-01 -0.9116439379797E+00 -0.4190706175366E+00 -0.1017724370201E+00
 0.1153173060106E-02 -0.8147916227104E+00 -0.3824100703657E+00 -0.1080490692150E+00
-0.2178107319124E-01 -0.7341076669200E+00 -0.3552677069512E+00 -0.1191992236053E+00
-0.4597049215734E-01 -0.6624824088587E+00 -0.3329728626330E+00 -0.1317078580252E+00
-0.7119729180850E-01 -0.6018834350021E+00 -0.3163479407986E+00 -0.1463055029791E+00
-0.9503649441532E-01 -0.5627411593516E+00 -0.3091554964863E+00 -0.1657726174107E+00
-0.1169129689515E+00 -0.5474347373579E+00 -0.3122434211735E+00 -0.1925804564222E+00
-0.1385975123698E+00 -0.5499443934455E+00 -0.3236146949124E+00 -0.2279286031251E+00
-0.1627900335965E+00 -0.5655089587068E+00 -0.3423005255143E+00 -0.2718648561070E+00
-0.1926471320248E+00 -0.5909150953361E+00 -0.3682742459256E+00 -0.3245232417924E+00
-0.2323089120349E+00 -0.6280396886523E+00 -0.4043638412973E+00 -0.3874311146581E+00
-0.2871548962150E+00 -0.6852265194361E+00 -0.4570192641968E+00 -0.4646340229702E+00
-0.7278650128906E+00 -0.2226221078078E+01 -0.1388420459234E+01 -0.1128442621296E+01
-0.4921682705172E+00 -0.2193294991960E+01 -0.1262167730163E+01 -0.9076853172626E+00
-0.2910554337150E+00 -0.2074427092481E+01 -0.1111776784492E+01 -0.6749619811232E+00
-0.1483157296278E+00 -0.1898232688784E+01 -0.9618777542138E+00 -0.4745505549618E+00
-0.5812619718713E-01 -0.1704434118505E+01 -0.8284033462740E+00 -0.3262941862259E+00
-0.5326966746837E-02 -0.1518351588177E+01 -0.7161289189976E+00 -0.2279637729985E+00
 0.2107368268423E-01 -0.1352833182231E+01 -0.6259269631993E+00 -0.1698703633615E+00
 0.2872974403719E-01 -0.1212266200163E+01 -0.5562621329685E+00 -0.1416063728675E+00
 0.2363473735915E-01 -0.1094739605237E+01 -0.5034192866257E+00 -0.1335208963856E+00
 0.9567621377913E-02 -0.9960235151071E+00 -0.4636342688768E+00 -0.1383803655615E+00
-0.1077696092093E-01 -0.9122310156436E+00 -0.4338137478850E+00 -0.1512118888312E+00
-0.3431945410652E-01 -0.8373144248815E+00 -0.4096679220853E+00 -0.1678077842906E+00
-0.6127676651013E-01 -0.7735311883860E+00 -0.3923597378060E+00 -0.1887518046986E+00
-0.8881083754799E-01 -0.7310561110051E+00 -0.3853374648426E+00 -0.2160594218761E+00
-0.1152450125238E+00 -0.7128469943484E+00 -0.3892032422428E+00 -0.2507719536777E+00
-0.1421450684870E+00 -0.7135319090109E+00 -0.4021681784040E+00 -0.2936640416647E+00
-0.1718610188206E+00 -0.7287121052759E+00 -0.4232693672518E+00 -0.3447087048819E+00
-0.2073129859883E+00 -0.7553228465842E+00 -0.4524388401615E+00 -0.4040375979454E+00
-0.2520253257661E+00 -0.7953618445623E+00 -0.4922719688058E+00 -0.4727426345692E+00
-0.3099245006978E+00 -0.8570846320215E+00 -0.5484942909869E+00 -0.5537192918152E+00
-0.7818843192730E+00 -0.2214354071394E+01 -0.1408232040042E+01 -0.1118804920619E+01
-0.5571052271021E+00 -0.2194444359232E+01 -0.1293228302297E+01 -0.9173286609318E+00
-0.3554644168641E+00 -0.2108795423490E+01 -0.1158202122029E+01 -0.7068490037236E+00
-0.2038187714898E+00 -0.1973544698079E+01 -0.1023360828102E+01 -0.5208646010676E+00
-0.1008935876589E+00 -0.1817507753415E+01 -0.9016486280178E+00 -0.3771713279941E+00
-0.3489851970175E-01 -0.1660844213692E+01 -0.7969990826735E+00 -0.2767784517383E+00
 0.3778559985265E-02 -0.1515203508574E+01 -0.7103697240352E+00 -0.2135663285124E+00
 0.2203881755439E-01 -0.1386219332085E+01 -0.6411648402033E+00 -0.1798825498464E+00
 0.2543608843137E-01 -0.1274355430614E+01 -0.5869920893368E+00 -0.1678732071161E+00
 0.1767545521573E-01 -0.1177661240244E+01 -0.5451933175803E+00 -0.1711491945255E+00
 0.1519188712250E-02 -0.1093934463995E+01 -0.5134351780806E+00 -0.1849560001374E+00
-0.1981176580823E-01 -0.1018389246139E+01 -0.4879544743776E+00 -0.2047750982947E+00
-0.4688072190204E-01 -0.9536786376757E+00 -0.4702628978088E+00 -0.2311416871661E+00
-0.7650274369134E-01 -0.9096885433188E+00 -0.4635099037191E+00 -0.2653566357418E+00
-0.1058750119640E+00 -0.8898583901936E+00 -0.4679946978271E+00 -0.3070707708248E+00
-0.1362956211963E+00 -0.8895046718881E+00 -0.4821261365268E+00 -0.3565559151493E+00
-0.1697930096690E+00 -0.9045797796990E+00 -0.5049552097223E+00 -0.4136335003432E+00
-0.2091144173079E+00 -0.9320978768452E+00 -0.5363697768915E+00 -0.4783565539015E+00
-0.2573182929900E+00 -0.9738806450053E+00 -0.5786634993901E+00 -0.5512943914204E+00
-0.3172878588717E+00 -0.1037607145062E+01 -0.6368006502335E+00 -0.6340225584231E+00
-0.8390412467491E+00 -0.2212791827558E+01 -0.1434361541286E+01 -0.1106697664944E+01
-0.6221212033953E+00 -0.2203002008062E+01 -0.1327807906017E+01 -0.9191297312624E+00
-0.4206140833153E+00 -0.2143418659116E+01 -0.1205095385886E+01 -0.7275068089784E+00
-0.2616217172400E+00 -0.2041969964134E+01 -0.1082688087500E+01 -0.5559306326244E+00
-0.1470557441105E+00 -0.1919151120981E+01 -0.9711172241301E+00 -0.4192029351893E+00
-0.6824525287420E-01 -0.1790582685092E+01 -0.8736491286280E+00 -0.3199670388258E+00
-0.1713065314408E-01 -0.1666184891259E+01 -0.7911583038629E+00 -0.2545865982468E+00
 0.1235306859861E-01 -0.1551757901958E+01 -0.7235202698436E+00 -0.2175716277891E+00
 0.2524584084430E-01 -0.1449105298678E+01 -0.6692139434846E+00 -0.2027167144811E+00
 0.2507733134014E-01 -0.1357885786320E+01 -0.6264199722517E+00 -0.2046131392311E+00
 0.1457099903653E-01 -0.1277289820986E+01 -0.5934778448111E+00 -0.2189666603449E+00
-0.3013720790977E-02 -0.1203799058185E+01 -0.5672020046800E+00 -0.2412618858064E+00
-0.2850713619468E-01 -0.1140459816429E+01 -0.5494144663396E+00 -0.2720723172468E+00
-0.5848969660957E-01 -0.1096802835922E+01 -0.5429874889125E+00 -0.3120761637907E+00
-0.8910620785035E-01 -0.1076613832142E+01 -0.5478884174066E+00 -0.3596680858081E+00
-0.1213516201303E+00 -0.1075896126793E+01 -0.5627064396269E+00 -0.4145998724058E+00
-0.1569682221351E+00 -0.1090934915098E+01 -0.5865144730119E+00 -0.4765088631784E+00
-0.1986113583568E+00 -0.1118776699729E+01 -0.6191723857300E+00 -0.5453491739895E+00
-0.2490878393918E+00 -0.1160826784102E+01 -0.6626598713614E+00 -0.6211761637035E+00
-0.3107345679832E+00 -0.1223783998177E+01 -0.7212237242659E+00 -0.7042099924455E+00
-0.8985184738162E+00 -0.2219113539362E+01 -0.1465287042477E+01 -0.1092232715033E+01
-0.6867776621443E+00 -0.2217961640984E+01 -0.1365227469008E+01 -0.9146572558072E+00
-0.4855612516299E+00 -0.2179404187352E+01 -0.1252533753145E+01 -0.7387365913422E+00
-0.3204858395370E+00 -0.2106142639767E+01 -0.1140515382380E+01 -0.5807728804359E+00
-0.1954617725201E+00 -0.2012423192451E+01 -0.1037705930904E+01 -0.4522691515294E+00
-0.1044869578531E+00 -0.1910051898270E+01 -0.9468332599761E+00 -0.3564064899244E+00
-0.4107590508585E-01 -0.1807120389820E+01 -0.8686522564025E+00 -0.2911712021084E+00
-0.5304525226535E-04 -0.1709011245266E+01 -0.8032602145064E+00 -0.2526804885683E+00
 0.2304831160720E-01 -0.1618155397696E+01 -0.7497003285602E+00 -0.2361188379801E+00
 0.3150166787709E-01 -0.1535245949187E+01 -0.7067598104232E+00 -0.2370384044315E+00
 0.2791229485778E-01 -0.1460512825493E+01 -0.6733222476910E+00 -0.2517125504161E+00
 0.1549055027280E-01 -0.1391586375296E+01 -0.6467650361205E+00 -0.2758511574748E+00
-0.6784665704730E-02 -0.1331811708150E+01 -0.6291402941161E+00 -0.3101158471976E+00
-0.3539540619820E-01 -0.1290249812011E+01 -0.6230532509781E+00 -0.3546716962573E+00
-0.6558970063651E-01 -0.1270855761018E+01 -0.6281293653846E+00 -0.4068673696799E+00
-0.9804392113768E-01 -0.1270288999338E+01 -0.6431164709925E+00 -0.4659748005084E+00
-0.1342421965284E+00 -0.1285166721993E+01 -0.6671221900129E+00 -0.5314616416903E+00
-0.1768232556800E+00 -0.1312572987497E+01 -0.7000162325179E+00 -0.6032234497096E+00
-0.2285888898915E+00 -0.1353328746004E+01 -0.7435012869853E+00 -0.6809093731584E+00
-0.2919191752358E+00 -0.1412816713963E+01 -0.8012258658914E+00 -0.7634532313292E+00
-0.9597453209021E+00 -0.2231478199669E+01 -0.1499875050864E+01 -0.1075425255553E+01
-0.7508662113191E+00 -0.2238341728839E+01 -0.1404927728311E+01 -0.9050335819939E+00
-0.5497244276559E+00 -0.2217273535476E+01 -0.1300489039373E+01 -0.7420136743283E+00
-0.3794912554175E+00 -0.2167806285205E+01 -0.1197229841056E+01 -0.5964391811076E+00
-0.2451300983010E+00 -0.2099578767692E+01 -0.1102013164222E+01 -0.4766011094383E+00
-0.1427846364687E+00 -0.2021294666298E+01 -0.1017117269720E+01 -0.3855070077253E+00
-0.6744605600093E-01 -0.1939331560051E+01 -0.9431854771523E+00 -0.3221078041185E+00
-0.1483193353636E-01 -0.1858379953934E+01 -0.8804095848780E+00 -0.2836508646679E+00
 0.1891859646022E-01 -0.1781041834171E+01 -0.8281979196236E+00 -0.2664211323522E+00
 0.3676280570640E-01 -0.1708602408138E+01 -0.7857646111501E+00 -0.2668246205924E+00
 0.4112875310256E-01 -0.1641994543834E+01 -0.7524069197353E+00 -0.2817127539929E+00
 0.3510536730890E-01 -0.1579817231206E+01 -0.7260145741903E+00 -0.3071545239383E+00
 0.1755189489227E-01 -0.1525561346268E+01 -0.7087644403488E+00 -0.3439072069606E+00
-0.8058307139654E-02 -0.1487659723640E+01 -0.7029874726832E+00 -0.3917338441765E+00
-0.3629414670236E-01 -0.1470028182313E+01 -0.7079714928413E+00 -0.4471942190980E+00
-0.6750026566184E-01 -0.1469929573197E+01 -0.7225920224307E+00 -0.5091583202212E+00
-0.1029024207755E+00 -0.1484350544503E+01 -0.7460088917887E+00 -0.5769720041876E+00
-0.1451533390049E+00 -0.1510487870602E+01 -0.7781513665416E+00 -0.6505682333021E+00
-0.1972972092540E+00 -0.1548506700966E+01 -0.8205278357224E+00 -0.7294098987895E+00
-0.2624825352592E+00 -0.1602172932254E+01 -0.8763880675082E+00 -0.8113289251083E+00
-0.1022286135249E+01 -0.2248450526710E+01 -0.1537246227222E+01 -0.1056236355660E+01
-0.8142996716165E+00 -0.2263204022020E+01 -0.1446426732340E+01 -0.8910560454238E+00
-0.6127721041527E+00 -0.2257156401876E+01 -0.1348866394412E+01 -0.7385298001555E+00
-0.4379919718951E+00 -0.2228057510786E+01 -0.1253043253682E+01 -0.6039244195173E+00
-0.2952755440187E+00 -0.2182222125349E+01 -0.1164423901649E+01 -0.4926280671041E+00
-0.1823991717398E+00 -0.2125901521984E+01 -0.1084901323299E+01 -0.4070499039501E+00
-0.9565727131091E-01 -0.2063970869923E+01 -0.1015025223805E+01 -0.3466192845009E+00
-0.3161620912934E-01 -0.2000339681742E+01 -0.9550192662873E+00 -0.3093249098592E+00
 0.1297724242123E-01 -0.1937510380388E+01 -0.9045305725503E+00 -0.2922749398080E+00
 0.4072663297819E-01 -0.1877044301069E+01 -0.8630693018134E+00 -0.2925822459128E+00
 0.5384137520488E-01 -0.1820292977278E+01 -0.8302322508688E+00 -0.3076263418385E+00
 0.5522941188250E-01 -0.1766628106431E+01 -0.8043573843977E+00 -0.3338978791834E+00
 0.4369399483937E-01 -0.1719508711666E+01 -0.7876329149106E+00 -0.3722238470308E+00
 0.2251733538848E-01 -0.1686558810367E+01 -0.7820994912563E+00 -0.4220744818701E+00
-0.2443749806925E-02 -0.1671416083689E+01 -0.7867141197477E+00 -0.4794944389469E+00
-0.3119227747325E-01 -0.1671883382245E+01 -0.8004455580373E+00 -0.5430354407410E+00
-0.6461778086684E-01 -0.1685373563643E+01 -0.8224959298336E+00 -0.6119660449783E+00
-0.1053413632740E+00 -0.1709389282246E+01 -0.8529234012311E+00 -0.6863855107597E+00
-0.1568141388461E+00 -0.1743493651191E+01 -0.8931446590522E+00 -0.7659235059942E+00
-0.2238918247876E+00 -0.1789579485150E+01 -0.9463315132706E+00 -0.8476939959236E+00
-0.1085774995278E+01 -0.2268883438019E+01 -0.1576689459651E+01 -0.1034599508779E+01
-0.8770451612394E+00 -0.2291658420580E+01 -0.1489290679678E+01 -0.8732837447744E+00
-0.6745382719849E+00 -0.2298913509691E+01 -0.1397522333843E+01 -0.7292343116499E+00
-0.4955628923953E+00 -0.2287514572090E+01 -0.1308046404990E+01 -0.6041307866229E+00
-0.3453053035150E+00 -0.2261435804509E+01 -0.1225168317664E+01 -0.5008776473698E+00
-0.2227191462858E+00 -0.2225043168670E+01 -0.1150448285111E+01 -0.4210684203464E+00
-0.1251919742510E+00 -0.2181955306341E+01 -0.1084359219128E+01 -0.3642653189186E+00
-0.5005767083598E-01 -0.2135319081032E+01 -0.1027127070773E+01 -0.3288938635213E+00
 0.5355800002175E-02 -0.2087394837891E+01 -0.9785583453258E+00 -0.3126418422555E+00
 0.4328441314910E-01 -0.2039807486429E+01 -0.9383658420613E+00 -0.3131725807033E+00
 0.6569408803286E-01 -0.1994105707495E+01 -0.9063534588484E+00 -0.3283120885411E+00
 0.7526479182892E-01 -0.1950249089837E+01 -0.8812426178284E+00 -0.3549843440154E+00
 0.7079715594322E-01 -0.1911496603801E+01 -0.8651287382988E+00 -0.3940416955220E+00
 0.5524411400894E-01 -0.1884480702584E+01 -0.8597411944496E+00 -0.4447779018209E+00
 0.3457050691622E-01 -0.1872332027586E+01 -0.8637479125240E+00 -0.5030010423093E+00
 0.9169179686979E-02 -0.1873230191434E+01 -0.8761086732990E+00 -0.5669942034634E+00
-0.2140790690755E-01 -0.1885127493647E+01 -0.8960716359877E+00 -0.6359291813680E+00
-0.5944399445261E-01 -0.1906049339781E+01 -0.9237818647466E+00 -0.7101542218540E+00
-0.1088531999330E+00 -0.1935380377785E+01 -0.9607897790907E+00 -0.7899641842486E+00
-0.1772703246899E+00 -0.1972910799530E+01 -0.1010585125820E+01 -0.8725360388920E+00
-0.1149876853024E+01 -0.2291834739098E+01 -0.1617604444194E+01 -0.1010437840387E+01
-0.9390829508336E+00 -0.2322859586152E+01 -0.1533112988495E+01 -0.8521000152096E+00
-0.7349607226344E+00 -0.2342218352818E+01 -0.1446274161794E+01 -0.7148703334715E+00
-0.5519482302236E+00 -0.2346437979422E+01 -0.1362241515078E+01 -0.5978479896426E+00
-0.3947990187585E+00 -0.2337887163443E+01 -0.1284362502377E+01 -0.5019098596273E+00
-0.2632673179991E+00 -0.2319520055782E+01 -0.1213910062598E+01 -0.4277609988041E+00
-0.1556192383538E+00 -0.2293946741393E+01 -0.1151296007561E+01 -0.3748613992339E+00
-0.6985287256847E-01 -0.2263631373623E+01 -0.1096737592928E+01 -0.3418436999113E+00
-0.3826574730775E-02 -0.2230533300937E+01 -0.1050149138900E+01 -0.3267747450400E+00
 0.4433367982916E-01 -0.2196209343948E+01 -0.1011381559571E+01 -0.3277213942796E+00
 0.7634491529947E-01 -0.2162238917070E+01 -0.9803701783456E+00 -0.3428628414854E+00
 0.9462309544779E-01 -0.2129010896086E+01 -0.9561622638748E+00 -0.3695338981384E+00
 0.9802056982593E-01 -0.2099449948033E+01 -0.9406718053716E+00 -0.4085606087578E+00
 0.8903361060045E-01 -0.2079060767477E+01 -0.9353127613597E+00 -0.4591987175214E+00
 0.7339884423510E-01 -0.2070243008813E+01 -0.9385167549710E+00 -0.5173182249676E+00
 0.5172242526302E-01 -0.2071441164742E+01 -0.9492678051473E+00 -0.5809784835386E+00
 0.2450455171672E-01 -0.2080739793553E+01 -0.9664305612116E+00 -0.6490480243538E+00
-0.9981658425964E-02 -0.2097355869760E+01 -0.9904486357353E+00 -0.7220057018647E+00
-0.5525527422824E-01 -0.2120942117985E+01 -0.1022812771746E+01 -0.8013195059022E+00
-0.1232239231063E+00 -0.2149935550855E+01 -0.1068384950052E+01 -0.8857853552804E+00
-0.1214261710724E+01 -0.2316501073769E+01 -0.1659458504502E+01 -0.9836753099794E+00
-0.1000384709209E+01 -0.2356001096152E+01 -0.1577501324518E+01 -0.8277565951042E+00
-0.7940334063229E+00 -0.2386610332620E+01 -0.1494902553511E+01 -0.6960038718530E+00
-0.6070176956929E+00 -0.2404825427393E+01 -0.1415566264260E+01 -0.5857433558029E+00
-0.4434792020157E+00 -0.2411917756315E+01 -0.1342036567011E+01 -0.4962730524215E+00
-0.3036930603971E+00 -0.2409819435053E+01 -0.1275350869627E+01 -0.4274288056450E+00
-0.1866019279613E+00 -0.2400360220671E+01 -0.1215872206773E+01 -0.3784153190962E+00
-0.9075380204104E-01 -0.2385437220385E+01 -0.1163809777589E+01 -0.3479041019251E+00
-0.1447928045993E-01 -0.2366718565345E+01 -0.1119162984690E+01 -0.3341887773295E+00
 0.4376875671253E-01 -0.2345601565138E+01 -0.1081861417216E+01 -0.3356146016098E+00
 0.8545874733710E-01 -0.2323586334722E+01 -0.1051919963403E+01 -0.3506213606767E+00
 0.1127237718947E+00 -0.2301345711779E+01 -0.1028652309137E+01 -0.3769091687341E+00
 0.1245370765517E+00 -0.2281387678823E+01 -0.1013719780497E+01 -0.4152122411364E+00
 0.1228708436317E+00 -0.2268040080685E+01 -0.1008229538858E+01 -0.4649105969217E+00
 0.1128488859240E+00 -0.2262871627414E+01 -0.1010510685937E+01 -0.5222811800709E+00
 0.9512459377227E-01 -0.2264345787592E+01 -0.1019533958510E+01 -0.5852976010263E+00
 0.7036139909634E-01 -0.2270826067721E+01 -0.1034218391631E+01 -0.6523624766009E+00
 0.4034459343237E-01 -0.2280304780561E+01 -0.1052781285280E+01 -0.7231076541462E+00
 0.1398689399986E-02 -0.2296721312515E+01 -0.1078801630128E+01 -0.8003094417002E+00
-0.6125703916384E-01 -0.2317253814721E+01 -0.1117900098491E+01 -0.8871444970030E+00
-0.1278604012931E+01 -0.2342179934728E+01 -0.1701768451083E+01 -0.9542462691554E+00
-0.1060885871392E+01 -0.2390283838268E+01 -0.1622049759426E+01 -0.8004029100014E+00
-0.8517857632776E+00 -0.2431549498531E+01 -0.1543167569136E+01 -0.6730427193521E+00
-0.6607166828341E+00 -0.2462480271802E+01 -0.1467902564956E+01 -0.5683558451080E+00
-0.4911852559268E+00 -0.2483635963723E+01 -0.1398165969689E+01 -0.4844742376961E+00
-0.3437516160538E+00 -0.2496173868377E+01 -0.1334764974297E+01 -0.4204338937047E+00
-0.2178902820127E+00 -0.2501384432352E+01 -0.1278059112510E+01 -0.3750801733999E+00
-0.1125805446386E+00 -0.2500739085067E+01 -0.1228260222847E+01 -0.3470061065804E+00
-0.2652890423232E-01 -0.2495643965713E+01 -0.1185421245868E+01 -0.3346250869998E+00
 0.4146525013619E-01 -0.2487360972094E+01 -0.1149570986404E+01 -0.3364778275975E+00
 0.9271166959900E-01 -0.2477122692063E+01 -0.1120673177716E+01 -0.3511837198501E+00
 0.1289945410684E+00 -0.2465795076476E+01 -0.1098296248856E+01 -0.3767390759198E+00
 0.1494999292588E+00 -0.2455438121882E+01 -0.1083790947784E+01 -0.4136881919190E+00
 0.1557656460610E+00 -0.2449216518220E+01 -0.1077921907181E+01 -0.4616764781529E+00
 0.1519802496348E+00 -0.2447971331975E+01 -0.1079115805963E+01 -0.5177679464360E+00
 0.1384498129468E+00 -0.2450237315507E+01 -0.1086540123447E+01 -0.5801231056567E+00
 0.1159419713742E+00 -0.2453998659694E+01 -0.1098886640723E+01 -0.6469454362100E+00
 0.8480672593426E-01 -0.2458304090414E+01 -0.1115543758476E+01 -0.7166285229803E+00
 0.5942234424210E-01 -0.2456103358752E+01 -0.1126440073963E+01 -0.7889242569800E+00
 0.1033385502134E-01 -0.2468944584842E+01 -0.1155547040085E+01 -0.8756822017091E+00
-0.1342512754238E+01 -0.2368153280370E+01 -0.1744013031842E+01 -0.9220920610291E+00
-0.1120564200238E+01 -0.2424994189397E+01 -0.1666412438902E+01 -0.7701042365358E+00
-0.9081654682483E+00 -0.2476333892599E+01 -0.1590714695563E+01 -0.6462446044894E+00
-0.7130828742689E+00 -0.2519156591644E+01 -0.1519152545126E+01 -0.5460768523044E+00
-0.5378319024730E+00 -0.2553015348775E+01 -0.1452698204402E+01 -0.4669689017855E+00
-0.3832698798511E+00 -0.2578611292074E+01 -0.1392084147274E+01 -0.4071810867695E+00
-0.2493055321633E+00 -0.2597000731623E+01 -0.1337763940587E+01 -0.3651221261006E+00
-0.1352187673373E+00 -0.2609385617420E+01 -0.1289964057564E+01 -0.3392477099970E+00
-0.3997820332000E-01 -0.2616927064537E+01 -0.1248745472726E+01 -0.3280268924551E+00
 0.3740807277280E-01 -0.2620708342232E+01 -0.1214151123566E+01 -0.3301228823622E+00
 0.9773178565780E-01 -0.2622053623631E+01 -0.1186431260838E+01 -0.3443646606901E+00
 0.1428394395425E+00 -0.2621128873138E+01 -0.1164796030836E+01 -0.3689719056446E+00
 0.1721426221562E+00 -0.2619718943922E+01 -0.1150360868312E+01 -0.4040072084129E+00
 0.1865651081289E+00 -0.2620535754996E+01 -0.1143966201126E+01 -0.4495408405631E+00
 0.1897220873542E+00 -0.2623201204626E+01 -0.1143735182217E+01 -0.5037600980873E+00
 0.1813009218637E+00 -0.2626739464043E+01 -0.1149356111909E+01 -0.5652343605223E+00
 0.1610897897834E+00 -0.2629540009384E+01 -0.1160171600270E+01 -0.6324101458455E+00
 0.1299057878065E+00 -0.2628917247529E+01 -0.1174535383091E+01 -0.7037895739262E+00
 0.8876288220253E-01 -0.2626724902205E+01 -0.1192842146376E+01 -0.7764571347776E+00
 0.1157524282273E+00 -0.2567423281873E+01 -0.1152285298291E+01 -0.8540631976737E+00
-0.1233346090005E+01 -0.2312105373138E+01 -0.1666362183451E+01  0.1093862833196E+01
-0.1051061594276E+01 -0.2354116995101E+01 -0.1600433932948E+01  0.9490245877280E+00
-0.8693474216475E+00 -0.2393408256646E+01 -0.1533495164908E+01  0.8285424083570E+00
-0.6985077888321E+00 -0.2425060198825E+01 -0.1468076950475E+01  0.7292673345654E+00
-0.5432344048710E+00 -0.2447657747194E+01 -0.1405719307905E+01  0.6495123963828E+00
-0.4057050890320E+00 -0.2461217636475E+01 -0.1347453677570E+01  0.5881261761489E+00
-0.2867364378081E+00 -0.2466328390698E+01 -0.1293940466116E+01  0.5438310029587E+00
-0.1862629771294E+00 -0.2463817140971E+01 -0.1245537652348E+01  0.5152255168118E+00
-0.1037291310778E+00 -0.2454536320552E+01 -0.1202384759216E+01  0.5008134771543E+00
-0.3844557729668E-01 -0.2439291548551E+01 -0.1164536446195E+01  0.4991898775728E+00
 0.1020743413131E-01 -0.2419118436286E+01 -0.1132188168141E+01  0.5090556643623E+00
 0.4392745219999E-01 -0.2393966330203E+01 -0.1104518269860E+01  0.5284915241305E+00
 0.6237914793715E-01 -0.2365241607916E+01 -0.1082345353445E+01  0.5572695744019E+00
 0.6643946497109E-01 -0.2335311566283E+01 -0.1066369884912E+01  0.5952610983972E+00
 0.5959140836925E-01 -0.2303553007816E+01 -0.1054661949065E+01  0.6404511009738E+00
 0.4188374302254E-01 -0.2268619437390E+01 -0.1046565773698E+01  0.6910535563812E+00
 0.1355869311605E-01 -0.2228500252062E+01 -0.1041022530064E+01  0.7450427699432E+00
-0.2395346504663E-01 -0.2180021805126E+01 -0.1035868374354E+01  0.8004552832227E+00
-0.6963983805066E-01 -0.2125185539307E+01 -0.1031567924742E+01  0.8540883539853E+00
-0.4441193657595E-01 -0.2006085330316E+01 -0.9637337129949E+00  0.9086353268673E+00
-0.1170880145853E+01 -0.2288114002407E+01 -0.1625727245559E+01  0.1118250673677E+01
-0.9929405361734E+00 -0.2322412257674E+01 -0.1558215809156E+01  0.9726207737653E+00
-0.8138954703499E+00 -0.2351932971765E+01 -0.1487939364020E+01  0.8489244228385E+00
-0.6465705281138E+00 -0.2371781361227E+01 -0.1418625384392E+01  0.7447712944490E+00
-0.4965900390421E+00 -0.2381405573966E+01 -0.1352657934683E+01  0.6594379157562E+00
-0.3658989995163E+00 -0.2381386436532E+01 -0.1291224151667E+01  0.5926543564882E+00
-0.2548434543285E+00 -0.2372644033221E+01 -0.1234919116016E+01  0.5436349141484E+00
-0.1630048076019E+00 -0.2356364724136E+01 -0.1184103676914E+01  0.5111575762993E+00
-0.8949915008064E-01 -0.2333712617909E+01 -0.1138909528066E+01  0.4937039822909E+00
-0.3336062640320E-01 -0.2305740714583E+01 -0.1099377627475E+01  0.4897611647878E+00
 0.6589905327626E-02 -0.2273473179165E+01 -0.1065435136001E+01  0.4978412444418E+00
 0.3211002944085E-01 -0.2237537764901E+01 -0.1036551033037E+01  0.5158191136700E+00
 0.4264254691071E-01 -0.2199785031599E+01 -0.1013856965232E+01  0.5439898180200E+00
 0.3960881357215E-01 -0.2162979769110E+01 -0.9979843465715E+00  0.5820753614564E+00
 0.2699004348343E-01 -0.2127553342608E+01 -0.9872647480847E+00  0.6271498259353E+00
 0.5386956439370E-02 -0.2091736514097E+01 -0.9805842896119E+00  0.6770351136275E+00
-0.2399589765979E-01 -0.2053063683513E+01 -0.9762180006752E+00  0.7294986527949E+00
-0.6048999012624E-01 -0.2010118532146E+01 -0.9731860029997E+00  0.7825148896496E+00
-0.8903078233124E-01 -0.1954864130006E+01 -0.9606306063618E+00  0.8354078739767E+00
-0.1393508353307E+00 -0.1908129859829E+01 -0.9623159242842E+00  0.8995434085417E+00
-0.1109008151584E+01 -0.2265602373813E+01 -0.1586066942914E+01  0.1140060043654E+01
-0.9342797074223E+00 -0.2292091431073E+01 -0.1516394431247E+01  0.9934230532239E+00
-0.7572280476260E+00 -0.2311604712494E+01 -0.1442351393598E+01  0.8654717521403E+00
-0.5931483023117E+00 -0.2318934180272E+01 -0.1368678763343E+01  0.7552392347489E+00
-0.4485160627730E+00 -0.2314357667587E+01 -0.1298550649976E+01  0.6633753982640E+00
-0.3249784127519E+00 -0.2299314697702E+01 -0.1233417758785E+01  0.5905452317173E+00
-0.2223085205845E+00 -0.2275388178401E+01 -0.1173917445546E+01  0.5363880251688E+00
-0.1395885350669E+00 -0.2244294347795E+01 -0.1120424952103E+01  0.4998018312940E+00
-0.7549044177681E-01 -0.2207554837926E+01 -0.1073031278739E+01  0.4791801731419E+00
-0.2863285160181E-01 -0.2166441501568E+01 -0.1031684943373E+01  0.4728294628237E+00
 0.2399308586446E-02 -0.2122297340342E+01 -0.9963520723980E+00  0.4790993160142E+00
 0.1973107982167E-01 -0.2075643986108E+01 -0.9662790635038E+00  0.4955978064198E+00
 0.2267507690970E-01 -0.2028770666030E+01 -0.9428649244953E+00  0.5228307827855E+00
 0.1300715347227E-01 -0.1985480893549E+01 -0.9270626554847E+00  0.5604632869960E+00
-0.4531732289614E-02 -0.1946819159383E+01 -0.9171349167600E+00  0.6049800197655E+00
-0.2901047502754E-01 -0.1910885415675E+01 -0.9117510663176E+00  0.6540266993813E+00
-0.5941691839600E-01 -0.1875549451572E+01 -0.9094341915781E+00  0.7055648457172E+00
-0.9351392133924E-01 -0.1838047953106E+01 -0.9078340786868E+00  0.7587700669917E+00
-0.1346108377262E+00 -0.1801364191704E+01 -0.9099082615246E+00  0.8160025794726E+00
-0.1970303155756E+00 -0.1761174335423E+01 -0.9203561836350E+00  0.8798701343660E+00
-0.1047823616096E+01 -0.2244963781420E+01 -0.1547610072907E+01  0.1159353193886E+01
-0.8752221882204E+00 -0.2264073281792E+01 -0.1475468867163E+01  0.1011323270288E+01
-0.6992880143521E+00 -0.2273098813624E+01 -0.1397021805605E+01  0.8779056990133E+00
-0.5381762084653E+00 -0.2266758202098E+01 -0.1318319169621E+01  0.7602492427407E+00
-0.3990773984313E+00 -0.2246470056208E+01 -0.1243407300527E+01  0.6608551687441E+00
-0.2831271757553E+00 -0.2214855097673E+01 -0.1174051665533E+01  0.5814126259930E+00
-0.1893514791067E+00 -0.2174419943954E+01 -0.1110972566021E+01  0.5218900928243E+00
-0.1162043767789E+00 -0.2127575457575E+01 -0.1054576519472E+01  0.4811884584613E+00
-0.6180984602712E-01 -0.2076246274430E+01 -0.1004886374066E+01  0.4575019873203E+00
-0.2438244573463E-01 -0.2021952041265E+01 -0.9617772064505E+00  0.4488696125380E+00
-0.2198928141537E-02 -0.1966181349749E+01 -0.9251387282622E+00  0.4533960586940E+00
 0.7180932112282E-02 -0.1909233963717E+01 -0.8939649225866E+00  0.4683427094657E+00
 0.3010921367077E-02 -0.1853788029298E+01 -0.8698652385211E+00  0.4943100802433E+00
-0.1250098206960E-01 -0.1804647055650E+01 -0.8540595755620E+00  0.5309972580034E+00
-0.3416936620627E-01 -0.1763497503564E+01 -0.8449034266491E+00  0.5746330373492E+00
-0.6115495049878E-01 -0.1728337324696E+01 -0.8410613672082E+00  0.6229330160270E+00
-0.9261375172071E-01 -0.1696630730239E+01 -0.8409449043880E+00  0.6742929338215E+00
-0.1298299675232E+00 -0.1666728427478E+01 -0.8443824435090E+00  0.7286958074761E+00
-0.1758277888850E+00 -0.1637002924090E+01 -0.8520304329371E+00  0.7871749789029E+00
-0.2418379767085E+00 -0.1604147401562E+01 -0.8676131255865E+00  0.8480829215003E+00
-0.9876161010257E+00 -0.2226911653161E+01 -0.1510828040636E+01  0.1176233005401E+01
-0.8157633255037E+00 -0.2239137239428E+01 -0.1435803261876E+01  0.1026167368152E+01
-0.6400262677650E+00 -0.2236975757745E+01 -0.1352190948560E+01  0.8857793527239E+00
-0.4816747604653E+00 -0.2215388462258E+01 -0.1267619711465E+01  0.7592187555845E+00
-0.3484406560289E+00 -0.2177523917410E+01 -0.1187203346505E+01  0.6513412437844E+00
-0.2406275917962E+00 -0.2127609697323E+01 -0.1113071523063E+01  0.5649018189379E+00
-0.1562959994024E+00 -0.2069344251681E+01 -0.1046050915356E+01  0.5000470001796E+00
-0.9314236349540E-01 -0.2005968617822E+01 -0.9865821587168E+00  0.4555086708496E+00
-0.4867668351274E-01 -0.1939831806776E+01 -0.9345989880652E+00  0.4291216149835E+00
-0.2067499725303E-01 -0.1872615283216E+01 -0.8898464295634E+00  0.4185260872634E+00
-0.7106495633169E-02 -0.1805835175263E+01 -0.8520825831601E+00  0.4214821667068E+00
-0.5235542290714E-02 -0.1739422932084E+01 -0.8199894808763E+00  0.4348466950216E+00
-0.1581480666358E-01 -0.1676343429779E+01 -0.7953143691110E+00  0.4592399664535E+00
-0.3627171481345E-01 -0.1622311173523E+01 -0.7795339555407E+00  0.4944985098217E+00
-0.6134428536610E-01 -0.1579509548730E+01 -0.7712013000693E+00  0.5368791636083E+00
-0.9044233569374E-01 -0.1545547217795E+01 -0.7689150881895E+00  0.5842793092396E+00
-0.1236894493870E+00 -0.1517638037616E+01 -0.7714239169348E+00  0.6353546644925E+00
-0.1628589316598E+00 -0.1492783632881E+01 -0.7781520033603E+00  0.6899083157223E+00
-0.2113055578640E+00 -0.1468845343274E+01 -0.7896709215318E+00  0.7478170446962E+00
-0.2758872192846E+00 -0.1443485943118E+01 -0.8081053842798E+00  0.8060016446903E+00
-0.9286742450795E+00 -0.2212275646017E+01 -0.1476246445071E+01  0.1190806692131E+01
-0.7558834344087E+00 -0.2218111410945E+01 -0.1397777573771E+01  0.1037695970895E+01
-0.5794075164877E+00 -0.2203668686569E+01 -0.1308045812119E+01  0.8884803113807E+00
-0.4237667023971E+00 -0.2164742393224E+01 -0.1216599271856E+01  0.7514215093601E+00
-0.2969082606244E+00 -0.2107022180597E+01 -0.1129847304509E+01  0.6342450729763E+00
-0.1978952026305E+00 -0.2036881092725E+01 -0.1050344856153E+01  0.5407117155979E+00
-0.1235814540244E+00 -0.1959493090076E+01 -0.9790450332440E+00  0.4709054823437E+00
-0.7079010955906E-01 -0.1879029171753E+01 -0.9164150598923E+00  0.4231495692656E+00
-0.3636011323548E-01 -0.1798209531521E+01 -0.8622477308486E+00  0.3947060844886E+00
-0.1762339210509E-01 -0.1718741602084E+01 -0.8160915451991E+00  0.3826604563145E+00
-0.1225132015582E-01 -0.1641993984237E+01 -0.7774952910927E+00  0.3843264830725E+00
-0.1724847243065E-01 -0.1567365825777E+01 -0.7447687182685E+00  0.3961236345793E+00
-0.3334125471691E-01 -0.1497961192711E+01 -0.7197121484656E+00  0.4186377581623E+00
-0.5770981684386E-01 -0.1440246387575E+01 -0.7040394142912E+00  0.4519198814634E+00
-0.8531431830521E-01 -0.1396654665315E+01 -0.6965254205351E+00  0.4924849932373E+00
-0.1159975851485E+00 -0.1364279000673E+01 -0.6957299935715E+00  0.5384355815031E+00
-0.1503270024109E+00 -0.1339655240440E+01 -0.7002916523638E+00  0.5884708993899E+00
-0.1903579159456E+00 -0.1319118075972E+01 -0.7094537144019E+00  0.6420964485696E+00
-0.2389336984507E+00 -0.1300421268384E+01 -0.7234968325772E+00  0.6985427303834E+00
-0.3001505467145E+00 -0.1282819703984E+01 -0.7439960159412E+00  0.7548263137013E+00
-0.8713009450630E+00 -0.2202051842938E+01 -0.1444475806697E+01  0.1203178206440E+01
-0.6955508710591E+00 -0.2201869800980E+01 -0.1361787712404E+01  0.1045505571283E+01
-0.5174616997331E+00 -0.2173466152640E+01 -0.1264736087407E+01  0.8852025979430E+00
-0.3647129301929E+00 -0.2114437145184E+01 -0.1165200532472E+01  0.7359944552058E+00
-0.2449497487585E+00 -0.2034100520165E+01 -0.1071153623677E+01  0.6089573249078E+00
-0.1554963483596E+00 -0.1941613172230E+01 -0.9856414721772E+00  0.5086409017342E+00
-0.9176557778292E-01 -0.1843909389146E+01 -0.9097672321492E+00  0.4347041587580E+00
-0.4961436217519E-01 -0.1746122190824E+01 -0.8439961777687E+00  0.3847391033435E+00
-0.2517993200904E-01 -0.1651196759366E+01 -0.7878970429478E+00  0.3551734658639E+00
-0.1536689596608E-01 -0.1560641145496E+01 -0.7407237776084E+00  0.3423702022382E+00
-0.1757952059946E-01 -0.1475439656776E+01 -0.7017190115868E+00  0.3431076753828E+00
-0.2861236137830E-01 -0.1394264976660E+01 -0.6687523471818E+00  0.3533732021910E+00
-0.4913669630417E-01 -0.1320181954631E+01 -0.6435797643072E+00  0.3736782975461E+00
-0.7620510150902E-01 -0.1260219753888E+01 -0.6281196804434E+00  0.4043468294701E+00
-0.1052698103394E+00 -0.1216838989367E+01 -0.6213911342858E+00  0.4423621443610E+00
-0.1365430743563E+00 -0.1186451492821E+01 -0.6218074449960E+00  0.4860634658548E+00
-0.1709257316379E+00 -0.1165027207502E+01 -0.6278978798030E+00  0.5341657279556E+00
-0.2104547546799E+00 -0.1148444476442E+01 -0.6386826370075E+00  0.5859510399735E+00
-0.2575366611279E+00 -0.1134731775922E+01 -0.6543661637536E+00  0.6404719057532E+00
-0.3146288937756E+00 -0.1124379107188E+01 -0.6763337587373E+00  0.6955330243647E+00
-0.8158354083525E+00 -0.2197464727553E+01 -0.1416251060283E+01  0.1213435837042E+01
-0.6347501748389E+00 -0.2191341487240E+01 -0.1328263077808E+01  0.1048998011027E+01
-0.4543323684697E+00 -0.2146452654105E+01 -0.1222368957510E+01  0.8749117690106E+00
-0.3049633424155E+00 -0.2063695869509E+01 -0.1113269826781E+01  0.7119461642135E+00
-0.1932298165332E+00 -0.1957432874250E+01 -0.1010811462105E+01  0.5748953106559E+00
-0.1141541737059E+00 -0.1840334842722E+01 -0.9186098353911E+00  0.4686554821136E+00
-0.6151232451950E-01 -0.1721343899477E+01 -0.8379424231529E+00  0.3919427598990E+00
-0.3014294138167E-01 -0.1606470293414E+01 -0.7692082184030E+00  0.3412012964165E+00
-0.1548208216598E-01 -0.1498596238378E+01 -0.7116168088507E+00  0.3117237692560E+00
-0.1405072412911E-01 -0.1398689426856E+01 -0.6639878692791E+00  0.2989916161753E+00
-0.2303628794072E-01 -0.1307042260189E+01 -0.6251369160356E+00  0.2991926695916E+00
-0.3908946693401E-01 -0.1221389295392E+01 -0.5924250167907E+00  0.3079435460440E+00
-0.6278970412535E-01 -0.1144570806141E+01 -0.5674594383858E+00  0.3256666150853E+00
-0.9118621569093E-01 -0.1084008578559E+01 -0.5523415518964E+00  0.3530187443678E+00
-0.1204204239151E+00 -0.1041984010848E+01 -0.5463300829530E+00  0.3876633894234E+00
-0.1510499442099E+00 -0.1014184616839E+01 -0.5476602423040E+00  0.4282475530822E+00
-0.1842204302654E+00 -0.9960840377571E+00 -0.5547430985635E+00  0.4735370501377E+00
-0.2219079404237E+00 -0.9833011914564E+00 -0.5664482905470E+00  0.5227022849222E+00
-0.2662416921940E+00 -0.9741637927071E+00 -0.5829905764248E+00  0.5749158967223E+00
-0.3189682613680E+00 -0.9700436633598E+00 -0.6058356030855E+00  0.6290287342740E+00
-0.7626949541960E+00 -0.2200056218793E+01 -0.1392493047773E+01  0.1221634053954E+01
-0.5735261434994E+00 -0.2187512567606E+01 -0.1297688190928E+01  0.1047311632427E+01
-0.3903450043883E+00 -0.2122422049187E+01 -0.1181000512185E+01  0.8563036072496E+00
-0.2452122853607E+00 -0.2011218790707E+01 -0.1060522603062E+01  0.6781766709194E+00
-0.1426293467503E+00 -0.1875119646140E+01 -0.9483420242532E+00  0.5315738867610E+00
-0.7473879855943E-01 -0.1731109806236E+01 -0.8487488421011E+00  0.4209834562066E+00
-0.3356569466593E-01 -0.1590281748866E+01 -0.7632082965244E+00  0.3434707852704E+00
-0.1293127454459E-01 -0.1459235668630E+01 -0.6919184615371E+00  0.2938162911415E+00
-0.7605380716574E-02 -0.1340297901519E+01 -0.6335145410440E+00  0.2658603787315E+00
-0.1379525193622E-01 -0.1233413191546E+01 -0.5861879669498E+00  0.2540850610828E+00
-0.2854263919699E-01 -0.1137812910446E+01 -0.5481871069417E+00  0.2540972248760E+00
-0.4843774444722E-01 -0.1050091320252E+01 -0.5163086590992E+00  0.2612818880580E+00
-0.7392539009244E-01 -0.9727057454397E+00 -0.4919166324524E+00  0.2759965726580E+00
-0.1021712989704E+00 -0.9133371835790E+00 -0.4772889855876E+00  0.2993060641470E+00
-0.1301654279748E+00 -0.8739350638887E+00 -0.4719272299789E+00  0.3297614188940E+00
-0.1587771452187E+00 -0.8494520303157E+00 -0.4738677112993E+00  0.3663903955174E+00
-0.1893801660453E+00 -0.8349396522278E+00 -0.4814303133673E+00  0.4080506748257E+00
-0.2239130702812E+00 -0.8258570445177E+00 -0.4933919527040E+00  0.4538769043617E+00
-0.2644441162843E+00 -0.8207643765515E+00 -0.5100479903392E+00  0.5033145123078E+00
-0.3126609786768E+00 -0.8215644830259E+00 -0.5330859656481E+00  0.5562982725518E+00
-0.7124452891664E+00 -0.2211812557828E+01 -0.1374401184602E+01  0.1227765169727E+01
-0.5120565574237E+00 -0.2191420985853E+01 -0.1270634442117E+01  0.1039226569021E+01
-0.3260990781498E+00 -0.2100744797860E+01 -0.1140616618832E+01  0.8277580595857E+00
-0.1864565993088E+00 -0.1955001820134E+01 -0.1006485454585E+01  0.6335193930278E+00
-0.9424909327339E-01 -0.1784549749548E+01 -0.8830354538865E+00  0.4787133439964E+00
-0.3823509360902E-01 -0.1611504026540E+01 -0.7753773845033E+00  0.3662446670003E+00
-0.8703689023607E-02 -0.1449018661598E+01 -0.6851295030542E+00  0.2905958702082E+00
 0.1485467559491E-02 -0.1303659371942E+01 -0.6120217335074E+00  0.2442783178344E+00
-0.1836474652377E-02 -0.1176421341744E+01 -0.5537811723018E+00  0.2193921373517E+00
-0.1465708423811E-01 -0.1065593964683E+01 -0.5077179917051E+00  0.2093938811439E+00
-0.3396735458832E-01 -0.9689538425691E+00 -0.4713729614684E+00  0.2094224171681E+00
-0.5639991120446E-01 -0.8818100103496E+00 -0.4409586620120E+00  0.2148653635384E+00
-0.8221677608650E-01 -0.8061402878511E+00 -0.4175278189916E+00  0.2260858134287E+00
-0.1088154296492E+00 -0.7498075961945E+00 -0.4035528211230E+00  0.2446447734719E+00
-0.1341352477749E+00 -0.7143254393748E+00 -0.3987765219489E+00  0.2701583042676E+00
-0.1593186944937E+00 -0.6939427786198E+00 -0.4010328913462E+00  0.3020809759446E+00
-0.1859746892097E+00 -0.6833512989864E+00 -0.4085832134158E+00  0.3393778415582E+00
-0.2160636143177E+00 -0.6779109341263E+00 -0.4201680367030E+00  0.3811747719726E+00
-0.2517843267229E+00 -0.6763009621967E+00 -0.4362000846858E+00  0.4272332375672E+00
-0.2952216399268E+00 -0.6806374818302E+00 -0.4586537860625E+00  0.4784919556472E+00
-0.6659212053627E+00 -0.2235353397383E+01 -0.1363599059832E+01  0.1231713653400E+01
-0.4507702592922E+00 -0.2204136994203E+01 -0.1247806405978E+01  0.1023032617438E+01
-0.2625899223358E+00 -0.2080158148376E+01 -0.1101091590442E+01  0.7872921648502E+00
-0.1300451665302E+00 -0.1892072861783E+01 -0.9503954708967E+00  0.5768232429376E+00
-0.4938016021364E-01 -0.1682234580659E+01 -0.8138589261458E+00  0.4164052270261E+00
-0.5677259932718E-02 -0.1478598003322E+01 -0.6976093719601E+00  0.3056279197858E+00
 0.1233067193025E-01 -0.1295824098276E+01 -0.6032419088523E+00  0.2352082455799E+00
 0.1265547299771E-01 -0.1139280234468E+01 -0.5295136365479E+00  0.1947366105201E+00
 0.1646662081892E-02 -0.1007499653906E+01 -0.4727509049581E+00  0.1743989526140E+00
-0.1658159440772E-01 -0.8963731901758E+00 -0.4290887476659E+00  0.1667651933168E+00
-0.3909469656565E-01 -0.8018879437863E+00 -0.3952618399629E+00  0.1667626621583E+00
-0.6268947861805E-01 -0.7180486429213E+00 -0.3669469161928E+00  0.1701138186386E+00
-0.8739135381753E-01 -0.6463543612782E+00 -0.3448604852203E+00  0.1772960200766E+00
-0.1109244441504E+00 -0.5948300515602E+00 -0.3317046121427E+00  0.1904517399342E+00
-0.1322058327724E+00 -0.5644993126453E+00 -0.3274514175157E+00  0.2103823897747E+00
-0.1525949609682E+00 -0.5489795137445E+00 -0.3297400022786E+00  0.2369709336183E+00
-0.1739521492564E+00 -0.5426689933074E+00 -0.3368119361507E+00  0.2692722325404E+00
-0.1983224479252E+00 -0.5408712420824E+00 -0.3474210334224E+00  0.3063871163401E+00
-0.2281814124007E+00 -0.5422618816922E+00 -0.3621083473053E+00  0.3483583132498E+00
-0.2663231193021E+00 -0.5488776788628E+00 -0.3831443741657E+00  0.3969675109975E+00
-0.6244391100939E+00 -0.2274224847069E+01 -0.1362372056411E+01  0.1233180056636E+01
-0.3905401182318E+00 -0.2226713780164E+01 -0.1230109329126E+01  0.9963415229963E+00
-0.2013635821235E+00 -0.2058421102086E+01 -0.1062098798885E+01  0.7325217105474E+00
-0.7769517123637E-01 -0.1818101549996E+01 -0.8910244567193E+00  0.5071076637603E+00
-0.9414686755996E-02 -0.1563627394693E+01 -0.7393297764060E+00  0.3453684211689E+00
 0.2196126125823E-01 -0.1329103547261E+01 -0.6143568728629E+00  0.2411261986403E+00
 0.2892099554284E-01 -0.1129249681548E+01 -0.5171544811107E+00  0.1799056398845E+00
 0.2028696212247E-01 -0.9662532667523E+00 -0.4446041620483E+00  0.1477899322521E+00
 0.2842136798453E-02 -0.8346869565312E+00 -0.3909670642828E+00  0.1331356828710E+00
-0.1934849352583E-01 -0.7273269287094E+00 -0.3509374475604E+00  0.1280214737341E+00
-0.4359187590003E-01 -0.6382437903165E+00 -0.3204627623089E+00  0.1275878266369E+00
-0.6697991545552E-01 -0.5603219256590E+00 -0.2948318645760E+00  0.1282958877511E+00
-0.8923389546492E-01 -0.4946976386097E+00 -0.2744478203190E+00  0.1308550777231E+00
-0.1084568865260E+00 -0.4495760206144E+00 -0.2622754656908E+00  0.1380445868339E+00
-0.1244869842445E+00 -0.4254733144380E+00 -0.2584813397252E+00  0.1518940855834E+00
-0.1388260434725E+00 -0.4154890517584E+00 -0.2605280940977E+00  0.1726684312387E+00
-0.1536044221864E+00 -0.4138108876907E+00 -0.2666851949658E+00  0.1994677634466E+00
-0.1710068198180E+00 -0.4157321116732E+00 -0.2757672971014E+00  0.2313224941117E+00
-0.1938745507317E+00 -0.4198126086117E+00 -0.2884329641598E+00  0.2684672218021E+00
-0.2259095837233E+00 -0.4277501229368E+00 -0.3072200613510E+00  0.3132904143257E+00
-0.5901842774817E+00 -0.2333374184508E+01 -0.1374072473650E+01  0.1231550187932E+01
-0.3330018047108E+00 -0.2260072348847E+01 -0.1218744849081E+01  0.9558145600015E+00
-0.1446936525184E+00 -0.2031721656128E+01 -0.1022915192470E+01  0.6606561716222E+00
-0.3142038151936E-01 -0.1726820593464E+01 -0.8263732561464E+00  0.4238514550263E+00
 0.2434632458841E-01 -0.1422982804241E+01 -0.6573591437692E+00  0.2673436411670E+00
 0.4392717041951E-01 -0.1159706477490E+01 -0.5244162729930E+00  0.1758305784447E+00
 0.4068448115389E-01 -0.9486611370542E+00 -0.4267490271907E+00  0.1280763481581E+00
 0.2433327835300E-01 -0.7857642459256E+00 -0.3578725538514E+00  0.1063834794205E+00
 0.2002553628590E-02 -0.6599324937144E+00 -0.3092270710560E+00  0.9784401691878E-01
-0.2251742228500E-01 -0.5604577722164E+00 -0.2739983407207E+00  0.9478064736579E-01
-0.4698751352270E-01 -0.4797709759624E+00 -0.2475764894301E+00  0.9311416545772E-01
-0.6890824401343E-01 -0.4100714763468E+00 -0.2251204679983E+00  0.9044789739617E-01
-0.8759598630416E-01 -0.3523355934390E+00 -0.2067678419549E+00  0.8779908890133E-01
-0.1015202047114E+00 -0.3149564564214E+00 -0.1957440302359E+00  0.8858093178855E-01
-0.1112967916275E+00 -0.2979361610309E+00 -0.1923394872616E+00  0.9601064497352E-01
-0.1184865976484E+00 -0.2940078983810E+00 -0.1938724126421E+00  0.1106497979793E+00
-0.1255195364126E+00 -0.2972615959597E+00 -0.1987071317110E+00  0.1315874672474E+00
-0.1347645575239E+00 -0.3030505959539E+00 -0.2057731216127E+00  0.1577268397241E+00
-0.1494530595053E+00 -0.3097377552466E+00 -0.2158196823860E+00  0.1893698185904E+00
-0.1742839073293E+00 -0.3184782462392E+00 -0.2315982115898E+00  0.2291959623403E+00
-0.5669504673501E+00 -0.2419961933015E+01 -0.1403848824611E+01  0.1225661867536E+01
-0.2810828318713E+00 -0.2304730943530E+01 -0.1215332471356E+01  0.8967588247054E+00
-0.9572996861907E-01 -0.1993617269503E+01 -0.9819931994267E+00  0.5685865777203E+00
 0.6752395875672E-02 -0.1609177788425E+01 -0.7531399325880E+00  0.3275294171946E+00
 0.5103454271934E-01 -0.1253430871607E+01 -0.5651262731440E+00  0.1856880565996E+00
 0.5988206244994E-01 -0.9678516767721E+00 -0.4267457176490E+00  0.1142452036676E+00
 0.4756365389282E-01 -0.7550766256805E+00 -0.3325310958968E+00  0.8384426267679E-01
 0.2509099740019E-01 -0.6004500362145E+00 -0.2704187475569E+00  0.7353085350959E-01
-0.2825055539950E-03 -0.4860090562168E+00 -0.2285570334526E+00  0.7045196660570E-01
-0.2538773791039E-01 -0.3980367544606E+00 -0.1990095109096E+00  0.6824610782889E-01
-0.4868387770235E-01 -0.3281799251071E+00 -0.1771259868712E+00  0.6419639412403E-01
-0.6810499876851E-01 -0.2685627702889E+00 -0.1582338510557E+00  0.5733003979955E-01
-0.8241656942353E-01 -0.2202105448003E+00 -0.1422347433244E+00  0.4894877900412E-01
-0.9036502831410E-01 -0.1916313288374E+00 -0.1325382875250E+00  0.4302576108705E-01
-0.9312371166409E-01 -0.1822833717737E+00 -0.1294413288875E+00  0.4385434005753E-01
-0.9224286358392E-01 -0.1847189597523E+00 -0.1301720566379E+00  0.5218913002344E-01
-0.9051420385073E-01 -0.1930916358108E+00 -0.1332947443029E+00  0.6706079277359E-01
-0.9053060755540E-01 -0.2029365445645E+00 -0.1379295611465E+00  0.8719670464249E-01
-0.9586059237558E-01 -0.2123885515517E+00 -0.1448770972783E+00  0.1128245182442E+00
-0.1121639507189E+00 -0.2219476955375E+00 -0.1570324733422E+00  0.1465163521510E+00
-0.5616277871534E+00 -0.2544838488991E+01 -0.1460039146085E+01  0.1213372259658E+01
-0.2399058604131E+00 -0.2360172019437E+01 -0.1222036600430E+01  0.8125145936792E+00
-0.5840484353603E-01 -0.1933017330418E+01 -0.9359684193845E+00  0.4532166845438E+00
 0.3549235429048E-01 -0.1452219866660E+01 -0.6658619291249E+00  0.2206083137077E+00
 0.7076023395118E-01 -0.1047681085284E+01 -0.4591527989619E+00  0.1062240966629E+00
 0.6999961155565E-01 -0.7533878822892E+00 -0.3211924864301E+00  0.6247766846552E-01
 0.4990672130804E-01 -0.5522236361003E+00 -0.2360889493536E+00  0.5169026920285E-01
 0.2330013507027E-01 -0.4145960789327E+00 -0.1839090931489E+00  0.5178103909970E-01
-0.2992822511640E-02 -0.3161980783469E+00 -0.1500197230230E+00  0.5219011894024E-01
-0.2702760182381E-01 -0.2422904454199E+00 -0.1265794818835E+00  0.4903315024215E-01
-0.4802133544938E-01 -0.1849351725767E+00 -0.1094895584945E+00  0.4128542346366E-01
-0.6425261851302E-01 -0.1367913686427E+00 -0.9449067372350E-01  0.2944006892291E-01
-0.7374960517044E-01 -0.9903287467884E-01 -0.8120776532319E-01  0.1492743435007E-01
-0.7537535434426E-01 -0.8005565002307E-01 -0.7305257186735E-01  0.2150206650298E-02
-0.7057724876553E-01 -0.7868864575100E-01 -0.7015497024483E-01 -0.3674243333693E-02
-0.6086974281168E-01 -0.8751632732753E-01 -0.6974145278854E-01 -0.1693846014075E-02
-0.4954366189627E-01 -0.1009982349687E+00 -0.7075469134709E-01  0.7050528543585E-02
-0.3945795063775E-01 -0.1150607536986E+00 -0.7262379085388E-01  0.2109109835263E-01
-0.3437003905815E-01 -0.1276540500734E+00 -0.7615132169870E-01  0.4044032394993E-01
-0.4070023009983E-01 -0.1386256468394E+00 -0.8428316194767E-01  0.6708005090427E-01
-0.5875491548839E+00 -0.2725563760452E+01 -0.1557163066258E+01  0.1190701260772E+01
-0.2181923983958E+00 -0.2423126597276E+01 -0.1241419924817E+01  0.6935169841995E+00
-0.3661101186537E-01 -0.1830305552942E+01 -0.8774507832341E+00  0.3124076654775E+00
 0.5592240784027E-01 -0.1237805158935E+01 -0.5554848916058E+00  0.1094069856157E+00
 0.8495295063063E-01 -0.8007599882431E+00 -0.3364293068246E+00  0.3825531095083E-01
 0.7492359068101E-01 -0.5212572540102E+00 -0.2097768212326E+00  0.2790191012569E-01
 0.4840480090975E-01 -0.3474926519583E+00 -0.1405712896363E+00  0.3546687247005E-01
 0.2044349225590E-01 -0.2333996527153E+00 -0.1000893951621E+00  0.4244485378475E-01
-0.4743712169539E-02 -0.1536691548006E+00 -0.7445404728712E-01  0.4328415171954E-01
-0.2640276470327E-01 -0.9501017422012E-01 -0.5706408114926E-01  0.3712571493167E-01
-0.4439504977764E-01 -0.5106861052341E-01 -0.4486792022769E-01  0.2448396584637E-01
-0.5715505771126E-01 -0.1542538706089E-01 -0.3411280895639E-01  0.7088086525443E-02
-0.6178609193707E-01  0.1069039895084E-01 -0.2401497564262E-01 -0.1378157379326E-01
-0.5705485731882E-01  0.1943076054527E-01 -0.1768332543872E-01 -0.3343836828068E-01
-0.4432514722345E-01  0.1278920237148E-01 -0.1482189404283E-01 -0.4589750551589E-01
-0.2515107628882E-01 -0.2101976878850E-02 -0.1280893495631E-01 -0.5026751003951E-01
-0.3581831075628E-02 -0.2035817285525E-01 -0.1125180181897E-01 -0.4761033021158E-01
 0.1717272408876E-01 -0.3868138756405E-01 -0.1010907180775E-01 -0.3955162063070E-01
 0.3346742039356E-01 -0.5496199681973E-01 -0.1010245089468E-01 -0.2642084076799E-01
 0.3853964647439E-01 -0.6852683981446E-01 -0.1409398083408E-01 -0.7399545321974E-02
-0.6723670405265E+00 -0.2993012009327E+01 -0.1722728149062E+01  0.1150036525122E+01
-0.2309681262208E+00 -0.2483376451529E+01 -0.1275741948307E+01  0.5257972145664E+00
-0.2961289695819E-01 -0.1648139175520E+01 -0.7885434720647E+00  0.1476675222216E+00
 0.7374742355546E-01 -0.9443067270893E+00 -0.4091628716231E+00  0.7370095571774E-02
 0.9658322395607E-01 -0.5161556692472E+00 -0.1971990487866E+00 -0.4849949660279E-02
 0.7414893680513E-01 -0.2861591558865E+00 -0.9964480271551E-01  0.1732031882598E-01
 0.4531773068067E-01 -0.1496964310244E+00 -0.4905798903712E-01  0.3663807567204E-01
 0.1855736371853E-01 -0.6167701157677E-01 -0.2026623444197E-01  0.4503578195425E-01
-0.4026323694304E-02 -0.7557520684456E-03 -0.2247575602792E-02  0.4294220458677E-01
-0.2261008217900E-01  0.4273375494491E-01  0.9458126175992E-02  0.3201385911744E-01
-0.3737814600849E-01  0.7293813171307E-01  0.1671319323876E-01  0.1368716331499E-01
-0.4678290788415E-01  0.9521971717760E-01  0.2276530031018E-01 -0.9482744047962E-02
-0.4687187138147E-01  0.1085773464448E+00  0.2900157320620E-01 -0.3674352868751E-01
-0.3600046985174E-01  0.1064797024865E+00  0.3312523925434E-01 -0.6323556294845E-01
-0.1503310509244E-01  0.9204402764720E-01  0.3619513350893E-01 -0.8233450656627E-01
 0.1425317092749E-01  0.7189943944462E-01  0.4049172677219E-01 -0.9310485932856E-01
 0.4651161582780E-01  0.4968781709023E-01  0.4521373335679E-01 -0.9647270267081E-01
 0.7809190582185E-01  0.2735632809551E-01  0.4956066981545E-01 -0.9409475805085E-01
 0.1058570981105E+00  0.6678023750421E-02  0.5289150714049E-01 -0.8672701250596E-01
 0.1236108318608E+00 -0.1124023098692E-01  0.5281418227677E-01 -0.7541841836916E-01
-0.8853559207347E+00 -0.3412919657457E+01 -0.2020189516626E+01  0.1075396013627E+01
-0.2964462808039E+00 -0.2503668123344E+01 -0.1316053766612E+01  0.2892619986660E+00
-0.2352912134762E-01 -0.1318148395052E+01 -0.6305884311084E+00 -0.2878029511884E-01
 0.1077304349497E+00 -0.5519434694742E+00 -0.2087801256970E+00 -0.5925340476374E-01
 0.9801092495082E-01 -0.2302225457097E+00 -0.6213946159907E-01 -0.8795763178827E-02
 0.7174207043724E-01 -0.6373573578421E-01  0.3762977277380E-02  0.3226172803072E-01
 0.4362722279521E-01  0.3367507989577E-01  0.3633208217261E-01  0.5328156208838E-01
 0.1986672589260E-01  0.9756910717505E-01  0.5519484140180E-01  0.5745383135496E-01
 0.3249191861733E-03  0.1413465393531E+00  0.6658558534458E-01  0.4970670875299E-01
-0.1511287849894E-01  0.1706638132911E+00  0.7310893916688E-01  0.3293355980470E-01
-0.2675432347979E-01  0.1872746123125E+00  0.7544453556002E-01  0.8748690852010E-02
-0.3330424104148E-01  0.1951703759662E+00  0.7607708322168E-01 -0.1994175332970E-01
-0.2950813423066E-01  0.1942587355502E+00  0.7743278242378E-01 -0.5344529292316E-01
-0.1290717377924E-01  0.1805207074895E+00  0.7877836064401E-01 -0.8675077714375E-01
 0.1676647670833E-01  0.1588032740829E+00  0.8251778266256E-01 -0.1126498517786E+00
 0.5686350571668E-01  0.1346818822253E+00  0.9002633210437E-01 -0.1300671152174E+00
 0.1002495701915E+00  0.1102109373869E+00  0.9891643831095E-01 -0.1395280010544E+00
 0.1421442386988E+00  0.8456417253723E-01  0.1065529530107E+00 -0.1423902979192E+00
 0.1808942020661E+00  0.5877785559848E-01  0.1126458668166E+00 -0.1398620637291E+00
 0.2120419521178E+00  0.3382347170236E-01  0.1155567489024E+00 -0.1357017120258E+00
-0.1406804948497E+01 -0.4138183440962E+01 -0.2606144536436E+01  0.9302457742488E+00
-0.4505723966291E+00 -0.2381608725573E+01 -0.1331125124059E+01 -0.4565957484722E-01
 0.1077441709271E+00 -0.6512632269608E+00 -0.2554539556879E+00 -0.1662932899095E+00
 0.1102254217471E+00 -0.1785596749127E+00 -0.3211709890638E-01 -0.5408601053674E-01
 0.9982063788997E-01  0.2954626562328E-01  0.6080244449701E-01  0.2671314400933E-01
 0.7152630955088E-01  0.1343063862819E+00  0.9674136679602E-01  0.6751937029149E-01
 0.4682111051108E-01  0.1995044180722E+00  0.1157729981405E+00  0.8103064351553E-01
 0.2590142989429E-01  0.2432429360708E+00  0.1264978516827E+00  0.7692451671971E-01
 0.8689235176746E-02  0.2722513773693E+00  0.1320420875617E+00  0.6191049622494E-01
-0.3735390907943E-02  0.2894001268658E+00  0.1342624255596E+00  0.3903732605535E-01
-0.1261705566305E-01  0.2928323510345E+00  0.1317011884905E+00  0.9607697346999E-02
-0.1689056881049E-01  0.2850934599952E+00  0.1260553585371E+00 -0.2366142515888E-01
-0.1053412189620E-01  0.2669795241359E+00  0.1205293387470E+00 -0.6306464937013E-01
 0.1145544026740E-01  0.2403986892132E+00  0.1183714405557E+00 -0.1034094207852E+00
 0.5086398969843E-01  0.2125257986299E+00  0.1237932002003E+00 -0.1366470119935E+00
 0.1026792727812E+00  0.1864338451977E+00  0.1358831651055E+00 -0.1612454058171E+00
 0.1570283009073E+00  0.1614437786365E+00  0.1496818770060E+00 -0.1771307884045E+00
 0.2094739528007E+00  0.1356777335941E+00  0.1622212921941E+00 -0.1850160518018E+00
 0.2560378085347E+00  0.1030934534017E+00  0.1687916926820E+00 -0.1857345654069E+00
 0.3008653307428E+00  0.6750307365784E-01  0.1731331496292E+00 -0.1871405876192E+00
-0.3517998233156E+01 -0.6145570448618E+01 -0.4541877268914E+01  0.5506020886714E+00
 0.1710891626341E+00 -0.8386778820435E+00 -0.3137666973266E+00 -0.4334742242570E+00
 0.7841671485361E-01 -0.1227494991138E+00 -0.2083640854943E-01 -0.1509531526415E+00
 0.1235895724017E+00  0.1365713371193E+00  0.1222756271647E+00  0.1533694875835E-01
 0.1041162990962E+00  0.2461328949062E+00  0.1646171207636E+00  0.8853829624250E-01
 0.7930577270375E-01  0.3066514182491E+00  0.1813998792878E+00  0.1147569531310E+00
 0.5624128220468E-01  0.3471172539976E+00  0.1895785115342E+00  0.1151806213655E+00
 0.3740211243991E-01  0.3759359861756E+00  0.1942689058565E+00  0.1008592765265E+00
 0.2144131180048E-01  0.3926811838323E+00  0.1946375724537E+00  0.7819249007870E-01
 0.9437250435659E-02  0.3979207575083E+00  0.1914582632481E+00  0.4916427284465E-01
 0.6356239000834E-02  0.3940200249743E+00  0.1881768435910E+00  0.1605790904333E-01
 0.2093891105939E-02  0.3665891412641E+00  0.1732810247744E+00 -0.1896080483573E-01
 0.8008324075198E-02  0.3237023643229E+00  0.1559040231517E+00 -0.6397860255897E-01
 0.3675164389987E-01  0.2839014667775E+00  0.1507069616361E+00 -0.1127171419735E+00
 0.8814437315842E-01  0.2530965930505E+00  0.1603832537114E+00 -0.1544663544357E+00
 0.1515222220710E+00  0.2268650909938E+00  0.1778420366894E+00 -0.1869002595901E+00
 0.2171285619738E+00  0.2039814779381E+00  0.1979217182566E+00 -0.2097177260623E+00
 0.2784178013003E+00  0.1793259488345E+00  0.2151395620177E+00 -0.2229263194014E+00
 0.3358233272336E+00  0.1499422358897E+00  0.2283098140889E+00 -0.2262253454335E+00
 0.3783130082366E+00  0.8448467922963E-01  0.2175149125574E+00 -0.2278025096205E+00
-0.2797571934252E-01 -0.2761988211601E+01 -0.1311283044218E+01 -0.9308437999645E+00
-0.3676075777762E-01 -0.2566501107826E+01 -0.1223533073730E+01 -0.9441334314517E+00
-0.8244266225381E-01 -0.2405983595450E+01 -0.1169560338154E+01 -0.9512600481073E+00
-0.1302967333376E+00 -0.2244328381498E+01 -0.1116073801142E+01 -0.9508687674724E+00
-0.1783872961026E+00 -0.2077998326304E+01 -0.1060501239841E+01 -0.9415364986268E+00
-0.2236951627956E+00 -0.1905488347320E+01 -0.1000716247216E+01 -0.9223547746895E+00
-0.2640973937835E+00 -0.1727204488366E+01 -0.9359118822364E+00 -0.8925134156781E+00
-0.2975648824741E+00 -0.1544314484753E+01 -0.8656833004012E+00 -0.8513291618690E+00
-0.3221030640918E+00 -0.1358527577731E+01 -0.7898963996530E+00 -0.7982988104307E+00
-0.3356607169499E+00 -0.1171966151378E+01 -0.7085846263171E+00 -0.7331874735557E+00
-0.3361184968729E+00 -0.9871235092744E+00 -0.6219237413118E+00 -0.6561341640687E+00
-0.3213348112116E+00 -0.8068414739104E+00 -0.5302428526624E+00 -0.5677742343774E+00
-0.2892674743138E+00 -0.6342829609015E+00 -0.4340687034502E+00 -0.4693744272028E+00
-0.2381910482018E+00 -0.4728696522241E+00 -0.3341985283525E+00 -0.3629692222082E+00
-0.1670317365646E+00 -0.3261462065784E+00 -0.2317936326893E+00 -0.2514727078744E+00
-0.7580224729583E-01 -0.1975010325973E+00 -0.1284525412240E+00 -0.1387142129483E+00
 0.3393518560879E-01 -0.8969058703266E-01 -0.2620503860275E-01 -0.2931394557981E-01
 0.1590873717313E+00 -0.3991282941321E-02  0.7289516154640E-01  0.7170149744046E-01
 0.2941530700728E+00  0.5909587478424E-01  0.1660270036617E+00  0.1592903777053E+00
 0.4422768743950E+00  0.1058222930205E+00  0.2576066080319E+00  0.2285278754334E+00
 0.1965268402291E-01 -0.2919384757828E+01 -0.1362874071232E+01 -0.9525093055248E+00
-0.2395509193452E-01 -0.2786980940598E+01 -0.1321139931939E+01 -0.9699360824001E+00
-0.6689896464666E-01 -0.2629679266438E+01 -0.1267391765395E+01 -0.9813174826633E+00
-0.1188191203588E+00 -0.2470294297738E+01 -0.1216883303419E+01 -0.9887151018567E+00
-0.1714591548507E+00 -0.2304620013506E+01 -0.1163757206176E+01 -0.9891020094297E+00
-0.2225551156335E+00 -0.2132038796391E+01 -0.1106659135845E+01 -0.9805703997581E+00
-0.2698476117689E+00 -0.1952134248485E+01 -0.1044331471671E+01 -0.9616324315580E+00
-0.3113207416537E+00 -0.1765306139311E+01 -0.9760146315780E+00 -0.9310989350991E+00
-0.3448435046926E+00 -0.1572561577840E+01 -0.9011803865046E+00 -0.8880009213922E+00
-0.3680889213739E+00 -0.1375486831467E+01 -0.8194806017567E+00 -0.8316011564636E+00
-0.3784821445387E+00 -0.1176233534094E+01 -0.7307163671041E+00 -0.7614596889923E+00
-0.3732106273309E+00 -0.9775432766757E+00 -0.6348543332729E+00 -0.6775476153996E+00
-0.3493041087054E+00 -0.7827887942955E+00 -0.5320836630609E+00 -0.5804086426301E+00
-0.3038198390888E+00 -0.5960124066348E+00 -0.4229211544174E+00 -0.4713711165831E+00
-0.2341796096817E+00 -0.4219214323080E+00 -0.3083674889530E+00 -0.3528069112215E+00
-0.1387150132569E+00 -0.2657669466894E+00 -0.1901065206925E+00 -0.2284087420807E+00
-0.1736271025580E-01 -0.1328892184530E+00 -0.7061840631402E-01 -0.1033831057946E+00
 0.1276859401894E+00 -0.2766402685121E-01  0.4701029914970E-01  0.1570783070442E-01
 0.2933807597506E+00  0.4913529809672E-01  0.1609825467799E+00  0.1218941121988E+00
 0.4763796038495E+00  0.1009146559081E+00  0.2713283013979E+00  0.2103288461903E+00
 0.4761470172439E-01 -0.3100347775750E+01 -0.1434784541153E+01 -0.9567978125338E+00
 0.1789200676376E-02 -0.2984736462837E+01 -0.1401985209660E+01 -0.9855512369101E+00
-0.4845096565521E-01 -0.2851918668707E+01 -0.1363173724693E+01 -0.1006206330274E+01
-0.1021026058529E+00 -0.2704622822969E+01 -0.1319160948200E+01 -0.1021654382329E+01
-0.1585805694379E+00 -0.2547730251517E+01 -0.1271966082623E+01 -0.1031234985016E+01
-0.2147691683180E+00 -0.2381147322235E+01 -0.1220080747465E+01 -0.1033108119968E+01
-0.2685882760679E+00 -0.2204926145408E+01 -0.1162551775145E+01 -0.1025517457692E+01
-0.3179569225164E+00 -0.2019157736223E+01 -0.1098443886822E+01 -0.1006854669031E+01
-0.3607071297173E+00 -0.1824328669730E+01 -0.1026966823135E+01 -0.9756649111698E+00
-0.3943987498669E+00 -0.1621402183711E+01 -0.9474264363787E+00 -0.9306408706141E+00
-0.4162215152507E+00 -0.1411909262367E+01 -0.8592214633009E+00 -0.8706562036247E+00
-0.4229290324928E+00 -0.1198046233749E+01 -0.7618583732015E+00 -0.7948494927809E+00
-0.4108211800353E+00 -0.9828031124749E+00 -0.6550034158185E+00 -0.7027731075194E+00
-0.3758015557133E+00 -0.7701264244264E+00 -0.5385861492996E+00 -0.5946271161751E+00
-0.3135743495033E+00 -0.5651145291611E+00 -0.4129837719248E+00 -0.4716059076388E+00
-0.2200887818782E+00 -0.3742078299770E+00 -0.2793194068635E+00 -0.3363838381057E+00
-0.9245738365158E-01 -0.2052884087926E+00 -0.1399405220938E+00 -0.1937308655526E+00
 0.6955908080121E-01 -0.6716834691698E-01  0.1123644922736E-02 -0.5107567343770E-01
 0.2622460890490E+00  0.3319615930429E-01  0.1388578563739E+00  0.8190752010961E-01
 0.4768337336117E+00  0.9458575925875E-01  0.2685671609679E+00  0.1956646918837E+00
 0.7661003478953E-01 -0.3286669307181E+01 -0.1508727854197E+01 -0.9502586470517E+00
 0.2683185544702E-01 -0.3187987736473E+01 -0.1485743260314E+01 -0.9882606254320E+00
-0.2584626453129E-01 -0.3073495491980E+01 -0.1456690621866E+01 -0.1019061290325E+01
-0.8249631866579E-01 -0.2944484297540E+01 -0.1422680886008E+01 -0.1044070112384E+01
-0.1418112630851E+00 -0.2802249443615E+01 -0.1383708528640E+01 -0.1063365897336E+01
-0.2022268542542E+00 -0.2647933568993E+01 -0.1339575395528E+01 -0.1075858947728E+01
-0.2617081045658E+00 -0.2481595763584E+01 -0.1289352814760E+01 -0.1079962106665E+01
-0.3183000587193E+00 -0.2303193335345E+01 -0.1232101892085E+01 -0.1073970484063E+01
-0.3698846737365E+00 -0.2112754391062E+01 -0.1166840357496E+01 -0.1056149901010E+01
-0.4140589784968E+00 -0.1910583788143E+01 -0.1092582097550E+01 -0.1024763389764E+01
-0.4479883495525E+00 -0.1697399670292E+01 -0.1008332366770E+01 -0.9780877962743E+00
-0.4682731171595E+00 -0.1474481364636E+01 -0.9130946041278E+00 -0.9144571744031E+00
-0.4708168969590E+00 -0.1243851825295E+01 -0.8058942974153E+00 -0.8323582551969E+00
-0.4507074098077E+00 -0.1008526299189E+01 -0.6858398414891E+00 -0.7306105109572E+00
-0.4021439929386E+00 -0.7728609979688E+00 -0.5522523443257E+00 -0.6086813275140E+00
-0.3185266733116E+00 -0.5430613468576E+00 -0.4049463684524E+00 -0.4672203404607E+00
-0.1929623914723E+00 -0.3278958678399E+00 -0.2448033812559E+00 -0.3089469503086E+00
-0.2005495401045E-01 -0.1398029864205E+00 -0.7513323181200E-01 -0.1400870712636E+00
 0.1990883287555E+00  0.4020795310652E-02  0.9546128806895E-01  0.2761055457366E-01
 0.4554442528407E+00  0.9111009359041E-01  0.2568805421711E+00  0.1769531191909E+00
 0.1055858029502E+00 -0.3475662894845E+01 -0.1583936229173E+01 -0.9331181575502E+00
 0.5344818788071E-01 -0.3393681051583E+01 -0.1569909441958E+01 -0.9784530440366E+00
-0.1765451265205E-02 -0.3298210531630E+01 -0.1550988708027E+01 -0.1018072010307E+01
-0.6060873051281E-01 -0.3188604131795E+01 -0.1527130041411E+01 -0.1052390236419E+01
-0.1226438906907E+00 -0.3065237152413E+01 -0.1498304086458E+01 -0.1081401549410E+01
-0.1865983911011E+00 -0.2928339393323E+01 -0.1464020754966E+01 -0.1104381844578E+01
-0.2509381378803E+00 -0.2777905786716E+01 -0.1423556640950E+01 -0.1120068170417E+01
-0.3138988551158E+00 -0.2613611130562E+01 -0.1375929689779E+01 -0.1126883170764E+01
-0.3735381863414E+00 -0.2435057155823E+01 -0.1320039807469E+01 -0.1123059867658E+01
-0.4276141453398E+00 -0.2241899989288E+01 -0.1254671640093E+01 -0.1106676847795E+01
-0.4734509008750E+00 -0.2033981515273E+01 -0.1178493232600E+01 -0.1075659717464E+01
-0.5077695116068E+00 -0.1811460174430E+01 -0.1090037949672E+01 -0.1027776932466E+01
-0.5264791998231E+00 -0.1574976513217E+01 -0.9876841826236E+00 -0.9606543452899E+00
-0.5244073838500E+00 -0.1325887126768E+01 -0.8696384177846E+00 -0.8718361581584E+00
-0.4949499794648E+00 -0.1066622459658E+01 -0.7339390445261E+00 -0.7589383333934E+00
-0.4296310750564E+00 -0.8012564724469E+00 -0.5785171458592E+00 -0.6199840170510E+00
-0.3176947089376E+00 -0.5365222907951E+00 -0.4014819888561E+00 -0.4541171585755E+00
-0.1460621659497E+00 -0.2836390645151E+00 -0.2019595778062E+00 -0.2631384710532E+00
 0.9751084387277E-01 -0.6321409432617E-01  0.1611947224602E-01 -0.5515257851512E-01
 0.4065136661875E+00  0.8334325183021E-01  0.2302327508844E+00  0.1477028931550E+00
 0.1343057353234E+00 -0.3663994478650E+01 -0.1658953705156E+01 -0.9052416893836E+00
 0.8047580387971E-01 -0.3599853451082E+01 -0.1654107489990E+01 -0.9560287280796E+00
 0.2323726857160E-01 -0.3523997031868E+01 -0.1645357084576E+01 -0.1002640443292E+01
-0.3781583631412E-01 -0.3435359753958E+01 -0.1632392523287E+01 -0.1044886711765E+01
-0.1023942054044E+00 -0.3333465484518E+01 -0.1614854050168E+01 -0.1082549911618E+01
-0.1696621361949E+00 -0.3218052329228E+01 -0.1592225794710E+01 -0.1115025441912E+01
-0.2383861449247E+00 -0.3088728088471E+01 -0.1563743685730E+01 -0.1141290514573E+01
-0.3070888700262E+00 -0.2944923914627E+01 -0.1528446004910E+01 -0.1159984288632E+01
-0.3740478934986E+00 -0.2785900405531E+01 -0.1485175696777E+01 -0.1169477821090E+01
-0.4372477360930E+00 -0.2610823438864E+01 -0.1432593448596E+01 -0.1167899453545E+01
-0.4942653094482E+00 -0.2418826065335E+01 -0.1369152942675E+01 -0.1153118869017E+01
-0.5421110798250E+00 -0.2209075161742E+01 -0.1293057530257E+01 -0.1122704079192E+01
-0.5770046706454E+00 -0.1980850900722E+01 -0.1202192115493E+01 -0.1073860841226E+01
-0.5940480170464E+00 -0.1733662188154E+01 -0.1094023793669E+01 -0.1003363227672E+01
-0.5867239359797E+00 -0.1467431483895E+01 -0.9654530448922E+00 -0.9074886064288E+00
-0.5461010867457E+00 -0.1182820081062E+01 -0.8125929468088E+00 -0.7819893534925E+00
-0.4594696098322E+00 -0.8817951665778E+00 -0.6303944433138E+00 -0.6221877241815E+00
-0.3081161142075E+00 -0.5689450200863E+00 -0.4122187320725E+00 -0.4234748752402E+00
-0.6220521874611E-01 -0.2536116660881E+00 -0.1484339354956E+00 -0.1830191109780E+00
 0.3161442858242E+00  0.3082968685290E-01  0.1630777667446E+00  0.9133560202828E-01
 0.1620948442684E+00 -0.3848854773165E+01 -0.1732777162186E+01 -0.8665921131519E+00
 0.1070246329085E+00 -0.3803479671092E+01 -0.1737333863540E+01 -0.9210614660280E+00
 0.4792552816847E-01 -0.3748073432490E+01 -0.1739069510620E+01 -0.9726512246968E+00
-0.1538605137267E-01 -0.3681494086343E+01 -0.1737533660319E+01 -0.1020875901643E+01
-0.8272033504094E-01 -0.3602965644547E+01 -0.1732272406013E+01 -0.1065330030966E+01
-0.1534641513105E+00 -0.3511887711773E+01 -0.1722715371280E+01 -0.1105417995698E+01
-0.2266644403437E+00 -0.3407659932568E+01 -0.1708132450936E+01 -0.1140254667645E+01
-0.3010862805136E+00 -0.3289564617406E+01 -0.1687605917742E+01 -0.1168664179669E+01
-0.3752354482219E+00 -0.3156738862737E+01 -0.1660027921940E+01 -0.1189201459151E+01
-0.4473186008685E+00 -0.3008173505346E+01 -0.1624081285802E+01 -0.1200157084293E+01
-0.5151603156984E+00 -0.2842727430304E+01 -0.1578207236618E+01 -0.1199531988206E+01
-0.5760690754192E+00 -0.2659137139401E+01 -0.1520546917109E+01 -0.1184977823543E+01
-0.6266389768838E+00 -0.2456022199960E+01 -0.1448850749442E+01 -0.1153698506491E+01
-0.6624474500897E+00 -0.2231887442743E+01 -0.1360337396181E+01 -0.1102301283332E+01
-0.6775725669931E+00 -0.1985126075264E+01 -0.1251468358687E+01 -0.1026573695774E+01
-0.6637624715397E+00 -0.1714016057459E+01 -0.1117555905795E+01 -0.9211410063856E+00
-0.6089270777535E+00 -0.1416712646341E+01 -0.9520506679097E+00 -0.7789164509832E+00
-0.4938298963421E+00 -0.1090944218704E+01 -0.7448438321825E+00 -0.5901422647466E+00
-0.2851649754054E+00 -0.7336710332440E+00 -0.4788529228507E+00 -0.3405815643140E+00
 0.1012288061478E+00 -0.3262095168362E+00 -0.1057409337554E+00 -0.6547801499440E-02
 0.1883043004135E+00 -0.4027725631868E+01 -0.1804528021207E+01 -0.8174316279864E+00
 0.1321031006172E+00 -0.4001724739990E+01 -0.1818722165892E+01 -0.8739069035552E+00
 0.7110021529182E-01 -0.3967322920105E+01 -0.1831224666617E+01 -0.9284678528725E+00
 0.5238955413819E-02 -0.3923497111552E+01 -0.1841581328714E+01 -0.9805026323463E+00
-0.6533987738551E-01 -0.3869408205096E+01 -0.1849331594076E+01 -0.1029469498726E+01
-0.1402074446368E+00 -0.3804351014456E+01 -0.1853942471071E+01 -0.1074719858599E+01
-0.2186485211717E+00 -0.3727651459551E+01 -0.1854760986235E+01 -0.1115399398565E+01
-0.2996881682924E+00 -0.3638588465001E+01 -0.1850990012953E+01 -0.1150411275269E+01
-0.3820960720515E+00 -0.3536347164164E+01 -0.1841668316350E+01 -0.1178405091488E+01
-0.4643620469919E+00 -0.3420000892951E+01 -0.1825650577143E+01 -0.1197762672804E+01
-0.5446365282460E+00 -0.3288502037271E+01 -0.1801575121224E+01 -0.1206563193897E+01
-0.6206359897980E+00 -0.3140671935347E+01 -0.1767814720334E+01 -0.1202516068235E+01
-0.6895035196572E+00 -0.2975179396306E+01 -0.1722400966134E+01 -0.1182848218854E+01
-0.7476050038620E+00 -0.2790498543642E+01 -0.1662908663109E+01 -0.1144123024104E+01
-0.7902197053220E+00 -0.2584827101900E+01 -0.1586271995371E+01 -0.1081947790474E+01
-0.8110517408004E+00 -0.2355928409822E+01 -0.1488480667017E+01 -0.9904843356390E+00
-0.8013760255600E+00 -0.2100772528614E+01 -0.1364009817002E+01 -0.8615809847811E+00
-0.7485721156135E+00 -0.1814770526194E+01 -0.1204771038594E+01 -0.6830948993787E+00
-0.6323346958398E+00 -0.1489010223973E+01 -0.9970321097832E+00 -0.4352173343629E+00
-0.4202046626905E+00 -0.1103060131222E+01 -0.7159344513230E+00 -0.7936469510360E-01
 0.2124229543323E+00 -0.4198246633650E+01 -0.1873337124528E+01 -0.7582212815088E+00
 0.1549413971265E+00 -0.4191799509924E+01 -0.1897323308203E+01 -0.8151173166327E+00
 0.9180379922350E-01 -0.4178558734750E+01 -0.1920774814826E+01 -0.8707417861619E+00
 0.2295600804536E-01 -0.4157670050982E+01 -0.1943315595251E+01 -0.9244460874734E+00
-0.5156053856162E-01 -0.4128356197654E+01 -0.1964560861038E+01 -0.9755896552952E+00
-0.1315152787583E+00 -0.4089919283252E+01 -0.1984074239112E+01 -0.1023438487771E+01
-0.2164682023886E+00 -0.4041698965524E+01 -0.2001338563843E+01 -0.1067085213560E+01
-0.3057735919914E+00 -0.3983022717372E+01 -0.2015734260288E+01 -0.1105400320427E+01
-0.3985843746343E+00 -0.3913169555459E+01 -0.2026524342004E+01 -0.1137000180980E+01
-0.4938441928093E+00 -0.3831346211949E+01 -0.2032839485080E+01 -0.1160214101319E+01
-0.5902662955393E+00 -0.3736669901220E+01 -0.2033660007319E+01 -0.1173035463006E+01
-0.6863008325068E+00 -0.3628147456565E+01 -0.2027790690721E+01 -0.1173043913840E+01
-0.7800954476784E+00 -0.3504640793287E+01 -0.2013826028146E+01 -0.1157283517321E+01
-0.8694568901571E+00 -0.3364804705525E+01 -0.1990102944923E+01 -0.1122074080261E+01
-0.9518325372488E+00 -0.3206975617144E+01 -0.1954639827607E+01 -0.1062716857189E+01
-0.1024357350724E+01 -0.3028969689862E+01 -0.1905063704244E+01 -0.9730249654567E+00
-0.1084119213660E+01 -0.2827727617662E+01 -0.1838568006058E+01 -0.8445468039339E+00
-0.1129072470672E+01 -0.2598673296487E+01 -0.1752040506121E+01 -0.6652356409472E+00
-0.1161556657386E+01 -0.2334843297156E+01 -0.1643307974467E+01 -0.4170039040454E+00
-0.1209251516466E+01 -0.2032941094148E+01 -0.1523830523123E+01 -0.7291894029051E-01
 0.2341720143669E+00 -0.4358061408100E+01 -0.1938228010138E+01 -0.6895672526508E+00
 0.1751385465781E+00 -0.4370781118537E+01 -0.1971952003819E+01 -0.7453525591906E+00
 0.1095616494128E+00 -0.4378299625329E+01 -0.2006306843592E+01 -0.8002674724718E+00
 0.3725573677572E-01 -0.4379921911052E+01 -0.2041053096733E+01 -0.8536609655757E+00
-0.4190729731501E-01 -0.4374963329656E+01 -0.2075929189411E+01 -0.9048250577988E+00
-0.1279480474126E+00 -0.4362777824704E+01 -0.2110641154541E+01 -0.9529404918559E+00
-0.2207590854657E+00 -0.4342743501499E+01 -0.2144846210433E+01 -0.9970170886578E+00
-0.3201079465775E+00 -0.4314235444420E+01 -0.2178141388244E+01 -0.1035844861064E+01
-0.4256492937138E+00 -0.4276598125217E+01 -0.2210056281292E+01 -0.1067952701129E+01
-0.5369411828080E+00 -0.4229121428362E+01 -0.2240049421568E+01 -0.1091565270460E+01
-0.6534666730223E+00 -0.4171016749582E+01 -0.2267507202873E+01 -0.1104547978919E+01
-0.7746690010783E+00 -0.4101386669900E+01 -0.2291746159547E+01 -0.1104330278299E+01
-0.9000159226788E+00 -0.4019178969923E+01 -0.2312021593659E+01 -0.1087796809653E+01
-0.1029122275236E+01 -0.3923113176438E+01 -0.2327550656384E+01 -0.1051133582984E+01
-0.1161986468508E+01 -0.3811563348657E+01 -0.2337568408138E+01 -0.9896127743905E+00
-0.1299458098729E+01 -0.3682377661692E+01 -0.2341462801459E+01 -0.8972973644899E+00
-0.1444199234532E+01 -0.3532623542160E+01 -0.2339106699113E+01 -0.7666593736158E+00
-0.1602749024231E+01 -0.3358291970179E+01 -0.2331689261459E+01 -0.5881726838309E+00
-0.1790801748231E+01 -0.3154791268745E+01 -0.2324428712083E+01 -0.3504111002277E+00
-0.2038775559613E+01 -0.2915625772225E+01 -0.2328568620058E+01 -0.4303226940993E-01
 0.2532677651653E+00 -0.4505146416824E+01 -0.1998382961211E+01 -0.6123291429488E+00
 0.1924389471546E+00 -0.4536092930062E+01 -0.2041517366789E+01 -0.6655611951227E+00
 0.1241238774904E+00 -0.4563410789433E+01 -0.2086464843321E+01 -0.7181735335880E+00
 0.4794348652368E-01 -0.4586508102793E+01 -0.2133125364236E+01 -0.7695190299690E+00
-0.3646441537512E-01 -0.4604782446807E+01 -0.2181386019693E+01 -0.8188509566921E+00
-0.1294212971651E+00 -0.4617638354356E+01 -0.2231118030556E+01 -0.8652894992491E+00
-0.2312017342237E+00 -0.4624484197129E+01 -0.2282172381947E+01 -0.9077779917438E+00
-0.3420440156721E+00 -0.4624715498277E+01 -0.2334376965635E+01 -0.9450402277977E+00
-0.4621748866309E+00 -0.4617693192137E+01 -0.2387537990965E+01 -0.9755402529642E+00
-0.5918476304996E+00 -0.4602719317995E+01 -0.2441446459600E+01 -0.9974410005598E+00
-0.7313982047607E+00 -0.4579008677093E+01 -0.2495891228141E+01 -0.1008556906068E+01
-0.8813301829494E+00 -0.4545651831265E+01 -0.2550681540211E+01 -0.1006296205537E+01
-0.1042447686530E+01 -0.4501562912666E+01 -0.2605684975013E+01 -0.9875902075798E+00
-0.1216068503052E+01 -0.4445404119169E+01 -0.2660892125695E+01 -0.9488100397958E+00
-0.1404371989551E+01 -0.4375478061076E+01 -0.2716529516905E+01 -0.8856789223279E+00
-0.1610975848928E+01 -0.4289582132666E+01 -0.2773262244315E+01 -0.7932076477595E+00
-0.1841887179883E+01 -0.4184823072576E+01 -0.2832553811472E+01 -0.6657311531036E+00
-0.2107076185917E+01 -0.4057466740251E+01 -0.2897335167950E+01 -0.4972652157312E+00
-0.2421887570900E+01 -0.3902356942093E+01 -0.2972394913568E+01 -0.2827347941800E+00
-0.2805730588903E+01 -0.3711343540973E+01 -0.3063024833273E+01 -0.2050382977623E-01
 0.2694940526458E+00 -0.4637724053803E+01 -0.2053068095337E+01 -0.5275188787801E+00
 0.2066864461058E+00 -0.4685534822797E+01 -0.2105058731706E+01 -0.5769018165907E+00
 0.1354138681558E+00 -0.4731207423897E+01 -0.2160022965720E+01 -0.6258292445903E+00
 0.5507022043154E-01 -0.4774215691600E+01 -0.2217998365824E+01 -0.6736660057526E+00
-0.3497654520465E-01 -0.4814010661150E+01 -0.2279023981206E+01 -0.7196561929267E+00
-0.1353796272485E+00 -0.4850027542763E+01 -0.2343141363962E+01 -0.7628982595813E+00
-0.2468196800956E+00 -0.4881682010552E+01 -0.2410395788490E+01 -0.8023123656575E+00
-0.3700251529971E+00 -0.4908357266664E+01 -0.2480839730949E+01 -0.8366066380854E+00
-0.5058072507257E+00 -0.4929384696504E+01 -0.2554540208719E+01 -0.8642448651255E+00
-0.6551117826500E+00 -0.4944019627320E+01 -0.2631591756011E+01 -0.8834155654008E+00
-0.8190931978481E+00 -0.4951411192360E+01 -0.2712137056519E+01 -0.8920018888089E+00
-0.9992203927209E+00 -0.4950563488548E+01 -0.2796398417104E+01 -0.8875531231747E+00
-0.1197429062276E+01 -0.4940283972989E+01 -0.2884725119258E+01 -0.8672617239044E+00
-0.1416341648816E+01 -0.4919114536925E+01 -0.2977664399746E+01 -0.8279557629570E+00
-0.1659582331243E+01 -0.4885241290667E+01 -0.3076067094496E+01 -0.7661281078156E+00
-0.1932211984786E+01 -0.4836379165161E+01 -0.3181237832406E+01 -0.6780454283312E+00
-0.2241281250588E+01 -0.4769634269023E+01 -0.3295130285859E+01 -0.5600207215247E+00
-0.2596261748689E+01 -0.4681270078484E+01 -0.3420439950096E+01 -0.4089936451635E+00
-0.3008769082093E+01 -0.4566342477214E+01 -0.3560302423844E+01 -0.2235141666743E+00
-0.3491395720451E+01 -0.4418733333741E+01 -0.3717760646041E+01 -0.4879655588294E-02
 0.2827092621029E+00 -0.4754256230468E+01 -0.2101627069801E+01 -0.4362167635149E+00
 0.2178240755214E+00 -0.4817238182297E+01 -0.2161724624702E+01 -0.4806374045107E+00
 0.1434955052920E+00 -0.4879439001904E+01 -0.2225893437762E+01 -0.5247225785061E+00
 0.5888007246201E-01 -0.4940372620761E+01 -0.2294301491881E+01 -0.5678668319311E+00
-0.3693553789043E-01 -0.4999517808810E+01 -0.2367133066945E+01 -0.6093385716079E+00
-0.1449412777151E+00 -0.5056317096558E+01 -0.2444591429708E+01 -0.6482600951107E+00
-0.2662191458441E+00 -0.5110170147974E+01 -0.2526902961685E+01 -0.6835834558742E+00
-0.4019698066368E+00 -0.5160420862827E+01 -0.2614323608017E+01 -0.7140662547672E+00
-0.5535522075782E+00 -0.5206339058711E+01 -0.2707148888289E+01 -0.7382501156758E+00
-0.7225386014812E+00 -0.5247097172328E+01 -0.2805728806574E+01 -0.7544437465848E+00
-0.9107889434002E+00 -0.5281741467292E+01 -0.2910489285643E+01 -0.7607128109223E+00
-0.1120550302409E+01 -0.5309156294624E+01 -0.3021962092941E+01 -0.7548805060576E+00
-0.1354588039124E+01 -0.5328019491615E+01 -0.3140825531481E+01 -0.7345460039221E+00
-0.1616354538386E+01 -0.5336747173134E+01 -0.3267957796126E+01 -0.6971333051898E+00
-0.1910194116608E+01 -0.5333426700390E+01 -0.3404501775354E+01 -0.6399913785838E+00
-0.2241562102203E+01 -0.5315738662025E+01 -0.3551931350178E+01 -0.5605777834449E+00
-0.2617172109185E+01 -0.5280861984165E+01 -0.3712076014460E+01 -0.4567676433523E+00
-0.3044903809517E+01 -0.5225378078808E+01 -0.3887032477654E+01 -0.3273085320465E+00
-0.3533351134441E+01 -0.5145297001219E+01 -0.4078964613415E+01 -0.1723499943622E+00
-0.4090988113242E+01 -0.5036305514914E+01 -0.4289827994352E+01  0.6140709282288E-02
 0.2928415252031E+00 -0.4853443366107E+01 -0.2143482859788E+01 -0.3395242018705E+00
 0.2258780990750E+00 -0.4929643687094E+01 -0.2210769820761E+01 -0.3780622956756E+00
 0.1485384839646E+00 -0.5006252446936E+01 -0.2283125556805E+01 -0.4163694552672E+00
 0.5974868366135E-01 -0.5082806459243E+01 -0.2360837148535E+01 -0.4538944676829E+00
-0.4167570813343E-01 -0.5158793319609E+01 -0.2444220436839E+01 -0.4899660175433E+00
-0.1570432628160E+00 -0.5233645198939E+01 -0.2533623570599E+01 -0.5237770418842E+00
-0.2878069506578E+00 -0.5306729318031E+01 -0.2629432039614E+01 -0.5543677174017E+00
-0.4355926364123E+00 -0.5377334401542E+01 -0.2732075700909E+01 -0.5806100513543E+00
-0.6022371068024E+00 -0.5444653265389E+01 -0.2842038467721E+01 -0.6011968478342E+00
-0.7898369980113E+00 -0.5507761783965E+01 -0.2959871420021E+01 -0.6146378234493E+00
-0.1000810192667E+01 -0.5565594182151E+01 -0.3086210048337E+01 -0.6192662879122E+00
-0.1237970969594E+01 -0.5616914362041E+01 -0.3221796097697E+01 -0.6132612294175E+00
-0.1504618477029E+01 -0.5660283068740E+01 -0.3367503717970E+01 -0.5946918771674E+00
-0.1804633354543E+01 -0.5694021293800E+01 -0.3524367675782E+01 -0.5615947182309E+00
-0.2142567244601E+01 -0.5716171859518E+01 -0.3693607369567E+01 -0.5120957797174E+00
-0.2523689941896E+01 -0.5724462993067E+01 -0.3876631869600E+01 -0.4445912070782E+00
-0.2953936165902E+01 -0.5716286854428E+01 -0.4075004809219E+01 -0.3579891241345E+00
-0.3439698092396E+01 -0.5688730161816E+01 -0.4290361268598E+01 -0.2519860028209E+00
-0.3987444260004E+01 -0.5638698745866E+01 -0.4524287201283E+01 -0.1273084670465E+00
-0.4603244306110E+01 -0.5563177411325E+01 -0.4778218195075E+01  0.1417690595131E-01
 0.2998751193636E+00 -0.4934221060326E+01 -0.2178142586728E+01 -0.2385390816256E+00
 0.2309361164361E+00 -0.5021483800839E+01 -0.2251557405959E+01 -0.2704617060968E+00
 0.1507796628621E+00 -0.5110157863919E+01 -0.2330907748585E+01 -0.3022610881079E+00
 0.5812247565424E-01 -0.5199791778222E+01 -0.2416584566077E+01 -0.3334667152960E+00
-0.4846356743878E-01 -0.5289870755725E+01 -0.2509017125523E+01 -0.3635026308432E+00
-0.1705689618308E+00 -0.5379807157214E+01 -0.2608676769335E+01 -0.3916759799296E+00
-0.3099682382333E+00 -0.5468928930282E+01 -0.2716081662313E+01 -0.4171659126121E+00
-0.4686465662750E+00 -0.5556465735565E+01 -0.2831802774682E+01 -0.4390152897220E+00
-0.6488315775446E+00 -0.5641532971944E+01 -0.2956471330761E+01 -0.4561277979989E+00
-0.8530303227259E+00 -0.5723114127693E+01 -0.3090787883857E+01 -0.4672733444217E+00
-0.1084070711318E+01 -0.5800041961560E+01 -0.3235532948046E+01 -0.4711051475129E+00
-0.1345145536697E+01 -0.5870979165741E+01 -0.3391578601544E+01 -0.4661927541577E+00
-0.1639854642770E+01 -0.5934399586217E+01 -0.3559899478595E+01 -0.4510760735685E+00
-0.1972236267064E+01 -0.5988572029638E+01 -0.3741579889960E+01 -0.4243459100018E+00
-0.2346771567504E+01 -0.6031550371935E+01 -0.3937811301549E+01 -0.3847552609640E+00
-0.2768339207981E+01 -0.6061177458239E+01 -0.4149872822598E+01 -0.3313605909420E+00
-0.3242097317894E+01 -0.6075117154395E+01 -0.4379090790869E+01 -0.2636809961984E+00
-0.3773283219496E+01 -0.6070931870740E+01 -0.4626781080676E+01 -0.1818469666267E+00
-0.4366953847505E+01 -0.6046219786904E+01 -0.4894191595759E+01 -0.8669676584589E-01
-0.5027715057978E+01 -0.5998799227702E+01 -0.5182461701125E+01  0.2021876558757E-01
 0.3038346774282E+00 -0.4995754194449E+01 -0.2205202167406E+01 -0.1343450361231E+00
 0.2331232651888E+00 -0.5091768118632E+01 -0.2283563075326E+01 -0.1590945780832E+00
 0.1504862869826E+00 -0.5189999722303E+01 -0.2368571308593E+01 -0.1838417921373E+00
 0.5446431173285E-01 -0.5290003293293E+01 -0.2460703315092E+01 -0.2082213398649E+00
-0.5657394489889E-01 -0.5391257547983E+01 -0.2560480795160E+01 -0.2317836451981E+00
-0.1844507832611E+00 -0.5493153796769E+01 -0.2668474145846E+01 -0.2539872210045E+00
-0.3312004592673E+00 -0.5594983153333E+01 -0.2785306290858E+01 -0.2741921168414E+00
-0.4990917447175E+00 -0.5695922844802E+01 -0.2911656849689E+01 -0.2916565151446E+00
-0.6906514014631E+00 -0.5795022102234E+01 -0.3048266539006E+01 -0.3055387016369E+00
-0.9086872553724E+00 -0.5891188395962E+01 -0.3195941548021E+01 -0.3149068670619E+00
-0.1156308736561E+01 -0.5983175034538E+01 -0.3355557363905E+01 -0.3187594815189E+00
-0.1436941477751E+01 -0.6069571474876E+01 -0.3528061078786E+01 -0.3160591873714E+00
-0.1754330644151E+01 -0.6148798215131E+01 -0.3714470554442E+01 -0.3057829810914E+00
-0.2112525138843E+01 -0.6219108986240E+01 -0.3915868028857E+01 -0.2869903819024E+00
-0.2515832566686E+01 -0.6278604386636E+01 -0.4133385357578E+01 -0.2589085616946E+00
-0.2968735126961E+01 -0.6325263156029E+01 -0.4368179181926E+01 -0.2210283968003E+00
-0.3475761783882E+01 -0.6356998357418E+01 -0.4621397254690E+01 -0.1731986411909E+00
-0.4041325532297E+01 -0.6371745205674E+01 -0.4894143234433E+01 -0.1156997441425E+00
-0.4669549564217E+01 -0.6367578062199E+01 -0.5187449971258E+01 -0.4927850136964E-01
-0.5364115387851E+01 -0.6342839236439E+01 -0.5502268659460E+01  0.2486904377637E-01
 0.3047700911602E+00 -0.5037428882775E+01 -0.2224349626417E+01 -0.2800587738681E-01
 0.2325793134708E+00 -0.5139768493514E+01 -0.2306378908770E+01 -0.4518641414937E-01
 0.1479228281963E+00 -0.5244930785378E+01 -0.2395593733799E+01 -0.6250146310045E-01
 0.4920729359981E-01 -0.5352474581431E+01 -0.2492535618959E+01 -0.7971069631624E-01
-0.6535157165489E-01 -0.5461873946569E+01 -0.2597795986976E+01 -0.9651557759844E-01
-0.1977487472600E+00 -0.5572504813384E+01 -0.2712019166624E+01 -0.1125548021878E+00
-0.3502092579778E+00 -0.5683631494177E+01 -0.2835905146320E+01 -0.1274008462661E+00
-0.5252063042361E+00 -0.5794393453379E+01 -0.2970211878546E+01 -0.1405591709347E+00
-0.7254767104682E+00 -0.5903793060054E+01 -0.3115756784243E+01 -0.1514717405411E+00
-0.9540315786109E+00 -0.6010685382466E+01 -0.3273416963404E+01 -0.1595266232107E+00
-0.1214159317652E+01 -0.6113771436965E+01 -0.3444127445935E+01 -0.1640754955255E+00
-0.1509417397725E+01 -0.6211596668469E+01 -0.3628876601907E+01 -0.1644607248867E+00
-0.1843608364373E+01 -0.6302556856982E+01 -0.3828697644326E+01 -0.1600530958100E+00
-0.2220735202710E+01 -0.6384914121732E+01 -0.4044655172229E+01 -0.1502998570488E+00
-0.2644931784680E+01 -0.6456826131333E+01 -0.4277826209676E+01 -0.1347803522943E+00
-0.3120366666562E+01 -0.6516391560672E+01 -0.4529276355312E+01 -0.1132632535270E+00
-0.3651123584330E+01 -0.6561713774641E+01 -0.4800033546542E+01 -0.8575639135438E-01
-0.4241067272038E+01 -0.6590980916793E+01 -0.5091062635838E+01 -0.5253946024786E-01
-0.4893715080851E+01 -0.6602561794427E+01 -0.5403250117676E+01 -0.1417473307769E-01
-0.5612143401144E+01 -0.6595109520319E+01 -0.5737408858536E+01  0.2850086882181E-01
 0.3027433809795E+00 -0.5058845418290E+01 -0.2235367951866E+01  0.7943443378557E-01
 0.2294399724129E+00 -0.5165006126642E+01 -0.2319716086604E+01  0.7006861404011E-01
 0.1433248378248E+00 -0.5274390640423E+01 -0.2411600921104E+01  0.6041869303962E-01
 0.4271975255713E-01 -0.5386564764780E+01 -0.2511607149374E+01  0.5058646187185E-01
-0.7425583427501E-01 -0.5501004327608E+01 -0.2620372269439E+01  0.4070254226704E-01
-0.2097047852435E+00 -0.5617080650085E+01 -0.2738589147658E+01  0.3092855596115E-01
-0.3659703051724E+00 -0.5734046671991E+01 -0.2867007971995E+01  0.2145874439673E-01
-0.5456507444258E+00 -0.5851024174702E+01 -0.3006437204365E+01  0.1252004588048E-01
-0.7516092550382E+00 -0.5966992893193E+01 -0.3157743001660E+01  0.4369655386140E-02
-0.9869758325776E+00 -0.6080782788484E+01 -0.3321846543473E+01 -0.2710888807015E-02
-0.1255138717559E+01 -0.6191071117802E+01 -0.3499718613743E+01 -0.8426002884297E-02
-0.1559721800765E+01 -0.6296386286216E+01 -0.3692370791516E+01 -0.1248145282557E-01
-0.1904544776964E+01 -0.6395120722886E+01 -0.3900842775036E+01 -0.1460506017149E-01
-0.2293563642001E+01 -0.6485555071374E+01 -0.4126185784820E+01 -0.1457198954076E-01
-0.2730791021931E+01 -0.6565895579549E+01 -0.4369442691613E+01 -0.1223249236972E-01
-0.3220198760901E+01 -0.6634325409206E+01 -0.4631626348203E+01 -0.7538392978440E-02
-0.3765608322994E+01 -0.6689068320279E+01 -0.4913698009875E+01 -0.5634807052632E-03
-0.4370576720792E+01 -0.6728460459823E+01 -0.5216547461658E+01  0.8486891811342E-02
-0.5038275536235E+01 -0.6751017719621E+01 -0.5540967816198E+01  0.1927915565611E-01
-0.5771390553674E+01 -0.6755521512377E+01 -0.5887648656111E+01  0.3135462359570E-01
 0.2978197309238E+00 -0.5059812388491E+01 -0.2238136543380E+01  0.1869486353785E+00
 0.2238236037844E+00 -0.5167241869679E+01 -0.2323406579077E+01  0.1855002525166E+00
 0.1368807640664E+00 -0.5278089973163E+01 -0.2416368322147E+01  0.1836128718076E+00
 0.3528141257852E-01 -0.5391934762591E+01 -0.2517627068120E+01  0.1812434915076E+00
-0.8289033969427E-01 -0.5508263155794E+01 -0.2627842136214E+01  0.1783464415615E+00
-0.2197770635264E+00 -0.5626455615843E+01 -0.2747729352334E+01  0.1748738282918E+00
-0.3777658346013E+00 -0.5745772255402E+01 -0.2878062895002E+01  0.1707762116462E+00
-0.5595016792124E+00 -0.5865340224752E+01 -0.3019675687204E+01  0.1660030935421E+00
-0.7678948614630E+00 -0.5984143332637E+01 -0.3173457943178E+01  0.1605030583970E+00
-0.1006119432320E+01 -0.6101015197378E+01 -0.3340353267486E+01  0.1542234662724E+00
-0.1277600019138E+01 -0.6214637637684E+01 -0.3521351689775E+01  0.1471096310457E+00
-0.1585983731041E+01 -0.6323546344672E+01 -0.3717479126156E+01  0.1391034579004E+00
-0.1935094555308E+01 -0.6426146064865E+01 -0.3929783081514E+01  0.1301415961751E+00
-0.2328868979281E+01 -0.6520737390403E+01 -0.4159314983202E+01  0.1201533099979E+00
-0.2771273871958E+01 -0.6605556520341E+01 -0.4407110273203E+01  0.1090584923738E+00
-0.3266210647633E+01 -0.6678827839813E+01 -0.4674168077244E+01  0.9676652616392E-01
-0.3817412390577E+01 -0.6738826716896E+01 -0.4961432367928E+01  0.8317704834160E-01
-0.4428341583308E+01 -0.6783947144421E+01 -0.5269775688666E+01  0.6818414786733E-01
-0.5102093160205E+01 -0.6812766102711E+01 -0.5599983839367E+01  0.5168808033584E-01
-0.5841219824373E+01 -0.6824045141472E+01 -0.5952674518849E+01  0.3362387209007E-01
 0.2900624788043E+00 -0.5040344166002E+01 -0.2232632387320E+01  0.2935217296450E+00
 0.2158245375233E+00 -0.5146470594462E+01 -0.2317403640883E+01  0.2999524807613E+00
 0.1287224398660E+00 -0.5256001450227E+01 -0.2409821128758E+01  0.3057941883575E+00
 0.2707074236416E-01 -0.5368534082561E+01 -0.2510487763525E+01  0.3108603267526E+00
-0.9101825462766E-01 -0.5483576401882E+01 -0.2620059481914E+01  0.3149291750466E+00
-0.2276571013302E+00 -0.5600532668761E+01 -0.2739249184995E+01  0.3177432712225E+00
-0.3852015470120E+00 -0.5718689578206E+01 -0.2868828821576E+01  0.3190093643907E+00
-0.5662649691421E+00 -0.5837203511686E+01 -0.3009630178356E+01  0.3183994667023E+00
-0.7737271219308E+00 -0.5955089670882E+01 -0.3162543884600E+01  0.3155537287603E+00
-0.1010734771505E+01 -0.6071214320452E+01 -0.3328516064778E+01  0.3100859162701E+00
-0.1280691221099E+01 -0.6184291747785E+01 -0.3508541986477E+01  0.3015922608290E+00
-0.1587231502817E+01 -0.6292887920936E+01 -0.3703656119770E+01  0.2896643142500E+00
-0.1934180326848E+01 -0.6395433109621E+01 -0.3914918305211E+01  0.2739060550062E+00
-0.2325491020377E+01 -0.6490245758628E+01 -0.4143396275623E+01  0.2539547989612E+00
-0.2765165927812E+01 -0.6575569455441E+01 -0.4390145618994E+01  0.2295044784010E+00
-0.3257161845809E+01 -0.6649623475850E+01 -0.4656189089370E+01  0.2003288337234E+00
-0.3805287961308E+01 -0.6710665456474E+01 -0.4942498093821E+01  0.1663015097088E+00
-0.4413106172563E+01 -0.6757061206577E+01 -0.5249978654880E+01  0.1274109220186E+00
-0.5083853084738E+01 -0.6787359517051E+01 -0.5579469908689E+01  0.8377032151823E-01
-0.5820416490502E+01 -0.6800367127060E+01 -0.5931768285209E+01  0.3564768120726E-01
 0.2795304817968E+00 -0.5000661502912E+01 -0.2218931574296E+01  0.3981460846948E+00
 0.2055064731715E+00 -0.5102922196116E+01 -0.2301785383946E+01  0.4122742210311E+00
 0.1189121887518E+00 -0.5208364066444E+01 -0.2392042376448E+01  0.4256802603948E+00
 0.1814612242137E-01 -0.5316607492116E+01 -0.2490276837440E+01  0.4380418331678E+00
-0.9858824926453E-01 -0.5427190240861E+01 -0.2597115883772E+01  0.4489700663851E+00
-0.2333038730815E+00 -0.5539553597957E+01 -0.2713243004506E+01  0.4580078601057E+00
-0.3882498018247E+00 -0.5653028884267E+01 -0.2839400975261E+01  0.4646285222614E+00
-0.5659285553207E+00 -0.5766824306323E+01 -0.2976393837423E+01  0.4682364865304E+00
-0.7691098648752E+00 -0.5880012773376E+01 -0.3125087632052E+01  0.4681716649393E+00
-0.1000838662049E+01 -0.5991521624561E+01 -0.3286409326371E+01  0.4637190754429E+00
-0.1264434465523E+01 -0.6100125596297E+01 -0.3461343220276E+01  0.4541254313870E+00
-0.1563478652043E+01 -0.6204444776179E+01 -0.3650924002004E+01  0.4386242123701E+00
-0.1901785646656E+01 -0.6302949754855E+01 -0.3856225628929E+01  0.4164701261159E+00
-0.2283354263052E+01 -0.6393976701974E+01 -0.4078345543218E+01  0.3869825632235E+00
-0.2712296731309E+01 -0.6475755336551E+01 -0.4318384460941E+01  0.3495955204672E+00
-0.3192746257402E+01 -0.6546452599355E+01 -0.4577423451066E+01  0.3039087733013E+00
-0.3728748406383E+01 -0.6604232743630E+01 -0.4856501128188E+01  0.2497327543297E+00
-0.4324150187034E+01 -0.6647333422546E+01 -0.5156597283423E+01  0.1871187667227E+00
-0.4982499518065E+01 -0.6674145885496E+01 -0.5478623325778E+01  0.1163680380064E+00
-0.5707087968717E+01 -0.6683362686430E+01 -0.5823511793149E+01  0.3800379588649E-01
 0.2662726404781E+00 -0.4941193315759E+01 -0.2197212711809E+01  0.4998211405637E+00
 0.1928745330716E+00 -0.5037083155181E+01 -0.2276778046617E+01  0.5213206424556E+00
 0.1073993190582E+00 -0.5135719397220E+01 -0.2363310430742E+01  0.5419932430290E+00
 0.8382282272880E-02 -0.5236747504817E+01 -0.2457331648363E+01  0.5613941323423E+00
-0.1058225266274E+00 -0.5339740150372E+01 -0.2559414451698E+01  0.5789847245508E+00
-0.2370618994741E+00 -0.5444185026132E+01 -0.2670186048262E+01  0.5941283168262E+00
-0.3874043659145E+00 -0.5549472137931E+01 -0.2790331949730E+01  0.6060861103354E+00
-0.5591616595903E+00 -0.5654880389959E+01 -0.2920599755880E+01  0.6140157663540E+00
-0.7549098937048E+00 -0.5759563733549E+01 -0.3061802597043E+01  0.6169746745285E+00
-0.9775089905012E+00 -0.5862537438691E+01 -0.3214821813566E+01  0.6139303094353E+00
-0.1230118055620E+01 -0.5962665329062E+01 -0.3380608182226E+01  0.6037803075285E+00
-0.1516203201128E+01 -0.6058649219477E+01 -0.3560180628655E+01  0.5853849988766E+00
-0.1839532773797E+01 -0.6149022416603E+01 -0.3754620929965E+01  0.5576147662436E+00
-0.2204153206387E+01 -0.6232150047102E+01 -0.3965062519083E+01  0.5194133136313E+00
-0.2614338001041E+01 -0.6306240560664E+01 -0.4192671913367E+01  0.4698751110288E+00
-0.3074503539489E+01 -0.6369373902492E+01 -0.4438622386473E+01  0.4083307071688E+00
-0.3589091967184E+01 -0.6419553136821E+01 -0.4704063186951E+01  0.3344279186909E+00
-0.4162427172834E+01 -0.6454780263278E+01 -0.4990087482316E+01  0.2481924389153E+00
-0.4798572160544E+01 -0.6473161006018E+01 -0.5297714574847E+01  0.1500499068096E+00
-0.5501092840089E+01 -0.6472938120767E+01 -0.5627794537328E+01  0.4078362707398E-01
 0.2503385622029E+00 -0.4862579647053E+01 -0.2167753304382E+01  0.5975469280038E+00
 0.1778991882834E+00 -0.4949695570174E+01 -0.2242744293800E+01  0.6259417571017E+00
 0.9405174247233E-01 -0.5038912086392E+01 -0.2324084355748E+01  0.6534357528587E+00
-0.2488607699565E-02 -0.5129896896141E+01 -0.2412221180687E+01  0.6794807289809E+00
-0.1131655286350E+00 -0.5222257050987E+01 -0.2507648606062E+01  0.7034130664548E+00
-0.2395993343480E+00 -0.5315529726711E+01 -0.2610910652075E+01  0.7244454797527E+00
-0.3836084655831E+00 -0.5409171068536E+01 -0.2722606374130E+01  0.7416588385087E+00
-0.5472348558922E+00 -0.5502543066392E+01 -0.2843395616262E+01  0.7539962990689E+00
-0.7327731574355E+00 -0.5594898421012E+01 -0.2974005634327E+01  0.7602621893393E+00
-0.9428034955064E+00 -0.5685363462219E+01 -0.3115238462230E+01  0.7591284747499E+00
-0.1180226712618E+01 -0.5772919299041E+01 -0.3267978617191E+01  0.7491522178732E+00
-0.1448299671689E+01 -0.5856381634976E+01 -0.3433200205425E+01  0.7288081175221E+00
-0.1750665675443E+01 -0.5934380198616E+01 -0.3611971551647E+01  0.6965407163143E+00
-0.2091371197322E+01 -0.6005339879733E+01 -0.3805454196564E+01  0.6508406459093E+00
-0.2474854673244E+01 -0.6067467429535E+01 -0.4014891378123E+01  0.5903472895885E+00
-0.2905890528884E+01 -0.6118752548605E+01 -0.4241582235662E+01  0.5139746759602E+00
-0.3389471989826E+01 -0.6156994844111E+01 -0.4486839400570E+01  0.4210476057322E+00
-0.3930633641725E+01 -0.6179874811259E+01 -0.4751938960850E+01  0.3114228092178E+00
-0.4534213379608E+01 -0.6185062191059E+01 -0.5038059505435E+01  0.1855625680722E+00
-0.5204609716191E+01 -0.6170387972173E+01 -0.5346248899971E+01  0.4454678118170E-01
 0.2317952541802E+00 -0.4765673094245E+01 -0.2130922579426E+01  0.6903246752093E+00
 0.1605568161802E+00 -0.4841749779290E+01 -0.2200160687081E+01  0.7249825958333E+00
 0.7872177228467E-01 -0.4919074990243E+01 -0.2274966006670E+01  0.7586905671133E+00
-0.1478148253121E-01 -0.4997328848059E+01 -0.2355691849403E+01  0.7908207108524E+00
-0.1211529911015E+00 -0.5076145114956E+01 -0.2442730103651E+01  0.8206148912147E+00
-0.2417356951308E+00 -0.5155105407348E+01 -0.2536515311731E+01  0.8471719183046E+00
-0.3780358946299E+00 -0.5233730487276E+01 -0.2637530192806E+01  0.8694338761771E+00
-0.5317506828854E+00 -0.5311468387029E+01 -0.2746312955894E+01  0.8861737356887E+00
-0.7048034379145E+00 -0.5387679072064E+01 -0.2863466772427E+01  0.8959865688587E+00
-0.8993885836232E+00 -0.5461615211906E+01 -0.2989671776316E+01  0.8972871537113E+00
-0.1118026711648E+01 -0.5532398491918E+01 -0.3125699837748E+01  0.8883176380402E+00
-0.1363630300003E+01 -0.5598990843536E+01 -0.3272431929163E+01  0.8671702788535E+00
-0.1639577950415E+01 -0.5660160177041E+01 -0.3430876911202E+01  0.8318320775812E+00
-0.1949789860211E+01 -0.5714440747755E+01 -0.3602188376608E+01  0.7802601373003E+00
-0.2298788188115E+01 -0.5760090271174E+01 -0.3787672866259E+01  0.7104978029910E+00
-0.2691709137018E+01 -0.5795047822934E+01 -0.3988775761061E+01  0.6208395072499E+00
-0.3134229258772E+01 -0.5816913915683E+01 -0.4207037281324E+01  0.5100402018542E+00
-0.3632364817678E+01 -0.5822976864713E+01 -0.4444010579452E+01  0.3775420855185E+00
-0.4192165143554E+01 -0.5810340419654E+01 -0.4701177602783E+01  0.2236644054422E+00
-0.4819358488831E+01 -0.5776155889571E+01 -0.4979891745218E+01  0.4969723174163E-01
 0.2107407400205E+00 -0.4651542134719E+01 -0.2087176650214E+01  0.7771612279013E+00
 0.1408521265244E+00 -0.4714493260670E+01 -0.2149611327596E+01  0.8172859618930E+00
 0.6128186124981E-01 -0.4777643995048E+01 -0.2216690197263E+01  0.8564219117077E+00
-0.2880710494361E-01 -0.4840670676865E+01 -0.2288654551645E+01  0.8938875314618E+00
-0.1303427279673E+00 -0.4903218226372E+01 -0.2365773642539E+01  0.9288643429493E+00
-0.2443527524999E+00 -0.4964898305650E+01 -0.2448347991121E+01  0.9603794551214E+00
-0.3719814085411E+00 -0.5025283817437E+01 -0.2536714649776E+01  0.9872857993463E+00
-0.5145154421455E+00 -0.5083899363856E+01 -0.2631254952147E+01  0.1008241941627E+01
-0.6734214976558E+00 -0.5140207211213E+01 -0.2732405486238E+01  0.1021693258773E+01
-0.8503976677054E+00 -0.5193587975615E+01 -0.2840673245155E+01  0.1025856569204E+01
-0.1047442939539E+01 -0.5243314783026E+01 -0.2956656122106E+01  0.1018711206723E+01
-0.1266948937833E+01 -0.5288519195614E+01 -0.3081070014905E+01  0.9980012609685E+00
-0.1511818001804E+01 -0.5328146806837E+01 -0.3214783451907E+01  0.9612566331720E+00
-0.1785608772868E+01 -0.5360900380757E+01 -0.3358859293685E+01  0.9058451263335E+00
-0.2092700517356E+01 -0.5385168056926E+01 -0.3514598220999E+01  0.8290742752626E+00
-0.2438447315871E+01 -0.5398937231619E+01 -0.3683570727977E+01  0.7283688585288E+00
-0.2829233129113E+01 -0.5399686106768E+01 -0.3867592031054E+01  0.6015515089095E+00
-0.3272348295483E+01 -0.5384319072483E+01 -0.4068633652625E+01  0.4472217803899E+00
-0.3775585542475E+01 -0.5349194574732E+01 -0.4288646644210E+01  0.2651654280947E+00
-0.4346666046035E+01 -0.5290396462532E+01 -0.4529419367538E+01  0.5664637655313E-01
 0.1873189752871E+00 -0.4521474643341E+01 -0.2037053158819E+01  0.8570790722783E+00
 0.1188416270564E+00 -0.4569440912662E+01 -0.2091781658929E+01  0.9017030079983E+00
 0.4165927212476E-01 -0.4616378235721E+01 -0.2150117907437E+01  0.9452861757764E+00
-0.4482330748887E-01 -0.4661937613955E+01 -0.2212177627468E+01  0.9871187896949E+00
-0.1412492165564E+00 -0.4705752243204E+01 -0.2278090680309E+01  0.1026356556672E+01
-0.2483103037633E+00 -0.4747439986099E+01 -0.2348002630280E+01  0.1061999024856E+01
-0.3667567493927E+00 -0.4786601523801E+01 -0.2422078382258E+01  0.1092864029735E+01
-0.4974170800893E+00 -0.4822813913844E+01 -0.2500508560806E+01  0.1117559764107E+01
-0.6412309683169E+00 -0.4855619240004E+01 -0.2583519591358E+01  0.1134455408390E+01
-0.7992986256843E+00 -0.4884507523321E+01 -0.2671388883257E+01  0.1141651028459E+01
-0.9729527343868E+00 -0.4908892242696E+01 -0.2764467132217E+01  0.1136947876331E+01
-0.1163861637679E+01 -0.4928075845201E+01 -0.2863210609691E+01  0.1117821638178E+01
-0.1374175872380E+01 -0.4941201672235E+01 -0.2968227438441E+01  0.1081404161342E+01
-0.1606733157574E+01 -0.4947187656847E+01 -0.3080342774965E+01  0.1024484923019E+01
-0.1865337822291E+01 -0.4944636718044E+01 -0.3200688025840E+01  0.9435541511622E+00
-0.2155115223123E+01 -0.4931714106615E+01 -0.3330809776528E+01  0.8349283457272E+00
-0.2482904462907E+01 -0.4905988600066E+01 -0.3472779730789E+01  0.6950291723622E+00
-0.2857388054879E+01 -0.4864131755247E+01 -0.3629114301554E+01  0.5209141510699E+00
-0.3288814369067E+01 -0.4801744775756E+01 -0.3802562788422E+01  0.3110442491689E+00
-0.3787992307385E+01 -0.4713364863056E+01 -0.3995637859973E+01  0.6607467718452E-01
 0.1617350759058E+00 -0.4376979648887E+01 -0.1981164944276E+01  0.9291316746148E+00
 0.9465894367107E-01 -0.4408383014406E+01 -0.2027450308103E+01  0.9771122819689E+00
 0.1987460242941E-01 -0.4437378235122E+01 -0.2076226702100E+01  0.1023955214399E+01
-0.6297919931675E-01 -0.4463566036249E+01 -0.2127476255320E+01  0.1068943682279E+01
-0.1542659127235E+00 -0.4486539702100E+01 -0.2181178633435E+01  0.1111238126901E+01
-0.2543416404043E+00 -0.4505891826533E+01 -0.2237309723786E+01  0.1149851375596E+01
-0.3635544861709E+00 -0.4521215871742E+01 -0.2295842062396E+01  0.1183618406827E+01
-0.4822539452110E+00 -0.4532102639454E+01 -0.2356747588815E+01  0.1211162265668E+01
-0.6108119838669E+00 -0.4538132035779E+01 -0.2420003683095E+01  0.1230856162682E+01
-0.7496592487007E+00 -0.4538859791051E+01 -0.2485603942379E+01  0.1240780599536E+01
-0.8993428295155E+00 -0.4533797506427E+01 -0.2553575951416E+01  0.1238673800119E+01
-0.1060616552895E+01 -0.4522382909437E+01 -0.2624009740640E+01  0.1221873938611E+01
-0.1234581678500E+01 -0.4503935544911E+01 -0.2697103088162E+01  0.1187253053286E+01
-0.1422906808579E+01 -0.4477591541195E+01 -0.2773234217360E+01  0.1131146311974E+01
-0.1628171856767E+01 -0.4442208967971E+01 -0.2853078980391E+01  0.1049289383687E+01
-0.1854406526854E+01 -0.4396236610748E+01 -0.2937802267222E+01  0.9367984442245E+00
-0.2107893430388E+01 -0.4337523071915E+01 -0.3029345748399E+01  0.7882774381660E+00
-0.2398307972741E+01 -0.4263089958612E+01 -0.3130857019795E+01  0.5982594172270E+00
-0.2738869797296E+01 -0.4168107963958E+01 -0.3246279539556E+01  0.3623771168818E+00
-0.3145506212319E+01 -0.4045483922030E+01 -0.3379765354572E+01  0.7915492724642E-01
 0.1342691481903E+00 -0.4219784630653E+01 -0.1920192271887E+01  0.9924268211726E+00
 0.6853886878411E-01 -0.4233388133487E+01 -0.1957479149445E+01  0.1042451575796E+01
-0.3919534483892E-02 -0.4243098441331E+01 -0.1996098443570E+01  0.1091158568960E+01
-0.8325643161309E-01 -0.4248441205535E+01 -0.2035897884296E+01  0.1137837091442E+01
-0.1695795460468E+00 -0.4248940272747E+01 -0.2076704309566E+01  0.1181673979407E+01
-0.2629322754184E+00 -0.4244128634717E+01 -0.2118318622391E+01  0.1221726318970E+01
-0.3632808609476E+00 -0.4233551944231E+01 -0.2160511412954E+01  0.1256887735297E+01
-0.4705101893735E+00 -0.4216765914314E+01 -0.2203019763145E+01  0.1285850848964E+01
-0.5844277569225E+00 -0.4193329709768E+01 -0.2245546003649E+01  0.1307065330031E+01
-0.7047768748362E+00 -0.4162796117069E+01 -0.2287759300393E+01  0.1318688426288E+01
-0.8312633196464E+00 -0.4124697406632E+01 -0.2329301535443E+01  0.1318523037562E+01
-0.9636043999458E+00 -0.4078523698363E+01 -0.2369800200194E+01  0.1303936947820E+01
-0.1101617336896E+01 -0.4023688425857E+01 -0.2408893702384E+01  0.1271755371999E+01
-0.1245377979821E+01 -0.3959472760357E+01 -0.2446279841679E+01  0.1218117604021E+01
-0.1395508918980E+01 -0.3884938354651E+01 -0.2481810212312E+01  0.1138288568451E+01
-0.1553710648511E+01 -0.3798794617959E+01 -0.2515677468860E+01  0.1026421996813E+01
-0.1723779047854E+01 -0.3699223655447E+01 -0.2548811264087E+01  0.8753021247717E+00
-0.1913551562491E+01 -0.3583660991602E+01 -0.2583689893870E+01  0.6761959703559E+00
-0.2139006896934E+01 -0.3449014518848E+01 -0.2626370058756E+01  0.4194641265986E+00
-0.2423469115001E+01 -0.3287288116774E+01 -0.2684055892126E+01  0.9775798948278E-01
 0.1052848404205E+00 -0.4051825932092E+01 -0.1854874308381E+01  0.1046159711186E+01
 0.4083589834812E-01 -0.4046796332814E+01 -0.1882801399423E+01  0.1096765610228E+01
-0.2940531478941E-01 -0.4036347556949E+01 -0.1910903844870E+01  0.1145749401735E+01
-0.1054145470104E+00 -0.4019909597414E+01 -0.1938902342962E+01  0.1192407759562E+01
-0.1870848585889E+00 -0.3996912503816E+01 -0.1966478755342E+01  0.1235962470676E+01
-0.2741914622692E+00 -0.3966801618057E+01 -0.1993266742698E+01  0.1275529344789E+01
-0.3663668788966E+00 -0.3929039470159E+01 -0.2018840978936E+01  0.1310080773577E+01
-0.4630838666570E+00 -0.3883099619065E+01 -0.2042706233108E+01  0.1338407307981E+01
-0.5636414164674E+00 -0.3828457481029E+01 -0.2064286476587E+01  0.1359077412910E+01
-0.6671507050338E+00 -0.3764580806551E+01 -0.2082913805162E+01  0.1370390444184E+01
-0.7725202571728E+00 -0.3690919365449E+01 -0.2097816617311E+01  0.1370315236739E+01
-0.8784427759895E+00 -0.3606890927302E+01 -0.2108106835200E+01  0.1356404098203E+01
-0.9833907020277E+00 -0.3511858008313E+01 -0.2112766888501E+01  0.1325667984847E+01
-0.1085636495302E+01 -0.3405086398437E+01 -0.2110639754704E+01  0.1274391592315E+01
-0.1183333179057E+01 -0.3285670586984E+01 -0.2100431764712E+01  0.1197854648265E+01
-0.1274740322000E+01 -0.3152403680998E+01 -0.2080757676132E+01  0.1089904216277E+01
-0.1358812490180E+01 -0.3003560910574E+01 -0.2050315493154E+01  0.9422857317438E+00
-0.1436777720837E+01 -0.2836610334514E+01 -0.2008492380921E+01  0.7435973556708E+00
-0.1516984852858E+01 -0.2648277645008E+01 -0.1957673369032E+01  0.4777057299433E+00
-0.1633475017313E+01 -0.2439950543628E+01 -0.1914510008786E+01  0.1237533822136E+00
 0.7523013765829E-01 -0.3875226674604E+01 -0.1785998367834E+01  0.1089654811175E+01
 0.1203105665954E-01 -0.3851196939639E+01 -0.1804407960424E+01  0.1139269290638E+01
-0.5608061879188E-01 -0.3820268669880E+01 -0.1821884161055E+01  0.1186794324292E+01
-0.1289523342973E+00 -0.3781763174642E+01 -0.1838036284539E+01  0.1231522283009E+01
-0.2063162540123E+00 -0.3735007688956E+01 -0.1852422248497E+01  0.1272704544605E+01
-0.2877381607679E+00 -0.3679353084856E+01 -0.1864532880714E+01  0.1309509476384E+01
-0.3725846103358E+00 -0.3614167797360E+01 -0.1873773626864E+01  0.1340977374215E+01
-0.4599987603228E+00 -0.3538820517005E+01 -0.1879445055577E+01  0.1365981811024E+01
-0.5488745179698E+00 -0.3452662463225E+01 -0.1880722376391E+01  0.1383195508014E+01
-0.6378200399452E+00 -0.3355012992653E+01 -0.1876631520561E+01  0.1391053521859E+01
-0.7251041934743E+00 -0.3245148294113E+01 -0.1866018664433E+01  0.1387704446806E+01
-0.8085798907928E+00 -0.3122290182882E+01 -0.1847508929941E+01  0.1370938301811E+01
-0.8855766357927E+00 -0.2985590043709E+01 -0.1819448334751E+01  0.1338075463080E+01
-0.9527507367398E+00 -0.2834099652018E+01 -0.1779819678202E+01  0.1285791748834E+01
-0.1005875607449E+01 -0.2666713539338E+01 -0.1726116894612E+01  0.1209835809246E+01
-0.1039546521485E+01 -0.2482050422735E+01 -0.1655150559586E+01  0.1104555344498E+01
-0.1046765140886E+01 -0.2278196566259E+01 -0.1562731998395E+01  0.9620601912501E+00
-0.1018461294696E+01 -0.2052163206396E+01 -0.1443193511852E+01  0.7706292253825E+00
-0.9429032654902E+00 -0.1798284590021E+01 -0.1288358288822E+01  0.5113162271500E+00
-0.8156778822180E+00 -0.1509124209842E+01 -0.1092656980497E+01  0.1490154316545E+00
 0.4462549044077E-01 -0.3692261169266E+01 -0.1714388764699E+01  0.1122423418109E+01
-0.1727895090496E-01 -0.3649391193998E+01 -0.1723334963733E+01  0.1169435709305E+01
-0.8326193188328E-01 -0.3598293933071E+01 -0.1730331252140E+01  0.1213696478743E+01
-0.1530985834360E+00 -0.3538180927757E+01 -0.1734901365861E+01  0.1254475987431E+01
-0.2264172794318E+00 -0.3468297206593E+01 -0.1736515804027E+01  0.1291043240010E+01
-0.3026327926590E+00 -0.3387936630604E+01 -0.1734567624534E+01  0.1322595286950E+01
-0.3809126832091E+00 -0.3296414404656E+01 -0.1728343726913E+01  0.1348195852023E+01
-0.4601587013026E+00 -0.3193031556936E+01 -0.1716999417017E+01  0.1366734123534E+01
-0.5389812876907E+00 -0.3077044756745E+01 -0.1699532236574E+01  0.1376896309682E+01
-0.6156542894269E+00 -0.2947645577060E+01 -0.1674750933001E+01  0.1377138345982E+01
-0.6880398049277E+00 -0.2803946943551E+01 -0.1641233767622E+01  0.1365648673220E+01
-0.7534718846645E+00 -0.2644973189083E+01 -0.1597269180610E+01  0.1340290558120E+01
-0.8085803670806E+00 -0.2469649882050E+01 -0.1540768213183E+01  0.1298511471187E+01
-0.8490208262427E+00 -0.2276789440306E+01 -0.1469130821552E+01  0.1237200640267E+01
-0.8690452366719E+00 -0.2065065278257E+01 -0.1379031938519E+01  0.1152461680892E+01
-0.8607802025095E+00 -0.1832955237727E+01 -0.1266055653700E+01  0.1039236752177E+01
-0.8129209979611E+00 -0.1578597817897E+01 -0.1124013840602E+01  0.8906499931622E+00
-0.7080248180151E+00 -0.1299297765620E+01 -0.9434416119156E+00  0.6967509641545E+00
-0.5164361880465E+00 -0.9901199350974E+00 -0.7080813760817E+00  0.4418223271789E+00
-0.1676588745424E+00 -0.6292815731719E+00 -0.3745620094757E+00  0.9576038387056E-01
 0.1402973658009E-01 -0.3505306498188E+01 -0.1640900073794E+01  0.1144243331285E+01
-0.4641667385584E-01 -0.3444334494277E+01 -0.1640653044861E+01  0.1187112250751E+01
-0.1101225131204E+00 -0.3374056965649E+01 -0.1637564350868E+01  0.1226355303958E+01
-0.1768531931330E+00 -0.3293589188402E+01 -0.1631107915184E+01  0.1261224902548E+01
-0.2461830606186E+00 -0.3202173157713E+01 -0.1620727418505E+01  0.1291016117106E+01
-0.3174060211509E+00 -0.3099153216975E+01 -0.1605782837846E+01  0.1314940314105E+01
-0.3895214244859E+00 -0.2983916800508E+01 -0.1585515961726E+01  0.1332042864681E+01
-0.4612339809376E+00 -0.2855838681468E+01 -0.1559024147376E+01  0.1341162879388E+01
-0.5309393782399E+00 -0.2714247940555E+01 -0.1525238035965E+01  0.1340914809518E+01
-0.5966795587318E+00 -0.2558416269315E+01 -0.1482895035421E+01  0.1329673141305E+01
-0.6560596372852E+00 -0.2387563042568E+01 -0.1430502655903E+01  0.1305547882379E+01
-0.7061152166589E+00 -0.2200872937075E+01 -0.1366284428790E+01  0.1266343750430E+01
-0.7431102186294E+00 -0.1997527191366E+01 -0.1288099579431E+01  0.1209498516376E+01
-0.7622264342583E+00 -0.1776755072948E+01 -0.1193321305360E+01  0.1131996480614E+01
-0.7570710182124E+00 -0.1537920579277E+01 -0.1078646048084E+01  0.1030253112365E+01
-0.7188550069086E+00 -0.1280672248426E+01 -0.9397778076235E+00  0.8999694419476E+00
-0.6349303525876E+00 -0.1005208066266E+01 -0.7708650549061E+00  0.7359673656207E+00
-0.4859603029762E+00 -0.7127805214235E+00 -0.5634081860388E+00  0.5320843900492E+00
-0.2394909453365E+00 -0.4064847313321E+00 -0.3036085672642E+00  0.2814119937450E+00
 0.1661210058290E+00 -0.9572534185027E-01  0.3308596198609E-01 -0.1987997070035E-01
-0.1601677292827E-01 -0.3316778644547E+01 -0.1566413842240E+01  0.1155246271642E+01
-0.7469876572176E-01 -0.3239044399087E+01 -0.1557459283510E+01  0.1192611236062E+01
-0.1357874479543E+00 -0.3151184072707E+01 -0.1544876610792E+01  0.1225262376195E+01
-0.1991421782353E+00 -0.3052304143407E+01 -0.1528179767296E+01  0.1252507132906E+01
-0.2643000639342E+00 -0.2941786425707E+01 -0.1506860646309E+01  0.1273722125240E+01
-0.3304211874606E+00 -0.2819202284902E+01 -0.1480323028256E+01  0.1288154651670E+01
-0.3963159013695E+00 -0.2684200109631E+01 -0.1447842521498E+01  0.1294830946066E+01
-0.4604795247265E+00 -0.2536438459550E+01 -0.1408551449037E+01  0.1292536649593E+01
-0.5210917465102E+00 -0.2375568674354E+01 -0.1361430394353E+01  0.1279826698530E+01
-0.5759743708493E+00 -0.2201259439539E+01 -0.1305299887572E+01  0.1255037622693E+01
-0.6225034640693E+00 -0.2013248679112E+01 -0.1238803504153E+01  0.1216292096245E+01
-0.6574736568357E+00 -0.1811421404861E+01 -0.1160380676054E+01  0.1161496693794E+01
-0.6769021714543E+00 -0.1595920156331E+01 -0.1068226491350E+01  0.1088340878754E+01
-0.6757495277641E+00 -0.1367307929961E+01 -0.9602370026951E+00  0.9943130610354E+00
-0.6475173596530E+00 -0.1126820880666E+01 -0.8339389708346E+00  0.8767643111395E+00
-0.5836666303015E+00 -0.8767858656059E+00 -0.6864126713355E+00  0.7330841695564E+00
-0.4727836496759E+00 -0.6213601669972E+00 -0.5142475925320E+00  0.5611375444654E+00
-0.2995750582617E+00 -0.3680465225559E+00 -0.3137821421884E+00  0.3603390528031E+00
-0.4431683305542E-01 -0.1312508842768E+00 -0.8251682693684E-01  0.1345110363137E+00
 0.3023494512091E+00  0.5069990454309E-01  0.1659331967826E+00 -0.9936911028407E-01
-0.4509792153665E-01 -0.3129119701112E+01 -0.1491882278861E+01  0.1155955087776E+01
-0.1014737375309E+00 -0.3036389429196E+01 -0.1474795684621E+01  0.1186666400303E+01
-0.1594416071992E+00 -0.2932914927172E+01 -0.1453407567468E+01  0.1211396207950E+01
-0.2190163063893E+00 -0.2817934122518E+01 -0.1427366697966E+01  0.1229667349548E+01
-0.2796780709013E+00 -0.2691181307356E+01 -0.1396303904239E+01  0.1241036950913E+01
-0.3403959065554E+00 -0.2552652655680E+01 -0.1359732820802E+01  0.1244830853619E+01
-0.3997473798736E+00 -0.2402432169372E+01 -0.1317024384805E+01  0.1240080272450E+01
-0.4559949418149E+00 -0.2240619029008E+01 -0.1267408563072E+01  0.1225559969628E+01
-0.5071066873938E+00 -0.2067355116010E+01 -0.1209997044531E+01  0.1199850221994E+01
-0.5507139554085E+00 -0.1882897065315E+01 -0.1143797176839E+01  0.1161391344610E+01
-0.5840288342233E+00 -0.1687720666796E+01 -0.1067722262771E+01  0.1108529442208E+01
-0.6037266806440E+00 -0.1482649321169E+01 -0.9805967183651E+00  0.1039565930455E+01
-0.6057995830708E+00 -0.1269019727399E+01 -0.8811650736857E+00  0.9528312507759E+00
-0.5853836695028E+00 -0.1048906623789E+01 -0.7681164358991E+00  0.8468123357603E+00
-0.5365767035907E+00 -0.8254452330769E+00 -0.6401503086101E+00  0.7203819463601E+00
-0.4523016841274E+00 -0.6033156875633E+00 -0.4961401634363E+00  0.5732156272508E+00
-0.3244201650010E+00 -0.3895282977386E+00 -0.3355557766365E+00  0.4065580489532E+00
-0.1446203895613E+00 -0.1947087781536E+00 -0.1594847084215E+00  0.2246436038685E+00
 0.9122294130311E-01 -0.3597455019473E-01  0.2596674375508E-01  0.3733122072103E-01
 0.3763115444703E+00  0.6533773528849E-01  0.2075751609602E+00 -0.1371751737238E+00
-0.7268981313319E-01 -0.2944417657927E+01 -0.1418040507802E+01  0.1147092408232E+01
-0.1259843411993E+00 -0.2838609757782E+01 -0.1393359222987E+01  0.1170137679765E+01
-0.1802133834335E+00 -0.2721511807471E+01 -0.1363810836266E+01  0.1185855338029E+01
-0.2355748376121E+00 -0.2592758852597E+01 -0.1329316831027E+01  0.1194228453387E+01
-0.2913957837970E+00 -0.2452705296492E+01 -0.1289727504464E+01  0.1195102061840E+01
-0.3463743743553E+00 -0.2301966115888E+01 -0.1244720027257E+01  0.1187897001073E+01
-0.3988025575388E+00 -0.2141136649302E+01 -0.1193771424188E+01  0.1171659192760E+01
-0.4467234506950E+00 -0.1970797053211E+01 -0.1136234633954E+01  0.1145203163958E+01
-0.4879449977429E+00 -0.1791592146996E+01 -0.1071382455310E+01  0.1107240155117E+01
-0.5200062614890E+00 -0.1604367948181E+01 -0.9984558760126E+00  0.1056472539178E+01
-0.5401050264253E+00 -0.1410302797264E+01 -0.9166916748088E+00  0.9916724725797E+00
-0.5450228815669E+00 -0.1211048978752E+01 -0.8253537722567E+00  0.9117717078707E+00
-0.5310618192184E+00 -0.1008892706099E+01 -0.7237786250634E+00  0.8159880766258E+00
-0.4940190556445E+00 -0.8069475195730E+00 -0.6114542888014E+00  0.7040177750886E+00
-0.4292514601350E+00 -0.6093941936552E+00 -0.4881634560432E+00  0.5763310305965E+00
-0.3319461944817E+00 -0.4217794516394E+00 -0.3542510527784E+00  0.4346216525597E+00
-0.1978126985180E+00 -0.2513353692230E+00 -0.2110995913028E+00  0.2824663606063E+00
-0.2471375041092E-01 -0.1072270399067E+00 -0.6201217129199E-01  0.1261998147657E+00
 0.1850963145509E+00  0.8660515388407E-03  0.8740231184050E-01 -0.2447922010027E-01
 0.4246318403205E+00  0.6845145574523E-01  0.2317491485631E+00 -0.1577844903734E+00
-0.9827893583036E-01 -0.2764618392315E+01 -0.1345561740816E+01  0.1129547076824E+01
-0.1474983553932E+00 -0.2647577079582E+01 -0.1313685451107E+01  0.1143987164779E+01
-0.1973440310684E+00 -0.2518616736268E+01 -0.1276501557410E+01  0.1149860409708E+01
-0.2480993515002E+00 -0.2378231323304E+01 -0.1234375414027E+01  0.1147939775291E+01
-0.2988142288187E+00 -0.2227809295334E+01 -0.1187513053340E+01  0.1138382101447E+01
-0.3477538262431E+00 -0.2068613380335E+01 -0.1135692584211E+01  0.1120627779568E+01
-0.3929424667879E+00 -0.1901709417032E+01 -0.1078486382660E+01  0.1093700750512E+01
-0.4322509055310E+00 -0.1728014112379E+01 -0.1015324555842E+01  0.1056496868622E+01
-0.4634468413206E+00 -0.1548556018040E+01 -0.9456413415008E+00  0.1007959849194E+01
-0.4841261283169E+00 -0.1364624694718E+01 -0.8689128846224E+00  0.9471822294637E+00
-0.4916648101882E+00 -0.1177901602970E+01 -0.7846962121941E+00  0.8734905207292E+00
-0.4831952479030E+00 -0.9905678624369E+00 -0.6926686601029E+00  0.7865452821977E+00
-0.4556310504857E+00 -0.8054049308095E+00 -0.5926869097055E+00  0.6864777144598E+00
-0.4057685001041E+00 -0.6258879244237E+00 -0.4848785182983E+00  0.5740778571608E+00
-0.3305161949164E+00 -0.4562580095621E+00 -0.3697838751670E+00  0.4510433806067E+00
-0.2273270492375E+00 -0.3015209279199E+00 -0.2485585486336E+00  0.3202811370575E+00
-0.9494642128256E-01 -0.1672609436004E+00 -0.1232374611824E+00  0.1862044483211E+00
 0.6564811075670E-01 -0.5884308747241E-01  0.3198360935505E-02  0.5482354956566E-01
 0.2507717441626E+00  0.2053567805619E-01  0.1275144881194E+00 -0.6681847883301E-01
 0.4543447160988E+00  0.7185293310270E-01  0.2473128944974E+00 -0.1721292923964E+00
-0.1214824241025E+00 -0.2591664477514E+01 -0.1275179040526E+01  0.1104355637474E+01
-0.1654967894722E+00 -0.2464790732524E+01 -0.1236235132203E+01  0.1109227853236E+01
-0.2103024895528E+00 -0.2325038624333E+01 -0.1191610320504E+01  0.1104798186972E+01
-0.2562770855310E+00 -0.2175008929634E+01 -0.1142704424229E+01  0.1092892287226E+01
-0.3016528423234E+00 -0.2017155742420E+01 -0.1089840032065E+01  0.1073760020009E+01
-0.3443548831846E+00 -0.1853405457727E+01 -0.1032947357609E+01  0.1046618330885E+01
-0.3820813868057E+00 -0.1684808162924E+01 -0.9714380859089E+00  0.1010407909171E+01
-0.4127065446673E+00 -0.1512398960425E+01 -0.9047995850987E+00  0.9641764372654E+00
-0.4341028803321E+00 -0.1337380757335E+01 -0.8325973075915E+00  0.9071984741825E+00
-0.4440865750612E+00 -0.1161284663128E+01 -0.7545244800351E+00  0.8390404103044E+00
-0.4403853590217E+00 -0.9860414029357E+00 -0.6704205764195E+00  0.7596205877040E+00
-0.4206664062914E+00 -0.8140225504167E+00 -0.5803038081809E+00  0.6692905501049E+00
-0.3826261728225E+00 -0.6480538073669E+00 -0.4844195894603E+00  0.5689439148827E+00
-0.3241595694822E+00 -0.4913926005131E+00 -0.3833095189256E+00  0.4601492082551E+00
-0.2436264392772E+00 -0.3476378069716E+00 -0.2778941950321E+00  0.3452884624886E+00
-0.1402292638154E+00 -0.2205139927825E+00 -0.1695493301710E+00  0.2276562345982E+00
-0.1442462313537E-01 -0.1133947159996E+00 -0.6007508924104E-01  0.1114210263156E+00
 0.1317588584871E+00 -0.2850802288967E-01  0.4852789260769E-01  0.1284707087631E-02
 0.2946780986884E+00  0.3393682342838E-01  0.1544490130032E+00 -0.9822901126893E-01
 0.4696390321799E+00  0.7623432317633E-01  0.2565604763667E+00 -0.1836128733943E+00
-0.1421938239528E+00 -0.2427431318581E+01 -0.1207723813928E+01  0.1072417874747E+01
-0.1794812685942E+00 -0.2290364946326E+01 -0.1160827718068E+01  0.1066762932492E+01
-0.2191185109136E+00 -0.2140274892719E+01 -0.1108914896895E+01  0.1052265854734E+01
-0.2598498943093E+00 -0.1982189552722E+01 -0.1053758537432E+01  0.1031728558456E+01
-0.2999374231063E+00 -0.1820766227734E+01 -0.9967307133667E+00  0.1004613332015E+01
-0.3361628898205E+00 -0.1656639778092E+01 -0.9366172515431E+00  0.9696124907252E+00
-0.3663435851818E+00 -0.1490569032905E+01 -0.8727489282871E+00  0.9257133642020E+00
-0.3884835579867E+00 -0.1323421426519E+01 -0.8045953406770E+00  0.8722601498638E+00
-0.4007089954113E+00 -0.1156432347409E+01 -0.7318564292692E+00  0.8089606530969E+00
-0.4011724054085E+00 -0.9912126134638E+00 -0.6544209572101E+00  0.7358860025494E+00
-0.3880604163654E+00 -0.8297342604477E+00 -0.5723634966505E+00  0.6534980868455E+00
-0.3596566101483E+00 -0.6742872158859E+00 -0.4859535970035E+00  0.5627007208513E+00
-0.3144619767129E+00 -0.5274120942285E+00 -0.3956808123389E+00  0.4649048144850E+00
-0.2513683849470E+00 -0.3917912079600E+00 -0.3022850078996E+00  0.3620900400495E+00
-0.1698745591577E+00 -0.2700713441872E+00 -0.2067745740476E+00  0.2568340960001E+00
-0.7029533964547E-01 -0.1645750752439E+00 -0.1103890947180E+00  0.1522625016945E+00
 0.4610502126706E-01 -0.7690290873165E-01 -0.1447500707165E-01  0.5185550903192E-01
 0.1773035140694E+00 -0.7405581574666E-02  0.7985202807000E-01 -0.4093991838217E-01
 0.3206381696428E+00  0.4491543418469E-01  0.1718101933631E+00 -0.1233192163947E+00
 0.4724697382527E+00  0.8186636643719E-01  0.2605379685434E+00 -0.1936446312660E+00
-0.1605074844704E+00 -0.2273233064000E+01 -0.1143858054880E+01  0.1033826518127E+01
-0.1908538758566E+00 -0.2123096336575E+01 -0.1087556597084E+01  0.1017155897369E+01
-0.2222902686193E+00 -0.1959193950070E+01 -0.1025297580183E+01  0.9950069276228E+00
-0.2589664488760E+00 -0.1798954474197E+01 -0.9672228313910E+00  0.9683733908810E+00
-0.2933090832141E+00 -0.1639032321621E+01 -0.9082004579688E+00  0.9348244615556E+00
-0.3229321862453E+00 -0.1479154488623E+01 -0.8469807350400E+00  0.8931875510794E+00
-0.3457211912392E+00 -0.1319397819032E+01 -0.7826059328423E+00  0.8428678532493E+00
-0.3599661324804E+00 -0.1160577723675E+01 -0.7146556105804E+00  0.7837048847040E+00
-0.3640904864190E+00 -0.1003985275152E+01 -0.6429956063076E+00  0.7158848597522E+00
-0.3566321953943E+00 -0.8512685494919E+00 -0.5677133486566E+00  0.6399279007526E+00
-0.3362667055659E+00 -0.7043185070178E+00 -0.4890750486739E+00  0.5567062058507E+00
-0.3018839565880E+00 -0.5651694852905E+00 -0.4075151166493E+00  0.4674743410404E+00
-0.2527022037714E+00 -0.4358894251970E+00 -0.3236380647943E+00  0.3738943191689E+00
-0.1884060866790E+00 -0.3184429014042E+00 -0.2382190237949E+00  0.2780373773824E+00
-0.1092793158481E+00 -0.2145108887135E+00 -0.1521813957580E+00  0.1823404110027E+00
-0.1628931520834E-01 -0.1252746205478E+00 -0.6653504963663E-01  0.8949425875755E-01
 0.8898356357701E-01 -0.5117135619605E-01  0.1777173742398E-01  0.2250653323041E-02
 0.2044828385325E+00  0.8131861933994E-02  0.9992890896581E-01 -0.7682190188193E-01
 0.3290910798184E+00  0.5433515683425E-01  0.1802103307697E+00 -0.1456204614115E+00
 0.4625114171849E+00  0.8951077519238E-01  0.2594504297593E+00 -0.2033724573009E+00
-0.1865235734328E+00 -0.2133221740346E+01 -0.1090280294711E+01  0.9826074579190E+00
-0.1893397556030E+00 -0.1938415212276E+01 -0.1000044832366E+01  0.9647414812202E+00
-0.2207786030583E+00 -0.1780467012981E+01 -0.9405854371528E+00  0.9400319332609E+00
-0.2519134395788E+00 -0.1627171636911E+01 -0.8831699837101E+00  0.9079524099011E+00
-0.2805573887201E+00 -0.1475200460193E+01 -0.8252061868962E+00  0.8679084705896E+00
-0.3038937885369E+00 -0.1323448842703E+01 -0.7648510347426E+00  0.8198214045579E+00
-0.3200817848331E+00 -0.1172546595698E+01 -0.7015353370700E+00  0.7637843106296E+00
-0.3275869095975E+00 -0.1023729290138E+01 -0.6351186122646E+00  0.7000855269624E+00
-0.3251381326451E+00 -0.8785529927928E+00 -0.5657348275209E+00  0.6292384511795E+00
-0.3116737537783E+00 -0.7387090773433E+00 -0.4936799293750E+00  0.5520215348993E+00
-0.2863583399282E+00 -0.6059167675237E+00 -0.4193692994387E+00  0.4695082787265E+00
-0.2486359783601E+00 -0.4818317664791E+00 -0.3433198392036E+00  0.3830812246958E+00
-0.1983104460274E+00 -0.3679525837894E+00 -0.2661436233389E+00  0.2944217991017E+00
-0.1356335452392E+00 -0.2655138488813E+00 -0.1885392747584E+00  0.2054671120693E+00
-0.6137822701827E-01 -0.1753703392469E+00 -0.1112718258624E+00  0.1183268759179E+00
 0.2314231012029E-01 -0.9788604258835E-01 -0.3512955417089E-01  0.3516227015910E-01
 0.1160985532620E+00 -0.3290997791509E-01  0.3909863031388E-01 -0.4194584526324E-01
 0.2154456835001E+00  0.2027658539993E-01  0.1107894661020E+00 -0.1110921465010E+00
 0.3182378443168E+00  0.6179203824562E-01  0.1786140443513E+00 -0.1703747219933E+00
 0.4287311128639E+00  0.9563912034345E-01  0.2464540089823E+00 -0.2174785131243E+00
</DataArray>
<DataArray type="Float64" Name="S_Mises" NumberOfComponents="1" ComponentName0="S_Mises" format="ascii">
 0.2808601781291E+01
 0.2459082091923E+01
 0.2216628095465E+01
 0.2143349256555E+01
 0.2107462382106E+01
 0.2101155818475E+01
 0.2111805234035E+01
 0.2134989407883E+01
 0.2167836947620E+01
 0.2208914024877E+01
 0.2257534286967E+01
 0.2313573189245E+01
 0.2377348417701E+01
 0.2449592035473E+01
 0.2531482817984E+01
 0.2624773348629E+01
 0.2732062053345E+01
 0.2857494280917E+01
 0.3008423915034E+01
 0.3195672536340E+01
 0.3416823145908E+01
 0.3650523966733E+01
 0.3876971597244E+01
 0.4087697757408E+01
 0.4282593228034E+01
 0.4464834729885E+01
 0.4637502825884E+01
 0.4801975207261E+01
 0.4956948817852E+01
 0.5097481959668E+01
 0.5219499507977E+01
 0.5329412168221E+01
 0.5438596717150E+01
 0.5554932757763E+01
 0.5686743804130E+01
 0.5842035311460E+01
 0.6044144262980E+01
 0.6261565447224E+01
 0.6737769920423E+01
 0.6014875607807E+01
 0.1218265709972E+02
 0.2424425305987E+01
 0.2488020833535E+01
 0.2313573204771E+01
 0.2218981503645E+01
 0.2179711998499E+01
 0.2166352813027E+01
 0.2171886287075E+01
 0.2190591785388E+01
 0.2219687645168E+01
 0.2257533458876E+01
 0.2303335234529E+01
 0.2356865289787E+01
 0.2418354864985E+01
 0.2488453340128E+01
 0.2568251334538E+01
 0.2659379834692E+01
 0.2764235066443E+01
 0.2886355246704E+01
 0.3029777737086E+01
 0.3196223976521E+01
 0.3381232974650E+01
 0.3574198852532E+01
 0.3763958528460E+01
 0.3943572921798E+01
 0.4110662731844E+01
 0.4265341387152E+01
 0.4408150432457E+01
 0.4538670972817E+01
 0.4655011593089E+01
 0.4754838333782E+01
 0.4837051653901E+01
 0.4902186639840E+01
 0.4951458106927E+01
 0.4984634220033E+01
 0.4996731999642E+01
 0.4977459243791E+01
 0.4890878940473E+01
 0.4708574672310E+01
 0.4115852368266E+01
 0.3156300807701E+01
 0.1042509437034E+02
 0.2237281352342E+01
 0.2404082961131E+01
 0.2358014599909E+01
 0.2278108471262E+01
 0.2238836589535E+01
 0.2223775033274E+01
 0.2226092163931E+01
 0.2241616097040E+01
 0.2267623676883E+01
 0.2302572978300E+01
 0.2345639273289E+01
 0.2396545111608E+01
 0.2455448173644E+01
 0.2522901280916E+01
 0.2599855595242E+01
 0.2687712759217E+01
 0.2788414061310E+01
 0.2904166956279E+01
 0.3035837702584E+01
 0.3181443908243E+01
 0.3336763639040E+01
 0.3496284434169E+01
 0.3653875712328E+01
 0.3804297207324E+01
 0.3944254049597E+01
 0.4072016643053E+01
 0.4186387687082E+01
 0.4285824055511E+01
 0.4368421201324E+01
 0.4432770155281E+01
 0.4477639389154E+01
 0.4500295302999E+01
 0.4496385286989E+01
 0.4459214595428E+01
 0.4376921115171E+01
 0.4226232713241E+01
 0.3971301313877E+01
 0.3540831820734E+01
 0.2828162876550E+01
 0.3019264466772E+01
 0.9650907142112E+01
 0.2135359086988E+01
 0.2323450103227E+01
 0.2359100722306E+01
 0.2318188913359E+01
 0.2286248512351E+01
 0.2272939922179E+01
 0.2274334570902E+01
 0.2287877033677E+01
 0.2311511771554E+01
 0.2343919192887E+01
 0.2384358637567E+01
 0.2432546532081E+01
 0.2488583426766E+01
 0.2552913135549E+01
 0.2626303099377E+01
 0.2709833046701E+01
 0.2804773385809E+01
 0.2911874203495E+01
 0.3029943458713E+01
 0.3155675022988E+01
 0.3285572457155E+01
 0.3416778071589E+01
 0.3546014321893E+01
 0.3669446752656E+01
 0.3783591257796E+01
 0.3885719784906E+01
 0.3973571157974E+01
 0.4044982753013E+01
 0.4098040009307E+01
 0.4131360325904E+01
 0.4142965207899E+01
 0.4128297979431E+01
 0.4080172858134E+01
 0.3988910569081E+01
 0.3840134060219E+01
 0.3612854540205E+01
 0.3281245876702E+01
 0.2821795351846E+01
 0.2428935820513E+01
 0.3725054375500E+01
 0.8953830544325E+01
 0.2077107499752E+01
 0.2261941018753E+01
 0.2342616686173E+01
 0.2340358066510E+01
 0.2322889156702E+01
 0.2314195804055E+01
 0.2316616486753E+01
 0.2329351220424E+01
 0.2351295887735E+01
 0.2381523679670E+01
 0.2419457327869E+01
 0.2464853111813E+01
 0.2517769407747E+01
 0.2578533002955E+01
 0.2647695226268E+01
 0.2725945147159E+01
 0.2813806761731E+01
 0.2910827896667E+01
 0.3014686530907E+01
 0.3121796357586E+01
 0.3229388558333E+01
 0.3336057613959E+01
 0.3440148682936E+01
 0.3538879100337E+01
 0.3628931178781E+01
 0.3707146579090E+01
 0.3770716306407E+01
 0.3817175633873E+01
 0.3844540732530E+01
 0.3851178508677E+01
 0.3834503954938E+01
 0.3789204152766E+01
 0.3707352630744E+01
 0.3579164232654E+01
 0.3392863101429E+01
 0.3136897324548E+01
 0.2809515088993E+01
 0.2472741090470E+01
 0.2540059385824E+01
 0.4358045416494E+01
 0.8375560872855E+01
 0.2043671737618E+01
 0.2218193643766E+01
 0.2321899611562E+01
 0.2350276463072E+01
 0.2349839685039E+01
 0.2348199527737E+01
 0.2353158825509E+01
 0.2366120720619E+01
 0.2387004222406E+01
 0.2415397019847E+01
 0.2450950156096E+01
 0.2493496382973E+01
 0.2543066948703E+01
 0.2599868908605E+01
 0.2664219234442E+01
 0.2736390348225E+01
 0.2816216760631E+01
 0.2902395202830E+01
 0.2992090441857E+01
 0.3081877320191E+01
 0.3169596693708E+01
 0.3254660701979E+01
 0.3336346836546E+01
 0.3412638524235E+01
 0.3480544450059E+01
 0.3536844666584E+01
 0.3578546635157E+01
 0.3603093175702E+01
 0.3608448806446E+01
 0.3592778232165E+01
 0.3553264820209E+01
 0.3484731626637E+01
 0.3380055560199E+01
 0.3231706892747E+01
 0.3033823155521E+01
 0.2788329522665E+01
 0.2525812133295E+01
 0.2386922187169E+01
 0.2861994935547E+01
 0.4788743038499E+01
 0.7913194902391E+01
 0.2025365603930E+01
 0.2188326392046E+01
 0.2302629651111E+01
 0.2353077565737E+01
 0.2368947795523E+01
 0.2375717581102E+01
 0.2384351692308E+01
 0.2398367011406E+01
 0.2418736459043E+01
 0.2445605673177E+01
 0.2478899237079E+01
 0.2518553235554E+01
 0.2564585592047E+01
 0.2617086871238E+01
 0.2676138255391E+01
 0.2741615601538E+01
 0.2812792240599E+01
 0.2887832824033E+01
 0.2963763200376E+01
 0.3037487241669E+01
 0.3107328955326E+01
 0.3173172222340E+01
 0.3234840147527E+01
 0.3290880711672E+01
 0.3338693464001E+01
 0.3375226709489E+01
 0.3397551124343E+01
 0.3403174959482E+01
 0.3390102194466E+01
 0.3356485123356E+01
 0.3299695834308E+01
 0.3215405688621E+01
 0.3098408564777E+01
 0.2944998174253E+01
 0.2756966285911E+01
 0.2551620109141E+01
 0.2391325536959E+01
 0.2467235315958E+01
 0.3215308835671E+01
 0.5060115617118E+01
 0.7545547195027E+01
 0.2016766126377E+01
 0.2168822632664E+01
 0.2286835028676E+01
 0.2352306628517E+01
 0.2382211839236E+01
 0.2397662344146E+01
 0.2410676847432E+01
 0.2426355867898E+01
 0.2446652906239E+01
 0.2472265699834E+01
 0.2503409845499E+01
 0.2540141996698E+01
 0.2582478722604E+01
 0.2630403202707E+01
 0.2683776582945E+01
 0.2742132012158E+01
 0.2804330899853E+01
 0.2868255388559E+01
 0.2931006554733E+01
 0.2989863252409E+01
 0.3043528855145E+01
 0.3092169040290E+01
 0.3135938226827E+01
 0.3173816199577E+01
 0.3203613481416E+01
 0.3222584575045E+01
 0.3228028432696E+01
 0.3217649340663E+01
 0.3189621166513E+01
 0.3142314764368E+01
 0.3073669011772E+01
 0.2980732083929E+01
 0.2860932943067E+01
 0.2715221170573E+01
 0.2553696352467E+01
 0.2408724124861E+01
 0.2367503092153E+01
 0.2633826797202E+01
 0.3531155343927E+01
 0.5225555619198E+01
 0.7250587182624E+01
 0.2014634913511E+01
 0.2156966477634E+01
 0.2274928763084E+01
 0.2350146605595E+01
 0.2391372971744E+01
 0.2415000976826E+01
 0.2432673901661E+01
 0.2450410892426E+01
 0.2470963955322E+01
 0.2495535453882E+01
 0.2524625375830E+01
 0.2558417693649E+01
 0.2596937678724E+01
 0.2640075472838E+01
 0.2687501877118E+01
 0.2738479013236E+01
 0.2791597653866E+01
 0.2844638127918E+01
 0.2894892264753E+01
 0.2940008650372E+01
 0.2978993625202E+01
 0.3012192298553E+01
 0.3039974944565E+01
 0.3061669647350E+01
 0.3075498372025E+01
 0.3079101441760E+01
 0.3070116616273E+01
 0.3046554871140E+01
 0.3006898799713E+01
 0.2949956001378E+01
 0.2874531079932E+01
 0.2779399485392E+01
 0.2665004108071E+01
 0.2537235546539E+01
 0.2414304408956E+01
 0.2341367837553E+01
 0.2419238391073E+01
 0.2832839642956E+01
 0.3793436520817E+01
 0.5323944348250E+01
 0.7010784212880E+01
 0.2016937684356E+01
 0.2150753489068E+01
 0.2266662228466E+01
 0.2347842662781E+01
 0.2397789056172E+01
 0.2428651934232E+01
 0.2450906134864E+01
 0.2470891788416E+01
 0.2491917698758E+01
 0.2515608140797E+01
 0.2542721672677E+01
 0.2573566732378E+01
 0.2608185238123E+01
 0.2646392625841E+01
 0.2687707834832E+01
 0.2731198382763E+01
 0.2775304997425E+01
 0.2817830693761E+01
 0.2856315399189E+01
 0.2888753742479E+01
 0.2914402348324E+01
 0.2933733565535E+01
 0.2947274854267E+01
 0.2954652053625E+01
 0.2954491009150E+01
 0.2944861460258E+01
 0.2923813865395E+01
 0.2889757332512E+01
 0.2841609495406E+01
 0.2778794048337E+01
 0.2701191599466E+01
 0.2609497925696E+01
 0.2507288448157E+01
 0.2405281052789E+01
 0.2328886232665E+01
 0.2332207181143E+01
 0.2517447956672E+01
 0.3034124500338E+01
 0.4005124817457E+01
 0.5380557944499E+01
 0.6813257087871E+01
 0.2022343513501E+01
 0.2148721926094E+01
 0.2261558380394E+01
 0.2346049910680E+01
 0.2402453132580E+01
 0.2439422650027E+01
 0.2465926658765E+01
 0.2488175914615E+01
 0.2509788032575E+01
 0.2532704129503E+01
 0.2557901103896E+01
 0.2585801213843E+01
 0.2616468790778E+01
 0.2649665133527E+01
 0.2684799434505E+01
 0.2720817182088E+01
 0.2756105704201E+01
 0.2788573222703E+01
 0.2816032008114E+01
 0.2836795234034E+01
 0.2850335333158E+01
 0.2857228517415E+01
 0.2858133084267E+01
 0.2852943132819E+01
 0.2840677969815E+01
 0.2819858219307E+01
 0.2788995326009E+01
 0.2746968074242E+01
 0.2693231516624E+01
 0.2627956943480E+01
 0.2552228305656E+01
 0.2468728072516E+01
 0.2384091483532E+01
 0.2313437727066E+01
 0.2287847618135E+01
 0.2365619831026E+01
 0.2640521440292E+01
 0.3223249158988E+01
 0.4174511159625E+01
 0.5411312431269E+01
 0.6648737401579E+01
 0.2029952532544E+01
 0.2149805392193E+01
 0.2259101966892E+01
 0.2345071429096E+01
 0.2406061987047E+01
 0.2447987604961E+01
 0.2478252873935E+01
 0.2502642434511E+01
 0.2524864053202E+01
 0.2547063478276E+01
 0.2570386616938E+01
 0.2595353182530E+01
 0.2622053584550E+01
 0.2650215985232E+01
 0.2679181429668E+01
 0.2707837438826E+01
 0.2734592055525E+01
 0.2757511373023E+01
 0.2774686150837E+01
 0.2784722757550E+01
 0.2787288005143E+01
 0.2783054841931E+01
 0.2772803943700E+01
 0.2756681012751E+01
 0.2734087581702E+01
 0.2704002770027E+01
 0.2665428435592E+01
 0.2617764649227E+01
 0.2561078193542E+01
 0.2496372560091E+01
 0.2425992616350E+01
 0.2354577026789E+01
 0.2291601468781E+01
 0.2255893714858E+01
 0.2282211157030E+01
 0.2428362177850E+01
 0.2773876658445E+01
 0.3394617757369E+01
 0.4310251077445E+01
 0.5426196216249E+01
 0.6510518630427E+01
 0.2039140007031E+01
 0.2153221907780E+01
 0.2258817296031E+01
 0.2345009689203E+01
 0.2409090427908E+01
 0.2454891913554E+01
 0.2488351741082E+01
 0.2514659781323E+01
 0.2537440942225E+01
 0.2558939030264E+01
 0.2580415995051E+01
 0.2602469035439E+01
 0.2625216375680E+01
 0.2648372956639E+01
 0.2671249927873E+01
 0.2692730508725E+01
 0.2711298313006E+01
 0.2725209373553E+01
 0.2732829689829E+01
 0.2733037505730E+01
 0.2725681434591E+01
 0.2711532746181E+01
 0.2691495354357E+01
 0.2665957267483E+01
 0.2634690764680E+01
 0.2597132008569E+01
 0.2552788173073E+01
 0.2501613461476E+01
 0.2444333328036E+01
 0.2382827202124E+01
 0.2320703137890E+01
 0.2264450338961E+01
 0.2226042285991E+01
 0.2227099759083E+01
 0.2303864368736E+01
 0.2509890421628E+01
 0.2908423011705E+01
 0.3547149045430E+01
 0.4419835307813E+01
 0.5431530574648E+01
 0.6393658532367E+01
 0.2049463049656E+01
 0.2158394318401E+01
 0.2260294697627E+01
 0.2345859165756E+01
 0.2411854887786E+01
 0.2460567291281E+01
 0.2496634306555E+01
 0.2524576916900E+01
 0.2547812493959E+01
 0.2568590290610E+01
 0.2588236514860E+01
 0.2607404290612E+01
 0.2626239723936E+01
 0.2644462295203E+01
 0.2661386541401E+01
 0.2675934492711E+01
 0.2686704591081E+01
 0.2692160951523E+01
 0.2690937055118E+01
 0.2682165793303E+01
 0.2665870660939E+01
 0.2642926987530E+01
 0.2614367017600E+01
 0.2580815560092E+01
 0.2542403877270E+01
 0.2499017465615E+01
 0.2450672297708E+01
 0.2397893005142E+01
 0.2342086664626E+01
 0.2286019097129E+01
 0.2234520286710E+01
 0.2195761653561E+01
 0.2183763909251E+01
 0.2221876905769E+01
 0.2345753990080E+01
 0.2602268474241E+01
 0.3038896664580E+01
 0.3681874901276E+01
 0.4509317890308E+01
 0.5431371958773E+01
 0.6294424498392E+01
 0.2060602639098E+01
 0.2164894021623E+01
 0.2263194329056E+01
 0.2347561416588E+01
 0.2414562658200E+01
 0.2465352017376E+01
 0.2503456588688E+01
 0.2532718161262E+01
 0.2556265349204E+01
 0.2576278188990E+01
 0.2594100140791E+01
 0.2610418857779E+01
 0.2625407060330E+01
 0.2638803769290E+01
 0.2649954547384E+01
 0.2657853583668E+01
 0.2661241182650E+01
 0.2658798392234E+01
 0.2649416532077E+01
 0.2632469346287E+01
 0.2608151620930E+01
 0.2577449892509E+01
 0.2541531081313E+01
 0.2501252822852E+01
 0.2457093103040E+01
 0.2409374535735E+01
 0.2358616448137E+01
 0.2305916465123E+01
 0.2253366607852E+01
 0.2204603119583E+01
 0.2165600832830E+01
 0.2145989327959E+01
 0.2161299518487E+01
 0.2235505814425E+01
 0.2401982510988E+01
 0.2699794902919E+01
 0.3162514311233E+01
 0.3800679588813E+01
 0.4583461143853E+01
 0.5428374551847E+01
 0.6209920178265E+01
 0.2072326359490E+01
 0.2172401211236E+01
 0.2267240717906E+01
 0.2350036958561E+01
 0.2417347962208E+01
 0.2469510419675E+01
 0.2509124128215E+01
 0.2539380913334E+01
 0.2563074851191E+01
 0.2582260756855E+01
 0.2598259329101E+01
 0.2611772891649E+01
 0.2622998559852E+01
 0.2631706926685E+01
 0.2637296555249E+01
 0.2638858599110E+01
 0.2635292885350E+01
 0.2625500093250E+01
 0.2608619172031E+01
 0.2584253500646E+01
 0.2552767254349E+01
 0.2515265116581E+01
 0.2473054589390E+01
 0.2427222322107E+01
 0.2378580094373E+01
 0.2327872136556E+01
 0.2276108905614E+01
 0.2224952790834E+01
 0.2177168612848E+01
 0.2137225701499E+01
 0.2112135239894E+01
 0.2112712058393E+01
 0.2155408646125E+01
 0.2263795350280E+01
 0.2467792024370E+01
 0.2798529958109E+01
 0.3278017686571E+01
 0.3905658462228E+01
 0.4645978141691E+01
 0.5424334687788E+01
 0.6137838110529E+01
 0.2084463732467E+01
 0.2180676623156E+01
 0.2272214205498E+01
 0.2353203072534E+01
 0.2420297479773E+01
 0.2473249904507E+01
 0.2513898216031E+01
 0.2544835464922E+01
 0.2568502336730E+01
 0.2586789712812E+01
 0.2600963490052E+01
 0.2611723278324E+01
 0.2619287804469E+01
 0.2623468380408E+01
 0.2623733270138E+01
 0.2619288200198E+01
 0.2609203091515E+01
 0.2592596890096E+01
 0.2568845988656E+01
 0.2537773943606E+01
 0.2499912989560E+01
 0.2456491784899E+01
 0.2408962985642E+01
 0.2358637837713E+01
 0.2306648257783E+01
 0.2254142267949E+01
 0.2202604308800E+01
 0.2154245164168E+01
 0.2112478153151E+01
 0.2082550206177E+01
 0.2072372063669E+01
 0.2093633202232E+01
 0.2163113044725E+01
 0.2303119051660E+01
 0.2539459954764E+01
 0.2895846645641E+01
 0.3385041729236E+01
 0.3998797090489E+01
 0.4699749720552E+01
 0.5420555582233E+01
 0.6076302750651E+01
 0.2096889443280E+01
 0.2189541271469E+01
 0.2277942025885E+01
 0.2356983202387E+01
 0.2423467959081E+01
 0.2476734936646E+01
 0.2518002510119E+01
 0.2549326165728E+01
 0.2572793595417E+01
 0.2590107886385E+01
 0.2602456102365E+01
 0.2610520750438E+01
 0.2614539172672E+01
 0.2614369935367E+01
 0.2609563038691E+01
 0.2599450490637E+01
 0.2583277567805E+01
 0.2560377426949E+01
 0.2530353941539E+01
 0.2493242464145E+01
 0.2449741805969E+01
 0.2401208864602E+01
 0.2349244288798E+01
 0.2295378540173E+01
 0.2241049356700E+01
 0.2187789207046E+01
 0.2137535995685E+01
 0.2093026507959E+01
 0.2058288391163E+01
 0.2039274571319E+01
 0.2044634193548E+01
 0.2086599825223E+01
 0.2181724156240E+01
 0.2350414798861E+01
 0.2614147628615E+01
 0.2990058746606E+01
 0.3483720777540E+01
 0.4081815712073E+01
 0.4746954241854E+01
 0.5418106802295E+01
 0.6023789229685E+01
 0.2109511646411E+01
 0.2198861775229E+01
 0.2284290127633E+01
 0.2361311408150E+01
 0.2426898114135E+01
 0.2480098061335E+01
 0.2521629305772E+01
 0.2553073352117E+01
 0.2576178220975E+01
 0.2592447380824E+01
 0.2602972446452E+01
 0.2608407599543E+01
 0.2609005874856E+01
 0.2604677389379E+01
 0.2595061945041E+01
 0.2579624805390E+01
 0.2557787914216E+01
 0.2529092784648E+01
 0.2493361041711E+01
 0.2450832000536E+01
 0.2402368972927E+01
 0.2349459632974E+01
 0.2293853633362E+01
 0.2237294213069E+01
 0.2181510116975E+01
 0.2128398064126E+01
 0.2080326727716E+01
 0.2040531979846E+01
 0.2013613202103E+01
 0.2006143359384E+01
 0.2027330559761E+01
 0.2089618473947E+01
 0.2208858726274E+01
 0.2403152467645E+01
 0.2689737537076E+01
 0.3080135218132E+01
 0.3574451412012E+01
 0.4156145052746E+01
 0.4789047444775E+01
 0.5417985292270E+01
 0.5979114461545E+01
 0.2122263581167E+01
 0.2208539727148E+01
 0.2291156022507E+01
 0.2366133999989E+01
 0.2430616488495E+01
 0.2483448351043E+01
 0.2524945098706E+01
 0.2556275617158E+01
 0.2578869603460E+01
 0.2594028359702E+01
 0.2602737901008E+01
 0.2605615934473E+01
 0.2602928547108E+01
 0.2594639866643E+01
 0.2580484288750E+01
 0.2560063574804E+01
 0.2532974723443E+01
 0.2498960530347E+01
 0.2458050808220E+01
 0.2410681170098E+01
 0.2357876518240E+01
 0.2301256135745E+01
 0.2242717950683E+01
 0.2184210552311E+01
 0.2127738587003E+01
 0.2075542503273E+01
 0.2030397712325E+01
 0.1996008688412E+01
 0.1977496512403E+01
 0.1981956173317E+01
 0.2018965385684E+01
 0.2100867230705E+01
 0.2242440663699E+01
 0.2459280179088E+01
 0.2764680899461E+01
 0.3165494167856E+01
 0.3657742873064E+01
 0.4223000685113E+01
 0.4826810842660E+01
 0.5420719002986E+01
 0.5941727101870E+01
 0.2135093486729E+01
 0.2218496467782E+01
 0.2298453897934E+01
 0.2371400183678E+01
 0.2434637213350E+01
 0.2486868846109E+01
 0.2528086969528E+01
 0.2559104740178E+01
 0.2581059746669E+01
 0.2595055976545E+01
 0.2601969658298E+01
 0.2602377215148E+01
 0.2596555979670E+01
 0.2584525361070E+01
 0.2566116560606E+01
 0.2541067979908E+01
 0.2509147428024E+01
 0.2470290328148E+01
 0.2424724241406E+01
 0.2373072239919E+01
 0.2316515914819E+01
 0.2256804251052E+01
 0.2195979770907E+01
 0.2136186372206E+01
 0.2079687134428E+01
 0.2029042926293E+01
 0.1987407637086E+01
 0.1958916909758E+01
 0.1949152758639E+01
 0.1965621535309E+01
 0.2018079239320E+01
 0.2118497570810E+01
 0.2280332046802E+01
 0.2516655478367E+01
 0.2837249978497E+01
 0.3245186703603E+01
 0.3733518521461E+01
 0.4282852290611E+01
 0.4860759237989E+01
 0.5424215009686E+01
 0.5919651611679E+01
 0.2147975600468E+01
 0.2228684028751E+01
 0.2306131891749E+01
 0.2377083450609E+01
 0.2438984638973E+01
 0.2490441347432E+01
 0.2531185163155E+01
 0.2561724463020E+01
 0.2582932663468E+01
 0.2595725900240E+01
 0.2600870577421E+01
 0.2598899357225E+01
 0.2590099390381E+01
 0.2574545443325E+01
 0.2552165602757E+01
 0.2522832801655E+01
 0.2486479849068E+01
 0.2443225615738E+01
 0.2393485068730E+01
 0.2338059777606E+01
 0.2278282265812E+01
 0.2216027957450E+01
 0.2153479121968E+01
 0.2092964541063E+01
 0.2036988699910E+01
 0.1988410278847E+01
 0.1950733358872E+01
 0.1928485415064E+01
 0.1927644513364E+01
 0.1956015142300E+01
 0.2023353126533E+01
 0.2141040952335E+01
 0.2321065620276E+01
 0.2574079302877E+01
 0.2906811016483E+01
 0.3319315653396E+01
 0.3802528852429E+01
 0.4336707554514E+01
 0.4891560241135E+01
 0.5428282213017E+01
 0.5905701109995E+01
 0.2160886921654E+01
 0.2239071000170E+01
 0.2314155577082E+01
 0.2383169723305E+01
 0.2443685854642E+01
 0.2494242041888E+01
 0.2534359926703E+01
 0.2564287547441E+01
 0.2584661562087E+01
 0.2596222066854E+01
 0.2599628135646E+01
 0.2595367586567E+01
 0.2583735940010E+01
 0.2564862245979E+01
 0.2538769859495E+01
 0.2505462617676E+01
 0.2465031809236E+01
 0.2417770863368E+01
 0.2364272694148E+01
 0.2305509188641E+01
 0.2242958352436E+01
 0.2178618770568E+01
 0.2114807900065E+01
 0.2054030312956E+01
 0.1999017445037E+01
 0.1952906541024E+01
 0.1919526851188E+01
 0.1903760596701E+01
 0.1911918558004E+01
 0.1951995583973E+01
 0.2033590494196E+01
 0.2167331573908E+01
 0.2363670722234E+01
 0.2630995906160E+01
 0.2973408634201E+01
 0.3388563373809E+01
 0.3865904133438E+01
 0.4385764681414E+01
 0.4919862950277E+01
 0.5433720853222E+01
 0.5892557519010E+01
 0.2173815077211E+01
 0.2249635000995E+01
 0.2322499183142E+01
 0.2389648324362E+01
 0.2448763079754E+01
 0.2498334145419E+01
 0.2537713089097E+01
 0.2566926116309E+01
 0.2586399547004E+01
 0.2596711033990E+01
 0.2598417158049E+01
 0.2591961419623E+01
 0.2577646722764E+01
 0.2555654776171E+01
 0.2526101449199E+01
 0.2489116677141E+01
 0.2444942932692E+01
 0.2394039050526E+01
 0.2337166376491E+01
 0.2275458646045E+01
 0.2210533214365E+01
 0.2144507626054E+01
 0.2079829185017E+01
 0.2019168922913E+01
 0.1965471089636E+01
 0.1922132632323E+01
 0.1893282586407E+01
 0.1884119169062E+01
 0.1901220915843E+01
 0.1952669851968E+01
 0.2047774129471E+01
 0.2196294740907E+01
 0.2407150032466E+01
 0.2686662285773E+01
 0.3036704282126E+01
 0.3453041337498E+01
 0.3924107988651E+01
 0.4430580113360E+01
 0.4946168187538E+01
 0.5440133351686E+01
 0.5882205386178E+01
 0.2186754617781E+01
 0.2260363450934E+01
 0.2331147745666E+01
 0.2396516145318E+01
 0.2454239923105E+01
 0.2502775890464E+01
 0.2541336991188E+01
 0.2569760605821E+01
 0.2588287461470E+01
 0.2597347179564E+01
 0.2597400281841E+01
 0.2588847708334E+01
 0.2571999168806E+01
 0.2547087033335E+01
 0.2514316107071E+01
 0.2473936769420E+01
 0.2426334840656E+01
 0.2372125227960E+01
 0.2312228124956E+01
 0.2247930374078E+01
 0.2180981980786E+01
 0.2113614515946E+01
 0.2048399199152E+01
 0.1988164066712E+01
 0.1936052372532E+01
 0.1895702233259E+01
 0.1871516777311E+01
 0.1868970454272E+01
 0.1894845093505E+01
 0.1957215342502E+01
 0.2064991617534E+01
 0.2227002068215E+01
 0.2450683508947E+01
 0.2740509459978E+01
 0.3096483743061E+01
 0.3512902745341E+01
 0.3977553965269E+01
 0.4471640867179E+01
 0.4970774476647E+01
 0.5447401744697E+01
 0.5874731595416E+01
 0.2199705472668E+01
 0.2271251459275E+01
 0.2340094889283E+01
 0.2403776405174E+01
 0.2460141496608E+01
 0.2507621676818E+01
 0.2545315991292E+01
 0.2572901069632E+01
 0.2590454753159E+01
 0.2598273159188E+01
 0.2596728177177E+01
 0.2586180837363E+01
 0.2566947416053E+01
 0.2539308707324E+01
 0.2503554293531E+01
 0.2460048751528E+01
 0.2409313048928E+01
 0.2352108717550E+01
 0.2289505151164E+01
 0.2222933325746E+01
 0.2154268749903E+01
 0.2085851526369E+01
 0.2020370426669E+01
 0.1960800988104E+01
 0.1910471955324E+01
 0.1873244339870E+01
 0.1853769481189E+01
 0.1857758101587E+01
 0.1892133519354E+01
 0.1964880274963E+01
 0.2084431613574E+01
 0.2258658108946E+01
 0.2493601636287E+01
 0.2792105785466E+01
 0.3152622142901E+01
 0.3568318877729E+01
 0.4026609412955E+01
 0.4509337756689E+01
 0.4993880463805E+01
 0.5455382363191E+01
 0.5869880462458E+01
 0.2212671737719E+01
 0.2282300129042E+01
 0.2349341039708E+01
 0.2411437505112E+01
 0.2466494316160E+01
 0.2512922843491E+01
 0.2549727626312E+01
 0.2576448281627E+01
 0.2593020290618E+01
 0.2599620423589E+01
 0.2596539884155E+01
 0.2584103048678E+01
 0.2562632785161E+01
 0.2532455928561E+01
 0.2493942287118E+01
 0.2447563990865E+01
 0.2393968724007E+01
 0.2334055132809E+01
 0.2269032117191E+01
 0.2200465634016E+01
 0.2130349213312E+01
 0.2061125580276E+01
 0.1995594385651E+01
 0.1936869157216E+01
 0.1888450862323E+01
 0.1854405335678E+01
 0.1839606260223E+01
 0.1849961405495E+01
 0.1892478421136E+01
 0.1974982987617E+01
 0.2105378452101E+01
 0.2290586187795E+01
 0.2535361100391E+01
 0.2841127090487E+01
 0.3205057174893E+01
 0.3619465198348E+01
 0.4071592106525E+01
 0.4543978746509E+01
 0.5015609254442E+01
 0.5463918243510E+01
 0.5867316905872E+01
 0.2225660708400E+01
 0.2293515198744E+01
 0.2358891960425E+01
 0.2419512006974E+01
 0.2473326075500E+01
 0.2518728169657E+01
 0.2554643501217E+01
 0.2580494661752E+01
 0.2596093118755E+01
 0.2601509765713E+01
 0.2596963229598E+01
 0.2582744857525E+01
 0.2559184326190E+01
 0.2526652047050E+01
 0.2485593250691E+01
 0.2436580725207E+01
 0.2380380310285E+01
 0.2318018237443E+01
 0.2250833196711E+01
 0.2180516850969E+01
 0.2109173037093E+01
 0.2039340898130E+01
 0.1973924073679E+01
 0.1916164579623E+01
 0.1869722524903E+01
 0.1838850677641E+01
 0.1828619496902E+01
 0.1845096269880E+01
 0.1895322124276E+01
 0.1986910187787E+01
 0.2127205569720E+01
 0.2322214264608E+01
 0.2575523341464E+01
 0.2887332501177E+01
 0.3253769428984E+01
 0.3666511612542E+01
 0.4112772291967E+01
 0.4575803321373E+01
 0.5036032929856E+01
 0.5472850321116E+01
 0.5866692072649E+01
 0.2238682103172E+01
 0.2304905949343E+01
 0.2368757550270E+01
 0.2428015736290E+01
 0.2480665354851E+01
 0.2525084184047E+01
 0.2560129967028E+01
 0.2585125049500E+01
 0.2599773147976E+01
 0.2604051874695E+01
 0.2598115294172E+01
 0.2582225530731E+01
 0.2556719413025E+01
 0.2522008425555E+01
 0.2478608268474E+01
 0.2427185350577E+01
 0.2368615050002E+01
 0.2304041670778E+01
 0.2234923981906E+01
 0.2163070010213E+01
 0.2090686038731E+01
 0.2020401222593E+01
 0.1955216145333E+01
 0.1898491813121E+01
 0.1854034529463E+01
 0.1826266309035E+01
 0.1820429462699E+01
 0.1842715867502E+01
 0.1900156798294E+01
 0.2000114324761E+01
 0.2149368217407E+01
 0.2353061419332E+01
 0.2613735991229E+01
 0.2930545123012E+01
 0.3298767787952E+01
 0.3709616587097E+01
 0.4150377032559E+01
 0.4604996655055E+01
 0.5055189335725E+01
 0.5482020872561E+01
 0.5867666770757E+01
 0.2251747435038E+01
 0.2316484320694E+01
 0.2378950854324E+01
 0.2436967004579E+01
 0.2488541305829E+01
 0.2532035343138E+01
 0.2566248637078E+01
 0.2590417349508E+01
 0.2604151776810E+01
 0.2607347879918E+01
 0.2600102904510E+01
 0.2582653599211E+01
 0.2555344358457E+01
 0.2518625223423E+01
 0.2473077335409E+01
 0.2419453622882E+01
 0.2358730383762E+01
 0.2292160526579E+01
 0.2221313219130E+01
 0.2148103491844E+01
 0.2074832137471E+01
 0.2004211786889E+01
 0.1939332808546E+01
 0.1883665691780E+01
 0.1841150082816E+01
 0.1816359819053E+01
 0.1814685146878E+01
 0.1842410981789E+01
 0.1906523677997E+01
 0.2014110292239E+01
 0.2171395910887E+01
 0.2382725377717E+01
 0.2649717130750E+01
 0.2970636771687E+01
 0.3340078809943E+01
 0.3748924091786E+01
 0.4184595576613E+01
 0.4631701538612E+01
 0.5073092534816E+01
 0.5491275866019E+01
 0.5869921285714E+01
 0.2264869501193E+01
 0.2328264195002E+01
 0.2389487250363E+01
 0.2446385942054E+01
 0.2496983338618E+01
 0.2539624121680E+01
 0.2573056780281E+01
 0.2596443070132E+01
 0.2609312449596E+01
 0.2611489872729E+01
 0.2603023130617E+01
 0.2584127383236E+01
 0.2555155030805E+01
 0.2516592157175E+01
 0.2469080291670E+01
 0.2413451772833E+01
 0.2350775236197E+01
 0.2282402792877E+01
 0.2210004382835E+01
 0.2135592701822E+01
 0.2061555094104E+01
 0.1990681049707E+01
 0.1926143472569E+01
 0.1871512801748E+01
 0.1830849248308E+01
 0.1808861400642E+01
 0.1811064881259E+01
 0.1843810058522E+01
 0.1914011842169E+01
 0.2028471692046E+01
 0.2192884971905E+01
 0.2410871289221E+01
 0.2683242117900E+01
 0.3007515997673E+01
 0.3377739129811E+01
 0.3784562410086E+01
 0.4215584754783E+01
 0.4656027679630E+01
 0.5089739886097E+01
 0.5500467213859E+01
 0.5873160133408E+01
 0.2278061967733E+01
 0.2340260815385E+01
 0.2400383781445E+01
 0.2456293931563E+01
 0.2506020828524E+01
 0.2547891048027E+01
 0.2580607622661E+01
 0.2603267773893E+01
 0.2615331153035E+01
 0.2616561397597E+01
 0.2606963773315E+01
 0.2586735512738E+01
 0.2556237455407E+01
 0.2515989224527E+01
 0.2466687693385E+01
 0.2409237529206E+01
 0.2344791184569E+01
 0.2274790651914E+01
 0.2200997087667E+01
 0.2125511567195E+01
 0.2050800045017E+01
 0.1979722207246E+01
 0.1915526165996E+01
 0.1861872735318E+01
 0.1822929983579E+01
 0.1803524633684E+01
 0.1809276779714E+01
 0.1846578998015E+01
 0.1922256652077E+01
 0.2042826884202E+01
 0.2213491434074E+01
 0.2437221853921E+01
 0.2714132708487E+01
 0.3041118786822E+01
 0.3411790130005E+01
 0.3816644118868E+01
 0.4243473906558E+01
 0.4678058906793E+01
 0.5105117309736E+01
 0.5509455026769E+01
 0.5877114432937E+01
 0.2291339031834E+01
 0.2352490314421E+01
 0.2411658610138E+01
 0.2466713133197E+01
 0.2515682850746E+01
 0.2556874705952E+01
 0.2588950579633E+01
 0.2610951453860E+01
 0.2622276854232E+01
 0.2622637905703E+01
 0.2612003829021E+01
 0.2590557428345E+01
 0.2558668388351E+01
 0.2516887383156E+01
 0.2465961615924E+01
 0.2406861051838E+01
 0.2340813515875E+01
 0.2269341649112E+01
 0.2194288350787E+01
 0.2117833863104E+01
 0.2042514851563E+01
 0.1971254509750E+01
 0.1907368758742E+01
 0.1854599161877E+01
 0.1817209018100E+01
 0.1800127124477E+01
 0.1809059016873E+01
 0.1850420729588E+01
 0.1930937954230E+01
 0.2056855003289E+01
 0.2232924473802E+01
 0.2461548763505E+01
 0.2742248134248E+01
 0.3071401360750E+01
 0.3442274235787E+01
 0.3845266690737E+01
 0.4268369145324E+01
 0.4697858807146E+01
 0.5119203459525E+01
 0.5518109692934E+01
 0.5881543215915E+01
 0.2304715148657E+01
 0.2364969334041E+01
 0.2423330575776E+01
 0.2477666090611E+01
 0.2525997948981E+01
 0.2566611719052E+01
 0.2598131436776E+01
 0.2619548847958E+01
 0.2630211883331E+01
 0.2629787165984E+01
 0.2618213921602E+01
 0.2595663850843E+01
 0.2562515850802E+01
 0.2519349175067E+01
 0.2466956383926E+01
 0.2406365771729E+01
 0.2338872172497E+01
 0.2266069733276E+01
 0.2189873708945E+01
 0.2112534379213E+01
 0.2036651276647E+01
 0.1965204399541E+01
 0.1901570009918E+01
 0.1849560740468E+01
 0.1813522594058E+01
 0.1798471021065E+01
 0.1810179968560E+01
 0.1855074619106E+01
 0.1939778157729E+01
 0.2070282099181E+01
 0.2250940477305E+01
 0.2483665392756E+01
 0.2767477848916E+01
 0.3098334633182E+01
 0.3469232373103E+01
 0.3870513395527E+01
 0.4290356970290E+01
 0.4715475210802E+01
 0.5131973130891E+01
 0.5526313713444E+01
 0.5886234165460E+01
 0.2318204812885E+01
 0.2377714722618E+01
 0.2435418840311E+01
 0.2489175411619E+01
 0.2536993941330E+01
 0.2577136729719E+01
 0.2608192493288E+01
 0.2629109701587E+01
 0.2639192264407E+01
 0.2638069630704E+01
 0.2625656693820E+01
 0.2602117209470E+01
 0.2567839614426E+01
 0.2523429288605E+01
 0.2469719222279E+01
 0.2407789134605E+01
 0.2338992584415E+01
 0.2264986167495E+01
 0.2187748191476E+01
 0.2109589929247E+01
 0.2033165995645E+01
 0.1961506481584E+01
 0.1898040455951E+01
 0.1846641889640E+01
 0.1811727084866E+01
 0.1798383417857E+01
 0.1812438236970E+01
 0.1860315765062E+01
 0.1948540291515E+01
 0.2082877530289E+01
 0.2267337810164E+01
 0.2503420658827E+01
 0.2789735694233E+01
 0.3121899977301E+01
 0.3492702260871E+01
 0.3892454317169E+01
 0.4309507298484E+01
 0.4730943804659E+01
 0.5143400074036E+01
 0.5533963261607E+01
 0.5891004033168E+01
 0.2331822387138E+01
 0.2390743297893E+01
 0.2447942610582E+01
 0.2501263515416E+01
 0.2548697763773E+01
 0.2588482379554E+01
 0.2619172677011E+01
 0.2639678984884E+01
 0.2649267995867E+01
 0.2647538751695E+01
 0.2634387150883E+01
 0.2609972020104E+01
 0.2574691629445E+01
 0.2529175051498E+01
 0.2474290824007E+01
 0.2411163246535E+01
 0.2341196389133E+01
 0.2266100314391E+01
 0.2187907155665E+01
 0.2108980213426E+01
 0.2032021455225E+01
 0.1960104343727E+01
 0.1896703158366E+01
 0.1845743433877E+01
 0.1811699508464E+01
 0.1799716666420E+01
 0.1815662587789E+01
 0.1865954237792E+01
 0.1957026127926E+01
 0.2094450692724E+01
 0.2281952299613E+01
 0.2520693929093E+01
 0.2808955241913E+01
 0.3142086000166E+01
 0.3512717268518E+01
 0.3911147348571E+01
 0.4325875966540E+01
 0.4744291038314E+01
 0.5153459291374E+01
 0.5540969464721E+01
 0.5895698850914E+01
 0.2345581972086E+01
 0.2404071668042E+01
 0.2460920928944E+01
 0.2513952441850E+01
 0.2561135352684E+01
 0.2600679298009E+01
 0.2631107639853E+01
 0.2651297071892E+01
 0.2660483283943E+01
 0.2658241246785E+01
 0.2644452952615E+01
 0.2619275208366E+01
 0.2583116390316E+01
 0.2536626850958E+01
 0.2480705832599E+01
 0.2416515420758E+01
 0.2345502039958E+01
 0.2269420297893E+01
 0.2190346988568E+01
 0.2110688540303E+01
 0.2033186589395E+01
 0.1960951238583E+01
 0.1897494324844E+01
 0.1846783140363E+01
 0.1813337948885E+01
 0.1802348609818E+01
 0.1819711831533E+01
 0.1871834321757E+01
 0.1965074457170E+01
 0.2104848159602E+01
 0.2294653438796E+01
 0.2535390887777E+01
 0.2825086136632E+01
 0.3158886119233E+01
 0.3529305676475E+01
 0.3926639109792E+01
 0.4339506774352E+01
 0.4755536450036E+01
 0.5162128891594E+01
 0.5547259419449E+01
 0.5900194068616E+01
 0.2359497313434E+01
 0.2417716104408E+01
 0.2474372525038E+01
 0.2527263717773E+01
 0.2574331565716E+01
 0.2613756102493E+01
 0.2644029838451E+01
 0.2663999885457E+01
 0.2672876730298E+01
 0.2670217314406E+01
 0.2655894649939E+01
 0.2630066372313E+01
 0.2593151233960E+01
 0.2545818476859E+01
 0.2488993236365E+01
 0.2423868624972E+01
 0.2351925303581E+01
 0.2274953544245E+01
 0.2195065679958E+01
 0.2114702414971E+01
 0.2036637402017E+01
 0.1964010638004E+01
 0.1900363814968E+01
 0.1849696156536E+01
 0.1816561895732E+01
 0.1806182753500E+01
 0.1824474674540E+01
 0.1877833806184E+01
 0.1972559569246E+01
 0.2113951265701E+01
 0.2305341286328E+01
 0.2547440254278E+01
 0.2838091271307E+01
 0.3172296757688E+01
 0.3542490198050E+01
 0.3938965733482E+01
 0.4350433103320E+01
 0.4764694481456E+01
 0.5169391533275E+01
 0.5552776967881E+01
 0.5904394566318E+01
 0.2373581743221E+01
 0.2431692461404E+01
 0.2488315723627E+01
 0.2541218276689E+01
 0.2588310140046E+01
 0.2627739411610E+01
 0.2657968602805E+01
 0.2677819009616E+01
 0.2686481473374E+01
 0.2683500793581E+01
 0.2668745861085E+01
 0.2642377979365E+01
 0.2604826565390E+01
 0.2556777383878E+01
 0.2499176672195E+01
 0.2433241828139E+01
 0.2360479647705E+01
 0.2282707204830E+01
 0.2202063271066E+01
 0.2121014000509E+01
 0.2042357424827E+01
 0.1969256670797E+01
 0.1905275541846E+01
 0.1854435359231E+01
 0.1821312512700E+01
 0.1811148388426E+01
 0.1829869567016E+01
 0.1883863366688E+01
 0.1979389990379E+01
 0.2121674161405E+01
 0.2313944032976E+01
 0.2556791264165E+01
 0.2847944663601E+01
 0.3182316023050E+01
 0.3552287664013E+01
 0.3948153483650E+01
 0.4358679136710E+01
 0.4771775830116E+01
 0.5175235492529E+01
 0.5557483238828E+01
 0.5908234605646E+01
 0.2387848153386E+01
 0.2446016140979E+01
 0.2502768405662E+01
 0.2555836430061E+01
 0.2603093688529E+01
 0.2642653874048E+01
 0.2672950196232E+01
 0.2692781772370E+01
 0.2701325284861E+01
 0.2698119268977E+01
 0.2683033385886E+01
 0.2656235495170E+01
 0.2618166008473E+01
 0.2569524870801E+01
 0.2511274637594E+01
 0.2444650246388E+01
 0.2371176519079E+01
 0.2292688461950E+01
 0.2211342181130E+01
 0.2129620455748E+01
 0.2050338055057E+01
 0.1976674448414E+01
 0.1912207774417E+01
 0.1860971620123E+01
 0.1827552841131E+01
 0.1817200677925E+01
 0.1835844570896E+01
 0.1889866073469E+01
 0.1985507512188E+01
 0.2127962355388E+01
 0.2320416216723E+01
 0.2563411852596E+01
 0.2854629947880E+01
 0.3188942785449E+01
 0.3558708816515E+01
 0.3954219200739E+01
 0.4364260714555E+01
 0.4776788384769E+01
 0.5179655384275E+01
 0.5561356977737E+01
 0.5911677716827E+01
 0.2402309000552E+01
 0.2460702100014E+01
 0.2517748020784E+01
 0.2571137888983E+01
 0.2618703733547E+01
 0.2658522213929E+01
 0.2688997867755E+01
 0.2708911299306E+01
 0.2717430620655E+01
 0.2714094119229E+01
 0.2698777255565E+01
 0.2671657441542E+01
 0.2633186479233E+01
 0.2584076175056E+01
 0.2525300609953E+01
 0.2458105487945E+01
 0.2384025512763E+01
 0.2304904719352E+01
 0.2222907414612E+01
 0.2140524153261E+01
 0.2060578777413E+01
 0.1986260283892E+01
 0.1921153345777E+01
 0.1869293992752E+01
 0.1835267945093E+01
 0.1824320718967E+01
 0.1842377265903E+01
 0.1895817051629E+01
 0.1990886537175E+01
 0.2132791752049E+01
 0.2324737562132E+01
 0.2567287485847E+01
 0.2858139411017E+01
 0.3192176086871E+01
 0.3561758166032E+01
 0.3957170559237E+01
 0.4367185836804E+01
 0.4779737766612E+01
 0.5182652555408E+01
 0.5564394675511E+01
 0.5914716523552E+01
 0.2416976341893E+01
 0.2475764900426E+01
 0.2533271651008E+01
 0.2587141836321E+01
 0.2635160779128E+01
 0.2675365293452E+01
 0.2706131897584E+01
 0.2726226538209E+01
 0.2734814625682E+01
 0.2731440507241E+01
 0.2715990716332E+01
 0.2688655381811E+01
 0.2649898180344E+01
 0.2600440481663E+01
 0.2541263072845E+01
 0.2473615597483E+01
 0.2399034433651E+01
 0.2319363679087E+01
 0.2236766651143E+01
 0.2153732780084E+01
 0.2073087273305E+01
 0.1998021807086E+01
 0.1932119770567E+01
 0.1879409824449E+01
 0.1844465002668E+01
 0.1832515586063E+01
 0.1849474707450E+01
 0.1901723311469E+01
 0.1995533756128E+01
 0.2136168187144E+01
 0.2326912428485E+01
 0.2568420607338E+01
 0.2858473528934E+01
 0.3192014841423E+01
 0.3561433886109E+01
 0.3957006132842E+01
 0.4367454825947E+01
 0.4780627493235E+01
 0.5184235163596E+01
 0.5566610504722E+01
 0.5917372510690E+01
 0.2431861902672E+01
 0.2491218802857E+01
 0.2549356126756E+01
 0.2603867050483E+01
 0.2652484422273E+01
 0.2693202193286E+01
 0.2724369635538E+01
 0.2744742253862E+01
 0.2753489091321E+01
 0.2750167311009E+01
 0.2734680145438E+01
 0.2707233832486E+01
 0.2668304516131E+01
 0.2618620846399E+01
 0.2559165449629E+01
 0.2491185000603E+01
 0.2416209251247E+01
 0.2336073305908E+01
 0.2252930219572E+01
 0.2169259322565E+01
 0.2087879418621E+01
 0.2011977977372E+01
 0.1945129272587E+01
 0.1891344794748E+01
 0.1855173346269E+01
 0.1841818362859E+01
 0.1857173444105E+01
 0.1907623757852E+01
 0.1999488164204E+01
 0.2138127461782E+01
 0.2326969857716E+01
 0.2566830681068E+01
 0.2855640982895E+01
 0.3188457807492E+01
 0.3557727733973E+01
 0.3953715264754E+01
 0.4365060154200E+01
 0.4779458773053E+01
 0.5184417948334E+01
 0.5568036068916E+01
 0.5919695737503E+01
 0.2446977176882E+01
 0.2507077906057E+01
 0.2566018197644E+01
 0.2621332082978E+01
 0.2670693504677E+01
 0.2712050310604E+01
 0.2743725531068E+01
 0.2764468990950E+01
 0.2773460363150E+01
 0.2770276992882E+01
 0.2754844898001E+01
 0.2727390100080E+01
 0.2688401927404E+01
 0.2638614032862E+01
 0.2579005944314E+01
 0.2510814348541E+01
 0.2435553947867E+01
 0.2355041679283E+01
 0.2271410955885E+01
 0.2187121934706E+01
 0.2104979168933E+01
 0.2028158992339E+01
 0.1960218721164E+01
 0.1905142879346E+01
 0.1867444452142E+01
 0.1852288162713E+01
 0.1865539596207E+01
 0.1913589379158E+01
 0.2002821414757E+01
 0.2138735873205E+01
 0.2324964221408E+01
 0.2562554833181E+01
 0.2849659157330E+01
 0.3181503833891E+01
 0.3550624998843E+01
 0.3947277744415E+01
 0.4359985936002E+01
 0.4776229930543E+01
 0.5183221695031E+01
 0.5568719967478E+01
 0.5921764501695E+01
 0.2462333563346E+01
 0.2523356335383E+01
 0.2583274762133E+01
 0.2639555493295E+01
 0.2689806306712E+01
 0.2731925474515E+01
 0.2764211152969E+01
 0.2785413002359E+01
 0.2794729196377E+01
 0.2791765405362E+01
 0.2776477083667E+01
 0.2749114042958E+01
 0.2710179646557E+01
 0.2660410264200E+01
 0.2600777290556E+01
 0.2532500263958E+01
 0.2457070260872E+01
 0.2376276733218E+01
 0.2292223944552E+01
 0.2207343688685E+01
 0.2124418329946E+01
 0.2046606089633E+01
 0.1977439473349E+01
 0.1920866237332E+01
 0.1881351877652E+01
 0.1864010136745E+01
 0.1874668992022E+01
 0.1919723609057E+01
 0.2005638503311E+01
 0.2138091239996E+01
 0.2320976475029E+01
 0.2555649110837E+01
 0.2840555144448E+01
 0.3171152403961E+01
 0.3540104494193E+01
 0.3937663296467E+01
 0.4352207082954E+01
 0.4770935455937E+01
 0.5180672387501E+01
 0.5568727176067E+01
 0.5923684962676E+01
 0.2477942540571E+01
 0.2540068485327E+01
 0.2601143161748E+01
 0.2658556145928E+01
 0.2709840785991E+01
 0.2752842078196E+01
 0.2785835195819E+01
 0.2807576139084E+01
 0.2817290555759E+01
 0.2814621531521E+01
 0.2799561272606E+01
 0.2772387758870E+01
 0.2733619374275E+01
 0.2683992891104E+01
 0.2624466410357E+01
 0.2556234989089E+01
 0.2480757319814E+01
 0.2399785884073E+01
 0.2315386142514E+01
 0.2229952205538E+01
 0.2146236209845E+01
 0.2067371237620E+01
 0.1996857117331E+01
 0.1938595017576E+01
 0.1896991142766E+01
 0.1877095464624E+01
 0.1884687352364E+01
 0.1926162846249E+01
 0.2008078766065E+01
 0.2136324416276E+01
 0.2315116034041E+01
 0.2546190393963E+01
 0.2828367303043E+01
 0.3157404522597E+01
 0.3526138623765E+01
 0.3924830890695E+01
 0.4341688112752E+01
 0.4763564664282E+01
 0.5176800037051E+01
 0.5568138239422E+01
 0.5925590730426E+01
 0.2493815884741E+01
 0.2557229322484E+01
 0.2619641547220E+01
 0.2678353575340E+01
 0.2730814862561E+01
 0.2774813225537E+01
 0.2808603467962E+01
 0.2830955695640E+01
 0.2841133354688E+01
 0.2838827156539E+01
 0.2824074129161E+01
 0.2797185197780E+01
 0.2758694878050E+01
 0.2709337976256E+01
 0.2650053982237E+01
 0.2582005935431E+01
 0.2506611176819E+01
 0.2425575543653E+01
 0.2340915881680E+01
 0.2254979160166E+01
 0.2170479145954E+01
 0.2090516705891E+01
 0.2018551107577E+01
 0.1958427075261E+01
 0.1914479547249E+01
 0.1891681317892E+01
 0.1895750507638E+01
 0.1933077108490E+01
 0.2010317168275E+01
 0.2133601285400E+01
 0.2307523292959E+01
 0.2534279014157E+01
 0.2813147445850E+01
 0.3140264018721E+01
 0.3508693571152E+01
 0.3908727889649E+01
 0.4328381600735E+01
 0.4754099941631E+01
 0.5171637170105E+01
 0.5567048268974E+01
 0.5927642427779E+01
 0.2509965936908E+01
 0.2574854757981E+01
 0.2638789327129E+01
 0.2698968427680E+01
 0.2752746755018E+01
 0.2797850891616E+01
 0.2832518857258E+01
 0.2855544206942E+01
 0.2866240131585E+01
 0.2864356471629E+01
 0.2849983977513E+01
 0.2823471706596E+01
 0.2785371520403E+01
 0.2736413803602E+01
 0.2677513927270E+01
 0.2609795143120E+01
 0.2534624238010E+01
 0.2453650524699E+01
 0.2368832255946E+01
 0.2282459665044E+01
 0.2197199908144E+01
 0.2116114516259E+01
 0.2042614291293E+01
 0.1980477597964E+01
 0.1933955922595E+01
 0.1907930791628E+01
 0.1908044634262E+01
 0.1940670795276E+01
 0.2012565851343E+01
 0.2130125216836E+01
 0.2298372808239E+01
 0.2520042145447E+01
 0.2794963748548E+01
 0.3119739355131E+01
 0.3487729674269E+01
 0.3889289048774E+01
 0.4312226249547E+01
 0.4742514540288E+01
 0.5165216948986E+01
 0.5565565730041E+01
 0.5930027242976E+01
 0.2526405926300E+01
 0.2592962099722E+01
 0.2658607710362E+01
 0.2720422987110E+01
 0.2775655368325E+01
 0.2821966090431E+01
 0.2857581263456E+01
 0.2881329184750E+01
 0.2892586653738E+01
 0.2891175603793E+01
 0.2877250295629E+01
 0.2851203503729E+01
 0.2813605715017E+01
 0.2765180309969E+01
 0.2706812809232E+01
 0.2639578644788E+01
 0.2564784589183E+01
 0.2484013330260E+01
 0.2399154382103E+01
 0.2312431519438E+01
 0.2226456962954E+01
 0.2144245755679E+01
 0.2069152306023E+01
 0.2004878620850E+01
 0.1955580298590E+01
 0.1926032782402E+01
 0.1921786480617E+01
 0.1949183516652E+01
 0.2015075890116E+01
 0.2126139956804E+01
 0.2287877165880E+01
 0.2503638051295E+01
 0.2773904510817E+01
 0.3095846082439E+01
 0.3463202084252E+01
 0.3866435404073E+01
 0.4293144552106E+01
 0.4728769875702E+01
 0.5157570888504E+01
 0.5563811008702E+01
 0.5932958421179E+01
 0.2543150359799E+01
 0.2611570598587E+01
 0.2679120358035E+01
 0.2742741797796E+01
 0.2799560735381E+01
 0.2847169042997E+01
 0.2883787485318E+01
 0.2908292781828E+01
 0.2920141440354E+01
 0.2919242067858E+01
 0.2905823137940E+01
 0.2880327086215E+01
 0.2843344314116E+01
 0.2795588441656E+01
 0.2737909150202E+01
 0.2671325733814E+01
 0.2597075214322E+01
 0.2516663324085E+01
 0.2431900529925E+01
 0.2344934317020E+01
 0.2258313588521E+01
 0.2174999738374E+01
 0.2098282833702E+01
 0.2031778415723E+01
 0.1979533469598E+01
 0.1946201796181E+01
 0.1937223558330E+01
 0.1958890948520E+01
 0.2018139209359E+01
 0.2121932917898E+01
 0.2276291556861E+01
 0.2485261292932E+01
 0.2750082940699E+01
 0.3068610125109E+01
 0.3435061854203E+01
 0.3840073107567E+01
 0.4271040023591E+01
 0.4712812266599E+01
 0.5148726137224E+01
 0.5561914729520E+01
 0.5936674752114E+01
 0.2560215489431E+01
 0.2630702106623E+01
 0.2700354164723E+01
 0.2765952395464E+01
 0.2824484514849E+01
 0.2873469337800E+01
 0.2911131049679E+01
 0.2936411372735E+01
 0.2948865199644E+01
 0.2948504142589E+01
 0.2935642494175E+01
 0.2910778580172E+01
 0.2874523939006E+01
 0.2827579447599E+01
 0.2770752672159E+01
 0.2704998146417E+01
 0.2631473115413E+01
 0.2551595789512E+01
 0.2467087127468E+01
 0.2380008415550E+01
 0.2292836840658E+01
 0.2208473013689E+01
 0.2130134703994E+01
 0.2061340744060E+01
 0.2006016448944E+01
 0.1968677671285E+01
 0.1954634273647E+01
 0.1970105667804E+01
 0.2022090589884E+01
 0.2117838802792E+01
 0.2263919053433E+01
 0.2465148990673E+01
 0.2723643143791E+01
 0.3038072113628E+01
 0.3403257626786E+01
 0.3810092271294E+01
 0.4245793944653E+01
 0.4694569013185E+01
 0.5138702262664E+01
 0.5560015809308E+01
 0.5941439945689E+01
 0.2577619873368E+01
 0.2650381869458E+01
 0.2722340192221E+01
 0.2790086162164E+01
 0.2850450542750E+01
 0.2900876066875E+01
 0.2939601959478E+01
 0.2965655030430E+01
 0.2978710166124E+01
 0.2978900164732E+01
 0.2966637583798E+01
 0.2942483036584E+01
 0.2907070255566E+01
 0.2861084108832E+01
 0.2805283461560E+01
 0.2740549151896E+01
 0.2667948325705E+01
 0.2588800867066E+01
 0.2504727629601E+01
 0.2417693753791E+01
 0.2330096351537E+01
 0.2244768196788E+01
 0.2164846819890E+01
 0.2093743944143E+01
 0.2035249780722E+01
 0.1993725185595E+01
 0.1974327962777E+01
 0.1983177913377E+01
 0.2027309684726E+01
 0.2114243481678E+01
 0.2251116570322E+01
 0.2443588249649E+01
 0.2694767559665E+01
 0.3004293069610E+01
 0.3367738188620E+01
 0.3776365951534E+01
 0.4217261573052E+01
 0.4673943679946E+01
 0.5127507479982E+01
 0.5558259229241E+01
 0.5947541791600E+01
 0.2595385050588E+01
 0.2670639482315E+01
 0.2745114786504E+01
 0.2815179322384E+01
 0.2877485435596E+01
 0.2929397918850E+01
 0.2969186336875E+01
 0.2995986880287E+01
 0.3009619330651E+01
 0.3010357744473E+01
 0.2998726097419E+01
 0.2975353687746E+01
 0.2940897210673E+01
 0.2896021918859E+01
 0.2841431069318E+01
 0.2777922561605E+01
 0.2706462825894E+01
 0.2628262379721E+01
 0.2544831258003E+01
 0.2458028522137E+01
 0.2370162964267E+01
 0.2283992620893E+01
 0.2202566898796E+01
 0.2129179840304E+01
 0.2067472693502E+01
 0.2021633530244E+01
 0.1996644806897E+01
 0.1998496226525E+01
 0.2034222959828E+01
 0.2111588013571E+01
 0.2238301450686E+01
 0.2420924832376E+01
 0.2663686099150E+01
 0.2967361800764E+01
 0.3328456224842E+01
 0.3738749448228E+01
 0.4185267755624E+01
 0.4650810359052E+01
 0.5115134217064E+01
 0.5556793542406E+01
 0.5955290875195E+01
 0.2613536354490E+01
 0.2691510046427E+01
 0.2768720914523E+01
 0.2841274098609E+01
 0.2905619235531E+01
 0.2959043198648E+01
 0.2999865926019E+01
 0.3027362304283E+01
 0.3041525549970E+01
 0.3042792902050E+01
 0.3031813393345E+01
 0.3009291175911E+01
 0.2975906240497E+01
 0.2932300222790E+01
 0.2879113550196E+01
 0.2817051657292E+01
 0.2746969361705E+01
 0.2669956543107E+01
 0.2587401608858E+01
 0.2501047681293E+01
 0.2413107194236E+01
 0.2326256796702E+01
 0.2243450008049E+01
 0.2167852446320E+01
 0.2102942062930E+01
 0.2052715615200E+01
 0.2021955589970E+01
 0.2016487917369E+01
 0.2043305462588E+01
 0.2110372671934E+01
 0.2225958571700E+01
 0.2397573136327E+01
 0.2630687271194E+01
 0.2927404460691E+01
 0.3285373739906E+01
 0.3697080215176E+01
 0.4149601903532E+01
 0.4625006572874E+01
 0.5101553827283E+01
 0.5555768173348E+01
 0.5965018370759E+01
 0.2632103898999E+01
 0.2713035573128E+01
 0.2793209765829E+01
 0.2868420044477E+01
 0.2934886078330E+01
 0.2989819728935E+01
 0.3031617406242E+01
 0.3059727958471E+01
 0.3074350516810E+01
 0.3076109121690E+01
 0.3065791654202E+01
 0.3044182761479E+01
 0.3011985455570E+01
 0.2969813314853E+01
 0.2918236434939E+01
 0.2857858026563E+01
 0.2789410146716E+01
 0.2713850542243E+01
 0.2632435108208E+01
 0.2546781306755E+01
 0.2458997491265E+01
 0.2371672647315E+01
 0.2287656855550E+01
 0.2209976415001E+01
 0.2141931128567E+01
 0.2087307150812E+01
 0.2050661246641E+01
 0.2037619297505E+01
 0.2055082318415E+01
 0.2111160813852E+01
 0.2214647818260E+01
 0.2374027503428E+01
 0.2596131631069E+01
 0.2884596862198E+01
 0.3238469803811E+01
 0.3651178885309E+01
 0.4110012418993E+01
 0.4596324345467E+01
 0.5086710041872E+01
 0.5555330737660E+01
 0.5977071611894E+01
 0.2651123781421E+01
 0.2735266698237E+01
 0.2818642677508E+01
 0.2896675577481E+01
 0.2965324858390E+01
 0.3021734578578E+01
 0.3064411461787E+01
 0.3093020570533E+01
 0.3108003582884E+01
 0.3110196335393E+01
 0.3100539027711E+01
 0.3079901538741E+01
 0.3049008829247E+01
 0.3008441516403E+01
 0.2958691651793E+01
 0.2900250317636E+01
 0.2833715460439E+01
 0.2759900984935E+01
 0.2679919326303E+01
 0.2595252770957E+01
 0.2507898312844E+01
 0.2420351524232E+01
 0.2335351832506E+01
 0.2255775218960E+01
 0.2184727936987E+01
 0.2125765468874E+01
 0.2083192162397E+01
 0.2062395634048E+01
 0.2070129863941E+01
 0.2114582404588E+01
 0.2205011683895E+01
 0.2350874772304E+01
 0.2560467830602E+01
 0.2839180185856E+01
 0.3187751417375E+01
 0.3600852099541E+01
 0.4066200850733E+01
 0.4564498814868E+01
 0.5070510258377E+01
 0.5555624680700E+01
 0.5991804696351E+01
 0.2670639560296E+01
 0.2758264786779E+01
 0.2845093453018E+01
 0.2926109729046E+01
 0.2996979843669E+01
 0.3054793536853E+01
 0.3098211532862E+01
 0.3127165471578E+01
 0.3142380420889E+01
 0.3144929845366E+01
 0.3135918771614E+01
 0.3116305681239E+01
 0.3086835407610E+01
 0.3048050244874E+01
 0.3000356398969E+01
 0.2944122907123E+01
 0.2879802130474E+01
 0.2808052219065E+01
 0.2729831138559E+01
 0.2646476751009E+01
 0.2559867994800E+01
 0.2472401985905E+01
 0.2386700780345E+01
 0.2305479020086E+01
 0.2231633451565E+01
 0.2168468010846E+01
 0.2120007153320E+01
 0.2091360757632E+01
 0.2089076319590E+01
 0.2121336992205E+01
 0.2197782684108E+01
 0.2328807870829E+01
 0.2524251517549E+01
 0.2791480865614E+01
 0.3133268503665E+01
 0.3545898189570E+01
 0.4017816434947E+01
 0.4529194035534E+01
 0.5052812783949E+01
 0.5556787832989E+01
 0.6009555544774E+01
 0.2690704089368E+01
 0.2782104533543E+01
 0.2872651167692E+01
 0.2956804131764E+01
 0.3029901175121E+01
 0.3089000233224E+01
 0.3132972166290E+01
 0.3162074824647E+01
 0.3177361530666E+01
 0.3180169218397E+01
 0.3171778449597E+01
 0.3153237767127E+01
 0.3125308588710E+01
 0.3088489115674E+01
 0.3043092002970E+01
 0.2989354510217E+01
 0.2927571926594E+01
 0.2858234544882E+01
 0.2782134770736E+01
 0.2700457106591E+01
 0.2614956468918E+01
 0.2527927389086E+01
 0.2441868526162E+01
 0.2359322257679E+01
 0.2282959336734E+01
 0.2215810468245E+01
 0.2161592099796E+01
 0.2125096302684E+01
 0.2112601957050E+01
 0.2132195960374E+01
 0.2193790201952E+01
 0.2308640073662E+01
 0.2488167151633E+01
 0.2741935513820E+01
 0.3075134165904E+01
 0.3486116858738E+01
 0.3964452653638E+01
 0.4489985319114E+01
 0.5033409327519E+01
 0.5558951083640E+01
 0.6030580753268E+01
 0.2711381820107E+01
 0.2806877181508E+01
 0.2901423575273E+01
 0.2988855242560E+01
 0.3064145130277E+01
 0.3124354747373E+01
 0.3168636840343E+01
 0.3197645483547E+01
 0.3212810572501E+01
 0.3215757162460E+01
 0.3207949197122E+01
 0.3190524200558E+01
 0.3164255477613E+01
 0.3129591069361E+01
 0.3086742738440E+01
 0.3035806692835E+01
 0.2976909814457E+01
 0.2910362264334E+01
 0.2836779669690E+01
 0.2757184570503E+01
 0.2673202770406E+01
 0.2587023233058E+01
 0.2501016117767E+01
 0.2417540868147E+01
 0.2339025302133E+01
 0.2268204431254E+01
 0.2208458077068E+01
 0.2164220443018E+01
 0.2141438649186E+01
 0.2148003865738E+01
 0.2193966336705E+01
 0.2291319365248E+01
 0.2453052744271E+01
 0.2691121662988E+01
 0.3013552585304E+01
 0.3421322660817E+01
 0.3905650479715E+01
 0.4446338270513E+01
 0.5011995988330E+01
 0.5562272837959E+01
 0.6054788246646E+01
 0.2732751763943E+01
 0.2832694442758E+01
 0.2931541334610E+01
 0.3022376752892E+01
 0.3099773993541E+01
 0.3160851512813E+01
 0.3205135126376E+01
 0.3233756428491E+01
 0.3248572535804E+01
 0.3251518424135E+01
 0.3244245103719E+01
 0.3227974772349E+01
 0.3203486351410E+01
 0.3171171544816E+01
 0.3131134613487E+01
 0.3083322273127E+01
 0.3027682044810E+01
 0.2964331540050E+01
 0.2893698176911E+01
 0.2816634236336E+01
 0.2734632327454E+01
 0.2649774253034E+01
 0.2564297750864E+01
 0.2480369112493E+01
 0.2400155951068E+01
 0.2326074447580E+01
 0.2261138851178E+01
 0.2209385998665E+01
 0.2176368720682E+01
 0.2169678732806E+01
 0.2199350332053E+01
 0.2277942181436E+01
 0.2419927043273E+01
 0.2639795659351E+01
 0.2948855113260E+01
 0.3351370530778E+01
 0.3840888236853E+01
 0.4397646607807E+01
 0.4988006754878E+01
 0.5567310373212E+01
 0.6080412694430E+01
 0.2754914655774E+01
 0.2859703645352E+01
 0.2963181922007E+01
 0.3057531362861E+01
 0.3136895199850E+01
 0.3198525919803E+01
 0.3242437273141E+01
 0.3270331734169E+01
 0.3284545487422E+01
 0.3287341046465E+01
 0.3280555324354E+01
 0.3265487670116E+01
 0.3242915248491E+01
 0.3213167808513E+01
 0.3176236863997E+01
 0.3131912385733E+01
 0.3079951823363E+01
 0.3020266976067E+01
 0.2953084324186E+01
 0.2879076785586E+01
 0.2799599802456E+01
 0.2716627070166E+01
 0.2632260220587E+01
 0.2548461094372E+01
 0.2467117246186E+01
 0.2390299267348E+01
 0.2320622997604E+01
 0.2261685010149E+01
 0.2218578338817E+01
 0.2198485508170E+01
 0.2211250799112E+01
 0.2269776054298E+01
 0.2389852224331E+01
 0.2588586392447E+01
 0.2881037739376E+01
 0.3275577261410E+01
 0.3769008037639E+01
 0.4342661744430E+01
 0.4960851019149E+01
 0.5573082902029E+01
 0.6115813410010E+01
 0.2777984609625E+01
 0.2888072659802E+01
 0.2996535147812E+01
 0.3094473264619E+01
 0.3175578774422E+01
 0.3237349804261E+01
 0.3280431872731E+01
 0.3307203225275E+01
 0.3320528663181E+01
 0.3323008110694E+01
 0.3316655907803E+01
 0.3302836487243E+01
 0.3282316292909E+01
 0.3255358187148E+01
 0.3221837651281E+01
 0.3181382738716E+01
 0.3133551296511E+01
 0.3078035987036E+01
 0.3014848995037E+01
 0.2944474718013E+01
 0.2868128589978E+01
 0.2787677197130E+01
 0.2705084099499E+01
 0.2622096128028E+01
 0.2540300694289E+01
 0.2461395431023E+01
 0.2387564746163E+01
 0.2321923080375E+01
 0.2269040635223E+01
 0.2235582118497E+01
 0.2231015823153E+01
 0.2268315668888E+01
 0.2364321619970E+01
 0.2538712741837E+01
 0.2810728112847E+01
 0.3193790487095E+01
 0.3689159982777E+01
 0.4280270604691E+01
 0.4929652647449E+01
 0.5580035580215E+01
 0.6164853293478E+01
 0.2802111663597E+01
 0.2918007320745E+01
 0.3031822856637E+01
 0.3133361175981E+01
 0.3215863326475E+01
 0.3277232882706E+01
 0.3318926087984E+01
 0.3344111327531E+01
 0.3356224194534E+01
 0.3358199702279E+01
 0.3352211073691E+01
 0.3339669838553E+01
 0.3321320676657E+01
 0.3297355455327E+01
 0.3267532974802E+01
 0.3231317366820E+01
 0.3188059751613E+01
 0.3137221336112E+01
 0.3078586869239E+01
 0.3012443907769E+01
 0.2939867204596E+01
 0.2862620449706E+01
 0.2782530608723E+01
 0.2701121979845E+01
 0.2619664577736E+01
 0.2539459074958E+01
 0.2462230108961E+01
 0.2390574830603E+01
 0.2328486831001E+01
 0.2282014745520E+01
 0.2260066203269E+01
 0.2275378853048E+01
 0.2345455984944E+01
 0.2492311681552E+01
 0.2739638476527E+01
 0.3106900778159E+01
 0.3601307198565E+01
 0.4209820209745E+01
 0.4893757841802E+01
 0.5589484512916E+01
 0.6221307042271E+01
 0.2827481730818E+01
 0.2949771934645E+01
 0.3069331264116E+01
 0.3174403371034E+01
 0.3257815489774E+01
 0.3318100834571E+01
 0.3357744999364E+01
 0.3380826127628E+01
 0.3391379560862E+01
 0.3392657272836E+01
 0.3386961582039E+01
 0.3375727415590E+01
 0.3359665300837E+01
 0.3338893720294E+01
 0.3313057722188E+01
 0.3281459503475E+01
 0.3243239090730E+01
 0.3197614439457E+01
 0.3144128660196E+01
 0.3082863446749E+01
 0.3014753161238E+01
 0.2941465071189E+01
 0.2864693305288E+01
 0.2785733478751E+01
 0.2705521689127E+01
 0.2624938684511E+01
 0.2545223181294E+01
 0.2468423851089E+01
 0.2397910409081E+01
 0.2339026608715E+01
 0.2299942074781E+01
 0.2292831115784E+01
 0.2335377990877E+01
 0.2451486382067E+01
 0.2669353953701E+01
 0.3015474975889E+01
 0.3504849488955E+01
 0.4129954500549E+01
 0.4852162522701E+01
 0.5600842872633E+01
 0.6285978836973E+01
 0.2854329066967E+01
 0.2983698374984E+01
 0.3109408864583E+01
 0.3217835102356E+01
 0.3301487687940E+01
 0.3359840155936E+01
 0.3396669222537E+01
 0.3417079677732E+01
 0.3425713789721E+01
 0.3426101765136E+01
 0.3420632383427E+01
 0.3410734478405E+01
 0.3397071135780E+01
 0.3379687482075E+01
 0.3358122342654E+01
 0.3331523274337E+01
 0.3298818819664E+01
 0.3258972945047E+01
 0.3211271528878E+01
 0.3155579997854E+01
 0.3092693161884E+01
 0.3024190566620E+01
 0.2951639581205E+01
 0.2876102377305E+01
 0.2798165605646E+01
 0.2718268959366E+01
 0.2637142673711E+01
 0.2556261521801E+01
 0.2478332502526E+01
 0.2407917746250E+01
 0.2352285863539E+01
 0.2322719775401E+01
 0.2336528718269E+01
 0.2418833701019E+01
 0.2602052185411E+01
 0.2920550867459E+01
 0.3399307359224E+01
 0.4039079149344E+01
 0.4803228383329E+01
 0.5613205000702E+01
 0.6360102229929E+01
 0.2882951502756E+01
 0.3020206205959E+01
 0.3152479795825E+01
 0.3263916096000E+01
 0.3346904208615E+01
 0.3402282897697E+01
 0.3435424498625E+01
 0.3452561209344E+01
 0.3458916556230E+01
 0.3458234751351E+01
 0.3452934578846E+01
 0.3444403910978E+01
 0.3433244844655E+01
 0.3419432326034E+01
 0.3402412163186E+01
 0.3381191441395E+01
 0.3354492459814E+01
 0.3321016417999E+01
 0.3279774680110E+01
 0.3230403684280E+01
 0.3173559367135E+01
 0.3110744196540E+01
 0.3043406980161E+01
 0.2972372875323E+01
 0.2897864725466E+01
 0.2819862807109E+01
 0.2738571681728E+01
 0.2654875008321E+01
 0.2570789328710E+01
 0.2490033286862E+01
 0.2418831417017E+01
 0.2367263549257E+01
 0.2351669541288E+01
 0.2397501791312E+01
 0.2540662615413E+01
 0.2823856844218E+01
 0.3284480192081E+01
 0.3935303816785E+01
 0.4744633639647E+01
 0.5625513735091E+01
 0.6445247405720E+01
 0.2913731779459E+01
 0.3059829998001E+01
 0.3199059291717E+01
 0.3312923053361E+01
 0.3394040121994E+01
 0.3445186793824E+01
 0.3473669940218E+01
 0.3486912831588E+01
 0.3490648281252E+01
 0.3488740522471E+01
 0.3483568190472E+01
 0.3476439003055E+01
 0.3467881092709E+01
 0.3457806216437E+01
 0.3445587073271E+01
 0.3430113110005E+01
 0.3409913471192E+01
 0.3383421250750E+01
 0.3349354186928E+01
 0.3307103463560E+01
 0.3257185535870E+01
 0.3201037712130E+01
 0.3139999968735E+01
 0.3074657538264E+01
 0.3004856333642E+01
 0.2930102705739E+01
 0.2850065850600E+01
 0.2765032360825E+01
 0.2676315353773E+01
 0.2586746690526E+01
 0.2501388476230E+01
 0.2428836585631E+01
 0.2383870534537E+01
 0.2391227514300E+01
 0.2489037251676E+01
 0.2728113987834E+01
 0.3160700649728E+01
 0.3816477110404E+01
 0.4673325995537E+01
 0.5636423941495E+01
 0.6543357888463E+01
 0.2947168072718E+01
 0.3103256832474E+01
 0.3249770607795E+01
 0.3365133437756E+01
 0.3442790071753E+01
 0.3488210101561E+01
 0.3510985556299E+01
 0.3519726445330E+01
 0.3520541664671E+01
 0.3517289330449E+01
 0.3512225837772E+01
 0.3506537032905E+01
 0.3500665652909E+01
 0.3494471559729E+01
 0.3487281764705E+01
 0.3477901500595E+01
 0.3464690609319E+01
 0.3445814549325E+01
 0.3419676737357E+01
 0.3385401765133E+01
 0.3343362997629E+01
 0.3294944499667E+01
 0.3241387468386E+01
 0.3183033949731E+01
 0.3119340994832E+01
 0.3049331671894E+01
 0.2972140086585E+01
 0.2887464619781E+01
 0.2795921456951E+01
 0.2699436189837E+01
 0.2601820083990E+01
 0.2509946013073E+01
 0.2436485705861E+01
 0.2404343195260E+01
 0.2452110937018E+01
 0.2637428696588E+01
 0.3029255856247E+01
 0.3680341066925E+01
 0.4585366834868E+01
 0.5644050538183E+01
 0.6656852157109E+01
 0.2983918705919E+01
 0.3151378365755E+01
 0.3305361457507E+01
 0.3420794421934E+01
 0.3492923072764E+01
 0.3530880985995E+01
 0.3546860333868E+01
 0.3550542890858E+01
 0.3548205134349E+01
 0.3543541961436E+01
 0.3538597382555E+01
 0.3534393699420E+01
 0.3531279411563E+01
 0.3529078239491E+01
 0.3527106793020E+01
 0.3524131974182E+01
 0.3518382661908E+01
 0.3507766668269E+01
 0.3490351854817E+01
 0.3464968044164E+01
 0.3431836378108E+01
 0.3392297355994E+01
 0.3347501563403E+01
 0.3297542539533E+01
 0.3241477636066E+01
 0.3177844132875E+01
 0.3105254100755E+01
 0.3022845105294E+01
 0.2930567712849E+01
 0.2829452687199E+01
 0.2722009430765E+01
 0.2613199883371E+01
 0.2513115989565E+01
 0.2441746793053E+01
 0.2436015375368E+01
 0.2557766272387E+01
 0.2893058467590E+01
 0.3524865557300E+01
 0.4475696192694E+01
 0.5645598292286E+01
 0.6788801833013E+01
 0.3024869403004E+01
 0.3205363785091E+01
 0.3366715115777E+01
 0.3480066996167E+01
 0.3544018696637E+01
 0.3572562484092E+01
 0.3580683106394E+01
 0.3578854605658E+01
 0.3573228668808E+01
 0.3567155763145E+01
 0.3562375557437E+01
 0.3559708407191E+01
 0.3559403348941E+01
 0.3561267845602E+01
 0.3564650823220E+01
 0.3568340631300E+01
 0.3570492561698E+01
 0.3568781954606E+01
 0.3560921908998E+01
 0.3545410676324E+01
 0.3522298891100E+01
 0.3492887155211E+01
 0.3458237910593E+01
 0.3418186107759E+01
 0.3371379679509E+01
 0.3315876955336E+01
 0.3249797103489E+01
 0.3171766313728E+01
 0.3081130907991E+01
 0.2978077805263E+01
 0.2863811949213E+01
 0.2741259120138E+01
 0.2617558243083E+01
 0.2508836864776E+01
 0.2448105809179E+01
 0.2497449846326E+01
 0.2757662042687E+01
 0.3348929206755E+01
 0.4337874118988E+01
 0.5636794409971E+01
 0.6943207401648E+01
 0.3071237491621E+01
 0.3266762675050E+01
 0.3434845286313E+01
 0.3542929184532E+01
 0.3595380113703E+01
 0.3612416532757E+01
 0.3611739682207E+01
 0.3604113199154E+01
 0.3595192356729E+01
 0.3587792190955E+01
 0.3583262555197E+01
 0.3582190377400E+01
 0.3584724553175E+01
 0.3590679365343E+01
 0.3599484596863E+01
 0.3610024086124E+01
 0.3620461092591E+01
 0.3628287255439E+01
 0.3630849036623E+01
 0.3626266441122E+01
 0.3614387059955E+01
 0.3596462987966E+01
 0.3573458842715E+01
 0.3544932010618E+01
 0.3509112929461E+01
 0.3463601174030E+01
 0.3406072366780E+01
 0.3334715569461E+01
 0.3248368118420E+01
 0.3146472367287E+01
 0.3028989377147E+01
 0.2896764544566E+01
 0.2753731615797E+01
 0.2611418256745E+01
 0.2496873512149E+01
 0.2467556737419E+01
 0.2632692303270E+01
 0.3153666901495E+01
 0.4163925059130E+01
 0.5610977994972E+01
 0.7125413410188E+01
 0.3124738852447E+01
 0.3337649983345E+01
 0.3510851041505E+01
 0.3609013228296E+01
 0.3645921944640E+01
 0.3649374853090E+01
 0.3639220865401E+01
 0.3625743073693E+01
 0.3613677811442E+01
 0.3605125807802E+01
 0.3600977447244E+01
 0.3601565445367E+01
 0.3606943196731E+01
 0.3616956506528E+01
 0.3631167214513E+01
 0.3648641257602E+01
 0.3667660578630E+01
 0.3685617511302E+01
 0.3699497432507E+01
 0.3706986097244E+01
 0.3707674269229E+01
 0.3702734240110E+01
 0.3693000155614E+01
 0.3677717813951E+01
 0.3654695484571E+01
 0.3621114312487E+01
 0.3574281716455E+01
 0.3512050247693E+01
 0.3432877986339E+01
 0.3335616713607E+01
 0.3219123884297E+01
 0.3082228554262E+01
 0.2925562048742E+01
 0.2755574859643E+01
 0.2591752403863E+01
 0.2482025564100E+01
 0.2533614414448E+01
 0.2945044191194E+01
 0.3944625008860E+01
 0.5557609499523E+01
 0.7342726305685E+01
 0.3187865820883E+01
 0.3420827448447E+01
 0.3595781276963E+01
 0.3677339579717E+01
 0.3694039547719E+01
 0.3682131295945E+01
 0.3662246326397E+01
 0.3643161449368E+01
 0.3628282340770E+01
 0.3618854584035E+01
 0.3615264235848E+01
 0.3617583354557E+01
 0.3625780318661E+01
 0.3639756740366E+01
 0.3659255463099E+01
 0.3683618553361E+01
 0.3711389571774E+01
 0.3739997838565E+01
 0.3766108841524E+01
 0.3786913791726E+01
 0.3801662348636E+01
 0.3811375552745E+01
 0.3816683281573E+01
 0.3816461746971E+01
 0.3808100151682E+01
 0.3788433129538E+01
 0.3754509935300E+01
 0.3703973725104E+01
 0.3635062557679E+01
 0.3546246769225E+01
 0.3435514249793E+01
 0.3299884067075E+01
 0.3136798418534E+01
 0.2947478166517E+01
 0.2742852061230E+01
 0.2557335816304E+01
 0.2483354375515E+01
 0.2738497381600E+01
 0.3671132899625E+01
 0.5459856692748E+01
 0.7605307040364E+01
 0.3264370622134E+01
 0.3520090725397E+01
 0.3690301082347E+01
 0.3745899519100E+01
 0.3737488679460E+01
 0.3709178462949E+01
 0.3679906926081E+01
 0.3655803975282E+01
 0.3638635666480E+01
 0.3628711204825E+01
 0.3625900283054E+01
 0.3630025320439E+01
 0.3640986153847E+01
 0.3658761962401E+01
 0.3683316932954E+01
 0.3714360537511E+01
 0.3750870706324E+01
 0.3790521896520E+01
 0.3829768135732E+01
 0.3865256741410E+01
 0.3895770081785E+01
 0.3922036450686E+01
 0.3944335692350E+01
 0.3961080067785E+01
 0.3969260167946E+01
 0.3965486574219E+01
 0.3946708829122E+01
 0.3910513423135E+01
 0.3855093887433E+01
 0.3778792723332E+01
 0.3679061447730E+01
 0.3551490881860E+01
 0.3390735903956E+01
 0.3193067958276E+01
 0.2960600388116E+01
 0.2711829250982E+01
 0.2512747712796E+01
 0.2566312259041E+01
 0.3340302449125E+01
 0.5290912956264E+01
 0.7927360376404E+01
 0.3360151172132E+01
 0.3640536043407E+01
 0.3793930801913E+01
 0.3811047166372E+01
 0.3773353397425E+01
 0.3728914099760E+01
 0.3691320884470E+01
 0.3663154681276E+01
 0.3644418877577E+01
 0.3634474790872E+01
 0.3632704782621E+01
 0.3638711540421E+01
 0.3652348575821E+01
 0.3673690234598E+01
 0.3702947216132E+01
 0.3740268772396E+01
 0.3785255685789E+01
 0.3836127153953E+01
 0.3889354023076E+01
 0.3941038811022E+01
 0.3989316487202E+01
 0.4034358330844E+01
 0.4075823460518E+01
 0.4111513714480E+01
 0.4138078642407E+01
 0.4152107789049E+01
 0.4150679212456E+01
 0.4131501080828E+01
 0.4092889960973E+01
 0.4033329411601E+01
 0.3950155917013E+01
 0.3838110459769E+01
 0.3689835787129E+01
 0.3497533492876E+01
 0.3255152897973E+01
 0.2964856058240E+01
 0.2658986728823E+01
 0.2486091715542E+01
 0.2969500616833E+01
 0.5009414526800E+01
 0.8328354050377E+01
 0.3484979704381E+01
 0.3788729381915E+01
 0.3903372293105E+01
 0.3866761332012E+01
 0.3798267110822E+01
 0.3739817618166E+01
 0.3695689848383E+01
 0.3664781599515E+01
 0.3645384273996E+01
 0.3635982323085E+01
 0.3635546963696E+01
 0.3643508277556E+01
 0.3659701203204E+01
 0.3684307663265E+01
 0.3717790501355E+01
 0.3760771875504E+01
 0.3813644750692E+01
 0.3875570422399E+01
 0.3943467489505E+01
 0.4013026884934E+01
 0.4081495641907E+01
 0.4148004074838E+01
 0.4211102376914E+01
 0.4267767559266E+01
 0.4314442437884E+01
 0.4348023953461E+01
 0.4366047947394E+01
 0.4366554114225E+01
 0.4348105572604E+01
 0.4309551601155E+01
 0.4248583544415E+01
 0.4159873525472E+01
 0.4035258824719E+01
 0.3864550859925E+01
 0.3635366559482E+01
 0.3335480004707E+01
 0.2962930420496E+01
 0.2582817071099E+01
 0.2633028375415E+01
 0.4558375712281E+01
 0.8833048801382E+01
 0.3656156887534E+01
 0.3971955887401E+01
 0.4008940122208E+01
 0.3904264689897E+01
 0.3809123902469E+01
 0.3740601487077E+01
 0.3692354000343E+01
 0.3660380634070E+01
 0.3641372022121E+01
 0.3633139974185E+01
 0.3634353370996E+01
 0.3644334170610E+01
 0.3662930721112E+01
 0.3690439254311E+01
 0.3727560955405E+01
 0.3775368352507E+01
 0.3835133144689E+01
 0.3907413840553E+01
 0.3990326528411E+01
 0.4079608956512E+01
 0.4171337697627E+01
 0.4262710003586E+01
 0.4350296850534E+01
 0.4429965277480E+01
 0.4498240201687E+01
 0.4552841975467E+01
 0.4592234207746E+01
 0.4615051931864E+01
 0.4620142592417E+01
 0.4606791463617E+01
 0.4573470532191E+01
 0.4515764729123E+01
 0.4426379407544E+01
 0.4295270199266E+01
 0.4107251320448E+01
 0.3839961887646E+01
 0.3465780753157E+01
 0.2959185423425E+01
 0.2524077881614E+01
 0.3891821301388E+01
 0.9466108819604E+01
 0.3907115434727E+01
 0.4193173751077E+01
 0.4087563637838E+01
 0.3913913584296E+01
 0.3804140320924E+01
 0.3730136524722E+01
 0.3680924513027E+01
 0.3649799208119E+01
 0.3632327615407E+01
 0.3625932820382E+01
 0.3629113817908E+01
 0.3641165464059E+01
 0.3661982912688E+01
 0.3691978158396E+01
 0.3732060395589E+01
 0.3783677488668E+01
 0.3848903386703E+01
 0.3930049770345E+01
 0.4027610456010E+01
 0.4138581710892E+01
 0.4257649369933E+01
 0.4378380499129E+01
 0.4493820483954E+01
 0.4598422560281E+01
 0.4689383472080E+01
 0.4766029606340E+01
 0.4828398586434E+01
 0.4876092405133E+01
 0.4908183206124E+01
 0.4924105828297E+01
 0.4923295925806E+01
 0.4903435850746E+01
 0.4860366137404E+01
 0.4787267465448E+01
 0.4671619193457E+01
 0.4488542374342E+01
 0.4199644054737E+01
 0.3728512272995E+01
 0.2960599218514E+01
 0.3149731107434E+01
 0.1023400646905E+02
 0.4311115742416E+01
 0.4425296991967E+01
 0.4094506395091E+01
 0.3894082176853E+01
 0.3781701653528E+01
 0.3707798800433E+01
 0.3661363409517E+01
 0.3633044613655E+01
 0.3618323067914E+01
 0.3614429408546E+01
 0.3619886693753E+01
 0.3634039521976E+01
 0.3656866902255E+01
 0.3688892924287E+01
 0.3731190289443E+01
 0.3785478141002E+01
 0.3854378110620E+01
 0.3941842955275E+01
 0.4052232755969E+01
 0.4186751814490E+01
 0.4338932923346E+01
 0.4495267915312E+01
 0.4642556172257E+01
 0.4773740718313E+01
 0.4887827706012E+01
 0.4986894392237E+01
 0.5073375819004E+01
 0.5148396928616E+01
 0.5211236116903E+01
 0.5260503093638E+01
 0.5295985558880E+01
 0.5319092777271E+01
 0.5331759761976E+01
 0.5334095156599E+01
 0.5320883638920E+01
 0.5281089376794E+01
 0.5176056155903E+01
 0.4975314250311E+01
 0.4341636952470E+01
 0.3318716999255E+01
 0.1109776359746E+02
 0.5064597720367E+01
 0.4465067371706E+01
 0.4015021708873E+01
 0.3849400054211E+01
 0.3739285292745E+01
 0.3674380715532E+01
 0.3633754120949E+01
 0.3610382598844E+01
 0.3599543362456E+01
 0.3598791789886E+01
 0.3606800094620E+01
 0.3623057222057E+01
 0.3647657278505E+01
 0.3681230937303E+01
 0.3724961683931E+01
 0.3780716305046E+01
 0.3851362927997E+01
 0.3941614324573E+01
 0.4060044022943E+01
 0.4219080525825E+01
 0.4413345913565E+01
 0.4614308317670E+01
 0.4798111558428E+01
 0.4956918693141E+01
 0.5093583630513E+01
 0.5214555624966E+01
 0.5325613894147E+01
 0.5430112178850E+01
 0.5528099047464E+01
 0.5615487447820E+01
 0.5689148311838E+01
 0.5757202421065E+01
 0.5832624912014E+01
 0.5924126202736E+01
 0.6040658663435E+01
 0.6190677760259E+01
 0.6399011523664E+01
 0.6631359207105E+01
 0.7149445974832E+01
 0.6389826280701E+01
 0.1303511117192E+02
 0.8662783077742E+00
 0.1118986299445E+01
 0.1358553670991E+01
 0.1576682958202E+01
 0.1770435221257E+01
 0.1939416546432E+01
 0.2084572365493E+01
 0.2207490576598E+01
 0.2309913859347E+01
 0.2393584523997E+01
 0.2460346400102E+01
 0.2511122189618E+01
 0.2547313929077E+01
 0.2571653127764E+01
 0.2585548834941E+01
 0.2588589583411E+01
 0.2579366516043E+01
 0.2556139141635E+01
 0.2518073960429E+01
 0.2464304259124E+01
 0.8411121250792E+00
 0.1110902362613E+01
 0.1363787794951E+01
 0.1593658260996E+01
 0.1797944429688E+01
 0.1976578743718E+01
 0.2130817911279E+01
 0.2262471103985E+01
 0.2373433919761E+01
 0.2465607869369E+01
 0.2540865093641E+01
 0.2600286415487E+01
 0.2645601130804E+01
 0.2679330733710E+01
 0.2702682453012E+01
 0.2715615915489E+01
 0.2717016892923E+01
 0.2705399971400E+01
 0.2676352922793E+01
 0.2625915121425E+01
 0.8164912526311E+00
 0.1104154870278E+01
 0.1370590659771E+01
 0.1611765322264E+01
 0.1826080504001E+01
 0.2013913909344E+01
 0.2176826141528E+01
 0.2316849015717E+01
 0.2436066387479E+01
 0.2536513826039E+01
 0.2620121924947E+01
 0.2688284601074E+01
 0.2742853093444E+01
 0.2786150819194E+01
 0.2819411216256E+01
 0.2842703690128E+01
 0.2855059588069E+01
 0.2854254805080E+01
 0.2835967750420E+01
 0.2800073701853E+01
 0.7928266741345E+00
 0.1098379002862E+01
 0.1378440591847E+01
 0.1630644229532E+01
 0.1854535048722E+01
 0.2051104635645E+01
 0.2222262422345E+01
 0.2370281635244E+01
 0.2497439402284E+01
 0.2605916705033E+01
 0.2697764815746E+01
 0.2774637310541E+01
 0.2838482104093E+01
 0.2891487030666E+01
 0.2934886083327E+01
 0.2968814856346E+01
 0.2992251022936E+01
 0.3002990810212E+01
 0.2998114986594E+01
 0.2977882143025E+01
 0.7702433240640E+00
 0.1093489560455E+01
 0.1386997016318E+01
 0.1649931788790E+01
 0.1882975563437E+01
 0.2087821807731E+01
 0.2266788431367E+01
 0.2422414023170E+01
 0.2557179416488E+01
 0.2673428951590E+01
 0.2773354101352E+01
 0.2858829898895E+01
 0.2931887157855E+01
 0.2994616942839E+01
 0.3048248926802E+01
 0.3092953470772E+01
 0.3127810279982E+01
 0.3151026604801E+01
 0.3160456417116E+01
 0.3155995929952E+01
 0.7488231143503E+00
 0.1089387112391E+01
 0.1396008943426E+01
 0.1669301229341E+01
 0.1911066557750E+01
 0.2123730730301E+01
 0.2310061552131E+01
 0.2472888359820E+01
 0.2614908399394E+01
 0.2738639366935E+01
 0.2846421033652E+01
 0.2940317517191E+01
 0.3022432968960E+01
 0.3094794441724E+01
 0.3158632927108E+01
 0.3214193365694E+01
 0.3260759880244E+01
 0.3296891498615E+01
 0.3320828339247E+01
 0.3331828445114E+01
 0.7286310149500E+00
 0.1085974831548E+01
 0.1405253497235E+01
 0.1688457347660E+01
 0.1938483949496E+01
 0.2158498339888E+01
 0.2351739488960E+01
 0.2521346320525E+01
 0.2670242402942E+01
 0.2801123916661E+01
 0.2916479707928E+01
 0.3018536844429E+01
 0.3109466810818E+01
 0.3191260812636E+01
 0.3265171405726E+01
 0.3331548985213E+01
 0.3389878546203E+01
 0.3438963241244E+01
 0.3477163514860E+01
 0.3503050323100E+01
 0.7097256828847E+00
 0.1083158209731E+01
 0.1414525531427E+01
 0.1707126292015E+01
 0.1964919325883E+01
 0.2191799932781E+01
 0.2391484850001E+01
 0.2567432054916E+01
 0.2722796483106E+01
 0.2860453572555E+01
 0.2983037800754E+01
 0.3092918250149E+01
 0.3192330224378E+01
 0.3283253565359E+01
 0.3366978986724E+01
 0.3443964743471E+01
 0.3513858015638E+01
 0.3575599790014E+01
 0.3627509388375E+01
 0.3667487196197E+01
 0.6921623144317E+00
 0.1080847195719E+01
 0.1423633552608E+01
 0.1725052363996E+01
 0.1990080809789E+01
 0.2223323497315E+01
 0.2428969576811E+01
 0.2610796622146E+01
 0.2772190321384E+01
 0.2916202194787E+01
 0.3045606141708E+01
 0.3162896210182E+01
 0.3270369115285E+01
 0.3370011084676E+01
 0.3463157274569E+01
 0.3550359561712E+01
 0.3631377971489E+01
 0.3705206255345E+01
 0.3770028301764E+01
 0.3823116253486E+01
 0.6759933471023E+00
 0.1078957279386E+01
 0.1432399000667E+01
 0.1741997070565E+01
 0.2013694164289E+01
 0.2252772778916E+01
 0.2463879105314E+01
 0.2651102787871E+01
 0.2818054161280E+01
 0.2967954012458E+01
 0.3103707343808E+01
 0.3227918585034E+01
 0.3342942792027E+01
 0.3450782655234E+01
 0.3552815562479E+01
 0.3649664739650E+01
 0.3741155535430E+01
 0.3826269199218E+01
 0.3902997586972E+01
 0.3968035207637E+01
 0.6612682449143E+00
 0.1077410252269E+01
 0.1440656526747E+01
 0.1757739471845E+01
 0.2035504161922E+01
 0.2279870031747E+01
 0.2495916234748E+01
 0.2688029849669E+01
 0.2860034712567E+01
 0.3015310742990E+01
 0.3156883862709E+01
 0.3287455458690E+01
 0.3409434193704E+01
 0.3524842761200E+01
 0.3635093053044E+01
 0.3740855332508E+01
 0.3841978943739E+01
 0.3937383503827E+01
 0.4024832366434E+01
 0.4100498049855E+01
 0.6480330073463E+00
 0.1076134765848E+01
 0.1448254721433E+01
 0.1772077124297E+01
 0.2055276222491E+01
 0.2304358646815E+01
 0.2524804772279E+01
 0.2721278250040E+01
 0.2897800772542E+01
 0.3057898248072E+01
 0.3204705562883E+01
 0.3341007894881E+01
 0.3469260938465E+01
 0.3591506098646E+01
 0.3709179285667E+01
 0.3822974866563E+01
 0.3932732821737E+01
 0.4037276316366E+01
 0.4134122474923E+01
 0.4218979975715E+01
 0.6363296243501E+00
 0.1075066785018E+01
 0.1455057004725E+01
 0.1784827295952E+01
 0.2072798179029E+01
 0.2326005700072E+01
 0.2550292963436E+01
 0.2750573914781E+01
 0.2931048501061E+01
 0.3095372775009E+01
 0.3246776963312E+01
 0.3388116653651E+01
 0.3521886419497E+01
 0.3650141925895E+01
 0.3774331894167E+01
 0.3895155210732E+01
 0.4012417946684E+01
 0.4124826452987E+01
 0.4229651985588E+01
 0.4322197075240E+01
 0.6261955904988E+00
 0.1074149980068E+01
 0.1460942552490E+01
 0.1795828258798E+01
 0.2087882039482E+01
 0.2344604349134E+01
 0.2572156636648E+01
 0.2775672201278E+01
 0.2959506217683E+01
 0.3127426666344E+01
 0.3282743989744E+01
 0.3428370423651E+01
 0.3566830129983E+01
 0.3700186792185E+01
 0.3829891400952E+01
 0.3956632192365E+01
 0.4080165941442E+01
 0.4199075681832E+01
 0.4310402645430E+01
 0.4409101322786E+01
 0.6176635193052E+00
 0.1073336071800E+01
 0.1465807193734E+01
 0.1804940557645E+01
 0.2100365666082E+01
 0.2359976040693E+01
 0.2590202041192E+01
 0.2796361435519E+01
 0.2982938700456E+01
 0.3153793510028E+01
 0.3312300128096E+01
 0.3461413316232E+01
 0.3603676846108E+01
 0.3741155406414E+01
 0.3875293224088E+01
 0.4006757534264E+01
 0.4135249168620E+01
 0.4259233476919E+01
 0.4375550023614E+01
 0.4478865963972E+01
 0.6107608750288E+00
 0.1072585135195E+01
 0.1469564232567E+01
 0.1812048178358E+01
 0.2110114297179E+01
 0.2371972469268E+01
 0.2604268330073E+01
 0.2812465989585E+01
 0.3001150929386E+01
 0.3174252643940E+01
 0.3335191824999E+01
 0.3486951389671E+01
 0.3632084434791E+01
 0.3772649554197E+01
 0.3910077075869E+01
 0.4045007526810E+01
 0.4177086779334E+01
 0.4304677997523E+01
 0.4424457183652E+01
 0.4530869174582E+01
 0.6055097921660E+00
 0.1071865849634E+01
 0.1472145152908E+01
 0.1817059556497E+01
 0.2117021850842E+01
 0.2380477234065E+01
 0.2614229640263E+01
 0.2823848849392E+01
 0.3013991209520E+01
 0.3188632917951E+01
 0.3351222989771E+01
 0.3504758025770E+01
 0.3651790141032E+01
 0.3794365040663E+01
 0.3933893927694E+01
 0.4070988924835E+01
 0.4205248025337E+01
 0.4334955125173E+01
 0.4456667969659E+01
 0.4564678784731E+01
 0.6019269804533E+00
 0.1071155693052E+01
 0.1473500184681E+01
 0.1819908389311E+01
 0.2121011967835E+01
 0.2385407152398E+01
 0.2619996729431E+01
 0.2830413626392E+01
 0.3021353612581E+01
 0.3196815627860E+01
 0.3360258484521E+01
 0.3514678041165E+01
 0.3662615284535E+01
 0.3806096698563E+01
 0.3946510766149E+01
 0.4084442586218E+01
 0.4219453707773E+01
 0.4349776645655E+01
 0.4471900811019E+01
 0.4580039142196E+01
 0.6000236809916E+00
 0.1070441068343E+01
 0.1473598703713E+01
 0.1820554214745E+01
 0.2122038754935E+01
 0.2386713192476E+01
 0.2621518133801E+01
 0.2832105975672E+01
 0.3023179691492E+01
 0.3198736563652E+01
 0.3362226536677E+01
 0.3516630482226E+01
 0.3664468369435E+01
 0.3807741569410E+01
 0.3947813408387E+01
 0.4085245319230E+01
 0.4219576398561E+01
 0.4349018247227E+01
 0.4470043843013E+01
 0.4576861571373E+01
 0.5998056457365E+00
 0.1069717355850E+01
 0.1472429453361E+01
 0.1818982741324E+01
 0.2120087211381E+01
 0.2384381008875E+01
 0.2618780830319E+01
 0.2828914400383E+01
 0.3019459440829E+01
 0.3194387136978E+01
 0.3357120035681E+01
 0.3510610079993E+01
 0.3657346627110E+01
 0.3799300353634E+01
 0.3937807575424E+01
 0.4073410236568E+01
 0.4205639768296E+01
 0.4332717650229E+01
 0.4451151693945E+01
 0.4555219000373E+01
 0.6012731201414E+00
 0.1068988886883E+01
 0.1470000577525E+01
 0.1815205915134E+01
 0.2115173323330E+01
 0.2378431065809E+01
 0.2611810388424E+01
 0.2820870426394E+01
 0.3010231484149E+01
 0.3183814566355E+01
 0.3344996694660E+01
 0.3496687360989E+01
 0.3641336021439E+01
 0.3780877209495E+01
 0.3916618359501E+01
 0.4049085789414E+01
 0.4177817179144E+01
 0.4301072929348E+01
 0.4415443954442E+01
 0.4515344763214E+01
 0.6044208165990E+00
 0.1068268836364E+01
 0.1466339461350E+01
 0.1809261719337E+01
 0.2107343822005E+01
 0.2368918345035E+01
 0.2600670609516E+01
 0.2808048146056E+01
 0.2995582487387E+01
 0.3167121120291E+01
 0.3325978081202E+01
 0.3475007428661E+01
 0.3616609749805E+01
 0.3752677955881E+01
 0.3884488155441E+01
 0.4012553541722E+01
 0.4136429556817E+01
 0.4254440896345E+01
 0.4363304664344E+01
 0.4457633410431E+01
 0.6092378782160E+00
 0.1067579035855E+01
 0.1461492381924E+01
 0.1801213709284E+01
 0.2096675609827E+01
 0.2355931644633E+01
 0.2585462662976E+01
 0.2790563142797E+01
 0.2975645813168E+01
 0.3144462436694E+01
 0.3300247539570E+01
 0.3445787442322E+01
 0.3583425269661E+01
 0.3715006704504E+01
 0.3841773061185E+01
 0.3964224646805E+01
 0.4081942424980E+01
 0.4193335378529E+01
 0.4295282585510E+01
 0.4382644917810E+01
 0.6157078432606E+00
 0.1066949711558E+01
 0.1455523977471E+01
 0.1791150294390E+01
 0.2083274868208E+01
 0.2339592485509E+01
 0.2566323739746E+01
 0.2768570822860E+01
 0.2950599448390E+01
 0.3116044956832E+01
 0.3268047046620E+01
 0.3409312834777E+01
 0.3542119880938E+01
 0.3668260924802E+01
 0.3788937702443E+01
 0.3904634905642E+01
 0.4014961898608E+01
 0.4118425107728E+01
 0.4212092560560E+01
 0.4291112337890E+01
 0.6238086298699E+00
 0.1066419154741E+01
 0.1448516549003E+01
 0.1779183784958E+01
 0.2067275868725E+01
 0.2320053651389E+01
 0.2543425254782E+01
 0.2742264192916E+01
 0.2920663252683E+01
 0.3082122529908E+01
 0.3229673062047E+01
 0.3365932324031E+01
 0.3493104897341E+01
 0.3612924928636E+01
 0.3726548394056E+01
 0.3834438220649E+01
 0.3936229324608E+01
 0.4030530812546E+01
 0.4114616992588E+01
 0.4183950781740E+01
 0.6335125676265E+00
 0.1066033334891E+01
 0.1440569213677E+01
 0.1765449228676E+01
 0.2048839516554E+01
 0.2297497395692E+01
 0.2516970638243E+01
 0.2711871132847E+01
 0.2886095588847E+01
 0.3042992261068E+01
 0.3185471452583E+01
 0.3316051792003E+01
 0.3436858449743E+01
 0.3549561756963E+01
 0.3655264523443E+01
 0.3754398198380E+01
 0.3846614169111E+01
 0.3930620858453E+01
 0.4003906332941E+01
 0.4062266688418E+01
 0.6447865031446E+00
 0.1065845468420E+01
 0.1431796935318E+01
 0.1750103070517E+01
 0.2028151665393E+01
 0.2272133359618E+01
 0.2487192767117E+01
 0.2677651226857E+01
 0.2847189413887E+01
 0.2998989698065E+01
 0.3135831597067E+01
 0.3260127133140E+01
 0.3373916992902E+01
 0.3478803469876E+01
 0.3575828039451E+01
 0.3665377618889E+01
 0.3747104651787E+01
 0.3819804648256E+01
 0.3881177487268E+01
 0.3927365665707E+01
 0.6575920076975E+00
 0.1065915555595E+01
 0.1422329455953E+01
 0.1733321666791E+01
 0.2005421238343E+01
 0.2244196239318E+01
 0.2454351081625E+01
 0.2639892209918E+01
 0.2804267907237E+01
 0.2950483456722E+01
 0.3081179793186E+01
 0.3198656197824E+01
 0.3304865614778E+01
 0.3401339871884E+01
 0.3489050950972E+01
 0.3568325473456E+01
 0.3638795563035E+01
 0.3699322906149E+01
 0.3747808823164E+01
 0.3780756710852E+01
 0.6718857117323E+00
 0.1066309903638E+01
 0.1412310169180E+01
 0.1715299706779E+01
 0.1980878213532E+01
 0.2213943262430E+01
 0.2418728450269E+01
 0.2598906104114E+01
 0.2757679730974E+01
 0.2897869407846E+01
 0.3021972116088E+01
 0.3132169990013E+01
 0.3230327283684E+01
 0.3317905741772E+01
 0.3395800771919E+01
 0.3464261264187E+01
 0.3522872589155E+01
 0.3570533750082E+01
 0.3605329960029E+01
 0.3624149184497E+01
 0.6876197553680E+00
 0.1067100643861E+01
 0.1401894967565E+01
 0.1696248592586E+01
 0.1954771531971E+01
 0.2181651532906E+01
 0.2380627846333E+01
 0.2555025121318E+01
 0.2707794026445E+01
 0.2841564573558E+01
 0.2958686928861E+01
 0.3061223354374E+01
 0.3150951264723E+01
 0.3229266758626E+01
 0.3296984022469E+01
 0.3354256472032E+01
 0.3400592602910E+01
 0.3434893343034E+01
 0.3455404548349E+01
 0.3459439210481E+01
 0.7047423681614E+00
 0.1068365257815E+01
 0.1391251112223E+01
 0.1676394842726E+01
 0.1927366994031E+01
 0.2147615303006E+01
 0.2340368891384E+01
 0.2508597396472E+01
 0.2654995238467E+01
 0.2782000875941E+01
 0.2891817264656E+01
 0.2986385439015E+01
 0.3067401004126E+01
 0.3136204380967E+01
 0.3193528010161E+01
 0.3239413369503E+01
 0.3273259677475E+01
 0.3293929761567E+01
 0.3299803176639E+01
 0.3288680287515E+01
 0.7231985417699E+00
 0.1070186110137E+01
 0.1380556178719E+01
 0.1655978605357E+01
 0.1898945226457E+01
 0.2112143236320E+01
 0.2298284318203E+01
 0.2459982605982E+01
 0.2599677837936E+01
 0.2719618856151E+01
 0.2821863297037E+01
 0.2908230266095E+01
 0.2980341851430E+01
 0.3039499966321E+01
 0.3086361074629E+01
 0.3120841534746E+01
 0.3142197333228E+01
 0.3149209151535E+01
 0.3140361658388E+01
 0.3114026784015E+01
 0.7429307382687E+00
 0.1072649975139E+01
 0.1369997150090E+01
 0.1635252385044E+01
 0.1869799796004E+01
 0.2075555692693E+01
 0.2254716364361E+01
 0.2409547482833E+01
 0.2542240957137E+01
 0.2654861400087E+01
 0.2749325050994E+01
 0.2827327768427E+01
 0.2890429139970E+01
 0.2939918530848E+01
 0.2976391380235E+01
 0.2999632179510E+01
 0.3008718545998E+01
 0.3002296434289E+01
 0.2978920891378E+01
 0.2937638274342E+01
 0.7638795047123E+00
 0.1075847515703E+01
 0.1359769789857E+01
 0.1614480185123E+01
 0.1840235602070E+01
 0.2038182100659E+01
 0.2210013160283E+01
 0.2357661337397E+01
 0.2483083063359E+01
 0.2588167585104E+01
 0.2674695560714E+01
 0.2744235869246E+01
 0.2798297665797E+01
 0.2838193315583E+01
 0.2864484631946E+01
 0.2876830056361E+01
 0.2874094606236E+01
 0.2854718826607E+01
 0.2817259736586E+01
 0.2761548756700E+01
 0.7859837521935E+00
 0.1079872613356E+01
 0.1350078594102E+01
 0.1593937392774E+01
 0.1810567681731E+01
 0.2000358350177E+01
 0.2164525073122E+01
 0.2304691616869E+01
 0.2422596699087E+01
 0.2519966544454E+01
 0.2598454231655E+01
 0.2659493598577E+01
 0.2704553640415E+01
 0.2735012830001E+01
 0.2751441527250E+01
 0.2753400535189E+01
 0.2739520526674E+01
 0.2707937148319E+01
 0.2657062709114E+01
 0.2587598296748E+01
 0.8091800379040E+00
 0.1084821438709E+01
 0.1341137877562E+01
 0.1573912129479E+01
 0.1781120400418E+01
 0.1962423985852E+01
 0.2118600892594E+01
 0.2250999706377E+01
 0.2361163514118E+01
 0.2450671391697E+01
 0.2521060196601E+01
 0.2573614714910E+01
 0.2609769757562E+01
 0.2631014997842E+01
 0.2637978282902E+01
 0.2630190717931E+01
 0.2606067167238E+01
 0.2563322984682E+01
 0.2499933525730E+01
 0.2417465839167E+01
 0.8333995752404E+00
 0.1090790449467E+01
 0.1333176480738E+01
 0.1554708978125E+01
 0.1752227022797E+01
 0.1924718178820E+01
 0.2072583830637E+01
 0.2196937250641E+01
 0.2299149907445E+01
 0.2380673182999E+01
 0.2442945111568E+01
 0.2487080743429E+01
 0.2514480630895E+01
 0.2526790976296E+01
 0.2524727478997E+01
 0.2507880339034E+01
 0.2474605327962E+01
 0.2422110928374E+01
 0.2347445776749E+01
 0.2252712952094E+01
 0.8585570182393E+00
 0.1097877324189E+01
 0.1326448780297E+01
 0.1536660259560E+01
 0.1724225679290E+01
 0.1887573440374E+01
 0.2026807410131E+01
 0.2142843848143E+01
 0.2236903705376E+01
 0.2310335414973E+01
 0.2364505237943E+01
 0.2400332040051E+01
 0.2419176947160E+01
 0.2422887429292E+01
 0.2412276144946E+01
 0.2386997077802E+01
 0.2345611076236E+01
 0.2285289679512E+01
 0.2201210700989E+01
 0.2094993371281E+01
 0.8845237466159E+00
 0.1106161972952E+01
 0.1321300742068E+01
 0.1520130143376E+01
 0.1697445485095E+01
 0.1851309019638E+01
 0.1981591367415E+01
 0.2089045183201E+01
 0.2174756569874E+01
 0.2239987285924E+01
 0.2286092861555E+01
 0.2313758662390E+01
 0.2324292332375E+01
 0.2319806966610E+01
 0.2301180968683E+01
 0.2268098752301E+01
 0.2219181211704E+01
 0.2152670156099E+01
 0.2063213093173E+01
 0.1946793702320E+01
 0.9108640582275E+00
 0.1116032813360E+01
 0.1318255084784E+01
 0.1505473908051E+01
 0.1672187895895E+01
 0.1816224951045E+01
 0.1937242157342E+01
 0.2035845281774E+01
 0.2113026381970E+01
 0.2169946114395E+01
 0.2207972749777E+01
 0.2227692430713E+01
 0.2230219777820E+01
 0.2217948451738E+01
 0.2191991720204E+01
 0.2151792742744E+01
 0.2095892290084E+01
 0.2022613070017E+01
 0.1931146217566E+01
 0.1817400238126E+01
 0.2144912432665E+01
 0.8065190527879E+00
 0.1569604060597E+00
 0.1562643804302E-01
 0.1178874589356E+00
 0.1873061034085E+00
 0.2405094807535E+00
 0.2822119886145E+00
 0.3128218061462E+00
 0.3314395975353E+00
 0.3351788001349E+00
 0.3197388861258E+00
 0.2806787724489E+00
 0.2221195218917E+00
 0.1500033262496E+00
 0.7048454384572E-01
 0.1667894042122E-01
 0.8852966415229E-01
 0.1663450653139E+00
 0.2705787922577E+00
 0.2224301059573E+01
 0.1560208950155E+01
 0.6119333960471E+00
 0.2355484029606E+00
 0.6166720694421E-01
 0.4502807424114E-01
 0.1177995629374E+00
 0.1718850600882E+00
 0.2125144757447E+00
 0.2407107436091E+00
 0.2553559139016E+00
 0.2572875491615E+00
 0.2403831533136E+00
 0.2007071302375E+00
 0.1433251109071E+00
 0.7583556712465E-01
 0.1147313435561E-01
 0.6262873860194E-01
 0.1315673706840E+00
 0.2036057907687E+00
 0.2063190155725E+01
 0.1791708240431E+01
 0.1052641384514E+01
 0.5426802909557E+00
 0.2787960028382E+00
 0.1259581877528E+00
 0.2589296395491E-01
 0.4556138686584E-01
 0.9898063921777E-01
 0.1389426666647E+00
 0.1666406209622E+00
 0.1840180678047E+00
 0.1849774297442E+00
 0.1623437720152E+00
 0.1201615127438E+00
 0.6608323003434E-01
 0.1028198544351E-01
 0.4871855205973E-01
 0.1021450828905E+00
 0.1468855136117E+00
 0.1899501687037E+01
 0.1836877813318E+01
 0.1323771985846E+01
 0.8418201370250E+00
 0.5190534599057E+00
 0.3193921195642E+00
 0.1886407316533E+00
 0.9678881378239E-01
 0.2816928619344E-01
 0.2511508287140E-01
 0.6618673407120E-01
 0.9803790997060E-01
 0.1150139113750E+00
 0.1082239995854E+00
 0.8084935978347E-01
 0.4059039672025E-01
 0.4480442908902E-02
 0.4785442784738E-01
 0.8556472568038E-01
 0.1099454185583E+00
 0.1754793042514E+01
 0.1806942326438E+01
 0.1475596134523E+01
 0.1075595837029E+01
 0.7515107762056E+00
 0.5230910308988E+00
 0.3655015950245E+00
 0.2530496404711E+00
 0.1683992279072E+00
 0.1013514569348E+00
 0.4712894573576E-01
 0.3671522623237E-02
 0.3031158432997E-01
 0.3842667155096E-01
 0.2534171344745E-01
 0.2701907281097E-02
 0.3317020222637E-01
 0.6375279432163E-01
 0.8773476057438E-01
 0.9855616205642E-01
 0.1631867145758E+01
 0.1746467162862E+01
 0.1551629629288E+01
 0.1244355154931E+01
 0.9526783764252E+00
 0.7210380801494E+00
 0.5479155549804E+00
 0.4190316170531E+00
 0.3198279050883E+00
 0.2397496699295E+00
 0.1731152565788E+00
 0.1152880771021E+00
 0.7014280524069E-01
 0.4808818442765E-01
 0.4773800852496E-01
 0.6125166897043E-01
 0.8067392663777E-01
 0.9954504858776E-01
 0.1128423681693E+00
 0.1162128257843E+00
 0.1528186416918E+01
 0.1675729951229E+01
 0.1581094283646E+01
 0.1360550714173E+01
 0.1117015777151E+01
 0.9015641813508E+00
 0.7268263234966E+00
 0.5891283967178E+00
 0.4793030852655E+00
 0.3884982764962E+00
 0.3112006322744E+00
 0.2425173352640E+00
 0.1854052686757E+00
 0.1506083368259E+00
 0.1379698548033E+00
 0.1397737935972E+00
 0.1484155047906E+00
 0.1576207618086E+00
 0.1633887486715E+00
 0.1639970412183E+00
 0.1440420810369E+01
 0.1604374653012E+01
 0.1582736175742E+01
 0.1437591997916E+01
 0.1247061086610E+01
 0.1059897957860E+01
 0.8955120897606E+00
 0.7577935106379E+00
 0.6430149849339E+00
 0.5451887545751E+00
 0.4599151957097E+00
 0.3826385216021E+00
 0.3156386268067E+00
 0.2698756291287E+00
 0.2464937483854E+00
 0.2381587289460E+00
 0.2378051738337E+00
 0.2395271209523E+00
 0.2404371199698E+00
 0.2412495241752E+00
 0.1365453056752E+01
 0.1536951811179E+01
 0.1568520308017E+01
 0.1486739914821E+01
 0.1348307945697E+01
 0.1195734482190E+01
 0.1050428675572E+01
 0.9207426208400E+00
 0.8072743536673E+00
 0.7070503794852E+00
 0.6173095764278E+00
 0.5343378356186E+00
 0.4600310542387E+00
 0.4055245301224E+00
 0.3733751021732E+00
 0.3568352188649E+00
 0.3494485326903E+00
 0.3457102844605E+00
 0.3436834524207E+00
 0.3459721607786E+00
 0.1300637203973E+01
 0.1475420155061E+01
 0.1546074646384E+01
 0.1516715710884E+01
 0.1426724670722E+01
 0.1311114817878E+01
 0.1190508832496E+01
 0.1075320362929E+01
 0.9690734836890E+00
 0.8713701487369E+00
 0.7811730339657E+00
 0.6959054989213E+00
 0.6173386307778E+00
 0.5567442924167E+00
 0.5181344027318E+00
 0.4955009142032E+00
 0.4830033935487E+00
 0.4754683023300E+00
 0.4715911868003E+00
 0.4751461631586E+00
 0.1243807418270E+01
 0.1420377942084E+01
 0.1520227789983E+01
 0.1534018973899E+01
 0.1487745066587E+01
 0.1409028934811E+01
 0.1316258279539E+01
 0.1220273801973E+01
 0.1126275860710E+01
 0.1035776699897E+01
 0.9492565844005E+00
 0.8653541549285E+00
 0.7858834851548E+00
 0.7221663579289E+00
 0.6796063489871E+00
 0.6530236942298E+00
 0.6371597502529E+00
 0.6270573666874E+00
 0.6216594478451E+00
 0.6251376425227E+00
 0.1193220562584E+01
 0.1371703786733E+01
 0.1493974077012E+01
 0.1543374805974E+01
 0.1535930925719E+01
 0.1492630024565E+01
 0.1429015432557E+01
 0.1355346869568E+01
 0.1277539862503E+01
 0.1198348438174E+01
 0.1119425431544E+01
 0.1040540641856E+01
 0.9636176149130E+00
 0.8998732479071E+00
 0.8559214298128E+00
 0.8274397098603E+00
 0.8097048065809E+00
 0.7978659987037E+00
 0.7907211903947E+00
 0.7920629515120E+00
 0.1147486889897E+01
 0.1328904452085E+01
 0.1469088069311E+01
 0.1548136728386E+01
 0.1574928214841E+01
 0.1564832609565E+01
 0.1530444082082E+01
 0.1480889059967E+01
 0.1422129439154E+01
 0.1357592978039E+01
 0.1289730248606E+01
 0.1219263458705E+01
 0.1148209542620E+01
 0.1087463234637E+01
 0.1044560761844E+01
 0.1016023618889E+01
 0.9976390615552E+00
 0.9846024889282E+00
 0.9752087085294E+00
 0.9720720042562E+00
 0.1105506175348E+01
 0.1291309176670E+01
 0.1446523650255E+01
 0.1550610472385E+01
 0.1607539360218E+01
 0.1628132324096E+01
 0.1622217909608E+01
 0.1597548123965E+01
 0.1559707579829E+01
 0.1512362502962E+01
 0.1458418499215E+01
 0.1399331544286E+01
 0.1337140807731E+01
 0.1282157837057E+01
 0.1242472160684E+01
 0.1215414864810E+01
 0.1197316425959E+01
 0.1183457147770E+01
 0.1171353220106E+01
 0.1161553707802E+01
 0.1066413279837E+01
 0.1258179951051E+01
 0.1426678881250E+01
 0.1552304098272E+01
 0.1635833043518E+01
 0.1684546368112E+01
 0.1705840382782E+01
 0.1706053939439E+01
 0.1690158253044E+01
 0.1661751748357E+01
 0.1623912865497E+01
 0.1578610024651E+01
 0.1527805733017E+01
 0.1480944997229E+01
 0.1446244486495E+01
 0.1421798472428E+01
 0.1404597167699E+01
 0.1390212651931E+01
 0.1375286864315E+01
 0.1357270071759E+01
 0.1029532685810E+01
 0.1228773624390E+01
 0.1409575630903E+01
 0.1554120035737E+01
 0.1661259360365E+01
 0.1735617614772E+01
 0.1782553558598E+01
 0.1807079037114E+01
 0.1813451218674E+01
 0.1805004540380E+01
 0.1784776818749E+01
 0.1755048111412E+01
 0.1717604660478E+01
 0.1680747086615E+01
 0.1652346086017E+01
 0.1631164551986E+01
 0.1615041613478E+01
 0.1600293824260E+01
 0.1583007312271E+01
 0.1556407558280E+01
 0.9943398321684E+00
 0.1202374556993E+01
 0.1394983851509E+01
 0.1556504312215E+01
 0.1684759469609E+01
 0.1782452019905E+01
 0.1853303461190E+01
 0.1901157204970E+01
 0.1929549237880E+01
 0.1941440777713E+01
 0.1939680138484E+01
 0.1926690415421E+01
 0.1904012251939E+01
 0.1878573690795E+01
 0.1857414585881E+01
 0.1839711678536E+01
 0.1824238363894E+01
 0.1808824233649E+01
 0.1790128166996E+01
 0.1756508054495E+01
 0.9604261388738E+00
 0.1178308378704E+01
 0.1382508877182E+01
 0.1559566785959E+01
 0.1706868688485E+01
 0.1825774647951E+01
 0.1918741116000E+01
 0.1988642090231E+01
 0.2038351131009E+01
 0.2070407325246E+01
 0.2087374415262E+01
 0.2091676280820E+01
 0.2084596423962E+01
 0.2071589453123E+01
 0.2058445118642E+01
 0.2044397302206E+01
 0.2028602205144E+01
 0.2010864445356E+01
 0.1991421179240E+01
 0.1955053112167E+01
 0.9274666440172E+00
 0.1155938463644E+01
 0.1371656792563E+01
 0.1563183593469E+01
 0.1727819282518E+01
 0.1865998345090E+01
 0.1979245856628E+01
 0.2069691379577E+01
 0.2139654670961E+01
 0.2191256651422E+01
 0.2226691123511E+01
 0.2248246971075E+01
 0.2257002947261E+01
 0.2257029681408E+01
 0.2252677426521E+01
 0.2242941308296E+01
 0.2226738869731E+01
 0.2203549320832E+01
 0.2179695355807E+01
 0.2148384620421E+01
 0.8951793148844E+00
 0.1134666067276E+01
 0.1361863983112E+01
 0.1567108592268E+01
 0.1747661650729E+01
 0.1903296719868E+01
 0.2034955988754E+01
 0.2144272783482E+01
 0.2233126128669E+01
 0.2303300513073E+01
 0.2356620352445E+01
 0.2394821152452E+01
 0.2418937746285E+01
 0.2432117027209E+01
 0.2437156688418E+01
 0.2432940660967E+01
 0.2417890594976E+01
 0.2390386780025E+01
 0.2352913631438E+01
 0.2324862047490E+01
 0.9402682583065E+00
 0.1133093443255E+01
 0.1323499939365E+01
 0.1498171695205E+01
 0.1651717921743E+01
 0.1782202624965E+01
 0.1889388059855E+01
 0.1974021367563E+01
 0.2037304857389E+01
 0.2080521880886E+01
 0.2105098740183E+01
 0.2112454729825E+01
 0.2103516046772E+01
 0.2081090823346E+01
 0.2047649988759E+01
 0.2002069236326E+01
 0.1942816667905E+01
 0.1868380253577E+01
 0.1781372120137E+01
 0.1699972341898E+01
 0.9731016365185E+00
 0.1155644280141E+01
 0.1335361277067E+01
 0.1496817863998E+01
 0.1634579999261E+01
 0.1747408088185E+01
 0.1835762182557E+01
 0.1901008493827E+01
 0.1944904966072E+01
 0.1969189606115E+01
 0.1975763304679E+01
 0.1966685880730E+01
 0.1943077204155E+01
 0.1908561024054E+01
 0.1866953141294E+01
 0.1817240409892E+01
 0.1758328700457E+01
 0.1689570142636E+01
 0.1617022052119E+01
 0.1533038612660E+01
 0.1006743186500E+01
 0.1179876278285E+01
 0.1349274276768E+01
 0.1497125537482E+01
 0.1617990666031E+01
 0.1711636949807E+01
 0.1779597342483E+01
 0.1824131170405E+01
 0.1847691805617E+01
 0.1852567376513E+01
 0.1841139988892E+01
 0.1815695899809E+01
 0.1777623189830E+01
 0.1731752708453E+01
 0.1683088628275E+01
 0.1630790251966E+01
 0.1573887772104E+01
 0.1511921651214E+01
 0.1444618723712E+01
 0.1355861716881E+01
 0.1041449296082E+01
 0.1206461843257E+01
 0.1365874042388E+01
 0.1499359087557E+01
 0.1601856346152E+01
 0.1674603086579E+01
 0.1720581669612E+01
 0.1743198586509E+01
 0.1745731866284E+01
 0.1731034937080E+01
 0.1701883451765E+01
 0.1660644623373E+01
 0.1608993348635E+01
 0.1553001122445E+01
 0.1498612792145E+01
 0.1444820008235E+01
 0.1390156144825E+01
 0.1332083900229E+01
 0.1266582923347E+01
 0.1181093613073E+01
 0.1077585249393E+01
 0.1236080155376E+01
 0.1385689424923E+01
 0.1503618680178E+01
 0.1585844138173E+01
 0.1635718127737E+01
 0.1658093284194E+01
 0.1657752650418E+01
 0.1638874468921E+01
 0.1604832767179E+01
 0.1558693917734E+01
 0.1502762082726E+01
 0.1438955711929E+01
 0.1374451410968E+01
 0.1315690878030E+01
 0.1261113190505E+01
 0.1208198684195E+01
 0.1152819075335E+01
 0.1090227201304E+01
 0.1012484915838E+01
 0.1115617957757E+01
 0.1269465703736E+01
 0.1409127114162E+01
 0.1509727660514E+01
 0.1569262660068E+01
 0.1594019018366E+01
 0.1591173759039E+01
 0.1567073066424E+01
 0.1526798647818E+01
 0.1474132233048E+01
 0.1412270773724E+01
 0.1343282456993E+01
 0.1269229715501E+01
 0.1198154836709E+01
 0.1136523971719E+01
 0.1081955159102E+01
 0.1030957945730E+01
 0.9785833077993E+00
 0.9204344345763E+00
 0.8523404366795E+00
 0.1156146362899E+01
 0.1307403182447E+01
 0.1436412212768E+01
 0.1517129753324E+01
 0.1550957776860E+01
 0.1548101438281E+01
 0.1518511806296E+01
 0.1470206214284E+01
 0.1409069642447E+01
 0.1339081700676E+01
 0.1263338168618E+01
 0.1183459936496E+01
 0.1101523747761E+01
 0.1026170283709E+01
 0.9634639092659E+00
 0.9101132065074E+00
 0.8618495237532E+00
 0.8133452435094E+00
 0.7608206243675E+00
 0.7025917917702E+00
 0.1199936107608E+01
 0.1350711109241E+01
 0.1467494794109E+01
 0.1524763774691E+01
 0.1529206374883E+01
 0.1496065774430E+01
 0.1438451028652E+01
 0.1366022178941E+01
 0.1285217448635E+01
 0.1199881037529E+01
 0.1112697488428E+01
 0.1024599721566E+01
 0.9375498451144E+00
 0.8605319039877E+00
 0.7988589671088E+00
 0.7483134983697E+00
 0.7039855785101E+00
 0.6603764368063E+00
 0.6142068223299E+00
 0.5651723462767E+00
 0.1247960600104E+01
 0.1400205390196E+01
 0.1501915698609E+01
 0.1530903839612E+01
 0.1501601198155E+01
 0.1435482032908E+01
 0.1349035524999E+01
 0.1253314744338E+01
 0.1154853746288E+01
 0.1056882640167E+01
 0.9612932683868E+00
 0.8680832356543E+00
 0.7789996716992E+00
 0.7031505536290E+00
 0.6448273796689E+00
 0.5989062708087E+00
 0.5599148111153E+00
 0.5222491998395E+00
 0.4828862017056E+00
 0.4420349571067E+00
 0.1301450272167E+01
 0.1456631928413E+01
 0.1538611772789E+01
 0.1532951861166E+01
 0.1464928028364E+01
 0.1363389462676E+01
 0.1248115729540E+01
 0.1130963474374E+01
 0.1017834303771E+01
 0.9107148253919E+00
 0.8102808558993E+00
 0.7153800304469E+00
 0.6275023495305E+00
 0.5557128110657E+00
 0.5031037575460E+00
 0.4637051144587E+00
 0.4315295747977E+00
 0.4008696566365E+00
 0.3686949802754E+00
 0.3350613367484E+00
 0.1361952168581E+01
 0.1520547552724E+01
 0.1575628545786E+01
 0.1527166089399E+01
 0.1415047281768E+01
 0.1276363742488E+01
 0.1133549424183E+01
 0.9981779704588E+00
 0.8744671415170E+00
 0.7624139799627E+00
 0.6610799347854E+00
 0.5680407754147E+00
 0.4845763895586E+00
 0.4196090539598E+00
 0.3749601283388E+00
 0.3439237144544E+00
 0.3200410514727E+00
 0.2974836531697E+00
 0.2729819234267E+00
 0.2459184956468E+00
 0.1431400279974E+01
 0.1592110330423E+01
 0.1609687217704E+01
 0.1508308792444E+01
 0.1346814713152E+01
 0.1170713392166E+01
 0.1003548274343E+01
 0.8548400929295E+00
 0.7257506499504E+00
 0.6135363643022E+00
 0.5153897403041E+00
 0.4276609768751E+00
 0.3515786024646E+00
 0.2958918018569E+00
 0.2611834392554E+00
 0.2401735910537E+00
 0.2259874281044E+00
 0.2126680222699E+00
 0.1965323262531E+00
 0.1758955553559E+00
 0.1512192370122E+01
 0.1670704130673E+01
 0.1635517997572E+01
 0.1469206819822E+01
 0.1254125899226E+01
 0.1042914635044E+01
 0.8572313245014E+00
 0.7019368195071E+00
 0.5735922679327E+00
 0.4661981758407E+00
 0.3751344706855E+00
 0.2958052446354E+00
 0.2296507794863E+00
 0.1852630095263E+00
 0.1621000157898E+00
 0.1525087925617E+00
 0.1492728065429E+00
 0.1463306425849E+00
 0.1394925029013E+00
 0.1257479170149E+00
 0.1607254833768E+01
 0.1754246718662E+01
 0.1644813360278E+01
 0.1400262032981E+01
 0.1130275937204E+01
 0.8904602445078E+00
 0.6954308599535E+00
 0.5420093382929E+00
 0.4209044345998E+00
 0.3229734147501E+00
 0.2423145767171E+00
 0.1738950812943E+00
 0.1196779411479E+00
 0.8810628509275E-01
 0.7765531471847E-01
 0.8051650975934E-01
 0.8924116881496E-01
 0.9774370406714E-01
 0.1013389843069E+00
 0.9560240849864E-01
 0.1720037393796E+01
 0.1837860387459E+01
 0.1624560915544E+01
 0.1289097414697E+01
 0.9690418852727E+00
 0.7133691480392E+00
 0.5216778848650E+00
 0.3794108880273E+00
 0.2714126816629E+00
 0.1865980918163E+00
 0.1187766431700E+00
 0.6310926653007E-01
 0.2250113767613E-01
 0.6178332693013E-02
 0.8330567143046E-02
 0.2350206234728E-01
 0.4478924419560E-01
 0.6563784199446E-01
 0.8093242032779E-01
 0.8497636393810E-01
 0.1854240784384E+01
 0.1911172421833E+01
 0.1554394390102E+01
 0.1120961830318E+01
 0.7673504410284E+00
 0.5164813569355E+00
 0.3429746391285E+00
 0.2199274243553E+00
 0.1290607445032E+00
 0.5952730023340E-01
 0.6450138743987E-02
 0.3620449127781E-01
 0.6278519723321E-01
 0.6624810427879E-01
 0.4947152475462E-01
 0.1997784257064E-01
 0.1454647875193E-01
 0.4837538322092E-01
 0.7658483653230E-01
 0.9272666107077E-01
 0.2012743477842E+01
 0.1952341760119E+01
 0.1402588269170E+01
 0.8820474910337E+00
 0.5307967128560E+00
 0.3121007765886E+00
 0.1689162451385E+00
 0.6949704747708E-01
 0.2836029001135E-02
 0.5659264310466E-01
 0.9554265492004E-01
 0.1229864653347E+00
 0.1346356984661E+00
 0.1234095629298E+00
 0.9276029258904E-01
 0.4998999150869E-01
 0.3986864596512E-02
 0.4405203211257E-01
 0.8595792187103E-01
 0.1168330916351E+00
 0.2192729233026E+01
 0.1913355109176E+01
 0.1121895443754E+01
 0.5714497684361E+00
 0.2842861944749E+00
 0.1173274676928E+00
 0.8925353945189E-02
 0.6738439805406E-01
 0.1222022370469E+00
 0.1609549964899E+00
 0.1854170410344E+00
 0.1979244010868E+00
 0.1938508124697E+00
 0.1675889131420E+00
 0.1231201897422E+00
 0.6763723432049E-01
 0.1069045804415E-01
 0.5032747809506E-01
 0.1059999999328E+00
 0.1545178789056E+00
 0.2371285212842E+01
 0.1674483533293E+01
 0.6575218963847E+00
 0.2501036318271E+00
 0.6098301210548E-01
 0.5471867978669E-01
 0.1324339569356E+00
 0.1883963708680E+00
 0.2284070641826E+00
 0.2540074167193E+00
 0.2646604874081E+00
 0.2616495839041E+00
 0.2404569725026E+00
 0.1984145808282E+00
 0.1402260393712E+00
 0.7305031869864E-01
 0.1029098434754E-01
 0.6474278495227E-01
 0.1328911568596E+00
 0.2023995628374E+00
 0.2293937209468E+01
 0.8747132219465E+00
 0.1742201282510E+00
 0.1368612418422E-01
 0.1234380094258E+00
 0.1972272764602E+00
 0.2521964542462E+00
 0.2934410525258E+00
 0.3217431112691E+00
 0.3366584663342E+00
 0.3359414819063E+00
 0.3158558611315E+00
 0.2735801054107E+00
 0.2142540846620E+00
 0.1432191572421E+00
 0.6622892265618E-01
 0.1700690082899E-01
 0.8690784107616E-01
 0.1616360308544E+00
 0.2548412814678E+00
 0.2369203186788E+01
 0.2192210974014E+01
 0.2013629779860E+01
 0.1832190578915E+01
 0.1646503476577E+01
 0.1457875617855E+01
 0.1268495381471E+01
 0.1081129823829E+01
 0.8989849258882E+00
 0.7256726051052E+00
 0.5651827290534E+00
 0.4218211034219E+00
 0.3000740165622E+00
 0.2043540604276E+00
 0.1385891878123E+00
 0.1057126812533E+00
 0.1070761249973E+00
 0.1413068824445E+00
 0.2038411639904E+00
 0.2918417986598E+00
 0.2546767248011E+01
 0.2394336047027E+01
 0.2220906692704E+01
 0.2037918003825E+01
 0.1848864329353E+01
 0.1655169371076E+01
 0.1458427142321E+01
 0.1260728477525E+01
 0.1064789908216E+01
 0.8739988346260E+00
 0.6924455838428E+00
 0.5249338490962E+00
 0.3769419059742E+00
 0.2544820243518E+00
 0.1637762672754E+00
 0.1106972919440E+00
 0.1001503801873E+00
 0.1345704764805E+00
 0.2117722117918E+00
 0.3256230753024E+00
 0.2727753302932E+01
 0.2587954758431E+01
 0.2429432917731E+01
 0.2255420924751E+01
 0.2070656625202E+01
 0.1877754146312E+01
 0.1678558817811E+01
 0.1474950525015E+01
 0.1269227305463E+01
 0.1064335557216E+01
 0.8640332305431E+00
 0.6730303200325E+00
 0.4971121284164E+00
 0.3432213753545E+00
 0.2194293309311E+00
 0.1346565274393E+00
 0.9812195209713E-01
 0.1184094475195E+00
 0.1985609736408E+00
 0.3314800200000E+00
 0.2914276922722E+01
 0.2785730132840E+01
 0.2640978926129E+01
 0.2480217277691E+01
 0.2305699292847E+01
 0.2119769344637E+01
 0.1924239865255E+01
 0.1720766107012E+01
 0.1511205904625E+01
 0.1297903481541E+01
 0.1083934457153E+01
 0.8733488098781E+00
 0.6714412338212E+00
 0.4850648017341E+00
 0.3229797153359E+00
 0.1961631089075E+00
 0.1178959129765E+00
 0.1038156662378E+00
 0.1690432930961E+00
 0.3159483885179E+00
 0.3103099797791E+01
 0.2986982831554E+01
 0.2856521220648E+01
 0.2710676681087E+01
 0.2550154437611E+01
 0.2376255530620E+01
 0.2190303775808E+01
 0.1993544756517E+01
 0.1787314950905E+01
 0.1573257295650E+01
 0.1353551013037E+01
 0.1131171053526E+01
 0.9102112210710E+00
 0.6963178618805E+00
 0.4972944060276E+00
 0.3239485342408E+00
 0.1912350673981E+00
 0.1198404402114E+00
 0.1391956822595E+00
 0.2802593466312E+00
 0.3291128411328E+01
 0.3189006896622E+01
 0.3073789708904E+01
 0.2944203654456E+01
 0.2800087646397E+01
 0.2641938876266E+01
 0.2470485704746E+01
 0.2286514448038E+01
 0.2090875690109E+01
 0.1884591511846E+01
 0.1669008109373E+01
 0.1445990685138E+01
 0.1218185758148E+01
 0.9894022215200E+00
 0.7652005868121E+00
 0.5538488603136E+00
 0.3679514222278E+00
 0.2274117439171E+00
 0.1660333922573E+00
 0.2473088497045E+00
 0.3475344674282E+01
 0.3388411181741E+01
 0.3289305104126E+01
 0.3176879180030E+01
 0.3050626350985E+01
 0.2910558010660E+01
 0.2756979638008E+01
 0.2590338891914E+01
 0.2411181928617E+01
 0.2220186876216E+01
 0.2018247847678E+01
 0.1806598827483E+01
 0.1586989210194E+01
 0.1361945621355E+01
 0.1135188575041E+01
 0.9123392428891E+00
 0.7021972931946E+00
 0.5192971151018E+00
 0.3896183865579E+00
 0.3702339728581E+00
 0.3653005383793E+01
 0.3581881633635E+01
 0.3499329730491E+01
 0.3404415190057E+01
 0.3296533922282E+01
 0.3175447159628E+01
 0.3041190913518E+01
 0.2893985213367E+01
 0.2734189778129E+01
 0.2562309542150E+01
 0.2379038063147E+01
 0.2185330311357E+01
 0.1982504116406E+01
 0.1772378873462E+01
 0.1557470265706E+01
 0.1341271683713E+01
 0.1128673413491E+01
 0.9265516399331E+00
 0.7446272990835E+00
 0.5931332020825E+00
 0.3821623054837E+01
 0.3766335617947E+01
 0.3700274116763E+01
 0.3622652613691E+01
 0.3532834792242E+01
 0.3430416907193E+01
 0.3315209131200E+01
 0.3187189239017E+01
 0.3046467437220E+01
 0.2893272600706E+01
 0.2727955622419E+01
 0.2550999644959E+01
 0.2363024243360E+01
 0.2164764794420E+01
 0.1956992297142E+01
 0.1740298677794E+01
 0.1514562640514E+01
 0.1277615521616E+01
 0.1021495710489E+01
 0.7199368185265E+00
 0.3978914635097E+01
 0.3938893534668E+01
 0.3888711101228E+01
 0.3827605864669E+01
 0.3754875338473E+01
 0.3669943785726E+01
 0.3572367512768E+01
 0.3461808815937E+01
 0.3338001677116E+01
 0.3200717113930E+01
 0.3049724083218E+01
 0.2884733291789E+01
 0.2705302611309E+01
 0.2510669169028E+01
 0.2299446849275E+01
 0.2069073718655E+01
 0.1814780691088E+01
 0.1527612193273E+01
 0.1190530790053E+01
 0.7737836949522E+00
 0.4122881246370E+01
 0.4097101522256E+01
 0.4061708074576E+01
 0.4015861658930E+01
 0.3958728872247E+01
 0.3889518014325E+01
 0.3807481847378E+01
 0.3711894139488E+01
 0.3602009695450E+01
 0.3477010777277E+01
 0.3335934672808E+01
 0.3177569319346E+01
 0.3000295162335E+01
 0.2801839295617E+01
 0.2578889192758E+01
 0.2326485255917E+01
 0.2037081383590E+01
 0.1699181838146E+01
 0.1296085889876E+01
 0.8082859314301E+00
 0.4251795555947E+01
 0.4238917996832E+01
 0.4216872216261E+01
 0.4184679810605E+01
 0.4141320649496E+01
 0.4085743210655E+01
 0.4016856108354E+01
 0.3933499583237E+01
 0.3834398942020E+01
 0.3718099396545E+01
 0.3582877036271E+01
 0.3426615550897E+01
 0.3246633107368E+01
 0.3039438704218E+01
 0.2800394265022E+01
 0.2523266277168E+01
 0.2199696430344E+01
 0.1818821329273E+01
 0.1367907251469E+01
 0.8374242764156E+00
 0.4364202251329E+01
 0.4362674421236E+01
 0.4352308530425E+01
 0.4331955873768E+01
 0.4300377468854E+01
 0.4256237435480E+01
 0.4198084204848E+01
 0.4124316732963E+01
 0.4033134987399E+01
 0.3922473147704E+01
 0.3789911894349E+01
 0.3632564126853E+01
 0.3446927567124E+01
 0.3228699750990E+01
 0.2972560181735E+01
 0.2671951096140E+01
 0.2318959651503E+01
 0.1904575763900E+01
 0.1420057799377E+01
 0.8632470610804E+00
 0.4458913019853E+01
 0.4467042258247E+01
 0.4466557936947E+01
 0.4456132072621E+01
 0.4434299254616E+01
 0.4399439621741E+01
 0.4349753470253E+01
 0.4283225404530E+01
 0.4197577168698E+01
 0.4090208367877E+01
 0.3958123994501E+01
 0.3797848000732E+01
 0.3605324310726E+01
 0.3375812605868E+01
 0.3103799488451E+01
 0.2782973216336E+01
 0.2406364787533E+01
 0.1966876794584E+01
 0.1458895954374E+01
 0.8855078767246E+00
 0.4534991903111E+01
 0.4550998863391E+01
 0.4558534154331E+01
 0.4556099188409E+01
 0.4542016074290E+01
 0.4514404494719E+01
 0.4471153392158E+01
 0.4409886586701E+01
 0.4327922391934E+01
 0.4222227884884E+01
 0.4089369209889E+01
 0.3925460831828E+01
 0.3726119912454E+01
 0.3486438260560E+01
 0.3200995592605E+01
 0.2863957426438E+01
 0.2469338066909E+01
 0.2011618680074E+01
 0.1487461376239E+01
 0.9037029228543E+00
 0.4591736529641E+01
 0.4613794206034E+01
 0.4627466924728E+01
 0.4631108967561E+01
 0.4622861434443E+01
 0.4600625766232E+01
 0.4562035058750E+01
 0.4504423437027E+01
 0.4424794656918E+01
 0.4319791973380E+01
 0.4185672431428E+01
 0.4018290492830E+01
 0.3813098796249E+01
 0.3565178493598E+01
 0.3269319002710E+01
 0.2920179939198E+01
 0.2512599850000E+01
 0.2042236699375E+01
 0.1507352633361E+01
 0.9174817690650E+00
 0.4628658084450E+01
 0.4654918170732E+01
 0.4672850748317E+01
 0.4680698397763E+01
 0.4676466134714E+01
 0.4657893120680E+01
 0.4622424804753E+01
 0.4567186608774E+01
 0.4488961200696E+01
 0.4384172365067E+01
 0.4248879605950E+01
 0.4078789045454E+01
 0.3869288081364E+01
 0.3615513938265E+01
 0.3312470631704E+01
 0.2955218979351E+01
 0.2539197371541E+01
 0.2060866456837E+01
 0.1519561045540E+01
 0.9267049831215E+00
 0.4645463840876E+01
 0.4674073209780E+01
 0.4694403668940E+01
 0.4704630569051E+01
 0.4702677384526E+01
 0.4686186252790E+01
 0.4652490956366E+01
 0.4598593930101E+01
 0.4521149801370E+01
 0.4416458974375E+01
 0.4280475783790E+01
 0.4108836749137E+01
 0.3896915479217E+01
 0.3639912052002E+01
 0.3332987515078E+01
 0.2971463623688E+01
 0.2551143667448E+01
 0.2068956637440E+01
 0.1524861646816E+01
 0.9314593348352E+00
 0.4642044308656E+01
 0.4671154445301E+01
 0.4692037925528E+01
 0.4702853487264E+01
 0.4701503753605E+01
 0.4685604584404E+01
 0.4652458237305E+01
 0.4599031717720E+01
 0.4521942846369E+01
 0.4417457682038E+01
 0.4281503894874E+01
 0.4109705493396E+01
 0.3897444940132E+01
 0.3639959418364E+01
 0.3332480312086E+01
 0.2970434394800E+01
 0.2549762150314E+01
 0.2067559444204E+01
 0.1523997680920E+01
 0.9321090372965E+00
 0.4618466727103E+01
 0.4646239012051E+01
 0.4665843827469E+01
 0.4675477695345E+01
 0.4673085814094E+01
 0.4656330627882E+01
 0.4622564512802E+01
 0.4568807153964E+01
 0.4491729920518E+01
 0.4387650687465E+01
 0.4252543588446E+01
 0.4082069132487E+01
 0.3871630988720E+01
 0.3616466786984E+01
 0.3311782857090E+01
 0.2952952234013E+01
 0.2535831332842E+01
 0.2057398669530E+01
 0.1517657324151E+01
 0.9292917788129E+00
 0.4574973302484E+01
 0.4599581221925E+01
 0.4616082375197E+01
 0.4622765776185E+01
 0.4617681257509E+01
 0.4598609344626E+01
 0.4563033139936E+01
 0.4508112780909E+01
 0.4430664301990E+01
 0.4327145839911E+01
 0.4193655280121E+01
 0.4025944795859E+01
 0.3819459392374E+01
 0.3569408788206E+01
 0.3270885779386E+01
 0.2919054037314E+01
 0.2509462310427E+01
 0.2038681283396E+01
 0.1506167397041E+01
 0.9235828035471E+00
 0.4511978020844E+01
 0.4531607086765E+01
 0.4543179064166E+01
 0.4545122890212E+01
 0.4535648686661E+01
 0.4512720615594E+01
 0.4474028343344E+01
 0.4416957654740E+01
 0.4338561348594E+01
 0.4235532412779E+01
 0.4104182658552E+01
 0.3940431756367E+01
 0.3739814307327E+01
 0.3497516691600E+01
 0.3208461849187E+01
 0.2867472088295E+01
 0.2469572536071E+01
 0.2010625427792E+01
 0.1489138217845E+01
 0.9150967834845E+00
 0.4430078436492E+01
 0.4442934170510E+01
 0.4447751649150E+01
 0.4443134486151E+01
 0.4427497284082E+01
 0.4399042569275E+01
 0.4355733035300E+01
 0.4295258947959E+01
 0.4215000835912E+01
 0.4111988037317E+01
 0.3982854568523E+01
 0.3823795559677E+01
 0.3630530863367E+01
 0.3398288421705E+01
 0.3121830225675E+01
 0.2795561041824E+01
 0.2413795474843E+01
 0.1971373767051E+01
 0.1465397194894E+01
 0.9033256634353E+00
 0.4330071346415E+01
 0.4334400266321E+01
 0.4330654162903E+01
 0.4317631620931E+01
 0.4293980778877E+01
 0.4258182094894E+01
 0.4208523519570E+01
 0.4143067087208E+01
 0.4059605850961E+01
 0.3955609939201E+01
 0.3828160655438E+01
 0.3673872546459E+01
 0.3488806191761E+01
 0.3268380886731E+01
 0.3007309438203E+01
 0.2699602895632E+01
 0.2338740772246E+01
 0.1918215055607E+01
 0.1433148119030E+01
 0.8874876844360E+00
 0.4212967447325E+01
 0.4207090502605E+01
 0.4193020659173E+01
 0.4169755857393E+01
 0.4136188880668E+01
 0.4091098313216E+01
 0.4033129666685E+01
 0.3960765089441E+01
 0.3872279614314E+01
 0.3765680991117E+01
 0.3638629091775E+01
 0.3488330152520E+01
 0.3311401632416E+01
 0.3103707121896E+01
 0.2860171943243E+01
 0.2574617941990E+01
 0.2239724310760E+01
 0.1847365564381E+01
 0.1390007013193E+01
 0.8669232995625E+00
 0.4080007282259E+01
 0.4062366543185E+01
 0.4036312713122E+01
 0.4001030695877E+01
 0.3955649124066E+01
 0.3899241938442E+01
 0.3830818746122E+01
 0.3749302295249E+01
 0.3653490824752E+01
 0.3542001396445E+01
 0.3413187857791E+01
 0.3265024040464E+01
 0.3094939480775E+01
 0.2899592331621E+01
 0.2674565282111E+01
 0.2413985678997E+01
 0.2110127655462E+01
 0.1753261216948E+01
 0.1332527766631E+01
 0.8410003249861E+00
 0.3932675930481E+01
 0.3901895379467E+01
 0.3862368450744E+01
 0.3813438610243E+01
 0.3754441437845E+01
 0.3684718860496E+01
 0.3603621238812E+01
 0.3510496436583E+01
 0.3404664822941E+01
 0.3285377018682E+01
 0.3151747565007E+01
 0.3002652598518E+01
 0.2836572500774E+01
 0.2651350298800E+01
 0.2443822461040E+01
 0.2209262008004E+01
 0.1940573449074E+01
 0.1627266325608E+01
 0.1254980881850E+01
 0.8087083636156E+00
 0.3772712621718E+01
 0.3727672641656E+01
 0.3673446855475E+01
 0.3609495864523E+01
 0.3535315960555E+01
 0.3450467443429E+01
 0.3354588868959E+01
 0.3247398569717E+01
 0.3128685706545E+01
 0.2998290638278E+01
 0.2856070107296E+01
 0.2701836861978E+01
 0.2535254715375E+01
 0.2355655807697E+01
 0.2161721304760E+01
 0.1950919246361E+01
 0.1718503451507E+01
 0.1455728869792E+01
 0.1146818801880E+01
 0.7674561398189E+00
 0.3602109819293E+01
 0.3542032734346E+01
 0.3472256746261E+01
 0.3392310436164E+01
 0.3301794249577E+01
 0.3200424150536E+01
 0.3088054801951E+01
 0.2964689054723E+01
 0.2830482190793E+01
 0.2685745919948E+01
 0.2530952406063E+01
 0.2366733695164E+01
 0.2193865703623E+01
 0.2013215295045E+01
 0.1825607222050E+01
 0.1631519050552E+01
 0.1430393406609E+01
 0.1219050520678E+01
 0.9876649269502E+00
 0.7090385027034E+00
 0.3423094761543E+01
 0.3347635462502E+01
 0.3261956044993E+01
 0.3165601775936E+01
 0.3058223023976E+01
 0.2939634820476E+01
 0.2809840021286E+01
 0.2669035229865E+01
 0.2517617801175E+01
 0.2356204915088E+01
 0.2185669992779E+01
 0.2007199056765E+01
 0.1822369220125E+01
 0.1633251823532E+01
 0.1442541541135E+01
 0.1253704355206E+01
 0.1071105667363E+01
 0.8999392166738E+00
 0.7453325486500E+00
 0.6045784412701E+00
 0.3238088348549E+01
 0.3147424269738E+01
 0.3046109969490E+01
 0.2933658100280E+01
 0.2809737518203E+01
 0.2674244398462E+01
 0.2527307495705E+01
 0.2369273465412E+01
 0.2200702776516E+01
 0.2022390892100E+01
 0.1835421433796E+01
 0.1641257863749E+01
 0.1441886287177E+01
 0.1240034690248E+01
 0.1039517224284E+01
 0.8457977384714E+00
 0.6669656444462E+00
 0.5155862525074E+00
 0.4127044457532E+00
 0.4004912478849E+00
 0.3049633709640E+01
 0.2944545966014E+01
 0.2828582089961E+01
 0.2701179746390E+01
 0.2562051938581E+01
 0.2411243182731E+01
 0.2249090394597E+01
 0.2076174710515E+01
 0.1893305396951E+01
 0.1701548517870E+01
 0.1502303334104E+01
 0.1297432466364E+01
 0.1089463831766E+01
 0.8819030864481E+00
 0.6797314292624E+00
 0.4902318413320E+00
 0.3244229303817E+00
 0.1996968711142E+00
 0.1459135002940E+00
 0.2267754226975E+00
 0.2860291676282E+01
 0.2742206277930E+01
 0.2613271200583E+01
 0.2472835338887E+01
 0.2320765176696E+01
 0.2157417815158E+01
 0.1983519910284E+01
 0.1800079856732E+01
 0.1608373428332E+01
 0.1410001911809E+01
 0.1207013529665E+01
 0.1002089044376E+01
 0.7988082948775E+00
 0.6020352509886E+00
 0.4184881691738E+00
 0.2576020071256E+00
 0.1327918364679E+00
 0.6258915893734E-01
 0.7547111082762E-01
 0.2181921176959E+00
 0.2672538277585E+01
 0.2543454177947E+01
 0.2403689267600E+01
 0.2252572112724E+01
 0.2090323970131E+01
 0.1917835420629E+01
 0.1736412037603E+01
 0.1547645600317E+01
 0.1353420273951E+01
 0.1156012151971E+01
 0.9582517975720E+00
 0.7637384530526E+00
 0.5771127903932E+00
 0.4044056890554E+00
 0.2534824727840E+00
 0.1345615741469E+00
 0.6031626575469E-01
 0.4455631119963E-01
 0.1101687275454E+00
 0.2696369432949E+00
 0.2488635822156E+01
 0.2350885455525E+01
 0.2202549946945E+01
 0.2043143872875E+01
 0.1873558429687E+01
 0.1695454697649E+01
 0.1510828325128E+01
 0.1321877537702E+01
 0.1131060819904E+01
 0.9412448513547E+00
 0.7558814736201E+00
 0.5791964100031E+00
 0.4163845355658E+00
 0.2737999824696E+00
 0.1590894708080E+00
 0.8101729891791E-01
 0.4827077596291E-01
 0.7156814755001E-01
 0.1596455954953E+00
 0.3088157505823E+00
 0.2310714421233E+01
 0.2166754813756E+01
 0.2011931665851E+01
 0.1846430208538E+01
 0.1672277464784E+01
 0.1492070089349E+01
 0.1308442649690E+01
 0.1124033712551E+01
 0.9416686170277E+00
 0.7645484850321E+00
 0.5964054064411E+00
 0.4416163579108E+00
 0.3052663037462E+00
 0.1931251000741E+00
 0.1114242580905E+00
 0.6618353957073E-01
 0.6311830194514E-01
 0.1078127335007E+00
 0.1995563367899E+00
 0.3316235344994E+00
 0.2140788308725E+01
 0.1992809837670E+01
 0.1832993957812E+01
 0.1663270559507E+01
 0.1487296821920E+01
 0.1308538254391E+01
 0.1129897172041E+01
 0.9541110969416E+00
 0.7840647494860E+00
 0.6229761780840E+00
 0.4744856297265E+00
 0.3426642720473E+00
 0.2319373688310E+00
 0.1468801479310E+00
 0.9180635898590E-01
 0.7036583272983E-01
 0.8579634880017E-01
 0.1388297504571E+00
 0.2260236679338E+00
 0.3410918186779E+00
 0.1980574533223E+01
 0.1829579884131E+01
 0.1665275186394E+01
 0.1493105653113E+01
 0.1318612086869E+01
 0.1145128178788E+01
 0.9752002129059E+00
 0.8113070753603E+00
 0.6561406548786E+00
 0.5126943025983E+00
 0.3842415386229E+00
 0.2742379431778E+00
 0.1861415891715E+00
 0.1231308888238E+00
 0.8777097452811E-01
 0.8195211475577E-01
 0.1065319989059E+00
 0.1600439511166E+00
 0.2390345929765E+00
 0.3386809785661E+00
 0.1831130201535E+01
 0.1674810324981E+01
 0.1505625712245E+01
 0.1335096952874E+01
 0.1166871383243E+01
 0.1002776283308E+01
 0.8447070444933E+00
 0.6948489320625E+00
 0.5556828895874E+00
 0.4298976203576E+00
 0.3202672826213E+00
 0.2294908620749E+00
 0.1599840966862E+00
 0.1136370811546E+00
 0.9164943556946E-01
 0.9447954222742E-01
 0.1213830216269E+00
 0.1701645204542E+00
 0.2382234812791E+00
 0.3234522605698E+00
 0.1687325816691E+01
 0.1516088164408E+01
 0.1352063400117E+01
 0.1192341895977E+01
 0.1035931208356E+01
 0.8843092226031E+00
 0.7396129636609E+00
 0.6042384550351E+00
 0.4806297855635E+00
 0.3711635076901E+00
 0.2780372833328E+00
 0.2031389464113E+00
 0.1478933049138E+00
 0.1131216039302E+00
 0.9897522991656E-01
 0.1048376105361E+00
 0.1290693033929E+00
 0.1691692676970E+00
 0.2223810222106E+00
 0.2888947461584E+00
</DataArray>
<DataArray type="Float64" Name="S_Hyd" NumberOfComponents="1" ComponentName0="S_Hyd" format="ascii">
 0.1526460494826E+01
 0.1032756629260E+01
 0.9758817470783E+00
 0.9342550813767E+00
 0.9203118858776E+00
 0.9170589095433E+00
 0.9217644238106E+00
 0.9318395621810E+00
 0.9461716798566E+00
 0.9640956472341E+00
 0.9853186327924E+00
 0.1009783497968E+01
 0.1037629381944E+01
 0.1069176643237E+01
 0.1104940746094E+01
 0.1145690059758E+01
 0.1192566618207E+01
 0.1247382470694E+01
 0.1313827071139E+01
 0.1398194513451E+01
 0.1499772649625E+01
 0.1608391947354E+01
 0.1715866157489E+01
 0.1819568271745E+01
 0.1920296824538E+01
 0.2020042493332E+01
 0.2120738886314E+01
 0.2223786741041E+01
 0.2329717454178E+01
 0.2436976833980E+01
 0.2542859086355E+01
 0.2649909371777E+01
 0.2765017798371E+01
 0.2895094993042E+01
 0.3048767346878E+01
 0.3241673926065E+01
 0.3490974713645E+01
 0.3872499890913E+01
 0.4320091089154E+01
 0.5910714575443E+01
 0.1226730085228E+01
 0.1380496289998E+01
 0.1142563270928E+01
 0.1014389828747E+01
 0.9757696187604E+00
 0.9541818608804E+00
 0.9476427340585E+00
 0.9493681307768E+00
 0.9572302325862E+00
 0.9697531149359E+00
 0.9861969197927E+00
 0.1006180141907E+01
 0.1029592601165E+01
 0.1056531832824E+01
 0.1087286679898E+01
 0.1122348817840E+01
 0.1162467044222E+01
 0.1208764077542E+01
 0.1263062931993E+01
 0.1328642089441E+01
 0.1408648291344E+01
 0.1501285778608E+01
 0.1599808857577E+01
 0.1698155191006E+01
 0.1793807403779E+01
 0.1886869391752E+01
 0.1978515645490E+01
 0.2069979850655E+01
 0.2162047727756E+01
 0.2254584836225E+01
 0.2346170776973E+01
 0.2435564521568E+01
 0.2524034570625E+01
 0.2615049182679E+01
 0.2712378250154E+01
 0.2820308003873E+01
 0.2942119291957E+01
 0.3087813675992E+01
 0.3230570221576E+01
 0.3440523301826E+01
 0.2988337488327E+01
-0.1495913180004E+01
 0.1321077329320E+01
 0.1174493061973E+01
 0.1061693572421E+01
 0.1010576940862E+01
 0.9868843976234E+00
 0.9767278186781E+00
 0.9760412177309E+00
 0.9818320339108E+00
 0.9926664236463E+00
 0.1007680364027E+01
 0.1026438509851E+01
 0.1048780335084E+01
 0.1074764947861E+01
 0.1104647403808E+01
 0.1138887550268E+01
 0.1178197434776E+01
 0.1223650041365E+01
 0.1276952868504E+01
 0.1340500325584E+01
 0.1415732540360E+01
 0.1500629678460E+01
 0.1590264306598E+01
 0.1680086850893E+01
 0.1767821895093E+01
 0.1853121799830E+01
 0.1936533284110E+01
 0.2018697068382E+01
 0.2099849689585E+01
 0.2179451277131E+01
 0.2256242915724E+01
 0.2329229632479E+01
 0.2398593187074E+01
 0.2465344069757E+01
 0.2530253271950E+01
 0.2592340890306E+01
 0.2648341383414E+01
 0.2682530087882E+01
 0.2665373814324E+01
 0.2450897657971E+01
 0.1324374630035E+01
-0.2091219347023E+01
 0.1292001418896E+01
 0.1189471652571E+01
 0.1097299220842E+01
 0.1043890186484E+01
 0.1016998254590E+01
 0.1004561272639E+01
 0.1001655708356E+01
 0.1005625087479E+01
 0.1014878216548E+01
 0.1028524737512E+01
 0.1046075963552E+01
 0.1067332785952E+01
 0.1092317374326E+01
 0.1121249086047E+01
 0.1154548025652E+01
 0.1192873042172E+01
 0.1237213474061E+01
 0.1289005433226E+01
 0.1349850363683E+01
 0.1420221480080E+01
 0.1498126570993E+01
 0.1579761329117E+01
 0.1661593779335E+01
 0.1741600843077E+01
 0.1819143704954E+01
 0.1894287241880E+01
 0.1967176966978E+01
 0.2037603155220E+01
 0.2104750526888E+01
 0.2167344043745E+01
 0.2224216672183E+01
 0.2274548330270E+01
 0.2317435602242E+01
 0.2350798051613E+01
 0.2369771752833E+01
 0.2362918001172E+01
 0.2305164818207E+01
 0.2135369849042E+01
 0.1660160696381E+01
 0.4166031995881E+00
-0.2136824093007E+01
 0.1277492108443E+01
 0.1200004632645E+01
 0.1124571165262E+01
 0.1073792278853E+01
 0.1045173509367E+01
 0.1030913634977E+01
 0.1026232330988E+01
 0.1028570019849E+01
 0.1036371122185E+01
 0.1048712962158E+01
 0.1065080298728E+01
 0.1085240788640E+01
 0.1109182974183E+01
 0.1137088417992E+01
 0.1169330114171E+01
 0.1206499544065E+01
 0.1249458247217E+01
 0.1299321444646E+01
 0.1357072923907E+01
 0.1422617237338E+01
 0.1494067391266E+01
 0.1568364780427E+01
 0.1642669446478E+01
 0.1715169652644E+01
 0.1785035493794E+01
 0.1851961677775E+01
 0.1915690643455E+01
 0.1975657555447E+01
 0.2030815655803E+01
 0.2079754698141E+01
 0.2120974794208E+01
 0.2152767350297E+01
 0.2172645594539E+01
 0.2176279200391E+01
 0.2155364644738E+01
 0.2093603254895E+01
 0.1958203588059E+01
 0.1675315907191E+01
 0.1081148689717E+01
-0.9217634236107E-01
-0.2041191778330E+01
 0.1271272838154E+01
 0.1209479701393E+01
 0.1146764260435E+01
 0.1100219442873E+01
 0.1071373507129E+01
 0.1055843255917E+01
 0.1049737642271E+01
 0.1050659638911E+01
 0.1057130507825E+01
 0.1068235347269E+01
 0.1083444013235E+01
 0.1102500078225E+01
 0.1125360806905E+01
 0.1152168460134E+01
 0.1183242851198E+01
 0.1219093623084E+01
 0.1260427251844E+01
 0.1308049429108E+01
 0.1362482201235E+01
 0.1423286642164E+01
 0.1488697368226E+01
 0.1556172017639E+01
 0.1623349536263E+01
 0.1688581037058E+01
 0.1750905761980E+01
 0.1809734079251E+01
 0.1864486121606E+01
 0.1914310415695E+01
 0.1957948231338E+01
 0.1993795090518E+01
 0.2019977409286E+01
 0.2034020134001E+01
 0.2032196901651E+01
 0.2008423402909E+01
 0.1952057702751E+01
 0.1843917473092E+01
 0.1647976458760E+01
 0.1294881534171E+01
 0.6654161366896E+00
-0.3871213962730E+00
-0.1915787468544E+01
 0.1270236281497E+01
 0.1218942401012E+01
 0.1165842561942E+01
 0.1123736812066E+01
 0.1095628920477E+01
 0.1079393897785E+01
 0.1072179593136E+01
 0.1071889774404E+01
 0.1077152078034E+01
 0.1087087284008E+01
 0.1101164744055E+01
 0.1119111055536E+01
 0.1140855054396E+01
 0.1166498631780E+01
 0.1196303405716E+01
 0.1230686450628E+01
 0.1270190822376E+01
 0.1315348464646E+01
 0.1366340274369E+01
 0.1422515992515E+01
 0.1482225693090E+01
 0.1543294348532E+01
 0.1603697552202E+01
 0.1661907104872E+01
 0.1716868506875E+01
 0.1767773640749E+01
 0.1813787055502E+01
 0.1853823126203E+01
 0.1886428694757E+01
 0.1909789834420E+01
 0.1921677518026E+01
 0.1918996277932E+01
 0.1897094217224E+01
 0.1848687239211E+01
 0.1761805463934E+01
 0.1616223483580E+01
 0.1377217238858E+01
 0.9874281799124E+00
 0.3662663812770E+00
-0.5622503124353E+00
-0.1793568807579E+01
 0.1272622968663E+01
 0.1228701192238E+01
 0.1182941734529E+01
 0.1144954362965E+01
 0.1118094006582E+01
 0.1101617562188E+01
 0.1093583409518E+01
 0.1092267646952E+01
 0.1096438094582E+01
 0.1105269934417E+01
 0.1118244742494E+01
 0.1135078658963E+01
 0.1155674800348E+01
 0.1180094252128E+01
 0.1208536944968E+01
 0.1241322252059E+01
 0.1278834601243E+01
 0.1321373936368E+01
 0.1368869289905E+01
 0.1420538848385E+01
 0.1474834486108E+01
 0.1529847776393E+01
 0.1583794080176E+01
 0.1635232882707E+01
 0.1683040171019E+01
 0.1726239934482E+01
 0.1763795198282E+01
 0.1794429159717E+01
 0.1816516497110E+01
 0.1828046930782E+01
 0.1826488688960E+01
 0.1808279939479E+01
 0.1768146247998E+01
 0.1698127906437E+01
 0.1585810050041E+01
 0.1411543897406E+01
 0.1144694194455E+01
 0.7411749889076E+00
 0.1491386382736E+00
-0.6672854200569E+00
-0.1682593524815E+01
 0.1277347857353E+01
 0.1238806613818E+01
 0.1198727227514E+01
 0.1164375849132E+01
 0.1138976438254E+01
 0.1122590342460E+01
 0.1113984974414E+01
 0.1111810269209E+01
 0.1114997258464E+01
 0.1122789558823E+01
 0.1134690687150E+01
 0.1150412074965E+01
 0.1169833718302E+01
 0.1192976095144E+01
 0.1219975949782E+01
 0.1251055010439E+01
 0.1286451234728E+01
 0.1326272291916E+01
 0.1370260570928E+01
 0.1417551981564E+01
 0.1466685177237E+01
 0.1515948257438E+01
 0.1563729310342E+01
 0.1608651014451E+01
 0.1649536865638E+01
 0.1685282244140E+01
 0.1714692706782E+01
 0.1736337754638E+01
 0.1748447356311E+01
 0.1748845910329E+01
 0.1734769389676E+01
 0.1702343982618E+01
 0.1645952767637E+01
 0.1557417788311E+01
 0.1424609179413E+01
 0.1229588094958E+01
 0.9469154360628E+00
 0.5443341349401E+00
-0.9978413304635E-02
-0.7295834076192E+00
-0.1583491181674E+01
 0.1283702474855E+01
 0.1249218042139E+01
 0.1213597883448E+01
 0.1182385573451E+01
 0.1158487036558E+01
 0.1142406383930E+01
 0.1133429827367E+01
 0.1130542139984E+01
 0.1132844127748E+01
 0.1139657037699E+01
 0.1150513338253E+01
 0.1165124434703E+01
 0.1183349689028E+01
 0.1205169851020E+01
 0.1230658998641E+01
 0.1259945155974E+01
 0.1293135254429E+01
 0.1330179514544E+01
 0.1370681276305E+01
 0.1413725223421E+01
 0.1457922861534E+01
 0.1501709123699E+01
 0.1543597909049E+01
 0.1582257577255E+01
 0.1616472042907E+01
 0.1645039172618E+01
 0.1666643626644E+01
 0.1679735246695E+01
 0.1682430585222E+01
 0.1672429942294E+01
 0.1646814828339E+01
 0.1601545974027E+01
 0.1530909226057E+01
 0.1426883338614E+01
 0.1278159690666E+01
 0.1069120535471E+01
 0.7795561886694E+00
 0.3867867176547E+00
-0.1275350034407E+00
-0.7648522416155E+00
-0.1494925107730E+01
 0.1291205264795E+01
 0.1259867192890E+01
 0.1227798250015E+01
 0.1199269193975E+01
 0.1176816766200E+01
 0.1161167058609E+01
 0.1151971048620E+01
 0.1148493645830E+01
 0.1149998199246E+01
 0.1155887372837E+01
 0.1165727136208E+01
 0.1179232442634E+01
 0.1196244352466E+01
 0.1216705435241E+01
 0.1240629342143E+01
 0.1268056834036E+01
 0.1298980054783E+01
 0.1333221130974E+01
 0.1370279264224E+01
 0.1409207855252E+01
 0.1448679286739E+01
 0.1487239624478E+01
 0.1523495525973E+01
 0.1556148946567E+01
 0.1583954718709E+01
 0.1605638413961E+01
 0.1619794810076E+01
 0.1624785587113E+01
 0.1618647166188E+01
 0.1599001528199E+01
 0.1562853520397E+01
 0.1506130184769E+01
 0.1423223657688E+01
 0.1306553404115E+01
 0.1145968271141E+01
 0.9283723798818E+00
 0.6382746580522E+00
 0.2603577813867E+00
-0.2148590800268E+00
-0.7824931524904E+00
-0.1415290351481E+01
 0.1299519188572E+01
 0.1270683120961E+01
 0.1241481585391E+01
 0.1215237987926E+01
 0.1194129608742E+01
 0.1178972540168E+01
 0.1169666176230E+01
 0.1165699645054E+01
 0.1166482989800E+01
 0.1171499128397E+01
 0.1180349776367E+01
 0.1192755966938E+01
 0.1208542611016E+01
 0.1227616216818E+01
 0.1249933529195E+01
 0.1275455846723E+01
 0.1304076182145E+01
 0.1335512828755E+01
 0.1369186677566E+01
 0.1404132916115E+01
 0.1439074934271E+01
 0.1472644068251E+01
 0.1503516396630E+01
 0.1530419491877E+01
 0.1552088134595E+01
 0.1567196566302E+01
 0.1574276467091E+01
 0.1571630589699E+01
 0.1557248724835E+01
 0.1528720767305E+01
 0.1483047570769E+01
 0.1416234975019E+01
 0.1322940226127E+01
 0.1196217335164E+01
 0.1027236822775E+01
 0.8053579279183E+00
 0.5190929226897E+00
 0.1586085439350E+00
-0.2798525026962E+00
-0.7883552901800E+00
-0.1343172726085E+01
 0.1308403201305E+01
 0.1281601713906E+01
 0.1254746114652E+01
 0.1230449002574E+01
 0.1210562825459E+01
 0.1195916844144E+01
 0.1186574238765E+01
 0.1182198047575E+01
 0.1182325164749E+01
 0.1186513845854E+01
 0.1194401756997E+01
 0.1205717600167E+01
 0.1220272095275E+01
 0.1237938230411E+01
 0.1258620198270E+01
 0.1282208166548E+01
 0.1308510414228E+01
 0.1337161265457E+01
 0.1367522615068E+01
 0.1398620200039E+01
 0.1429220507879E+01
 0.1458021326706E+01
 0.1483751717185E+01
 0.1505159945716E+01
 0.1520968815601E+01
 0.1529819042636E+01
 0.1530202620941E+01
 0.1520390309422E+01
 0.1498357488746E+01
 0.1461705724087E+01
 0.1407496051505E+01
 0.1331904050090E+01
 0.1229966904123E+01
 0.1095486738771E+01
 0.9209909548687E+00
 0.6980789902462E+00
 0.4185317388982E+00
 0.7651377159053E-01
-0.3281154182935E+00
-0.7862053128186E+00
-0.1277422394852E+01
 0.1317682173208E+01
 0.1292568683822E+01
 0.1267656409148E+01
 0.1245020222700E+01
 0.1226230081349E+01
 0.1212085543821E+01
 0.1202753468749E+01
 0.1198028486777E+01
 0.1197553722792E+01
 0.1200955474370E+01
 0.1207905924560E+01
 0.1218142214745E+01
 0.1231462629272E+01
 0.1247709437630E+01
 0.1266739080726E+01
 0.1288378901480E+01
 0.1312365317733E+01
 0.1338264893476E+01
 0.1365395146631E+01
 0.1392778395523E+01
 0.1419218019348E+01
 0.1443464549678E+01
 0.1464288534764E+01
 0.1480456249687E+01
 0.1490685903290E+01
 0.1493600038999E+01
 0.1487671527685E+01
 0.1471163603310E+01
 0.1442067016855E+01
 0.1398034307116E+01
 0.1336240473632E+01
 0.1253099912419E+01
 0.1144104464959E+01
 0.1003852931911E+01
 0.8261785371422E+00
 0.6046408612589E+00
 0.3336221684255E+00
 0.1015420733385E-01
-0.3636831599821E+00
-0.7785401193467E+00
-0.1217118629150E+01
 0.1327227483118E+01
 0.1303539833740E+01
 0.1280256263782E+01
 0.1259041572257E+01
 0.1241225300502E+01
 0.1227555169229E+01
 0.1218259787538E+01
 0.1213231191687E+01
 0.1212199249943E+01
 0.1214849830706E+01
 0.1220887027892E+01
 0.1230056523915E+01
 0.1242145715186E+01
 0.1256969065249E+01
 0.1274340205929E+01
 0.1294031590490E+01
 0.1315719085624E+01
 0.1338914722752E+01
 0.1362902850829E+01
 0.1386706648108E+01
 0.1409161601313E+01
 0.1429061018255E+01
 0.1445209003854E+01
 0.1456388763632E+01
 0.1461320721107E+01
 0.1458622596488E+01
 0.1446766161818E+01
 0.1424028947801E+01
 0.1388443596653E+01
 0.1337747279236E+01
 0.1269271614676E+01
 0.1179718257978E+01
 0.1065074306174E+01
 0.9207353760430E+00
 0.7417383494860E+00
 0.5233090490593E+00
 0.2618629575362E+00
-0.4353939086486E-01
-0.3895120043411E+00
-0.7670525504720E+00
-0.1161512642583E+01
 0.1336944074676E+01
 0.1314480238886E+01
 0.1292576582251E+01
 0.1272582775545E+01
 0.1255626342718E+01
 0.1242393528967E+01
 0.1233145930714E+01
 0.1227846099402E+01
 0.1226293252405E+01
 0.1228224087317E+01
 0.1233371279655E+01
 0.1241488647024E+01
 0.1252354040860E+01
 0.1265757019788E+01
 0.1281473271072E+01
 0.1299227726566E+01
 0.1318645528628E+01
 0.1339194993617E+01
 0.1360136005587E+01
 0.1380495737011E+01
 0.1399138151501E+01
 0.1414892119581E+01
 0.1426589943099E+01
 0.1433031799428E+01
 0.1432946596432E+01
 0.1424958851047E+01
 0.1407554908099E+01
 0.1379045627841E+01
 0.1337528300868E+01
 0.1280852184989E+01
 0.1206537217618E+01
 0.1111602419267E+01
 0.9925435023496E+00
 0.8455197903587E+00
 0.6666443890440E+00
 0.4525301244290E+00
 0.2011595034966E+00
-0.8698810491143E-01
-0.4078050965836E+00
-0.7529084975169E+00
-0.1109970394793E+01
 0.1346761581445E+01
 0.1325363073771E+01
 0.1304640269860E+01
 0.1285698951932E+01
 0.1269498185475E+01
 0.1256660478420E+01
 0.1247461047299E+01
 0.1241912213058E+01
 0.1239867593099E+01
 0.1241106308663E+01
 0.1245385945600E+01
 0.1252467701203E+01
 0.1262121032565E+01
 0.1274113391097E+01
 0.1288187157141E+01
 0.1304026448006E+01
 0.1321214157951E+01
 0.1339183762711E+01
 0.1357177524730E+01
 0.1374228980530E+01
 0.1389227854196E+01
 0.1401033395237E+01
 0.1408502589978E+01
 0.1410453371147E+01
 0.1405628850568E+01
 0.1392670401453E+01
 0.1370092381708E+01
 0.1336255153531E+01
 0.1289339419091E+01
 0.1227327707092E+01
 0.1147949818313E+01
 0.1048556800614E+01
 0.9261458733993E+00
 0.7775862324366E+00
 0.5999318198228E+00
 0.3909320226968E+00
 0.1497616686209E+00
-0.1221204043325E+00
-0.4202388737102E+00
-0.7369213623348E+00
-0.1061915519744E+01
 0.1356628092745E+01
 0.1336168403882E+01
 0.1316465295372E+01
 0.1298434596883E+01
 0.1282895546762E+01
 0.1270408848554E+01
 0.1261250611493E+01
 0.1255467168458E+01
 0.1252954031861E+01
 0.1253525038748E+01
 0.1256958965032E+01
 0.1263023423303E+01
 0.1271480454707E+01
 0.1282078036021E+01
 0.1294529559775E+01
 0.1308484345450E+01
 0.1323490314748E+01
 0.1338953408215E+01
 0.1354103706713E+01
 0.1367982952304E+01
 0.1379504621318E+01
 0.1387554650646E+01
 0.1391012511204E+01
 0.1388715123657E+01
 0.1379424942714E+01
 0.1361808805135E+01
 0.1334420388137E+01
 0.1295682875881E+01
 0.1243875146417E+01
 0.1177128205171E+01
 0.1093394310210E+01
 0.9903588142758E+00
 0.8654989246836E+00
 0.7163286583474E+00
 0.5407104841865E+00
 0.3373129381740E+00
 0.1062089128736E+00
-0.1504882436939E+00
-0.4281292622608E+00
-0.7196811436192E+00
-0.1016762883793E+01
 0.1366505674079E+01
 0.1346882080002E+01
 0.1328066609835E+01
 0.1310826421105E+01
 0.1295864991351E+01
 0.1283685380045E+01
 0.1274556524890E+01
 0.1268546964728E+01
 0.1265583862756E+01
 0.1265508942403E+01
 0.1268118606765E+01
 0.1273185826465E+01
 0.1280466057646E+01
 0.1289690233601E+01
 0.1300546710785E+01
 0.1312655349380E+01
 0.1325535321582E+01
 0.1338571065364E+01
 0.1350984843910E+01
 0.1361828063725E+01
 0.1370036479498E+01
 0.1374520112646E+01
 0.1374179632324E+01
 0.1367872401750E+01
 0.1354384741813E+01
 0.1332416185384E+01
 0.1300568997818E+01
 0.1257339737330E+01
 0.1201116391619E+01
 0.1130188206099E+01
 0.1042734936595E+01
 0.9367690651784E+00
 0.8102168886154E+00
 0.6611678482329E+00
 0.4881697994821E+00
 0.2906266439243E+00
 0.6927784185707E-01
-0.1733351746955E+00
-0.4325664931014E+00
-0.7016892847763E+00
-0.9738502899573E+00
 0.1376367046258E+01
 0.1357494831442E+01
 0.1339457298133E+01
 0.1322905407631E+01
 0.1308446585028E+01
 0.1296531590541E+01
 0.1287417321650E+01
 0.1281185816451E+01
 0.1277787636186E+01
 0.1277086499553E+01
 0.1278893162740E+01
 0.1282984893340E+01
 0.1289111272164E+01
 0.1296988402389E+01
 0.1306283170526E+01
 0.1316590673416E+01
 0.1327406641637E+01
 0.1338099003573E+01
 0.1347885727543E+01
 0.1355829050947E+01
 0.1360885920596E+01
 0.1361988625475E+01
 0.1358058359156E+01
 0.1347974429717E+01
 0.1330550902052E+01
 0.1304525929138E+01
 0.1268557703942E+01
 0.1221224092828E+01
 0.1161029589103E+01
 0.1086426671766E+01
 0.9958215272378E+00
 0.8875397391570E+00
 0.7599203954726E+00
 0.6115592417649E+00
 0.4415786849076E+00
 0.2499649221415E+00
 0.3794482010195E-01
-0.1916801631313E+00
-0.4343530208000E+00
-0.6838050269031E+00
-0.9321759434335E+00
 0.1386196445151E+01
 0.1367999435123E+01
 0.1350645527732E+01
 0.1334690922756E+01
 0.1320664473974E+01
 0.1308970308466E+01
 0.1299850898678E+01
 0.1293395622581E+01
 0.1289572035918E+01
 0.1288260996334E+01
 0.1289284810007E+01
 0.1292424156590E+01
 0.1297423491489E+01
 0.1303986244823E+01
 0.1311761212172E+01
 0.1320323052170E+01
 0.1329148810157E+01
 0.1337594281159E+01
 0.1344876196879E+01
 0.1350068714917E+01
 0.1352149278464E+01
 0.1350071188703E+01
 0.1342775855348E+01
 0.1329165880560E+01
 0.1308086129831E+01
 0.1278317778148E+01
 0.1238580031826E+01
 0.1187536903283E+01
 0.1123812647057E+01
 0.1046022567574E+01
 0.9527916014481E+00
 0.8427374357299E+00
 0.7145700987887E+00
 0.5673220282505E+00
 0.4005885687439E+00
 0.2148080873874E+00
 0.1155340603301E-01
-0.2062386253487E+00
-0.4341580326879E+00
-0.6664690890868E+00
-0.8950100528248E+00
 0.1395973517814E+01
 0.1378389751895E+01
 0.1361638451636E+01
 0.1346202897582E+01
 0.1332546703087E+01
 0.1321033080477E+01
 0.1311889038864E+01
 0.1305206921099E+01
 0.1300966289702E+01
 0.1299061153911E+01
 0.1299322980047E+01
 0.1301535095997E+01
 0.1305437519705E+01
 0.1310722952794E+01
 0.1317025092057E+01
 0.1323901900097E+01
 0.1330815742268E+01
 0.1337113857504E+01
 0.1342014156539E+01
 0.1344603482106E+01
 0.1343879149251E+01
 0.1338814586677E+01
 0.1328371334999E+01
 0.1311476435406E+01
 0.1287007888295E+01
 0.1253793046664E+01
 0.1210615461687E+01
 0.1156227856727E+01
 0.1089374688786E+01
 0.1008830389127E+01
 0.9134275303105E+00
 0.8020523205657E+00
 0.6737442351237E+00
 0.5279089154652E+00
 0.3645279888773E+00
 0.1843879643802E+00
-0.1069994505694E-01
-0.2177449697662E+00
-0.4325553358797E+00
-0.6497592492686E+00
-0.8634008879463E+00
 0.1405695719627E+01
 0.1388671577744E+01
 0.1372455822053E+01
 0.1357473613523E+01
 0.1344134944848E+01
 0.1332767242541E+01
 0.1323581921946E+01
 0.1316671144104E+01
 0.1312022529452E+01
 0.1309539882596E+01
 0.1309061694076E+01
 0.1310373151282E+01
 0.1313210296121E+01
 0.1317256646032E+01
 0.1322133217251E+01
 0.1327384275929E+01
 0.1332460657088E+01
 0.1336703780161E+01
 0.1339334496476E+01
 0.1339452792435E+01
 0.1336075278222E+01
 0.1328194798240E+01
 0.1314792992692E+01
 0.1294822269037E+01
 0.1267195562610E+01
 0.1230788738010E+01
 0.1184451971582E+01
 0.1127028055424E+01
 0.1057380830221E+01
 0.9744390769949E+00
 0.8772315516193E+00
 0.7648908069160E+00
 0.6367491033073E+00
 0.4925318559991E+00
 0.3325373982060E+00
 0.1578200997188E+00
-0.2964733801505E-01
-0.2268848784986E+00
-0.4299106830357E+00
-0.6339435926762E+00
-0.8338750855656E+00
 0.1415359661340E+01
 0.1398847451044E+01
 0.1383108594755E+01
 0.1368522016478E+01
 0.1355453598231E+01
 0.1344199789682E+01
 0.1334956931560E+01
 0.1327814916896E+01
 0.1322766436827E+01
 0.1319722405829E+01
 0.1318526568853E+01
 0.1318965312326E+01
 0.1320771118523E+01
 0.1323619681122E+01
 0.1327121441648E+01
 0.1330809541281E+01
 0.1334125932564E+01
 0.1336408460941E+01
 0.1336882309483E+01
 0.1334660900539E+01
 0.1328779612855E+01
 0.1318250130672E+01
 0.1302074165697E+01
 0.1279230140618E+01
 0.1248667106973E+01
 0.1209310808606E+01
 0.1160079030312E+01
 0.1099904390981E+01
 0.1027767463704E+01
 0.9427447147901E+00
 0.8440480883513E+00
 0.7310339615351E+00
 0.6032927225998E+00
 0.4608219575894E+00
 0.3041777519678E+00
 0.1346183207231E+00
-0.4578227235183E-01
-0.2340889258636E+00
-0.4265646840481E+00
-0.6188863423726E+00
-0.8066137856030E+00
 0.1424965063567E+01
 0.1408921569078E+01
 0.1393607647700E+01
 0.1379365490873E+01
 0.1366524758981E+01
 0.1355355297695E+01
 0.1346039323620E+01
 0.1338663167491E+01
 0.1333222385483E+01
 0.1329632895021E+01
 0.1327742263350E+01
 0.1327337545152E+01
 0.1328148046326E+01
 0.1329842831147E+01
 0.1332023589264E+01
 0.1334214528032E+01
 0.1335850929477E+01
 0.1336268890386E+01
 0.1334698996391E+01
 0.1330268237672E+01
 0.1322030239232E+01
 0.1309015009881E+01
 0.1290244242429E+01
 0.1264722719460E+01
 0.1231436198069E+01
 0.1189360787836E+01
 0.1137481719022E+01
 0.1074819833568E+01
 0.1000468310660E+01
 0.9136432563429E+00
 0.8137259344922E+00
 0.7002743775919E+00
 0.5731049829604E+00
 0.4324455808297E+00
 0.2790606794456E+00
 0.1143609536784E+00
-0.5952113845514E-01
-0.2397237296181E+00
-0.4227402746319E+00
-0.6046399360497E+00
-0.7814278675637E+00
 0.1434514072859E+01
 0.1418899453017E+01
 0.1403963781071E+01
 0.1390020149957E+01
 0.1377368571816E+01
 0.1366256222230E+01
 0.1356852403388E+01
 0.1349239184007E+01
 0.1343413407819E+01
 0.1339294380926E+01
 0.1336732363890E+01
 0.1335514673353E+01
 0.1335367797488E+01
 0.1335955216896E+01
 0.1336871437995E+01
 0.1337633588734E+01
 0.1337672113069E+01
 0.1336322821758E+01
 0.1332822492844E+01
 0.1326311660150E+01
 0.1315861642120E+01
 0.1300520261318E+01
 0.1279328992926E+01
 0.1251319007896E+01
 0.1215512800563E+01
 0.1170936538355E+01
 0.1116641735419E+01
 0.1051734715540E+01
 0.9754159831808E+00
 0.8870322880502E+00
 0.7861199845203E+00
 0.6724174333819E+00
 0.5459377006483E+00
 0.4071023443258E+00
 0.2568431927168E+00
 0.9668311162281E-01
-0.7121926791407E-01
-0.2440885780341E+00
-0.4186315844056E+00
-0.5912392660187E+00
-0.7582668697853E+00
 0.1444010718897E+01
 0.1428787651945E+01
 0.1414187704170E+01
 0.1400501034816E+01
 0.1388003505441E+01
 0.1376923139962E+01
 0.1367417679196E+01
 0.1359564672749E+01
 0.1353361176798E+01
 0.1348728686170E+01
 0.1345519292437E+01
 0.1343520282897E+01
 0.1342455667846E+01
 0.1341984257617E+01
 0.1341694717127E+01
 0.1341098651942E+01
 0.1339623169111E+01
 0.1336604940527E+01
 0.1331287477175E+01
 0.1322824680362E+01
 0.1310304953001E+01
 0.1292793384220E+01
 0.1269350893932E+01
 0.1239034752956E+01
 0.1200903706615E+01
 0.1154032964548E+01
 0.1097538305537E+01
 0.1030607862158E+01
 0.9525433092872E+00
 0.8628124461631E+00
 0.7610925136764E+00
 0.6472820291299E+00
 0.5215642368203E+00
 0.3845228553104E+00
 0.2372231335053E+00
 0.8126856913796E-01
-0.8117858413385E-01
-0.2474349236550E+00
-0.4143992754161E+00
-0.5787326859571E+00
-0.7370805515834E+00
 0.1453460477864E+01
 0.1438593492221E+01
 0.1424290007785E+01
 0.1410822255813E+01
 0.1398446564592E+01
 0.1387374944288E+01
 0.1377754993969E+01
 0.1369659814213E+01
 0.1363085998107E+01
 0.1357956374253E+01
 0.1354124233576E+01
 0.1351376645831E+01
 0.1349435468082E+01
 0.1347955636307E+01
 0.1346521113979E+01
 0.1344639279023E+01
 0.1341735112894E+01
 0.1337147019695E+01
 0.1330125560759E+01
 0.1319837681327E+01
 0.1305388185618E+01
 0.1285858817129E+01
 0.1260329445499E+01
 0.1227882843791E+01
 0.1187613047442E+01
 0.1138642669496E+01
 0.1080149007849E+01
 0.1011397583058E+01
 0.9317844502604E+00
 0.8408885469546E+00
 0.7385141000243E+00
 0.6247009496385E+00
 0.4997788093298E+00
 0.3644664717923E+00
 0.2199348022348E+00
 0.6784358506571E-01
-0.8965666124637E-01
-0.2499745378619E+00
-0.4101804104373E+00
-0.5671655306387E+00
-0.7178226957959E+00
 0.1462869915977E+01
 0.1448324864368E+01
 0.1434281125305E+01
 0.1420997089830E+01
 0.1408713449969E+01
 0.1397628999616E+01
 0.1387882632612E+01
 0.1379543310765E+01
 0.1372606804747E+01
 0.1366996706848E+01
 0.1362567072329E+01
 0.1359104655330E+01
 0.1356329471140E+01
 0.1353893273057E+01
 0.1351376284458E+01
 0.1348282719387E+01
 0.1344036390960E+01
 0.1337978063780E+01
 0.1329365466198E+01
 0.1317378121881E+01
 0.1301136467232E+01
 0.1279738203973E+01
 0.1252281490178E+01
 0.1217873708694E+01
 0.1175642794752E+01
 0.1124756583605E+01
 0.1064450540383E+01
 0.9940625660446E+00
 0.9130758686519E+00
 0.8211705121871E+00
 0.7182643029641E+00
 0.6045209884999E+00
 0.4803956787981E+00
 0.3467191278860E+00
 0.2047451746563E+00
 0.5617134877263E-01
-0.9687350386738E-01
-0.2518867984013E+00
-0.4060914990187E+00
-0.5565770576561E+00
-0.7004492356879E+00
 0.1472246398102E+01
 0.1457990042919E+01
 0.1444171289453E+01
 0.1431038047112E+01
 0.1418818680043E+01
 0.1407701264281E+01
 0.1397817411107E+01
 0.1389232428904E+01
 0.1381941155721E+01
 0.1375867610823E+01
 0.1370866344284E+01
 0.1366723773586E+01
 0.1363158371360E+01
 0.1359819307364E+01
 0.1356283868292E+01
 0.1352053964832E+01
 0.1346552976108E+01
 0.1339124441394E+01
 0.1329033191641E+01
 0.1315470727929E+01
 0.1297572257155E+01
 0.1274450647939E+01
 0.1245221517627E+01
 0.1209015690493E+01
 0.1164993227393E+01
 0.1112364537879E+01
 0.1050419403463E+01
 0.9785626489024E+00
 0.8963571307330E+00
 0.8035740882493E+00
 0.7002321138639E+00
 0.5866028717159E+00
 0.4632482330692E+00
 0.3310912831352E+00
 0.1914505170707E+00
 0.4604730456936E-01
-0.1030171224067E+00
-0.2533238621628E+00
-0.4022311275079E+00
-0.5469997114185E+00
-0.6849189620545E+00
 0.1481597848294E+01
 0.1467597533944E+01
 0.1453970487594E+01
 0.1440956915596E+01
 0.1428775682786E+01
 0.1417606387250E+01
 0.1407574748987E+01
 0.1398743035119E+01
 0.1391105236344E+01
 0.1384585651987E+01
 0.1379039194998E+01
 0.1374251989552E+01
 0.1369941252474E+01
 0.1365754086915E+01
 0.1361265506943E+01
 0.1355975801905E+01
 0.1349308455671E+01
 0.1340610007275E+01
 0.1329152162527E+01
 0.1314137670876E+01
 0.1294715553044E+01
 0.1270012952872E+01
 0.1239161953999E+01
 0.1201315399967E+01
 0.1155663364066E+01
 0.1101455785255E+01
 0.1038032505990E+01
 0.9648594845374E+00
 0.8815715699996E+00
 0.7880214002998E+00
 0.6843162371283E+00
 0.5708210486742E+00
 0.4481880432909E+00
 0.3174160240776E+00
 0.1798734198954E+00
 0.3729520741790E-01
-0.1082479972805E+00
-0.2544146602507E+00
-0.3986822532193E+00
-0.5384596254017E+00
-0.6711939623593E+00
 0.1490932553079E+01
 0.1477155946743E+01
 0.1463688418662E+01
 0.1450764789868E+01
 0.1438596865180E+01
 0.1427357784690E+01
 0.1417168728804E+01
 0.1408089626958E+01
 0.1400113860640E+01
 0.1393166015534E+01
 0.1387101348508E+01
 0.1381705786383E+01
 0.1376695564350E+01
 0.1371716162724E+01
 0.1366340864337E+01
 0.1360068862700E+01
 0.1352324113725E+01
 0.1342456214449E+01
 0.1329743370877E+01
 0.1313398732213E+01
 0.1292584082317E+01
 0.1266439847832E+01
 0.1234113430192E+01
 0.1194778040284E+01
 0.1147651354871E+01
 0.1092019463675E+01
 0.1027267691702E+01
 0.9529171011702E+00
 0.8686668216534E+00
 0.7744413621564E+00
 0.6704252331606E+00
 0.5570633891073E+00
 0.4350839237179E+00
 0.3055473300805E+00
 0.1698602128157E+00
 0.2976381710428E-01
-0.1127026881840E+00
-0.2552680883195E+00
-0.3955142532715E+00
-0.5309774453409E+00
-0.6592397920306E+00
 0.1500259000419E+01
 0.1486673886368E+01
 0.1473334452893E+01
 0.1460472088793E+01
 0.1448293664832E+01
 0.1436967699255E+01
 0.1426612143237E+01
 0.1417285358012E+01
 0.1408980473185E+01
 0.1401622489839E+01
 0.1395067081320E+01
 0.1389100114867E+01
 0.1383437104851E+01
 0.1377722287361E+01
 0.1371527647659E+01
 0.1364351672131E+01
 0.1355619006189E+01
 0.1344682216314E+01
 0.1330825502583E+01
 0.1313271455079E+01
 0.1291193479787E+01
 0.1263744196288E+01
 0.1230085031194E+01
 0.1189407706165E+01
 0.1140954837665E+01
 0.1084045010441E+01
 0.1018104200054E+01
 0.9427023792269E+00
 0.8575952586817E+00
 0.7627699825669E+00
 0.6584775726652E+00
 0.5452308387720E+00
 0.4238210407539E+00
 0.2953585259213E+00
 0.1612787437908E+00
 0.2332414457657E-01
-0.1164967701612E+00
-0.2559756047479E+00
-0.3927847094536E+00
-0.5245691624312E+00
-0.6490255058960E+00
 0.1509585748261E+01
 0.1496159864141E+01
 0.1482917595123E+01
 0.1470088564990E+01
 0.1457876587486E+01
 0.1446447244983E+01
 0.1435916531298E+01
 0.1426342056895E+01
 0.1417717149559E+01
 0.1409967452249E+01
 0.1402949200302E+01
 0.1396448371275E+01
 0.1390180005371E+01
 0.1383787415004E+01
 0.1376841627271E+01
 0.1368840691139E+01
 0.1359210028646E+01
 0.1347304958721E+01
 0.1332415052699E+01
 0.1313771282465E+01
 0.1290557450605E+01
 0.1261937188469E+01
 0.1227084524756E+01
 0.1185207656098E+01
 0.1135571258473E+01
 0.1077522528905E+01
 0.1010523065926E+01
 0.9341854538632E+00
 0.8483143445694E+00
 0.7529505895107E+00
 0.6484016290852E+00
 0.5352370611168E+00
 0.4143000904325E+00
 0.2867409205237E+00
 0.1540164868643E+00
 0.1786716403711E-01
-0.1197272340927E+00
-0.2566133613721E+00
-0.3905409242099E+00
-0.5192468575874E+00
-0.6405235759996E+00
 0.1518921318726E+01
 0.1505622224543E+01
 0.1492446452868E+01
 0.1479623309432E+01
 0.1467355234379E+01
 0.1455806441347E+01
 0.1445092206175E+01
 0.1435270241764E+01
 0.1426334596190E+01
 0.1418211857240E+01
 0.1410759024671E+01
 0.1403762379731E+01
 0.1396936720135E+01
 0.1389924703471E+01
 0.1382296656018E+01
 0.1373550356194E+01
 0.1363111977286E+01
 0.1350339262255E+01
 0.1334526428474E+01
 0.1314911681018E+01
 0.1290687916534E+01
 0.1261028513960E+01
 0.1225118565685E+01
 0.1182180553568E+01
 0.1131498152115E+01
 0.1072443104840E+01
 0.1004507457763E+01
 0.9273400461684E+00
 0.8407869101728E+00
 0.7449339847157E+00
 0.6401356244822E+00
 0.5270080793366E+00
 0.4064365509800E+00
 0.2796026214585E+00
 0.1479789404688E+00
 0.1330191657208E-01
-0.1224744517472E+00
-0.2572439484708E+00
-0.3888211830533E+00
-0.5150193169740E+00
-0.6337097602618E+00
 0.1528274114737E+01
 0.1515069086693E+01
 0.1501929209338E+01
 0.1489084752608E+01
 0.1476738321205E+01
 0.1465054237640E+01
 0.1454148274927E+01
 0.1444079129582E+01
 0.1434842148005E+01
 0.1426365224791E+01
 0.1418506369628E+01
 0.1411052376579E+01
 0.1403718016790E+01
 0.1396145515929E+01
 0.1387904685895E+01
 0.1378493113431E+01
 0.1367337601661E+01
 0.1353797893759E+01
 0.1337172039414E+01
 0.1316704249903E+01
 0.1291595145131E+01
 0.1261026514336E+01
 0.1224192876088E+01
 0.1180328678595E+01
 0.1128733386011E+01
 0.1068799077784E+01
 0.1000042962739E+01
 0.9221437358487E+00
 0.8349813722347E+00
 0.7386785501612E+00
 0.6336275530272E+00
 0.5204819414162E+00
 0.4001600253350E+00
 0.2738675244299E+00
 0.1430882916912E+00
 0.9553953617797E-02
-0.1248037738820E+00
-0.2579178134174E+00
-0.3876557867616E+00
-0.5118925313025E+00
-0.6285629407820E+00
 0.1537652356153E+01
 0.1524508299238E+01
 0.1511373601856E+01
 0.1498480664091E+01
 0.1486033691123E+01
 0.1474198530119E+01
 0.1463092652017E+01
 0.1452776641613E+01
 0.1443247764971E+01
 0.1434435629896E+01
 0.1426199532492E+01
 0.1418326997604E+01
 0.1410532969229E+01
 0.1402459423328E+01
 0.1393675783240E+01
 0.1383679448679E+01
 0.1371897650570E+01
 0.1357691628250E+01
 0.1340362375160E+01
 0.1319158814934E+01
 0.1293287861394E+01
 0.1261938314741E+01
 0.1224312399943E+01
 0.1179654107732E+01
 0.1127275365469E+01
 0.1066584266559E+01
 0.9971178196656E+00
 0.9185781782823E+00
 0.8308718989901E+00
 0.7341503142346E+00
 0.6288350904624E+00
 0.5156084141893E+00
 0.3954136727544E+00
 0.2694744644696E+00
 0.1392823160989E+00
 0.6564072744806E-02
-0.1267668172125E+00
-0.2586743994451E+00
-0.3870678797788E+00
-0.5098700819231E+00
-0.6250649785909E+00
 0.1547064034352E+01
 0.1533947408045E+01
 0.1520786906234E+01
 0.1507818151799E+01
 0.1495248323345E+01
 0.1483246173126E+01
 0.1471932067351E+01
 0.1461369405194E+01
 0.1451558027059E+01
 0.1442429692307E+01
 0.1433845280204E+01
 0.1425593266881E+01
 0.1417388951385E+01
 0.1408874206363E+01
 0.1399618141383E+01
 0.1389117912483E+01
 0.1376800910279E+01
 0.1362029300592E+01
 0.1344106070630E+01
 0.1322283507470E+01
 0.1295773341397E+01
 0.1263769934084E+01
 0.1225481432068E+01
 0.1180158863313E+01
 0.1127123202500E+01
 0.1065794152693E+01
 0.9957231057213E+00
 0.9166292748197E+00
 0.8284385346298E+00
 0.7313229916154E+00
 0.6257255043321E+00
 0.5123487191019E+00
 0.3921537361163E+00
 0.2663765248900E+00
 0.1365134952916E+00
 0.4287314414552E-02
-0.1284024787313E+00
-0.2595430403587E+00
-0.3870740978111E+00
-0.5089534386187E+00
-0.6232005620418E+00
 0.1556516883264E+01
 0.1543393635516E+01
 0.1530175926512E+01
 0.1517103660885E+01
 0.1504388337340E+01
 0.1492202984049E+01
 0.1480672068265E+01
 0.1469862750760E+01
 0.1459778126214E+01
 0.1450352564873E+01
 0.1441448836416E+01
 0.1432856585423E+01
 0.1424291630254E+01
 0.1415395855346E+01
 0.1405738089338E+01
 0.1394815138914E+01
 0.1382054234162E+01
 0.1366817846190E+01
 0.1348409957834E+01
 0.1326084827613E+01
 0.1299057487602E+01
 0.1266526373767E+01
 0.1227703721763E+01
 0.1181845032883E+01
 0.1128276850030E+01
 0.1066426025051E+01
 0.9958528820727E+00
 0.9162873034836E+00
 0.8276672918296E+00
 0.7301780075854E+00
 0.6242755757979E+00
 0.5106753183488E+00
 0.3903491683939E+00
 0.2645404991074E+00
 0.1347483368970E+00
 0.2692194890174E-02
-0.1297377073205E+00
-0.2605436388989E+00
-0.3876850575838E+00
-0.5091421767684E+00
-0.6229570905642E+00
 0.1566018366356E+01
 0.1552853871465E+01
 0.1539546990719E+01
 0.1526342973410E+01
 0.1513458994117E+01
 0.1501073743583E+01
 0.1489317016780E+01
 0.1478260705273E+01
 0.1467911856321E+01
 0.1458207921341E+01
 0.1449013868985E+01
 0.1440120720447E+01
 0.1431244958940E+01
 0.1422028568810E+01
 0.1412040097324E+01
 0.1400775858958E+01
 0.1387662564426E+01
 0.1372062331214E+01
 0.1353279104636E+01
 0.1330567691621E+01
 0.1303144885359E+01
 0.1270211684079E+01
 0.1230982549992E+01
 0.1184714857565E+01
 0.1130737200440E+01
 0.1068479085027E+01
 0.9975042985499E+00
 0.9175470112407E+00
 0.8285502145561E+00
 0.7307045096170E+00
 0.6244715355984E+00
 0.5105717520736E+00
 0.3899813551075E+00
 0.2639464963027E+00
 0.1339668811941E+00
 0.1760153736066E-02
-0.1307880564371E+00
-0.2616871504790E+00
-0.3889057030059E+00
-0.5104341269916E+00
-0.6243245776628E+00
 0.1575575679051E+01
 0.1562334675237E+01
 0.1548905952578E+01
 0.1535541208958E+01
 0.1522464694756E+01
 0.1509862191343E+01
 0.1497870081990E+01
 0.1486565981691E+01
 0.1475961600620E+01
 0.1465997942952E+01
 0.1456542477147E+01
 0.1447387794507E+01
 0.1438251169021E+01
 0.1428774750161E+01
 0.1418526778552E+01
 0.1407002907967E+01
 0.1393628945521E+01
 0.1377765972033E+01
 0.1358716840162E+01
 0.1335735463302E+01
 0.1308038840430E+01
 0.1274829008201E+01
 0.1235320780275E+01
 0.1188770789888E+01
 0.1134506149506E+01
 0.1071954514182E+01
 0.1000677660230E+01
 0.9204076718368E+00
 0.8310854161982E+00
 0.7328993719684E+00
 0.6263090197354E+00
 0.5120325308108E+00
 0.3910439339496E+00
 0.2645876876643E+00
 0.1341623859239E+00
 0.1485202924180E-02
-0.1315580333545E+00
-0.2629758871313E+00
-0.3907355206357E+00
-0.5128254639913E+00
-0.6272955818404E+00
 0.1585195766487E+01
 0.1571842289108E+01
 0.1558258199295E+01
 0.1544702826342E+01
 0.1531408976341E+01
 0.1518571016953E+01
 0.1506333227610E+01
 0.1494779964442E+01
 0.1483928316498E+01
 0.1473723303736E+01
 0.1464035178249E+01
 0.1454658274382E+01
 0.1445310762118E+01
 0.1435635002337E+01
 0.1425198887236E+01
 0.1413497227207E+01
 0.1399954529281E+01
 0.1383930143910E+01
 0.1364724766947E+01
 0.1341589969429E+01
 0.1313741397546E+01
 0.1280380603827E+01
 0.1240720883310E+01
 0.1194015521249E+01
 0.1139586626164E+01
 0.1076855505139E+01
 0.1005376457296E+01
 0.9248731111623E+00
 0.8352770955556E+00
 0.7367671961286E+00
 0.6297930475388E+00
 0.5150630848422E+00
 0.3935427113368E+00
 0.2664701902032E+00
 0.1353411831660E+00
 0.1873768780690E-02
-0.1320412550012E+00
-0.2644036513546E+00
-0.3931686320220E+00
-0.5163107400282E+00
-0.6318651668232E+00
 0.1594885356934E+01
 0.1581382663138E+01
 0.1567608665511E+01
 0.1553831626436E+01
 0.1540294505244E+01
 0.1527201846473E+01
 0.1514707194536E+01
 0.1502902690739E+01
 0.1491811517492E+01
 0.1481383154363E+01
 0.1471490893954E+01
 0.1461930959660E+01
 0.1452422500650E+01
 0.1442608120429E+01
 0.1432055312823E+01
 0.1420257859497E+01
 0.1406638571833E+01
 0.1390554379038E+01
 0.1371302759866E+01
 0.1348131499274E+01
 0.1320253340111E+01
 0.1286867842540E+01
 0.1247184935549E+01
 0.1200451979294E+01
 0.1145982588539E+01
 0.1083187256364E+01
 0.1011607359050E+01
 0.9309517013311E+00
 0.8411355321439E+00
 0.7423203087333E+00
 0.6349380236421E+00
 0.5196797715393E+00
 0.3974956760483E+00
 0.2696130870042E+00
 0.1375227056917E+00
 0.2944722963121E-02
-0.1322204148384E+00
-0.2659557041476E+00
-0.3961937665301E+00
-0.5208828656922E+00
-0.6380308919046E+00
 0.1604651011487E+01
 0.1590961491863E+01
 0.1576961853469E+01
 0.1562930755831E+01
 0.1549123067274E+01
 0.1535755223619E+01
 0.1522991477865E+01
 0.1510932827275E+01
 0.1499609252148E+01
 0.1488975104284E+01
 0.1478906935677E+01
 0.1469202970808E+01
 0.1459583397547E+01
 0.1449691082055E+01
 0.1439093070213E+01
 0.1427281938713E+01
 0.1413678422030E+01
 0.1397636353659E+01
 0.1378448951668E+01
 0.1355358788073E+01
 0.1327574170877E+01
 0.1294291186789E+01
 0.1254714591539E+01
 0.1208083295040E+01
 0.1153698985993E+01
 0.1090956930564E+01
 0.1019380171748E+01
 0.9386563230886E+00
 0.8486770603971E+00
 0.7495787565296E+00
 0.6417677634903E+00
 0.5259099404101E+00
 0.4029331098219E+00
 0.2740485839823E+00
 0.1407396831145E+00
 0.4729603063686E-02
-0.1320670599247E+00
-0.2676085662395E+00
-0.3997941137535E+00
-0.5265330374156E+00
-0.6457928326228E+00
 0.1614499191046E+01
 0.1600584263401E+01
 0.1586321859450E+01
 0.1572002710981E+01
 0.1557895554080E+01
 0.1544230585100E+01
 0.1531184297847E+01
 0.1518867641944E+01
 0.1507318079579E+01
 0.1496495202154E+01
 0.1486278989370E+01
 0.1476469736887E+01
 0.1466788705114E+01
 0.1456879035648E+01
 0.1446307286100E+01
 0.1434564673243E+01
 0.1421069501492E+01
 0.1405171864367E+01
 0.1386159705191E+01
 0.1363268984542E+01
 0.1335702073753E+01
 0.1302650144596E+01
 0.1263311030105E+01
 0.1216912739639E+01
 0.1162741686896E+01
 0.1100173576053E+01
 0.1028707759220E+01
 0.9480042950670E+00
 0.8579240209035E+00
 0.7585702963176E+00
 0.6503155404273E+00
 0.5337920544838E+00
 0.4098977946775E+00
 0.2798223045447E+00
 0.1450385110989E+00
 0.7273027788918E-02
-0.1315411721658E+00
-0.2693296464579E+00
-0.4039470504136E+00
-0.5332506085043E+00
-0.6551536316309E+00
 0.1624436342049E+01
 0.1610256321818E+01
 0.1595692406567E+01
 0.1581049342268E+01
 0.1566611944921E+01
 0.1552626229178E+01
 0.1539282564029E+01
 0.1526702970157E+01
 0.1514933041580E+01
 0.1503937914643E+01
 0.1493601099921E+01
 0.1483724983256E+01
 0.1474031903382E+01
 0.1464165286977E+01
 0.1453691181689E+01
 0.1442099323613E+01
 0.1428805276434E+01
 0.1413154793787E+01
 0.1394429572516E+01
 0.1371857602786E+01
 0.1344633857132E+01
 0.1311943202418E+01
 0.1272974874731E+01
 0.1226943630958E+01
 0.1173117371906E+01
 0.1110848010345E+01
 0.1039605924845E+01
 0.9590172677110E+00
 0.8689046858113E+00
 0.7693303766226E+00
 0.6606241513258E+00
 0.5433758660919E+00
 0.4184453171662E+00
 0.2869937254260E+00
 0.1504798004142E+00
 0.1063331661964E-01
-0.1305905420872E+00
-0.2710766856741E+00
-0.4086237324636E+00
-0.5410228977569E+00
-0.6661185790682E+00
 0.1634469002918E+01
 0.1619982943793E+01
 0.1605076883879E+01
 0.1590071857031E+01
 0.1575271282335E+01
 0.1560939275903E+01
 0.1547281831307E+01
 0.1534433174846E+01
 0.1522447630767E+01
 0.1511296103377E+01
 0.1500865655034E+01
 0.1490960719190E+01
 0.1481304687830E+01
 0.1471541283655E+01
 0.1461236051434E+01
 0.1449877173786E+01
 0.1436877220682E+01
 0.1421577064958E+01
 0.1403251240379E+01
 0.1381118457908E+01
 0.1354364878056E+01
 0.1322167735398E+01
 0.1283706087162E+01
 0.1238179208607E+01
 0.1184833390769E+01
 0.1122992663130E+01
 0.1052093250908E+01
 0.9717210766705E+00
 0.8816531520748E+00
 0.7819021041029E+00
 0.6727459940216E+00
 0.5547226419534E+00
 0.4286444677953E+00
 0.2956367568743E+00
 0.1571391147711E+00
 0.1488332814176E-01
-0.1291499176393E+00
-0.2727969987278E+00
-0.4137885367786E+00
-0.5498349264719E+00
-0.6786957151898E+00
 0.1644603933536E+01
 0.1629769431050E+01
 0.1614478391986E+01
 0.1599070820779E+01
 0.1583871640519E+01
 0.1569165617999E+01
 0.1555176247412E+01
 0.1542051100349E+01
 0.1529853755576E+01
 0.1518561001337E+01
 0.1508063370303E+01
 0.1498167227319E+01
 0.1488596958535E+01
 0.1478996599807E+01
 0.1468931240012E+01
 0.1457887498435E+01
 0.1445274772321E+01
 0.1430428587105E+01
 0.1412615464852E+01
 0.1391043588765E+01
 0.1364888951095E+01
 0.1333319899261E+01
 0.1295503838710E+01
 0.1250622481869E+01
 0.1197897586773E+01
 0.1136621382000E+01
 0.1066190897662E+01
 0.9861455566108E+00
 0.8962092021138E+00
 0.7963361933005E+00
 0.6867431552030E+00
 0.5679054379112E+00
 0.4405777397737E+00
 0.3058404771253E+00
 0.1651079141577E+00
 0.2011153960657E-01
-0.1271399029844E+00
-0.2744264911373E+00
-0.4193983368358E+00
-0.5596690724588E+00
-0.6928959720760E+00
 0.1654848271493E+01
 0.1639621220297E+01
 0.1623899794951E+01
 0.1608046154767E+01
 0.1592410083779E+01
 0.1577299859672E+01
 0.1562958489465E+01
 0.1549548018392E+01
 0.1537141700828E+01
 0.1525722187747E+01
 0.1515183274603E+01
 0.1505333053966E+01
 0.1495896809595E+01
 0.1486518919422E+01
 0.1476764115724E+01
 0.1466117524032E+01
 0.1453985281515E+01
 0.1439697190114E+01
 0.1422510992493E+01
 0.1401623165006E+01
 0.1376198239032E+01
 0.1345394500800E+01
 0.1308366355873E+01
 0.1264276046540E+01
 0.1212318083851E+01
 0.1151749194574E+01
 0.1081922353874E+01
 0.1002324305147E+01
 0.9126181195752E+00
 0.8126908860817E+00
 0.7026874952695E+00
 0.5830094124686E+00
 0.4543419220900E+00
 0.3177100253350E+00
 0.1744947191130E+00
 0.2642339379164E-01
-0.1244655745083E+00
-0.2758884180290E+00
-0.4254015833424E+00
-0.5705046268416E+00
-0.7087333154540E+00
 0.1665209718431E+01
 0.1649544012368E+01
 0.1633343777750E+01
 0.1616997127388E+01
 0.1600882611711E+01
 0.1585335240250E+01
 0.1570619687381E+01
 0.1556913564943E+01
 0.1544300083507E+01
 0.1532767561706E+01
 0.1522212696401E+01
 0.1512445001108E+01
 0.1503190519558E+01
 0.1494094018999E+01
 0.1484720040724E+01
 0.1474552383927E+01
 0.1462993949462E+01
 0.1449368547556E+01
 0.1432924467773E+01
 0.1412845378270E+01
 0.1388283125259E+01
 0.1358384846785E+01
 0.1322290739757E+01
 0.1279141869384E+01
 0.1228103033771E+01
 0.1168392022528E+01
 0.1099313131900E+01
 0.1020294386954E+01
 0.9309304471901E+00
 0.8310318253436E+00
 0.7206607140478E+00
 0.6001321653348E+00
 0.4700487796207E+00
 0.3313676567288E+00
 0.1854265140420E+00
 0.3394294534196E-01
-0.1210147734548E+00
-0.2770918450243E+00
-0.4317371600705E+00
-0.5823172239507E+00
-0.7262249078533E+00
 0.1675696762202E+01
 0.1659543923659E+01
 0.1642812909521E+01
 0.1625922337455E+01
 0.1609284088444E+01
 0.1593263540395E+01
 0.1578149332977E+01
 0.1564135668069E+01
 0.1551315804958E+01
 0.1539683316501E+01
 0.1529137253323E+01
 0.1519488122483E+01
 0.1510462545386E+01
 0.1501705751955E+01
 0.1492782340459E+01
 0.1483175069728E+01
 0.1472283760846E+01
 0.1459426090859E+01
 0.1443840329878E+01
 0.1424696321283E+01
 0.1401132072409E+01
 0.1372282576506E+01
 0.1337272764974E+01
 0.1295221046016E+01
 0.1245260328789E+01
 0.1186566351782E+01
 0.1118390409590E+01
 0.1040095977714E+01
 0.9512016833184E+00
 0.8514318768771E+00
 0.7407543901580E+00
 0.6193840958834E+00
 0.4878258220534E+00
 0.3469539742095E+00
 0.1980504207066E+00
 0.4281485436934E-01
-0.1166560186925E+00
-0.2779297613015E+00
-0.4383329816139E+00
-0.5950781358703E+00
-0.7453912528496E+00
 0.1686318941185E+01
 0.1669627662685E+01
 0.1652309711297E+01
 0.1634819685094E+01
 0.1617608150509E+01
 0.1601074965979E+01
 0.1585535171205E+01
 0.1571200464674E+01
 0.1558173998487E+01
 0.1546453914231E+01
 0.1535940844885E+01
 0.1526445723696E+01
 0.1517695519576E+01
 0.1509336034047E+01
 0.1500932271073E+01
 0.1491966377212E+01
 0.1481835407517E+01
 0.1469850911982E+01
 0.1455240696023E+01
 0.1437159852002E+01
 0.1414731464390E+01
 0.1387077475021E+01
 0.1353306654684E+01
 0.1312513527895E+01
 0.1263797273813E+01
 0.1206288850445E+01
 0.1139182607233E+01
 0.1061771931781E+01
 0.9734918962819E+00
 0.8739708741636E+00
 0.7630699665649E+00
 0.6408887560781E+00
 0.5078171447680E+00
 0.3646293363917E+00
 0.2125356664535E+00
 0.5320677901804E-01
-0.1112359702450E+00
-0.2782767791177E+00
-0.4451042938703E+00
-0.6087534000220E+00
-0.7662563021948E+00
 0.1697087158859E+01
 0.1679802735739E+01
 0.1661836727164E+01
 0.1643686325748E+01
 0.1625847087925E+01
 0.1608758005251E+01
 0.1592763071187E+01
 0.1578092205831E+01
 0.1564857973655E+01
 0.1553062063000E+01
 0.1542605651113E+01
 0.1533299369268E+01
 0.1524870253429E+01
 0.1516964832713E+01
 0.1509148987560E+01
 0.1500904849413E+01
 0.1491627206049E+01
 0.1480621657496E+01
 0.1467105234813E+01
 0.1450217447256E+01
 0.1429065437370E+01
 0.1402757273735E+01
 0.1370384839171E+01
 0.1331017826129E+01
 0.1283720225332E+01
 0.1227575940299E+01
 0.1161718902654E+01
 0.1085367272717E+01
 0.9978652505617E+00
 0.8987352749311E+00
 0.7877186675332E+00
 0.6647831837794E+00
 0.5301843355562E+00
 0.3845754537045E+00
 0.2290758871216E+00
 0.6531224088647E-01
-0.1045763465342E+00
-0.2779863360266E+00
-0.4519516430005E+00
-0.6233027904142E+00
-0.7888474634877E+00
 0.1708014059661E+01
 0.1690077686497E+01
 0.1671396596997E+01
 0.1652518600945E+01
 0.1633991690940E+01
 0.1616299253152E+01
 0.1599816873395E+01
 0.1584793149433E+01
 0.1571349157587E+01
 0.1559488697849E+01
 0.1549112138501E+01
 0.1540028898001E+01
 0.1531965747563E+01
 0.1524570161057E+01
 0.1517409512892E+01
 0.1509966716572E+01
 0.1501635008365E+01
 0.1491714413065E+01
 0.1479411028803E+01
 0.1463848045594E+01
 0.1444115700231E+01
 0.1419307439564E+01
 0.1388497699641E+01
 0.1350730693627E+01
 0.1305034197657E+01
 0.1250443320368E+01
 0.1186028679561E+01
 0.1110928596714E+01
 0.1024389428362E+01
 0.9258177059327E+00
 0.8148213180154E+00
 0.6912181870874E+00
 0.5551074265638E+00
 0.4069971732912E+00
 0.2478918020703E+00
 0.7935405033150E-01
-0.9647016497934E-01
-0.2768872796341E+00
-0.4587584875053E+00
-0.6386786688507E+00
-0.8131954638686E+00
 0.1719114479400E+01
 0.1700462374777E+01
 0.1680992126951E+01
 0.1661311936330E+01
 0.1642031051765E+01
 0.1623683194231E+01
 0.1606678207794E+01
 0.1591283437921E+01
 0.1577627032969E+01
 0.1565712965917E+01
 0.1555439073937E+01
 0.1546612447051E+01
 0.1538959209637E+01
 0.1532128075771E+01
 0.1525688706522E+01
 0.1519125830261E+01
 0.1511832101646E+01
 0.1503102573573E+01
 0.1492132420949E+01
 0.1478027873875E+01
 0.1459861339033E+01
 0.1436710947084E+01
 0.1407633291044E+01
 0.1371646778028E+01
 0.1327742426625E+01
 0.1274905429058E+01
 0.1212140890382E+01
 0.1138503362885E+01
 0.1053134911204E+01
 0.9553163502685E+00
 0.8445080107666E+00
 0.7203585219936E+00
 0.5827858420724E+00
 0.4321244282660E+00
 0.2692342817875E+00
 0.9558838316942E-01
-0.8667713771403E-01
-0.2747796476976E+00
-0.4653884392581E+00
-0.6548248838906E+00
-0.8393339014248E+00
 0.1730405987715E+01
 0.1710968301473E+01
 0.1690626353373E+01
 0.1670060695924E+01
 0.1649952309587E+01
 0.1630891935937E+01
 0.1613326279482E+01
 0.1597540961551E+01
 0.1583669075534E+01
 0.1571712219732E+01
 0.1561563550841E+01
 0.1553026489013E+01
 0.1545826083512E+01
 0.1539612683089E+01
 0.1533959236054E+01
 0.1528353595064E+01
 0.1522189100571E+01
 0.1514756702053E+01
 0.1505240848848E+01
 0.1492730262935E+01
 0.1476278612738E+01
 0.1454948042937E+01
 0.1427777054827E+01
 0.1393758257335E+01
 0.1351845902654E+01
 0.1300974855464E+01
 0.1240083340884E+01
 0.1168139071713E+01
 0.1084174113743E+01
 0.9873341574834E+00
 0.8769175897559E+00
 0.7523829235892E+00
 0.6134393098125E+00
 0.4602143394802E+00
 0.2933878483226E+00
 0.1143096188925E+00
-0.7491797306559E-01
-0.2714293616098E+00
-0.4716820306937E+00
-0.6716763789956E+00
-0.8672982162828E+00
 0.1741909546360E+01
 0.1721608987873E+01
 0.1700302593296E+01
 0.1678757977256E+01
 0.1657740322851E+01
 0.1637904881233E+01
 0.1619737616826E+01
 0.1603541206700E+01
 0.1589450692949E+01
 0.1577462021267E+01
 0.1567461030022E+01
 0.1559245884115E+01
 0.1552540091482E+01
 0.1546996153767E+01
 0.1542191552172E+01
 0.1537618896696E+01
 0.1532673829446E+01
 0.1526644373973E+01
 0.1518704663026E+01
 0.1507925449131E+01
 0.1493340738099E+01
 0.1473996001471E+01
 0.1448911521214E+01
 0.1417054457581E+01
 0.1377342871205E+01
 0.1328661695138E+01
 0.1269881887027E+01
 0.1199882314234E+01
 0.1117580340342E+01
 0.1021977831487E+01
 0.9121968864712E+00
 0.7874839187464E+00
 0.6473086544880E+00
 0.4915534473713E+00
 0.3206745747533E+00
 0.1358561226527E+00
-0.6086744713108E-01
-0.2665610600413E+00
-0.4774531879492E+00
-0.6891598128200E+00
-0.8971265767881E+00
 0.1753650313674E+01
 0.1732400418023E+01
 0.1710024471875E+01
 0.1687395327327E+01
 0.1665377249028E+01
 0.1644698328812E+01
 0.1625885778683E+01
 0.1609257091672E+01
 0.1594945170473E+01
 0.1582936162989E+01
 0.1573105401608E+01
 0.1565243953979E+01
 0.1559073296312E+01
 0.1554248754150E+01
 0.1550353874063E+01
 0.1546888033754E+01
 0.1543251201509E+01
 0.1538730014878E+01
 0.1532488939255E+01
 0.1523580375113E+01
 0.1511017681461E+01
 0.1493828894195E+01
 0.1471016028173E+01
 0.1441521483708E+01
 0.1404228334953E+01
 0.1357972886463E+01
 0.1301559579924E+01
 0.1233777723835E+01
 0.1153426587013E+01
 0.1059356602310E+01
 0.9504996971078E+00
 0.8258673801715E+00
 0.6846564597408E+00
 0.5264599828990E+00
 0.3514586709002E+00
 0.1606164968466E+00
-0.4414462548270E-01
-0.2598508955777E+00
-0.4824795084513E+00
-0.7072060847115E+00
-0.9288496247916E+00
 0.1765658643892E+01
 0.1743361548459E+01
 0.1719795916460E+01
 0.1695962349738E+01
 0.1672842003988E+01
 0.1651244984934E+01
 0.1631741013898E+01
 0.1614658789934E+01
 0.1600123625235E+01
 0.1588106707440E+01
 0.1578469068301E+01
 0.1570992575911E+01
 0.1565396180859E+01
 0.1561338889707E+01
 0.1558412179632E+01
 0.1556124644510E+01
 0.1553883083262E+01
 0.1550974715900E+01
 0.1546555266931E+01
 0.1539658470544E+01
 0.1529275937814E+01
 0.1514417352901E+01
 0.1494066435582E+01
 0.1467141839556E+01
 0.1432493529680E+01
 0.1388911494365E+01
 0.1335135718084E+01
 0.1269866778823E+01
 0.1191784119287E+01
 0.1099580688191E+01
 0.9919853714320E+00
 0.8677516789197E+00
 0.7257673805236E+00
 0.5652862166242E+00
 0.3861510761626E+00
 0.1890385061688E+00
-0.2430644863503E-01
-0.2509019185290E+00
-0.4865214265446E+00
-0.7256986111618E+00
-0.9626271432388E+00
 0.1777971369722E+01
 0.1754514844340E+01
 0.1729621137404E+01
 0.1704446135932E+01
 0.1680109576604E+01
 0.1657513363648E+01
 0.1637269869522E+01
 0.1619713543805E+01
 0.1604954975227E+01
 0.1592944050939E+01
 0.1583523054626E+01
 0.1576462301832E+01
 0.1571477749254E+01
 0.1568233164793E+01
 0.1566330203466E+01
 0.1565289629905E+01
 0.1564528142571E+01
 0.1563336023522E+01
 0.1560861509250E+01
 0.1556119409245E+01
 0.1548078295924E+01
 0.1535728327621E+01
 0.1518034837180E+01
 0.1493894039643E+01
 0.1462125375300E+01
 0.1421475940179E+01
 0.1370624800968E+01
 0.1308186440389E+01
 0.1232720795304E+01
 0.1142759384736E+01
 0.1036816918914E+01
 0.9133662666419E+00
 0.7709480073677E+00
 0.6084204104812E+00
 0.4252151975101E+00
 0.2216362335446E+00
-0.8275733085107E-03
-0.2392600498483E+00
-0.4891888745231E+00
-0.7448297587784E+00
-0.9978844489721E+00
 0.1790630763879E+01
 0.1765890018745E+01
 0.1739508670477E+01
 0.1712836601537E+01
 0.1687157183784E+01
 0.1663474790230E+01
 0.1642442957872E+01
 0.1624394212764E+01
 0.1609415407372E+01
 0.1597427613208E+01
 0.1588249389358E+01
 0.1581637077362E+01
 0.1577303409362E+01
 0.1574918461511E+01
 0.1574096982454E+01
 0.1574375704790E+01
 0.1575185227414E+01
 0.1575822231093E+01
 0.1575429294147E+01
 0.1573002175018E+01
 0.1567484853936E+01
 0.1557846448658E+01
 0.1543033668779E+01
 0.1521921824082E+01
 0.1493303056954E+01
 0.1455886005649E+01
 0.1408293652588E+01
 0.1349058500660E+01
 0.1276622845417E+01
 0.1189354181066E+01
 0.1085542465391E+01
 0.9633559873917E+00
 0.8209450016814E+00
 0.6567056428400E+00
 0.4695668470763E+00
 0.2593502396383E+00
 0.2717291343378E-01
-0.2241905390806E+00
-0.4901292621256E+00
-0.7641811312651E+00
-0.1038568063237E+01
 0.1803698823953E+01
 0.1777523799994E+01
 0.1749467689487E+01
 0.1721117720141E+01
 0.1693952255773E+01
 0.1669088956901E+01
 0.1647218634711E+01
 0.1628661111618E+01
 0.1613468019245E+01
 0.1601522587688E+01
 0.1592613960372E+01
 0.1586481872638E+01
 0.1582835686010E+01
 0.1581353626479E+01
 0.1581666954289E+01
 0.1583332883004E+01
 0.1585800786702E+01
 0.1588377945274E+01
 0.1590203711553E+01
 0.1590254835846E+01
 0.1587448836219E+01
 0.1580731659369E+01
 0.1569030790495E+01
 0.1551202365544E+01
 0.1526015296538E+01
 0.1492145656694E+01
 0.1448167204433E+01
 0.1392537162533E+01
 0.1323585206124E+01
 0.1239515864767E+01
 0.1138387569441E+01
 0.1018042989224E+01
 0.8761986992689E+00
 0.7107155851355E+00
 0.5199125800629E+00
 0.3029907641329E+00
 0.6054776185494E-01
-0.2049235839810E+00
-0.4886912683246E+00
-0.7838535393452E+00
-0.1082832394404E+01
 0.1817237791261E+01
 0.1789448144780E+01
 0.1759492284178E+01
 0.1729253101698E+01
 0.1700440540792E+01
 0.1674295589516E+01
 0.1651538195173E+01
 0.1632460268427E+01
 0.1617063552358E+01
 0.1605182658298E+01
 0.1596570874749E+01
 0.1590948483345E+01
 0.1588021357383E+01
 0.1587477887048E+01
 0.1588969596103E+01
 0.1592079229558E+01
 0.1596280524628E+01
 0.1600896287341E+01
 0.1605065539405E+01
 0.1607745989213E+01
 0.1607826176424E+01
 0.1604225935066E+01
 0.1595852412880E+01
 0.1581544456069E+01
 0.1560052761630E+01
 0.1530028461641E+01
 0.1490005458120E+01
 0.1438375773980E+01
 0.1373365950178E+01
 0.1293024405099E+01
 0.1195178349651E+01
 0.1077331256652E+01
 0.9367286227415E+00
 0.7706235981411E+00
 0.5766078770519E+00
 0.3531001456941E+00
 0.9998657284542E-01
-0.1806920208753E+00
-0.4842068935894E+00
-0.8032040742505E+00
-0.1128699752198E+01
 0.1831330366833E+01
 0.1801708989516E+01
 0.1769583978944E+01
 0.1737209030866E+01
 0.1706569324975E+01
 0.1679037240029E+01
 0.1655348033985E+01
 0.1635745064570E+01
 0.1620162023110E+01
 0.1608372485420E+01
 0.1600086954703E+01
 0.1595003444070E+01
 0.1592824455564E+01
 0.1593250920957E+01
 0.1595958935544E+01
 0.1600562665039E+01
 0.1606566911803E+01
 0.1613316112324E+01
 0.1619952681132E+01
 0.1625415331583E+01
 0.1628560360719E+01
 0.1628277401743E+01
 0.1623451319843E+01
 0.1612905483975E+01
 0.1595378185437E+01
 0.1569504807365E+01
 0.1533791006908E+01
 0.1486576648724E+01
 0.1425998544693E+01
 0.1349961070749E+01
 0.1256067159703E+01
 0.1141474944835E+01
 0.1002927344899E+01
 0.8369970688694E+00
 0.6404184914357E+00
 0.4106325269902E+00
 0.1465691259195E+00
-0.1504302011764E+00
-0.4758056018481E+00
-0.8215364142633E+00
-0.1176780197282E+01
 0.1846079241789E+01
 0.1814361124322E+01
 0.1779741136970E+01
 0.1744941503847E+01
 0.1712274168607E+01
 0.1683246888738E+01
 0.1658588194484E+01
 0.1638465301630E+01
 0.1622721722106E+01
 0.1611056043047E+01
 0.1603128796497E+01
 0.1598613117147E+01
 0.1597208563307E+01
 0.1598631360703E+01
 0.1602587046055E+01
 0.1608728005168E+01
 0.1616598113284E+01
 0.1625571012769E+01
 0.1634797332586E+01
 0.1643196978003E+01
 0.1649589750812E+01
 0.1652829435839E+01
 0.1651775463478E+01
 0.1645237275740E+01
 0.1631947360216E+01
 0.1610536224242E+01
 0.1579495286378E+01
 0.1537128438201E+01
 0.1481500409520E+01
 0.1410389541280E+01
 0.1321189613087E+01
 0.1210717494798E+01
 0.1075192164473E+01
 0.9104379887284E+00
 0.7121921177657E+00
 0.4766870438063E+00
 0.2015822429546E+00
-0.1128238312858E+00
-0.4623663219545E+00
-0.8383013686681E+00
-0.1227670629758E+01
 0.1861612850232E+01
 0.1827469796928E+01
 0.1789956699298E+01
 0.1752392522122E+01
 0.1717475875915E+01
 0.1686846314050E+01
 0.1661191892744E+01
 0.1640567342239E+01
 0.1624699578380E+01
 0.1613197024439E+01
 0.1605663164513E+01
 0.1601744069874E+01
 0.1601137171435E+01
 0.1603577104700E+01
 0.1608804249619E+01
 0.1616516968807E+01
 0.1626307737235E+01
 0.1637588828901E+01
 0.1649525388068E+01
 0.1661018955782E+01
 0.1670847304435E+01
 0.1677820612953E+01
 0.1680768020074E+01
 0.1678486082710E+01
 0.1669708885045E+01
 0.1653074751528E+01
 0.1627077410750E+01
 0.1590004224802E+01
 0.1539869919484E+01
 0.1474351321430E+01
 0.1390657861228E+01
 0.1285282572312E+01
 0.1153914661716E+01
 0.9915743422428E+00
 0.7928585673035E+00
 0.5525251959517E+00
 0.2665644105758E+00
-0.6623957142006E-01
-0.4425022465572E+00
-0.8528538728957E+00
-0.1281923629563E+01
 0.1878093206882E+01
 0.1841112497152E+01
 0.1800214617483E+01
 0.1759484958364E+01
 0.1722076680654E+01
 0.1689744334770E+01
 0.1663085216808E+01
 0.1641994456865E+01
 0.1626051666609E+01
 0.1614759334845E+01
 0.1607657443387E+01
 0.1604363502564E+01
 0.1604574095142E+01
 0.1608045702040E+01
 0.1614559398151E+01
 0.1623868239268E+01
 0.1635624572356E+01
 0.1649291066244E+01
 0.1664055705883E+01
 0.1678802583174E+01
 0.1692260266845E+01
 0.1703184726105E+01
 0.1710367579309E+01
 0.1712592716764E+01
 0.1708604046293E+01
 0.1697062412875E+01
 0.1676483105713E+01
 0.1645159695125E+01
 0.1601083413302E+01
 0.1541860918707E+01
 0.1464553061004E+01
 0.1365363091564E+01
 0.1239466615561E+01
 0.1081046174667E+01
 0.8834241334402E+00
 0.6395870529021E+00
 0.3433588950629E+00
-0.8642550108165E-02
-0.4144379188965E+00
-0.8643138947319E+00
-0.1340112000361E+01
 0.1895726787777E+01
 0.1855380813604E+01
 0.1810484238068E+01
 0.1766115407104E+01
 0.1725955521263E+01
 0.1691835058478E+01
 0.1664187151882E+01
 0.1642687451196E+01
 0.1626733879083E+01
 0.1615707673762E+01
 0.1609080145896E+01
 0.1606439725220E+01
 0.1607483951478E+01
 0.1611994823011E+01
 0.1619800257883E+01
 0.1630717607242E+01
 0.1644472326511E+01
 0.1660592199807E+01
 0.1678299184582E+01
 0.1696461684724E+01
 0.1713749815655E+01
 0.1728850891372E+01
 0.1740508504788E+01
 0.1747492873535E+01
 0.1748566859482E+01
 0.1742430824520E+01
 0.1727643770965E+01
 0.1702531461509E+01
 0.1665092333183E+01
 0.1612900969955E+01
 0.1542917230662E+01
 0.1451108358329E+01
 0.1332181770825E+01
 0.1179484482662E+01
 0.9849570427393E+00
 0.7395025223681E+00
 0.4341731160996E+00
 0.6252586917970E-01
-0.3758378004306E+00
-0.8714342471699E+00
-0.1402886853130E+01
 0.1914779956801E+01
 0.1870382092829E+01
 0.1820711415524E+01
 0.1772144201414E+01
 0.1728962339216E+01
 0.1692996407663E+01
 0.1664410144478E+01
 0.1642585651377E+01
 0.1626702774617E+01
 0.1616008203728E+01
 0.1609901471076E+01
 0.1607942677458E+01
 0.1609832697135E+01
 0.1615382826985E+01
 0.1624474027216E+01
 0.1636998237020E+01
 0.1652769391087E+01
 0.1671398841971E+01
 0.1692157582128E+01
 0.1713901573383E+01
 0.1735230631810E+01
 0.1754743764971E+01
 0.1771121517062E+01
 0.1783117691761E+01
 0.1789524303263E+01
 0.1789100953212E+01
 0.1780475697900E+01
 0.1762035600130E+01
 0.1731820642191E+01
 0.1687417564341E+01
 0.1625744822695E+01
 0.1542609610500E+01
 0.1432333176389E+01
 0.1287481034995E+01
 0.1098559459496E+01
 0.8540908320457E+00
 0.5416447104000E+00
 0.1505123762609E+00
-0.3235682349541E+00
-0.8724161134628E+00
-0.1471035693840E+01
 0.1935601371247E+01
 0.1886240281085E+01
 0.1830804309213E+01
 0.1777381464948E+01
 0.1730911520957E+01
 0.1693089420537E+01
 0.1663661481269E+01
 0.1641628306344E+01
 0.1625916600356E+01
 0.1615629297005E+01
 0.1610093903701E+01
 0.1608844482518E+01
 0.1611588220729E+01
 0.1618169435763E+01
 0.1628528023798E+01
 0.1642641115369E+01
 0.1660428674395E+01
 0.1681608749020E+01
 0.1705521979691E+01
 0.1731017690712E+01
 0.1756610347788E+01
 0.1780783895272E+01
 0.1802134556373E+01
 0.1819394595282E+01
 0.1831396759083E+01
 0.1836983008294E+01
 0.1834879424859E+01
 0.1823566432611E+01
 0.1801162643959E+01
 0.1765316025179E+01
 0.1712974431598E+01
 0.1639884474704E+01
 0.1540106264769E+01
 0.1405547448002E+01
 0.1225319898346E+01
 0.9853379646080E+00
 0.6689061085775E+00
 0.2594657978166E+00
-0.2533516888847E+00
-0.8646152129823E+00
-0.1545544839047E+01
 0.1958655447846E+01
 0.1903094579538E+01
 0.1840610371260E+01
 0.1781567708319E+01
 0.1731575061306E+01
 0.1691959171053E+01
 0.1661845784580E+01
 0.1639756413610E+01
 0.1624336462754E+01
 0.1614542346834E+01
 0.1609632842946E+01
 0.1609120023047E+01
 0.1612720978593E+01
 0.1620316515765E+01
 0.1631910584419E+01
 0.1647575774920E+01
 0.1667357592568E+01
 0.1691109663345E+01
 0.1718270775038E+01
 0.1747693774777E+01
 0.1777788842370E+01
 0.1806888299568E+01
 0.1833474074398E+01
 0.1856248561819E+01
 0.1874098767639E+01
 0.1885976551659E+01
 0.1890739321034E+01
 0.1886995714205E+01
 0.1872981518288E+01
 0.1846457680141E+01
 0.1804481433886E+01
 0.1742861469222E+01
 0.1655568964643E+01
 0.1534063227709E+01
 0.1366239607551E+01
 0.1135335679473E+01
 0.8196294690180E+00
 0.3947095118618E+00
-0.1592495667069E+00
-0.8440473142042E+00
-0.1627665621869E+01
 0.1984574058337E+01
 0.1921092895043E+01
 0.1849878397444E+01
 0.1784347220165E+01
 0.1730677044628E+01
 0.1689438614515E+01
 0.1658868828689E+01
 0.1636914879128E+01
 0.1621927611859E+01
 0.1612722625875E+01
 0.1608497242824E+01
 0.1608747521316E+01
 0.1613204651819E+01
 0.1621788952992E+01
 0.1634572209394E+01
 0.1651731404143E+01
 0.1673458346774E+01
 0.1699777983104E+01
 0.1730266997438E+01
 0.1763799292520E+01
 0.1798657252146E+01
 0.1832971296313E+01
 0.1865066839866E+01
 0.1893603858185E+01
 0.1917540059699E+01
 0.1935970703361E+01
 0.1947923230128E+01
 0.1952172092733E+01
 0.1947108574585E+01
 0.1930657843228E+01
 0.1900072071215E+01
 0.1851365504340E+01
 0.1778640557409E+01
 0.1673214172766E+01
 0.1522126973080E+01
 0.1306157182918E+01
 0.9980137857871E+00
 0.5630696061098E+00
-0.3287600643095E-01
-0.8045239104697E+00
-0.1718961520653E+01
 0.2014239720635E+01
 0.1940373269716E+01
 0.1858194564828E+01
 0.1785232919708E+01
 0.1727893183697E+01
 0.1685357071957E+01
 0.1654642506427E+01
 0.1633054821647E+01
 0.1618660817607E+01
 0.1610150167368E+01
 0.1606670244905E+01
 0.1607709107948E+01
 0.1613016797523E+01
 0.1622555586384E+01
 0.1636466969280E+01
 0.1655038501384E+01
 0.1678628727220E+01
 0.1707477322258E+01
 0.1741354678383E+01
 0.1779185769830E+01
 0.1819096559016E+01
 0.1858945717251E+01
 0.1896842462055E+01
 0.1931386379684E+01
 0.1961626900521E+01
 0.1986844389641E+01
 0.2006282053838E+01
 0.2018920756392E+01
 0.2023343337197E+01
 0.2017685418756E+01
 0.1999479764417E+01
 0.1965105711780E+01
 0.1909061924722E+01
 0.1822926192422E+01
 0.1693459923961E+01
 0.1499638275325E+01
 0.1208640463077E+01
 0.7732198667918E+00
 0.1378036695902E+00
-0.7360864539038E+00
-0.1821245245590E+01
 0.2048926662726E+01
 0.1961017227726E+01
 0.1864871888276E+01
 0.1783564365393E+01
 0.1722863341611E+01
 0.1679554698979E+01
 0.1649089962648E+01
 0.1628135876462E+01
 0.1614513843600E+01
 0.1606810618955E+01
 0.1604139786080E+01
 0.1605991363678E+01
 0.1612139464752E+01
 0.1622590137394E+01
 0.1637554142622E+01
 0.1657431260533E+01
 0.1682763856599E+01
 0.1714057159019E+01
 0.1751353908428E+01
 0.1793681446379E+01
 0.1838975571838E+01
 0.1884724759257E+01
 0.1928736992855E+01
 0.1969526841167E+01
 0.2006263881649E+01
 0.2038466671648E+01
 0.2065649209927E+01
 0.2087043225215E+01
 0.2101454709167E+01
 0.2107264773232E+01
 0.2102364730709E+01
 0.2083667386352E+01
 0.2046370195885E+01
 0.1982803041405E+01
 0.1880230358752E+01
 0.1717038645707E+01
 0.1456065739925E+01
 0.1035904843111E+01
 0.3702883150840E+00
-0.6220659185858E+00
-0.1936113585197E+01
 0.2090557028965E+01
 0.1982934358754E+01
 0.1868754092780E+01
 0.1778472425752E+01
 0.1715231797088E+01
 0.1671900979607E+01
 0.1642148999077E+01
 0.1622128827540E+01
 0.1609472925805E+01
 0.1602696001051E+01
 0.1600899177974E+01
 0.1603585811170E+01
 0.1610559751038E+01
 0.1621872043901E+01
 0.1637799940064E+01
 0.1658850834465E+01
 0.1685759538193E+01
 0.1719352034467E+01
 0.1760054005946E+01
 0.1807083232569E+01
 0.1858147962559E+01
 0.1910224854625E+01
 0.1960698041700E+01
 0.2007964997023E+01
 0.2051356175202E+01
 0.2090697057333E+01
 0.2125839648002E+01
 0.2156316847539E+01
 0.2181183134127E+01
 0.2199080388380E+01
 0.2208317558028E+01
 0.2206509637165E+01
 0.2189880449604E+01
 0.2152074532125E+01
 0.2081804382927E+01
 0.1958601423178E+01
 0.1743947483148E+01
 0.1363647201483E+01
 0.6901552400998E+00
-0.4333704974259E+00
-0.2063172890255E+01
 0.2142211743838E+01
 0.2005564199999E+01
 0.1867861512758E+01
 0.1768904507792E+01
 0.1704734867935E+01
 0.1662304563289E+01
 0.1633773566770E+01
 0.1615019507186E+01
 0.1603533682830E+01
 0.1597805460930E+01
 0.1596947622464E+01
 0.1600489329473E+01
 0.1608270294101E+01
 0.1620387120360E+01
 0.1637179002570E+01
 0.1659249413947E+01
 0.1687518275462E+01
 0.1723182427321E+01
 0.1767203978285E+01
 0.1819144169354E+01
 0.1876447904024E+01
 0.1935370366863E+01
 0.1992692135712E+01
 0.2046655143715E+01
 0.2096812343209E+01
 0.2143385901152E+01
 0.2186648188824E+01
 0.2226493424743E+01
 0.2262243627394E+01
 0.2292785413204E+01
 0.2316867806314E+01
 0.2332969377828E+01
 0.2338680518412E+01
 0.2329554786280E+01
 0.2296833247078E+01
 0.2223159548627E+01
 0.2073516939470E+01
 0.1768955342751E+01
 0.1134270370638E+01
-0.1170074537351E+00
-0.2194260768478E+01
 0.2209289944325E+01
 0.2027028394127E+01
 0.1858770892176E+01
 0.1753892398425E+01
 0.1691322013795E+01
 0.1650684525256E+01
 0.1623945262049E+01
 0.1606811408434E+01
 0.1596701219120E+01
 0.1592146370143E+01
 0.1592290447809E+01
 0.1596704555571E+01
 0.1605269657362E+01
 0.1618128093412E+01
 0.1635675222414E+01
 0.1658594381263E+01
 0.1687959455374E+01
 0.1725360007369E+01
 0.1772499084616E+01
 0.1829552849144E+01
 0.1893683667520E+01
 0.1960101640657E+01
 0.2024715238330E+01
 0.2085572917985E+01
 0.2142547502379E+01
 0.2196374937574E+01
 0.2247846856102E+01
 0.2297295285404E+01
 0.2344328995069E+01
 0.2388014571394E+01
 0.2427500601627E+01
 0.2462267114261E+01
 0.2491644543333E+01
 0.2513626446647E+01
 0.2523159287751E+01
 0.2508108951969E+01
 0.2441752456954E+01
 0.2258822326462E+01
 0.1752507565582E+01
 0.4274393389690E+00
-0.2294842102954E+01
 0.2302662198930E+01
 0.2041306177996E+01
 0.1835824732537E+01
 0.1733578588901E+01
 0.1675051622313E+01
 0.1636930414280E+01
 0.1612715527174E+01
 0.1597510699986E+01
 0.1588996730877E+01
 0.1585733006725E+01
 0.1586939952465E+01
 0.1592240005651E+01
 0.1601562604841E+01
 0.1615095152869E+01
 0.1633281841230E+01
 0.1656870164586E+01
 0.1687034804323E+01
 0.1725704109168E+01
 0.1775562052080E+01
 0.1837897138036E+01
 0.1909628937887E+01
 0.1984389751091E+01
 0.2056807549878E+01
 0.2124723353042E+01
 0.2188486454487E+01
 0.2249498310888E+01
 0.2309181852539E+01
 0.2368406412407E+01
 0.2427110167651E+01
 0.2484407140843E+01
 0.2539676671080E+01
 0.2593533200518E+01
 0.2647408540165E+01
 0.2702379655787E+01
 0.2757566941085E+01
 0.2809607715643E+01
 0.2841781188784E+01
 0.2822749402736E+01
 0.2596645835967E+01
 0.1398114319192E+01
-0.2246712258744E+01
 0.2449699042035E+01
 0.2026331407918E+01
 0.1793263565117E+01
 0.1711349276515E+01
 0.1654758729698E+01
 0.1621438001998E+01
 0.1600035437303E+01
 0.1587178113618E+01
 0.1580443904237E+01
 0.1578590660903E+01
 0.1580914606893E+01
 0.1587110483727E+01
 0.1597160204336E+01
 0.1611295990383E+01
 0.1630002778886E+01
 0.1654073711300E+01
 0.1684743954239E+01
 0.1724088080331E+01
 0.1775918676828E+01
 0.1843592070199E+01
 0.1924015547086E+01
 0.2008264591103E+01
 0.2089072959879E+01
 0.2164150399217E+01
 0.2234566310460E+01
 0.2302583699139E+01
 0.2370374433594E+01
 0.2439455216293E+01
 0.2510225898128E+01
 0.2581645877514E+01
 0.2652879574663E+01
 0.2725787944737E+01
 0.2804498158696E+01
 0.2893321079135E+01
 0.2997028836320E+01
 0.3119263020348E+01
 0.3270898829912E+01
 0.3423292141561E+01
 0.3652783569396E+01
 0.3177971059243E+01
-0.1613966931631E+01
 0.2748446035688E+01
 0.1874902826460E+01
 0.1767563369870E+01
 0.1677881789972E+01
 0.1632965946024E+01
 0.1603744477954E+01
 0.1586118221174E+01
 0.1575836409601E+01
 0.1571092671364E+01
 0.1570749853547E+01
 0.1574240605822E+01
 0.1581336770332E+01
 0.1592079937701E+01
 0.1606745793301E+01
 0.1625852291017E+01
 0.1650217933775E+01
 0.1681103905437E+01
 0.1720570740441E+01
 0.1772983693949E+01
 0.1845698531213E+01
 0.1936563552815E+01
 0.2031857685981E+01
 0.2121703670989E+01
 0.2203947175896E+01
 0.2280738191425E+01
 0.2355450191374E+01
 0.2431128788821E+01
 0.2510003670966E+01
 0.2593209287102E+01
 0.2679557209887E+01
 0.2766680623935E+01
 0.2857941084421E+01
 0.2961207736855E+01
 0.3084157624071E+01
 0.3236211106457E+01
 0.3434261728809E+01
 0.3696757831595E+01
 0.4105246345815E+01
 0.4588473527752E+01
 0.6307528672356E+01
 0.1292273998273E+01
 0.1863133814274E+01
 0.1784040759397E+01
 0.1705290547892E+01
 0.1630205856129E+01
 0.1560589137319E+01
 0.1497348521279E+01
 0.1440766448615E+01
 0.1390960081668E+01
 0.1348089429688E+01
 0.1312286571330E+01
 0.1283399504040E+01
 0.1262552986896E+01
 0.1249264343863E+01
 0.1242608286081E+01
 0.1242930599163E+01
 0.1249208535963E+01
 0.1261173800888E+01
 0.1279545871948E+01
 0.1300150183644E+01
 0.1357173834967E+01
 0.1908183541993E+01
 0.1821513966588E+01
 0.1739699036603E+01
 0.1662629264677E+01
 0.1591638039181E+01
 0.1527439466573E+01
 0.1470354582514E+01
 0.1420509306146E+01
 0.1377999722445E+01
 0.1342887138325E+01
 0.1315416229794E+01
 0.1295831573572E+01
 0.1284125399360E+01
 0.1279943693839E+01
 0.1282919325465E+01
 0.1292861827704E+01
 0.1309876132582E+01
 0.1333629384707E+01
 0.1371103027314E+01
 0.1411587815608E+01
 0.1950395407559E+01
 0.1858907728922E+01
 0.1773287515064E+01
 0.1693995926799E+01
 0.1621506624188E+01
 0.1556346122020E+01
 0.1498764506373E+01
 0.1448867373130E+01
 0.1406715034414E+01
 0.1372412970418E+01
 0.1346090668439E+01
 0.1327971434674E+01
 0.1318099347925E+01
 0.1316250990976E+01
 0.1322264886106E+01
 0.1336164394186E+01
 0.1358122029221E+01
 0.1389725902298E+01
 0.1430291217595E+01
 0.1477894057067E+01
 0.1991277307115E+01
 0.1895057470991E+01
 0.1805949506796E+01
 0.1724215073911E+01
 0.1650150495253E+01
 0.1584001104273E+01
 0.1525922311928E+01
 0.1475972772695E+01
 0.1434197563614E+01
 0.1400669804478E+01
 0.1375506534733E+01
 0.1358900758669E+01
 0.1350942007201E+01
 0.1351553368730E+01
 0.1360746509639E+01
 0.1378700827565E+01
 0.1406028058340E+01
 0.1443146424821E+01
 0.1490289704169E+01
 0.1546819057927E+01
 0.2030720295009E+01
 0.1929885470860E+01
 0.1837351482565E+01
 0.1753191182334E+01
 0.1677494937793E+01
 0.1610340730434E+01
 0.1551762604647E+01
 0.1501765479027E+01
 0.1460361257409E+01
 0.1427603017537E+01
 0.1403597869041E+01
 0.1388532917762E+01
 0.1382546733546E+01
 0.1385694759408E+01
 0.1398134664738E+01
 0.1420242355840E+01
 0.1452543419362E+01
 0.1495627870453E+01
 0.1550089697679E+01
 0.1616410554806E+01
 0.2068573572637E+01
 0.1963216769841E+01
 0.1867336471633E+01
 0.1780782146619E+01
 0.1703460381743E+01
 0.1635297409812E+01
 0.1576223176856E+01
 0.1526178774696E+01
 0.1485141073141E+01
 0.1453143909787E+01
 0.1430291605111E+01
 0.1416776614963E+01
 0.1412790731371E+01
 0.1418504530251E+01
 0.1434215642593E+01
 0.1460398058170E+01
 0.1497703605774E+01
 0.1546934145575E+01
 0.1609131771624E+01
 0.1685490878312E+01
 0.2104644927392E+01
 0.1994891976898E+01
 0.1895760123185E+01
 0.1806873240928E+01
 0.1727958093016E+01
 0.1658803291209E+01
 0.1599241093461E+01
 0.1549150641808E+01
 0.1508472486558E+01
 0.1477223583829E+01
 0.1455508767363E+01
 0.1443533727380E+01
 0.1441543203183E+01
 0.1449812376561E+01
 0.1468753387555E+01
 0.1498967880967E+01
 0.1541270762123E+01
 0.1596731824487E+01
 0.1666770279317E+01
 0.1753141447704E+01
 0.2138739842260E+01
 0.2024754372017E+01
 0.1922493385760E+01
 0.1831358857333E+01
 0.1750904657677E+01
 0.1680789748155E+01
 0.1620755211402E+01
 0.1570620880470E+01
 0.1530292643044E+01
 0.1499772369400E+01
 0.1479167739280E+01
 0.1468701930155E+01
 0.1468671803650E+01
 0.1479445481297E+01
 0.1501548394462E+01
 0.1535719256262E+01
 0.1582958477621E+01
 0.1644594808638E+01
 0.1722387838884E+01
 0.1818551926032E+01
 0.2170669164304E+01
 0.2052654999391E+01
 0.1947416519089E+01
 0.1854142388413E+01
 0.1772221628391E+01
 0.1701191096923E+01
 0.1640706357274E+01
 0.1590531560448E+01
 0.1550540263790E+01
 0.1520721166468E+01
 0.1501186181006E+01
 0.1492178391036E+01
 0.1494044708203E+01
 0.1507240094396E+01
 0.1532401135749E+01
 0.1570407567306E+01
 0.1622444076779E+01
 0.1690080680682E+01
 0.1775380064293E+01
 0.1880971558399E+01
 0.2200253468278E+01
 0.2078453869906E+01
 0.1970418655907E+01
 0.1875134810720E+01
 0.1791836207770E+01
 0.1719945417304E+01
 0.1659038294116E+01
 0.1608827249901E+01
 0.1569156203943E+01
 0.1540002443298E+01
 0.1521483019509E+01
 0.1513861948119E+01
 0.1517534311158E+01
 0.1533036564413E+01
 0.1561112806075E+01
 0.1602779708232E+01
 0.1659396144313E+01
 0.1732750665148E+01
 0.1825174410224E+01
 0.1939669137307E+01
 0.2227325585192E+01
 0.2102021305816E+01
 0.1991397879150E+01
 0.1894254635369E+01
 0.1809681498540E+01
 0.1736995312441E+01
 0.1675698401410E+01
 0.1625455670043E+01
 0.1586084186861E+01
 0.1557551430018E+01
 0.1539980087435E+01
 0.1533655294148E+01
 0.1539017889759E+01
 0.1556680145080E+01
 0.1587487219383E+01
 0.1632583792850E+01
 0.1693487932447E+01
 0.1772182322284E+01
 0.1871232544726E+01
 0.1993932279446E+01
 0.2251732201258E+01
 0.2123238873318E+01
 0.2010261560699E+01
 0.1911428003934E+01
 0.1825696760046E+01
 0.1752288347585E+01
 0.1690638229011E+01
 0.1640368291153E+01
 0.1601271573987E+01
 0.1573307166424E+01
 0.1556603551701E+01
 0.1551466356631E+01
 0.1558378962131E+01
 0.1578022743915E+01
 0.1611335115048E+01
 0.1659576576706E+01
 0.1724406591361E+01
 0.1807976426078E+01
 0.1913046011727E+01
 0.2043127913653E+01
 0.2273335152075E+01
 0.2142000201504E+01
 0.2026926803835E+01
 0.1926588960349E+01
 0.1839827701494E+01
 0.1765777455032E+01
 0.1703813999854E+01
 0.1653520944723E+01
 0.1614670134437E+01
 0.1587213505697E+01
 0.1571285131090E+01
 0.1567209702247E+01
 0.1575508973085E+01
 0.1596925596044E+01
 0.1632478552390E+01
 0.1683529746820E+01
 0.1751860393073E+01
 0.1839762959521E+01
 0.1950153024036E+01
 0.2086703785078E+01
 0.2292012479211E+01
 0.2158211684687E+01
 0.2041320878616E+01
 0.1939679751633E+01
 0.1852026771901E+01
 0.1777421284788E+01
 0.1715187050737E+01
 0.1664874375207E+01
 0.1626236746670E+01
 0.1599219998747E+01
 0.1583963204010E+01
 0.1580807922855E+01
 0.1590309186720E+01
 0.1613262074378E+01
 0.1650755009382E+01
 0.1704235319144E+01
 0.1775584957686E+01
 0.1867210106254E+01
 0.1982146812170E+01
 0.2124184174766E+01
 0.2307659330448E+01
 0.2171793084724E+01
 0.2053381626659E+01
 0.1950651124925E+01
 0.1862253436227E+01
 0.1787184519675E+01
 0.1724724222120E+01
 0.1674394733049E+01
 0.1635934024546E+01
 0.1609282691538E+01
 0.1594583838919E+01
 0.1592193006690E+01
 0.1602692589643E+01
 0.1626920391175E+01
 0.1666021082982E+01
 0.1721510348033E+01
 0.1795349245106E+01
 0.1890030940516E+01
 0.2008680445475E+01
 0.2155167363176E+01
 0.2320188665294E+01
 0.2182678023115E+01
 0.2063057794287E+01
 0.1959462580331E+01
 0.1870474409617E+01
 0.1795038138899E+01
 0.1732398185016E+01
 0.1682053992819E+01
 0.1643730856785E+01
 0.1617364828108E+01
 0.1603101734231E+01
 0.1601307621656E+01
 0.1612585666880E+01
 0.1637806040854E+01
 0.1678155720365E+01
 0.1735201034035E+01
 0.1810960384806E+01
 0.1907988217877E+01
 0.2029469908995E+01
 0.2179325968392E+01
 0.2329531924746E+01
 0.2190814424667E+01
 0.2070309352644E+01
 0.1966082621381E+01
 0.1876663888144E+01
 0.1800959666942E+01
 0.1738187737882E+01
 0.1687830324575E+01
 0.1649602882731E+01
 0.1623437474552E+01
 0.1609481060189E+01
 0.1608106266049E+01
 0.1619929971239E+01
 0.1645843902205E+01
 0.1687062936935E+01
 0.1745186037904E+01
 0.1822267337198E+01
 0.1920897788320E+01
 0.2044296487516E+01
 0.2196408983761E+01
 0.2335639486332E+01
 0.2196164836133E+01
 0.2075107719384E+01
 0.1970488929850E+01
 0.1880803711485E+01
 0.1804933352622E+01
 0.1742078025253E+01
 0.1691708374257E+01
 0.1653532861171E+01
 0.1627480015075E+01
 0.1613696139734E+01
 0.1612556203469E+01
 0.1624683387429E+01
 0.1650979903148E+01
 0.1692673909559E+01
 0.1751378931228E+01
 0.1829163481101E+01
 0.1928630970248E+01
 0.2053008837549E+01
 0.2206243670297E+01
 0.2338481008049E+01
 0.2198706656621E+01
 0.2077435924631E+01
 0.1972668497809E+01
 0.1882883487099E+01
 0.1806950305066E+01
 0.1744060702493E+01
 0.1693679474211E+01
 0.1655510947713E+01
 0.1629480526326E+01
 0.1615731961900E+01
 0.1614638162140E+01
 0.1626821063278E+01
 0.1653182218310E+01
 0.1694948433549E+01
 0.1753729832000E+01
 0.1831588267598E+01
 0.1931116096098E+01
 0.2055524370455E+01
 0.2208737407309E+01
 0.2338045624462E+01
 0.2198432270247E+01
 0.2077288705514E+01
 0.1972617704704E+01
 0.1882900664450E+01
 0.1807008576888E+01
 0.1744134037935E+01
 0.1693741774688E+01
 0.1655534868766E+01
 0.1629436012355E+01
 0.1615584502400E+01
 0.1614346765934E+01
 0.1626335970844E+01
 0.1652441966919E+01
 0.1693875732344E+01
 0.1752226259228E+01
 0.1829528017652E+01
 0.1928339178342E+01
 0.2051829962859E+01
 0.2203878763158E+01
 0.2334341996304E+01
 0.2195349078321E+01
 0.2074672529174E+01
 0.1970342337882E+01
 0.1880860558136E+01
 0.1805113193507E+01
 0.1742302951319E+01
 0.1691900294286E+01
 0.1653609987714E+01
 0.1627352491951E+01
 0.1613260838834E+01
 0.1611690680997E+01
 0.1623239081465E+01
 0.1648773402543E+01
 0.1689474631295E+01
 0.1746893239938E+01
 0.1823015918997E+01
 0.1920343723234E+01
 0.2041981701492E+01
 0.2191738019626E+01
 0.2327398214501E+01
 0.2189479431811E+01
 0.2069605544285E+01
 0.1965857556688E+01
 0.1876776319752E+01
 0.1801276128611E+01
 0.1738578988559E+01
 0.1688166888991E+01
 0.1649749261906E+01
 0.1623244935390E+01
 0.1608779056143E+01
 0.1606692473480E+01
 0.1617559152782E+01
 0.1642213600588E+01
 0.1681793111063E+01
 0.1737792701553E+01
 0.1812131230815E+01
 0.1907229847629E+01
 0.2026103730337E+01
 0.2172467286386E+01
 0.2317261557883E+01
 0.2180860464072E+01
 0.2062117460597E+01
 0.1959187799359E+01
 0.1870668857809E+01
 0.1795516225312E+01
 0.1732980232776E+01
 0.1682560140196E+01
 0.1643973091304E+01
 0.1617137052138E+01
 0.1602167945197E+01
 0.1599388183678E+01
 0.1609342137242E+01
 0.1632821657849E+01
 0.1670907262696E+01
 0.1725022161005E+01
 0.1796997744539E+01
 0.1889152502284E+01
 0.2004386744553E+01
 0.2146295954730E+01
 0.2303998109673E+01
 0.2169543826987E+01
 0.2052249358561E+01
 0.1950366634111E+01
 0.1862566706867E+01
 0.1787859064337E+01
 0.1725531153551E+01
 0.1675105164790E+01
 0.1636309063714E+01
 0.1609060937125E+01
 0.1593466505858E+01
 0.1589826632618E+01
 0.1598650232890E+01
 0.1620677429443E+01
 0.1656919666487E+01
 0.1708712739707E+01
 0.1777781451774E+01
 0.1866318929765E+01
 0.1977084749439E+01
 0.2113528017702E+01
 0.2287692242235E+01
 0.2155595336178E+01
 0.2040053433012E+01
 0.1939436557472E+01
 0.1852505848453E+01
 0.1778336781884E+01
 0.1716262397803E+01
 0.1665833352502E+01
 0.1626791604865E+01
 0.1599056588407E+01
 0.1582723273222E+01
 0.1578068486529E+01
 0.1585560608207E+01
 0.1605879836730E+01
 0.1639957227756E+01
 0.1689026511911E+01
 0.1754687467484E+01
 0.1838985176918E+01
 0.1944511427491E+01
 0.2074538452303E+01
 0.2268445977287E+01
 0.2139094530192E+01
 0.2025592674087E+01
 0.1926448741882E+01
 0.1840529485564E+01
 0.1766987839058E+01
 0.1705210525205E+01
 0.1654782035815E+01
 0.1615461542950E+01
 0.1587171312141E+01
 0.1569995490948E+01
 0.1564185112068E+01
 0.1570163841889E+01
 0.1588544791331E+01
 0.1620168505614E+01
 0.1666153218953E+01
 0.1727956182743E+01
 0.1807451881572E+01
 0.1907035783721E+01
 0.2029768401486E+01
 0.2246378231662E+01
 0.2120134152136E+01
 0.2008940490028E+01
 0.1911462737014E+01
 0.1826687774170E+01
 0.1753856746179E+01
 0.1692417692217E+01
 0.1641994099146E+01
 0.1602365599495E+01
 0.1573459034709E+01
 0.1555348161502E+01
 0.1548257263367E+01
 0.1552562129828E+01
 0.1568802794126E+01
 0.1597720591499E+01
 0.1640306376283E+01
 0.1697858689737E+01
 0.1772059259507E+01
 0.1865077080730E+01
 0.1979719926336E+01
 0.2221623984542E+01
 0.2098819566283E+01
 0.1990180287574E+01
 0.1894546136617E+01
 0.1811037522408E+01
 0.1738993751064E+01
 0.1677931293466E+01
 0.1627517537764E+01
 0.1587555822136E+01
 0.1557979546646E+01
 0.1538853010006E+01
 0.1530373650810E+01
 0.1532867323130E+01
 0.1546796286731E+01
 0.1572795619033E+01
 0.1611718836667E+01
 0.1664691463837E+01
 0.1733181284851E+01
 0.1819099022549E+01
 0.1924951025427E+01
 0.2194333283210E+01
 0.2075268082433E+01
 0.1969404975260E+01
 0.1875774183571E+01
 0.1793641832120E+01
 0.1722454467952E+01
 0.1661803539347E+01
 0.1611404949229E+01
 0.1571088949358E+01
 0.1540797680516E+01
 0.1520587380067E+01
 0.1510629426823E+01
 0.1511198845922E+01
 0.1522676821102E+01
 0.1545586991544E+01
 0.1580637888900E+01
 0.1628770279192E+01
 0.1691218871951E+01
 0.1769603474638E+01
 0.1866070790846E+01
 0.2164670265640E+01
 0.2049608266595E+01
 0.1946716475312E+01
 0.1855229386069E+01
 0.1774569746285E+01
 0.1704299500731E+01
 0.1644091016196E+01
 0.1593712999462E+01
 0.1553025748914E+01
 0.1521982472239E+01
 0.1500633128193E+01
 0.1489124677371E+01
 0.1487681596071E+01
 0.1496602152525E+01
 0.1516295477814E+01
 0.1547320096538E+01
 0.1590423518432E+01
 0.1646591829611E+01
 0.1717123079261E+01
 0.1803736318417E+01
 0.2132812047183E+01
 0.2021979181429E+01
 0.1922225188554E+01
 0.1833001104825E+01
 0.1753895864821E+01
 0.1684594023793E+01
 0.1624854195904E+01
 0.1574501834472E+01
 0.1533430306074E+01
 0.1501606291091E+01
 0.1479075529985E+01
 0.1465962972904E+01
 0.1462443913032E+01
 0.1468733328028E+01
 0.1485125212019E+01
 0.1512026140362E+01
 0.1549985254772E+01
 0.1599729685448E+01
 0.1662211295436E+01
 0.1738651300812E+01
 0.2098947521398E+01
 0.1992529572725E+01
 0.1896049457977E+01
 0.1809185154736E+01
 0.1731699957696E+01
 0.1663407336082E+01
 0.1604156905178E+01
 0.1553834450929E+01
 0.1512369266108E+01
 0.1479743938356E+01
 0.1456002206990E+01
 0.1441250060588E+01
 0.1435615753094E+01
 0.1439231891845E+01
 0.1452279583327E+01
 0.1475015492952E+01
 0.1507789155087E+01
 0.1551062147488E+01
 0.1605429558478E+01
 0.1671560815645E+01
 0.2063275995594E+01
 0.1961416986583E+01
 0.1868315056279E+01
 0.1783883452842E+01
 0.1708066584425E+01
 0.1640812365718E+01
 0.1582065739784E+01
 0.1531776018742E+01
 0.1489911031280E+01
 0.1456471662358E+01
 0.1431502029655E+01
 0.1415092693012E+01
 0.1407327310392E+01
 0.1408257429953E+01
 0.1417956995936E+01
 0.1436540462938E+01
 0.1464162156927E+01
 0.1501014611753E+01
 0.1547330750869E+01
 0.1603233770794E+01
 0.2026005586483E+01
 0.1928806826584E+01
 0.1839154807805E+01
 0.1757203864965E+01
 0.1683084757047E+01
 0.1616885144064E+01
 0.1558649429320E+01
 0.1508393231515E+01
 0.1466124974370E+01
 0.1431866154562E+01
 0.1405663835057E+01
 0.1387597654002E+01
 0.1377708229440E+01
 0.1375966415247E+01
 0.1382346675191E+01
 0.1396838991031E+01
 0.1419416343455E+01
 0.1450003622980E+01
 0.1488466903365E+01
 0.1534395069900E+01
 0.1987350801751E+01
 0.1894871052546E+01
 0.1808708539521E+01
 0.1729260220290E+01
 0.1656847636301E+01
 0.1591703954524E+01
 0.1533978082996E+01
 0.1483753610973E+01
 0.1441080720414E+01
 0.1406003416231E+01
 0.1378574952563E+01
 0.1358869917635E+01
 0.1346888082571E+01
 0.1342512379267E+01
 0.1345627465148E+01
 0.1356123786096E+01
 0.1373836153364E+01
 0.1398427296745E+01
 0.1429388604152E+01
 0.1465736562672E+01
 0.1947528248991E+01
 0.1859787139583E+01
 0.1777123515022E+01
 0.1700173792605E+01
 0.1629451732847E+01
 0.1565348439382E+01
 0.1508122104811E+01
 0.1457925228923E+01
 0.1414847631092E+01
 0.1378957859740E+01
 0.1350319287460E+01
 0.1329010776992E+01
 0.1314993202369E+01
 0.1308054508051E+01
 0.1307967102494E+01
 0.1314578620808E+01
 0.1327644727796E+01
 0.1346650794760E+01
 0.1370636405671E+01
 0.1397954917276E+01
 0.1906749424744E+01
 0.1823732780646E+01
 0.1744561041749E+01
 0.1670073117964E+01
 0.1600997454862E+01
 0.1537895627898E+01
 0.1481151959981E+01
 0.1430976189513E+01
 0.1387494919570E+01
 0.1350801277663E+01
 0.1320975561083E+01
 0.1298113910615E+01
 0.1282145430498E+01
 0.1272746185964E+01
 0.1269573519152E+01
 0.1272324459628E+01
 0.1280991827434E+01
 0.1294910740227E+01
 0.1312793472364E+01
 0.1331822090469E+01
 0.1865179272717E+01
 0.1786901517538E+01
 0.1711191828772E+01
 0.1639114410630E+01
 0.1571572908681E+01
 0.1509421098767E+01
 0.1453135531461E+01
 0.1402976873699E+01
 0.1359090921537E+01
 0.1321603546493E+01
 0.1290614821218E+01
 0.1266262435085E+01
 0.1248453661468E+01
 0.1236741611868E+01
 0.1230629110481E+01
 0.1229714818399E+01
 0.1233611927822E+01
 0.1243359738187E+01
 0.1256326949758E+01
 0.1268510839636E+01
 0.1822947347574E+01
 0.1749373821961E+01
 0.1677378454538E+01
 0.1607395289322E+01
 0.1541263390784E+01
 0.1479993779219E+01
 0.1424142050926E+01
 0.1373989776803E+01
 0.1329719576591E+01
 0.1291423338061E+01
 0.1259298915081E+01
 0.1233530996571E+01
 0.1214004841618E+01
 0.1200172271921E+01
 0.1191349038182E+01
 0.1186921259266E+01
 0.1186581104351E+01
 0.1189360699068E+01
 0.1202748198926E+01
 0.1210007445716E+01
 0.1778411718608E+01
 0.1712453493754E+01
 0.1643182362710E+01
 0.1575028477720E+01
 0.1510118680965E+01
 0.1449685698458E+01
 0.1394245080992E+01
 0.1344077832274E+01
 0.1299419876955E+01
 0.1260434085424E+01
 0.1226976391103E+01
 0.1199963062512E+01
 0.1178995741206E+01
 0.1163010286995E+01
 0.1151912221235E+01
 0.1144368736010E+01
 0.1139659646494E+01
 0.1138211838743E+01
 0.1135036240320E+01
 0.1171908810543E+01
 0.4413273503988E+01
 0.2930173589777E+00
 0.1568987515791E-01
-0.1218181786123E+00
-0.1624269100225E+00
-0.1789611333243E+00
-0.1880896878218E+00
-0.1945439172477E+00
-0.1970799556104E+00
-0.1963489167945E+00
-0.1956846306980E+00
-0.1827419236529E+00
-0.1675784868174E+00
-0.1641834935672E+00
-0.1754699867952E+00
-0.1948972642216E+00
-0.2173507429749E+00
-0.2371077715095E+00
-0.2529537250343E+00
-0.2326162795008E+00
 0.2549883963253E+01
 0.1299265815142E+01
 0.2508448105359E+00
 0.3515980054927E-01
-0.5482270397020E-01
-0.9006657703271E-01
-0.1095498789671E+00
-0.1214638533462E+00
-0.1286418636043E+00
-0.1327816330905E+00
-0.1321106540767E+00
-0.1284370786250E+00
-0.1249993777044E+00
-0.1244221291898E+00
-0.1307948796563E+00
-0.1436168771505E+00
-0.1578995255016E+00
-0.1704996009049E+00
-0.1742178769272E+00
-0.1724910592539E+00
 0.1997458670175E+01
 0.1298695286675E+01
 0.6260452017899E+00
 0.2144589819616E+00
 0.7177058461769E-01
 0.7268154863112E-02
-0.2525261804526E-01
-0.4477837132270E-01
-0.5725832842346E-01
-0.6511336970834E-01
-0.6885280797236E-01
-0.7107958683028E-01
-0.7423135240078E-01
-0.7670837961637E-01
-0.8059240088898E-01
-0.8749290321142E-01
-0.9493904148565E-01
-0.9963175968430E-01
-0.1005849349219E+00
-0.9355661362980E-01
 0.1723598056684E+01
 0.1272945046888E+01
 0.7905153450917E+00
 0.4180453267819E+00
 0.2106684532418E+00
 0.1150966354979E+00
 0.6509112904675E-01
 0.3614524379060E-01
 0.1757917610222E-01
 0.5097902032627E-02
-0.3020062998683E-02
-0.1019114162508E-01
-0.1770567060352E-01
-0.2232197713668E-01
-0.2457842685567E-01
-0.2684390218689E-01
-0.2806577500470E-01
-0.2700818705645E-01
-0.2194544143894E-01
-0.7024744811455E-02
 0.1576680550867E+01
 0.1252411593544E+01
 0.8880384795126E+00
 0.5696765282999E+00
 0.3542463058704E+00
 0.2298445737802E+00
 0.1616531158902E+00
 0.1215038687148E+00
 0.9584178686861E-01
 0.7823373992094E-01
 0.6574955432653E-01
 0.5445742019708E-01
 0.4375303981285E-01
 0.3774701859279E-01
 0.3678627908056E-01
 0.3831685517746E-01
 0.4225148636750E-01
 0.4910652316794E-01
 0.6109363489752E-01
 0.8533706575947E-01
 0.1495352821033E+01
 0.1245889155373E+01
 0.9559980479430E+00
 0.6867108787094E+00
 0.4822301144193E+00
 0.3462242612746E+00
 0.2623716448669E+00
 0.2109309370938E+00
 0.1775047314215E+00
 0.1543985496701E+00
 0.1376287873184E+00
 0.1227565198818E+00
 0.1096670247257E+00
 0.1027981409412E+00
 0.1029998417648E+00
 0.1076844054675E+00
 0.1162107102029E+00
 0.1287461113054E+00
 0.1479931507828E+00
 0.1816049577059E+00
 0.1453076831844E+01
 0.1251234575646E+01
 0.1011695864001E+01
 0.7814554913821E+00
 0.5942373195512E+00
 0.4572133322302E+00
 0.3642296806445E+00
 0.3031385963630E+00
 0.2621712861885E+00
 0.2334925629620E+00
 0.2125560327386E+00
 0.1945158687297E+00
 0.1796079398889E+00
 0.1722682513947E+00
 0.1735460511768E+00
 0.1809639298129E+00
 0.1936230790492E+00
 0.2115726674724E+00
 0.2377958513546E+00
 0.2799855571851E+00
 0.1435856428447E+01
 0.1265988580615E+01
 0.1062253919267E+01
 0.8625887838533E+00
 0.6930650439596E+00
 0.5607575228184E+00
 0.4641139704616E+00
 0.3963973520032E+00
 0.3489960340398E+00
 0.3151337642386E+00
 0.2902853403816E+00
 0.2694438936037E+00
 0.2531468414327E+00
 0.2456224821232E+00
 0.2479118049816E+00
 0.2577193884277E+00
 0.2740548148138E+00
 0.2969230860016E+00
 0.3293822842465E+00
 0.3787717163031E+00
 0.1435654360210E+01
 0.1288060775349E+01
 0.1110896318874E+01
 0.9353282643568E+00
 0.7819873133322E+00
 0.6569125397450E+00
 0.5604134035137E+00
 0.4890386927064E+00
 0.4369034105260E+00
 0.3986828400054E+00
 0.3703854823542E+00
 0.3471419212163E+00
 0.3298095558697E+00
 0.3223110500844E+00
 0.3255303758276E+00
 0.3373855335759E+00
 0.3568665059392E+00
 0.3839454910955E+00
 0.4215708139948E+00
 0.4764668932826E+00
 0.1447502183401E+01
 0.1315876997547E+01
 0.1159086436896E+01
 0.1002808724209E+01
 0.8636545539886E+00
 0.7466024913070E+00
 0.6525621542486E+00
 0.5799328630316E+00
 0.5248413848345E+00
 0.4833633875353E+00
 0.4522739081498E+00
 0.4271006003578E+00
 0.4090558975674E+00
 0.4017348044652E+00
 0.4057650830383E+00
 0.4192817186339E+00
 0.4412808304494E+00
 0.4716915575780E+00
 0.5132197130447E+00
 0.5718344745687E+00
 0.1468156810236E+01
 0.1348259296210E+01
 0.1207487320794E+01
 0.1066908099223E+01
 0.9400166563638E+00
 0.8309139386890E+00
 0.7405982242081E+00
 0.6684484515780E+00
 0.6119704771730E+00
 0.5683930342027E+00
 0.5352834844544E+00
 0.5087184954416E+00
 0.4902740857955E+00
 0.4832337302431E+00
 0.4879093666615E+00
 0.5026421432037E+00
 0.5264426663634E+00
 0.5591940236815E+00
 0.6032874791285E+00
 0.6638985513890E+00
 0.1495398205198E+01
 0.1384310372491E+01
 0.1256376042772E+01
 0.1128759922958E+01
 0.1012441363074E+01
 0.9108256888646E+00
 0.8248246160887E+00
 0.7543083677342E+00
 0.6976911337729E+00
 0.6530761424105E+00
 0.6187322222536E+00
 0.5913382612186E+00
 0.5727938063211E+00
 0.5660933404813E+00
 0.5712028191328E+00
 0.5866513955168E+00
 0.6114725367483E+00
 0.6455201479387E+00
 0.6908581649517E+00
 0.7519140968086E+00
 0.1527639685218E+01
 0.1423322257379E+01
 0.1305833064042E+01
 0.1189047953895E+01
 0.1081863631958E+01
 0.9871240386996E+00
 0.9056161837694E+00
 0.8374415016750E+00
 0.7816024715497E+00
 0.7368346972445E+00
 0.7019742594422E+00
 0.6742869537146E+00
 0.6559122226571E+00
 0.6495661563958E+00
 0.6548582756798E+00
 0.6704831304895E+00
 0.6955103695113E+00
 0.7298041585651E+00
 0.7751396409604E+00
 0.8353205850302E+00
 0.1563699523812E+01
 0.1464711889490E+01
 0.1355829000835E+01
 0.1248175793893E+01
 0.1148907343405E+01
 0.1060398857496E+01
 0.9833210310682E+00
 0.9178738241161E+00
 0.8634403857782E+00
 0.8192014045274E+00
 0.7844242368222E+00
 0.7569088126959E+00
 0.7389246305748E+00
 0.7329018344875E+00
 0.7380979406188E+00
 0.7533406204297E+00
 0.7777539523557E+00
 0.8112641920496E+00
 0.8554439153143E+00
 0.9136811783404E+00
 0.1602660963060E+01
 0.1507976808659E+01
 0.1406264966814E+01
 0.1306364245455E+01
 0.1213973857006E+01
 0.1131067339008E+01
 0.1058217788346E+01
 0.9956583857195E+00
 0.9430212368391E+00
 0.8997956566346E+00
 0.8655612843141E+00
 0.8385853596487E+00
 0.8211492105790E+00
 0.8153803220784E+00
 0.8201913177479E+00
 0.8345070725851E+00
 0.8574957581146E+00
 0.8892180155837E+00
 0.9311508163632E+00
 0.9866009410695E+00
 0.1643782630983E+01
 0.1552664753833E+01
 0.1456991371840E+01
 0.1363707956492E+01
 0.1277303141896E+01
 0.1199403533356E+01
 0.1130502166573E+01
 0.1070834607547E+01
 0.1020199127738E+01
 0.9782963051136E+00
 0.9449216927702E+00
 0.9187423052787E+00
 0.9019427287188E+00
 0.8963259276748E+00
 0.9005031443979E+00
 0.9133898950154E+00
 0.9342023455140E+00
 0.9630917329933E+00
 0.1001674452270E+01
 0.1053588750013E+01
 0.1686438678772E+01
 0.1598351841827E+01
 0.1507817745749E+01
 0.1420209241575E+01
 0.1339016228193E+01
 0.1265565812126E+01
 0.1200287329103E+01
 0.1143407279707E+01
 0.1094836338189E+01
 0.1054419074563E+01
 0.1022088060039E+01
 0.9968500215044E+00
 0.9807003945263E+00
 0.9751133060787E+00
 0.9784536398495E+00
 0.9896621815420E+00
 0.1007555267682E+01
 0.1032595387974E+01
 0.1066336721320E+01
 0.1113848141338E+01
 0.1730073762998E+01
 0.1644629043293E+01
 0.1558515430818E+01
 0.1475803129115E+01
 0.1399144508447E+01
 0.1329621121692E+01
 0.1267611451802E+01
 0.1213333600005E+01
 0.1166786943498E+01
 0.1127898075214E+01
 0.1096682516929E+01
 0.1072424749674E+01
 0.1056856794256E+01
 0.1051132925304E+01
 0.1053511142476E+01
 0.1062918384110E+01
 0.1078227686752E+01
 0.1097580490803E+01
 0.1124708084414E+01
 0.1165470317459E+01
 0.1774184132914E+01
 0.1691073156362E+01
 0.1608834276982E+01
 0.1530366506531E+01
 0.1457662396446E+01
 0.1391563486243E+01
 0.1332444608958E+01
 0.1280526617518E+01
 0.1235864705271E+01
 0.1198488902787E+01
 0.1168361400060E+01
 0.1145032261421E+01
 0.1129909713469E+01
 0.1123790926447E+01
 0.1125035629434E+01
 0.1132775875336E+01
 0.1145647776347E+01
 0.1163013707652E+01
 0.1174373696157E+01
 0.1204719256635E+01
 0.1818226355483E+01
 0.1737323609512E+01
 0.1658404685470E+01
 0.1583797337013E+01
 0.1514515151883E+01
 0.1451321773066E+01
 0.1394690068124E+01
 0.1344856147441E+01
 0.1301883580194E+01
 0.1265817131009E+01
 0.1236917699604E+01
 0.1214361821477E+01
 0.1199312396693E+01
 0.1192645615998E+01
 0.1192404766496E+01
 0.1198264884696E+01
 0.1209540606623E+01
 0.1224515614271E+01
 0.1243601388793E+01
 0.1201318717312E+01
 0.1737271215531E+01
 0.1668537507441E+01
 0.1598750281067E+01
 0.1530548312711E+01
 0.1465537153323E+01
 0.1404792134359E+01
 0.1349001764874E+01
 0.1298539256816E+01
 0.1253550070282E+01
 0.1214091190681E+01
 0.1180366390099E+01
 0.1151519049288E+01
 0.1128402604475E+01
 0.1111747328741E+01
 0.1099541182837E+01
 0.1091100489355E+01
 0.1085321363003E+01
 0.1079947881509E+01
 0.1075464434033E+01
 0.1004743659962E+01
 0.1694907131273E+01
 0.1624522867668E+01
 0.1551255935379E+01
 0.1478992424577E+01
 0.1410217849230E+01
 0.1346169862572E+01
 0.1287468867855E+01
 0.1234491069551E+01
 0.1187373765352E+01
 0.1146159656154E+01
 0.1110772803280E+01
 0.1080659589499E+01
 0.1056999816640E+01
 0.1040451767370E+01
 0.1029276015737E+01
 0.1022311282423E+01
 0.1017759193949E+01
 0.1014598175091E+01
 0.1001508506233E+01
 0.1003265539815E+01
 0.1653559156104E+01
 0.1580921856581E+01
 0.1503728051239E+01
 0.1426920415309E+01
 0.1353808126779E+01
 0.1285903623080E+01
 0.1223871381510E+01
 0.1168102611655E+01
 0.1118692186147E+01
 0.1075586432181E+01
 0.1038750034718E+01
 0.1007397323263E+01
 0.9829868378720E+00
 0.9665121318539E+00
 0.9561619361443E+00
 0.9505489856733E+00
 0.9481335205152E+00
 0.9464653177108E+00
 0.9486277636517E+00
 0.9595202782112E+00
 0.1613465823474E+01
 0.1538254779059E+01
 0.1456469544527E+01
 0.1374417860061E+01
 0.1296318251722E+01
 0.1224011312987E+01
 0.1158247996361E+01
 0.1099452117942E+01
 0.1047647498174E+01
 0.1002703897817E+01
 0.9645063353843E+00
 0.9320059847303E+00
 0.9068807821506E+00
 0.8904025377605E+00
 0.8808567654731E+00
 0.8768512141343E+00
 0.8767297954491E+00
 0.8803136128368E+00
 0.8882870486373E+00
 0.9045328346190E+00
 0.1575118598274E+01
 0.1496901275603E+01
 0.1409730991357E+01
 0.1321560978062E+01
 0.1237722639981E+01
 0.1160436270727E+01
 0.1090563722147E+01
 0.1028564380011E+01
 0.9743691594512E+00
 0.9277122366774E+00
 0.8883414180189E+00
 0.8548826517503E+00
 0.8291575351847E+00
 0.8127056146256E+00
 0.8040183780553E+00
 0.8016348805595E+00
 0.8042504679793E+00
 0.8112648559669E+00
 0.8232739408898E+00
 0.8424928488943E+00
 0.1539065445389E+01
 0.1457257473042E+01
 0.1363707338392E+01
 0.1268369455826E+01
 0.1177925915243E+01
 0.1095040383836E+01
 0.1020706525782E+01
 0.9554114470681E+00
 0.8989391252018E+00
 0.8508188464628E+00
 0.8105801984952E+00
 0.7764610054919E+00
 0.7503381986311E+00
 0.7339985395700E+00
 0.7261648013852E+00
 0.7253355264644E+00
 0.7300912984050E+00
 0.7396432354398E+00
 0.7542839331372E+00
 0.7756554222132E+00
 0.1505942864899E+01
 0.1419736128148E+01
 0.1318554646593E+01
 0.1214783535949E+01
 0.1116734630867E+01
 0.1027583664256E+01
 0.9484807330261E+00
 0.8799109102558E+00
 0.8214245781075E+00
 0.7722439396902E+00
 0.7315793963209E+00
 0.6972098950734E+00
 0.6709661384142E+00
 0.6548481786134E+00
 0.6478333113306E+00
 0.6482673373910E+00
 0.6546169396475E+00
 0.6658606227099E+00
 0.6822115336011E+00
 0.7051139199002E+00
 0.1476517065396E+01
 0.1384784913296E+01
 0.1274384660028E+01
 0.1160643012902E+01
 0.1053824717629E+01
 0.9576996172730E+00
 0.8735995490497E+00
 0.8019404843996E+00
 0.7418983764648E+00
 0.6922426734215E+00
 0.6517384880552E+00
 0.6176345930390E+00
 0.5916066495506E+00
 0.5758454487154E+00
 0.5695781725720E+00
 0.5709649344510E+00
 0.5783491888620E+00
 0.5905524741424E+00
 0.6077986871086E+00
 0.6316158426044E+00
 0.1451748073587E+01
 0.1352908967345E+01
 0.1231255855253E+01
 0.1105651226376E+01
 0.9886970057146E+00
 0.8848658156322E+00
 0.7956852466856E+00
 0.7213618015705E+00
 0.6604726077599E+00
 0.6111321368106E+00
 0.5715142188614E+00
 0.5382792412662E+00
 0.5128492559949E+00
 0.4975991560457E+00
 0.4920092406141E+00
 0.4940322956112E+00
 0.5019167105468E+00
 0.5143873558343E+00
 0.5317521610583E+00
 0.5557704757836E+00
 0.1432886343865E+01
 0.1324703995131E+01
 0.1189153498281E+01
 0.1049314624676E+01
 0.9206114322361E+00
 0.8083721682174E+00
 0.7142839512251E+00
 0.6380652126299E+00
 0.5773463295661E+00
 0.5293230135420E+00
 0.4914313862086E+00
 0.4597228611887E+00
 0.4352949609764E+00
 0.4207252823222E+00
 0.4157457363662E+00
 0.4180981214865E+00
 0.4259697338706E+00
 0.4380475283823E+00
 0.4547617912018E+00
 0.4781709692731E+00
 0.1421624554192E+01
 0.1300904553158E+01
 0.1147946553718E+01
 0.9908378330700E+00
 0.8484912223394E+00
 0.7272948784048E+00
 0.6289117783993E+00
 0.5520461326727E+00
 0.4928679655940E+00
 0.4473478440831E+00
 0.4120814934383E+00
 0.3825616792440E+00
 0.3595354001054E+00
 0.3458197026178E+00
 0.3413855209778E+00
 0.3437714923305E+00
 0.3511443595715E+00
 0.3622049078100E+00
 0.3775172137994E+00
 0.3994483907769E+00
 0.1420345337858E+01
 0.1282454409174E+01
 0.1107294494365E+01
 0.9289403926506E+00
 0.7707906192851E+00
 0.6404997196218E+00
 0.5391610557053E+00
 0.4635234888927E+00
 0.4076039613385E+00
 0.3658709565986E+00
 0.3340994761752E+00
 0.3073779018969E+00
 0.2861264514645E+00
 0.2734361242770E+00
 0.2694805461359E+00
 0.2716143964429E+00
 0.2780335016143E+00
 0.2875020761976E+00
 0.3007067078344E+00
 0.3202932560037E+00
 0.1432543645213E+01
 0.1270606334213E+01
 0.1066443500372E+01
 0.8615380770434E+00
 0.6853318744738E+00
 0.5467318600211E+00
 0.4449085610303E+00
 0.3731011738080E+00
 0.3223856703806E+00
 0.2856578450740E+00
 0.2581116596384E+00
 0.2347000627862E+00
 0.2155664738994E+00
 0.2040735637896E+00
 0.2005241466400E+00
 0.2021223028905E+00
 0.2071627546944E+00
 0.2145294250302E+00
 0.2250034990460E+00
 0.2414534550528E+00
 0.1463587074992E+01
 0.1267048748919E+01
 0.1023780145850E+01
 0.7851884417125E+00
 0.5891742006774E+00
 0.4449051106570E+00
 0.3466813558948E+00
 0.2819259287904E+00
 0.2382828650745E+00
 0.2074780010935E+00
 0.1846632632269E+00
 0.1649672067044E+00
 0.1482872858494E+00
 0.1381782148922E+00
 0.1349494707751E+00
 0.1357112933247E+00
 0.1389668613215E+00
 0.1437989044221E+00
 0.1510420804019E+00
 0.1637147065329E+00
 0.1522168474076E+01
 0.1274038160093E+01
 0.9757968644462E+00
 0.6941964804982E+00
 0.4786912167650E+00
 0.3348602523879E+00
 0.2461352880486E+00
 0.1917350123371E+00
 0.1564035412938E+00
 0.1319658430424E+00
 0.1141486888402E+00
 0.9851155362639E-01
 0.8466341505749E-01
 0.7616119207823E-01
 0.7314028825378E-01
 0.7270917430925E-01
 0.7376552940403E-01
 0.7571416506341E-01
 0.7939180361009E-01
 0.8786967962897E-01
 0.1623425327198E+01
 0.1294246306829E+01
 0.9147891160139E+00
 0.5791225475670E+00
 0.3507454481457E+00
 0.2187034948539E+00
 0.1465530468949E+00
 0.1043485185405E+00
 0.7762230475241E-01
 0.5949234002422E-01
 0.4677719350958E-01
 0.3556441790951E-01
 0.2503688954295E-01
 0.1843580740409E-01
 0.1545261296493E-01
 0.1335399604133E-01
 0.1173060191662E-01
 0.1053924509435E-01
 0.1053234244028E-01
 0.1469372472472E-01
 0.1796035732972E+01
 0.1330028842019E+01
 0.8220985148476E+00
 0.4265740583857E+00
 0.2055904980259E+00
 0.1038850072656E+00
 0.5114556312695E-01
 0.2112862743340E-01
 0.2343217121847E-02
-0.9860599647303E-02
-0.1742439298111E-01
-0.2373403653454E-01
-0.3023568275651E-01
-0.3453482396305E-01
-0.3773535202123E-01
-0.4221477904810E-01
-0.4713772209161E-01
-0.5166963457760E-01
-0.5514220966714E-01
-0.5506159438356E-01
 0.2106155031606E+01
 0.1372056056920E+01
 0.6574219825027E+00
 0.2176643867405E+00
 0.6478369411932E-01
-0.3923103976803E-02
-0.3787812828786E-01
-0.5754355815648E-01
-0.6941901462795E-01
-0.7621995798634E-01
-0.7865494146424E-01
-0.7931440604882E-01
-0.8072779458110E-01
-0.8213063145142E-01
-0.8602917781792E-01
-0.9385724001543E-01
-0.1031256486298E+00
-0.1110871214156E+00
-0.1174393081604E+00
-0.1204740575742E+00
 0.2717044308632E+01
 0.1387768748754E+01
 0.2663243372406E+00
 0.3348378402400E-01
-0.6338978267008E-01
-0.1008580208763E+00
-0.1206995089080E+00
-0.1318807392159E+00
-0.1376609000359E+00
-0.1399757205058E+00
-0.1373054946207E+00
-0.1314194165739E+00
-0.1256582469956E+00
-0.1234085233454E+00
-0.1290609961762E+00
-0.1416654276948E+00
-0.1560513188499E+00
-0.1691243261963E+00
-0.1759743182062E+00
-0.1805005180100E+00
 0.4735148650229E+01
 0.3271184722453E+00
 0.2172306426986E-01
-0.1274788455619E+00
-0.1716221049220E+00
-0.1891190234135E+00
-0.1976456825788E+00
-0.2025356681573E+00
-0.2029200226955E+00
-0.1996054237307E+00
-0.1961843691887E+00
-0.1806546857148E+00
-0.1625382371833E+00
-0.1571200241045E+00
-0.1672080733068E+00
-0.1854097832514E+00
-0.2063439193895E+00
-0.2242944373842E+00
-0.2380251257374E+00
-0.2267708666746E+00
 0.1367082325054E+01
 0.1275598313111E+01
 0.1219328865286E+01
 0.1163566305326E+01
 0.1105628954083E+01
 0.1043299919111E+01
 0.9757379214619E+00
 0.9025208892095E+00
 0.8235090138251E+00
 0.7387371648818E+00
 0.6483885824864E+00
 0.5528063792615E+00
 0.4525397128885E+00
 0.3484197429261E+00
 0.2416571919441E+00
 0.1339186070391E+00
 0.2732014667554E-01
-0.7599708344545E-01
-0.1730919828396E+00
-0.2685685918158E+00
 0.1420868715012E+01
 0.1377358654824E+01
 0.1321323332160E+01
 0.1268665573839E+01
 0.1213278791511E+01
 0.1153751015957E+01
 0.1088771110642E+01
 0.1017547170848E+01
 0.9395284896790E+00
 0.8543521181992E+00
 0.7618106819124E+00
 0.6618694124265E+00
 0.5547255220206E+00
 0.4409178000470E+00
 0.3214895103142E+00
 0.1981961602129E+00
 0.7362344500760E-01
-0.4901073749595E-01
-0.1678328682091E+00
-0.2828741870518E+00
 0.1495839205060E+01
 0.1461644157273E+01
 0.1421181119685E+01
 0.1375295459007E+01
 0.1326092301193E+01
 0.1271999079339E+01
 0.1212022065540E+01
 0.1145186181854E+01
 0.1070667540861E+01
 0.9877424566523E+00
 0.8957840803061E+00
 0.7942778798146E+00
 0.6828759027762E+00
 0.5615047098131E+00
 0.4305575501964E+00
 0.2912053395729E+00
 0.1458954381793E+00
-0.1171459602321E-02
-0.1447667015757E+00
-0.2799955512795E+00
 0.1572929042196E+01
 0.1548966380447E+01
 0.1518677459459E+01
 0.1483220500738E+01
 0.1442589745113E+01
 0.1396578606258E+01
 0.1344218894303E+01
 0.1284531762050E+01
 0.1216493140765E+01
 0.1139074954730E+01
 0.1051240128871E+01
 0.9519496953076E+00
 0.8401876732231E+00
 0.7150245168288E+00
 0.5757524450777E+00
 0.4221781295405E+00
 0.2552205468560E+00
 0.7833039074766E-01
-0.9952347071169E-01
-0.2678116295341E+00
 0.1651337773689E+01
 0.1636714101887E+01
 0.1616988230307E+01
 0.1592114301240E+01
 0.1562061709854E+01
 0.1526319513130E+01
 0.1484133521849E+01
 0.1434479891819E+01
 0.1376211716545E+01
 0.1308061924907E+01
 0.1228641882916E+01
 0.1136422545236E+01
 0.1029713298554E+01
 0.9066443094674E+00
 0.7651704945496E+00
 0.6031348977875E+00
 0.4185663295296E+00
 0.2105536027570E+00
-0.1680540726421E-01
-0.2400298896340E+00
 0.1729547482827E+01
 0.1724495045731E+01
 0.1715372282624E+01
 0.1701856037853E+01
 0.1683571246697E+01
 0.1659980086711E+01
 0.1630285973042E+01
 0.1593486263188E+01
 0.1548374665269E+01
 0.1493554874518E+01
 0.1427414772486E+01
 0.1348081257275E+01
 0.1253349228954E+01
 0.1140577999623E+01
 0.1006536154922E+01
 0.8471713715390E+00
 0.6572197399079E+00
 0.4297599554554E+00
 0.1547502734433E+00
-0.1700172464739E+00
 0.1806512363694E+01
 0.1811262967241E+01
 0.1813072471647E+01
 0.1811471266012E+01
 0.1805986128534E+01
 0.1796022411455E+01
 0.1780818941283E+01
 0.1759418938554E+01
 0.1730667410966E+01
 0.1693191130672E+01
 0.1645364994207E+01
 0.1585251043976E+01
 0.1510503975428E+01
 0.1418224096338E+01
 0.1304722333648E+01
 0.1165111478264E+01
 0.9925634640014E+00
 0.7765393157429E+00
 0.4992296438333E+00
 0.1102405481479E+00
 0.1881316450887E+01
 0.1896114601755E+01
 0.1909149123810E+01
 0.1919946494951E+01
 0.1928026558853E+01
 0.1932833643388E+01
 0.1933686988986E+01
 0.1929755548749E+01
 0.1920037184189E+01
 0.1903337839029E+01
 0.1878237895580E+01
 0.1843040881827E+01
 0.1795694627366E+01
 0.1733670736871E+01
 0.1653772934197E+01
 0.1551820272546E+01
 0.1422052790392E+01
 0.1256037893467E+01
 0.1039459009865E+01
 0.7463997484118E+00
 0.1953053601282E+01
 0.1978060473667E+01
 0.2002509916784E+01
 0.2026009879396E+01
 0.2048159199085E+01
 0.2068502933708E+01
 0.2086501910585E+01
 0.2101510189884E+01
 0.2112759424032E+01
 0.2119343296613E+01
 0.2120198734693E+01
 0.2114079659931E+01
 0.2099520756370E+01
 0.2074788180202E+01
 0.2037815994000E+01
 0.1986130248277E+01
 0.1916804945793E+01
 0.1826595424427E+01
 0.1713235976336E+01
 0.1588674377912E+01
 0.2020705801290E+01
 0.2055864858592E+01
 0.2091681606502E+01
 0.2127906423670E+01
 0.2164266605461E+01
 0.2200455675553E+01
 0.2236116265799E+01
 0.2270828259747E+01
 0.2304101233407E+01
 0.2335370677579E+01
 0.2363996875159E+01
 0.2389267276842E+01
 0.2410405495420E+01
 0.2426595369353E+01
 0.2437039408434E+01
 0.2441099520627E+01
 0.2438643158602E+01
 0.2430910085290E+01
 0.2423340576353E+01
 0.2427656650632E+01
 0.2083420537623E+01
 0.2128390449899E+01
 0.2175250585088E+01
 0.2223896660169E+01
 0.2274210960625E+01
 0.2326059227359E+01
 0.2379286104433E+01
 0.2433712159861E+01
 0.2489135356578E+01
 0.2545337802698E+01
 0.2602099369998E+01
 0.2659221184808E+01
 0.2716565191403E+01
 0.2774121582639E+01
 0.2832126522511E+01
 0.2891273408637E+01
 0.2953088021310E+01
 0.3020626031373E+01
 0.3098879808854E+01
 0.3193366321049E+01
 0.2140432698831E+01
 0.2194635702799E+01
 0.2251938840487E+01
 0.2312381278997E+01
 0.2376003729187E+01
 0.2442849511324E+01
 0.2512965826379E+01
 0.2586407383537E+01
 0.2663244051983E+01
 0.2743574388660E+01
 0.2827547148909E+01
 0.2915394099458E+01
 0.3007479384841E+01
 0.3104373528496E+01
 0.3206963572135E+01
 0.3316609660784E+01
 0.3435348601823E+01
 0.3565990592423E+01
 0.3711804661050E+01
 0.3875963233411E+01
 0.2191058012722E+01
 0.2253712910493E+01
 0.2320612311458E+01
 0.2391931346727E+01
 0.2467862137882E+01
 0.2548616601327E+01
 0.2634430751834E+01
 0.2725571425827E+01
 0.2822346718193E+01
 0.2925121526794E+01
 0.3034339898778E+01
 0.3150556229991E+01
 0.3274477687407E+01
 0.3407019835882E+01
 0.3549374197451E+01
 0.3703077371469E+01
 0.3870036702604E+01
 0.4052438121993E+01
 0.4252537583025E+01
 0.4472373874169E+01
 0.2234694900231E+01
 0.2304845136260E+01
 0.2380279839925E+01
 0.2461298308039E+01
 0.2548229821527E+01
 0.2641437344118E+01
 0.2741322769434E+01
 0.2848334246288E+01
 0.2962976279971E+01
 0.3085823400666E+01
 0.3217538141052E+01
 0.3358893809777E+01
 0.3510801754580E+01
 0.3674340774708E+01
 0.3850782157895E+01
 0.4041594934854E+01
 0.4248409276516E+01
 0.4472929840937E+01
 0.4716810069051E+01
 0.4981546637503E+01
 0.2270829509230E+01
 0.2347368363454E+01
 0.2430095316547E+01
 0.2519417956215E+01
 0.2615783816229E+01
 0.2719684296127E+01
 0.2831659610276E+01
 0.2952305025507E+01
 0.3082278626750E+01
 0.3222310778092E+01
 0.3373215206975E+01
 0.3535901101327E+01
 0.3711384569194E+01
 0.3900796062221E+01
 0.4105377746996E+01
 0.4326463162939E+01
 0.4565435087719E+01
 0.4823665390304E+01
 0.5102455076723E+01
 0.5402991995602E+01
 0.2299040561476E+01
 0.2380735976256E+01
 0.2469361581305E+01
 0.2565414098884E+01
 0.2669437429347E+01
 0.2782026241959E+01
 0.2903829967819E+01
 0.3035557146403E+01
 0.3177980014234E+01
 0.3331939066452E+01
 0.3498347045001E+01
 0.3678191343804E+01
 0.3872533137908E+01
 0.4082500717980E+01
 0.4309274103633E+01
 0.4554059154972E+01
 0.4818052465330E+01
 0.5102404657468E+01
 0.5408192532558E+01
 0.5736407761250E+01
 0.2319002806011E+01
 0.2404522696271E+01
 0.2497533896994E+01
 0.2598600968930E+01
 0.2708340501733E+01
 0.2827424242423E+01
 0.2956581966158E+01
 0.3096603878720E+01
 0.3248342184922E+01
 0.3412711308160E+01
 0.3590686066851E+01
 0.3783296889367E+01
 0.3991620955227E+01
 0.4216768165557E+01
 0.4459861375230E+01
 0.4722011527515E+01
 0.5004290301838E+01
 0.5307703608223E+01
 0.5633175664318E+01
 0.5981553926666E+01
 0.2330489996392E+01
 0.2418427413611E+01
 0.2514222241234E+01
 0.2618484053866E+01
 0.2731877477107E+01
 0.2855124860996E+01
 0.2989008316386E+01
 0.3134370707831E+01
 0.3292115049964E+01
 0.3463201721511E+01
 0.3648642816368E+01
 0.3849492959499E+01
 0.4066836091629E+01
 0.4301768166065E+01
 0.4555376431031E+01
 0.4828716839437E+01
 0.5122791551050E+01
 0.5438528214091E+01
 0.5776753690685E+01
 0.6138186907387E+01
 0.2333376400316E+01
 0.2422274948324E+01
 0.2519192510414E+01
 0.2624760139377E+01
 0.2739665210568E+01
 0.2864654010568E+01
 0.3000533661668E+01
 0.3148172530390E+01
 0.3308498712426E+01
 0.3482495965728E+01
 0.3671196448866E+01
 0.3875669733956E+01
 0.4097007900563E+01
 0.4336307117629E+01
 0.4594646888501E+01
 0.4873068854897E+01
 0.5172557158467E+01
 0.5494021472132E+01
 0.5838281034094E+01
 0.6205979828231E+01
 0.2327638024839E+01
 0.2416016565941E+01
 0.2512366713040E+01
 0.2617317034574E+01
 0.2731551379474E+01
 0.2855812985029E+01
 0.2990906648932E+01
 0.3137699553061E+01
 0.3297120225804E+01
 0.3470155052245E+01
 0.3657841651787E+01
 0.3861258514508E+01
 0.4081510580560E+01
 0.4319711018210E+01
 0.4576960334082E+01
 0.4854324803676E+01
 0.5152817170534E+01
 0.5473382011340E+01
 0.5816894170160E+01
 0.6184183967590E+01
 0.2313354198470E+01
 0.2399733702297E+01
 0.2493831418047E+01
 0.2596246069045E+01
 0.2707631457966E+01
 0.2828700158515E+01
 0.2960226553784E+01
 0.3103048899689E+01
 0.3258070090101E+01
 0.3426256537660E+01
 0.3608634427365E+01
 0.3806282476742E+01
 0.4020320343480E+01
 0.4251892169415E+01
 0.4502145509601E+01
 0.4772207435941E+01
 0.5063160759401E+01
 0.5376026964334E+01
 0.5711756243113E+01
 0.6071320816099E+01
 0.2290711129030E+01
 0.2373662222909E+01
 0.2463876836301E+01
 0.2561898956969E+01
 0.2668325709566E+01
 0.2783810991289E+01
 0.2909069484525E+01
 0.3044880601810E+01
 0.3192092074766E+01
 0.3351622747586E+01
 0.3524463855636E+01
 0.3711677683087E+01
 0.3914392040122E+01
 0.4133788590857E+01
 0.4371083491691E+01
 0.4627499942818E+01
 0.4904236096985E+01
 0.5202431639476E+01
 0.5523149247136E+01
 0.5867275166061E+01
 0.2259998129744E+01
 0.2338180225230E+01
 0.2422981566556E+01
 0.2514868894842E+01
 0.2614357061894E+01
 0.2722013237711E+01
 0.2838461969416E+01
 0.2964391179515E+01
 0.3100559070925E+01
 0.3247801806652E+01
 0.3407041542950E+01
 0.3579293837363E+01
 0.3765672475235E+01
 0.3967388424539E+01
 0.4185737826968E+01
 0.4422075104384E+01
 0.4677768744835E+01
 0.4954149137945E+01
 0.5252445025367E+01
 0.5573748862778E+01
 0.2221600139830E+01
 0.2293784550064E+01
 0.2371773074876E+01
 0.2455934059998E+01
 0.2546676069903E+01
 0.2644452138070E+01
 0.2749765524904E+01
 0.2863177341936E+01
 0.2985316427468E+01
 0.3116891857281E+01
 0.3258708347105E+01
 0.3411684357567E+01
 0.3576871679553E+01
 0.3755472994858E+01
 0.3948850441849E+01
 0.4158510907004E+01
 0.4386060151926E+01
 0.4633117420614E+01
 0.4901227721997E+01
 0.5191802041206E+01
 0.2175992681637E+01
 0.2241084153914E+01
 0.2311017443687E+01
 0.2386044111151E+01
 0.2466444865626E+01
 0.2552533016424E+01
 0.2644659958585E+01
 0.2743223252716E+01
 0.2848678065035E+01
 0.2961552962825E+01
 0.3082471281557E+01
 0.3212179382784E+01
 0.3351582753516E+01
 0.3501789482437E+01
 0.3664155598427E+01
 0.3840318425156E+01
 0.4032170422312E+01
 0.4241767006864E+01
 0.4471142253806E+01
 0.4722160625369E+01
 0.2123736275624E+01
 0.2180793648178E+01
 0.2241612290344E+01
 0.2306312849637E+01
 0.2375030713357E+01
 0.2447917640047E+01
 0.2525145551817E+01
 0.2606913184913E+01
 0.2693456599893E+01
 0.2785065010754E+01
 0.2882104036433E+01
 0.2985049364190E+01
 0.3094534994352E+01
 0.3211421196462E+01
 0.3336887522058E+01
 0.3472546368755E+01
 0.3620557597921E+01
 0.3783544703893E+01
 0.3964373977749E+01
 0.4165665010138E+01
 0.2065469839086E+01
 0.2113724792946E+01
 0.2164576778264E+01
 0.2218007163629E+01
 0.2273994749419E+01
 0.2332514396908E+01
 0.2393537473436E+01
 0.2457034724493E+01
 0.2522982567580E+01
 0.2591374327377E+01
 0.2662238762453E+01
 0.2735669734324E+01
 0.2811873437191E+01
 0.2891244189045E+01
 0.2974486601710E+01
 0.3062815134941E+01
 0.3158254083567E+01
 0.3264084983716E+01
 0.3384419100270E+01
 0.3523585162973E+01
 0.2001902584783E+01
 0.2040776138049E+01
 0.2081038806462E+01
 0.2122531840481E+01
 0.2165074709453E+01
 0.2208459844175E+01
 0.2252448072711E+01
 0.2296765288944E+01
 0.2341101156780E+01
 0.2385110764099E+01
 0.2428420753907E+01
 0.2470642766168E+01
 0.2511399821713E+01
 0.2550376860619E+01
 0.2587419161981E+01
 0.2622727578443E+01
 0.2657271322462E+01
 0.2693634149321E+01
 0.2738130491513E+01
 0.2798271041300E+01
 0.1933805133351E+01
 0.1962920611296E+01
 0.1992218905536E+01
 0.2021408829129E+01
 0.2050158705916E+01
 0.2078086607675E+01
 0.2104749109330E+01
 0.2129629906277E+01
 0.2152128458028E+01
 0.2171548438916E+01
 0.2187085413311E+01
 0.2197813512831E+01
 0.2202671866281E+01
 0.2200454216148E+01
 0.2189811843584E+01
 0.2169300559710E+01
 0.2137562964636E+01
 0.2093960145424E+01
 0.2040978622300E+01
 0.1995978523242E+01
 0.1861998301593E+01
 0.1881191281134E+01
 0.1899411149909E+01
 0.1916250597826E+01
 0.1931248730488E+01
 0.1943874708779E+01
 0.1953508678187E+01
 0.1959421444302E+01
 0.1960753119195E+01
 0.1956488184386E+01
 0.1945423717340E+01
 0.1926126334539E+01
 0.1896871671418E+01
 0.1855556688987E+01
 0.1799568680466E+01
 0.1725582501269E+01
 0.1629231235180E+01
 0.1504606004315E+01
 0.1343182048111E+01
 0.1139153024186E+01
 0.1787341481175E+01
 0.1796668369545E+01
 0.1803962372365E+01
 0.1808726959018E+01
 0.1810410096684E+01
 0.1808379015932E+01
 0.1801890271593E+01
 0.1790063225085E+01
 0.1771852760337E+01
 0.1746016933162E+01
 0.1711073505367E+01
 0.1665238084786E+01
 0.1606332820771E+01
 0.1531647029367E+01
 0.1437714151149E+01
 0.1319930364645E+01
 0.1171844218820E+01
 0.9835880651836E+00
 0.7382124997419E+00
 0.3905008190633E+00
 0.1710725611801E+01
 0.1710468070998E+01
 0.1707247943213E+01
 0.1700516765573E+01
 0.1689694545612E+01
 0.1674114025324E+01
 0.1652984728907E+01
 0.1625365603261E+01
 0.1590141784920E+01
 0.1545996954489E+01
 0.1491375111919E+01
 0.1424424194175E+01
 0.1342912329809E+01
 0.1244100937522E+01
 0.1124545881858E+01
 0.9797683543193E+00
 0.8036678245867E+00
 0.5873830034795E+00
 0.3165280813109E+00
-0.3449387532161E-01
 0.1633069753239E+01
 0.1623734149439E+01
 0.1610616043818E+01
 0.1593208696313E+01
 0.1570982378650E+01
 0.1543315500206E+01
 0.1509452844166E+01
 0.1468489811105E+01
 0.1419363605072E+01
 0.1360844565987E+01
 0.1291518549112E+01
 0.1209758579250E+01
 0.1113682939712E+01
 0.1001098153473E+01
 0.8694257370511E+00
 0.7156217224143E+00
 0.5361304697350E+00
 0.3271345743354E+00
 0.8602818142302E-01
-0.1729941841783E+00
 0.1555366633837E+01
 0.1537552950449E+01
 0.1515254700613E+01
 0.1488105708958E+01
 0.1455721094166E+01
 0.1417593794346E+01
 0.1373067978017E+01
 0.1321340844632E+01
 0.1261486282645E+01
 0.1192469399188E+01
 0.1113157254597E+01
 0.1022324240059E+01
 0.9186614613851E+00
 0.8008022430637E+00
 0.6673907484259E+00
 0.5172525117090E+00
 0.3498347464587E+00
 0.1662712920455E+00
-0.2707171162115E-01
-0.2164081469063E+00
 0.1478382659621E+01
 0.1452651107323E+01
 0.1421845342390E+01
 0.1385883507079E+01
 0.1344609528251E+01
 0.1297686839167E+01
 0.1244570210343E+01
 0.1184585045953E+01
 0.1116973200016E+01
 0.1040943361894E+01
 0.9556998328327E+00
 0.8604752108587E+00
 0.7545777167936E+00
 0.6374736213396E+00
 0.5089363699444E+00
 0.3693255662998E+00
 0.2200825530146E+00
 0.6465098720320E-01
-0.9112155931008E-01
-0.2416108148763E+00
 0.1402819689654E+01
 0.1369586962027E+01
 0.1330820774915E+01
 0.1286902029610E+01
 0.1238045525831E+01
 0.1184019930263E+01
 0.1124379422160E+01
 0.1058529857917E+01
 0.9858814002870E+00
 0.9058879025523E+00
 0.8180875417841E+00
 0.7221439234810E+00
 0.6179076303336E+00
 0.5055116476087E+00
 0.3855193598818E+00
 0.2591355085970E+00
 0.1284816086885E+00
-0.3334461406599E-02
-0.1329406367794E+00
-0.2578368478996E+00
 0.1329441980714E+01
 0.1288840884733E+01
 0.1242317144796E+01
 0.1191330146465E+01
 0.1136216205603E+01
 0.1076902566174E+01
 0.1012775878546E+01
 0.9433016967305E+00
 0.8680269817527E+00
 0.7866319060747E+00
 0.6989491127923E+00
 0.6049975882963E+00
 0.5050331898832E+00
 0.3996205629736E+00
 0.2897194804270E+00
 0.1767641955896E+00
 0.6263147612532E-01
-0.5059290940170E-01
-0.1610213117066E+00
-0.2674779439076E+00
 0.1259116318821E+01
 0.1210224644330E+01
 0.1156102766842E+01
 0.1098599328154E+01
 0.1039144788069E+01
 0.9764733064851E+00
 0.9098871821246E+00
 0.8388334417276E+00
 0.7629992573631E+00
 0.6822686586941E+00
 0.5967193911545E+00
 0.5066324743459E+00
 0.4125182944268E+00
 0.3151482002689E+00
 0.2155734924642E+00
 0.1150865032025E+00
 0.1509096484541E-01
-0.8324998685492E-01
-0.1791212657302E+00
-0.2716246910778E+00
 0.1192532867784E+01
 0.1133835603172E+01
 0.1068927266291E+01
 0.1008381251488E+01
 0.9468472876012E+00
 0.8830224699696E+00
 0.8159083143710E+00
 0.7450664889119E+00
 0.6703571226263E+00
 0.5918713645143E+00
 0.5098867537525E+00
 0.4248561861759E+00
 0.3374098979209E+00
 0.2483560039593E+00
 0.1586572001065E+00
 0.6936632846426E-01
-0.1852798160165E-01
-0.1041812031441E+00
-0.1878788558074E+00
-0.2704908740455E+00
 0.1136675202830E+01
 0.1042599933415E+01
 0.9806103510640E+00
 0.9207516867333E+00
 0.8603213452698E+00
 0.7973978886606E+00
 0.7313879058669E+00
 0.6621449373333E+00
 0.5898086509863E+00
 0.5146875868322E+00
 0.4372148022969E+00
 0.3579291946809E+00
 0.2774688843852E+00
 0.1965622229596E+00
 0.1160067973759E+00
 0.3662442887965E-01
-0.4076240188693E-01
-0.1155039116673E+00
-0.1862146423046E+00
-0.2569414140632E+00
</DataArray>
<DataArray type="Float64" Name="S_Oct" NumberOfComponents="1" ComponentName0="S_Oct" format="ascii">
 0.1323987576802E+01
 0.1159222415129E+01
 0.1044928505115E+01
 0.1010384529174E+01
 0.9934672943219E+00
 0.9904943517155E+00
 0.9955145343541E+00
 0.1006443658717E+01
 0.1021928137446E+01
 0.1041292057366E+01
 0.1064211868717E+01
 0.1090628860591E+01
 0.1120692791600E+01
 0.1154748759616E+01
 0.1193352444703E+01
 0.1237330022596E+01
 0.1287906403028E+01
 0.1347035722159E+01
 0.1418184634003E+01
 0.1506454480598E+01
 0.1610705877725E+01
 0.1720873501174E+01
 0.1827621937919E+01
 0.1926959202469E+01
 0.2018833808404E+01
 0.2104743276253E+01
 0.2186139797303E+01
 0.2263672821429E+01
 0.2336728082065E+01
 0.2402976040438E+01
 0.2460495664327E+01
 0.2512308989258E+01
 0.2563779079224E+01
 0.2618620414700E+01
 0.2680756737847E+01
 0.2753961856443E+01
 0.2849236929882E+01
 0.2951730259050E+01
 0.3176215200537E+01
 0.2835439553516E+01
 0.5742959632054E+01
 0.1142885049562E+01
 0.1172864268750E+01
 0.1090628867910E+01
 0.1046037912370E+01
 0.1027526090115E+01
 0.1021228509689E+01
 0.1023837014371E+01
 0.1032654870840E+01
 0.1046370790676E+01
 0.1064211478351E+01
 0.1085802642454E+01
 0.1111036952501E+01
 0.1140023416231E+01
 0.1173068154314E+01
 0.1210685289629E+01
 0.1253643676574E+01
 0.1303072906850E+01
 0.1360640911905E+01
 0.1428250922255E+01
 0.1506714431993E+01
 0.1593928510098E+01
 0.1684893497289E+01
 0.1774347066386E+01
 0.1859018103405E+01
 0.1937784995238E+01
 0.2010701212620E+01
 0.2078022042187E+01
 0.2139550014969E+01
 0.2194393509317E+01
 0.2241452286175E+01
 0.2280208016949E+01
 0.2310912943782E+01
 0.2334139736113E+01
 0.2349779105813E+01
 0.2355482053812E+01
 0.2346396789576E+01
 0.2305582443181E+01
 0.2219643387009E+01
 0.1940231413309E+01
 0.1487894469726E+01
 0.4914436615850E+01
 0.1054664543776E+01
 0.1133295576234E+01
 0.1111578742488E+01
 0.1073910632205E+01
 0.1055397689619E+01
 0.1048297603908E+01
 0.1049389909775E+01
 0.1056707962023E+01
 0.1068968052735E+01
 0.1085443311422E+01
 0.1105744957574E+01
 0.1129742199892E+01
 0.1157509369624E+01
 0.1189307069333E+01
 0.1225583681001E+01
 0.1266999945282E+01
 0.1314470994339E+01
 0.1369037432322E+01
 0.1431107617386E+01
 0.1499747040989E+01
 0.1572965464254E+01
 0.1648164288239E+01
 0.1722453529200E+01
 0.1793362901965E+01
 0.1859339190129E+01
 0.1919567054271E+01
 0.1973482081474E+01
 0.2020356835083E+01
 0.2059293503024E+01
 0.2089627890827E+01
 0.2110779450519E+01
 0.2121459550728E+01
 0.2119616351505E+01
 0.2102093919462E+01
 0.2063300400838E+01
 0.1992265206937E+01
 0.1872089392785E+01
 0.1669164127655E+01
 0.1333208765539E+01
 0.1423294919100E+01
 0.4549481256526E+01
 0.1006617927119E+01
 0.1095284882494E+01
 0.1112090745496E+01
 0.1092804733805E+01
 0.1077747884374E+01
 0.1071474154801E+01
 0.1072131598515E+01
 0.1078515576689E+01
 0.1089657098972E+01
 0.1104934103896E+01
 0.1123997440936E+01
 0.1146713432257E+01
 0.1173129477743E+01
 0.1203454793285E+01
 0.1238051154014E+01
 0.1277427548804E+01
 0.1322182853865E+01
 0.1372670663502E+01
 0.1428329044179E+01
 0.1487599471984E+01
 0.1548833709689E+01
 0.1610684629487E+01
 0.1671607182130E+01
 0.1729793788004E+01
 0.1783602023751E+01
 0.1831745873132E+01
 0.1873159407554E+01
 0.1906823156292E+01
 0.1931834586770E+01
 0.1947541934648E+01
 0.1953012528484E+01
 0.1946098330676E+01
 0.1923411930933E+01
 0.1880390475296E+01
 0.1810256556431E+01
 0.1703115963213E+01
 0.1546794140104E+01
 0.1330207085607E+01
 0.1145011326501E+01
 0.1756007472803E+01
 0.4220876196992E+01
 0.9791578655520E+00
 0.1066289222003E+01
 0.1104320096343E+01
 0.1103255372822E+01
 0.1095020449766E+01
 0.1090922364027E+01
 0.1092063484795E+01
 0.1098066695818E+01
 0.1108411511196E+01
 0.1122661028968E+01
 0.1140543122218E+01
 0.1161942899995E+01
 0.1186887881122E+01
 0.1215532114602E+01
 0.1248135499340E+01
 0.1285022865799E+01
 0.1326441228112E+01
 0.1372177429733E+01
 0.1421136859437E+01
 0.1471628915955E+01
 0.1522348365789E+01
 0.1572632640839E+01
 0.1621701641329E+01
 0.1668243606432E+01
 0.1710694563317E+01
 0.1747565656618E+01
 0.1777532713461E+01
 0.1799433850461E+01
 0.1812333881680E+01
 0.1815462959364E+01
 0.1807602499349E+01
 0.1786247967814E+01
 0.1747662790299E+01
 0.1687234199927E+01
 0.1599411004439E+01
 0.1478747580049E+01
 0.1324418114182E+01
 0.1165661328793E+01
 0.1197395477555E+01
 0.2054402311148E+01
 0.3948277259624E+01
 0.9633960961259E+00
 0.1045666511661E+01
 0.1094553973713E+01
 0.1107930949801E+01
 0.1107725050662E+01
 0.1106951873095E+01
 0.1109289708484E+01
 0.1115400004437E+01
 0.1125244581590E+01
 0.1138629074661E+01
 0.1155388983817E+01
 0.1175445467510E+01
 0.1198813256293E+01
 0.1225589956981E+01
 0.1255924991494E+01
 0.1289946780802E+01
 0.1327577312489E+01
 0.1368202219736E+01
 0.1410484960907E+01
 0.1452810901261E+01
 0.1494162210498E+01
 0.1534261768554E+01
 0.1572768981674E+01
 0.1608733228150E+01
 0.1640744388572E+01
 0.1667284565163E+01
 0.1686943061674E+01
 0.1698514411857E+01
 0.1701039080402E+01
 0.1693651900842E+01
 0.1675025099814E+01
 0.1642718242540E+01
 0.1593373471603E+01
 0.1523441239112E+01
 0.1430157950793E+01
 0.1314431142440E+01
 0.1190679258304E+01
 0.1125205909808E+01
 0.1349157351098E+01
 0.2257435117255E+01
 0.3730315850887E+01
 0.9547665019471E+00
 0.1031586954177E+01
 0.1085470027241E+01
 0.1109251402260E+01
 0.1116732700328E+01
 0.1119924007854E+01
 0.1123994166910E+01
 0.1130601051693E+01
 0.1140203301395E+01
 0.1152869570408E+01
 0.1168564306944E+01
 0.1187257381093E+01
 0.1208957242046E+01
 0.1233706582405E+01
 0.1261543671853E+01
 0.1292409988836E+01
 0.1325962978264E+01
 0.1361337448538E+01
 0.1397131371212E+01
 0.1431885217568E+01
 0.1464808917126E+01
 0.1495847730860E+01
 0.1524918269580E+01
 0.1551336044866E+01
 0.1573875192465E+01
 0.1591097129548E+01
 0.1601620959634E+01
 0.1604272060943E+01
 0.1598109500415E+01
 0.1582262261118E+01
 0.1555491533528E+01
 0.1515756777793E+01
 0.1460603804693E+01
 0.1388285453064E+01
 0.1299646370847E+01
 0.1202845254790E+01
 0.1127281668805E+01
 0.1163065881798E+01
 0.1515711120875E+01
 0.2385361377635E+01
 0.3557005059578E+01
 0.9507126693524E+00
 0.1022392793832E+01
 0.1078024370821E+01
 0.1108887978970E+01
 0.1122985430498E+01
 0.1130268868361E+01
 0.1136403964046E+01
 0.1143795125175E+01
 0.1153363240808E+01
 0.1165437227498E+01
 0.1180118718561E+01
 0.1197434420695E+01
 0.1217392144682E+01
 0.1239983961259E+01
 0.1265144413994E+01
 0.1292653427137E+01
 0.1321974263984E+01
 0.1352108556950E+01
 0.1381689740369E+01
 0.1409435053733E+01
 0.1434733261474E+01
 0.1457662464643E+01
 0.1478295457048E+01
 0.1496151304640E+01
 0.1510197878007E+01
 0.1519140937308E+01
 0.1521707196415E+01
 0.1516814445509E+01
 0.1503601837505E+01
 0.1481301385672E+01
 0.1448941467565E+01
 0.1405130579631E+01
 0.1348656723042E+01
 0.1279967534755E+01
 0.1203824005281E+01
 0.1135483441798E+01
 0.1116051660628E+01
 0.1241597859182E+01
 0.1664602592743E+01
 0.2463350542535E+01
 0.3417959576278E+01
 0.9497080059724E+00
 0.1016803748751E+01
 0.1072411703396E+01
 0.1107869734399E+01
 0.1127304029778E+01
 0.1138442378190E+01
 0.1146773474853E+01
 0.1155134772485E+01
 0.1164823579250E+01
 0.1176406694754E+01
 0.1190119815470E+01
 0.1206049666858E+01
 0.1224208161963E+01
 0.1244543513125E+01
 0.1266900534508E+01
 0.1290931386931E+01
 0.1315971754262E+01
 0.1340975273515E+01
 0.1364665300808E+01
 0.1385933368950E+01
 0.1404311062328E+01
 0.1419961067030E+01
 0.1433057931960E+01
 0.1443284912930E+01
 0.1449803836258E+01
 0.1451502339620E+01
 0.1447266852267E+01
 0.1436159739093E+01
 0.1417465687746E+01
 0.1390622595184E+01
 0.1355066946234E+01
 0.1310221482498E+01
 0.1256294984471E+01
 0.1196064306950E+01
 0.1138114012948E+01
 0.1103731383457E+01
 0.1140439914423E+01
 0.1335413414366E+01
 0.1788243125247E+01
 0.2509731434205E+01
 0.3304915372242E+01
 0.9507935425590E+00
 0.1013874917854E+01
 0.1068514821605E+01
 0.1106783645341E+01
 0.1130328600983E+01
 0.1144877501225E+01
 0.1155368232009E+01
 0.1164789559445E+01
 0.1174701268634E+01
 0.1185869050111E+01
 0.1198650491613E+01
 0.1213190992200E+01
 0.1229510312312E+01
 0.1247521447610E+01
 0.1266997623905E+01
 0.1287499264811E+01
 0.1308291322360E+01
 0.1328338127863E+01
 0.1346479991983E+01
 0.1361771573657E+01
 0.1373862442404E+01
 0.1382975265590E+01
 0.1389358690315E+01
 0.1392836335443E+01
 0.1392760418350E+01
 0.1388221005469E+01
 0.1378299074099E+01
 0.1362244670535E+01
 0.1339547562457E+01
 0.1309936076733E+01
 0.1273353931511E+01
 0.1230129119168E+01
 0.1181947109388E+01
 0.1133860362058E+01
 0.1097847498487E+01
 0.1099413008612E+01
 0.1186736347631E+01
 0.1430300006102E+01
 0.1888033945281E+01
 0.2536419339415E+01
 0.3211800192534E+01
 0.9533418748568E+00
 0.1012917229883E+01
 0.1066108844551E+01
 0.1105938533896E+01
 0.1132527267687E+01
 0.1149954865343E+01
 0.1162448974881E+01
 0.1172937374673E+01
 0.1183125424783E+01
 0.1193928176474E+01
 0.1205806144113E+01
 0.1218958382072E+01
 0.1233415216481E+01
 0.1249064122527E+01
 0.1265626590843E+01
 0.1282605519882E+01
 0.1299240688738E+01
 0.1314546023739E+01
 0.1327490219317E+01
 0.1337278097882E+01
 0.1343660961821E+01
 0.1346910440042E+01
 0.1347336856946E+01
 0.1344890290371E+01
 0.1339108437082E+01
 0.1329293912571E+01
 0.1314745005146E+01
 0.1294933168666E+01
 0.1269601512473E+01
 0.1238830783600E+01
 0.1203131961377E+01
 0.1163769573988E+01
 0.1123871503317E+01
 0.1090565003108E+01
 0.1078501710070E+01
 0.1115163882819E+01
 0.1244753744199E+01
 0.1519454225183E+01
 0.1967883432740E+01
 0.2550917143513E+01
 0.3134244868657E+01
 0.9569288008325E+00
 0.1013427980701E+01
 0.1064950880121E+01
 0.1105477273254E+01
 0.1134228497997E+01
 0.1153992423819E+01
 0.1168259608436E+01
 0.1179756957552E+01
 0.1190232329062E+01
 0.1200697238401E+01
 0.1211691871405E+01
 0.1223461223294E+01
 0.1236047913513E+01
 0.1249323796511E+01
 0.1262978237965E+01
 0.1276486810230E+01
 0.1289099057494E+01
 0.1299903327376E+01
 0.1307999595281E+01
 0.1312730897059E+01
 0.1313940166371E+01
 0.1311944634096E+01
 0.1307112314328E+01
 0.1299511891790E+01
 0.1288861246253E+01
 0.1274679130022E+01
 0.1256495014383E+01
 0.1234026090013E+01
 0.1207303838535E+01
 0.1176801310406E+01
 0.1143623886753E+01
 0.1109958254979E+01
 0.1080271292235E+01
 0.1063438495608E+01
 0.1075844656824E+01
 0.1144740908756E+01
 0.1307617996908E+01
 0.1600238157181E+01
 0.2031871843652E+01
 0.2557933427039E+01
 0.3069087915077E+01
 0.9612598178400E+00
 0.1015038541594E+01
 0.1064816684990E+01
 0.1105448168789E+01
 0.1135656118710E+01
 0.1157247146103E+01
 0.1173020260064E+01
 0.1185421989167E+01
 0.1196161131405E+01
 0.1206295427295E+01
 0.1216419765588E+01
 0.1226815668525E+01
 0.1237538867550E+01
 0.1248454984500E+01
 0.1259239292162E+01
 0.1269365335085E+01
 0.1278118281964E+01
 0.1284676018795E+01
 0.1288268270337E+01
 0.1288366235692E+01
 0.1284898550502E+01
 0.1278228794823E+01
 0.1268783077732E+01
 0.1256744308127E+01
 0.1242005137357E+01
 0.1224299769931E+01
 0.1203395885409E+01
 0.1179271895012E+01
 0.1152269781156E+01
 0.1123275515345E+01
 0.1093989950615E+01
 0.1067472126893E+01
 0.1049366397088E+01
 0.1049864894684E+01
 0.1086052078711E+01
 0.1183173691446E+01
 0.1371043756090E+01
 0.1672142095935E+01
 0.2083530345255E+01
 0.2560448067704E+01
 0.3013999536552E+01
 0.9661261468019E+00
 0.1017476839344E+01
 0.1065513138782E+01
 0.1105848615876E+01
 0.1136959297594E+01
 0.1159922544820E+01
 0.1176924698872E+01
 0.1190096971712E+01
 0.1201050327780E+01
 0.1210845075053E+01
 0.1220106393981E+01
 0.1229142170124E+01
 0.1238021278545E+01
 0.1246611481020E+01
 0.1254589647189E+01
 0.1261447617205E+01
 0.1266524690266E+01
 0.1269096843245E+01
 0.1268519892947E+01
 0.1264385080474E+01
 0.1256703481411E+01
 0.1245887730042E+01
 0.1232424431103E+01
 0.1216608122355E+01
 0.1198500681422E+01
 0.1178048130827E+01
 0.1155258000117E+01
 0.1130377602997E+01
 0.1104070241789E+01
 0.1077639737001E+01
 0.1053362964954E+01
 0.1035091970068E+01
 0.1029436179161E+01
 0.1047402818021E+01
 0.1105799035587E+01
 0.1226721123069E+01
 0.1432549625900E+01
 0.1735652473449E+01
 0.2125712839175E+01
 0.2560373295463E+01
 0.2967220164320E+01
 0.9713773996246E+00
 0.1020540828826E+01
 0.1066880038145E+01
 0.1106651064614E+01
 0.1138235752809E+01
 0.1162178086332E+01
 0.1180140753512E+01
 0.1193934791109E+01
 0.1205035041956E+01
 0.1214469185105E+01
 0.1222870533753E+01
 0.1230563250715E+01
 0.1237628757156E+01
 0.1243944026324E+01
 0.1249200553528E+01
 0.1252924194942E+01
 0.1254521124416E+01
 0.1253369581971E+01
 0.1248946930680E+01
 0.1240957950683E+01
 0.1229494465015E+01
 0.1215021531441E+01
 0.1198089241462E+01
 0.1179101888334E+01
 0.1158284796777E+01
 0.1135790048424E+01
 0.1111862456464E+01
 0.1087019446226E+01
 0.1062247205941E+01
 0.1039259877121E+01
 0.1020874022825E+01
 0.1011629070769E+01
 0.1018846363798E+01
 0.1053827547174E+01
 0.1132305414541E+01
 0.1272695522445E+01
 0.1490823543382E+01
 0.1791657540245E+01
 0.2160664304082E+01
 0.2558960304288E+01
 0.2927384445786E+01
 0.9769040144178E+00
 0.1024079751949E+01
 0.1068787524143E+01
 0.1107818046292E+01
 0.1139548757710E+01
 0.1164138375976E+01
 0.1182812457266E+01
 0.1197075642556E+01
 0.1208245071977E+01
 0.1217289394642E+01
 0.1224831193926E+01
 0.1231201548403E+01
 0.1236493379142E+01
 0.1240598542636E+01
 0.1243233518811E+01
 0.1243969873349E+01
 0.1242288979762E+01
 0.1237672613296E+01
 0.1229714870718E+01
 0.1218228783075E+01
 0.1203386024227E+01
 0.1185707346944E+01
 0.1165809113602E+01
 0.1144203575606E+01
 0.1121273409551E+01
 0.1097369448996E+01
 0.1072968027919E+01
 0.1048852804146E+01
 0.1026327126621E+01
 0.1007497857638E+01
 0.9956701006080E+00
 0.9959420154560E+00
 0.1016069379935E+01
 0.1067163362268E+01
 0.1163328316660E+01
 0.1319239673822E+01
 0.1545272356682E+01
 0.1841145055760E+01
 0.2190135099489E+01
 0.2557055894107E+01
 0.2893404633187E+01
 0.9826256269099E+00
 0.1027980818539E+01
 0.1071132048677E+01
 0.1109310566732E+01
 0.1140939173624E+01
 0.1165901186031E+01
 0.1185062983846E+01
 0.1199646942833E+01
 0.1210803613197E+01
 0.1219424364956E+01
 0.1226105947623E+01
 0.1231178160457E+01
 0.1234744112280E+01
 0.1236714854677E+01
 0.1236839724893E+01
 0.1234744298828E+01
 0.1229990133002E+01
 0.1222161894580E+01
 0.1210965612268E+01
 0.1196318109762E+01
 0.1178470284863E+01
 0.1158001332687E+01
 0.1135596041850E+01
 0.1111872539607E+01
 0.1087364416593E+01
 0.1062612855617E+01
 0.1038317628682E+01
 0.1015520909281E+01
 0.9958317514678E+00
 0.9817235819663E+00
 0.9769255595746E+00
 0.9869481564105E+00
 0.1019701268265E+01
 0.1085700732873E+01
 0.1197112903043E+01
 0.1365115200273E+01
 0.1595723974228E+01
 0.1885051026182E+01
 0.2215483264854E+01
 0.2555274406664E+01
 0.2864396586352E+01
 0.9884831631610E+00
 0.1032159653829E+01
 0.1073832169102E+01
 0.1111092537034E+01
 0.1142433751903E+01
 0.1167544045936E+01
 0.1186997766633E+01
 0.1201763879495E+01
 0.1212826531942E+01
 0.1220988566978E+01
 0.1226809571815E+01
 0.1230611283375E+01
 0.1232505585783E+01
 0.1232425806552E+01
 0.1230159813728E+01
 0.1225392712859E+01
 0.1217768723921E+01
 0.1206973493995E+01
 0.1192820287243E+01
 0.1175325769026E+01
 0.1154819362105E+01
 0.1131940714137E+01
 0.1107444378182E+01
 0.1082051820764E+01
 0.1056440798064E+01
 0.1031333722739E+01
 0.1007644131720E+01
 0.9866621579872E+00
 0.9702864526861E+00
 0.9613232520539E+00
 0.9638498022025E+00
 0.9836325906921E+00
 0.1028474630371E+01
 0.1107996161917E+01
 0.1232321010144E+01
 0.1409527210581E+01
 0.1642241723706E+01
 0.1924186379707E+01
 0.2237735689598E+01
 0.2554120040730E+01
 0.2839641475166E+01
 0.9944333267795E+00
 0.1036553381437E+01
 0.1076824692964E+01
 0.1113132872797E+01
 0.1144050742503E+01
 0.1169129438118E+01
 0.1188707454500E+01
 0.1203530320099E+01
 0.1214422059731E+01
 0.1222091415233E+01
 0.1227052978752E+01
 0.1229615134490E+01
 0.1229897164177E+01
 0.1227856696556E+01
 0.1223323932625E+01
 0.1216046795206E+01
 0.1205752785986E+01
 0.1192225772183E+01
 0.1175381667027E+01
 0.1155333284752E+01
 0.1132487594446E+01
 0.1107545892400E+01
 0.1081332972800E+01
 0.1054670606380E+01
 0.1028373731293E+01
 0.1003336469472E+01
 0.9806754241677E+00
 0.9619160001179E+00
 0.9492263665957E+00
 0.9457050489685E+00
 0.9556927910093E+00
 0.9850555953472E+00
 0.1041265989354E+01
 0.1132856937398E+01
 0.1267954434719E+01
 0.1451989666475E+01
 0.1685012554970E+01
 0.1959225566928E+01
 0.2257578615750E+01
 0.2554062760355E+01
 0.2818581587499E+01
 0.1000444646472E+01
 0.1041115611724E+01
 0.1080061306847E+01
 0.1115406264392E+01
 0.1145803600986E+01
 0.1170708779833E+01
 0.1190270534279E+01
 0.1205039882316E+01
 0.1215690789602E+01
 0.1222836695823E+01
 0.1226942412970E+01
 0.1228299130956E+01
 0.1227032284403E+01
 0.1223124962960E+01
 0.1216451959547E+01
 0.1206825542675E+01
 0.1194055735680E+01
 0.1178021291284E+01
 0.1158736263329E+01
 0.1136406001770E+01
 0.1111513650165E+01
 0.1084822545888E+01
 0.1057227380811E+01
 0.1029646728719E+01
 0.1003025588975E+01
 0.9784201191370E+00
 0.9571386605937E+00
 0.9409275192554E+00
 0.9322007957951E+00
 0.9343031001111E+00
 0.9517494101321E+00
 0.9903583101361E+00
 0.1057096666474E+01
 0.1159315794314E+01
 0.1303283074550E+01
 0.1492228261265E+01
 0.1724276526254E+01
 0.1990741614266E+01
 0.2275380452233E+01
 0.2555351443945E+01
 0.2800957017128E+01
 0.1006492721955E+01
 0.1045809264271E+01
 0.1083501558316E+01
 0.1117888767190E+01
 0.1147698988859E+01
 0.1172321216670E+01
 0.1191751626388E+01
 0.1206373543698E+01
 0.1216723233012E+01
 0.1223321119049E+01
 0.1226580259883E+01
 0.1226772384024E+01
 0.1224028227303E+01
 0.1218356939307E+01
 0.1209678947547E+01
 0.1197870933366E+01
 0.1182823440902E+01
 0.1164506028355E+01
 0.1143025969070E+01
 0.1118676982061E+01
 0.1092016074730E+01
 0.1063867726486E+01
 0.1035194791571E+01
 0.1007007913110E+01
 0.9803739170005E+00
 0.9565000083336E+00
 0.9368729447771E+00
 0.9234422871137E+00
 0.9188394221346E+00
 0.9266028779091E+00
 0.9513316767300E+00
 0.9986693321647E+00
 0.1074958835767E+01
 0.1186362769776E+01
 0.1337492466478E+01
 0.1529795682889E+01
 0.1759997509474E+01
 0.2018955931674E+01
 0.2291383879265E+01
 0.2556999477309E+01
 0.2790550531253E+01
 0.1012565408610E+01
 0.1050611726568E+01
 0.1087120999311E+01
 0.1120567884915E+01
 0.1149748384952E+01
 0.1174005309944E+01
 0.1193212128871E+01
 0.1207608492889E+01
 0.1217606134458E+01
 0.1223636924108E+01
 0.1226062148189E+01
 0.1225132906077E+01
 0.1220984561924E+01
 0.1213652360965E+01
 0.1203102402947E+01
 0.1189274787900E+01
 0.1172137841706E+01
 0.1151747600571E+01
 0.1128299681845E+01
 0.1102171949043E+01
 0.1073992559742E+01
 0.1044645597341E+01
 0.1015159793525E+01
 0.9866329465124E+00
 0.9602456819378E+00
 0.9373455946360E+00
 0.9195845242300E+00
 0.9090967429406E+00
 0.9087003380778E+00
 0.9220743808161E+00
 0.9538178110046E+00
 0.1009296384129E+01
 0.1094160826451E+01
 0.1213432620251E+01
 0.1370283854255E+01
 0.1564740404943E+01
 0.1792529291473E+01
 0.2044343546546E+01
 0.2305903611393E+01
 0.2558916775346E+01
 0.2783974201692E+01
 0.1018651863786E+01
 0.1055508191852E+01
 0.1090903400850E+01
 0.1123436981378E+01
 0.1151964559271E+01
 0.1175796974493E+01
 0.1194708726760E+01
 0.1208816742472E+01
 0.1218421145083E+01
 0.1223870819292E+01
 0.1225476455519E+01
 0.1223468013422E+01
 0.1217984802651E+01
 0.1209087657961E+01
 0.1196787589014E+01
 0.1181086404646E+01
 0.1162027138768E+01
 0.1139748115229E+01
 0.1114528836404E+01
 0.1086827454251E+01
 0.1057340707284E+01
 0.1027010737526E+01
 0.9969300046952E+00
 0.9682791753693E+00
 0.9423458607304E+00
 0.9206089721212E+00
 0.9048736354297E+00
 0.8974413517886E+00
 0.9012870516276E+00
 0.9201795428490E+00
 0.9586437524019E+00
 0.1021689901993E+01
 0.1114245064123E+01
 0.1240263364347E+01
 0.1401678272321E+01
 0.1597384093400E+01
 0.1822404685447E+01
 0.2067469297944E+01
 0.2319245636433E+01
 0.2561480574925E+01
 0.2777778253482E+01
 0.1024746254761E+01
 0.1060488109599E+01
 0.1094836614467E+01
 0.1126491023205E+01
 0.1154357986142E+01
 0.1177726010597E+01
 0.1196289422671E+01
 0.1210060575765E+01
 0.1219240439030E+01
 0.1224101320611E+01
 0.1224905595205E+01
 0.1221862330926E+01
 0.1215114318113E+01
 0.1204747215068E+01
 0.1190815643129E+01
 0.1173380854381E+01
 0.1152557151547E+01
 0.1128560831368E+01
 0.1101750795719E+01
 0.1072661492619E+01
 0.1042055350610E+01
 0.1010930589793E+01
 0.9804408802903E+00
 0.9518453585022E+00
 0.9265319571386E+00
 0.9061020124371E+00
 0.8925019703671E+00
 0.8881822940047E+00
 0.8962441347507E+00
 0.9204973958300E+00
 0.9653299821915E+00
 0.1035343269853E+01
 0.1134741407527E+01
 0.1266504747352E+01
 0.1431516126900E+01
 0.1627779296975E+01
 0.1849842245922E+01
 0.2088595495165E+01
 0.2331646044198E+01
 0.2564503455691E+01
 0.2772898211266E+01
 0.1030846012683E+01
 0.1065545549401E+01
 0.1098913585939E+01
 0.1129728545052E+01
 0.1156939794857E+01
 0.1179819869292E+01
 0.1197997746499E+01
 0.1211396766935E+01
 0.1220130410444E+01
 0.1224401202510E+01
 0.1224426235164E+01
 0.1220394513348E+01
 0.1212452035646E+01
 0.1200708342362E+01
 0.1185259979571E+01
 0.1166224977256E+01
 0.1143785212838E+01
 0.1118230556343E+01
 0.1089994791204E+01
 0.1059684540764E+01
 0.1028124765506E+01
 0.9963674380265E+00
 0.9656246428651E+00
 0.9372295291223E+00
 0.9126638408999E+00
 0.8936426028318E+00
 0.8822414695606E+00
 0.8810411213686E+00
 0.8932385432768E+00
 0.9226401606169E+00
 0.9734463839011E+00
 0.1049818842767E+01
 0.1155263285146E+01
 0.1291888548704E+01
 0.1459696435035E+01
 0.1655998235253E+01
 0.1875036920918E+01
 0.2107951720142E+01
 0.2343245560124E+01
 0.2567929809015E+01
 0.2769375032513E+01
 0.1036951104225E+01
 0.1070678205755E+01
 0.1103131309888E+01
 0.1133151064370E+01
 0.1159721823287E+01
 0.1182104194886E+01
 0.1199873465137E+01
 0.1212877195773E+01
 0.1221152081544E+01
 0.1224837713491E+01
 0.1224109401987E+01
 0.1219137338316E+01
 0.1210070616560E+01
 0.1197041604317E+01
 0.1180186812016E+01
 0.1159678102837E+01
 0.1135761063266E+01
 0.1108794682845E+01
 0.1079283078633E+01
 0.1047900819173E+01
 0.1015532027703E+01
 0.9832798392293E+00
 0.9524117528043E+00
 0.9243304501636E+00
 0.9006051165844E+00
 0.8830558503608E+00
 0.8738753139368E+00
 0.8757555676243E+00
 0.8919602949637E+00
 0.9262534444306E+00
 0.9826104859187E+00
 0.1064741643478E+01
 0.1175495084398E+01
 0.1316211289795E+01
 0.1486160330510E+01
 0.1682121650585E+01
 0.1898161880727E+01
 0.2125722204277E+01
 0.2354137826928E+01
 0.2571691908652E+01
 0.2767088186506E+01
 0.1043063460187E+01
 0.1075886598632E+01
 0.1107489986998E+01
 0.1136762541515E+01
 0.1162716571143E+01
 0.1184603188821E+01
 0.1201953129829E+01
 0.1214549367543E+01
 0.1222361487500E+01
 0.1225472820021E+01
 0.1224020639805E+01
 0.1218157859337E+01
 0.1208036680052E+01
 0.1193811173427E+01
 0.1175655668739E+01
 0.1153792730219E+01
 0.1128527679129E+01
 0.1100284141382E+01
 0.1069631997864E+01
 0.1037309447720E+01
 0.1004256250019E+01
 0.9716239164600E+00
 0.9407322150611E+00
 0.9130488768922E+00
 0.8902242737910E+00
 0.8741750586175E+00
 0.8671987075446E+00
 0.8720801698393E+00
 0.8921228832232E+00
 0.9310159088479E+00
 0.9924849202966E+00
 0.1079792684188E+01
 0.1195180684562E+01
 0.1339320154598E+01
 0.1510878441638E+01
 0.1706232257347E+01
 0.1919366925833E+01
 0.2142052123483E+01
 0.2364380877065E+01
 0.2575715761223E+01
 0.2765879714342E+01
 0.1049186519687E+01
 0.1081173433191E+01
 0.1111992334202E+01
 0.1140568898196E+01
 0.1165937093381E+01
 0.1187339845820E+01
 0.1204270495483E+01
 0.1216456849427E+01
 0.1223810032576E+01
 0.1226363464439E+01
 0.1224220206760E+01
 0.1217517601887E+01
 0.1206411060904E+01
 0.1191075197445E+01
 0.1171719895223E+01
 0.1148615169135E+01
 0.1122122039470E+01
 0.1092724276407E+01
 0.1061052944476E+01
 0.1027905501208E+01
 0.9942737048164E+00
 0.9613545188125E+00
 0.9305167320303E+00
 0.9032886454140E+00
 0.8813956508640E+00
 0.8668425224996E+00
 0.8620194976460E+00
 0.8697867229159E+00
 0.8934634177388E+00
 0.9366384449284E+00
 0.1002774322218E+01
 0.1094702302582E+01
 0.1214113346569E+01
 0.1361101594082E+01
 0.1533841618435E+01
 0.1728410149685E+01
 0.1938779451417E+01
 0.2157054371946E+01
 0.2374008689987E+01
 0.2579926382987E+01
 0.2765585165135E+01
 0.1055324864049E+01
 0.1086543084518E+01
 0.1116643017855E+01
 0.1144577594639E+01
 0.1169396862847E+01
 0.1190336099738E+01
 0.1206856840269E+01
 0.1218639635144E+01
 0.1225544814987E+01
 0.1227561826106E+01
 0.1224763295209E+01
 0.1217272788888E+01
 0.1205249089694E+01
 0.1188886173280E+01
 0.1168427143029E+01
 0.1144186147060E+01
 0.1116575842585E+01
 0.1086135659696E+01
 0.1053553268695E+01
 0.1019680981602E+01
 0.9855588502124E+00
 0.9524262701423E+00
 0.9216977300338E+00
 0.8949576233902E+00
 0.8740002588916E+00
 0.8609101942474E+00
 0.8581586784977E+00
 0.8686645904740E+00
 0.8957425049277E+00
 0.9428629347912E+00
 0.1013221894530E+01
 0.1109243790772E+01
 0.1232126962420E+01
 0.1381472219370E+01
 0.1555054048280E+01
 0.1748730029559E+01
 0.1956506496136E+01
 0.2170816241420E+01
 0.2383039106315E+01
 0.2584249422396E+01
 0.2766044642230E+01
 0.1061483920557E+01
 0.1092001181117E+01
 0.1121448187468E+01
 0.1148797262977E+01
 0.1173109621743E+01
 0.1193612907558E+01
 0.1209741208992E+01
 0.1221134449293E+01
 0.1227608920414E+01
 0.1229115577868E+01
 0.1225700263708E+01
 0.1217474582305E+01
 0.1204600882754E+01
 0.1187291316500E+01
 0.1165819836178E+01
 0.1140541375671E+01
 0.1111916166233E+01
 0.1080534834608E+01
 0.1047137093591E+01
 0.1012625697182E+01
 0.9780852494862E+00
 0.9447944969622E+00
 0.9142102532669E+00
 0.8879685227640E+00
 0.8679264724941E+00
 0.8562402300848E+00
 0.8554507820504E+00
 0.8685208659704E+00
 0.8987438808030E+00
 0.9494606971333E+00
 0.1023605848819E+01
 0.1123227514859E+01
 0.1249088634253E+01
 0.1400371603801E+01
 0.1574528250806E+01
 0.1767259764970E+01
 0.1972637272498E+01
 0.2183405044256E+01
 0.2391478755303E+01
 0.2588612268152E+01
 0.2767107430773E+01
 0.1067669721864E+01
 0.1097554267120E+01
 0.1126415092194E+01
 0.1153237392684E+01
 0.1177089234165E+01
 0.1197190292070E+01
 0.1212950598476E+01
 0.1223975001237E+01
 0.1230041684896E+01
 0.1231068132005E+01
 0.1227076871496E+01
 0.1218169330757E+01
 0.1204511632843E+01
 0.1186332919880E+01
 0.1163935611690E+01
 0.1137712076424E+01
 0.1108166073707E+01
 0.1075934994828E+01
 0.1041806057036E+01
 0.1006728054207E+01
 0.9718263912204E+00
 0.9384160462849E+00
 0.9079927406612E+00
 0.8822395954621E+00
 0.8630706125392E+00
 0.8527054417470E+00
 0.8537441724713E+00
 0.8691803970674E+00
 0.9022738352461E+00
 0.9562307259273E+00
 0.1033735889331E+01
 0.1136495624784E+01
 0.1264892464755E+01
 0.1417756637655E+01
 0.1592281495846E+01
 0.1784059829330E+01
 0.1987245711183E+01
 0.2194872497106E+01
 0.2399326391956E+01
 0.2592945111076E+01
 0.2768634238218E+01
 0.1073888710232E+01
 0.1103209528203E+01
 0.1131551766207E+01
 0.1157908063731E+01
 0.1181349547763E+01
 0.1201087358523E+01
 0.1216510099710E+01
 0.1227192197443E+01
 0.1232878928906E+01
 0.1233458871754E+01
 0.1228934508279E+01
 0.1219398814795E+01
 0.1205021892694E+01
 0.1186048694704E+01
 0.1162807730042E+01
 0.1135725462927E+01
 0.1105345164717E+01
 0.1072346597165E+01
 0.1037559977374E+01
 0.1001975761769E+01
 0.9667564124596E+00
 0.9332499984062E+00
 0.9029876943440E+00
 0.8776952245667E+00
 0.8593374353447E+00
 0.8501896656768E+00
 0.8529012533194E+00
 0.8704856876619E+00
 0.9061604759097E+00
 0.9629978284064E+00
 0.1043449868755E+01
 0.1148917400109E+01
 0.1279454428807E+01
 0.1433597144370E+01
 0.1608333291274E+01
 0.1799183291885E+01
 0.2000392783410E+01
 0.2205258117189E+01
 0.2406575378978E+01
 0.2597182006714E+01
 0.2770498312893E+01
 0.1080147578271E+01
 0.1108974569335E+01
 0.1136866771424E+01
 0.1162819722484E+01
 0.1185904268718E+01
 0.1205322295482E+01
 0.1220443007344E+01
 0.1230814318916E+01
 0.1236153163850E+01
 0.1236323365146E+01
 0.1231310413324E+01
 0.1221200483091E+01
 0.1206167845474E+01
 0.1186472090741E+01
 0.1162465453844E+01
 0.1134605180752E+01
 0.1103470073712E+01
 0.1069777912611E+01
 0.1034397448480E+01
 0.9983564573515E+00
 0.9628507348097E+00
 0.9292582875259E+00
 0.8991422556864E+00
 0.8742664291640E+00
 0.8566405463548E+00
 0.8485880644771E+00
 0.8527985989315E+00
 0.8722966972932E+00
 0.9102528809910E+00
 0.9696107471619E+00
 0.1052610691535E+01
 0.1160385215264E+01
 0.1292708167615E+01
 0.1447872486621E+01
 0.1622703636553E+01
 0.1812676101660E+01
 0.2012128511511E+01
 0.2214591879727E+01
 0.2413215653669E+01
 0.2601261855470E+01
 0.2772586061210E+01
 0.1086453140212E+01
 0.1114857235599E+01
 0.1142368988792E+01
 0.1167982996125E+01
 0.1190766852658E+01
 0.1209912367476E+01
 0.1224770904905E+01
 0.1234867169360E+01
 0.1239893772441E+01
 0.1239693558763E+01
 0.1234237879041E+01
 0.1223607673741E+01
 0.1207981556667E+01
 0.1187632590578E+01
 0.1162934391977E+01
 0.1134371703470E+01
 0.1102554915668E+01
 0.1068235516694E+01
 0.1032316366358E+01
 0.9958582566877E+00
 0.9600866190862E+00
 0.9264062382219E+00
 0.8964086992760E+00
 0.8718912945344E+00
 0.8549027493957E+00
 0.8478073698418E+00
 0.8533270206245E+00
 0.8744905618514E+00
 0.9144201928852E+00
 0.9759403408665E+00
 0.1061103517033E+01
 0.1170811094277E+01
 0.1304601569168E+01
 0.1460568953006E+01
 0.1635411824356E+01
 0.1824577512434E+01
 0.2022493671602E+01
 0.2222896332050E+01
 0.2419235334480E+01
 0.2605129267827E+01
 0.2774797396032E+01
 0.1092812228913E+01
 0.1120865469394E+01
 0.1148067451342E+01
 0.1173408542079E+01
 0.1195950413163E+01
 0.1214873905086E+01
 0.1229513732429E+01
 0.1239374198984E+01
 0.1244127164678E+01
 0.1243597950075E+01
 0.1237746435512E+01
 0.1226649816172E+01
 0.1210491202907E+01
 0.1189555974545E+01
 0.1164236806467E+01
 0.1135042683164E+01
 0.1102611678390E+01
 0.1067724718886E+01
 0.1031314387814E+01
 0.9944702296625E+00
 0.9584436418655E+00
 0.9246630229794E+00
 0.8947448515795E+00
 0.8705153350583E+00
 0.8540563382455E+00
 0.8477660732934E+00
 0.8543915785620E+00
 0.8769612617492E+00
 0.9185507023637E+00
 0.9818778840322E+00
 0.1068833293872E+01
 0.1180123816013E+01
 0.1315094018073E+01
 0.1471677762757E+01
 0.1646475635552E+01
 0.1834920562086E+01
 0.2031521222887E+01
 0.2230188297124E+01
 0.2424622047138E+01
 0.2608735299413E+01
 0.2777045933234E+01
 0.1099231614978E+01
 0.1127007198677E+01
 0.1153971213265E+01
 0.1179106928857E+01
 0.1201467647972E+01
 0.1220222295710E+01
 0.1234689840676E+01
 0.1244356606911E+01
 0.1248876910039E+01
 0.1248061736518E+01
 0.1241862012440E+01
 0.1230352609415E+01
 0.1213721273763E+01
 0.1192264553148E+01
 0.1166391880189E+01
 0.1136633254782E+01
 0.1103650561897E+01
 0.1068249932770E+01
 0.1031389324252E+01
 0.9941828068678E+00
 0.9579041003373E+00
 0.9240020488552E+00
 0.8941144434524E+00
 0.8700917989498E+00
 0.8540433386049E+00
 0.8483945726935E+00
 0.8559115521150E+00
 0.8796192632843E+00
 0.9225509640103E+00
 0.9873335251239E+00
 0.1075722630267E+01
 0.1188266513705E+01
 0.1324154199738E+01
 0.1481193545193E+01
 0.1655910800640E+01
 0.1843732541596E+01
 0.2039237487008E+01
 0.2236480243410E+01
 0.2429364007666E+01
 0.2612038055234E+01
 0.2779259091543E+01
 0.1105717945527E+01
 0.1133290252621E+01
 0.1160089251213E+01
 0.1185088546142E+01
 0.1207330783613E+01
 0.1225971978209E+01
 0.1240316036114E+01
 0.1249833425650E+01
 0.1254163847540E+01
 0.1253106941088E+01
 0.1246607076882E+01
 0.1234738174419E+01
 0.1217692744124E+01
 0.1195777365101E+01
 0.1169415944240E+01
 0.1139156293906E+01
 0.1105680265161E+01
 0.1069814988002E+01
 0.1032539472512E+01
 0.9949881198806E+00
 0.9584533498523E+00
 0.9244012789189E+00
 0.8944874029069E+00
 0.8705819212880E+00
 0.8548157068264E+00
 0.8496352827096E+00
 0.8578203839216E+00
 0.8823911614480E+00
 0.9263449828010E+00
 0.9922349380149E+00
 0.1081710004697E+01
 0.1195194726471E+01
 0.1331758376432E+01
 0.1489113197270E+01
 0.1663730651144E+01
 0.1851035427871E+01
 0.2045663111433E+01
 0.2241781381334E+01
 0.2433450896403E+01
 0.2615003168329E+01
 0.2781378157490E+01
 0.1112277700347E+01
 0.1139722301607E+01
 0.1166430394424E+01
 0.1191363541789E+01
 0.1213551538093E+01
 0.1232136442960E+01
 0.1246407618952E+01
 0.1255821589391E+01
 0.1260006174180E+01
 0.1258752513506E+01
 0.1252000744726E+01
 0.1239825177889E+01
 0.1222423214784E+01
 0.1200110339105E+01
 0.1173322663841E+01
 0.1142622627615E+01
 0.1108708220671E+01
 0.1072423385347E+01
 0.1034763884965E+01
 0.9968802785452E+00
 0.9600800785227E+00
 0.9258434936366E+00
 0.8958400935238E+00
 0.8719551302807E+00
 0.8563354899450E+00
 0.8514427153745E+00
 0.8600656096470E+00
 0.8852193455294E+00
 0.9298734984724E+00
 0.9965261833835E+00
 0.1086748304341E+01
 0.1200874852312E+01
 0.1337889055712E+01
 0.1495435032865E+01
 0.1669945894219E+01
 0.1856846254004E+01
 0.2050813832304E+01
 0.2246098518747E+01
 0.2436874538525E+01
 0.2617604165603E+01
 0.2783358291096E+01
 0.1118917164222E+01
 0.1146310819479E+01
 0.1173003281273E+01
 0.1197941783948E+01
 0.1220141101227E+01
 0.1238728238094E+01
 0.1252978415483E+01
 0.1262335986993E+01
 0.1266419511570E+01
 0.1265014405640E+01
 0.1258058863758E+01
 0.1245628925111E+01
 0.1227927018801E+01
 0.1205276417416E+01
 0.1178123181528E+01
 0.1147041197962E+01
 0.1112740777164E+01
 0.1076078495999E+01
 0.1038062581048E+01
 0.9998555885009E+00
 0.9627765231347E+00
 0.9283164972116E+00
 0.8981555037787E+00
 0.8741892118560E+00
 0.8585749522600E+00
 0.8537835381274E+00
 0.8626087863495E+00
 0.8880617076092E+00
 0.9330933898734E+00
 0.1000166791332E+01
 0.1090803678002E+01
 0.1205282960646E+01
 0.1342533989384E+01
 0.1500158159852E+01
 0.1674564463966E+01
 0.1861177400969E+01
 0.2054701049723E+01
 0.2249436698518E+01
 0.2439629407337E+01
 0.2619822723004E+01
 0.2785168502996E+01
 0.1125642414469E+01
 0.1153063066785E+01
 0.1179816340922E+01
 0.1204832847533E+01
 0.1227110132815E+01
 0.1245758983112E+01
 0.1260040806353E+01
 0.1269389500999E+01
 0.1273416951411E+01
 0.1271905621029E+01
 0.1264794067540E+01
 0.1252161420709E+01
 0.1234215292575E+01
 0.1211285640381E+01
 0.1183826217110E+01
 0.1152419177900E+01
 0.1117783330687E+01
 0.1080783705728E+01
 0.1042436701201E+01
 0.1003912710409E+01
 0.9665386283039E+00
 0.9318132711146E+00
 0.9014233895519E+00
 0.8772704347900E+00
 0.8615166712936E+00
 0.8566366147586E+00
 0.8654254301898E+00
 0.8908914107228E+00
 0.9359772173101E+00
 0.1003131074403E+01
 0.1093854694680E+01
 0.1208403935963E+01
 0.1345685462616E+01
 0.1503282045604E+01
 0.1677591424284E+01
 0.1864036807427E+01
 0.2057332230752E+01
 0.2251799639442E+01
 0.2441712964287E+01
 0.2621648821038E+01
 0.2786791601172E+01
 0.1132459323197E+01
 0.1159986094267E+01
 0.1186877799210E+01
 0.1212046024444E+01
 0.1234468778606E+01
 0.1253239390270E+01
 0.1267605751257E+01
 0.1276993032915E+01
 0.1281009079513E+01
 0.1279436237657E+01
 0.1272215798881E+01
 0.1259431395948E+01
 0.1241296010396E+01
 0.1218145190990E+01
 0.1190438123888E+01
 0.1158762039598E+01
 0.1123840404397E+01
 0.1086542504695E+01
 0.1047888604548E+01
 0.1009052762710E+01
 0.9713661511186E+00
 0.9363320772945E+00
 0.9056403723323E+00
 0.8811936388708E+00
 0.8651536061795E+00
 0.8599930342940E+00
 0.8685049721494E+00
 0.8936967287304E+00
 0.9385129140064E+00
 0.1005407673822E+01
 0.1095891796442E+01
 0.1210230926999E+01
 0.1347339839404E+01
 0.1504806238512E+01
 0.1679028901432E+01
 0.1865428091166E+01
 0.2058711146604E+01
 0.2253189991377E+01
 0.2443125844309E+01
 0.2623080805501E+01
 0.2788224108400E+01
 0.1139373574213E+01
 0.1167086766476E+01
 0.1194195708677E+01
 0.1219590357569E+01
 0.1242226704292E+01
 0.1261179294101E+01
 0.1275682810378E+01
 0.1285155514812E+01
 0.1289203978072E+01
 0.1287613403385E+01
 0.1280330302106E+01
 0.1267444301835E+01
 0.1249173981850E+01
 0.1225859399104E+01
 0.1197962901058E+01
 0.1166073575353E+01
 0.1130915677556E+01
 0.1093358523680E+01
 0.1054421911303E+01
 0.1015279369107E+01
 0.9772627126303E+00
 0.9418765124995E+00
 0.9108099945549E+00
 0.8859622876642E+00
 0.8694891406988E+00
 0.8638561316900E+00
 0.8718507381804E+00
 0.8964809663201E+00
 0.9407036340297E+00
 0.1006999340590E+01
 0.1096917038272E+01
 0.1210765085592E+01
 0.1347497344101E+01
 0.1504730226679E+01
 0.1678876034410E+01
 0.1865350579820E+01
 0.2058837949302E+01
 0.2253609412529E+01
 0.2443871892963E+01
 0.2624125357409E+01
 0.2789476152744E+01
 0.1146390694859E+01
 0.1174371805946E+01
 0.1201778003259E+01
 0.1227474699137E+01
 0.1250393147987E+01
 0.1269587689319E+01
 0.1284280162498E+01
 0.1293883906877E+01
 0.1298007205598E+01
 0.1296441303341E+01
 0.1289140583477E+01
 0.1276202267472E+01
 0.1257850811751E+01
 0.1234429705230E+01
 0.1206402162407E+01
 0.1174355871411E+01
 0.1139011964215E+01
 0.1101235517304E+01
 0.1062041490533E+01
 0.1022598651425E+01
 0.9842357968044E+00
 0.9484555142653E+00
 0.9169427326203E+00
 0.8915884866186E+00
 0.8745371022823E+00
 0.8682415027278E+00
 0.8754799574444E+00
 0.8992624634199E+00
 0.9425677598741E+00
 0.1007922951512E+01
 0.1096944110672E+01
 0.1210015587161E+01
 0.1346162069093E+01
 0.1503053424803E+01
 0.1677128937538E+01
 0.1863799249726E+01
 0.2057709090215E+01
 0.2253058472552E+01
 0.2443958058515E+01
 0.2624797374815E+01
 0.2790571332366E+01
 0.1153516103455E+01
 0.1181847858891E+01
 0.1209632578801E+01
 0.1235707794411E+01
 0.1258976991752E+01
 0.1278472777031E+01
 0.1293404619155E+01
 0.1303183179921E+01
 0.1307421753424E+01
 0.1305921098288E+01
 0.1298646338996E+01
 0.1285704023138E+01
 0.1267324822282E+01
 0.1243854583714E+01
 0.1215755061296E+01
 0.1183609234769E+01
 0.1148131141655E+01
 0.1110177294265E+01
 0.1070753393178E+01
 0.1031019167542E+01
 0.9922966964062E+00
 0.9560833178718E+00
 0.9240559668959E+00
 0.8980929660765E+00
 0.8803217570659E+00
 0.8731770137106E+00
 0.8794237993665E+00
 0.9020746842730E+00
 0.9441390692536E+00
 0.1008209759407E+01
 0.1095998644649E+01
 0.1207999933137E+01
 0.1343342209479E+01
 0.1499775290210E+01
 0.1673780676088E+01
 0.1860764573535E+01
 0.2055317080817E+01
 0.2251536381596E+01
 0.2443394139300E+01
 0.2625119767688E+01
 0.2791546557159E+01
 0.1160755173457E+01
 0.1189521584066E+01
 0.1217767401315E+01
 0.1244298392418E+01
 0.1267986853036E+01
 0.1287842019151E+01
 0.1303061633931E+01
 0.1313056281582E+01
 0.1317447977559E+01
 0.1316050833075E+01
 0.1308843849113E+01
 0.1295944788021E+01
 0.1277590937543E+01
 0.1254129425703E+01
 0.1226018172339E+01
 0.1193832073334E+01
 0.1158274028876E+01
 0.1120187594690E+01
 0.1080564730127E+01
 0.1040551793786E+01
 0.1001460404788E+01
 0.9647793629312E+00
 0.9321739073272E+00
 0.9055050281131E+00
 0.8868777803237E+00
 0.8787028052618E+00
 0.8837274378260E+00
 0.9049663879786E+00
 0.9454670575335E+00
 0.1007905876398E+01
 0.1094118802978E+01
 0.1204744544404E+01
 0.1339050536649E+01
 0.1494895579345E+01
 0.1668821262635E+01
 0.1856232279308E+01
 0.2051650094323E+01
 0.2249040542331E+01
 0.2442192384205E+01
 0.2625123165850E+01
 0.2792451871147E+01
 0.1168113315886E+01
 0.1197399767102E+01
 0.1226190645673E+01
 0.1253255385967E+01
 0.1277431197140E+01
 0.1297702200685E+01
 0.1313255305488E+01
 0.1323504084429E+01
 0.1328083504367E+01
 0.1326825314275E+01
 0.1319725840138E+01
 0.1306916122917E+01
 0.1288640531155E+01
 0.1265246382637E+01
 0.1237185330506E+01
 0.1205020730061E+01
 0.1169440215546E+01
 0.1131269914683E+01
 0.1091483494958E+01
 0.1051209550839E+01
 0.1011745452006E+01
 0.9745681475673E+00
 0.9413274724836E+00
 0.9138624552683E+00
 0.8942502006006E+00
 0.8848712879802E+00
 0.8884501381823E+00
 0.9080018735015E+00
 0.9466174084275E+00
 0.1007072987709E+01
 0.1091356164603E+01
 0.1200285662509E+01
 0.1333305133112E+01
 0.1488414765918E+01
 0.1662237688179E+01
 0.1850183025214E+01
 0.2046691404216E+01
 0.2245565917823E+01
 0.2440366940697E+01
 0.2624845538453E+01
 0.2793350258680E+01
 0.1175596082087E+01
 0.1205489463318E+01
 0.1234910868211E+01
 0.1262587983692E+01
 0.1287318471655E+01
 0.1308059498869E+01
 0.1323988371906E+01
 0.1334525313084E+01
 0.1339323107570E+01
 0.1338235955337E+01
 0.1331281311535E+01
 0.1318605747723E+01
 0.1300461236996E+01
 0.1277194170358E+01
 0.1249247427567E+01
 0.1217169270671E+01
 0.1181627840618E+01
 0.1143427276798E+01
 0.1103518329415E+01
 0.1063007370392E+01
 0.1023173681686E+01
 0.9854790259461E+00
 0.9515541175596E+00
 0.9232113769175E+00
 0.9024943135349E+00
 0.8917471251501E+00
 0.8936653595924E+00
 0.9112612879798E+00
 0.9476726013484E+00
 0.1005789291503E+01
 0.1087776912132E+01
 0.1194670584220E+01
 0.1326130423625E+01
 0.1480334654903E+01
 0.1654014011512E+01
 0.1842591997722E+01
 0.2040418654295E+01
 0.2241104204777E+01
 0.2437933141878E+01
 0.2624331721456E+01
 0.2794317438088E+01
 0.1183209289690E+01
 0.1213798173292E+01
 0.1243937218224E+01
 0.1272305918281E+01
 0.1297657264908E+01
 0.1318919558807E+01
 0.1335262194537E+01
 0.1346116448471E+01
 0.1351158555702E+01
 0.1350270589883E+01
 0.1343495331182E+01
 0.1330997326815E+01
 0.1313036726801E+01
 0.1289957837773E+01
 0.1262192169796E+01
 0.1230269228805E+01
 0.1194833324304E+01
 0.1156661949784E+01
 0.1116678234449E+01
 0.1075961804625E+01
 0.1035769969781E+01
 0.9975459494761E+00
 0.9628976111478E+00
 0.9336060930057E+00
 0.9116755649220E+00
 0.8994072005300E+00
 0.8994608664621E+00
 0.9148409862604E+00
 0.9487326407125E+00
 0.1004150657067E+01
 0.1083463332267E+01
 0.1187959259948E+01
 0.1317558546513E+01
 0.1470659235698E+01
 0.1644131535748E+01
 0.1833428440255E+01
 0.2032802948710E+01
 0.2235642794209E+01
 0.2434906620618E+01
 0.2623632845901E+01
 0.2795441650753E+01
 0.1190959175011E+01
 0.1222334056049E+01
 0.1253279693674E+01
 0.1282419694587E+01
 0.1308456488786E+01
 0.1330287572548E+01
 0.1347076726121E+01
 0.1358271603578E+01
 0.1363578425352E+01
 0.1362913250029E+01
 0.1356348796807E+01
 0.1344070221353E+01
 0.1326346453782E+01
 0.1303518498922E+01
 0.1276003795207E+01
 0.1244309306137E+01
 0.1209051050196E+01
 0.1170975113590E+01
 0.1130972221799E+01
 0.1090090672283E+01
 0.1049561877683E+01
 0.1010807142914E+01
 0.9754077512645E+00
 0.9451088455059E+00
 0.9218693935251E+00
 0.9079405608159E+00
 0.9059388349578E+00
 0.9188539216012E+00
 0.9499158843376E+00
 0.1002271987472E+01
 0.1078515639011E+01
 0.1180226295805E+01
 0.1307631126642E+01
 0.1459395838935E+01
 0.1632569118930E+01
 0.1822655128827E+01
 0.2023807750272E+01
 0.2229163497186E+01
 0.2431302233141E+01
 0.2622805662329E+01
 0.2796823421409E+01
 0.1198852576661E+01
 0.1231106186539E+01
 0.1262949448521E+01
 0.1292940882844E+01
 0.1319725586888E+01
 0.1342168358325E+01
 0.1359430457579E+01
 0.1370982365138E+01
 0.1376567876332E+01
 0.1376143908072E+01
 0.1369818163844E+01
 0.1357799209799E+01
 0.1340365363840E+01
 0.1317853029668E+01
 0.1290662750920E+01
 0.1259275027425E+01
 0.1224272996866E+01
 0.1186366468282E+01
 0.1146408903921E+01
 0.1105412638001E+01
 0.1064579234992E+01
 0.1025304709389E+01
 0.9891400137054E+00
 0.9577895304174E+00
 0.9331610266258E+00
 0.9174483250915E+00
 0.9132159431795E+00
 0.9234300488688E+00
 0.9513599468773E+00
 0.1000288770312E+01
 0.1073054130543E+01
 0.1171563408835E+01
 0.1296401530796E+01
 0.1446556685522E+01
 0.1619303687268E+01
 0.1810227823075E+01
 0.2013387575600E+01
 0.2221641008114E+01
 0.2427132777402E+01
 0.2621911747750E+01
 0.2798575316612E+01
 0.1206897155917E+01
 0.1240124865916E+01
 0.1272959160987E+01
 0.1303882463514E+01
 0.1331474769204E+01
 0.1354566436193E+01
 0.1372320337434E+01
 0.1384237596009E+01
 0.1390108386316E+01
 0.1389938182388E+01
 0.1383875143180E+01
 0.1372154181715E+01
 0.1355063579969E+01
 0.1332933734494E+01
 0.1306145335650E+01
 0.1275148354952E+01
 0.1240488322946E+01
 0.1202833790407E+01
 0.1162996025074E+01
 0.1121946726611E+01
 0.1080853652122E+01
 0.1041084162698E+01
 0.1004155129356E+01
 0.9717253456406E+00
 0.9456452228133E+00
 0.9280435542243E+00
 0.9214234330905E+00
 0.9287167182391E+00
 0.9532226455201E+00
 0.9983587859430E+00
 0.1067221676493E+01
 0.1162082378627E+01
 0.1283937691005E+01
 0.1432160928854E+01
 0.1604311030684E+01
 0.1796094721319E+01
 0.2001486459857E+01
 0.2213041055981E+01
 0.2422407477619E+01
 0.2621016588178E+01
 0.2800821650406E+01
 0.1215101661187E+01
 0.1249401995085E+01
 0.1283323473744E+01
 0.1315259230241E+01
 0.1343715272144E+01
 0.1367486092180E+01
 0.1385741653024E+01
 0.1398023188452E+01
 0.1404177438437E+01
 0.1404267004640E+01
 0.1398486368551E+01
 0.1387099805797E+01
 0.1370406060731E+01
 0.1348727983267E+01
 0.1322423305880E+01
 0.1291907259654E+01
 0.1257682901974E+01
 0.1220372432163E+01
 0.1180739927944E+01
 0.1139711765425E+01
 0.1098417953993E+01
 0.1058193876094E+01
 0.1020518577716E+01
 0.9870003606478E+00
 0.9594259475713E+00
 0.9398510657044E+00
 0.9307071271773E+00
 0.9348790338989E+00
 0.9556829504233E+00
 0.9966639353161E+00
 0.1061186528077E+01
 0.1151918547837E+01
 0.1270325610107E+01
 0.1416237334795E+01
 0.1587567006956E+01
 0.1780195981715E+01
 0.1988036170895E+01
 0.2203318180649E+01
 0.2417130206453E+01
 0.2620188528393E+01
 0.2803698088154E+01
 0.1223476246041E+01
 0.1258951525366E+01
 0.1294059520448E+01
 0.1327088259409E+01
 0.1356459642850E+01
 0.1380931422142E+01
 0.1399687862274E+01
 0.1412321759598E+01
 0.1418748158329E+01
 0.1419096249943E+01
 0.1413613038938E+01
 0.1402595179356E+01
 0.1386352240293E+01
 0.1365197824860E+01
 0.1339463451592E+01
 0.1309525253948E+01
 0.1275838811479E+01
 0.1238974767625E+01
 0.1199644959673E+01
 0.1158725757569E+01
 0.1117305536367E+01
 0.1076684446942E+01
 0.1038299993437E+01
 0.1003705002297E+01
 0.9746159743286E+00
 0.9530071855399E+00
 0.9412273883850E+00
 0.9421001559678E+00
 0.9589418995599E+00
 0.9954121356454E+00
 0.1055145422747E+01
 0.1141234910477E+01
 0.1255673669108E+01
 0.1398827767703E+01
 0.1569049311645E+01
 0.1762463392000E+01
 0.1972954140722E+01
 0.2192413028599E+01
 0.2411297394377E+01
 0.2619497596993E+01
 0.2807351041193E+01
 0.1232032852758E+01
 0.1268790003640E+01
 0.1305187555915E+01
 0.1339389454891E+01
 0.1369722043327E+01
 0.1394906341059E+01
 0.1414150359292E+01
 0.1427112276312E+01
 0.1433788894357E+01
 0.1434386329857E+01
 0.1429210539818E+01
 0.1418593464701E+01
 0.1402855655220E+01
 0.1382299581340E+01
 0.1357227143433E+01
 0.1327970886549E+01
 0.1294933775582E+01
 0.1258629584736E+01
 0.1219712815518E+01
 0.1179005183676E+01
 0.1137549640516E+01
 0.1096607970486E+01
 0.1057572475963E+01
 0.1021935443603E+01
 0.9913363954269E+00
 0.9676594209037E+00
 0.9531590059505E+00
 0.9505815203682E+00
 0.9632234324210E+00
 0.9948392181038E+00
 0.1049326933793E+01
 0.1130226815392E+01
 0.1240117872428E+01
 0.1379991696954E+01
 0.1548740033480E+01
 0.1742820327161E+01
 0.1956141096808E+01
 0.2180249007141E+01
 0.2404895537240E+01
 0.2619014233383E+01
 0.2811936626577E+01
 0.1240785677180E+01
 0.1278937234240E+01
 0.1316731711129E+01
 0.1352186176494E+01
 0.1383518565331E+01
 0.1409414536570E+01
 0.1429118150611E+01
 0.1442369592014E+01
 0.1449262732120E+01
 0.1450091746411E+01
 0.1445228045594E+01
 0.1435041515875E+01
 0.1419863560313E+01
 0.1399983422527E+01
 0.1375669848168E+01
 0.1347207193501E+01
 0.1314940553502E+01
 0.1279321414364E+01
 0.1240941810698E+01
 0.1200564221470E+01
 0.1159182533996E+01
 0.1118017207781E+01
 0.1078411783725E+01
 0.1041792872873E+01
 0.1009716017230E+01
 0.9839660271724E+00
 0.9666909822775E+00
 0.9605429484947E+00
 0.9687750954986E+00
 0.9952107517667E+00
 0.1043994993488E+01
 0.1119127297598E+01
 0.1223828187455E+01
 0.1359812001500E+01
 0.1526629305962E+01
 0.1721182232751E+01
 0.1937478434821E+01
 0.2166728075475E+01
 0.2397898109692E+01
 0.2618808024222E+01
 0.2817618578938E+01
 0.1249751735738E+01
 0.1289417087118E+01
 0.1328720900672E+01
 0.1365505962490E+01
 0.1397867543859E+01
 0.1424459340972E+01
 0.1444577416650E+01
 0.1458063879849E+01
 0.1465126939606E+01
 0.1466160613052E+01
 0.1461608114552E+01
 0.1451879508954E+01
 0.1437316546039E+01
 0.1418192931368E+01
 0.1394740620282E+01
 0.1367191111159E+01
 0.1335826278686E+01
 0.1301029801234E+01
 0.1263326085775E+01
 0.1223413888825E+01
 0.1182234602359E+01
 0.1140964650426E+01
 0.1100895411481E+01
 0.1063382636106E+01
 0.1029890626194E+01
 0.1002095452169E+01
 0.9820262030303E+00
 0.9722226255498E+00
 0.9758685764861E+00
 0.9968237051081E+00
 0.1039452476185E+01
 0.1108212995477E+01
 0.1207016110686E+01
 0.1338402374953E+01
 0.1502720429309E+01
 0.1697457958424E+01
 0.1916825463480E+01
 0.2151725376474E+01
 0.2390261458516E+01
 0.2618946590300E+01
 0.2824563821557E+01
 0.1258951562127E+01
 0.1300258490026E+01
 0.1341189915826E+01
 0.1379381354603E+01
 0.1412789847025E+01
 0.1440043483356E+01
 0.1460510922958E+01
 0.1474159940563E+01
 0.1481332336452E+01
 0.1482534146676E+01
 0.1478286285772E+01
 0.1469040586303E+01
 0.1455148166085E+01
 0.1436864665032E+01
 0.1414381570458E+01
 0.1387872848182E+01
 0.1357551743289E+01
 0.1323728510684E+01
 0.1286854739713E+01
 0.1247561104594E+01
 0.1206733345377E+01
 0.1165501473368E+01
 0.1125101537630E+01
 0.1086813232657E+01
 0.1052002097816E+01
 0.1022225623503E+01
 0.9993809561845E+00
 0.9858769157525E+00
 0.9848000213320E+00
 0.1000007848247E+01
 0.1036044693005E+01
 0.1097810558362E+01
 0.1189943576986E+01
 0.1315916699752E+01
 0.1477036937480E+01
 0.1671552436828E+01
 0.1894016831143E+01
 0.2135082543891E+01
 0.2381918789064E+01
 0.2619494905548E+01
 0.2832931651751E+01
 0.1268410071839E+01
 0.1311496654426E+01
 0.1354180747106E+01
 0.1393850834807E+01
 0.1428309111502E+01
 0.1456168674667E+01
 0.1476897242701E+01
 0.1490616367418E+01
 0.1497822589744E+01
 0.1499146146433E+01
 0.1495190700087E+01
 0.1486450538553E+01
 0.1473284597585E+01
 0.1455927731542E+01
 0.1434527327383E+01
 0.1409195230363E+01
 0.1380070641138E+01
 0.1347384685939E+01
 0.1311510908375E+01
 0.1273007688249E+01
 0.1232702301120E+01
 0.1191676399446E+01
 0.1151107862410E+01
 0.1112195178273E+01
 0.1076197352119E+01
 0.1044543071947E+01
 0.1018984287950E+01
 0.1001780004202E+01
 0.9958901131854E+00
 0.1005126814933E+01
 0.1034162618867E+01
 0.1088303367604E+01
 0.1172933243764E+01
 0.1292560796932E+01
 0.1449632147846E+01
 0.1643371247215E+01
 0.1868860903387E+01
 0.2116599377716E+01
 0.2372771911984E+01
 0.2620514671684E+01
 0.2842843030086E+01
 0.1278157647589E+01
 0.1323174592668E+01
 0.1367744190113E+01
 0.1408959873333E+01
 0.1444451866772E+01
 0.1472834952467E+01
 0.1493709731283E+01
 0.1507384536831E+01
 0.1514533428322E+01
 0.1515922464150E+01
 0.1512241753991E+01
 0.1504027531836E+01
 0.1491644337084E+01
 0.1475303378324E+01
 0.1455104481420E+01
 0.1431092999250E+01
 0.1403328744522E+01
 0.1371957928547E+01
 0.1337270760780E+01
 0.1299749271190E+01
 0.1260159870960E+01
 0.1219534447455E+01
 0.1178990304486E+01
 0.1139639694442E+01
 0.1102627101670E+01
 0.1069241822971E+01
 0.1041077121507E+01
 0.1020223300827E+01
 0.1009483860223E+01
 0.1012578732985E+01
 0.1034245649586E+01
 0.1080138307354E+01
 0.1156380153388E+01
 0.1268606917931E+01
 0.1420602312354E+01
 0.1612826969394E+01
 0.1841141292767E+01
 0.2096023961686E+01
 0.2362677567085E+01
 0.2622080561687E+01
 0.2854254551901E+01
 0.1288231535722E+01
 0.1335344966336E+01
 0.1381941838021E+01
 0.1424762064847E+01
 0.1461247473986E+01
 0.1490039692689E+01
 0.1510915188320E+01
 0.1524407399528E+01
 0.1531391779496E+01
 0.1532780484572E+01
 0.1529351808448E+01
 0.1521681900685E+01
 0.1510137948347E+01
 0.1494904602430E+01
 0.1476031012003E+01
 0.1453492058608E+01
 0.1427263003441E+01
 0.1397399289103E+01
 0.1364102402401E+01
 0.1327774112424E+01
 0.1289118041863E+01
 0.1249115561956E+01
 0.1208821552411E+01
 0.1169257212860E+01
 0.1131444365937E+01
 0.1096522010286E+01
 0.1065911076582E+01
 0.1041514547943E+01
 0.1025950053838E+01
 0.1022796363309E+01
 0.1036783689333E+01
 0.1073832242430E+01
 0.1140764548183E+01
 0.1244411607782E+01
 0.1390103631549E+01
 0.1579851219055E+01
 0.1810612078705E+01
 0.2073070491761E+01
 0.2351368933985E+01
 0.2624455278579E+01
 0.2866334032429E+01
 0.1298679223125E+01
 0.1348077226541E+01
 0.1396857353961E+01
 0.1441334106913E+01
 0.1478746578457E+01
 0.1507799578462E+01
 0.1528499588940E+01
 0.1541649163974E+01
 0.1548349591514E+01
 0.1549667430686E+01
 0.1546468610606E+01
 0.1539365650280E+01
 0.1528724908681E+01
 0.1514701830993E+01
 0.1497292416791E+01
 0.1476397657356E+01
 0.1451903213352E+01
 0.1423767506514E+01
 0.1392097300698E+01
 0.1357209812430E+01
 0.1319744003283E+01
 0.1280630282179E+01
 0.1240859367883E+01
 0.1201356080947E+01
 0.1163010223173E+01
 0.1126797880671E+01
 0.1093952172122E+01
 0.1066168538390E+01
 0.1045847858647E+01
 0.1036376007445E+01
 0.1042393623304E+01
 0.1069982693179E+01
 0.1126587142572E+01
 0.1220271327857E+01
 0.1358134214911E+01
 0.1544121929229E+01
 0.1776727427841E+01
 0.2047150378591E+01
 0.2338567597397E+01
 0.2627176474760E+01
 0.2883022089793E+01
 0.1309554503665E+01
 0.1361450508204E+01
 0.1412580215388E+01
 0.1458748686408E+01
 0.1496982190390E+01
 0.1526101333110E+01
 0.1546410414953E+01
 0.1559030551570E+01
 0.1565312223240E+01
 0.1566481046007E+01
 0.1563486588847E+01
 0.1556972051520E+01
 0.1547298739143E+01
 0.1534590566216E+01
 0.1518788834069E+01
 0.1499718205397E+01
 0.1477170247306E+01
 0.1451000079446E+01
 0.1421213445763E+01
 0.1388038693426E+01
 0.1352048783526E+01
 0.1314123633233E+01
 0.1275188873624E+01
 0.1236067968701E+01
 0.1197509231456E+01
 0.1160312933639E+01
 0.1125508815022E+01
 0.1094565037018E+01
 0.1069636013303E+01
 0.1053863517259E+01
 0.1051710944991E+01
 0.1069294260895E+01
 0.1114551900258E+01
 0.1196760663492E+01
 0.1324989939110E+01
 0.1505567274076E+01
 0.1739086693802E+01
 0.2017738913260E+01
 0.2323860543937E+01
 0.2630453998688E+01
 0.2906139712559E+01
 0.1320928105981E+01
 0.1375561842700E+01
 0.1429215000856E+01
 0.1477080623628E+01
 0.1515972510347E+01
 0.1544902396593E+01
 0.1564556762047E+01
 0.1576429197827E+01
 0.1582139258092E+01
 0.1583070521373E+01
 0.1580247454784E+01
 0.1574335459843E+01
 0.1565685581973E+01
 0.1554388268296E+01
 0.1540329816155E+01
 0.1523257614830E+01
 0.1502865779462E+01
 0.1478900320565E+01
 0.1451259767807E+01
 0.1420079676752E+01
 0.1385866690772E+01
 0.1349452221300E+01
 0.1311697508192E+01
 0.1273321112507E+01
 0.1234921724901E+01
 0.1197112488299E+01
 0.1160706404592E+01
 0.1126927782435E+01
 0.1097659218736E+01
 0.1075752067550E+01
 0.1065405425508E+01
 0.1072623877839E+01
 0.1105658554619E+01
 0.1174886993904E+01
 0.1291477963168E+01
 0.1464607072474E+01
 0.1697672494161E+01
 0.1984528278591E+01
 0.2306939570282E+01
 0.2634908268280E+01
 0.2932752264956E+01
 0.1332887670362E+01
 0.1390535825294E+01
 0.1446896633710E+01
 0.1496428099920E+01
 0.1535748949783E+01
 0.1564167733857E+01
 0.1582856172364E+01
 0.1593736720573E+01
 0.1598711656709E+01
 0.1599313975909E+01
 0.1596629001519E+01
 0.1591333164667E+01
 0.1583761411159E+01
 0.1573969594187E+01
 0.1561790387881E+01
 0.1546894844731E+01
 0.1528877569376E+01
 0.1507369902507E+01
 0.1482156464365E+01
 0.1453275765779E+01
 0.1421168269277E+01
 0.1386619932307E+01
 0.1350429374793E+01
 0.1313207355602E+01
 0.1275395155353E+01
 0.1237407962678E+01
 0.1199829714084E+01
 0.1163626162632E+01
 0.1130385807293E+01
 0.1102627717599E+01
 0.1084203091609E+01
 0.1080850953391E+01
 0.1100907742655E+01
 0.1155641763164E+01
 0.1258345521366E+01
 0.1421508535966E+01
 0.1652201893786E+01
 0.1946879222220E+01
 0.2287331348814E+01
 0.2640262650399E+01
 0.2963238841346E+01
 0.1345543625993E+01
 0.1406528902644E+01
 0.1465789395752E+01
 0.1516902014411E+01
 0.1556336221431E+01
 0.1583843838644E+01
 0.1601205227136E+01
 0.1610826807986E+01
 0.1614896967411E+01
 0.1615079860775E+01
 0.1612501569511E+01
 0.1607835652338E+01
 0.1601394690856E+01
 0.1593199957911E+01
 0.1583034053697E+01
 0.1570495132643E+01
 0.1555078104860E+01
 0.1536294579431E+01
 0.1513807916201E+01
 0.1487554676706E+01
 0.1457909537932E+01
 0.1425617104838E+01
 0.1391416242326E+01
 0.1355807662919E+01
 0.1319067916424E+01
 0.1281404276171E+01
 0.1243160978358E+01
 0.1205033237701E+01
 0.1168297145714E+01
 0.1135103311275E+01
 0.1108878190265E+01
 0.1094940602655E+01
 0.1101450200750E+01
 0.1140249141702E+01
 0.1226619163537E+01
 0.1376760882120E+01
 0.1602448856696E+01
 0.1904040170834E+01
 0.2264263574293E+01
 0.2646090213458E+01
 0.2998180943882E+01
 0.1359036371621E+01
 0.1423738859210E+01
 0.1486093227454E+01
 0.1538624803137E+01
 0.1577745774596E+01
 0.1603851538984E+01
 0.1619474639488E+01
 0.1627552962392E+01
 0.1630548901646E+01
 0.1630227495743E+01
 0.1627728970464E+01
 0.1623707575065E+01
 0.1618447140753E+01
 0.1611935857032E+01
 0.1603912475320E+01
 0.1593908931133E+01
 0.1581322910516E+01
 0.1565542153066E+01
 0.1546100611380E+01
 0.1522826900749E+01
 0.1496030232666E+01
 0.1466418877273E+01
 0.1434675809055E+01
 0.1401190010904E+01
 0.1366066532226E+01
 0.1329296075282E+01
 0.1290975071277E+01
 0.1251520081058E+01
 0.1211881711555E+01
 0.1173812948347E+01
 0.1140248065013E+01
 0.1115938739024E+01
 0.1108587653170E+01
 0.1130193183029E+01
 0.1197679842710E+01
 0.1331178882431E+01
 0.1548318810996E+01
 0.1855120009919E+01
 0.2236641747227E+01
 0.2651892606494E+01
 0.3038318764673E+01
 0.1373546333209E+01
 0.1442417693910E+01
 0.1508051012394E+01
 0.1561726904387E+01
 0.1599965857254E+01
 0.1624076629578E+01
 0.1637503713555E+01
 0.1643746472415E+01
 0.1645507380274E+01
 0.1644608054160E+01
 0.1642169793472E+01
 0.1638809062294E+01
 0.1634774824669E+01
 0.1630025482448E+01
 0.1624265323119E+01
 0.1616970826881E+01
 0.1607448625826E+01
 0.1594960073344E+01
 0.1578900705448E+01
 0.1558983523446E+01
 0.1535451986664E+01
 0.1508983648720E+01
 0.1480210180545E+01
 0.1449407463422E+01
 0.1416502860007E+01
 0.1381263661867E+01
 0.1343533926525E+01
 0.1303448755027E+01
 0.1261627156831E+01
 0.1219404084055E+01
 0.1179165835949E+01
 0.1144964546729E+01
 0.1123767346961E+01
 0.1127235460481E+01
 0.1173343412857E+01
 0.1286045267098E+01
 0.1489968575149E+01
 0.1799104563340E+01
 0.2203027001427E+01
 0.2657035727116E+01
 0.3084568489775E+01
 0.1389308353010E+01
 0.1462889300004E+01
 0.1531956556048E+01
 0.1586339115623E+01
 0.1622946803959E+01
 0.1644358011345E+01
 0.1655094463671E+01
 0.1659214958276E+01
 0.1659599256359E+01
 0.1658066091304E+01
 0.1655679137965E+01
 0.1652997409632E+01
 0.1650229614559E+01
 0.1647309691032E+01
 0.1643920389154E+01
 0.1639498490247E+01
 0.1633270816375E+01
 0.1624372556359E+01
 0.1612051073634E+01
 0.1595893696778E+01
 0.1576076431728E+01
 0.1553251732899E+01
 0.1528004706232E+01
 0.1500496593734E+01
 0.1470471446853E+01
 0.1437468735522E+01
 0.1401080273240E+01
 0.1361163875389E+01
 0.1318010014584E+01
 0.1272526423476E+01
 0.1226509749878E+01
 0.1183199897504E+01
 0.1148570376586E+01
 0.1133418251779E+01
 0.1155936181192E+01
 0.1243295810835E+01
 0.1428004905267E+01
 0.1734929417001E+01
 0.2161562655442E+01
 0.2660630939272E+01
 0.3138070201099E+01
 0.1406632767643E+01
 0.1485574008340E+01
 0.1558162333917E+01
 0.1612577955196E+01
 0.1646579727276E+01
 0.1664473259173E+01
 0.1672005996000E+01
 0.1673741970013E+01
 0.1672639941026E+01
 0.1670441700234E+01
 0.1668110803396E+01
 0.1666129168162E+01
 0.1664661078787E+01
 0.1663623436321E+01
 0.1662694087542E+01
 0.1661291744494E+01
 0.1658581492696E+01
 0.1653577065302E+01
 0.1645367643512E+01
 0.1633401600415E+01
 0.1617783183255E+01
 0.1599144309483E+01
 0.1578027370343E+01
 0.1554476460637E+01
 0.1528047211684E+01
 0.1498050090607E+01
 0.1463830821301E+01
 0.1424982848287E+01
 0.1381482868321E+01
 0.1333816788110E+01
 0.1283167551299E+01
 0.1231874238752E+01
 0.1184694238753E+01
 0.1151050476872E+01
 0.1148348660665E+01
 0.1205742583930E+01
 0.1363800840535E+01
 0.1661637558892E+01
 0.2109863418923E+01
 0.2661360557554E+01
 0.3200271874837E+01
 0.1425937111378E+01
 0.1511022979072E+01
 0.1587084725793E+01
 0.1640519314649E+01
 0.1670666435362E+01
 0.1684122105809E+01
 0.1687950203874E+01
 0.1687088240361E+01
 0.1684436148296E+01
 0.1681573353112E+01
 0.1679319942531E+01
 0.1678062635848E+01
 0.1677918830010E+01
 0.1678797762165E+01
 0.1680392513107E+01
 0.1682131905317E+01
 0.1683146335035E+01
 0.1682339947119E+01
 0.1678634686085E+01
 0.1671322620880E+01
 0.1660427620842E+01
 0.1646562795579E+01
 0.1630228985025E+01
 0.1611348384103E+01
 0.1589283622224E+01
 0.1563119387132E+01
 0.1531969046238E+01
 0.1495184979184E+01
 0.1452459039176E+01
 0.1403879340669E+01
 0.1350013899554E+01
 0.1292241941893E+01
 0.1233928789223E+01
 0.1182677039983E+01
 0.1154048145822E+01
 0.1177309148007E+01
 0.1299974353736E+01
 0.1578700367873E+01
 0.2044893470313E+01
 0.2657210367630E+01
 0.3273059357927E+01
 0.1447795237973E+01
 0.1539966693370E+01
 0.1619201596186E+01
 0.1670152834431E+01
 0.1694878439562E+01
 0.1702909484522E+01
 0.1702590414113E+01
 0.1698995255524E+01
 0.1694789930075E+01
 0.1691301458475E+01
 0.1689166167701E+01
 0.1688660738240E+01
 0.1689855360157E+01
 0.1692662485534E+01
 0.1696813311479E+01
 0.1701781674363E+01
 0.1706701726395E+01
 0.1710391014943E+01
 0.1711598650174E+01
 0.1709438393938E+01
 0.1703838399952E+01
 0.1695388911385E+01
 0.1684544653316E+01
 0.1671096975702E+01
 0.1654211698914E+01
 0.1632757251655E+01
 0.1605637911842E+01
 0.1571999994996E+01
 0.1531295416217E+01
 0.1483261298483E+01
 0.1427879285815E+01
 0.1365547901976E+01
 0.1298121532732E+01
 0.1231034371906E+01
 0.1177037461470E+01
 0.1163217401327E+01
 0.1241063053613E+01
 0.1486652834434E+01
 0.1962893097109E+01
 0.2645040392889E+01
 0.3358952094068E+01
 0.1473016021335E+01
 0.1573383290967E+01
 0.1655031052789E+01
 0.1701305151413E+01
 0.1718704087154E+01
 0.1720331803808E+01
 0.1715545168107E+01
 0.1709191676165E+01
 0.1703504056996E+01
 0.1699472603818E+01
 0.1697517047897E+01
 0.1697794232871E+01
 0.1700329329175E+01
 0.1705049648682E+01
 0.1711748640670E+01
 0.1719985983578E+01
 0.1728951777493E+01
 0.1737416756734E+01
 0.1743959814339E+01
 0.1747490004750E+01
 0.1747814412135E+01
 0.1745485660076E+01
 0.1740896968639E+01
 0.1733692803690E+01
 0.1722839973541E+01
 0.1707009657207E+01
 0.1684932559718E+01
 0.1655596364008E+01
 0.1618274202084E+01
 0.1572424798420E+01
 0.1517509552044E+01
 0.1452976474590E+01
 0.1379123175631E+01
 0.1298990446214E+01
 0.1221763799952E+01
 0.1170038071635E+01
 0.1194357288912E+01
 0.1388307145658E+01
 0.1859514062002E+01
 0.2619882242866E+01
 0.3461394375431E+01
 0.1502774359640E+01
 0.1612593524044E+01
 0.1695067549736E+01
 0.1733514502362E+01
 0.1741386942776E+01
 0.1735773339055E+01
 0.1726399474514E+01
 0.1717402777204E+01
 0.1710388698145E+01
 0.1705944410999E+01
 0.1704251904633E+01
 0.1705345147676E+01
 0.1709209233612E+01
 0.1715797781988E+01
 0.1724989568034E+01
 0.1736474438924E+01
 0.1749565822551E+01
 0.1763051888848E+01
 0.1775360733686E+01
 0.1785168281266E+01
 0.1792120817668E+01
 0.1796699665996E+01
 0.1799201753361E+01
 0.1799097320948E+01
 0.1795155627128E+01
 0.1785884503979E+01
 0.1769892956855E+01
 0.1746069958905E+01
 0.1713584923048E+01
 0.1671716758853E+01
 0.1619516948594E+01
 0.1555580267306E+01
 0.1478700955307E+01
 0.1389454532629E+01
 0.1292992861525E+01
 0.1205539664987E+01
 0.1170664479344E+01
 0.1290940045861E+01
 0.1730588645308E+01
 0.2573801127833E+01
 0.3585176120832E+01
 0.1538839068811E+01
 0.1659386681547E+01
 0.1739624613298E+01
 0.1765833967733E+01
 0.1761869059903E+01
 0.1748523495855E+01
 0.1734724761045E+01
 0.1723362521074E+01
 0.1715269302690E+01
 0.1710590866600E+01
 0.1709265785369E+01
 0.1711210346641E+01
 0.1716377333061E+01
 0.1724756929574E+01
 0.1736332253701E+01
 0.1750966349231E+01
 0.1768177407864E+01
 0.1786869158177E+01
 0.1805370012766E+01
 0.1822099501919E+01
 0.1836483628516E+01
 0.1848865713560E+01
 0.1859377676891E+01
 0.1867271051169E+01
 0.1871127187366E+01
 0.1869348298223E+01
 0.1860496384294E+01
 0.1843433706280E+01
 0.1817308686610E+01
 0.1781339972911E+01
 0.1734326198728E+01
 0.1674188857257E+01
 0.1598408233933E+01
 0.1505226670724E+01
 0.1395640407213E+01
 0.1278368568526E+01
 0.1184520631420E+01
 0.1209771200673E+01
 0.1574633675327E+01
 0.2494160286695E+01
 0.3736993519376E+01
 0.1583990453085E+01
 0.1716165148965E+01
 0.1788476131590E+01
 0.1796544863175E+01
 0.1778775850089E+01
 0.1757826964268E+01
 0.1740105352629E+01
 0.1726827677110E+01
 0.1717995534546E+01
 0.1713307847118E+01
 0.1712473457227E+01
 0.1715305070009E+01
 0.1721733630147E+01
 0.1731794184575E+01
 0.1745586057935E+01
 0.1763179608281E+01
 0.1784386642631E+01
 0.1808367682703E+01
 0.1833459069435E+01
 0.1857823512129E+01
 0.1880581826933E+01
 0.1901814755651E+01
 0.1921361605234E+01
 0.1938186152300E+01
 0.1950708979419E+01
 0.1957322382569E+01
 0.1956648945105E+01
 0.1947608287155E+01
 0.1929406830703E+01
 0.1901329718468E+01
 0.1862121357110E+01
 0.1809302622031E+01
 0.1739405271029E+01
 0.1648753100160E+01
 0.1534493791971E+01
 0.1397646549349E+01
 0.1253458364690E+01
 0.1171954873808E+01
 0.1399836015267E+01
 0.2361460654450E+01
 0.3926023750096E+01
 0.1642835187510E+01
 0.1786024158688E+01
 0.1840067345300E+01
 0.1822808772730E+01
 0.1790520287213E+01
 0.1762966932137E+01
 0.1742164901969E+01
 0.1727594613723E+01
 0.1718450626782E+01
 0.1714018504618E+01
 0.1713813274234E+01
 0.1717566273580E+01
 0.1725199691935E+01
 0.1736799288448E+01
 0.1752583249693E+01
 0.1772844863776E+01
 0.1797769376167E+01
 0.1826961417763E+01
 0.1858968402145E+01
 0.1891759015614E+01
 0.1924035497184E+01
 0.1955387873138E+01
 0.1985132697991E+01
 0.2011844921123E+01
 0.2033847669911E+01
 0.2049678148169E+01
 0.2058174740392E+01
 0.2058413349724E+01
 0.2049716623802E+01
 0.2031542107367E+01
 0.2002801489796E+01
 0.1960983185826E+01
 0.1902239252534E+01
 0.1821766746196E+01
 0.1713728230872E+01
 0.1572360353227E+01
 0.1396738795011E+01
 0.1217551643693E+01
 0.1241221479542E+01
 0.2148838918233E+01
 0.4163939137339E+01
 0.1723528885505E+01
 0.1872397961703E+01
 0.1889832497189E+01
 0.1840488025182E+01
 0.1795638227877E+01
 0.1763336451486E+01
 0.1740592368122E+01
 0.1725519978716E+01
 0.1716559233110E+01
 0.1712678608498E+01
 0.1713250609240E+01
 0.1717955603299E+01
 0.1726722101276E+01
 0.1739689748187E+01
 0.1757189085902E+01
 0.1779725709023E+01
 0.1807899102242E+01
 0.1841972549038E+01
 0.1881057964925E+01
 0.1923146105160E+01
 0.1966387448408E+01
 0.2009460766512E+01
 0.2050749602125E+01
 0.2088305658752E+01
 0.2120490766679E+01
 0.2146230289682E+01
 0.2164799966063E+01
 0.2175556344366E+01
 0.2177956104764E+01
 0.2171662322291E+01
 0.2155954684579E+01
 0.2128751908137E+01
 0.2086615263452E+01
 0.2024809789953E+01
 0.1936176840484E+01
 0.1810175393502E+01
 0.1633784715109E+01
 0.1394973386461E+01
 0.1189861724221E+01
 0.1834622155585E+01
 0.4462366491861E+01
 0.1841831879183E+01
 0.1976681062720E+01
 0.1926895977898E+01
 0.1845036557622E+01
 0.1793288945007E+01
 0.1758403220922E+01
 0.1735204456131E+01
 0.1720531846687E+01
 0.1712295658897E+01
 0.1709281123613E+01
 0.1710780660227E+01
 0.1716461860706E+01
 0.1726275300100E+01
 0.1740415194530E+01
 0.1759310142346E+01
 0.1783642673374E+01
 0.1814390456580E+01
 0.1852643228675E+01
 0.1898633776948E+01
 0.1950946128177E+01
 0.2007075160929E+01
 0.2063988361033E+01
 0.2118407291759E+01
 0.2167717183424E+01
 0.2210596568461E+01
 0.2246727902653E+01
 0.2276128921826E+01
 0.2298612003575E+01
 0.2313739752237E+01
 0.2321245748313E+01
 0.2320863956617E+01
 0.2311501827451E+01
 0.2291198569872E+01
 0.2256739525448E+01
 0.2202222407210E+01
 0.2115919167027E+01
 0.1979731193116E+01
 0.1757637541315E+01
 0.1395639855858E+01
 0.1484797483321E+01
 0.4824356915316E+01
 0.2032279450628E+01
 0.2086105007856E+01
 0.1930168825054E+01
 0.1835687942501E+01
 0.1782711255756E+01
 0.1747873116707E+01
 0.1725983263505E+01
 0.1712633655112E+01
 0.1705693851897E+01
 0.1703858363269E+01
 0.1706430952186E+01
 0.1713102659393E+01
 0.1723863589654E+01
 0.1738960801223E+01
 0.1758899970375E+01
 0.1784491509024E+01
 0.1816971266184E+01
 0.1858202589365E+01
 0.1910240840461E+01
 0.1973653732780E+01
 0.2045392595474E+01
 0.2119089617445E+01
 0.2188521967628E+01
 0.2250362955697E+01
 0.2304144077462E+01
 0.2350844561208E+01
 0.2391612296751E+01
 0.2426977586976E+01
 0.2456600264417E+01
 0.2479824939976E+01
 0.2496551534500E+01
 0.2507444381712E+01
 0.2513415655567E+01
 0.2514516571150E+01
 0.2508288601990E+01
 0.2489529406922E+01
 0.2440016271761E+01
 0.2345385629953E+01
 0.2046667287028E+01
 0.1564458196675E+01
 0.5231535930511E+01
 0.2387474261369E+01
 0.2104852944659E+01
 0.1892699384637E+01
 0.1814624587888E+01
 0.1762715991528E+01
 0.1732119680409E+01
 0.1712968120058E+01
 0.1701950678880E+01
 0.1696841013845E+01
 0.1696486719138E+01
 0.1700261870193E+01
 0.1707925553562E+01
 0.1719522131384E+01
 0.1735348905920E+01
 0.1755963777579E+01
 0.1782246758027E+01
 0.1815549895465E+01
 0.1858094811818E+01
 0.1913923107026E+01
 0.1988893633455E+01
 0.2080471215469E+01
 0.2175205801273E+01
 0.2261851479903E+01
 0.2336713881140E+01
 0.2401138350451E+01
 0.2458165095525E+01
 0.2510518465688E+01
 0.2559779429512E+01
 0.2605970882355E+01
 0.2647166169348E+01
 0.2681890233651E+01
 0.2713971248399E+01
 0.2749525751602E+01
 0.2792659873706E+01
 0.2847593802499E+01
 0.2918313482947E+01
 0.3016522960849E+01
 0.3126052709219E+01
 0.3370281153687E+01
 0.3012192995792E+01
 0.6144810335459E+01
 0.4083675105480E+00
 0.5274952002617E+00
 0.6404283422424E+00
 0.7432554743507E+00
 0.8345911670684E+00
 0.9142497276851E+00
 0.9826768370093E+00
 0.1040621037412E+01
 0.1088903835934E+01
 0.1128346565508E+01
 0.1159818415720E+01
 0.1183754352445E+01
 0.1200815302041E+01
 0.1212288910334E+01
 0.1218839409517E+01
 0.1220272832092E+01
 0.1215925036440E+01
 0.1204975547138E+01
 0.1187031448633E+01
 0.1161684168356E+01
 0.3965040582545E+00
 0.5236843958933E+00
 0.6428957319394E+00
 0.7512577088296E+00
 0.8475591322861E+00
 0.9317681554880E+00
 0.1004477196360E+01
 0.1066539106578E+01
 0.1118847479574E+01
 0.1162298696118E+01
 0.1197775291863E+01
 0.1225786771612E+01
 0.1247148333271E+01
 0.1263048620565E+01
 0.1274056726613E+01
 0.1280153619294E+01
 0.1280814046390E+01
 0.1275337777066E+01
 0.1261644867037E+01
 0.1237868259453E+01
 0.3848976676766E+00
 0.5205035975027E+00
 0.6461026331699E+00
 0.7597934593694E+00
 0.8608226049144E+00
 0.9493681213487E+00
 0.1026165684093E+01
 0.1092173099999E+01
 0.1148372708005E+01
 0.1195724084644E+01
 0.1235137320444E+01
 0.1267269514119E+01
 0.1292993348115E+01
 0.1313404091774E+01
 0.1329083193312E+01
 0.1340063370796E+01
 0.1345887996944E+01
 0.1345508618604E+01
 0.1336888018365E+01
 0.1319967401602E+01
 0.3737420783907E+00
 0.5177808274910E+00
 0.6498031266385E+00
 0.7686930616032E+00
 0.8742362059328E+00
 0.9668999978583E+00
 0.1047584552277E+01
 0.1117361478402E+01
 0.1177304224638E+01
 0.1228440915557E+01
 0.1271738530174E+01
 0.1307976571744E+01
 0.1338073296054E+01
 0.1363060058065E+01
 0.1383518567687E+01
 0.1399512744673E+01
 0.1410560659554E+01
 0.1415623443828E+01
 0.1413324958532E+01
 0.1403787104605E+01
 0.3630961850729E+00
 0.5154759222365E+00
 0.6538366638161E+00
 0.7777853042323E+00
 0.8876431931431E+00
 0.9842086387704E+00
 0.1068574314223E+01
 0.1141936921750E+01
 0.1205465937406E+01
 0.1260266493793E+01
 0.1307371661132E+01
 0.1347665338511E+01
 0.1382104860662E+01
 0.1411675964892E+01
 0.1436958324591E+01
 0.1458032248718E+01
 0.1474463906160E+01
 0.1485408186636E+01
 0.1489853442791E+01
 0.1487750748977E+01
 0.3529986013776E+00
 0.5135420096725E+00
 0.6580849269955E+00
 0.7869161460734E+00
 0.9008854148560E+00
 0.1001136267207E+01
 0.1088973458980E+01
 0.1165730752231E+01
 0.1232679640929E+01
 0.1291006978390E+01
 0.1341815743338E+01
 0.1386078970165E+01
 0.1424788565356E+01
 0.1458900090747E+01
 0.1488993841358E+01
 0.1515185283285E+01
 0.1537136948761E+01
 0.1554169557005E+01
 0.1565453491892E+01
 0.1570638991527E+01
 0.3434799544360E+00
 0.5119334450570E+00
 0.6624428514541E+00
 0.7959464268498E+00
 0.9138100972731E+00
 0.1017525875543E+01
 0.1108620626819E+01
 0.1188574053975E+01
 0.1258764340355E+01
 0.1320462477610E+01
 0.1374841719112E+01
 0.1422951914638E+01
 0.1465816711869E+01
 0.1504374774100E+01
 0.1539216561817E+01
 0.1570507252866E+01
 0.1598004071612E+01
 0.1621142818756E+01
 0.1639150600435E+01
 0.1651353758868E+01
 0.3345678954333E+00
 0.5106056767990E+00
 0.6668137302892E+00
 0.8047470516173E+00
 0.9262718532110E+00
 0.1033224396983E+01
 0.1127356769694E+01
 0.1210299077511E+01
 0.1283538571330E+01
 0.1348430745615E+01
 0.1406217504966E+01
 0.1458015645557E+01
 0.1504878899629E+01
 0.1547740573614E+01
 0.1587209115750E+01
 0.1623500549517E+01
 0.1656448553990E+01
 0.1685553905552E+01
 0.1710024324892E+01
 0.1728870044231E+01
 0.3262884441443E+00
 0.5095162543461E+00
 0.6711072926493E+00
 0.8131974829891E+00
 0.9381330904739E+00
 0.1048084747815E+01
 0.1145027239373E+01
 0.1230741330545E+01
 0.1306823049994E+01
 0.1374710898163E+01
 0.1435712503750E+01
 0.1491003572273E+01
 0.1541666785600E+01
 0.1588638460432E+01
 0.1632547995442E+01
 0.1673655547825E+01
 0.1711847992461E+01
 0.1746650979233E+01
 0.1777208384962E+01
 0.1802234285403E+01
 0.3186663198487E+00
 0.5086253392427E+00
 0.6752393644909E+00
 0.8211852942689E+00
 0.9492645325365E+00
 0.1061967272296E+01
 0.1161483748927E+01
 0.1249741839284E+01
 0.1328443471461E+01
 0.1399106938973E+01
 0.1463101673083E+01
 0.1521655413730E+01
 0.1575878344907E+01
 0.1626714543945E+01
 0.1674813317689E+01
 0.1720468457642E+01
 0.1763597632384E+01
 0.1803720598275E+01
 0.1839890707135E+01
 0.1870549735538E+01
 0.3117248401081E+00
 0.5078960636660E+00
 0.6791319996158E+00
 0.8286063334005E+00
 0.9595458640189E+00
 0.1074741039782E+01
 0.1176586196576E+01
 0.1267149423155E+01
 0.1348233293123E+01
 0.1421431115835E+01
 0.1488169324493E+01
 0.1549721365126E+01
 0.1607222692252E+01
 0.1661626812707E+01
 0.1713599298701E+01
 0.1763456115369E+01
 0.1811126242862E+01
 0.1856100383792E+01
 0.1897324172963E+01
 0.1932993318196E+01
 0.3054856892849E+00
 0.5072947936013E+00
 0.6827138229406E+00
 0.8353651675842E+00
 0.9688665027565E+00
 0.1086285083633E+01
 0.1190204383767E+01
 0.1282822869399E+01
 0.1366036384528E+01
 0.1441507058260E+01
 0.1510712690147E+01
 0.1574966225646E+01
 0.1635425290196E+01
 0.1693052211350E+01
 0.1748523883688E+01
 0.1802167634968E+01
 0.1853908031230E+01
 0.1903190307218E+01
 0.1948844024182E+01
 0.1988846233679E+01
 0.2999686616319E+00
 0.5067913426098E+00
 0.6859204500360E+00
 0.8413756561429E+00
 0.9771264322818E+00
 0.1096489602400E+01
 0.1202219632305E+01
 0.1296632978198E+01
 0.1381709514058E+01
 0.1459172719673E+01
 0.1530545338506E+01
 0.1597173507499E+01
 0.1660233179863E+01
 0.1720693405396E+01
 0.1779237117876E+01
 0.1836193775522E+01
 0.1891471959370E+01
 0.1944461837416E+01
 0.1993877067379E+01
 0.2037503241018E+01
 0.2951914322605E+00
 0.5063591566117E+00
 0.6886949238597E+00
 0.8465615597615E+00
 0.9842370322900E+00
 0.1105257089648E+01
 0.1212526266699E+01
 0.1308464423917E+01
 0.1395124610325E+01
 0.1474283068957E+01
 0.1547500357365E+01
 0.1616149316655E+01
 0.1681419848168E+01
 0.1744284781607E+01
 0.1805428120547E+01
 0.1865174302588E+01
 0.1923408670373E+01
 0.1979463259559E+01
 0.2031943293486E+01
 0.2078470296187E+01
 0.2911693753282E+00
 0.5059754765745E+00
 0.6909881377344E+00
 0.8508571386330E+00
 0.9901218703055E+00
 0.1112503374541E+01
 0.1221032951980E+01
 0.1318217422469E+01
 0.1406170788638E+01
 0.1486712518269E+01
 0.1561433254601E+01
 0.1631725885598E+01
 0.1698789556725E+01
 0.1763597571565E+01
 0.1826830745226E+01
 0.1888803615365E+01
 0.1949375152685E+01
 0.2007821916124E+01
 0.2062654062079E+01
 0.2111357663433E+01
 0.2879154376109E+00
 0.5056214816643E+00
 0.6927592228247E+00
 0.8542077031690E+00
 0.9947174190758E+00
 0.1118158545205E+01
 0.1227663864149E+01
 0.1325809182062E+01
 0.1414756115689E+01
 0.1496357046486E+01
 0.1572224504010E+01
 0.1643764648869E+01
 0.1712181022455E+01
 0.1778444055209E+01
 0.1843228010206E+01
 0.1906834834772E+01
 0.1969097591515E+01
 0.2029244668582E+01
 0.2085709118420E+01
 0.2135872212011E+01
 0.2854400534103E+00
 0.5052824071989E+00
 0.6939758803414E+00
 0.8565700894791E+00
 0.9979736711004E+00
 0.1122167729778E+01
 0.1232359670806E+01
 0.1331175113634E+01
 0.1420809081792E+01
 0.1503135972665E+01
 0.1579781667557E+01
 0.1652158777626E+01
 0.1721470381462E+01
 0.1788680833700E+01
 0.1854455381827E+01
 0.1919082583257E+01
 0.1982372930191E+01
 0.2043517443433E+01
 0.2100893428562E+01
 0.2151810215081E+01
 0.2837510997718E+00
 0.5049476361755E+00
 0.6946146484450E+00
 0.8579130421469E+00
 0.9998546302892E+00
 0.1124491715567E+01
 0.1235078302712E+01
 0.1334269779190E+01
 0.1424279751879E+01
 0.1506993339109E+01
 0.1584041040630E+01
 0.1656835117730E+01
 0.1726573403048E+01
 0.1794211190270E+01
 0.1860403016513E+01
 0.1925424700055E+01
 0.1989069553113E+01
 0.2050504375193E+01
 0.2108074258844E+01
 0.2159051157031E+01
 0.2828538758011E+00
 0.5046107588574E+00
 0.6946610907623E+00
 0.8582174871759E+00
 0.1000338662370E+01
 0.1125107388765E+01
 0.1235795499609E+01
 0.1335067560291E+01
 0.1425140573733E+01
 0.1507898876925E+01
 0.1584968789313E+01
 0.1657755507273E+01
 0.1727446955647E+01
 0.1794986589824E+01
 0.1861017087953E+01
 0.1925803112025E+01
 0.1989127390105E+01
 0.2050146862745E+01
 0.2107198875731E+01
 0.2157553235780E+01
 0.2827510929962E+00
 0.5042695975161E+00
 0.6941099008602E+00
 0.8574766875011E+00
 0.9994186959161E+00
 0.1124007986872E+01
 0.1234505122373E+01
 0.1333563037272E+01
 0.1423386830752E+01
 0.1505848537528E+01
 0.1582561561658E+01
 0.1654917462443E+01
 0.1724089734120E+01
 0.1791007362546E+01
 0.1856300293060E+01
 0.1920224000554E+01
 0.1982557599593E+01
 0.2042462687629E+01
 0.2098293031252E+01
 0.2147350829969E+01
 0.2834428670648E+00
 0.5039261939522E+00
 0.6929649178105E+00
 0.8556962745610E+00
 0.9971022668741E+00
 0.1121203156812E+01
 0.1231219224552E+01
 0.1329771071568E+01
 0.1419036730255E+01
 0.1500864579940E+01
 0.1576846563894E+01
 0.1648354229763E+01
 0.1716542262226E+01
 0.1782322609112E+01
 0.1846311600882E+01
 0.1908757346200E+01
 0.1969441905287E+01
 0.2027545223147E+01
 0.2081460241423E+01
 0.2128553934309E+01
 0.2849267054050E+00
 0.5035867588821E+00
 0.6912390510945E+00
 0.8528941537895E+00
 0.9934114045542E+00
 0.1116718817234E+01
 0.1225967882414E+01
 0.1323726590650E+01
 0.1412131126957E+01
 0.1492995213998E+01
 0.1567881103530E+01
 0.1638134211653E+01
 0.1704886185995E+01
 0.1769029353475E+01
 0.1831165277434E+01
 0.1891535879484E+01
 0.1949931593017E+01
 0.2005562671976E+01
 0.2056881544360E+01
 0.2101348541706E+01
 0.2871974900282E+00
 0.5032615838038E+00
 0.6889541159407E+00
 0.8491002854670E+00
 0.9883823611046E+00
 0.1110596827955E+01
 0.1218798787663E+01
 0.1315484081068E+01
 0.1402732888600E+01
 0.1482313808115E+01
 0.1555751609883E+01
 0.1624359777996E+01
 0.1689242872035E+01
 0.1751270955272E+01
 0.1811029188896E+01
 0.1868753419935E+01
 0.1924246112744E+01
 0.1976757254632E+01
 0.2024815628885E+01
 0.2065998627278E+01
 0.2902474607995E+00
 0.5029649174853E+00
 0.6861405830995E+00
 0.8443563461917E+00
 0.9820651909237E+00
 0.1102894474478E+01
 0.1209776612730E+01
 0.1305116802027E+01
 0.1390925919014E+01
 0.1468917679639E+01
 0.1540572151934E+01
 0.1607165483105E+01
 0.1669771325058E+01
 0.1729234783393E+01
 0.1786122361927E+01
 0.1840662546558E+01
 0.1892671189808E+01
 0.1941444214322E+01
 0.1985599475038E+01
 0.2022849755304E+01
 0.2940662082291E+00
 0.5027148106030E+00
 0.6828372496407E+00
 0.8387152795473E+00
 0.9745231902393E+00
 0.1093683779743E+01
 0.1198982163398E+01
 0.1292715737744E+01
 0.1376813861023E+01
 0.1452926494230E+01
 0.1522482482126E+01
 0.1586715714225E+01
 0.1646665440204E+01
 0.1703149144638E+01
 0.1756711759905E+01
 0.1807571511908E+01
 0.1855556298490E+01
 0.1900010446222E+01
 0.1939649051629E+01
 0.1972333313279E+01
 0.2986406883571E+00
 0.5025329333813E+00
 0.6790908398399E+00
 0.8322407476248E+00
 0.9658322104790E+00
 0.1083050658835E+01
 0.1186511337566E+01
 0.1278388311827E+01
 0.1360518508018E+01
 0.1434480308600E+01
 0.1501645643598E+01
 0.1563201805927E+01
 0.1620150610528E+01
 0.1673279459059E+01
 0.1723108221038E+01
 0.1769840283566E+01
 0.1813311309058E+01
 0.1852912442190E+01
 0.1887459546172E+01
 0.1914970881579E+01
 0.3039552725274E+00
 0.5024443722776E+00
 0.6749555481635E+00
 0.8250064992921E+00
 0.9560798639162E+00
 0.1071093937564E+01
 0.1172473914498E+01
 0.1262256893442E+01
 0.1342177961255E+01
 0.1413737301474E+01
 0.1478245191297E+01
 0.1536838668915E+01
 0.1590479723228E+01
 0.1639923682643E+01
 0.1685661503369E+01
 0.1727875579950E+01
 0.1766402072730E+01
 0.1800673179727E+01
 0.1829604613490E+01
 0.1851377929614E+01
 0.3099918452647E+00
 0.5024774116891E+00
 0.6704925355903E+00
 0.8170956697105E+00
 0.9453646378454E+00
 0.1057924252757E+01
 0.1156992195486E+01
 0.1244457122156E+01
 0.1321944568981E+01
 0.1390871240018E+01
 0.1452482083878E+01
 0.1507860992111E+01
 0.1557928591413E+01
 0.1603406992353E+01
 0.1644754391559E+01
 0.1682124759841E+01
 0.1715344678649E+01
 0.1743877541824E+01
 0.1766734022300E+01
 0.1782265805507E+01
 0.3167299619655E+00
 0.5026633091391E+00
 0.6657693985105E+00
 0.8086000362874E+00
 0.9337949449954E+00
 0.1043662862684E+01
 0.1140199526022E+01
 0.1225136086591E+01
 0.1299982692075E+01
 0.1366068739521E+01
 0.1424571317228E+01
 0.1476519093178E+01
 0.1522790885163E+01
 0.1564075766230E+01
 0.1600795835588E+01
 0.1633068421139E+01
 0.1660698064698E+01
 0.1683165751426E+01
 0.1699568842101E+01
 0.1708440309593E+01
 0.3241470612657E+00
 0.5030360676550E+00
 0.6608596253843E+00
 0.7996192549307E+00
 0.9214881372847E+00
 0.1028440395403E+01
 0.1122238729082E+01
 0.1204450392924E+01
 0.1276466345437E+01
 0.1339526386095E+01
 0.1394738393870E+01
 0.1443074528403E+01
 0.1485372670983E+01
 0.1522290948856E+01
 0.1554213173168E+01
 0.1581211664808E+01
 0.1603054726380E+01
 0.1619224250341E+01
 0.1628893325253E+01
 0.1630795283222E+01
 0.3322187383443E+00
 0.5036322123900E+00
 0.6558420638575E+00
 0.7902601074918E+00
 0.9085695142097E+00
 0.1012395562757E+01
 0.1103260475717E+01
 0.1182564153542E+01
 0.1251576758092E+01
 0.1311447789763E+01
 0.1363215731860E+01
 0.1407795596776E+01
 0.1445986700424E+01
 0.1478420923312E+01
 0.1505443541263E+01
 0.1527074107094E+01
 0.1543029409685E+01
 0.1552773380771E+01
 0.1555542135188E+01
 0.1550298754971E+01
 0.3409190620198E+00
 0.5044905704062E+00
 0.6508004238543E+00
 0.7806358008986E+00
 0.8951713644863E+00
 0.9956738701593E+00
 0.1083421617664E+01
 0.1159646921527E+01
 0.1225499885403E+01
 0.1282040623618E+01
 0.1330239115277E+01
 0.1370952894938E+01
 0.1404946622267E+01
 0.1432834025068E+01
 0.1454924563374E+01
 0.1471178808152E+01
 0.1481246028101E+01
 0.1484551430950E+01
 0.1480380682683E+01
 0.1467966303849E+01
 0.3502209086545E+00
 0.5056520475070E+00
 0.6458228500232E+00
 0.7708653669439E+00
 0.8814320768106E+00
 0.9784263366892E+00
 0.1062883487261E+01
 0.1135871576468E+01
 0.1198423880135E+01
 0.1251513666075E+01
 0.1296044258163E+01
 0.1332815091795E+01
 0.1362561363608E+01
 0.1385890886199E+01
 0.1403084352286E+01
 0.1414040170131E+01
 0.1418323524371E+01
 0.1415296111879E+01
 0.1404276775275E+01
 0.1384815962973E+01
 0.3600962518610E+00
 0.5071593825842E+00
 0.6410016261735E+00
 0.7610732579944E+00
 0.8674953821362E+00
 0.9608082564459E+00
 0.1041810194765E+01
 0.1111412212943E+01
 0.1170536581567E+01
 0.1220073900183E+01
 0.1260863579060E+01
 0.1293645194879E+01
 0.1319130170176E+01
 0.1337937159845E+01
 0.1350331005236E+01
 0.1356150694116E+01
 0.1354861190561E+01
 0.1345727360450E+01
 0.1328068976069E+01
 0.1301806568293E+01
 0.3705162940523E+00
 0.5090568318144E+00
 0.6364331526829E+00
 0.7513892928117E+00
 0.8535097903663E+00
 0.9429779694757E+00
 0.1020366904835E+01
 0.1086442047221E+01
 0.1142023036003E+01
 0.1187923621298E+01
 0.1224923071871E+01
 0.1253697305384E+01
 0.1274938812813E+01
 0.1289297412484E+01
 0.1297041974638E+01
 0.1297965459837E+01
 0.1291422361074E+01
 0.1276533813736E+01
 0.1252551373102E+01
 0.1219805535078E+01
 0.3814511280018E+00
 0.5113897304584E+00
 0.6322184584866E+00
 0.7419492931644E+00
 0.8396282088301E+00
 0.9250955386394E+00
 0.9987180385206E+00
 0.1061131437886E+01
 0.1113063154882E+01
 0.1155257573019E+01
 0.1188439173864E+01
 0.1213213611383E+01
 0.1230257261938E+01
 0.1240272364252E+01
 0.1243554888309E+01
 0.1239883794975E+01
 0.1228511844121E+01
 0.1208362043227E+01
 0.1178479965706E+01
 0.1139604325441E+01
 0.3928683273937E+00
 0.5142035491144E+00
 0.6284654200320E+00
 0.7328968408026E+00
 0.8260077399987E+00
 0.9073208507444E+00
 0.9770253874809E+00
 0.1035646151847E+01
 0.1083829660346E+01
 0.1122260100992E+01
 0.1151615369637E+01
 0.1172421106025E+01
 0.1185337536845E+01
 0.1191140689320E+01
 0.1190167947365E+01
 0.1182226129423E+01
 0.1166540138775E+01
 0.1141794041493E+01
 0.1106596551471E+01
 0.1061939069662E+01
 0.4047276597549E+00
 0.5175443338965E+00
 0.6252939516297E+00
 0.7243885932763E+00
 0.8128077800814E+00
 0.8898106531176E+00
 0.9554461759086E+00
 0.1010146277364E+01
 0.1054486519289E+01
 0.1089102559162E+01
 0.1114638458600E+01
 0.1131527375080E+01
 0.1140410949485E+01
 0.1142160087536E+01
 0.1137157880124E+01
 0.1125241213591E+01
 0.1105731665355E+01
 0.1077295886239E+01
 0.1037660675660E+01
 0.9875893462493E+00
 0.4169684929018E+00
 0.5214497547768E+00
 0.6228671431353E+00
 0.7165962217784E+00
 0.8001834754702E+00
 0.8727154412386E+00
 0.9341311289601E+00
 0.9847853434976E+00
 0.1025190078659E+01
 0.1055940133099E+01
 0.1077674509885E+01
 0.1090716293470E+01
 0.1095681913121E+01
 0.1093567491422E+01
 0.1084787111796E+01
 0.1069192005435E+01
 0.1046132055652E+01
 0.1014778443357E+01
 0.9726079794769E+00
 0.9177273523212E+00
 0.4293854348745E+00
 0.5261029135690E+00
 0.6214314065228E+00
 0.7096872061883E+00
 0.7882769337368E+00
 0.8561766526962E+00
 0.9132247108382E+00
 0.9597066694591E+00
 0.9960901890113E+00
 0.1022922408199E+01
 0.1040848336028E+01
 0.1050144282770E+01
 0.1051335685622E+01
 0.1045550927031E+01
 0.1033314806441E+01
 0.1014364826735E+01
 0.9880131006366E+00
 0.9534689450171E+00
 0.9103510572690E+00
 0.8567306883395E+00
 0.1011121417459E+01
 0.3801967275883E+00
 0.7399184500174E-01
 0.7366373537342E-02
 0.5557268108683E-01
 0.8829694391853E-01
 0.1133772565203E+00
 0.1330360072543E+00
 0.1474656136193E+00
 0.1562421246473E+00
 0.1580048016569E+00
 0.1507263563924E+00
 0.1323132422225E+00
 0.1047081467757E+00
 0.7071224612773E-01
 0.3322673261477E-01
 0.7862527916567E-02
 0.4173328390550E-01
 0.7841581580023E-01
 0.1275520659005E+00
 0.1048545575083E+01
 0.7354895524815E+00
 0.2884681693196E+00
 0.1110385820207E+00
 0.2907020013805E-01
 0.2122643775979E-01
 0.5553124651589E-01
 0.8102739438201E-01
 0.1001802845996E+00
 0.1134721327403E+00
 0.1203759322239E+00
 0.1212865138180E+00
 0.1133177051940E+00
 0.9461424854894E-01
 0.6756410522450E-01
 0.3574922917931E-01
 0.5408487402875E-02
 0.2952347050840E-01
 0.6202145332904E-01
 0.9598069022760E-01
 0.9725971666603E+00
 0.8446193644778E+00
 0.4962199074316E+00
 0.2558219425007E+00
 0.1314256961164E+00
 0.5937725913729E-01
 0.1220606026502E-01
 0.2147784374206E-01
 0.4665992079804E-01
 0.6549820119648E-01
 0.7855514206899E-01
 0.8674694907037E-01
 0.8719919662573E-01
 0.7652958805024E-01
 0.5664468033253E-01
 0.3115193338666E-01
 0.4846974420778E-02
 0.2296614568735E-01
 0.4815165385118E-01
 0.6924249515529E-01
 0.8954336825192E+00
 0.8659125053387E+00
 0.6240320986241E+00
 0.3968378182865E+00
 0.2446841475318E+00
 0.1505628890676E+00
 0.8892609370670E-01
 0.4562668437902E-01
 0.1327912885904E-01
 0.1183936360562E-01
 0.3120072565756E-01
 0.4621551396905E-01
 0.5421807777606E-01
 0.5101728266263E-01
 0.3811275370499E-01
 0.1913449651463E-01
 0.2112101042403E-02
 0.2255879362713E-01
 0.4033559850598E-01
 0.5182876734865E-01
 0.8272173732938E+00
 0.8518007814914E+00
 0.6956026886757E+00
 0.5070407401195E+00
 0.3542655773265E+00
 0.2465874767510E+00
 0.1722991042509E+00
 0.1192887445026E+00
 0.7938415733319E-01
 0.4777753498782E-01
 0.2221679807995E-01
 0.1730772362781E-02
 0.1428901788549E-01
 0.1811450668807E-01
 0.1194619828372E-01
 0.1273691307067E-02
 0.1563658328506E-01
 0.3005335545628E-01
 0.4135856276528E-01
 0.4645982034521E-01
 0.7692695498405E+00
 0.8232925159864E+00
 0.7314452218398E+00
 0.5865946455040E+00
 0.4490968935067E+00
 0.3399006106449E+00
 0.2582898696295E+00
 0.1975333986332E+00
 0.1507683203338E+00
 0.1130190782629E+00
 0.8160731456914E-01
 0.5434732073922E-01
 0.3306563549142E-01
 0.2266898753583E-01
 0.2250391303223E-01
 0.2887431365866E-01
 0.3803005372701E-01
 0.4692598592663E-01
 0.5319440249177E-01
 0.5478325144863E-01
 0.7203939855467E+00
 0.7899466746344E+00
 0.7453349931075E+00
 0.6413697574264E+00
 0.5265662871441E+00
 0.4250014308720E+00
 0.3426292147262E+00
 0.2777177895392E+00
 0.2259456412232E+00
 0.1831398438598E+00
 0.1467013849272E+00
 0.1143237682136E+00
 0.8740088183218E-01
 0.7099745084854E-01
 0.6503961328716E-01
 0.6588999818986E-01
 0.6996373991379E-01
 0.7430313968712E-01
 0.7702219477013E-01
 0.7730894662664E-01
 0.6790208818495E+00
 0.7563094644724E+00
 0.7461089884642E+00
 0.6776873668704E+00
 0.5878702339306E+00
 0.4996406889126E+00
 0.4221484475362E+00
 0.3572272867408E+00
 0.3031201708342E+00
 0.2570044435911E+00
 0.2168061024381E+00
 0.1803775289120E+00
 0.1487934756130E+00
 0.1272205916226E+00
 0.1161982673356E+00
 0.1122691014910E+00
 0.1121024340127E+00
 0.1129141676690E+00
 0.1133431453198E+00
 0.1137261163349E+00
 0.6436807438806E+00
 0.7245260320278E+00
 0.7394075641516E+00
 0.7008559170871E+00
 0.6355984610199E+00
 0.5636746405699E+00
 0.4951768264333E+00
 0.4340422339490E+00
 0.3805527798374E+00
 0.3333067453164E+00
 0.2910025250557E+00
 0.2518892713403E+00
 0.2168607186724E+00
 0.1911660967913E+00
 0.1760107111152E+00
 0.1682137353504E+00
 0.1647316180940E+00
 0.1629693909786E+00
 0.1620139331922E+00
 0.1630928406589E+00
 0.6131262578617E+00
 0.6955197311622E+00
 0.7288265777856E+00
 0.7149866428654E+00
 0.6725644597024E+00
 0.6180654524240E+00
 0.5612112456801E+00
 0.5069108803836E+00
 0.4568256211897E+00
 0.4107678273969E+00
 0.3682484997315E+00
 0.3280529982348E+00
 0.2910162214076E+00
 0.2624517763699E+00
 0.2442508998251E+00
 0.2335813710115E+00
 0.2276899832763E+00
 0.2241379072112E+00
 0.2223102174229E+00
 0.2239860493495E+00
 0.5863364399657E+00
 0.6695725831301E+00
 0.7166422528300E+00
 0.7231434792750E+00
 0.7013297501736E+00
 0.6642226097954E+00
 0.6204901035034E+00
 0.5752425868529E+00
 0.5309315323966E+00
 0.4882698188614E+00
 0.4474838452770E+00
 0.4079318607186E+00
 0.3704690277170E+00
 0.3404324858909E+00
 0.3203695052708E+00
 0.3078383216436E+00
 0.3003599867353E+00
 0.2955976774517E+00
 0.2930530741067E+00
 0.2946927108018E+00
 0.5624895675029E+00
 0.6466273662519E+00
 0.7042661338481E+00
 0.7275538608111E+00
 0.7240447820066E+00
 0.7036325414483E+00
 0.6736443351876E+00
 0.6389166415542E+00
 0.6022380666746E+00
 0.5649068712379E+00
 0.5277022091183E+00
 0.4905155626378E+00
 0.4542536999838E+00
 0.4242043172023E+00
 0.4034852314557E+00
 0.3900588199101E+00
 0.3816985063285E+00
 0.3761176387744E+00
 0.3727495438373E+00
 0.3733820560939E+00
 0.5409305074458E+00
 0.6264515664124E+00
 0.6925347573133E+00
 0.7297986525637E+00
 0.7424282803974E+00
 0.7376691664303E+00
 0.7214582591112E+00
 0.6980977976584E+00
 0.6703982467674E+00
 0.6399754672419E+00
 0.6079846697937E+00
 0.5747663064690E+00
 0.5412711692066E+00
 0.5126350850019E+00
 0.4924106653741E+00
 0.4789581271749E+00
 0.4702915637348E+00
 0.4641460644629E+00
 0.4597177939155E+00
 0.4582391373408E+00
 0.5211406088215E+00
 0.6087289836213E+00
 0.6818977881612E+00
 0.7309647866684E+00
 0.7578013217561E+00
 0.7675089380249E+00
 0.7647208562975E+00
 0.7530914078181E+00
 0.7352532042434E+00
 0.7129345209711E+00
 0.6875050737352E+00
 0.6596512160621E+00
 0.6303342216987E+00
 0.6044150007563E+00
 0.5857069935036E+00
 0.5729520619082E+00
 0.5644203760144E+00
 0.5578870496213E+00
 0.5521812034009E+00
 0.5475616689996E+00
 0.5027120411466E+00
 0.5931117168940E+00
 0.6725428743386E+00
 0.7317631695679E+00
 0.7711390919738E+00
 0.7941027734101E+00
 0.8041408681915E+00
 0.8042415397649E+00
 0.7967482413374E+00
 0.7833572866079E+00
 0.7655198661662E+00
 0.7441639021865E+00
 0.7202145294346E+00
 0.6981241667368E+00
 0.6817661891027E+00
 0.6702422275562E+00
 0.6621334547434E+00
 0.6553525289811E+00
 0.6483164452227E+00
 0.6398232477617E+00
 0.4853263623931E+00
 0.5792494415662E+00
 0.6644803248044E+00
 0.7326192106985E+00
 0.7831251726823E+00
 0.8181779899682E+00
 0.8403038060751E+00
 0.8518652275220E+00
 0.8548691027171E+00
 0.8508873003836E+00
 0.8413518609615E+00
 0.8273376139255E+00
 0.8096866018809E+00
 0.7923117749368E+00
 0.7789234148598E+00
 0.7689383439604E+00
 0.7613379178593E+00
 0.7543857433501E+00
 0.7462368034496E+00
 0.7336975591668E+00
 0.4687362920868E+00
 0.5668048018508E+00
 0.6576016940319E+00
 0.7337431694088E+00
 0.7942032304190E+00
 0.8402559402762E+00
 0.8736556300027E+00
 0.8962141011575E+00
 0.9095982338256E+00
 0.9152039594619E+00
 0.9143739861699E+00
 0.9082505719943E+00
 0.8975599832054E+00
 0.8855681304800E+00
 0.8755936327676E+00
 0.8672484022139E+00
 0.8599542117399E+00
 0.8526879210586E+00
 0.8438745107173E+00
 0.8280258376946E+00
 0.4527492237510E+00
 0.5554598966071E+00
 0.6517209347375E+00
 0.7351868333766E+00
 0.8046256161486E+00
 0.8606784229895E+00
 0.9045032363098E+00
 0.9374548715703E+00
 0.9608879381173E+00
 0.9759993730000E+00
 0.9839977359382E+00
 0.9860256548097E+00
 0.9826881782806E+00
 0.9765566334253E+00
 0.9703603347282E+00
 0.9637381305531E+00
 0.9562922503917E+00
 0.9479305902387E+00
 0.9387649466928E+00
 0.9216208754620E+00
 0.4372119688726E+00
 0.5449146175179E+00
 0.6466052129880E+00
 0.7368918127878E+00
 0.8145018208890E+00
 0.8796400556642E+00
 0.9330254445713E+00
 0.9756618729747E+00
 0.1008642884823E+01
 0.1032968291694E+01
 0.1049672262028E+01
 0.1059833786019E+01
 0.1063961392778E+01
 0.1063973995375E+01
 0.1061922322746E+01
 0.1057332672600E+01
 0.1049694769812E+01
 0.1038763111626E+01
 0.1027518244675E+01
 0.1012758222464E+01
 0.4219915759551E+00
 0.5348867137021E+00
 0.6419888383415E+00
 0.7387420749657E+00
 0.8238556029668E+00
 0.8972226781526E+00
 0.9592874527096E+00
 0.1010819883943E+01
 0.1052705752551E+01
 0.1085786274603E+01
 0.1110921487931E+01
 0.1128929517752E+01
 0.1140298189111E+01
 0.1146510961719E+01
 0.1148886680796E+01
 0.1146899226396E+01
 0.1139804557250E+01
 0.1126839134543E+01
 0.1109174122891E+01
 0.1095950479402E+01
 0.4432467077220E+00
 0.5341453716290E+00
 0.6239038546832E+00
 0.7062449100409E+00
 0.7786272953812E+00
 0.8401383743739E+00
 0.8906660729444E+00
 0.9305625968075E+00
 0.9603947200025E+00
 0.9807674202541E+00
 0.9923530628337E+00
 0.9958207096059E+00
 0.9916069740046E+00
 0.9810356223021E+00
 0.9652714616986E+00
 0.9437844889409E+00
 0.9158525603186E+00
 0.8807628980931E+00
 0.8397468706439E+00
 0.8013746471906E+00
 0.4587245106440E+00
 0.5447759380847E+00
 0.6294953428986E+00
 0.7056067078895E+00
 0.7705484012463E+00
 0.8237360724373E+00
 0.8653865919548E+00
 0.8961439980523E+00
 0.9168369935153E+00
 0.9282848826175E+00
 0.9313837538388E+00
 0.9271046151522E+00
 0.9159753782849E+00
 0.8997042949445E+00
 0.8800901509108E+00
 0.8566553445874E+00
 0.8288840984323E+00
 0.7964710034323E+00
 0.7622715055879E+00
 0.7226813325550E+00
 0.4745832893918E+00
 0.5561990115575E+00
 0.6360539938554E+00
 0.7057517465605E+00
 0.7627281145647E+00
 0.8068733960918E+00
 0.8389102324340E+00
 0.8599036802448E+00
 0.8710102701963E+00
 0.8733086363584E+00
 0.8679217141726E+00
 0.8559272555517E+00
 0.8379796079486E+00
 0.8163560556568E+00
 0.7934155882608E+00
 0.7687618972386E+00
 0.7419378109877E+00
 0.7127267014641E+00
 0.6809997971772E+00
 0.6391593429050E+00
 0.4909439063475E+00
 0.5687315670730E+00
 0.6438791984128E+00
 0.7068046521633E+00
 0.7551223232339E+00
 0.7894154655437E+00
 0.8110899774453E+00
 0.8217516943170E+00
 0.8229458938554E+00
 0.8160176949865E+00
 0.8022755530215E+00
 0.7828353828852E+00
 0.7584867384691E+00
 0.7320917499141E+00
 0.7064528451325E+00
 0.6810946836114E+00
 0.6553258912758E+00
 0.6279503726410E+00
 0.5970729160227E+00
 0.5567728686801E+00
 0.5079785581016E+00
 0.5826937733042E+00
 0.6532202593209E+00
 0.7088126433820E+00
 0.7475740960046E+00
 0.7710849201551E+00
 0.7816326700623E+00
 0.7814720937601E+00
 0.7725728336583E+00
 0.7565254215620E+00
 0.7347753593491E+00
 0.7084088394704E+00
 0.6783302278213E+00
 0.6479226087378E+00
 0.6202226278669E+00
 0.5944944592331E+00
 0.5695503217431E+00
 0.5434441237669E+00
 0.5139380313842E+00
 0.4772899665588E+00
 0.5259073487622E+00
 0.5984318717305E+00
 0.6642688919850E+00
 0.7116924443294E+00
 0.7397575122645E+00
 0.7514277714847E+00
 0.7500865033749E+00
 0.7387253279221E+00
 0.7197397849191E+00
 0.6949125989026E+00
 0.6657508273146E+00
 0.6332294229257E+00
 0.5983206258097E+00
 0.5648156066321E+00
 0.5357625382556E+00
 0.5100385532940E+00
 0.4859982363628E+00
 0.4613085952672E+00
 0.4338969535510E+00
 0.4017971351037E+00
 0.5450126221667E+00
 0.6163157707023E+00
 0.6771312108183E+00
 0.7151818243434E+00
 0.7311285075680E+00
 0.7297820166486E+00
 0.7158333303627E+00
 0.6930618559087E+00
 0.6642417995591E+00
 0.6312491674071E+00
 0.5955433239744E+00
 0.5578883642393E+00
 0.5192632744533E+00
 0.4837413108421E+00
 0.4541812424469E+00
 0.4290314799792E+00
 0.4062797617388E+00
 0.3834146247542E+00
 0.3586542818379E+00
 0.3312049469111E+00
 0.5656553057870E+00
 0.6367313231789E+00
 0.6917836801803E+00
 0.7187805365276E+00
 0.7208747983424E+00
 0.7052521694670E+00
 0.6780923178431E+00
 0.6439490306535E+00
 0.6058573154860E+00
 0.5656293455025E+00
 0.5245306263178E+00
 0.4830009407472E+00
 0.4419652354538E+00
 0.4056586298247E+00
 0.3765857285695E+00
 0.3527583661004E+00
 0.3318619842814E+00
 0.3113044377343E+00
 0.2895398727470E+00
 0.2664247990609E+00
 0.5882942686583E+00
 0.6600631509744E+00
 0.7080098501714E+00
 0.7216749908894E+00
 0.7078615932354E+00
 0.6766927198272E+00
 0.6359414451924E+00
 0.5908182364551E+00
 0.5444032768525E+00
 0.4982192545201E+00
 0.4531579925235E+00
 0.4092183617103E+00
 0.3672239669337E+00
 0.3314683497774E+00
 0.3039745419058E+00
 0.2823271235893E+00
 0.2639463732176E+00
 0.2461906337839E+00
 0.2276347385116E+00
 0.2083772771278E+00
 0.6135095418841E+00
 0.6866628761825E+00
 0.7253085454351E+00
 0.7226404375086E+00
 0.6905736952045E+00
 0.6427079563044E+00
 0.5883673973753E+00
 0.5331412946695E+00
 0.4798116922140E+00
 0.4293150858411E+00
 0.3819700585813E+00
 0.3372333804363E+00
 0.2958074443757E+00
 0.2619655313978E+00
 0.2371653857341E+00
 0.2185926872698E+00
 0.2034249924147E+00
 0.1889717683864E+00
 0.1738044804948E+00
 0.1579494288855E+00
 0.6420304093702E+00
 0.7167929904318E+00
 0.7427584195711E+00
 0.7199129985414E+00
 0.6670596857586E+00
 0.6016836383826E+00
 0.5343603230999E+00
 0.4705456078283E+00
 0.4122277637943E+00
 0.3594053968687E+00
 0.3116360698621E+00
 0.2677769895241E+00
 0.2284315007065E+00
 0.1978056050015E+00
 0.1767578996153E+00
 0.1621271938011E+00
 0.1508687985029E+00
 0.1402351389656E+00
 0.1286849127976E+00
 0.1159270905940E+00
 0.6747685630412E+00
 0.7505280073597E+00
 0.7588138314853E+00
 0.7110235835071E+00
 0.6348945444479E+00
 0.5518795856175E+00
 0.4730771933574E+00
 0.4029754843604E+00
 0.3421221373536E+00
 0.2892238158017E+00
 0.2429570535487E+00
 0.2016013178648E+00
 0.1657357426152E+00
 0.1394847330603E+00
 0.1231230540207E+00
 0.1132189165974E+00
 0.1065314952503E+00
 0.1002526671257E+00
 0.9264622707729E-01
 0.8291795998182E-01
 0.7128543195810E+00
 0.7875774801037E+00
 0.7709905778905E+00
 0.6925907368412E+00
 0.5912006185363E+00
 0.4916346737590E+00
 0.4041027217337E+00
 0.3308961900253E+00
 0.2703939881942E+00
 0.2197679276759E+00
 0.1768400853857E+00
 0.1394439295948E+00
 0.1082584156530E+00
 0.8733382022604E-01
 0.7641468026359E-01
 0.7189333427399E-01
 0.7036787583550E-01
 0.6898092644477E-01
 0.6575739648414E-01
 0.5927813656089E-01
 0.7576671947015E+00
 0.8269598337602E+00
 0.7753724538924E+00
 0.6600898526395E+00
 0.5328171865394E+00
 0.4197669848457E+00
 0.3278292512797E+00
 0.2555056523822E+00
 0.1984162532913E+00
 0.1522511278085E+00
 0.1142281869180E+00
 0.8197492746546E-01
 0.5641672249607E-01
 0.4153370110283E-01
 0.3660706642174E-01
 0.3795584669887E-01
 0.4206869042005E-01
 0.4607682397611E-01
 0.4777165533466E-01
 0.4506740756477E-01
 0.8108334033648E+00
 0.8663756952311E+00
 0.7658253598877E+00
 0.6076863490281E+00
 0.4568107255534E+00
 0.3362854413785E+00
 0.2459213133220E+00
 0.1788560078534E+00
 0.1279451651359E+00
 0.8796318405320E-01
 0.5599184655473E-01
 0.2974999354608E-01
 0.1060713802347E-01
 0.2912493962437E-02
 0.3927067011985E-02
 0.1107897843842E-01
 0.2111385219662E-01
 0.3094197545116E-01
 0.3815190882108E-01
 0.4005824212081E-01
 0.8740974883935E+00
 0.9009353196632E+00
 0.7327485425862E+00
 0.5284264744461E+00
 0.3617324669318E+00
 0.2434716465637E+00
 0.1616797954018E+00
 0.1036747820870E+00
 0.6083981841545E-01
 0.2806143844051E-01
 0.3040624563645E-02
 0.1706696086130E-01
 0.2959722581449E-01
 0.3122965585086E-01
 0.2332110041975E-01
 0.9417645303451E-02
 0.6857275845252E-02
 0.2280437434534E-01
 0.3610243816537E-01
 0.4371176722662E-01
 0.9488163746474E+00
 0.9203427318491E+00
 0.6611864508951E+00
 0.4158011748257E+00
 0.2502199700613E+00
 0.1471257170263E+00
 0.7962788159335E-01
 0.3276122236232E-01
 0.1336916892229E-02
 0.2667802780305E-01
 0.4503923945769E-01
 0.5797637575491E-01
 0.6346787691678E-01
 0.5817582587396E-01
 0.4372762127637E-01
 0.2356550799150E-01
 0.1879425994578E-02
 0.2076632708790E-01
 0.4052095296781E-01
 0.5507564757479E-01
 0.1033662473319E+01
 0.9019642483443E+00
 0.5288665840405E+00
 0.2693840042457E+00
 0.1340137972740E+00
 0.5530869868333E-01
 0.4207452199422E-02
 0.3176530987347E-01
 0.5760668699468E-01
 0.7587491298922E-01
 0.8740643137530E-01
 0.9330245744717E-01
 0.9138214935721E-01
 0.7900217128958E-01
 0.5803941404515E-01
 0.3188449803248E-01
 0.5039530251342E-02
 0.2372460069402E-01
 0.4996887917217E-01
 0.7284042665912E-01
 0.1117834569419E+01
 0.7893591075842E+00
 0.3099587944749E+00
 0.1178999827096E+00
 0.2874766759798E-01
 0.2579463302316E-01
 0.6242996600571E-01
 0.8881090092780E-01
 0.1076721226363E+00
 0.1197402445559E+00
 0.1247621502389E+00
 0.1233427967155E+00
 0.1133525038935E+00
 0.9353353039325E-01
 0.6610318889221E-01
 0.3443625047976E-01
 0.4851216544821E-02
 0.3052004151510E-01
 0.6264549211677E-01
 0.9541206892770E-01
 0.1081372370954E+01
 0.4123437672213E+00
 0.8212815607032E-01
 0.6451700812548E-02
 0.5818923568075E-01
 0.9297382974665E-01
 0.1188865486591E+00
 0.1383294387464E+00
 0.1516711571856E+00
 0.1587023229925E+00
 0.1583643332919E+00
 0.1488958808557E+00
 0.1289668984891E+00
 0.1010003441076E+00
 0.6751415818783E-01
 0.3122061354724E-01
 0.8017129935432E-02
 0.4096874917549E-01
 0.7619595566748E-01
 0.1201333321681E+00
 0.1116853092925E+01
 0.1033418163678E+01
 0.9492341814253E+00
 0.8637029218511E+00
 0.7761691823567E+00
 0.6872491570080E+00
 0.5979744574281E+00
 0.5096494865152E+00
 0.4237855581867E+00
 0.3420853466608E+00
 0.2664296935488E+00
 0.1988483751181E+00
 0.1414562479793E+00
 0.9633342792759E-01
 0.6533156966747E-01
 0.4983343584775E-01
 0.5047616939249E-01
 0.6661270320321E-01
 0.9609164622839E-01
 0.1375755432440E+00
 0.1200557594115E+01
 0.1128700836861E+01
 0.1046945455196E+01
 0.9606837600048E+00
 0.8715630031864E+00
 0.7802543242001E+00
 0.6875091481344E+00
 0.5943131037951E+00
 0.5019467764255E+00
 0.4120070018088E+00
 0.3264219786253E+00
 0.2474561895802E+00
 0.1776921185518E+00
 0.1199639767395E+00
 0.7720487279188E-01
 0.5218320386172E-01
 0.4721134197924E-01
 0.6343713097790E-01
 0.9983037801655E-01
 0.1535001897714E+00
 0.1285875238605E+01
 0.1219973572727E+01
 0.1145245660377E+01
 0.1063215620214E+01
 0.9761168941261E+00
 0.8851817935056E+00
 0.7912802151299E+00
 0.6952983454354E+00
 0.5983194897067E+00
 0.5017325933101E+00
 0.4073091709917E+00
 0.3172695354928E+00
 0.2343409046756E+00
 0.1617961079742E+00
 0.1034399785951E+00
 0.6347769578891E-01
 0.4625513180743E-01
 0.5581874886506E-01
 0.9360254062695E-01
 0.1562611799799E+00
 0.1373803316208E+01
 0.1313205778325E+01
 0.1244969405091E+01
 0.1169185637247E+01
 0.1086917070233E+01
 0.9992688520962E+00
 0.9070953715674E+00
 0.8111769220695E+00
 0.7123892952861E+00
 0.6118375687486E+00
 0.5109716033431E+00
 0.4117005772040E+00
 0.3165204330688E+00
 0.2286617404141E+00
 0.1522540979332E+00
 0.9247217635144E-01
 0.5557666635990E-01
 0.4893917439344E-01
 0.7968777257492E-01
 0.1489394986840E+00
 0.1462815273145E+01
 0.1408077210320E+01
 0.1346577017149E+01
 0.1277825241867E+01
 0.1202154330605E+01
 0.1120177599689E+01
 0.1032519101822E+01
 0.9397660106215E+00
 0.8425483479342E+00
 0.7416406015368E+00
 0.6380700666670E+00
 0.5332391484203E+00
 0.4290776844876E+00
 0.3282473879980E+00
 0.2344268311655E+00
 0.1527108035447E+00
 0.9014907530526E-01
 0.5649332528925E-01
 0.6561747389174E-01
 0.1321155229959E+00
 0.1551452811604E+01
 0.1503312267901E+01
 0.1448998364738E+01
 0.1387910912840E+01
 0.1319973975123E+01
 0.1245421929925E+01
 0.1164598129767E+01
 0.1077873247659E+01
 0.9856482527294E+00
 0.8884049585285E+00
 0.7867779679953E+00
 0.6816465459958E+00
 0.5742582735542E+00
 0.4664086801052E+00
 0.3607190159352E+00
 0.2610868565868E+00
 0.1734539638697E+00
 0.1072029241635E+00
 0.7826889171235E-01
 0.1165825097823E+00
 0.1638293190764E+01
 0.1597312349371E+01
 0.1550593296346E+01
 0.1497595207473E+01
 0.1438079053098E+01
 0.1372050204250E+01
 0.1299652665086E+01
 0.1221097464029E+01
 0.1136642061600E+01
 0.1046606130449E+01
 0.9514111594721E+00
 0.8516388545311E+00
 0.7481138881321E+00
 0.6420273229785E+00
 0.5351330262248E+00
 0.4300808435930E+00
 0.3310189784992E+00
 0.2447990076927E+00
 0.1836678688067E+00
 0.1745299685557E+00
 0.1722043252394E+01
 0.1688515195034E+01
 0.1649599854692E+01
 0.1604856711242E+01
 0.1554000993905E+01
 0.1496920146582E+01
 0.1433631145221E+01
 0.1364237712683E+01
 0.1288909422111E+01
 0.1207884301835E+01
 0.1121489298101E+01
 0.1030174588195E+01
 0.9345614029608E+00
 0.8355074135044E+00
 0.7341985242515E+00
 0.6322815353112E+00
 0.5320617496164E+00
 0.4367806318108E+00
 0.3510206750924E+00
 0.2796056728929E+00
 0.1801530384810E+01
 0.1775467637117E+01
 0.1744325946808E+01
 0.1707734819349E+01
 0.1665394292271E+01
 0.1617114038249E+01
 0.1562804571815E+01
 0.1502455415889E+01
 0.1436118522348E+01
 0.1363901783853E+01
 0.1285970612926E+01
 0.1202552765170E+01
 0.1113940311059E+01
 0.1020479910539E+01
 0.9225350160262E+00
 0.8203846642385E+00
 0.7139716757596E+00
 0.6022737327228E+00
 0.4815376958934E+00
 0.3393814709373E+00
 0.1875678346826E+01
 0.1856812219157E+01
 0.1833155993169E+01
 0.1804350708411E+01
 0.1770065209563E+01
 0.1730028091640E+01
 0.1684030195446E+01
 0.1631912325947E+01
 0.1573549081001E+01
 0.1508832517280E+01
 0.1437653719994E+01
 0.1359876315026E+01
 0.1275291881079E+01
 0.1183540796490E+01
 0.1083969640067E+01
 0.9753707048237E+00
 0.8554958220231E+00
 0.7201232939242E+00
 0.5612215965719E+00
 0.3647651319149E+00
 0.1943544858223E+01
 0.1931392179731E+01
 0.1914707548488E+01
 0.1893095340891E+01
 0.1866162686963E+01
 0.1833536375651E+01
 0.1794864155684E+01
 0.1749803678052E+01
 0.1698003654368E+01
 0.1639078599247E+01
 0.1572574685825E+01
 0.1497920542266E+01
 0.1414352703232E+01
 0.1320799710484E+01
 0.1215700024085E+01
 0.1096715667193E+01
 0.9602893734437E+00
 0.8010020001479E+00
 0.6109807478211E+00
 0.3810296421679E+00
 0.2004315646552E+01
 0.1998245106969E+01
 0.1987852626343E+01
 0.1972676980782E+01
 0.1952237276218E+01
 0.1926037820294E+01
 0.1893564128845E+01
 0.1854269486067E+01
 0.1807552995785E+01
 0.1752728864282E+01
 0.1688984432336E+01
 0.1615322061706E+01
 0.1530477524163E+01
 0.1432805145836E+01
 0.1320118516529E+01
 0.1189479130216E+01
 0.1036946841632E+01
 0.8574005971306E+00
 0.6448376623651E+00
 0.3947655897225E+00
 0.2057304670923E+01
 0.2056584444910E+01
 0.2051697917120E+01
 0.2042103582762E+01
 0.2027217379926E+01
 0.2006409568645E+01
 0.1978995872827E+01
 0.1944221553093E+01
 0.1901238066021E+01
 0.1849071574509E+01
 0.1786581600396E+01
 0.1712407151462E+01
 0.1624897237981E+01
 0.1522023658893E+01
 0.1401278307993E+01
 0.1259569826053E+01
 0.1093168063251E+01
 0.8978256252915E+00
 0.6694216664109E+00
 0.4069385671529E+00
 0.2101951755373E+01
 0.2105783915102E+01
 0.2105555603852E+01
 0.2100640804275E+01
 0.2090348715166E+01
 0.2073915726636E+01
 0.2050493450204E+01
 0.2019131819262E+01
 0.1978756853694E+01
 0.1928142715594E+01
 0.1865877544859E+01
 0.1790322716822E+01
 0.1699566178994E+01
 0.1591373323749E+01
 0.1463145110485E+01
 0.1311906155421E+01
 0.1134371239515E+01
 0.9271946128058E+00
 0.6877301482557E+00
 0.4174324162841E+00
 0.2137815684877E+01
 0.2145361438317E+01
 0.2148913608532E+01
 0.2147765754588E+01
 0.2141126910926E+01
 0.2128110687490E+01
 0.2107721922213E+01
 0.2078840473147E+01
 0.2040202181191E+01
 0.1990377312744E+01
 0.1927747132725E+01
 0.1850479982312E+01
 0.1756509771740E+01
 0.1643522757487E+01
 0.1508963793386E+01
 0.1350082478176E+01
 0.1164057128102E+01
 0.9482861398947E+00
 0.7011960172611E+00
 0.4260096432856E+00
 0.2164565358354E+01
 0.2174963446724E+01
 0.2181408828128E+01
 0.2183125703584E+01
 0.2179237779187E+01
 0.2168755784669E+01
 0.2150563950702E+01
 0.2123405571771E+01
 0.2085868204843E+01
 0.2036369465128E+01
 0.1973144906726E+01
 0.1894240304172E+01
 0.1797512010774E+01
 0.1680641259309E+01
 0.1541171757785E+01
 0.1376586024861E+01
 0.1184450928229E+01
 0.9627196126108E+00
 0.7105728457927E+00
 0.4325050536806E+00
 0.2181970346206E+01
 0.2194349469596E+01
 0.2202802967738E+01
 0.2206502385165E+01
 0.2204507277230E+01
 0.2195751874450E+01
 0.2179031949977E+01
 0.2152992414672E+01
 0.2116116603664E+01
 0.2066718672820E+01
 0.2002941054542E+01
 0.1922759595380E+01
 0.1823999893798E+01
 0.1704369615481E+01
 0.1561513630773E+01
 0.1393103586794E+01
 0.1196989120125E+01
 0.9715017644995E+00
 0.7163279464856E+00
 0.4368529184830E+00
 0.2189892655760E+01
 0.2203379241599E+01
 0.2212963111956E+01
 0.2217784118902E+01
 0.2216863378887E+01
 0.2209089384834E+01
 0.2193205269770E+01
 0.2167797967932E+01
 0.2131290455539E+01
 0.2081938726408E+01
 0.2017835635615E+01
 0.1936924218736E+01
 0.1837023574044E+01
 0.1715870996595E+01
 0.1571185382348E+01
 0.1400761385573E+01
 0.1202620658022E+01
 0.9753155122097E+00
 0.7188266738898E+00
 0.4390941413743E+00
 0.2188280672813E+01
 0.2202003322828E+01
 0.2211847889817E+01
 0.2216946394514E+01
 0.2216310123965E+01
 0.2208815183727E+01
 0.2193189845857E+01
 0.2168004342995E+01
 0.2131664300537E+01
 0.2082409521716E+01
 0.2018320291828E+01
 0.1937333748707E+01
 0.1837273164312E+01
 0.1715893325312E+01
 0.1570946284564E+01
 0.1400276202422E+01
 0.1201969404600E+01
 0.9746568690019E+00
 0.7184193964609E+00
 0.4394004140518E+00
 0.2177166094279E+01
 0.2190258074957E+01
 0.2199499873574E+01
 0.2204041322443E+01
 0.2202913778808E+01
 0.2195015308281E+01
 0.2179097808983E+01
 0.2153756347001E+01
 0.2117421790705E+01
 0.2068358369723E+01
 0.2004668272454E+01
 0.1924305843236E+01
 0.1825104350917E+01
 0.1704818792675E+01
 0.1561189410710E+01
 0.1392035032794E+01
 0.1195402354265E+01
 0.9698670338858E+00
 0.7154305236166E+00
 0.4380723456663E+00
 0.2156663097289E+01
 0.2168263381761E+01
 0.2176042100012E+01
 0.2179192685452E+01
 0.2176795820362E+01
 0.2167805234408E+01
 0.2151034450685E+01
 0.2125144745156E+01
 0.2088635182066E+01
 0.2039836111056E+01
 0.1976908057688E+01
 0.1897848577223E+01
 0.1800510424543E+01
 0.1682635439312E+01
 0.1541910343394E+01
 0.1376055269623E+01
 0.1182971877890E+01
 0.9610435734451E+00
 0.7100141200334E+00
 0.4353811089170E+00
 0.2126966836736E+01
 0.2136220067150E+01
 0.2141675149611E+01
 0.2142591477997E+01
 0.2138125295612E+01
 0.2127316899258E+01
 0.2109077187200E+01
 0.2082173806587E+01
 0.2045217433456E+01
 0.1996649127341E+01
 0.1934730259394E+01
 0.1857537343820E+01
 0.1762965371393E+01
 0.1648745179962E+01
 0.1512483420492E+01
 0.1351739305664E+01
 0.1164167657925E+01
 0.9478179162784E+00
 0.7019864879750E+00
 0.4313807606959E+00
 0.2088359002421E+01
 0.2094419253555E+01
 0.2096690234765E+01
 0.2094513683254E+01
 0.2087142235506E+01
 0.2073728554308E+01
 0.2053312244199E+01
 0.2024804486036E+01
 0.1986970449187E+01
 0.1938409750230E+01
 0.1877535649255E+01
 0.1802554513412E+01
 0.1711448661863E+01
 0.1601968524944E+01
 0.1471644881525E+01
 0.1317840113263E+01
 0.1137874099106E+01
 0.9293145059568E+00
 0.6907948624276E+00
 0.4258318014900E+00
 0.2041215208048E+01
 0.2043255880462E+01
 0.2041489950375E+01
 0.2035351065217E+01
 0.2024201951353E+01
 0.2007326289885E+01
 0.1983917012981E+01
 0.1953060554850E+01
 0.1913716550773E+01
 0.1864692407825E+01
 0.1804612239288E+01
 0.1731880127211E+01
 0.1644639010960E+01
 0.1540729525672E+01
 0.1417659264586E+01
 0.1272605009342E+01
 0.1102492972995E+01
 0.9042552490624E+00
 0.6755925022741E+00
 0.4183657065895E+00
 0.1986011900615E+01
 0.1983241482305E+01
 0.1976608894504E+01
 0.1965641761770E+01
 0.1949818137192E+01
 0.1928562239850E+01
 0.1901235557812E+01
 0.1867122568954E+01
 0.1825410115955E+01
 0.1775159043070E+01
 0.1715266203344E+01
 0.1644414603910E+01
 0.1561009699675E+01
 0.1463101568473E+01
 0.1348297984284E+01
 0.1213686537164E+01
 0.1055816165418E+01
 0.8708564786031E+00
 0.6552555899504E+00
 0.4086715625928E+00
 0.1923333877717E+01
 0.1915017953568E+01
 0.1902736060292E+01
 0.1886103957860E+01
 0.1864710879748E+01
 0.1838120277439E+01
 0.1805865275253E+01
 0.1767438051793E+01
 0.1722272091457E+01
 0.1669715470932E+01
 0.1608992186472E+01
 0.1539147093166E+01
 0.1458968462812E+01
 0.1366880933577E+01
 0.1260802165138E+01
 0.1137963762204E+01
 0.9947237162310E+00
 0.8264952637967E+00
 0.6281596132697E+00
 0.3964513551852E+00
 0.1853881212435E+01
 0.1839371121534E+01
 0.1820737948641E+01
 0.1797672200628E+01
 0.1769860666845E+01
 0.1736993128682E+01
 0.1698763343194E+01
 0.1654863890426E+01
 0.1604974389313E+01
 0.1548741579110E+01
 0.1485748050536E+01
 0.1415464009306E+01
 0.1337173100416E+01
 0.1249858517055E+01
 0.1152028956145E+01
 0.1041456098185E+01
 0.9147950968208E+00
 0.7671007024224E+00
 0.5916036612106E+00
 0.3812287786099E+00
 0.1778473785523E+01
 0.1757241735306E+01
 0.1731679454557E+01
 0.1701532668312E+01
 0.1666563926230E+01
 0.1626565951675E+01
 0.1581368358222E+01
 0.1530838366575E+01
 0.1474876586200E+01
 0.1413407761529E+01
 0.1346364360276E+01
 0.1273658111176E+01
 0.1195130534184E+01
 0.1110466797176E+01
 0.1019045195754E+01
 0.9196721524326E+00
 0.8101102960356E+00
 0.6862371702658E+00
 0.5406155677346E+00
 0.3617822938195E+00
 0.1698050853200E+01
 0.1669730243760E+01
 0.1636837527535E+01
 0.1599150475534E+01
 0.1556480735972E+01
 0.1508694413012E+01
 0.1455722994090E+01
 0.1397567823136E+01
 0.1334302100758E+01
 0.1266072768359E+01
 0.1193102406125E+01
 0.1115688963409E+01
 0.1034198210696E+01
 0.9490387914099E+00
 0.8605994976630E+00
 0.7691054561870E+00
 0.6742939183854E+00
 0.5746659265201E+00
 0.4655897115911E+00
 0.3342439555893E+00
 0.1613662345688E+01
 0.1578090490984E+01
 0.1537700826231E+01
 0.1492278988200E+01
 0.1441660159089E+01
 0.1385757143847E+01
 0.1324571288734E+01
 0.1258195273509E+01
 0.1186816413098E+01
 0.1110725648883E+01
 0.1030334715553E+01
 0.9462027094865E+00
 0.8590730889173E+00
 0.7699222932031E+00
 0.6800206039201E+00
 0.5910019007793E+00
 0.5049240538397E+00
 0.4242354151772E+00
 0.3513531329263E+00
 0.2850010103875E+00
 0.1526449486227E+01
 0.1483710029602E+01
 0.1435950010444E+01
 0.1382939690927E+01
 0.1324522968317E+01
 0.1260650899135E+01
 0.1191384178904E+01
 0.1116886222585E+01
 0.1037421237767E+01
 0.9533642093425E+00
 0.8652259614482E+00
 0.7736963767550E+00
 0.6797117142418E+00
 0.5845579589206E+00
 0.4900331189674E+00
 0.3987128775902E+00
 0.3144106200043E+00
 0.2430496902897E+00
 0.1945507414786E+00
 0.1887933847902E+00
 0.1437611117481E+01
 0.1388072280056E+01
 0.1333406384636E+01
 0.1273348343918E+01
 0.1207762866349E+01
 0.1136670937066E+01
 0.1060231379681E+01
 0.9787181444887E+00
 0.8925127233606E+00
 0.8021176636692E+00
 0.7081925832958E+00
 0.6116155300652E+00
 0.5135781755330E+00
 0.4157331018512E+00
 0.3204284686781E+00
 0.2310975062396E+00
 0.1529344360302E+00
 0.9413800783107E-01
 0.6878428368305E-01
 0.1069029594639E+00
 0.1348354426980E+01
 0.1292688436358E+01
 0.1231907858008E+01
 0.1165705757923E+01
 0.1094019195989E+01
 0.1017016511301E+01
 0.9350402527869E+00
 0.8485657822483E+00
 0.7581945052357E+00
 0.6646812755509E+00
 0.5689916345400E+00
 0.4723893057539E+00
 0.3765618414506E+00
 0.2838021389916E+00
 0.1972772148461E+00
 0.1214347507239E+00
 0.6259867203512E-01
 0.2950481247557E-01
 0.3557742283326E-01
 0.1028567506828E+00
 0.1259846626041E+01
 0.1198995797909E+01
 0.1133109987323E+01
 0.1061872677346E+01
 0.9853881694378E+00
 0.9040762874177E+00
 0.8185524844818E+00
 0.7295671325718E+00
 0.6380084356709E+00
 0.5449493545285E+00
 0.4517242294316E+00
 0.3600297594709E+00
 0.2720535783977E+00
 0.1906386700543E+00
 0.1194927836117E+00
 0.6343293437760E-01
 0.2843336035399E-01
 0.2100404652928E-01
 0.5193403621470E-01
 0.1271080740415E+00
 0.1173154177167E+01
 0.1108218031597E+01
 0.1038292002258E+01
 0.9631472582996E+00
 0.8832039137206E+00
 0.7992450092683E+00
 0.7122113026046E+00
 0.6231390472048E+00
 0.5331871837926E+00
 0.4437070780999E+00
 0.3563259438467E+00
 0.2730358061014E+00
 0.1962855524532E+00
 0.1290705495287E+00
 0.7499549574917E-01
 0.3819192097218E-01
 0.2275506201101E-01
 0.3373754829971E-01
 0.7525765544084E-01
 0.1455771409160E+00
 0.1089281224426E+01
 0.1021418014650E+01
 0.9484336828050E+00
 0.8704155476299E+00
 0.7883191569164E+00
 0.7033685854562E+00
 0.6168057802598E+00
 0.5298745736182E+00
 0.4439068431539E+00
 0.3604116122081E+00
 0.2811482048206E+00
 0.2081799475744E+00
 0.1439039156311E+00
 0.9104004525317E-01
 0.5252589898966E-01
 0.3119921975560E-01
 0.2975425288159E-01
 0.5082340997108E-01
 0.9407175931527E-01
 0.1563288333637E+00
 0.1009177286789E+01
 0.9394195665547E+00
 0.8640816382952E+00
 0.7840732610501E+00
 0.7011184456112E+00
 0.6168508487481E+00
 0.5326386349291E+00
 0.4497722844352E+00
 0.3696116675006E+00
 0.2936737866939E+00
 0.2236746709035E+00
 0.1615334869567E+00
 0.1093363242073E+00
 0.6923996574911E-01
 0.4327793266332E-01
 0.3317077165807E-01
 0.4044478669176E-01
 0.6544497198577E-01
 0.1065485788697E+00
 0.1607922253296E+00
 0.9336517887247E+00
 0.8624722285276E+00
 0.7850182512274E+00
 0.7038567548961E+00
 0.6215996989198E+00
 0.5398186003657E+00
 0.4597137890402E+00
 0.3824538230746E+00
 0.3093076709846E+00
 0.2416864120287E+00
 0.1811331983826E+00
 0.1292770061865E+00
 0.8774798664269E-01
 0.5804445764055E-01
 0.4137563418678E-01
 0.3863259738426E-01
 0.5021966589313E-01
 0.7544544208165E-01
 0.1126819877546E+00
 0.1596557444020E+00
 0.8632030551608E+00
 0.7895131586635E+00
 0.7097587673717E+00
 0.6293707392793E+00
 0.5500684452426E+00
 0.4727132732935E+00
 0.3981987195182E+00
 0.3275549278411E+00
 0.2619514262777E+00
 0.2026556817139E+00
 0.1509754448891E+00
 0.1081830298623E+00
 0.7541722643253E-01
 0.5356903378577E-01
 0.4320395825539E-01
 0.4453808332827E-01
 0.5722050514219E-01
 0.8021632422034E-01
 0.1122996260335E+00
 0.1524768578927E+00
 0.7954130180355E+00
 0.7146908146196E+00
 0.6373687992112E+00
 0.5620753600920E+00
 0.4883426548476E+00
 0.4168673653123E+00
 0.3486568947054E+00
 0.2848407393393E+00
 0.2265710537415E+00
 0.1749681554778E+00
 0.1310680323115E+00
 0.9576061768702E-01
 0.6971757253110E-01
 0.5332603549185E-01
 0.4665737082900E-01
 0.4942092355563E-01
 0.6084385311475E-01
 0.7974715757129E-01
 0.1048314192082E+00
 0.1361862893718E+00
</DataArray>
<DataArray type="Float64" Name="OI" NumberOfComponents="1" ComponentName0="OI" format="ascii">
 0.1323987576802E+01
 0.1159222415129E+01
 0.1044928505115E+01
 0.1010384529174E+01
 0.9934672943219E+00
 0.9904943517155E+00
 0.9955145343541E+00
 0.1006443658717E+01
 0.1021928137446E+01
 0.1041292057366E+01
 0.1064211868717E+01
 0.1090628860591E+01
 0.1120692791600E+01
 0.1154748759616E+01
 0.1193352444703E+01
 0.1237330022596E+01
 0.1287906403028E+01
 0.1347035722159E+01
 0.1418184634003E+01
 0.1506454480598E+01
 0.1610705877725E+01
 0.1720873501174E+01
 0.1827621937919E+01
 0.1926959202469E+01
 0.2018833808404E+01
 0.2104743276253E+01
 0.2186139797303E+01
 0.2263672821429E+01
 0.2336728082065E+01
 0.2402976040438E+01
 0.2460495664327E+01
 0.2512308989258E+01
 0.2563779079224E+01
 0.2618620414700E+01
 0.2680756737847E+01
 0.2753961856443E+01
 0.2849236929882E+01
 0.2951730259050E+01
 0.3176215200537E+01
 0.2835439553516E+01
 0.5742959632054E+01
 0.1142885049562E+01
 0.1172864268750E+01
 0.1090628867910E+01
 0.1046037912370E+01
 0.1027526090115E+01
 0.1021228509689E+01
 0.1023837014371E+01
 0.1032654870840E+01
 0.1046370790676E+01
 0.1064211478351E+01
 0.1085802642454E+01
 0.1111036952501E+01
 0.1140023416231E+01
 0.1173068154314E+01
 0.1210685289629E+01
 0.1253643676574E+01
 0.1303072906850E+01
 0.1360640911905E+01
 0.1428250922255E+01
 0.1506714431993E+01
 0.1593928510098E+01
 0.1684893497289E+01
 0.1774347066386E+01
 0.1859018103405E+01
 0.1937784995238E+01
 0.2010701212620E+01
 0.2078022042187E+01
 0.2139550014969E+01
 0.2194393509317E+01
 0.2241452286175E+01
 0.2280208016949E+01
 0.2310912943782E+01
 0.2334139736113E+01
 0.2349779105813E+01
 0.2355482053812E+01
 0.2346396789576E+01
 0.2305582443181E+01
 0.2219643387009E+01
 0.1940231413309E+01
 0.1487894469726E+01
 0.4914436615850E+01
 0.1054664543776E+01
 0.1133295576234E+01
 0.1111578742488E+01
 0.1073910632205E+01
 0.1055397689619E+01
 0.1048297603908E+01
 0.1049389909775E+01
 0.1056707962023E+01
 0.1068968052735E+01
 0.1085443311422E+01
 0.1105744957574E+01
 0.1129742199892E+01
 0.1157509369624E+01
 0.1189307069333E+01
 0.1225583681001E+01
 0.1266999945282E+01
 0.1314470994339E+01
 0.1369037432322E+01
 0.1431107617386E+01
 0.1499747040989E+01
 0.1572965464254E+01
 0.1648164288239E+01
 0.1722453529200E+01
 0.1793362901965E+01
 0.1859339190129E+01
 0.1919567054271E+01
 0.1973482081474E+01
 0.2020356835083E+01
 0.2059293503024E+01
 0.2089627890827E+01
 0.2110779450519E+01
 0.2121459550728E+01
 0.2119616351505E+01
 0.2102093919462E+01
 0.2063300400838E+01
 0.1992265206937E+01
 0.1872089392785E+01
 0.1669164127655E+01
 0.1333208765539E+01
 0.1423294919100E+01
 0.4549481256526E+01
 0.1006617927119E+01
 0.1095284882494E+01
 0.1112090745496E+01
 0.1092804733805E+01
 0.1077747884374E+01
 0.1071474154801E+01
 0.1072131598515E+01
 0.1078515576689E+01
 0.1089657098972E+01
 0.1104934103896E+01
 0.1123997440936E+01
 0.1146713432257E+01
 0.1173129477743E+01
 0.1203454793285E+01
 0.1238051154014E+01
 0.1277427548804E+01
 0.1322182853865E+01
 0.1372670663502E+01
 0.1428329044179E+01
 0.1487599471984E+01
 0.1548833709689E+01
 0.1610684629487E+01
 0.1671607182130E+01
 0.1729793788004E+01
 0.1783602023751E+01
 0.1831745873132E+01
 0.1873159407554E+01
 0.1906823156292E+01
 0.1931834586770E+01
 0.1947541934648E+01
 0.1953012528484E+01
 0.1946098330676E+01
 0.1923411930933E+01
 0.1880390475296E+01
 0.1810256556431E+01
 0.1703115963213E+01
 0.1546794140104E+01
 0.1330207085607E+01
 0.1145011326501E+01
 0.1756007472803E+01
 0.4220876196992E+01
 0.9791578655520E+00
 0.1066289222003E+01
 0.1104320096343E+01
 0.1103255372822E+01
 0.1095020449766E+01
 0.1090922364027E+01
 0.1092063484795E+01
 0.1098066695818E+01
 0.1108411511196E+01
 0.1122661028968E+01
 0.1140543122218E+01
 0.1161942899995E+01
 0.1186887881122E+01
 0.1215532114602E+01
 0.1248135499340E+01
 0.1285022865799E+01
 0.1326441228112E+01
 0.1372177429733E+01
 0.1421136859437E+01
 0.1471628915955E+01
 0.1522348365789E+01
 0.1572632640839E+01
 0.1621701641329E+01
 0.1668243606432E+01
 0.1710694563317E+01
 0.1747565656618E+01
 0.1777532713461E+01
 0.1799433850461E+01
 0.1812333881680E+01
 0.1815462959364E+01
 0.1807602499349E+01
 0.1786247967814E+01
 0.1747662790299E+01
 0.1687234199927E+01
 0.1599411004439E+01
 0.1478747580049E+01
 0.1324418114182E+01
 0.1165661328793E+01
 0.1197395477555E+01
 0.2054402311148E+01
 0.3948277259624E+01
 0.9633960961259E+00
 0.1045666511661E+01
 0.1094553973713E+01
 0.1107930949801E+01
 0.1107725050662E+01
 0.1106951873095E+01
 0.1109289708484E+01
 0.1115400004437E+01
 0.1125244581590E+01
 0.1138629074661E+01
 0.1155388983817E+01
 0.1175445467510E+01
 0.1198813256293E+01
 0.1225589956981E+01
 0.1255924991494E+01
 0.1289946780802E+01
 0.1327577312489E+01
 0.1368202219736E+01
 0.1410484960907E+01
 0.1452810901261E+01
 0.1494162210498E+01
 0.1534261768554E+01
 0.1572768981674E+01
 0.1608733228150E+01
 0.1640744388572E+01
 0.1667284565163E+01
 0.1686943061674E+01
 0.1698514411857E+01
 0.1701039080402E+01
 0.1693651900842E+01
 0.1675025099814E+01
 0.1642718242540E+01
 0.1593373471603E+01
 0.1523441239112E+01
 0.1430157950793E+01
 0.1314431142440E+01
 0.1190679258304E+01
 0.1125205909808E+01
 0.1349157351098E+01
 0.2257435117255E+01
 0.3730315850887E+01
 0.9547665019471E+00
 0.1031586954177E+01
 0.1085470027241E+01
 0.1109251402260E+01
 0.1116732700328E+01
 0.1119924007854E+01
 0.1123994166910E+01
 0.1130601051693E+01
 0.1140203301395E+01
 0.1152869570408E+01
 0.1168564306944E+01
 0.1187257381093E+01
 0.1208957242046E+01
 0.1233706582405E+01
 0.1261543671853E+01
 0.1292409988836E+01
 0.1325962978264E+01
 0.1361337448538E+01
 0.1397131371212E+01
 0.1431885217568E+01
 0.1464808917126E+01
 0.1495847730860E+01
 0.1524918269580E+01
 0.1551336044866E+01
 0.1573875192465E+01
 0.1591097129548E+01
 0.1601620959634E+01
 0.1604272060943E+01
 0.1598109500415E+01
 0.1582262261118E+01
 0.1555491533528E+01
 0.1515756777793E+01
 0.1460603804693E+01
 0.1388285453064E+01
 0.1299646370847E+01
 0.1202845254790E+01
 0.1127281668805E+01
 0.1163065881798E+01
 0.1515711120875E+01
 0.2385361377635E+01
 0.3557005059578E+01
 0.9507126693524E+00
 0.1022392793832E+01
 0.1078024370821E+01
 0.1108887978970E+01
 0.1122985430498E+01
 0.1130268868361E+01
 0.1136403964046E+01
 0.1143795125175E+01
 0.1153363240808E+01
 0.1165437227498E+01
 0.1180118718561E+01
 0.1197434420695E+01
 0.1217392144682E+01
 0.1239983961259E+01
 0.1265144413994E+01
 0.1292653427137E+01
 0.1321974263984E+01
 0.1352108556950E+01
 0.1381689740369E+01
 0.1409435053733E+01
 0.1434733261474E+01
 0.1457662464643E+01
 0.1478295457048E+01
 0.1496151304640E+01
 0.1510197878007E+01
 0.1519140937308E+01
 0.1521707196415E+01
 0.1516814445509E+01
 0.1503601837505E+01
 0.1481301385672E+01
 0.1448941467565E+01
 0.1405130579631E+01
 0.1348656723042E+01
 0.1279967534755E+01
 0.1203824005281E+01
 0.1135483441798E+01
 0.1116051660628E+01
 0.1241597859182E+01
 0.1664602592743E+01
 0.2463350542535E+01
 0.3417959576278E+01
 0.9497080059724E+00
 0.1016803748751E+01
 0.1072411703396E+01
 0.1107869734399E+01
 0.1127304029778E+01
 0.1138442378190E+01
 0.1146773474853E+01
 0.1155134772485E+01
 0.1164823579250E+01
 0.1176406694754E+01
 0.1190119815470E+01
 0.1206049666858E+01
 0.1224208161963E+01
 0.1244543513125E+01
 0.1266900534508E+01
 0.1290931386931E+01
 0.1315971754262E+01
 0.1340975273515E+01
 0.1364665300808E+01
 0.1385933368950E+01
 0.1404311062328E+01
 0.1419961067030E+01
 0.1433057931960E+01
 0.1443284912930E+01
 0.1449803836258E+01
 0.1451502339620E+01
 0.1447266852267E+01
 0.1436159739093E+01
 0.1417465687746E+01
 0.1390622595184E+01
 0.1355066946234E+01
 0.1310221482498E+01
 0.1256294984471E+01
 0.1196064306950E+01
 0.1138114012948E+01
 0.1103731383457E+01
 0.1140439914423E+01
 0.1335413414366E+01
 0.1788243125247E+01
 0.2509731434205E+01
 0.3304915372242E+01
 0.9507935425590E+00
 0.1013874917854E+01
 0.1068514821605E+01
 0.1106783645341E+01
 0.1130328600983E+01
 0.1144877501225E+01
 0.1155368232009E+01
 0.1164789559445E+01
 0.1174701268634E+01
 0.1185869050111E+01
 0.1198650491613E+01
 0.1213190992200E+01
 0.1229510312312E+01
 0.1247521447610E+01
 0.1266997623905E+01
 0.1287499264811E+01
 0.1308291322360E+01
 0.1328338127863E+01
 0.1346479991983E+01
 0.1361771573657E+01
 0.1373862442404E+01
 0.1382975265590E+01
 0.1389358690315E+01
 0.1392836335443E+01
 0.1392760418350E+01
 0.1388221005469E+01
 0.1378299074099E+01
 0.1362244670535E+01
 0.1339547562457E+01
 0.1309936076733E+01
 0.1273353931511E+01
 0.1230129119168E+01
 0.1181947109388E+01
 0.1133860362058E+01
 0.1097847498487E+01
 0.1099413008612E+01
 0.1186736347631E+01
 0.1430300006102E+01
 0.1888033945281E+01
 0.2536419339415E+01
 0.3211800192534E+01
 0.9533418748568E+00
 0.1012917229883E+01
 0.1066108844551E+01
 0.1105938533896E+01
 0.1132527267687E+01
 0.1149954865343E+01
 0.1162448974881E+01
 0.1172937374673E+01
 0.1183125424783E+01
 0.1193928176474E+01
 0.1205806144113E+01
 0.1218958382072E+01
 0.1233415216481E+01
 0.1249064122527E+01
 0.1265626590843E+01
 0.1282605519882E+01
 0.1299240688738E+01
 0.1314546023739E+01
 0.1327490219317E+01
 0.1337278097882E+01
 0.1343660961821E+01
 0.1346910440042E+01
 0.1347336856946E+01
 0.1344890290371E+01
 0.1339108437082E+01
 0.1329293912571E+01
 0.1314745005146E+01
 0.1294933168666E+01
 0.1269601512473E+01
 0.1238830783600E+01
 0.1203131961377E+01
 0.1163769573988E+01
 0.1123871503317E+01
 0.1090565003108E+01
 0.1078501710070E+01
 0.1115163882819E+01
 0.1244753744199E+01
 0.1519454225183E+01
 0.1967883432740E+01
 0.2550917143513E+01
 0.3134244868657E+01
 0.9569288008325E+00
 0.1013427980701E+01
 0.1064950880121E+01
 0.1105477273254E+01
 0.1134228497997E+01
 0.1153992423819E+01
 0.1168259608436E+01
 0.1179756957552E+01
 0.1190232329062E+01
 0.1200697238401E+01
 0.1211691871405E+01
 0.1223461223294E+01
 0.1236047913513E+01
 0.1249323796511E+01
 0.1262978237965E+01
 0.1276486810230E+01
 0.1289099057494E+01
 0.1299903327376E+01
 0.1307999595281E+01
 0.1312730897059E+01
 0.1313940166371E+01
 0.1311944634096E+01
 0.1307112314328E+01
 0.1299511891790E+01
 0.1288861246253E+01
 0.1274679130022E+01
 0.1256495014383E+01
 0.1234026090013E+01
 0.1207303838535E+01
 0.1176801310406E+01
 0.1143623886753E+01
 0.1109958254979E+01
 0.1080271292235E+01
 0.1063438495608E+01
 0.1075844656824E+01
 0.1144740908756E+01
 0.1307617996908E+01
 0.1600238157181E+01
 0.2031871843652E+01
 0.2557933427039E+01
 0.3069087915077E+01
 0.9612598178400E+00
 0.1015038541594E+01
 0.1064816684990E+01
 0.1105448168789E+01
 0.1135656118710E+01
 0.1157247146103E+01
 0.1173020260064E+01
 0.1185421989167E+01
 0.1196161131405E+01
 0.1206295427295E+01
 0.1216419765588E+01
 0.1226815668525E+01
 0.1237538867550E+01
 0.1248454984500E+01
 0.1259239292162E+01
 0.1269365335085E+01
 0.1278118281964E+01
 0.1284676018795E+01
 0.1288268270337E+01
 0.1288366235692E+01
 0.1284898550502E+01
 0.1278228794823E+01
 0.1268783077732E+01
 0.1256744308127E+01
 0.1242005137357E+01
 0.1224299769931E+01
 0.1203395885409E+01
 0.1179271895012E+01
 0.1152269781156E+01
 0.1123275515345E+01
 0.1093989950615E+01
 0.1067472126893E+01
 0.1049366397088E+01
 0.1049864894684E+01
 0.1086052078711E+01
 0.1183173691446E+01
 0.1371043756090E+01
 0.1672142095935E+01
 0.2083530345255E+01
 0.2560448067704E+01
 0.3013999536552E+01
 0.9661261468019E+00
 0.1017476839344E+01
 0.1065513138782E+01
 0.1105848615876E+01
 0.1136959297594E+01
 0.1159922544820E+01
 0.1176924698872E+01
 0.1190096971712E+01
 0.1201050327780E+01
 0.1210845075053E+01
 0.1220106393981E+01
 0.1229142170124E+01
 0.1238021278545E+01
 0.1246611481020E+01
 0.1254589647189E+01
 0.1261447617205E+01
 0.1266524690266E+01
 0.1269096843245E+01
 0.1268519892947E+01
 0.1264385080474E+01
 0.1256703481411E+01
 0.1245887730042E+01
 0.1232424431103E+01
 0.1216608122355E+01
 0.1198500681422E+01
 0.1178048130827E+01
 0.1155258000117E+01
 0.1130377602997E+01
 0.1104070241789E+01
 0.1077639737001E+01
 0.1053362964954E+01
 0.1035091970068E+01
 0.1029436179161E+01
 0.1047402818021E+01
 0.1105799035587E+01
 0.1226721123069E+01
 0.1432549625900E+01
 0.1735652473449E+01
 0.2125712839175E+01
 0.2560373295463E+01
 0.2967220164320E+01
 0.9713773996246E+00
 0.1020540828826E+01
 0.1066880038145E+01
 0.1106651064614E+01
 0.1138235752809E+01
 0.1162178086332E+01
 0.1180140753512E+01
 0.1193934791109E+01
 0.1205035041956E+01
 0.1214469185105E+01
 0.1222870533753E+01
 0.1230563250715E+01
 0.1237628757156E+01
 0.1243944026324E+01
 0.1249200553528E+01
 0.1252924194942E+01
 0.1254521124416E+01
 0.1253369581971E+01
 0.1248946930680E+01
 0.1240957950683E+01
 0.1229494465015E+01
 0.1215021531441E+01
 0.1198089241462E+01
 0.1179101888334E+01
 0.1158284796777E+01
 0.1135790048424E+01
 0.1111862456464E+01
 0.1087019446226E+01
 0.1062247205941E+01
 0.1039259877121E+01
 0.1020874022825E+01
 0.1011629070769E+01
 0.1018846363798E+01
 0.1053827547174E+01
 0.1132305414541E+01
 0.1272695522445E+01
 0.1490823543382E+01
 0.1791657540245E+01
 0.2160664304082E+01
 0.2558960304288E+01
 0.2927384445786E+01
 0.9769040144178E+00
 0.1024079751949E+01
 0.1068787524143E+01
 0.1107818046292E+01
 0.1139548757710E+01
 0.1164138375976E+01
 0.1182812457266E+01
 0.1197075642556E+01
 0.1208245071977E+01
 0.1217289394642E+01
 0.1224831193926E+01
 0.1231201548403E+01
 0.1236493379142E+01
 0.1240598542636E+01
 0.1243233518811E+01
 0.1243969873349E+01
 0.1242288979762E+01
 0.1237672613296E+01
 0.1229714870718E+01
 0.1218228783075E+01
 0.1203386024227E+01
 0.1185707346944E+01
 0.1165809113602E+01
 0.1144203575606E+01
 0.1121273409551E+01
 0.1097369448996E+01
 0.1072968027919E+01
 0.1048852804146E+01
 0.1026327126621E+01
 0.1007497857638E+01
 0.9956701006080E+00
 0.9959420154560E+00
 0.1016069379935E+01
 0.1067163362268E+01
 0.1163328316660E+01
 0.1319239673822E+01
 0.1545272356682E+01
 0.1841145055760E+01
 0.2190135099489E+01
 0.2557055894107E+01
 0.2893404633187E+01
 0.9826256269099E+00
 0.1027980818539E+01
 0.1071132048677E+01
 0.1109310566732E+01
 0.1140939173624E+01
 0.1165901186031E+01
 0.1185062983846E+01
 0.1199646942833E+01
 0.1210803613197E+01
 0.1219424364956E+01
 0.1226105947623E+01
 0.1231178160457E+01
 0.1234744112280E+01
 0.1236714854677E+01
 0.1236839724893E+01
 0.1234744298828E+01
 0.1229990133002E+01
 0.1222161894580E+01
 0.1210965612268E+01
 0.1196318109762E+01
 0.1178470284863E+01
 0.1158001332687E+01
 0.1135596041850E+01
 0.1111872539607E+01
 0.1087364416593E+01
 0.1062612855617E+01
 0.1038317628682E+01
 0.1015520909281E+01
 0.9958317514678E+00
 0.9817235819663E+00
 0.9769255595746E+00
 0.9869481564105E+00
 0.1019701268265E+01
 0.1085700732873E+01
 0.1197112903043E+01
 0.1365115200273E+01
 0.1595723974228E+01
 0.1885051026182E+01
 0.2215483264854E+01
 0.2555274406664E+01
 0.2864396586352E+01
 0.9884831631610E+00
 0.1032159653829E+01
 0.1073832169102E+01
 0.1111092537034E+01
 0.1142433751903E+01
 0.1167544045936E+01
 0.1186997766633E+01
 0.1201763879495E+01
 0.1212826531942E+01
 0.1220988566978E+01
 0.1226809571815E+01
 0.1230611283375E+01
 0.1232505585783E+01
 0.1232425806552E+01
 0.1230159813728E+01
 0.1225392712859E+01
 0.1217768723921E+01
 0.1206973493995E+01
 0.1192820287243E+01
 0.1175325769026E+01
 0.1154819362105E+01
 0.1131940714137E+01
 0.1107444378182E+01
 0.1082051820764E+01
 0.1056440798064E+01
 0.1031333722739E+01
 0.1007644131720E+01
 0.9866621579872E+00
 0.9702864526861E+00
 0.9613232520539E+00
 0.9638498022025E+00
 0.9836325906921E+00
 0.1028474630371E+01
 0.1107996161917E+01
 0.1232321010144E+01
 0.1409527210581E+01
 0.1642241723706E+01
 0.1924186379707E+01
 0.2237735689598E+01
 0.2554120040730E+01
 0.2839641475166E+01
 0.9944333267795E+00
 0.1036553381437E+01
 0.1076824692964E+01
 0.1113132872797E+01
 0.1144050742503E+01
 0.1169129438118E+01
 0.1188707454500E+01
 0.1203530320099E+01
 0.1214422059731E+01
 0.1222091415233E+01
 0.1227052978752E+01
 0.1229615134490E+01
 0.1229897164177E+01
 0.1227856696556E+01
 0.1223323932625E+01
 0.1216046795206E+01
 0.1205752785986E+01
 0.1192225772183E+01
 0.1175381667027E+01
 0.1155333284752E+01
 0.1132487594446E+01
 0.1107545892400E+01
 0.1081332972800E+01
 0.1054670606380E+01
 0.1028373731293E+01
 0.1003336469472E+01
 0.9806754241677E+00
 0.9619160001179E+00
 0.9492263665957E+00
 0.9457050489685E+00
 0.9556927910093E+00
 0.9850555953472E+00
 0.1041265989354E+01
 0.1132856937398E+01
 0.1267954434719E+01
 0.1451989666475E+01
 0.1685012554970E+01
 0.1959225566928E+01
 0.2257578615750E+01
 0.2554062760355E+01
 0.2818581587499E+01
 0.1000444646472E+01
 0.1041115611724E+01
 0.1080061306847E+01
 0.1115406264392E+01
 0.1145803600986E+01
 0.1170708779833E+01
 0.1190270534279E+01
 0.1205039882316E+01
 0.1215690789602E+01
 0.1222836695823E+01
 0.1226942412970E+01
 0.1228299130956E+01
 0.1227032284403E+01
 0.1223124962960E+01
 0.1216451959547E+01
 0.1206825542675E+01
 0.1194055735680E+01
 0.1178021291284E+01
 0.1158736263329E+01
 0.1136406001770E+01
 0.1111513650165E+01
 0.1084822545888E+01
 0.1057227380811E+01
 0.1029646728719E+01
 0.1003025588975E+01
 0.9784201191370E+00
 0.9571386605937E+00
 0.9409275192554E+00
 0.9322007957951E+00
 0.9343031001111E+00
 0.9517494101321E+00
 0.9903583101361E+00
 0.1057096666474E+01
 0.1159315794314E+01
 0.1303283074550E+01
 0.1492228261265E+01
 0.1724276526254E+01
 0.1990741614266E+01
 0.2275380452233E+01
 0.2555351443945E+01
 0.2800957017128E+01
 0.1006492721955E+01
 0.1045809264271E+01
 0.1083501558316E+01
 0.1117888767190E+01
 0.1147698988859E+01
 0.1172321216670E+01
 0.1191751626388E+01
 0.1206373543698E+01
 0.1216723233012E+01
 0.1223321119049E+01
 0.1226580259883E+01
 0.1226772384024E+01
 0.1224028227303E+01
 0.1218356939307E+01
 0.1209678947547E+01
 0.1197870933366E+01
 0.1182823440902E+01
 0.1164506028355E+01
 0.1143025969070E+01
 0.1118676982061E+01
 0.1092016074730E+01
 0.1063867726486E+01
 0.1035194791571E+01
 0.1007007913110E+01
 0.9803739170005E+00
 0.9565000083336E+00
 0.9368729447771E+00
 0.9234422871137E+00
 0.9188394221346E+00
 0.9266028779091E+00
 0.9513316767300E+00
 0.9986693321647E+00
 0.1074958835767E+01
 0.1186362769776E+01
 0.1337492466478E+01
 0.1529795682889E+01
 0.1759997509474E+01
 0.2018955931674E+01
 0.2291383879265E+01
 0.2556999477309E+01
 0.2790550531253E+01
 0.1012565408610E+01
 0.1050611726568E+01
 0.1087120999311E+01
 0.1120567884915E+01
 0.1149748384952E+01
 0.1174005309944E+01
 0.1193212128871E+01
 0.1207608492889E+01
 0.1217606134458E+01
 0.1223636924108E+01
 0.1226062148189E+01
 0.1225132906077E+01
 0.1220984561924E+01
 0.1213652360965E+01
 0.1203102402947E+01
 0.1189274787900E+01
 0.1172137841706E+01
 0.1151747600571E+01
 0.1128299681845E+01
 0.1102171949043E+01
 0.1073992559742E+01
 0.1044645597341E+01
 0.1015159793525E+01
 0.9866329465124E+00
 0.9602456819378E+00
 0.9373455946360E+00
 0.9195845242300E+00
 0.9090967429406E+00
 0.9087003380778E+00
 0.9220743808161E+00
 0.9538178110046E+00
 0.1009296384129E+01
 0.1094160826451E+01
 0.1213432620251E+01
 0.1370283854255E+01
 0.1564740404943E+01
 0.1792529291473E+01
 0.2044343546546E+01
 0.2305903611393E+01
 0.2558916775346E+01
 0.2783974201692E+01
 0.1018651863786E+01
 0.1055508191852E+01
 0.1090903400850E+01
 0.1123436981378E+01
 0.1151964559271E+01
 0.1175796974493E+01
 0.1194708726760E+01
 0.1208816742472E+01
 0.1218421145083E+01
 0.1223870819292E+01
 0.1225476455519E+01
 0.1223468013422E+01
 0.1217984802651E+01
 0.1209087657961E+01
 0.1196787589014E+01
 0.1181086404646E+01
 0.1162027138768E+01
 0.1139748115229E+01
 0.1114528836404E+01
 0.1086827454251E+01
 0.1057340707284E+01
 0.1027010737526E+01
 0.9969300046952E+00
 0.9682791753693E+00
 0.9423458607304E+00
 0.9206089721212E+00
 0.9048736354297E+00
 0.8974413517886E+00
 0.9012870516276E+00
 0.9201795428490E+00
 0.9586437524019E+00
 0.1021689901993E+01
 0.1114245064123E+01
 0.1240263364347E+01
 0.1401678272321E+01
 0.1597384093400E+01
 0.1822404685447E+01
 0.2067469297944E+01
 0.2319245636433E+01
 0.2561480574925E+01
 0.2777778253482E+01
 0.1024746254761E+01
 0.1060488109599E+01
 0.1094836614467E+01
 0.1126491023205E+01
 0.1154357986142E+01
 0.1177726010597E+01
 0.1196289422671E+01
 0.1210060575765E+01
 0.1219240439030E+01
 0.1224101320611E+01
 0.1224905595205E+01
 0.1221862330926E+01
 0.1215114318113E+01
 0.1204747215068E+01
 0.1190815643129E+01
 0.1173380854381E+01
 0.1152557151547E+01
 0.1128560831368E+01
 0.1101750795719E+01
 0.1072661492619E+01
 0.1042055350610E+01
 0.1010930589793E+01
 0.9804408802903E+00
 0.9518453585022E+00
 0.9265319571386E+00
 0.9061020124371E+00
 0.8925019703671E+00
 0.8881822940047E+00
 0.8962441347507E+00
 0.9204973958300E+00
 0.9653299821915E+00
 0.1035343269853E+01
 0.1134741407527E+01
 0.1266504747352E+01
 0.1431516126900E+01
 0.1627779296975E+01
 0.1849842245922E+01
 0.2088595495165E+01
 0.2331646044198E+01
 0.2564503455691E+01
 0.2772898211266E+01
 0.1030846012683E+01
 0.1065545549401E+01
 0.1098913585939E+01
 0.1129728545052E+01
 0.1156939794857E+01
 0.1179819869292E+01
 0.1197997746499E+01
 0.1211396766935E+01
 0.1220130410444E+01
 0.1224401202510E+01
 0.1224426235164E+01
 0.1220394513348E+01
 0.1212452035646E+01
 0.1200708342362E+01
 0.1185259979571E+01
 0.1166224977256E+01
 0.1143785212838E+01
 0.1118230556343E+01
 0.1089994791204E+01
 0.1059684540764E+01
 0.1028124765506E+01
 0.9963674380265E+00
 0.9656246428651E+00
 0.9372295291223E+00
 0.9126638408999E+00
 0.8936426028318E+00
 0.8822414695606E+00
 0.8810411213686E+00
 0.8932385432768E+00
 0.9226401606169E+00
 0.9734463839011E+00
 0.1049818842767E+01
 0.1155263285146E+01
 0.1291888548704E+01
 0.1459696435035E+01
 0.1655998235253E+01
 0.1875036920918E+01
 0.2107951720142E+01
 0.2343245560124E+01
 0.2567929809015E+01
 0.2769375032513E+01
 0.1036951104225E+01
 0.1070678205755E+01
 0.1103131309888E+01
 0.1133151064370E+01
 0.1159721823287E+01
 0.1182104194886E+01
 0.1199873465137E+01
 0.1212877195773E+01
 0.1221152081544E+01
 0.1224837713491E+01
 0.1224109401987E+01
 0.1219137338316E+01
 0.1210070616560E+01
 0.1197041604317E+01
 0.1180186812016E+01
 0.1159678102837E+01
 0.1135761063266E+01
 0.1108794682845E+01
 0.1079283078633E+01
 0.1047900819173E+01
 0.1015532027703E+01
 0.9832798392293E+00
 0.9524117528043E+00
 0.9243304501636E+00
 0.9006051165844E+00
 0.8830558503608E+00
 0.8738753139368E+00
 0.8757555676243E+00
 0.8919602949637E+00
 0.9262534444306E+00
 0.9826104859187E+00
 0.1064741643478E+01
 0.1175495084398E+01
 0.1316211289795E+01
 0.1486160330510E+01
 0.1682121650585E+01
 0.1898161880727E+01
 0.2125722204277E+01
 0.2354137826928E+01
 0.2571691908652E+01
 0.2767088186506E+01
 0.1043063460187E+01
 0.1075886598632E+01
 0.1107489986998E+01
 0.1136762541515E+01
 0.1162716571143E+01
 0.1184603188821E+01
 0.1201953129829E+01
 0.1214549367543E+01
 0.1222361487500E+01
 0.1225472820021E+01
 0.1224020639805E+01
 0.1218157859337E+01
 0.1208036680052E+01
 0.1193811173427E+01
 0.1175655668739E+01
 0.1153792730219E+01
 0.1128527679129E+01
 0.1100284141382E+01
 0.1069631997864E+01
 0.1037309447720E+01
 0.1004256250019E+01
 0.9716239164600E+00
 0.9407322150611E+00
 0.9130488768922E+00
 0.8902242737910E+00
 0.8741750586175E+00
 0.8671987075446E+00
 0.8720801698393E+00
 0.8921228832232E+00
 0.9310159088479E+00
 0.9924849202966E+00
 0.1079792684188E+01
 0.1195180684562E+01
 0.1339320154598E+01
 0.1510878441638E+01
 0.1706232257347E+01
 0.1919366925833E+01
 0.2142052123483E+01
 0.2364380877065E+01
 0.2575715761223E+01
 0.2765879714342E+01
 0.1049186519687E+01
 0.1081173433191E+01
 0.1111992334202E+01
 0.1140568898196E+01
 0.1165937093381E+01
 0.1187339845820E+01
 0.1204270495483E+01
 0.1216456849427E+01
 0.1223810032576E+01
 0.1226363464439E+01
 0.1224220206760E+01
 0.1217517601887E+01
 0.1206411060904E+01
 0.1191075197445E+01
 0.1171719895223E+01
 0.1148615169135E+01
 0.1122122039470E+01
 0.1092724276407E+01
 0.1061052944476E+01
 0.1027905501208E+01
 0.9942737048164E+00
 0.9613545188125E+00
 0.9305167320303E+00
 0.9032886454140E+00
 0.8813956508640E+00
 0.8668425224996E+00
 0.8620194976460E+00
 0.8697867229159E+00
 0.8934634177388E+00
 0.9366384449284E+00
 0.1002774322218E+01
 0.1094702302582E+01
 0.1214113346569E+01
 0.1361101594082E+01
 0.1533841618435E+01
 0.1728410149685E+01
 0.1938779451417E+01
 0.2157054371946E+01
 0.2374008689987E+01
 0.2579926382987E+01
 0.2765585165135E+01
 0.1055324864049E+01
 0.1086543084518E+01
 0.1116643017855E+01
 0.1144577594639E+01
 0.1169396862847E+01
 0.1190336099738E+01
 0.1206856840269E+01
 0.1218639635144E+01
 0.1225544814987E+01
 0.1227561826106E+01
 0.1224763295209E+01
 0.1217272788888E+01
 0.1205249089694E+01
 0.1188886173280E+01
 0.1168427143029E+01
 0.1144186147060E+01
 0.1116575842585E+01
 0.1086135659696E+01
 0.1053553268695E+01
 0.1019680981602E+01
 0.9855588502124E+00
 0.9524262701423E+00
 0.9216977300338E+00
 0.8949576233902E+00
 0.8740002588916E+00
 0.8609101942474E+00
 0.8581586784977E+00
 0.8686645904740E+00
 0.8957425049277E+00
 0.9428629347912E+00
 0.1013221894530E+01
 0.1109243790772E+01
 0.1232126962420E+01
 0.1381472219370E+01
 0.1555054048280E+01
 0.1748730029559E+01
 0.1956506496136E+01
 0.2170816241420E+01
 0.2383039106315E+01
 0.2584249422396E+01
 0.2766044642230E+01
 0.1061483920557E+01
 0.1092001181117E+01
 0.1121448187468E+01
 0.1148797262977E+01
 0.1173109621743E+01
 0.1193612907558E+01
 0.1209741208992E+01
 0.1221134449293E+01
 0.1227608920414E+01
 0.1229115577868E+01
 0.1225700263708E+01
 0.1217474582305E+01
 0.1204600882754E+01
 0.1187291316500E+01
 0.1165819836178E+01
 0.1140541375671E+01
 0.1111916166233E+01
 0.1080534834608E+01
 0.1047137093591E+01
 0.1012625697182E+01
 0.9780852494862E+00
 0.9447944969622E+00
 0.9142102532669E+00
 0.8879685227640E+00
 0.8679264724941E+00
 0.8562402300848E+00
 0.8554507820504E+00
 0.8685208659704E+00
 0.8987438808030E+00
 0.9494606971333E+00
 0.1023605848819E+01
 0.1123227514859E+01
 0.1249088634253E+01
 0.1400371603801E+01
 0.1574528250806E+01
 0.1767259764970E+01
 0.1972637272498E+01
 0.2183405044256E+01
 0.2391478755303E+01
 0.2588612268152E+01
 0.2767107430773E+01
 0.1067669721864E+01
 0.1097554267120E+01
 0.1126415092194E+01
 0.1153237392684E+01
 0.1177089234165E+01
 0.1197190292070E+01
 0.1212950598476E+01
 0.1223975001237E+01
 0.1230041684896E+01
 0.1231068132005E+01
 0.1227076871496E+01
 0.1218169330757E+01
 0.1204511632843E+01
 0.1186332919880E+01
 0.1163935611690E+01
 0.1137712076424E+01
 0.1108166073707E+01
 0.1075934994828E+01
 0.1041806057036E+01
 0.1006728054207E+01
 0.9718263912204E+00
 0.9384160462849E+00
 0.9079927406612E+00
 0.8822395954621E+00
 0.8630706125392E+00
 0.8527054417470E+00
 0.8537441724713E+00
 0.8691803970674E+00
 0.9022738352461E+00
 0.9562307259273E+00
 0.1033735889331E+01
 0.1136495624784E+01
 0.1264892464755E+01
 0.1417756637655E+01
 0.1592281495846E+01
 0.1784059829330E+01
 0.1987245711183E+01
 0.2194872497106E+01
 0.2399326391956E+01
 0.2592945111076E+01
 0.2768634238218E+01
 0.1073888710232E+01
 0.1103209528203E+01
 0.1131551766207E+01
 0.1157908063731E+01
 0.1181349547763E+01
 0.1201087358523E+01
 0.1216510099710E+01
 0.1227192197443E+01
 0.1232878928906E+01
 0.1233458871754E+01
 0.1228934508279E+01
 0.1219398814795E+01
 0.1205021892694E+01
 0.1186048694704E+01
 0.1162807730042E+01
 0.1135725462927E+01
 0.1105345164717E+01
 0.1072346597165E+01
 0.1037559977374E+01
 0.1001975761769E+01
 0.9667564124596E+00
 0.9332499984062E+00
 0.9029876943440E+00
 0.8776952245667E+00
 0.8593374353447E+00
 0.8501896656768E+00
 0.8529012533194E+00
 0.8704856876619E+00
 0.9061604759097E+00
 0.9629978284064E+00
 0.1043449868755E+01
 0.1148917400109E+01
 0.1279454428807E+01
 0.1433597144370E+01
 0.1608333291274E+01
 0.1799183291885E+01
 0.2000392783410E+01
 0.2205258117189E+01
 0.2406575378978E+01
 0.2597182006714E+01
 0.2770498312893E+01
 0.1080147578271E+01
 0.1108974569335E+01
 0.1136866771424E+01
 0.1162819722484E+01
 0.1185904268718E+01
 0.1205322295482E+01
 0.1220443007344E+01
 0.1230814318916E+01
 0.1236153163850E+01
 0.1236323365146E+01
 0.1231310413324E+01
 0.1221200483091E+01
 0.1206167845474E+01
 0.1186472090741E+01
 0.1162465453844E+01
 0.1134605180752E+01
 0.1103470073712E+01
 0.1069777912611E+01
 0.1034397448480E+01
 0.9983564573515E+00
 0.9628507348097E+00
 0.9292582875259E+00
 0.8991422556864E+00
 0.8742664291640E+00
 0.8566405463548E+00
 0.8485880644771E+00
 0.8527985989315E+00
 0.8722966972932E+00
 0.9102528809910E+00
 0.9696107471619E+00
 0.1052610691535E+01
 0.1160385215264E+01
 0.1292708167615E+01
 0.1447872486621E+01
 0.1622703636553E+01
 0.1812676101660E+01
 0.2012128511511E+01
 0.2214591879727E+01
 0.2413215653669E+01
 0.2601261855470E+01
 0.2772586061210E+01
 0.1086453140212E+01
 0.1114857235599E+01
 0.1142368988792E+01
 0.1167982996125E+01
 0.1190766852658E+01
 0.1209912367476E+01
 0.1224770904905E+01
 0.1234867169360E+01
 0.1239893772441E+01
 0.1239693558763E+01
 0.1234237879041E+01
 0.1223607673741E+01
 0.1207981556667E+01
 0.1187632590578E+01
 0.1162934391977E+01
 0.1134371703470E+01
 0.1102554915668E+01
 0.1068235516694E+01
 0.1032316366358E+01
 0.9958582566877E+00
 0.9600866190862E+00
 0.9264062382219E+00
 0.8964086992760E+00
 0.8718912945344E+00
 0.8549027493957E+00
 0.8478073698418E+00
 0.8533270206245E+00
 0.8744905618514E+00
 0.9144201928852E+00
 0.9759403408665E+00
 0.1061103517033E+01
 0.1170811094277E+01
 0.1304601569168E+01
 0.1460568953006E+01
 0.1635411824356E+01
 0.1824577512434E+01
 0.2022493671602E+01
 0.2222896332050E+01
 0.2419235334480E+01
 0.2605129267827E+01
 0.2774797396032E+01
 0.1092812228913E+01
 0.1120865469394E+01
 0.1148067451342E+01
 0.1173408542079E+01
 0.1195950413163E+01
 0.1214873905086E+01
 0.1229513732429E+01
 0.1239374198984E+01
 0.1244127164678E+01
 0.1243597950075E+01
 0.1237746435512E+01
 0.1226649816172E+01
 0.1210491202907E+01
 0.1189555974545E+01
 0.1164236806467E+01
 0.1135042683164E+01
 0.1102611678390E+01
 0.1067724718886E+01
 0.1031314387814E+01
 0.9944702296625E+00
 0.9584436418655E+00
 0.9246630229794E+00
 0.8947448515795E+00
 0.8705153350583E+00
 0.8540563382455E+00
 0.8477660732934E+00
 0.8543915785620E+00
 0.8769612617492E+00
 0.9185507023637E+00
 0.9818778840322E+00
 0.1068833293872E+01
 0.1180123816013E+01
 0.1315094018073E+01
 0.1471677762757E+01
 0.1646475635552E+01
 0.1834920562086E+01
 0.2031521222887E+01
 0.2230188297124E+01
 0.2424622047138E+01
 0.2608735299413E+01
 0.2777045933234E+01
 0.1099231614978E+01
 0.1127007198677E+01
 0.1153971213265E+01
 0.1179106928857E+01
 0.1201467647972E+01
 0.1220222295710E+01
 0.1234689840676E+01
 0.1244356606911E+01
 0.1248876910039E+01
 0.1248061736518E+01
 0.1241862012440E+01
 0.1230352609415E+01
 0.1213721273763E+01
 0.1192264553148E+01
 0.1166391880189E+01
 0.1136633254782E+01
 0.1103650561897E+01
 0.1068249932770E+01
 0.1031389324252E+01
 0.9941828068678E+00
 0.9579041003373E+00
 0.9240020488552E+00
 0.8941144434524E+00
 0.8700917989498E+00
 0.8540433386049E+00
 0.8483945726935E+00
 0.8559115521150E+00
 0.8796192632843E+00
 0.9225509640103E+00
 0.9873335251239E+00
 0.1075722630267E+01
 0.1188266513705E+01
 0.1324154199738E+01
 0.1481193545193E+01
 0.1655910800640E+01
 0.1843732541596E+01
 0.2039237487008E+01
 0.2236480243410E+01
 0.2429364007666E+01
 0.2612038055234E+01
 0.2779259091543E+01
 0.1105717945527E+01
 0.1133290252621E+01
 0.1160089251213E+01
 0.1185088546142E+01
 0.1207330783613E+01
 0.1225971978209E+01
 0.1240316036114E+01
 0.1249833425650E+01
 0.1254163847540E+01
 0.1253106941088E+01
 0.1246607076882E+01
 0.1234738174419E+01
 0.1217692744124E+01
 0.1195777365101E+01
 0.1169415944240E+01
 0.1139156293906E+01
 0.1105680265161E+01
 0.1069814988002E+01
 0.1032539472512E+01
 0.9949881198806E+00
 0.9584533498523E+00
 0.9244012789189E+00
 0.8944874029069E+00
 0.8705819212880E+00
 0.8548157068264E+00
 0.8496352827096E+00
 0.8578203839216E+00
 0.8823911614480E+00
 0.9263449828010E+00
 0.9922349380149E+00
 0.1081710004697E+01
 0.1195194726471E+01
 0.1331758376432E+01
 0.1489113197270E+01
 0.1663730651144E+01
 0.1851035427871E+01
 0.2045663111433E+01
 0.2241781381334E+01
 0.2433450896403E+01
 0.2615003168329E+01
 0.2781378157490E+01
 0.1112277700347E+01
 0.1139722301607E+01
 0.1166430394424E+01
 0.1191363541789E+01
 0.1213551538093E+01
 0.1232136442960E+01
 0.1246407618952E+01
 0.1255821589391E+01
 0.1260006174180E+01
 0.1258752513506E+01
 0.1252000744726E+01
 0.1239825177889E+01
 0.1222423214784E+01
 0.1200110339105E+01
 0.1173322663841E+01
 0.1142622627615E+01
 0.1108708220671E+01
 0.1072423385347E+01
 0.1034763884965E+01
 0.9968802785452E+00
 0.9600800785227E+00
 0.9258434936366E+00
 0.8958400935238E+00
 0.8719551302807E+00
 0.8563354899450E+00
 0.8514427153745E+00
 0.8600656096470E+00
 0.8852193455294E+00
 0.9298734984724E+00
 0.9965261833835E+00
 0.1086748304341E+01
 0.1200874852312E+01
 0.1337889055712E+01
 0.1495435032865E+01
 0.1669945894219E+01
 0.1856846254004E+01
 0.2050813832304E+01
 0.2246098518747E+01
 0.2436874538525E+01
 0.2617604165603E+01
 0.2783358291096E+01
 0.1118917164222E+01
 0.1146310819479E+01
 0.1173003281273E+01
 0.1197941783948E+01
 0.1220141101227E+01
 0.1238728238094E+01
 0.1252978415483E+01
 0.1262335986993E+01
 0.1266419511570E+01
 0.1265014405640E+01
 0.1258058863758E+01
 0.1245628925111E+01
 0.1227927018801E+01
 0.1205276417416E+01
 0.1178123181528E+01
 0.1147041197962E+01
 0.1112740777164E+01
 0.1076078495999E+01
 0.1038062581048E+01
 0.9998555885009E+00
 0.9627765231347E+00
 0.9283164972116E+00
 0.8981555037787E+00
 0.8741892118560E+00
 0.8585749522600E+00
 0.8537835381274E+00
 0.8626087863495E+00
 0.8880617076092E+00
 0.9330933898734E+00
 0.1000166791332E+01
 0.1090803678002E+01
 0.1205282960646E+01
 0.1342533989384E+01
 0.1500158159852E+01
 0.1674564463966E+01
 0.1861177400969E+01
 0.2054701049723E+01
 0.2249436698518E+01
 0.2439629407337E+01
 0.2619822723004E+01
 0.2785168502996E+01
 0.1125642414469E+01
 0.1153063066785E+01
 0.1179816340922E+01
 0.1204832847533E+01
 0.1227110132815E+01
 0.1245758983112E+01
 0.1260040806353E+01
 0.1269389500999E+01
 0.1273416951411E+01
 0.1271905621029E+01
 0.1264794067540E+01
 0.1252161420709E+01
 0.1234215292575E+01
 0.1211285640381E+01
 0.1183826217110E+01
 0.1152419177900E+01
 0.1117783330687E+01
 0.1080783705728E+01
 0.1042436701201E+01
 0.1003912710409E+01
 0.9665386283039E+00
 0.9318132711146E+00
 0.9014233895519E+00
 0.8772704347900E+00
 0.8615166712936E+00
 0.8566366147586E+00
 0.8654254301898E+00
 0.8908914107228E+00
 0.9359772173101E+00
 0.1003131074403E+01
 0.1093854694680E+01
 0.1208403935963E+01
 0.1345685462616E+01
 0.1503282045604E+01
 0.1677591424284E+01
 0.1864036807427E+01
 0.2057332230752E+01
 0.2251799639442E+01
 0.2441712964287E+01
 0.2621648821038E+01
 0.2786791601172E+01
 0.1132459323197E+01
 0.1159986094267E+01
 0.1186877799210E+01
 0.1212046024444E+01
 0.1234468778606E+01
 0.1253239390270E+01
 0.1267605751257E+01
 0.1276993032915E+01
 0.1281009079513E+01
 0.1279436237657E+01
 0.1272215798881E+01
 0.1259431395948E+01
 0.1241296010396E+01
 0.1218145190990E+01
 0.1190438123888E+01
 0.1158762039598E+01
 0.1123840404397E+01
 0.1086542504695E+01
 0.1047888604548E+01
 0.1009052762710E+01
 0.9713661511186E+00
 0.9363320772945E+00
 0.9056403723323E+00
 0.8811936388708E+00
 0.8651536061795E+00
 0.8599930342940E+00
 0.8685049721494E+00
 0.8936967287304E+00
 0.9385129140064E+00
 0.1005407673822E+01
 0.1095891796442E+01
 0.1210230926999E+01
 0.1347339839404E+01
 0.1504806238512E+01
 0.1679028901432E+01
 0.1865428091166E+01
 0.2058711146604E+01
 0.2253189991377E+01
 0.2443125844309E+01
 0.2623080805501E+01
 0.2788224108400E+01
 0.1139373574213E+01
 0.1167086766476E+01
 0.1194195708677E+01
 0.1219590357569E+01
 0.1242226704292E+01
 0.1261179294101E+01
 0.1275682810378E+01
 0.1285155514812E+01
 0.1289203978072E+01
 0.1287613403385E+01
 0.1280330302106E+01
 0.1267444301835E+01
 0.1249173981850E+01
 0.1225859399104E+01
 0.1197962901058E+01
 0.1166073575353E+01
 0.1130915677556E+01
 0.1093358523680E+01
 0.1054421911303E+01
 0.1015279369107E+01
 0.9772627126303E+00
 0.9418765124995E+00
 0.9108099945549E+00
 0.8859622876642E+00
 0.8694891406988E+00
 0.8638561316900E+00
 0.8718507381804E+00
 0.8964809663201E+00
 0.9407036340297E+00
 0.1006999340590E+01
 0.1096917038272E+01
 0.1210765085592E+01
 0.1347497344101E+01
 0.1504730226679E+01
 0.1678876034410E+01
 0.1865350579820E+01
 0.2058837949302E+01
 0.2253609412529E+01
 0.2443871892963E+01
 0.2624125357409E+01
 0.2789476152744E+01
 0.1146390694859E+01
 0.1174371805946E+01
 0.1201778003259E+01
 0.1227474699137E+01
 0.1250393147987E+01
 0.1269587689319E+01
 0.1284280162498E+01
 0.1293883906877E+01
 0.1298007205598E+01
 0.1296441303341E+01
 0.1289140583477E+01
 0.1276202267472E+01
 0.1257850811751E+01
 0.1234429705230E+01
 0.1206402162407E+01
 0.1174355871411E+01
 0.1139011964215E+01
 0.1101235517304E+01
 0.1062041490533E+01
 0.1022598651425E+01
 0.9842357968044E+00
 0.9484555142653E+00
 0.9169427326203E+00
 0.8915884866186E+00
 0.8745371022823E+00
 0.8682415027278E+00
 0.8754799574444E+00
 0.8992624634199E+00
 0.9425677598741E+00
 0.1007922951512E+01
 0.1096944110672E+01
 0.1210015587161E+01
 0.1346162069093E+01
 0.1503053424803E+01
 0.1677128937538E+01
 0.1863799249726E+01
 0.2057709090215E+01
 0.2253058472552E+01
 0.2443958058515E+01
 0.2624797374815E+01
 0.2790571332366E+01
 0.1153516103455E+01
 0.1181847858891E+01
 0.1209632578801E+01
 0.1235707794411E+01
 0.1258976991752E+01
 0.1278472777031E+01
 0.1293404619155E+01
 0.1303183179921E+01
 0.1307421753424E+01
 0.1305921098288E+01
 0.1298646338996E+01
 0.1285704023138E+01
 0.1267324822282E+01
 0.1243854583714E+01
 0.1215755061296E+01
 0.1183609234769E+01
 0.1148131141655E+01
 0.1110177294265E+01
 0.1070753393178E+01
 0.1031019167542E+01
 0.9922966964062E+00
 0.9560833178718E+00
 0.9240559668959E+00
 0.8980929660765E+00
 0.8803217570659E+00
 0.8731770137106E+00
 0.8794237993665E+00
 0.9020746842730E+00
 0.9441390692536E+00
 0.1008209759407E+01
 0.1095998644649E+01
 0.1207999933137E+01
 0.1343342209479E+01
 0.1499775290210E+01
 0.1673780676088E+01
 0.1860764573535E+01
 0.2055317080817E+01
 0.2251536381596E+01
 0.2443394139300E+01
 0.2625119767688E+01
 0.2791546557159E+01
 0.1160755173457E+01
 0.1189521584066E+01
 0.1217767401315E+01
 0.1244298392418E+01
 0.1267986853036E+01
 0.1287842019151E+01
 0.1303061633931E+01
 0.1313056281582E+01
 0.1317447977559E+01
 0.1316050833075E+01
 0.1308843849113E+01
 0.1295944788021E+01
 0.1277590937543E+01
 0.1254129425703E+01
 0.1226018172339E+01
 0.1193832073334E+01
 0.1158274028876E+01
 0.1120187594690E+01
 0.1080564730127E+01
 0.1040551793786E+01
 0.1001460404788E+01
 0.9647793629312E+00
 0.9321739073272E+00
 0.9055050281131E+00
 0.8868777803237E+00
 0.8787028052618E+00
 0.8837274378260E+00
 0.9049663879786E+00
 0.9454670575335E+00
 0.1007905876398E+01
 0.1094118802978E+01
 0.1204744544404E+01
 0.1339050536649E+01
 0.1494895579345E+01
 0.1668821262635E+01
 0.1856232279308E+01
 0.2051650094323E+01
 0.2249040542331E+01
 0.2442192384205E+01
 0.2625123165850E+01
 0.2792451871147E+01
 0.1168113315886E+01
 0.1197399767102E+01
 0.1226190645673E+01
 0.1253255385967E+01
 0.1277431197140E+01
 0.1297702200685E+01
 0.1313255305488E+01
 0.1323504084429E+01
 0.1328083504367E+01
 0.1326825314275E+01
 0.1319725840138E+01
 0.1306916122917E+01
 0.1288640531155E+01
 0.1265246382637E+01
 0.1237185330506E+01
 0.1205020730061E+01
 0.1169440215546E+01
 0.1131269914683E+01
 0.1091483494958E+01
 0.1051209550839E+01
 0.1011745452006E+01
 0.9745681475673E+00
 0.9413274724836E+00
 0.9138624552683E+00
 0.8942502006006E+00
 0.8848712879802E+00
 0.8884501381823E+00
 0.9080018735015E+00
 0.9466174084275E+00
 0.1007072987709E+01
 0.1091356164603E+01
 0.1200285662509E+01
 0.1333305133112E+01
 0.1488414765918E+01
 0.1662237688179E+01
 0.1850183025214E+01
 0.2046691404216E+01
 0.2245565917823E+01
 0.2440366940697E+01
 0.2624845538453E+01
 0.2793350258680E+01
 0.1175596082087E+01
 0.1205489463318E+01
 0.1234910868211E+01
 0.1262587983692E+01
 0.1287318471655E+01
 0.1308059498869E+01
 0.1323988371906E+01
 0.1334525313084E+01
 0.1339323107570E+01
 0.1338235955337E+01
 0.1331281311535E+01
 0.1318605747723E+01
 0.1300461236996E+01
 0.1277194170358E+01
 0.1249247427567E+01
 0.1217169270671E+01
 0.1181627840618E+01
 0.1143427276798E+01
 0.1103518329415E+01
 0.1063007370392E+01
 0.1023173681686E+01
 0.9854790259461E+00
 0.9515541175596E+00
 0.9232113769175E+00
 0.9024943135349E+00
 0.8917471251501E+00
 0.8936653595924E+00
 0.9112612879798E+00
 0.9476726013484E+00
 0.1005789291503E+01
 0.1087776912132E+01
 0.1194670584220E+01
 0.1326130423625E+01
 0.1480334654903E+01
 0.1654014011512E+01
 0.1842591997722E+01
 0.2040418654295E+01
 0.2241104204777E+01
 0.2437933141878E+01
 0.2624331721456E+01
 0.2794317438088E+01
 0.1183209289690E+01
 0.1213798173292E+01
 0.1243937218224E+01
 0.1272305918281E+01
 0.1297657264908E+01
 0.1318919558807E+01
 0.1335262194537E+01
 0.1346116448471E+01
 0.1351158555702E+01
 0.1350270589883E+01
 0.1343495331182E+01
 0.1330997326815E+01
 0.1313036726801E+01
 0.1289957837773E+01
 0.1262192169796E+01
 0.1230269228805E+01
 0.1194833324304E+01
 0.1156661949784E+01
 0.1116678234449E+01
 0.1075961804625E+01
 0.1035769969781E+01
 0.9975459494761E+00
 0.9628976111478E+00
 0.9336060930057E+00
 0.9116755649220E+00
 0.8994072005300E+00
 0.8994608664621E+00
 0.9148409862604E+00
 0.9487326407125E+00
 0.1004150657067E+01
 0.1083463332267E+01
 0.1187959259948E+01
 0.1317558546513E+01
 0.1470659235698E+01
 0.1644131535748E+01
 0.1833428440255E+01
 0.2032802948710E+01
 0.2235642794209E+01
 0.2434906620618E+01
 0.2623632845901E+01
 0.2795441650753E+01
 0.1190959175011E+01
 0.1222334056049E+01
 0.1253279693674E+01
 0.1282419694587E+01
 0.1308456488786E+01
 0.1330287572548E+01
 0.1347076726121E+01
 0.1358271603578E+01
 0.1363578425352E+01
 0.1362913250029E+01
 0.1356348796807E+01
 0.1344070221353E+01
 0.1326346453782E+01
 0.1303518498922E+01
 0.1276003795207E+01
 0.1244309306137E+01
 0.1209051050196E+01
 0.1170975113590E+01
 0.1130972221799E+01
 0.1090090672283E+01
 0.1049561877683E+01
 0.1010807142914E+01
 0.9754077512645E+00
 0.9451088455059E+00
 0.9218693935251E+00
 0.9079405608159E+00
 0.9059388349578E+00
 0.9188539216012E+00
 0.9499158843376E+00
 0.1002271987472E+01
 0.1078515639011E+01
 0.1180226295805E+01
 0.1307631126642E+01
 0.1459395838935E+01
 0.1632569118930E+01
 0.1822655128827E+01
 0.2023807750272E+01
 0.2229163497186E+01
 0.2431302233141E+01
 0.2622805662329E+01
 0.2796823421409E+01
 0.1198852576661E+01
 0.1231106186539E+01
 0.1262949448521E+01
 0.1292940882844E+01
 0.1319725586888E+01
 0.1342168358325E+01
 0.1359430457579E+01
 0.1370982365138E+01
 0.1376567876332E+01
 0.1376143908072E+01
 0.1369818163844E+01
 0.1357799209799E+01
 0.1340365363840E+01
 0.1317853029668E+01
 0.1290662750920E+01
 0.1259275027425E+01
 0.1224272996866E+01
 0.1186366468282E+01
 0.1146408903921E+01
 0.1105412638001E+01
 0.1064579234992E+01
 0.1025304709389E+01
 0.9891400137054E+00
 0.9577895304174E+00
 0.9331610266258E+00
 0.9174483250915E+00
 0.9132159431795E+00
 0.9234300488688E+00
 0.9513599468773E+00
 0.1000288770312E+01
 0.1073054130543E+01
 0.1171563408835E+01
 0.1296401530796E+01
 0.1446556685522E+01
 0.1619303687268E+01
 0.1810227823075E+01
 0.2013387575600E+01
 0.2221641008114E+01
 0.2427132777402E+01
 0.2621911747750E+01
 0.2798575316612E+01
 0.1206897155917E+01
 0.1240124865916E+01
 0.1272959160987E+01
 0.1303882463514E+01
 0.1331474769204E+01
 0.1354566436193E+01
 0.1372320337434E+01
 0.1384237596009E+01
 0.1390108386316E+01
 0.1389938182388E+01
 0.1383875143180E+01
 0.1372154181715E+01
 0.1355063579969E+01
 0.1332933734494E+01
 0.1306145335650E+01
 0.1275148354952E+01
 0.1240488322946E+01
 0.1202833790407E+01
 0.1162996025074E+01
 0.1121946726611E+01
 0.1080853652122E+01
 0.1041084162698E+01
 0.1004155129356E+01
 0.9717253456406E+00
 0.9456452228133E+00
 0.9280435542243E+00
 0.9214234330905E+00
 0.9287167182391E+00
 0.9532226455201E+00
 0.9983587859430E+00
 0.1067221676493E+01
 0.1162082378627E+01
 0.1283937691005E+01
 0.1432160928854E+01
 0.1604311030684E+01
 0.1796094721319E+01
 0.2001486459857E+01
 0.2213041055981E+01
 0.2422407477619E+01
 0.2621016588178E+01
 0.2800821650406E+01
 0.1215101661187E+01
 0.1249401995085E+01
 0.1283323473744E+01
 0.1315259230241E+01
 0.1343715272144E+01
 0.1367486092180E+01
 0.1385741653024E+01
 0.1398023188452E+01
 0.1404177438437E+01
 0.1404267004640E+01
 0.1398486368551E+01
 0.1387099805797E+01
 0.1370406060731E+01
 0.1348727983267E+01
 0.1322423305880E+01
 0.1291907259654E+01
 0.1257682901974E+01
 0.1220372432163E+01
 0.1180739927944E+01
 0.1139711765425E+01
 0.1098417953993E+01
 0.1058193876094E+01
 0.1020518577716E+01
 0.9870003606478E+00
 0.9594259475713E+00
 0.9398510657044E+00
 0.9307071271773E+00
 0.9348790338989E+00
 0.9556829504233E+00
 0.9966639353161E+00
 0.1061186528077E+01
 0.1151918547837E+01
 0.1270325610107E+01
 0.1416237334795E+01
 0.1587567006956E+01
 0.1780195981715E+01
 0.1988036170895E+01
 0.2203318180649E+01
 0.2417130206453E+01
 0.2620188528393E+01
 0.2803698088154E+01
 0.1223476246041E+01
 0.1258951525366E+01
 0.1294059520448E+01
 0.1327088259409E+01
 0.1356459642850E+01
 0.1380931422142E+01
 0.1399687862274E+01
 0.1412321759598E+01
 0.1418748158329E+01
 0.1419096249943E+01
 0.1413613038938E+01
 0.1402595179356E+01
 0.1386352240293E+01
 0.1365197824860E+01
 0.1339463451592E+01
 0.1309525253948E+01
 0.1275838811479E+01
 0.1238974767625E+01
 0.1199644959673E+01
 0.1158725757569E+01
 0.1117305536367E+01
 0.1076684446942E+01
 0.1038299993437E+01
 0.1003705002297E+01
 0.9746159743286E+00
 0.9530071855399E+00
 0.9412273883850E+00
 0.9421001559678E+00
 0.9589418995599E+00
 0.9954121356454E+00
 0.1055145422747E+01
 0.1141234910477E+01
 0.1255673669108E+01
 0.1398827767703E+01
 0.1569049311645E+01
 0.1762463392000E+01
 0.1972954140722E+01
 0.2192413028599E+01
 0.2411297394377E+01
 0.2619497596993E+01
 0.2807351041193E+01
 0.1232032852758E+01
 0.1268790003640E+01
 0.1305187555915E+01
 0.1339389454891E+01
 0.1369722043327E+01
 0.1394906341059E+01
 0.1414150359292E+01
 0.1427112276312E+01
 0.1433788894357E+01
 0.1434386329857E+01
 0.1429210539818E+01
 0.1418593464701E+01
 0.1402855655220E+01
 0.1382299581340E+01
 0.1357227143433E+01
 0.1327970886549E+01
 0.1294933775582E+01
 0.1258629584736E+01
 0.1219712815518E+01
 0.1179005183676E+01
 0.1137549640516E+01
 0.1096607970486E+01
 0.1057572475963E+01
 0.1021935443603E+01
 0.9913363954269E+00
 0.9676594209037E+00
 0.9531590059505E+00
 0.9505815203682E+00
 0.9632234324210E+00
 0.9948392181038E+00
 0.1049326933793E+01
 0.1130226815392E+01
 0.1240117872428E+01
 0.1379991696954E+01
 0.1548740033480E+01
 0.1742820327161E+01
 0.1956141096808E+01
 0.2180249007141E+01
 0.2404895537240E+01
 0.2619014233383E+01
 0.2811936626577E+01
 0.1240785677180E+01
 0.1278937234240E+01
 0.1316731711129E+01
 0.1352186176494E+01
 0.1383518565331E+01
 0.1409414536570E+01
 0.1429118150611E+01
 0.1442369592014E+01
 0.1449262732120E+01
 0.1450091746411E+01
 0.1445228045594E+01
 0.1435041515875E+01
 0.1419863560313E+01
 0.1399983422527E+01
 0.1375669848168E+01
 0.1347207193501E+01
 0.1314940553502E+01
 0.1279321414364E+01
 0.1240941810698E+01
 0.1200564221470E+01
 0.1159182533996E+01
 0.1118017207781E+01
 0.1078411783725E+01
 0.1041792872873E+01
 0.1009716017230E+01
 0.9839660271724E+00
 0.9666909822775E+00
 0.9605429484947E+00
 0.9687750954986E+00
 0.9952107517667E+00
 0.1043994993488E+01
 0.1119127297598E+01
 0.1223828187455E+01
 0.1359812001500E+01
 0.1526629305962E+01
 0.1721182232751E+01
 0.1937478434821E+01
 0.2166728075475E+01
 0.2397898109692E+01
 0.2618808024222E+01
 0.2817618578938E+01
 0.1249751735738E+01
 0.1289417087118E+01
 0.1328720900672E+01
 0.1365505962490E+01
 0.1397867543859E+01
 0.1424459340972E+01
 0.1444577416650E+01
 0.1458063879849E+01
 0.1465126939606E+01
 0.1466160613052E+01
 0.1461608114552E+01
 0.1451879508954E+01
 0.1437316546039E+01
 0.1418192931368E+01
 0.1394740620282E+01
 0.1367191111159E+01
 0.1335826278686E+01
 0.1301029801234E+01
 0.1263326085775E+01
 0.1223413888825E+01
 0.1182234602359E+01
 0.1140964650426E+01
 0.1100895411481E+01
 0.1063382636106E+01
 0.1029890626194E+01
 0.1002095452169E+01
 0.9820262030303E+00
 0.9722226255498E+00
 0.9758685764861E+00
 0.9968237051081E+00
 0.1039452476185E+01
 0.1108212995477E+01
 0.1207016110686E+01
 0.1338402374953E+01
 0.1502720429309E+01
 0.1697457958424E+01
 0.1916825463480E+01
 0.2151725376474E+01
 0.2390261458516E+01
 0.2618946590300E+01
 0.2824563821557E+01
 0.1258951562127E+01
 0.1300258490026E+01
 0.1341189915826E+01
 0.1379381354603E+01
 0.1412789847025E+01
 0.1440043483356E+01
 0.1460510922958E+01
 0.1474159940563E+01
 0.1481332336452E+01
 0.1482534146676E+01
 0.1478286285772E+01
 0.1469040586303E+01
 0.1455148166085E+01
 0.1436864665032E+01
 0.1414381570458E+01
 0.1387872848182E+01
 0.1357551743289E+01
 0.1323728510684E+01
 0.1286854739713E+01
 0.1247561104594E+01
 0.1206733345377E+01
 0.1165501473368E+01
 0.1125101537630E+01
 0.1086813232657E+01
 0.1052002097816E+01
 0.1022225623503E+01
 0.9993809561845E+00
 0.9858769157525E+00
 0.9848000213320E+00
 0.1000007848247E+01
 0.1036044693005E+01
 0.1097810558362E+01
 0.1189943576986E+01
 0.1315916699752E+01
 0.1477036937480E+01
 0.1671552436828E+01
 0.1894016831143E+01
 0.2135082543891E+01
 0.2381918789064E+01
 0.2619494905548E+01
 0.2832931651751E+01
 0.1268410071839E+01
 0.1311496654426E+01
 0.1354180747106E+01
 0.1393850834807E+01
 0.1428309111502E+01
 0.1456168674667E+01
 0.1476897242701E+01
 0.1490616367418E+01
 0.1497822589744E+01
 0.1499146146433E+01
 0.1495190700087E+01
 0.1486450538553E+01
 0.1473284597585E+01
 0.1455927731542E+01
 0.1434527327383E+01
 0.1409195230363E+01
 0.1380070641138E+01
 0.1347384685939E+01
 0.1311510908375E+01
 0.1273007688249E+01
 0.1232702301120E+01
 0.1191676399446E+01
 0.1151107862410E+01
 0.1112195178273E+01
 0.1076197352119E+01
 0.1044543071947E+01
 0.1018984287950E+01
 0.1001780004202E+01
 0.9958901131854E+00
 0.1005126814933E+01
 0.1034162618867E+01
 0.1088303367604E+01
 0.1172933243764E+01
 0.1292560796932E+01
 0.1449632147846E+01
 0.1643371247215E+01
 0.1868860903387E+01
 0.2116599377716E+01
 0.2372771911984E+01
 0.2620514671684E+01
 0.2842843030086E+01
 0.1278157647589E+01
 0.1323174592668E+01
 0.1367744190113E+01
 0.1408959873333E+01
 0.1444451866772E+01
 0.1472834952467E+01
 0.1493709731283E+01
 0.1507384536831E+01
 0.1514533428322E+01
 0.1515922464150E+01
 0.1512241753991E+01
 0.1504027531836E+01
 0.1491644337084E+01
 0.1475303378324E+01
 0.1455104481420E+01
 0.1431092999250E+01
 0.1403328744522E+01
 0.1371957928547E+01
 0.1337270760780E+01
 0.1299749271190E+01
 0.1260159870960E+01
 0.1219534447455E+01
 0.1178990304486E+01
 0.1139639694442E+01
 0.1102627101670E+01
 0.1069241822971E+01
 0.1041077121507E+01
 0.1020223300827E+01
 0.1009483860223E+01
 0.1012578732985E+01
 0.1034245649586E+01
 0.1080138307354E+01
 0.1156380153388E+01
 0.1268606917931E+01
 0.1420602312354E+01
 0.1612826969394E+01
 0.1841141292767E+01
 0.2096023961686E+01
 0.2362677567085E+01
 0.2622080561687E+01
 0.2854254551901E+01
 0.1288231535722E+01
 0.1335344966336E+01
 0.1381941838021E+01
 0.1424762064847E+01
 0.1461247473986E+01
 0.1490039692689E+01
 0.1510915188320E+01
 0.1524407399528E+01
 0.1531391779496E+01
 0.1532780484572E+01
 0.1529351808448E+01
 0.1521681900685E+01
 0.1510137948347E+01
 0.1494904602430E+01
 0.1476031012003E+01
 0.1453492058608E+01
 0.1427263003441E+01
 0.1397399289103E+01
 0.1364102402401E+01
 0.1327774112424E+01
 0.1289118041863E+01
 0.1249115561956E+01
 0.1208821552411E+01
 0.1169257212860E+01
 0.1131444365937E+01
 0.1096522010286E+01
 0.1065911076582E+01
 0.1041514547943E+01
 0.1025950053838E+01
 0.1022796363309E+01
 0.1036783689333E+01
 0.1073832242430E+01
 0.1140764548183E+01
 0.1244411607782E+01
 0.1390103631549E+01
 0.1579851219055E+01
 0.1810612078705E+01
 0.2073070491761E+01
 0.2351368933985E+01
 0.2624455278579E+01
 0.2866334032429E+01
 0.1298679223125E+01
 0.1348077226541E+01
 0.1396857353961E+01
 0.1441334106913E+01
 0.1478746578457E+01
 0.1507799578462E+01
 0.1528499588940E+01
 0.1541649163974E+01
 0.1548349591514E+01
 0.1549667430686E+01
 0.1546468610606E+01
 0.1539365650280E+01
 0.1528724908681E+01
 0.1514701830993E+01
 0.1497292416791E+01
 0.1476397657356E+01
 0.1451903213352E+01
 0.1423767506514E+01
 0.1392097300698E+01
 0.1357209812430E+01
 0.1319744003283E+01
 0.1280630282179E+01
 0.1240859367883E+01
 0.1201356080947E+01
 0.1163010223173E+01
 0.1126797880671E+01
 0.1093952172122E+01
 0.1066168538390E+01
 0.1045847858647E+01
 0.1036376007445E+01
 0.1042393623304E+01
 0.1069982693179E+01
 0.1126587142572E+01
 0.1220271327857E+01
 0.1358134214911E+01
 0.1544121929229E+01
 0.1776727427841E+01
 0.2047150378591E+01
 0.2338567597397E+01
 0.2627176474760E+01
 0.2883022089793E+01
 0.1309554503665E+01
 0.1361450508204E+01
 0.1412580215388E+01
 0.1458748686408E+01
 0.1496982190390E+01
 0.1526101333110E+01
 0.1546410414953E+01
 0.1559030551570E+01
 0.1565312223240E+01
 0.1566481046007E+01
 0.1563486588847E+01
 0.1556972051520E+01
 0.1547298739143E+01
 0.1534590566216E+01
 0.1518788834069E+01
 0.1499718205397E+01
 0.1477170247306E+01
 0.1451000079446E+01
 0.1421213445763E+01
 0.1388038693426E+01
 0.1352048783526E+01
 0.1314123633233E+01
 0.1275188873624E+01
 0.1236067968701E+01
 0.1197509231456E+01
 0.1160312933639E+01
 0.1125508815022E+01
 0.1094565037018E+01
 0.1069636013303E+01
 0.1053863517259E+01
 0.1051710944991E+01
 0.1069294260895E+01
 0.1114551900258E+01
 0.1196760663492E+01
 0.1324989939110E+01
 0.1505567274076E+01
 0.1739086693802E+01
 0.2017738913260E+01
 0.2323860543937E+01
 0.2630453998688E+01
 0.2906139712559E+01
 0.1320928105981E+01
 0.1375561842700E+01
 0.1429215000856E+01
 0.1477080623628E+01
 0.1515972510347E+01
 0.1544902396593E+01
 0.1564556762047E+01
 0.1576429197827E+01
 0.1582139258092E+01
 0.1583070521373E+01
 0.1580247454784E+01
 0.1574335459843E+01
 0.1565685581973E+01
 0.1554388268296E+01
 0.1540329816155E+01
 0.1523257614830E+01
 0.1502865779462E+01
 0.1478900320565E+01
 0.1451259767807E+01
 0.1420079676752E+01
 0.1385866690772E+01
 0.1349452221300E+01
 0.1311697508192E+01
 0.1273321112507E+01
 0.1234921724901E+01
 0.1197112488299E+01
 0.1160706404592E+01
 0.1126927782435E+01
 0.1097659218736E+01
 0.1075752067550E+01
 0.1065405425508E+01
 0.1072623877839E+01
 0.1105658554619E+01
 0.1174886993904E+01
 0.1291477963168E+01
 0.1464607072474E+01
 0.1697672494161E+01
 0.1984528278591E+01
 0.2306939570282E+01
 0.2634908268280E+01
 0.2932752264956E+01
 0.1332887670362E+01
 0.1390535825294E+01
 0.1446896633710E+01
 0.1496428099920E+01
 0.1535748949783E+01
 0.1564167733857E+01
 0.1582856172364E+01
 0.1593736720573E+01
 0.1598711656709E+01
 0.1599313975909E+01
 0.1596629001519E+01
 0.1591333164667E+01
 0.1583761411159E+01
 0.1573969594187E+01
 0.1561790387881E+01
 0.1546894844731E+01
 0.1528877569376E+01
 0.1507369902507E+01
 0.1482156464365E+01
 0.1453275765779E+01
 0.1421168269277E+01
 0.1386619932307E+01
 0.1350429374793E+01
 0.1313207355602E+01
 0.1275395155353E+01
 0.1237407962678E+01
 0.1199829714084E+01
 0.1163626162632E+01
 0.1130385807293E+01
 0.1102627717599E+01
 0.1084203091609E+01
 0.1080850953391E+01
 0.1100907742655E+01
 0.1155641763164E+01
 0.1258345521366E+01
 0.1421508535966E+01
 0.1652201893786E+01
 0.1946879222220E+01
 0.2287331348814E+01
 0.2640262650399E+01
 0.2963238841346E+01
 0.1345543625993E+01
 0.1406528902644E+01
 0.1465789395752E+01
 0.1516902014411E+01
 0.1556336221431E+01
 0.1583843838644E+01
 0.1601205227136E+01
 0.1610826807986E+01
 0.1614896967411E+01
 0.1615079860775E+01
 0.1612501569511E+01
 0.1607835652338E+01
 0.1601394690856E+01
 0.1593199957911E+01
 0.1583034053697E+01
 0.1570495132643E+01
 0.1555078104860E+01
 0.1536294579431E+01
 0.1513807916201E+01
 0.1487554676706E+01
 0.1457909537932E+01
 0.1425617104838E+01
 0.1391416242326E+01
 0.1355807662919E+01
 0.1319067916424E+01
 0.1281404276171E+01
 0.1243160978358E+01
 0.1205033237701E+01
 0.1168297145714E+01
 0.1135103311275E+01
 0.1108878190265E+01
 0.1094940602655E+01
 0.1101450200750E+01
 0.1140249141702E+01
 0.1226619163537E+01
 0.1376760882120E+01
 0.1602448856696E+01
 0.1904040170834E+01
 0.2264263574293E+01
 0.2646090213458E+01
 0.2998180943882E+01
 0.1359036371621E+01
 0.1423738859210E+01
 0.1486093227454E+01
 0.1538624803137E+01
 0.1577745774596E+01
 0.1603851538984E+01
 0.1619474639488E+01
 0.1627552962392E+01
 0.1630548901646E+01
 0.1630227495743E+01
 0.1627728970464E+01
 0.1623707575065E+01
 0.1618447140753E+01
 0.1611935857032E+01
 0.1603912475320E+01
 0.1593908931133E+01
 0.1581322910516E+01
 0.1565542153066E+01
 0.1546100611380E+01
 0.1522826900749E+01
 0.1496030232666E+01
 0.1466418877273E+01
 0.1434675809055E+01
 0.1401190010904E+01
 0.1366066532226E+01
 0.1329296075282E+01
 0.1290975071277E+01
 0.1251520081058E+01
 0.1211881711555E+01
 0.1173812948347E+01
 0.1140248065013E+01
 0.1115938739024E+01
 0.1108587653170E+01
 0.1130193183029E+01
 0.1197679842710E+01
 0.1331178882431E+01
 0.1548318810996E+01
 0.1855120009919E+01
 0.2236641747227E+01
 0.2651892606494E+01
 0.3038318764673E+01
 0.1373546333209E+01
 0.1442417693910E+01
 0.1508051012394E+01
 0.1561726904387E+01
 0.1599965857254E+01
 0.1624076629578E+01
 0.1637503713555E+01
 0.1643746472415E+01
 0.1645507380274E+01
 0.1644608054160E+01
 0.1642169793472E+01
 0.1638809062294E+01
 0.1634774824669E+01
 0.1630025482448E+01
 0.1624265323119E+01
 0.1616970826881E+01
 0.1607448625826E+01
 0.1594960073344E+01
 0.1578900705448E+01
 0.1558983523446E+01
 0.1535451986664E+01
 0.1508983648720E+01
 0.1480210180545E+01
 0.1449407463422E+01
 0.1416502860007E+01
 0.1381263661867E+01
 0.1343533926525E+01
 0.1303448755027E+01
 0.1261627156831E+01
 0.1219404084055E+01
 0.1179165835949E+01
 0.1144964546729E+01
 0.1123767346961E+01
 0.1127235460481E+01
 0.1173343412857E+01
 0.1286045267098E+01
 0.1489968575149E+01
 0.1799104563340E+01
 0.2203027001427E+01
 0.2657035727116E+01
 0.3084568489775E+01
 0.1389308353010E+01
 0.1462889300004E+01
 0.1531956556048E+01
 0.1586339115623E+01
 0.1622946803959E+01
 0.1644358011345E+01
 0.1655094463671E+01
 0.1659214958276E+01
 0.1659599256359E+01
 0.1658066091304E+01
 0.1655679137965E+01
 0.1652997409632E+01
 0.1650229614559E+01
 0.1647309691032E+01
 0.1643920389154E+01
 0.1639498490247E+01
 0.1633270816375E+01
 0.1624372556359E+01
 0.1612051073634E+01
 0.1595893696778E+01
 0.1576076431728E+01
 0.1553251732899E+01
 0.1528004706232E+01
 0.1500496593734E+01
 0.1470471446853E+01
 0.1437468735522E+01
 0.1401080273240E+01
 0.1361163875389E+01
 0.1318010014584E+01
 0.1272526423476E+01
 0.1226509749878E+01
 0.1183199897504E+01
 0.1148570376586E+01
 0.1133418251779E+01
 0.1155936181192E+01
 0.1243295810835E+01
 0.1428004905267E+01
 0.1734929417001E+01
 0.2161562655442E+01
 0.2660630939272E+01
 0.3138070201099E+01
 0.1406632767643E+01
 0.1485574008340E+01
 0.1558162333917E+01
 0.1612577955196E+01
 0.1646579727276E+01
 0.1664473259173E+01
 0.1672005996000E+01
 0.1673741970013E+01
 0.1672639941026E+01
 0.1670441700234E+01
 0.1668110803396E+01
 0.1666129168162E+01
 0.1664661078787E+01
 0.1663623436321E+01
 0.1662694087542E+01
 0.1661291744494E+01
 0.1658581492696E+01
 0.1653577065302E+01
 0.1645367643512E+01
 0.1633401600415E+01
 0.1617783183255E+01
 0.1599144309483E+01
 0.1578027370343E+01
 0.1554476460637E+01
 0.1528047211684E+01
 0.1498050090607E+01
 0.1463830821301E+01
 0.1424982848287E+01
 0.1381482868321E+01
 0.1333816788110E+01
 0.1283167551299E+01
 0.1231874238752E+01
 0.1184694238753E+01
 0.1151050476872E+01
 0.1148348660665E+01
 0.1205742583930E+01
 0.1363800840535E+01
 0.1661637558892E+01
 0.2109863418923E+01
 0.2661360557554E+01
 0.3200271874837E+01
 0.1425937111378E+01
 0.1511022979072E+01
 0.1587084725793E+01
 0.1640519314649E+01
 0.1670666435362E+01
 0.1684122105809E+01
 0.1687950203874E+01
 0.1687088240361E+01
 0.1684436148296E+01
 0.1681573353112E+01
 0.1679319942531E+01
 0.1678062635848E+01
 0.1677918830010E+01
 0.1678797762165E+01
 0.1680392513107E+01
 0.1682131905317E+01
 0.1683146335035E+01
 0.1682339947119E+01
 0.1678634686085E+01
 0.1671322620880E+01
 0.1660427620842E+01
 0.1646562795579E+01
 0.1630228985025E+01
 0.1611348384103E+01
 0.1589283622224E+01
 0.1563119387132E+01
 0.1531969046238E+01
 0.1495184979184E+01
 0.1452459039176E+01
 0.1403879340669E+01
 0.1350013899554E+01
 0.1292241941893E+01
 0.1233928789223E+01
 0.1182677039983E+01
 0.1154048145822E+01
 0.1177309148007E+01
 0.1299974353736E+01
 0.1578700367873E+01
 0.2044893470313E+01
 0.2657210367630E+01
 0.3273059357927E+01
 0.1447795237973E+01
 0.1539966693370E+01
 0.1619201596186E+01
 0.1670152834431E+01
 0.1694878439562E+01
 0.1702909484522E+01
 0.1702590414113E+01
 0.1698995255524E+01
 0.1694789930075E+01
 0.1691301458475E+01
 0.1689166167701E+01
 0.1688660738240E+01
 0.1689855360157E+01
 0.1692662485534E+01
 0.1696813311479E+01
 0.1701781674363E+01
 0.1706701726395E+01
 0.1710391014943E+01
 0.1711598650174E+01
 0.1709438393938E+01
 0.1703838399952E+01
 0.1695388911385E+01
 0.1684544653316E+01
 0.1671096975702E+01
 0.1654211698914E+01
 0.1632757251655E+01
 0.1605637911842E+01
 0.1571999994996E+01
 0.1531295416217E+01
 0.1483261298483E+01
 0.1427879285815E+01
 0.1365547901976E+01
 0.1298121532732E+01
 0.1231034371906E+01
 0.1177037461470E+01
 0.1163217401327E+01
 0.1241063053613E+01
 0.1486652834434E+01
 0.1962893097109E+01
 0.2645040392889E+01
 0.3358952094068E+01
 0.1473016021335E+01
 0.1573383290967E+01
 0.1655031052789E+01
 0.1701305151413E+01
 0.1718704087154E+01
 0.1720331803808E+01
 0.1715545168107E+01
 0.1709191676165E+01
 0.1703504056996E+01
 0.1699472603818E+01
 0.1697517047897E+01
 0.1697794232871E+01
 0.1700329329175E+01
 0.1705049648682E+01
 0.1711748640670E+01
 0.1719985983578E+01
 0.1728951777493E+01
 0.1737416756734E+01
 0.1743959814339E+01
 0.1747490004750E+01
 0.1747814412135E+01
 0.1745485660076E+01
 0.1740896968639E+01
 0.1733692803690E+01
 0.1722839973541E+01
 0.1707009657207E+01
 0.1684932559718E+01
 0.1655596364008E+01
 0.1618274202084E+01
 0.1572424798420E+01
 0.1517509552044E+01
 0.1452976474590E+01
 0.1379123175631E+01
 0.1298990446214E+01
 0.1221763799952E+01
 0.1170038071635E+01
 0.1194357288912E+01
 0.1388307145658E+01
 0.1859514062002E+01
 0.2619882242866E+01
 0.3461394375431E+01
 0.1502774359640E+01
 0.1612593524044E+01
 0.1695067549736E+01
 0.1733514502362E+01
 0.1741386942776E+01
 0.1735773339055E+01
 0.1726399474514E+01
 0.1717402777204E+01
 0.1710388698145E+01
 0.1705944410999E+01
 0.1704251904633E+01
 0.1705345147676E+01
 0.1709209233612E+01
 0.1715797781988E+01
 0.1724989568034E+01
 0.1736474438924E+01
 0.1749565822551E+01
 0.1763051888848E+01
 0.1775360733686E+01
 0.1785168281266E+01
 0.1792120817668E+01
 0.1796699665996E+01
 0.1799201753361E+01
 0.1799097320948E+01
 0.1795155627128E+01
 0.1785884503979E+01
 0.1769892956855E+01
 0.1746069958905E+01
 0.1713584923048E+01
 0.1671716758853E+01
 0.1619516948594E+01
 0.1555580267306E+01
 0.1478700955307E+01
 0.1389454532629E+01
 0.1292992861525E+01
 0.1205539664987E+01
 0.1170664479344E+01
 0.1290940045861E+01
 0.1730588645308E+01
 0.2573801127833E+01
 0.3585176120832E+01
 0.1538839068811E+01
 0.1659386681547E+01
 0.1739624613298E+01
 0.1765833967733E+01
 0.1761869059903E+01
 0.1748523495855E+01
 0.1734724761045E+01
 0.1723362521074E+01
 0.1715269302690E+01
 0.1710590866600E+01
 0.1709265785369E+01
 0.1711210346641E+01
 0.1716377333061E+01
 0.1724756929574E+01
 0.1736332253701E+01
 0.1750966349231E+01
 0.1768177407864E+01
 0.1786869158177E+01
 0.1805370012766E+01
 0.1822099501919E+01
 0.1836483628516E+01
 0.1848865713560E+01
 0.1859377676891E+01
 0.1867271051169E+01
 0.1871127187366E+01
 0.1869348298223E+01
 0.1860496384294E+01
 0.1843433706280E+01
 0.1817308686610E+01
 0.1781339972911E+01
 0.1734326198728E+01
 0.1674188857257E+01
 0.1598408233933E+01
 0.1505226670724E+01
 0.1395640407213E+01
 0.1278368568526E+01
 0.1184520631420E+01
 0.1209771200673E+01
 0.1574633675327E+01
 0.2494160286695E+01
 0.3736993519376E+01
 0.1583990453085E+01
 0.1716165148965E+01
 0.1788476131590E+01
 0.1796544863175E+01
 0.1778775850089E+01
 0.1757826964268E+01
 0.1740105352629E+01
 0.1726827677110E+01
 0.1717995534546E+01
 0.1713307847118E+01
 0.1712473457227E+01
 0.1715305070009E+01
 0.1721733630147E+01
 0.1731794184575E+01
 0.1745586057935E+01
 0.1763179608281E+01
 0.1784386642631E+01
 0.1808367682703E+01
 0.1833459069435E+01
 0.1857823512129E+01
 0.1880581826933E+01
 0.1901814755651E+01
 0.1921361605234E+01
 0.1938186152300E+01
 0.1950708979419E+01
 0.1957322382569E+01
 0.1956648945105E+01
 0.1947608287155E+01
 0.1929406830703E+01
 0.1901329718468E+01
 0.1862121357110E+01
 0.1809302622031E+01
 0.1739405271029E+01
 0.1648753100160E+01
 0.1534493791971E+01
 0.1397646549349E+01
 0.1253458364690E+01
 0.1171954873808E+01
 0.1399836015267E+01
 0.2361460654450E+01
 0.3926023750096E+01
 0.1642835187510E+01
 0.1786024158688E+01
 0.1840067345300E+01
 0.1822808772730E+01
 0.1790520287213E+01
 0.1762966932137E+01
 0.1742164901969E+01
 0.1727594613723E+01
 0.1718450626782E+01
 0.1714018504618E+01
 0.1713813274234E+01
 0.1717566273580E+01
 0.1725199691935E+01
 0.1736799288448E+01
 0.1752583249693E+01
 0.1772844863776E+01
 0.1797769376167E+01
 0.1826961417763E+01
 0.1858968402145E+01
 0.1891759015614E+01
 0.1924035497184E+01
 0.1955387873138E+01
 0.1985132697991E+01
 0.2011844921123E+01
 0.2033847669911E+01
 0.2049678148169E+01
 0.2058174740392E+01
 0.2058413349724E+01
 0.2049716623802E+01
 0.2031542107367E+01
 0.2002801489796E+01
 0.1960983185826E+01
 0.1902239252534E+01
 0.1821766746196E+01
 0.1713728230872E+01
 0.1572360353227E+01
 0.1396738795011E+01
 0.1217551643693E+01
 0.1241221479542E+01
 0.2148838918233E+01
 0.4163939137339E+01
 0.1723528885505E+01
 0.1872397961703E+01
 0.1889832497189E+01
 0.1840488025182E+01
 0.1795638227877E+01
 0.1763336451486E+01
 0.1740592368122E+01
 0.1725519978716E+01
 0.1716559233110E+01
 0.1712678608498E+01
 0.1713250609240E+01
 0.1717955603299E+01
 0.1726722101276E+01
 0.1739689748187E+01
 0.1757189085902E+01
 0.1779725709023E+01
 0.1807899102242E+01
 0.1841972549038E+01
 0.1881057964925E+01
 0.1923146105160E+01
 0.1966387448408E+01
 0.2009460766512E+01
 0.2050749602125E+01
 0.2088305658752E+01
 0.2120490766679E+01
 0.2146230289682E+01
 0.2164799966063E+01
 0.2175556344366E+01
 0.2177956104764E+01
 0.2171662322291E+01
 0.2155954684579E+01
 0.2128751908137E+01
 0.2086615263452E+01
 0.2024809789953E+01
 0.1936176840484E+01
 0.1810175393502E+01
 0.1633784715109E+01
 0.1394973386461E+01
 0.1189861724221E+01
 0.1834622155585E+01
 0.4462366491861E+01
 0.1841831879183E+01
 0.1976681062720E+01
 0.1926895977898E+01
 0.1845036557622E+01
 0.1793288945007E+01
 0.1758403220922E+01
 0.1735204456131E+01
 0.1720531846687E+01
 0.1712295658897E+01
 0.1709281123613E+01
 0.1710780660227E+01
 0.1716461860706E+01
 0.1726275300100E+01
 0.1740415194530E+01
 0.1759310142346E+01
 0.1783642673374E+01
 0.1814390456580E+01
 0.1852643228675E+01
 0.1898633776948E+01
 0.1950946128177E+01
 0.2007075160929E+01
 0.2063988361033E+01
 0.2118407291759E+01
 0.2167717183424E+01
 0.2210596568461E+01
 0.2246727902653E+01
 0.2276128921826E+01
 0.2298612003575E+01
 0.2313739752237E+01
 0.2321245748313E+01
 0.2320863956617E+01
 0.2311501827451E+01
 0.2291198569872E+01
 0.2256739525448E+01
 0.2202222407210E+01
 0.2115919167027E+01
 0.1979731193116E+01
 0.1757637541315E+01
 0.1395639855858E+01
 0.1484797483321E+01
 0.4824356915316E+01
 0.2032279450628E+01
 0.2086105007856E+01
 0.1930168825054E+01
 0.1835687942501E+01
 0.1782711255756E+01
 0.1747873116707E+01
 0.1725983263505E+01
 0.1712633655112E+01
 0.1705693851897E+01
 0.1703858363269E+01
 0.1706430952186E+01
 0.1713102659393E+01
 0.1723863589654E+01
 0.1738960801223E+01
 0.1758899970375E+01
 0.1784491509024E+01
 0.1816971266184E+01
 0.1858202589365E+01
 0.1910240840461E+01
 0.1973653732780E+01
 0.2045392595474E+01
 0.2119089617445E+01
 0.2188521967628E+01
 0.2250362955697E+01
 0.2304144077462E+01
 0.2350844561208E+01
 0.2391612296751E+01
 0.2426977586976E+01
 0.2456600264417E+01
 0.2479824939976E+01
 0.2496551534500E+01
 0.2507444381712E+01
 0.2513415655567E+01
 0.2514516571150E+01
 0.2508288601990E+01
 0.2489529406922E+01
 0.2440016271761E+01
 0.2345385629953E+01
 0.2046667287028E+01
 0.1564458196675E+01
 0.5231535930511E+01
 0.2387474261369E+01
 0.2104852944659E+01
 0.1892699384637E+01
 0.1814624587888E+01
 0.1762715991528E+01
 0.1732119680409E+01
 0.1712968120058E+01
 0.1701950678880E+01
 0.1696841013845E+01
 0.1696486719138E+01
 0.1700261870193E+01
 0.1707925553562E+01
 0.1719522131384E+01
 0.1735348905920E+01
 0.1755963777579E+01
 0.1782246758027E+01
 0.1815549895465E+01
 0.1858094811818E+01
 0.1913923107026E+01
 0.1988893633455E+01
 0.2080471215469E+01
 0.2175205801273E+01
 0.2261851479903E+01
 0.2336713881140E+01
 0.2401138350451E+01
 0.2458165095525E+01
 0.2510518465688E+01
 0.2559779429512E+01
 0.2605970882355E+01
 0.2647166169348E+01
 0.2681890233651E+01
 0.2713971248399E+01
 0.2749525751602E+01
 0.2792659873706E+01
 0.2847593802499E+01
 0.2918313482947E+01
 0.3016522960849E+01
 0.3126052709219E+01
 0.3370281153687E+01
 0.3012192995792E+01
 0.6144810335459E+01
 0.4083675105480E+00
 0.5274952002617E+00
 0.6404283422424E+00
 0.7432554743507E+00
 0.8345911670684E+00
 0.9142497276851E+00
 0.9826768370093E+00
 0.1040621037412E+01
 0.1088903835934E+01
 0.1128346565508E+01
 0.1159818415720E+01
 0.1183754352445E+01
 0.1200815302041E+01
 0.1212288910334E+01
 0.1218839409517E+01
 0.1220272832092E+01
 0.1215925036440E+01
 0.1204975547138E+01
 0.1187031448633E+01
 0.1161684168356E+01
 0.3965040582545E+00
 0.5236843958933E+00
 0.6428957319394E+00
 0.7512577088296E+00
 0.8475591322861E+00
 0.9317681554880E+00
 0.1004477196360E+01
 0.1066539106578E+01
 0.1118847479574E+01
 0.1162298696118E+01
 0.1197775291863E+01
 0.1225786771612E+01
 0.1247148333271E+01
 0.1263048620565E+01
 0.1274056726613E+01
 0.1280153619294E+01
 0.1280814046390E+01
 0.1275337777066E+01
 0.1261644867037E+01
 0.1237868259453E+01
 0.3848976676766E+00
 0.5205035975027E+00
 0.6461026331699E+00
 0.7597934593694E+00
 0.8608226049144E+00
 0.9493681213487E+00
 0.1026165684093E+01
 0.1092173099999E+01
 0.1148372708005E+01
 0.1195724084644E+01
 0.1235137320444E+01
 0.1267269514119E+01
 0.1292993348115E+01
 0.1313404091774E+01
 0.1329083193312E+01
 0.1340063370796E+01
 0.1345887996944E+01
 0.1345508618604E+01
 0.1336888018365E+01
 0.1319967401602E+01
 0.3737420783907E+00
 0.5177808274910E+00
 0.6498031266385E+00
 0.7686930616032E+00
 0.8742362059328E+00
 0.9668999978583E+00
 0.1047584552277E+01
 0.1117361478402E+01
 0.1177304224638E+01
 0.1228440915557E+01
 0.1271738530174E+01
 0.1307976571744E+01
 0.1338073296054E+01
 0.1363060058065E+01
 0.1383518567687E+01
 0.1399512744673E+01
 0.1410560659554E+01
 0.1415623443828E+01
 0.1413324958532E+01
 0.1403787104605E+01
 0.3630961850729E+00
 0.5154759222365E+00
 0.6538366638161E+00
 0.7777853042323E+00
 0.8876431931431E+00
 0.9842086387704E+00
 0.1068574314223E+01
 0.1141936921750E+01
 0.1205465937406E+01
 0.1260266493793E+01
 0.1307371661132E+01
 0.1347665338511E+01
 0.1382104860662E+01
 0.1411675964892E+01
 0.1436958324591E+01
 0.1458032248718E+01
 0.1474463906160E+01
 0.1485408186636E+01
 0.1489853442791E+01
 0.1487750748977E+01
 0.3529986013776E+00
 0.5135420096725E+00
 0.6580849269955E+00
 0.7869161460734E+00
 0.9008854148560E+00
 0.1001136267207E+01
 0.1088973458980E+01
 0.1165730752231E+01
 0.1232679640929E+01
 0.1291006978390E+01
 0.1341815743338E+01
 0.1386078970165E+01
 0.1424788565356E+01
 0.1458900090747E+01
 0.1488993841358E+01
 0.1515185283285E+01
 0.1537136948761E+01
 0.1554169557005E+01
 0.1565453491892E+01
 0.1570638991527E+01
 0.3434799544360E+00
 0.5119334450570E+00
 0.6624428514541E+00
 0.7959464268498E+00
 0.9138100972731E+00
 0.1017525875543E+01
 0.1108620626819E+01
 0.1188574053975E+01
 0.1258764340355E+01
 0.1320462477610E+01
 0.1374841719112E+01
 0.1422951914638E+01
 0.1465816711869E+01
 0.1504374774100E+01
 0.1539216561817E+01
 0.1570507252866E+01
 0.1598004071612E+01
 0.1621142818756E+01
 0.1639150600435E+01
 0.1651353758868E+01
 0.3345678954333E+00
 0.5106056767990E+00
 0.6668137302892E+00
 0.8047470516173E+00
 0.9262718532110E+00
 0.1033224396983E+01
 0.1127356769694E+01
 0.1210299077511E+01
 0.1283538571330E+01
 0.1348430745615E+01
 0.1406217504966E+01
 0.1458015645557E+01
 0.1504878899629E+01
 0.1547740573614E+01
 0.1587209115750E+01
 0.1623500549517E+01
 0.1656448553990E+01
 0.1685553905552E+01
 0.1710024324892E+01
 0.1728870044231E+01
 0.3262884441443E+00
 0.5095162543461E+00
 0.6711072926493E+00
 0.8131974829891E+00
 0.9381330904739E+00
 0.1048084747815E+01
 0.1145027239373E+01
 0.1230741330545E+01
 0.1306823049994E+01
 0.1374710898163E+01
 0.1435712503750E+01
 0.1491003572273E+01
 0.1541666785600E+01
 0.1588638460432E+01
 0.1632547995442E+01
 0.1673655547825E+01
 0.1711847992461E+01
 0.1746650979233E+01
 0.1777208384962E+01
 0.1802234285403E+01
 0.3186663198487E+00
 0.5086253392427E+00
 0.6752393644909E+00
 0.8211852942689E+00
 0.9492645325365E+00
 0.1061967272296E+01
 0.1161483748927E+01
 0.1249741839284E+01
 0.1328443471461E+01
 0.1399106938973E+01
 0.1463101673083E+01
 0.1521655413730E+01
 0.1575878344907E+01
 0.1626714543945E+01
 0.1674813317689E+01
 0.1720468457642E+01
 0.1763597632384E+01
 0.1803720598275E+01
 0.1839890707135E+01
 0.1870549735538E+01
 0.3117248401081E+00
 0.5078960636660E+00
 0.6791319996158E+00
 0.8286063334005E+00
 0.9595458640189E+00
 0.1074741039782E+01
 0.1176586196576E+01
 0.1267149423155E+01
 0.1348233293123E+01
 0.1421431115835E+01
 0.1488169324493E+01
 0.1549721365126E+01
 0.1607222692252E+01
 0.1661626812707E+01
 0.1713599298701E+01
 0.1763456115369E+01
 0.1811126242862E+01
 0.1856100383792E+01
 0.1897324172963E+01
 0.1932993318196E+01
 0.3054856892849E+00
 0.5072947936013E+00
 0.6827138229406E+00
 0.8353651675842E+00
 0.9688665027565E+00
 0.1086285083633E+01
 0.1190204383767E+01
 0.1282822869399E+01
 0.1366036384528E+01
 0.1441507058260E+01
 0.1510712690147E+01
 0.1574966225646E+01
 0.1635425290196E+01
 0.1693052211350E+01
 0.1748523883688E+01
 0.1802167634968E+01
 0.1853908031230E+01
 0.1903190307218E+01
 0.1948844024182E+01
 0.1988846233679E+01
 0.2999686616319E+00
 0.5067913426098E+00
 0.6859204500360E+00
 0.8413756561429E+00
 0.9771264322818E+00
 0.1096489602400E+01
 0.1202219632305E+01
 0.1296632978198E+01
 0.1381709514058E+01
 0.1459172719673E+01
 0.1530545338506E+01
 0.1597173507499E+01
 0.1660233179863E+01
 0.1720693405396E+01
 0.1779237117876E+01
 0.1836193775522E+01
 0.1891471959370E+01
 0.1944461837416E+01
 0.1993877067379E+01
 0.2037503241018E+01
 0.2951914322605E+00
 0.5063591566117E+00
 0.6886949238597E+00
 0.8465615597615E+00
 0.9842370322900E+00
 0.1105257089648E+01
 0.1212526266699E+01
 0.1308464423917E+01
 0.1395124610325E+01
 0.1474283068957E+01
 0.1547500357365E+01
 0.1616149316655E+01
 0.1681419848168E+01
 0.1744284781607E+01
 0.1805428120547E+01
 0.1865174302588E+01
 0.1923408670373E+01
 0.1979463259559E+01
 0.2031943293486E+01
 0.2078470296187E+01
 0.2911693753282E+00
 0.5059754765745E+00
 0.6909881377344E+00
 0.8508571386330E+00
 0.9901218703055E+00
 0.1112503374541E+01
 0.1221032951980E+01
 0.1318217422469E+01
 0.1406170788638E+01
 0.1486712518269E+01
 0.1561433254601E+01
 0.1631725885598E+01
 0.1698789556725E+01
 0.1763597571565E+01
 0.1826830745226E+01
 0.1888803615365E+01
 0.1949375152685E+01
 0.2007821916124E+01
 0.2062654062079E+01
 0.2111357663433E+01
 0.2879154376109E+00
 0.5056214816643E+00
 0.6927592228247E+00
 0.8542077031690E+00
 0.9947174190758E+00
 0.1118158545205E+01
 0.1227663864149E+01
 0.1325809182062E+01
 0.1414756115689E+01
 0.1496357046486E+01
 0.1572224504010E+01
 0.1643764648869E+01
 0.1712181022455E+01
 0.1778444055209E+01
 0.1843228010206E+01
 0.1906834834772E+01
 0.1969097591515E+01
 0.2029244668582E+01
 0.2085709118420E+01
 0.2135872212011E+01
 0.2854400534103E+00
 0.5052824071989E+00
 0.6939758803414E+00
 0.8565700894791E+00
 0.9979736711004E+00
 0.1122167729778E+01
 0.1232359670806E+01
 0.1331175113634E+01
 0.1420809081792E+01
 0.1503135972665E+01
 0.1579781667557E+01
 0.1652158777626E+01
 0.1721470381462E+01
 0.1788680833700E+01
 0.1854455381827E+01
 0.1919082583257E+01
 0.1982372930191E+01
 0.2043517443433E+01
 0.2100893428562E+01
 0.2151810215081E+01
 0.2837510997718E+00
 0.5049476361755E+00
 0.6946146484450E+00
 0.8579130421469E+00
 0.9998546302892E+00
 0.1124491715567E+01
 0.1235078302712E+01
 0.1334269779190E+01
 0.1424279751879E+01
 0.1506993339109E+01
 0.1584041040630E+01
 0.1656835117730E+01
 0.1726573403048E+01
 0.1794211190270E+01
 0.1860403016513E+01
 0.1925424700055E+01
 0.1989069553113E+01
 0.2050504375193E+01
 0.2108074258844E+01
 0.2159051157031E+01
 0.2828538758011E+00
 0.5046107588574E+00
 0.6946610907623E+00
 0.8582174871759E+00
 0.1000338662370E+01
 0.1125107388765E+01
 0.1235795499609E+01
 0.1335067560291E+01
 0.1425140573733E+01
 0.1507898876925E+01
 0.1584968789313E+01
 0.1657755507273E+01
 0.1727446955647E+01
 0.1794986589824E+01
 0.1861017087953E+01
 0.1925803112025E+01
 0.1989127390105E+01
 0.2050146862745E+01
 0.2107198875731E+01
 0.2157553235780E+01
 0.2827510929962E+00
 0.5042695975161E+00
 0.6941099008602E+00
 0.8574766875011E+00
 0.9994186959161E+00
 0.1124007986872E+01
 0.1234505122373E+01
 0.1333563037272E+01
 0.1423386830752E+01
 0.1505848537528E+01
 0.1582561561658E+01
 0.1654917462443E+01
 0.1724089734120E+01
 0.1791007362546E+01
 0.1856300293060E+01
 0.1920224000554E+01
 0.1982557599593E+01
 0.2042462687629E+01
 0.2098293031252E+01
 0.2147350829969E+01
 0.2834428670648E+00
 0.5039261939522E+00
 0.6929649178105E+00
 0.8556962745610E+00
 0.9971022668741E+00
 0.1121203156812E+01
 0.1231219224552E+01
 0.1329771071568E+01
 0.1419036730255E+01
 0.1500864579940E+01
 0.1576846563894E+01
 0.1648354229763E+01
 0.1716542262226E+01
 0.1782322609112E+01
 0.1846311600882E+01
 0.1908757346200E+01
 0.1969441905287E+01
 0.2027545223147E+01
 0.2081460241423E+01
 0.2128553934309E+01
 0.2849267054050E+00
 0.5035867588821E+00
 0.6912390510945E+00
 0.8528941537895E+00
 0.9934114045542E+00
 0.1116718817234E+01
 0.1225967882414E+01
 0.1323726590650E+01
 0.1412131126957E+01
 0.1492995213998E+01
 0.1567881103530E+01
 0.1638134211653E+01
 0.1704886185995E+01
 0.1769029353475E+01
 0.1831165277434E+01
 0.1891535879484E+01
 0.1949931593017E+01
 0.2005562671976E+01
 0.2056881544360E+01
 0.2101348541706E+01
 0.2871974900282E+00
 0.5032615838038E+00
 0.6889541159407E+00
 0.8491002854670E+00
 0.9883823611046E+00
 0.1110596827955E+01
 0.1218798787663E+01
 0.1315484081068E+01
 0.1402732888600E+01
 0.1482313808115E+01
 0.1555751609883E+01
 0.1624359777996E+01
 0.1689242872035E+01
 0.1751270955272E+01
 0.1811029188896E+01
 0.1868753419935E+01
 0.1924246112744E+01
 0.1976757254632E+01
 0.2024815628885E+01
 0.2065998627278E+01
 0.2902474607995E+00
 0.5029649174853E+00
 0.6861405830995E+00
 0.8443563461917E+00
 0.9820651909237E+00
 0.1102894474478E+01
 0.1209776612730E+01
 0.1305116802027E+01
 0.1390925919014E+01
 0.1468917679639E+01
 0.1540572151934E+01
 0.1607165483105E+01
 0.1669771325058E+01
 0.1729234783393E+01
 0.1786122361927E+01
 0.1840662546558E+01
 0.1892671189808E+01
 0.1941444214322E+01
 0.1985599475038E+01
 0.2022849755304E+01
 0.2940662082291E+00
 0.5027148106030E+00
 0.6828372496407E+00
 0.8387152795473E+00
 0.9745231902393E+00
 0.1093683779743E+01
 0.1198982163398E+01
 0.1292715737744E+01
 0.1376813861023E+01
 0.1452926494230E+01
 0.1522482482126E+01
 0.1586715714225E+01
 0.1646665440204E+01
 0.1703149144638E+01
 0.1756711759905E+01
 0.1807571511908E+01
 0.1855556298490E+01
 0.1900010446222E+01
 0.1939649051629E+01
 0.1972333313279E+01
 0.2986406883571E+00
 0.5025329333813E+00
 0.6790908398399E+00
 0.8322407476248E+00
 0.9658322104790E+00
 0.1083050658835E+01
 0.1186511337566E+01
 0.1278388311827E+01
 0.1360518508018E+01
 0.1434480308600E+01
 0.1501645643598E+01
 0.1563201805927E+01
 0.1620150610528E+01
 0.1673279459059E+01
 0.1723108221038E+01
 0.1769840283566E+01
 0.1813311309058E+01
 0.1852912442190E+01
 0.1887459546172E+01
 0.1914970881579E+01
 0.3039552725274E+00
 0.5024443722776E+00
 0.6749555481635E+00
 0.8250064992921E+00
 0.9560798639162E+00
 0.1071093937564E+01
 0.1172473914498E+01
 0.1262256893442E+01
 0.1342177961255E+01
 0.1413737301474E+01
 0.1478245191297E+01
 0.1536838668915E+01
 0.1590479723228E+01
 0.1639923682643E+01
 0.1685661503369E+01
 0.1727875579950E+01
 0.1766402072730E+01
 0.1800673179727E+01
 0.1829604613490E+01
 0.1851377929614E+01
 0.3099918452647E+00
 0.5024774116891E+00
 0.6704925355903E+00
 0.8170956697105E+00
 0.9453646378454E+00
 0.1057924252757E+01
 0.1156992195486E+01
 0.1244457122156E+01
 0.1321944568981E+01
 0.1390871240018E+01
 0.1452482083878E+01
 0.1507860992111E+01
 0.1557928591413E+01
 0.1603406992353E+01
 0.1644754391559E+01
 0.1682124759841E+01
 0.1715344678649E+01
 0.1743877541824E+01
 0.1766734022300E+01
 0.1782265805507E+01
 0.3167299619655E+00
 0.5026633091391E+00
 0.6657693985105E+00
 0.8086000362874E+00
 0.9337949449954E+00
 0.1043662862684E+01
 0.1140199526022E+01
 0.1225136086591E+01
 0.1299982692075E+01
 0.1366068739521E+01
 0.1424571317228E+01
 0.1476519093178E+01
 0.1522790885163E+01
 0.1564075766230E+01
 0.1600795835588E+01
 0.1633068421139E+01
 0.1660698064698E+01
 0.1683165751426E+01
 0.1699568842101E+01
 0.1708440309593E+01
 0.3241470612657E+00
 0.5030360676550E+00
 0.6608596253843E+00
 0.7996192549307E+00
 0.9214881372847E+00
 0.1028440395403E+01
 0.1122238729082E+01
 0.1204450392924E+01
 0.1276466345437E+01
 0.1339526386095E+01
 0.1394738393870E+01
 0.1443074528403E+01
 0.1485372670983E+01
 0.1522290948856E+01
 0.1554213173168E+01
 0.1581211664808E+01
 0.1603054726380E+01
 0.1619224250341E+01
 0.1628893325253E+01
 0.1630795283222E+01
 0.3322187383443E+00
 0.5036322123900E+00
 0.6558420638575E+00
 0.7902601074918E+00
 0.9085695142097E+00
 0.1012395562757E+01
 0.1103260475717E+01
 0.1182564153542E+01
 0.1251576758092E+01
 0.1311447789763E+01
 0.1363215731860E+01
 0.1407795596776E+01
 0.1445986700424E+01
 0.1478420923312E+01
 0.1505443541263E+01
 0.1527074107094E+01
 0.1543029409685E+01
 0.1552773380771E+01
 0.1555542135188E+01
 0.1550298754971E+01
 0.3409190620198E+00
 0.5044905704062E+00
 0.6508004238543E+00
 0.7806358008986E+00
 0.8951713644863E+00
 0.9956738701593E+00
 0.1083421617664E+01
 0.1159646921527E+01
 0.1225499885403E+01
 0.1282040623618E+01
 0.1330239115277E+01
 0.1370952894938E+01
 0.1404946622267E+01
 0.1432834025068E+01
 0.1454924563374E+01
 0.1471178808152E+01
 0.1481246028101E+01
 0.1484551430950E+01
 0.1480380682683E+01
 0.1467966303849E+01
 0.3502209086545E+00
 0.5056520475070E+00
 0.6458228500232E+00
 0.7708653669439E+00
 0.8814320768106E+00
 0.9784263366892E+00
 0.1062883487261E+01
 0.1135871576468E+01
 0.1198423880135E+01
 0.1251513666075E+01
 0.1296044258163E+01
 0.1332815091795E+01
 0.1362561363608E+01
 0.1385890886199E+01
 0.1403084352286E+01
 0.1414040170131E+01
 0.1418323524371E+01
 0.1415296111879E+01
 0.1404276775275E+01
 0.1384815962973E+01
 0.3600962518610E+00
 0.5071593825842E+00
 0.6410016261735E+00
 0.7610732579944E+00
 0.8674953821362E+00
 0.9608082564459E+00
 0.1041810194765E+01
 0.1111412212943E+01
 0.1170536581567E+01
 0.1220073900183E+01
 0.1260863579060E+01
 0.1293645194879E+01
 0.1319130170176E+01
 0.1337937159845E+01
 0.1350331005236E+01
 0.1356150694116E+01
 0.1354861190561E+01
 0.1345727360450E+01
 0.1328068976069E+01
 0.1301806568293E+01
 0.3705162940523E+00
 0.5090568318144E+00
 0.6364331526829E+00
 0.7513892928117E+00
 0.8535097903663E+00
 0.9429779694757E+00
 0.1020366904835E+01
 0.1086442047221E+01
 0.1142023036003E+01
 0.1187923621298E+01
 0.1224923071871E+01
 0.1253697305384E+01
 0.1274938812813E+01
 0.1289297412484E+01
 0.1297041974638E+01
 0.1297965459837E+01
 0.1291422361074E+01
 0.1276533813736E+01
 0.1252551373102E+01
 0.1219805535078E+01
 0.3814511280018E+00
 0.5113897304584E+00
 0.6322184584866E+00
 0.7419492931644E+00
 0.8396282088301E+00
 0.9250955386394E+00
 0.9987180385206E+00
 0.1061131437886E+01
 0.1113063154882E+01
 0.1155257573019E+01
 0.1188439173864E+01
 0.1213213611383E+01
 0.1230257261938E+01
 0.1240272364252E+01
 0.1243554888309E+01
 0.1239883794975E+01
 0.1228511844121E+01
 0.1208362043227E+01
 0.1178479965706E+01
 0.1139604325441E+01
 0.3928683273937E+00
 0.5142035491144E+00
 0.6284654200320E+00
 0.7328968408026E+00
 0.8260077399987E+00
 0.9073208507444E+00
 0.9770253874809E+00
 0.1035646151847E+01
 0.1083829660346E+01
 0.1122260100992E+01
 0.1151615369637E+01
 0.1172421106025E+01
 0.1185337536845E+01
 0.1191140689320E+01
 0.1190167947365E+01
 0.1182226129423E+01
 0.1166540138775E+01
 0.1141794041493E+01
 0.1106596551471E+01
 0.1061939069662E+01
 0.4047276597549E+00
 0.5175443338965E+00
 0.6252939516297E+00
 0.7243885932763E+00
 0.8128077800814E+00
 0.8898106531176E+00
 0.9554461759086E+00
 0.1010146277364E+01
 0.1054486519289E+01
 0.1089102559162E+01
 0.1114638458600E+01
 0.1131527375080E+01
 0.1140410949485E+01
 0.1142160087536E+01
 0.1137157880124E+01
 0.1125241213591E+01
 0.1105731665355E+01
 0.1077295886239E+01
 0.1037660675660E+01
 0.9875893462493E+00
 0.4169684929018E+00
 0.5214497547768E+00
 0.6228671431353E+00
 0.7165962217784E+00
 0.8001834754702E+00
 0.8727154412386E+00
 0.9341311289601E+00
 0.9847853434976E+00
 0.1025190078659E+01
 0.1055940133099E+01
 0.1077674509885E+01
 0.1090716293470E+01
 0.1095681913121E+01
 0.1093567491422E+01
 0.1084787111796E+01
 0.1069192005435E+01
 0.1046132055652E+01
 0.1014778443357E+01
 0.9726079794769E+00
 0.9177273523212E+00
 0.4293854348745E+00
 0.5261029135690E+00
 0.6214314065228E+00
 0.7096872061883E+00
 0.7882769337368E+00
 0.8561766526962E+00
 0.9132247108382E+00
 0.9597066694591E+00
 0.9960901890113E+00
 0.1022922408199E+01
 0.1040848336028E+01
 0.1050144282770E+01
 0.1051335685622E+01
 0.1045550927031E+01
 0.1033314806441E+01
 0.1014364826735E+01
 0.9880131006366E+00
 0.9534689450171E+00
 0.9103510572690E+00
 0.8567306883395E+00
 0.1011121417459E+01
 0.3801967275883E+00
 0.7399184500174E-01
 0.7366373537342E-02
 0.5557268108683E-01
 0.8829694391853E-01
 0.1133772565203E+00
 0.1330360072543E+00
 0.1474656136193E+00
 0.1562421246473E+00
 0.1580048016569E+00
 0.1507263563924E+00
 0.1323132422225E+00
 0.1047081467757E+00
 0.7071224612773E-01
 0.3322673261477E-01
 0.7862527916567E-02
 0.4173328390550E-01
 0.7841581580023E-01
 0.1275520659005E+00
 0.1048545575083E+01
 0.7354895524815E+00
 0.2884681693196E+00
 0.1110385820207E+00
 0.2907020013805E-01
 0.2122643775979E-01
 0.5553124651589E-01
 0.8102739438201E-01
 0.1001802845996E+00
 0.1134721327403E+00
 0.1203759322239E+00
 0.1212865138180E+00
 0.1133177051940E+00
 0.9461424854894E-01
 0.6756410522450E-01
 0.3574922917931E-01
 0.5408487402875E-02
 0.2952347050840E-01
 0.6202145332904E-01
 0.9598069022760E-01
 0.9725971666603E+00
 0.8446193644778E+00
 0.4962199074316E+00
 0.2558219425007E+00
 0.1314256961164E+00
 0.5937725913729E-01
 0.1220606026502E-01
 0.2147784374206E-01
 0.4665992079804E-01
 0.6549820119648E-01
 0.7855514206899E-01
 0.8674694907037E-01
 0.8719919662573E-01
 0.7652958805024E-01
 0.5664468033253E-01
 0.3115193338666E-01
 0.4846974420778E-02
 0.2296614568735E-01
 0.4815165385118E-01
 0.6924249515529E-01
 0.8954336825192E+00
 0.8659125053387E+00
 0.6240320986241E+00
 0.3968378182865E+00
 0.2446841475318E+00
 0.1505628890676E+00
 0.8892609370670E-01
 0.4562668437902E-01
 0.1327912885904E-01
 0.1183936360562E-01
 0.3120072565756E-01
 0.4621551396905E-01
 0.5421807777606E-01
 0.5101728266263E-01
 0.3811275370499E-01
 0.1913449651463E-01
 0.2112101042403E-02
 0.2255879362713E-01
 0.4033559850598E-01
 0.5182876734865E-01
 0.8272173732938E+00
 0.8518007814914E+00
 0.6956026886757E+00
 0.5070407401195E+00
 0.3542655773265E+00
 0.2465874767510E+00
 0.1722991042509E+00
 0.1192887445026E+00
 0.7938415733319E-01
 0.4777753498782E-01
 0.2221679807995E-01
 0.1730772362781E-02
 0.1428901788549E-01
 0.1811450668807E-01
 0.1194619828372E-01
 0.1273691307067E-02
 0.1563658328506E-01
 0.3005335545628E-01
 0.4135856276528E-01
 0.4645982034521E-01
 0.7692695498405E+00
 0.8232925159864E+00
 0.7314452218398E+00
 0.5865946455040E+00
 0.4490968935067E+00
 0.3399006106449E+00
 0.2582898696295E+00
 0.1975333986332E+00
 0.1507683203338E+00
 0.1130190782629E+00
 0.8160731456914E-01
 0.5434732073922E-01
 0.3306563549142E-01
 0.2266898753583E-01
 0.2250391303223E-01
 0.2887431365866E-01
 0.3803005372701E-01
 0.4692598592663E-01
 0.5319440249177E-01
 0.5478325144863E-01
 0.7203939855467E+00
 0.7899466746344E+00
 0.7453349931075E+00
 0.6413697574264E+00
 0.5265662871441E+00
 0.4250014308720E+00
 0.3426292147262E+00
 0.2777177895392E+00
 0.2259456412232E+00
 0.1831398438598E+00
 0.1467013849272E+00
 0.1143237682136E+00
 0.8740088183218E-01
 0.7099745084854E-01
 0.6503961328716E-01
 0.6588999818986E-01
 0.6996373991379E-01
 0.7430313968712E-01
 0.7702219477013E-01
 0.7730894662664E-01
 0.6790208818495E+00
 0.7563094644724E+00
 0.7461089884642E+00
 0.6776873668704E+00
 0.5878702339306E+00
 0.4996406889126E+00
 0.4221484475362E+00
 0.3572272867408E+00
 0.3031201708342E+00
 0.2570044435911E+00
 0.2168061024381E+00
 0.1803775289120E+00
 0.1487934756130E+00
 0.1272205916226E+00
 0.1161982673356E+00
 0.1122691014910E+00
 0.1121024340127E+00
 0.1129141676690E+00
 0.1133431453198E+00
 0.1137261163349E+00
 0.6436807438806E+00
 0.7245260320278E+00
 0.7394075641516E+00
 0.7008559170871E+00
 0.6355984610199E+00
 0.5636746405699E+00
 0.4951768264333E+00
 0.4340422339490E+00
 0.3805527798374E+00
 0.3333067453164E+00
 0.2910025250557E+00
 0.2518892713403E+00
 0.2168607186724E+00
 0.1911660967913E+00
 0.1760107111152E+00
 0.1682137353504E+00
 0.1647316180940E+00
 0.1629693909786E+00
 0.1620139331922E+00
 0.1630928406589E+00
 0.6131262578617E+00
 0.6955197311622E+00
 0.7288265777856E+00
 0.7149866428654E+00
 0.6725644597024E+00
 0.6180654524240E+00
 0.5612112456801E+00
 0.5069108803836E+00
 0.4568256211897E+00
 0.4107678273969E+00
 0.3682484997315E+00
 0.3280529982348E+00
 0.2910162214076E+00
 0.2624517763699E+00
 0.2442508998251E+00
 0.2335813710115E+00
 0.2276899832763E+00
 0.2241379072112E+00
 0.2223102174229E+00
 0.2239860493495E+00
 0.5863364399657E+00
 0.6695725831301E+00
 0.7166422528300E+00
 0.7231434792750E+00
 0.7013297501736E+00
 0.6642226097954E+00
 0.6204901035034E+00
 0.5752425868529E+00
 0.5309315323966E+00
 0.4882698188614E+00
 0.4474838452770E+00
 0.4079318607186E+00
 0.3704690277170E+00
 0.3404324858909E+00
 0.3203695052708E+00
 0.3078383216436E+00
 0.3003599867353E+00
 0.2955976774517E+00
 0.2930530741067E+00
 0.2946927108018E+00
 0.5624895675029E+00
 0.6466273662519E+00
 0.7042661338481E+00
 0.7275538608111E+00
 0.7240447820066E+00
 0.7036325414483E+00
 0.6736443351876E+00
 0.6389166415542E+00
 0.6022380666746E+00
 0.5649068712379E+00
 0.5277022091183E+00
 0.4905155626378E+00
 0.4542536999838E+00
 0.4242043172023E+00
 0.4034852314557E+00
 0.3900588199101E+00
 0.3816985063285E+00
 0.3761176387744E+00
 0.3727495438373E+00
 0.3733820560939E+00
 0.5409305074458E+00
 0.6264515664124E+00
 0.6925347573133E+00
 0.7297986525637E+00
 0.7424282803974E+00
 0.7376691664303E+00
 0.7214582591112E+00
 0.6980977976584E+00
 0.6703982467674E+00
 0.6399754672419E+00
 0.6079846697937E+00
 0.5747663064690E+00
 0.5412711692066E+00
 0.5126350850019E+00
 0.4924106653741E+00
 0.4789581271749E+00
 0.4702915637348E+00
 0.4641460644629E+00
 0.4597177939155E+00
 0.4582391373408E+00
 0.5211406088215E+00
 0.6087289836213E+00
 0.6818977881612E+00
 0.7309647866684E+00
 0.7578013217561E+00
 0.7675089380249E+00
 0.7647208562975E+00
 0.7530914078181E+00
 0.7352532042434E+00
 0.7129345209711E+00
 0.6875050737352E+00
 0.6596512160621E+00
 0.6303342216987E+00
 0.6044150007563E+00
 0.5857069935036E+00
 0.5729520619082E+00
 0.5644203760144E+00
 0.5578870496213E+00
 0.5521812034009E+00
 0.5475616689996E+00
 0.5027120411466E+00
 0.5931117168940E+00
 0.6725428743386E+00
 0.7317631695679E+00
 0.7711390919738E+00
 0.7941027734101E+00
 0.8041408681915E+00
 0.8042415397649E+00
 0.7967482413374E+00
 0.7833572866079E+00
 0.7655198661662E+00
 0.7441639021865E+00
 0.7202145294346E+00
 0.6981241667368E+00
 0.6817661891027E+00
 0.6702422275562E+00
 0.6621334547434E+00
 0.6553525289811E+00
 0.6483164452227E+00
 0.6398232477617E+00
 0.4853263623931E+00
 0.5792494415662E+00
 0.6644803248044E+00
 0.7326192106985E+00
 0.7831251726823E+00
 0.8181779899682E+00
 0.8403038060751E+00
 0.8518652275220E+00
 0.8548691027171E+00
 0.8508873003836E+00
 0.8413518609615E+00
 0.8273376139255E+00
 0.8096866018809E+00
 0.7923117749368E+00
 0.7789234148598E+00
 0.7689383439604E+00
 0.7613379178593E+00
 0.7543857433501E+00
 0.7462368034496E+00
 0.7336975591668E+00
 0.4687362920868E+00
 0.5668048018508E+00
 0.6576016940319E+00
 0.7337431694088E+00
 0.7942032304190E+00
 0.8402559402762E+00
 0.8736556300027E+00
 0.8962141011575E+00
 0.9095982338256E+00
 0.9152039594619E+00
 0.9143739861699E+00
 0.9082505719943E+00
 0.8975599832054E+00
 0.8855681304800E+00
 0.8755936327676E+00
 0.8672484022139E+00
 0.8599542117399E+00
 0.8526879210586E+00
 0.8438745107173E+00
 0.8280258376946E+00
 0.4527492237510E+00
 0.5554598966071E+00
 0.6517209347375E+00
 0.7351868333766E+00
 0.8046256161486E+00
 0.8606784229895E+00
 0.9045032363098E+00
 0.9374548715703E+00
 0.9608879381173E+00
 0.9759993730000E+00
 0.9839977359382E+00
 0.9860256548097E+00
 0.9826881782806E+00
 0.9765566334253E+00
 0.9703603347282E+00
 0.9637381305531E+00
 0.9562922503917E+00
 0.9479305902387E+00
 0.9387649466928E+00
 0.9216208754620E+00
 0.4372119688726E+00
 0.5449146175179E+00
 0.6466052129880E+00
 0.7368918127878E+00
 0.8145018208890E+00
 0.8796400556642E+00
 0.9330254445713E+00
 0.9756618729747E+00
 0.1008642884823E+01
 0.1032968291694E+01
 0.1049672262028E+01
 0.1059833786019E+01
 0.1063961392778E+01
 0.1063973995375E+01
 0.1061922322746E+01
 0.1057332672600E+01
 0.1049694769812E+01
 0.1038763111626E+01
 0.1027518244675E+01
 0.1012758222464E+01
 0.4219915759551E+00
 0.5348867137021E+00
 0.6419888383415E+00
 0.7387420749657E+00
 0.8238556029668E+00
 0.8972226781526E+00
 0.9592874527096E+00
 0.1010819883943E+01
 0.1052705752551E+01
 0.1085786274603E+01
 0.1110921487931E+01
 0.1128929517752E+01
 0.1140298189111E+01
 0.1146510961719E+01
 0.1148886680796E+01
 0.1146899226396E+01
 0.1139804557250E+01
 0.1126839134543E+01
 0.1109174122891E+01
 0.1095950479402E+01
 0.4432467077220E+00
 0.5341453716290E+00
 0.6239038546832E+00
 0.7062449100409E+00
 0.7786272953812E+00
 0.8401383743739E+00
 0.8906660729444E+00
 0.9305625968075E+00
 0.9603947200025E+00
 0.9807674202541E+00
 0.9923530628337E+00
 0.9958207096059E+00
 0.9916069740046E+00
 0.9810356223021E+00
 0.9652714616986E+00
 0.9437844889409E+00
 0.9158525603186E+00
 0.8807628980931E+00
 0.8397468706439E+00
 0.8013746471906E+00
 0.4587245106440E+00
 0.5447759380847E+00
 0.6294953428986E+00
 0.7056067078895E+00
 0.7705484012463E+00
 0.8237360724373E+00
 0.8653865919548E+00
 0.8961439980523E+00
 0.9168369935153E+00
 0.9282848826175E+00
 0.9313837538388E+00
 0.9271046151522E+00
 0.9159753782849E+00
 0.8997042949445E+00
 0.8800901509108E+00
 0.8566553445874E+00
 0.8288840984323E+00
 0.7964710034323E+00
 0.7622715055879E+00
 0.7226813325550E+00
 0.4745832893918E+00
 0.5561990115575E+00
 0.6360539938554E+00
 0.7057517465605E+00
 0.7627281145647E+00
 0.8068733960918E+00
 0.8389102324340E+00
 0.8599036802448E+00
 0.8710102701963E+00
 0.8733086363584E+00
 0.8679217141726E+00
 0.8559272555517E+00
 0.8379796079486E+00
 0.8163560556568E+00
 0.7934155882608E+00
 0.7687618972386E+00
 0.7419378109877E+00
 0.7127267014641E+00
 0.6809997971772E+00
 0.6391593429050E+00
 0.4909439063475E+00
 0.5687315670730E+00
 0.6438791984128E+00
 0.7068046521633E+00
 0.7551223232339E+00
 0.7894154655437E+00
 0.8110899774453E+00
 0.8217516943170E+00
 0.8229458938554E+00
 0.8160176949865E+00
 0.8022755530215E+00
 0.7828353828852E+00
 0.7584867384691E+00
 0.7320917499141E+00
 0.7064528451325E+00
 0.6810946836114E+00
 0.6553258912758E+00
 0.6279503726410E+00
 0.5970729160227E+00
 0.5567728686801E+00
 0.5079785581016E+00
 0.5826937733042E+00
 0.6532202593209E+00
 0.7088126433820E+00
 0.7475740960046E+00
 0.7710849201551E+00
 0.7816326700623E+00
 0.7814720937601E+00
 0.7725728336583E+00
 0.7565254215620E+00
 0.7347753593491E+00
 0.7084088394704E+00
 0.6783302278213E+00
 0.6479226087378E+00
 0.6202226278669E+00
 0.5944944592331E+00
 0.5695503217431E+00
 0.5434441237669E+00
 0.5139380313842E+00
 0.4772899665588E+00
 0.5259073487622E+00
 0.5984318717305E+00
 0.6642688919850E+00
 0.7116924443294E+00
 0.7397575122645E+00
 0.7514277714847E+00
 0.7500865033749E+00
 0.7387253279221E+00
 0.7197397849191E+00
 0.6949125989026E+00
 0.6657508273146E+00
 0.6332294229257E+00
 0.5983206258097E+00
 0.5648156066321E+00
 0.5357625382556E+00
 0.5100385532940E+00
 0.4859982363628E+00
 0.4613085952672E+00
 0.4338969535510E+00
 0.4017971351037E+00
 0.5450126221667E+00
 0.6163157707023E+00
 0.6771312108183E+00
 0.7151818243434E+00
 0.7311285075680E+00
 0.7297820166486E+00
 0.7158333303627E+00
 0.6930618559087E+00
 0.6642417995591E+00
 0.6312491674071E+00
 0.5955433239744E+00
 0.5578883642393E+00
 0.5192632744533E+00
 0.4837413108421E+00
 0.4541812424469E+00
 0.4290314799792E+00
 0.4062797617388E+00
 0.3834146247542E+00
 0.3586542818379E+00
 0.3312049469111E+00
 0.5656553057870E+00
 0.6367313231789E+00
 0.6917836801803E+00
 0.7187805365276E+00
 0.7208747983424E+00
 0.7052521694670E+00
 0.6780923178431E+00
 0.6439490306535E+00
 0.6058573154860E+00
 0.5656293455025E+00
 0.5245306263178E+00
 0.4830009407472E+00
 0.4419652354538E+00
 0.4056586298247E+00
 0.3765857285695E+00
 0.3527583661004E+00
 0.3318619842814E+00
 0.3113044377343E+00
 0.2895398727470E+00
 0.2664247990609E+00
 0.5882942686583E+00
 0.6600631509744E+00
 0.7080098501714E+00
 0.7216749908894E+00
 0.7078615932354E+00
 0.6766927198272E+00
 0.6359414451924E+00
 0.5908182364551E+00
 0.5444032768525E+00
 0.4982192545201E+00
 0.4531579925235E+00
 0.4092183617103E+00
 0.3672239669337E+00
 0.3314683497774E+00
 0.3039745419058E+00
 0.2823271235893E+00
 0.2639463732176E+00
 0.2461906337839E+00
 0.2276347385116E+00
 0.2083772771278E+00
 0.6135095418841E+00
 0.6866628761825E+00
 0.7253085454351E+00
 0.7226404375086E+00
 0.6905736952045E+00
 0.6427079563044E+00
 0.5883673973753E+00
 0.5331412946695E+00
 0.4798116922140E+00
 0.4293150858411E+00
 0.3819700585813E+00
 0.3372333804363E+00
 0.2958074443757E+00
 0.2619655313978E+00
 0.2371653857341E+00
 0.2185926872698E+00
 0.2034249924147E+00
 0.1889717683864E+00
 0.1738044804948E+00
 0.1579494288855E+00
 0.6420304093702E+00
 0.7167929904318E+00
 0.7427584195711E+00
 0.7199129985414E+00
 0.6670596857586E+00
 0.6016836383826E+00
 0.5343603230999E+00
 0.4705456078283E+00
 0.4122277637943E+00
 0.3594053968687E+00
 0.3116360698621E+00
 0.2677769895241E+00
 0.2284315007065E+00
 0.1978056050015E+00
 0.1767578996153E+00
 0.1621271938011E+00
 0.1508687985029E+00
 0.1402351389656E+00
 0.1286849127976E+00
 0.1159270905940E+00
 0.6747685630412E+00
 0.7505280073597E+00
 0.7588138314853E+00
 0.7110235835071E+00
 0.6348945444479E+00
 0.5518795856175E+00
 0.4730771933574E+00
 0.4029754843604E+00
 0.3421221373536E+00
 0.2892238158017E+00
 0.2429570535487E+00
 0.2016013178648E+00
 0.1657357426152E+00
 0.1394847330603E+00
 0.1231230540207E+00
 0.1132189165974E+00
 0.1065314952503E+00
 0.1002526671257E+00
 0.9264622707729E-01
 0.8291795998182E-01
 0.7128543195810E+00
 0.7875774801037E+00
 0.7709905778905E+00
 0.6925907368412E+00
 0.5912006185363E+00
 0.4916346737590E+00
 0.4041027217337E+00
 0.3308961900253E+00
 0.2703939881942E+00
 0.2197679276759E+00
 0.1768400853857E+00
 0.1394439295948E+00
 0.1082584156530E+00
 0.8733382022604E-01
 0.7641468026359E-01
 0.7189333427399E-01
 0.7036787583550E-01
 0.6898092644477E-01
 0.6575739648414E-01
 0.5927813656089E-01
 0.7576671947015E+00
 0.8269598337602E+00
 0.7753724538924E+00
 0.6600898526395E+00
 0.5328171865394E+00
 0.4197669848457E+00
 0.3278292512797E+00
 0.2555056523822E+00
 0.1984162532913E+00
 0.1522511278085E+00
 0.1142281869180E+00
 0.8197492746546E-01
 0.5641672249607E-01
 0.4153370110283E-01
 0.3660706642174E-01
 0.3795584669887E-01
 0.4206869042005E-01
 0.4607682397611E-01
 0.4777165533466E-01
 0.4506740756477E-01
 0.8108334033648E+00
 0.8663756952311E+00
 0.7658253598877E+00
 0.6076863490281E+00
 0.4568107255534E+00
 0.3362854413785E+00
 0.2459213133220E+00
 0.1788560078534E+00
 0.1279451651359E+00
 0.8796318405320E-01
 0.5599184655473E-01
 0.2974999354608E-01
 0.1060713802347E-01
 0.2912493962437E-02
 0.3927067011985E-02
 0.1107897843842E-01
 0.2111385219662E-01
 0.3094197545116E-01
 0.3815190882108E-01
 0.4005824212081E-01
 0.8740974883935E+00
 0.9009353196632E+00
 0.7327485425862E+00
 0.5284264744461E+00
 0.3617324669318E+00
 0.2434716465637E+00
 0.1616797954018E+00
 0.1036747820870E+00
 0.6083981841545E-01
 0.2806143844051E-01
 0.3040624563645E-02
 0.1706696086130E-01
 0.2959722581449E-01
 0.3122965585086E-01
 0.2332110041975E-01
 0.9417645303451E-02
 0.6857275845252E-02
 0.2280437434534E-01
 0.3610243816537E-01
 0.4371176722662E-01
 0.9488163746474E+00
 0.9203427318491E+00
 0.6611864508951E+00
 0.4158011748257E+00
 0.2502199700613E+00
 0.1471257170263E+00
 0.7962788159335E-01
 0.3276122236232E-01
 0.1336916892229E-02
 0.2667802780305E-01
 0.4503923945769E-01
 0.5797637575491E-01
 0.6346787691678E-01
 0.5817582587396E-01
 0.4372762127637E-01
 0.2356550799150E-01
 0.1879425994578E-02
 0.2076632708790E-01
 0.4052095296781E-01
 0.5507564757479E-01
 0.1033662473319E+01
 0.9019642483443E+00
 0.5288665840405E+00
 0.2693840042457E+00
 0.1340137972740E+00
 0.5530869868333E-01
 0.4207452199422E-02
 0.3176530987347E-01
 0.5760668699468E-01
 0.7587491298922E-01
 0.8740643137530E-01
 0.9330245744717E-01
 0.9138214935721E-01
 0.7900217128958E-01
 0.5803941404515E-01
 0.3188449803248E-01
 0.5039530251342E-02
 0.2372460069402E-01
 0.4996887917217E-01
 0.7284042665912E-01
 0.1117834569419E+01
 0.7893591075842E+00
 0.3099587944749E+00
 0.1178999827096E+00
 0.2874766759798E-01
 0.2579463302316E-01
 0.6242996600571E-01
 0.8881090092780E-01
 0.1076721226363E+00
 0.1197402445559E+00
 0.1247621502389E+00
 0.1233427967155E+00
 0.1133525038935E+00
 0.9353353039325E-01
 0.6610318889221E-01
 0.3443625047976E-01
 0.4851216544821E-02
 0.3052004151510E-01
 0.6264549211677E-01
 0.9541206892770E-01
 0.1081372370954E+01
 0.4123437672213E+00
 0.8212815607032E-01
 0.6451700812548E-02
 0.5818923568075E-01
 0.9297382974665E-01
 0.1188865486591E+00
 0.1383294387464E+00
 0.1516711571856E+00
 0.1587023229925E+00
 0.1583643332919E+00
 0.1488958808557E+00
 0.1289668984891E+00
 0.1010003441076E+00
 0.6751415818783E-01
 0.3122061354724E-01
 0.8017129935432E-02
 0.4096874917549E-01
 0.7619595566748E-01
 0.1201333321681E+00
 0.1116853092925E+01
 0.1033418163678E+01
 0.9492341814253E+00
 0.8637029218511E+00
 0.7761691823567E+00
 0.6872491570080E+00
 0.5979744574281E+00
 0.5096494865152E+00
 0.4237855581867E+00
 0.3420853466608E+00
 0.2664296935488E+00
 0.1988483751181E+00
 0.1414562479793E+00
 0.9633342792759E-01
 0.6533156966747E-01
 0.4983343584775E-01
 0.5047616939249E-01
 0.6661270320321E-01
 0.9609164622839E-01
 0.1375755432440E+00
 0.1200557594115E+01
 0.1128700836861E+01
 0.1046945455196E+01
 0.9606837600048E+00
 0.8715630031864E+00
 0.7802543242001E+00
 0.6875091481344E+00
 0.5943131037951E+00
 0.5019467764255E+00
 0.4120070018088E+00
 0.3264219786253E+00
 0.2474561895802E+00
 0.1776921185518E+00
 0.1199639767395E+00
 0.7720487279188E-01
 0.5218320386172E-01
 0.4721134197924E-01
 0.6343713097790E-01
 0.9983037801655E-01
 0.1535001897714E+00
 0.1285875238605E+01
 0.1219973572727E+01
 0.1145245660377E+01
 0.1063215620214E+01
 0.9761168941261E+00
 0.8851817935056E+00
 0.7912802151299E+00
 0.6952983454354E+00
 0.5983194897067E+00
 0.5017325933101E+00
 0.4073091709917E+00
 0.3172695354928E+00
 0.2343409046756E+00
 0.1617961079742E+00
 0.1034399785951E+00
 0.6347769578891E-01
 0.4625513180743E-01
 0.5581874886506E-01
 0.9360254062695E-01
 0.1562611799799E+00
 0.1373803316208E+01
 0.1313205778325E+01
 0.1244969405091E+01
 0.1169185637247E+01
 0.1086917070233E+01
 0.9992688520962E+00
 0.9070953715674E+00
 0.8111769220695E+00
 0.7123892952861E+00
 0.6118375687486E+00
 0.5109716033431E+00
 0.4117005772040E+00
 0.3165204330688E+00
 0.2286617404141E+00
 0.1522540979332E+00
 0.9247217635144E-01
 0.5557666635990E-01
 0.4893917439344E-01
 0.7968777257492E-01
 0.1489394986840E+00
 0.1462815273145E+01
 0.1408077210320E+01
 0.1346577017149E+01
 0.1277825241867E+01
 0.1202154330605E+01
 0.1120177599689E+01
 0.1032519101822E+01
 0.9397660106215E+00
 0.8425483479342E+00
 0.7416406015368E+00
 0.6380700666670E+00
 0.5332391484203E+00
 0.4290776844876E+00
 0.3282473879980E+00
 0.2344268311655E+00
 0.1527108035447E+00
 0.9014907530526E-01
 0.5649332528925E-01
 0.6561747389174E-01
 0.1321155229959E+00
 0.1551452811604E+01
 0.1503312267901E+01
 0.1448998364738E+01
 0.1387910912840E+01
 0.1319973975123E+01
 0.1245421929925E+01
 0.1164598129767E+01
 0.1077873247659E+01
 0.9856482527294E+00
 0.8884049585285E+00
 0.7867779679953E+00
 0.6816465459958E+00
 0.5742582735542E+00
 0.4664086801052E+00
 0.3607190159352E+00
 0.2610868565868E+00
 0.1734539638697E+00
 0.1072029241635E+00
 0.7826889171235E-01
 0.1165825097823E+00
 0.1638293190764E+01
 0.1597312349371E+01
 0.1550593296346E+01
 0.1497595207473E+01
 0.1438079053098E+01
 0.1372050204250E+01
 0.1299652665086E+01
 0.1221097464029E+01
 0.1136642061600E+01
 0.1046606130449E+01
 0.9514111594721E+00
 0.8516388545311E+00
 0.7481138881321E+00
 0.6420273229785E+00
 0.5351330262248E+00
 0.4300808435930E+00
 0.3310189784992E+00
 0.2447990076927E+00
 0.1836678688067E+00
 0.1745299685557E+00
 0.1722043252394E+01
 0.1688515195034E+01
 0.1649599854692E+01
 0.1604856711242E+01
 0.1554000993905E+01
 0.1496920146582E+01
 0.1433631145221E+01
 0.1364237712683E+01
 0.1288909422111E+01
 0.1207884301835E+01
 0.1121489298101E+01
 0.1030174588195E+01
 0.9345614029608E+00
 0.8355074135044E+00
 0.7341985242515E+00
 0.6322815353112E+00
 0.5320617496164E+00
 0.4367806318108E+00
 0.3510206750924E+00
 0.2796056728929E+00
 0.1801530384810E+01
 0.1775467637117E+01
 0.1744325946808E+01
 0.1707734819349E+01
 0.1665394292271E+01
 0.1617114038249E+01
 0.1562804571815E+01
 0.1502455415889E+01
 0.1436118522348E+01
 0.1363901783853E+01
 0.1285970612926E+01
 0.1202552765170E+01
 0.1113940311059E+01
 0.1020479910539E+01
 0.9225350160262E+00
 0.8203846642385E+00
 0.7139716757596E+00
 0.6022737327228E+00
 0.4815376958934E+00
 0.3393814709373E+00
 0.1875678346826E+01
 0.1856812219157E+01
 0.1833155993169E+01
 0.1804350708411E+01
 0.1770065209563E+01
 0.1730028091640E+01
 0.1684030195446E+01
 0.1631912325947E+01
 0.1573549081001E+01
 0.1508832517280E+01
 0.1437653719994E+01
 0.1359876315026E+01
 0.1275291881079E+01
 0.1183540796490E+01
 0.1083969640067E+01
 0.9753707048237E+00
 0.8554958220231E+00
 0.7201232939242E+00
 0.5612215965719E+00
 0.3647651319149E+00
 0.1943544858223E+01
 0.1931392179731E+01
 0.1914707548488E+01
 0.1893095340891E+01
 0.1866162686963E+01
 0.1833536375651E+01
 0.1794864155684E+01
 0.1749803678052E+01
 0.1698003654368E+01
 0.1639078599247E+01
 0.1572574685825E+01
 0.1497920542266E+01
 0.1414352703232E+01
 0.1320799710484E+01
 0.1215700024085E+01
 0.1096715667193E+01
 0.9602893734437E+00
 0.8010020001479E+00
 0.6109807478211E+00
 0.3810296421679E+00
 0.2004315646552E+01
 0.1998245106969E+01
 0.1987852626343E+01
 0.1972676980782E+01
 0.1952237276218E+01
 0.1926037820294E+01
 0.1893564128845E+01
 0.1854269486067E+01
 0.1807552995785E+01
 0.1752728864282E+01
 0.1688984432336E+01
 0.1615322061706E+01
 0.1530477524163E+01
 0.1432805145836E+01
 0.1320118516529E+01
 0.1189479130216E+01
 0.1036946841632E+01
 0.8574005971306E+00
 0.6448376623651E+00
 0.3947655897225E+00
 0.2057304670923E+01
 0.2056584444910E+01
 0.2051697917120E+01
 0.2042103582762E+01
 0.2027217379926E+01
 0.2006409568645E+01
 0.1978995872827E+01
 0.1944221553093E+01
 0.1901238066021E+01
 0.1849071574509E+01
 0.1786581600396E+01
 0.1712407151462E+01
 0.1624897237981E+01
 0.1522023658893E+01
 0.1401278307993E+01
 0.1259569826053E+01
 0.1093168063251E+01
 0.8978256252915E+00
 0.6694216664109E+00
 0.4069385671529E+00
 0.2101951755373E+01
 0.2105783915102E+01
 0.2105555603852E+01
 0.2100640804275E+01
 0.2090348715166E+01
 0.2073915726636E+01
 0.2050493450204E+01
 0.2019131819262E+01
 0.1978756853694E+01
 0.1928142715594E+01
 0.1865877544859E+01
 0.1790322716822E+01
 0.1699566178994E+01
 0.1591373323749E+01
 0.1463145110485E+01
 0.1311906155421E+01
 0.1134371239515E+01
 0.9271946128058E+00
 0.6877301482557E+00
 0.4174324162841E+00
 0.2137815684877E+01
 0.2145361438317E+01
 0.2148913608532E+01
 0.2147765754588E+01
 0.2141126910926E+01
 0.2128110687490E+01
 0.2107721922213E+01
 0.2078840473147E+01
 0.2040202181191E+01
 0.1990377312744E+01
 0.1927747132725E+01
 0.1850479982312E+01
 0.1756509771740E+01
 0.1643522757487E+01
 0.1508963793386E+01
 0.1350082478176E+01
 0.1164057128102E+01
 0.9482861398947E+00
 0.7011960172611E+00
 0.4260096432856E+00
 0.2164565358354E+01
 0.2174963446724E+01
 0.2181408828128E+01
 0.2183125703584E+01
 0.2179237779187E+01
 0.2168755784669E+01
 0.2150563950702E+01
 0.2123405571771E+01
 0.2085868204843E+01
 0.2036369465128E+01
 0.1973144906726E+01
 0.1894240304172E+01
 0.1797512010774E+01
 0.1680641259309E+01
 0.1541171757785E+01
 0.1376586024861E+01
 0.1184450928229E+01
 0.9627196126108E+00
 0.7105728457927E+00
 0.4325050536806E+00
 0.2181970346206E+01
 0.2194349469596E+01
 0.2202802967738E+01
 0.2206502385165E+01
 0.2204507277230E+01
 0.2195751874450E+01
 0.2179031949977E+01
 0.2152992414672E+01
 0.2116116603664E+01
 0.2066718672820E+01
 0.2002941054542E+01
 0.1922759595380E+01
 0.1823999893798E+01
 0.1704369615481E+01
 0.1561513630773E+01
 0.1393103586794E+01
 0.1196989120125E+01
 0.9715017644995E+00
 0.7163279464856E+00
 0.4368529184830E+00
 0.2189892655760E+01
 0.2203379241599E+01
 0.2212963111956E+01
 0.2217784118902E+01
 0.2216863378887E+01
 0.2209089384834E+01
 0.2193205269770E+01
 0.2167797967932E+01
 0.2131290455539E+01
 0.2081938726408E+01
 0.2017835635615E+01
 0.1936924218736E+01
 0.1837023574044E+01
 0.1715870996595E+01
 0.1571185382348E+01
 0.1400761385573E+01
 0.1202620658022E+01
 0.9753155122097E+00
 0.7188266738898E+00
 0.4390941413743E+00
 0.2188280672813E+01
 0.2202003322828E+01
 0.2211847889817E+01
 0.2216946394514E+01
 0.2216310123965E+01
 0.2208815183727E+01
 0.2193189845857E+01
 0.2168004342995E+01
 0.2131664300537E+01
 0.2082409521716E+01
 0.2018320291828E+01
 0.1937333748707E+01
 0.1837273164312E+01
 0.1715893325312E+01
 0.1570946284564E+01
 0.1400276202422E+01
 0.1201969404600E+01
 0.9746568690019E+00
 0.7184193964609E+00
 0.4394004140518E+00
 0.2177166094279E+01
 0.2190258074957E+01
 0.2199499873574E+01
 0.2204041322443E+01
 0.2202913778808E+01
 0.2195015308281E+01
 0.2179097808983E+01
 0.2153756347001E+01
 0.2117421790705E+01
 0.2068358369723E+01
 0.2004668272454E+01
 0.1924305843236E+01
 0.1825104350917E+01
 0.1704818792675E+01
 0.1561189410710E+01
 0.1392035032794E+01
 0.1195402354265E+01
 0.9698670338858E+00
 0.7154305236166E+00
 0.4380723456663E+00
 0.2156663097289E+01
 0.2168263381761E+01
 0.2176042100012E+01
 0.2179192685452E+01
 0.2176795820362E+01
 0.2167805234408E+01
 0.2151034450685E+01
 0.2125144745156E+01
 0.2088635182066E+01
 0.2039836111056E+01
 0.1976908057688E+01
 0.1897848577223E+01
 0.1800510424543E+01
 0.1682635439312E+01
 0.1541910343394E+01
 0.1376055269623E+01
 0.1182971877890E+01
 0.9610435734451E+00
 0.7100141200334E+00
 0.4353811089170E+00
 0.2126966836736E+01
 0.2136220067150E+01
 0.2141675149611E+01
 0.2142591477997E+01
 0.2138125295612E+01
 0.2127316899258E+01
 0.2109077187200E+01
 0.2082173806587E+01
 0.2045217433456E+01
 0.1996649127341E+01
 0.1934730259394E+01
 0.1857537343820E+01
 0.1762965371393E+01
 0.1648745179962E+01
 0.1512483420492E+01
 0.1351739305664E+01
 0.1164167657925E+01
 0.9478179162784E+00
 0.7019864879750E+00
 0.4313807606959E+00
 0.2088359002421E+01
 0.2094419253555E+01
 0.2096690234765E+01
 0.2094513683254E+01
 0.2087142235506E+01
 0.2073728554308E+01
 0.2053312244199E+01
 0.2024804486036E+01
 0.1986970449187E+01
 0.1938409750230E+01
 0.1877535649255E+01
 0.1802554513412E+01
 0.1711448661863E+01
 0.1601968524944E+01
 0.1471644881525E+01
 0.1317840113263E+01
 0.1137874099106E+01
 0.9293145059568E+00
 0.6907948624276E+00
 0.4258318014900E+00
 0.2041215208048E+01
 0.2043255880462E+01
 0.2041489950375E+01
 0.2035351065217E+01
 0.2024201951353E+01
 0.2007326289885E+01
 0.1983917012981E+01
 0.1953060554850E+01
 0.1913716550773E+01
 0.1864692407825E+01
 0.1804612239288E+01
 0.1731880127211E+01
 0.1644639010960E+01
 0.1540729525672E+01
 0.1417659264586E+01
 0.1272605009342E+01
 0.1102492972995E+01
 0.9042552490624E+00
 0.6755925022741E+00
 0.4183657065895E+00
 0.1986011900615E+01
 0.1983241482305E+01
 0.1976608894504E+01
 0.1965641761770E+01
 0.1949818137192E+01
 0.1928562239850E+01
 0.1901235557812E+01
 0.1867122568954E+01
 0.1825410115955E+01
 0.1775159043070E+01
 0.1715266203344E+01
 0.1644414603910E+01
 0.1561009699675E+01
 0.1463101568473E+01
 0.1348297984284E+01
 0.1213686537164E+01
 0.1055816165418E+01
 0.8708564786031E+00
 0.6552555899504E+00
 0.4086715625928E+00
 0.1923333877717E+01
 0.1915017953568E+01
 0.1902736060292E+01
 0.1886103957860E+01
 0.1864710879748E+01
 0.1838120277439E+01
 0.1805865275253E+01
 0.1767438051793E+01
 0.1722272091457E+01
 0.1669715470932E+01
 0.1608992186472E+01
 0.1539147093166E+01
 0.1458968462812E+01
 0.1366880933577E+01
 0.1260802165138E+01
 0.1137963762204E+01
 0.9947237162310E+00
 0.8264952637967E+00
 0.6281596132697E+00
 0.3964513551852E+00
 0.1853881212435E+01
 0.1839371121534E+01
 0.1820737948641E+01
 0.1797672200628E+01
 0.1769860666845E+01
 0.1736993128682E+01
 0.1698763343194E+01
 0.1654863890426E+01
 0.1604974389313E+01
 0.1548741579110E+01
 0.1485748050536E+01
 0.1415464009306E+01
 0.1337173100416E+01
 0.1249858517055E+01
 0.1152028956145E+01
 0.1041456098185E+01
 0.9147950968208E+00
 0.7671007024224E+00
 0.5916036612106E+00
 0.3812287786099E+00
 0.1778473785523E+01
 0.1757241735306E+01
 0.1731679454557E+01
 0.1701532668312E+01
 0.1666563926230E+01
 0.1626565951675E+01
 0.1581368358222E+01
 0.1530838366575E+01
 0.1474876586200E+01
 0.1413407761529E+01
 0.1346364360276E+01
 0.1273658111176E+01
 0.1195130534184E+01
 0.1110466797176E+01
 0.1019045195754E+01
 0.9196721524326E+00
 0.8101102960356E+00
 0.6862371702658E+00
 0.5406155677346E+00
 0.3617822938195E+00
 0.1698050853200E+01
 0.1669730243760E+01
 0.1636837527535E+01
 0.1599150475534E+01
 0.1556480735972E+01
 0.1508694413012E+01
 0.1455722994090E+01
 0.1397567823136E+01
 0.1334302100758E+01
 0.1266072768359E+01
 0.1193102406125E+01
 0.1115688963409E+01
 0.1034198210696E+01
 0.9490387914099E+00
 0.8605994976630E+00
 0.7691054561870E+00
 0.6742939183854E+00
 0.5746659265201E+00
 0.4655897115911E+00
 0.3342439555893E+00
 0.1613662345688E+01
 0.1578090490984E+01
 0.1537700826231E+01
 0.1492278988200E+01
 0.1441660159089E+01
 0.1385757143847E+01
 0.1324571288734E+01
 0.1258195273509E+01
 0.1186816413098E+01
 0.1110725648883E+01
 0.1030334715553E+01
 0.9462027094865E+00
 0.8590730889173E+00
 0.7699222932031E+00
 0.6800206039201E+00
 0.5910019007793E+00
 0.5049240538397E+00
 0.4242354151772E+00
 0.3513531329263E+00
 0.2850010103875E+00
 0.1526449486227E+01
 0.1483710029602E+01
 0.1435950010444E+01
 0.1382939690927E+01
 0.1324522968317E+01
 0.1260650899135E+01
 0.1191384178904E+01
 0.1116886222585E+01
 0.1037421237767E+01
 0.9533642093425E+00
 0.8652259614482E+00
 0.7736963767550E+00
 0.6797117142418E+00
 0.5845579589206E+00
 0.4900331189674E+00
 0.3987128775902E+00
 0.3144106200043E+00
 0.2430496902897E+00
 0.1945507414786E+00
 0.1887933847902E+00
 0.1437611117481E+01
 0.1388072280056E+01
 0.1333406384636E+01
 0.1273348343918E+01
 0.1207762866349E+01
 0.1136670937066E+01
 0.1060231379681E+01
 0.9787181444887E+00
 0.8925127233606E+00
 0.8021176636692E+00
 0.7081925832958E+00
 0.6116155300652E+00
 0.5135781755330E+00
 0.4157331018512E+00
 0.3204284686781E+00
 0.2310975062396E+00
 0.1529344360302E+00
 0.9413800783107E-01
 0.6878428368305E-01
 0.1069029594639E+00
 0.1348354426980E+01
 0.1292688436358E+01
 0.1231907858008E+01
 0.1165705757923E+01
 0.1094019195989E+01
 0.1017016511301E+01
 0.9350402527869E+00
 0.8485657822483E+00
 0.7581945052357E+00
 0.6646812755509E+00
 0.5689916345400E+00
 0.4723893057539E+00
 0.3765618414506E+00
 0.2838021389916E+00
 0.1972772148461E+00
 0.1214347507239E+00
 0.6259867203512E-01
 0.2950481247557E-01
 0.3557742283326E-01
 0.1028567506828E+00
 0.1259846626041E+01
 0.1198995797909E+01
 0.1133109987323E+01
 0.1061872677346E+01
 0.9853881694378E+00
 0.9040762874177E+00
 0.8185524844818E+00
 0.7295671325718E+00
 0.6380084356709E+00
 0.5449493545285E+00
 0.4517242294316E+00
 0.3600297594709E+00
 0.2720535783977E+00
 0.1906386700543E+00
 0.1194927836117E+00
 0.6343293437760E-01
 0.2843336035399E-01
 0.2100404652928E-01
 0.5193403621470E-01
 0.1271080740415E+00
 0.1173154177167E+01
 0.1108218031597E+01
 0.1038292002258E+01
 0.9631472582996E+00
 0.8832039137206E+00
 0.7992450092683E+00
 0.7122113026046E+00
 0.6231390472048E+00
 0.5331871837926E+00
 0.4437070780999E+00
 0.3563259438467E+00
 0.2730358061014E+00
 0.1962855524532E+00
 0.1290705495287E+00
 0.7499549574917E-01
 0.3819192097218E-01
 0.2275506201101E-01
 0.3373754829971E-01
 0.7525765544084E-01
 0.1455771409160E+00
 0.1089281224426E+01
 0.1021418014650E+01
 0.9484336828050E+00
 0.8704155476299E+00
 0.7883191569164E+00
 0.7033685854562E+00
 0.6168057802598E+00
 0.5298745736182E+00
 0.4439068431539E+00
 0.3604116122081E+00
 0.2811482048206E+00
 0.2081799475744E+00
 0.1439039156311E+00
 0.9104004525317E-01
 0.5252589898966E-01
 0.3119921975560E-01
 0.2975425288159E-01
 0.5082340997108E-01
 0.9407175931527E-01
 0.1563288333637E+00
 0.1009177286789E+01
 0.9394195665547E+00
 0.8640816382952E+00
 0.7840732610501E+00
 0.7011184456112E+00
 0.6168508487481E+00
 0.5326386349291E+00
 0.4497722844352E+00
 0.3696116675006E+00
 0.2936737866939E+00
 0.2236746709035E+00
 0.1615334869567E+00
 0.1093363242073E+00
 0.6923996574911E-01
 0.4327793266332E-01
 0.3317077165807E-01
 0.4044478669176E-01
 0.6544497198577E-01
 0.1065485788697E+00
 0.1607922253296E+00
 0.9336517887247E+00
 0.8624722285276E+00
 0.7850182512274E+00
 0.7038567548961E+00
 0.6215996989198E+00
 0.5398186003657E+00
 0.4597137890402E+00
 0.3824538230746E+00
 0.3093076709846E+00
 0.2416864120287E+00
 0.1811331983826E+00
 0.1292770061865E+00
 0.8774798664269E-01
 0.5804445764055E-01
 0.4137563418678E-01
 0.3863259738426E-01
 0.5021966589313E-01
 0.7544544208165E-01
 0.1126819877546E+00
 0.1596557444020E+00
 0.8632030551608E+00
 0.7895131586635E+00
 0.7097587673717E+00
 0.6293707392793E+00
 0.5500684452426E+00
 0.4727132732935E+00
 0.3981987195182E+00
 0.3275549278411E+00
 0.2619514262777E+00
 0.2026556817139E+00
 0.1509754448891E+00
 0.1081830298623E+00
 0.7541722643253E-01
 0.5356903378577E-01
 0.4320395825539E-01
 0.4453808332827E-01
 0.5722050514219E-01
 0.8021632422034E-01
 0.1122996260335E+00
 0.1524768578927E+00
 0.7954130180355E+00
 0.7146908146196E+00
 0.6373687992112E+00
 0.5620753600920E+00
 0.4883426548476E+00
 0.4168673653123E+00
 0.3486568947054E+00
 0.2848407393393E+00
 0.2265710537415E+00
 0.1749681554778E+00
 0.1310680323115E+00
 0.9576061768702E-01
 0.6971757253110E-01
 0.5332603549185E-01
 0.4665737082900E-01
 0.4942092355563E-01
 0.6084385311475E-01
 0.7974715757129E-01
 0.1048314192082E+00
 0.1361862893718E+00
</DataArray>
<DataArray type="Float64" Name="CK" NumberOfComponents="1" ComponentName0="CK" format="ascii">
 0.0000000000000E+00
 0.0000000000000E+00
 0.0000000000000E+00
 0.0000000000000E+00
 0.0000000000000E+00
 0.0000000000000E+00
 0.0000000000000E+00
 0.0000000000000E+00
 0.0000000000000E+00
 0.0000000000000E+00
 0.0000000000000E+00
 0.0000000000000E+00
 0.0000000000000E+00
 0.0000000000000E+00
 0.0000000000000E+00
 0.0000000000000E+00
 0.0000000000000E+00
 0.0000000000000E+00
 0.0000000000000E+00
 0.0000000000000E+00
 0.0000000000000E+00
 0.0000000000000E+00
 0.0000000000000E+00
 0.0000000000000E+00
 0.0000000000000E+00
 0.0000000000000E+00
 0.0000000000000E+00
 0.0000000000000E+00
 0.0000000000000E+00
 0.0000000000000E+00
 0.0000000000000E+00
 0.0000000000000E+00
 0.0000000000000E+00
 0.0000000000000E+00
 0.0000000000000E+00
 0.0000000000000E+00
 0.0000000000000E+00
 0.0000000000000E+00
 0.0000000000000E+00
 0.0000000000000E+00
 0.0000000000000E+00
 0.0000000000000E+00
 0.0000000000000E+00
 0.0000000000000E+00
 0.0000000000000E+00
 0.0000000000000E+00
 0.0000000000000E+00
 0.0000000000000E+00
 0.0000000000000E+00
 0.0000000000000E+00
 0.0000000000000E+00
 0.0000000000000E+00
 0.0000000000000E+00
 0.0000000000000E+00
 0.0000000000000E+00
 0.0000000000000E+00
 0.0000000000000E+00
 0.0000000000000E+00
 0.0000000000000E+00
 0.0000000000000E+00
 0.0000000000000E+00
 0.0000000000000E+00
 0.0000000000000E+00
 0.0000000000000E+00
 0.0000000000000E+00
 0.0000000000000E+00
 0.0000000000000E+00
 0.0000000000000E+00
 0.0000000000000E+00
 0.0000000000000E+00
 0.0000000000000E+00
 0.0000000000000E+00
 0.0000000000000E+00
 0.0000000000000E+00
 0.0000000000000E+00
 0.0000000000000E+00
 0.0000000000000E+00
 0.0000000000000E+00
 0.0000000000000E+00
 0.0000000000000E+00
 0.0000000000000E+00
 0.0000000000000E+00
 0.0000000000000E+00
 0.0000000000000E+00
 0.0000000000000E+00
 0.0000000000000E+00
 0.0000000000000E+00
 0.0000000000000E+00
 0.0000000000000E+00
 0.0000000000000E+00
 0.0000000000000E+00
 0.0000000000000E+00
 0.0000000000000E+00
 0.0000000000000E+00
 0.0000000000000E+00
 0.0000000000000E+00
 0.0000000000000E+00
 0.0000000000000E+00
 0.0000000000000E+00
 0.0000000000000E+00
 0.0000000000000E+00
 0.0000000000000E+00
 0.0000000000000E+00
 0.0000000000000E+00
 0.0000000000000E+00
 0.0000000000000E+00
 0.0000000000000E+00
 0.0000000000000E+00
 0.0000000000000E+00
 0.0000000000000E+00
 0.0000000000000E+00
 0.0000000000000E+00
 0.0000000000000E+00
 0.0000000000000E+00
 0.0000000000000E+00
 0.0000000000000E+00
 0.0000000000000E+00
 0.0000000000000E+00
 0.0000000000000E+00
 0.0000000000000E+00
 0.0000000000000E+00
 0.0000000000000E+00
 0.0000000000000E+00
 0.0000000000000E+00
 0.0000000000000E+00
 0.0000000000000E+00
 0.0000000000000E+00
 0.0000000000000E+00
 0.0000000000000E+00
 0.0000000000000E+00
 0.0000000000000E+00
 0.0000000000000E+00
 0.0000000000000E+00
 0.0000000000000E+00
 0.0000000000000E+00
 0.0000000000000E+00
 0.0000000000000E+00
 0.0000000000000E+00
 0.0000000000000E+00
 0.0000000000000E+00
 0.0000000000000E+00
 0.0000000000000E+00
 0.0000000000000E+00
 0.0000000000000E+00
 0.0000000000000E+00
 0.0000000000000E+00
 0.0000000000000E+00
 0.0000000000000E+00
 0.0000000000000E+00
 0.0000000000000E+00
 0.0000000000000E+00
 0.0000000000000E+00
 0.0000000000000E+00
 0.0000000000000E+00
 0.0000000000000E+00
 0.0000000000000E+00
 0.0000000000000E+00
 0.0000000000000E+00
 0.0000000000000E+00
 0.0000000000000E+00
 0.0000000000000E+00
 0.0000000000000E+00
 0.0000000000000E+00
 0.0000000000000E+00
 0.0000000000000E+00
 0.0000000000000E+00
 0.0000000000000E+00
 0.0000000000000E+00
 0.0000000000000E+00
 0.0000000000000E+00
 0.0000000000000E+00
 0.0000000000000E+00
 0.0000000000000E+00
 0.0000000000000E+00
 0.0000000000000E+00
 0.0000000000000E+00
 0.0000000000000E+00
 0.0000000000000E+00
 0.0000000000000E+00
 0.0000000000000E+00
 0.0000000000000E+00
 0.0000000000000E+00
 0.0000000000000E+00
 0.0000000000000E+00
 0.0000000000000E+00
 0.0000000000000E+00
 0.0000000000000E+00
 0.0000000000000E+00
 0.0000000000000E+00
 0.0000000000000E+00
 0.0000000000000E+00
 0.0000000000000E+00
 0.0000000000000E+00
 0.0000000000000E+00
 0.0000000000000E+00
 0.0000000000000E+00
 0.0000000000000E+00
 0.0000000000000E+00
 0.0000000000000E+00
 0.0000000000000E+00
 0.0000000000000E+00
 0.0000000000000E+00
 0.0000000000000E+00
 0.0000000000000E+00
 0.0000000000000E+00
 0.0000000000000E+00
 0.0000000000000E+00
 0.0000000000000E+00
 0.0000000000000E+00
 0.0000000000000E+00
 0.0000000000000E+00
 0.0000000000000E+00
 0.0000000000000E+00
 0.0000000000000E+00
 0.0000000000000E+00
 0.0000000000000E+00
 0.0000000000000E+00
 0.0000000000000E+00
 0.0000000000000E+00
 0.0000000000000E+00
 0.0000000000000E+00
 0.0000000000000E+00
 0.0000000000000E+00
 0.0000000000000E+00
 0.0000000000000E+00
 0.0000000000000E+00
 0.0000000000000E+00
 0.0000000000000E+00
 0.0000000000000E+00
 0.0000000000000E+00
 0.0000000000000E+00
 0.0000000000000E+00
 0.0000000000000E+00
 0.0000000000000E+00
 0.0000000000000E+00
 0.0000000000000E+00
 0.0000000000000E+00
 0.0000000000000E+00
 0.0000000000000E+00
 0.0000000000000E+00
 0.0000000000000E+00
 0.0000000000000E+00
 0.0000000000000E+00
 0.0000000000000E+00
 0.0000000000000E+00
 0.0000000000000E+00
 0.0000000000000E+00
 0.0000000000000E+00
 0.0000000000000E+00
 0.0000000000000E+00
 0.0000000000000E+00
 0.0000000000000E+00
 0.0000000000000E+00
 0.0000000000000E+00
 0.0000000000000E+00
 0.0000000000000E+00
 0.0000000000000E+00
 0.0000000000000E+00
 0.0000000000000E+00
 0.0000000000000E+00
 0.0000000000000E+00
 0.0000000000000E+00
 0.0000000000000E+00
 0.0000000000000E+00
 0.0000000000000E+00
 0.0000000000000E+00
 0.0000000000000E+00
 0.0000000000000E+00
 0.0000000000000E+00
 0.0000000000000E+00
 0.0000000000000E+00
 0.0000000000000E+00
 0.0000000000000E+00
 0.0000000000000E+00
 0.0000000000000E+00
 0.0000000000000E+00
 0.0000000000000E+00
 0.0000000000000E+00
 0.0000000000000E+00
 0.0000000000000E+00
 0.0000000000000E+00
 0.0000000000000E+00
 0.0000000000000E+00
 0.0000000000000E+00
 0.0000000000000E+00
 0.0000000000000E+00
 0.0000000000000E+00
 0.0000000000000E+00
 0.0000000000000E+00
 0.0000000000000E+00
 0.0000000000000E+00
 0.0000000000000E+00
 0.0000000000000E+00
 0.0000000000000E+00
 0.0000000000000E+00
 0.0000000000000E+00
 0.0000000000000E+00
 0.0000000000000E+00
 0.0000000000000E+00
 0.0000000000000E+00
 0.0000000000000E+00
 0.0000000000000E+00
 0.0000000000000E+00
 0.0000000000000E+00
 0.0000000000000E+00
 0.0000000000000E+00
 0.0000000000000E+00
 0.0000000000000E+00
 0.0000000000000E+00
 0.0000000000000E+00
 0.0000000000000E+00
 0.0000000000000E+00
 0.0000000000000E+00
 0.0000000000000E+00
 0.0000000000000E+00
 0.0000000000000E+00
 0.0000000000000E+00
 0.0000000000000E+00
 0.0000000000000E+00
 0.0000000000000E+00
 0.0000000000000E+00
 0.0000000000000E+00
 0.0000000000000E+00
 0.0000000000000E+00
 0.0000000000000E+00
 0.0000000000000E+00
 0.0000000000000E+00
 0.0000000000000E+00
 0.0000000000000E+00
 0.0000000000000E+00
 0.0000000000000E+00
 0.0000000000000E+00
 0.0000000000000E+00
 0.0000000000000E+00
 0.0000000000000E+00
 0.0000000000000E+00
 0.0000000000000E+00
 0.0000000000000E+00
 0.0000000000000E+00
 0.0000000000000E+00
 0.0000000000000E+00
 0.0000000000000E+00
 0.0000000000000E+00
 0.0000000000000E+00
 0.0000000000000E+00
 0.0000000000000E+00
 0.0000000000000E+00
 0.0000000000000E+00
 0.0000000000000E+00
 0.0000000000000E+00
 0.0000000000000E+00
 0.0000000000000E+00
 0.0000000000000E+00
 0.0000000000000E+00
 0.0000000000000E+00
 0.0000000000000E+00
 0.0000000000000E+00
 0.0000000000000E+00
 0.0000000000000E+00
 0.0000000000000E+00
 0.0000000000000E+00
 0.0000000000000E+00
 0.0000000000000E+00
 0.0000000000000E+00
 0.0000000000000E+00
 0.0000000000000E+00
 0.0000000000000E+00
 0.0000000000000E+00
 0.0000000000000E+00
 0.0000000000000E+00
 0.0000000000000E+00
 0.0000000000000E+00
 0.0000000000000E+00
 0.0000000000000E+00
 0.0000000000000E+00
 0.0000000000000E+00
 0.0000000000000E+00
 0.0000000000000E+00
 0.0000000000000E+00
 0.0000000000000E+00
 0.0000000000000E+00
 0.0000000000000E+00
 0.0000000000000E+00
 0.0000000000000E+00
 0.0000000000000E+00
 0.0000000000000E+00
 0.0000000000000E+00
 0.0000000000000E+00
 0.0000000000000E+00
 0.0000000000000E+00
 0.0000000000000E+00
 0.0000000000000E+00
 0.0000000000000E+00
 0.0000000000000E+00
 0.0000000000000E+00
 0.0000000000000E+00
 0.0000000000000E+00
 0.0000000000000E+00
 0.0000000000000E+00
 0.0000000000000E+00
 0.0000000000000E+00
 0.0000000000000E+00
 0.0000000000000E+00
 0.0000000000000E+00
 0.0000000000000E+00
 0.0000000000000E+00
 0.0000000000000E+00
 0.0000000000000E+00
 0.0000000000000E+00
 0.0000000000000E+00
 0.0000000000000E+00
 0.0000000000000E+00
 0.0000000000000E+00
 0.0000000000000E+00
 0.0000000000000E+00
 0.0000000000000E+00
 0.0000000000000E+00
 0.0000000000000E+00
 0.0000000000000E+00
 0.0000000000000E+00
 0.0000000000000E+00
 0.0000000000000E+00
 0.0000000000000E+00
 0.0000000000000E+00
 0.0000000000000E+00
 0.0000000000000E+00
 0.0000000000000E+00
 0.0000000000000E+00
 0.0000000000000E+00
 0.0000000000000E+00
 0.0000000000000E+00
 0.0000000000000E+00
 0.0000000000000E+00
 0.0000000000000E+00
 0.0000000000000E+00
 0.0000000000000E+00
 0.0000000000000E+00
 0.0000000000000E+00
 0.0000000000000E+00
 0.0000000000000E+00
 0.0000000000000E+00
 0.0000000000000E+00
 0.0000000000000E+00
 0.0000000000000E+00
 0.0000000000000E+00
 0.0000000000000E+00
 0.0000000000000E+00
 0.0000000000000E+00
 0.0000000000000E+00
 0.0000000000000E+00
 0.0000000000000E+00
 0.0000000000000E+00
 0.0000000000000E+00
 0.0000000000000E+00
 0.0000000000000E+00
 0.0000000000000E+00
 0.0000000000000E+00
 0.0000000000000E+00
 0.0000000000000E+00
 0.0000000000000E+00
 0.0000000000000E+00
 0.0000000000000E+00
 0.0000000000000E+00
 0.0000000000000E+00
 0.0000000000000E+00
 0.0000000000000E+00
 0.0000000000000E+00
 0.0000000000000E+00
 0.0000000000000E+00
 0.0000000000000E+00
 0.0000000000000E+00
 0.0000000000000E+00
 0.0000000000000E+00
 0.0000000000000E+00
 0.0000000000000E+00
 0.0000000000000E+00
 0.0000000000000E+00
 0.0000000000000E+00
 0.0000000000000E+00
 0.0000000000000E+00
 0.0000000000000E+00
 0.0000000000000E+00
 0.0000000000000E+00
 0.0000000000000E+00
 0.0000000000000E+00
 0.0000000000000E+00
 0.0000000000000E+00
 0.0000000000000E+00
 0.0000000000000E+00
 0.0000000000000E+00
 0.0000000000000E+00
 0.0000000000000E+00
 0.0000000000000E+00
 0.0000000000000E+00
 0.0000000000000E+00
 0.0000000000000E+00
 0.0000000000000E+00
 0.0000000000000E+00
 0.0000000000000E+00
 0.0000000000000E+00
 0.0000000000000E+00
 0.0000000000000E+00
 0.0000000000000E+00
 0.0000000000000E+00
 0.0000000000000E+00
 0.0000000000000E+00
 0.0000000000000E+00
 0.0000000000000E+00
 0.0000000000000E+00
 0.0000000000000E+00
 0.0000000000000E+00
 0.0000000000000E+00
 0.0000000000000E+00
 0.0000000000000E+00
 0.0000000000000E+00
 0.0000000000000E+00
 0.0000000000000E+00
 0.0000000000000E+00
 0.0000000000000E+00
 0.0000000000000E+00
 0.0000000000000E+00
 0.0000000000000E+00
 0.0000000000000E+00
 0.0000000000000E+00
 0.0000000000000E+00
 0.0000000000000E+00
 0.0000000000000E+00
 0.0000000000000E+00
 0.0000000000000E+00
 0.0000000000000E+00
 0.0000000000000E+00
 0.0000000000000E+00
 0.0000000000000E+00
 0.0000000000000E+00
 0.0000000000000E+00
 0.0000000000000E+00
 0.0000000000000E+00
 0.0000000000000E+00
 0.0000000000000E+00
 0.0000000000000E+00
 0.0000000000000E+00
 0.0000000000000E+00
 0.0000000000000E+00
 0.0000000000000E+00
 0.0000000000000E+00
 0.0000000000000E+00
 0.0000000000000E+00
 0.0000000000000E+00
 0.0000000000000E+00
 0.0000000000000E+00
 0.0000000000000E+00
 0.0000000000000E+00
 0.0000000000000E+00
 0.0000000000000E+00
 0.0000000000000E+00
 0.0000000000000E+00
 0.0000000000000E+00
 0.0000000000000E+00
 0.0000000000000E+00
 0.0000000000000E+00
 0.0000000000000E+00
 0.0000000000000E+00
 0.0000000000000E+00
 0.0000000000000E+00
 0.0000000000000E+00
 0.0000000000000E+00
 0.0000000000000E+00
 0.0000000000000E+00
 0.0000000000000E+00
 0.0000000000000E+00
 0.0000000000000E+00
 0.0000000000000E+00
 0.0000000000000E+00
 0.0000000000000E+00
 0.0000000000000E+00
 0.0000000000000E+00
 0.0000000000000E+00
 0.0000000000000E+00
 0.0000000000000E+00
 0.0000000000000E+00
 0.0000000000000E+00
 0.0000000000000E+00
 0.0000000000000E+00
 0.0000000000000E+00
 0.0000000000000E+00
 0.0000000000000E+00
 0.0000000000000E+00
 0.0000000000000E+00
 0.0000000000000E+00
 0.0000000000000E+00
 0.0000000000000E+00
 0.0000000000000E+00
 0.0000000000000E+00
 0.0000000000000E+00
 0.0000000000000E+00
 0.0000000000000E+00
 0.0000000000000E+00
 0.0000000000000E+00
 0.0000000000000E+00
 0.0000000000000E+00
 0.0000000000000E+00
 0.0000000000000E+00
 0.0000000000000E+00
 0.0000000000000E+00
 0.0000000000000E+00
 0.0000000000000E+00
 0.0000000000000E+00
 0.0000000000000E+00
 0.0000000000000E+00
 0.0000000000000E+00
 0.0000000000000E+00
 0.0000000000000E+00
 0.0000000000000E+00
 0.0000000000000E+00
 0.0000000000000E+00
 0.0000000000000E+00
 0.0000000000000E+00
 0.0000000000000E+00
 0.0000000000000E+00
 0.0000000000000E+00
 0.0000000000000E+00
 0.0000000000000E+00
 0.0000000000000E+00
 0.0000000000000E+00
 0.0000000000000E+00
 0.0000000000000E+00
 0.0000000000000E+00
 0.0000000000000E+00
 0.0000000000000E+00
 0.0000000000000E+00
 0.0000000000000E+00
 0.0000000000000E+00
 0.0000000000000E+00
 0.0000000000000E+00
 0.0000000000000E+00
 0.0000000000000E+00
 0.0000000000000E+00
 0.0000000000000E+00
 0.0000000000000E+00
 0.0000000000000E+00
 0.0000000000000E+00
 0.0000000000000E+00
 0.0000000000000E+00
 0.0000000000000E+00
 0.0000000000000E+00
 0.0000000000000E+00
 0.0000000000000E+00
 0.0000000000000E+00
 0.0000000000000E+00
 0.0000000000000E+00
 0.0000000000000E+00
 0.0000000000000E+00
 0.0000000000000E+00
 0.0000000000000E+00
 0.0000000000000E+00
 0.0000000000000E+00
 0.0000000000000E+00
 0.0000000000000E+00
 0.0000000000000E+00
 0.0000000000000E+00
 0.0000000000000E+00
 0.0000000000000E+00
 0.0000000000000E+00
 0.0000000000000E+00
 0.0000000000000E+00
 0.0000000000000E+00
 0.0000000000000E+00
 0.0000000000000E+00
 0.0000000000000E+00
 0.0000000000000E+00
 0.0000000000000E+00
 0.0000000000000E+00
 0.0000000000000E+00
 0.0000000000000E+00
 0.0000000000000E+00
 0.0000000000000E+00
 0.0000000000000E+00
 0.0000000000000E+00
 0.0000000000000E+00
 0.0000000000000E+00
 0.0000000000000E+00
 0.0000000000000E+00
 0.0000000000000E+00
 0.0000000000000E+00
 0.0000000000000E+00
 0.0000000000000E+00
 0.0000000000000E+00
 0.0000000000000E+00
 0.0000000000000E+00
 0.0000000000000E+00
 0.0000000000000E+00
 0.0000000000000E+00
 0.0000000000000E+00
 0.0000000000000E+00
 0.0000000000000E+00
 0.0000000000000E+00
 0.0000000000000E+00
 0.0000000000000E+00
 0.0000000000000E+00
 0.0000000000000E+00
 0.0000000000000E+00
 0.0000000000000E+00
 0.0000000000000E+00
 0.0000000000000E+00
 0.0000000000000E+00
 0.0000000000000E+00
 0.0000000000000E+00
 0.0000000000000E+00
 0.0000000000000E+00
 0.0000000000000E+00
 0.0000000000000E+00
 0.0000000000000E+00
 0.0000000000000E+00
 0.0000000000000E+00
 0.0000000000000E+00
 0.0000000000000E+00
 0.0000000000000E+00
 0.0000000000000E+00
 0.0000000000000E+00
 0.0000000000000E+00
 0.0000000000000E+00
 0.0000000000000E+00
 0.0000000000000E+00
 0.0000000000000E+00
 0.0000000000000E+00
 0.0000000000000E+00
 0.0000000000000E+00
 0.0000000000000E+00
 0.0000000000000E+00
 0.0000000000000E+00
 0.0000000000000E+00
 0.0000000000000E+00
 0.0000000000000E+00
 0.0000000000000E+00
 0.0000000000000E+00
 0.0000000000000E+00
 0.0000000000000E+00
 0.0000000000000E+00
 0.0000000000000E+00
 0.0000000000000E+00
 0.0000000000000E+00
 0.0000000000000E+00
 0.0000000000000E+00
 0.0000000000000E+00
 0.0000000000000E+00
 0.0000000000000E+00
 0.0000000000000E+00
 0.0000000000000E+00
 0.0000000000000E+00
 0.0000000000000E+00
 0.0000000000000E+00
 0.0000000000000E+00
 0.0000000000000E+00
 0.0000000000000E+00
 0.0000000000000E+00
 0.0000000000000E+00
 0.0000000000000E+00
 0.0000000000000E+00
 0.0000000000000E+00
 0.0000000000000E+00
 0.0000000000000E+00
 0.0000000000000E+00
 0.0000000000000E+00
 0.0000000000000E+00
 0.0000000000000E+00
 0.0000000000000E+00
 0.0000000000000E+00
 0.0000000000000E+00
 0.0000000000000E+00
 0.0000000000000E+00
 0.0000000000000E+00
 0.0000000000000E+00
 0.0000000000000E+00
 0.0000000000000E+00
 0.0000000000000E+00
 0.0000000000000E+00
 0.0000000000000E+00
 0.0000000000000E+00
 0.0000000000000E+00
 0.0000000000000E+00
 0.0000000000000E+00
 0.0000000000000E+00
 0.0000000000000E+00
 0.0000000000000E+00
 0.0000000000000E+00
 0.0000000000000E+00
 0.0000000000000E+00
 0.0000000000000E+00
 0.0000000000000E+00
 0.0000000000000E+00
 0.0000000000000E+00
 0.0000000000000E+00
 0.0000000000000E+00
 0.0000000000000E+00
 0.0000000000000E+00
 0.0000000000000E+00
 0.0000000000000E+00
 0.0000000000000E+00
 0.0000000000000E+00
 0.0000000000000E+00
 0.0000000000000E+00
 0.0000000000000E+00
 0.0000000000000E+00
 0.0000000000000E+00
 0.0000000000000E+00
 0.0000000000000E+00
 0.0000000000000E+00
 0.0000000000000E+00
 0.0000000000000E+00
 0.0000000000000E+00
 0.0000000000000E+00
 0.0000000000000E+00
 0.0000000000000E+00
 0.0000000000000E+00
 0.0000000000000E+00
 0.0000000000000E+00
 0.0000000000000E+00
 0.0000000000000E+00
 0.0000000000000E+00
 0.0000000000000E+00
 0.0000000000000E+00
 0.0000000000000E+00
 0.0000000000000E+00
 0.0000000000000E+00
 0.0000000000000E+00
 0.0000000000000E+00
 0.0000000000000E+00
 0.0000000000000E+00
 0.0000000000000E+00
 0.0000000000000E+00
 0.0000000000000E+00
 0.0000000000000E+00
 0.0000000000000E+00
 0.0000000000000E+00
 0.0000000000000E+00
 0.0000000000000E+00
 0.0000000000000E+00
 0.0000000000000E+00
 0.0000000000000E+00
 0.0000000000000E+00
 0.0000000000000E+00
 0.0000000000000E+00
 0.0000000000000E+00
 0.0000000000000E+00
 0.0000000000000E+00
 0.0000000000000E+00
 0.0000000000000E+00
 0.0000000000000E+00
 0.0000000000000E+00
 0.0000000000000E+00
 0.0000000000000E+00
 0.0000000000000E+00
 0.0000000000000E+00
 0.0000000000000E+00
 0.0000000000000E+00
 0.0000000000000E+00
 0.0000000000000E+00
 0.0000000000000E+00
 0.0000000000000E+00
 0.0000000000000E+00
 0.0000000000000E+00
 0.0000000000000E+00
 0.0000000000000E+00
 0.0000000000000E+00
 0.0000000000000E+00
 0.0000000000000E+00
 0.0000000000000E+00
 0.0000000000000E+00
 0.0000000000000E+00
 0.0000000000000E+00
 0.0000000000000E+00
 0.0000000000000E+00
 0.0000000000000E+00
 0.0000000000000E+00
 0.0000000000000E+00
 0.0000000000000E+00
 0.0000000000000E+00
 0.0000000000000E+00
 0.0000000000000E+00
 0.0000000000000E+00
 0.0000000000000E+00
 0.0000000000000E+00
 0.0000000000000E+00
 0.0000000000000E+00
 0.0000000000000E+00
 0.0000000000000E+00
 0.0000000000000E+00
 0.0000000000000E+00
 0.0000000000000E+00
 0.0000000000000E+00
 0.0000000000000E+00
 0.0000000000000E+00
 0.0000000000000E+00
 0.0000000000000E+00
 0.0000000000000E+00
 0.0000000000000E+00
 0.0000000000000E+00
 0.0000000000000E+00
 0.0000000000000E+00
 0.0000000000000E+00
 0.0000000000000E+00
 0.0000000000000E+00
 0.0000000000000E+00
 0.0000000000000E+00
 0.0000000000000E+00
 0.0000000000000E+00
 0.0000000000000E+00
 0.0000000000000E+00
 0.0000000000000E+00
 0.0000000000000E+00
 0.0000000000000E+00
 0.0000000000000E+00
 0.0000000000000E+00
 0.0000000000000E+00
 0.0000000000000E+00
 0.0000000000000E+00
 0.0000000000000E+00
 0.0000000000000E+00
 0.0000000000000E+00
 0.0000000000000E+00
 0.0000000000000E+00
 0.0000000000000E+00
 0.0000000000000E+00
 0.0000000000000E+00
 0.0000000000000E+00
 0.0000000000000E+00
 0.0000000000000E+00
 0.0000000000000E+00
 0.0000000000000E+00
 0.0000000000000E+00
 0.0000000000000E+00
 0.0000000000000E+00
 0.0000000000000E+00
 0.0000000000000E+00
 0.0000000000000E+00
 0.0000000000000E+00
 0.0000000000000E+00
 0.0000000000000E+00
 0.0000000000000E+00
 0.0000000000000E+00
 0.0000000000000E+00
 0.0000000000000E+00
 0.0000000000000E+00
 0.0000000000000E+00
 0.0000000000000E+00
 0.0000000000000E+00
 0.0000000000000E+00
 0.0000000000000E+00
 0.0000000000000E+00
 0.0000000000000E+00
 0.0000000000000E+00
 0.0000000000000E+00
 0.0000000000000E+00
 0.0000000000000E+00
 0.0000000000000E+00
 0.0000000000000E+00
 0.0000000000000E+00
 0.0000000000000E+00
 0.0000000000000E+00
 0.0000000000000E+00
 0.0000000000000E+00
 0.0000000000000E+00
 0.0000000000000E+00
 0.0000000000000E+00
 0.0000000000000E+00
 0.0000000000000E+00
 0.0000000000000E+00
 0.0000000000000E+00
 0.0000000000000E+00
 0.0000000000000E+00
 0.0000000000000E+00
 0.0000000000000E+00
 0.0000000000000E+00
 0.0000000000000E+00
 0.0000000000000E+00
 0.0000000000000E+00
 0.0000000000000E+00
 0.0000000000000E+00
 0.0000000000000E+00
 0.0000000000000E+00
 0.0000000000000E+00
 0.0000000000000E+00
 0.0000000000000E+00
 0.0000000000000E+00
 0.0000000000000E+00
 0.0000000000000E+00
 0.0000000000000E+00
 0.0000000000000E+00
 0.0000000000000E+00
 0.0000000000000E+00
 0.0000000000000E+00
 0.0000000000000E+00
 0.0000000000000E+00
 0.0000000000000E+00
 0.0000000000000E+00
 0.0000000000000E+00
 0.0000000000000E+00
 0.0000000000000E+00
 0.0000000000000E+00
 0.0000000000000E+00
 0.0000000000000E+00
 0.0000000000000E+00
 0.0000000000000E+00
 0.0000000000000E+00
 0.0000000000000E+00
 0.0000000000000E+00
 0.0000000000000E+00
 0.0000000000000E+00
 0.0000000000000E+00
 0.0000000000000E+00
 0.0000000000000E+00
 0.0000000000000E+00
 0.0000000000000E+00
 0.0000000000000E+00
 0.0000000000000E+00
 0.0000000000000E+00
 0.0000000000000E+00
 0.0000000000000E+00
 0.0000000000000E+00
 0.0000000000000E+00
 0.0000000000000E+00
 0.0000000000000E+00
 0.0000000000000E+00
 0.0000000000000E+00
 0.0000000000000E+00
 0.0000000000000E+00
 0.0000000000000E+00
 0.0000000000000E+00
 0.0000000000000E+00
 0.0000000000000E+00
 0.0000000000000E+00
 0.0000000000000E+00
 0.0000000000000E+00
 0.0000000000000E+00
 0.0000000000000E+00
 0.0000000000000E+00
 0.0000000000000E+00
 0.0000000000000E+00
 0.0000000000000E+00
 0.0000000000000E+00
 0.0000000000000E+00
 0.0000000000000E+00
 0.0000000000000E+00
 0.0000000000000E+00
 0.0000000000000E+00
 0.0000000000000E+00
 0.0000000000000E+00
 0.0000000000000E+00
 0.0000000000000E+00
 0.0000000000000E+00
 0.0000000000000E+00
 0.0000000000000E+00
 0.0000000000000E+00
 0.0000000000000E+00
 0.0000000000000E+00
 0.0000000000000E+00
 0.0000000000000E+00
 0.0000000000000E+00
 0.0000000000000E+00
 0.0000000000000E+00
 0.0000000000000E+00
 0.0000000000000E+00
 0.0000000000000E+00
 0.0000000000000E+00
 0.0000000000000E+00
 0.0000000000000E+00
 0.0000000000000E+00
 0.0000000000000E+00
 0.0000000000000E+00
 0.0000000000000E+00
 0.0000000000000E+00
 0.0000000000000E+00
 0.0000000000000E+00
 0.0000000000000E+00
 0.0000000000000E+00
 0.0000000000000E+00
 0.0000000000000E+00
 0.0000000000000E+00
 0.0000000000000E+00
 0.0000000000000E+00
 0.0000000000000E+00
 0.0000000000000E+00
 0.0000000000000E+00
 0.0000000000000E+00
 0.0000000000000E+00
 0.0000000000000E+00
 0.0000000000000E+00
 0.0000000000000E+00
 0.0000000000000E+00
 0.0000000000000E+00
 0.0000000000000E+00
 0.0000000000000E+00
 0.0000000000000E+00
 0.0000000000000E+00
 0.0000000000000E+00
 0.0000000000000E+00
 0.0000000000000E+00
 0.0000000000000E+00
 0.0000000000000E+00
 0.0000000000000E+00
 0.0000000000000E+00
 0.0000000000000E+00
 0.0000000000000E+00
 0.0000000000000E+00
 0.0000000000000E+00
 0.0000000000000E+00
 0.0000000000000E+00
 0.0000000000000E+00
 0.0000000000000E+00
 0.0000000000000E+00
 0.0000000000000E+00
 0.0000000000000E+00
 0.0000000000000E+00
 0.0000000000000E+00
 0.0000000000000E+00
 0.0000000000000E+00
 0.0000000000000E+00
 0.0000000000000E+00
 0.0000000000000E+00
 0.0000000000000E+00
 0.0000000000000E+00
 0.0000000000000E+00
 0.0000000000000E+00
 0.0000000000000E+00
 0.0000000000000E+00
 0.0000000000000E+00
 0.0000000000000E+00
 0.0000000000000E+00
 0.0000000000000E+00
 0.0000000000000E+00
 0.0000000000000E+00
 0.0000000000000E+00
 0.0000000000000E+00
 0.0000000000000E+00
 0.0000000000000E+00
 0.0000000000000E+00
 0.0000000000000E+00
 0.0000000000000E+00
 0.0000000000000E+00
 0.0000000000000E+00
 0.0000000000000E+00
 0.0000000000000E+00
 0.0000000000000E+00
 0.0000000000000E+00
 0.0000000000000E+00
 0.0000000000000E+00
 0.0000000000000E+00
 0.0000000000000E+00
 0.0000000000000E+00
 0.0000000000000E+00
 0.0000000000000E+00
 0.0000000000000E+00
 0.0000000000000E+00
 0.0000000000000E+00
 0.0000000000000E+00
 0.0000000000000E+00
 0.0000000000000E+00
 0.0000000000000E+00
 0.0000000000000E+00
 0.0000000000000E+00
 0.0000000000000E+00
 0.0000000000000E+00
 0.0000000000000E+00
 0.0000000000000E+00
 0.0000000000000E+00
 0.0000000000000E+00
 0.0000000000000E+00
 0.0000000000000E+00
 0.0000000000000E+00
 0.0000000000000E+00
 0.0000000000000E+00
 0.0000000000000E+00
 0.0000000000000E+00
 0.0000000000000E+00
 0.0000000000000E+00
 0.0000000000000E+00
 0.0000000000000E+00
 0.0000000000000E+00
 0.0000000000000E+00
 0.0000000000000E+00
 0.0000000000000E+00
 0.0000000000000E+00
 0.0000000000000E+00
 0.0000000000000E+00
 0.0000000000000E+00
 0.0000000000000E+00
 0.0000000000000E+00
 0.0000000000000E+00
 0.0000000000000E+00
 0.0000000000000E+00
 0.0000000000000E+00
 0.0000000000000E+00
 0.0000000000000E+00
 0.0000000000000E+00
 0.0000000000000E+00
 0.0000000000000E+00
 0.0000000000000E+00
 0.0000000000000E+00
 0.0000000000000E+00
 0.0000000000000E+00
 0.0000000000000E+00
 0.0000000000000E+00
 0.0000000000000E+00
 0.0000000000000E+00
 0.0000000000000E+00
 0.0000000000000E+00
 0.0000000000000E+00
 0.0000000000000E+00
 0.0000000000000E+00
 0.0000000000000E+00
 0.0000000000000E+00
 0.0000000000000E+00
 0.0000000000000E+00
 0.0000000000000E+00
 0.0000000000000E+00
 0.0000000000000E+00
 0.0000000000000E+00
 0.0000000000000E+00
 0.0000000000000E+00
 0.0000000000000E+00
 0.0000000000000E+00
 0.0000000000000E+00
 0.0000000000000E+00
 0.0000000000000E+00
 0.0000000000000E+00
 0.0000000000000E+00
 0.0000000000000E+00
 0.0000000000000E+00
 0.0000000000000E+00
 0.0000000000000E+00
 0.0000000000000E+00
 0.0000000000000E+00
 0.0000000000000E+00
 0.0000000000000E+00
 0.0000000000000E+00
 0.0000000000000E+00
 0.0000000000000E+00
 0.0000000000000E+00
 0.0000000000000E+00
 0.0000000000000E+00
 0.0000000000000E+00
 0.0000000000000E+00
 0.0000000000000E+00
 0.0000000000000E+00
 0.0000000000000E+00
 0.0000000000000E+00
 0.0000000000000E+00
 0.0000000000000E+00
 0.0000000000000E+00
 0.0000000000000E+00
 0.0000000000000E+00
 0.0000000000000E+00
 0.0000000000000E+00
 0.0000000000000E+00
 0.0000000000000E+00
 0.0000000000000E+00
 0.0000000000000E+00
 0.0000000000000E+00
 0.0000000000000E+00
 0.0000000000000E+00
 0.0000000000000E+00
 0.0000000000000E+00
 0.0000000000000E+00
 0.0000000000000E+00
 0.0000000000000E+00
 0.0000000000000E+00
 0.0000000000000E+00
 0.0000000000000E+00
 0.0000000000000E+00
 0.0000000000000E+00
 0.0000000000000E+00
 0.0000000000000E+00
 0.0000000000000E+00
 0.0000000000000E+00
 0.0000000000000E+00
 0.0000000000000E+00
 0.0000000000000E+00
 0.0000000000000E+00
 0.0000000000000E+00
 0.0000000000000E+00
 0.0000000000000E+00
 0.0000000000000E+00
 0.0000000000000E+00
 0.0000000000000E+00
 0.0000000000000E+00
 0.0000000000000E+00
 0.0000000000000E+00
 0.0000000000000E+00
 0.0000000000000E+00
 0.0000000000000E+00
 0.0000000000000E+00
 0.0000000000000E+00
 0.0000000000000E+00
 0.0000000000000E+00
 0.0000000000000E+00
 0.0000000000000E+00
 0.0000000000000E+00
 0.0000000000000E+00
 0.0000000000000E+00
 0.0000000000000E+00
 0.0000000000000E+00
 0.0000000000000E+00
 0.0000000000000E+00
 0.0000000000000E+00
 0.0000000000000E+00
 0.0000000000000E+00
 0.0000000000000E+00
 0.0000000000000E+00
 0.0000000000000E+00
 0.0000000000000E+00
 0.0000000000000E+00
 0.0000000000000E+00
 0.0000000000000E+00
 0.0000000000000E+00
 0.0000000000000E+00
 0.0000000000000E+00
 0.0000000000000E+00
 0.0000000000000E+00
 0.0000000000000E+00
 0.0000000000000E+00
 0.0000000000000E+00
 0.0000000000000E+00
 0.0000000000000E+00
 0.0000000000000E+00
 0.0000000000000E+00
 0.0000000000000E+00
 0.0000000000000E+00
 0.0000000000000E+00
 0.0000000000000E+00
 0.0000000000000E+00
 0.0000000000000E+00
 0.0000000000000E+00
 0.0000000000000E+00
 0.0000000000000E+00
 0.0000000000000E+00
 0.0000000000000E+00
 0.0000000000000E+00
 0.0000000000000E+00
 0.0000000000000E+00
 0.0000000000000E+00
 0.0000000000000E+00
 0.0000000000000E+00
 0.0000000000000E+00
 0.0000000000000E+00
 0.0000000000000E+00
 0.0000000000000E+00
 0.0000000000000E+00
 0.0000000000000E+00
 0.0000000000000E+00
 0.0000000000000E+00
 0.0000000000000E+00
 0.0000000000000E+00
 0.0000000000000E+00
 0.0000000000000E+00
 0.0000000000000E+00
 0.0000000000000E+00
 0.0000000000000E+00
 0.0000000000000E+00
 0.0000000000000E+00
 0.0000000000000E+00
 0.0000000000000E+00
 0.0000000000000E+00
 0.0000000000000E+00
 0.0000000000000E+00
 0.0000000000000E+00
 0.0000000000000E+00
 0.0000000000000E+00
 0.0000000000000E+00
 0.0000000000000E+00
 0.0000000000000E+00
 0.0000000000000E+00
 0.0000000000000E+00
 0.0000000000000E+00
 0.0000000000000E+00
 0.0000000000000E+00
 0.0000000000000E+00
 0.0000000000000E+00
 0.0000000000000E+00
 0.0000000000000E+00
 0.0000000000000E+00
 0.0000000000000E+00
 0.0000000000000E+00
 0.0000000000000E+00
 0.0000000000000E+00
 0.0000000000000E+00
 0.0000000000000E+00
 0.0000000000000E+00
 0.0000000000000E+00
 0.0000000000000E+00
 0.0000000000000E+00
 0.0000000000000E+00
 0.0000000000000E+00
 0.0000000000000E+00
 0.0000000000000E+00
 0.0000000000000E+00
 0.0000000000000E+00
 0.0000000000000E+00
 0.0000000000000E+00
 0.0000000000000E+00
 0.0000000000000E+00
 0.0000000000000E+00
 0.0000000000000E+00
 0.0000000000000E+00
 0.0000000000000E+00
 0.0000000000000E+00
 0.0000000000000E+00
 0.0000000000000E+00
 0.0000000000000E+00
 0.0000000000000E+00
 0.0000000000000E+00
 0.0000000000000E+00
 0.0000000000000E+00
 0.0000000000000E+00
 0.0000000000000E+00
 0.0000000000000E+00
 0.0000000000000E+00
 0.0000000000000E+00
 0.0000000000000E+00
 0.0000000000000E+00
 0.0000000000000E+00
 0.0000000000000E+00
 0.0000000000000E+00
 0.0000000000000E+00
 0.0000000000000E+00
 0.0000000000000E+00
 0.0000000000000E+00
 0.0000000000000E+00
 0.0000000000000E+00
 0.0000000000000E+00
 0.0000000000000E+00
 0.0000000000000E+00
 0.0000000000000E+00
 0.0000000000000E+00
 0.0000000000000E+00
 0.0000000000000E+00
 0.0000000000000E+00
 0.0000000000000E+00
 0.0000000000000E+00
 0.0000000000000E+00
 0.0000000000000E+00
 0.0000000000000E+00
 0.0000000000000E+00
 0.0000000000000E+00
 0.0000000000000E+00
 0.0000000000000E+00
 0.0000000000000E+00
 0.0000000000000E+00
 0.0000000000000E+00
 0.0000000000000E+00
 0.0000000000000E+00
 0.0000000000000E+00
 0.0000000000000E+00
 0.0000000000000E+00
 0.0000000000000E+00
 0.0000000000000E+00
 0.0000000000000E+00
 0.0000000000000E+00
 0.0000000000000E+00
 0.0000000000000E+00
 0.0000000000000E+00
 0.0000000000000E+00
 0.0000000000000E+00
 0.0000000000000E+00
 0.0000000000000E+00
 0.0000000000000E+00
 0.0000000000000E+00
 0.0000000000000E+00
 0.0000000000000E+00
 0.0000000000000E+00
 0.0000000000000E+00
 0.0000000000000E+00
 0.0000000000000E+00
 0.0000000000000E+00
 0.0000000000000E+00
 0.0000000000000E+00
 0.0000000000000E+00
 0.0000000000000E+00
 0.0000000000000E+00
 0.0000000000000E+00
 0.0000000000000E+00
 0.0000000000000E+00
 0.0000000000000E+00
 0.0000000000000E+00
 0.0000000000000E+00
 0.0000000000000E+00
 0.0000000000000E+00
 0.0000000000000E+00
 0.0000000000000E+00
 0.0000000000000E+00
 0.0000000000000E+00
 0.0000000000000E+00
 0.0000000000000E+00
 0.0000000000000E+00
 0.0000000000000E+00
 0.0000000000000E+00
 0.0000000000000E+00
 0.0000000000000E+00
 0.0000000000000E+00
 0.0000000000000E+00
 0.0000000000000E+00
 0.0000000000000E+00
 0.0000000000000E+00
 0.0000000000000E+00
 0.0000000000000E+00
 0.0000000000000E+00
 0.0000000000000E+00
 0.0000000000000E+00
 0.0000000000000E+00
 0.0000000000000E+00
 0.0000000000000E+00
 0.0000000000000E+00
 0.0000000000000E+00
 0.0000000000000E+00
 0.0000000000000E+00
 0.0000000000000E+00
 0.0000000000000E+00
 0.0000000000000E+00
 0.0000000000000E+00
 0.0000000000000E+00
 0.0000000000000E+00
 0.0000000000000E+00
 0.0000000000000E+00
 0.0000000000000E+00
 0.0000000000000E+00
 0.0000000000000E+00
 0.0000000000000E+00
 0.0000000000000E+00
 0.0000000000000E+00
 0.0000000000000E+00
 0.0000000000000E+00
 0.0000000000000E+00
 0.0000000000000E+00
 0.0000000000000E+00
 0.0000000000000E+00
 0.0000000000000E+00
 0.0000000000000E+00
 0.0000000000000E+00
 0.0000000000000E+00
 0.0000000000000E+00
 0.0000000000000E+00
 0.0000000000000E+00
 0.0000000000000E+00
 0.0000000000000E+00
 0.0000000000000E+00
 0.0000000000000E+00
 0.0000000000000E+00
 0.0000000000000E+00
 0.0000000000000E+00
 0.0000000000000E+00
 0.0000000000000E+00
 0.0000000000000E+00
 0.0000000000000E+00
 0.0000000000000E+00
 0.0000000000000E+00
 0.0000000000000E+00
 0.0000000000000E+00
 0.0000000000000E+00
 0.0000000000000E+00
 0.0000000000000E+00
 0.0000000000000E+00
 0.0000000000000E+00
 0.0000000000000E+00
 0.0000000000000E+00
 0.0000000000000E+00
 0.0000000000000E+00
 0.0000000000000E+00
 0.0000000000000E+00
 0.0000000000000E+00
 0.0000000000000E+00
 0.0000000000000E+00
 0.0000000000000E+00
 0.0000000000000E+00
 0.0000000000000E+00
 0.0000000000000E+00
 0.0000000000000E+00
 0.0000000000000E+00
 0.0000000000000E+00
 0.0000000000000E+00
 0.0000000000000E+00
 0.0000000000000E+00
 0.0000000000000E+00
 0.0000000000000E+00
 0.0000000000000E+00
 0.0000000000000E+00
 0.0000000000000E+00
 0.0000000000000E+00
 0.0000000000000E+00
 0.0000000000000E+00
 0.0000000000000E+00
 0.0000000000000E+00
 0.0000000000000E+00
 0.0000000000000E+00
 0.0000000000000E+00
 0.0000000000000E+00
 0.0000000000000E+00
 0.0000000000000E+00
 0.0000000000000E+00
 0.0000000000000E+00
 0.0000000000000E+00
 0.0000000000000E+00
 0.0000000000000E+00
 0.0000000000000E+00
 0.0000000000000E+00
 0.0000000000000E+00
 0.0000000000000E+00
 0.0000000000000E+00
 0.0000000000000E+00
 0.0000000000000E+00
 0.0000000000000E+00
 0.0000000000000E+00
 0.0000000000000E+00
 0.0000000000000E+00
 0.0000000000000E+00
 0.0000000000000E+00
 0.0000000000000E+00
 0.0000000000000E+00
 0.0000000000000E+00
 0.0000000000000E+00
 0.0000000000000E+00
 0.0000000000000E+00
 0.0000000000000E+00
 0.0000000000000E+00
 0.0000000000000E+00
 0.0000000000000E+00
 0.0000000000000E+00
 0.0000000000000E+00
 0.0000000000000E+00
 0.0000000000000E+00
 0.0000000000000E+00
 0.0000000000000E+00
 0.0000000000000E+00
 0.0000000000000E+00
 0.0000000000000E+00
 0.0000000000000E+00
 0.0000000000000E+00
 0.0000000000000E+00
 0.0000000000000E+00
 0.0000000000000E+00
 0.0000000000000E+00
 0.0000000000000E+00
 0.0000000000000E+00
 0.0000000000000E+00
 0.0000000000000E+00
 0.0000000000000E+00
 0.0000000000000E+00
 0.0000000000000E+00
 0.0000000000000E+00
 0.0000000000000E+00
 0.0000000000000E+00
 0.0000000000000E+00
 0.0000000000000E+00
 0.0000000000000E+00
 0.0000000000000E+00
 0.0000000000000E+00
 0.0000000000000E+00
 0.0000000000000E+00
 0.0000000000000E+00
 0.0000000000000E+00
 0.0000000000000E+00
 0.0000000000000E+00
 0.0000000000000E+00
 0.0000000000000E+00
 0.0000000000000E+00
 0.0000000000000E+00
 0.0000000000000E+00
 0.0000000000000E+00
 0.0000000000000E+00
 0.0000000000000E+00
 0.0000000000000E+00
 0.0000000000000E+00
 0.0000000000000E+00
 0.0000000000000E+00
 0.0000000000000E+00
 0.0000000000000E+00
 0.0000000000000E+00
 0.0000000000000E+00
 0.0000000000000E+00
 0.0000000000000E+00
 0.0000000000000E+00
 0.0000000000000E+00
 0.0000000000000E+00
 0.0000000000000E+00
 0.0000000000000E+00
 0.0000000000000E+00
 0.0000000000000E+00
 0.0000000000000E+00
 0.0000000000000E+00
 0.0000000000000E+00
 0.0000000000000E+00
 0.0000000000000E+00
 0.0000000000000E+00
 0.0000000000000E+00
 0.0000000000000E+00
 0.0000000000000E+00
 0.0000000000000E+00
 0.0000000000000E+00
 0.0000000000000E+00
 0.0000000000000E+00
 0.0000000000000E+00
 0.0000000000000E+00
 0.0000000000000E+00
 0.0000000000000E+00
 0.0000000000000E+00
 0.0000000000000E+00
 0.0000000000000E+00
 0.0000000000000E+00
 0.0000000000000E+00
 0.0000000000000E+00
 0.0000000000000E+00
 0.0000000000000E+00
 0.0000000000000E+00
 0.0000000000000E+00
 0.0000000000000E+00
 0.0000000000000E+00
 0.0000000000000E+00
 0.0000000000000E+00
 0.0000000000000E+00
 0.0000000000000E+00
 0.0000000000000E+00
 0.0000000000000E+00
 0.0000000000000E+00
 0.0000000000000E+00
 0.0000000000000E+00
 0.0000000000000E+00
 0.0000000000000E+00
 0.0000000000000E+00
 0.0000000000000E+00
 0.0000000000000E+00
 0.0000000000000E+00
 0.0000000000000E+00
 0.0000000000000E+00
 0.0000000000000E+00
 0.0000000000000E+00
 0.0000000000000E+00
 0.0000000000000E+00
 0.0000000000000E+00
 0.0000000000000E+00
 0.0000000000000E+00
 0.0000000000000E+00
 0.0000000000000E+00
 0.0000000000000E+00
 0.0000000000000E+00
 0.0000000000000E+00
 0.0000000000000E+00
 0.0000000000000E+00
 0.0000000000000E+00
 0.0000000000000E+00
 0.0000000000000E+00
 0.0000000000000E+00
 0.0000000000000E+00
 0.0000000000000E+00
 0.0000000000000E+00
 0.0000000000000E+00
 0.0000000000000E+00
 0.0000000000000E+00
 0.0000000000000E+00
 0.0000000000000E+00
 0.0000000000000E+00
 0.0000000000000E+00
 0.0000000000000E+00
 0.0000000000000E+00
 0.0000000000000E+00
 0.0000000000000E+00
 0.0000000000000E+00
 0.0000000000000E+00
 0.0000000000000E+00
 0.0000000000000E+00
 0.0000000000000E+00
 0.0000000000000E+00
 0.0000000000000E+00
 0.0000000000000E+00
 0.0000000000000E+00
 0.0000000000000E+00
 0.0000000000000E+00
 0.0000000000000E+00
 0.0000000000000E+00
 0.0000000000000E+00
 0.0000000000000E+00
 0.0000000000000E+00
 0.0000000000000E+00
 0.0000000000000E+00
 0.0000000000000E+00
 0.0000000000000E+00
 0.0000000000000E+00
 0.0000000000000E+00
 0.0000000000000E+00
 0.0000000000000E+00
 0.0000000000000E+00
 0.0000000000000E+00
 0.0000000000000E+00
 0.0000000000000E+00
 0.0000000000000E+00
 0.0000000000000E+00
 0.0000000000000E+00
 0.0000000000000E+00
 0.0000000000000E+00
 0.0000000000000E+00
 0.0000000000000E+00
 0.0000000000000E+00
 0.0000000000000E+00
 0.0000000000000E+00
 0.0000000000000E+00
 0.0000000000000E+00
 0.0000000000000E+00
 0.0000000000000E+00
 0.0000000000000E+00
 0.0000000000000E+00
 0.0000000000000E+00
 0.0000000000000E+00
 0.0000000000000E+00
 0.0000000000000E+00
 0.0000000000000E+00
 0.0000000000000E+00
 0.0000000000000E+00
 0.0000000000000E+00
 0.0000000000000E+00
 0.0000000000000E+00
 0.0000000000000E+00
 0.0000000000000E+00
 0.0000000000000E+00
 0.0000000000000E+00
 0.0000000000000E+00
 0.0000000000000E+00
 0.0000000000000E+00
 0.0000000000000E+00
 0.0000000000000E+00
 0.0000000000000E+00
 0.0000000000000E+00
 0.0000000000000E+00
 0.0000000000000E+00
 0.0000000000000E+00
 0.0000000000000E+00
 0.0000000000000E+00
 0.0000000000000E+00
 0.0000000000000E+00
 0.0000000000000E+00
 0.0000000000000E+00
 0.0000000000000E+00
 0.0000000000000E+00
 0.0000000000000E+00
 0.0000000000000E+00
 0.0000000000000E+00
 0.0000000000000E+00
 0.0000000000000E+00
 0.0000000000000E+00
 0.0000000000000E+00
 0.0000000000000E+00
 0.0000000000000E+00
 0.0000000000000E+00
 0.0000000000000E+00
 0.0000000000000E+00
 0.0000000000000E+00
 0.0000000000000E+00
 0.0000000000000E+00
 0.0000000000000E+00
 0.0000000000000E+00
 0.0000000000000E+00
 0.0000000000000E+00
 0.0000000000000E+00
 0.0000000000000E+00
 0.0000000000000E+00
 0.0000000000000E+00
 0.0000000000000E+00
 0.0000000000000E+00
 0.0000000000000E+00
 0.0000000000000E+00
 0.0000000000000E+00
 0.0000000000000E+00
 0.0000000000000E+00
 0.0000000000000E+00
 0.0000000000000E+00
 0.0000000000000E+00
 0.0000000000000E+00
 0.0000000000000E+00
 0.0000000000000E+00
 0.0000000000000E+00
 0.0000000000000E+00
 0.0000000000000E+00
 0.0000000000000E+00
 0.0000000000000E+00
 0.0000000000000E+00
 0.0000000000000E+00
 0.0000000000000E+00
 0.0000000000000E+00
 0.0000000000000E+00
 0.0000000000000E+00
 0.0000000000000E+00
 0.0000000000000E+00
 0.0000000000000E+00
 0.0000000000000E+00
 0.0000000000000E+00
 0.0000000000000E+00
 0.0000000000000E+00
 0.0000000000000E+00
 0.0000000000000E+00
 0.0000000000000E+00
 0.0000000000000E+00
 0.0000000000000E+00
 0.0000000000000E+00
 0.0000000000000E+00
 0.0000000000000E+00
 0.0000000000000E+00
 0.0000000000000E+00
 0.0000000000000E+00
 0.0000000000000E+00
 0.0000000000000E+00
 0.0000000000000E+00
 0.0000000000000E+00
 0.0000000000000E+00
 0.0000000000000E+00
 0.0000000000000E+00
 0.0000000000000E+00
 0.0000000000000E+00
 0.0000000000000E+00
 0.0000000000000E+00
 0.0000000000000E+00
 0.0000000000000E+00
 0.0000000000000E+00
 0.0000000000000E+00
 0.0000000000000E+00
 0.0000000000000E+00
 0.0000000000000E+00
 0.0000000000000E+00
 0.0000000000000E+00
 0.0000000000000E+00
 0.0000000000000E+00
 0.0000000000000E+00
 0.0000000000000E+00
 0.0000000000000E+00
 0.0000000000000E+00
 0.0000000000000E+00
 0.0000000000000E+00
 0.0000000000000E+00
 0.0000000000000E+00
 0.0000000000000E+00
 0.0000000000000E+00
 0.0000000000000E+00
 0.0000000000000E+00
 0.0000000000000E+00
 0.0000000000000E+00
 0.0000000000000E+00
 0.0000000000000E+00
 0.0000000000000E+00
 0.0000000000000E+00
 0.0000000000000E+00
 0.0000000000000E+00
 0.0000000000000E+00
 0.0000000000000E+00
 0.0000000000000E+00
 0.0000000000000E+00
 0.0000000000000E+00
 0.0000000000000E+00
 0.0000000000000E+00
 0.0000000000000E+00
 0.0000000000000E+00
 0.0000000000000E+00
 0.0000000000000E+00
 0.0000000000000E+00
 0.0000000000000E+00
 0.0000000000000E+00
 0.0000000000000E+00
 0.0000000000000E+00
 0.0000000000000E+00
 0.0000000000000E+00
 0.0000000000000E+00
 0.0000000000000E+00
 0.0000000000000E+00
 0.0000000000000E+00
 0.0000000000000E+00
 0.0000000000000E+00
 0.0000000000000E+00
 0.0000000000000E+00
 0.0000000000000E+00
 0.0000000000000E+00
 0.0000000000000E+00
 0.0000000000000E+00
 0.0000000000000E+00
 0.0000000000000E+00
 0.0000000000000E+00
 0.0000000000000E+00
 0.0000000000000E+00
 0.0000000000000E+00
 0.0000000000000E+00
 0.0000000000000E+00
 0.0000000000000E+00
 0.0000000000000E+00
 0.0000000000000E+00
 0.0000000000000E+00
 0.0000000000000E+00
 0.0000000000000E+00
 0.0000000000000E+00
 0.0000000000000E+00
 0.0000000000000E+00
 0.0000000000000E+00
 0.0000000000000E+00
 0.0000000000000E+00
 0.0000000000000E+00
 0.0000000000000E+00
 0.0000000000000E+00
 0.0000000000000E+00
 0.0000000000000E+00
 0.0000000000000E+00
 0.0000000000000E+00
 0.0000000000000E+00
 0.0000000000000E+00
 0.0000000000000E+00
 0.0000000000000E+00
 0.0000000000000E+00
 0.0000000000000E+00
 0.0000000000000E+00
 0.0000000000000E+00
 0.0000000000000E+00
 0.0000000000000E+00
 0.0000000000000E+00
 0.0000000000000E+00
 0.0000000000000E+00
 0.0000000000000E+00
 0.0000000000000E+00
 0.0000000000000E+00
 0.0000000000000E+00
 0.0000000000000E+00
 0.0000000000000E+00
 0.0000000000000E+00
 0.0000000000000E+00
 0.0000000000000E+00
 0.0000000000000E+00
 0.0000000000000E+00
 0.0000000000000E+00
 0.0000000000000E+00
 0.0000000000000E+00
 0.0000000000000E+00
 0.0000000000000E+00
 0.0000000000000E+00
 0.0000000000000E+00
 0.0000000000000E+00
 0.0000000000000E+00
 0.0000000000000E+00
 0.0000000000000E+00
 0.0000000000000E+00
 0.0000000000000E+00
 0.0000000000000E+00
 0.0000000000000E+00
 0.0000000000000E+00
 0.0000000000000E+00
 0.0000000000000E+00
 0.0000000000000E+00
 0.0000000000000E+00
 0.0000000000000E+00
 0.0000000000000E+00
 0.0000000000000E+00
 0.0000000000000E+00
 0.0000000000000E+00
 0.0000000000000E+00
 0.0000000000000E+00
 0.0000000000000E+00
 0.0000000000000E+00
 0.0000000000000E+00
 0.0000000000000E+00
 0.0000000000000E+00
 0.0000000000000E+00
 0.0000000000000E+00
 0.0000000000000E+00
 0.0000000000000E+00
 0.0000000000000E+00
 0.0000000000000E+00
 0.0000000000000E+00
 0.0000000000000E+00
 0.0000000000000E+00
 0.0000000000000E+00
 0.0000000000000E+00
 0.0000000000000E+00
 0.0000000000000E+00
 0.0000000000000E+00
 0.0000000000000E+00
 0.0000000000000E+00
 0.0000000000000E+00
 0.0000000000000E+00
 0.0000000000000E+00
 0.0000000000000E+00
 0.0000000000000E+00
 0.0000000000000E+00
 0.0000000000000E+00
 0.0000000000000E+00
 0.0000000000000E+00
 0.0000000000000E+00
 0.0000000000000E+00
 0.0000000000000E+00
 0.0000000000000E+00
 0.0000000000000E+00
 0.0000000000000E+00
 0.0000000000000E+00
 0.0000000000000E+00
 0.0000000000000E+00
 0.0000000000000E+00
 0.0000000000000E+00
 0.0000000000000E+00
 0.0000000000000E+00
 0.0000000000000E+00
 0.0000000000000E+00
 0.0000000000000E+00
 0.0000000000000E+00
 0.0000000000000E+00
 0.0000000000000E+00
 0.0000000000000E+00
 0.0000000000000E+00
 0.0000000000000E+00
 0.0000000000000E+00
 0.0000000000000E+00
 0.0000000000000E+00
 0.0000000000000E+00
 0.0000000000000E+00
 0.0000000000000E+00
 0.0000000000000E+00
 0.0000000000000E+00
 0.0000000000000E+00
 0.0000000000000E+00
 0.0000000000000E+00
 0.0000000000000E+00
 0.0000000000000E+00
 0.0000000000000E+00
 0.0000000000000E+00
 0.0000000000000E+00
 0.0000000000000E+00
 0.0000000000000E+00
 0.0000000000000E+00
 0.0000000000000E+00
 0.0000000000000E+00
 0.0000000000000E+00
 0.0000000000000E+00
 0.0000000000000E+00
 0.0000000000000E+00
 0.0000000000000E+00
 0.0000000000000E+00
 0.0000000000000E+00
 0.0000000000000E+00
 0.0000000000000E+00
 0.0000000000000E+00
 0.0000000000000E+00
 0.0000000000000E+00
 0.0000000000000E+00
 0.0000000000000E+00
 0.0000000000000E+00
 0.0000000000000E+00
 0.0000000000000E+00
 0.0000000000000E+00
 0.0000000000000E+00
 0.0000000000000E+00
 0.0000000000000E+00
 0.0000000000000E+00
 0.0000000000000E+00
 0.0000000000000E+00
 0.0000000000000E+00
 0.0000000000000E+00
 0.0000000000000E+00
 0.0000000000000E+00
 0.0000000000000E+00
 0.0000000000000E+00
 0.0000000000000E+00
 0.0000000000000E+00
 0.0000000000000E+00
 0.0000000000000E+00
 0.0000000000000E+00
 0.0000000000000E+00
 0.0000000000000E+00
 0.0000000000000E+00
 0.0000000000000E+00
 0.0000000000000E+00
 0.0000000000000E+00
 0.0000000000000E+00
 0.0000000000000E+00
 0.0000000000000E+00
 0.0000000000000E+00
 0.0000000000000E+00
 0.0000000000000E+00
 0.0000000000000E+00
 0.0000000000000E+00
 0.0000000000000E+00
 0.0000000000000E+00
 0.0000000000000E+00
 0.0000000000000E+00
 0.0000000000000E+00
 0.0000000000000E+00
 0.0000000000000E+00
 0.0000000000000E+00
 0.0000000000000E+00
 0.0000000000000E+00
 0.0000000000000E+00
 0.0000000000000E+00
 0.0000000000000E+00
 0.0000000000000E+00
 0.0000000000000E+00
 0.0000000000000E+00
 0.0000000000000E+00
 0.0000000000000E+00
 0.0000000000000E+00
 0.0000000000000E+00
 0.0000000000000E+00
 0.0000000000000E+00
 0.0000000000000E+00
 0.0000000000000E+00
 0.0000000000000E+00
 0.0000000000000E+00
 0.0000000000000E+00
 0.0000000000000E+00
 0.0000000000000E+00
 0.0000000000000E+00
 0.0000000000000E+00
 0.0000000000000E+00
 0.0000000000000E+00
 0.0000000000000E+00
 0.0000000000000E+00
 0.0000000000000E+00
 0.0000000000000E+00
 0.0000000000000E+00
 0.0000000000000E+00
 0.0000000000000E+00
 0.0000000000000E+00
 0.0000000000000E+00
 0.0000000000000E+00
 0.0000000000000E+00
 0.0000000000000E+00
 0.0000000000000E+00
 0.0000000000000E+00
 0.0000000000000E+00
 0.0000000000000E+00
 0.0000000000000E+00
 0.0000000000000E+00
 0.0000000000000E+00
 0.0000000000000E+00
 0.0000000000000E+00
 0.0000000000000E+00
 0.0000000000000E+00
 0.0000000000000E+00
 0.0000000000000E+00
 0.0000000000000E+00
 0.0000000000000E+00
 0.0000000000000E+00
 0.0000000000000E+00
 0.0000000000000E+00
 0.0000000000000E+00
 0.0000000000000E+00
 0.0000000000000E+00
 0.0000000000000E+00
 0.0000000000000E+00
 0.0000000000000E+00
 0.0000000000000E+00
 0.0000000000000E+00
 0.0000000000000E+00
 0.0000000000000E+00
 0.0000000000000E+00
 0.0000000000000E+00
 0.0000000000000E+00
 0.0000000000000E+00
 0.0000000000000E+00
 0.0000000000000E+00
 0.0000000000000E+00
 0.0000000000000E+00
 0.0000000000000E+00
 0.0000000000000E+00
 0.0000000000000E+00
 0.0000000000000E+00
 0.0000000000000E+00
 0.0000000000000E+00
 0.0000000000000E+00
 0.0000000000000E+00
 0.0000000000000E+00
 0.0000000000000E+00
 0.0000000000000E+00
 0.0000000000000E+00
 0.0000000000000E+00
 0.0000000000000E+00
 0.0000000000000E+00
 0.0000000000000E+00
 0.0000000000000E+00
 0.0000000000000E+00
 0.0000000000000E+00
 0.0000000000000E+00
 0.0000000000000E+00
 0.0000000000000E+00
 0.0000000000000E+00
 0.0000000000000E+00
 0.0000000000000E+00
 0.0000000000000E+00
 0.0000000000000E+00
 0.0000000000000E+00
 0.0000000000000E+00
 0.0000000000000E+00
 0.0000000000000E+00
 0.0000000000000E+00
 0.0000000000000E+00
 0.0000000000000E+00
 0.0000000000000E+00
 0.0000000000000E+00
 0.0000000000000E+00
 0.0000000000000E+00
 0.0000000000000E+00
 0.0000000000000E+00
 0.0000000000000E+00
 0.0000000000000E+00
 0.0000000000000E+00
 0.0000000000000E+00
 0.0000000000000E+00
 0.0000000000000E+00
 0.0000000000000E+00
 0.0000000000000E+00
 0.0000000000000E+00
 0.0000000000000E+00
 0.0000000000000E+00
 0.0000000000000E+00
 0.0000000000000E+00
 0.0000000000000E+00
 0.0000000000000E+00
 0.0000000000000E+00
 0.0000000000000E+00
 0.0000000000000E+00
 0.0000000000000E+00
 0.0000000000000E+00
 0.0000000000000E+00
 0.0000000000000E+00
 0.0000000000000E+00
 0.0000000000000E+00
 0.0000000000000E+00
 0.0000000000000E+00
 0.0000000000000E+00
 0.0000000000000E+00
 0.0000000000000E+00
 0.0000000000000E+00
 0.0000000000000E+00
 0.0000000000000E+00
 0.0000000000000E+00
 0.0000000000000E+00
 0.0000000000000E+00
 0.0000000000000E+00
 0.0000000000000E+00
 0.0000000000000E+00
 0.0000000000000E+00
 0.0000000000000E+00
 0.0000000000000E+00
 0.0000000000000E+00
 0.0000000000000E+00
 0.0000000000000E+00
 0.0000000000000E+00
 0.0000000000000E+00
 0.0000000000000E+00
 0.0000000000000E+00
 0.0000000000000E+00
 0.0000000000000E+00
 0.0000000000000E+00
 0.0000000000000E+00
 0.0000000000000E+00
 0.0000000000000E+00
 0.0000000000000E+00
 0.0000000000000E+00
 0.0000000000000E+00
 0.0000000000000E+00
 0.0000000000000E+00
 0.0000000000000E+00
 0.0000000000000E+00
 0.0000000000000E+00
 0.0000000000000E+00
 0.0000000000000E+00
 0.0000000000000E+00
 0.0000000000000E+00
 0.0000000000000E+00
 0.0000000000000E+00
 0.0000000000000E+00
 0.0000000000000E+00
 0.0000000000000E+00
 0.0000000000000E+00
 0.0000000000000E+00
 0.0000000000000E+00
 0.0000000000000E+00
 0.0000000000000E+00
 0.0000000000000E+00
 0.0000000000000E+00
 0.0000000000000E+00
 0.0000000000000E+00
 0.0000000000000E+00
 0.0000000000000E+00
 0.0000000000000E+00
 0.0000000000000E+00
 0.0000000000000E+00
 0.0000000000000E+00
 0.0000000000000E+00
 0.0000000000000E+00
 0.0000000000000E+00
 0.0000000000000E+00
 0.0000000000000E+00
 0.0000000000000E+00
 0.0000000000000E+00
 0.0000000000000E+00
 0.0000000000000E+00
 0.0000000000000E+00
 0.0000000000000E+00
 0.0000000000000E+00
 0.0000000000000E+00
 0.0000000000000E+00
 0.0000000000000E+00
 0.0000000000000E+00
 0.0000000000000E+00
 0.0000000000000E+00
 0.0000000000000E+00
 0.0000000000000E+00
 0.0000000000000E+00
 0.0000000000000E+00
 0.0000000000000E+00
 0.0000000000000E+00
 0.0000000000000E+00
 0.0000000000000E+00
 0.0000000000000E+00
 0.0000000000000E+00
 0.0000000000000E+00
 0.0000000000000E+00
 0.0000000000000E+00
 0.0000000000000E+00
 0.0000000000000E+00
 0.0000000000000E+00
 0.0000000000000E+00
 0.0000000000000E+00
 0.0000000000000E+00
 0.0000000000000E+00
 0.0000000000000E+00
 0.0000000000000E+00
 0.0000000000000E+00
 0.0000000000000E+00
 0.0000000000000E+00
 0.0000000000000E+00
 0.0000000000000E+00
 0.0000000000000E+00
 0.0000000000000E+00
 0.0000000000000E+00
 0.0000000000000E+00
 0.0000000000000E+00
 0.0000000000000E+00
 0.0000000000000E+00
 0.0000000000000E+00
 0.0000000000000E+00
 0.0000000000000E+00
 0.0000000000000E+00
 0.0000000000000E+00
 0.0000000000000E+00
 0.0000000000000E+00
 0.0000000000000E+00
 0.0000000000000E+00
 0.0000000000000E+00
 0.0000000000000E+00
 0.0000000000000E+00
 0.0000000000000E+00
 0.0000000000000E+00
 0.0000000000000E+00
 0.0000000000000E+00
 0.0000000000000E+00
 0.0000000000000E+00
 0.0000000000000E+00
 0.0000000000000E+00
 0.0000000000000E+00
 0.0000000000000E+00
 0.0000000000000E+00
 0.0000000000000E+00
 0.0000000000000E+00
 0.0000000000000E+00
 0.0000000000000E+00
 0.0000000000000E+00
 0.0000000000000E+00
 0.0000000000000E+00
 0.0000000000000E+00
 0.0000000000000E+00
 0.0000000000000E+00
 0.0000000000000E+00
 0.0000000000000E+00
 0.0000000000000E+00
 0.0000000000000E+00
 0.0000000000000E+00
 0.0000000000000E+00
 0.0000000000000E+00
 0.0000000000000E+00
 0.0000000000000E+00
 0.0000000000000E+00
 0.0000000000000E+00
 0.0000000000000E+00
 0.0000000000000E+00
 0.0000000000000E+00
 0.0000000000000E+00
 0.0000000000000E+00
 0.0000000000000E+00
 0.0000000000000E+00
 0.0000000000000E+00
 0.0000000000000E+00
 0.0000000000000E+00
 0.0000000000000E+00
 0.0000000000000E+00
 0.0000000000000E+00
 0.0000000000000E+00
 0.0000000000000E+00
 0.0000000000000E+00
 0.0000000000000E+00
 0.0000000000000E+00
 0.0000000000000E+00
 0.0000000000000E+00
 0.0000000000000E+00
 0.0000000000000E+00
 0.0000000000000E+00
 0.0000000000000E+00
 0.0000000000000E+00
 0.0000000000000E+00
 0.0000000000000E+00
 0.0000000000000E+00
 0.0000000000000E+00
 0.0000000000000E+00
 0.0000000000000E+00
 0.0000000000000E+00
 0.0000000000000E+00
 0.0000000000000E+00
 0.0000000000000E+00
 0.0000000000000E+00
 0.0000000000000E+00
 0.0000000000000E+00
 0.0000000000000E+00
 0.0000000000000E+00
 0.0000000000000E+00
 0.0000000000000E+00
 0.0000000000000E+00
 0.0000000000000E+00
 0.0000000000000E+00
 0.0000000000000E+00
 0.0000000000000E+00
 0.0000000000000E+00
 0.0000000000000E+00
 0.0000000000000E+00
 0.0000000000000E+00
 0.0000000000000E+00
 0.0000000000000E+00
 0.0000000000000E+00
 0.0000000000000E+00
 0.0000000000000E+00
 0.0000000000000E+00
 0.0000000000000E+00
 0.0000000000000E+00
 0.0000000000000E+00
 0.0000000000000E+00
 0.0000000000000E+00
 0.0000000000000E+00
 0.0000000000000E+00
 0.0000000000000E+00
 0.0000000000000E+00
 0.0000000000000E+00
 0.0000000000000E+00
 0.0000000000000E+00
 0.0000000000000E+00
 0.0000000000000E+00
 0.0000000000000E+00
 0.0000000000000E+00
 0.0000000000000E+00
 0.0000000000000E+00
 0.0000000000000E+00
 0.0000000000000E+00
 0.0000000000000E+00
 0.0000000000000E+00
 0.0000000000000E+00
 0.0000000000000E+00
 0.0000000000000E+00
 0.0000000000000E+00
 0.0000000000000E+00
 0.0000000000000E+00
 0.0000000000000E+00
 0.0000000000000E+00
 0.0000000000000E+00
 0.0000000000000E+00
 0.0000000000000E+00
 0.0000000000000E+00
 0.0000000000000E+00
 0.0000000000000E+00
 0.0000000000000E+00
 0.0000000000000E+00
 0.0000000000000E+00
 0.0000000000000E+00
 0.0000000000000E+00
 0.0000000000000E+00
 0.0000000000000E+00
 0.0000000000000E+00
 0.0000000000000E+00
 0.0000000000000E+00
 0.0000000000000E+00
 0.0000000000000E+00
 0.0000000000000E+00
 0.0000000000000E+00
 0.0000000000000E+00
 0.0000000000000E+00
 0.0000000000000E+00
 0.0000000000000E+00
 0.0000000000000E+00
 0.0000000000000E+00
 0.0000000000000E+00
 0.0000000000000E+00
 0.0000000000000E+00
 0.0000000000000E+00
 0.0000000000000E+00
 0.0000000000000E+00
 0.0000000000000E+00
 0.0000000000000E+00
 0.0000000000000E+00
 0.0000000000000E+00
 0.0000000000000E+00
 0.0000000000000E+00
 0.0000000000000E+00
 0.0000000000000E+00
 0.0000000000000E+00
 0.0000000000000E+00
 0.0000000000000E+00
 0.0000000000000E+00
 0.0000000000000E+00
 0.0000000000000E+00
 0.0000000000000E+00
 0.0000000000000E+00
 0.0000000000000E+00
 0.0000000000000E+00
 0.0000000000000E+00
 0.0000000000000E+00
 0.0000000000000E+00
 0.0000000000000E+00
 0.0000000000000E+00
 0.0000000000000E+00
 0.0000000000000E+00
 0.0000000000000E+00
 0.0000000000000E+00
 0.0000000000000E+00
 0.0000000000000E+00
 0.0000000000000E+00
 0.0000000000000E+00
 0.0000000000000E+00
 0.0000000000000E+00
 0.0000000000000E+00
 0.0000000000000E+00
 0.0000000000000E+00
 0.0000000000000E+00
 0.0000000000000E+00
 0.0000000000000E+00
 0.0000000000000E+00
 0.0000000000000E+00
 0.0000000000000E+00
 0.0000000000000E+00
 0.0000000000000E+00
 0.0000000000000E+00
 0.0000000000000E+00
 0.0000000000000E+00
 0.0000000000000E+00
 0.0000000000000E+00
 0.0000000000000E+00
 0.0000000000000E+00
 0.0000000000000E+00
 0.0000000000000E+00
 0.0000000000000E+00
 0.0000000000000E+00
 0.0000000000000E+00
 0.0000000000000E+00
 0.0000000000000E+00
 0.0000000000000E+00
 0.0000000000000E+00
 0.0000000000000E+00
 0.0000000000000E+00
 0.0000000000000E+00
 0.0000000000000E+00
 0.0000000000000E+00
 0.0000000000000E+00
 0.0000000000000E+00
 0.0000000000000E+00
 0.0000000000000E+00
 0.0000000000000E+00
 0.0000000000000E+00
 0.0000000000000E+00
 0.0000000000000E+00
 0.0000000000000E+00
 0.0000000000000E+00
 0.0000000000000E+00
 0.0000000000000E+00
 0.0000000000000E+00
 0.0000000000000E+00
 0.0000000000000E+00
 0.0000000000000E+00
 0.0000000000000E+00
 0.0000000000000E+00
 0.0000000000000E+00
 0.0000000000000E+00
 0.0000000000000E+00
 0.0000000000000E+00
 0.0000000000000E+00
 0.0000000000000E+00
 0.0000000000000E+00
 0.0000000000000E+00
 0.0000000000000E+00
 0.0000000000000E+00
 0.0000000000000E+00
 0.0000000000000E+00
 0.0000000000000E+00
 0.0000000000000E+00
 0.0000000000000E+00
 0.0000000000000E+00
 0.0000000000000E+00
 0.0000000000000E+00
 0.0000000000000E+00
 0.0000000000000E+00
 0.0000000000000E+00
 0.0000000000000E+00
 0.0000000000000E+00
 0.0000000000000E+00
 0.0000000000000E+00
 0.0000000000000E+00
 0.0000000000000E+00
 0.0000000000000E+00
 0.0000000000000E+00
 0.0000000000000E+00
 0.0000000000000E+00
 0.0000000000000E+00
 0.0000000000000E+00
 0.0000000000000E+00
 0.0000000000000E+00
 0.0000000000000E+00
 0.0000000000000E+00
 0.0000000000000E+00
 0.0000000000000E+00
 0.0000000000000E+00
 0.0000000000000E+00
 0.0000000000000E+00
 0.0000000000000E+00
 0.0000000000000E+00
 0.0000000000000E+00
 0.0000000000000E+00
 0.0000000000000E+00
 0.0000000000000E+00
 0.0000000000000E+00
 0.0000000000000E+00
 0.0000000000000E+00
 0.0000000000000E+00
 0.0000000000000E+00
 0.0000000000000E+00
 0.0000000000000E+00
 0.0000000000000E+00
 0.0000000000000E+00
 0.0000000000000E+00
 0.0000000000000E+00
 0.0000000000000E+00
 0.0000000000000E+00
 0.0000000000000E+00
 0.0000000000000E+00
 0.0000000000000E+00
 0.0000000000000E+00
 0.0000000000000E+00
 0.0000000000000E+00
 0.0000000000000E+00
 0.0000000000000E+00
 0.0000000000000E+00
 0.0000000000000E+00
 0.0000000000000E+00
 0.0000000000000E+00
 0.0000000000000E+00
 0.0000000000000E+00
 0.0000000000000E+00
 0.0000000000000E+00
 0.0000000000000E+00
 0.0000000000000E+00
 0.0000000000000E+00
 0.0000000000000E+00
 0.0000000000000E+00
 0.0000000000000E+00
 0.0000000000000E+00
 0.0000000000000E+00
 0.0000000000000E+00
 0.0000000000000E+00
 0.0000000000000E+00
 0.0000000000000E+00
 0.0000000000000E+00
 0.0000000000000E+00
 0.0000000000000E+00
 0.0000000000000E+00
 0.0000000000000E+00
 0.0000000000000E+00
 0.0000000000000E+00
 0.0000000000000E+00
 0.0000000000000E+00
 0.0000000000000E+00
 0.0000000000000E+00
 0.0000000000000E+00
 0.0000000000000E+00
 0.0000000000000E+00
 0.0000000000000E+00
 0.0000000000000E+00
 0.0000000000000E+00
 0.0000000000000E+00
 0.0000000000000E+00
 0.0000000000000E+00
 0.0000000000000E+00
 0.0000000000000E+00
 0.0000000000000E+00
 0.0000000000000E+00
 0.0000000000000E+00
 0.0000000000000E+00
 0.0000000000000E+00
 0.0000000000000E+00
 0.0000000000000E+00
 0.0000000000000E+00
 0.0000000000000E+00
 0.0000000000000E+00
 0.0000000000000E+00
 0.0000000000000E+00
 0.0000000000000E+00
 0.0000000000000E+00
 0.0000000000000E+00
 0.0000000000000E+00
 0.0000000000000E+00
 0.0000000000000E+00
 0.0000000000000E+00
 0.0000000000000E+00
 0.0000000000000E+00
 0.0000000000000E+00
 0.0000000000000E+00
 0.0000000000000E+00
 0.0000000000000E+00
 0.0000000000000E+00
 0.0000000000000E+00
 0.0000000000000E+00
 0.0000000000000E+00
 0.0000000000000E+00
 0.0000000000000E+00
 0.0000000000000E+00
 0.0000000000000E+00
 0.0000000000000E+00
 0.0000000000000E+00
 0.0000000000000E+00
 0.0000000000000E+00
 0.0000000000000E+00
 0.0000000000000E+00
 0.0000000000000E+00
 0.0000000000000E+00
 0.0000000000000E+00
 0.0000000000000E+00
 0.0000000000000E+00
 0.0000000000000E+00
 0.0000000000000E+00
 0.0000000000000E+00
 0.0000000000000E+00
 0.0000000000000E+00
 0.0000000000000E+00
 0.0000000000000E+00
 0.0000000000000E+00
 0.0000000000000E+00
 0.0000000000000E+00
 0.0000000000000E+00
 0.0000000000000E+00
 0.0000000000000E+00
 0.0000000000000E+00
 0.0000000000000E+00
 0.0000000000000E+00
 0.0000000000000E+00
 0.0000000000000E+00
 0.0000000000000E+00
 0.0000000000000E+00
 0.0000000000000E+00
 0.0000000000000E+00
 0.0000000000000E+00
 0.0000000000000E+00
 0.0000000000000E+00
 0.0000000000000E+00
 0.0000000000000E+00
 0.0000000000000E+00
 0.0000000000000E+00
 0.0000000000000E+00
 0.0000000000000E+00
 0.0000000000000E+00
 0.0000000000000E+00
 0.0000000000000E+00
 0.0000000000000E+00
 0.0000000000000E+00
 0.0000000000000E+00
 0.0000000000000E+00
 0.0000000000000E+00
 0.0000000000000E+00
 0.0000000000000E+00
 0.0000000000000E+00
 0.0000000000000E+00
 0.0000000000000E+00
 0.0000000000000E+00
 0.0000000000000E+00
 0.0000000000000E+00
 0.0000000000000E+00
 0.0000000000000E+00
 0.0000000000000E+00
 0.0000000000000E+00
 0.0000000000000E+00
 0.0000000000000E+00
 0.0000000000000E+00
 0.0000000000000E+00
 0.0000000000000E+00
 0.0000000000000E+00
 0.0000000000000E+00
 0.0000000000000E+00
 0.0000000000000E+00
 0.0000000000000E+00
 0.0000000000000E+00
 0.0000000000000E+00
 0.0000000000000E+00
 0.0000000000000E+00
 0.0000000000000E+00
 0.0000000000000E+00
 0.0000000000000E+00
 0.0000000000000E+00
 0.0000000000000E+00
 0.0000000000000E+00
 0.0000000000000E+00
 0.0000000000000E+00
 0.0000000000000E+00
 0.0000000000000E+00
 0.0000000000000E+00
 0.0000000000000E+00
 0.0000000000000E+00
 0.0000000000000E+00
 0.0000000000000E+00
 0.0000000000000E+00
 0.0000000000000E+00
 0.0000000000000E+00
 0.0000000000000E+00
 0.0000000000000E+00
 0.0000000000000E+00
 0.0000000000000E+00
 0.0000000000000E+00
 0.0000000000000E+00
 0.0000000000000E+00
 0.0000000000000E+00
 0.0000000000000E+00
 0.0000000000000E+00
 0.0000000000000E+00
 0.0000000000000E+00
 0.0000000000000E+00
 0.0000000000000E+00
 0.0000000000000E+00
 0.0000000000000E+00
 0.0000000000000E+00
 0.0000000000000E+00
 0.0000000000000E+00
 0.0000000000000E+00
 0.0000000000000E+00
 0.0000000000000E+00
 0.0000000000000E+00
 0.0000000000000E+00
 0.0000000000000E+00
 0.0000000000000E+00
 0.0000000000000E+00
 0.0000000000000E+00
 0.0000000000000E+00
 0.0000000000000E+00
 0.0000000000000E+00
 0.0000000000000E+00
 0.0000000000000E+00
 0.0000000000000E+00
 0.0000000000000E+00
 0.0000000000000E+00
 0.0000000000000E+00
 0.0000000000000E+00
 0.0000000000000E+00
 0.0000000000000E+00
 0.0000000000000E+00
 0.0000000000000E+00
 0.0000000000000E+00
 0.0000000000000E+00
 0.0000000000000E+00
 0.0000000000000E+00
 0.0000000000000E+00
 0.0000000000000E+00
 0.0000000000000E+00
 0.0000000000000E+00
 0.0000000000000E+00
 0.0000000000000E+00
 0.0000000000000E+00
 0.0000000000000E+00
 0.0000000000000E+00
 0.0000000000000E+00
 0.0000000000000E+00
 0.0000000000000E+00
 0.0000000000000E+00
 0.0000000000000E+00
 0.0000000000000E+00
 0.0000000000000E+00
 0.0000000000000E+00
 0.0000000000000E+00
 0.0000000000000E+00
 0.0000000000000E+00
 0.0000000000000E+00
 0.0000000000000E+00
 0.0000000000000E+00
 0.0000000000000E+00
 0.0000000000000E+00
 0.0000000000000E+00
 0.0000000000000E+00
 0.0000000000000E+00
 0.0000000000000E+00
 0.0000000000000E+00
 0.0000000000000E+00
 0.0000000000000E+00
 0.0000000000000E+00
 0.0000000000000E+00
 0.0000000000000E+00
 0.0000000000000E+00
 0.0000000000000E+00
 0.0000000000000E+00
 0.0000000000000E+00
 0.0000000000000E+00
 0.0000000000000E+00
 0.0000000000000E+00
 0.0000000000000E+00
 0.0000000000000E+00
 0.0000000000000E+00
 0.0000000000000E+00
 0.0000000000000E+00
 0.0000000000000E+00
 0.0000000000000E+00
 0.0000000000000E+00
 0.0000000000000E+00
 0.0000000000000E+00
 0.0000000000000E+00
 0.0000000000000E+00
 0.0000000000000E+00
 0.0000000000000E+00
 0.0000000000000E+00
 0.0000000000000E+00
 0.0000000000000E+00
 0.0000000000000E+00
 0.0000000000000E+00
 0.0000000000000E+00
 0.0000000000000E+00
 0.0000000000000E+00
 0.0000000000000E+00
 0.0000000000000E+00
 0.0000000000000E+00
 0.0000000000000E+00
 0.0000000000000E+00
 0.0000000000000E+00
 0.0000000000000E+00
 0.0000000000000E+00
 0.0000000000000E+00
 0.0000000000000E+00
 0.0000000000000E+00
 0.0000000000000E+00
 0.0000000000000E+00
 0.0000000000000E+00
 0.0000000000000E+00
 0.0000000000000E+00
 0.0000000000000E+00
 0.0000000000000E+00
 0.0000000000000E+00
 0.0000000000000E+00
 0.0000000000000E+00
 0.0000000000000E+00
 0.0000000000000E+00
 0.0000000000000E+00
 0.0000000000000E+00
 0.0000000000000E+00
 0.0000000000000E+00
 0.0000000000000E+00
 0.0000000000000E+00
 0.0000000000000E+00
 0.0000000000000E+00
 0.0000000000000E+00
 0.0000000000000E+00
 0.0000000000000E+00
 0.0000000000000E+00
 0.0000000000000E+00
 0.0000000000000E+00
 0.0000000000000E+00
 0.0000000000000E+00
 0.0000000000000E+00
 0.0000000000000E+00
 0.0000000000000E+00
 0.0000000000000E+00
 0.0000000000000E+00
 0.0000000000000E+00
 0.0000000000000E+00
 0.0000000000000E+00
 0.0000000000000E+00
 0.0000000000000E+00
 0.0000000000000E+00
 0.0000000000000E+00
 0.0000000000000E+00
 0.0000000000000E+00
 0.0000000000000E+00
 0.0000000000000E+00
 0.0000000000000E+00
 0.0000000000000E+00
 0.0000000000000E+00
 0.0000000000000E+00
 0.0000000000000E+00
 0.0000000000000E+00
 0.0000000000000E+00
 0.0000000000000E+00
 0.0000000000000E+00
 0.0000000000000E+00
 0.0000000000000E+00
 0.0000000000000E+00
 0.0000000000000E+00
 0.0000000000000E+00
 0.0000000000000E+00
 0.0000000000000E+00
 0.0000000000000E+00
 0.0000000000000E+00
 0.0000000000000E+00
 0.0000000000000E+00
 0.0000000000000E+00
 0.0000000000000E+00
 0.0000000000000E+00
 0.0000000000000E+00
 0.0000000000000E+00
 0.0000000000000E+00
 0.0000000000000E+00
 0.0000000000000E+00
 0.0000000000000E+00
 0.0000000000000E+00
 0.0000000000000E+00
 0.0000000000000E+00
 0.0000000000000E+00
 0.0000000000000E+00
 0.0000000000000E+00
 0.0000000000000E+00
 0.0000000000000E+00
 0.0000000000000E+00
 0.0000000000000E+00
 0.0000000000000E+00
 0.0000000000000E+00
 0.0000000000000E+00
 0.0000000000000E+00
 0.0000000000000E+00
 0.0000000000000E+00
 0.0000000000000E+00
 0.0000000000000E+00
 0.0000000000000E+00
 0.0000000000000E+00
 0.0000000000000E+00
 0.0000000000000E+00
 0.0000000000000E+00
 0.0000000000000E+00
 0.0000000000000E+00
 0.0000000000000E+00
 0.0000000000000E+00
 0.0000000000000E+00
 0.0000000000000E+00
 0.0000000000000E+00
 0.0000000000000E+00
 0.0000000000000E+00
 0.0000000000000E+00
 0.0000000000000E+00
 0.0000000000000E+00
 0.0000000000000E+00
 0.0000000000000E+00
 0.0000000000000E+00
 0.0000000000000E+00
 0.0000000000000E+00
 0.0000000000000E+00
 0.0000000000000E+00
 0.0000000000000E+00
 0.0000000000000E+00
 0.0000000000000E+00
 0.0000000000000E+00
 0.0000000000000E+00
 0.0000000000000E+00
 0.0000000000000E+00
 0.0000000000000E+00
 0.0000000000000E+00
 0.0000000000000E+00
 0.0000000000000E+00
 0.0000000000000E+00
 0.0000000000000E+00
 0.0000000000000E+00
 0.0000000000000E+00
 0.0000000000000E+00
 0.0000000000000E+00
 0.0000000000000E+00
 0.0000000000000E+00
 0.0000000000000E+00
 0.0000000000000E+00
 0.0000000000000E+00
 0.0000000000000E+00
 0.0000000000000E+00
 0.0000000000000E+00
 0.0000000000000E+00
 0.0000000000000E+00
 0.0000000000000E+00
 0.0000000000000E+00
 0.0000000000000E+00
 0.0000000000000E+00
 0.0000000000000E+00
 0.0000000000000E+00
 0.0000000000000E+00
 0.0000000000000E+00
 0.0000000000000E+00
 0.0000000000000E+00
 0.0000000000000E+00
 0.0000000000000E+00
 0.0000000000000E+00
 0.0000000000000E+00
 0.0000000000000E+00
 0.0000000000000E+00
 0.0000000000000E+00
 0.0000000000000E+00
 0.0000000000000E+00
 0.0000000000000E+00
 0.0000000000000E+00
 0.0000000000000E+00
 0.0000000000000E+00
 0.0000000000000E+00
 0.0000000000000E+00
 0.0000000000000E+00
 0.0000000000000E+00
 0.0000000000000E+00
 0.0000000000000E+00
 0.0000000000000E+00
 0.0000000000000E+00
 0.0000000000000E+00
 0.0000000000000E+00
 0.0000000000000E+00
 0.0000000000000E+00
 0.0000000000000E+00
 0.0000000000000E+00
 0.0000000000000E+00
 0.0000000000000E+00
 0.0000000000000E+00
 0.0000000000000E+00
 0.0000000000000E+00
 0.0000000000000E+00
 0.0000000000000E+00
 0.0000000000000E+00
 0.0000000000000E+00
 0.0000000000000E+00
 0.0000000000000E+00
 0.0000000000000E+00
 0.0000000000000E+00
 0.0000000000000E+00
 0.0000000000000E+00
 0.0000000000000E+00
 0.0000000000000E+00
 0.0000000000000E+00
 0.0000000000000E+00
 0.0000000000000E+00
 0.0000000000000E+00
 0.0000000000000E+00
 0.0000000000000E+00
 0.0000000000000E+00
 0.0000000000000E+00
 0.0000000000000E+00
 0.0000000000000E+00
 0.0000000000000E+00
 0.0000000000000E+00
 0.0000000000000E+00
 0.0000000000000E+00
 0.0000000000000E+00
 0.0000000000000E+00
 0.0000000000000E+00
 0.0000000000000E+00
 0.0000000000000E+00
 0.0000000000000E+00
 0.0000000000000E+00
 0.0000000000000E+00
 0.0000000000000E+00
 0.0000000000000E+00
 0.0000000000000E+00
 0.0000000000000E+00
 0.0000000000000E+00
 0.0000000000000E+00
 0.0000000000000E+00
 0.0000000000000E+00
 0.0000000000000E+00
 0.0000000000000E+00
 0.0000000000000E+00
 0.0000000000000E+00
 0.0000000000000E+00
 0.0000000000000E+00
 0.0000000000000E+00
 0.0000000000000E+00
 0.0000000000000E+00
 0.0000000000000E+00
 0.0000000000000E+00
 0.0000000000000E+00
 0.0000000000000E+00
 0.0000000000000E+00
 0.0000000000000E+00
 0.0000000000000E+00
 0.0000000000000E+00
 0.0000000000000E+00
 0.0000000000000E+00
 0.0000000000000E+00
 0.0000000000000E+00
 0.0000000000000E+00
 0.0000000000000E+00
 0.0000000000000E+00
 0.0000000000000E+00
 0.0000000000000E+00
 0.0000000000000E+00
 0.0000000000000E+00
 0.0000000000000E+00
 0.0000000000000E+00
 0.0000000000000E+00
 0.0000000000000E+00
 0.0000000000000E+00
 0.0000000000000E+00
 0.0000000000000E+00
 0.0000000000000E+00
 0.0000000000000E+00
 0.0000000000000E+00
 0.0000000000000E+00
 0.0000000000000E+00
 0.0000000000000E+00
 0.0000000000000E+00
 0.0000000000000E+00
 0.0000000000000E+00
 0.0000000000000E+00
 0.0000000000000E+00
 0.0000000000000E+00
 0.0000000000000E+00
 0.0000000000000E+00
 0.0000000000000E+00
 0.0000000000000E+00
 0.0000000000000E+00
 0.0000000000000E+00
 0.0000000000000E+00
 0.0000000000000E+00
 0.0000000000000E+00
 0.0000000000000E+00
 0.0000000000000E+00
 0.0000000000000E+00
 0.0000000000000E+00
 0.0000000000000E+00
 0.0000000000000E+00
 0.0000000000000E+00
 0.0000000000000E+00
 0.0000000000000E+00
 0.0000000000000E+00
 0.0000000000000E+00
 0.0000000000000E+00
 0.0000000000000E+00
 0.0000000000000E+00
 0.0000000000000E+00
 0.0000000000000E+00
 0.0000000000000E+00
 0.0000000000000E+00
 0.0000000000000E+00
 0.0000000000000E+00
 0.0000000000000E+00
 0.0000000000000E+00
 0.0000000000000E+00
 0.0000000000000E+00
 0.0000000000000E+00
 0.0000000000000E+00
 0.0000000000000E+00
 0.0000000000000E+00
 0.0000000000000E+00
 0.0000000000000E+00
 0.0000000000000E+00
 0.0000000000000E+00
 0.0000000000000E+00
 0.0000000000000E+00
 0.0000000000000E+00
 0.0000000000000E+00
 0.0000000000000E+00
 0.0000000000000E+00
 0.0000000000000E+00
 0.0000000000000E+00
 0.0000000000000E+00
 0.0000000000000E+00
 0.0000000000000E+00
 0.0000000000000E+00
 0.0000000000000E+00
 0.0000000000000E+00
 0.0000000000000E+00
 0.0000000000000E+00
 0.0000000000000E+00
 0.0000000000000E+00
 0.0000000000000E+00
 0.0000000000000E+00
 0.0000000000000E+00
 0.0000000000000E+00
 0.0000000000000E+00
 0.0000000000000E+00
 0.0000000000000E+00
 0.0000000000000E+00
 0.0000000000000E+00
 0.0000000000000E+00
 0.0000000000000E+00
 0.0000000000000E+00
 0.0000000000000E+00
 0.0000000000000E+00
 0.0000000000000E+00
 0.0000000000000E+00
 0.0000000000000E+00
 0.0000000000000E+00
 0.0000000000000E+00
 0.0000000000000E+00
 0.0000000000000E+00
 0.0000000000000E+00
 0.0000000000000E+00
 0.0000000000000E+00
 0.0000000000000E+00
 0.0000000000000E+00
 0.0000000000000E+00
 0.0000000000000E+00
 0.0000000000000E+00
 0.0000000000000E+00
 0.0000000000000E+00
 0.0000000000000E+00
 0.0000000000000E+00
 0.0000000000000E+00
 0.0000000000000E+00
 0.0000000000000E+00
 0.0000000000000E+00
 0.0000000000000E+00
 0.0000000000000E+00
 0.0000000000000E+00
 0.0000000000000E+00
 0.0000000000000E+00
 0.0000000000000E+00
 0.0000000000000E+00
 0.0000000000000E+00
 0.0000000000000E+00
 0.0000000000000E+00
 0.0000000000000E+00
 0.0000000000000E+00
 0.0000000000000E+00
 0.0000000000000E+00
 0.0000000000000E+00
 0.0000000000000E+00
 0.0000000000000E+00
 0.0000000000000E+00
 0.0000000000000E+00
 0.0000000000000E+00
 0.0000000000000E+00
 0.0000000000000E+00
 0.0000000000000E+00
 0.0000000000000E+00
 0.0000000000000E+00
 0.0000000000000E+00
 0.0000000000000E+00
 0.0000000000000E+00
 0.0000000000000E+00
 0.0000000000000E+00
 0.0000000000000E+00
 0.0000000000000E+00
 0.0000000000000E+00
 0.0000000000000E+00
 0.0000000000000E+00
 0.0000000000000E+00
 0.0000000000000E+00
 0.0000000000000E+00
 0.0000000000000E+00
 0.0000000000000E+00
 0.0000000000000E+00
 0.0000000000000E+00
 0.0000000000000E+00
 0.0000000000000E+00
 0.0000000000000E+00
 0.0000000000000E+00
 0.0000000000000E+00
 0.0000000000000E+00
 0.0000000000000E+00
 0.0000000000000E+00
 0.0000000000000E+00
 0.0000000000000E+00
 0.0000000000000E+00
 0.0000000000000E+00
 0.0000000000000E+00
 0.0000000000000E+00
 0.0000000000000E+00
 0.0000000000000E+00
 0.0000000000000E+00
 0.0000000000000E+00
 0.0000000000000E+00
 0.0000000000000E+00
 0.0000000000000E+00
 0.0000000000000E+00
 0.0000000000000E+00
 0.0000000000000E+00
 0.0000000000000E+00
 0.0000000000000E+00
 0.0000000000000E+00
 0.0000000000000E+00
 0.0000000000000E+00
 0.0000000000000E+00
 0.0000000000000E+00
 0.0000000000000E+00
 0.0000000000000E+00
 0.0000000000000E+00
 0.0000000000000E+00
 0.0000000000000E+00
 0.0000000000000E+00
 0.0000000000000E+00
 0.0000000000000E+00
 0.0000000000000E+00
 0.0000000000000E+00
 0.0000000000000E+00
 0.0000000000000E+00
 0.0000000000000E+00
 0.0000000000000E+00
 0.0000000000000E+00
 0.0000000000000E+00
 0.0000000000000E+00
 0.0000000000000E+00
 0.0000000000000E+00
 0.0000000000000E+00
 0.0000000000000E+00
 0.0000000000000E+00
 0.0000000000000E+00
 0.0000000000000E+00
 0.0000000000000E+00
 0.0000000000000E+00
 0.0000000000000E+00
 0.0000000000000E+00
 0.0000000000000E+00
 0.0000000000000E+00
 0.0000000000000E+00
 0.0000000000000E+00
 0.0000000000000E+00
 0.0000000000000E+00
 0.0000000000000E+00
 0.0000000000000E+00
 0.0000000000000E+00
 0.0000000000000E+00
 0.0000000000000E+00
 0.0000000000000E+00
 0.0000000000000E+00
 0.0000000000000E+00
 0.0000000000000E+00
 0.0000000000000E+00
 0.0000000000000E+00
 0.0000000000000E+00
 0.0000000000000E+00
 0.0000000000000E+00
 0.0000000000000E+00
 0.0000000000000E+00
 0.0000000000000E+00
 0.0000000000000E+00
 0.0000000000000E+00
 0.0000000000000E+00
 0.0000000000000E+00
 0.0000000000000E+00
 0.0000000000000E+00
 0.0000000000000E+00
 0.0000000000000E+00
 0.0000000000000E+00
 0.0000000000000E+00
 0.0000000000000E+00
 0.0000000000000E+00
 0.0000000000000E+00
 0.0000000000000E+00
 0.0000000000000E+00
 0.0000000000000E+00
 0.0000000000000E+00
 0.0000000000000E+00
 0.0000000000000E+00
 0.0000000000000E+00
 0.0000000000000E+00
 0.0000000000000E+00
 0.0000000000000E+00
 0.0000000000000E+00
 0.0000000000000E+00
 0.0000000000000E+00
 0.0000000000000E+00
 0.0000000000000E+00
 0.0000000000000E+00
 0.0000000000000E+00
 0.0000000000000E+00
 0.0000000000000E+00
 0.0000000000000E+00
 0.0000000000000E+00
 0.0000000000000E+00
 0.0000000000000E+00
 0.0000000000000E+00
 0.0000000000000E+00
 0.0000000000000E+00
 0.0000000000000E+00
 0.0000000000000E+00
 0.0000000000000E+00
 0.0000000000000E+00
 0.0000000000000E+00
 0.0000000000000E+00
 0.0000000000000E+00
 0.0000000000000E+00
 0.0000000000000E+00
 0.0000000000000E+00
 0.0000000000000E+00
 0.0000000000000E+00
 0.0000000000000E+00
 0.0000000000000E+00
 0.0000000000000E+00
 0.0000000000000E+00
 0.0000000000000E+00
 0.0000000000000E+00
 0.0000000000000E+00
 0.0000000000000E+00
 0.0000000000000E+00
 0.0000000000000E+00
 0.0000000000000E+00
 0.0000000000000E+00
 0.0000000000000E+00
 0.0000000000000E+00
 0.0000000000000E+00
 0.0000000000000E+00
 0.0000000000000E+00
 0.0000000000000E+00
 0.0000000000000E+00
 0.0000000000000E+00
 0.0000000000000E+00
 0.0000000000000E+00
 0.0000000000000E+00
 0.0000000000000E+00
 0.0000000000000E+00
 0.0000000000000E+00
 0.0000000000000E+00
 0.0000000000000E+00
 0.0000000000000E+00
 0.0000000000000E+00
 0.0000000000000E+00
 0.0000000000000E+00
 0.0000000000000E+00
 0.0000000000000E+00
 0.0000000000000E+00
 0.0000000000000E+00
 0.0000000000000E+00
 0.0000000000000E+00
 0.0000000000000E+00
 0.0000000000000E+00
 0.0000000000000E+00
 0.0000000000000E+00
 0.0000000000000E+00
 0.0000000000000E+00
 0.0000000000000E+00
 0.0000000000000E+00
 0.0000000000000E+00
 0.0000000000000E+00
 0.0000000000000E+00
 0.0000000000000E+00
 0.0000000000000E+00
 0.0000000000000E+00
 0.0000000000000E+00
 0.0000000000000E+00
 0.0000000000000E+00
 0.0000000000000E+00
 0.0000000000000E+00
 0.0000000000000E+00
 0.0000000000000E+00
 0.0000000000000E+00
 0.0000000000000E+00
 0.0000000000000E+00
 0.0000000000000E+00
 0.0000000000000E+00
 0.0000000000000E+00
 0.0000000000000E+00
 0.0000000000000E+00
 0.0000000000000E+00
 0.0000000000000E+00
 0.0000000000000E+00
 0.0000000000000E+00
 0.0000000000000E+00
 0.0000000000000E+00
 0.0000000000000E+00
 0.0000000000000E+00
 0.0000000000000E+00
 0.0000000000000E+00
 0.0000000000000E+00
 0.0000000000000E+00
 0.0000000000000E+00
 0.0000000000000E+00
 0.0000000000000E+00
 0.0000000000000E+00
 0.0000000000000E+00
 0.0000000000000E+00
 0.0000000000000E+00
 0.0000000000000E+00
 0.0000000000000E+00
 0.0000000000000E+00
 0.0000000000000E+00
 0.0000000000000E+00
 0.0000000000000E+00
 0.0000000000000E+00
 0.0000000000000E+00
 0.0000000000000E+00
 0.0000000000000E+00
 0.0000000000000E+00
 0.0000000000000E+00
 0.0000000000000E+00
 0.0000000000000E+00
 0.0000000000000E+00
 0.0000000000000E+00
 0.0000000000000E+00
 0.0000000000000E+00
 0.0000000000000E+00
 0.0000000000000E+00
 0.0000000000000E+00
 0.0000000000000E+00
 0.0000000000000E+00
 0.0000000000000E+00
 0.0000000000000E+00
 0.0000000000000E+00
 0.0000000000000E+00
 0.0000000000000E+00
 0.0000000000000E+00
 0.0000000000000E+00
 0.0000000000000E+00
 0.0000000000000E+00
 0.0000000000000E+00
 0.0000000000000E+00
 0.0000000000000E+00
 0.0000000000000E+00
 0.0000000000000E+00
 0.0000000000000E+00
 0.0000000000000E+00
 0.0000000000000E+00
 0.0000000000000E+00
 0.0000000000000E+00
 0.0000000000000E+00
 0.0000000000000E+00
 0.0000000000000E+00
 0.0000000000000E+00
 0.0000000000000E+00
 0.0000000000000E+00
 0.0000000000000E+00
 0.0000000000000E+00
 0.0000000000000E+00
 0.0000000000000E+00
 0.0000000000000E+00
 0.0000000000000E+00
 0.0000000000000E+00
 0.0000000000000E+00
 0.0000000000000E+00
 0.0000000000000E+00
 0.0000000000000E+00
 0.0000000000000E+00
 0.0000000000000E+00
 0.0000000000000E+00
 0.0000000000000E+00
 0.0000000000000E+00
 0.0000000000000E+00
 0.0000000000000E+00
 0.0000000000000E+00
 0.0000000000000E+00
 0.0000000000000E+00
 0.0000000000000E+00
 0.0000000000000E+00
 0.0000000000000E+00
 0.0000000000000E+00
 0.0000000000000E+00
 0.0000000000000E+00
 0.0000000000000E+00
 0.0000000000000E+00
 0.0000000000000E+00
 0.0000000000000E+00
 0.0000000000000E+00
 0.0000000000000E+00
 0.0000000000000E+00
 0.0000000000000E+00
 0.0000000000000E+00
 0.0000000000000E+00
 0.0000000000000E+00
 0.0000000000000E+00
 0.0000000000000E+00
 0.0000000000000E+00
 0.0000000000000E+00
 0.0000000000000E+00
 0.0000000000000E+00
 0.0000000000000E+00
 0.0000000000000E+00
 0.0000000000000E+00
 0.0000000000000E+00
 0.0000000000000E+00
 0.0000000000000E+00
 0.0000000000000E+00
 0.0000000000000E+00
 0.0000000000000E+00
 0.0000000000000E+00
 0.0000000000000E+00
 0.0000000000000E+00
 0.0000000000000E+00
 0.0000000000000E+00
 0.0000000000000E+00
 0.0000000000000E+00
 0.0000000000000E+00
 0.0000000000000E+00
 0.0000000000000E+00
 0.0000000000000E+00
 0.0000000000000E+00
 0.0000000000000E+00
 0.0000000000000E+00
 0.0000000000000E+00
 0.0000000000000E+00
 0.0000000000000E+00
 0.0000000000000E+00
 0.0000000000000E+00
 0.0000000000000E+00
 0.0000000000000E+00
 0.0000000000000E+00
 0.0000000000000E+00
 0.0000000000000E+00
 0.0000000000000E+00
 0.0000000000000E+00
 0.0000000000000E+00
 0.0000000000000E+00
 0.0000000000000E+00
 0.0000000000000E+00
 0.0000000000000E+00
 0.0000000000000E+00
 0.0000000000000E+00
 0.0000000000000E+00
 0.0000000000000E+00
 0.0000000000000E+00
 0.0000000000000E+00
 0.0000000000000E+00
 0.0000000000000E+00
 0.0000000000000E+00
 0.0000000000000E+00
 0.0000000000000E+00
 0.0000000000000E+00
 0.0000000000000E+00
 0.0000000000000E+00
 0.0000000000000E+00
 0.0000000000000E+00
 0.0000000000000E+00
 0.0000000000000E+00
 0.0000000000000E+00
 0.0000000000000E+00
 0.0000000000000E+00
 0.0000000000000E+00
 0.0000000000000E+00
 0.0000000000000E+00
 0.0000000000000E+00
 0.0000000000000E+00
 0.0000000000000E+00
 0.0000000000000E+00
 0.0000000000000E+00
 0.0000000000000E+00
 0.0000000000000E+00
 0.0000000000000E+00
 0.0000000000000E+00
 0.0000000000000E+00
 0.0000000000000E+00
 0.0000000000000E+00
 0.0000000000000E+00
 0.0000000000000E+00
 0.0000000000000E+00
 0.0000000000000E+00
 0.0000000000000E+00
 0.0000000000000E+00
 0.0000000000000E+00
 0.0000000000000E+00
 0.0000000000000E+00
 0.0000000000000E+00
 0.0000000000000E+00
 0.0000000000000E+00
 0.0000000000000E+00
 0.0000000000000E+00
 0.0000000000000E+00
 0.0000000000000E+00
 0.0000000000000E+00
 0.0000000000000E+00
 0.0000000000000E+00
 0.0000000000000E+00
 0.0000000000000E+00
 0.0000000000000E+00
 0.0000000000000E+00
 0.0000000000000E+00
 0.0000000000000E+00
 0.0000000000000E+00
 0.0000000000000E+00
 0.0000000000000E+00
 0.0000000000000E+00
 0.0000000000000E+00
 0.0000000000000E+00
 0.0000000000000E+00
 0.0000000000000E+00
 0.0000000000000E+00
 0.0000000000000E+00
 0.0000000000000E+00
 0.0000000000000E+00
 0.0000000000000E+00
 0.0000000000000E+00
 0.0000000000000E+00
 0.0000000000000E+00
 0.0000000000000E+00
 0.0000000000000E+00
 0.0000000000000E+00
 0.0000000000000E+00
 0.0000000000000E+00
 0.0000000000000E+00
 0.0000000000000E+00
 0.0000000000000E+00
 0.0000000000000E+00
 0.0000000000000E+00
 0.0000000000000E+00
 0.0000000000000E+00
 0.0000000000000E+00
 0.0000000000000E+00
 0.0000000000000E+00
 0.0000000000000E+00
 0.0000000000000E+00
 0.0000000000000E+00
 0.0000000000000E+00
 0.0000000000000E+00
 0.0000000000000E+00
 0.0000000000000E+00
 0.0000000000000E+00
 0.0000000000000E+00
 0.0000000000000E+00
 0.0000000000000E+00
 0.0000000000000E+00
 0.0000000000000E+00
 0.0000000000000E+00
 0.0000000000000E+00
 0.0000000000000E+00
 0.0000000000000E+00
 0.0000000000000E+00
 0.0000000000000E+00
 0.0000000000000E+00
 0.0000000000000E+00
 0.0000000000000E+00
 0.0000000000000E+00
 0.0000000000000E+00
 0.0000000000000E+00
 0.0000000000000E+00
 0.0000000000000E+00
 0.0000000000000E+00
 0.0000000000000E+00
 0.0000000000000E+00
 0.0000000000000E+00
 0.0000000000000E+00
 0.0000000000000E+00
 0.0000000000000E+00
 0.0000000000000E+00
 0.0000000000000E+00
 0.0000000000000E+00
 0.0000000000000E+00
 0.0000000000000E+00
 0.0000000000000E+00
 0.0000000000000E+00
 0.0000000000000E+00
 0.0000000000000E+00
 0.0000000000000E+00
 0.0000000000000E+00
 0.0000000000000E+00
 0.0000000000000E+00
 0.0000000000000E+00
 0.0000000000000E+00
 0.0000000000000E+00
 0.0000000000000E+00
 0.0000000000000E+00
 0.0000000000000E+00
 0.0000000000000E+00
 0.0000000000000E+00
 0.0000000000000E+00
 0.0000000000000E+00
 0.0000000000000E+00
 0.0000000000000E+00
 0.0000000000000E+00
 0.0000000000000E+00
 0.0000000000000E+00
 0.0000000000000E+00
 0.0000000000000E+00
 0.0000000000000E+00
 0.0000000000000E+00
 0.0000000000000E+00
 0.0000000000000E+00
 0.0000000000000E+00
 0.0000000000000E+00
 0.0000000000000E+00
 0.0000000000000E+00
 0.0000000000000E+00
 0.0000000000000E+00
 0.0000000000000E+00
 0.0000000000000E+00
 0.0000000000000E+00
 0.0000000000000E+00
 0.0000000000000E+00
 0.0000000000000E+00
 0.0000000000000E+00
 0.0000000000000E+00
 0.0000000000000E+00
 0.0000000000000E+00
 0.0000000000000E+00
 0.0000000000000E+00
 0.0000000000000E+00
 0.0000000000000E+00
 0.0000000000000E+00
 0.0000000000000E+00
 0.0000000000000E+00
 0.0000000000000E+00
 0.0000000000000E+00
 0.0000000000000E+00
 0.0000000000000E+00
 0.0000000000000E+00
 0.0000000000000E+00
 0.0000000000000E+00
 0.0000000000000E+00
 0.0000000000000E+00
 0.0000000000000E+00
 0.0000000000000E+00
 0.0000000000000E+00
 0.0000000000000E+00
 0.0000000000000E+00
 0.0000000000000E+00
 0.0000000000000E+00
 0.0000000000000E+00
 0.0000000000000E+00
 0.0000000000000E+00
 0.0000000000000E+00
 0.0000000000000E+00
 0.0000000000000E+00
 0.0000000000000E+00
 0.0000000000000E+00
 0.0000000000000E+00
 0.0000000000000E+00
 0.0000000000000E+00
 0.0000000000000E+00
 0.0000000000000E+00
 0.0000000000000E+00
 0.0000000000000E+00
 0.0000000000000E+00
 0.0000000000000E+00
 0.0000000000000E+00
 0.0000000000000E+00
 0.0000000000000E+00
 0.0000000000000E+00
 0.0000000000000E+00
 0.0000000000000E+00
 0.0000000000000E+00
 0.0000000000000E+00
 0.0000000000000E+00
 0.0000000000000E+00
 0.0000000000000E+00
 0.0000000000000E+00
 0.0000000000000E+00
 0.0000000000000E+00
 0.0000000000000E+00
 0.0000000000000E+00
 0.0000000000000E+00
 0.0000000000000E+00
 0.0000000000000E+00
 0.0000000000000E+00
 0.0000000000000E+00
 0.0000000000000E+00
 0.0000000000000E+00
 0.0000000000000E+00
 0.0000000000000E+00
 0.0000000000000E+00
 0.0000000000000E+00
 0.0000000000000E+00
 0.0000000000000E+00
 0.0000000000000E+00
 0.0000000000000E+00
 0.0000000000000E+00
 0.0000000000000E+00
 0.0000000000000E+00
 0.0000000000000E+00
 0.0000000000000E+00
 0.0000000000000E+00
 0.0000000000000E+00
 0.0000000000000E+00
 0.0000000000000E+00
 0.0000000000000E+00
 0.0000000000000E+00
 0.0000000000000E+00
 0.0000000000000E+00
 0.0000000000000E+00
 0.0000000000000E+00
 0.0000000000000E+00
 0.0000000000000E+00
 0.0000000000000E+00
 0.0000000000000E+00
 0.0000000000000E+00
 0.0000000000000E+00
 0.0000000000000E+00
 0.0000000000000E+00
 0.0000000000000E+00
 0.0000000000000E+00
 0.0000000000000E+00
 0.0000000000000E+00
 0.0000000000000E+00
 0.0000000000000E+00
 0.0000000000000E+00
 0.0000000000000E+00
 0.0000000000000E+00
 0.0000000000000E+00
 0.0000000000000E+00
 0.0000000000000E+00
 0.0000000000000E+00
 0.0000000000000E+00
 0.0000000000000E+00
 0.0000000000000E+00
 0.0000000000000E+00
 0.0000000000000E+00
 0.0000000000000E+00
 0.0000000000000E+00
 0.0000000000000E+00
 0.0000000000000E+00
 0.0000000000000E+00
 0.0000000000000E+00
 0.0000000000000E+00
 0.0000000000000E+00
 0.0000000000000E+00
 0.0000000000000E+00
 0.0000000000000E+00
 0.0000000000000E+00
 0.0000000000000E+00
 0.0000000000000E+00
 0.0000000000000E+00
 0.0000000000000E+00
 0.0000000000000E+00
 0.0000000000000E+00
 0.0000000000000E+00
 0.0000000000000E+00
 0.0000000000000E+00
 0.0000000000000E+00
 0.0000000000000E+00
 0.0000000000000E+00
 0.0000000000000E+00
 0.0000000000000E+00
 0.0000000000000E+00
 0.0000000000000E+00
 0.0000000000000E+00
 0.0000000000000E+00
 0.0000000000000E+00
 0.0000000000000E+00
 0.0000000000000E+00
 0.0000000000000E+00
 0.0000000000000E+00
 0.0000000000000E+00
 0.0000000000000E+00
 0.0000000000000E+00
 0.0000000000000E+00
 0.0000000000000E+00
 0.0000000000000E+00
 0.0000000000000E+00
 0.0000000000000E+00
 0.0000000000000E+00
 0.0000000000000E+00
 0.0000000000000E+00
 0.0000000000000E+00
 0.0000000000000E+00
 0.0000000000000E+00
 0.0000000000000E+00
 0.0000000000000E+00
 0.0000000000000E+00
 0.0000000000000E+00
 0.0000000000000E+00
 0.0000000000000E+00
 0.0000000000000E+00
 0.0000000000000E+00
 0.0000000000000E+00
 0.0000000000000E+00
 0.0000000000000E+00
 0.0000000000000E+00
 0.0000000000000E+00
 0.0000000000000E+00
 0.0000000000000E+00
 0.0000000000000E+00
 0.0000000000000E+00
 0.0000000000000E+00
 0.0000000000000E+00
 0.0000000000000E+00
 0.0000000000000E+00
 0.0000000000000E+00
 0.0000000000000E+00
 0.0000000000000E+00
 0.0000000000000E+00
 0.0000000000000E+00
 0.0000000000000E+00
 0.0000000000000E+00
 0.0000000000000E+00
 0.0000000000000E+00
 0.0000000000000E+00
 0.0000000000000E+00
 0.0000000000000E+00
 0.0000000000000E+00
 0.0000000000000E+00
 0.0000000000000E+00
 0.0000000000000E+00
 0.0000000000000E+00
 0.0000000000000E+00
 0.0000000000000E+00
 0.0000000000000E+00
 0.0000000000000E+00
 0.0000000000000E+00
 0.0000000000000E+00
 0.0000000000000E+00
 0.0000000000000E+00
 0.0000000000000E+00
 0.0000000000000E+00
 0.0000000000000E+00
 0.0000000000000E+00
 0.0000000000000E+00
 0.0000000000000E+00
 0.0000000000000E+00
 0.0000000000000E+00
 0.0000000000000E+00
 0.0000000000000E+00
 0.0000000000000E+00
 0.0000000000000E+00
 0.0000000000000E+00
 0.0000000000000E+00
 0.0000000000000E+00
 0.0000000000000E+00
 0.0000000000000E+00
 0.0000000000000E+00
 0.0000000000000E+00
 0.0000000000000E+00
 0.0000000000000E+00
 0.0000000000000E+00
 0.0000000000000E+00
 0.0000000000000E+00
 0.0000000000000E+00
 0.0000000000000E+00
 0.0000000000000E+00
 0.0000000000000E+00
 0.0000000000000E+00
 0.0000000000000E+00
 0.0000000000000E+00
 0.0000000000000E+00
 0.0000000000000E+00
 0.0000000000000E+00
 0.0000000000000E+00
 0.0000000000000E+00
 0.0000000000000E+00
 0.0000000000000E+00
 0.0000000000000E+00
 0.0000000000000E+00
 0.0000000000000E+00
 0.0000000000000E+00
 0.0000000000000E+00
 0.0000000000000E+00
 0.0000000000000E+00
 0.0000000000000E+00
 0.0000000000000E+00
 0.0000000000000E+00
 0.0000000000000E+00
 0.0000000000000E+00
 0.0000000000000E+00
 0.0000000000000E+00
 0.0000000000000E+00
 0.0000000000000E+00
 0.0000000000000E+00
 0.0000000000000E+00
 0.0000000000000E+00
 0.0000000000000E+00
 0.0000000000000E+00
 0.0000000000000E+00
 0.0000000000000E+00
 0.0000000000000E+00
 0.0000000000000E+00
 0.0000000000000E+00
 0.0000000000000E+00
 0.0000000000000E+00
 0.0000000000000E+00
 0.0000000000000E+00
 0.0000000000000E+00
 0.0000000000000E+00
 0.0000000000000E+00
 0.0000000000000E+00
 0.0000000000000E+00
 0.0000000000000E+00
 0.0000000000000E+00
 0.0000000000000E+00
 0.0000000000000E+00
 0.0000000000000E+00
 0.0000000000000E+00
 0.0000000000000E+00
 0.0000000000000E+00
 0.0000000000000E+00
 0.0000000000000E+00
 0.0000000000000E+00
 0.0000000000000E+00
 0.0000000000000E+00
 0.0000000000000E+00
 0.0000000000000E+00
 0.0000000000000E+00
 0.0000000000000E+00
 0.0000000000000E+00
 0.0000000000000E+00
 0.0000000000000E+00
 0.0000000000000E+00
 0.0000000000000E+00
 0.0000000000000E+00
 0.0000000000000E+00
 0.0000000000000E+00
 0.0000000000000E+00
 0.0000000000000E+00
 0.0000000000000E+00
 0.0000000000000E+00
 0.0000000000000E+00
 0.0000000000000E+00
 0.0000000000000E+00
 0.0000000000000E+00
 0.0000000000000E+00
 0.0000000000000E+00
 0.0000000000000E+00
 0.0000000000000E+00
 0.0000000000000E+00
 0.0000000000000E+00
 0.0000000000000E+00
 0.0000000000000E+00
 0.0000000000000E+00
 0.0000000000000E+00
 0.0000000000000E+00
 0.0000000000000E+00
 0.0000000000000E+00
 0.0000000000000E+00
 0.0000000000000E+00
 0.0000000000000E+00
 0.0000000000000E+00
 0.0000000000000E+00
 0.0000000000000E+00
 0.0000000000000E+00
 0.0000000000000E+00
 0.0000000000000E+00
 0.0000000000000E+00
 0.0000000000000E+00
 0.0000000000000E+00
 0.0000000000000E+00
 0.0000000000000E+00
 0.0000000000000E+00
 0.0000000000000E+00
 0.0000000000000E+00
 0.0000000000000E+00
 0.0000000000000E+00
 0.0000000000000E+00
 0.0000000000000E+00
 0.0000000000000E+00
 0.0000000000000E+00
 0.0000000000000E+00
 0.0000000000000E+00
 0.0000000000000E+00
 0.0000000000000E+00
 0.0000000000000E+00
 0.0000000000000E+00
 0.0000000000000E+00
 0.0000000000000E+00
 0.0000000000000E+00
 0.0000000000000E+00
 0.0000000000000E+00
 0.0000000000000E+00
 0.0000000000000E+00
 0.0000000000000E+00
 0.0000000000000E+00
 0.0000000000000E+00
 0.0000000000000E+00
 0.0000000000000E+00
 0.0000000000000E+00
 0.0000000000000E+00
 0.0000000000000E+00
 0.0000000000000E+00
 0.0000000000000E+00
 0.0000000000000E+00
 0.0000000000000E+00
 0.0000000000000E+00
 0.0000000000000E+00
 0.0000000000000E+00
 0.0000000000000E+00
 0.0000000000000E+00
 0.0000000000000E+00
 0.0000000000000E+00
 0.0000000000000E+00
 0.0000000000000E+00
 0.0000000000000E+00
 0.0000000000000E+00
 0.0000000000000E+00
 0.0000000000000E+00
 0.0000000000000E+00
 0.0000000000000E+00
 0.0000000000000E+00
 0.0000000000000E+00
 0.0000000000000E+00
 0.0000000000000E+00
 0.0000000000000E+00
 0.0000000000000E+00
 0.0000000000000E+00
 0.0000000000000E+00
 0.0000000000000E+00
 0.0000000000000E+00
 0.0000000000000E+00
 0.0000000000000E+00
 0.0000000000000E+00
 0.0000000000000E+00
 0.0000000000000E+00
 0.0000000000000E+00
 0.0000000000000E+00
 0.0000000000000E+00
 0.0000000000000E+00
 0.0000000000000E+00
 0.0000000000000E+00
 0.0000000000000E+00
 0.0000000000000E+00
 0.0000000000000E+00
 0.0000000000000E+00
 0.0000000000000E+00
 0.0000000000000E+00
 0.0000000000000E+00
 0.0000000000000E+00
 0.0000000000000E+00
 0.0000000000000E+00
 0.0000000000000E+00
 0.0000000000000E+00
 0.0000000000000E+00
 0.0000000000000E+00
 0.0000000000000E+00
 0.0000000000000E+00
 0.0000000000000E+00
 0.0000000000000E+00
 0.0000000000000E+00
 0.0000000000000E+00
 0.0000000000000E+00
 0.0000000000000E+00
 0.0000000000000E+00
 0.0000000000000E+00
 0.0000000000000E+00
 0.0000000000000E+00
 0.0000000000000E+00
 0.0000000000000E+00
 0.0000000000000E+00
 0.0000000000000E+00
 0.0000000000000E+00
 0.0000000000000E+00
 0.0000000000000E+00
 0.0000000000000E+00
 0.0000000000000E+00
 0.0000000000000E+00
 0.0000000000000E+00
 0.0000000000000E+00
 0.0000000000000E+00
 0.0000000000000E+00
 0.0000000000000E+00
 0.0000000000000E+00
 0.0000000000000E+00
 0.0000000000000E+00
 0.0000000000000E+00
 0.0000000000000E+00
 0.0000000000000E+00
 0.0000000000000E+00
 0.0000000000000E+00
 0.0000000000000E+00
 0.0000000000000E+00
 0.0000000000000E+00
 0.0000000000000E+00
 0.0000000000000E+00
 0.0000000000000E+00
 0.0000000000000E+00
 0.0000000000000E+00
 0.0000000000000E+00
 0.0000000000000E+00
 0.0000000000000E+00
 0.0000000000000E+00
 0.0000000000000E+00
 0.0000000000000E+00
 0.0000000000000E+00
 0.0000000000000E+00
 0.0000000000000E+00
 0.0000000000000E+00
 0.0000000000000E+00
 0.0000000000000E+00
 0.0000000000000E+00
 0.0000000000000E+00
 0.0000000000000E+00
 0.0000000000000E+00
 0.0000000000000E+00
 0.0000000000000E+00
 0.0000000000000E+00
 0.0000000000000E+00
 0.0000000000000E+00
 0.0000000000000E+00
 0.0000000000000E+00
 0.0000000000000E+00
 0.0000000000000E+00
 0.0000000000000E+00
 0.0000000000000E+00
 0.0000000000000E+00
 0.0000000000000E+00
 0.0000000000000E+00
 0.0000000000000E+00
 0.0000000000000E+00
 0.0000000000000E+00
 0.0000000000000E+00
 0.0000000000000E+00
 0.0000000000000E+00
 0.0000000000000E+00
 0.0000000000000E+00
 0.0000000000000E+00
 0.0000000000000E+00
 0.0000000000000E+00
 0.0000000000000E+00
 0.0000000000000E+00
 0.0000000000000E+00
 0.0000000000000E+00
 0.0000000000000E+00
 0.0000000000000E+00
 0.0000000000000E+00
 0.0000000000000E+00
 0.0000000000000E+00
 0.0000000000000E+00
 0.0000000000000E+00
 0.0000000000000E+00
 0.0000000000000E+00
 0.0000000000000E+00
 0.0000000000000E+00
 0.0000000000000E+00
 0.0000000000000E+00
 0.0000000000000E+00
 0.0000000000000E+00
 0.0000000000000E+00
 0.0000000000000E+00
 0.0000000000000E+00
 0.0000000000000E+00
 0.0000000000000E+00
 0.0000000000000E+00
 0.0000000000000E+00
 0.0000000000000E+00
 0.0000000000000E+00
 0.0000000000000E+00
 0.0000000000000E+00
 0.0000000000000E+00
 0.0000000000000E+00
 0.0000000000000E+00
 0.0000000000000E+00
 0.0000000000000E+00
 0.0000000000000E+00
 0.0000000000000E+00
 0.0000000000000E+00
 0.0000000000000E+00
 0.0000000000000E+00
 0.0000000000000E+00
 0.0000000000000E+00
 0.0000000000000E+00
 0.0000000000000E+00
 0.0000000000000E+00
 0.0000000000000E+00
 0.0000000000000E+00
 0.0000000000000E+00
 0.0000000000000E+00
 0.0000000000000E+00
 0.0000000000000E+00
 0.0000000000000E+00
 0.0000000000000E+00
 0.0000000000000E+00
 0.0000000000000E+00
 0.0000000000000E+00
 0.0000000000000E+00
 0.0000000000000E+00
 0.0000000000000E+00
 0.0000000000000E+00
 0.0000000000000E+00
 0.0000000000000E+00
 0.0000000000000E+00
 0.0000000000000E+00
 0.0000000000000E+00
 0.0000000000000E+00
 0.0000000000000E+00
 0.0000000000000E+00
 0.0000000000000E+00
 0.0000000000000E+00
 0.0000000000000E+00
 0.0000000000000E+00
 0.0000000000000E+00
 0.0000000000000E+00
 0.0000000000000E+00
 0.0000000000000E+00
 0.0000000000000E+00
 0.0000000000000E+00
 0.0000000000000E+00
 0.0000000000000E+00
 0.0000000000000E+00
 0.0000000000000E+00
 0.0000000000000E+00
 0.0000000000000E+00
 0.0000000000000E+00
 0.0000000000000E+00
 0.0000000000000E+00
 0.0000000000000E+00
 0.0000000000000E+00
 0.0000000000000E+00
 0.0000000000000E+00
 0.0000000000000E+00
 0.0000000000000E+00
 0.0000000000000E+00
 0.0000000000000E+00
 0.0000000000000E+00
 0.0000000000000E+00
 0.0000000000000E+00
 0.0000000000000E+00
 0.0000000000000E+00
 0.0000000000000E+00
 0.0000000000000E+00
 0.0000000000000E+00
 0.0000000000000E+00
 0.0000000000000E+00
 0.0000000000000E+00
 0.0000000000000E+00
 0.0000000000000E+00
 0.0000000000000E+00
 0.0000000000000E+00
 0.0000000000000E+00
 0.0000000000000E+00
 0.0000000000000E+00
 0.0000000000000E+00
 0.0000000000000E+00
 0.0000000000000E+00
 0.0000000000000E+00
 0.0000000000000E+00
 0.0000000000000E+00
 0.0000000000000E+00
 0.0000000000000E+00
 0.0000000000000E+00
 0.0000000000000E+00
 0.0000000000000E+00
 0.0000000000000E+00
 0.0000000000000E+00
 0.0000000000000E+00
 0.0000000000000E+00
 0.0000000000000E+00
 0.0000000000000E+00
 0.0000000000000E+00
 0.0000000000000E+00
 0.0000000000000E+00
 0.0000000000000E+00
 0.0000000000000E+00
 0.0000000000000E+00
 0.0000000000000E+00
 0.0000000000000E+00
 0.0000000000000E+00
 0.0000000000000E+00
 0.0000000000000E+00
 0.0000000000000E+00
 0.0000000000000E+00
 0.0000000000000E+00
 0.0000000000000E+00
 0.0000000000000E+00
 0.0000000000000E+00
 0.0000000000000E+00
 0.0000000000000E+00
 0.0000000000000E+00
 0.0000000000000E+00
 0.0000000000000E+00
 0.0000000000000E+00
 0.0000000000000E+00
 0.0000000000000E+00
 0.0000000000000E+00
 0.0000000000000E+00
 0.0000000000000E+00
 0.0000000000000E+00
 0.0000000000000E+00
 0.0000000000000E+00
 0.0000000000000E+00
 0.0000000000000E+00
 0.0000000000000E+00
 0.0000000000000E+00
 0.0000000000000E+00
 0.0000000000000E+00
 0.0000000000000E+00
 0.0000000000000E+00
 0.0000000000000E+00
 0.0000000000000E+00
 0.0000000000000E+00
 0.0000000000000E+00
 0.0000000000000E+00
 0.0000000000000E+00
 0.0000000000000E+00
 0.0000000000000E+00
 0.0000000000000E+00
 0.0000000000000E+00
 0.0000000000000E+00
 0.0000000000000E+00
 0.0000000000000E+00
 0.0000000000000E+00
 0.0000000000000E+00
 0.0000000000000E+00
 0.0000000000000E+00
 0.0000000000000E+00
 0.0000000000000E+00
 0.0000000000000E+00
 0.0000000000000E+00
 0.0000000000000E+00
 0.0000000000000E+00
 0.0000000000000E+00
 0.0000000000000E+00
 0.0000000000000E+00
 0.0000000000000E+00
 0.0000000000000E+00
 0.0000000000000E+00
 0.0000000000000E+00
 0.0000000000000E+00
 0.0000000000000E+00
 0.0000000000000E+00
 0.0000000000000E+00
 0.0000000000000E+00
 0.0000000000000E+00
 0.0000000000000E+00
 0.0000000000000E+00
 0.0000000000000E+00
 0.0000000000000E+00
 0.0000000000000E+00
 0.0000000000000E+00
 0.0000000000000E+00
 0.0000000000000E+00
 0.0000000000000E+00
 0.0000000000000E+00
 0.0000000000000E+00
 0.0000000000000E+00
 0.0000000000000E+00
 0.0000000000000E+00
 0.0000000000000E+00
 0.0000000000000E+00
 0.0000000000000E+00
 0.0000000000000E+00
 0.0000000000000E+00
 0.0000000000000E+00
 0.0000000000000E+00
 0.0000000000000E+00
 0.0000000000000E+00
 0.0000000000000E+00
 0.0000000000000E+00
 0.0000000000000E+00
 0.0000000000000E+00
 0.0000000000000E+00
 0.0000000000000E+00
 0.0000000000000E+00
 0.0000000000000E+00
 0.0000000000000E+00
 0.0000000000000E+00
 0.0000000000000E+00
 0.0000000000000E+00
 0.0000000000000E+00
 0.0000000000000E+00
 0.0000000000000E+00
 0.0000000000000E+00
 0.0000000000000E+00
 0.0000000000000E+00
 0.0000000000000E+00
 0.0000000000000E+00
 0.0000000000000E+00
 0.0000000000000E+00
 0.0000000000000E+00
 0.0000000000000E+00
 0.0000000000000E+00
 0.0000000000000E+00
 0.0000000000000E+00
 0.0000000000000E+00
 0.0000000000000E+00
 0.0000000000000E+00
 0.0000000000000E+00
 0.0000000000000E+00
 0.0000000000000E+00
 0.0000000000000E+00
 0.0000000000000E+00
 0.0000000000000E+00
 0.0000000000000E+00
 0.0000000000000E+00
 0.0000000000000E+00
 0.0000000000000E+00
 0.0000000000000E+00
 0.0000000000000E+00
 0.0000000000000E+00
 0.0000000000000E+00
 0.0000000000000E+00
 0.0000000000000E+00
 0.0000000000000E+00
 0.0000000000000E+00
 0.0000000000000E+00
 0.0000000000000E+00
 0.0000000000000E+00
 0.0000000000000E+00
 0.0000000000000E+00
 0.0000000000000E+00
 0.0000000000000E+00
 0.0000000000000E+00
 0.0000000000000E+00
 0.0000000000000E+00
 0.0000000000000E+00
 0.0000000000000E+00
 0.0000000000000E+00
 0.0000000000000E+00
 0.0000000000000E+00
 0.0000000000000E+00
 0.0000000000000E+00
 0.0000000000000E+00
 0.0000000000000E+00
 0.0000000000000E+00
 0.0000000000000E+00
 0.0000000000000E+00
 0.0000000000000E+00
 0.0000000000000E+00
 0.0000000000000E+00
 0.0000000000000E+00
 0.0000000000000E+00
 0.0000000000000E+00
 0.0000000000000E+00
 0.0000000000000E+00
 0.0000000000000E+00
 0.0000000000000E+00
 0.0000000000000E+00
 0.0000000000000E+00
 0.0000000000000E+00
 0.0000000000000E+00
 0.0000000000000E+00
 0.0000000000000E+00
 0.0000000000000E+00
 0.0000000000000E+00
 0.0000000000000E+00
 0.0000000000000E+00
 0.0000000000000E+00
 0.0000000000000E+00
 0.0000000000000E+00
 0.0000000000000E+00
 0.0000000000000E+00
 0.0000000000000E+00
 0.0000000000000E+00
 0.0000000000000E+00
 0.0000000000000E+00
 0.0000000000000E+00
 0.0000000000000E+00
 0.0000000000000E+00
 0.0000000000000E+00
 0.0000000000000E+00
 0.0000000000000E+00
 0.0000000000000E+00
 0.0000000000000E+00
 0.0000000000000E+00
 0.0000000000000E+00
 0.0000000000000E+00
 0.0000000000000E+00
 0.0000000000000E+00
 0.0000000000000E+00
 0.0000000000000E+00
 0.0000000000000E+00
 0.0000000000000E+00
 0.0000000000000E+00
 0.0000000000000E+00
 0.0000000000000E+00
 0.0000000000000E+00
 0.0000000000000E+00
 0.0000000000000E+00
 0.0000000000000E+00
 0.0000000000000E+00
 0.0000000000000E+00
 0.0000000000000E+00
 0.0000000000000E+00
 0.0000000000000E+00
 0.0000000000000E+00
 0.0000000000000E+00
 0.0000000000000E+00
 0.0000000000000E+00
 0.0000000000000E+00
 0.0000000000000E+00
 0.0000000000000E+00
 0.0000000000000E+00
 0.0000000000000E+00
 0.0000000000000E+00
 0.0000000000000E+00
 0.0000000000000E+00
 0.0000000000000E+00
 0.0000000000000E+00
 0.0000000000000E+00
 0.0000000000000E+00
 0.0000000000000E+00
 0.0000000000000E+00
 0.0000000000000E+00
 0.0000000000000E+00
 0.0000000000000E+00
 0.0000000000000E+00
 0.0000000000000E+00
 0.0000000000000E+00
 0.0000000000000E+00
 0.0000000000000E+00
 0.0000000000000E+00
 0.0000000000000E+00
 0.0000000000000E+00
 0.0000000000000E+00
 0.0000000000000E+00
 0.0000000000000E+00
 0.0000000000000E+00
 0.0000000000000E+00
 0.0000000000000E+00
 0.0000000000000E+00
 0.0000000000000E+00
 0.0000000000000E+00
 0.0000000000000E+00
 0.0000000000000E+00
 0.0000000000000E+00
 0.0000000000000E+00
 0.0000000000000E+00
 0.0000000000000E+00
 0.0000000000000E+00
 0.0000000000000E+00
 0.0000000000000E+00
 0.0000000000000E+00
 0.0000000000000E+00
 0.0000000000000E+00
 0.0000000000000E+00
 0.0000000000000E+00
 0.0000000000000E+00
 0.0000000000000E+00
 0.0000000000000E+00
 0.0000000000000E+00
 0.0000000000000E+00
 0.0000000000000E+00
 0.0000000000000E+00
 0.0000000000000E+00
 0.0000000000000E+00
 0.0000000000000E+00
 0.0000000000000E+00
 0.0000000000000E+00
 0.0000000000000E+00
 0.0000000000000E+00
 0.0000000000000E+00
 0.0000000000000E+00
 0.0000000000000E+00
 0.0000000000000E+00
 0.0000000000000E+00
 0.0000000000000E+00
 0.0000000000000E+00
 0.0000000000000E+00
 0.0000000000000E+00
 0.0000000000000E+00
 0.0000000000000E+00
 0.0000000000000E+00
 0.0000000000000E+00
 0.0000000000000E+00
 0.0000000000000E+00
 0.0000000000000E+00
 0.0000000000000E+00
 0.0000000000000E+00
 0.0000000000000E+00
 0.0000000000000E+00
 0.0000000000000E+00
 0.0000000000000E+00
 0.0000000000000E+00
 0.0000000000000E+00
 0.0000000000000E+00
 0.0000000000000E+00
 0.0000000000000E+00
 0.0000000000000E+00
 0.0000000000000E+00
 0.0000000000000E+00
 0.0000000000000E+00
 0.0000000000000E+00
 0.0000000000000E+00
 0.0000000000000E+00
 0.0000000000000E+00
 0.0000000000000E+00
 0.0000000000000E+00
 0.0000000000000E+00
 0.0000000000000E+00
 0.0000000000000E+00
 0.0000000000000E+00
 0.0000000000000E+00
 0.0000000000000E+00
 0.0000000000000E+00
 0.0000000000000E+00
 0.0000000000000E+00
 0.0000000000000E+00
 0.0000000000000E+00
 0.0000000000000E+00
 0.0000000000000E+00
 0.0000000000000E+00
 0.0000000000000E+00
 0.0000000000000E+00
 0.0000000000000E+00
 0.0000000000000E+00
 0.0000000000000E+00
 0.0000000000000E+00
 0.0000000000000E+00
 0.0000000000000E+00
 0.0000000000000E+00
 0.0000000000000E+00
 0.0000000000000E+00
 0.0000000000000E+00
 0.0000000000000E+00
 0.0000000000000E+00
 0.0000000000000E+00
 0.0000000000000E+00
 0.0000000000000E+00
 0.0000000000000E+00
 0.0000000000000E+00
 0.0000000000000E+00
 0.0000000000000E+00
 0.0000000000000E+00
 0.0000000000000E+00
 0.0000000000000E+00
 0.0000000000000E+00
 0.0000000000000E+00
 0.0000000000000E+00
 0.0000000000000E+00
 0.0000000000000E+00
 0.0000000000000E+00
 0.0000000000000E+00
 0.0000000000000E+00
 0.0000000000000E+00
 0.0000000000000E+00
 0.0000000000000E+00
 0.0000000000000E+00
 0.0000000000000E+00
 0.0000000000000E+00
 0.0000000000000E+00
 0.0000000000000E+00
 0.0000000000000E+00
 0.0000000000000E+00
 0.0000000000000E+00
 0.0000000000000E+00
 0.0000000000000E+00
 0.0000000000000E+00
 0.0000000000000E+00
 0.0000000000000E+00
 0.0000000000000E+00
 0.0000000000000E+00
 0.0000000000000E+00
 0.0000000000000E+00
 0.0000000000000E+00
 0.0000000000000E+00
 0.0000000000000E+00
 0.0000000000000E+00
 0.0000000000000E+00
 0.0000000000000E+00
 0.0000000000000E+00
 0.0000000000000E+00
 0.0000000000000E+00
 0.0000000000000E+00
 0.0000000000000E+00
 0.0000000000000E+00
 0.0000000000000E+00
 0.0000000000000E+00
 0.0000000000000E+00
 0.0000000000000E+00
 0.0000000000000E+00
 0.0000000000000E+00
 0.0000000000000E+00
 0.0000000000000E+00
 0.0000000000000E+00
 0.0000000000000E+00
 0.0000000000000E+00
 0.0000000000000E+00
 0.0000000000000E+00
 0.0000000000000E+00
 0.0000000000000E+00
 0.0000000000000E+00
 0.0000000000000E+00
 0.0000000000000E+00
 0.0000000000000E+00
 0.0000000000000E+00
 0.0000000000000E+00
 0.0000000000000E+00
 0.0000000000000E+00
 0.0000000000000E+00
 0.0000000000000E+00
 0.0000000000000E+00
 0.0000000000000E+00
 0.0000000000000E+00
 0.0000000000000E+00
 0.0000000000000E+00
 0.0000000000000E+00
 0.0000000000000E+00
 0.0000000000000E+00
 0.0000000000000E+00
 0.0000000000000E+00
 0.0000000000000E+00
 0.0000000000000E+00
 0.0000000000000E+00
 0.0000000000000E+00
 0.0000000000000E+00
 0.0000000000000E+00
 0.0000000000000E+00
 0.0000000000000E+00
 0.0000000000000E+00
 0.0000000000000E+00
 0.0000000000000E+00
 0.0000000000000E+00
 0.0000000000000E+00
 0.0000000000000E+00
 0.0000000000000E+00
 0.0000000000000E+00
 0.0000000000000E+00
 0.0000000000000E+00
 0.0000000000000E+00
 0.0000000000000E+00
 0.0000000000000E+00
 0.0000000000000E+00
 0.0000000000000E+00
 0.0000000000000E+00
 0.0000000000000E+00
 0.0000000000000E+00
 0.0000000000000E+00
 0.0000000000000E+00
 0.0000000000000E+00
 0.0000000000000E+00
 0.0000000000000E+00
 0.0000000000000E+00
 0.0000000000000E+00
 0.0000000000000E+00
 0.0000000000000E+00
 0.0000000000000E+00
 0.0000000000000E+00
 0.0000000000000E+00
 0.0000000000000E+00
 0.0000000000000E+00
 0.0000000000000E+00
 0.0000000000000E+00
 0.0000000000000E+00
 0.0000000000000E+00
 0.0000000000000E+00
 0.0000000000000E+00
 0.0000000000000E+00
 0.0000000000000E+00
 0.0000000000000E+00
 0.0000000000000E+00
 0.0000000000000E+00
 0.0000000000000E+00
 0.0000000000000E+00
 0.0000000000000E+00
 0.0000000000000E+00
 0.0000000000000E+00
 0.0000000000000E+00
 0.0000000000000E+00
 0.0000000000000E+00
 0.0000000000000E+00
 0.0000000000000E+00
 0.0000000000000E+00
 0.0000000000000E+00
 0.0000000000000E+00
 0.0000000000000E+00
 0.0000000000000E+00
 0.0000000000000E+00
 0.0000000000000E+00
 0.0000000000000E+00
 0.0000000000000E+00
 0.0000000000000E+00
 0.0000000000000E+00
 0.0000000000000E+00
 0.0000000000000E+00
 0.0000000000000E+00
 0.0000000000000E+00
 0.0000000000000E+00
 0.0000000000000E+00
 0.0000000000000E+00
 0.0000000000000E+00
 0.0000000000000E+00
 0.0000000000000E+00
 0.0000000000000E+00
 0.0000000000000E+00
 0.0000000000000E+00
 0.0000000000000E+00
 0.0000000000000E+00
 0.0000000000000E+00
 0.0000000000000E+00
 0.0000000000000E+00
 0.0000000000000E+00
 0.0000000000000E+00
 0.0000000000000E+00
 0.0000000000000E+00
 0.0000000000000E+00
 0.0000000000000E+00
 0.0000000000000E+00
 0.0000000000000E+00
 0.0000000000000E+00
 0.0000000000000E+00
 0.0000000000000E+00
 0.0000000000000E+00
 0.0000000000000E+00
 0.0000000000000E+00
 0.0000000000000E+00
 0.0000000000000E+00
 0.0000000000000E+00
 0.0000000000000E+00
 0.0000000000000E+00
 0.0000000000000E+00
 0.0000000000000E+00
 0.0000000000000E+00
 0.0000000000000E+00
 0.0000000000000E+00
 0.0000000000000E+00
 0.0000000000000E+00
 0.0000000000000E+00
 0.0000000000000E+00
 0.0000000000000E+00
 0.0000000000000E+00
 0.0000000000000E+00
 0.0000000000000E+00
 0.0000000000000E+00
 0.0000000000000E+00
 0.0000000000000E+00
 0.0000000000000E+00
 0.0000000000000E+00
 0.0000000000000E+00
 0.0000000000000E+00
 0.0000000000000E+00
 0.0000000000000E+00
 0.0000000000000E+00
 0.0000000000000E+00
 0.0000000000000E+00
 0.0000000000000E+00
 0.0000000000000E+00
 0.0000000000000E+00
 0.0000000000000E+00
 0.0000000000000E+00
 0.0000000000000E+00
 0.0000000000000E+00
 0.0000000000000E+00
 0.0000000000000E+00
 0.0000000000000E+00
 0.0000000000000E+00
 0.0000000000000E+00
 0.0000000000000E+00
 0.0000000000000E+00
 0.0000000000000E+00
 0.0000000000000E+00
 0.0000000000000E+00
 0.0000000000000E+00
 0.0000000000000E+00
 0.0000000000000E+00
 0.0000000000000E+00
 0.0000000000000E+00
 0.0000000000000E+00
 0.0000000000000E+00
 0.0000000000000E+00
 0.0000000000000E+00
 0.0000000000000E+00
 0.0000000000000E+00
 0.0000000000000E+00
 0.0000000000000E+00
 0.0000000000000E+00
 0.0000000000000E+00
 0.0000000000000E+00
 0.0000000000000E+00
 0.0000000000000E+00
 0.0000000000000E+00
 0.0000000000000E+00
 0.0000000000000E+00
 0.0000000000000E+00
 0.0000000000000E+00
 0.0000000000000E+00
 0.0000000000000E+00
 0.0000000000000E+00
 0.0000000000000E+00
 0.0000000000000E+00
 0.0000000000000E+00
 0.0000000000000E+00
 0.0000000000000E+00
 0.0000000000000E+00
 0.0000000000000E+00
 0.0000000000000E+00
 0.0000000000000E+00
 0.0000000000000E+00
 0.0000000000000E+00
 0.0000000000000E+00
 0.0000000000000E+00
 0.0000000000000E+00
 0.0000000000000E+00
 0.0000000000000E+00
 0.0000000000000E+00
 0.0000000000000E+00
 0.0000000000000E+00
 0.0000000000000E+00
 0.0000000000000E+00
 0.0000000000000E+00
 0.0000000000000E+00
 0.0000000000000E+00
 0.0000000000000E+00
 0.0000000000000E+00
 0.0000000000000E+00
 0.0000000000000E+00
 0.0000000000000E+00
 0.0000000000000E+00
 0.0000000000000E+00
 0.0000000000000E+00
 0.0000000000000E+00
 0.0000000000000E+00
 0.0000000000000E+00
 0.0000000000000E+00
 0.0000000000000E+00
 0.0000000000000E+00
 0.0000000000000E+00
 0.0000000000000E+00
 0.0000000000000E+00
 0.0000000000000E+00
 0.0000000000000E+00
 0.0000000000000E+00
 0.0000000000000E+00
 0.0000000000000E+00
 0.0000000000000E+00
 0.0000000000000E+00
 0.0000000000000E+00
 0.0000000000000E+00
 0.0000000000000E+00
 0.0000000000000E+00
 0.0000000000000E+00
 0.0000000000000E+00
 0.0000000000000E+00
 0.0000000000000E+00
 0.0000000000000E+00
 0.0000000000000E+00
 0.0000000000000E+00
 0.0000000000000E+00
 0.0000000000000E+00
 0.0000000000000E+00
 0.0000000000000E+00
 0.0000000000000E+00
 0.0000000000000E+00
 0.0000000000000E+00
 0.0000000000000E+00
 0.0000000000000E+00
 0.0000000000000E+00
 0.0000000000000E+00
 0.0000000000000E+00
 0.0000000000000E+00
 0.0000000000000E+00
 0.0000000000000E+00
 0.0000000000000E+00
 0.0000000000000E+00
 0.0000000000000E+00
 0.0000000000000E+00
 0.0000000000000E+00
 0.0000000000000E+00
 0.0000000000000E+00
 0.0000000000000E+00
 0.0000000000000E+00
 0.0000000000000E+00
 0.0000000000000E+00
 0.0000000000000E+00
 0.0000000000000E+00
 0.0000000000000E+00
 0.0000000000000E+00
 0.0000000000000E+00
 0.0000000000000E+00
 0.0000000000000E+00
 0.0000000000000E+00
 0.0000000000000E+00
 0.0000000000000E+00
 0.0000000000000E+00
 0.0000000000000E+00
 0.0000000000000E+00
 0.0000000000000E+00
 0.0000000000000E+00
 0.0000000000000E+00
 0.0000000000000E+00
 0.0000000000000E+00
 0.0000000000000E+00
 0.0000000000000E+00
 0.0000000000000E+00
 0.0000000000000E+00
 0.0000000000000E+00
 0.0000000000000E+00
 0.0000000000000E+00
 0.0000000000000E+00
 0.0000000000000E+00
 0.0000000000000E+00
 0.0000000000000E+00
 0.0000000000000E+00
 0.0000000000000E+00
 0.0000000000000E+00
 0.0000000000000E+00
 0.0000000000000E+00
 0.0000000000000E+00
 0.0000000000000E+00
 0.0000000000000E+00
 0.0000000000000E+00
 0.0000000000000E+00
 0.0000000000000E+00
 0.0000000000000E+00
 0.0000000000000E+00
 0.0000000000000E+00
 0.0000000000000E+00
 0.0000000000000E+00
 0.0000000000000E+00
 0.0000000000000E+00
 0.0000000000000E+00
 0.0000000000000E+00
 0.0000000000000E+00
 0.0000000000000E+00
 0.0000000000000E+00
 0.0000000000000E+00
 0.0000000000000E+00
 0.0000000000000E+00
 0.0000000000000E+00
 0.0000000000000E+00
 0.0000000000000E+00
 0.0000000000000E+00
 0.0000000000000E+00
 0.0000000000000E+00
 0.0000000000000E+00
 0.0000000000000E+00
 0.0000000000000E+00
 0.0000000000000E+00
 0.0000000000000E+00
 0.0000000000000E+00
 0.0000000000000E+00
 0.0000000000000E+00
 0.0000000000000E+00
 0.0000000000000E+00
 0.0000000000000E+00
 0.0000000000000E+00
 0.0000000000000E+00
 0.0000000000000E+00
 0.0000000000000E+00
 0.0000000000000E+00
 0.0000000000000E+00
 0.0000000000000E+00
 0.0000000000000E+00
 0.0000000000000E+00
 0.0000000000000E+00
 0.0000000000000E+00
 0.0000000000000E+00
 0.0000000000000E+00
 0.0000000000000E+00
 0.0000000000000E+00
 0.0000000000000E+00
 0.0000000000000E+00
 0.0000000000000E+00
 0.0000000000000E+00
 0.0000000000000E+00
 0.0000000000000E+00
 0.0000000000000E+00
 0.0000000000000E+00
 0.0000000000000E+00
 0.0000000000000E+00
 0.0000000000000E+00
 0.0000000000000E+00
 0.0000000000000E+00
 0.0000000000000E+00
 0.0000000000000E+00
 0.0000000000000E+00
 0.0000000000000E+00
 0.0000000000000E+00
 0.0000000000000E+00
 0.0000000000000E+00
 0.0000000000000E+00
 0.0000000000000E+00
 0.0000000000000E+00
 0.0000000000000E+00
 0.0000000000000E+00
 0.0000000000000E+00
 0.0000000000000E+00
 0.0000000000000E+00
 0.0000000000000E+00
 0.0000000000000E+00
 0.0000000000000E+00
 0.0000000000000E+00
 0.0000000000000E+00
 0.0000000000000E+00
 0.0000000000000E+00
 0.0000000000000E+00
 0.0000000000000E+00
 0.0000000000000E+00
 0.0000000000000E+00
 0.0000000000000E+00
 0.0000000000000E+00
 0.0000000000000E+00
 0.0000000000000E+00
 0.0000000000000E+00
 0.0000000000000E+00
 0.0000000000000E+00
 0.0000000000000E+00
 0.0000000000000E+00
 0.0000000000000E+00
 0.0000000000000E+00
 0.0000000000000E+00
 0.0000000000000E+00
 0.0000000000000E+00
 0.0000000000000E+00
 0.0000000000000E+00
 0.0000000000000E+00
 0.0000000000000E+00
 0.0000000000000E+00
 0.0000000000000E+00
 0.0000000000000E+00
 0.0000000000000E+00
 0.0000000000000E+00
 0.0000000000000E+00
 0.0000000000000E+00
 0.0000000000000E+00
 0.0000000000000E+00
 0.0000000000000E+00
 0.0000000000000E+00
 0.0000000000000E+00
 0.0000000000000E+00
 0.0000000000000E+00
 0.0000000000000E+00
 0.0000000000000E+00
 0.0000000000000E+00
 0.0000000000000E+00
 0.0000000000000E+00
 0.0000000000000E+00
 0.0000000000000E+00
 0.0000000000000E+00
 0.0000000000000E+00
 0.0000000000000E+00
 0.0000000000000E+00
 0.0000000000000E+00
 0.0000000000000E+00
 0.0000000000000E+00
 0.0000000000000E+00
 0.0000000000000E+00
 0.0000000000000E+00
 0.0000000000000E+00
 0.0000000000000E+00
 0.0000000000000E+00
 0.0000000000000E+00
 0.0000000000000E+00
 0.0000000000000E+00
 0.0000000000000E+00
 0.0000000000000E+00
 0.0000000000000E+00
 0.0000000000000E+00
 0.0000000000000E+00
 0.0000000000000E+00
 0.0000000000000E+00
 0.0000000000000E+00
 0.0000000000000E+00
 0.0000000000000E+00
 0.0000000000000E+00
 0.0000000000000E+00
 0.0000000000000E+00
 0.0000000000000E+00
 0.0000000000000E+00
 0.0000000000000E+00
 0.0000000000000E+00
 0.0000000000000E+00
 0.0000000000000E+00
 0.0000000000000E+00
 0.0000000000000E+00
 0.0000000000000E+00
 0.0000000000000E+00
 0.0000000000000E+00
 0.0000000000000E+00
 0.0000000000000E+00
 0.0000000000000E+00
 0.0000000000000E+00
 0.0000000000000E+00
 0.0000000000000E+00
 0.0000000000000E+00
 0.0000000000000E+00
 0.0000000000000E+00
 0.0000000000000E+00
 0.0000000000000E+00
 0.0000000000000E+00
 0.0000000000000E+00
 0.0000000000000E+00
 0.0000000000000E+00
 0.0000000000000E+00
 0.0000000000000E+00
 0.0000000000000E+00
 0.0000000000000E+00
 0.0000000000000E+00
 0.0000000000000E+00
 0.0000000000000E+00
 0.0000000000000E+00
 0.0000000000000E+00
 0.0000000000000E+00
 0.0000000000000E+00
 0.0000000000000E+00
 0.0000000000000E+00
 0.0000000000000E+00
 0.0000000000000E+00
 0.0000000000000E+00
 0.0000000000000E+00
 0.0000000000000E+00
 0.0000000000000E+00
 0.0000000000000E+00
 0.0000000000000E+00
 0.0000000000000E+00
 0.0000000000000E+00
 0.0000000000000E+00
 0.0000000000000E+00
 0.0000000000000E+00
 0.0000000000000E+00
 0.0000000000000E+00
 0.0000000000000E+00
 0.0000000000000E+00
 0.0000000000000E+00
 0.0000000000000E+00
 0.0000000000000E+00
 0.0000000000000E+00
 0.0000000000000E+00
 0.0000000000000E+00
 0.0000000000000E+00
 0.0000000000000E+00
 0.0000000000000E+00
 0.0000000000000E+00
 0.0000000000000E+00
 0.0000000000000E+00
 0.0000000000000E+00
 0.0000000000000E+00
 0.0000000000000E+00
 0.0000000000000E+00
 0.0000000000000E+00
 0.0000000000000E+00
 0.0000000000000E+00
 0.0000000000000E+00
 0.0000000000000E+00
 0.0000000000000E+00
 0.0000000000000E+00
 0.0000000000000E+00
 0.0000000000000E+00
 0.0000000000000E+00
 0.0000000000000E+00
 0.0000000000000E+00
 0.0000000000000E+00
 0.0000000000000E+00
 0.0000000000000E+00
 0.0000000000000E+00
 0.0000000000000E+00
 0.0000000000000E+00
 0.0000000000000E+00
 0.0000000000000E+00
 0.0000000000000E+00
 0.0000000000000E+00
 0.0000000000000E+00
 0.0000000000000E+00
 0.0000000000000E+00
 0.0000000000000E+00
 0.0000000000000E+00
 0.0000000000000E+00
 0.0000000000000E+00
 0.0000000000000E+00
 0.0000000000000E+00
 0.0000000000000E+00
 0.0000000000000E+00
 0.0000000000000E+00
 0.0000000000000E+00
 0.0000000000000E+00
 0.0000000000000E+00
 0.0000000000000E+00
 0.0000000000000E+00
 0.0000000000000E+00
 0.0000000000000E+00
 0.0000000000000E+00
 0.0000000000000E+00
 0.0000000000000E+00
 0.0000000000000E+00
 0.0000000000000E+00
 0.0000000000000E+00
 0.0000000000000E+00
 0.0000000000000E+00
 0.0000000000000E+00
 0.0000000000000E+00
 0.0000000000000E+00
 0.0000000000000E+00
 0.0000000000000E+00
 0.0000000000000E+00
 0.0000000000000E+00
 0.0000000000000E+00
 0.0000000000000E+00
 0.0000000000000E+00
 0.0000000000000E+00
 0.0000000000000E+00
 0.0000000000000E+00
 0.0000000000000E+00
 0.0000000000000E+00
 0.0000000000000E+00
 0.0000000000000E+00
 0.0000000000000E+00
 0.0000000000000E+00
 0.0000000000000E+00
 0.0000000000000E+00
 0.0000000000000E+00
 0.0000000000000E+00
 0.0000000000000E+00
 0.0000000000000E+00
 0.0000000000000E+00
 0.0000000000000E+00
 0.0000000000000E+00
 0.0000000000000E+00
 0.0000000000000E+00
 0.0000000000000E+00
 0.0000000000000E+00
 0.0000000000000E+00
 0.0000000000000E+00
 0.0000000000000E+00
 0.0000000000000E+00
 0.0000000000000E+00
 0.0000000000000E+00
 0.0000000000000E+00
 0.0000000000000E+00
 0.0000000000000E+00
 0.0000000000000E+00
 0.0000000000000E+00
 0.0000000000000E+00
 0.0000000000000E+00
</DataArray>
<DataArray type="Int32" Name="Region" format="ascii">
           1
           1
           1
           1
           1
           1
           1
           1
           1
           1
           1
           1
           1
           1
           1
           1
           1
           1
           1
           1
           1
           1
           1
           1
           1
           1
           1
           1
           1
           1
           1
           1
           1
           1
           1
           1
           1
           1
           1
           1
           1
           1
           1
           1
           1
           1
           1
           1
           1
           1
           1
           1
           1
           1
           1
           1
           1
           1
           1
           1
           1
           1
           1
           1
           1
           1
           1
           1
           1
           1
           1
           1
           1
           1
           1
           1
           1
           1
           1
           1
           1
           1
           1
           1
           1
           1
           1
           1
           1
           1
           1
           1
           1
           1
           1
           1
           1
           1
           1
           1
           1
           1
           1
           1
           1
           1
           1
           1
           1
           1
           1
           1
           1
           1
           1
           1
           1
           1
           1
           1
           1
           1
           1
           1
           1
           1
           1
           1
           1
           1
           1
           1
           1
           1
           1
           1
           1
           1
           1
           1
           1
           1
           1
           1
           1
           1
           1
           1
           1
           1
           1
           1
           1
           1
           1
           1
           1
           1
           1
           1
           1
           1
           1
           1
           1
           1
           1
           1
           1
           1
           1
           1
           1
           1
           1
           1
           1
           1
           1
           1
           1
           1
           1
           1
           1
           1
           1
           1
           1
           1
           1
           1
           1
           1
           1
           1
           1
           1
           1
           1
           1
           1
           1
           1
           1
           1
           1
           1
           1
           1
           1
           1
           1
           1
           1
           1
           1
           1
           1
           1
           1
           1
           1
           1
           1
           1
           1
           1
           1
           1
           1
           1
           1
           1
           1
           1
           1
           1
           1
           1
           1
           1
           1
           1
           1
           1
           1
           1
           1
           1
           1
           1
           1
           1
           1
           1
           1
           1
           1
           1
           1
           1
           1
           1
           1
           1
           1
           1
           1
           1
           1
           1
           1
           1
           1
           1
           1
           1
           1
           1
           1
           1
           1
           1
           1
           1
           1
           1
           1
           1
           1
           1
           1
           1
           1
           1
           1
           1
           1
           1
           1
           1
           1
           1
           1
           1
           1
           1
           1
           1
           1
           1
           1
           1
           1
           1
           1
           1
           1
           1
           1
           1
           1
           1
           1
           1
           1
           1
           1
           1
           1
           1
           1
           1
           1
           1
           1
           1
           1
           1
           1
           1
           1
           1
           1
           1
           1
           1
           1
           1
           1
           1
           1
           1
           1
           1
           1
           1
           1
           1
           1
           1
           1
           1
           1
           1
           1
           1
           1
           1
           1
           1
           1
           1
           1
           1
           1
           1
           1
           1
           1
           1
           1
           1
           1
           1
           1
           1
           1
           1
           1
           1
           1
           1
           1
           1
           1
           1
           1
           1
           1
           1
           1
           1
           1
           1
           1
           1
           1
           1
           1
           1
           1
           1
           1
           1
           1
           1
           1
           1
           1
           1
           1
           1
           1
           1
           1
           1
           1
           1
           1
           1
           1
           1
           1
           1
           1
           1
           1
           1
           1
           1
           1
           1
           1
           1
           1
           1
           1
           1
           1
           1
           1
           1
           1
           1
           1
           1
           1
           1
           1
           1
           1
           1
           1
           1
           1
           1
           1
           1
           1
           1
           1
           1
           1
           1
           1
           1
           1
           1
           1
           1
           1
           1
           1
           1
           1
           1
           1
           1
           1
           1
           1
           1
           1
           1
           1
           1
           1
           1
           1
           1
           1
           1
           1
           1
           1
           1
           1
           1
           1
           1
           1
           1
           1
           1
           1
           1
           1
           1
           1
           1
           1
           1
           1
           1
           1
           1
           1
           1
           1
           1
           1
           1
           1
           1
           1
           1
           1
           1
           1
           1
           1
           1
           1
           1
           1
           1
           1
           1
           1
           1
           1
           1
           1
           1
           1
           1
           1
           1
           1
           1
           1
           1
           1
           1
           1
           1
           1
           1
           1
           1
           1
           1
           1
           1
           1
           1
           1
           1
           1
           1
           1
           1
           1
           1
           1
           1
           1
           1
           1
           1
           1
           1
           1
           1
           1
           1
           1
           1
           1
           1
           1
           1
           1
           1
           1
           1
           1
           1
           1
           1
           1
           1
           1
           1
           1
           1
           1
           1
           1
           1
           1
           1
           1
           1
           1
           1
           1
           1
           1
           1
           1
           1
           1
           1
           1
           1
           1
           1
           1
           1
           1
           1
           1
           1
           1
           1
           1
           1
           1
           1
           1
           1
           1
           1
           1
           1
           1
           1
           1
           1
           1
           1
           1
           1
           1
           1
           1
           1
           1
           1
           1
           1
           1
           1
           1
           1
           1
           1
           1
           1
           1
           1
           1
           1
           1
           1
           1
           1
           1
           1
           1
           1
           1
           1
           1
           1
           1
           1
           1
           1
           1
           1
           1
           1
           1
           1
           1
           1
           1
           1
           1
           1
           1
           1
           1
           1
           1
           1
           1
           1
           1
           1
           1
           1
           1
           1
           1
           1
           1
           1
           1
           1
           1
           1
           1
           1
           1
           1
           1
           1
           1
           1
           1
           1
           1
           1
           1
           1
           1
           1
           1
           1
           1
           1
           1
           1
           1
           1
           1
           1
           1
           1
           1
           1
           1
           1
           1
           1
           1
           1
           1
           1
           1
           1
           1
           1
           1
           1
           1
           1
           1
           1
           1
           1
           1
           1
           1
           1
           1
           1
           1
           1
           1
           1
           1
           1
           1
           1
           1
           1
           1
           1
           1
           1
           1
           1
           1
           1
           1
           1
           1
           1
           1
           1
           1
           1
           1
           1
           1
           1
           1
           1
           1
           1
           1
           1
           1
           1
           1
           1
           1
           1
           1
           1
           1
           1
           1
           1
           1
           1
           1
           1
           1
           1
           1
           1
           1
           1
           1
           1
           1
           1
           1
           1
           1
           1
           1
           1
           1
           1
           1
           1
           1
           1
           1
           1
           1
           1
           1
           1
           1
           1
           1
           1
           1
           1
           1
           1
           1
           1
           1
           1
           1
           1
           1
           1
           1
           1
           1
           1
           1
           1
           1
           1
           1
           1
           1
           1
           1
           1
           1
           1
           1
           1
           1
           1
           1
           1
           1
           1
           1
           1
           1
           1
           1
           1
           1
           1
           1
           1
           1
           1
           1
           1
           1
           1
           1
           1
           1
           1
           1
           1
           1
           1
           1
           1
           1
           1
           1
           1
           1
           1
           1
           1
           1
           1
           1
           1
           1
           1
           1
           1
           1
           1
           1
           1
           1
           1
           1
           1
           1
           1
           1
           1
           1
           1
           1
           1
           1
           1
           1
           1
           1
           1
           1
           1
           1
           1
           1
           1
           1
           1
           1
           1
           1
           1
           1
           1
           1
           1
           1
           1
           1
           1
           1
           1
           1
           1
           1
           1
           1
           1
           1
           1
           1
           1
           1
           1
           1
           1
           1
           1
           1
           1
           1
           1
           1
           1
           1
           1
           1
           1
           1
           1
           1
           1
           1
           1
           1
           1
           1
           1
           1
           1
           1
           1
           1
           1
           1
           1
           1
           1
           1
           1
           1
           1
           1
           1
           1
           1
           1
           1
           1
           1
           1
           1
           1
           1
           1
           1
           1
           1
           1
           1
           1
           1
           1
           1
           1
           1
           1
           1
           1
           1
           1
           1
           1
           1
           1
           1
           1
           1
           1
           1
           1
           1
           1
           1
           1
           1
           1
           1
           1
           1
           1
           1
           1
           1
           1
           1
           1
           1
           1
           1
           1
           1
           1
           1
           1
           1
           1
           1
           1
           1
           1
           1
           1
           1
           1
           1
           1
           1
           1
           1
           1
           1
           1
           1
           1
           1
           1
           1
           1
           1
           1
           1
           1
           1
           1
           1
           1
           1
           1
           1
           1
           1
           1
           1
           1
           1
           1
           1
           1
           1
           1
           1
           1
           1
           1
           1
           1
           1
           1
           1
           1
           1
           1
           1
           1
           1
           1
           1
           1
           1
           1
           1
           1
           1
           1
           1
           1
           1
           1
           1
           1
           1
           1
           1
           1
           1
           1
           1
           1
           1
           1
           1
           1
           1
           1
           1
           1
           1
           1
           1
           1
           1
           1
           1
           1
           1
           1
           1
           1
           1
           1
           1
           1
           1
           1
           1
           1
           1
           1
           1
           1
           1
           1
           1
           1
           1
           1
           1
           1
           1
           1
           1
           1
           1
           1
           1
           1
           1
           1
           1
           1
           1
           1
           1
           1
           1
           1
           1
           1
           1
           1
           1
           1
           1
           1
           1
           1
           1
           1
           1
           1
           1
           1
           1
           1
           1
           1
           1
           1
           1
           1
           1
           1
           1
           1
           1
           1
           1
           1
           1
           1
           1
           1
           1
           1
           1
           1
           1
           1
           1
           1
           1
           1
           1
           1
           1
           1
           1
           1
           1
           1
           1
           1
           1
           1
           1
           1
           1
           1
           1
           1
           1
           1
           1
           1
           1
           1
           1
           1
           1
           1
           1
           1
           1
           1
           1
           1
           1
           1
           1
           1
           1
           1
           1
           1
           1
           1
           1
           1
           1
           1
           1
           1
           1
           1
           1
           1
           1
           1
           1
           1
           1
           1
           1
           1
           1
           1
           1
           1
           1
           1
           1
           1
           1
           1
           1
           1
           1
           1
           1
           1
           1
           1
           1
           1
           1
           1
           1
           1
           1
           1
           1
           1
           1
           1
           1
           1
           1
           1
           1
           1
           1
           1
           1
           1
           1
           1
           1
           1
           1
           1
           1
           1
           1
           1
           1
           1
           1
           1
           1
           1
           1
           1
           1
           1
           1
           1
           1
           1
           1
           1
           1
           1
           1
           1
           1
           1
           1
           1
           1
           1
           1
           1
           1
           1
           1
           1
           1
           1
           1
           1
           1
           1
           1
           1
           1
           1
           1
           1
           1
           1
           1
           1
           1
           1
           1
           1
           1
           1
           1
           1
           1
           1
           1
           1
           1
           1
           1
           1
           1
           1
           1
           1
           1
           1
           1
           1
           1
           1
           1
           1
           1
           1
           1
           1
           1
           1
           1
           1
           1
           1
           1
           1
           1
           1
           1
           1
           1
           1
           1
           1
           1
           1
           1
           1
           1
           1
           1
           1
           1
           1
           1
           1
           1
           1
           1
           1
           1
           1
           1
           1
           1
           1
           1
           1
           1
           1
           1
           1
           1
           1
           1
           1
           1
           1
           1
           1
           1
           1
           1
           1
           1
           1
           1
           1
           1
           1
           1
           1
           1
           1
           1
           1
           1
           1
           1
           1
           1
           1
           1
           1
           1
           1
           1
           1
           1
           1
           1
           1
           1
           1
           1
           1
           1
           1
           1
           1
           1
           1
           1
           1
           1
           1
           1
           1
           1
           1
           1
           1
           1
           1
           1
           1
           1
           1
           1
           1
           1
           1
           1
           1
           1
           1
           1
           1
           1
           1
           1
           1
           1
           1
           1
           1
           1
           1
           1
           1
           1
           1
           1
           1
           1
           1
           1
           1
           1
           1
           1
           1
           1
           1
           1
           1
           1
           1
           1
           1
           1
           1
           1
           1
           1
           1
           1
           1
           1
           1
           1
           1
           1
           1
           1
           1
           1
           1
           1
           1
           1
           1
           1
           1
           1
           1
           1
           1
           1
           1
           1
           1
           1
           1
           1
           1
           1
           1
           1
           1
           1
           1
           1
           1
           1
           1
           1
           1
           1
           1
           1
           1
           1
           1
           1
           1
           1
           1
           1
           1
           1
           1
           1
           1
           1
           1
           1
           1
           1
           1
           1
           1
           1
           1
           1
           1
           1
           1
           1
           1
           1
           1
           1
           1
           1
           1
           1
           1
           1
           1
           1
           1
           1
           1
           1
           1
           1
           1
           1
           1
           1
           1
           1
           1
           1
           1
           1
           1
           1
           1
           1
           1
           1
           1
           1
           1
           1
           1
           1
           1
           1
           1
           1
           1
           1
           1
           1
           1
           1
           1
           1
           1
           1
           1
           1
           1
           1
           1
           1
           1
           1
           1
           1
           1
           1
           1
           1
           1
           1
           1
           1
           1
           1
           1
           1
           1
           1
           1
           1
           1
           1
           1
           1
           1
           1
           1
           1
           1
           1
           1
           1
           1
           1
           1
           1
           1
           1
           1
           1
           1
           1
           1
           1
           1
           1
           1
           1
           1
           1
           1
           1
           1
           1
           1
           1
           1
           1
           1
           1
           1
           1
           1
           1
           1
           1
           1
           1
           1
           1
           1
           1
           1
           1
           1
           1
           1
           1
           1
           1
           1
           1
           1
           1
           1
           1
           1
           1
           1
           1
           1
           1
           1
           1
           1
           1
           1
           1
           1
           1
           1
           1
           1
           1
           1
           1
           1
           1
           1
           1
           1
           1
           1
           1
           1
           1
           1
           1
           1
           1
           1
           1
           1
           1
           1
           1
           1
           1
           1
           1
           1
           1
           1
           1
           1
           1
           1
           1
           1
           1
           1
           1
           1
           1
           1
           1
           1
           1
           1
           1
           1
           1
           1
           1
           1
           1
           1
           1
           1
           1
           1
           1
           1
           1
           1
           1
           1
           1
           1
           1
           1
           1
           1
           1
           1
           1
           1
           1
           1
           1
           1
           1
           1
           1
           1
           1
           1
           1
           1
           1
           1
           1
           1
           1
           1
           1
           1
           1
           1
           1
           1
           1
           1
           1
           1
           1
           1
           1
           1
           1
           1
           1
           1
           1
           1
           1
           1
           1
           1
           1
           1
           1
           1
           1
           1
           1
           1
           1
           1
           1
           1
           1
           1
           1
           1
           1
           1
           1
           1
           1
           1
           1
           1
           1
           1
           1
           1
           1
           1
           1
           1
           1
           1
           1
           1
           1
           1
           1
           1
           1
           1
           1
           1
           1
           1
           1
           1
           1
           1
           1
           1
           1
           1
           1
           1
           1
           1
           1
           1
           1
           1
           1
           1
           1
           1
           1
           1
           1
           1
           1
           1
           1
           1
           1
           1
           1
           1
           1
           1
           1
           1
           1
           1
           1
           1
           1
           1
           1
           1
           1
           1
           1
           1
           1
           1
           1
           1
           1
           1
           1
           1
           1
           1
           1
           1
           1
           1
           1
           1
           1
           1
           1
           1
           1
           1
           1
           1
           1
           1
           1
           1
           1
           1
           1
           1
           1
           1
           1
           1
           1
           1
           1
           1
           1
           1
           1
           1
           1
           1
           1
           1
           1
           1
           1
           1
           1
           1
           1
           1
           1
           1
           1
           1
           1
           1
           1
           1
           1
           1
           1
           1
           1
           1
           1
           1
           1
           1
           1
           1
           1
           1
           1
           1
           1
           1
           1
           1
           1
           1
           1
           1
           1
           1
           1
           1
           1
           1
           1
           1
           1
           1
           1
           1
           1
           1
           1
           1
           1
           1
           1
           1
           1
           1
           1
           1
           1
           1
           1
           1
           1
           1
           1
           1
           1
           1
           1
           1
           1
           1
           1
           1
           1
           1
           1
           1
           1
           1
           1
           1
           1
           1
           1
           1
           1
           1
           1
           1
           1
           1
           1
           1
           1
           1
           1
           1
           1
           1
           1
           1
           1
           1
           1
           1
           1
           1
           1
           1
           1
           1
           1
           1
           1
           1
           1
           1
           1
           1
           1
           1
           1
           1
           1
           1
           1
           1
           1
           1
           1
           1
           1
           1
           1
           1
           1
           1
           1
           1
           1
           1
           1
           1
           1
           1
           1
           1
           1
           1
           1
           1
           1
           1
           1
           1
           1
           1
           1
           1
           1
           1
           1
           1
           1
           1
           1
           1
           1
           1
           1
           1
           1
           1
           1
           1
           1
           1
           1
           1
           1
           1
           1
           1
           1
           1
           1
           1
           1
           1
           1
           1
           1
           1
           1
           1
           1
           1
           1
           1
           1
           1
           1
           1
           1
           1
           1
           1
           1
           1
           1
           1
           1
           1
           1
           1
           1
           1
           1
           1
           1
           1
           1
           1
           1
           1
           1
           1
           1
           1
           1
           1
           1
           1
           1
           1
           1
           1
           1
           1
           1
           1
           1
           1
           1
           1
           1
           1
           1
           1
           1
           1
           1
           1
           1
           1
           1
           1
           1
           1
           1
           1
           1
           1
           1
           1
           1
           1
           1
           1
           1
           1
           1
           1
           1
           1
           1
           1
           1
           1
           1
           1
           1
           1
           1
           1
           1
           1
           1
           1
           1
           1
           1
           1
           1
           1
           1
           1
           1
           1
           1
           1
           1
           1
           1
           1
           1
           1
           1
           1
           1
           1
           1
           1
           1
           1
           1
           1
           1
           1
           1
           1
           1
           1
           1
           1
           1
           1
           1
           1
           1
           1
           1
           1
           1
           1
           1
           1
           1
           1
           1
           1
           1
           1
           1
           1
           1
           1
           1
           1
           1
           1
           1
           1
           1
           1
           1
           1
           1
           1
           1
           1
           1
           1
           1
           1
           1
           1
           1
           1
           1
           1
           1
           1
           1
           1
           1
           1
           1
           1
           1
           1
           1
           1
           1
           1
           1
           1
           1
           1
           1
           1
           1
           1
           1
           1
           1
           1
           1
           1
           1
           1
           1
           1
           1
           1
           1
           1
           1
           1
           1
           1
           1
           1
           1
           1
           1
           1
           1
           1
           1
           1
           1
           1
           1
           1
           1
           1
           1
           1
           1
           1
           1
           1
           1
           1
           1
           1
           1
           1
           1
           1
           1
           1
           1
           1
           1
           1
           1
           1
           1
           1
           1
           1
           1
           1
           1
           1
           1
           1
           1
           1
           1
           1
           1
           1
           1
           1
           1
           1
           1
           1
           1
           1
           1
           1
           1
           1
           1
           1
           1
           1
           1
           1
           1
           1
           1
           1
           1
           1
           1
           1
           1
           1
           1
           1
           1
           1
           1
           1
           1
           1
           1
           1
           1
           1
           1
           1
           1
           1
           1
           1
           1
           1
           1
           1
           1
           1
           1
           1
           1
           1
           1
           1
           1
           1
           1
           1
           1
           1
           1
           1
           1
           1
           1
           1
           1
           1
           1
           1
           1
           1
           1
           1
           1
           1
           1
           1
           1
           1
           1
           1
           1
           1
           1
           1
           1
           1
           1
           1
           1
           1
           1
           1
           1
           1
           1
           1
           1
           1
           1
           1
           1
           1
           1
           1
           1
           1
           1
           1
           1
           1
           1
           1
           1
           1
           1
           1
           1
           1
           1
           1
           1
           1
           1
           1
           1
           1
           1
           1
           1
           1
           1
           1
           1
           1
           1
           1
           1
           1
           1
           1
           1
           1
           1
           1
           1
           1
           1
           1
           1
           1
           1
           1
           1
           1
           1
           1
           1
           1
           1
           1
           1
           1
           1
           1
           1
           1
           1
           1
           1
           1
           1
           1
           1
           1
           1
           1
           1
           1
           1
           1
           1
           1
           1
           1
           1
           1
           1
           1
           1
           1
           1
           1
           1
           1
           1
           1
           1
           1
           1
           1
           1
           1
           1
           1
           1
           1
           1
           1
           1
           1
           1
           1
           1
           1
           1
           1
           1
           1
           1
           1
           1
           1
           1
           1
           1
           1
           1
           1
           1
           1
           1
           1
           1
           1
           1
           1
           1
           1
           1
           1
           1
           1
           1
           1
           1
           1
           1
           1
           1
           1
           1
           1
           1
           1
           1
           1
           1
           1
           1
           1
           1
           1
           1
           1
           1
           1
           1
           1
           1
           1
           1
           1
           1
           1
           1
           1
           1
           1
           1
           1
           1
           1
           1
           1
           1
           1
           1
           1
           1
           1
           1
           1
           1
           1
           1
           1
           1
           1
           1
           1
           1
           1
           1
           1
           1
           1
           1
           1
           1
           1
           1
           1
           1
           1
           1
           1
           1
           1
           1
           1
           1
           1
           1
           1
           1
           1
           1
           1
           1
           1
           1
           1
           1
           1
           1
           1
           1
           1
           1
           1
           1
           1
           1
           1
           1
           1
           1
           1
           1
           1
           1
           1
           1
           1
           1
           1
           1
           1
           1
           1
           1
           1
           1
           1
           1
           1
           1
           1
           1
           1
           1
           1
           1
           1
           1
           1
           1
           1
           1
           1
           1
           1
           1
           1
           1
           1
           1
           1
           1
           1
           1
           1
           1
           1
           1
           1
           1
           1
           1
           1
           1
           1
           1
           1
           1
           1
           1
           1
           1
           1
           1
           1
           1
           1
           1
           1
           1
           1
           1
           1
           1
           1
           1
           1
           1
           1
           1
           1
           1
           1
           1
           1
           1
           1
           1
           1
           1
           1
           1
           1
           1
           1
           1
           1
           1
           1
           1
           1
           1
           1
           1
           1
           1
           1
           1
           1
           1
           1
           1
           1
           1
           1
           1
           1
           1
           1
           1
           1
           1
           1
           1
           1
           1
           1
           1
           1
           1
           1
           1
           1
           1
           1
           1
           1
           1
           1
           1
           1
           1
           1
           1
           1
           1
           1
           1
           1
           1
           1
           1
           1
           1
           1
           1
           1
           1
           1
           1
           1
           1
           1
           1
           1
           1
           1
           1
           1
           1
           1
           1
           1
           1
           1
           1
           1
           1
           1
           1
           1
           1
           1
           1
           1
           1
           1
           1
           1
           1
           1
           1
           1
           1
           1
           1
           1
           1
           1
           1
           1
           1
           1
           1
           1
           1
           1
           1
           1
           1
           1
           1
           1
           1
           1
           1
           1
           1
           1
           1
           1
           1
           1
           1
           1
           1
           1
           1
           1
           1
           1
           1
           1
           1
           1
           1
           1
           1
           1
           1
           1
           1
           1
           1
           1
           1
           1
           1
           1
           1
           1
           1
           1
           1
           1
           1
           1
           1
           1
           1
           1
           1
           1
           1
           1
           1
           1
           1
           1
           1
           1
           1
           1
           1
           1
           1
           1
           1
           1
           1
           1
           1
           1
           1
           1
           1
           1
           1
           1
           1
           1
           1
           1
           1
           1
           1
           1
           1
           1
           1
           1
           1
           1
           1
           1
           1
           1
           1
           1
           1
           1
           1
           2
           2
           2
           2
           2
           2
           2
           2
           2
           2
           2
           2
           2
           2
           2
           2
           2
           2
           2
           2
           2
           2
           2
           2
           2
           2
           2
           2
           2
           2
           2
           2
           2
           2
           2
           2
           2
           2
           2
           2
           2
           2
           2
           2
           2
           2
           2
           2
           2
           2
           2
           2
           2
           2
           2
           2
           2
           2
           2
           2
           2
           2
           2
           2
           2
           2
           2
           2
           2
           2
           2
           2
           2
           2
           2
           2
           2
           2
           2
           2
           2
           2
           2
           2
           2
           2
           2
           2
           2
           2
           2
           2
           2
           2
           2
           2
           2
           2
           2
           2
           2
           2
           2
           2
           2
           2
           2
           2
           2
           2
           2
           2
           2
           2
           2
           2
           2
           2
           2
           2
           2
           2
           2
           2
           2
           2
           2
           2
           2
           2
           2
           2
           2
           2
           2
           2
           2
           2
           2
           2
           2
           2
           2
           2
           2
           2
           2
           2
           2
           2
           2
           2
           2
           2
           2
           2
           2
           2
           2
           2
           2
           2
           2
           2
           2
           2
           2
           2
           2
           2
           2
           2
           2
           2
           2
           2
           2
           2
           2
           2
           2
           2
           2
           2
           2
           2
           2
           2
           2
           2
           2
           2
           2
           2
           2
           2
           2
           2
           2
           2
           2
           2
           2
           2
           2
           2
           2
           2
           2
           2
           2
           2
           2
           2
           2
           2
           2
           2
           2
           2
           2
           2
           2
           2
           2
           2
           2
           2
           2
           2
           2
           2
           2
           2
           2
           2
           2
           2
           2
           2
           2
           2
           2
           2
           2
           2
           2
           2
           2
           2
           2
           2
           2
           2
           2
           2
           2
           2
           2
           2
           2
           2
           2
           2
           2
           2
           2
           2
           2
           2
           2
           2
           2
           2
           2
           2
           2
           2
           2
           2
           2
           2
           2
           2
           2
           2
           2
           2
           2
           2
           2
           2
           2
           2
           2
           2
           2
           2
           2
           2
           2
           2
           2
           2
           2
           2
           2
           2
           2
           2
           2
           2
           2
           2
           2
           2
           2
           2
           2
           2
           2
           2
           2
           2
           2
           2
           2
           2
           2
           2
           2
           2
           2
           2
           2
           2
           2
           2
           2
           2
           2
           2
           2
           2
           2
           2
           2
           2
           2
           2
           2
           2
           2
           2
           2
           2
           2
           2
           2
           2
           2
           2
           2
           2
           2
           2
           2
           2
           2
           2
           2
           2
           2
           2
           2
           2
           2
           2
           2
           2
           2
           2
           2
           2
           2
           2
           2
           2
           2
           2
           2
           2
           2
           2
           2
           2
           2
           2
           2
           2
           2
           2
           2
           2
           2
           2
           2
           2
           2
           2
           2
           2
           2
           2
           2
           2
           2
           2
           2
           2
           2
           2
           2
           2
           2
           2
           2
           2
           2
           2
           2
           2
           2
           2
           2
           2
           2
           2
           2
           2
           2
           2
           2
           2
           2
           2
           2
           2
           2
           2
           2
           2
           2
           2
           2
           2
           2
           2
           2
           2
           2
           2
           2
           2
           2
           2
           2
           2
           2
           2
           2
           2
           2
           2
           2
           2
           2
           2
           2
           2
           2
           2
           2
           2
           2
           2
           2
           2
           2
           2
           2
           2
           2
           2
           2
           2
           2
           2
           2
           2
           2
           2
           2
           2
           2
           2
           2
           2
           2
           2
           2
           2
           2
           2
           2
           2
           2
           2
           2
           2
           2
           2
           2
           2
           2
           2
           2
           2
           2
           2
           2
           2
           2
           2
           2
           2
           2
           2
           2
           2
           2
           2
           2
           2
           2
           2
           2
           2
           2
           2
           2
           2
           2
           2
           2
           2
           2
           2
           2
           2
           2
           2
           2
           2
           2
           2
           2
           2
           2
           2
           2
           2
           2
           2
           2
           2
           2
           2
           2
           2
           2
           2
           2
           2
           2
           2
           2
           2
           2
           2
           2
           2
           2
           2
           2
           2
           2
           2
           2
           2
           2
           2
           2
           2
           2
           2
           2
           2
           2
           2
           2
           2
           2
           2
           2
           2
           2
           2
           2
           2
           2
           2
           2
           2
           2
           2
           2
           2
           2
           2
           2
           2
           2
           2
           2
           2
           2
           2
           2
           2
           2
           2
           2
           2
           2
           2
           2
           2
           2
           2
           2
           2
           2
           2
           2
           2
           2
           2
           2
           2
           2
           2
           2
           2
           2
           2
           2
           2
           2
           2
           2
           2
           2
           2
           2
           2
           2
           2
           2
           2
           2
           2
           2
           2
           2
           2
           2
           2
           2
           2
           2
           2
           2
           2
           2
           2
           2
           2
           2
           2
           2
           2
           2
           2
           2
           2
           2
           2
           2
           2
           2
           2
           2
           2
           2
           2
           2
           2
           2
           2
           2
           2
           2
           2
           2
           2
           2
           2
           2
           2
           2
           2
           2
           2
           2
           2
           2
           2
           2
           2
           2
           2
           2
           2
           2
           2
           2
           2
           2
           2
           2
           2
           2
           2
           2
           2
           2
           2
           2
           2
           2
           2
           2
           2
           2
           2
           2
           2
           2
           2
           2
           2
           2
           2
           2
           2
           2
           2
           2
           2
           2
           2
           2
           2
           2
           2
           2
           2
           2
           2
           2
           2
           2
           2
           2
           2
           2
           2
           2
           2
           2
           2
           2
           2
           2
           2
           2
           2
           2
           2
           2
           2
           2
           2
           2
           2
           2
           2
           2
           2
           2
           2
           2
           2
           2
           2
           2
           2
           2
           2
           2
           2
           2
           2
           2
           2
           2
           2
           2
           2
           2
           2
           2
           2
           2
           2
           2
           2
           2
           2
           2
           2
           2
           2
           2
           2
           2
           2
           2
           2
           2
           2
           2
           2
           2
           2
           2
           2
           2
           2
           2
           2
           2
           2
           2
           2
           2
           2
           2
           2
           2
           2
           2
           2
           2
           2
           2
           2
           2
           2
           2
           2
           2
           2
           2
           2
           2
           2
           2
           2
           2
           2
           2
           2
           2
           2
           2
           2
           2
           2
           2
           2
           2
           2
           2
           2
           2
           2
           2
           2
           2
           2
           2
           2
           2
           2
           2
           2
           2
           2
           2
           2
           2
           2
           2
           2
           2
           2
           2
           2
           2
           2
           2
           2
           2
           2
           2
           2
           2
           2
           2
           2
           2
           2
           2
           2
           2
           2
           2
           2
           2
           2
           2
           2
           2
           2
           2
           2
           2
           2
           2
           2
           2
           2
           2
           2
           2
           2
           2
           2
           2
           2
           2
           2
           2
           2
           2
           2
           2
           2
           2
           2
           2
           2
           2
           2
           2
           2
           2
           2
           2
           2
           2
           2
           2
           2
           2
           2
           2
           2
           2
           2
           2
           2
           2
           2
           2
           2
           2
           2
           2
           2
           2
           2
           2
           2
           2
           2
           2
           2
           2
           2
           2
           2
           2
           2
           2
           2
           2
           2
           2
           2
           2
           2
           2
           2
           2
           2
           2
           2
           2
           2
           2
           2
           2
           2
           2
           2
           2
           2
           2
           2
           2
           2
           2
           2
           2
           2
           2
           2
           2
           2
           2
           2
           2
           2
           2
           2
           2
           2
           2
           2
           2
           2
           2
           2
           2
           2
           2
           2
           2
           2
           2
           2
           2
           2
           2
           2
           2
           2
           2
           2
           2
           2
           2
           2
           2
           2
           2
           2
           2
           2
           2
           2
           2
           2
           2
           2
           2
           2
           2
           2
           2
           2
           2
           2
           2
           2
           2
           2
           2
           2
           2
           2
           2
           2
           2
           2
           2
           2
           2
           2
           2
           2
           2
           2
           2
           2
           2
           2
           2
           2
           2
           2
           2
           2
           2
           2
           2
           2
           2
           2
           2
           2
           2
           2
           2
           2
           2
           2
           2
           2
           2
           2
           2
           2
           2
           2
           2
           2
           2
           2
           2
           2
           2
           2
           2
           2
           2
           2
           2
           2
           2
           2
           2
           2
           2
           2
           2
           2
           2
           2
           2
           2
           2
           2
           2
           2
           2
           2
           2
           2
           2
           2
           2
           2
           2
           2
           2
           2
           2
           2
           2
           2
           2
           2
           2
           2
           2
           2
           2
           2
           2
           2
           2
           2
           2
           2
           2
           2
           2
           2
           2
           2
           2
           2
           2
           2
           2
           2
           2
           2
           2
           2
           2
           2
           2
           2
           2
           2
           2
           2
           2
           2
           2
           2
           2
           2
           2
           2
           2
           2
           2
           2
           2
           2
           2
           2
           2
           2
           2
           2
           2
           2
           2
           2
           2
           2
           2
           2
           2
           2
           2
           2
           2
           2
           2
           2
           2
           2
           2
           2
           2
           2
           2
           2
           2
           2
           2
           2
           2
           2
           2
           2
           2
           2
           2
           2
           2
           2
           2
           2
           2
           2
           2
           2
           2
           2
           2
           2
           2
           2
           2
           2
           2
           2
           2
           2
           2
           2
           2
           2
           2
           2
           2
           2
           2
           2
           2
           2
           2
           2
           2
           2
           2
           2
           2
           2
           2
           2
           2
           2
           2
           2
           2
           2
           2
           2
           2
           2
           2
           2
           2
           2
           2
           2
           2
           2
           2
           2
           2
           2
           2
           2
           2
           2
           2
           2
           2
           2
           2
           2
           2
           2
           2
           2
           2
           2
           2
           2
           2
           2
           2
           2
           2
           2
           2
           2
           2
           2
           2
           2
           2
           2
           2
           2
           2
           2
           2
           2
           2
           2
           2
           2
           2
           2
           2
           2
           2
           2
           2
           2
           2
           2
           2
           2
           2
           2
           2
           2
           2
           2
           2
           2
           2
           2
           2
           2
           2
           2
           2
           2
           2
           2
           2
           2
           2
           2
           2
           2
           2
           2
           2
           2
           2
           2
           2
           2
           2
           2
           2
           2
           2
           2
           2
           2
           2
           2
           2
           2
           2
           2
           2
           2
           2
           2
           2
           2
           2
           2
           2
           2
           2
           2
           2
           2
           2
           2
           2
           2
           2
           2
           2
           2
           2
           2
           2
           2
           2
           2
           2
           2
           2
           2
           2
           2
           2
           2
           2
           2
           2
           2
           2
           2
           2
           2
           2
           2
           2
           2
           2
           2
           2
           2
           2
           2
           2
           2
           2
           2
           2
           2
           2
           2
           2
           2
           2
           2
           2
           2
           2
           2
           2
           2
           2
           2
           2
           2
           2
           2
           2
           2
           2
           2
           2
           2
           2
           2
           2
           2
           2
           2
           2
           2
           2
           2
           2
           2
           2
           2
           2
           2
           2
           2
           2
           2
           2
           2
           2
           2
           2
           2
           2
           2
           2
           2
           2
           2
           2
           2
           2
           2
           2
           2
           2
           2
           2
           2
           2
           2
           2
           2
           2
           2
           2
           2
           2
           2
           2
           2
           2
           2
           2
           2
           2
           2
           2
           2
           2
           2
           2
           2
           2
           2
           2
           2
           2
           2
           2
           2
           2
           2
           2
           2
           2
           2
           2
           2
           2
           2
           2
           2
           2
           2
           2
           2
           2
           2
           2
           2
           2
           2
           2
           2
           2
           2
           2
           2
           2
           2
           2
           2
           2
           2
           2
           2
           2
           2
           2
           2
           2
           2
           2
           2
           2
           2
           2
           2
           2
           2
           2
           2
           2
           2
           2
           2
           2
           2
           2
           2
           2
           2
           2
           2
           2
           2
           2
           2
           2
           2
           2
           2
           2
           2
           2
           2
           2
           2
           2
           2
           2
           2
           2
           2
           2
           2
           2
           2
           2
           2
           2
           2
           2
           2
           2
           2
           2
           2
           2
           2
           2
           2
           2
           2
           2
           2
           2
           2
           2
           2
           2
           2
           2
           2
           2
           2
           2
           2
           2
           2
           2
           2
           2
           2
           2
           2
           2
           2
           2
           2
           2
           2
           2
           2
           2
           2
           2
           2
           2
           2
           2
           2
           2
           2
           2
           2
           2
           2
           2
           2
           2
           2
           2
           2
           2
           2
           2
           2
           2
           2
           2
           2
           2
           2
           2
           2
           2
           2
           2
           2
           2
           2
           2
           2
           2
           2
           2
           2
           2
           2
           2
           2
           2
           2
           2
           2
           2
           2
           2
           2
           2
           2
           2
           2
           2
           2
           2
           2
           2
           2
           2
           2
           2
           2
           2
           2
           2
           2
           2
           2
           2
           2
           2
           2
           2
           2
           2
           2
           2
           2
           2
           2
           2
           2
           2
           2
           2
           2
           2
           2
           2
           2
           2
           2
           2
           2
           2
           2
           2
           2
           2
           2
           2
           2
           2
           2
           2
           2
           2
           2
           2
           2
           2
           2
           2
           2
           2
           2
           2
           2
           2
           2
           2
           2
           2
           2
           2
           2
           2
           2
           2
           2
           2
           2
           2
           2
           2
           2
           2
           2
           2
           2
           2
           2
           2
           2
           2
           2
           2
           2
           2
           2
           2
           2
           2
           2
           2
           2
           2
           2
           2
           2
           2
           2
           2
           2
           2
           2
           2
           2
           2
           2
           2
           2
           2
           2
           2
           2
           2
           2
           2
           2
           2
           2
           2
           2
           2
           2
           2
           2
           2
           2
           2
           2
           2
           2
           2
           2
           2
           2
           2
           2
           2
           2
           2
           2
           2
           2
           2
           2
           2
           2
           2
           2
           2
           2
           2
           2
           2
           2
           2
           2
           2
           2
           2
           2
           2
           2
           2
           2
           2
           2
           2
           2
           2
           2
           2
           2
           2
           2
           2
           2
           2
           2
           2
           2
           2
           2
           2
           2
           2
           2
           2
           2
           2
           2
           2
           2
           2
           2
           2
           2
           2
           2
           2
           2
           2
           2
           2
           2
           2
           2
           2
           2
           2
           2
           2
           2
           2
           2
           2
           2
           2
           2
           2
           2
           2
           2
           2
           2
           2
           2
           2
           2
           2
           2
           2
           2
           2
           2
           2
           2
           2
           2
           2
           2
           2
           2
           2
           2
           2
           2
           2
           2
           2
           2
           2
           2
           2
           2
           2
           2
           2
           2
           2
           2
           2
           2
           2
           2
           2
           2
           2
           2
           2
           2
           2
           2
           2
           2
           2
           2
           2
           2
           2
           2
           2
           2
           2
           2
           2
           2
           2
           2
           2
           2
           2
           2
           2
           2
           2
           2
           2
           2
           2
           2
           2
           2
           2
           2
           2
           2
           2
           2
           2
           2
           2
           2
           2
           2
           2
           2
           2
           2
           2
           2
           2
           2
           2
           2
           2
           2
           2
           2
           2
           2
           2
           2
           2
           2
           2
           2
           2
           2
           2
           2
           2
           2
           2
           2
           2
           2
           2
           2
           2
           2
           2
           2
           2
           2
           2
           2
           2
           2
           2
           2
           2
           2
           2
           2
           2
           2
           2
           2
           2
           2
           2
           2
           2
           2
           2
           2
           2
           2
           2
           2
           2
           2
           2
           2
           2
           2
           2
           2
           2
           2
           2
           2
           2
           2
           2
           2
           2
           2
           2
           2
           2
           2
           2
           2
           2
           2
           2
           2
           2
           2
           2
           2
           2
           2
           2
           2
           2
           2
           2
           2
           2
           2
           2
           2
           2
           2
           2
           2
           2
           2
           2
           2
           2
           2
           2
           2
           2
           2
           2
           2
           2
           2
           2
           2
           2
           2
           2
           2
           2
           2
           2
           2
           2
           2
           2
           2
           2
           2
           2
           2
           2
           2
           2
           2
           2
           2
           2
           2
           2
           2
           2
           2
           2
           2
           2
           2
           2
           2
           2
           2
           2
           2
           2
           2
           2
           2
           2
           2
           2
           2
           2
           2
           2
           2
           2
           2
           2
           2
           2
           2
           2
           2
           2
           2
           2
           2
           2
           2
           2
           2
           2
           2
           2
           2
           2
           2
           2
           2
           2
           2
           2
           2
           2
           2
           2
           2
           2
           2
           2
           2
           2
           2
           2
           2
           2
           2
           2
           2
           2
           2
           2
           2
           2
           2
           2
           2
           2
           2
           2
           2
           2
           2
           2
           2
</DataArray>
</CellData>
</Piece>
</UnstructuredGrid>
</VTKFile>
