<VTKFile type="UnstructuredGrid" version="1,0" byte_order="LittleEndian">
<UnstructuredGrid>
<Piece NumberOfPoints="5802" NumberOfCells="5680">
<Points>
<DataArray type="Float64" NumberOfComponents="3" format="ascii">
-0.1100000000000E+01 -0.4731587125634E+01  0.0000000000000E+00
 0.0000000000000E+00 -0.4731587125634E+01  0.0000000000000E+00
 0.1100000000000E+01 -0.4731587125634E+01  0.0000000000000E+00
-0.1191315091097E+01 -0.1825930012610E+01  0.0000000000000E+00
-0.5956575398395E+00 -0.1755172846926E+01  0.0000000000000E+00
 0.5956575512579E+00 -0.1755172847830E+01  0.0000000000000E+00
 0.1191315091097E+01 -0.1825930012610E+01  0.0000000000000E+00
-0.1487255332335E+01  0.3711246317436E+00  0.0000000000000E+00
 0.1487255329206E+01  0.3711246337271E+00  0.0000000000000E+00
-0.6187500000000E+00 -0.4973806884503E+00  0.0000000000000E+00
 0.6187500000000E+00 -0.4973806884503E+00  0.0000000000000E+00
-0.1072500000000E+01 -0.4731587125634E+01  0.0000000000000E+00
-0.1045000000000E+01 -0.4731587125634E+01  0.0000000000000E+00
-0.1017500000000E+01 -0.4731587125634E+01  0.0000000000000E+00
-0.9900000000000E+00 -0.4731587125634E+01  0.0000000000000E+00
-0.9625000000000E+00 -0.4731587125634E+01  0.0000000000000E+00
-0.9350000000000E+00 -0.4731587125634E+01  0.0000000000000E+00
-0.9075000000000E+00 -0.4731587125634E+01  0.0000000000000E+00
-0.8800000000000E+00 -0.4731587125634E+01  0.0000000000000E+00
-0.8525000000000E+00 -0.4731587125634E+01  0.0000000000000E+00
-0.8250000000000E+00 -0.4731587125634E+01  0.0000000000000E+00
-0.7975000000000E+00 -0.4731587125634E+01  0.0000000000000E+00
-0.7700000000000E+00 -0.4731587125634E+01  0.0000000000000E+00
-0.7425000000000E+00 -0.4731587125634E+01  0.0000000000000E+00
-0.7150000000000E+00 -0.4731587125634E+01  0.0000000000000E+00
-0.6875000000000E+00 -0.4731587125634E+01  0.0000000000000E+00
-0.6600000000000E+00 -0.4731587125634E+01  0.0000000000000E+00
-0.6325000000000E+00 -0.4731587125634E+01  0.0000000000000E+00
-0.6050000000000E+00 -0.4731587125634E+01  0.0000000000000E+00
-0.5775000000000E+00 -0.4731587125634E+01  0.0000000000000E+00
-0.5500000000000E+00 -0.4731587125634E+01  0.0000000000000E+00
-0.5225000000000E+00 -0.4731587125634E+01  0.0000000000000E+00
-0.4950000000000E+00 -0.4731587125634E+01  0.0000000000000E+00
-0.4675000000000E+00 -0.4731587125634E+01  0.0000000000000E+00
-0.4400000000000E+00 -0.4731587125634E+01  0.0000000000000E+00
-0.4125000000000E+00 -0.4731587125634E+01  0.0000000000000E+00
-0.3850000000000E+00 -0.4731587125634E+01  0.0000000000000E+00
-0.3575000000000E+00 -0.4731587125634E+01  0.0000000000000E+00
-0.3300000000000E+00 -0.4731587125634E+01  0.0000000000000E+00
-0.3025000000000E+00 -0.4731587125634E+01  0.0000000000000E+00
-0.2750000000000E+00 -0.4731587125634E+01  0.0000000000000E+00
-0.2475000000000E+00 -0.4731587125634E+01  0.0000000000000E+00
-0.2200000000000E+00 -0.4731587125634E+01  0.0000000000000E+00
-0.1925000000000E+00 -0.4731587125634E+01  0.0000000000000E+00
-0.1650000000000E+00 -0.4731587125634E+01  0.0000000000000E+00
-0.1375000000000E+00 -0.4731587125634E+01  0.0000000000000E+00
-0.1100000000000E+00 -0.4731587125634E+01  0.0000000000000E+00
-0.8250000000000E-01 -0.4731587125634E+01  0.0000000000000E+00
-0.5500000000000E-01 -0.4731587125634E+01  0.0000000000000E+00
-0.2750000000000E-01 -0.4731587125634E+01  0.0000000000000E+00
 0.2750000000000E-01 -0.4731587125634E+01  0.0000000000000E+00
 0.5500000000000E-01 -0.4731587125634E+01  0.0000000000000E+00
 0.8250000000000E-01 -0.4731587125634E+01  0.0000000000000E+00
 0.1100000000000E+00 -0.4731587125634E+01  0.0000000000000E+00
 0.1375000000000E+00 -0.4731587125634E+01  0.0000000000000E+00
 0.1650000000000E+00 -0.4731587125634E+01  0.0000000000000E+00
 0.1925000000000E+00 -0.4731587125634E+01  0.0000000000000E+00
 0.2200000000000E+00 -0.4731587125634E+01  0.0000000000000E+00
 0.2475000000000E+00 -0.4731587125634E+01  0.0000000000000E+00
 0.2750000000000E+00 -0.4731587125634E+01  0.0000000000000E+00
 0.3025000000000E+00 -0.4731587125634E+01  0.0000000000000E+00
 0.3300000000000E+00 -0.4731587125634E+01  0.0000000000000E+00
 0.3575000000000E+00 -0.4731587125634E+01  0.0000000000000E+00
 0.3850000000000E+00 -0.4731587125634E+01  0.0000000000000E+00
 0.4125000000000E+00 -0.4731587125634E+01  0.0000000000000E+00
 0.4400000000000E+00 -0.4731587125634E+01  0.0000000000000E+00
 0.4675000000000E+00 -0.4731587125634E+01  0.0000000000000E+00
 0.4950000000000E+00 -0.4731587125634E+01  0.0000000000000E+00
 0.5225000000000E+00 -0.4731587125634E+01  0.0000000000000E+00
 0.5500000000000E+00 -0.4731587125634E+01  0.0000000000000E+00
 0.5775000000000E+00 -0.4731587125634E+01  0.0000000000000E+00
 0.6050000000000E+00 -0.4731587125634E+01  0.0000000000000E+00
 0.6325000000000E+00 -0.4731587125634E+01  0.0000000000000E+00
 0.6600000000000E+00 -0.4731587125634E+01  0.0000000000000E+00
 0.6875000000000E+00 -0.4731587125634E+01  0.0000000000000E+00
 0.7150000000000E+00 -0.4731587125634E+01  0.0000000000000E+00
 0.7425000000000E+00 -0.4731587125634E+01  0.0000000000000E+00
 0.7700000000000E+00 -0.4731587125634E+01  0.0000000000000E+00
 0.7975000000000E+00 -0.4731587125634E+01  0.0000000000000E+00
 0.8250000000000E+00 -0.4731587125634E+01  0.0000000000000E+00
 0.8525000000000E+00 -0.4731587125634E+01  0.0000000000000E+00
 0.8800000000000E+00 -0.4731587125634E+01  0.0000000000000E+00
 0.9075000000000E+00 -0.4731587125634E+01  0.0000000000000E+00
 0.9350000000000E+00 -0.4731587125634E+01  0.0000000000000E+00
 0.9625000000000E+00 -0.4731587125634E+01  0.0000000000000E+00
 0.9900000000000E+00 -0.4731587125634E+01  0.0000000000000E+00
 0.1017500000000E+01 -0.4731587125634E+01  0.0000000000000E+00
 0.1045000000000E+01 -0.4731587125634E+01  0.0000000000000E+00
 0.1072500000000E+01 -0.4731587125634E+01  0.0000000000000E+00
-0.1161675590434E+01 -0.1821293974842E+01  0.0000000000000E+00
-0.1132018469080E+01 -0.1816772081031E+01  0.0000000000000E+00
-0.1102344135527E+01 -0.1812364599475E+01  0.0000000000000E+00
-0.1072653001422E+01 -0.1808071792594E+01  0.0000000000000E+00
-0.1042945459471E+01 -0.1803893913795E+01  0.0000000000000E+00
-0.1013221952450E+01 -0.1799831217138E+01  0.0000000000000E+00
-0.9834829017084E+00 -0.1795883946982E+01  0.0000000000000E+00
-0.9537287316532E+00 -0.1792052341512E+01  0.0000000000000E+00
-0.9239598612408E+00 -0.1788336631619E+01  0.0000000000000E+00
-0.8941767210493E+00 -0.1784737043031E+01  0.0000000000000E+00
-0.8643797539566E+00 -0.1781253796152E+01  0.0000000000000E+00
-0.8345693957871E+00 -0.1777887103664E+01  0.0000000000000E+00
-0.8047460850418E+00 -0.1774637171701E+01  0.0000000000000E+00
-0.7749102599775E+00 -0.1771504199483E+01  0.0000000000000E+00
-0.7450623578572E+00 -0.1768488379244E+01  0.0000000000000E+00
-0.7152028352234E+00 -0.1765589898169E+01  0.0000000000000E+00
-0.6853321404180E+00 -0.1762808935500E+01  0.0000000000000E+00
-0.6554507240472E+00 -0.1760145663610E+01  0.0000000000000E+00
-0.6255590388957E+00 -0.1757600247935E+01  0.0000000000000E+00
-0.5659320403842E+00 -0.1752877555980E+01  0.0000000000000E+00
-0.5361977827764E+00 -0.1750699115345E+01  0.0000000000000E+00
-0.5064551822954E+00 -0.1748637656849E+01  0.0000000000000E+00
-0.4767046834532E+00 -0.1746693307634E+01  0.0000000000000E+00
-0.4469467825907E+00 -0.1744866190914E+01  0.0000000000000E+00
-0.4171818756954E+00 -0.1743156416506E+01  0.0000000000000E+00
-0.3874104734057E+00 -0.1741564093885E+01  0.0000000000000E+00
-0.3576330176963E+00 -0.1740089321191E+01  0.0000000000000E+00
-0.3278499563594E+00 -0.1738732189839E+01  0.0000000000000E+00
-0.2980617833702E+00 -0.1737492785992E+01  0.0000000000000E+00
-0.2682689204519E+00 -0.1736371185422E+01  0.0000000000000E+00
-0.2384718656336E+00 -0.1735367459648E+01  0.0000000000000E+00
-0.2086710716336E+00 -0.1734481671049E+01  0.0000000000000E+00
-0.1788669979735E+00 -0.1733713874997E+01  0.0000000000000E+00
-0.1490601279746E+00 -0.1733064120054E+01  0.0000000000000E+00
-0.1192509059245E+00 -0.1732532446511E+01  0.0000000000000E+00
-0.8943981808141E-01 -0.1732118888112E+01  0.0000000000000E+00
-0.5962732433722E-01 -0.1731823470688E+01  0.0000000000000E+00
-0.2981389296327E-01 -0.1731646212812E+01  0.0000000000000E+00
 0.5727055524263E-08 -0.1731587125634E+01  0.0000000000000E+00
 0.2981390441730E-01 -0.1731646212857E+01  0.0000000000000E+00
 0.5962733579097E-01 -0.1731823470779E+01  0.0000000000000E+00
 0.8943982953471E-01 -0.1732118888248E+01  0.0000000000000E+00
 0.1192509173772E+00 -0.1732532446692E+01  0.0000000000000E+00
 0.1490601394265E+00 -0.1733064120281E+01  0.0000000000000E+00
 0.1788670094244E+00 -0.1733713875269E+01  0.0000000000000E+00
 0.2086710830833E+00 -0.1734481671367E+01  0.0000000000000E+00
 0.2384718770819E+00 -0.1735367460011E+01  0.0000000000000E+00
 0.2682689318987E+00 -0.1736371185830E+01  0.0000000000000E+00
 0.2980617948153E+00 -0.1737492786445E+01  0.0000000000000E+00
 0.3278499678026E+00 -0.1738732190338E+01  0.0000000000000E+00
 0.3576330291375E+00 -0.1740089321735E+01  0.0000000000000E+00
 0.3874104848446E+00 -0.1741564094474E+01  0.0000000000000E+00
 0.4171818871319E+00 -0.1743156417141E+01  0.0000000000000E+00
 0.4469467940246E+00 -0.1744866191594E+01  0.0000000000000E+00
 0.4767046948843E+00 -0.1746693308359E+01  0.0000000000000E+00
 0.5064551937236E+00 -0.1748637657619E+01  0.0000000000000E+00
 0.5361977942015E+00 -0.1750699116160E+01  0.0000000000000E+00
 0.5659320518060E+00 -0.1752877556840E+01  0.0000000000000E+00
 0.6255590497397E+00 -0.1757600248837E+01  0.0000000000000E+00
 0.6554507343169E+00 -0.1760145664505E+01  0.0000000000000E+00
 0.6853321501138E+00 -0.1762808936384E+01  0.0000000000000E+00
 0.7152028443456E+00 -0.1765589899036E+01  0.0000000000000E+00
 0.7450623664059E+00 -0.1768488380091E+01  0.0000000000000E+00
 0.7749102679531E+00 -0.1771504200305E+01  0.0000000000000E+00
 0.8047460924447E+00 -0.1774637172493E+01  0.0000000000000E+00
 0.8345694026177E+00 -0.1777887104422E+01  0.0000000000000E+00
 0.8643797602152E+00 -0.1781253796871E+01  0.0000000000000E+00
 0.8941767267363E+00 -0.1784737043707E+01  0.0000000000000E+00
 0.9239598663567E+00 -0.1788336632248E+01  0.0000000000000E+00
 0.9537287361985E+00 -0.1792052342089E+01  0.0000000000000E+00
 0.9834829056835E+00 -0.1795883947502E+01  0.0000000000000E+00
 0.1013221955855E+01 -0.1799831217596E+01  0.0000000000000E+00
 0.1042945462307E+01 -0.1803893914188E+01  0.0000000000000E+00
 0.1072653003690E+01 -0.1808071792917E+01  0.0000000000000E+00
 0.1102344137227E+01 -0.1812364599724E+01  0.0000000000000E+00
 0.1132018470213E+01 -0.1816772081202E+01  0.0000000000000E+00
 0.1161675591000E+01 -0.1821293974929E+01  0.0000000000000E+00
-0.1213355268613E+01 -0.1711966308233E+01  0.0000000000000E+00
-0.1238854526170E+01 -0.1598727811073E+01  0.0000000000000E+00
-0.1268466688037E+01 -0.1486497481512E+01  0.0000000000000E+00
-0.1303342965295E+01 -0.1375796643044E+01  0.0000000000000E+00
-0.1345040310075E+01 -0.1267489592785E+01  0.0000000000000E+00
-0.1392581470401E+01 -0.1161597043208E+01  0.0000000000000E+00
-0.1439083524730E+01 -0.1055246799568E+01  0.0000000000000E+00
-0.1480944100518E+01 -0.9469891138312E+00  0.0000000000000E+00
-0.1518131836329E+01 -0.8370360644333E+00  0.0000000000000E+00
-0.1551041415331E+01 -0.7257267337723E+00  0.0000000000000E+00
-0.1579720048034E+01 -0.6132533876738E+00  0.0000000000000E+00
-0.1603836412081E+01 -0.4997150980206E+00  0.0000000000000E+00
-0.1623384157755E+01 -0.3853015140723E+00  0.0000000000000E+00
-0.1638101487121E+01 -0.2701686503839E+00  0.0000000000000E+00
-0.1647164985397E+01 -0.1544579176162E+00  0.0000000000000E+00
-0.1649971232607E+01 -0.3842453929912E-01  0.0000000000000E+00
-0.1647980696334E+01  0.7761284988695E-01  0.0000000000000E+00
-0.1626874369891E+01  0.1914362508587E+00  0.0000000000000E+00
-0.1572796829836E+01  0.2935193328390E+00  0.0000000000000E+00
-0.1418305908641E+01  0.4022416062919E+00  0.0000000000000E+00
-0.1345676864211E+01  0.4236315892164E+00  0.0000000000000E+00
-0.1271121572232E+01  0.4368480112286E+00  0.0000000000000E+00
-0.1195563418735E+01  0.4416990799735E+00  0.0000000000000E+00
-0.1119906317278E+01  0.4384406277265E+00  0.0000000000000E+00
-0.1044756289719E+01  0.4290110284082E+00  0.0000000000000E+00
-0.9703274447726E+00  0.4149459401020E+00  0.0000000000000E+00
-0.8965853652262E+00  0.3976148229097E+00  0.0000000000000E+00
-0.8232882160705E+00  0.3784769972153E+00  0.0000000000000E+00
-0.7500778072402E+00  0.3590082550316E+00  0.0000000000000E+00
-0.6765282087393E+00  0.3408715871599E+00  0.0000000000000E+00
-0.6024721689929E+00  0.3249314759684E+00  0.0000000000000E+00
-0.5279626734789E+00  0.3112660660816E+00  0.0000000000000E+00
-0.4530942500529E+00  0.2997252351383E+00  0.0000000000000E+00
-0.3779502175627E+00  0.2901382908398E+00  0.0000000000000E+00
-0.3025960047097E+00  0.2823699994777E+00  0.0000000000000E+00
-0.2270833670538E+00  0.2763314545000E+00  0.0000000000000E+00
-0.1514548639988E+00  0.2719804032214E+00  0.0000000000000E+00
-0.7574795049362E-01  0.2693218404769E+00  0.0000000000000E+00
-0.1822076423075E-08  0.2684128743665E+00  0.0000000000000E+00
 0.7574794685078E-01  0.2693218403904E+00  0.0000000000000E+00
 0.1514548603582E+00  0.2719804030525E+00  0.0000000000000E+00
 0.2270833634172E+00  0.2763314542500E+00  0.0000000000000E+00
 0.3025960010827E+00  0.2823699991460E+00  0.0000000000000E+00
 0.3779502139414E+00  0.2901382904224E+00  0.0000000000000E+00
 0.4530942464462E+00  0.2997252346305E+00  0.0000000000000E+00
 0.5279626698826E+00  0.3112660654745E+00  0.0000000000000E+00
 0.6024721654224E+00  0.3249314752557E+00  0.0000000000000E+00
 0.6765282051910E+00  0.3408715863362E+00  0.0000000000000E+00
 0.7500778037128E+00  0.3590082541141E+00  0.0000000000000E+00
 0.8232882125500E+00  0.3784769962749E+00  0.0000000000000E+00
 0.8965853616918E+00  0.3976148220208E+00  0.0000000000000E+00
 0.9703274412081E+00  0.4149459393403E+00  0.0000000000000E+00
 0.1044756286115E+01  0.4290110278460E+00  0.0000000000000E+00
 0.1119906313643E+01  0.4384406274322E+00  0.0000000000000E+00
 0.1195563415086E+01  0.4416990800252E+00  0.0000000000000E+00
 0.1271121568610E+01  0.4368480116963E+00  0.0000000000000E+00
 0.1345676860666E+01  0.4236315901228E+00  0.0000000000000E+00
 0.1418305905243E+01  0.4022416076848E+00  0.0000000000000E+00
 0.1572796827692E+01  0.2935193356292E+00  0.0000000000000E+00
 0.1626874368892E+01  0.1914362540528E+00  0.0000000000000E+00
 0.1647980696148E+01  0.7761285305478E-01  0.0000000000000E+00
 0.1649971232614E+01 -0.3842453631130E-01  0.0000000000000E+00
 0.1647164985510E+01 -0.1544579148168E+00  0.0000000000000E+00
 0.1638101487343E+01 -0.2701686477783E+00  0.0000000000000E+00
 0.1623384158054E+01 -0.3853015116666E+00  0.0000000000000E+00
 0.1603836412438E+01 -0.4997150958130E+00  0.0000000000000E+00
 0.1579720048441E+01 -0.6132533856674E+00  0.0000000000000E+00
 0.1551041415774E+01 -0.7257267319674E+00  0.0000000000000E+00
 0.1518131836796E+01 -0.8370360628288E+00  0.0000000000000E+00
 0.1480944100999E+01 -0.9469891124298E+00  0.0000000000000E+00
 0.1439083525216E+01 -0.1055246798366E+01  0.0000000000000E+00
 0.1392581470861E+01 -0.1161597042198E+01  0.0000000000000E+00
 0.1345040310428E+01 -0.1267489591933E+01  0.0000000000000E+00
 0.1303342965506E+01 -0.1375796642335E+01  0.0000000000000E+00
 0.1268466688140E+01 -0.1486497480965E+01  0.0000000000000E+00
 0.1238854526204E+01 -0.1598727810699E+01  0.0000000000000E+00
 0.1213355268613E+01 -0.1711966308043E+01  0.0000000000000E+00
-0.1100000000000E+01 -0.4660595750534E+01  0.0000000000000E+00
-0.1100000000000E+01 -0.4589604523337E+01  0.0000000000000E+00
-0.1100000000000E+01 -0.4518612860194E+01  0.0000000000000E+00
-0.1100000000000E+01 -0.4447621396074E+01  0.0000000000000E+00
-0.1100000000000E+01 -0.4376629946073E+01  0.0000000000000E+00
-0.1100000000000E+01 -0.4305638469395E+01  0.0000000000000E+00
-0.1100000000000E+01 -0.4234647034675E+01  0.0000000000000E+00
-0.1100000000000E+01 -0.4163655573930E+01  0.0000000000000E+00
-0.1100000000000E+01 -0.4092664118400E+01  0.0000000000000E+00
-0.1100000000000E+01 -0.4021672670707E+01  0.0000000000000E+00
-0.1100000000000E+01 -0.3950681208157E+01  0.0000000000000E+00
-0.1100000000000E+01 -0.3879689768887E+01  0.0000000000000E+00
-0.1100000000000E+01 -0.3808698298634E+01  0.0000000000000E+00
-0.1100000000000E+01 -0.3737706770464E+01  0.0000000000000E+00
-0.1100000000000E+01 -0.3666715262498E+01  0.0000000000000E+00
-0.1100000000000E+01 -0.3595723839456E+01  0.0000000000000E+00
-0.1100000000000E+01 -0.3524731789668E+01  0.0000000000000E+00
-0.1100000000000E+01 -0.3453740926047E+01  0.0000000000000E+00
-0.1100000000000E+01 -0.3382749460249E+01  0.0000000000000E+00
-0.1100000000000E+01 -0.3311758072240E+01  0.0000000000000E+00
-0.1100000000000E+01 -0.3240766774652E+01  0.0000000000000E+00
-0.1100000000000E+01 -0.3169775441240E+01  0.0000000000000E+00
-0.1100000000000E+01 -0.3098784076079E+01  0.0000000000000E+00
-0.1100019380481E+01 -0.3027792649889E+01  0.0000000000000E+00
-0.1100182969515E+01 -0.2956801452749E+01  0.0000000000000E+00
-0.1100664097718E+01 -0.2885811820573E+01  0.0000000000000E+00
-0.1101620767933E+01 -0.2814827030427E+01  0.0000000000000E+00
-0.1103169283693E+01 -0.2743852764288E+01  0.0000000000000E+00
-0.1105384238767E+01 -0.2672896168192E+01  0.0000000000000E+00
-0.1108313328915E+01 -0.2601965572023E+01  0.0000000000000E+00
-0.1111994457710E+01 -0.2531069964563E+01  0.0000000000000E+00
-0.1116470504631E+01 -0.2460220060781E+01  0.0000000000000E+00
-0.1121800458045E+01 -0.2389429442476E+01  0.0000000000000E+00
-0.1127980999498E+01 -0.2318707927775E+01  0.0000000000000E+00
-0.1134925652832E+01 -0.2248057274554E+01  0.0000000000000E+00
-0.1142572685777E+01 -0.2177479159635E+01  0.0000000000000E+00
-0.1150886195216E+01 -0.2106976362838E+01  0.0000000000000E+00
-0.1159854464778E+01 -0.2036553785977E+01  0.0000000000000E+00
-0.1169495475345E+01 -0.1966220321347E+01  0.0000000000000E+00
-0.1179881536539E+01 -0.1895993177716E+01  0.0000000000000E+00
 0.1179881536541E+01 -0.1895993177715E+01  0.0000000000000E+00
 0.1169495475345E+01 -0.1966220321347E+01  0.0000000000000E+00
 0.1159854464777E+01 -0.2036553785977E+01  0.0000000000000E+00
 0.1150886195214E+01 -0.2106976362838E+01  0.0000000000000E+00
 0.1142572685775E+01 -0.2177479159635E+01  0.0000000000000E+00
 0.1134925652830E+01 -0.2248057274554E+01  0.0000000000000E+00
 0.1127980999496E+01 -0.2318707927775E+01  0.0000000000000E+00
 0.1121800458043E+01 -0.2389429442476E+01  0.0000000000000E+00
 0.1116470504629E+01 -0.2460220060781E+01  0.0000000000000E+00
 0.1111994457707E+01 -0.2531069964563E+01  0.0000000000000E+00
 0.1108313328912E+01 -0.2601965572023E+01  0.0000000000000E+00
 0.1105384238765E+01 -0.2672896168191E+01  0.0000000000000E+00
 0.1103169283691E+01 -0.2743852764287E+01  0.0000000000000E+00
 0.1101620767933E+01 -0.2814827030427E+01  0.0000000000000E+00
 0.1100664097717E+01 -0.2885811820573E+01  0.0000000000000E+00
 0.1100182969515E+01 -0.2956801452748E+01  0.0000000000000E+00
 0.1100019380481E+01 -0.3027792649889E+01  0.0000000000000E+00
 0.1100000000000E+01 -0.3098784076079E+01  0.0000000000000E+00
 0.1100000000000E+01 -0.3169775441240E+01  0.0000000000000E+00
 0.1100000000000E+01 -0.3240766774652E+01  0.0000000000000E+00
 0.1100000000000E+01 -0.3311758072240E+01  0.0000000000000E+00
 0.1100000000000E+01 -0.3382749460249E+01  0.0000000000000E+00
 0.1100000000000E+01 -0.3453740926047E+01  0.0000000000000E+00
 0.1100000000000E+01 -0.3524731789668E+01  0.0000000000000E+00
 0.1100000000000E+01 -0.3595723839456E+01  0.0000000000000E+00
 0.1100000000000E+01 -0.3666715262498E+01  0.0000000000000E+00
 0.1100000000000E+01 -0.3737706770464E+01  0.0000000000000E+00
 0.1100000000000E+01 -0.3808698298633E+01  0.0000000000000E+00
 0.1100000000000E+01 -0.3879689768887E+01  0.0000000000000E+00
 0.1100000000000E+01 -0.3950681208157E+01  0.0000000000000E+00
 0.1100000000000E+01 -0.4021672670707E+01  0.0000000000000E+00
 0.1100000000000E+01 -0.4092664118399E+01  0.0000000000000E+00
 0.1100000000000E+01 -0.4163655573930E+01  0.0000000000000E+00
 0.1100000000000E+01 -0.4234647034675E+01  0.0000000000000E+00
 0.1100000000000E+01 -0.4305638469395E+01  0.0000000000000E+00
 0.1100000000000E+01 -0.4376629946073E+01  0.0000000000000E+00
 0.1100000000000E+01 -0.4447621396074E+01  0.0000000000000E+00
 0.1100000000000E+01 -0.4518612860194E+01  0.0000000000000E+00
 0.1100000000000E+01 -0.4589604523337E+01  0.0000000000000E+00
 0.1100000000000E+01 -0.4660595750534E+01  0.0000000000000E+00
-0.5884638695905E+00 -0.4894641513885E+00  0.0000000000000E+00
-0.5580825246164E+00 -0.4819218154218E+00  0.0000000000000E+00
-0.5276095633171E+00 -0.4747582607812E+00  0.0000000000000E+00
-0.4970490688930E+00 -0.4679779933456E+00  0.0000000000000E+00
-0.4664052113280E+00 -0.4615853306416E+00  0.0000000000000E+00
-0.4356821841498E+00 -0.4555843826271E+00  0.0000000000000E+00
-0.4048845338533E+00 -0.4499791064130E+00  0.0000000000000E+00
-0.3740168397343E+00 -0.4447732294152E+00  0.0000000000000E+00
-0.3430839130773E+00 -0.4399702753278E+00  0.0000000000000E+00
-0.3120906320172E+00 -0.4355735248917E+00  0.0000000000000E+00
-0.2810420500145E+00 -0.4315860232937E+00  0.0000000000000E+00
-0.2499433335888E+00 -0.4280105603977E+00  0.0000000000000E+00
-0.2187997508610E+00 -0.4248496608797E+00  0.0000000000000E+00
-0.1876166729319E+00 -0.4221055764161E+00  0.0000000000000E+00
-0.1563995773423E+00 -0.4197802779940E+00  0.0000000000000E+00
-0.1251540094126E+00 -0.4178754457584E+00  0.0000000000000E+00
-0.9388558172344E-01 -0.4163924636598E+00  0.0000000000000E+00
-0.6259996113275E-01 -0.4153324139295E+00  0.0000000000000E+00
-0.3130285547239E-01 -0.4146960727333E+00  0.0000000000000E+00
-0.2220446049250E-15 -0.4144839070419E+00  0.0000000000000E+00
 0.3130285547239E-01 -0.4146960727333E+00  0.0000000000000E+00
 0.6259996113275E-01 -0.4153324139295E+00  0.0000000000000E+00
 0.9388558172344E-01 -0.4163924636598E+00  0.0000000000000E+00
 0.1251540094126E+00 -0.4178754457584E+00  0.0000000000000E+00
 0.1563995773423E+00 -0.4197802779940E+00  0.0000000000000E+00
 0.1876166729319E+00 -0.4221055764161E+00  0.0000000000000E+00
 0.2187997508610E+00 -0.4248496608797E+00  0.0000000000000E+00
 0.2499433335888E+00 -0.4280105603977E+00  0.0000000000000E+00
 0.2810420500145E+00 -0.4315860232937E+00  0.0000000000000E+00
 0.3120906320172E+00 -0.4355735248917E+00  0.0000000000000E+00
 0.3430839130773E+00 -0.4399702753278E+00  0.0000000000000E+00
 0.3740168397343E+00 -0.4447732294152E+00  0.0000000000000E+00
 0.4048845338533E+00 -0.4499791064130E+00  0.0000000000000E+00
 0.4356821841498E+00 -0.4555843826271E+00  0.0000000000000E+00
 0.4664052113280E+00 -0.4615853306416E+00  0.0000000000000E+00
 0.4970490688930E+00 -0.4679779933456E+00  0.0000000000000E+00
 0.5276095633171E+00 -0.4747582607812E+00  0.0000000000000E+00
 0.5580825246164E+00 -0.4819218154218E+00  0.0000000000000E+00
 0.5884638695905E+00 -0.4894641513885E+00  0.0000000000000E+00
-0.6186694182519E+00 -0.5602854202626E+00  0.0000000000000E+00
-0.6184121778050E+00 -0.6231895804302E+00  0.0000000000000E+00
-0.6179522181120E+00 -0.6860925653381E+00  0.0000000000000E+00
-0.6172599449830E+00 -0.7489933811583E+00  0.0000000000000E+00
-0.6163035973388E+00 -0.8118907743073E+00  0.0000000000000E+00
-0.6150531470475E+00 -0.8747829429232E+00  0.0000000000000E+00
-0.6134887983150E+00 -0.9376681601377E+00  0.0000000000000E+00
-0.6116160329111E+00 -0.1000544889820E+01  0.0000000000000E+00
-0.6094851916442E+00 -0.1063413466424E+01  0.0000000000000E+00
-0.6072037720657E+00 -0.1126276767718E+01  0.0000000000000E+00
-0.6049223524117E+00 -0.1189140069010E+01  0.0000000000000E+00
-0.6027915109277E+00 -0.1252008645607E+01  0.0000000000000E+00
-0.6009187451903E+00 -0.1314885375279E+01  0.0000000000000E+00
-0.5993543960372E+00 -0.1377770592483E+01  0.0000000000000E+00
-0.5981039452651E+00 -0.1440662761090E+01  0.0000000000000E+00
-0.5971475971003E+00 -0.1503560154231E+01  0.0000000000000E+00
-0.5964553234260E+00 -0.1566460970045E+01  0.0000000000000E+00
-0.5959953631729E+00 -0.1629363954949E+01  0.0000000000000E+00
-0.5957381221583E+00 -0.1692268115114E+01  0.0000000000000E+00
 0.6186694182523E+00 -0.5602854202973E+00  0.0000000000000E+00
 0.6184121778088E+00 -0.6231895804997E+00  0.0000000000000E+00
 0.6179522181269E+00 -0.6860925654424E+00  0.0000000000000E+00
 0.6172599450237E+00 -0.7489933812976E+00  0.0000000000000E+00
 0.6163035974300E+00 -0.8118907744820E+00  0.0000000000000E+00
 0.6150531472289E+00 -0.8747829431345E+00  0.0000000000000E+00
 0.6134887986468E+00 -0.9376681603875E+00  0.0000000000000E+00
 0.6116160334801E+00 -0.1000544890112E+01  0.0000000000000E+00
 0.6094851925666E+00 -0.1063413466762E+01  0.0000000000000E+00
 0.6072037734828E+00 -0.1126276768110E+01  0.0000000000000E+00
 0.6049223544747E+00 -0.1189140069460E+01  0.0000000000000E+00
 0.6027915137782E+00 -0.1252008646118E+01  0.0000000000000E+00
 0.6009187489451E+00 -0.1314885375852E+01  0.0000000000000E+00
 0.5993544007835E+00 -0.1377770593115E+01  0.0000000000000E+00
 0.5981039510633E+00 -0.1440662761777E+01  0.0000000000000E+00
 0.5971476039902E+00 -0.1503560154969E+01  0.0000000000000E+00
 0.5964553314325E+00 -0.1566460970831E+01  0.0000000000000E+00
 0.5959953723106E+00 -0.1629363955777E+01  0.0000000000000E+00
 0.5957381324349E+00 -0.1692268115982E+01  0.0000000000000E+00
-0.6621752666167E+00 -0.4539554224406E+00  0.0000000000000E+00
-0.7056005332335E+00 -0.4105301564309E+00  0.0000000000000E+00
-0.7490257998502E+00 -0.3671048904212E+00  0.0000000000000E+00
-0.7924510664670E+00 -0.3236796244115E+00  0.0000000000000E+00
-0.8358763330837E+00 -0.2802543584018E+00  0.0000000000000E+00
-0.8793015997004E+00 -0.2368290923921E+00  0.0000000000000E+00
-0.9227268663172E+00 -0.1934038263824E+00  0.0000000000000E+00
-0.9661521329339E+00 -0.1499785603727E+00  0.0000000000000E+00
-0.1009577399551E+01 -0.1065532943630E+00  0.0000000000000E+00
-0.1053002666167E+01 -0.6312802835334E-01  0.0000000000000E+00
-0.1096427932784E+01 -0.1970276234365E-01  0.0000000000000E+00
-0.1139853199401E+01  0.2372250366604E-01  0.0000000000000E+00
-0.1183278466018E+01  0.6714776967573E-01  0.0000000000000E+00
-0.1226703732634E+01  0.1105730356854E+00  0.0000000000000E+00
-0.1270128999251E+01  0.1539983016951E+00  0.0000000000000E+00
-0.1313554265868E+01  0.1974235677048E+00  0.0000000000000E+00
-0.1356979532485E+01  0.2408488337145E+00  0.0000000000000E+00
-0.1400404799101E+01  0.2842740997242E+00  0.0000000000000E+00
-0.1443830065718E+01  0.3276993657339E+00  0.0000000000000E+00
 0.6621752664603E+00 -0.4539554223414E+00  0.0000000000000E+00
 0.7056005329206E+00 -0.4105301562325E+00  0.0000000000000E+00
 0.7490257993809E+00 -0.3671048901237E+00  0.0000000000000E+00
 0.7924510658412E+00 -0.3236796240148E+00  0.0000000000000E+00
 0.8358763323015E+00 -0.2802543579059E+00  0.0000000000000E+00
 0.8793015987618E+00 -0.2368290917971E+00  0.0000000000000E+00
 0.9227268652221E+00 -0.1934038256882E+00  0.0000000000000E+00
 0.9661521316824E+00 -0.1499785595793E+00  0.0000000000000E+00
 0.1009577398143E+01 -0.1065532934705E+00  0.0000000000000E+00
 0.1053002664603E+01 -0.6312802736160E-01  0.0000000000000E+00
 0.1096427931063E+01 -0.1970276125273E-01  0.0000000000000E+00
 0.1139853197524E+01  0.2372250485614E-01  0.0000000000000E+00
 0.1183278463984E+01  0.6714777096501E-01  0.0000000000000E+00
 0.1226703730444E+01  0.1105730370739E+00  0.0000000000000E+00
 0.1270128996905E+01  0.1539983031827E+00  0.0000000000000E+00
 0.1313554263365E+01  0.1974235692916E+00  0.0000000000000E+00
 0.1356979529825E+01  0.2408488354005E+00  0.0000000000000E+00
 0.1400404796285E+01  0.2842741015093E+00  0.0000000000000E+00
 0.1443830062746E+01  0.3276993676182E+00  0.0000000000000E+00
-0.1072503587165E+01 -0.4660482676314E+01  0.0000000000000E+00
-0.1072507174322E+01 -0.4589378375132E+01  0.0000000000000E+00
-0.1072510761501E+01 -0.4518273637310E+01  0.0000000000000E+00
-0.1072514348670E+01 -0.4447169098828E+01  0.0000000000000E+00
-0.1072517935839E+01 -0.4376064574487E+01  0.0000000000000E+00
-0.1072521523008E+01 -0.4304960023427E+01  0.0000000000000E+00
-0.1072525110176E+01 -0.4233855514392E+01  0.0000000000000E+00
-0.1072528697345E+01 -0.4162750979291E+01  0.0000000000000E+00
-0.1072532284514E+01 -0.4091646449412E+01  0.0000000000000E+00
-0.1072535871682E+01 -0.4020541927384E+01  0.0000000000000E+00
-0.1072539458851E+01 -0.3949437390474E+01  0.0000000000000E+00
-0.1072543046019E+01 -0.3878332876881E+01  0.0000000000000E+00
-0.1072546633189E+01 -0.3807228332256E+01  0.0000000000000E+00
-0.1072550220361E+01 -0.3736123729622E+01  0.0000000000000E+00
-0.1072553807532E+01 -0.3665019147225E+01  0.0000000000000E+00
-0.1072557394699E+01 -0.3593914649887E+01  0.0000000000000E+00
-0.1072560981898E+01 -0.3522809524803E+01  0.0000000000000E+00
-0.1072564569037E+01 -0.3451705587777E+01  0.0000000000000E+00
-0.1072568156206E+01 -0.3380601047615E+01  0.0000000000000E+00
-0.1072571743371E+01 -0.3309496585365E+01  0.0000000000000E+00
-0.1072575330532E+01 -0.3238392213680E+01  0.0000000000000E+00
-0.1072578917695E+01 -0.3167287806114E+01  0.0000000000000E+00
-0.1072582504859E+01 -0.3096183366749E+01  0.0000000000000E+00
-0.1072604987210E+01 -0.3025078866253E+01  0.0000000000000E+00
-0.1072768067061E+01 -0.2953974594875E+01  0.0000000000000E+00
-0.1073240734738E+01 -0.2882871888659E+01  0.0000000000000E+00
-0.1074177036625E+01 -0.2811774024513E+01  0.0000000000000E+00
-0.1075690363951E+01 -0.2740686684501E+01  0.0000000000000E+00
-0.1077853442627E+01 -0.2669617014531E+01  0.0000000000000E+00
-0.1080712774083E+01 -0.2598573344661E+01  0.0000000000000E+00
-0.1084305312776E+01 -0.2527564663401E+01  0.0000000000000E+00
-0.1088672864462E+01 -0.2456601685752E+01  0.0000000000000E+00
-0.1093872940397E+01 -0.2385697993847E+01  0.0000000000000E+00
-0.1099902305238E+01 -0.2314863405415E+01  0.0000000000000E+00
-0.1106676648231E+01 -0.2244099678337E+01  0.0000000000000E+00
-0.1114135782912E+01 -0.2173408489510E+01  0.0000000000000E+00
-0.1122244705194E+01 -0.2102792618679E+01  0.0000000000000E+00
-0.1130991992091E+01 -0.2032256967667E+01  0.0000000000000E+00
-0.1140395174223E+01 -0.1961810429153E+01  0.0000000000000E+00
-0.1150524750544E+01 -0.1891470211900E+01  0.0000000000000E+00
-0.1045006744548E+01 -0.4660372386096E+01  0.0000000000000E+00
-0.1045013489082E+01 -0.4589157794926E+01  0.0000000000000E+00
-0.1045020233658E+01 -0.4517942766438E+01  0.0000000000000E+00
-0.1045026978215E+01 -0.4446727937600E+01  0.0000000000000E+00
-0.1045033722770E+01 -0.4375513122924E+01  0.0000000000000E+00
-0.1045040467328E+01 -0.4304298281489E+01  0.0000000000000E+00
-0.1045047211882E+01 -0.4233083482143E+01  0.0000000000000E+00
-0.1045053956438E+01 -0.4161868656690E+01  0.0000000000000E+00
-0.1045060700994E+01 -0.4090653836468E+01  0.0000000000000E+00
-0.1045067445549E+01 -0.4019439024110E+01  0.0000000000000E+00
-0.1045074190105E+01 -0.3948224196846E+01  0.0000000000000E+00
-0.1045080934660E+01 -0.3877009392935E+01  0.0000000000000E+00
-0.1045087679217E+01 -0.3805794557944E+01  0.0000000000000E+00
-0.1045094423780E+01 -0.3734579664855E+01  0.0000000000000E+00
-0.1045101168341E+01 -0.3663364792032E+01  0.0000000000000E+00
-0.1045107912893E+01 -0.3592150004402E+01  0.0000000000000E+00
-0.1045114657506E+01 -0.3520934588052E+01  0.0000000000000E+00
-0.1045121402005E+01 -0.3449720361602E+01  0.0000000000000E+00
-0.1045128146562E+01 -0.3378505531081E+01  0.0000000000000E+00
-0.1045134891112E+01 -0.3307290778593E+01  0.0000000000000E+00
-0.1045141635652E+01 -0.3236076116811E+01  0.0000000000000E+00
-0.1045148380197E+01 -0.3164861419091E+01  0.0000000000000E+00
-0.1045155124744E+01 -0.3093646689524E+01  0.0000000000000E+00
-0.1045180279185E+01 -0.3022431898726E+01  0.0000000000000E+00
-0.1045342420071E+01 -0.2951217337114E+01  0.0000000000000E+00
-0.1045806197445E+01 -0.2880004340854E+01  0.0000000000000E+00
-0.1046721701225E+01 -0.2808796186706E+01  0.0000000000000E+00
-0.1048199410343E+01 -0.2737598556815E+01  0.0000000000000E+00
-0.1050310182850E+01 -0.2666418596963E+01  0.0000000000000E+00
-0.1053099325844E+01 -0.2595264637382E+01  0.0000000000000E+00
-0.1056602844668E+01 -0.2524145666314E+01  0.0000000000000E+00
-0.1060861471353E+01 -0.2453072398792E+01  0.0000000000000E+00
-0.1065931240050E+01 -0.2382058417274E+01  0.0000000000000E+00
-0.1071808998522E+01 -0.2311113539101E+01  0.0000000000000E+00
-0.1078412601419E+01 -0.2240239522158E+01  0.0000000000000E+00
-0.1085683408080E+01 -0.2169438043419E+01  0.0000000000000E+00
-0.1093587313453E+01 -0.2098711882551E+01  0.0000000000000E+00
-0.1102113187936E+01 -0.2028065941388E+01  0.0000000000000E+00
-0.1111278111887E+01 -0.1957509112984E+01  0.0000000000000E+00
-0.1121150773592E+01 -0.1887058606097E+01  0.0000000000000E+00
-0.1017509482115E+01 -0.4660264886424E+01  0.0000000000000E+00
-0.1017518964210E+01 -0.4588942795806E+01  0.0000000000000E+00
-0.1017528446364E+01 -0.4517620267209E+01  0.0000000000000E+00
-0.1017537928491E+01 -0.4446297938565E+01  0.0000000000000E+00
-0.1017547410616E+01 -0.4374975624103E+01  0.0000000000000E+00
-0.1017556892744E+01 -0.4303653282842E+01  0.0000000000000E+00
-0.1017566374867E+01 -0.4232330983734E+01  0.0000000000000E+00
-0.1017575856993E+01 -0.4161008658479E+01  0.0000000000000E+00
-0.1017585339119E+01 -0.4089686338463E+01  0.0000000000000E+00
-0.1017594821244E+01 -0.4018364026323E+01  0.0000000000000E+00
-0.1017604303371E+01 -0.3947041699254E+01  0.0000000000000E+00
-0.1017613785494E+01 -0.3875719395574E+01  0.0000000000000E+00
-0.1017623267622E+01 -0.3804397060767E+01  0.0000000000000E+00
-0.1017632749757E+01 -0.3733074667774E+01  0.0000000000000E+00
-0.1017642231890E+01 -0.3661752295078E+01  0.0000000000000E+00
-0.1017651714011E+01 -0.3590430007703E+01  0.0000000000000E+00
-0.1017661196216E+01 -0.3519107090659E+01  0.0000000000000E+00
-0.1017670678263E+01 -0.3447785365312E+01  0.0000000000000E+00
-0.1017680160390E+01 -0.3376463034981E+01  0.0000000000000E+00
-0.1017689642507E+01 -0.3305140782802E+01  0.0000000000000E+00
-0.1017699124612E+01 -0.3233818621464E+01  0.0000000000000E+00
-0.1017708606721E+01 -0.3162496424136E+01  0.0000000000000E+00
-0.1017718088835E+01 -0.3091174194911E+01  0.0000000000000E+00
-0.1017745495548E+01 -0.3019851904360E+01  0.0000000000000E+00
-0.1017906277653E+01 -0.2948529843060E+01  0.0000000000000E+00
-0.1018360744909E+01 -0.2877209347299E+01  0.0000000000000E+00
-0.1019255030769E+01 -0.2805893693688E+01  0.0000000000000E+00
-0.1020696701869E+01 -0.2734588564456E+01  0.0000000000000E+00
-0.1022754748397E+01 -0.2663301105260E+01  0.0000000000000E+00
-0.1025473283124E+01 -0.2592039646501E+01  0.0000000000000E+00
-0.1028887362274E+01 -0.2520813176160E+01  0.0000000000000E+00
-0.1033036644157E+01 -0.2449632409301E+01  0.0000000000000E+00
-0.1037975685816E+01 -0.2378510928701E+01  0.0000000000000E+00
-0.1043701418122E+01 -0.2307458551321E+01  0.0000000000000E+00
-0.1050133861127E+01 -0.2236477035050E+01  0.0000000000000E+00
-0.1057215919976E+01 -0.2165568056937E+01  0.0000000000000E+00
-0.1064914388649E+01 -0.2094734396573E+01  0.0000000000000E+00
-0.1073218430927E+01 -0.2023980955804E+01  0.0000000000000E+00
-0.1082144676909E+01 -0.1953316628048E+01  0.0000000000000E+00
-0.1091760004215E+01 -0.1882758622058E+01  0.0000000000000E+00
-0.9900118099064E+00 -0.4660160183698E+01  0.0000000000000E+00
-0.9900236197882E+00 -0.4588733390572E+01  0.0000000000000E+00
-0.9900354297426E+00 -0.4517306158826E+01  0.0000000000000E+00
-0.9900472396638E+00 -0.4445879127324E+01  0.0000000000000E+00
-0.9900590495827E+00 -0.4374452110027E+01  0.0000000000000E+00
-0.9900708595060E+00 -0.4303025065890E+01  0.0000000000000E+00
-0.9900826694223E+00 -0.4231598063968E+01  0.0000000000000E+00
-0.9900944793430E+00 -0.4160171035861E+01  0.0000000000000E+00
-0.9901062892628E+00 -0.4088744013001E+01  0.0000000000000E+00
-0.9901180991813E+00 -0.4017316998028E+01  0.0000000000000E+00
-0.9901299091023E+00 -0.3945889968104E+01  0.0000000000000E+00
-0.9901417190194E+00 -0.3874462961605E+01  0.0000000000000E+00
-0.9901535289416E+00 -0.3803035923932E+01  0.0000000000000E+00
-0.9901653388735E+00 -0.3731608827986E+01  0.0000000000000E+00
-0.9901771488020E+00 -0.3660181752369E+01  0.0000000000000E+00
-0.9901889587164E+00 -0.3588754762198E+01  0.0000000000000E+00
-0.9902007687351E+00 -0.3517327141434E+01  0.0000000000000E+00
-0.9902125785564E+00 -0.3445900714115E+01  0.0000000000000E+00
-0.9902243884779E+00 -0.3374473680925E+01  0.0000000000000E+00
-0.9902361983865E+00 -0.3303046726000E+01  0.0000000000000E+00
-0.9902480082800E+00 -0.3231619862052E+01  0.0000000000000E+00
-0.9902598181795E+00 -0.3160192962059E+01  0.0000000000000E+00
-0.9902716280843E+00 -0.3088766030123E+01  0.0000000000000E+00
-0.9903008772941E+00 -0.3017339036768E+01  0.0000000000000E+00
-0.9904598908441E+00 -0.2945912272726E+01  0.0000000000000E+00
-0.9909046382074E+00 -0.2874487074405E+01  0.0000000000000E+00
-0.9917772963762E+00 -0.2803066718274E+01  0.0000000000000E+00
-0.9931825196868E+00 -0.2731656886637E+01  0.0000000000000E+00
-0.9951874304676E+00 -0.2660264725035E+01  0.0000000000000E+00
-0.9978349471605E+00 -0.2588898564031E+01  0.0000000000000E+00
-0.1001159176873E+01 -0.2517567391354E+01  0.0000000000000E+00
-0.1005198704189E+01 -0.2446281922097E+01  0.0000000000000E+00
-0.1010006609051E+01 -0.2375055739345E+01  0.0000000000000E+00
-0.1015579905431E+01 -0.2303898659692E+01  0.0000000000000E+00
-0.1021840778788E+01 -0.2232812441032E+01  0.0000000000000E+00
-0.1028733680069E+01 -0.2161798760483E+01  0.0000000000000E+00
-0.1036226302287E+01 -0.2090860397566E+01  0.0000000000000E+00
-0.1044308102607E+01 -0.2020002254134E+01  0.0000000000000E+00
-0.1052995260869E+01 -0.1949233223964E+01  0.0000000000000E+00
-0.1062352844026E+01 -0.1878570515803E+01  0.0000000000000E+00
-0.9625137375235E+00 -0.4660058284100E+01  0.0000000000000E+00
-0.9625274750185E+00 -0.4588529591588E+01  0.0000000000000E+00
-0.9625412125977E+00 -0.4517000459829E+01  0.0000000000000E+00
-0.9625549501385E+00 -0.4445471528601E+01  0.0000000000000E+00
-0.9625686876766E+00 -0.4373942611598E+01  0.0000000000000E+00
-0.9625824252198E+00 -0.4302413667716E+01  0.0000000000000E+00
-0.9625961627548E+00 -0.4230884766111E+01  0.0000000000000E+00
-0.9626099002950E+00 -0.4159355838283E+01  0.0000000000000E+00
-0.9626236378341E+00 -0.4087826915708E+01  0.0000000000000E+00
-0.9626373753717E+00 -0.4016298001032E+01  0.0000000000000E+00
-0.9626511129121E+00 -0.3944769071385E+01  0.0000000000000E+00
-0.9626648504481E+00 -0.3873240165195E+01  0.0000000000000E+00
-0.9626785879900E+00 -0.3801711227786E+01  0.0000000000000E+00
-0.9626923255432E+00 -0.3730182232023E+01  0.0000000000000E+00
-0.9627060630925E+00 -0.3658653256616E+01  0.0000000000000E+00
-0.9627198006253E+00 -0.3587124366778E+01  0.0000000000000E+00
-0.9627335382794E+00 -0.3515594845447E+01  0.0000000000000E+00
-0.9627472757039E+00 -0.3444066519263E+01  0.0000000000000E+00
-0.9627610132450E+00 -0.3372537586345E+01  0.0000000000000E+00
-0.9627747507711E+00 -0.3301008731803E+01  0.0000000000000E+00
-0.9627884882796E+00 -0.3229479968367E+01  0.0000000000000E+00
-0.9628022257951E+00 -0.3157951168836E+01  0.0000000000000E+00
-0.9628159633167E+00 -0.3086422337316E+01  0.0000000000000E+00
-0.9628466548485E+00 -0.3014893444285E+01  0.0000000000000E+00
-0.9630034996671E+00 -0.2943364780630E+01  0.0000000000000E+00
-0.9634381269610E+00 -0.2871837682872E+01  0.0000000000000E+00
-0.9642887572571E+00 -0.2800315427341E+01  0.0000000000000E+00
-0.9656571325932E+00 -0.2728803696419E+01  0.0000000000000E+00
-0.9676085074361E+00 -0.2657309635530E+01  0.0000000000000E+00
-0.9701846058996E+00 -0.2585841575395E+01  0.0000000000000E+00
-0.9734185859714E+00 -0.2514408503499E+01  0.0000000000000E+00
-0.9773479585130E+00 -0.2443021134961E+01  0.0000000000000E+00
-0.9820243263633E+00 -0.2371693053170E+01  0.0000000000000E+00
-0.9874447865971E+00 -0.2300434074359E+01  0.0000000000000E+00
-0.9935336900779E+00 -0.2229245956427E+01  0.0000000000000E+00
-0.1000237033557E+01 -0.2158130376562E+01  0.0000000000000E+00
-0.1007523409081E+01 -0.2087090114213E+01  0.0000000000000E+00
-0.1015382567198E+01 -0.2016130071245E+01  0.0000000000000E+00
-0.1023830237492E+01 -0.1945259141781E+01  0.0000000000000E+00
-0.1032929676247E+01 -0.1874494534560E+01  0.0000000000000E+00
-0.9350152757427E+00 -0.4659959193825E+01  0.0000000000000E+00
-0.9350305514535E+00 -0.4588331411245E+01  0.0000000000000E+00
-0.9350458272582E+00 -0.4516703188809E+01  0.0000000000000E+00
-0.9350611030201E+00 -0.4445075167182E+01  0.0000000000000E+00
-0.9350763787789E+00 -0.4373447159799E+01  0.0000000000000E+00
-0.9350916545434E+00 -0.4301819125501E+01  0.0000000000000E+00
-0.9351069302989E+00 -0.4230191133537E+01  0.0000000000000E+00
-0.9351222060600E+00 -0.4158563115315E+01  0.0000000000000E+00
-0.9351374818200E+00 -0.4086935102354E+01  0.0000000000000E+00
-0.9351527575783E+00 -0.4015307097302E+01  0.0000000000000E+00
-0.9351680333398E+00 -0.3943679077257E+01  0.0000000000000E+00
-0.9351833090963E+00 -0.3872051080703E+01  0.0000000000000E+00
-0.9351985848595E+00 -0.3800423052887E+01  0.0000000000000E+00
-0.9352138606351E+00 -0.3728794966635E+01  0.0000000000000E+00
-0.9352291364064E+00 -0.3657166900768E+01  0.0000000000000E+00
-0.9352444121594E+00 -0.3585538920588E+01  0.0000000000000E+00
-0.9352596880473E+00 -0.3513910308040E+01  0.0000000000000E+00
-0.9352749636799E+00 -0.3442282892296E+01  0.0000000000000E+00
-0.9352902394421E+00 -0.3370654868976E+01  0.0000000000000E+00
-0.9353055151876E+00 -0.3299026924142E+01  0.0000000000000E+00
-0.9353207909136E+00 -0.3227399070539E+01  0.0000000000000E+00
-0.9353360666473E+00 -0.3155771180791E+01  0.0000000000000E+00
-0.9353513423878E+00 -0.3084143259010E+01  0.0000000000000E+00
-0.9353830868434E+00 -0.3012515275629E+01  0.0000000000000E+00
-0.9355373735330E+00 -0.2940887521685E+01  0.0000000000000E+00
-0.9359614913613E+00 -0.2869261333809E+01  0.0000000000000E+00
-0.9367897043898E+00 -0.2797639988196E+01  0.0000000000000E+00
-0.9381208423587E+00 -0.2726029167304E+01  0.0000000000000E+00
-0.9400182918724E+00 -0.2654436016443E+01  0.0000000000000E+00
-0.9425225827175E+00 -0.2582868866489E+01  0.0000000000000E+00
-0.9456659237619E+00 -0.2511336704686E+01  0.0000000000000E+00
-0.9494847521435E+00 -0.2439850246183E+01  0.0000000000000E+00
-0.9540291935997E+00 -0.2368423074660E+01  0.0000000000000E+00
-0.9592964283062E+00 -0.2297065006004E+01  0.0000000000000E+00
-0.9652129725315E+00 -0.2225777798115E+01  0.0000000000000E+00
-0.9717263688312E+00 -0.2154563128249E+01  0.0000000000000E+00
-0.9788061082853E+00 -0.2083423775788E+01  0.0000000000000E+00
-0.9864422348236E+00 -0.2012364642606E+01  0.0000000000000E+00
-0.9946500277763E+00 -0.1941394623162E+01  0.0000000000000E+00
-0.1003490932759E+01 -0.1870530926191E+01  0.0000000000000E+00
-0.9075164348415E+00 -0.4659862918834E+01  0.0000000000000E+00
-0.9075328696488E+00 -0.4588138861463E+01  0.0000000000000E+00
-0.9075493045571E+00 -0.4516414363646E+01  0.0000000000000E+00
-0.9075657394192E+00 -0.4444690066907E+01  0.0000000000000E+00
-0.9075821742781E+00 -0.4372965784431E+01  0.0000000000000E+00
-0.9075986091431E+00 -0.4301241475005E+01  0.0000000000000E+00
-0.9076150439985E+00 -0.4229517207969E+01  0.0000000000000E+00
-0.9076314788598E+00 -0.4157792914640E+01  0.0000000000000E+00
-0.9076479137200E+00 -0.4086068626578E+01  0.0000000000000E+00
-0.9076643485783E+00 -0.4014344346436E+01  0.0000000000000E+00
-0.9076807834401E+00 -0.3942620051282E+01  0.0000000000000E+00
-0.9076972182965E+00 -0.3870895779649E+01  0.0000000000000E+00
-0.9077136531601E+00 -0.3799171476713E+01  0.0000000000000E+00
-0.9077300880371E+00 -0.3727447115263E+01  0.0000000000000E+00
-0.9077465229094E+00 -0.3655722774225E+01  0.0000000000000E+00
-0.9077629577620E+00 -0.3583998518988E+01  0.0000000000000E+00
-0.9077793927597E+00 -0.3512273630535E+01  0.0000000000000E+00
-0.9077958274829E+00 -0.3440549940493E+01  0.0000000000000E+00
-0.9078122623454E+00 -0.3368825642059E+01  0.0000000000000E+00
-0.9078286971899E+00 -0.3297101422216E+01  0.0000000000000E+00
-0.9078451320135E+00 -0.3225377293728E+01  0.0000000000000E+00
-0.9078615668454E+00 -0.3153653129045E+01  0.0000000000000E+00
-0.9078780016846E+00 -0.3081928932287E+01  0.0000000000000E+00
-0.9079104199434E+00 -0.3010204673842E+01  0.0000000000000E+00
-0.9080617693840E+00 -0.2938480644892E+01  0.0000000000000E+00
-0.9084749986280E+00 -0.2866758182177E+01  0.0000000000000E+00
-0.9092804152714E+00 -0.2795040561762E+01  0.0000000000000E+00
-0.9105739367573E+00 -0.2723333466175E+01  0.0000000000000E+00
-0.9124170818274E+00 -0.2651644040617E+01  0.0000000000000E+00
-0.9148491859419E+00 -0.2579980616114E+01  0.0000000000000E+00
-0.9179015088477E+00 -0.2508352179677E+01  0.0000000000000E+00
-0.9216094139598E+00 -0.2436769446484E+01  0.0000000000000E+00
-0.9260215499149E+00 -0.2365246000499E+01  0.0000000000000E+00
-0.9311351799888E+00 -0.2293791657267E+01  0.0000000000000E+00
-0.9368789858541E+00 -0.2222408174696E+01  0.0000000000000E+00
-0.9432020558717E+00 -0.2151097230106E+01  0.0000000000000E+00
-0.9500747801533E+00 -0.2079861602812E+01  0.0000000000000E+00
-0.9574874960124E+00 -0.2008706194698E+01  0.0000000000000E+00
-0.9654550325253E+00 -0.1937639900549E+01  0.0000000000000E+00
-0.9740370246404E+00 -0.1866679929097E+01  0.0000000000000E+00
-0.8800172251723E+00 -0.4659769464936E+01  0.0000000000000E+00
-0.8800344503086E+00 -0.4587951953862E+01  0.0000000000000E+00
-0.8800516755508E+00 -0.4516134001767E+01  0.0000000000000E+00
-0.8800689007447E+00 -0.4444316251013E+01  0.0000000000000E+00
-0.8800861259351E+00 -0.4372498514541E+01  0.0000000000000E+00
-0.8801033511320E+00 -0.4300680751083E+01  0.0000000000000E+00
-0.8801205763187E+00 -0.4228863030071E+01  0.0000000000000E+00
-0.8801378015118E+00 -0.4157045282730E+01  0.0000000000000E+00
-0.8801550267036E+00 -0.4085227540665E+01  0.0000000000000E+00
-0.8801722518934E+00 -0.4013409806530E+01  0.0000000000000E+00
-0.8801894770869E+00 -0.3941592057363E+01  0.0000000000000E+00
-0.8802067022748E+00 -0.3869774331747E+01  0.0000000000000E+00
-0.8802239274701E+00 -0.3797956574788E+01  0.0000000000000E+00
-0.8802411526795E+00 -0.3726138759238E+01  0.0000000000000E+00
-0.8802583778840E+00 -0.3654320964127E+01  0.0000000000000E+00
-0.8802756030679E+00 -0.3582503254930E+01  0.0000000000000E+00
-0.8802928284039E+00 -0.3510684911690E+01  0.0000000000000E+00
-0.8803100534520E+00 -0.3438867768424E+01  0.0000000000000E+00
-0.8803272786463E+00 -0.3367050015972E+01  0.0000000000000E+00
-0.8803445038217E+00 -0.3295232342214E+01  0.0000000000000E+00
-0.8803617289752E+00 -0.3223414759930E+01  0.0000000000000E+00
-0.8803789541373E+00 -0.3151597141404E+01  0.0000000000000E+00
-0.8803961793072E+00 -0.3079779490761E+01  0.0000000000000E+00
-0.8804289026007E+00 -0.3007961778347E+01  0.0000000000000E+00
-0.8805769460245E+00 -0.2936144295485E+01  0.0000000000000E+00
-0.8809789179176E+00 -0.2864328379021E+01  0.0000000000000E+00
-0.8817611694101E+00 -0.2792517304890E+01  0.0000000000000E+00
-0.8830167056487E+00 -0.2720716755693E+01  0.0000000000000E+00
-0.8848051775121E+00 -0.2648933876522E+01  0.0000000000000E+00
-0.8871647261348E+00 -0.2577176998550E+01  0.0000000000000E+00
-0.8901256621418E+00 -0.2505455108563E+01  0.0000000000000E+00
-0.8937222752253E+00 -0.2433778921763E+01  0.0000000000000E+00
-0.8980017369228E+00 -0.2362162022393E+01  0.0000000000000E+00
-0.9029613936084E+00 -0.2290614225668E+01  0.0000000000000E+00
-0.9085320923593E+00 -0.2219137289498E+01  0.0000000000000E+00
-0.9146644673410E+00 -0.2147732891269E+01  0.0000000000000E+00
-0.9213298076975E+00 -0.2076403810231E+01  0.0000000000000E+00
-0.9285187441254E+00 -0.2005154948275E+01  0.0000000000000E+00
-0.9362456554485E+00 -0.1933995200506E+01  0.0000000000000E+00
-0.9445683659478E+00 -0.1862941775651E+01  0.0000000000000E+00
-0.8525176569623E+00 -0.4659678837762E+01  0.0000000000000E+00
-0.8525353138878E+00 -0.4587770699704E+01  0.0000000000000E+00
-0.8525529709217E+00 -0.4515862120068E+01  0.0000000000000E+00
-0.8525706279061E+00 -0.4443953742027E+01  0.0000000000000E+00
-0.8525882848871E+00 -0.4372045378286E+01  0.0000000000000E+00
-0.8526059418746E+00 -0.4300136987525E+01  0.0000000000000E+00
-0.8526235988517E+00 -0.4228228639263E+01  0.0000000000000E+00
-0.8526412558353E+00 -0.4156320264640E+01  0.0000000000000E+00
-0.8526589128176E+00 -0.4084411895299E+01  0.0000000000000E+00
-0.8526765697980E+00 -0.4012503533897E+01  0.0000000000000E+00
-0.8526942267820E+00 -0.3940595157445E+01  0.0000000000000E+00
-0.8527118837602E+00 -0.3868686804574E+01  0.0000000000000E+00
-0.8527295407462E+00 -0.3796778420320E+01  0.0000000000000E+00
-0.8527471977466E+00 -0.3724869977402E+01  0.0000000000000E+00
-0.8527648547419E+00 -0.3652961554948E+01  0.0000000000000E+00
-0.8527825117161E+00 -0.3581053218515E+01  0.0000000000000E+00
-0.8528001688462E+00 -0.3509144247241E+01  0.0000000000000E+00
-0.8528178256813E+00 -0.3437236477454E+01  0.0000000000000E+00
-0.8528354826661E+00 -0.3365328097713E+01  0.0000000000000E+00
-0.8528531396316E+00 -0.3293419796766E+01  0.0000000000000E+00
-0.8528707965746E+00 -0.3221511587407E+01  0.0000000000000E+00
-0.8528884535265E+00 -0.3149603341761E+01  0.0000000000000E+00
-0.8529061104864E+00 -0.3077695063957E+01  0.0000000000000E+00
-0.8529387802737E+00 -0.3005786724301E+01  0.0000000000000E+00
-0.8530831591395E+00 -0.2933878614253E+01  0.0000000000000E+00
-0.8534735151404E+00 -0.2861972070759E+01  0.0000000000000E+00
-0.8542322429400E+00 -0.2790070369632E+01  0.0000000000000E+00
-0.8554494353881E+00 -0.2718179193539E+01  0.0000000000000E+00
-0.8571828755004E+00 -0.2646305687471E+01  0.0000000000000E+00
-0.8594695100855E+00 -0.2574458182743E+01  0.0000000000000E+00
-0.8623387006461E+00 -0.2502645665919E+01  0.0000000000000E+00
-0.8658236631514E+00 -0.2430878852229E+01  0.0000000000000E+00
-0.8699700920406E+00 -0.2359171326182E+01  0.0000000000000E+00
-0.8747754167849E+00 -0.2287532902676E+01  0.0000000000000E+00
-0.8801726498660E+00 -0.2215965339624E+01  0.0000000000000E+00
-0.8861139712552E+00 -0.2144470314473E+01  0.0000000000000E+00
-0.8925715691276E+00 -0.2073050606409E+01  0.0000000000000E+00
-0.8995363675637E+00 -0.2001711117336E+01  0.0000000000000E+00
-0.9070222951358E+00 -0.1930460742663E+01  0.0000000000000E+00
-0.9150853654571E+00 -0.1859316691115E+01  0.0000000000000E+00
-0.8250177407139E+00 -0.4659591042819E+01  0.0000000000000E+00
-0.8250354813908E+00 -0.4587595110000E+01  0.0000000000000E+00
-0.8250532221767E+00 -0.4515598735065E+01  0.0000000000000E+00
-0.8250709629128E+00 -0.4443602561971E+01  0.0000000000000E+00
-0.8250887036454E+00 -0.4371606403194E+01  0.0000000000000E+00
-0.8251064443847E+00 -0.4299610217364E+01  0.0000000000000E+00
-0.8251241851135E+00 -0.4227614074085E+01  0.0000000000000E+00
-0.8251419258488E+00 -0.4155617904413E+01  0.0000000000000E+00
-0.8251596665828E+00 -0.4083621740029E+01  0.0000000000000E+00
-0.8251774073148E+00 -0.4011625583594E+01  0.0000000000000E+00
-0.8251951480505E+00 -0.3939629412091E+01  0.0000000000000E+00
-0.8252128887805E+00 -0.3867633264198E+01  0.0000000000000E+00
-0.8252306295181E+00 -0.3795637084882E+01  0.0000000000000E+00
-0.8252483702703E+00 -0.3723640846831E+01  0.0000000000000E+00
-0.8252661110174E+00 -0.3651644629270E+01  0.0000000000000E+00
-0.8252838517432E+00 -0.3579648497835E+01  0.0000000000000E+00
-0.8253015926257E+00 -0.3507651730783E+01  0.0000000000000E+00
-0.8253193332118E+00 -0.3435656166686E+01  0.0000000000000E+00
-0.8253370739484E+00 -0.3363659991889E+01  0.0000000000000E+00
-0.8253548146655E+00 -0.3291663895982E+01  0.0000000000000E+00
-0.8253725553600E+00 -0.3219667891776E+01  0.0000000000000E+00
-0.8253902960635E+00 -0.3147671851239E+01  0.0000000000000E+00
-0.8254080367749E+00 -0.3075675778504E+01  0.0000000000000E+00
-0.8254403050173E+00 -0.3003679643838E+01  0.0000000000000E+00
-0.8255806712862E+00 -0.2931683738833E+01  0.0000000000000E+00
-0.8259590633559E+00 -0.2859689400535E+01  0.0000000000000E+00
-0.8266939194225E+00 -0.2787699904637E+01  0.0000000000000E+00
-0.8278724200392E+00 -0.2715720933871E+01  0.0000000000000E+00
-0.8295504803575E+00 -0.2643759633128E+01  0.0000000000000E+00
-0.8317638528612E+00 -0.2571824333859E+01  0.0000000000000E+00
-0.8345409499295E+00 -0.2499924022419E+01  0.0000000000000E+00
-0.8379139138084E+00 -0.2428069414060E+01  0.0000000000000E+00
-0.8419269618398E+00 -0.2356274093551E+01  0.0000000000000E+00
-0.8465776065910E+00 -0.2284547875482E+01  0.0000000000000E+00
-0.8518010259485E+00 -0.2212892517768E+01  0.0000000000000E+00
-0.8575509456891E+00 -0.2141309697916E+01  0.0000000000000E+00
-0.8638004530197E+00 -0.2069802195054E+01  0.0000000000000E+00
-0.8705407654042E+00 -0.1998374911091E+01  0.0000000000000E+00
-0.8777853611645E+00 -0.1927036741736E+01  0.0000000000000E+00
-0.8855884432463E+00 -0.1855804895709E+01  0.0000000000000E+00
-0.7975174872200E+00 -0.4659506085482E+01  0.0000000000000E+00
-0.7975349744037E+00 -0.4587425195502E+01  0.0000000000000E+00
-0.7975524616947E+00 -0.4515343862885E+01  0.0000000000000E+00
-0.7975699489366E+00 -0.4443262732347E+01  0.0000000000000E+00
-0.7975874361751E+00 -0.4371181616143E+01  0.0000000000000E+00
-0.7976049234202E+00 -0.4299100472854E+01  0.0000000000000E+00
-0.7976224106549E+00 -0.4227019372167E+01  0.0000000000000E+00
-0.7976398978961E+00 -0.4154938245055E+01  0.0000000000000E+00
-0.7976573851359E+00 -0.4082857123237E+01  0.0000000000000E+00
-0.7976748723739E+00 -0.4010776009378E+01  0.0000000000000E+00
-0.7976923596155E+00 -0.3938694880433E+01  0.0000000000000E+00
-0.7977098468513E+00 -0.3866613775126E+01  0.0000000000000E+00
-0.7977273340948E+00 -0.3794532638359E+01  0.0000000000000E+00
-0.7977448213526E+00 -0.3722451442787E+01  0.0000000000000E+00
-0.7977623086053E+00 -0.3650370267730E+01  0.0000000000000E+00
-0.7977797958372E+00 -0.3578289178900E+01  0.0000000000000E+00
-0.7977972832234E+00 -0.3506207453703E+01  0.0000000000000E+00
-0.7978147703175E+00 -0.3434126932881E+01  0.0000000000000E+00
-0.7978322575599E+00 -0.3362045800638E+01  0.0000000000000E+00
-0.7978497447831E+00 -0.3289964747379E+01  0.0000000000000E+00
-0.7978672319841E+00 -0.3217883785928E+01  0.0000000000000E+00
-0.7978847191938E+00 -0.3145802788103E+01  0.0000000000000E+00
-0.7979022064114E+00 -0.3073721758043E+01  0.0000000000000E+00
-0.7979337358632E+00 -0.3001640665976E+01  0.0000000000000E+00
-0.7980697522901E+00 -0.2929559803621E+01  0.0000000000000E+00
-0.7984358431845E+00 -0.2857480508120E+01  0.0000000000000E+00
-0.7991464902748E+00 -0.2785406055050E+01  0.0000000000000E+00
-0.8002859618180E+00 -0.2713342127208E+01  0.0000000000000E+00
-0.8019083051015E+00 -0.2641295869387E+01  0.0000000000000E+00
-0.8040480782847E+00 -0.2569275613171E+01  0.0000000000000E+00
-0.8067327446223E+00 -0.2497290344709E+01  0.0000000000000E+00
-0.8099933726376E+00 -0.2425350779278E+01  0.0000000000000E+00
-0.8138727025763E+00 -0.2353470501899E+01  0.0000000000000E+00
-0.8183683301003E+00 -0.2281659326859E+01  0.0000000000000E+00
-0.8234175985009E+00 -0.2209919012080E+01  0.0000000000000E+00
-0.8289757793607E+00 -0.2138251235127E+01  0.0000000000000E+00
-0.8350168589179E+00 -0.2066658775066E+01  0.0000000000000E+00
-0.8415323480198E+00 -0.1995146533818E+01  0.0000000000000E+00
-0.8485352747396E+00 -0.1923723407379E+01  0.0000000000000E+00
-0.8560780313548E+00 -0.1852406604464E+01  0.0000000000000E+00
-0.7700169071112E+00 -0.4659423970938E+01  0.0000000000000E+00
-0.7700338141872E+00 -0.4587260966585E+01  0.0000000000000E+00
-0.7700507213671E+00 -0.4515097519091E+01  0.0000000000000E+00
-0.7700676284995E+00 -0.4442934273906E+01  0.0000000000000E+00
-0.7700845356285E+00 -0.4370771043071E+01  0.0000000000000E+00
-0.7701014427640E+00 -0.4298607785120E+01  0.0000000000000E+00
-0.7701183498894E+00 -0.4226444569820E+01  0.0000000000000E+00
-0.7701352570210E+00 -0.4154281328065E+01  0.0000000000000E+00
-0.7701521641514E+00 -0.4082118091610E+01  0.0000000000000E+00
-0.7701690712799E+00 -0.4009954863123E+01  0.0000000000000E+00
-0.7701859784119E+00 -0.3937791619533E+01  0.0000000000000E+00
-0.7702028855385E+00 -0.3865628399607E+01  0.0000000000000E+00
-0.7702197926723E+00 -0.3793465148187E+01  0.0000000000000E+00
-0.7702366998200E+00 -0.3721301837894E+01  0.0000000000000E+00
-0.7702536069629E+00 -0.3649138548138E+01  0.0000000000000E+00
-0.7702705140855E+00 -0.3576975344709E+01  0.0000000000000E+00
-0.7702874213574E+00 -0.3504811504187E+01  0.0000000000000E+00
-0.7703043283468E+00 -0.3432648869413E+01  0.0000000000000E+00
-0.7703212354797E+00 -0.3360485622521E+01  0.0000000000000E+00
-0.7703381425940E+00 -0.3288322454703E+01  0.0000000000000E+00
-0.7703550496867E+00 -0.3216159378797E+01  0.0000000000000E+00
-0.7703719567880E+00 -0.3143996266477E+01  0.0000000000000E+00
-0.7703888638969E+00 -0.3071833121884E+01  0.0000000000000E+00
-0.7704193279429E+00 -0.2999669915210E+01  0.0000000000000E+00
-0.7705506679129E+00 -0.2927506938299E+01  0.0000000000000E+00
-0.7709041310181E+00 -0.2855345528385E+01  0.0000000000000E+00
-0.7715902425191E+00 -0.2783188960931E+01  0.0000000000000E+00
-0.7726903583770E+00 -0.2711042918797E+01  0.0000000000000E+00
-0.7742566580147E+00 -0.2638914546683E+01  0.0000000000000E+00
-0.7763225052677E+00 -0.2566812176300E+01  0.0000000000000E+00
-0.7789144142657E+00 -0.2494744793600E+01  0.0000000000000E+00
-0.7820623798096E+00 -0.2422723113881E+01  0.0000000000000E+00
-0.7858076650495E+00 -0.2350760722408E+01  0.0000000000000E+00
-0.7901479487410E+00 -0.2278867433179E+01  0.0000000000000E+00
-0.7950227395800E+00 -0.2207045004120E+01  0.0000000000000E+00
-0.8003888549551E+00 -0.2135295112850E+01  0.0000000000000E+00
-0.8062211801355E+00 -0.2063620538380E+01  0.0000000000000E+00
-0.8125115193522E+00 -0.1992026182637E+01  0.0000000000000E+00
-0.8192724504302E+00 -0.1920520941899E+01  0.0000000000000E+00
-0.8265545549795E+00 -0.1849122024875E+01  0.0000000000000E+00
-0.7425160110831E+00 -0.4659344704214E+01  0.0000000000000E+00
-0.7425320221329E+00 -0.4587102433304E+01  0.0000000000000E+00
-0.7425480332810E+00 -0.4514859718765E+01  0.0000000000000E+00
-0.7425640443842E+00 -0.4442617206757E+01  0.0000000000000E+00
-0.7425800554842E+00 -0.4370374709116E+01  0.0000000000000E+00
-0.7425960665902E+00 -0.4298132184328E+01  0.0000000000000E+00
-0.7426120776868E+00 -0.4225889702238E+01  0.0000000000000E+00
-0.7426280887892E+00 -0.4153647193664E+01  0.0000000000000E+00
-0.7426440998905E+00 -0.4081404690396E+01  0.0000000000000E+00
-0.7426601109900E+00 -0.4009162195105E+01  0.0000000000000E+00
-0.7426761220928E+00 -0.3936919684694E+01  0.0000000000000E+00
-0.7426921331904E+00 -0.3864677197973E+01  0.0000000000000E+00
-0.7427081442950E+00 -0.3792434679724E+01  0.0000000000000E+00
-0.7427241554126E+00 -0.3720192102536E+01  0.0000000000000E+00
-0.7427401665257E+00 -0.3647949545909E+01  0.0000000000000E+00
-0.7427561776197E+00 -0.3575707075704E+01  0.0000000000000E+00
-0.7427721888549E+00 -0.3503463967706E+01  0.0000000000000E+00
-0.7427881998227E+00 -0.3431222066779E+01  0.0000000000000E+00
-0.7428042109263E+00 -0.3358979553063E+01  0.0000000000000E+00
-0.7428202220123E+00 -0.3286737118507E+01  0.0000000000000E+00
-0.7428362330780E+00 -0.3214494775965E+01  0.0000000000000E+00
-0.7428522441517E+00 -0.3142252396968E+01  0.0000000000000E+00
-0.7428682552326E+00 -0.3070009985662E+01  0.0000000000000E+00
-0.7428973379532E+00 -0.2997767512206E+01  0.0000000000000E+00
-0.7430236855472E+00 -0.2925525268560E+01  0.0000000000000E+00
-0.7433642049450E+00 -0.2853284592048E+01  0.0000000000000E+00
-0.7440254649391E+00 -0.2781048758026E+01  0.0000000000000E+00
-0.7450859091951E+00 -0.2708823449412E+01  0.0000000000000E+00
-0.7465958492710E+00 -0.2636615810817E+01  0.0000000000000E+00
-0.7485874546793E+00 -0.2564434174075E+01  0.0000000000000E+00
-0.7510862904237E+00 -0.2492287524946E+01  0.0000000000000E+00
-0.7541212775826E+00 -0.2420186578752E+01  0.0000000000000E+00
-0.7577322022120E+00 -0.2348144920990E+01  0.0000000000000E+00
-0.7619168261599E+00 -0.2276172365381E+01  0.0000000000000E+00
-0.7666168235266E+00 -0.2204270669853E+01  0.0000000000000E+00
-0.7717905575071E+00 -0.2132441512079E+01  0.0000000000000E+00
-0.7774138124011E+00 -0.2060687671016E+01  0.0000000000000E+00
-0.7834786858233E+00 -0.1989014048599E+01  0.0000000000000E+00
-0.7899973053517E+00 -0.1917429541373E+01  0.0000000000000E+00
-0.7970184419288E+00 -0.1845951358046E+01  0.0000000000000E+00
-0.7150148098282E+00 -0.4659268290171E+01  0.0000000000000E+00
-0.7150296196255E+00 -0.4586949605377E+01  0.0000000000000E+00
-0.7150444295138E+00 -0.4514630476484E+01  0.0000000000000E+00
-0.7150592393606E+00 -0.4442311550338E+01  0.0000000000000E+00
-0.7150740492044E+00 -0.4369992638572E+01  0.0000000000000E+00
-0.7150888590538E+00 -0.4297673699632E+01  0.0000000000000E+00
-0.7151036688944E+00 -0.4225354803435E+01  0.0000000000000E+00
-0.7151184787405E+00 -0.4153035880725E+01  0.0000000000000E+00
-0.7151332885855E+00 -0.4080716963328E+01  0.0000000000000E+00
-0.7151480984288E+00 -0.4008398053915E+01  0.0000000000000E+00
-0.7151629082753E+00 -0.3936079129367E+01  0.0000000000000E+00
-0.7151777181168E+00 -0.3863760228534E+01  0.0000000000000E+00
-0.7151925279649E+00 -0.3791441296138E+01  0.0000000000000E+00
-0.7152073378250E+00 -0.3719122304743E+01  0.0000000000000E+00
-0.7152221476809E+00 -0.3646803333930E+01  0.0000000000000E+00
-0.7152369575191E+00 -0.3574484449629E+01  0.0000000000000E+00
-0.7152517674881E+00 -0.3502164926862E+01  0.0000000000000E+00
-0.7152665772096E+00 -0.3429846612442E+01  0.0000000000000E+00
-0.7152813870567E+00 -0.3357527684586E+01  0.0000000000000E+00
-0.7152961968876E+00 -0.3285208835972E+01  0.0000000000000E+00
-0.7153110066996E+00 -0.3212890079470E+01  0.0000000000000E+00
-0.7153258165191E+00 -0.3140571286475E+01  0.0000000000000E+00
-0.7153406263452E+00 -0.3068252461137E+01  0.0000000000000E+00
-0.7153680225135E+00 -0.2995933573580E+01  0.0000000000000E+00
-0.7154890725045E+00 -0.2923614915879E+01  0.0000000000000E+00
-0.7158163429684E+00 -0.2851297825445E+01  0.0000000000000E+00
-0.7164524462290E+00 -0.2778985577529E+01  0.0000000000000E+00
-0.7174729136566E+00 -0.2706683855107E+01  0.0000000000000E+00
-0.7189261889441E+00 -0.2634399802702E+01  0.0000000000000E+00
-0.7208432472812E+00 -0.2562141752268E+01  0.0000000000000E+00
-0.7232487045449E+00 -0.2489918689380E+01  0.0000000000000E+00
-0.7261704080913E+00 -0.2417741329381E+01  0.0000000000000E+00
-0.7296466668831E+00 -0.2345623257995E+01  0.0000000000000E+00
-0.7336753258596E+00 -0.2273574288674E+01  0.0000000000000E+00
-0.7382002245257E+00 -0.2201596179347E+01  0.0000000000000E+00
-0.7431812718828E+00 -0.2129690607742E+01  0.0000000000000E+00
-0.7485951512610E+00 -0.2057860352761E+01  0.0000000000000E+00
-0.7544342536587E+00 -0.1986110316347E+01  0.0000000000000E+00
-0.7607102564081E+00 -0.1914449395305E+01  0.0000000000000E+00
-0.7674701197840E+00 -0.1842894798340E+01  0.0000000000000E+00
-0.6875133140180E+00 -0.4659194733497E+01  0.0000000000000E+00
-0.6875266280083E+00 -0.4586802492181E+01  0.0000000000000E+00
-0.6875399420804E+00 -0.4514409806315E+01  0.0000000000000E+00
-0.6875532561151E+00 -0.4442017323401E+01  0.0000000000000E+00
-0.6875665701472E+00 -0.4369624854884E+01  0.0000000000000E+00
-0.6875798841843E+00 -0.4297232359164E+01  0.0000000000000E+00
-0.6875931982135E+00 -0.4224839906230E+01  0.0000000000000E+00
-0.6876065122476E+00 -0.4152447426757E+01  0.0000000000000E+00
-0.6876198262808E+00 -0.4080054952602E+01  0.0000000000000E+00
-0.6876331403124E+00 -0.4007662486439E+01  0.0000000000000E+00
-0.6876464543469E+00 -0.3935270005125E+01  0.0000000000000E+00
-0.6876597683769E+00 -0.3862877547551E+01  0.0000000000000E+00
-0.6876730824128E+00 -0.3790485058383E+01  0.0000000000000E+00
-0.6876863964596E+00 -0.3718092510154E+01  0.0000000000000E+00
-0.6876997105025E+00 -0.3645699982529E+01  0.0000000000000E+00
-0.6877130245296E+00 -0.3573307541504E+01  0.0000000000000E+00
-0.6877263386741E+00 -0.3500914461363E+01  0.0000000000000E+00
-0.6877396525963E+00 -0.3428522590798E+01  0.0000000000000E+00
-0.6877529666313E+00 -0.3356130106173E+01  0.0000000000000E+00
-0.6877662806518E+00 -0.3283737700872E+01  0.0000000000000E+00
-0.6877795946553E+00 -0.3211345387775E+01  0.0000000000000E+00
-0.6877929086655E+00 -0.3138953038149E+01  0.0000000000000E+00
-0.6878062226817E+00 -0.3066560656146E+01  0.0000000000000E+00
-0.6878316377421E+00 -0.2994168211858E+01  0.0000000000000E+00
-0.6879470955743E+00 -0.2921775997472E+01  0.0000000000000E+00
-0.6882608225479E+00 -0.2849385350480E+01  0.0000000000000E+00
-0.6888714745171E+00 -0.2776999546033E+01  0.0000000000000E+00
-0.6898516705568E+00 -0.2704624267162E+01  0.0000000000000E+00
-0.6912479864942E+00 -0.2632266658308E+01  0.0000000000000E+00
-0.6930902031963E+00 -0.2559935051537E+01  0.0000000000000E+00
-0.6954019874130E+00 -0.2487638432247E+01  0.0000000000000E+00
-0.6982101127777E+00 -0.2415387515803E+01  0.0000000000000E+00
-0.7015514111604E+00 -0.2343195888146E+01  0.0000000000000E+00
-0.7054238105909E+00 -0.2271073362469E+01  0.0000000000000E+00
-0.7097733159789E+00 -0.2199021696703E+01  0.0000000000000E+00
-0.7145613821325E+00 -0.2127042568627E+01  0.0000000000000E+00
-0.7197655914124E+00 -0.2055138757093E+01  0.0000000000000E+00
-0.7253786282006E+00 -0.1983315164049E+01  0.0000000000000E+00
-0.7314117195845E+00 -0.1911580686551E+01  0.0000000000000E+00
-0.7379100151708E+00 -0.1839952533300E+01  0.0000000000000E+00
-0.6600115347780E+00 -0.4659124038756E+01  0.0000000000000E+00
-0.6600230695320E+00 -0.4586661102847E+01  0.0000000000000E+00
-0.6600346043568E+00 -0.4514197721954E+01  0.0000000000000E+00
-0.6600461391493E+00 -0.4441734544211E+01  0.0000000000000E+00
-0.6600576739395E+00 -0.4369271380878E+01  0.0000000000000E+00
-0.6600692087340E+00 -0.4296808190316E+01  0.0000000000000E+00
-0.6600807435217E+00 -0.4224345042582E+01  0.0000000000000E+00
-0.6600922783136E+00 -0.4151881868284E+01  0.0000000000000E+00
-0.6601038131047E+00 -0.4079418699308E+01  0.0000000000000E+00
-0.6601153478945E+00 -0.4006955538333E+01  0.0000000000000E+00
-0.6601268826867E+00 -0.3934492362191E+01  0.0000000000000E+00
-0.6601384174751E+00 -0.3862029209812E+01  0.0000000000000E+00
-0.6601499522686E+00 -0.3789566025808E+01  0.0000000000000E+00
-0.6601614870715E+00 -0.3717102782687E+01  0.0000000000000E+00
-0.6601730218711E+00 -0.3644639560188E+01  0.0000000000000E+00
-0.6601845566569E+00 -0.3572176424375E+01  0.0000000000000E+00
-0.6601960915445E+00 -0.3499712648821E+01  0.0000000000000E+00
-0.6602076262394E+00 -0.3427250084026E+01  0.0000000000000E+00
-0.6602191610322E+00 -0.3354786904570E+01  0.0000000000000E+00
-0.6602306958123E+00 -0.3282323804515E+01  0.0000000000000E+00
-0.6602422305777E+00 -0.3209860796755E+01  0.0000000000000E+00
-0.6602537653490E+00 -0.3137397752429E+01  0.0000000000000E+00
-0.6602653001253E+00 -0.3064934675696E+01  0.0000000000000E+00
-0.6602884506478E+00 -0.2992471536614E+01  0.0000000000000E+00
-0.6603980328915E+00 -0.2920008627477E+01  0.0000000000000E+00
-0.6606979329459E+00 -0.2847547285856E+01  0.0000000000000E+00
-0.6612828501955E+00 -0.2775090786807E+01  0.0000000000000E+00
-0.6622224914199E+00 -0.2702644813413E+01  0.0000000000000E+00
-0.6635615645806E+00 -0.2630216510033E+01  0.0000000000000E+00
-0.6653286562223E+00 -0.2557814208847E+01  0.0000000000000E+00
-0.6675464839670E+00 -0.2485446895079E+01  0.0000000000000E+00
-0.6702407477259E+00 -0.2413125284116E+01  0.0000000000000E+00
-0.6734468022770E+00 -0.2340862962106E+01  0.0000000000000E+00
-0.6771626587394E+00 -0.2268669741993E+01  0.0000000000000E+00
-0.6813364874278E+00 -0.2196547381714E+01  0.0000000000000E+00
-0.6859312889571E+00 -0.2124497559093E+01  0.0000000000000E+00
-0.6909255447183E+00 -0.2052523052934E+01  0.0000000000000E+00
-0.6963122324769E+00 -0.1980628765193E+01  0.0000000000000E+00
-0.7021021290765E+00 -0.1908823593166E+01  0.0000000000000E+00
-0.7083385734561E+00 -0.1837124745548E+01  0.0000000000000E+00
-0.6325094830437E+00 -0.4659056210321E+01  0.0000000000000E+00
-0.6325189660676E+00 -0.4586525446119E+01  0.0000000000000E+00
-0.6325284491498E+00 -0.4513994236516E+01  0.0000000000000E+00
-0.6325379322054E+00 -0.4441463230253E+01  0.0000000000000E+00
-0.6325474152591E+00 -0.4368932238414E+01  0.0000000000000E+00
-0.6325568983163E+00 -0.4296401219321E+01  0.0000000000000E+00
-0.6325663813680E+00 -0.4223870243095E+01  0.0000000000000E+00
-0.6325758644231E+00 -0.4151339240280E+01  0.0000000000000E+00
-0.6325853474776E+00 -0.4078808242792E+01  0.0000000000000E+00
-0.6325948305309E+00 -0.4006277253313E+01  0.0000000000000E+00
-0.6326043135863E+00 -0.3933746248653E+01  0.0000000000000E+00
-0.6326137966386E+00 -0.3861215267778E+01  0.0000000000000E+00
-0.6326232796950E+00 -0.3788684255248E+01  0.0000000000000E+00
-0.6326327627591E+00 -0.3716153183546E+01  0.0000000000000E+00
-0.6326422458206E+00 -0.3643622132486E+01  0.0000000000000E+00
-0.6326517288707E+00 -0.3571091168192E+01  0.0000000000000E+00
-0.6326612120045E+00 -0.3498559563559E+01  0.0000000000000E+00
-0.6326706949798E+00 -0.3426029170817E+01  0.0000000000000E+00
-0.6326801780356E+00 -0.3353498162840E+01  0.0000000000000E+00
-0.6326896610811E+00 -0.3280967234338E+01  0.0000000000000E+00
-0.6326991441144E+00 -0.3208436398218E+01  0.0000000000000E+00
-0.6327086271525E+00 -0.3135905525497E+01  0.0000000000000E+00
-0.6327181101949E+00 -0.3063374620339E+01  0.0000000000000E+00
-0.6327387236849E+00 -0.2990843652771E+01  0.0000000000000E+00
-0.6328421578459E+00 -0.2918312915189E+01  0.0000000000000E+00
-0.6331279584877E+00 -0.2845783745241E+01  0.0000000000000E+00
-0.6336868685247E+00 -0.2773259417889E+01  0.0000000000000E+00
-0.6345856824418E+00 -0.2700745616269E+01  0.0000000000000E+00
-0.6358672403342E+00 -0.2628249484662E+01  0.0000000000000E+00
-0.6375589344252E+00 -0.2555779355352E+01  0.0000000000000E+00
-0.6396825332080E+00 -0.2483344213402E+01  0.0000000000000E+00
-0.6422626628715E+00 -0.2410954774215E+01  0.0000000000000E+00
-0.6453332011029E+00 -0.2338624624143E+01  0.0000000000000E+00
-0.6488922421098E+00 -0.2266363575889E+01  0.0000000000000E+00
-0.6528901216113E+00 -0.2194173387393E+01  0.0000000000000E+00
-0.6572913860296E+00 -0.2122055736525E+01  0.0000000000000E+00
-0.6620754157856E+00 -0.2050013402043E+01  0.0000000000000E+00
-0.6672354820285E+00 -0.1978051285908E+01  0.0000000000000E+00
-0.6727819113590E+00 -0.1906178285648E+01  0.0000000000000E+00
-0.6787562320482E+00 -0.1834411609955E+01  0.0000000000000E+00
-0.6050071698059E+00 -0.4658991252397E+01  0.0000000000000E+00
-0.6050143395968E+00 -0.4586395530405E+01  0.0000000000000E+00
-0.6050215094317E+00 -0.4513799362613E+01  0.0000000000000E+00
-0.6050286792466E+00 -0.4441203398345E+01  0.0000000000000E+00
-0.6050358490600E+00 -0.4368607448512E+01  0.0000000000000E+00
-0.6050430188761E+00 -0.4296011471401E+01  0.0000000000000E+00
-0.6050501886880E+00 -0.4223415537196E+01  0.0000000000000E+00
-0.6050573585025E+00 -0.4150819576378E+01  0.0000000000000E+00
-0.6050645283165E+00 -0.4078223620892E+01  0.0000000000000E+00
-0.6050716981297E+00 -0.4005627673422E+01  0.0000000000000E+00
-0.6050788679444E+00 -0.3933031710757E+01  0.0000000000000E+00
-0.6050860377568E+00 -0.3860435771899E+01  0.0000000000000E+00
-0.6050932075722E+00 -0.3787839801358E+01  0.0000000000000E+00
-0.6051003773936E+00 -0.3715243771590E+01  0.0000000000000E+00
-0.6051075472128E+00 -0.3642647762484E+01  0.0000000000000E+00
-0.6051147170235E+00 -0.3570051840222E+01  0.0000000000000E+00
-0.6051218868976E+00 -0.3497455277047E+01  0.0000000000000E+00
-0.6051290566518E+00 -0.3424859926848E+01  0.0000000000000E+00
-0.6051362264668E+00 -0.3352263960863E+01  0.0000000000000E+00
-0.6051433962740E+00 -0.3279668074425E+01  0.0000000000000E+00
-0.6051505660720E+00 -0.3207072280451E+01  0.0000000000000E+00
-0.6051577358736E+00 -0.3134476449843E+01  0.0000000000000E+00
-0.6051649056785E+00 -0.3061880586770E+01  0.0000000000000E+00
-0.6051827206324E+00 -0.2989284661228E+01  0.0000000000000E+00
-0.6052797452072E+00 -0.2916688965711E+01  0.0000000000000E+00
-0.6055511849337E+00 -0.2844094837942E+01  0.0000000000000E+00
-0.6060838262558E+00 -0.2771505552792E+01  0.0000000000000E+00
-0.6069415513641E+00 -0.2698926793447E+01  0.0000000000000E+00
-0.6081653324871E+00 -0.2626365704114E+01  0.0000000000000E+00
-0.6097813675272E+00 -0.2553830617177E+01  0.0000000000000E+00
-0.6118104758481E+00 -0.2481330517544E+01  0.0000000000000E+00
-0.6142762099169E+00 -0.2408876120636E+01  0.0000000000000E+00
-0.6172109703304E+00 -0.2336481012995E+01  0.0000000000000E+00
-0.6206129343837E+00 -0.2264155007098E+01  0.0000000000000E+00
-0.6244346032008E+00 -0.2191899860885E+01  0.0000000000000E+00
-0.6286420690109E+00 -0.2119717252272E+01  0.0000000000000E+00
-0.6332156112646E+00 -0.2047609959972E+01  0.0000000000000E+00
-0.6381487944950E+00 -0.1975582885952E+01  0.0000000000000E+00
-0.6434514950607E+00 -0.1903644927961E+01  0.0000000000000E+00
-0.6491634305650E+00 -0.1831813294687E+01  0.0000000000000E+00
-0.5775046061084E+00 -0.4658929169017E+01  0.0000000000000E+00
-0.5775092122072E+00 -0.4586271363775E+01  0.0000000000000E+00
-0.5775138183343E+00 -0.4513613112352E+01  0.0000000000000E+00
-0.5775184244485E+00 -0.4440955064626E+01  0.0000000000000E+00
-0.5775230305618E+00 -0.4368297031349E+01  0.0000000000000E+00
-0.5775276366768E+00 -0.4295638970769E+01  0.0000000000000E+00
-0.5775322427890E+00 -0.4222980953132E+01  0.0000000000000E+00
-0.5775368489030E+00 -0.4150322908860E+01  0.0000000000000E+00
-0.5775414550166E+00 -0.4077664869924E+01  0.0000000000000E+00
-0.5775460611297E+00 -0.4005006839010E+01  0.0000000000000E+00
-0.5775506672438E+00 -0.3932348792890E+01  0.0000000000000E+00
-0.5775552733564E+00 -0.3859690770596E+01  0.0000000000000E+00
-0.5775598794710E+00 -0.3787032716592E+01  0.0000000000000E+00
-0.5775644855893E+00 -0.3714374603311E+01  0.0000000000000E+00
-0.5775690917063E+00 -0.3641716510709E+01  0.0000000000000E+00
-0.5775736978178E+00 -0.3569058505025E+01  0.0000000000000E+00
-0.5775783039700E+00 -0.3496399857880E+01  0.0000000000000E+00
-0.5775829100452E+00 -0.3423742424750E+01  0.0000000000000E+00
-0.5775875161595E+00 -0.3351084375306E+01  0.0000000000000E+00
-0.5775921222688E+00 -0.3278426405476E+01  0.0000000000000E+00
-0.5775967283721E+00 -0.3205768528191E+01  0.0000000000000E+00
-0.5776013344778E+00 -0.3133110614240E+01  0.0000000000000E+00
-0.5776059405856E+00 -0.3060452667796E+01  0.0000000000000E+00
-0.5776207065436E+00 -0.2987794658827E+01  0.0000000000000E+00
-0.5777110710727E+00 -0.2915136879922E+01  0.0000000000000E+00
-0.5779678994248E+00 -0.2842480668871E+01  0.0000000000000E+00
-0.5784740215735E+00 -0.2769829300463E+01  0.0000000000000E+00
-0.5792904074149E+00 -0.2697188457929E+01  0.0000000000000E+00
-0.5804561613110E+00 -0.2624565285406E+01  0.0000000000000E+00
-0.5819962868433E+00 -0.2551968115375E+01  0.0000000000000E+00
-0.5839306542459E+00 -0.2479405932593E+01  0.0000000000000E+00
-0.5862817422636E+00 -0.2406889452499E+01  0.0000000000000E+00
-0.5890804744040E+00 -0.2334432261820E+01  0.0000000000000E+00
-0.5923251110489E+00 -0.2262044172811E+01  0.0000000000000E+00
-0.5959703187267E+00 -0.2189726943418E+01  0.0000000000000E+00
-0.5999837354740E+00 -0.2117482251598E+01  0.0000000000000E+00
-0.6043465397710E+00 -0.2045312876019E+01  0.0000000000000E+00
-0.6090525895346E+00 -0.1973223718658E+01  0.0000000000000E+00
-0.6141113108821E+00 -0.1901223677472E+01  0.0000000000000E+00
-0.6195606107491E+00 -0.1829329961147E+01  0.0000000000000E+00
-0.5500018030462E+00 -0.4658869964047E+01  0.0000000000000E+00
-0.5500036060886E+00 -0.4586152953959E+01  0.0000000000000E+00
-0.5500054091420E+00 -0.4513435497326E+01  0.0000000000000E+00
-0.5500072121905E+00 -0.4440718244555E+01  0.0000000000000E+00
-0.5500090152385E+00 -0.4368001006246E+01  0.0000000000000E+00
-0.5500108182873E+00 -0.4295283740612E+01  0.0000000000000E+00
-0.5500126213350E+00 -0.4222566517955E+01  0.0000000000000E+00
-0.5500144243833E+00 -0.4149849268642E+01  0.0000000000000E+00
-0.5500162274315E+00 -0.4077132024669E+01  0.0000000000000E+00
-0.5500180304795E+00 -0.4004414788725E+01  0.0000000000000E+00
-0.5500198335279E+00 -0.3931697537561E+01  0.0000000000000E+00
-0.5500216365757E+00 -0.3858980310244E+01  0.0000000000000E+00
-0.5500234396243E+00 -0.3786263051191E+01  0.0000000000000E+00
-0.5500252426743E+00 -0.3713545732813E+01  0.0000000000000E+00
-0.5500270457239E+00 -0.3640828435130E+01  0.0000000000000E+00
-0.5500288487712E+00 -0.3568111224436E+01  0.0000000000000E+00
-0.5500306518345E+00 -0.3495393371759E+01  0.0000000000000E+00
-0.5500324548677E+00 -0.3422676734085E+01  0.0000000000000E+00
-0.5500342579162E+00 -0.3349959479596E+01  0.0000000000000E+00
-0.5500360609627E+00 -0.3277242304786E+01  0.0000000000000E+00
-0.5500378640069E+00 -0.3204525222595E+01  0.0000000000000E+00
-0.5500396670520E+00 -0.3131808103709E+01  0.0000000000000E+00
-0.5500414700979E+00 -0.3059090952303E+01  0.0000000000000E+00
-0.5500529476950E+00 -0.2986373738320E+01  0.0000000000000E+00
-0.5501364128136E+00 -0.2913656754436E+01  0.0000000000000E+00
-0.5503783904272E+00 -0.2840941338509E+01  0.0000000000000E+00
-0.5508577540385E+00 -0.2768230765247E+01  0.0000000000000E+00
-0.5516325612498E+00 -0.2695530717925E+01  0.0000000000000E+00
-0.5527400485558E+00 -0.2622848340613E+01  0.0000000000000E+00
-0.5542040252180E+00 -0.2550191965884E+01  0.0000000000000E+00
-0.5560434123399E+00 -0.2477570578353E+01  0.0000000000000E+00
-0.5582796149445E+00 -0.2404994893474E+01  0.0000000000000E+00
-0.5609420794508E+00 -0.2332478498149E+01  0.0000000000000E+00
-0.5640291493261E+00 -0.2260031204427E+01  0.0000000000000E+00
-0.5674976565036E+00 -0.2187654770253E+01  0.0000000000000E+00
-0.5713167848275E+00 -0.2115350873628E+01  0.0000000000000E+00
-0.5754686118071E+00 -0.2043122293177E+01  0.0000000000000E+00
-0.5799472887431E+00 -0.1970973930881E+01  0.0000000000000E+00
-0.5847617915126E+00 -0.1898914684902E+01  0.0000000000000E+00
-0.5899482163835E+00 -0.1826961763921E+01  0.0000000000000E+00
-0.5225031123729E+00 -0.4658813981278E+01  0.0000000000000E+00
-0.5225062247393E+00 -0.4586040988536E+01  0.0000000000000E+00
-0.5225093371249E+00 -0.4513267548907E+01  0.0000000000000E+00
-0.5225124495017E+00 -0.4440494313297E+01  0.0000000000000E+00
-0.5225155618779E+00 -0.4367721092158E+01  0.0000000000000E+00
-0.5225186742552E+00 -0.4294947843675E+01  0.0000000000000E+00
-0.5225217866308E+00 -0.4222174638202E+01  0.0000000000000E+00
-0.5225248990074E+00 -0.4149401406051E+01  0.0000000000000E+00
-0.5225280113839E+00 -0.4076628179245E+01  0.0000000000000E+00
-0.5225311237600E+00 -0.4003854960475E+01  0.0000000000000E+00
-0.5225342361367E+00 -0.3931081726473E+01  0.0000000000000E+00
-0.5225373485124E+00 -0.3858308516336E+01  0.0000000000000E+00
-0.5225404608895E+00 -0.3785535274437E+01  0.0000000000000E+00
-0.5225435732691E+00 -0.3712761973169E+01  0.0000000000000E+00
-0.5225466856479E+00 -0.3639988692612E+01  0.0000000000000E+00
-0.5225497980229E+00 -0.3567215499111E+01  0.0000000000000E+00
-0.5225529104254E+00 -0.3494441663132E+01  0.0000000000000E+00
-0.5225560227759E+00 -0.3421669043092E+01  0.0000000000000E+00
-0.5225591351527E+00 -0.3348895805762E+01  0.0000000000000E+00
-0.5225622475262E+00 -0.3276122648172E+01  0.0000000000000E+00
-0.5225653598957E+00 -0.3203349583273E+01  0.0000000000000E+00
-0.5225684722668E+00 -0.3130576481651E+01  0.0000000000000E+00
-0.5225715846393E+00 -0.3057803347483E+01  0.0000000000000E+00
-0.5225838878364E+00 -0.2985030150688E+01  0.0000000000000E+00
-0.5226645791765E+00 -0.2912257184026E+01  0.0000000000000E+00
-0.5228958573808E+00 -0.2839485785418E+01  0.0000000000000E+00
-0.5233526522770E+00 -0.2766719229496E+01  0.0000000000000E+00
-0.5240901185848E+00 -0.2693963199577E+01  0.0000000000000E+00
-0.5251436309752E+00 -0.2621224839666E+01  0.0000000000000E+00
-0.5265358082435E+00 -0.2548512482425E+01  0.0000000000000E+00
-0.5282846254413E+00 -0.2475835112332E+01  0.0000000000000E+00
-0.5304104173394E+00 -0.2403203444858E+01  0.0000000000000E+00
-0.5329411580310E+00 -0.2330631067071E+01  0.0000000000000E+00
-0.5358752738152E+00 -0.2258127790822E+01  0.0000000000000E+00
-0.5391717550294E+00 -0.2185695374059E+01  0.0000000000000E+00
-0.5428013263252E+00 -0.2113335494818E+01  0.0000000000000E+00
-0.5467469613379E+00 -0.2041050931690E+01  0.0000000000000E+00
-0.5510031038032E+00 -0.1968846586659E+01  0.0000000000000E+00
-0.5555782807994E+00 -0.1896731358076E+01  0.0000000000000E+00
-0.5605067837800E+00 -0.1824722454622E+01  0.0000000000000E+00
-0.4950042080534E+00 -0.4658760848519E+01  0.0000000000000E+00
-0.4950084160981E+00 -0.4585934723130E+01  0.0000000000000E+00
-0.4950126241686E+00 -0.4513108150526E+01  0.0000000000000E+00
-0.4950168322273E+00 -0.4440281782090E+01  0.0000000000000E+00
-0.4950210402851E+00 -0.4367455428137E+01  0.0000000000000E+00
-0.4950252483446E+00 -0.4294629046819E+01  0.0000000000000E+00
-0.4950294564015E+00 -0.4221802708543E+01  0.0000000000000E+00
-0.4950336644600E+00 -0.4148976343569E+01  0.0000000000000E+00
-0.4950378725182E+00 -0.4076149983944E+01  0.0000000000000E+00
-0.4950420805759E+00 -0.4003323632361E+01  0.0000000000000E+00
-0.4950462886345E+00 -0.3930497265535E+01  0.0000000000000E+00
-0.4950504966917E+00 -0.3857670922591E+01  0.0000000000000E+00
-0.4950547047508E+00 -0.3784844547863E+01  0.0000000000000E+00
-0.4950589128133E+00 -0.3712018113721E+01  0.0000000000000E+00
-0.4950631208746E+00 -0.3639191700306E+01  0.0000000000000E+00
-0.4950673289308E+00 -0.3566365374010E+01  0.0000000000000E+00
-0.4950715370242E+00 -0.3493538404768E+01  0.0000000000000E+00
-0.4950757450473E+00 -0.3420712652352E+01  0.0000000000000E+00
-0.4950799531061E+00 -0.3347886282195E+01  0.0000000000000E+00
-0.4950841611603E+00 -0.3275059991837E+01  0.0000000000000E+00
-0.4950883692091E+00 -0.3202233794237E+01  0.0000000000000E+00
-0.4950925772601E+00 -0.3129407559887E+01  0.0000000000000E+00
-0.4950967853129E+00 -0.3056581292968E+01  0.0000000000000E+00
-0.4951097004640E+00 -0.2983754963374E+01  0.0000000000000E+00
-0.4951874043817E+00 -0.2910928863946E+01  0.0000000000000E+00
-0.4954077695377E+00 -0.2838104332664E+01  0.0000000000000E+00
-0.4958417820870E+00 -0.2765284644087E+01  0.0000000000000E+00
-0.4965416938684E+00 -0.2692475481572E+01  0.0000000000000E+00
-0.4975410177298E+00 -0.2619683989065E+01  0.0000000000000E+00
-0.4988611820019E+00 -0.2546918499309E+01  0.0000000000000E+00
-0.5005192156838E+00 -0.2474187996655E+01  0.0000000000000E+00
-0.5025343832951E+00 -0.2401503196589E+01  0.0000000000000E+00
-0.5049331866049E+00 -0.2328877686334E+01  0.0000000000000E+00
-0.5077141347430E+00 -0.2256321277556E+01  0.0000000000000E+00
-0.5108383764496E+00 -0.2183835728204E+01  0.0000000000000E+00
-0.5142781771833E+00 -0.2111422716353E+01  0.0000000000000E+00
-0.5180174067047E+00 -0.2039085020552E+01  0.0000000000000E+00
-0.5220508011842E+00 -0.1966827542795E+01  0.0000000000000E+00
-0.5263864389021E+00 -0.1894659181612E+01  0.0000000000000E+00
-0.5310568064991E+00 -0.1822597145681E+01  0.0000000000000E+00
-0.4675051002525E+00 -0.4658710568986E+01  0.0000000000000E+00
-0.4675102004944E+00 -0.4585834164169E+01  0.0000000000000E+00
-0.4675153007675E+00 -0.4512957311829E+01  0.0000000000000E+00
-0.4675204010264E+00 -0.4440080663798E+01  0.0000000000000E+00
-0.4675255012843E+00 -0.4367204030259E+01  0.0000000000000E+00
-0.4675306015441E+00 -0.4294327369336E+01  0.0000000000000E+00
-0.4675357018008E+00 -0.4221450751485E+01  0.0000000000000E+00
-0.4675408020595E+00 -0.4148574106919E+01  0.0000000000000E+00
-0.4675459023178E+00 -0.4075697467704E+01  0.0000000000000E+00
-0.4675510025755E+00 -0.4002820836537E+01  0.0000000000000E+00
-0.4675561028342E+00 -0.3929944190116E+01  0.0000000000000E+00
-0.4675612030913E+00 -0.3857067567594E+01  0.0000000000000E+00
-0.4675663033506E+00 -0.3784190913266E+01  0.0000000000000E+00
-0.4675714036141E+00 -0.3711314199484E+01  0.0000000000000E+00
-0.4675765038762E+00 -0.3638437506442E+01  0.0000000000000E+00
-0.4675816041321E+00 -0.3565560900580E+01  0.0000000000000E+00
-0.4675867044331E+00 -0.3492683651327E+01  0.0000000000000E+00
-0.4675918046488E+00 -0.3419807619741E+01  0.0000000000000E+00
-0.4675969049078E+00 -0.3346930969987E+01  0.0000000000000E+00
-0.4676020051612E+00 -0.3274054400087E+01  0.0000000000000E+00
-0.4676071054081E+00 -0.3201177923009E+01  0.0000000000000E+00
-0.4676122056576E+00 -0.3128301409157E+01  0.0000000000000E+00
-0.4676173059094E+00 -0.3055424862712E+01  0.0000000000000E+00
-0.4676306295327E+00 -0.2982548253547E+01  0.0000000000000E+00
-0.4677051425463E+00 -0.2909671874579E+01  0.0000000000000E+00
-0.4679143911723E+00 -0.2836797063844E+01  0.0000000000000E+00
-0.4683254178920E+00 -0.2763927095833E+01  0.0000000000000E+00
-0.4689875716638E+00 -0.2691067653940E+01  0.0000000000000E+00
-0.4699325035119E+00 -0.2618225882054E+01  0.0000000000000E+00
-0.4711804513026E+00 -0.2545410112997E+01  0.0000000000000E+00
-0.4727474979822E+00 -0.2472629330997E+01  0.0000000000000E+00
-0.4746518378190E+00 -0.2399894251555E+01  0.0000000000000E+00
-0.4769185002582E+00 -0.2327218462044E+01  0.0000000000000E+00
-0.4795460772598E+00 -0.2254611773950E+01  0.0000000000000E+00
-0.4824978759672E+00 -0.2182075945228E+01  0.0000000000000E+00
-0.4857477026460E+00 -0.2109612653982E+01  0.0000000000000E+00
-0.4892803231818E+00 -0.2037224678732E+01  0.0000000000000E+00
-0.4930907661800E+00 -0.1964916921473E+01  0.0000000000000E+00
-0.4971866611237E+00 -0.1892698280907E+01  0.0000000000000E+00
-0.5015986898404E+00 -0.1820585965710E+01  0.0000000000000E+00
-0.4400057998211E+00 -0.4658663145781E+01  0.0000000000000E+00
-0.4400115996301E+00 -0.4585739317857E+01  0.0000000000000E+00
-0.4400173994747E+00 -0.4512815042119E+01  0.0000000000000E+00
-0.4400231993031E+00 -0.4439890970823E+01  0.0000000000000E+00
-0.4400289991303E+00 -0.4366966914029E+01  0.0000000000000E+00
-0.4400347989596E+00 -0.4294042829833E+01  0.0000000000000E+00
-0.4400405987856E+00 -0.4221118788737E+01  0.0000000000000E+00
-0.4400463986137E+00 -0.4148194720907E+01  0.0000000000000E+00
-0.4400521984413E+00 -0.4075270658434E+01  0.0000000000000E+00
-0.4400579982683E+00 -0.4002346604013E+01  0.0000000000000E+00
-0.4400637980966E+00 -0.3929422534328E+01  0.0000000000000E+00
-0.4400695979229E+00 -0.3856498488558E+01  0.0000000000000E+00
-0.4400753977517E+00 -0.3783574410961E+01  0.0000000000000E+00
-0.4400811975853E+00 -0.3710650273871E+01  0.0000000000000E+00
-0.4400869974173E+00 -0.3637726157535E+01  0.0000000000000E+00
-0.4400927972423E+00 -0.3564802128435E+01  0.0000000000000E+00
-0.4400985971185E+00 -0.3491877455526E+01  0.0000000000000E+00
-0.4401043968978E+00 -0.3418954001076E+01  0.0000000000000E+00
-0.4401101967263E+00 -0.3346029928056E+01  0.0000000000000E+00
-0.4401159965484E+00 -0.3273105934943E+01  0.0000000000000E+00
-0.4401217963631E+00 -0.3200182034711E+01  0.0000000000000E+00
-0.4401275961808E+00 -0.3127258097681E+01  0.0000000000000E+00
-0.4401333960011E+00 -0.3054334128038E+01  0.0000000000000E+00
-0.4401469354660E+00 -0.2981410095632E+01  0.0000000000000E+00
-0.4402180649440E+00 -0.2908486293451E+01  0.0000000000000E+00
-0.4404160044070E+00 -0.2835564059586E+01  0.0000000000000E+00
-0.4408038526617E+00 -0.2762646668462E+01  0.0000000000000E+00
-0.4414280557851E+00 -0.2689739803510E+01  0.0000000000000E+00
-0.4423184029774E+00 -0.2616850608563E+01  0.0000000000000E+00
-0.4434939416404E+00 -0.2543987416518E+01  0.0000000000000E+00
-0.4449698086669E+00 -0.2471159211489E+01  0.0000000000000E+00
-0.4467631280738E+00 -0.2398376708990E+01  0.0000000000000E+00
-0.4488974569826E+00 -0.2325653496533E+01  0.0000000000000E+00
-0.4513714701828E+00 -0.2252999385440E+01  0.0000000000000E+00
-0.4541506332215E+00 -0.2180416133664E+01  0.0000000000000E+00
-0.4572102931718E+00 -0.2107905419345E+01  0.0000000000000E+00
-0.4605361120445E+00 -0.2035470020967E+01  0.0000000000000E+00
-0.4641234108799E+00 -0.1963114840532E+01  0.0000000000000E+00
-0.4679793703646E+00 -0.1890848776901E+01  0.0000000000000E+00
-0.4721328675123E+00 -0.1818689038749E+01  0.0000000000000E+00
-0.4125063188255E+00 -0.4658618581908E+01  0.0000000000000E+00
-0.4125126376377E+00 -0.4585650190204E+01  0.0000000000000E+00
-0.4125189564888E+00 -0.4512681350412E+01  0.0000000000000E+00
-0.4125252753222E+00 -0.4439712715187E+01  0.0000000000000E+00
-0.4125315941543E+00 -0.4366744094473E+01  0.0000000000000E+00
-0.4125379129888E+00 -0.4293775446340E+01  0.0000000000000E+00
-0.4125442318196E+00 -0.4220806841334E+01  0.0000000000000E+00
-0.4125505506527E+00 -0.4147838209578E+01  0.0000000000000E+00
-0.4125568694853E+00 -0.4074869583181E+01  0.0000000000000E+00
-0.4125631883172E+00 -0.4001900964841E+01  0.0000000000000E+00
-0.4125695071504E+00 -0.3928932331228E+01  0.0000000000000E+00
-0.4125758259816E+00 -0.3855963721545E+01  0.0000000000000E+00
-0.4125821448155E+00 -0.3782995080015E+01  0.0000000000000E+00
-0.4125884636546E+00 -0.3710026378956E+01  0.0000000000000E+00
-0.4125947824919E+00 -0.3637057698663E+01  0.0000000000000E+00
-0.4126011013216E+00 -0.3564089105661E+01  0.0000000000000E+00
-0.4126074202071E+00 -0.3491119868455E+01  0.0000000000000E+00
-0.4126137389871E+00 -0.3418151850454E+01  0.0000000000000E+00
-0.4126200578206E+00 -0.3345183213504E+01  0.0000000000000E+00
-0.4126263766472E+00 -0.3272214656509E+01  0.0000000000000E+00
-0.4126326954657E+00 -0.3199246192453E+01  0.0000000000000E+00
-0.4126390142875E+00 -0.3126277691576E+01  0.0000000000000E+00
-0.4126453331121E+00 -0.3053309158066E+01  0.0000000000000E+00
-0.4126589078544E+00 -0.2980340561753E+01  0.0000000000000E+00
-0.4127264732346E+00 -0.2907372195693E+01  0.0000000000000E+00
-0.4129129229765E+00 -0.2834405398026E+01  0.0000000000000E+00
-0.4132774122137E+00 -0.2761443443115E+01  0.0000000000000E+00
-0.4138634841439E+00 -0.2688492014427E+01  0.0000000000000E+00
-0.4146990661436E+00 -0.2615558255743E+01  0.0000000000000E+00
-0.4158020151508E+00 -0.2542650500030E+01  0.0000000000000E+00
-0.4171865220053E+00 -0.2469777731294E+01  0.0000000000000E+00
-0.4188686404727E+00 -0.2396950665061E+01  0.0000000000000E+00
-0.4208704553524E+00 -0.2324182888976E+01  0.0000000000000E+00
-0.4231907242625E+00 -0.2251484214202E+01  0.0000000000000E+00
-0.4257970711529E+00 -0.2178856398696E+01  0.0000000000000E+00
-0.4286663839034E+00 -0.2106301120627E+01  0.0000000000000E+00
-0.4317852206497E+00 -0.2033821158450E+01  0.0000000000000E+00
-0.4351491948666E+00 -0.1961421414169E+01  0.0000000000000E+00
-0.4387650384451E+00 -0.1889110786798E+01  0.0000000000000E+00
-0.4426598235861E+00 -0.1816906485009E+01  0.0000000000000E+00
-0.3850066669832E+00 -0.4658576880046E+01  0.0000000000000E+00
-0.3850133339525E+00 -0.4585566786567E+01  0.0000000000000E+00
-0.3850200009627E+00 -0.4512556244743E+01  0.0000000000000E+00
-0.3850266679543E+00 -0.4439545907604E+01  0.0000000000000E+00
-0.3850333349445E+00 -0.4366535584984E+01  0.0000000000000E+00
-0.3850400019372E+00 -0.4293525234929E+01  0.0000000000000E+00
-0.3850466689260E+00 -0.4220514928026E+01  0.0000000000000E+00
-0.3850533359172E+00 -0.4147504594357E+01  0.0000000000000E+00
-0.3850600029079E+00 -0.4074494266050E+01  0.0000000000000E+00
-0.3850666698979E+00 -0.4001483945806E+01  0.0000000000000E+00
-0.3850733368893E+00 -0.3928473610280E+01  0.0000000000000E+00
-0.3850800038785E+00 -0.3855463298697E+01  0.0000000000000E+00
-0.3850866708707E+00 -0.3782452955249E+01  0.0000000000000E+00
-0.3850933378682E+00 -0.3709442552238E+01  0.0000000000000E+00
-0.3851000048639E+00 -0.3636432170005E+01  0.0000000000000E+00
-0.3851066718516E+00 -0.3563421875112E+01  0.0000000000000E+00
-0.3851133388981E+00 -0.3490410935648E+01  0.0000000000000E+00
-0.3851200058333E+00 -0.3417401216084E+01  0.0000000000000E+00
-0.3851266728250E+00 -0.3344390877219E+01  0.0000000000000E+00
-0.3851333398094E+00 -0.3271380618355E+01  0.0000000000000E+00
-0.3851400067853E+00 -0.3198370452482E+01  0.0000000000000E+00
-0.3851466737645E+00 -0.3125360249768E+01  0.0000000000000E+00
-0.3851533407468E+00 -0.3052350014401E+01  0.0000000000000E+00
-0.3851667799195E+00 -0.2979339716195E+01  0.0000000000000E+00
-0.3852306103528E+00 -0.2906329648266E+01  0.0000000000000E+00
-0.3854053995203E+00 -0.2833321148803E+01  0.0000000000000E+00
-0.3857463588799E+00 -0.2760317492112E+01  0.0000000000000E+00
-0.3862941287481E+00 -0.2687324361690E+01  0.0000000000000E+00
-0.3870747746768E+00 -0.2614348901271E+01  0.0000000000000E+00
-0.3881049631399E+00 -0.2541399443887E+01  0.0000000000000E+00
-0.3893979389227E+00 -0.2468484973444E+01  0.0000000000000E+00
-0.3909686855394E+00 -0.2395616205479E+01  0.0000000000000E+00
-0.3928378154667E+00 -0.2322806727761E+01  0.0000000000000E+00
-0.3950041691510E+00 -0.2250066351305E+01  0.0000000000000E+00
-0.3974375289459E+00 -0.2177396834071E+01  0.0000000000000E+00
-0.4001163235393E+00 -0.2104799854255E+01  0.0000000000000E+00
-0.4030280071917E+00 -0.2032278190284E+01  0.0000000000000E+00
-0.4061684858133E+00 -0.1959836744166E+01  0.0000000000000E+00
-0.4095440424992E+00 -0.1887484415058E+01  0.0000000000000E+00
-0.4131799446368E+00 -0.1815238411627E+01  0.0000000000000E+00
-0.3575068566982E+00 -0.4658538042865E+01  0.0000000000000E+00
-0.3575137133821E+00 -0.4585489112285E+01  0.0000000000000E+00
-0.3575205701081E+00 -0.4512439733123E+01  0.0000000000000E+00
-0.3575274268148E+00 -0.4439390558754E+01  0.0000000000000E+00
-0.3575342835202E+00 -0.4366341398912E+01  0.0000000000000E+00
-0.3575411402282E+00 -0.4293292211620E+01  0.0000000000000E+00
-0.3575479969321E+00 -0.4220243067503E+01  0.0000000000000E+00
-0.3575548536386E+00 -0.4147193896606E+01  0.0000000000000E+00
-0.3575617103445E+00 -0.4074144731074E+01  0.0000000000000E+00
-0.3575685670497E+00 -0.4001095573609E+01  0.0000000000000E+00
-0.3575754237563E+00 -0.3928046400854E+01  0.0000000000000E+00
-0.3575822804607E+00 -0.3854997252054E+01  0.0000000000000E+00
-0.3575891371681E+00 -0.3781948071373E+01  0.0000000000000E+00
-0.3575959938810E+00 -0.3708898831097E+01  0.0000000000000E+00
-0.3576028505920E+00 -0.3635849611611E+01  0.0000000000000E+00
-0.3576097072948E+00 -0.3562800479510E+01  0.0000000000000E+00
-0.3576165640582E+00 -0.3489750702496E+01  0.0000000000000E+00
-0.3576234207069E+00 -0.3416702146031E+01  0.0000000000000E+00
-0.3576302774139E+00 -0.3343652969935E+01  0.0000000000000E+00
-0.3576371341133E+00 -0.3270603873882E+01  0.0000000000000E+00
-0.3576439908040E+00 -0.3197554870871E+01  0.0000000000000E+00
-0.3576508474981E+00 -0.3124505830998E+01  0.0000000000000E+00
-0.3576577041953E+00 -0.3051456758456E+01  0.0000000000000E+00
-0.3576708493558E+00 -0.2978407623039E+01  0.0000000000000E+00
-0.3577307864007E+00 -0.2905358717923E+01  0.0000000000000E+00
-0.3578937565552E+00 -0.2832311381340E+01  0.0000000000000E+00
-0.3582110276026E+00 -0.2759268887544E+01  0.0000000000000E+00
-0.3587203369794E+00 -0.2686236920060E+01  0.0000000000000E+00
-0.3594458884130E+00 -0.2613222622579E+01  0.0000000000000E+00
-0.3604031579141E+00 -0.2540234328192E+01  0.0000000000000E+00
-0.3616044442134E+00 -0.2467281020712E+01  0.0000000000000E+00
-0.3630636605739E+00 -0.2394373415687E+01  0.0000000000000E+00
-0.3647999471507E+00 -0.2321525101001E+01  0.0000000000000E+00
-0.3668122272178E+00 -0.2248745887532E+01  0.0000000000000E+00
-0.3690724415322E+00 -0.2176037533241E+01  0.0000000000000E+00
-0.3715605595890E+00 -0.2103401716352E+01  0.0000000000000E+00
-0.3742649317735E+00 -0.2030841215263E+01  0.0000000000000E+00
-0.3771817564307E+00 -0.1958360931988E+01  0.0000000000000E+00
-0.3803168678611E+00 -0.1885969765814E+01  0.0000000000000E+00
-0.3836937286386E+00 -0.1813684925408E+01  0.0000000000000E+00
-0.3300068987676E+00 -0.4658502072758E+01  0.0000000000000E+00
-0.3300137975208E+00 -0.4585417172147E+01  0.0000000000000E+00
-0.3300206963164E+00 -0.4512331822732E+01  0.0000000000000E+00
-0.3300275950926E+00 -0.4439246678212E+01  0.0000000000000E+00
-0.3300344938675E+00 -0.4366161548225E+01  0.0000000000000E+00
-0.3300413926450E+00 -0.4293076390776E+01  0.0000000000000E+00
-0.3300482914184E+00 -0.4219991276521E+01  0.0000000000000E+00
-0.3300551901943E+00 -0.4146906135475E+01  0.0000000000000E+00
-0.3300620889697E+00 -0.4073820999796E+01  0.0000000000000E+00
-0.3300689877443E+00 -0.4000735872187E+01  0.0000000000000E+00
-0.3300758865204E+00 -0.3927650729281E+01  0.0000000000000E+00
-0.3300827852943E+00 -0.3854565610343E+01  0.0000000000000E+00
-0.3300896840711E+00 -0.3781480459507E+01  0.0000000000000E+00
-0.3300965828536E+00 -0.3708395249047E+01  0.0000000000000E+00
-0.3301034816341E+00 -0.3635310059386E+01  0.0000000000000E+00
-0.3301103804063E+00 -0.3562224957155E+01  0.0000000000000E+00
-0.3301172792395E+00 -0.3489139209693E+01  0.0000000000000E+00
-0.3301241779574E+00 -0.3416054683381E+01  0.0000000000000E+00
-0.3301310767338E+00 -0.3342969537132E+01  0.0000000000000E+00
-0.3301379755026E+00 -0.3269884470966E+01  0.0000000000000E+00
-0.3301448742627E+00 -0.3196799497888E+01  0.0000000000000E+00
-0.3301517730262E+00 -0.3123714487929E+01  0.0000000000000E+00
-0.3301586717929E+00 -0.3050629445286E+01  0.0000000000000E+00
-0.3301713752953E+00 -0.2977544339735E+01  0.0000000000000E+00
-0.3302272713064E+00 -0.2904459464508E+01  0.0000000000000E+00
-0.3303782748028E+00 -0.2831376157875E+01  0.0000000000000E+00
-0.3306717098932E+00 -0.2758297694042E+01  0.0000000000000E+00
-0.3311424111341E+00 -0.2685229756563E+01  0.0000000000000E+00
-0.3318127204285E+00 -0.2612179489085E+01  0.0000000000000E+00
-0.3326969233240E+00 -0.2539155224757E+01  0.0000000000000E+00
-0.3338063724964E+00 -0.2466165947304E+01  0.0000000000000E+00
-0.3351539109577E+00 -0.2393222372285E+01  0.0000000000000E+00
-0.3367572065418E+00 -0.2320338087689E+01  0.0000000000000E+00
-0.3386152653497E+00 -0.2247522904270E+01  0.0000000000000E+00
-0.3407021865415E+00 -0.2174778579988E+01  0.0000000000000E+00
-0.3429994804201E+00 -0.2102106793092E+01  0.0000000000000E+00
-0.3454963934951E+00 -0.2029510321956E+01  0.0000000000000E+00
-0.3481894165466E+00 -0.1956994068596E+01  0.0000000000000E+00
-0.3510839350807E+00 -0.1884566932422E+01  0.0000000000000E+00
-0.3542016068581E+00 -0.1812246122100E+01  0.0000000000000E+00
-0.3025068041260E+00 -0.4658468971956E+01  0.0000000000000E+00
-0.3025136082379E+00 -0.4585350970612E+01  0.0000000000000E+00
-0.3025204123915E+00 -0.4512232520260E+01  0.0000000000000E+00
-0.3025272165261E+00 -0.4439114274896E+01  0.0000000000000E+00
-0.3025340206593E+00 -0.4365996044072E+01  0.0000000000000E+00
-0.3025408247951E+00 -0.4292877785773E+01  0.0000000000000E+00
-0.3025476289268E+00 -0.4219759570689E+01  0.0000000000000E+00
-0.3025544330610E+00 -0.4146641328800E+01  0.0000000000000E+00
-0.3025612371948E+00 -0.4073523092281E+01  0.0000000000000E+00
-0.3025680413278E+00 -0.4000404863836E+01  0.0000000000000E+00
-0.3025748454622E+00 -0.3927286620088E+01  0.0000000000000E+00
-0.3025816495944E+00 -0.3854168400317E+01  0.0000000000000E+00
-0.3025884537295E+00 -0.3781050148635E+01  0.0000000000000E+00
-0.3025952578702E+00 -0.3707931837301E+01  0.0000000000000E+00
-0.3026020620090E+00 -0.3634813546776E+01  0.0000000000000E+00
-0.3026088661396E+00 -0.3561695343720E+01  0.0000000000000E+00
-0.3026156703303E+00 -0.3488576495141E+01  0.0000000000000E+00
-0.3026224744073E+00 -0.3415458868265E+01  0.0000000000000E+00
-0.3026292785420E+00 -0.3342340621172E+01  0.0000000000000E+00
-0.3026360826693E+00 -0.3269222454198E+01  0.0000000000000E+00
-0.3026428867879E+00 -0.3196104380354E+01  0.0000000000000E+00
-0.3026496909099E+00 -0.3122986269612E+01  0.0000000000000E+00
-0.3026564950350E+00 -0.3049868126171E+01  0.0000000000000E+00
-0.3026686201683E+00 -0.2976749919793E+01  0.0000000000000E+00
-0.3027203384337E+00 -0.2903631943759E+01  0.0000000000000E+00
-0.3028592385586E+00 -0.2830515536376E+01  0.0000000000000E+00
-0.3031287009763E+00 -0.2757403971806E+01  0.0000000000000E+00
-0.3035606573625E+00 -0.2684302933626E+01  0.0000000000000E+00
-0.3041755877955E+00 -0.2611219565447E+01  0.0000000000000E+00
-0.3049865873595E+00 -0.2538162200469E+01  0.0000000000000E+00
-0.3060040626750E+00 -0.2465139822337E+01  0.0000000000000E+00
-0.3072397865029E+00 -0.2392163146619E+01  0.0000000000000E+00
-0.3087099543557E+00 -0.2319245761402E+01  0.0000000000000E+00
-0.3104136551612E+00 -0.2246397477324E+01  0.0000000000000E+00
-0.3123271464832E+00 -0.2173620052345E+01  0.0000000000000E+00
-0.3144334794324E+00 -0.2100915164739E+01  0.0000000000000E+00
-0.3167227966432E+00 -0.2028285592855E+01  0.0000000000000E+00
-0.3191918813306E+00 -0.1955736238713E+01  0.0000000000000E+00
-0.3218456702067E+00 -0.1883276001836E+01  0.0000000000000E+00
-0.3247040162189E+00 -0.1810922090887E+01  0.0000000000000E+00
-0.2750065847907E+00 -0.4658438742560E+01  0.0000000000000E+00
-0.2750131695678E+00 -0.4585290511882E+01  0.0000000000000E+00
-0.2750197543852E+00 -0.4512141832011E+01  0.0000000000000E+00
-0.2750263391843E+00 -0.4438993357213E+01  0.0000000000000E+00
-0.2750329239819E+00 -0.4365844896960E+01  0.0000000000000E+00
-0.2750395087821E+00 -0.4292696409222E+01  0.0000000000000E+00
-0.2750460935784E+00 -0.4219547964716E+01  0.0000000000000E+00
-0.2750526783771E+00 -0.4146399493394E+01  0.0000000000000E+00
-0.2750592631753E+00 -0.4073251027445E+01  0.0000000000000E+00
-0.2750658479728E+00 -0.4000102569572E+01  0.0000000000000E+00
-0.2750724327716E+00 -0.3926954096390E+01  0.0000000000000E+00
-0.2750790175683E+00 -0.3853805647195E+01  0.0000000000000E+00
-0.2750856023679E+00 -0.3780657166076E+01  0.0000000000000E+00
-0.2750921871729E+00 -0.3707508625281E+01  0.0000000000000E+00
-0.2750987719759E+00 -0.3634360105303E+01  0.0000000000000E+00
-0.2751053567711E+00 -0.3561211672831E+01  0.0000000000000E+00
-0.2751119416245E+00 -0.3488062594568E+01  0.0000000000000E+00
-0.2751185263678E+00 -0.3414914738513E+01  0.0000000000000E+00
-0.2751251111669E+00 -0.3341766261985E+01  0.0000000000000E+00
-0.2751316959589E+00 -0.3268617865609E+01  0.0000000000000E+00
-0.2751382807424E+00 -0.3195469562401E+01  0.0000000000000E+00
-0.2751448655293E+00 -0.3122321222281E+01  0.0000000000000E+00
-0.2751514503191E+00 -0.3049172849447E+01  0.0000000000000E+00
-0.2751628723896E+00 -0.2976024413650E+01  0.0000000000000E+00
-0.2752102882170E+00 -0.2902876208215E+01  0.0000000000000E+00
-0.2753369602811E+00 -0.2829729571484E+01  0.0000000000000E+00
-0.2755823253407E+00 -0.2756587777576E+01  0.0000000000000E+00
-0.2759754121923E+00 -0.2683456510093E+01  0.0000000000000E+00
-0.2765348390895E+00 -0.2610342912610E+01  0.0000000000000E+00
-0.2772725106540E+00 -0.2537255318374E+01  0.0000000000000E+00
-0.2781978874511E+00 -0.2464202710958E+01  0.0000000000000E+00
-0.2793216719906E+00 -0.2391195805938E+01  0.0000000000000E+00
-0.2806585874648E+00 -0.2318248191491E+01  0.0000000000000E+00
-0.2822078056280E+00 -0.2245369678147E+01  0.0000000000000E+00
-0.2839477424465E+00 -0.2172562023869E+01  0.0000000000000E+00
-0.2858629898386E+00 -0.2099826906950E+01  0.0000000000000E+00
-0.2879445865631E+00 -0.2027167105719E+01  0.0000000000000E+00
-0.2901896082697E+00 -0.1954587522199E+01  0.0000000000000E+00
-0.2926025428774E+00 -0.1882097056015E+01  0.0000000000000E+00
-0.2952014385204E+00 -0.1809712915830E+01  0.0000000000000E+00
-0.2475062510879E+00 -0.4658411386417E+01  0.0000000000000E+00
-0.2475125021628E+00 -0.4585235799654E+01  0.0000000000000E+00
-0.2475187532761E+00 -0.4512059763530E+01  0.0000000000000E+00
-0.2475250043718E+00 -0.4438883932554E+01  0.0000000000000E+00
-0.2475312554664E+00 -0.4365708116131E+01  0.0000000000000E+00
-0.2475375065632E+00 -0.4292532272210E+01  0.0000000000000E+00
-0.2475437576564E+00 -0.4219356471539E+01  0.0000000000000E+00
-0.2475500087518E+00 -0.4146180644042E+01  0.0000000000000E+00
-0.2475562598468E+00 -0.4073004821919E+01  0.0000000000000E+00
-0.2475625109411E+00 -0.3999829007876E+01  0.0000000000000E+00
-0.2475687620368E+00 -0.3926653178517E+01  0.0000000000000E+00
-0.2475750131303E+00 -0.3853477373156E+01  0.0000000000000E+00
-0.2475812642266E+00 -0.3780301535857E+01  0.0000000000000E+00
-0.2475875153280E+00 -0.3707125638860E+01  0.0000000000000E+00
-0.2475937664276E+00 -0.3633949762689E+01  0.0000000000000E+00
-0.2476000175198E+00 -0.3560773974055E+01  0.0000000000000E+00
-0.2476062686671E+00 -0.3487597539390E+01  0.0000000000000E+00
-0.2476125197100E+00 -0.3414422327390E+01  0.0000000000000E+00
-0.2476187708059E+00 -0.3341246494684E+01  0.0000000000000E+00
-0.2476250218949E+00 -0.3268070742161E+01  0.0000000000000E+00
-0.2476312729760E+00 -0.3194895082840E+01  0.0000000000000E+00
-0.2476375240603E+00 -0.3121719386594E+01  0.0000000000000E+00
-0.2476437751473E+00 -0.3048543657622E+01  0.0000000000000E+00
-0.2476543797871E+00 -0.2975367865661E+01  0.0000000000000E+00
-0.2476973788073E+00 -0.2902192304079E+01  0.0000000000000E+00
-0.2478117084387E+00 -0.2829018311249E+01  0.0000000000000E+00
-0.2480328617639E+00 -0.2755849161253E+01  0.0000000000000E+00
-0.2483869646989E+00 -0.2682690537711E+01  0.0000000000000E+00
-0.2488907736722E+00 -0.2609549584168E+01  0.0000000000000E+00
-0.2495550028424E+00 -0.2536434633916E+01  0.0000000000000E+00
-0.2503881667191E+00 -0.2463354670459E+01  0.0000000000000E+00
-0.2513998975606E+00 -0.2390320409382E+01  0.0000000000000E+00
-0.2526034462390E+00 -0.2317345438943E+01  0.0000000000000E+00
-0.2539980673341E+00 -0.2244439569574E+01  0.0000000000000E+00
-0.2555643352162E+00 -0.2171604559242E+01  0.0000000000000E+00
-0.2572883826116E+00 -0.2098842086256E+01  0.0000000000000E+00
-0.2591621444036E+00 -0.2026154928927E+01  0.0000000000000E+00
-0.2611829886770E+00 -0.1953547989281E+01  0.0000000000000E+00
-0.2633549545578E+00 -0.1881030167037E+01  0.0000000000000E+00
-0.2656942853663E+00 -0.1808618670854E+01  0.0000000000000E+00
-0.2200058151317E+00 -0.4658386905273E+01  0.0000000000000E+00
-0.2200116302512E+00 -0.4585186837416E+01  0.0000000000000E+00
-0.2200174454065E+00 -0.4511986320049E+01  0.0000000000000E+00
-0.2200232605455E+00 -0.4438786007899E+01  0.0000000000000E+00
-0.2200290756833E+00 -0.4365585710305E+01  0.0000000000000E+00
-0.2200348908233E+00 -0.4292385385205E+01  0.0000000000000E+00
-0.2200407059598E+00 -0.4219185103369E+01  0.0000000000000E+00
-0.2200465210985E+00 -0.4145984794698E+01  0.0000000000000E+00
-0.2200523362367E+00 -0.4072784491403E+01  0.0000000000000E+00
-0.2200581513744E+00 -0.3999584196191E+01  0.0000000000000E+00
-0.2200639665132E+00 -0.3926383885658E+01  0.0000000000000E+00
-0.2200697816501E+00 -0.3853183599130E+01  0.0000000000000E+00
-0.2200755967896E+00 -0.3779983280655E+01  0.0000000000000E+00
-0.2200814119338E+00 -0.3706782902461E+01  0.0000000000000E+00
-0.2200872270764E+00 -0.3633582545100E+01  0.0000000000000E+00
-0.2200930422120E+00 -0.3560382275305E+01  0.0000000000000E+00
-0.2200988573989E+00 -0.3487181359263E+01  0.0000000000000E+00
-0.2201046724887E+00 -0.3413981666295E+01  0.0000000000000E+00
-0.2201104876278E+00 -0.3340781352414E+01  0.0000000000000E+00
-0.2201163027605E+00 -0.3267581118742E+01  0.0000000000000E+00
-0.2201221178858E+00 -0.3194380978304E+01  0.0000000000000E+00
-0.2201279330141E+00 -0.3121180800927E+01  0.0000000000000E+00
-0.2201337481449E+00 -0.3047980590815E+01  0.0000000000000E+00
-0.2201434331007E+00 -0.2974780317691E+01  0.0000000000000E+00
-0.2201819130612E+00 -0.2901580274962E+01  0.0000000000000E+00
-0.2202837980092E+00 -0.2828381801026E+01  0.0000000000000E+00
-0.2204806373518E+00 -0.2755188169933E+01  0.0000000000000E+00
-0.2207956541254E+00 -0.2682005065322E+01  0.0000000000000E+00
-0.2212437429334E+00 -0.2608839630710E+01  0.0000000000000E+00
-0.2218344274720E+00 -0.2535700199426E+01  0.0000000000000E+00
-0.2225752761947E+00 -0.2462595754916E+01  0.0000000000000E+00
-0.2234748511090E+00 -0.2389537012771E+01  0.0000000000000E+00
-0.2245449307669E+00 -0.2316537561322E+01  0.0000000000000E+00
-0.2257848525739E+00 -0.2243607210915E+01  0.0000000000000E+00
-0.2271773493033E+00 -0.2170747719517E+01  0.0000000000000E+00
-0.2287100944895E+00 -0.2097960765455E+01  0.0000000000000E+00
-0.2303759191400E+00 -0.2025249127022E+01  0.0000000000000E+00
-0.2321724837746E+00 -0.1952617706247E+01  0.0000000000000E+00
-0.2341033787265E+00 -0.1880075402931E+01  0.0000000000000E+00
-0.2361830425028E+00 -0.1807639425734E+01  0.0000000000000E+00
-0.1925052879758E+00 -0.4658365300648E+01  0.0000000000000E+00
-0.1925105759406E+00 -0.4585143628212E+01  0.0000000000000E+00
-0.1925158639379E+00 -0.4511921506133E+01  0.0000000000000E+00
-0.1925211519204E+00 -0.4438699589331E+01  0.0000000000000E+00
-0.1925264399018E+00 -0.4365477687090E+01  0.0000000000000E+00
-0.1925317278851E+00 -0.4292255757335E+01  0.0000000000000E+00
-0.1925370158654E+00 -0.4219033870856E+01  0.0000000000000E+00
-0.1925423038476E+00 -0.4145811957534E+01  0.0000000000000E+00
-0.1925475918294E+00 -0.4072590049591E+01  0.0000000000000E+00
-0.1925528798106E+00 -0.3999368149732E+01  0.0000000000000E+00
-0.1925581677930E+00 -0.3926146234548E+01  0.0000000000000E+00
-0.1925634557736E+00 -0.3852924343376E+01  0.0000000000000E+00
-0.1925687437565E+00 -0.3779702420247E+01  0.0000000000000E+00
-0.1925740317437E+00 -0.3706480437382E+01  0.0000000000000E+00
-0.1925793197294E+00 -0.3633258475356E+01  0.0000000000000E+00
-0.1925846077088E+00 -0.3560036600922E+01  0.0000000000000E+00
-0.1925898957349E+00 -0.3486814080050E+01  0.0000000000000E+00
-0.1925951836726E+00 -0.3413592782614E+01  0.0000000000000E+00
-0.1926004716552E+00 -0.3340370864080E+01  0.0000000000000E+00
-0.1926057596320E+00 -0.3267149025780E+01  0.0000000000000E+00
-0.1926110476020E+00 -0.3193927280741E+01  0.0000000000000E+00
-0.1926163355748E+00 -0.3120705498753E+01  0.0000000000000E+00
-0.1926216235498E+00 -0.3047483684019E+01  0.0000000000000E+00
-0.1926302976219E+00 -0.2974261806254E+01  0.0000000000000E+00
-0.1926641673231E+00 -0.2901040158897E+01  0.0000000000000E+00
-0.1927535163882E+00 -0.2827820080371E+01  0.0000000000000E+00
-0.1929259505487E+00 -0.2754604844696E+01  0.0000000000000E+00
-0.1932017899616E+00 -0.2681400135527E+01  0.0000000000000E+00
-0.1935940674049E+00 -0.2608213096357E+01  0.0000000000000E+00
-0.1941111161126E+00 -0.2535052060547E+01  0.0000000000000E+00
-0.1947595584820E+00 -0.2461926011493E+01  0.0000000000000E+00
-0.1955468862697E+00 -0.2388845664791E+01  0.0000000000000E+00
-0.1964834057080E+00 -0.2315824608836E+01  0.0000000000000E+00
-0.1975685370274E+00 -0.2242872653898E+01  0.0000000000000E+00
-0.1987871714047E+00 -0.2169991557945E+01  0.0000000000000E+00
-0.2001285231822E+00 -0.2097182999318E+01  0.0000000000000E+00
-0.2015863194915E+00 -0.2024449756296E+01  0.0000000000000E+00
-0.2031585132875E+00 -0.1951796730910E+01  0.0000000000000E+00
-0.2048482461110E+00 -0.1879232823034E+01  0.0000000000000E+00
-0.2066681516558E+00 -0.1806775241326E+01  0.0000000000000E+00
-0.1650046808342E+00 -0.4658346573894E+01  0.0000000000000E+00
-0.1650093616587E+00 -0.4585106174743E+01  0.0000000000000E+00
-0.1650140425120E+00 -0.4511865325833E+01  0.0000000000000E+00
-0.1650187233521E+00 -0.4438624682253E+01  0.0000000000000E+00
-0.1650234041912E+00 -0.4365384053239E+01  0.0000000000000E+00
-0.1650280850322E+00 -0.4292143396702E+01  0.0000000000000E+00
-0.1650327658704E+00 -0.4218902783454E+01  0.0000000000000E+00
-0.1650374467102E+00 -0.4145662143355E+01  0.0000000000000E+00
-0.1650421275498E+00 -0.4072421508636E+01  0.0000000000000E+00
-0.1650468083888E+00 -0.3999180882004E+01  0.0000000000000E+00
-0.1650514892288E+00 -0.3925940240043E+01  0.0000000000000E+00
-0.1650561700673E+00 -0.3852699622099E+01  0.0000000000000E+00
-0.1650608509078E+00 -0.3779458972191E+01  0.0000000000000E+00
-0.1650655317521E+00 -0.3706218262532E+01  0.0000000000000E+00
-0.1650702125951E+00 -0.3632977573716E+01  0.0000000000000E+00
-0.1650748934325E+00 -0.3559736972516E+01  0.0000000000000E+00
-0.1650795743113E+00 -0.3486495724711E+01  0.0000000000000E+00
-0.1650842551118E+00 -0.3413255700655E+01  0.0000000000000E+00
-0.1650889359520E+00 -0.3340015055344E+01  0.0000000000000E+00
-0.1650936167871E+00 -0.3266774490286E+01  0.0000000000000E+00
-0.1650982976162E+00 -0.3193534018513E+01  0.0000000000000E+00
-0.1651029784477E+00 -0.3120293509782E+01  0.0000000000000E+00
-0.1651076592813E+00 -0.3047052968296E+01  0.0000000000000E+00
-0.1651152424838E+00 -0.2973812363763E+01  0.0000000000000E+00
-0.1651444219395E+00 -0.2900571989649E+01  0.0000000000000E+00
-0.1652211551347E+00 -0.2827333184399E+01  0.0000000000000E+00
-0.1653691041251E+00 -0.2754099222006E+01  0.0000000000000E+00
-0.1656056861875E+00 -0.2680875786140E+01  0.0000000000000E+00
-0.1659420722746E+00 -0.2607670020273E+01  0.0000000000000E+00
-0.1663854051581E+00 -0.2534490257795E+01  0.0000000000000E+00
-0.1669413611788E+00 -0.2461345482056E+01  0.0000000000000E+00
-0.1676163618420E+00 -0.2388246408658E+01  0.0000000000000E+00
-0.1684192410609E+00 -0.2315206626052E+01  0.0000000000000E+00
-0.1693495018906E+00 -0.2242235944441E+01  0.0000000000000E+00
-0.1703941939114E+00 -0.2169336121793E+01  0.0000000000000E+00
-0.1715440722738E+00 -0.2096508836464E+01  0.0000000000000E+00
-0.1727937602337E+00 -0.2023756866719E+01  0.0000000000000E+00
-0.1741415031809E+00 -0.1951085114590E+01  0.0000000000000E+00
-0.1755899938642E+00 -0.1878502480015E+01  0.0000000000000E+00
-0.1771500611639E+00 -0.1806026171652E+01  0.0000000000000E+00
-0.1375040054788E+00 -0.4658330726195E+01  0.0000000000000E+00
-0.1375080109493E+00 -0.4585074479377E+01  0.0000000000000E+00
-0.1375120164444E+00 -0.4511817782703E+01  0.0000000000000E+00
-0.1375160219283E+00 -0.4438561291404E+01  0.0000000000000E+00
-0.1375200274113E+00 -0.4365304814673E+01  0.0000000000000E+00
-0.1375240328959E+00 -0.4292048310415E+01  0.0000000000000E+00
-0.1375280383781E+00 -0.4218791849453E+01  0.0000000000000E+00
-0.1375320438618E+00 -0.4145535361636E+01  0.0000000000000E+00
-0.1375360493451E+00 -0.4072278879200E+01  0.0000000000000E+00
-0.1375400548281E+00 -0.3999022404852E+01  0.0000000000000E+00
-0.1375440603118E+00 -0.3925765915171E+01  0.0000000000000E+00
-0.1375480657943E+00 -0.3852509449514E+01  0.0000000000000E+00
-0.1375520712785E+00 -0.3779252951886E+01  0.0000000000000E+00
-0.1375560767660E+00 -0.3705996394492E+01  0.0000000000000E+00
-0.1375600822523E+00 -0.3632739857948E+01  0.0000000000000E+00
-0.1375640877338E+00 -0.3559483409037E+01  0.0000000000000E+00
-0.1375680932507E+00 -0.3486226313383E+01  0.0000000000000E+00
-0.1375720987007E+00 -0.3412970441741E+01  0.0000000000000E+00
-0.1375761041846E+00 -0.3339713948710E+01  0.0000000000000E+00
-0.1375801096642E+00 -0.3266457535950E+01  0.0000000000000E+00
-0.1375841151387E+00 -0.3193201216495E+01  0.0000000000000E+00
-0.1375881206152E+00 -0.3119944860073E+01  0.0000000000000E+00
-0.1375921260934E+00 -0.3046688470890E+01  0.0000000000000E+00
-0.1375985502126E+00 -0.2973432018646E+01  0.0000000000000E+00
-0.1376229712097E+00 -0.2900175796830E+01  0.0000000000000E+00
-0.1376870203236E+00 -0.2826921143905E+01  0.0000000000000E+00
-0.1378104159346E+00 -0.2753671333843E+01  0.0000000000000E+00
-0.1380076724401E+00 -0.2680432050327E+01  0.0000000000000E+00
-0.1382880989677E+00 -0.2607210436809E+01  0.0000000000000E+00
-0.1386576478271E+00 -0.2534014826704E+01  0.0000000000000E+00
-0.1391210493026E+00 -0.2460854203325E+01  0.0000000000000E+00
-0.1396836546487E+00 -0.2387739282277E+01  0.0000000000000E+00
-0.1403528254594E+00 -0.2314683652058E+01  0.0000000000000E+00
-0.1411281476146E+00 -0.2241697122816E+01  0.0000000000000E+00
-0.1419988290975E+00 -0.2168781452520E+01  0.0000000000000E+00
-0.1429571658668E+00 -0.2095938319535E+01  0.0000000000000E+00
-0.1439986773022E+00 -0.2023170502116E+01  0.0000000000000E+00
-0.1451219012286E+00 -0.1950482902297E+01  0.0000000000000E+00
-0.1463290816030E+00 -0.1877884420070E+01  0.0000000000000E+00
-0.1476292424924E+00 -0.1805392264092E+01  0.0000000000000E+00
-0.1100032727679E+00 -0.4658317758532E+01  0.0000000000000E+00
-0.1100065455290E+00 -0.4585048544080E+01  0.0000000000000E+00
-0.1100098183102E+00 -0.4511778879691E+01  0.0000000000000E+00
-0.1100130910822E+00 -0.4438509420714E+01  0.0000000000000E+00
-0.1100163638535E+00 -0.4365239976307E+01  0.0000000000000E+00
-0.1100196366261E+00 -0.4291970504368E+01  0.0000000000000E+00
-0.1100229093967E+00 -0.4218701075733E+01  0.0000000000000E+00
-0.1100261821686E+00 -0.4145431620239E+01  0.0000000000000E+00
-0.1100294549402E+00 -0.4072162170125E+01  0.0000000000000E+00
-0.1100327277114E+00 -0.3998892728102E+01  0.0000000000000E+00
-0.1100360004834E+00 -0.3925623270744E+01  0.0000000000000E+00
-0.1100392732542E+00 -0.3852353837413E+01  0.0000000000000E+00
-0.1100425460265E+00 -0.3779084372104E+01  0.0000000000000E+00
-0.1100458188015E+00 -0.3705814847021E+01  0.0000000000000E+00
-0.1100490915755E+00 -0.3632545342790E+01  0.0000000000000E+00
-0.1100523643456E+00 -0.3559275926208E+01  0.0000000000000E+00
-0.1100556371446E+00 -0.3486005862769E+01  0.0000000000000E+00
-0.1100589098889E+00 -0.3412737023558E+01  0.0000000000000E+00
-0.1100621826610E+00 -0.3339467562849E+01  0.0000000000000E+00
-0.1100654554295E+00 -0.3266198182424E+01  0.0000000000000E+00
-0.1100687281938E+00 -0.3192928895321E+01  0.0000000000000E+00
-0.1100720009598E+00 -0.3119659571245E+01  0.0000000000000E+00
-0.1100752737272E+00 -0.3046390214401E+01  0.0000000000000E+00
-0.1100804814074E+00 -0.2973120794485E+01  0.0000000000000E+00
-0.1101000865895E+00 -0.2899851605005E+01  0.0000000000000E+00
-0.1101513942642E+00 -0.2826583984439E+01  0.0000000000000E+00
-0.1102501791352E+00 -0.2753321206740E+01  0.0000000000000E+00
-0.1104080527204E+00 -0.2680068955602E+01  0.0000000000000E+00
-0.1106324623216E+00 -0.2606834374461E+01  0.0000000000000E+00
-0.1109281697863E+00 -0.2533625796754E+01  0.0000000000000E+00
-0.1112989593421E+00 -0.2460452205761E+01  0.0000000000000E+00
-0.1117491119923E+00 -0.2387324317091E+01  0.0000000000000E+00
-0.1122845170118E+00 -0.2314255719281E+01  0.0000000000000E+00
-0.1129048431049E+00 -0.2241256222433E+01  0.0000000000000E+00
-0.1136014566584E+00 -0.2168327584516E+01  0.0000000000000E+00
-0.1143681944392E+00 -0.2095471483905E+01  0.0000000000000E+00
-0.1152014719513E+00 -0.2022690698846E+01  0.0000000000000E+00
-0.1161001194546E+00 -0.1949990131373E+01  0.0000000000000E+00
-0.1170659321143E+00 -0.1877378681522E+01  0.0000000000000E+00
-0.1181061291839E+00 -0.1804873557950E+01  0.0000000000000E+00
-0.8250249454314E-01 -0.4658307671731E+01  0.0000000000000E+00
-0.8250498908109E-01 -0.4585028370497E+01  0.0000000000000E+00
-0.8250748363435E-01 -0.4511748619267E+01  0.0000000000000E+00
-0.8250997818062E-01 -0.4438469073475E+01  0.0000000000000E+00
-0.8251247272640E-01 -0.4365189542255E+01  0.0000000000000E+00
-0.8251496727311E-01 -0.4291909983500E+01  0.0000000000000E+00
-0.8251746181835E-01 -0.4218630468056E+01  0.0000000000000E+00
-0.8251995636450E-01 -0.4145350925747E+01  0.0000000000000E+00
-0.8252245091047E-01 -0.4072071388821E+01  0.0000000000000E+00
-0.8252494545616E-01 -0.3998791859985E+01  0.0000000000000E+00
-0.8252744000238E-01 -0.3925512315813E+01  0.0000000000000E+00
-0.8252993454778E-01 -0.3852232795671E+01  0.0000000000000E+00
-0.8253242909426E-01 -0.3778953243548E+01  0.0000000000000E+00
-0.8253492364278E-01 -0.3705673631641E+01  0.0000000000000E+00
-0.8253741819059E-01 -0.3632394040589E+01  0.0000000000000E+00
-0.8253991273542E-01 -0.3559114537199E+01  0.0000000000000E+00
-0.8254240730227E-01 -0.3485834386862E+01  0.0000000000000E+00
-0.8254490182744E-01 -0.3412555460923E+01  0.0000000000000E+00
-0.8254739637377E-01 -0.3339275913399E+01  0.0000000000000E+00
-0.8254989091737E-01 -0.3265996446170E+01  0.0000000000000E+00
-0.8255238545779E-01 -0.3192717072277E+01  0.0000000000000E+00
-0.8255487999946E-01 -0.3119437661405E+01  0.0000000000000E+00
-0.8255737454226E-01 -0.3046158217761E+01  0.0000000000000E+00
-0.8256132026964E-01 -0.2972878711036E+01  0.0000000000000E+00
-0.8257606412342E-01 -0.2899599434752E+01  0.0000000000000E+00
-0.8261458484651E-01 -0.2826321727400E+01  0.0000000000000E+00
-0.8268871346684E-01 -0.2753048862920E+01  0.0000000000000E+00
-0.8280715862262E-01 -0.2679786525011E+01  0.0000000000000E+00
-0.8297550579031E-01 -0.2606541857099E+01  0.0000000000000E+00
-0.8319732635544E-01 -0.2533323192637E+01  0.0000000000000E+00
-0.8347545848869E-01 -0.2460139514879E+01  0.0000000000000E+00
-0.8381311294265E-01 -0.2387001539440E+01  0.0000000000000E+00
-0.8421470667327E-01 -0.2313922854883E+01  0.0000000000000E+00
-0.8467999120903E-01 -0.2240913271277E+01  0.0000000000000E+00
-0.8520249134003E-01 -0.2167974546591E+01  0.0000000000000E+00
-0.8577758464144E-01 -0.2095108359206E+01  0.0000000000000E+00
-0.8640258274117E-01 -0.2022317487362E+01  0.0000000000000E+00
-0.8707660833415E-01 -0.1949606833093E+01  0.0000000000000E+00
-0.8780100779414E-01 -0.1876985296471E+01  0.0000000000000E+00
-0.8858119556126E-01 -0.1804470086151E+01  0.0000000000000E+00
-0.5500168202915E-01 -0.4658300466420E+01  0.0000000000000E+00
-0.5500336405479E-01 -0.4585013959890E+01  0.0000000000000E+00
-0.5500504609076E-01 -0.4511727003319E+01  0.0000000000000E+00
-0.5500672812202E-01 -0.4438440252207E+01  0.0000000000000E+00
-0.5500841015294E-01 -0.4365153515669E+01  0.0000000000000E+00
-0.5501009218450E-01 -0.4291866751592E+01  0.0000000000000E+00
-0.5501177421506E-01 -0.4218580030830E+01  0.0000000000000E+00
-0.5501345624623E-01 -0.4145293283201E+01  0.0000000000000E+00
-0.5501513827729E-01 -0.4072006540956E+01  0.0000000000000E+00
-0.5501682030815E-01 -0.3998719806802E+01  0.0000000000000E+00
-0.5501850233937E-01 -0.3925433057309E+01  0.0000000000000E+00
-0.5502018437004E-01 -0.3852146331850E+01  0.0000000000000E+00
-0.5502186640144E-01 -0.3778859574406E+01  0.0000000000000E+00
-0.5502354843422E-01 -0.3705572757172E+01  0.0000000000000E+00
-0.5502523046651E-01 -0.3632285960796E+01  0.0000000000000E+00
-0.5502691249680E-01 -0.3558999252090E+01  0.0000000000000E+00
-0.5502859454193E-01 -0.3485711896373E+01  0.0000000000000E+00
-0.5503027655896E-01 -0.3412425765174E+01  0.0000000000000E+00
-0.5503195859026E-01 -0.3339139012330E+01  0.0000000000000E+00
-0.5503364061971E-01 -0.3265852339789E+01  0.0000000000000E+00
-0.5503532264702E-01 -0.3192565760592E+01  0.0000000000000E+00
-0.5503700467518E-01 -0.3119279144413E+01  0.0000000000000E+00
-0.5503868670409E-01 -0.3045992495459E+01  0.0000000000000E+00
-0.5504133618940E-01 -0.2972705783417E+01  0.0000000000000E+00
-0.5505118442552E-01 -0.2899419301821E+01  0.0000000000000E+00
-0.5507688390763E-01 -0.2826134389170E+01  0.0000000000000E+00
-0.5512632198758E-01 -0.2752854319392E+01  0.0000000000000E+00
-0.5520530442408E-01 -0.2679584776194E+01  0.0000000000000E+00
-0.5531755486806E-01 -0.2606332902993E+01  0.0000000000000E+00
-0.5546545424311E-01 -0.2533107033253E+01  0.0000000000000E+00
-0.5565089466302E-01 -0.2459916150211E+01  0.0000000000000E+00
-0.5587601662944E-01 -0.2386770969482E+01  0.0000000000000E+00
-0.5614376477954E-01 -0.2313685079654E+01  0.0000000000000E+00
-0.5645397346590E-01 -0.2240668290768E+01  0.0000000000000E+00
-0.5680232588196E-01 -0.2167722360794E+01  0.0000000000000E+00
-0.5718574041112E-01 -0.2094848968118E+01  0.0000000000000E+00
-0.5760242480531E-01 -0.2022050890974E+01  0.0000000000000E+00
-0.5805179419448E-01 -0.1949333031399E+01  0.0000000000000E+00
-0.5853474616100E-01 -0.1876704289487E+01  0.0000000000000E+00
-0.5905489033159E-01 -0.1804181873893E+01  0.0000000000000E+00
-0.2750084664702E-01 -0.4658296143052E+01  0.0000000000000E+00
-0.2750169329227E-01 -0.4585005313163E+01  0.0000000000000E+00
-0.2750253994273E-01 -0.4511714033207E+01  0.0000000000000E+00
-0.2750338659081E-01 -0.4438422958722E+01  0.0000000000000E+00
-0.2750423323872E-01 -0.4365131898811E+01  0.0000000000000E+00
-0.2750507988695E-01 -0.4291840811361E+01  0.0000000000000E+00
-0.2750592653468E-01 -0.4218549767228E+01  0.0000000000000E+00
-0.2750677318272E-01 -0.4145258696226E+01  0.0000000000000E+00
-0.2750761983069E-01 -0.4071967630608E+01  0.0000000000000E+00
-0.2750846647858E-01 -0.3998676573082E+01  0.0000000000000E+00
-0.2750931312664E-01 -0.3925385500216E+01  0.0000000000000E+00
-0.2751015977442E-01 -0.3852094451385E+01  0.0000000000000E+00
-0.2751100642257E-01 -0.3778803370567E+01  0.0000000000000E+00
-0.2751185307142E-01 -0.3705512229957E+01  0.0000000000000E+00
-0.2751269972002E-01 -0.3632221110204E+01  0.0000000000000E+00
-0.2751354636761E-01 -0.3558930078128E+01  0.0000000000000E+00
-0.2751439302267E-01 -0.3485638399002E+01  0.0000000000000E+00
-0.2751523966359E-01 -0.3412347944467E+01  0.0000000000000E+00
-0.2751608631169E-01 -0.3339056868249E+01  0.0000000000000E+00
-0.2751693295887E-01 -0.3265765872339E+01  0.0000000000000E+00
-0.2751777960496E-01 -0.3192474969780E+01  0.0000000000000E+00
-0.2751862625148E-01 -0.3119184030236E+01  0.0000000000000E+00
-0.2751947289838E-01 -0.3045893057915E+01  0.0000000000000E+00
-0.2752080327345E-01 -0.2972602022502E+01  0.0000000000000E+00
-0.2752573302372E-01 -0.2899311217538E+01  0.0000000000000E+00
-0.2753858839655E-01 -0.2826021981525E+01  0.0000000000000E+00
-0.2756331306764E-01 -0.2752737588388E+01  0.0000000000000E+00
-0.2760280991616E-01 -0.2679463721835E+01  0.0000000000000E+00
-0.2765894076745E-01 -0.2606207525280E+01  0.0000000000000E+00
-0.2773289608320E-01 -0.2532977332192E+01  0.0000000000000E+00
-0.2782562192022E-01 -0.2459782125798E+01  0.0000000000000E+00
-0.2793818852921E-01 -0.2386632621716E+01  0.0000000000000E+00
-0.2807206822860E-01 -0.2313542408544E+01  0.0000000000000E+00
-0.2822717819500E-01 -0.2240521296308E+01  0.0000000000000E+00
-0.2840136002521E-01 -0.2167571042980E+01  0.0000000000000E+00
-0.2859307291094E-01 -0.2094693326949E+01  0.0000000000000E+00
-0.2880142072809E-01 -0.2021890926444E+01  0.0000000000000E+00
-0.2902611104167E-01 -0.1949168743503E+01  0.0000000000000E+00
-0.2926759264271E-01 -0.1876535678237E+01  0.0000000000000E+00
-0.2952767034453E-01 -0.1804008939299E+01  0.0000000000000E+00
 0.1341298349319E-09 -0.4658294701900E+01  0.0000000000000E+00
 0.2682591914974E-09 -0.4585002430862E+01  0.0000000000000E+00
 0.4023890727755E-09 -0.4511709709747E+01  0.0000000000000E+00
 0.5365191106208E-09 -0.4438417194108E+01  0.0000000000000E+00
 0.6706488917047E-09 -0.4365124693044E+01  0.0000000000000E+00
 0.8047786975213E-09 -0.4291832164439E+01  0.0000000000000E+00
 0.9389087816031E-09 -0.4218539679152E+01  0.0000000000000E+00
 0.1073038417292E-08 -0.4145247166996E+01  0.0000000000000E+00
 0.1207168223132E-08 -0.4071954660224E+01  0.0000000000000E+00
 0.1341298166205E-08 -0.3998662161544E+01  0.0000000000000E+00
 0.1475427971981E-08 -0.3925369647524E+01  0.0000000000000E+00
 0.1609557676437E-08 -0.3852077157540E+01  0.0000000000000E+00
 0.1743687719413E-08 -0.3778784635568E+01  0.0000000000000E+00
 0.1877817404503E-08 -0.3705492053802E+01  0.0000000000000E+00
 0.2011947688216E-08 -0.3632199492894E+01  0.0000000000000E+00
 0.2146077332986E-08 -0.3558907019664E+01  0.0000000000000E+00
 0.2280208460759E-08 -0.3485613899373E+01  0.0000000000000E+00
 0.2414336866020E-08 -0.3412322003696E+01  0.0000000000000E+00
 0.2548466983496E-08 -0.3339029486324E+01  0.0000000000000E+00
 0.2682596670357E-08 -0.3265737049261E+01  0.0000000000000E+00
 0.2816726179303E-08 -0.3192444705551E+01  0.0000000000000E+00
 0.2950855647716E-08 -0.3119152324855E+01  0.0000000000000E+00
 0.3084985400642E-08 -0.3045859911382E+01  0.0000000000000E+00
 0.3219175563967E-08 -0.2972567434816E+01  0.0000000000000E+00
 0.3353698875709E-08 -0.2899275188699E+01  0.0000000000000E+00
 0.3488929101874E-08 -0.2825984511537E+01  0.0000000000000E+00
 0.3625244852689E-08 -0.2752698677250E+01  0.0000000000000E+00
 0.3762956718963E-08 -0.2679423369550E+01  0.0000000000000E+00
 0.3902297562747E-08 -0.2606165731846E+01  0.0000000000000E+00
 0.4043435531594E-08 -0.2532934097612E+01  0.0000000000000E+00
 0.4186557924346E-08 -0.2459737450072E+01  0.0000000000000E+00
 0.4331879640973E-08 -0.2386586504841E+01  0.0000000000000E+00
 0.4479654786937E-08 -0.2313494850525E+01  0.0000000000000E+00
 0.4629287886613E-08 -0.2240472297144E+01  0.0000000000000E+00
 0.4780639212689E-08 -0.2167520602668E+01  0.0000000000000E+00
 0.4933757186728E-08 -0.2094641445488E+01  0.0000000000000E+00
 0.5088733054618E-08 -0.2021837603833E+01  0.0000000000000E+00
 0.5245556699726E-08 -0.1949113979741E+01  0.0000000000000E+00
 0.5404454798979E-08 -0.1876479473326E+01  0.0000000000000E+00
 0.5565504075676E-08 -0.1803951293244E+01  0.0000000000000E+00
 0.2750084691528E-01 -0.4658296143053E+01  0.0000000000000E+00
 0.2750169382879E-01 -0.4585005313166E+01  0.0000000000000E+00
 0.2750254074750E-01 -0.4511714033210E+01  0.0000000000000E+00
 0.2750338766384E-01 -0.4438422958726E+01  0.0000000000000E+00
 0.2750423458000E-01 -0.4365131898817E+01  0.0000000000000E+00
 0.2750508149649E-01 -0.4291840811368E+01  0.0000000000000E+00
 0.2750592841248E-01 -0.4218549767235E+01  0.0000000000000E+00
 0.2750677532877E-01 -0.4145258696235E+01  0.0000000000000E+00
 0.2750762224501E-01 -0.4071967630618E+01  0.0000000000000E+00
 0.2750846916115E-01 -0.3998676573093E+01  0.0000000000000E+00
 0.2750931607747E-01 -0.3925385500228E+01  0.0000000000000E+00
 0.2751016299351E-01 -0.3852094451398E+01  0.0000000000000E+00
 0.2751100990992E-01 -0.3778803370582E+01  0.0000000000000E+00
 0.2751185682702E-01 -0.3705512229972E+01  0.0000000000000E+00
 0.2751270374388E-01 -0.3632221110221E+01  0.0000000000000E+00
 0.2751355065973E-01 -0.3558930078145E+01  0.0000000000000E+00
 0.2751439758305E-01 -0.3485638399021E+01  0.0000000000000E+00
 0.2751524449223E-01 -0.3412347944487E+01  0.0000000000000E+00
 0.2751609140859E-01 -0.3339056868270E+01  0.0000000000000E+00
 0.2751693832401E-01 -0.3265765872362E+01  0.0000000000000E+00
 0.2751778523836E-01 -0.3192474969803E+01  0.0000000000000E+00
 0.2751863215314E-01 -0.3119184030260E+01  0.0000000000000E+00
 0.2751947906830E-01 -0.3045893057940E+01  0.0000000000000E+00
 0.2752080971174E-01 -0.2972602022528E+01  0.0000000000000E+00
 0.2752573973106E-01 -0.2899311217565E+01  0.0000000000000E+00
 0.2753859537435E-01 -0.2826021981554E+01  0.0000000000000E+00
 0.2756332031807E-01 -0.2752737588418E+01  0.0000000000000E+00
 0.2760281744201E-01 -0.2679463721866E+01  0.0000000000000E+00
 0.2765894857198E-01 -0.2606207525312E+01  0.0000000000000E+00
 0.2773290417001E-01 -0.2532977332225E+01  0.0000000000000E+00
 0.2782563029327E-01 -0.2459782125833E+01  0.0000000000000E+00
 0.2793819719290E-01 -0.2386632621751E+01  0.0000000000000E+00
 0.2807207718784E-01 -0.2313542408580E+01  0.0000000000000E+00
 0.2822718745350E-01 -0.2240521296346E+01  0.0000000000000E+00
 0.2840136958642E-01 -0.2167571043019E+01  0.0000000000000E+00
 0.2859308277837E-01 -0.2094693326988E+01  0.0000000000000E+00
 0.2880143090548E-01 -0.2021890926485E+01  0.0000000000000E+00
 0.2902612153270E-01 -0.1949168743545E+01  0.0000000000000E+00
 0.2926760345153E-01 -0.1876535678280E+01  0.0000000000000E+00
 0.2952768147545E-01 -0.1804008939343E+01  0.0000000000000E+00
 0.5500168229740E-01 -0.4658300466422E+01  0.0000000000000E+00
 0.5500336459129E-01 -0.4585013959894E+01  0.0000000000000E+00
 0.5500504689552E-01 -0.4511727003325E+01  0.0000000000000E+00
 0.5500672919502E-01 -0.4438440252216E+01  0.0000000000000E+00
 0.5500841149420E-01 -0.4365153515680E+01  0.0000000000000E+00
 0.5501009379400E-01 -0.4291866751605E+01  0.0000000000000E+00
 0.5501177609281E-01 -0.4218580030846E+01  0.0000000000000E+00
 0.5501345839224E-01 -0.4145293283219E+01  0.0000000000000E+00
 0.5501514069154E-01 -0.4072006540976E+01  0.0000000000000E+00
 0.5501682299066E-01 -0.3998719806824E+01  0.0000000000000E+00
 0.5501850529013E-01 -0.3925433057334E+01  0.0000000000000E+00
 0.5502018758905E-01 -0.3852146331877E+01  0.0000000000000E+00
 0.5502186988871E-01 -0.3778859574434E+01  0.0000000000000E+00
 0.5502355218973E-01 -0.3705572757203E+01  0.0000000000000E+00
 0.5502523449028E-01 -0.3632285960829E+01  0.0000000000000E+00
 0.5502691678881E-01 -0.3558999252125E+01  0.0000000000000E+00
 0.5502859910220E-01 -0.3485711896410E+01  0.0000000000000E+00
 0.5503028138748E-01 -0.3412425765214E+01  0.0000000000000E+00
 0.5503196368702E-01 -0.3339139012372E+01  0.0000000000000E+00
 0.5503364598473E-01 -0.3265852339833E+01  0.0000000000000E+00
 0.5503532828029E-01 -0.3192565760638E+01  0.0000000000000E+00
 0.5503701057670E-01 -0.3119279144462E+01  0.0000000000000E+00
 0.5503869287386E-01 -0.3045992495510E+01  0.0000000000000E+00
 0.5504134262754E-01 -0.2972705783470E+01  0.0000000000000E+00
 0.5505119113270E-01 -0.2899419301877E+01  0.0000000000000E+00
 0.5507689088526E-01 -0.2826134389227E+01  0.0000000000000E+00
 0.5512632923783E-01 -0.2752854319452E+01  0.0000000000000E+00
 0.5520531194975E-01 -0.2679584776256E+01  0.0000000000000E+00
 0.5531756267240E-01 -0.2606332903057E+01  0.0000000000000E+00
 0.5546546232972E-01 -0.2533107033319E+01  0.0000000000000E+00
 0.5565090303586E-01 -0.2459916150279E+01  0.0000000000000E+00
 0.5587602529292E-01 -0.2386770969553E+01  0.0000000000000E+00
 0.5614377373856E-01 -0.2313685079727E+01  0.0000000000000E+00
 0.5645398272418E-01 -0.2240668290843E+01  0.0000000000000E+00
 0.5680233544293E-01 -0.2167722360871E+01  0.0000000000000E+00
 0.5718575027832E-01 -0.2094848968198E+01  0.0000000000000E+00
 0.5760243498245E-01 -0.2022050891056E+01  0.0000000000000E+00
 0.5805180468526E-01 -0.1949333031483E+01  0.0000000000000E+00
 0.5853475696956E-01 -0.1876704289573E+01  0.0000000000000E+00
 0.5905490146225E-01 -0.1804181873982E+01  0.0000000000000E+00
 0.8250249481138E-01 -0.4658307671734E+01  0.0000000000000E+00
 0.8250498961757E-01 -0.4585028370504E+01  0.0000000000000E+00
 0.8250748443907E-01 -0.4511748619277E+01  0.0000000000000E+00
 0.8250997925358E-01 -0.4438469073488E+01  0.0000000000000E+00
 0.8251247406760E-01 -0.4365189542272E+01  0.0000000000000E+00
 0.8251496888255E-01 -0.4291909983520E+01  0.0000000000000E+00
 0.8251746369603E-01 -0.4218630468079E+01  0.0000000000000E+00
 0.8251995851042E-01 -0.4145350925774E+01  0.0000000000000E+00
 0.8252245332463E-01 -0.4072071388851E+01  0.0000000000000E+00
 0.8252494813856E-01 -0.3998791860019E+01  0.0000000000000E+00
 0.8252744295302E-01 -0.3925512315849E+01  0.0000000000000E+00
 0.8252993776665E-01 -0.3852232795711E+01  0.0000000000000E+00
 0.8253243258138E-01 -0.3778953243591E+01  0.0000000000000E+00
 0.8253492739814E-01 -0.3705673631687E+01  0.0000000000000E+00
 0.8253742221419E-01 -0.3632394040639E+01  0.0000000000000E+00
 0.8253991702726E-01 -0.3559114537252E+01  0.0000000000000E+00
 0.8254241186235E-01 -0.3485834386918E+01  0.0000000000000E+00
 0.8254490665576E-01 -0.3412555460983E+01  0.0000000000000E+00
 0.8254740147033E-01 -0.3339275913462E+01  0.0000000000000E+00
 0.8254989628217E-01 -0.3265996446236E+01  0.0000000000000E+00
 0.8255239109082E-01 -0.3192717072346E+01  0.0000000000000E+00
 0.8255488590074E-01 -0.3119437661478E+01  0.0000000000000E+00
 0.8255738071177E-01 -0.3046158217837E+01  0.0000000000000E+00
 0.8256132670752E-01 -0.2972878711115E+01  0.0000000000000E+00
 0.8257607083032E-01 -0.2899599434835E+01  0.0000000000000E+00
 0.8261459182386E-01 -0.2826321727487E+01  0.0000000000000E+00
 0.8268872071680E-01 -0.2753048863010E+01  0.0000000000000E+00
 0.8280716614798E-01 -0.2679786525104E+01  0.0000000000000E+00
 0.8297551359434E-01 -0.2606541857195E+01  0.0000000000000E+00
 0.8319733444172E-01 -0.2533323192736E+01  0.0000000000000E+00
 0.8347546686119E-01 -0.2460139514982E+01  0.0000000000000E+00
 0.8381312160577E-01 -0.2387001539546E+01  0.0000000000000E+00
 0.8421471563193E-01 -0.2313922854993E+01  0.0000000000000E+00
 0.8468000046694E-01 -0.2240913271390E+01  0.0000000000000E+00
 0.8520250090062E-01 -0.2167974546707E+01  0.0000000000000E+00
 0.8577759450824E-01 -0.2095108359326E+01  0.0000000000000E+00
 0.8640259291791E-01 -0.2022317487484E+01  0.0000000000000E+00
 0.8707661882451E-01 -0.1949606833219E+01  0.0000000000000E+00
 0.8780101860228E-01 -0.1876985296600E+01  0.0000000000000E+00
 0.8858120669148E-01 -0.1804470086283E+01  0.0000000000000E+00
 0.1100032730361E+00 -0.4658317758537E+01  0.0000000000000E+00
 0.1100065460654E+00 -0.4585048544088E+01  0.0000000000000E+00
 0.1100098191148E+00 -0.4511778879705E+01  0.0000000000000E+00
 0.1100130921551E+00 -0.4438509420732E+01  0.0000000000000E+00
 0.1100163651946E+00 -0.4365239976329E+01  0.0000000000000E+00
 0.1100196382354E+00 -0.4291970504395E+01  0.0000000000000E+00
 0.1100229112743E+00 -0.4218701075764E+01  0.0000000000000E+00
 0.1100261843144E+00 -0.4145431620274E+01  0.0000000000000E+00
 0.1100294573542E+00 -0.4072162170165E+01  0.0000000000000E+00
 0.1100327303937E+00 -0.3998892728146E+01  0.0000000000000E+00
 0.1100360034338E+00 -0.3925623270792E+01  0.0000000000000E+00
 0.1100392764729E+00 -0.3852353837466E+01  0.0000000000000E+00
 0.1100425495134E+00 -0.3779084372162E+01  0.0000000000000E+00
 0.1100458225566E+00 -0.3705814847083E+01  0.0000000000000E+00
 0.1100490955988E+00 -0.3632545342856E+01  0.0000000000000E+00
 0.1100523686372E+00 -0.3559275926279E+01  0.0000000000000E+00
 0.1100556417044E+00 -0.3486005862844E+01  0.0000000000000E+00
 0.1100589147169E+00 -0.3412737023638E+01  0.0000000000000E+00
 0.1100621877573E+00 -0.3339467562933E+01  0.0000000000000E+00
 0.1100654607940E+00 -0.3266198182512E+01  0.0000000000000E+00
 0.1100687338265E+00 -0.3192928895414E+01  0.0000000000000E+00
 0.1100720068607E+00 -0.3119659571342E+01  0.0000000000000E+00
 0.1100752798964E+00 -0.3046390214503E+01  0.0000000000000E+00
 0.1100804878449E+00 -0.2973120794592E+01  0.0000000000000E+00
 0.1101000932960E+00 -0.2899851605116E+01  0.0000000000000E+00
 0.1101514012411E+00 -0.2826583984554E+01  0.0000000000000E+00
 0.1102501863848E+00 -0.2753321206860E+01  0.0000000000000E+00
 0.1104080602454E+00 -0.2680068955726E+01  0.0000000000000E+00
 0.1106324701252E+00 -0.2606834374589E+01  0.0000000000000E+00
 0.1109281778722E+00 -0.2533625796887E+01  0.0000000000000E+00
 0.1112989677141E+00 -0.2460452205898E+01  0.0000000000000E+00
 0.1117491206549E+00 -0.2387324317233E+01  0.0000000000000E+00
 0.1122845259700E+00 -0.2314255719427E+01  0.0000000000000E+00
 0.1129048523623E+00 -0.2241256222584E+01  0.0000000000000E+00
 0.1136014662184E+00 -0.2168327584671E+01  0.0000000000000E+00
 0.1143682043055E+00 -0.2095471484065E+01  0.0000000000000E+00
 0.1152014821275E+00 -0.2022690699009E+01  0.0000000000000E+00
 0.1161001299444E+00 -0.1949990131541E+01  0.0000000000000E+00
 0.1170659429218E+00 -0.1877378681695E+01  0.0000000000000E+00
 0.1181061403135E+00 -0.1804873558127E+01  0.0000000000000E+00
 0.1375040057470E+00 -0.4658330726200E+01  0.0000000000000E+00
 0.1375080114857E+00 -0.4585074479388E+01  0.0000000000000E+00
 0.1375120172490E+00 -0.4511817782720E+01  0.0000000000000E+00
 0.1375160230011E+00 -0.4438561291426E+01  0.0000000000000E+00
 0.1375200287523E+00 -0.4365304814701E+01  0.0000000000000E+00
 0.1375240345051E+00 -0.4292048310448E+01  0.0000000000000E+00
 0.1375280402555E+00 -0.4218791849492E+01  0.0000000000000E+00
 0.1375320460074E+00 -0.4145535361680E+01  0.0000000000000E+00
 0.1375360517590E+00 -0.4072278879250E+01  0.0000000000000E+00
 0.1375400575101E+00 -0.3999022404907E+01  0.0000000000000E+00
 0.1375440632621E+00 -0.3925765915232E+01  0.0000000000000E+00
 0.1375480690127E+00 -0.3852509449581E+01  0.0000000000000E+00
 0.1375520747651E+00 -0.3779252951958E+01  0.0000000000000E+00
 0.1375560805208E+00 -0.3705996394570E+01  0.0000000000000E+00
 0.1375600862754E+00 -0.3632739858031E+01  0.0000000000000E+00
 0.1375640920251E+00 -0.3559483409126E+01  0.0000000000000E+00
 0.1375680978102E+00 -0.3486226313477E+01  0.0000000000000E+00
 0.1375721035284E+00 -0.3412970441841E+01  0.0000000000000E+00
 0.1375761092805E+00 -0.3339713948815E+01  0.0000000000000E+00
 0.1375801150283E+00 -0.3266457536060E+01  0.0000000000000E+00
 0.1375841207710E+00 -0.3193201216611E+01  0.0000000000000E+00
 0.1375881265157E+00 -0.3119944860195E+01  0.0000000000000E+00
 0.1375921322621E+00 -0.3046688471017E+01  0.0000000000000E+00
 0.1375985566497E+00 -0.2973432018779E+01  0.0000000000000E+00
 0.1376229779157E+00 -0.2900175796968E+01  0.0000000000000E+00
 0.1376870273001E+00 -0.2826921144049E+01  0.0000000000000E+00
 0.1378104231836E+00 -0.2753671333993E+01  0.0000000000000E+00
 0.1380076799644E+00 -0.2680432050482E+01  0.0000000000000E+00
 0.1382881067707E+00 -0.2607210436969E+01  0.0000000000000E+00
 0.1386576559123E+00 -0.2534014826870E+01  0.0000000000000E+00
 0.1391210576740E+00 -0.2460854203496E+01  0.0000000000000E+00
 0.1396836633107E+00 -0.2387739282454E+01  0.0000000000000E+00
 0.1403528344169E+00 -0.2314683652241E+01  0.0000000000000E+00
 0.1411281568713E+00 -0.2241697123004E+01  0.0000000000000E+00
 0.1419988386569E+00 -0.2168781452713E+01  0.0000000000000E+00
 0.1429571757323E+00 -0.2095938319734E+01  0.0000000000000E+00
 0.1439986874777E+00 -0.2023170502321E+01  0.0000000000000E+00
 0.1451219117177E+00 -0.1950482902508E+01  0.0000000000000E+00
 0.1463290924098E+00 -0.1877884420286E+01  0.0000000000000E+00
 0.1476292536212E+00 -0.1805392264313E+01  0.0000000000000E+00
 0.1650046811024E+00 -0.4658346573901E+01  0.0000000000000E+00
 0.1650093621951E+00 -0.4585106174756E+01  0.0000000000000E+00
 0.1650140433165E+00 -0.4511865325853E+01  0.0000000000000E+00
 0.1650187244248E+00 -0.4438624682280E+01  0.0000000000000E+00
 0.1650234055322E+00 -0.4365384053272E+01  0.0000000000000E+00
 0.1650280866413E+00 -0.4292143396742E+01  0.0000000000000E+00
 0.1650327677476E+00 -0.4218902783500E+01  0.0000000000000E+00
 0.1650374488557E+00 -0.4145662143408E+01  0.0000000000000E+00
 0.1650421299634E+00 -0.4072421508696E+01  0.0000000000000E+00
 0.1650468110706E+00 -0.3999180882070E+01  0.0000000000000E+00
 0.1650514921788E+00 -0.3925940240116E+01  0.0000000000000E+00
 0.1650561732855E+00 -0.3852699622179E+01  0.0000000000000E+00
 0.1650608543942E+00 -0.3779458972278E+01  0.0000000000000E+00
 0.1650655355067E+00 -0.3706218262625E+01  0.0000000000000E+00
 0.1650702166179E+00 -0.3632977573816E+01  0.0000000000000E+00
 0.1650748977234E+00 -0.3559736972622E+01  0.0000000000000E+00
 0.1650795788703E+00 -0.3486495724824E+01  0.0000000000000E+00
 0.1650842599390E+00 -0.3413255700775E+01  0.0000000000000E+00
 0.1650889410474E+00 -0.3340015055470E+01  0.0000000000000E+00
 0.1650936221507E+00 -0.3266774490419E+01  0.0000000000000E+00
 0.1650983032480E+00 -0.3193534018653E+01  0.0000000000000E+00
 0.1651029843477E+00 -0.3120293509928E+01  0.0000000000000E+00
 0.1651076654495E+00 -0.3047052968449E+01  0.0000000000000E+00
 0.1651152489203E+00 -0.2973812363923E+01  0.0000000000000E+00
 0.1651444286449E+00 -0.2900571989815E+01  0.0000000000000E+00
 0.1652211621105E+00 -0.2827333184571E+01  0.0000000000000E+00
 0.1653691113735E+00 -0.2754099222185E+01  0.0000000000000E+00
 0.1656056937112E+00 -0.2680875786326E+01  0.0000000000000E+00
 0.1659420800769E+00 -0.2607670020465E+01  0.0000000000000E+00
 0.1663854132426E+00 -0.2534490257994E+01  0.0000000000000E+00
 0.1669413695495E+00 -0.2461345482262E+01  0.0000000000000E+00
 0.1676163705033E+00 -0.2388246408871E+01  0.0000000000000E+00
 0.1684192500176E+00 -0.2315206626271E+01  0.0000000000000E+00
 0.1693495111465E+00 -0.2242235944667E+01  0.0000000000000E+00
 0.1703942034699E+00 -0.2169336122026E+01  0.0000000000000E+00
 0.1715440821385E+00 -0.2096508836703E+01  0.0000000000000E+00
 0.1727937704082E+00 -0.2023756866964E+01  0.0000000000000E+00
 0.1741415136690E+00 -0.1951085114842E+01  0.0000000000000E+00
 0.1755900046701E+00 -0.1878502480274E+01  0.0000000000000E+00
 0.1771500722917E+00 -0.1806026171918E+01  0.0000000000000E+00
 0.1925052882440E+00 -0.4658365300656E+01  0.0000000000000E+00
 0.1925105764769E+00 -0.4585143628228E+01  0.0000000000000E+00
 0.1925158647424E+00 -0.4511921506156E+01  0.0000000000000E+00
 0.1925211529930E+00 -0.4438699589362E+01  0.0000000000000E+00
 0.1925264412425E+00 -0.4365477687129E+01  0.0000000000000E+00
 0.1925317294941E+00 -0.4292255757381E+01  0.0000000000000E+00
 0.1925370177425E+00 -0.4219033870910E+01  0.0000000000000E+00
 0.1925423059928E+00 -0.4145811957596E+01  0.0000000000000E+00
 0.1925475942428E+00 -0.4072590049661E+01  0.0000000000000E+00
 0.1925528824922E+00 -0.3999368149810E+01  0.0000000000000E+00
 0.1925581707427E+00 -0.3926146234633E+01  0.0000000000000E+00
 0.1925634589914E+00 -0.3852924343469E+01  0.0000000000000E+00
 0.1925687472425E+00 -0.3779702420348E+01  0.0000000000000E+00
 0.1925740354978E+00 -0.3706480437491E+01  0.0000000000000E+00
 0.1925793237517E+00 -0.3633258475472E+01  0.0000000000000E+00
 0.1925846119993E+00 -0.3560036601046E+01  0.0000000000000E+00
 0.1925899002935E+00 -0.3486814080182E+01  0.0000000000000E+00
 0.1925951884994E+00 -0.3413592782753E+01  0.0000000000000E+00
 0.1926004767501E+00 -0.3340370864228E+01  0.0000000000000E+00
 0.1926057649950E+00 -0.3267149025935E+01  0.0000000000000E+00
 0.1926110532332E+00 -0.3193927280904E+01  0.0000000000000E+00
 0.1926163414741E+00 -0.3120705498923E+01  0.0000000000000E+00
 0.1926216297173E+00 -0.3047483684197E+01  0.0000000000000E+00
 0.1926303040577E+00 -0.2974261806440E+01  0.0000000000000E+00
 0.1926641740278E+00 -0.2901040159091E+01  0.0000000000000E+00
 0.1927535233632E+00 -0.2827820080573E+01  0.0000000000000E+00
 0.1929259577963E+00 -0.2754604844905E+01  0.0000000000000E+00
 0.1932017974845E+00 -0.2681400135744E+01  0.0000000000000E+00
 0.1935940752064E+00 -0.2608213096582E+01  0.0000000000000E+00
 0.1941111241963E+00 -0.2535052060780E+01  0.0000000000000E+00
 0.1947595668518E+00 -0.2461926011733E+01  0.0000000000000E+00
 0.1955468949300E+00 -0.2388845665039E+01  0.0000000000000E+00
 0.1964834146637E+00 -0.2315824609092E+01  0.0000000000000E+00
 0.1975685462823E+00 -0.2242872654162E+01  0.0000000000000E+00
 0.1987871809622E+00 -0.2169991558216E+01  0.0000000000000E+00
 0.2001285330459E+00 -0.2097182999597E+01  0.0000000000000E+00
 0.2015863296650E+00 -0.2024449756583E+01  0.0000000000000E+00
 0.2031585237745E+00 -0.1951796731204E+01  0.0000000000000E+00
 0.2048482569157E+00 -0.1879232823336E+01  0.0000000000000E+00
 0.2066681627825E+00 -0.1806775241636E+01  0.0000000000000E+00
 0.2200058153998E+00 -0.4658386905282E+01  0.0000000000000E+00
 0.2200116307875E+00 -0.4585186837434E+01  0.0000000000000E+00
 0.2200174462108E+00 -0.4511986320076E+01  0.0000000000000E+00
 0.2200232616179E+00 -0.4438786007934E+01  0.0000000000000E+00
 0.2200290770239E+00 -0.4365585710349E+01  0.0000000000000E+00
 0.2200348924320E+00 -0.4292385385258E+01  0.0000000000000E+00
 0.2200407078366E+00 -0.4219185103431E+01  0.0000000000000E+00
 0.2200465232434E+00 -0.4145984794769E+01  0.0000000000000E+00
 0.2200523386498E+00 -0.4072784491483E+01  0.0000000000000E+00
 0.2200581540556E+00 -0.3999584196280E+01  0.0000000000000E+00
 0.2200639694625E+00 -0.3926383885756E+01  0.0000000000000E+00
 0.2200697848676E+00 -0.3853183599236E+01  0.0000000000000E+00
 0.2200756002751E+00 -0.3779983280770E+01  0.0000000000000E+00
 0.2200814156875E+00 -0.3706782902585E+01  0.0000000000000E+00
 0.2200872310981E+00 -0.3633582545232E+01  0.0000000000000E+00
 0.2200930465019E+00 -0.3560382275447E+01  0.0000000000000E+00
 0.2200988619569E+00 -0.3487181359413E+01  0.0000000000000E+00
 0.2201046773148E+00 -0.3413981666454E+01  0.0000000000000E+00
 0.2201104927220E+00 -0.3340781352582E+01  0.0000000000000E+00
 0.2201163081229E+00 -0.3267581118919E+01  0.0000000000000E+00
 0.2201221235163E+00 -0.3194380978490E+01  0.0000000000000E+00
 0.2201279389127E+00 -0.3121180801122E+01  0.0000000000000E+00
 0.2201337543117E+00 -0.3047980591018E+01  0.0000000000000E+00
 0.2201434395357E+00 -0.2974780317904E+01  0.0000000000000E+00
 0.2201819197651E+00 -0.2901580275183E+01  0.0000000000000E+00
 0.2202838049834E+00 -0.2828381801256E+01  0.0000000000000E+00
 0.2204806445985E+00 -0.2755188170172E+01  0.0000000000000E+00
 0.2207956616474E+00 -0.2682005065570E+01  0.0000000000000E+00
 0.2212437507339E+00 -0.2608839630967E+01  0.0000000000000E+00
 0.2218344355546E+00 -0.2535700199692E+01  0.0000000000000E+00
 0.2225752845634E+00 -0.2462595755191E+01  0.0000000000000E+00
 0.2234748597682E+00 -0.2389537013054E+01  0.0000000000000E+00
 0.2245449397216E+00 -0.2316537561614E+01  0.0000000000000E+00
 0.2257848618277E+00 -0.2243607211216E+01  0.0000000000000E+00
 0.2271773588597E+00 -0.2170747719827E+01  0.0000000000000E+00
 0.2287101043520E+00 -0.2097960765773E+01  0.0000000000000E+00
 0.2303759293123E+00 -0.2025249127350E+01  0.0000000000000E+00
 0.2321724942604E+00 -0.1952617706584E+01  0.0000000000000E+00
 0.2341033895299E+00 -0.1880075403276E+01  0.0000000000000E+00
 0.2361830536282E+00 -0.1807639426087E+01  0.0000000000000E+00
 0.2475062513560E+00 -0.4658411386427E+01  0.0000000000000E+00
 0.2475125026990E+00 -0.4585235799674E+01  0.0000000000000E+00
 0.2475187540803E+00 -0.4512059763560E+01  0.0000000000000E+00
 0.2475250054442E+00 -0.4438883932594E+01  0.0000000000000E+00
 0.2475312568068E+00 -0.4365708116181E+01  0.0000000000000E+00
 0.2475375081717E+00 -0.4292532272270E+01  0.0000000000000E+00
 0.2475437595330E+00 -0.4219356471609E+01  0.0000000000000E+00
 0.2475500108965E+00 -0.4146180644121E+01  0.0000000000000E+00
 0.2475562622596E+00 -0.4073004822009E+01  0.0000000000000E+00
 0.2475625136220E+00 -0.3999829007976E+01  0.0000000000000E+00
 0.2475687649857E+00 -0.3926653178627E+01  0.0000000000000E+00
 0.2475750163473E+00 -0.3853477373275E+01  0.0000000000000E+00
 0.2475812677117E+00 -0.3780301535987E+01  0.0000000000000E+00
 0.2475875190812E+00 -0.3707125639000E+01  0.0000000000000E+00
 0.2475937704489E+00 -0.3633949762838E+01  0.0000000000000E+00
 0.2476000218091E+00 -0.3560773974215E+01  0.0000000000000E+00
 0.2476062732245E+00 -0.3487597539559E+01  0.0000000000000E+00
 0.2476125245354E+00 -0.3414422327569E+01  0.0000000000000E+00
 0.2476187758994E+00 -0.3341246494873E+01  0.0000000000000E+00
 0.2476250272566E+00 -0.3268070742360E+01  0.0000000000000E+00
 0.2476312786057E+00 -0.3194895083049E+01  0.0000000000000E+00
 0.2476375299581E+00 -0.3121719386813E+01  0.0000000000000E+00
 0.2476437813132E+00 -0.3048543657851E+01  0.0000000000000E+00
 0.2476543862212E+00 -0.2975367865900E+01  0.0000000000000E+00
 0.2476973855103E+00 -0.2902192304328E+01  0.0000000000000E+00
 0.2478117154120E+00 -0.2829018311508E+01  0.0000000000000E+00
 0.2480328690096E+00 -0.2755849161521E+01  0.0000000000000E+00
 0.2483869722199E+00 -0.2682690537989E+01  0.0000000000000E+00
 0.2488907814716E+00 -0.2609549584457E+01  0.0000000000000E+00
 0.2495550109240E+00 -0.2536434634215E+01  0.0000000000000E+00
 0.2503881750867E+00 -0.2463354670768E+01  0.0000000000000E+00
 0.2513999062187E+00 -0.2390320409700E+01  0.0000000000000E+00
 0.2526034551925E+00 -0.2317345439271E+01  0.0000000000000E+00
 0.2539980765867E+00 -0.2244439569913E+01  0.0000000000000E+00
 0.2555643447712E+00 -0.2171604559590E+01  0.0000000000000E+00
 0.2572883924727E+00 -0.2098842086614E+01  0.0000000000000E+00
 0.2591621545745E+00 -0.2026154929295E+01  0.0000000000000E+00
 0.2611829991614E+00 -0.1953547989660E+01  0.0000000000000E+00
 0.2633549653598E+00 -0.1881030167425E+01  0.0000000000000E+00
 0.2656942964902E+00 -0.1808618671252E+01  0.0000000000000E+00
 0.2750065850588E+00 -0.4658438742571E+01  0.0000000000000E+00
 0.2750131701039E+00 -0.4585290511904E+01  0.0000000000000E+00
 0.2750197551894E+00 -0.4512141832045E+01  0.0000000000000E+00
 0.2750263402564E+00 -0.4438993357257E+01  0.0000000000000E+00
 0.2750329253222E+00 -0.4365844897016E+01  0.0000000000000E+00
 0.2750395103904E+00 -0.4292696409288E+01  0.0000000000000E+00
 0.2750460954547E+00 -0.4219547964793E+01  0.0000000000000E+00
 0.2750526805214E+00 -0.4146399493482E+01  0.0000000000000E+00
 0.2750592655877E+00 -0.4073251027544E+01  0.0000000000000E+00
 0.2750658506532E+00 -0.4000102569683E+01  0.0000000000000E+00
 0.2750724357201E+00 -0.3926954096512E+01  0.0000000000000E+00
 0.2750790207848E+00 -0.3853805647328E+01  0.0000000000000E+00
 0.2750856058524E+00 -0.3780657166220E+01  0.0000000000000E+00
 0.2750921909254E+00 -0.3707508625436E+01  0.0000000000000E+00
 0.2750987759965E+00 -0.3634360105469E+01  0.0000000000000E+00
 0.2751053610598E+00 -0.3561211673007E+01  0.0000000000000E+00
 0.2751119461812E+00 -0.3488062594756E+01  0.0000000000000E+00
 0.2751185311925E+00 -0.3414914738712E+01  0.0000000000000E+00
 0.2751251162597E+00 -0.3341766262195E+01  0.0000000000000E+00
 0.2751317013197E+00 -0.3268617865830E+01  0.0000000000000E+00
 0.2751382863713E+00 -0.3195469562633E+01  0.0000000000000E+00
 0.2751448714262E+00 -0.3122321222524E+01  0.0000000000000E+00
 0.2751514564841E+00 -0.3049172849702E+01  0.0000000000000E+00
 0.2751628788227E+00 -0.2976024413916E+01  0.0000000000000E+00
 0.2752102949189E+00 -0.2902876208491E+01  0.0000000000000E+00
 0.2753369672533E+00 -0.2829729571771E+01  0.0000000000000E+00
 0.2755823325853E+00 -0.2756587777875E+01  0.0000000000000E+00
 0.2759754197121E+00 -0.2683456510402E+01  0.0000000000000E+00
 0.2765348468877E+00 -0.2610342912930E+01  0.0000000000000E+00
 0.2772725187343E+00 -0.2537255318706E+01  0.0000000000000E+00
 0.2781978958174E+00 -0.2464202711301E+01  0.0000000000000E+00
 0.2793216806473E+00 -0.2391195806292E+01  0.0000000000000E+00
 0.2806585964169E+00 -0.2318248191856E+01  0.0000000000000E+00
 0.2822078148791E+00 -0.2245369678523E+01  0.0000000000000E+00
 0.2839477520001E+00 -0.2172562024256E+01  0.0000000000000E+00
 0.2858629996983E+00 -0.2099826907348E+01  0.0000000000000E+00
 0.2879445967325E+00 -0.2027167106128E+01  0.0000000000000E+00
 0.2901896187525E+00 -0.1954587522619E+01  0.0000000000000E+00
 0.2926025536778E+00 -0.1882097056446E+01  0.0000000000000E+00
 0.2952014496426E+00 -0.1809712916272E+01  0.0000000000000E+00
 0.3025068043940E+00 -0.4658468971968E+01  0.0000000000000E+00
 0.3025136087739E+00 -0.4585350970636E+01  0.0000000000000E+00
 0.3025204131955E+00 -0.4512232520297E+01  0.0000000000000E+00
 0.3025272175981E+00 -0.4439114274945E+01  0.0000000000000E+00
 0.3025340219993E+00 -0.4365996044133E+01  0.0000000000000E+00
 0.3025408264030E+00 -0.4292877785846E+01  0.0000000000000E+00
 0.3025476308028E+00 -0.4219759570774E+01  0.0000000000000E+00
 0.3025544352050E+00 -0.4146641328897E+01  0.0000000000000E+00
 0.3025612396067E+00 -0.4073523092391E+01  0.0000000000000E+00
 0.3025680440077E+00 -0.4000404863958E+01  0.0000000000000E+00
 0.3025748484101E+00 -0.3927286620221E+01  0.0000000000000E+00
 0.3025816528103E+00 -0.3854168400463E+01  0.0000000000000E+00
 0.3025884572134E+00 -0.3781050148793E+01  0.0000000000000E+00
 0.3025952616221E+00 -0.3707931837471E+01  0.0000000000000E+00
 0.3026020660289E+00 -0.3634813546959E+01  0.0000000000000E+00
 0.3026088704275E+00 -0.3561695343915E+01  0.0000000000000E+00
 0.3026156748862E+00 -0.3488576495348E+01  0.0000000000000E+00
 0.3026224792312E+00 -0.3415458868484E+01  0.0000000000000E+00
 0.3026292836339E+00 -0.3342340621403E+01  0.0000000000000E+00
 0.3026360880292E+00 -0.3269222454441E+01  0.0000000000000E+00
 0.3026428924158E+00 -0.3196104380609E+01  0.0000000000000E+00
 0.3026496968058E+00 -0.3122986269880E+01  0.0000000000000E+00
 0.3026565011989E+00 -0.3049868126451E+01  0.0000000000000E+00
 0.3026686266003E+00 -0.2976749920085E+01  0.0000000000000E+00
 0.3027203451345E+00 -0.2903631944063E+01  0.0000000000000E+00
 0.3028592455296E+00 -0.2830515536692E+01  0.0000000000000E+00
 0.3031287082196E+00 -0.2757403972134E+01  0.0000000000000E+00
 0.3035606648810E+00 -0.2684302933966E+01  0.0000000000000E+00
 0.3041755955924E+00 -0.2611219565799E+01  0.0000000000000E+00
 0.3049865954384E+00 -0.2538162200834E+01  0.0000000000000E+00
 0.3060040710399E+00 -0.2465139822714E+01  0.0000000000000E+00
 0.3072397951582E+00 -0.2392163147008E+01  0.0000000000000E+00
 0.3087099633062E+00 -0.2319245761804E+01  0.0000000000000E+00
 0.3104136644108E+00 -0.2246397477737E+01  0.0000000000000E+00
 0.3123271560352E+00 -0.2173620052771E+01  0.0000000000000E+00
 0.3144334892904E+00 -0.2100915165177E+01  0.0000000000000E+00
 0.3167228068109E+00 -0.2028285593305E+01  0.0000000000000E+00
 0.3191918918116E+00 -0.1955736239175E+01  0.0000000000000E+00
 0.3218456810053E+00 -0.1883276002310E+01  0.0000000000000E+00
 0.3247040273393E+00 -0.1810922091373E+01  0.0000000000000E+00
 0.3300068990355E+00 -0.4658502072771E+01  0.0000000000000E+00
 0.3300137980567E+00 -0.4585417172174E+01  0.0000000000000E+00
 0.3300206971202E+00 -0.4512331822772E+01  0.0000000000000E+00
 0.3300275961644E+00 -0.4439246678265E+01  0.0000000000000E+00
 0.3300344952072E+00 -0.4366161548291E+01  0.0000000000000E+00
 0.3300413942526E+00 -0.4293076390855E+01  0.0000000000000E+00
 0.3300482932940E+00 -0.4219991276614E+01  0.0000000000000E+00
 0.3300551923378E+00 -0.4146906135581E+01  0.0000000000000E+00
 0.3300620913812E+00 -0.4073820999915E+01  0.0000000000000E+00
 0.3300689904238E+00 -0.4000735872320E+01  0.0000000000000E+00
 0.3300758894678E+00 -0.3927650729427E+01  0.0000000000000E+00
 0.3300827885096E+00 -0.3854565610502E+01  0.0000000000000E+00
 0.3300896875544E+00 -0.3781480459680E+01  0.0000000000000E+00
 0.3300965866048E+00 -0.3708395249233E+01  0.0000000000000E+00
 0.3301034856532E+00 -0.3635310059585E+01  0.0000000000000E+00
 0.3301103846934E+00 -0.3562224957367E+01  0.0000000000000E+00
 0.3301172837945E+00 -0.3489139209918E+01  0.0000000000000E+00
 0.3301241827804E+00 -0.3416054683619E+01  0.0000000000000E+00
 0.3301310818247E+00 -0.3342969537384E+01  0.0000000000000E+00
 0.3301379808615E+00 -0.3269884471232E+01  0.0000000000000E+00
 0.3301448798895E+00 -0.3196799498167E+01  0.0000000000000E+00
 0.3301517789210E+00 -0.3123714488221E+01  0.0000000000000E+00
 0.3301586779556E+00 -0.3050629445591E+01  0.0000000000000E+00
 0.3301713817261E+00 -0.2977544340053E+01  0.0000000000000E+00
 0.3302272780059E+00 -0.2904459464839E+01  0.0000000000000E+00
 0.3303782817725E+00 -0.2831376158220E+01  0.0000000000000E+00
 0.3306717171352E+00 -0.2758297694401E+01  0.0000000000000E+00
 0.3311424186512E+00 -0.2685229756934E+01  0.0000000000000E+00
 0.3318127282240E+00 -0.2612179489470E+01  0.0000000000000E+00
 0.3326969314014E+00 -0.2539155225155E+01  0.0000000000000E+00
 0.3338063808598E+00 -0.2466165947716E+01  0.0000000000000E+00
 0.3351539196114E+00 -0.2393222372710E+01  0.0000000000000E+00
 0.3367572154907E+00 -0.2320338088127E+01  0.0000000000000E+00
 0.3386152745975E+00 -0.2247522904721E+01  0.0000000000000E+00
 0.3407021960918E+00 -0.2174778580452E+01  0.0000000000000E+00
 0.3429994902762E+00 -0.2102106793569E+01  0.0000000000000E+00
 0.3454964036609E+00 -0.2029510322446E+01  0.0000000000000E+00
 0.3481894270257E+00 -0.1956994069100E+01  0.0000000000000E+00
 0.3510839458773E+00 -0.1884566932939E+01  0.0000000000000E+00
 0.3542016179765E+00 -0.1812246122631E+01  0.0000000000000E+00
 0.3575068569661E+00 -0.4658538042879E+01  0.0000000000000E+00
 0.3575137139178E+00 -0.4585489112314E+01  0.0000000000000E+00
 0.3575205709117E+00 -0.4512439733166E+01  0.0000000000000E+00
 0.3575274278864E+00 -0.4439390558811E+01  0.0000000000000E+00
 0.3575342848597E+00 -0.4366341398983E+01  0.0000000000000E+00
 0.3575411418356E+00 -0.4293292211706E+01  0.0000000000000E+00
 0.3575479988074E+00 -0.4220243067603E+01  0.0000000000000E+00
 0.3575548557817E+00 -0.4147193896721E+01  0.0000000000000E+00
 0.3575617127555E+00 -0.4074144731204E+01  0.0000000000000E+00
 0.3575685697286E+00 -0.4001095573752E+01  0.0000000000000E+00
 0.3575754267031E+00 -0.3928046401012E+01  0.0000000000000E+00
 0.3575822836754E+00 -0.3854997252227E+01  0.0000000000000E+00
 0.3575891406506E+00 -0.3781948071560E+01  0.0000000000000E+00
 0.3575959976315E+00 -0.3708898831298E+01  0.0000000000000E+00
 0.3576028546104E+00 -0.3635849611826E+01  0.0000000000000E+00
 0.3576097115811E+00 -0.3562800479740E+01  0.0000000000000E+00
 0.3576165686123E+00 -0.3489750702740E+01  0.0000000000000E+00
 0.3576234255290E+00 -0.3416702146290E+01  0.0000000000000E+00
 0.3576302825038E+00 -0.3343652970208E+01  0.0000000000000E+00
 0.3576371394711E+00 -0.3270603874170E+01  0.0000000000000E+00
 0.3576439964297E+00 -0.3197554871173E+01  0.0000000000000E+00
 0.3576508533917E+00 -0.3124505831314E+01  0.0000000000000E+00
 0.3576577103568E+00 -0.3051456758786E+01  0.0000000000000E+00
 0.3576708557852E+00 -0.2978407623384E+01  0.0000000000000E+00
 0.3577307930988E+00 -0.2905358718283E+01  0.0000000000000E+00
 0.3578937635234E+00 -0.2832311381714E+01  0.0000000000000E+00
 0.3582110348432E+00 -0.2759268887932E+01  0.0000000000000E+00
 0.3587203444949E+00 -0.2686236920463E+01  0.0000000000000E+00
 0.3594458962068E+00 -0.2613222622996E+01  0.0000000000000E+00
 0.3604031659898E+00 -0.2540234328623E+01  0.0000000000000E+00
 0.3616044525750E+00 -0.2467281021158E+01  0.0000000000000E+00
 0.3630636692258E+00 -0.2394373416147E+01  0.0000000000000E+00
 0.3647999560978E+00 -0.2321525101475E+01  0.0000000000000E+00
 0.3668122364638E+00 -0.2248745888021E+01  0.0000000000000E+00
 0.3690724510805E+00 -0.2176037533744E+01  0.0000000000000E+00
 0.3715605694432E+00 -0.2103401716869E+01  0.0000000000000E+00
 0.3742649419373E+00 -0.2030841215795E+01  0.0000000000000E+00
 0.3771817669077E+00 -0.1958360932534E+01  0.0000000000000E+00
 0.3803168786556E+00 -0.1885969766374E+01  0.0000000000000E+00
 0.3836937397548E+00 -0.1813684925983E+01  0.0000000000000E+00
 0.3850066672510E+00 -0.4658576880061E+01  0.0000000000000E+00
 0.3850133344881E+00 -0.4585566786598E+01  0.0000000000000E+00
 0.3850200017662E+00 -0.4512556244790E+01  0.0000000000000E+00
 0.3850266690256E+00 -0.4439545907666E+01  0.0000000000000E+00
 0.3850333362836E+00 -0.4366535585061E+01  0.0000000000000E+00
 0.3850400035442E+00 -0.4293525235022E+01  0.0000000000000E+00
 0.3850466708008E+00 -0.4220514928134E+01  0.0000000000000E+00
 0.3850533380599E+00 -0.4147504594480E+01  0.0000000000000E+00
 0.3850600053184E+00 -0.4074494266190E+01  0.0000000000000E+00
 0.3850666725763E+00 -0.4001483945960E+01  0.0000000000000E+00
 0.3850733398355E+00 -0.3928473610450E+01  0.0000000000000E+00
 0.3850800070925E+00 -0.3855463298882E+01  0.0000000000000E+00
 0.3850866743525E+00 -0.3782452955450E+01  0.0000000000000E+00
 0.3850933416179E+00 -0.3709442552454E+01  0.0000000000000E+00
 0.3851000088814E+00 -0.3636432170237E+01  0.0000000000000E+00
 0.3851066761369E+00 -0.3563421875359E+01  0.0000000000000E+00
 0.3851133434512E+00 -0.3490410935911E+01  0.0000000000000E+00
 0.3851200106542E+00 -0.3417401216363E+01  0.0000000000000E+00
 0.3851266779138E+00 -0.3344390877513E+01  0.0000000000000E+00
 0.3851333451660E+00 -0.3271380618664E+01  0.0000000000000E+00
 0.3851400124097E+00 -0.3198370452807E+01  0.0000000000000E+00
 0.3851466796568E+00 -0.3125360250108E+01  0.0000000000000E+00
 0.3851533469069E+00 -0.3052350014757E+01  0.0000000000000E+00
 0.3851667863476E+00 -0.2979339716566E+01  0.0000000000000E+00
 0.3852306170495E+00 -0.2906329648653E+01  0.0000000000000E+00
 0.3854054064870E+00 -0.2833321149205E+01  0.0000000000000E+00
 0.3857463661188E+00 -0.2760317492529E+01  0.0000000000000E+00
 0.3862941362620E+00 -0.2687324362123E+01  0.0000000000000E+00
 0.3870747824689E+00 -0.2614348901720E+01  0.0000000000000E+00
 0.3881049712139E+00 -0.2541399444351E+01  0.0000000000000E+00
 0.3893979472826E+00 -0.2468484973924E+01  0.0000000000000E+00
 0.3909686941895E+00 -0.2395616205974E+01  0.0000000000000E+00
 0.3928378244118E+00 -0.2322806728271E+01  0.0000000000000E+00
 0.3950041783950E+00 -0.2250066351831E+01  0.0000000000000E+00
 0.3974375384922E+00 -0.2177396834612E+01  0.0000000000000E+00
 0.4001163333914E+00 -0.2104799854812E+01  0.0000000000000E+00
 0.4030280173533E+00 -0.2032278190856E+01  0.0000000000000E+00
 0.4061684962881E+00 -0.1959836744754E+01  0.0000000000000E+00
 0.4095440532914E+00 -0.1887484415661E+01  0.0000000000000E+00
 0.4131799557506E+00 -0.1815238412246E+01  0.0000000000000E+00
 0.4125063190932E+00 -0.4658618581925E+01  0.0000000000000E+00
 0.4125126381733E+00 -0.4585650190237E+01  0.0000000000000E+00
 0.4125189572921E+00 -0.4512681350462E+01  0.0000000000000E+00
 0.4125252763933E+00 -0.4439712715254E+01  0.0000000000000E+00
 0.4125315954932E+00 -0.4366744094556E+01  0.0000000000000E+00
 0.4125379145954E+00 -0.4293775446440E+01  0.0000000000000E+00
 0.4125442336940E+00 -0.4220806841450E+01  0.0000000000000E+00
 0.4125505527948E+00 -0.4147838209710E+01  0.0000000000000E+00
 0.4125568718952E+00 -0.4074869583330E+01  0.0000000000000E+00
 0.4125631909949E+00 -0.4001900965006E+01  0.0000000000000E+00
 0.4125695100959E+00 -0.3928932331410E+01  0.0000000000000E+00
 0.4125758291948E+00 -0.3855963721744E+01  0.0000000000000E+00
 0.4125821482965E+00 -0.3782995080231E+01  0.0000000000000E+00
 0.4125884674034E+00 -0.3710026379188E+01  0.0000000000000E+00
 0.4125947865084E+00 -0.3637057698912E+01  0.0000000000000E+00
 0.4126011056059E+00 -0.3564089105926E+01  0.0000000000000E+00
 0.4126074247592E+00 -0.3491119868737E+01  0.0000000000000E+00
 0.4126137438069E+00 -0.3418151850752E+01  0.0000000000000E+00
 0.4126200629082E+00 -0.3345183213819E+01  0.0000000000000E+00
 0.4126263820025E+00 -0.3272214656840E+01  0.0000000000000E+00
 0.4126327010889E+00 -0.3199246192801E+01  0.0000000000000E+00
 0.4126390201784E+00 -0.3126277691941E+01  0.0000000000000E+00
 0.4126453392707E+00 -0.3053309158447E+01  0.0000000000000E+00
 0.4126589142810E+00 -0.2980340562151E+01  0.0000000000000E+00
 0.4127264799297E+00 -0.2907372196107E+01  0.0000000000000E+00
 0.4129129299416E+00 -0.2834405398456E+01  0.0000000000000E+00
 0.4132774194510E+00 -0.2761443443563E+01  0.0000000000000E+00
 0.4138634916560E+00 -0.2688492014891E+01  0.0000000000000E+00
 0.4146990739339E+00 -0.2615558256224E+01  0.0000000000000E+00
 0.4158020232230E+00 -0.2542650500527E+01  0.0000000000000E+00
 0.4171865303632E+00 -0.2469777731808E+01  0.0000000000000E+00
 0.4188686491207E+00 -0.2396950665591E+01  0.0000000000000E+00
 0.4208704642954E+00 -0.2324182889523E+01  0.0000000000000E+00
 0.4231907335043E+00 -0.2251484214766E+01  0.0000000000000E+00
 0.4257970806970E+00 -0.2178856399276E+01  0.0000000000000E+00
 0.4286663937532E+00 -0.2106301121224E+01  0.0000000000000E+00
 0.4317852308089E+00 -0.2033821159063E+01  0.0000000000000E+00
 0.4351492053391E+00 -0.1961421414798E+01  0.0000000000000E+00
 0.4387650492349E+00 -0.1889110787444E+01  0.0000000000000E+00
 0.4426598346975E+00 -0.1816906485672E+01  0.0000000000000E+00
 0.4400058000888E+00 -0.4658663145799E+01  0.0000000000000E+00
 0.4400116001655E+00 -0.4585739317892E+01  0.0000000000000E+00
 0.4400174002778E+00 -0.4512815042172E+01  0.0000000000000E+00
 0.4400232003739E+00 -0.4439890970894E+01  0.0000000000000E+00
 0.4400290004688E+00 -0.4366966914117E+01  0.0000000000000E+00
 0.4400348005658E+00 -0.4294042829939E+01  0.0000000000000E+00
 0.4400406006595E+00 -0.4221118788861E+01  0.0000000000000E+00
 0.4400464007553E+00 -0.4148194721049E+01  0.0000000000000E+00
 0.4400522008506E+00 -0.4075270658593E+01  0.0000000000000E+00
 0.4400580009453E+00 -0.4002346604189E+01  0.0000000000000E+00
 0.4400638010413E+00 -0.3929422534522E+01  0.0000000000000E+00
 0.4400696011353E+00 -0.3856498488770E+01  0.0000000000000E+00
 0.4400754012318E+00 -0.3783574411191E+01  0.0000000000000E+00
 0.4400812013331E+00 -0.3710650274118E+01  0.0000000000000E+00
 0.4400870014328E+00 -0.3637726157800E+01  0.0000000000000E+00
 0.4400928015255E+00 -0.3564802128718E+01  0.0000000000000E+00
 0.4400986016694E+00 -0.3491877455827E+01  0.0000000000000E+00
 0.4401044017164E+00 -0.3418954001394E+01  0.0000000000000E+00
 0.4401102018126E+00 -0.3346029928392E+01  0.0000000000000E+00
 0.4401160019024E+00 -0.3273105935296E+01  0.0000000000000E+00
 0.4401218019848E+00 -0.3200182035083E+01  0.0000000000000E+00
 0.4401276020702E+00 -0.3127258098070E+01  0.0000000000000E+00
 0.4401334021582E+00 -0.3054334128444E+01  0.0000000000000E+00
 0.4401469418909E+00 -0.2981410096056E+01  0.0000000000000E+00
 0.4402180716374E+00 -0.2908486293893E+01  0.0000000000000E+00
 0.4404160113703E+00 -0.2835564060045E+01  0.0000000000000E+00
 0.4408038598970E+00 -0.2762646668939E+01  0.0000000000000E+00
 0.4414280632953E+00 -0.2689739804004E+01  0.0000000000000E+00
 0.4423184107658E+00 -0.2616850609075E+01  0.0000000000000E+00
 0.4434939497105E+00 -0.2543987417048E+01  0.0000000000000E+00
 0.4449698170227E+00 -0.2471159212037E+01  0.0000000000000E+00
 0.4467631367197E+00 -0.2398376709555E+01  0.0000000000000E+00
 0.4488974659235E+00 -0.2325653497116E+01  0.0000000000000E+00
 0.4513714794224E+00 -0.2252999386040E+01  0.0000000000000E+00
 0.4541506427632E+00 -0.2180416134282E+01  0.0000000000000E+00
 0.4572103030192E+00 -0.2107905419981E+01  0.0000000000000E+00
 0.4605361222013E+00 -0.2035470021620E+01  0.0000000000000E+00
 0.4641234213498E+00 -0.1963114841203E+01  0.0000000000000E+00
 0.4679793811517E+00 -0.1890848777590E+01  0.0000000000000E+00
 0.4721328786209E+00 -0.1818689039456E+01  0.0000000000000E+00
 0.4675051005201E+00 -0.4658710569005E+01  0.0000000000000E+00
 0.4675102010296E+00 -0.4585834164207E+01  0.0000000000000E+00
 0.4675153015704E+00 -0.4512957311885E+01  0.0000000000000E+00
 0.4675204020969E+00 -0.4440080663873E+01  0.0000000000000E+00
 0.4675255026224E+00 -0.4367204030353E+01  0.0000000000000E+00
 0.4675306031498E+00 -0.4294327369449E+01  0.0000000000000E+00
 0.4675357036742E+00 -0.4221450751617E+01  0.0000000000000E+00
 0.4675408042005E+00 -0.4148574107069E+01  0.0000000000000E+00
 0.4675459047264E+00 -0.4075697467873E+01  0.0000000000000E+00
 0.4675510052517E+00 -0.4002820836724E+01  0.0000000000000E+00
 0.4675561057781E+00 -0.3929944190322E+01  0.0000000000000E+00
 0.4675612063029E+00 -0.3857067567819E+01  0.0000000000000E+00
 0.4675663068298E+00 -0.3784190913510E+01  0.0000000000000E+00
 0.4675714073609E+00 -0.3711314199746E+01  0.0000000000000E+00
 0.4675765078906E+00 -0.3638437506723E+01  0.0000000000000E+00
 0.4675816084142E+00 -0.3565560900880E+01  0.0000000000000E+00
 0.4675867089827E+00 -0.3492683651646E+01  0.0000000000000E+00
 0.4675918094661E+00 -0.3419807620078E+01  0.0000000000000E+00
 0.4675969099927E+00 -0.3346930970343E+01  0.0000000000000E+00
 0.4676020105138E+00 -0.3274054400462E+01  0.0000000000000E+00
 0.4676071110283E+00 -0.3201177923403E+01  0.0000000000000E+00
 0.4676122115455E+00 -0.3128301409569E+01  0.0000000000000E+00
 0.4676173120649E+00 -0.3055424863144E+01  0.0000000000000E+00
 0.4676306359560E+00 -0.2982548253998E+01  0.0000000000000E+00
 0.4677051492379E+00 -0.2909671875048E+01  0.0000000000000E+00
 0.4679143981338E+00 -0.2836797064332E+01  0.0000000000000E+00
 0.4683254251255E+00 -0.2763927096339E+01  0.0000000000000E+00
 0.4689875791721E+00 -0.2691067654466E+01  0.0000000000000E+00
 0.4699325112982E+00 -0.2618225882598E+01  0.0000000000000E+00
 0.4711804593705E+00 -0.2545410113560E+01  0.0000000000000E+00
 0.4727475063358E+00 -0.2472629331579E+01  0.0000000000000E+00
 0.4746518464626E+00 -0.2399894252155E+01  0.0000000000000E+00
 0.4769185091967E+00 -0.2327218462663E+01  0.0000000000000E+00
 0.4795460864969E+00 -0.2254611774588E+01  0.0000000000000E+00
 0.4824978855064E+00 -0.2182075945884E+01  0.0000000000000E+00
 0.4857477124908E+00 -0.2109612654658E+01  0.0000000000000E+00
 0.4892803333359E+00 -0.2037224679426E+01  0.0000000000000E+00
 0.4930907766471E+00 -0.1964916922187E+01  0.0000000000000E+00
 0.4971866719080E+00 -0.1892698281639E+01  0.0000000000000E+00
 0.5015987009462E+00 -0.1820585966460E+01  0.0000000000000E+00
 0.4950042083210E+00 -0.4658760848539E+01  0.0000000000000E+00
 0.4950084166332E+00 -0.4585934723169E+01  0.0000000000000E+00
 0.4950126249712E+00 -0.4513108150585E+01  0.0000000000000E+00
 0.4950168332975E+00 -0.4440281782170E+01  0.0000000000000E+00
 0.4950210416229E+00 -0.4367455428237E+01  0.0000000000000E+00
 0.4950252499499E+00 -0.4294629046938E+01  0.0000000000000E+00
 0.4950294582744E+00 -0.4221802708682E+01  0.0000000000000E+00
 0.4950336666004E+00 -0.4148976343728E+01  0.0000000000000E+00
 0.4950378749262E+00 -0.4076149984123E+01  0.0000000000000E+00
 0.4950420832514E+00 -0.4003323632559E+01  0.0000000000000E+00
 0.4950462915776E+00 -0.3930497265753E+01  0.0000000000000E+00
 0.4950504999024E+00 -0.3857670922829E+01  0.0000000000000E+00
 0.4950547082290E+00 -0.3784844548121E+01  0.0000000000000E+00
 0.4950589165590E+00 -0.3712018113999E+01  0.0000000000000E+00
 0.4950631248879E+00 -0.3639191700604E+01  0.0000000000000E+00
 0.4950673332117E+00 -0.3566365374328E+01  0.0000000000000E+00
 0.4950715415726E+00 -0.3493538405106E+01  0.0000000000000E+00
 0.4950757498633E+00 -0.3420712652710E+01  0.0000000000000E+00
 0.4950799581896E+00 -0.3347886282572E+01  0.0000000000000E+00
 0.4950841665114E+00 -0.3275059992234E+01  0.0000000000000E+00
 0.4950883748277E+00 -0.3202233794654E+01  0.0000000000000E+00
 0.4950925831462E+00 -0.3129407560324E+01  0.0000000000000E+00
 0.4950967914666E+00 -0.3056581293425E+01  0.0000000000000E+00
 0.4951097068853E+00 -0.2983754963851E+01  0.0000000000000E+00
 0.4951874110714E+00 -0.2910928864443E+01  0.0000000000000E+00
 0.4954077764972E+00 -0.2838104333180E+01  0.0000000000000E+00
 0.4958417893184E+00 -0.2765284644623E+01  0.0000000000000E+00
 0.4965417013745E+00 -0.2692475482128E+01  0.0000000000000E+00
 0.4975410255139E+00 -0.2619683989641E+01  0.0000000000000E+00
 0.4988611900675E+00 -0.2546918499905E+01  0.0000000000000E+00
 0.5005192240350E+00 -0.2474187997271E+01  0.0000000000000E+00
 0.5025343919363E+00 -0.2401503197224E+01  0.0000000000000E+00
 0.5049331955409E+00 -0.2328877686990E+01  0.0000000000000E+00
 0.5077141439775E+00 -0.2256321278231E+01  0.0000000000000E+00
 0.5108383859861E+00 -0.2183835728900E+01  0.0000000000000E+00
 0.5142781870254E+00 -0.2111422717068E+01  0.0000000000000E+00
 0.5180174168560E+00 -0.2039085021287E+01  0.0000000000000E+00
 0.5220508116484E+00 -0.1966827543550E+01  0.0000000000000E+00
 0.5263864496834E+00 -0.1894659182387E+01  0.0000000000000E+00
 0.5310568176018E+00 -0.1822597146475E+01  0.0000000000000E+00
 0.5225031126404E+00 -0.4658813981299E+01  0.0000000000000E+00
 0.5225062252743E+00 -0.4586040988578E+01  0.0000000000000E+00
 0.5225093379273E+00 -0.4513267548970E+01  0.0000000000000E+00
 0.5225124505716E+00 -0.4440494313380E+01  0.0000000000000E+00
 0.5225155632152E+00 -0.4367721092263E+01  0.0000000000000E+00
 0.5225186758601E+00 -0.4294947843801E+01  0.0000000000000E+00
 0.5225217885031E+00 -0.4222174638349E+01  0.0000000000000E+00
 0.5225249011472E+00 -0.4149401406219E+01  0.0000000000000E+00
 0.5225280137911E+00 -0.4076628179434E+01  0.0000000000000E+00
 0.5225311264347E+00 -0.4003854960684E+01  0.0000000000000E+00
 0.5225342390789E+00 -0.3931081726703E+01  0.0000000000000E+00
 0.5225373517221E+00 -0.3858308516587E+01  0.0000000000000E+00
 0.5225404643666E+00 -0.3785535274710E+01  0.0000000000000E+00
 0.5225435770137E+00 -0.3712761973463E+01  0.0000000000000E+00
 0.5225466896599E+00 -0.3639988692926E+01  0.0000000000000E+00
 0.5225498023024E+00 -0.3567215499446E+01  0.0000000000000E+00
 0.5225529149724E+00 -0.3494441663489E+01  0.0000000000000E+00
 0.5225560275903E+00 -0.3421669043470E+01  0.0000000000000E+00
 0.5225591402347E+00 -0.3348895806160E+01  0.0000000000000E+00
 0.5225622528757E+00 -0.3276122648591E+01  0.0000000000000E+00
 0.5225653655126E+00 -0.3203349583713E+01  0.0000000000000E+00
 0.5225684781512E+00 -0.3130576482112E+01  0.0000000000000E+00
 0.5225715907911E+00 -0.3057803347965E+01  0.0000000000000E+00
 0.5225838942559E+00 -0.2985030151191E+01  0.0000000000000E+00
 0.5226645858642E+00 -0.2912257184550E+01  0.0000000000000E+00
 0.5228958643382E+00 -0.2839485785963E+01  0.0000000000000E+00
 0.5233526595062E+00 -0.2766719230062E+01  0.0000000000000E+00
 0.5240901260887E+00 -0.2693963200164E+01  0.0000000000000E+00
 0.5251436387569E+00 -0.2621224840274E+01  0.0000000000000E+00
 0.5265358163068E+00 -0.2548512483054E+01  0.0000000000000E+00
 0.5282846337900E+00 -0.2475835112982E+01  0.0000000000000E+00
 0.5304104259779E+00 -0.2403203445529E+01  0.0000000000000E+00
 0.5329411669643E+00 -0.2330631067763E+01  0.0000000000000E+00
 0.5358752830470E+00 -0.2258127791534E+01  0.0000000000000E+00
 0.5391717645631E+00 -0.2185695374792E+01  0.0000000000000E+00
 0.5428013361643E+00 -0.2113335495573E+01  0.0000000000000E+00
 0.5467469714862E+00 -0.2041050932465E+01  0.0000000000000E+00
 0.5510031142644E+00 -0.1968846587455E+01  0.0000000000000E+00
 0.5555782915776E+00 -0.1896731358894E+01  0.0000000000000E+00
 0.5605067948795E+00 -0.1824722455461E+01  0.0000000000000E+00
 0.5500018033136E+00 -0.4658869964069E+01  0.0000000000000E+00
 0.5500036066233E+00 -0.4586152954003E+01  0.0000000000000E+00
 0.5500054099442E+00 -0.4513435497392E+01  0.0000000000000E+00
 0.5500072132600E+00 -0.4440718244644E+01  0.0000000000000E+00
 0.5500090165755E+00 -0.4368001006356E+01  0.0000000000000E+00
 0.5500108198916E+00 -0.4295283740744E+01  0.0000000000000E+00
 0.5500126232067E+00 -0.4222566518110E+01  0.0000000000000E+00
 0.5500144265224E+00 -0.4149849268818E+01  0.0000000000000E+00
 0.5500162298380E+00 -0.4077132024867E+01  0.0000000000000E+00
 0.5500180331534E+00 -0.4004414788945E+01  0.0000000000000E+00
 0.5500198364692E+00 -0.3931697537804E+01  0.0000000000000E+00
 0.5500216397843E+00 -0.3858980310509E+01  0.0000000000000E+00
 0.5500234431003E+00 -0.3786263051477E+01  0.0000000000000E+00
 0.5500252464177E+00 -0.3713545733121E+01  0.0000000000000E+00
 0.5500270497347E+00 -0.3640828435461E+01  0.0000000000000E+00
 0.5500288530494E+00 -0.3568111224789E+01  0.0000000000000E+00
 0.5500306563801E+00 -0.3495393372134E+01  0.0000000000000E+00
 0.5500324596807E+00 -0.3422676734482E+01  0.0000000000000E+00
 0.5500342629965E+00 -0.3349959480015E+01  0.0000000000000E+00
 0.5500360663104E+00 -0.3277242305227E+01  0.0000000000000E+00
 0.5500378696220E+00 -0.3204525223058E+01  0.0000000000000E+00
 0.5500396729345E+00 -0.3131808104194E+01  0.0000000000000E+00
 0.5500414762478E+00 -0.3059090952810E+01  0.0000000000000E+00
 0.5500529541124E+00 -0.2986373738849E+01  0.0000000000000E+00
 0.5501364194992E+00 -0.2913656754987E+01  0.0000000000000E+00
 0.5503783973824E+00 -0.2840941339082E+01  0.0000000000000E+00
 0.5508577612655E+00 -0.2768230765842E+01  0.0000000000000E+00
 0.5516325687513E+00 -0.2695530718543E+01  0.0000000000000E+00
 0.5527400563351E+00 -0.2622848341252E+01  0.0000000000000E+00
 0.5542040332787E+00 -0.2550191966546E+01  0.0000000000000E+00
 0.5560434206860E+00 -0.2477570579036E+01  0.0000000000000E+00
 0.5582796235804E+00 -0.2404994894179E+01  0.0000000000000E+00
 0.5609420883813E+00 -0.2332478498877E+01  0.0000000000000E+00
 0.5640291585551E+00 -0.2260031205176E+01  0.0000000000000E+00
 0.5674976660344E+00 -0.2187654771025E+01  0.0000000000000E+00
 0.5713167946636E+00 -0.2115350874421E+01  0.0000000000000E+00
 0.5754686219523E+00 -0.2043122293992E+01  0.0000000000000E+00
 0.5799472992011E+00 -0.1970973931719E+01  0.0000000000000E+00
 0.5847618022875E+00 -0.1898914685761E+01  0.0000000000000E+00
 0.5899482274796E+00 -0.1826961764802E+01  0.0000000000000E+00
 0.5775046063623E+00 -0.4658929169039E+01  0.0000000000000E+00
 0.5775092127151E+00 -0.4586271363819E+01  0.0000000000000E+00
 0.5775138190961E+00 -0.4513613112418E+01  0.0000000000000E+00
 0.5775184254642E+00 -0.4440955064714E+01  0.0000000000000E+00
 0.5775230318314E+00 -0.4368297031459E+01  0.0000000000000E+00
 0.5775276382004E+00 -0.4295638970901E+01  0.0000000000000E+00
 0.5775322445666E+00 -0.4222980953286E+01  0.0000000000000E+00
 0.5775368509345E+00 -0.4150322909036E+01  0.0000000000000E+00
 0.5775414573020E+00 -0.4077664870122E+01  0.0000000000000E+00
 0.5775460636691E+00 -0.4005006839230E+01  0.0000000000000E+00
 0.5775506700371E+00 -0.3932348793131E+01  0.0000000000000E+00
 0.5775552764036E+00 -0.3859690770860E+01  0.0000000000000E+00
 0.5775598827721E+00 -0.3787032716878E+01  0.0000000000000E+00
 0.5775644891444E+00 -0.3714374603619E+01  0.0000000000000E+00
 0.5775690955153E+00 -0.3641716511039E+01  0.0000000000000E+00
 0.5775737018808E+00 -0.3569058505377E+01  0.0000000000000E+00
 0.5775783082869E+00 -0.3496399858254E+01  0.0000000000000E+00
 0.5775829146160E+00 -0.3423742425146E+01  0.0000000000000E+00
 0.5775875209843E+00 -0.3351084375724E+01  0.0000000000000E+00
 0.5775921273474E+00 -0.3278426405916E+01  0.0000000000000E+00
 0.5775967337047E+00 -0.3205768528653E+01  0.0000000000000E+00
 0.5776013400644E+00 -0.3133110614724E+01  0.0000000000000E+00
 0.5776059464261E+00 -0.3060452668301E+01  0.0000000000000E+00
 0.5776207126381E+00 -0.2987794659355E+01  0.0000000000000E+00
 0.5777110774219E+00 -0.2915136880472E+01  0.0000000000000E+00
 0.5779679060300E+00 -0.2842480669443E+01  0.0000000000000E+00
 0.5784740284367E+00 -0.2769829301057E+01  0.0000000000000E+00
 0.5792904145389E+00 -0.2697188458545E+01  0.0000000000000E+00
 0.5804561686988E+00 -0.2624565286044E+01  0.0000000000000E+00
 0.5819962944983E+00 -0.2551968116035E+01  0.0000000000000E+00
 0.5839306621719E+00 -0.2479405933275E+01  0.0000000000000E+00
 0.5862817504648E+00 -0.2406889453203E+01  0.0000000000000E+00
 0.5890804828851E+00 -0.2334432262545E+01  0.0000000000000E+00
 0.5923251198134E+00 -0.2262044173559E+01  0.0000000000000E+00
 0.5959703277778E+00 -0.2189726944188E+01  0.0000000000000E+00
 0.5999837448152E+00 -0.2117482252390E+01  0.0000000000000E+00
 0.6043465494057E+00 -0.2045312876833E+01  0.0000000000000E+00
 0.6090525994664E+00 -0.1973223719494E+01  0.0000000000000E+00
 0.6141113211150E+00 -0.1901223678329E+01  0.0000000000000E+00
 0.6195606212872E+00 -0.1829329962027E+01  0.0000000000000E+00
 0.6050071700463E+00 -0.4658991252418E+01  0.0000000000000E+00
 0.6050143400778E+00 -0.4586395530448E+01  0.0000000000000E+00
 0.6050215101532E+00 -0.4513799362679E+01  0.0000000000000E+00
 0.6050286802085E+00 -0.4441203398432E+01  0.0000000000000E+00
 0.6050358502624E+00 -0.4368607448621E+01  0.0000000000000E+00
 0.6050430203191E+00 -0.4296011471532E+01  0.0000000000000E+00
 0.6050501903714E+00 -0.4223415537349E+01  0.0000000000000E+00
 0.6050573604264E+00 -0.4150819576553E+01  0.0000000000000E+00
 0.6050645304809E+00 -0.4078223621089E+01  0.0000000000000E+00
 0.6050717005346E+00 -0.4005627673640E+01  0.0000000000000E+00
 0.6050788705898E+00 -0.3933031710997E+01  0.0000000000000E+00
 0.6050860406426E+00 -0.3860435772161E+01  0.0000000000000E+00
 0.6050932106985E+00 -0.3787839801641E+01  0.0000000000000E+00
 0.6051003807603E+00 -0.3715243771896E+01  0.0000000000000E+00
 0.6051075508201E+00 -0.3642647762811E+01  0.0000000000000E+00
 0.6051147208713E+00 -0.3570051840571E+01  0.0000000000000E+00
 0.6051218909858E+00 -0.3497455277418E+01  0.0000000000000E+00
 0.6051290609805E+00 -0.3424859927241E+01  0.0000000000000E+00
 0.6051362310360E+00 -0.3352263961278E+01  0.0000000000000E+00
 0.6051434010836E+00 -0.3279668074861E+01  0.0000000000000E+00
 0.6051505711222E+00 -0.3207072280909E+01  0.0000000000000E+00
 0.6051577411643E+00 -0.3134476450324E+01  0.0000000000000E+00
 0.6051649112096E+00 -0.3061880587272E+01  0.0000000000000E+00
 0.6051827264041E+00 -0.2989284661751E+01  0.0000000000000E+00
 0.6052797512201E+00 -0.2916688966257E+01  0.0000000000000E+00
 0.6055511911890E+00 -0.2844094838509E+01  0.0000000000000E+00
 0.6060838327555E+00 -0.2771505553381E+01  0.0000000000000E+00
 0.6069415581107E+00 -0.2698926794058E+01  0.0000000000000E+00
 0.6081653394835E+00 -0.2626365704746E+01  0.0000000000000E+00
 0.6097813747766E+00 -0.2553830617832E+01  0.0000000000000E+00
 0.6118104833542E+00 -0.2481330518221E+01  0.0000000000000E+00
 0.6142762176836E+00 -0.2408876121334E+01  0.0000000000000E+00
 0.6172109783622E+00 -0.2336481013715E+01  0.0000000000000E+00
 0.6206129426840E+00 -0.2264155007840E+01  0.0000000000000E+00
 0.6244346117725E+00 -0.2191899861649E+01  0.0000000000000E+00
 0.6286420778573E+00 -0.2119717253058E+01  0.0000000000000E+00
 0.6332156203890E+00 -0.2047609960779E+01  0.0000000000000E+00
 0.6381488039008E+00 -0.1975582886781E+01  0.0000000000000E+00
 0.6434515047517E+00 -0.1903644928812E+01  0.0000000000000E+00
 0.6491634405451E+00 -0.1831813295560E+01  0.0000000000000E+00
 0.6325094832707E+00 -0.4659056210343E+01  0.0000000000000E+00
 0.6325189665217E+00 -0.4586525446162E+01  0.0000000000000E+00
 0.6325284498309E+00 -0.4513994236580E+01  0.0000000000000E+00
 0.6325379331135E+00 -0.4441463230339E+01  0.0000000000000E+00
 0.6325474163943E+00 -0.4368932238522E+01  0.0000000000000E+00
 0.6325568996786E+00 -0.4296401219450E+01  0.0000000000000E+00
 0.6325663829573E+00 -0.4223870243246E+01  0.0000000000000E+00
 0.6325758662394E+00 -0.4151339240452E+01  0.0000000000000E+00
 0.6325853495209E+00 -0.4078808242986E+01  0.0000000000000E+00
 0.6325948328014E+00 -0.4006277253528E+01  0.0000000000000E+00
 0.6326043160838E+00 -0.3933746248890E+01  0.0000000000000E+00
 0.6326137993631E+00 -0.3861215268037E+01  0.0000000000000E+00
 0.6326232826465E+00 -0.3788684255529E+01  0.0000000000000E+00
 0.6326327659377E+00 -0.3716153183848E+01  0.0000000000000E+00
 0.6326422492262E+00 -0.3643622132809E+01  0.0000000000000E+00
 0.6326517325033E+00 -0.3571091168537E+01  0.0000000000000E+00
 0.6326612158642E+00 -0.3498559563925E+01  0.0000000000000E+00
 0.6326706990666E+00 -0.3426029171205E+01  0.0000000000000E+00
 0.6326801823494E+00 -0.3353498163249E+01  0.0000000000000E+00
 0.6326896656219E+00 -0.3280967234769E+01  0.0000000000000E+00
 0.6326991488823E+00 -0.3208436398670E+01  0.0000000000000E+00
 0.6327086321474E+00 -0.3135905525971E+01  0.0000000000000E+00
 0.6327181154168E+00 -0.3063374620834E+01  0.0000000000000E+00
 0.6327387291340E+00 -0.2990843653288E+01  0.0000000000000E+00
 0.6328421635227E+00 -0.2918312915727E+01  0.0000000000000E+00
 0.6331279643934E+00 -0.2845783745801E+01  0.0000000000000E+00
 0.6336868746610E+00 -0.2773259418471E+01  0.0000000000000E+00
 0.6345856888113E+00 -0.2700745616872E+01  0.0000000000000E+00
 0.6358672469395E+00 -0.2628249485287E+01  0.0000000000000E+00
 0.6375589412693E+00 -0.2555779355998E+01  0.0000000000000E+00
 0.6396825402943E+00 -0.2483344214070E+01  0.0000000000000E+00
 0.6422626702039E+00 -0.2410954774905E+01  0.0000000000000E+00
 0.6453332086857E+00 -0.2338624624854E+01  0.0000000000000E+00
 0.6488922499460E+00 -0.2266363576622E+01  0.0000000000000E+00
 0.6528901297038E+00 -0.2194173388147E+01  0.0000000000000E+00
 0.6572913943814E+00 -0.2122055737301E+01  0.0000000000000E+00
 0.6620754243999E+00 -0.2050013402840E+01  0.0000000000000E+00
 0.6672354909085E+00 -0.1978051286727E+01  0.0000000000000E+00
 0.6727819205084E+00 -0.1906178286488E+01  0.0000000000000E+00
 0.6787562414707E+00 -0.1834411610816E+01  0.0000000000000E+00
 0.6600115349916E+00 -0.4659124038777E+01  0.0000000000000E+00
 0.6600230699592E+00 -0.4586661102889E+01  0.0000000000000E+00
 0.6600346049976E+00 -0.4514197722017E+01  0.0000000000000E+00
 0.6600461400037E+00 -0.4441734544296E+01  0.0000000000000E+00
 0.6600576750075E+00 -0.4369271380984E+01  0.0000000000000E+00
 0.6600692100156E+00 -0.4296808190443E+01  0.0000000000000E+00
 0.6600807450169E+00 -0.4224345042731E+01  0.0000000000000E+00
 0.6600922800224E+00 -0.4151881868453E+01  0.0000000000000E+00
 0.6601038150271E+00 -0.4079418699498E+01  0.0000000000000E+00
 0.6601153500305E+00 -0.4006955538544E+01  0.0000000000000E+00
 0.6601268850364E+00 -0.3934492362423E+01  0.0000000000000E+00
 0.6601384200384E+00 -0.3862029210066E+01  0.0000000000000E+00
 0.6601499550455E+00 -0.3789566026083E+01  0.0000000000000E+00
 0.6601614900620E+00 -0.3717102782983E+01  0.0000000000000E+00
 0.6601730250752E+00 -0.3644639560506E+01  0.0000000000000E+00
 0.6601845600746E+00 -0.3572176424713E+01  0.0000000000000E+00
 0.6601960951758E+00 -0.3499712649181E+01  0.0000000000000E+00
 0.6602076300843E+00 -0.3427250084407E+01  0.0000000000000E+00
 0.6602191650907E+00 -0.3354786904972E+01  0.0000000000000E+00
 0.6602307000844E+00 -0.3282323804938E+01  0.0000000000000E+00
 0.6602422350634E+00 -0.3209860797199E+01  0.0000000000000E+00
 0.6602537700482E+00 -0.3137397752895E+01  0.0000000000000E+00
 0.6602653050382E+00 -0.3064934676183E+01  0.0000000000000E+00
 0.6602884557744E+00 -0.2992471537122E+01  0.0000000000000E+00
 0.6603980382323E+00 -0.2920008628006E+01  0.0000000000000E+00
 0.6606979385021E+00 -0.2847547286406E+01  0.0000000000000E+00
 0.6612828559686E+00 -0.2775090787378E+01  0.0000000000000E+00
 0.6622224974123E+00 -0.2702644814005E+01  0.0000000000000E+00
 0.6635615707948E+00 -0.2630216510647E+01  0.0000000000000E+00
 0.6653286626613E+00 -0.2557814209481E+01  0.0000000000000E+00
 0.6675464906339E+00 -0.2485446895735E+01  0.0000000000000E+00
 0.6702407546242E+00 -0.2413125284793E+01  0.0000000000000E+00
 0.6734468094109E+00 -0.2340862962804E+01  0.0000000000000E+00
 0.6771626661118E+00 -0.2268669742713E+01  0.0000000000000E+00
 0.6813364950413E+00 -0.2196547382455E+01  0.0000000000000E+00
 0.6859312968146E+00 -0.2124497559855E+01  0.0000000000000E+00
 0.6909255528227E+00 -0.2052523053717E+01  0.0000000000000E+00
 0.6963122408314E+00 -0.1980628765997E+01  0.0000000000000E+00
 0.7021021376845E+00 -0.1908823593990E+01  0.0000000000000E+00
 0.7083385823212E+00 -0.1837124746394E+01  0.0000000000000E+00
 0.6875133142182E+00 -0.4659194733517E+01  0.0000000000000E+00
 0.6875266284087E+00 -0.4586802492222E+01  0.0000000000000E+00
 0.6875399426809E+00 -0.4514409806377E+01  0.0000000000000E+00
 0.6875532569158E+00 -0.4442017323484E+01  0.0000000000000E+00
 0.6875665711481E+00 -0.4369624854987E+01  0.0000000000000E+00
 0.6875798853854E+00 -0.4297232359288E+01  0.0000000000000E+00
 0.6875931996148E+00 -0.4224839906374E+01  0.0000000000000E+00
 0.6876065138490E+00 -0.4152447426922E+01  0.0000000000000E+00
 0.6876198280823E+00 -0.4080054952788E+01  0.0000000000000E+00
 0.6876331423142E+00 -0.4007662486646E+01  0.0000000000000E+00
 0.6876464565488E+00 -0.3935270005352E+01  0.0000000000000E+00
 0.6876597707790E+00 -0.3862877547799E+01  0.0000000000000E+00
 0.6876730850151E+00 -0.3790485058651E+01  0.0000000000000E+00
 0.6876863992620E+00 -0.3718092510443E+01  0.0000000000000E+00
 0.6876997135052E+00 -0.3645699982838E+01  0.0000000000000E+00
 0.6877130277324E+00 -0.3573307541834E+01  0.0000000000000E+00
 0.6877263420771E+00 -0.3500914461714E+01  0.0000000000000E+00
 0.6877396561994E+00 -0.3428522591170E+01  0.0000000000000E+00
 0.6877529704346E+00 -0.3356130106565E+01  0.0000000000000E+00
 0.6877662846553E+00 -0.3283737701285E+01  0.0000000000000E+00
 0.6877795988589E+00 -0.3211345388209E+01  0.0000000000000E+00
 0.6877929130693E+00 -0.3138953038603E+01  0.0000000000000E+00
 0.6878062272857E+00 -0.3066560656621E+01  0.0000000000000E+00
 0.6878316425464E+00 -0.2994168212354E+01  0.0000000000000E+00
 0.6879471005793E+00 -0.2921775997988E+01  0.0000000000000E+00
 0.6882608277547E+00 -0.2849385351017E+01  0.0000000000000E+00
 0.6888714799273E+00 -0.2776999546590E+01  0.0000000000000E+00
 0.6898516761724E+00 -0.2704624267741E+01  0.0000000000000E+00
 0.6912479923176E+00 -0.2632266658906E+01  0.0000000000000E+00
 0.6930902092303E+00 -0.2559935052156E+01  0.0000000000000E+00
 0.6954019936605E+00 -0.2487638432887E+01  0.0000000000000E+00
 0.6982101192422E+00 -0.2415387516464E+01  0.0000000000000E+00
 0.7015514178457E+00 -0.2343195888828E+01  0.0000000000000E+00
 0.7054238174997E+00 -0.2271073363171E+01  0.0000000000000E+00
 0.7097733231136E+00 -0.2199021697426E+01  0.0000000000000E+00
 0.7145613894959E+00 -0.2127042569371E+01  0.0000000000000E+00
 0.7197655990073E+00 -0.2055138757856E+01  0.0000000000000E+00
 0.7253786360298E+00 -0.1983315164833E+01  0.0000000000000E+00
 0.7314117276514E+00 -0.1911580687357E+01  0.0000000000000E+00
 0.7379100234788E+00 -0.1839952534126E+01  0.0000000000000E+00
 0.7150148100149E+00 -0.4659268290191E+01  0.0000000000000E+00
 0.7150296199990E+00 -0.4586949605417E+01  0.0000000000000E+00
 0.7150444300741E+00 -0.4514630476544E+01  0.0000000000000E+00
 0.7150592401076E+00 -0.4442311550418E+01  0.0000000000000E+00
 0.7150740501382E+00 -0.4369992638672E+01  0.0000000000000E+00
 0.7150888601743E+00 -0.4297673699752E+01  0.0000000000000E+00
 0.7151036702017E+00 -0.4225354803575E+01  0.0000000000000E+00
 0.7151184802345E+00 -0.4153035880886E+01  0.0000000000000E+00
 0.7151332902662E+00 -0.4080716963508E+01  0.0000000000000E+00
 0.7151481002963E+00 -0.4008398054116E+01  0.0000000000000E+00
 0.7151629103295E+00 -0.3936079129587E+01  0.0000000000000E+00
 0.7151777203579E+00 -0.3863760228774E+01  0.0000000000000E+00
 0.7151925303927E+00 -0.3791441296399E+01  0.0000000000000E+00
 0.7152073404395E+00 -0.3719122305024E+01  0.0000000000000E+00
 0.7152221504822E+00 -0.3646803334230E+01  0.0000000000000E+00
 0.7152369605072E+00 -0.3574484449950E+01  0.0000000000000E+00
 0.7152517706629E+00 -0.3502164927202E+01  0.0000000000000E+00
 0.7152665805711E+00 -0.3429846612803E+01  0.0000000000000E+00
 0.7152813906050E+00 -0.3357527684966E+01  0.0000000000000E+00
 0.7152962006226E+00 -0.3285208836373E+01  0.0000000000000E+00
 0.7153110106214E+00 -0.3212890079891E+01  0.0000000000000E+00
 0.7153258206276E+00 -0.3140571286916E+01  0.0000000000000E+00
 0.7153406306405E+00 -0.3068252461598E+01  0.0000000000000E+00
 0.7153680269957E+00 -0.2995933574060E+01  0.0000000000000E+00
 0.7154890771739E+00 -0.2923614916380E+01  0.0000000000000E+00
 0.7158163478261E+00 -0.2851297825966E+01  0.0000000000000E+00
 0.7164524512764E+00 -0.2778985578070E+01  0.0000000000000E+00
 0.7174729188955E+00 -0.2706683855668E+01  0.0000000000000E+00
 0.7189261943769E+00 -0.2634399803283E+01  0.0000000000000E+00
 0.7208432529104E+00 -0.2562141752869E+01  0.0000000000000E+00
 0.7232487103733E+00 -0.2489918690001E+01  0.0000000000000E+00
 0.7261704141222E+00 -0.2417741330022E+01  0.0000000000000E+00
 0.7296466731201E+00 -0.2345623258656E+01  0.0000000000000E+00
 0.7336753323051E+00 -0.2273574289355E+01  0.0000000000000E+00
 0.7382002311820E+00 -0.2201596180048E+01  0.0000000000000E+00
 0.7431812787523E+00 -0.2129690608463E+01  0.0000000000000E+00
 0.7485951583465E+00 -0.2057860353502E+01  0.0000000000000E+00
 0.7544342609629E+00 -0.1986110317108E+01  0.0000000000000E+00
 0.7607102639342E+00 -0.1914449396087E+01  0.0000000000000E+00
 0.7674701275352E+00 -0.1842894799141E+01  0.0000000000000E+00
 0.7425160112565E+00 -0.4659344704234E+01  0.0000000000000E+00
 0.7425320224796E+00 -0.4587102433343E+01  0.0000000000000E+00
 0.7425480338010E+00 -0.4514859718823E+01  0.0000000000000E+00
 0.7425640450775E+00 -0.4442617206834E+01  0.0000000000000E+00
 0.7425800563509E+00 -0.4370374709212E+01  0.0000000000000E+00
 0.7425960676302E+00 -0.4298132184444E+01  0.0000000000000E+00
 0.7426120789002E+00 -0.4225889702373E+01  0.0000000000000E+00
 0.7426280901759E+00 -0.4153647193819E+01  0.0000000000000E+00
 0.7426441014505E+00 -0.4081404690570E+01  0.0000000000000E+00
 0.7426601127234E+00 -0.4009162195299E+01  0.0000000000000E+00
 0.7426761239995E+00 -0.3936919684906E+01  0.0000000000000E+00
 0.7426921352705E+00 -0.3864677198205E+01  0.0000000000000E+00
 0.7427081465484E+00 -0.3792434679975E+01  0.0000000000000E+00
 0.7427241578394E+00 -0.3720192102807E+01  0.0000000000000E+00
 0.7427401691258E+00 -0.3647949546199E+01  0.0000000000000E+00
 0.7427561803931E+00 -0.3575707076013E+01  0.0000000000000E+00
 0.7427721918017E+00 -0.3503463968034E+01  0.0000000000000E+00
 0.7427882029428E+00 -0.3431222067126E+01  0.0000000000000E+00
 0.7428042142197E+00 -0.3358979553430E+01  0.0000000000000E+00
 0.7428202254791E+00 -0.3286737118893E+01  0.0000000000000E+00
 0.7428362367181E+00 -0.3214494776370E+01  0.0000000000000E+00
 0.7428522479651E+00 -0.3142252397393E+01  0.0000000000000E+00
 0.7428682592193E+00 -0.3070009986107E+01  0.0000000000000E+00
 0.7428973421134E+00 -0.2997767512669E+01  0.0000000000000E+00
 0.7430236898812E+00 -0.2925525269043E+01  0.0000000000000E+00
 0.7433642094537E+00 -0.2853284592550E+01  0.0000000000000E+00
 0.7440254696239E+00 -0.2781048758547E+01  0.0000000000000E+00
 0.7450859140576E+00 -0.2708823449953E+01  0.0000000000000E+00
 0.7465958543135E+00 -0.2636615811377E+01  0.0000000000000E+00
 0.7485874599040E+00 -0.2564434174655E+01  0.0000000000000E+00
 0.7510862958333E+00 -0.2492287525545E+01  0.0000000000000E+00
 0.7541212831801E+00 -0.2420186579370E+01  0.0000000000000E+00
 0.7577322080008E+00 -0.2348144921627E+01  0.0000000000000E+00
 0.7619168321423E+00 -0.2276172366038E+01  0.0000000000000E+00
 0.7666168297047E+00 -0.2204270670529E+01  0.0000000000000E+00
 0.7717905638831E+00 -0.2132441512775E+01  0.0000000000000E+00
 0.7774138189777E+00 -0.2060687671731E+01  0.0000000000000E+00
 0.7834786926029E+00 -0.1989014049333E+01  0.0000000000000E+00
 0.7899973123374E+00 -0.1917429542126E+01  0.0000000000000E+00
 0.7970184491235E+00 -0.1845951358818E+01  0.0000000000000E+00
 0.7700169072712E+00 -0.4659423970956E+01  0.0000000000000E+00
 0.7700338145071E+00 -0.4587260966622E+01  0.0000000000000E+00
 0.7700507218468E+00 -0.4515097519146E+01  0.0000000000000E+00
 0.7700676291392E+00 -0.4442934273980E+01  0.0000000000000E+00
 0.7700845364282E+00 -0.4370771043164E+01  0.0000000000000E+00
 0.7701014437236E+00 -0.4298607785231E+01  0.0000000000000E+00
 0.7701183510089E+00 -0.4226444569949E+01  0.0000000000000E+00
 0.7701352583005E+00 -0.4154281328213E+01  0.0000000000000E+00
 0.7701521655908E+00 -0.4082118091776E+01  0.0000000000000E+00
 0.7701690728792E+00 -0.4009954863308E+01  0.0000000000000E+00
 0.7701859801712E+00 -0.3937791619736E+01  0.0000000000000E+00
 0.7702028874577E+00 -0.3865628399829E+01  0.0000000000000E+00
 0.7702197947515E+00 -0.3793465148427E+01  0.0000000000000E+00
 0.7702367020591E+00 -0.3721301838152E+01  0.0000000000000E+00
 0.7702536093619E+00 -0.3649138548415E+01  0.0000000000000E+00
 0.7702705166445E+00 -0.3576975345005E+01  0.0000000000000E+00
 0.7702874240763E+00 -0.3504811504502E+01  0.0000000000000E+00
 0.7703043312257E+00 -0.3432648869745E+01  0.0000000000000E+00
 0.7703212385184E+00 -0.3360485622873E+01  0.0000000000000E+00
 0.7703381457926E+00 -0.3288322455072E+01  0.0000000000000E+00
 0.7703550530453E+00 -0.3216159379186E+01  0.0000000000000E+00
 0.7703719603066E+00 -0.3143996266884E+01  0.0000000000000E+00
 0.7703888675754E+00 -0.3071833122309E+01  0.0000000000000E+00
 0.7704193317813E+00 -0.2999669915654E+01  0.0000000000000E+00
 0.7705506719117E+00 -0.2927506938761E+01  0.0000000000000E+00
 0.7709041351781E+00 -0.2855345528865E+01  0.0000000000000E+00
 0.7715902468416E+00 -0.2783188961430E+01  0.0000000000000E+00
 0.7726903628635E+00 -0.2711042919314E+01  0.0000000000000E+00
 0.7742566626671E+00 -0.2638914547219E+01  0.0000000000000E+00
 0.7763225100882E+00 -0.2566812176855E+01  0.0000000000000E+00
 0.7789144192568E+00 -0.2494744794173E+01  0.0000000000000E+00
 0.7820623849740E+00 -0.2422723114472E+01  0.0000000000000E+00
 0.7858076703905E+00 -0.2350760723017E+01  0.0000000000000E+00
 0.7901479542606E+00 -0.2278867433808E+01  0.0000000000000E+00
 0.7950227452801E+00 -0.2207045004767E+01  0.0000000000000E+00
 0.8003888608380E+00 -0.2135295113515E+01  0.0000000000000E+00
 0.8062211862034E+00 -0.2063620539063E+01  0.0000000000000E+00
 0.8125115256075E+00 -0.1992026183340E+01  0.0000000000000E+00
 0.8192724568757E+00 -0.1920520942619E+01  0.0000000000000E+00
 0.8265545616180E+00 -0.1849122025614E+01  0.0000000000000E+00
 0.7975174873666E+00 -0.4659506085499E+01  0.0000000000000E+00
 0.7975349746967E+00 -0.4587425195538E+01  0.0000000000000E+00
 0.7975524621343E+00 -0.4515343862938E+01  0.0000000000000E+00
 0.7975699495228E+00 -0.4443262732417E+01  0.0000000000000E+00
 0.7975874369078E+00 -0.4371181616231E+01  0.0000000000000E+00
 0.7976049242994E+00 -0.4299100472959E+01  0.0000000000000E+00
 0.7976224116807E+00 -0.4227019372289E+01  0.0000000000000E+00
 0.7976398990684E+00 -0.4154938245195E+01  0.0000000000000E+00
 0.7976573864548E+00 -0.4082857123395E+01  0.0000000000000E+00
 0.7976748738393E+00 -0.4010776009554E+01  0.0000000000000E+00
 0.7976923612274E+00 -0.3938694880626E+01  0.0000000000000E+00
 0.7977098486098E+00 -0.3866613775336E+01  0.0000000000000E+00
 0.7977273359998E+00 -0.3794532638587E+01  0.0000000000000E+00
 0.7977448234041E+00 -0.3722451443033E+01  0.0000000000000E+00
 0.7977623108034E+00 -0.3650370267993E+01  0.0000000000000E+00
 0.7977797981818E+00 -0.3578289179181E+01  0.0000000000000E+00
 0.7977972857146E+00 -0.3506207454001E+01  0.0000000000000E+00
 0.7978147729552E+00 -0.3434126933196E+01  0.0000000000000E+00
 0.7978322603441E+00 -0.3362045800972E+01  0.0000000000000E+00
 0.7978497477139E+00 -0.3289964747730E+01  0.0000000000000E+00
 0.7978672350614E+00 -0.3217883786296E+01  0.0000000000000E+00
 0.7978847224177E+00 -0.3145802788489E+01  0.0000000000000E+00
 0.7979022097818E+00 -0.3073721758446E+01  0.0000000000000E+00
 0.7979337393802E+00 -0.3001640666396E+01  0.0000000000000E+00
 0.7980697559540E+00 -0.2929559804059E+01  0.0000000000000E+00
 0.7984358469961E+00 -0.2857480508576E+01  0.0000000000000E+00
 0.7991464942352E+00 -0.2785406055523E+01  0.0000000000000E+00
 0.8002859659286E+00 -0.2713342127699E+01  0.0000000000000E+00
 0.8019083093641E+00 -0.2641295869896E+01  0.0000000000000E+00
 0.8040480827013E+00 -0.2569275613697E+01  0.0000000000000E+00
 0.8067327491951E+00 -0.2497290345253E+01  0.0000000000000E+00
 0.8099933773693E+00 -0.2425350779840E+01  0.0000000000000E+00
 0.8138727074699E+00 -0.2353470502477E+01  0.0000000000000E+00
 0.8183683351576E+00 -0.2281659327455E+01  0.0000000000000E+00
 0.8234176037235E+00 -0.2209919012694E+01  0.0000000000000E+00
 0.8289757847507E+00 -0.2138251235758E+01  0.0000000000000E+00
 0.8350168644774E+00 -0.2066658775715E+01  0.0000000000000E+00
 0.8415323537512E+00 -0.1995146534484E+01  0.0000000000000E+00
 0.8485352806454E+00 -0.1923723408063E+01  0.0000000000000E+00
 0.8560780374376E+00 -0.1852406605166E+01  0.0000000000000E+00
 0.8250177408470E+00 -0.4659591042836E+01  0.0000000000000E+00
 0.8250354816571E+00 -0.4587595110033E+01  0.0000000000000E+00
 0.8250532225761E+00 -0.4515598735114E+01  0.0000000000000E+00
 0.8250709634454E+00 -0.4443602562037E+01  0.0000000000000E+00
 0.8250887043112E+00 -0.4371606403276E+01  0.0000000000000E+00
 0.8251064451836E+00 -0.4299610217462E+01  0.0000000000000E+00
 0.8251241860456E+00 -0.4227614074200E+01  0.0000000000000E+00
 0.8251419269140E+00 -0.4155617904545E+01  0.0000000000000E+00
 0.8251596677812E+00 -0.4083621740177E+01  0.0000000000000E+00
 0.8251774086463E+00 -0.4011625583759E+01  0.0000000000000E+00
 0.8251951495152E+00 -0.3939629412272E+01  0.0000000000000E+00
 0.8252128903783E+00 -0.3867633264395E+01  0.0000000000000E+00
 0.8252306312491E+00 -0.3795637085097E+01  0.0000000000000E+00
 0.8252483721344E+00 -0.3723640847062E+01  0.0000000000000E+00
 0.8252661130147E+00 -0.3651644629517E+01  0.0000000000000E+00
 0.8252838538737E+00 -0.3579648498099E+01  0.0000000000000E+00
 0.8253015948893E+00 -0.3507651731063E+01  0.0000000000000E+00
 0.8253193356086E+00 -0.3435656166982E+01  0.0000000000000E+00
 0.8253370764783E+00 -0.3363659992202E+01  0.0000000000000E+00
 0.8253548173285E+00 -0.3291663896312E+01  0.0000000000000E+00
 0.8253725581562E+00 -0.3219667892122E+01  0.0000000000000E+00
 0.8253902989928E+00 -0.3147671851602E+01  0.0000000000000E+00
 0.8254080398374E+00 -0.3075675778883E+01  0.0000000000000E+00
 0.8254403082130E+00 -0.3003679644234E+01  0.0000000000000E+00
 0.8255806746155E+00 -0.2931683739246E+01  0.0000000000000E+00
 0.8259590668194E+00 -0.2859689400964E+01  0.0000000000000E+00
 0.8266939230211E+00 -0.2787699905082E+01  0.0000000000000E+00
 0.8278724237742E+00 -0.2715720934332E+01  0.0000000000000E+00
 0.8295504842306E+00 -0.2643759633606E+01  0.0000000000000E+00
 0.8317638568742E+00 -0.2571824334354E+01  0.0000000000000E+00
 0.8345409540844E+00 -0.2499924022930E+01  0.0000000000000E+00
 0.8379139181077E+00 -0.2428069414587E+01  0.0000000000000E+00
 0.8419269662863E+00 -0.2356274094095E+01  0.0000000000000E+00
 0.8465776111862E+00 -0.2284547876042E+01  0.0000000000000E+00
 0.8518010306940E+00 -0.2212892518345E+01  0.0000000000000E+00
 0.8575509505866E+00 -0.2141309698510E+01  0.0000000000000E+00
 0.8638004580713E+00 -0.2069802195663E+01  0.0000000000000E+00
 0.8705407706120E+00 -0.1998374911717E+01  0.0000000000000E+00
 0.8777853665310E+00 -0.1927036742379E+01  0.0000000000000E+00
 0.8855884487738E+00 -0.1855804896368E+01  0.0000000000000E+00
 0.8525176570821E+00 -0.4659678837778E+01  0.0000000000000E+00
 0.8525353141273E+00 -0.4587770699734E+01  0.0000000000000E+00
 0.8525529712811E+00 -0.4515862120114E+01  0.0000000000000E+00
 0.8525706283853E+00 -0.4443953742088E+01  0.0000000000000E+00
 0.8525882854860E+00 -0.4372045378363E+01  0.0000000000000E+00
 0.8526059425933E+00 -0.4300136987617E+01  0.0000000000000E+00
 0.8526235996902E+00 -0.4228228639370E+01  0.0000000000000E+00
 0.8526412567936E+00 -0.4156320264763E+01  0.0000000000000E+00
 0.8526589138956E+00 -0.4084411895437E+01  0.0000000000000E+00
 0.8526765709957E+00 -0.4012503534050E+01  0.0000000000000E+00
 0.8526942280996E+00 -0.3940595157614E+01  0.0000000000000E+00
 0.8527118851976E+00 -0.3868686804758E+01  0.0000000000000E+00
 0.8527295423033E+00 -0.3796778420520E+01  0.0000000000000E+00
 0.8527471994235E+00 -0.3724869977616E+01  0.0000000000000E+00
 0.8527648565386E+00 -0.3652961555178E+01  0.0000000000000E+00
 0.8527825136326E+00 -0.3581053218760E+01  0.0000000000000E+00
 0.8528001708824E+00 -0.3509144247501E+01  0.0000000000000E+00
 0.8528178278373E+00 -0.3437236477730E+01  0.0000000000000E+00
 0.8528354849419E+00 -0.3365328098005E+01  0.0000000000000E+00
 0.8528531420272E+00 -0.3293419797072E+01  0.0000000000000E+00
 0.8528707990900E+00 -0.3221511587729E+01  0.0000000000000E+00
 0.8528884561617E+00 -0.3149603342098E+01  0.0000000000000E+00
 0.8529061132413E+00 -0.3077695064310E+01  0.0000000000000E+00
 0.8529387831484E+00 -0.3005786724669E+01  0.0000000000000E+00
 0.8530831621344E+00 -0.2933878614636E+01  0.0000000000000E+00
 0.8534735182559E+00 -0.2861972071157E+01  0.0000000000000E+00
 0.8542322461771E+00 -0.2790070370046E+01  0.0000000000000E+00
 0.8554494387479E+00 -0.2718179193968E+01  0.0000000000000E+00
 0.8571828789842E+00 -0.2646305687916E+01  0.0000000000000E+00
 0.8594695136951E+00 -0.2574458183202E+01  0.0000000000000E+00
 0.8623387043834E+00 -0.2502645666394E+01  0.0000000000000E+00
 0.8658236670186E+00 -0.2430878852720E+01  0.0000000000000E+00
 0.8699700960402E+00 -0.2359171326688E+01  0.0000000000000E+00
 0.8747754209183E+00 -0.2287532903197E+01  0.0000000000000E+00
 0.8801726541347E+00 -0.2215965340160E+01  0.0000000000000E+00
 0.8861139756606E+00 -0.2144470315024E+01  0.0000000000000E+00
 0.8925715736717E+00 -0.2073050606976E+01  0.0000000000000E+00
 0.8995363722484E+00 -0.2001711117918E+01  0.0000000000000E+00
 0.9070222999633E+00 -0.1930460743261E+01  0.0000000000000E+00
 0.9150853704297E+00 -0.1859316691727E+01  0.0000000000000E+00
 0.8800172252787E+00 -0.4659769464950E+01  0.0000000000000E+00
 0.8800344505215E+00 -0.4587951953890E+01  0.0000000000000E+00
 0.8800516758700E+00 -0.4516134001809E+01  0.0000000000000E+00
 0.8800689011703E+00 -0.4444316251069E+01  0.0000000000000E+00
 0.8800861264672E+00 -0.4372498514612E+01  0.0000000000000E+00
 0.8801033517705E+00 -0.4300680751167E+01  0.0000000000000E+00
 0.8801205770637E+00 -0.4228863030169E+01  0.0000000000000E+00
 0.8801378023631E+00 -0.4157045282843E+01  0.0000000000000E+00
 0.8801550276613E+00 -0.4085227540792E+01  0.0000000000000E+00
 0.8801722529576E+00 -0.4013409806670E+01  0.0000000000000E+00
 0.8801894782575E+00 -0.3941592057517E+01  0.0000000000000E+00
 0.8802067035518E+00 -0.3869774331916E+01  0.0000000000000E+00
 0.8802239288535E+00 -0.3797956574971E+01  0.0000000000000E+00
 0.8802411541693E+00 -0.3726138759435E+01  0.0000000000000E+00
 0.8802583794803E+00 -0.3654320964338E+01  0.0000000000000E+00
 0.8802756047706E+00 -0.3582503255154E+01  0.0000000000000E+00
 0.8802928302130E+00 -0.3510684911929E+01  0.0000000000000E+00
 0.8803100553675E+00 -0.3438867768677E+01  0.0000000000000E+00
 0.8803272806682E+00 -0.3367050016239E+01  0.0000000000000E+00
 0.8803445059500E+00 -0.3295232342495E+01  0.0000000000000E+00
 0.8803617312099E+00 -0.3223414760225E+01  0.0000000000000E+00
 0.8803789564785E+00 -0.3151597141714E+01  0.0000000000000E+00
 0.8803961817547E+00 -0.3079779491084E+01  0.0000000000000E+00
 0.8804289051548E+00 -0.3007961778684E+01  0.0000000000000E+00
 0.8805769486853E+00 -0.2936144295837E+01  0.0000000000000E+00
 0.8809789206855E+00 -0.2864328379386E+01  0.0000000000000E+00
 0.8817611722860E+00 -0.2792517305270E+01  0.0000000000000E+00
 0.8830167086335E+00 -0.2720716756086E+01  0.0000000000000E+00
 0.8848051806072E+00 -0.2648933876929E+01  0.0000000000000E+00
 0.8871647293415E+00 -0.2577176998972E+01  0.0000000000000E+00
 0.8901256654619E+00 -0.2505455108999E+01  0.0000000000000E+00
 0.8937222786608E+00 -0.2433778922213E+01  0.0000000000000E+00
 0.8980017404761E+00 -0.2362162022856E+01  0.0000000000000E+00
 0.9029613972806E+00 -0.2290614226146E+01  0.0000000000000E+00
 0.9085320961515E+00 -0.2219137289990E+01  0.0000000000000E+00
 0.9146644712548E+00 -0.2147732891775E+01  0.0000000000000E+00
 0.9213298117345E+00 -0.2076403810750E+01  0.0000000000000E+00
 0.9285187482873E+00 -0.2005154948809E+01  0.0000000000000E+00
 0.9362456597375E+00 -0.1933995201054E+01  0.0000000000000E+00
 0.9445683703660E+00 -0.1862941776213E+01  0.0000000000000E+00
 0.9075164349346E+00 -0.4659862918846E+01  0.0000000000000E+00
 0.9075328698350E+00 -0.4588138861488E+01  0.0000000000000E+00
 0.9075493048363E+00 -0.4516414363684E+01  0.0000000000000E+00
 0.9075657397915E+00 -0.4444690066958E+01  0.0000000000000E+00
 0.9075821747434E+00 -0.4372965784495E+01  0.0000000000000E+00
 0.9075986097015E+00 -0.4301241475081E+01  0.0000000000000E+00
 0.9076150446499E+00 -0.4229517208058E+01  0.0000000000000E+00
 0.9076314796044E+00 -0.4157792914741E+01  0.0000000000000E+00
 0.9076479145576E+00 -0.4086068626692E+01  0.0000000000000E+00
 0.9076643495090E+00 -0.4014344346563E+01  0.0000000000000E+00
 0.9076807844639E+00 -0.3942620051422E+01  0.0000000000000E+00
 0.9076972194133E+00 -0.3870895779802E+01  0.0000000000000E+00
 0.9077136543699E+00 -0.3799171476878E+01  0.0000000000000E+00
 0.9077300893400E+00 -0.3727447115440E+01  0.0000000000000E+00
 0.9077465243053E+00 -0.3655722774415E+01  0.0000000000000E+00
 0.9077629592511E+00 -0.3583998519191E+01  0.0000000000000E+00
 0.9077793943419E+00 -0.3512273630750E+01  0.0000000000000E+00
 0.9077958291580E+00 -0.3440549940721E+01  0.0000000000000E+00
 0.9078122641136E+00 -0.3368825642300E+01  0.0000000000000E+00
 0.9078286990512E+00 -0.3297101422470E+01  0.0000000000000E+00
 0.9078451339679E+00 -0.3225377293994E+01  0.0000000000000E+00
 0.9078615688929E+00 -0.3153653129324E+01  0.0000000000000E+00
 0.9078780038252E+00 -0.3081928932578E+01  0.0000000000000E+00
 0.9079104221770E+00 -0.3010204674146E+01  0.0000000000000E+00
 0.9080617717110E+00 -0.2938480645209E+01  0.0000000000000E+00
 0.9084750010487E+00 -0.2866758182507E+01  0.0000000000000E+00
 0.9092804177864E+00 -0.2795040562104E+01  0.0000000000000E+00
 0.9105739393675E+00 -0.2723333466530E+01  0.0000000000000E+00
 0.9124170845339E+00 -0.2651644040984E+01  0.0000000000000E+00
 0.9148491887460E+00 -0.2579980616494E+01  0.0000000000000E+00
 0.9179015117509E+00 -0.2508352180070E+01  0.0000000000000E+00
 0.9216094169639E+00 -0.2436769446890E+01  0.0000000000000E+00
 0.9260215530222E+00 -0.2365246000917E+01  0.0000000000000E+00
 0.9311351832001E+00 -0.2293791657698E+01  0.0000000000000E+00
 0.9368789891704E+00 -0.2222408175140E+01  0.0000000000000E+00
 0.9432020592942E+00 -0.2151097230562E+01  0.0000000000000E+00
 0.9500747836836E+00 -0.2079861603281E+01  0.0000000000000E+00
 0.9574874996521E+00 -0.2008706195179E+01  0.0000000000000E+00
 0.9654550362763E+00 -0.1937639901043E+01  0.0000000000000E+00
 0.9740370285046E+00 -0.1866679929603E+01  0.0000000000000E+00
 0.9350152758224E+00 -0.4659959193836E+01  0.0000000000000E+00
 0.9350305516130E+00 -0.4588331411267E+01  0.0000000000000E+00
 0.9350458274974E+00 -0.4516703188842E+01  0.0000000000000E+00
 0.9350611033390E+00 -0.4445075167227E+01  0.0000000000000E+00
 0.9350763791775E+00 -0.4373447159855E+01  0.0000000000000E+00
 0.9350916550218E+00 -0.4301819125568E+01  0.0000000000000E+00
 0.9351069308570E+00 -0.4230191133616E+01  0.0000000000000E+00
 0.9351222066979E+00 -0.4158563115405E+01  0.0000000000000E+00
 0.9351374825376E+00 -0.4086935102455E+01  0.0000000000000E+00
 0.9351527583756E+00 -0.4015307097413E+01  0.0000000000000E+00
 0.9351680342168E+00 -0.3943679077380E+01  0.0000000000000E+00
 0.9351833100531E+00 -0.3872051080837E+01  0.0000000000000E+00
 0.9351985858960E+00 -0.3800423053032E+01  0.0000000000000E+00
 0.9352138617513E+00 -0.3728794966791E+01  0.0000000000000E+00
 0.9352291376023E+00 -0.3657166900936E+01  0.0000000000000E+00
 0.9352444134350E+00 -0.3585538920767E+01  0.0000000000000E+00
 0.9352596894026E+00 -0.3513910308230E+01  0.0000000000000E+00
 0.9352749651150E+00 -0.3442282892497E+01  0.0000000000000E+00
 0.9352902409569E+00 -0.3370654869188E+01  0.0000000000000E+00
 0.9353055167821E+00 -0.3299026924365E+01  0.0000000000000E+00
 0.9353207925879E+00 -0.3227399070774E+01  0.0000000000000E+00
 0.9353360684013E+00 -0.3155771181037E+01  0.0000000000000E+00
 0.9353513442216E+00 -0.3084143259268E+01  0.0000000000000E+00
 0.9353830887569E+00 -0.3012515275898E+01  0.0000000000000E+00
 0.9355373755264E+00 -0.2940887521964E+01  0.0000000000000E+00
 0.9359614934350E+00 -0.2869261334099E+01  0.0000000000000E+00
 0.9367897065442E+00 -0.2797639988499E+01  0.0000000000000E+00
 0.9381208445946E+00 -0.2726029167618E+01  0.0000000000000E+00
 0.9400182941908E+00 -0.2654436016767E+01  0.0000000000000E+00
 0.9425225851194E+00 -0.2582868866825E+01  0.0000000000000E+00
 0.9456659262486E+00 -0.2511336705033E+01  0.0000000000000E+00
 0.9494847547168E+00 -0.2439850246541E+01  0.0000000000000E+00
 0.9540291962613E+00 -0.2368423075029E+01  0.0000000000000E+00
 0.9592964310570E+00 -0.2297065006384E+01  0.0000000000000E+00
 0.9652129753722E+00 -0.2225777798506E+01  0.0000000000000E+00
 0.9717263717630E+00 -0.2154563128652E+01  0.0000000000000E+00
 0.9788061113094E+00 -0.2083423776202E+01  0.0000000000000E+00
 0.9864422379415E+00 -0.2012364643031E+01  0.0000000000000E+00
 0.9946500309898E+00 -0.1941394623598E+01  0.0000000000000E+00
 0.1003490936070E+01 -0.1870530926638E+01  0.0000000000000E+00
 0.9625137375899E+00 -0.4660058284109E+01  0.0000000000000E+00
 0.9625274751513E+00 -0.4588529591607E+01  0.0000000000000E+00
 0.9625412127970E+00 -0.4517000459858E+01  0.0000000000000E+00
 0.9625549504041E+00 -0.4445471528639E+01  0.0000000000000E+00
 0.9625686880086E+00 -0.4373942611646E+01  0.0000000000000E+00
 0.9625824256182E+00 -0.4302413667774E+01  0.0000000000000E+00
 0.9625961632197E+00 -0.4230884766178E+01  0.0000000000000E+00
 0.9626099008262E+00 -0.4159355838359E+01  0.0000000000000E+00
 0.9626236384317E+00 -0.4087826915795E+01  0.0000000000000E+00
 0.9626373760357E+00 -0.4016298001128E+01  0.0000000000000E+00
 0.9626511136426E+00 -0.3944769071490E+01  0.0000000000000E+00
 0.9626648512449E+00 -0.3873240165310E+01  0.0000000000000E+00
 0.9626785888533E+00 -0.3801711227911E+01  0.0000000000000E+00
 0.9626923264728E+00 -0.3730182232157E+01  0.0000000000000E+00
 0.9627060640885E+00 -0.3658653256760E+01  0.0000000000000E+00
 0.9627198016877E+00 -0.3587124366931E+01  0.0000000000000E+00
 0.9627335394082E+00 -0.3515594845610E+01  0.0000000000000E+00
 0.9627472768992E+00 -0.3444066519436E+01  0.0000000000000E+00
 0.9627610145067E+00 -0.3372537586527E+01  0.0000000000000E+00
 0.9627747520991E+00 -0.3301008731995E+01  0.0000000000000E+00
 0.9627884896741E+00 -0.3229479968569E+01  0.0000000000000E+00
 0.9628022272560E+00 -0.3157951169047E+01  0.0000000000000E+00
 0.9628159648440E+00 -0.3086422337537E+01  0.0000000000000E+00
 0.9628466564423E+00 -0.3014893444515E+01  0.0000000000000E+00
 0.9630035013274E+00 -0.2943364780869E+01  0.0000000000000E+00
 0.9634381286881E+00 -0.2871837683121E+01  0.0000000000000E+00
 0.9642887590514E+00 -0.2800315427600E+01  0.0000000000000E+00
 0.9656571344553E+00 -0.2728803696687E+01  0.0000000000000E+00
 0.9676085093668E+00 -0.2657309635808E+01  0.0000000000000E+00
 0.9701846078996E+00 -0.2585841575683E+01  0.0000000000000E+00
 0.9734185880421E+00 -0.2514408503796E+01  0.0000000000000E+00
 0.9773479606558E+00 -0.2443021135268E+01  0.0000000000000E+00
 0.9820243285798E+00 -0.2371693053486E+01  0.0000000000000E+00
 0.9874447888878E+00 -0.2300434074685E+01  0.0000000000000E+00
 0.9935336924435E+00 -0.2229245956763E+01  0.0000000000000E+00
 0.1000237035998E+01 -0.2158130376907E+01  0.0000000000000E+00
 0.1007523411600E+01 -0.2087090114568E+01  0.0000000000000E+00
 0.1015382569795E+01 -0.2016130071610E+01  0.0000000000000E+00
 0.1023830240168E+01 -0.1945259142154E+01  0.0000000000000E+00
 0.1032929679005E+01 -0.1874494534943E+01  0.0000000000000E+00
 0.9900118099595E+00 -0.4660160183706E+01  0.0000000000000E+00
 0.9900236198944E+00 -0.4588733390588E+01  0.0000000000000E+00
 0.9900354299019E+00 -0.4517306158849E+01  0.0000000000000E+00
 0.9900472398762E+00 -0.4445879127356E+01  0.0000000000000E+00
 0.9900590498481E+00 -0.4374452110066E+01  0.0000000000000E+00
 0.9900708598246E+00 -0.4303025065937E+01  0.0000000000000E+00
 0.9900826697940E+00 -0.4231598064023E+01  0.0000000000000E+00
 0.9900944797677E+00 -0.4160171035925E+01  0.0000000000000E+00
 0.9901062897406E+00 -0.4088744013072E+01  0.0000000000000E+00
 0.9901180997122E+00 -0.4017316998107E+01  0.0000000000000E+00
 0.9901299096863E+00 -0.3945889968191E+01  0.0000000000000E+00
 0.9901417196565E+00 -0.3874462961699E+01  0.0000000000000E+00
 0.9901535296318E+00 -0.3803035924034E+01  0.0000000000000E+00
 0.9901653396168E+00 -0.3731608828097E+01  0.0000000000000E+00
 0.9901771495984E+00 -0.3660181752487E+01  0.0000000000000E+00
 0.9901889595659E+00 -0.3588754762324E+01  0.0000000000000E+00
 0.9902007696377E+00 -0.3517327141568E+01  0.0000000000000E+00
 0.9902125795121E+00 -0.3445900714257E+01  0.0000000000000E+00
 0.9902243894867E+00 -0.3374473681074E+01  0.0000000000000E+00
 0.9902361994483E+00 -0.3303046726158E+01  0.0000000000000E+00
 0.9902480093950E+00 -0.3231619862217E+01  0.0000000000000E+00
 0.9902598193475E+00 -0.3160192962233E+01  0.0000000000000E+00
 0.9902716293054E+00 -0.3088766030305E+01  0.0000000000000E+00
 0.9903008785684E+00 -0.3017339036957E+01  0.0000000000000E+00
 0.9904598921716E+00 -0.2945912272923E+01  0.0000000000000E+00
 0.9909046395882E+00 -0.2874487074610E+01  0.0000000000000E+00
 0.9917772978107E+00 -0.2803066718486E+01  0.0000000000000E+00
 0.9931825211753E+00 -0.2731656886858E+01  0.0000000000000E+00
 0.9951874320109E+00 -0.2660264725264E+01  0.0000000000000E+00
 0.9978349487592E+00 -0.2588898564268E+01  0.0000000000000E+00
 0.1001159178528E+01 -0.2517567391599E+01  0.0000000000000E+00
 0.1005198705901E+01 -0.2446281922349E+01  0.0000000000000E+00
 0.1010006610822E+01 -0.2375055739605E+01  0.0000000000000E+00
 0.1015579907262E+01 -0.2303898659960E+01  0.0000000000000E+00
 0.1021840780679E+01 -0.2232812441308E+01  0.0000000000000E+00
 0.1028733682020E+01 -0.2161798760767E+01  0.0000000000000E+00
 0.1036226304300E+01 -0.2090860397857E+01  0.0000000000000E+00
 0.1044308104682E+01 -0.2020002254434E+01  0.0000000000000E+00
 0.1052995263009E+01 -0.1949233224272E+01  0.0000000000000E+00
 0.1062352846232E+01 -0.1878570516118E+01  0.0000000000000E+00
 0.1017509482155E+01 -0.4660264886430E+01  0.0000000000000E+00
 0.1017518964290E+01 -0.4588942795818E+01  0.0000000000000E+00
 0.1017528446483E+01 -0.4517620267227E+01  0.0000000000000E+00
 0.1017537928650E+01 -0.4446297938589E+01  0.0000000000000E+00
 0.1017547410815E+01 -0.4374975624134E+01  0.0000000000000E+00
 0.1017556892983E+01 -0.4303653282878E+01  0.0000000000000E+00
 0.1017566375146E+01 -0.4232330983776E+01  0.0000000000000E+00
 0.1017575857312E+01 -0.4161008658528E+01  0.0000000000000E+00
 0.1017585339477E+01 -0.4089686338518E+01  0.0000000000000E+00
 0.1017594821642E+01 -0.4018364026383E+01  0.0000000000000E+00
 0.1017604303808E+01 -0.3947041699321E+01  0.0000000000000E+00
 0.1017613785972E+01 -0.3875719395647E+01  0.0000000000000E+00
 0.1017623268139E+01 -0.3804397060846E+01  0.0000000000000E+00
 0.1017632750314E+01 -0.3733074667859E+01  0.0000000000000E+00
 0.1017642232487E+01 -0.3661752295169E+01  0.0000000000000E+00
 0.1017651714648E+01 -0.3590430007800E+01  0.0000000000000E+00
 0.1017661196893E+01 -0.3519107090763E+01  0.0000000000000E+00
 0.1017670678979E+01 -0.3447785365421E+01  0.0000000000000E+00
 0.1017680161146E+01 -0.3376463035097E+01  0.0000000000000E+00
 0.1017689643303E+01 -0.3305140782923E+01  0.0000000000000E+00
 0.1017699125447E+01 -0.3233818621592E+01  0.0000000000000E+00
 0.1017708607596E+01 -0.3162496424270E+01  0.0000000000000E+00
 0.1017718089750E+01 -0.3091174195051E+01  0.0000000000000E+00
 0.1017745496503E+01 -0.3019851904506E+01  0.0000000000000E+00
 0.1017906278648E+01 -0.2948529843212E+01  0.0000000000000E+00
 0.1018360745944E+01 -0.2877209347457E+01  0.0000000000000E+00
 0.1019255031844E+01 -0.2805893693852E+01  0.0000000000000E+00
 0.1020696702984E+01 -0.2734588564626E+01  0.0000000000000E+00
 0.1022754749553E+01 -0.2663301105436E+01  0.0000000000000E+00
 0.1025473284322E+01 -0.2592039646683E+01  0.0000000000000E+00
 0.1028887363514E+01 -0.2520813176348E+01  0.0000000000000E+00
 0.1033036645440E+01 -0.2449632409496E+01  0.0000000000000E+00
 0.1037975687144E+01 -0.2378510928901E+01  0.0000000000000E+00
 0.1043701419494E+01 -0.2307458551527E+01  0.0000000000000E+00
 0.1050133862544E+01 -0.2236477035263E+01  0.0000000000000E+00
 0.1057215921438E+01 -0.2165568057156E+01  0.0000000000000E+00
 0.1064914390158E+01 -0.2094734396797E+01  0.0000000000000E+00
 0.1073218432483E+01 -0.2023980956034E+01  0.0000000000000E+00
 0.1082144678514E+01 -0.1953316628284E+01  0.0000000000000E+00
 0.1091760005868E+01 -0.1882758622300E+01  0.0000000000000E+00
 0.1045006744575E+01 -0.4660372386100E+01  0.0000000000000E+00
 0.1045013489135E+01 -0.4589157794934E+01  0.0000000000000E+00
 0.1045020233737E+01 -0.4517942766450E+01  0.0000000000000E+00
 0.1045026978321E+01 -0.4446727937617E+01  0.0000000000000E+00
 0.1045033722903E+01 -0.4375513122945E+01  0.0000000000000E+00
 0.1045040467487E+01 -0.4304298281514E+01  0.0000000000000E+00
 0.1045047212067E+01 -0.4233083482172E+01  0.0000000000000E+00
 0.1045053956650E+01 -0.4161868656724E+01  0.0000000000000E+00
 0.1045060701232E+01 -0.4090653836506E+01  0.0000000000000E+00
 0.1045067445814E+01 -0.4019439024151E+01  0.0000000000000E+00
 0.1045074190397E+01 -0.3948224196891E+01  0.0000000000000E+00
 0.1045080934978E+01 -0.3877009392985E+01  0.0000000000000E+00
 0.1045087679562E+01 -0.3805794557998E+01  0.0000000000000E+00
 0.1045094424151E+01 -0.3734579664913E+01  0.0000000000000E+00
 0.1045101168738E+01 -0.3663364792095E+01  0.0000000000000E+00
 0.1045107913318E+01 -0.3592150004468E+01  0.0000000000000E+00
 0.1045114657956E+01 -0.3520934588123E+01  0.0000000000000E+00
 0.1045121402483E+01 -0.3449720361677E+01  0.0000000000000E+00
 0.1045128147066E+01 -0.3378505531160E+01  0.0000000000000E+00
 0.1045134891642E+01 -0.3307290778676E+01  0.0000000000000E+00
 0.1045141636209E+01 -0.3236076116898E+01  0.0000000000000E+00
 0.1045148380780E+01 -0.3164861419183E+01  0.0000000000000E+00
 0.1045155125354E+01 -0.3093646689619E+01  0.0000000000000E+00
 0.1045180279821E+01 -0.3022431898826E+01  0.0000000000000E+00
 0.1045342420734E+01 -0.2951217337218E+01  0.0000000000000E+00
 0.1045806198134E+01 -0.2880004340962E+01  0.0000000000000E+00
 0.1046721701941E+01 -0.2808796186818E+01  0.0000000000000E+00
 0.1048199411086E+01 -0.2737598556931E+01  0.0000000000000E+00
 0.1050310183620E+01 -0.2666418597083E+01  0.0000000000000E+00
 0.1053099326642E+01 -0.2595264637507E+01  0.0000000000000E+00
 0.1056602845493E+01 -0.2524145666443E+01  0.0000000000000E+00
 0.1060861472207E+01 -0.2453072398925E+01  0.0000000000000E+00
 0.1065931240934E+01 -0.2382058417411E+01  0.0000000000000E+00
 0.1071808999436E+01 -0.2311113539242E+01  0.0000000000000E+00
 0.1078412602362E+01 -0.2240239522303E+01  0.0000000000000E+00
 0.1085683409054E+01 -0.2169438043568E+01  0.0000000000000E+00
 0.1093587314458E+01 -0.2098711882704E+01  0.0000000000000E+00
 0.1102113188972E+01 -0.2028065941545E+01  0.0000000000000E+00
 0.1111278112956E+01 -0.1957509113146E+01  0.0000000000000E+00
 0.1121150774694E+01 -0.1887058606262E+01  0.0000000000000E+00
 0.1072503587178E+01 -0.4660482676316E+01  0.0000000000000E+00
 0.1072507174348E+01 -0.4589378375137E+01  0.0000000000000E+00
 0.1072510761541E+01 -0.4518273637316E+01  0.0000000000000E+00
 0.1072514348723E+01 -0.4447169098837E+01  0.0000000000000E+00
 0.1072517935905E+01 -0.4376064574498E+01  0.0000000000000E+00
 0.1072521523088E+01 -0.4304960023440E+01  0.0000000000000E+00
 0.1072525110269E+01 -0.4233855514407E+01  0.0000000000000E+00
 0.1072528697451E+01 -0.4162750979308E+01  0.0000000000000E+00
 0.1072532284633E+01 -0.4091646449431E+01  0.0000000000000E+00
 0.1072535871815E+01 -0.4020541927405E+01  0.0000000000000E+00
 0.1072539458997E+01 -0.3949437390497E+01  0.0000000000000E+00
 0.1072543046178E+01 -0.3878332876907E+01  0.0000000000000E+00
 0.1072546633361E+01 -0.3807228332284E+01  0.0000000000000E+00
 0.1072550220546E+01 -0.3736123729652E+01  0.0000000000000E+00
 0.1072553807731E+01 -0.3665019147257E+01  0.0000000000000E+00
 0.1072557394911E+01 -0.3593914649921E+01  0.0000000000000E+00
 0.1072560982123E+01 -0.3522809524840E+01  0.0000000000000E+00
 0.1072564569275E+01 -0.3451705587815E+01  0.0000000000000E+00
 0.1072568156458E+01 -0.3380601047655E+01  0.0000000000000E+00
 0.1072571743636E+01 -0.3309496585407E+01  0.0000000000000E+00
 0.1072575330810E+01 -0.3238392213725E+01  0.0000000000000E+00
 0.1072578917986E+01 -0.3167287806161E+01  0.0000000000000E+00
 0.1072582505164E+01 -0.3096183366798E+01  0.0000000000000E+00
 0.1072604987528E+01 -0.3025078866304E+01  0.0000000000000E+00
 0.1072768067392E+01 -0.2953974594929E+01  0.0000000000000E+00
 0.1073240735083E+01 -0.2882871888714E+01  0.0000000000000E+00
 0.1074177036982E+01 -0.2811774024571E+01  0.0000000000000E+00
 0.1075690364322E+01 -0.2740686684561E+01  0.0000000000000E+00
 0.1077853443011E+01 -0.2669617014592E+01  0.0000000000000E+00
 0.1080712774480E+01 -0.2598573344725E+01  0.0000000000000E+00
 0.1084305313187E+01 -0.2527564663467E+01  0.0000000000000E+00
 0.1088672864887E+01 -0.2456601685821E+01  0.0000000000000E+00
 0.1093872940837E+01 -0.2385697993918E+01  0.0000000000000E+00
 0.1099902305694E+01 -0.2314863405488E+01  0.0000000000000E+00
 0.1106676648702E+01 -0.2244099678411E+01  0.0000000000000E+00
 0.1114135783397E+01 -0.2173408489587E+01  0.0000000000000E+00
 0.1122244705695E+01 -0.2102792618758E+01  0.0000000000000E+00
 0.1130991992608E+01 -0.2032256967748E+01  0.0000000000000E+00
 0.1140395174757E+01 -0.1961810429236E+01  0.0000000000000E+00
 0.1150524751096E+01 -0.1891470211985E+01  0.0000000000000E+00
-0.5660382933727E+00 -0.1689691761343E+01  0.0000000000000E+00
-0.5663123720575E+00 -0.1626506538788E+01  0.0000000000000E+00
-0.5667790339879E+00 -0.1563322491581E+01  0.0000000000000E+00
-0.5674663936241E+00 -0.1500140613648E+01  0.0000000000000E+00
-0.5684046240156E+00 -0.1436962158218E+01  0.0000000000000E+00
-0.5696222518212E+00 -0.1373788927613E+01  0.0000000000000E+00
-0.5711380830886E+00 -0.1310622648082E+01  0.0000000000000E+00
-0.5729469100487E+00 -0.1247464856343E+01  0.0000000000000E+00
-0.5750009089678E+00 -0.1184315217396E+01  0.0000000000000E+00
-0.5771979571333E+00 -0.1121170853713E+01  0.0000000000000E+00
-0.5793950052231E+00 -0.1058026490028E+01  0.0000000000000E+00
-0.5814490039253E+00 -0.9948768510738E+00  0.0000000000000E+00
-0.5832578305519E+00 -0.9317190593259E+00  0.0000000000000E+00
-0.5847736613987E+00 -0.8685527797851E+00  0.0000000000000E+00
-0.5859912887235E+00 -0.8053795491707E+00  0.0000000000000E+00
-0.5869295185944E+00 -0.7422010937332E+00  0.0000000000000E+00
-0.5876168776851E+00 -0.6790192157949E+00  0.0000000000000E+00
-0.5880835390555E+00 -0.6158351685841E+00  0.0000000000000E+00
-0.5883576171726E+00 -0.5526499460259E+00  0.0000000000000E+00
-0.5363253834601E+00 -0.1687245125446E+01  0.0000000000000E+00
-0.5366119768712E+00 -0.1623791708043E+01  0.0000000000000E+00
-0.5370810175640E+00 -0.1560339466072E+01  0.0000000000000E+00
-0.5377591402814E+00 -0.1496889393551E+01  0.0000000000000E+00
-0.5386749300523E+00 -0.1433442743371E+01  0.0000000000000E+00
-0.5398554120886E+00 -0.1370001318292E+01  0.0000000000000E+00
-0.5413184027050E+00 -0.1306566843974E+01  0.0000000000000E+00
-0.5430589681685E+00 -0.1243140857698E+01  0.0000000000000E+00
-0.5450318018343E+00 -0.1179723023941E+01  0.0000000000000E+00
-0.5471401558424E+00 -0.1116310465411E+01  0.0000000000000E+00
-0.5492485097748E+00 -0.1052897906879E+01  0.0000000000000E+00
-0.5512213432236E+00 -0.9894800731148E+00  0.0000000000000E+00
-0.5529619083535E+00 -0.9260540868295E+00  0.0000000000000E+00
-0.5544248985495E+00 -0.8626196125025E+00  0.0000000000000E+00
-0.5556053801049E+00 -0.7991781874149E+00  0.0000000000000E+00
-0.5565211693552E+00 -0.7357315372274E+00  0.0000000000000E+00
-0.5571992915272E+00 -0.6722814647015E+00  0.0000000000000E+00
-0.5576683316600E+00 -0.6088292227269E+00  0.0000000000000E+00
-0.5579549245034E+00 -0.5453758053214E+00  0.0000000000000E+00
-0.5065999670663E+00 -0.1684928561672E+01  0.0000000000000E+00
-0.5068949115904E+00 -0.1621220039384E+01  0.0000000000000E+00
-0.5073621674199E+00 -0.1557512692609E+01  0.0000000000000E+00
-0.5080268895799E+00 -0.1493807515451E+01  0.0000000000000E+00
-0.5089160750712E+00 -0.1430105760479E+01  0.0000000000000E+00
-0.5100552476636E+00 -0.1366409230871E+01  0.0000000000000E+00
-0.5114612339286E+00 -0.1302719651727E+01  0.0000000000000E+00
-0.5131293741780E+00 -0.1239038560861E+01  0.0000000000000E+00
-0.5150168788513E+00 -0.1175365622255E+01  0.0000000000000E+00
-0.5170323749522E+00 -0.1111697958841E+01  0.0000000000000E+00
-0.5190478709775E+00 -0.1048030295425E+01  0.0000000000000E+00
-0.5209353754338E+00 -0.9843573568131E+00  0.0000000000000E+00
-0.5226035153497E+00 -0.9206762659386E+00  0.0000000000000E+00
-0.5240095011942E+00 -0.8569866867857E+00  0.0000000000000E+00
-0.5251486733057E+00 -0.7932901571698E+00  0.0000000000000E+00
-0.5260378582764E+00 -0.7295884021909E+00  0.0000000000000E+00
-0.5267025798910E+00 -0.6658832250280E+00  0.0000000000000E+00
-0.5271698351604E+00 -0.6021758782489E+00  0.0000000000000E+00
-0.5274647791169E+00 -0.5384673559593E+00  0.0000000000000E+00
-0.4768626705487E+00 -0.1682742416099E+01  0.0000000000000E+00
-0.4771619844321E+00 -0.1618792097827E+01  0.0000000000000E+00
-0.4776234736490E+00 -0.1554842955143E+01  0.0000000000000E+00
-0.4782708135087E+00 -0.1490895982235E+01  0.0000000000000E+00
-0.4791294129793E+00 -0.1426952431367E+01  0.0000000000000E+00
-0.4802232943955E+00 -0.1363014106112E+01  0.0000000000000E+00
-0.4815682945772E+00 -0.1299082731039E+01  0.0000000000000E+00
-0.4831600278892E+00 -0.1235159844468E+01  0.0000000000000E+00
-0.4849582218467E+00 -0.1171245109912E+01  0.0000000000000E+00
-0.4868768783191E+00 -0.1107335650514E+01  0.0000000000000E+00
-0.4887955347158E+00 -0.1043426191114E+01  0.0000000000000E+00
-0.4905937284563E+00 -0.9795114565527E+00  0.0000000000000E+00
-0.4921854614348E+00 -0.9155885699739E+00  0.0000000000000E+00
-0.4935304611959E+00 -0.8516571948924E+00  0.0000000000000E+00
-0.4946243421312E+00 -0.7877188696299E+00  0.0000000000000E+00
-0.4954829410813E+00 -0.7237753187550E+00  0.0000000000000E+00
-0.4961302803955E+00 -0.6598283458425E+00  0.0000000000000E+00
-0.4965917690524E+00 -0.5958792031548E+00  0.0000000000000E+00
-0.4968910823681E+00 -0.5319288848814E+00  0.0000000000000E+00
-0.4471141738714E+00 -0.1680687021658E+01  0.0000000000000E+00
-0.4474140589931E+00 -0.1616508426019E+01  0.0000000000000E+00
-0.4478659834921E+00 -0.1552331006037E+01  0.0000000000000E+00
-0.4484921429651E+00 -0.1488155755982E+01  0.0000000000000E+00
-0.4493163583450E+00 -0.1423983927828E+01  0.0000000000000E+00
-0.4503611505400E+00 -0.1359817325524E+01  0.0000000000000E+00
-0.4516413666112E+00 -0.1295657673134E+01  0.0000000000000E+00
-0.4531528949840E+00 -0.1231506509458E+01  0.0000000000000E+00
-0.4548579802386E+00 -0.1167363497567E+01  0.0000000000000E+00
-0.4566759991053E+00 -0.1103225760801E+01  0.0000000000000E+00
-0.4584940178964E+00 -0.1039088024033E+01  0.0000000000000E+00
-0.4601991029340E+00 -0.9749450121357E+00  0.0000000000000E+00
-0.4617106309733E+00 -0.9107938484529E+00  0.0000000000000E+00
-0.4629908466239E+00 -0.8466341960555E+00  0.0000000000000E+00
-0.4640356383381E+00 -0.7824675937435E+00  0.0000000000000E+00
-0.4648598531975E+00 -0.7182957655835E+00  0.0000000000000E+00
-0.4654860121251E+00 -0.6541205155242E+00  0.0000000000000E+00
-0.4659379360640E+00 -0.5899430955397E+00  0.0000000000000E+00
-0.4662378206180E+00 -0.5257644998984E+00  0.0000000000000E+00
-0.4173550630559E+00 -0.1678762688173E+01  0.0000000000000E+00
-0.4176519113029E+00 -0.1614369533789E+01  0.0000000000000E+00
-0.4180906629569E+00 -0.1549977555129E+01  0.0000000000000E+00
-0.4186920339012E+00 -0.1485587746537E+01  0.0000000000000E+00
-0.4194782570266E+00 -0.1421201359716E+01  0.0000000000000E+00
-0.4204703518181E+00 -0.1356820198965E+01  0.0000000000000E+00
-0.4216821755688E+00 -0.1292445987879E+01  0.0000000000000E+00
-0.4231098907729E+00 -0.1228080265706E+01  0.0000000000000E+00
-0.4247182590719E+00 -0.1163722695099E+01  0.0000000000000E+00
-0.4264320320686E+00 -0.1099370399588E+01  0.0000000000000E+00
-0.4281458049896E+00 -0.1035018104075E+01  0.0000000000000E+00
-0.4297541730716E+00 -0.9706605334635E+00  0.0000000000000E+00
-0.4311818879422E+00 -0.9062948112837E+00  0.0000000000000E+00
-0.4323937112723E+00 -0.8419206001903E+00  0.0000000000000E+00
-0.4333858055829E+00 -0.7775394394327E+00  0.0000000000000E+00
-0.4341720281878E+00 -0.7131530526057E+00  0.0000000000000E+00
-0.4347733985867E+00 -0.6487632440093E+00  0.0000000000000E+00
-0.4352121496806E+00 -0.5843712653468E+00  0.0000000000000E+00
-0.4355089973599E+00 -0.5199781109607E+00  0.0000000000000E+00
-0.3875860504174E+00 -0.1676969717501E+01  0.0000000000000E+00
-0.3878764553724E+00 -0.1612375915377E+01  0.0000000000000E+00
-0.3882986277719E+00 -0.1547783289039E+01  0.0000000000000E+00
-0.3888718037880E+00 -0.1483192832901E+01  0.0000000000000E+00
-0.3896166282662E+00 -0.1418605798412E+01  0.0000000000000E+00
-0.3905526192750E+00 -0.1354023990201E+01  0.0000000000000E+00
-0.3916926443324E+00 -0.1289449131420E+01  0.0000000000000E+00
-0.3930331400086E+00 -0.1224882761738E+01  0.0000000000000E+00
-0.3945413849981E+00 -0.1160324543420E+01  0.0000000000000E+00
-0.3961475057755E+00 -0.1095771600169E+01  0.0000000000000E+00
-0.3977536264772E+00 -0.1031218656915E+01  0.0000000000000E+00
-0.3992618712497E+00 -0.9666604385923E+00  0.0000000000000E+00
-0.4006023665923E+00 -0.9020940689044E+00  0.0000000000000E+00
-0.4017423912293E+00 -0.8375192101168E+00  0.0000000000000E+00
-0.4026783817572E+00 -0.7729374018990E+00  0.0000000000000E+00
-0.4034232057148E+00 -0.7083503674049E+00  0.0000000000000E+00
-0.4039963811855E+00 -0.6437599112629E+00  0.0000000000000E+00
-0.4044185530250E+00 -0.5791672849229E+00  0.0000000000000E+00
-0.4047089574122E+00 -0.5145734827967E+00  0.0000000000000E+00
-0.3578077848507E+00 -0.1675308389248E+01  0.0000000000000E+00
-0.3580885470070E+00 -0.1610528031852E+01  0.0000000000000E+00
-0.3584909406433E+00 -0.1545748850301E+01  0.0000000000000E+00
-0.3590327222207E+00 -0.1480971839072E+01  0.0000000000000E+00
-0.3597329485350E+00 -0.1416198249379E+01  0.0000000000000E+00
-0.3606096362428E+00 -0.1351429886156E+01  0.0000000000000E+00
-0.3616746630801E+00 -0.1286668472146E+01  0.0000000000000E+00
-0.3629247396993E+00 -0.1221915547408E+01  0.0000000000000E+00
-0.3643296618428E+00 -0.1157170773845E+01  0.0000000000000E+00
-0.3658249308613E+00 -0.1092431275322E+01  0.0000000000000E+00
-0.3673201998042E+00 -0.1027691776797E+01  0.0000000000000E+00
-0.3687251217307E+00 -0.9629470032288E+00  0.0000000000000E+00
-0.3699751980164E+00 -0.8981940784852E+00  0.0000000000000E+00
-0.3710402244331E+00 -0.8334326644688E+00  0.0000000000000E+00
-0.3719169116601E+00 -0.7686643012399E+00  0.0000000000000E+00
-0.3726171374538E+00 -0.7038907115421E+00  0.0000000000000E+00
-0.3731589184858E+00 -0.6391137003095E+00  0.0000000000000E+00
-0.3735613115620E+00 -0.5743345187563E+00  0.0000000000000E+00
-0.3738420731506E+00 -0.5095541613588E+00  0.0000000000000E+00
-0.3280209322967E+00 -0.1673778966441E+01  0.0000000000000E+00
-0.3282890703009E+00 -0.1608826317856E+01  0.0000000000000E+00
-0.3286687038227E+00 -0.1543874845170E+01  0.0000000000000E+00
-0.3291761096142E+00 -0.1478925542919E+01  0.0000000000000E+00
-0.3298287564176E+00 -0.1413979662100E+01  0.0000000000000E+00
-0.3306431594830E+00 -0.1349039007928E+01  0.0000000000000E+00
-0.3316302067577E+00 -0.1284105302768E+01  0.0000000000000E+00
-0.3327868829826E+00 -0.1219180087040E+01  0.0000000000000E+00
-0.3340855009420E+00 -0.1154263022312E+01  0.0000000000000E+00
-0.3354669368643E+00 -0.1089351232600E+01  0.0000000000000E+00
-0.3368483727111E+00 -0.1024439442887E+01  0.0000000000000E+00
-0.3381469904534E+00 -0.9595223781546E+00  0.0000000000000E+00
-0.3393036663448E+00 -0.8945971624215E+00  0.0000000000000E+00
-0.3402907131989E+00 -0.8296634572558E+00  0.0000000000000E+00
-0.3411051157835E+00 -0.7647228030786E+00  0.0000000000000E+00
-0.3417577620663E+00 -0.6997769222548E+00  0.0000000000000E+00
-0.3422651673124E+00 -0.6348276200005E+00  0.0000000000000E+00
-0.3426448002742E+00 -0.5698761473125E+00  0.0000000000000E+00
-0.3429129377106E+00 -0.5049234987264E+00  0.0000000000000E+00
-0.2982262059385E+00 -0.1672381694973E+01  0.0000000000000E+00
-0.2984789576442E+00 -0.1607271179011E+01  0.0000000000000E+00
-0.2988330689080E+00 -0.1542161838997E+01  0.0000000000000E+00
-0.2993033367739E+00 -0.1477054669522E+01  0.0000000000000E+00
-0.2999056419273E+00 -0.1411950921383E+01  0.0000000000000E+00
-0.3006549982166E+00 -0.1346852400053E+01  0.0000000000000E+00
-0.3015613037944E+00 -0.1281760827552E+01  0.0000000000000E+00
-0.3026218174963E+00 -0.1216677744629E+01  0.0000000000000E+00
-0.3038113691420E+00 -0.1151602812546E+01  0.0000000000000E+00
-0.3050762098397E+00 -0.1086533155457E+01  0.0000000000000E+00
-0.3063410504618E+00 -0.1021463498367E+01  0.0000000000000E+00
-0.3075306018905E+00 -0.9563885662797E+00  0.0000000000000E+00
-0.3085911152588E+00 -0.8913054833521E+00  0.0000000000000E+00
-0.3094974204161E+00 -0.8262139108455E+00  0.0000000000000E+00
-0.3102467762245E+00 -0.7611153895116E+00  0.0000000000000E+00
-0.3108490808573E+00 -0.6960116413682E+00  0.0000000000000E+00
-0.3113193481778E+00 -0.6309044718900E+00  0.0000000000000E+00
-0.3116734588816E+00 -0.5657951318742E+00  0.0000000000000E+00
-0.3119262100196E+00 -0.5006846159113E+00  0.0000000000000E+00
-0.2684242591111E+00 -0.1671116799086E+01  0.0000000000000E+00
-0.2686590939796E+00 -0.1605862988030E+01  0.0000000000000E+00
-0.2689851524448E+00 -0.1540610352966E+01  0.0000000000000E+00
-0.2694157518426E+00 -0.1475359888535E+01  0.0000000000000E+00
-0.2699651847983E+00 -0.1410112845353E+01  0.0000000000000E+00
-0.2706469637623E+00 -0.1344871029129E+01  0.0000000000000E+00
-0.2714699970866E+00 -0.1279636161565E+01  0.0000000000000E+00
-0.2724318177065E+00 -0.1214409783713E+01  0.0000000000000E+00
-0.2735097724737E+00 -0.1149191556555E+01  0.0000000000000E+00
-0.2746554873792E+00 -0.1083978604371E+01  0.0000000000000E+00
-0.2758012022091E+00 -0.1018765652186E+01  0.0000000000000E+00
-0.2768791567593E+00 -0.9535474250252E+00  0.0000000000000E+00
-0.2778409770457E+00 -0.8883210471688E+00  0.0000000000000E+00
-0.2786640099495E+00 -0.8230861796004E+00  0.0000000000000E+00
-0.2793457884325E+00 -0.7578443633719E+00  0.0000000000000E+00
-0.2798952208677E+00 -0.6925973201861E+00  0.0000000000000E+00
-0.2803258197201E+00 -0.6273468557523E+00  0.0000000000000E+00
-0.2806518776252E+00 -0.5620942206867E+00  0.0000000000000E+00
-0.2808867119260E+00 -0.4968404096294E+00  0.0000000000000E+00
-0.2386158232353E+00 -0.1669984486219E+01  0.0000000000000E+00
-0.2388304441249E+00 -0.1604602088268E+01  0.0000000000000E+00
-0.2391261526536E+00 -0.1539220866350E+01  0.0000000000000E+00
-0.2395147864510E+00 -0.1473841815148E+01  0.0000000000000E+00
-0.2400090500797E+00 -0.1408466185117E+01  0.0000000000000E+00
-0.2406209545962E+00 -0.1343095782177E+01  0.0000000000000E+00
-0.2413584185475E+00 -0.1277732327748E+01  0.0000000000000E+00
-0.2422192489735E+00 -0.1212377363149E+01  0.0000000000000E+00
-0.2431833097518E+00 -0.1147030549114E+01  0.0000000000000E+00
-0.2442076017572E+00 -0.1081689010035E+01  0.0000000000000E+00
-0.2452318936869E+00 -0.1016347470955E+01  0.0000000000000E+00
-0.2461959542483E+00 -0.9510006569173E+00  0.0000000000000E+00
-0.2470567843406E+00 -0.8856456923147E+00  0.0000000000000E+00
-0.2477942478714E+00 -0.8202822378808E+00  0.0000000000000E+00
-0.2484061519071E+00 -0.7549118349370E+00  0.0000000000000E+00
-0.2489004150152E+00 -0.6895362049032E+00  0.0000000000000E+00
-0.2492890482672E+00 -0.6241571536992E+00  0.0000000000000E+00
-0.2495847562358E+00 -0.5587759317790E+00  0.0000000000000E+00
-0.2497993765577E+00 -0.4933935338269E+00  0.0000000000000E+00
-0.2088015918171E+00 -0.1668984941864E+01  0.0000000000000E+00
-0.2089939423704E+00 -0.1603488788333E+01  0.0000000000000E+00
-0.2092572446060E+00 -0.1537993810870E+01  0.0000000000000E+00
-0.2096018564480E+00 -0.1472501004198E+01  0.0000000000000E+00
-0.2100388943936E+00 -0.1407011618628E+01  0.0000000000000E+00
-0.2105788681090E+00 -0.1341527460266E+01  0.0000000000000E+00
-0.2112287063315E+00 -0.1276050250282E+01  0.0000000000000E+00
-0.2119864902098E+00 -0.1210581530234E+01  0.0000000000000E+00
-0.2128346006438E+00 -0.1145120960635E+01  0.0000000000000E+00
-0.2137354133933E+00 -0.1079665665975E+01  0.0000000000000E+00
-0.2146362260672E+00 -0.1014210371315E+01  0.0000000000000E+00
-0.2154843362842E+00 -0.9487498017129E+00  0.0000000000000E+00
-0.2162421198289E+00 -0.8832810816616E+00  0.0000000000000E+00
-0.2168919576308E+00 -0.8178038716736E+00  0.0000000000000E+00
-0.2174319308654E+00 -0.7523197133084E+00  0.0000000000000E+00
-0.2178689682905E+00 -0.6868303277357E+00  0.0000000000000E+00
-0.2182135795869E+00 -0.6213375210618E+00  0.0000000000000E+00
-0.2184768812625E+00 -0.5558425435970E+00  0.0000000000000E+00
-0.2186692312481E+00 -0.4903463900649E+00  0.0000000000000E+00
-0.1789822699684E+00 -0.1668118331209E+01  0.0000000000000E+00
-0.1791505394161E+00 -0.1602523363227E+01  0.0000000000000E+00
-0.1793796245881E+00 -0.1536929571344E+01  0.0000000000000E+00
-0.1796784037030E+00 -0.1471337950318E+01  0.0000000000000E+00
-0.1800564051905E+00 -0.1405749750333E+01  0.0000000000000E+00
-0.1805226373288E+00 -0.1340166777658E+01  0.0000000000000E+00
-0.1810830390415E+00 -0.1274590753246E+01  0.0000000000000E+00
-0.1817359655899E+00 -0.1209023218861E+01  0.0000000000000E+00
-0.1824663148931E+00 -0.1143463834825E+01  0.0000000000000E+00
-0.1832418375987E+00 -0.1077909725716E+01  0.0000000000000E+00
-0.1840173602287E+00 -0.1012355616605E+01  0.0000000000000E+00
-0.1847477093150E+00 -0.9467962325665E+00  0.0000000000000E+00
-0.1854006355298E+00 -0.8812286981792E+00  0.0000000000000E+00
-0.1859610368220E+00 -0.8156526737635E+00  0.0000000000000E+00
-0.1864272684794E+00 -0.7500697010859E+00  0.0000000000000E+00
-0.1868052694463E+00 -0.6844815010990E+00  0.0000000000000E+00
-0.1871040480158E+00 -0.6188898800707E+00  0.0000000000000E+00
-0.1873331326277E+00 -0.5532960881865E+00  0.0000000000000E+00
-0.1875014015077E+00 -0.4877011202043E+00  0.0000000000000E+00
-0.1491585906986E+00 -0.1667384798938E+01  0.0000000000000E+00
-0.1493012179629E+00 -0.1601706053757E+01  0.0000000000000E+00
-0.1494945249966E+00 -0.1536028484701E+01  0.0000000000000E+00
-0.1497459103137E+00 -0.1470353086556E+01  0.0000000000000E+00
-0.1500633142746E+00 -0.1404681109403E+01  0.0000000000000E+00
-0.1504542437727E+00 -0.1339014359645E+01  0.0000000000000E+00
-0.1509236479144E+00 -0.1273354558052E+01  0.0000000000000E+00
-0.1514701560771E+00 -0.1207703246565E+01  0.0000000000000E+00
-0.1520811831954E+00 -0.1142060085341E+01  0.0000000000000E+00
-0.1527298548045E+00 -0.1076422199032E+01  0.0000000000000E+00
-0.1533785263379E+00 -0.1010784312722E+01  0.0000000000000E+00
-0.1539895532392E+00 -0.9451411514961E+00  0.0000000000000E+00
-0.1545360610683E+00 -0.8794898400065E+00  0.0000000000000E+00
-0.1550054647896E+00 -0.8138300384108E+00  0.0000000000000E+00
-0.1553963938067E+00 -0.7481632886510E+00  0.0000000000000E+00
-0.1557137972470E+00 -0.6824913114955E+00  0.0000000000000E+00
-0.1559651820187E+00 -0.6168159133492E+00  0.0000000000000E+00
-0.1561584884923E+00 -0.5511383442921E+00  0.0000000000000E+00
-0.1563011151890E+00 -0.4854595991108E+00  0.0000000000000E+00
-0.1193312533689E+00 -0.1666784467333E+01  0.0000000000000E+00
-0.1194469324420E+00 -0.1601037064197E+01  0.0000000000000E+00
-0.1196031553282E+00 -0.1535290837207E+01  0.0000000000000E+00
-0.1198058408375E+00 -0.1469546781173E+01  0.0000000000000E+00
-0.1200613412589E+00 -0.1403806146089E+01  0.0000000000000E+00
-0.1203756621029E+00 -0.1338070738472E+01  0.0000000000000E+00
-0.1207527626561E+00 -0.1272342278939E+01  0.0000000000000E+00
-0.1211915464142E+00 -0.1206622309575E+01  0.0000000000000E+00
-0.1216819453254E+00 -0.1140910490406E+01  0.0000000000000E+00
-0.1222024598146E+00 -0.1075203946141E+01  0.0000000000000E+00
-0.1227229742282E+00 -0.1009497401875E+01  0.0000000000000E+00
-0.1232133729224E+00 -0.9437855827039E+00  0.0000000000000E+00
-0.1236521563469E+00 -0.8780656133384E+00  0.0000000000000E+00
-0.1240292564796E+00 -0.8123371538032E+00  0.0000000000000E+00
-0.1243435768427E+00 -0.7466017461841E+00  0.0000000000000E+00
-0.1245990767436E+00 -0.6808611110984E+00  0.0000000000000E+00
-0.1248017617074E+00 -0.6151170550636E+00  0.0000000000000E+00
-0.1249579840336E+00 -0.5493708280728E+00  0.0000000000000E+00
-0.1250736625389E+00 -0.4836234249364E+00  0.0000000000000E+00
-0.8950100053862E-01 -0.1666317437650E+01  0.0000000000000E+00
-0.8958868171560E-01 -0.1600516563313E+01  0.0000000000000E+00
-0.8970677075129E-01 -0.1534716865139E+01  0.0000000000000E+00
-0.8985970675196E-01 -0.1468919337956E+01  0.0000000000000E+00
-0.9005225393426E-01 -0.1403125231690E+01  0.0000000000000E+00
-0.9028891642774E-01 -0.1337336352946E+01  0.0000000000000E+00
-0.9057266369673E-01 -0.1271554422224E+01  0.0000000000000E+00
-0.9090267335780E-01 -0.1205780981720E+01  0.0000000000000E+00
-0.9127139437015E-01 -0.1140015691357E+01  0.0000000000000E+00
-0.9166270204846E-01 -0.1074255675890E+01  0.0000000000000E+00
-0.9205400965113E-01 -0.1008495660424E+01  0.0000000000000E+00
-0.9242273044648E-01 -0.9427303700588E+00  0.0000000000000E+00
-0.9275273977399E-01 -0.8769569295541E+00  0.0000000000000E+00
-0.9303648662245E-01 -0.8111749988302E+00  0.0000000000000E+00
-0.9327314863504E-01 -0.7453861200848E+00  0.0000000000000E+00
-0.9346569529677E-01 -0.6795920138176E+00  0.0000000000000E+00
-0.9361863075200E-01 -0.6137944866337E+00  0.0000000000000E+00
-0.9373671922766E-01 -0.5479947884587E+00  0.0000000000000E+00
-0.9382439983693E-01 -0.4821939141214E+00  0.0000000000000E+00
-0.5966855245610E-01 -0.1665983788540E+01  0.0000000000000E+00
-0.5972744638703E-01 -0.1600144682577E+01  0.0000000000000E+00
-0.5980661222241E-01 -0.1534306752788E+01  0.0000000000000E+00
-0.5990900936510E-01 -0.1468470994015E+01  0.0000000000000E+00
-0.6003781395841E-01 -0.1402638656136E+01  0.0000000000000E+00
-0.6019602875215E-01 -0.1336811545818E+01  0.0000000000000E+00
-0.6038563338675E-01 -0.1270991383477E+01  0.0000000000000E+00
-0.6060607960119E-01 -0.1205179711391E+01  0.0000000000000E+00
-0.6085233336420E-01 -0.1139376189405E+01  0.0000000000000E+00
-0.6111364488103E-01 -0.1073577942312E+01  0.0000000000000E+00
-0.6137495632221E-01 -0.1007779695218E+01  0.0000000000000E+00
-0.6162120986821E-01 -0.9419761732318E+00  0.0000000000000E+00
-0.6184165574910E-01 -0.8761645011445E+00  0.0000000000000E+00
-0.6203125996316E-01 -0.8103443388026E+00  0.0000000000000E+00
-0.6218947427602E-01 -0.7445172284838E+00  0.0000000000000E+00
-0.6231827834875E-01 -0.6786848906039E+00  0.0000000000000E+00
-0.6242067494601E-01 -0.6128491318304E+00  0.0000000000000E+00
-0.6249984022135E-01 -0.5470112020407E+00  0.0000000000000E+00
-0.6255873358457E-01 -0.4811720960768E+00  0.0000000000000E+00
-0.2983463937156E-01 -0.1665783576456E+01  0.0000000000000E+00
-0.2986421868488E-01 -0.1599921516320E+01  0.0000000000000E+00
-0.2990393394841E-01 -0.1534060632365E+01  0.0000000000000E+00
-0.2995526486180E-01 -0.1468201919441E+01  0.0000000000000E+00
-0.3001979949427E-01 -0.1402346627397E+01  0.0000000000000E+00
-0.3009903921680E-01 -0.1336496562938E+01  0.0000000000000E+00
-0.3019397384468E-01 -0.1270653446429E+01  0.0000000000000E+00
-0.3030432924049E-01 -0.1204818820196E+01  0.0000000000000E+00
-0.3042758838143E-01 -0.1138992344041E+01  0.0000000000000E+00
-0.3055837636388E-01 -0.1073171142774E+01  0.0000000000000E+00
-0.3068916427068E-01 -0.1007349941507E+01  0.0000000000000E+00
-0.3081242319462E-01 -0.9415234653514E+00  0.0000000000000E+00
-0.3092277825687E-01 -0.8756888391178E+00  0.0000000000000E+00
-0.3101771246422E-01 -0.8098457226084E+00  0.0000000000000E+00
-0.3109695170586E-01 -0.7439956581489E+00  0.0000000000000E+00
-0.3116148581776E-01 -0.6781403661046E+00  0.0000000000000E+00
-0.3121281618571E-01 -0.6122816531806E+00  0.0000000000000E+00
-0.3125253088920E-01 -0.5464207692254E+00  0.0000000000000E+00
-0.3128210963481E-01 -0.4805587090888E+00  0.0000000000000E+00
 0.5155270009526E-08 -0.1665716835338E+01  0.0000000000000E+00
 0.4584959176113E-08 -0.1599847121274E+01  0.0000000000000E+00
 0.4018463728957E-08 -0.1533978583394E+01  0.0000000000000E+00
 0.3459266843676E-08 -0.1468112216549E+01  0.0000000000000E+00
 0.2912509056810E-08 -0.1402249270580E+01  0.0000000000000E+00
 0.2385636992076E-08 -0.1336391552204E+01  0.0000000000000E+00
 0.1889014992709E-08 -0.1270540781768E+01  0.0000000000000E+00
 0.1435985985768E-08 -0.1204698501615E+01  0.0000000000000E+00
 0.1041351324883E-08 -0.1138864371533E+01  0.0000000000000E+00
 0.7174784089279E-09 -0.1073035516338E+01  0.0000000000000E+00
 0.4692479852428E-09 -0.1007206661143E+01  0.0000000000000E+00
 0.2916178775732E-09 -0.9413725310599E+00  0.0000000000000E+00
 0.1721481202976E-09 -0.8755302509073E+00  0.0000000000000E+00
 0.9605798026668E-10 -0.8096794804718E+00  0.0000000000000E+00
 0.5007317610023E-10 -0.7438217620953E+00  0.0000000000000E+00
 0.2389664789049E-10 -0.6779588161260E+00  0.0000000000000E+00
 0.1013572289531E-10 -0.6120924492818E+00  0.0000000000000E+00
 0.3684762219914E-11 -0.5462239114012E+00  0.0000000000000E+00
 0.1082633505902E-11 -0.4803541973369E+00  0.0000000000000E+00
 0.2983464968201E-01 -0.1665783576500E+01  0.0000000000000E+00
 0.2986422785471E-01 -0.1599921516362E+01  0.0000000000000E+00
 0.2990394198526E-01 -0.1534060632404E+01  0.0000000000000E+00
 0.2995527178026E-01 -0.1468201919478E+01  0.0000000000000E+00
 0.3001980531922E-01 -0.1402346627432E+01  0.0000000000000E+00
 0.3009904398801E-01 -0.1336496562970E+01  0.0000000000000E+00
 0.3019397762265E-01 -0.1270653446458E+01  0.0000000000000E+00
 0.3030433211240E-01 -0.1204818820222E+01  0.0000000000000E+00
 0.3042759046408E-01 -0.1138992344063E+01  0.0000000000000E+00
 0.3055837779879E-01 -0.1073171142794E+01  0.0000000000000E+00
 0.3068916520914E-01 -0.1007349941524E+01  0.0000000000000E+00
 0.3081242377782E-01 -0.9415234653661E+00  0.0000000000000E+00
 0.3092277860113E-01 -0.8756888391304E+00  0.0000000000000E+00
 0.3101771265631E-01 -0.8098457226190E+00  0.0000000000000E+00
 0.3109695180599E-01 -0.7439956581577E+00  0.0000000000000E+00
 0.3116148586553E-01 -0.6781403661116E+00  0.0000000000000E+00
 0.3121281620596E-01 -0.6122816531859E+00  0.0000000000000E+00
 0.3125253089656E-01 -0.5464207692289E+00  0.0000000000000E+00
 0.3128210963697E-01 -0.4805587090906E+00  0.0000000000000E+00
 0.5966856276630E-01 -0.1665983788628E+01  0.0000000000000E+00
 0.5972745555662E-01 -0.1600144682660E+01  0.0000000000000E+00
 0.5980662025903E-01 -0.1534306752866E+01  0.0000000000000E+00
 0.5990901628335E-01 -0.1468470994089E+01  0.0000000000000E+00
 0.6003781978316E-01 -0.1402638656205E+01  0.0000000000000E+00
 0.6019603352318E-01 -0.1336811545881E+01  0.0000000000000E+00
 0.6038563716454E-01 -0.1270991383534E+01  0.0000000000000E+00
 0.6060608247295E-01 -0.1205179711442E+01  0.0000000000000E+00
 0.6085233544670E-01 -0.1139376189450E+01  0.0000000000000E+00
 0.6111364631580E-01 -0.1073577942351E+01  0.0000000000000E+00
 0.6137495726055E-01 -0.1007779695252E+01  0.0000000000000E+00
 0.6162121045131E-01 -0.9419761732611E+00  0.0000000000000E+00
 0.6184165609327E-01 -0.8761645011696E+00  0.0000000000000E+00
 0.6203126015517E-01 -0.8103443388238E+00  0.0000000000000E+00
 0.6218947437608E-01 -0.7445172285014E+00  0.0000000000000E+00
 0.6231827839647E-01 -0.6786848906179E+00  0.0000000000000E+00
 0.6242067496623E-01 -0.6128491318409E+00  0.0000000000000E+00
 0.6249984022868E-01 -0.5470112020477E+00  0.0000000000000E+00
 0.6255873358672E-01 -0.4811720960803E+00  0.0000000000000E+00
 0.8950101084839E-01 -0.1666317437781E+01  0.0000000000000E+00
 0.8958869088479E-01 -0.1600516563438E+01  0.0000000000000E+00
 0.8970677878753E-01 -0.1534716865257E+01  0.0000000000000E+00
 0.8985971366985E-01 -0.1468919338067E+01  0.0000000000000E+00
 0.9005225975868E-01 -0.1403125231793E+01  0.0000000000000E+00
 0.9028892119845E-01 -0.1337336353041E+01  0.0000000000000E+00
 0.9057266747424E-01 -0.1271554422310E+01  0.0000000000000E+00
 0.9090267622929E-01 -0.1205780981797E+01  0.0000000000000E+00
 0.9127139645241E-01 -0.1140015691424E+01  0.0000000000000E+00
 0.9166270348301E-01 -0.1074255675949E+01  0.0000000000000E+00
 0.9205401058927E-01 -0.1008495660475E+01  0.0000000000000E+00
 0.9242273102939E-01 -0.9427303701028E+00  0.0000000000000E+00
 0.9275274011800E-01 -0.8769569295918E+00  0.0000000000000E+00
 0.9303648681432E-01 -0.8111749988621E+00  0.0000000000000E+00
 0.9327314873499E-01 -0.7453861201111E+00  0.0000000000000E+00
 0.9346569534440E-01 -0.6795920138386E+00  0.0000000000000E+00
 0.9361863077215E-01 -0.6137944866494E+00  0.0000000000000E+00
 0.9373671923494E-01 -0.5479947884691E+00  0.0000000000000E+00
 0.9382439983905E-01 -0.4821939141266E+00  0.0000000000000E+00
 0.1193312636781E+00 -0.1666784467507E+01  0.0000000000000E+00
 0.1194469416106E+00 -0.1601037064363E+01  0.0000000000000E+00
 0.1196031633639E+00 -0.1535290837365E+01  0.0000000000000E+00
 0.1198058477548E+00 -0.1469546781322E+01  0.0000000000000E+00
 0.1200613470828E+00 -0.1403806146227E+01  0.0000000000000E+00
 0.1203756668731E+00 -0.1338070738599E+01  0.0000000000000E+00
 0.1207527664332E+00 -0.1272342279054E+01  0.0000000000000E+00
 0.1211915492853E+00 -0.1206622309678E+01  0.0000000000000E+00
 0.1216819474073E+00 -0.1140910490496E+01  0.0000000000000E+00
 0.1222024612488E+00 -0.1075203946219E+01  0.0000000000000E+00
 0.1227229751660E+00 -0.1009497401943E+01  0.0000000000000E+00
 0.1232133735050E+00 -0.9437855827625E+00  0.0000000000000E+00
 0.1236521566907E+00 -0.8780656133886E+00  0.0000000000000E+00
 0.1240292566713E+00 -0.8123371538457E+00  0.0000000000000E+00
 0.1243435769425E+00 -0.7466017462192E+00  0.0000000000000E+00
 0.1245990767911E+00 -0.6808611111264E+00  0.0000000000000E+00
 0.1248017617275E+00 -0.6151170550845E+00  0.0000000000000E+00
 0.1249579840408E+00 -0.5493708280868E+00  0.0000000000000E+00
 0.1250736625410E+00 -0.4836234249434E+00  0.0000000000000E+00
 0.1491586010070E+00 -0.1667384799156E+01  0.0000000000000E+00
 0.1493012271308E+00 -0.1601706053965E+01  0.0000000000000E+00
 0.1494945330316E+00 -0.1536028484898E+01  0.0000000000000E+00
 0.1497459172305E+00 -0.1470353086742E+01  0.0000000000000E+00
 0.1500633200979E+00 -0.1404681109575E+01  0.0000000000000E+00
 0.1504542485424E+00 -0.1339014359804E+01  0.0000000000000E+00
 0.1509236516910E+00 -0.1273354558196E+01  0.0000000000000E+00
 0.1514701589477E+00 -0.1207703246693E+01  0.0000000000000E+00
 0.1520811852768E+00 -0.1142060085454E+01  0.0000000000000E+00
 0.1527298562383E+00 -0.1076422199130E+01  0.0000000000000E+00
 0.1533785272754E+00 -0.1010784312807E+01  0.0000000000000E+00
 0.1539895538216E+00 -0.9451411515694E+00  0.0000000000000E+00
 0.1545360614118E+00 -0.8794898400693E+00  0.0000000000000E+00
 0.1550054649810E+00 -0.8138300384639E+00  0.0000000000000E+00
 0.1553963939063E+00 -0.7481632886949E+00  0.0000000000000E+00
 0.1557137972944E+00 -0.6824913115305E+00  0.0000000000000E+00
 0.1559651820386E+00 -0.6168159133754E+00  0.0000000000000E+00
 0.1561584884995E+00 -0.5511383443096E+00  0.0000000000000E+00
 0.1563011151911E+00 -0.4854595991195E+00  0.0000000000000E+00
 0.1789822802759E+00 -0.1668118331470E+01  0.0000000000000E+00
 0.1791505485831E+00 -0.1602523363477E+01  0.0000000000000E+00
 0.1793796326223E+00 -0.1536929571581E+01  0.0000000000000E+00
 0.1796784106189E+00 -0.1471337950540E+01  0.0000000000000E+00
 0.1800564110131E+00 -0.1405749750540E+01  0.0000000000000E+00
 0.1805226420978E+00 -0.1340166777849E+01  0.0000000000000E+00
 0.1810830428174E+00 -0.1274590753418E+01  0.0000000000000E+00
 0.1817359684599E+00 -0.1209023219015E+01  0.0000000000000E+00
 0.1824663169740E+00 -0.1143463834961E+01  0.0000000000000E+00
 0.1832418390321E+00 -0.1077909725833E+01  0.0000000000000E+00
 0.1840173611658E+00 -0.1012355616707E+01  0.0000000000000E+00
 0.1847477098969E+00 -0.9467962326544E+00  0.0000000000000E+00
 0.1854006358730E+00 -0.8812286982545E+00  0.0000000000000E+00
 0.1859610370131E+00 -0.8156526738272E+00  0.0000000000000E+00
 0.1864272685787E+00 -0.7500697011386E+00  0.0000000000000E+00
 0.1868052694934E+00 -0.6844815011410E+00  0.0000000000000E+00
 0.1871040480356E+00 -0.6188898801021E+00  0.0000000000000E+00
 0.1873331326348E+00 -0.5532960882075E+00  0.0000000000000E+00
 0.1875014015097E+00 -0.4877011202147E+00  0.0000000000000E+00
 0.2088016021235E+00 -0.1668984942169E+01  0.0000000000000E+00
 0.2089939515364E+00 -0.1603488788624E+01  0.0000000000000E+00
 0.2092572526392E+00 -0.1537993811146E+01  0.0000000000000E+00
 0.2096018633630E+00 -0.1472501004457E+01  0.0000000000000E+00
 0.2100389002153E+00 -0.1407011618869E+01  0.0000000000000E+00
 0.2105788728772E+00 -0.1341527460488E+01  0.0000000000000E+00
 0.2112287101067E+00 -0.1276050250483E+01  0.0000000000000E+00
 0.2119864930791E+00 -0.1210581530413E+01  0.0000000000000E+00
 0.2128346027241E+00 -0.1145120960792E+01  0.0000000000000E+00
 0.2137354148261E+00 -0.1079665666113E+01  0.0000000000000E+00
 0.2146362270037E+00 -0.1014210371434E+01  0.0000000000000E+00
 0.2154843368657E+00 -0.9487498018155E+00  0.0000000000000E+00
 0.2162421201716E+00 -0.8832810817495E+00  0.0000000000000E+00
 0.2168919578216E+00 -0.8178038717479E+00  0.0000000000000E+00
 0.2174319309644E+00 -0.7523197133698E+00  0.0000000000000E+00
 0.2178689683374E+00 -0.6868303277847E+00  0.0000000000000E+00
 0.2182135796066E+00 -0.6213375210985E+00  0.0000000000000E+00
 0.2184768812695E+00 -0.5558425436214E+00  0.0000000000000E+00
 0.2186692312501E+00 -0.4903463900771E+00  0.0000000000000E+00
 0.2386158335404E+00 -0.1669984486568E+01  0.0000000000000E+00
 0.2388304532896E+00 -0.1604602088601E+01  0.0000000000000E+00
 0.2391261606856E+00 -0.1539220866665E+01  0.0000000000000E+00
 0.2395147933649E+00 -0.1473841815444E+01  0.0000000000000E+00
 0.2400090559004E+00 -0.1408466185393E+01  0.0000000000000E+00
 0.2406209593635E+00 -0.1343095782431E+01  0.0000000000000E+00
 0.2413584223218E+00 -0.1277732327977E+01  0.0000000000000E+00
 0.2422192518420E+00 -0.1212377363354E+01  0.0000000000000E+00
 0.2431833118313E+00 -0.1147030549294E+01  0.0000000000000E+00
 0.2442076031893E+00 -0.1081689010192E+01  0.0000000000000E+00
 0.2452318946228E+00 -0.1016347471091E+01  0.0000000000000E+00
 0.2461959548292E+00 -0.9510006570345E+00  0.0000000000000E+00
 0.2470567846829E+00 -0.8856456924151E+00  0.0000000000000E+00
 0.2477942480618E+00 -0.8202822379657E+00  0.0000000000000E+00
 0.2484061520058E+00 -0.7549118350073E+00  0.0000000000000E+00
 0.2489004150619E+00 -0.6895362049592E+00  0.0000000000000E+00
 0.2492890482866E+00 -0.6241571537411E+00  0.0000000000000E+00
 0.2495847562426E+00 -0.5587759318069E+00  0.0000000000000E+00
 0.2497993765596E+00 -0.4933935338409E+00  0.0000000000000E+00
 0.2684242694147E+00 -0.1671116799478E+01  0.0000000000000E+00
 0.2686591031430E+00 -0.1605862988404E+01  0.0000000000000E+00
 0.2689851604755E+00 -0.1540610353321E+01  0.0000000000000E+00
 0.2694157587553E+00 -0.1475359888869E+01  0.0000000000000E+00
 0.2699651906179E+00 -0.1410112845663E+01  0.0000000000000E+00
 0.2706469685284E+00 -0.1344871029414E+01  0.0000000000000E+00
 0.2714700008599E+00 -0.1279636161824E+01  0.0000000000000E+00
 0.2724318205741E+00 -0.1214409783944E+01  0.0000000000000E+00
 0.2735097745524E+00 -0.1149191556758E+01  0.0000000000000E+00
 0.2746554888105E+00 -0.1083978604548E+01  0.0000000000000E+00
 0.2758012031444E+00 -0.1018765652339E+01  0.0000000000000E+00
 0.2768791573396E+00 -0.9535474251570E+00  0.0000000000000E+00
 0.2778409773874E+00 -0.8883210472817E+00  0.0000000000000E+00
 0.2786640101394E+00 -0.8230861796958E+00  0.0000000000000E+00
 0.2793457885309E+00 -0.7578443634509E+00  0.0000000000000E+00
 0.2798952209140E+00 -0.6925973202491E+00  0.0000000000000E+00
 0.2803258197392E+00 -0.6273468557994E+00  0.0000000000000E+00
 0.2806518776318E+00 -0.5620942207181E+00  0.0000000000000E+00
 0.2808867119278E+00 -0.4968404096451E+00  0.0000000000000E+00
 0.2982262162405E+00 -0.1672381695408E+01  0.0000000000000E+00
 0.2984789668060E+00 -0.1607271179427E+01  0.0000000000000E+00
 0.2988330769373E+00 -0.1542161839391E+01  0.0000000000000E+00
 0.2993033436852E+00 -0.1477054669892E+01  0.0000000000000E+00
 0.2999056477456E+00 -0.1411950921727E+01  0.0000000000000E+00
 0.3006550029816E+00 -0.1346852400370E+01  0.0000000000000E+00
 0.3015613075666E+00 -0.1281760827839E+01  0.0000000000000E+00
 0.3026218203629E+00 -0.1216677744886E+01  0.0000000000000E+00
 0.3038113712198E+00 -0.1151602812772E+01  0.0000000000000E+00
 0.3050762112702E+00 -0.1086533155653E+01  0.0000000000000E+00
 0.3063410513962E+00 -0.1021463498536E+01  0.0000000000000E+00
 0.3075306024701E+00 -0.9563885664261E+00  0.0000000000000E+00
 0.3085911155999E+00 -0.8913054834775E+00  0.0000000000000E+00
 0.3094974206055E+00 -0.8262139109515E+00  0.0000000000000E+00
 0.3102467763224E+00 -0.7611153895993E+00  0.0000000000000E+00
 0.3108490809033E+00 -0.6960116414382E+00  0.0000000000000E+00
 0.3113193481967E+00 -0.6309044719423E+00  0.0000000000000E+00
 0.3116734588881E+00 -0.5657951319091E+00  0.0000000000000E+00
 0.3119262100213E+00 -0.5006846159287E+00  0.0000000000000E+00
 0.3280209425970E+00 -0.1673778966920E+01  0.0000000000000E+00
 0.3282890794610E+00 -0.1608826318313E+01  0.0000000000000E+00
 0.3286687118504E+00 -0.1543874845604E+01  0.0000000000000E+00
 0.3291761165241E+00 -0.1478925543327E+01  0.0000000000000E+00
 0.3298287622345E+00 -0.1413979662479E+01  0.0000000000000E+00
 0.3306431642467E+00 -0.1349039008277E+01  0.0000000000000E+00
 0.3316302105286E+00 -0.1284105303084E+01  0.0000000000000E+00
 0.3327868858481E+00 -0.1219180087322E+01  0.0000000000000E+00
 0.3340855030187E+00 -0.1154263022560E+01  0.0000000000000E+00
 0.3354669382939E+00 -0.1089351232816E+01  0.0000000000000E+00
 0.3368483736447E+00 -0.1024439443074E+01  0.0000000000000E+00
 0.3381469910323E+00 -0.9595223783156E+00  0.0000000000000E+00
 0.3393036666853E+00 -0.8945971625594E+00  0.0000000000000E+00
 0.3402907133878E+00 -0.8296634573724E+00  0.0000000000000E+00
 0.3411051158809E+00 -0.7647228031751E+00  0.0000000000000E+00
 0.3417577621119E+00 -0.6997769223317E+00  0.0000000000000E+00
 0.3422651673310E+00 -0.6348276200581E+00  0.0000000000000E+00
 0.3426448002805E+00 -0.5698761473508E+00  0.0000000000000E+00
 0.3429129377122E+00 -0.5049234987456E+00  0.0000000000000E+00
 0.3578077951490E+00 -0.1675308389770E+01  0.0000000000000E+00
 0.3580885561653E+00 -0.1610528032351E+01  0.0000000000000E+00
 0.3584909486692E+00 -0.1545748850774E+01  0.0000000000000E+00
 0.3590327291289E+00 -0.1480971839517E+01  0.0000000000000E+00
 0.3597329543503E+00 -0.1416198249793E+01  0.0000000000000E+00
 0.3606096410050E+00 -0.1351429886536E+01  0.0000000000000E+00
 0.3616746668497E+00 -0.1286668472490E+01  0.0000000000000E+00
 0.3629247425635E+00 -0.1221915547716E+01  0.0000000000000E+00
 0.3643296639184E+00 -0.1157170774115E+01  0.0000000000000E+00
 0.3658249322898E+00 -0.1092431275557E+01  0.0000000000000E+00
 0.3673202007369E+00 -0.1027691777001E+01  0.0000000000000E+00
 0.3687251223088E+00 -0.9629470034044E+00  0.0000000000000E+00
 0.3699751983561E+00 -0.8981940786356E+00  0.0000000000000E+00
 0.3710402246213E+00 -0.8334326645960E+00  0.0000000000000E+00
 0.3719169117570E+00 -0.7686643013451E+00  0.0000000000000E+00
 0.3726171374990E+00 -0.7038907116260E+00  0.0000000000000E+00
 0.3731589185041E+00 -0.6391137003723E+00  0.0000000000000E+00
 0.3735613115680E+00 -0.5743345187982E+00  0.0000000000000E+00
 0.3738420731521E+00 -0.5095541613797E+00  0.0000000000000E+00
 0.3875860607136E+00 -0.1676969718067E+01  0.0000000000000E+00
 0.3878764645286E+00 -0.1612375915917E+01  0.0000000000000E+00
 0.3882986357959E+00 -0.1547783289551E+01  0.0000000000000E+00
 0.3888718106944E+00 -0.1483192833383E+01  0.0000000000000E+00
 0.3896166340798E+00 -0.1418605798860E+01  0.0000000000000E+00
 0.3905526240356E+00 -0.1354023990612E+01  0.0000000000000E+00
 0.3916926481006E+00 -0.1289449131793E+01  0.0000000000000E+00
 0.3930331428715E+00 -0.1224882762071E+01  0.0000000000000E+00
 0.3945413870725E+00 -0.1160324543713E+01  0.0000000000000E+00
 0.3961475072028E+00 -0.1095771600424E+01  0.0000000000000E+00
 0.3977536274088E+00 -0.1031218657136E+01  0.0000000000000E+00
 0.3992618718269E+00 -0.9666604387825E+00  0.0000000000000E+00
 0.4006023669313E+00 -0.9020940690673E+00  0.0000000000000E+00
 0.4017423914168E+00 -0.8375192102545E+00  0.0000000000000E+00
 0.4026783818535E+00 -0.7729374020130E+00  0.0000000000000E+00
 0.4034232057596E+00 -0.7083503674957E+00  0.0000000000000E+00
 0.4039963812035E+00 -0.6437599113309E+00  0.0000000000000E+00
 0.4044185530308E+00 -0.5791672849682E+00  0.0000000000000E+00
 0.4047089574136E+00 -0.5145734828194E+00  0.0000000000000E+00
 0.4173550733497E+00 -0.1678762688782E+01  0.0000000000000E+00
 0.4176519204570E+00 -0.1614369534370E+01  0.0000000000000E+00
 0.4180906709789E+00 -0.1549977555680E+01  0.0000000000000E+00
 0.4186920408057E+00 -0.1485587747055E+01  0.0000000000000E+00
 0.4194782628384E+00 -0.1421201360198E+01  0.0000000000000E+00
 0.4204703565771E+00 -0.1356820199408E+01  0.0000000000000E+00
 0.4216821793354E+00 -0.1292445988280E+01  0.0000000000000E+00
 0.4231098936343E+00 -0.1228080266064E+01  0.0000000000000E+00
 0.4247182611449E+00 -0.1163722695415E+01  0.0000000000000E+00
 0.4264320334947E+00 -0.1099370399863E+01  0.0000000000000E+00
 0.4281458059202E+00 -0.1035018104312E+01  0.0000000000000E+00
 0.4297541736479E+00 -0.9706605336683E+00  0.0000000000000E+00
 0.4311818882803E+00 -0.9062948114591E+00  0.0000000000000E+00
 0.4323937114591E+00 -0.8419206003386E+00  0.0000000000000E+00
 0.4333858056787E+00 -0.7775394395554E+00  0.0000000000000E+00
 0.4341720282321E+00 -0.7131530527035E+00  0.0000000000000E+00
 0.4347733986043E+00 -0.6487632440825E+00  0.0000000000000E+00
 0.4352121496862E+00 -0.5843712653956E+00  0.0000000000000E+00
 0.4355089973612E+00 -0.5199781109850E+00  0.0000000000000E+00
 0.4471141841628E+00 -0.1680687022310E+01  0.0000000000000E+00
 0.4474140681449E+00 -0.1616508426641E+01  0.0000000000000E+00
 0.4478659915118E+00 -0.1552331006628E+01  0.0000000000000E+00
 0.4484921498675E+00 -0.1488155756537E+01  0.0000000000000E+00
 0.4493163641549E+00 -0.1423983928345E+01  0.0000000000000E+00
 0.4503611552972E+00 -0.1359817325998E+01  0.0000000000000E+00
 0.4516413703761E+00 -0.1295657673564E+01  0.0000000000000E+00
 0.4531528978439E+00 -0.1231506509842E+01  0.0000000000000E+00
 0.4548579823102E+00 -0.1167363497905E+01  0.0000000000000E+00
 0.4566760005302E+00 -0.1103225761095E+01  0.0000000000000E+00
 0.4584940188258E+00 -0.1039088024287E+01  0.0000000000000E+00
 0.4601991035092E+00 -0.9749450123550E+00  0.0000000000000E+00
 0.4617106313106E+00 -0.9107938486407E+00  0.0000000000000E+00
 0.4629908468100E+00 -0.8466341962143E+00  0.0000000000000E+00
 0.4640356384332E+00 -0.7824675938748E+00  0.0000000000000E+00
 0.4648598532412E+00 -0.7182957656882E+00  0.0000000000000E+00
 0.4654860121423E+00 -0.6541205156026E+00  0.0000000000000E+00
 0.4659379360693E+00 -0.5899430955919E+00  0.0000000000000E+00
 0.4662378206191E+00 -0.5257644999245E+00  0.0000000000000E+00
 0.4768626808375E+00 -0.1682742416794E+01  0.0000000000000E+00
 0.4771619935814E+00 -0.1618792098491E+01  0.0000000000000E+00
 0.4776234816665E+00 -0.1554842955773E+01  0.0000000000000E+00
 0.4782708204089E+00 -0.1490895982827E+01  0.0000000000000E+00
 0.4791294187871E+00 -0.1426952431917E+01  0.0000000000000E+00
 0.4802232991507E+00 -0.1363014106618E+01  0.0000000000000E+00
 0.4815682983403E+00 -0.1299082731497E+01  0.0000000000000E+00
 0.4831600307474E+00 -0.1235159844877E+01  0.0000000000000E+00
 0.4849582239168E+00 -0.1171245110272E+01  0.0000000000000E+00
 0.4868768797426E+00 -0.1107335650828E+01  0.0000000000000E+00
 0.4887955356439E+00 -0.1043426191385E+01  0.0000000000000E+00
 0.4905937290304E+00 -0.9795114567866E+00  0.0000000000000E+00
 0.4921854617710E+00 -0.9155885701742E+00  0.0000000000000E+00
 0.4935304613811E+00 -0.8516571950617E+00  0.0000000000000E+00
 0.4946243422257E+00 -0.7877188697700E+00  0.0000000000000E+00
 0.4954829411245E+00 -0.7237753188667E+00  0.0000000000000E+00
 0.4961302804124E+00 -0.6598283459261E+00  0.0000000000000E+00
 0.4965917690575E+00 -0.5958792032105E+00  0.0000000000000E+00
 0.4968910823691E+00 -0.5319288849093E+00  0.0000000000000E+00
 0.5065999773523E+00 -0.1684928562411E+01  0.0000000000000E+00
 0.5068949207371E+00 -0.1621220040089E+01  0.0000000000000E+00
 0.5073621754349E+00 -0.1557512693277E+01  0.0000000000000E+00
 0.5080268964777E+00 -0.1493807516079E+01  0.0000000000000E+00
 0.5089160808768E+00 -0.1430105761064E+01  0.0000000000000E+00
 0.5100552524167E+00 -0.1366409231408E+01  0.0000000000000E+00
 0.5114612376898E+00 -0.1302719652214E+01  0.0000000000000E+00
 0.5131293770345E+00 -0.1239038561295E+01  0.0000000000000E+00
 0.5150168809198E+00 -0.1175365622638E+01  0.0000000000000E+00
 0.5170323763743E+00 -0.1111697959174E+01  0.0000000000000E+00
 0.5190478719044E+00 -0.1048030295713E+01  0.0000000000000E+00
 0.5209353760067E+00 -0.9843573570614E+00  0.0000000000000E+00
 0.5226035156849E+00 -0.9206762661513E+00  0.0000000000000E+00
 0.5240095013785E+00 -0.8569866869656E+00  0.0000000000000E+00
 0.5251486733994E+00 -0.7932901573186E+00  0.0000000000000E+00
 0.5260378583190E+00 -0.7295884023095E+00  0.0000000000000E+00
 0.5267025799074E+00 -0.6658832251168E+00  0.0000000000000E+00
 0.5271698351652E+00 -0.6021758783080E+00  0.0000000000000E+00
 0.5274647791177E+00 -0.5384673559889E+00  0.0000000000000E+00
 0.5363253937430E+00 -0.1687245126228E+01  0.0000000000000E+00
 0.5366119860150E+00 -0.1623791708789E+01  0.0000000000000E+00
 0.5370810255763E+00 -0.1560339466780E+01  0.0000000000000E+00
 0.5377591471768E+00 -0.1496889394217E+01  0.0000000000000E+00
 0.5386749358556E+00 -0.1433442743990E+01  0.0000000000000E+00
 0.5398554168395E+00 -0.1370001318861E+01  0.0000000000000E+00
 0.5413184064642E+00 -0.1306566844490E+01  0.0000000000000E+00
 0.5430589710231E+00 -0.1243140858158E+01  0.0000000000000E+00
 0.5450318039010E+00 -0.1179723024346E+01  0.0000000000000E+00
 0.5471401572628E+00 -0.1116310465763E+01  0.0000000000000E+00
 0.5492485107003E+00 -0.1052897907183E+01  0.0000000000000E+00
 0.5512213437952E+00 -0.9894800733776E+00  0.0000000000000E+00
 0.5529619086877E+00 -0.9260540870546E+00  0.0000000000000E+00
 0.5544248987329E+00 -0.8626196126929E+00  0.0000000000000E+00
 0.5556053801978E+00 -0.7991781875723E+00  0.0000000000000E+00
 0.5565211693972E+00 -0.7357315373529E+00  0.0000000000000E+00
 0.5571992915431E+00 -0.6722814647954E+00  0.0000000000000E+00
 0.5576683316644E+00 -0.6088292227895E+00  0.0000000000000E+00
 0.5579549245041E+00 -0.5453758053527E+00  0.0000000000000E+00
 0.5660383036526E+00 -0.1689691762168E+01  0.0000000000000E+00
 0.5663123811983E+00 -0.1626506539575E+01  0.0000000000000E+00
 0.5667790419974E+00 -0.1563322492327E+01  0.0000000000000E+00
 0.5674664005168E+00 -0.1500140614350E+01  0.0000000000000E+00
 0.5684046298164E+00 -0.1436962158871E+01  0.0000000000000E+00
 0.5696222565698E+00 -0.1373788928213E+01  0.0000000000000E+00
 0.5711380868456E+00 -0.1310622648626E+01  0.0000000000000E+00
 0.5729469129013E+00 -0.1247464856829E+01  0.0000000000000E+00
 0.5750009110328E+00 -0.1184315217823E+01  0.0000000000000E+00
 0.5771979585521E+00 -0.1121170854085E+01  0.0000000000000E+00
 0.5793950061471E+00 -0.1058026490350E+01  0.0000000000000E+00
 0.5814490044956E+00 -0.9948768513511E+00  0.0000000000000E+00
 0.5832578308849E+00 -0.9317190595634E+00  0.0000000000000E+00
 0.5847736615812E+00 -0.8685527799859E+00  0.0000000000000E+00
 0.5859912888156E+00 -0.8053795493368E+00  0.0000000000000E+00
 0.5869295186357E+00 -0.7422010938657E+00  0.0000000000000E+00
 0.5876168777006E+00 -0.6790192158940E+00  0.0000000000000E+00
 0.5880835390597E+00 -0.6158351686501E+00  0.0000000000000E+00
 0.5883576171732E+00 -0.5526499460589E+00  0.0000000000000E+00
-0.1182610616184E+01 -0.1709938151910E+01  0.0000000000000E+00
-0.1206840600949E+01 -0.1599271303952E+01  0.0000000000000E+00
-0.1234987980858E+01 -0.1489562273115E+01  0.0000000000000E+00
-0.1268147886288E+01 -0.1381306365269E+01  0.0000000000000E+00
-0.1307801009883E+01 -0.1275324724782E+01  0.0000000000000E+00
-0.1353020462603E+01 -0.1171637126831E+01  0.0000000000000E+00
-0.1397268459649E+01 -0.1067515066351E+01  0.0000000000000E+00
-0.1437122473078E+01 -0.9615813592161E+00  0.0000000000000E+00
-0.1472550192246E+01 -0.8540374650362E+00  0.0000000000000E+00
-0.1503921191345E+01 -0.7452053677059E+00  0.0000000000000E+00
-0.1531272791497E+01 -0.6352674555980E+00  0.0000000000000E+00
-0.1554282707568E+01 -0.5243175831196E+00  0.0000000000000E+00
-0.1572939532414E+01 -0.4125357734460E+00  0.0000000000000E+00
-0.1586992041029E+01 -0.3000702231276E+00  0.0000000000000E+00
-0.1595657715404E+01 -0.1870553481994E+00  0.0000000000000E+00
-0.1598364296081E+01 -0.7373369945448E-01  0.0000000000000E+00
-0.1596500729268E+01  0.3959193470411E-01  0.0000000000000E+00
-0.1576465557885E+01  0.1508144777421E+00  0.0000000000000E+00
-0.1525097607493E+01  0.2508838507572E+00  0.0000000000000E+00
-0.1151849224518E+01 -0.1708018429854E+01  0.0000000000000E+00
-0.1174810817950E+01 -0.1599917521458E+01  0.0000000000000E+00
-0.1201494297363E+01 -0.1492724079797E+01  0.0000000000000E+00
-0.1232938712419E+01 -0.1386907393241E+01  0.0000000000000E+00
-0.1270548496269E+01 -0.1283245453469E+01  0.0000000000000E+00
-0.1313447122937E+01 -0.1181757097507E+01  0.0000000000000E+00
-0.1355441944237E+01 -0.1079857510625E+01  0.0000000000000E+00
-0.1393290276807E+01 -0.9762420726324E+00  0.0000000000000E+00
-0.1426958860821E+01 -0.8711016241228E+00  0.0000000000000E+00
-0.1456792161492E+01 -0.7647410505408E+00  0.0000000000000E+00
-0.1482817610549E+01 -0.6573328628486E+00  0.0000000000000E+00
-0.1504721960076E+01 -0.5489656979899E+00  0.0000000000000E+00
-0.1522488745507E+01 -0.4398099530286E+00  0.0000000000000E+00
-0.1535877314757E+01 -0.3300060065687E+00  0.0000000000000E+00
-0.1544146046571E+01 -0.2196812801132E+00  0.0000000000000E+00
-0.1546753842042E+01 -0.1090656515018E+00  0.0000000000000E+00
-0.1545018125930E+01  0.1553936656996E-02  0.0000000000000E+00
-0.1526054989336E+01  0.1101813215066E+00  0.0000000000000E+00
-0.1477397507004E+01  0.2082426775406E+00  0.0000000000000E+00
-0.1121071481666E+01 -0.1706207396943E+01  0.0000000000000E+00
-0.1142765544784E+01 -0.1600666705050E+01  0.0000000000000E+00
-0.1167985984722E+01 -0.1495983129601E+01  0.0000000000000E+00
-0.1197715770410E+01 -0.1392599941581E+01  0.0000000000000E+00
-0.1233283075506E+01 -0.1291251980047E+01  0.0000000000000E+00
-0.1273861737223E+01 -0.1191957143015E+01  0.0000000000000E+00
-0.1313604243862E+01 -0.1092274306747E+01  0.0000000000000E+00
-0.1349447756621E+01 -0.9909714150146E+00  0.0000000000000E+00
-0.1381358066526E+01 -0.8882286892072E+00  0.0000000000000E+00
-0.1409654529800E+01 -0.7843339163719E+00  0.0000000000000E+00
-0.1434354688775E+01 -0.6794497301018E+00  0.0000000000000E+00
-0.1455154332752E+01 -0.5736595498896E+00  0.0000000000000E+00
-0.1472031939748E+01 -0.4671241466607E+00  0.0000000000000E+00
-0.1484757430585E+01 -0.3599760811308E+00  0.0000000000000E+00
-0.1492630080751E+01 -0.2523357803654E+00  0.0000000000000E+00
-0.1495139951914E+01 -0.1444204490327E+00  0.0000000000000E+00
-0.1493532947327E+01 -0.3650118443096E-01  0.0000000000000E+00
-0.1475642704875E+01  0.6953675537040E-01  0.0000000000000E+00
-0.1429696548673E+01  0.1655957997913E+00  0.0000000000000E+00
-0.1090277778680E+01 -0.1704505302474E+01  0.0000000000000E+00
-0.1110705151904E+01 -0.1601519090901E+01  0.0000000000000E+00
-0.1134463392784E+01 -0.1499339645572E+01  0.0000000000000E+00
-0.1162479389508E+01 -0.1398384220211E+01  0.0000000000000E+00
-0.1196005056235E+01 -0.1299344501311E+01  0.0000000000000E+00
-0.1234264593488E+01 -0.1202237447020E+01  0.0000000000000E+00
-0.1271755625938E+01 -0.1104765625254E+01  0.0000000000000E+00
-0.1305595159327E+01 -0.1005769543773E+01  0.0000000000000E+00
-0.1335748035559E+01 -0.9054188045732E+00  0.0000000000000E+00
-0.1362508501866E+01 -0.8039840963573E+00  0.0000000000000E+00
-0.1385884211173E+01 -0.7016181753908E+00  0.0000000000000E+00
-0.1405579989997E+01 -0.5983992437282E+00  0.0000000000000E+00
-0.1421569258942E+01 -0.4944784461285E+00  0.0000000000000E+00
-0.1433632511731E+01 -0.3899805254777E+00  0.0000000000000E+00
-0.1441109920573E+01 -0.2850189144976E+00  0.0000000000000E+00
-0.1443522707747E+01 -0.1797981444669E+00  0.0000000000000E+00
-0.1442045254927E+01 -0.7457346785855E-01  0.0000000000000E+00
-0.1425228745440E+01  0.2888075313570E-01  0.0000000000000E+00
-0.1381994752957E+01  0.1229432044031E+00  0.0000000000000E+00
-0.1059468488513E+01 -0.1702912387231E+01  0.0000000000000E+00
-0.1078629992469E+01 -0.1602474907163E+01  0.0000000000000E+00
-0.1100926854868E+01 -0.1502793843219E+01  0.0000000000000E+00
-0.1127229883123E+01 -0.1404260431974E+01  0.0000000000000E+00
-0.1158714731872E+01 -0.1307523207410E+01  0.0000000000000E+00
-0.1194655965084E+01 -0.1212598186943E+01  0.0000000000000E+00
-0.1229896343770E+01 -0.1117331630845E+01  0.0000000000000E+00
-0.1261732718247E+01 -0.1020636610909E+01  0.0000000000000E+00
-0.1290128981326E+01 -0.9226721095494E+00  0.0000000000000E+00
-0.1315354271230E+01 -0.8236917171689E+00  0.0000000000000E+00
-0.1337406351476E+01 -0.7238383127460E+00  0.0000000000000E+00
-0.1355999085795E+01 -0.6231848809079E+00  0.0000000000000E+00
-0.1371100837377E+01 -0.5218729402175E+00  0.0000000000000E+00
-0.1382502672845E+01 -0.4200194157871E+00  0.0000000000000E+00
-0.1389585661121E+01 -0.3177307460877E+00  0.0000000000000E+00
-0.1391902185134E+01 -0.2151987887865E+00  0.0000000000000E+00
-0.1390555104895E+01 -0.1126629520127E+00  0.0000000000000E+00
-0.1374813148038E+01 -0.1178671098245E-01  0.0000000000000E+00
-0.1334292138156E+01  0.8028487832643E-01  0.0000000000000E+00
-0.1028644031902E+01 -0.1701428892511E+01  0.0000000000000E+00
-0.1046540465220E+01 -0.1603534382381E+01  0.0000000000000E+00
-0.1067376747767E+01 -0.1506345938346E+01  0.0000000000000E+00
-0.1091967606169E+01 -0.1410228779957E+01  0.0000000000000E+00
-0.1121412435542E+01 -0.1315788288743E+01  0.0000000000000E+00
-0.1155036163413E+01 -0.1223039540529E+01  0.0000000000000E+00
-0.1188026687019E+01 -0.1129972488601E+01  0.0000000000000E+00
-0.1217860701239E+01 -0.1035572768820E+01  0.0000000000000E+00
-0.1244501149814E+01 -0.9399887438216E+00  0.0000000000000E+00
-0.1268192061956E+01 -0.8434569057652E+00  0.0000000000000E+00
-0.1288921311765E+01 -0.7461102563833E+00  0.0000000000000E+00
-0.1306411800184E+01 -0.6480165628883E+00  0.0000000000000E+00
-0.1320626833000E+01 -0.5493077176197E+00  0.0000000000000E+00
-0.1331368049718E+01 -0.4500928279743E+00  0.0000000000000E+00
-0.1338057415963E+01 -0.3504713382674E+00  0.0000000000000E+00
-0.1340278475341E+01 -0.2506224323349E+00  0.0000000000000E+00
-0.1339062566136E+01 -0.1507696744498E+00  0.0000000000000E+00
-0.1324395959008E+01 -0.5246566180157E-01  0.0000000000000E+00
-0.1286588727643E+01  0.3762080931293E-01  0.0000000000000E+00
-0.9978048091164E+00 -0.1700055050454E+01  0.0000000000000E+00
-0.1014436949344E+01 -0.1604697736472E+01  0.0000000000000E+00
-0.1033813429585E+01 -0.1509996138651E+01  0.0000000000000E+00
-0.1056692895666E+01 -0.1416289459633E+01  0.0000000000000E+00
-0.1084098483174E+01 -0.1324139928563E+01  0.0000000000000E+00
-0.1115405483312E+01 -0.1233561678802E+01  0.0000000000000E+00
-0.1146146929431E+01 -0.1142688357325E+01  0.0000000000000E+00
-0.1173979360959E+01 -0.1050578164083E+01  0.0000000000000E+00
-0.1198864772593E+01 -0.9573688417442E+00  0.0000000000000E+00
-0.1221022084529E+01 -0.8632797842780E+00  0.0000000000000E+00
-0.1240429281443E+01 -0.7684341162128E+00  0.0000000000000E+00
-0.1256818301491E+01 -0.6728943873585E+00  0.0000000000000E+00
-0.1270147393055E+01 -0.5767828638030E+00  0.0000000000000E+00
-0.1280228768520E+01 -0.4802008352871E+00  0.0000000000000E+00
-0.1286525290197E+01 -0.3832407520642E+00  0.0000000000000E+00
-0.1288651662395E+01 -0.2860691239199E+00  0.0000000000000E+00
-0.1287567701612E+01 -0.1888936717586E+00  0.0000000000000E+00
-0.1273977220288E+01 -0.9315612371048E-01  0.0000000000000E+00
-0.1238884542376E+01 -0.5049014836915E-02  0.0000000000000E+00
-0.9669512233292E+00 -0.1698791087330E+01  0.0000000000000E+00
-0.9823198267800E+00 -0.1605965183794E+01  0.0000000000000E+00
-0.1000237261024E+01 -0.1513744646577E+01  0.0000000000000E+00
-0.1021406091078E+01 -0.1422442661535E+01  0.0000000000000E+00
-0.1046773192995E+01 -0.1332578305487E+01  0.0000000000000E+00
-0.1075764221763E+01 -0.1244164768467E+01  0.0000000000000E+00
-0.1104257346747E+01 -0.1155479391803E+01  0.0000000000000E+00
-0.1130088951907E+01 -0.1065652939568E+01  0.0000000000000E+00
-0.1153220082925E+01 -0.9748125342746E+00  0.0000000000000E+00
-0.1173844550973E+01 -0.8831604717515E+00  0.0000000000000E+00
-0.1191930451300E+01 -0.7908099993657E+00  0.0000000000000E+00
-0.1207218759270E+01 -0.6978184495369E+00  0.0000000000000E+00
-0.1219662665868E+01 -0.6042984620743E+00  0.0000000000000E+00
-0.1229084956349E+01 -0.5103435091204E+00  0.0000000000000E+00
-0.1234989389694E+01 -0.4160390469624E+00  0.0000000000000E+00
-0.1237021830944E+01 -0.3215389111147E+00  0.0000000000000E+00
-0.1236070574753E+01 -0.2270349796020E+00  0.0000000000000E+00
-0.1223556974129E+01 -0.1338581204802E+00  0.0000000000000E+00
-0.1191179603475E+01 -0.4772460601326E-01  0.0000000000000E+00
-0.9360836724979E+00 -0.1697637222502E+01  0.0000000000000E+00
-0.9501894744693E+00 -0.1607336932178E+01  0.0000000000000E+00
-0.9666485979921E+00 -0.1517591658418E+01  0.0000000000000E+00
-0.9861075272542E+00 -0.1428688570411E+01  0.0000000000000E+00
-0.1009436878761E+01 -0.1341103592706E+01  0.0000000000000E+00
-0.1036112671401E+01 -0.1254848971143E+01  0.0000000000000E+00
-0.1062358210486E+01 -0.1168345742088E+01  0.0000000000000E+00
-0.1086189724515E+01 -0.1080797233774E+01  0.0000000000000E+00
-0.1107567310176E+01 -0.9923199483614E+00  0.0000000000000E+00
-0.1126659669612E+01 -0.9030990835921E+00  0.0000000000000E+00
-0.1143425008638E+01 -0.8132380097123E+00  0.0000000000000E+00
-0.1157613339827E+01 -0.7227888417635E+00  0.0000000000000E+00
-0.1169172796767E+01 -0.6318545932468E+00  0.0000000000000E+00
-0.1177936737578E+01 -0.5405209187650E+00  0.0000000000000E+00
-0.1183449817901E+01 -0.4488662807332E+00  0.0000000000000E+00
-0.1185389063541E+01 -0.3570318401726E+00  0.0000000000000E+00
-0.1184571247236E+01 -0.2651936327164E+00  0.0000000000000E+00
-0.1173135261469E+01 -0.1745716753379E+00  0.0000000000000E+00
-0.1143473931327E+01 -0.9040597589074E-01  0.0000000000000E+00
-0.9052025656608E+00 -0.1696593670407E+01  0.0000000000000E+00
-0.9180462799102E+00 -0.1608813184770E+01  0.0000000000000E+00
-0.9330478064465E+00 -0.1521537366029E+01  0.0000000000000E+00
-0.9507975486092E+00 -0.1435027366826E+01  0.0000000000000E+00
-0.9720898633460E+00 -0.1349715959497E+01  0.0000000000000E+00
-0.9964511335561E+00 -0.1265614444814E+01  0.0000000000000E+00
-0.1020449800433E+01 -0.1181287554874E+01  0.0000000000000E+00
-0.1042281937024E+01 -0.1096011182100E+01  0.0000000000000E+00
-0.1061906691047E+01 -0.1009891208114E+01  0.0000000000000E+00
-0.1079467655605E+01 -0.9230957326186E+00  0.0000000000000E+00
-0.1094913147077E+01 -0.8357182487808E+00  0.0000000000000E+00
-0.1108002215241E+01 -0.7478056542760E+00  0.0000000000000E+00
-0.1118677936293E+01 -0.6594513362685E+00  0.0000000000000E+00
-0.1126784241210E+01 -0.5707331318790E+00  0.0000000000000E+00
-0.1131906682287E+01 -0.4817225097452E+00  0.0000000000000E+00
-0.1133753446117E+01 -0.3925479561725E+00  0.0000000000000E+00
-0.1133069783463E+01 -0.3033696648919E+00  0.0000000000000E+00
-0.1122712125213E+01 -0.2152968108032E+00  0.0000000000000E+00
-0.1095767547380E+01 -0.1330931357309E+00  0.0000000000000E+00
-0.8743083235843E+00 -0.1695660640404E+01  0.0000000000000E+00
-0.8858906417741E+00 -0.1610394139888E+01  0.0000000000000E+00
-0.8994352629835E+00 -0.1525581956693E+01  0.0000000000000E+00
-0.9154765096915E+00 -0.1441459227032E+01  0.0000000000000E+00
-0.9347324792844E+00 -0.1358415571095E+01  0.0000000000000E+00
-0.9567799187723E+00 -0.1276461343713E+01  0.0000000000000E+00
-0.9785324051374E+00 -0.1194304973383E+01  0.0000000000000E+00
-0.9983658559628E+00 -0.1111294916756E+01  0.0000000000000E+00
-0.1016238470020E+01 -0.1027526434715E+01  0.0000000000000E+00
-0.1032268731369E+01 -0.9431505289813E+00  0.0000000000000E+00
-0.1046395066944E+01 -0.8582508156835E+00  0.0000000000000E+00
-0.1058385563728E+01 -0.7728689751435E+00  0.0000000000000E+00
-0.1068178240529E+01 -0.6870887681605E+00  0.0000000000000E+00
-0.1075627601174E+01 -0.6009802144323E+00  0.0000000000000E+00
-0.1080360094597E+01 -0.5146077889146E+00  0.0000000000000E+00
-0.1082115068208E+01 -0.4280873029753E+00  0.0000000000000E+00
-0.1081566250735E+01 -0.3415631089346E+00  0.0000000000000E+00
-0.1072287610372E+01 -0.2560335486556E+00  0.0000000000000E+00
-0.1048060474216E+01 -0.1757860963612E+00  0.0000000000000E+00
-0.8434013602891E+00 -0.1694838334539E+01  0.0000000000000E+00
-0.8537229522776E+00 -0.1612079988939E+01  0.0000000000000E+00
-0.8658113380143E+00 -0.1529725611177E+01  0.0000000000000E+00
-0.8801447591061E+00 -0.1447984321162E+01  0.0000000000000E+00
-0.8973650533733E+00 -0.1367202586994E+01  0.0000000000000E+00
-0.9170993320358E+00 -0.1287389816692E+01  0.0000000000000E+00
-0.9366063077746E+00 -0.1207398135830E+01  0.0000000000000E+00
-0.9544417426990E+00 -0.1126648565315E+01  0.0000000000000E+00
-0.9705628866563E+00 -0.1045225745102E+01  0.0000000000000E+00
-0.9850631146560E+00 -0.9632635789787E+00  0.0000000000000E+00
-0.9978709641868E+00 -0.8808358060813E+00  0.0000000000000E+00
-0.1008763559434E+01 -0.7979788893896E+00  0.0000000000000E+00
-0.1017673861820E+01 -0.7147669633096E+00  0.0000000000000E+00
-0.1024466948015E+01 -0.6312622301750E+00  0.0000000000000E+00
-0.1028810163580E+01 -0.5475221713554E+00  0.0000000000000E+00
-0.1030474016764E+01 -0.4636499230587E+00  0.0000000000000E+00
-0.1030060714210E+01 -0.3797739966868E+00  0.0000000000000E+00
-0.1021861760353E+01 -0.2967819101190E+00  0.0000000000000E+00
-0.1000352733534E+01 -0.2184848683968E+00  0.0000000000000E+00
-0.8124820923393E+00 -0.1694126948634E+01  0.0000000000000E+00
-0.8215436060466E+00 -0.1613870917436E+01  0.0000000000000E+00
-0.8321764042262E+00 -0.1533968504685E+01  0.0000000000000E+00
-0.8448026476007E+00 -0.1454602814107E+01  0.0000000000000E+00
-0.8599879144201E+00 -0.1376077161776E+01  0.0000000000000E+00
-0.8774096802096E+00 -0.1298400008021E+01  0.0000000000000E+00
-0.8946717932639E+00 -0.1220567176174E+01  0.0000000000000E+00
-0.9105098602098E+00 -0.1142072251424E+01  0.0000000000000E+00
-0.9248801819917E+00 -0.1062989252608E+01  0.0000000000000E+00
-0.9378510245649E+00 -0.9834349856361E+00  0.0000000000000E+00
-0.9493410359662E+00 -0.9034733126893E+00  0.0000000000000E+00
-0.9591363775820E+00 -0.8231354794195E+00  0.0000000000000E+00
-0.9671649534541E+00 -0.7424859938115E+00  0.0000000000000E+00
-0.9733024130866E+00 -0.6615792408938E+00  0.0000000000000E+00
-0.9772569986568E+00 -0.5804657085455E+00  0.0000000000000E+00
-0.9788303792791E+00 -0.4992358575917E+00  0.0000000000000E+00
-0.9785532394554E+00 -0.4180023590096E+00  0.0000000000000E+00
-0.9714346188367E+00 -0.3375419157624E+00  0.0000000000000E+00
-0.9526443471667E+00 -0.2611894621254E+00  0.0000000000000E+00
-0.7815509360540E+00 -0.1693526671952E+01  0.0000000000000E+00
-0.7893529974569E+00 -0.1615767104683E+01  0.0000000000000E+00
-0.7985308340446E+00 -0.1538310806561E+01  0.0000000000000E+00
-0.8094505256421E+00 -0.1461314865248E+01  0.0000000000000E+00
-0.8226013909215E+00 -0.1385039444855E+01  0.0000000000000E+00
-0.8377112698082E+00 -0.1309492057141E+01  0.0000000000000E+00
-0.8527291461403E+00 -0.1233812223881E+01  0.0000000000000E+00
-0.8665704710604E+00 -0.1157566094584E+01  0.0000000000000E+00
-0.8791905966306E+00 -0.1080817066771E+01  0.0000000000000E+00
-0.8906326797461E+00 -0.1003664848526E+01  0.0000000000000E+00
-0.9008054789872E+00 -0.9261634251201E+00  0.0000000000000E+00
-0.9095041929406E+00 -0.8483388248877E+00  0.0000000000000E+00
-0.9166516682694E+00 -0.7702459293638E+00  0.0000000000000E+00
-0.9221341273071E+00 -0.6919313063309E+00  0.0000000000000E+00
-0.9257007088365E+00 -0.6134384502728E+00  0.0000000000000E+00
-0.9271842428608E+00 -0.5348451464090E+00  0.0000000000000E+00
-0.9270438916883E+00 -0.4562482257846E+00  0.0000000000000E+00
-0.9210062292211E+00 -0.3783135855268E+00  0.0000000000000E+00
-0.9049353367833E+00 -0.3038998875393E+00  0.0000000000000E+00
-0.7506083067926E+00 -0.1693037687126E+01  0.0000000000000E+00
-0.7571515199521E+00 -0.1617768723708E+01  0.0000000000000E+00
-0.7648749989831E+00 -0.1542752680226E+01  0.0000000000000E+00
-0.7740887427956E+00 -0.1468120628396E+01  0.0000000000000E+00
-0.7852058104717E+00 -0.1394089580419E+01  0.0000000000000E+00
-0.7980044064311E+00 -0.1320666098610E+01  0.0000000000000E+00
-0.8107786500141E+00 -0.1247133403882E+01  0.0000000000000E+00
-0.8226238368907E+00 -0.1173130210103E+01  0.0000000000000E+00
-0.8334943702607E+00 -0.1098709293284E+01  0.0000000000000E+00
-0.8434082979516E+00 -0.1023953263733E+01  0.0000000000000E+00
-0.8522644890822E+00 -0.9489062298512E+00  0.0000000000000E+00
-0.8598671794387E+00 -0.8735890026696E+00  0.0000000000000E+00
-0.8661341583082E+00 -0.7980468372435E+00  0.0000000000000E+00
-0.8709622208482E+00 -0.7223184841673E+00  0.0000000000000E+00
-0.8741414024410E+00 -0.6464404446253E+00  0.0000000000000E+00
-0.8755356940038E+00 -0.5704778280057E+00  0.0000000000000E+00
-0.8755327355947E+00 -0.4945116259155E+00  0.0000000000000E+00
-0.8705766344891E+00 -0.4190969387318E+00  0.0000000000000E+00
-0.8572257238154E+00 -0.3466161543434E+00  0.0000000000000E+00
-0.7196546383067E+00 -0.1692660171955E+01  0.0000000000000E+00
-0.7249395845113E+00 -0.1619875942931E+01  0.0000000000000E+00
-0.7312092872703E+00 -0.1547294284722E+01  0.0000000000000E+00
-0.7387176645684E+00 -0.1475020253223E+01  0.0000000000000E+00
-0.7478015158933E+00 -0.1403227708788E+01  0.0000000000000E+00
-0.7582894102453E+00 -0.1331922263408E+01  0.0000000000000E+00
-0.7688206023893E+00 -0.1260530837814E+01  0.0000000000000E+00
-0.7786702325147E+00 -0.1188764710264E+01  0.0000000000000E+00
-0.7877917549782E+00 -0.1116666035064E+01  0.0000000000000E+00
-0.7961781085352E+00 -0.1044300324802E+01  0.0000000000000E+00
-0.8037182728390E+00 -0.9717018110512E+00  0.0000000000000E+00
-0.8102255208740E+00 -0.8988860875506E+00  0.0000000000000E+00
-0.8156125845540E+00 -0.8258887828474E+00  0.0000000000000E+00
-0.8197868318547E+00 -0.7527408304077E+00  0.0000000000000E+00
-0.8225791947468E+00 -0.6794717382122E+00  0.0000000000000E+00
-0.8238848250832E+00 -0.6061339395944E+00  0.0000000000000E+00
-0.8240198406246E+00 -0.5327925872182E+00  0.0000000000000E+00
-0.8201458810983E+00 -0.4598919938240E+00  0.0000000000000E+00
-0.8095155315770E+00 -0.3893382716925E+00  0.0000000000000E+00
-0.6886903565093E+00 -0.1692394296717E+01  0.0000000000000E+00
-0.6927175946182E+00 -0.1622088923663E+01  0.0000000000000E+00
-0.6975340799601E+00 -0.1551935772397E+01  0.0000000000000E+00
-0.7033376495840E+00 -0.1482013883113E+01  0.0000000000000E+00
-0.7103888433793E+00 -0.1412453964381E+01  0.0000000000000E+00
-0.7185665950094E+00 -0.1343260676984E+01  0.0000000000000E+00
-0.7268552945909E+00 -0.1274004642159E+01  0.0000000000000E+00
-0.7347099268254E+00 -0.1204469702582E+01  0.0000000000000E+00
-0.7420829972449E+00 -0.1134687390663E+01  0.0000000000000E+00
-0.7489423355285E+00 -0.1064706121319E+01  0.0000000000000E+00
-0.7551670318599E+00 -0.9945502493410E+00  0.0000000000000E+00
-0.7605793964204E+00 -0.9242301511863E+00  0.0000000000000E+00
-0.7650871037535E+00 -0.8537718288664E+00  0.0000000000000E+00
-0.7686080946470E+00 -0.7831983987784E+00  0.0000000000000E+00
-0.7710141976503E+00 -0.7125323757957E+00  0.0000000000000E+00
-0.7722317255725E+00 -0.6418135169728E+00  0.0000000000000E+00
-0.7725052738312E+00 -0.5710911365270E+00  0.0000000000000E+00
-0.7697140137222E+00 -0.5006987686882E+00  0.0000000000000E+00
-0.7618047823999E+00 -0.4320662485312E+00  0.0000000000000E+00
-0.6577158894649E+00 -0.1692240225162E+01  0.0000000000000E+00
-0.6604859557950E+00 -0.1624407821033E+01  0.0000000000000E+00
-0.6638497600319E+00 -0.1556677289756E+01  0.0000000000000E+00
-0.6679490582789E+00 -0.1489101655950E+01  0.0000000000000E+00
-0.6729681308228E+00 -0.1421768476460E+01  0.0000000000000E+00
-0.6788362760697E+00 -0.1354681459979E+01  0.0000000000000E+00
-0.6848830194189E+00 -0.1287554928934E+01  0.0000000000000E+00
-0.6907431900779E+00 -0.1220245290453E+01  0.0000000000000E+00
-0.6963683447720E+00 -0.1152773454854E+01  0.0000000000000E+00
-0.7017012040992E+00 -0.1085170739436E+01  0.0000000000000E+00
-0.7066109687703E+00 -0.1017451622250E+01  0.0000000000000E+00
-0.7109289861621E+00 -0.9496212624844E+00  0.0000000000000E+00
-0.7145578734505E+00 -0.8816960355872E+00  0.0000000000000E+00
-0.7174261442299E+00 -0.8136912409452E+00  0.0000000000000E+00
-0.7194465236187E+00 -0.7456224004210E+00  0.0000000000000E+00
-0.7205764854021E+00 -0.6775165945656E+00  0.0000000000000E+00
-0.7209891026108E+00 -0.6094072996466E+00  0.0000000000000E+00
-0.7192810772636E+00 -0.5415172805228E+00  0.0000000000000E+00
-0.7140934987308E+00 -0.4748000934607E+00  0.0000000000000E+00
-0.6267316673077E+00 -0.1692198114453E+01  0.0000000000000E+00
-0.6282450755248E+00 -0.1626832783928E+01  0.0000000000000E+00
-0.6301567123173E+00 -0.1561518977415E+01  0.0000000000000E+00
-0.6325522528331E+00 -0.1496283704073E+01  0.0000000000000E+00
-0.6355397177521E+00 -0.1431171369089E+01  0.0000000000000E+00
-0.6390987702994E+00 -0.1366184728180E+01  0.0000000000000E+00
-0.6429040710920E+00 -0.1301181805651E+01  0.0000000000000E+00
-0.6467702938377E+00 -0.1236091573113E+01  0.0000000000000E+00
-0.6506480464722E+00 -0.1170924318597E+01  0.0000000000000E+00
-0.6544549405083E+00 -0.1105694261838E+01  0.0000000000000E+00
-0.6580502871802E+00 -0.1040406004188E+01  0.0000000000000E+00
-0.6612744710591E+00 -0.9750594875815E+00  0.0000000000000E+00
-0.6640250519556E+00 -0.9096614608717E+00  0.0000000000000E+00
-0.6662411162656E+00 -0.8442194064959E+00  0.0000000000000E+00
-0.6678762856675E+00 -0.7787418534021E+00  0.0000000000000E+00
-0.6689191949418E+00 -0.7132432054128E+00  0.0000000000000E+00
-0.6694713946900E+00 -0.6477411013437E+00  0.0000000000000E+00
-0.6688471168461E+00 -0.5823475458340E+00  0.0000000000000E+00
-0.6663817031269E+00 -0.5175398147359E+00  0.0000000000000E+00
 0.6267316770671E+00 -0.1692198115309E+01  0.0000000000000E+00
 0.6282450842043E+00 -0.1626832784735E+01  0.0000000000000E+00
 0.6301567199257E+00 -0.1561518978170E+01  0.0000000000000E+00
 0.6325522593862E+00 -0.1496283704774E+01  0.0000000000000E+00
 0.6355397232755E+00 -0.1431171369731E+01  0.0000000000000E+00
 0.6390987748289E+00 -0.1366184728759E+01  0.0000000000000E+00
 0.6429040746811E+00 -0.1301181806162E+01  0.0000000000000E+00
 0.6467702965677E+00 -0.1236091573554E+01  0.0000000000000E+00
 0.6506480484535E+00 -0.1170924318967E+01  0.0000000000000E+00
 0.6544549418750E+00 -0.1105694262141E+01  0.0000000000000E+00
 0.6580502880753E+00 -0.1040406004428E+01  0.0000000000000E+00
 0.6612744716160E+00 -0.9750594877654E+00  0.0000000000000E+00
 0.6640250522846E+00 -0.9096614610038E+00  0.0000000000000E+00
 0.6662411164480E+00 -0.8442194065791E+00  0.0000000000000E+00
 0.6678762857589E+00 -0.7787418534389E+00  0.0000000000000E+00
 0.6689191949800E+00 -0.7132432054044E+00  0.0000000000000E+00
 0.6694713946944E+00 -0.6477411012908E+00  0.0000000000000E+00
 0.6688471167994E+00 -0.5823475457445E+00  0.0000000000000E+00
 0.6663817030200E+00 -0.5175398146315E+00  0.0000000000000E+00
 0.6577158987074E+00 -0.1692240226002E+01  0.0000000000000E+00
 0.6604859640163E+00 -0.1624407821814E+01  0.0000000000000E+00
 0.6638497672423E+00 -0.1556677290478E+01  0.0000000000000E+00
 0.6679490644955E+00 -0.1489101656609E+01  0.0000000000000E+00
 0.6729681360715E+00 -0.1421768477054E+01  0.0000000000000E+00
 0.6788362803826E+00 -0.1354681460503E+01  0.0000000000000E+00
 0.6848830228425E+00 -0.1287554929381E+01  0.0000000000000E+00
 0.6907431926874E+00 -0.1220245290822E+01  0.0000000000000E+00
 0.6963683466717E+00 -0.1152773455142E+01  0.0000000000000E+00
 0.7017012054155E+00 -0.1085170739648E+01  0.0000000000000E+00
 0.7066109696382E+00 -0.1017451622390E+01  0.0000000000000E+00
 0.7109289867072E+00 -0.9496212625587E+00  0.0000000000000E+00
 0.7145578737767E+00 -0.8816960355999E+00  0.0000000000000E+00
 0.7174261444133E+00 -0.8136912408991E+00  0.0000000000000E+00
 0.7194465237104E+00 -0.7456224003186E+00  0.0000000000000E+00
 0.7205764854380E+00 -0.6775165944084E+00  0.0000000000000E+00
 0.7209891026047E+00 -0.6094072994359E+00  0.0000000000000E+00
 0.7192810771664E+00 -0.5415172802740E+00  0.0000000000000E+00
 0.7140934985165E+00 -0.4748000932170E+00  0.0000000000000E+00
 0.6886903652351E+00 -0.1692394297536E+01  0.0000000000000E+00
 0.6927176023816E+00 -0.1622088924415E+01  0.0000000000000E+00
 0.6975340867727E+00 -0.1551935773080E+01  0.0000000000000E+00
 0.7033376554643E+00 -0.1482013883727E+01  0.0000000000000E+00
 0.7103888483534E+00 -0.1412453964924E+01  0.0000000000000E+00
 0.7185665991058E+00 -0.1343260677450E+01  0.0000000000000E+00
 0.7268552978490E+00 -0.1274004642540E+01  0.0000000000000E+00
 0.7347099293146E+00 -0.1204469702875E+01  0.0000000000000E+00
 0.7420829990631E+00 -0.1134687390868E+01  0.0000000000000E+00
 0.7489423367946E+00 -0.1064706121439E+01  0.0000000000000E+00
 0.7551670327006E+00 -0.9945502493794E+00  0.0000000000000E+00
 0.7605793969537E+00 -0.9242301511490E+00  0.0000000000000E+00
 0.7650871040769E+00 -0.8537718287581E+00  0.0000000000000E+00
 0.7686080948315E+00 -0.7831983986016E+00  0.0000000000000E+00
 0.7710141977424E+00 -0.7125323755530E+00  0.0000000000000E+00
 0.7722317256061E+00 -0.6418135166660E+00  0.0000000000000E+00
 0.7725052738146E+00 -0.5710911361576E+00  0.0000000000000E+00
 0.7697140135745E+00 -0.5006987682796E+00  0.0000000000000E+00
 0.7618047820783E+00 -0.4320662481480E+00  0.0000000000000E+00
 0.7196546465161E+00 -0.1692660172748E+01  0.0000000000000E+00
 0.7249395918170E+00 -0.1619875943648E+01  0.0000000000000E+00
 0.7312092936854E+00 -0.1547294285363E+01  0.0000000000000E+00
 0.7387176701125E+00 -0.1475020253788E+01  0.0000000000000E+00
 0.7478015205931E+00 -0.1403227709276E+01  0.0000000000000E+00
 0.7582894141255E+00 -0.1331922263812E+01  0.0000000000000E+00
 0.7688206054822E+00 -0.1260530838125E+01  0.0000000000000E+00
 0.7786702348837E+00 -0.1188764710478E+01  0.0000000000000E+00
 0.7877917567151E+00 -0.1116666035182E+01  0.0000000000000E+00
 0.7961781097513E+00 -0.1044300324826E+01  0.0000000000000E+00
 0.8037182736528E+00 -0.9717018109855E+00  0.0000000000000E+00
 0.8102255213957E+00 -0.8988860874001E+00  0.0000000000000E+00
 0.8156125848748E+00 -0.8258887826165E+00  0.0000000000000E+00
 0.8197868320404E+00 -0.7527408300988E+00  0.0000000000000E+00
 0.8225791948393E+00 -0.6794717378281E+00  0.0000000000000E+00
 0.8238848251146E+00 -0.6061339391370E+00  0.0000000000000E+00
 0.8240198405976E+00 -0.5327925866896E+00  0.0000000000000E+00
 0.8201458809002E+00 -0.4598919932551E+00  0.0000000000000E+00
 0.8095155311481E+00 -0.3893382711694E+00  0.0000000000000E+00
 0.7506083144858E+00 -0.1693037687890E+01  0.0000000000000E+00
 0.7571515268004E+00 -0.1617768724388E+01  0.0000000000000E+00
 0.7648750050008E+00 -0.1542752680822E+01  0.0000000000000E+00
 0.7740887480037E+00 -0.1468120628908E+01  0.0000000000000E+00
 0.7852058148974E+00 -0.1394089580847E+01  0.0000000000000E+00
 0.7980044100952E+00 -0.1320666098949E+01  0.0000000000000E+00
 0.8107786529419E+00 -0.1247133404121E+01  0.0000000000000E+00
 0.8226238391398E+00 -0.1173130210237E+01  0.0000000000000E+00
 0.8334943719163E+00 -0.1098709293313E+01  0.0000000000000E+00
 0.8434082991177E+00 -0.1023953263659E+01  0.0000000000000E+00
 0.8522644898690E+00 -0.9489062296793E+00  0.0000000000000E+00
 0.8598671799488E+00 -0.8735890024040E+00  0.0000000000000E+00
 0.8661341586265E+00 -0.7980468368884E+00  0.0000000000000E+00
 0.8709622210352E+00 -0.7223184837249E+00  0.0000000000000E+00
 0.8741414025340E+00 -0.6464404440986E+00  0.0000000000000E+00
 0.8755356940330E+00 -0.5704778273969E+00  0.0000000000000E+00
 0.8755327355573E+00 -0.4945116252270E+00  0.0000000000000E+00
 0.8705766342406E+00 -0.4190969380022E+00  0.0000000000000E+00
 0.8572257232791E+00 -0.3466161536803E+00  0.0000000000000E+00
 0.7815509432313E+00 -0.1693526672682E+01  0.0000000000000E+00
 0.7893530038481E+00 -0.1615767105320E+01  0.0000000000000E+00
 0.7985308396653E+00 -0.1538310807107E+01  0.0000000000000E+00
 0.8094505305145E+00 -0.1461314865704E+01  0.0000000000000E+00
 0.8226013950733E+00 -0.1385039445222E+01  0.0000000000000E+00
 0.8377112732565E+00 -0.1309492057412E+01  0.0000000000000E+00
 0.8527291489033E+00 -0.1233812224044E+01  0.0000000000000E+00
 0.8665704731897E+00 -0.1157566094634E+01  0.0000000000000E+00
 0.8791905982052E+00 -0.1080817066708E+01  0.0000000000000E+00
 0.8906326808624E+00 -0.1003664848353E+01  0.0000000000000E+00
 0.9008054797473E+00 -0.9261634248400E+00  0.0000000000000E+00
 0.9095041934393E+00 -0.8483388245051E+00  0.0000000000000E+00
 0.9166516685853E+00 -0.7702459288830E+00  0.0000000000000E+00
 0.9221341274954E+00 -0.6919313057536E+00  0.0000000000000E+00
 0.9257007089301E+00 -0.6134384496025E+00  0.0000000000000E+00
 0.9271842428878E+00 -0.5348451456479E+00  0.0000000000000E+00
 0.9270438916406E+00 -0.4562482249355E+00  0.0000000000000E+00
 0.9210062289222E+00 -0.3783135846360E+00  0.0000000000000E+00
 0.9049353361397E+00 -0.3038998867360E+00  0.0000000000000E+00
 0.8124820990011E+00 -0.1694126949326E+01  0.0000000000000E+00
 0.8215436119809E+00 -0.1613870918028E+01  0.0000000000000E+00
 0.8321764094502E+00 -0.1533968505178E+01  0.0000000000000E+00
 0.8448026521377E+00 -0.1454602814503E+01  0.0000000000000E+00
 0.8599879182983E+00 -0.1376077162078E+01  0.0000000000000E+00
 0.8774096834423E+00 -0.1298400008221E+01  0.0000000000000E+00
 0.8946717958622E+00 -0.1220567176258E+01  0.0000000000000E+00
 0.9105098622195E+00 -0.1142072251388E+01  0.0000000000000E+00
 0.9248801834856E+00 -0.1062989252451E+01  0.0000000000000E+00
 0.9378510256317E+00 -0.9834349853607E+00  0.0000000000000E+00
 0.9493410366997E+00 -0.9034733122990E+00  0.0000000000000E+00
 0.9591363780693E+00 -0.8231354789182E+00  0.0000000000000E+00
 0.9671649537677E+00 -0.7424859932034E+00  0.0000000000000E+00
 0.9733024132764E+00 -0.6615792401804E+00  0.0000000000000E+00
 0.9772569987510E+00 -0.5804657077303E+00  0.0000000000000E+00
 0.9788303793041E+00 -0.4992358566774E+00  0.0000000000000E+00
 0.9785532393974E+00 -0.4180023579992E+00  0.0000000000000E+00
 0.9714346184875E+00 -0.3375419147100E+00  0.0000000000000E+00
 0.9526443464158E+00 -0.2611894611816E+00  0.0000000000000E+00
 0.8434013664357E+00 -0.1694838335189E+01  0.0000000000000E+00
 0.8537229577554E+00 -0.1612079989481E+01  0.0000000000000E+00
 0.8658113428418E+00 -0.1529725611613E+01  0.0000000000000E+00
 0.8801447633080E+00 -0.1447984321494E+01  0.0000000000000E+00
 0.8973650569782E+00 -0.1367202587227E+01  0.0000000000000E+00
 0.9170993350532E+00 -0.1287389816818E+01  0.0000000000000E+00
 0.9366063102086E+00 -0.1207398135833E+01  0.0000000000000E+00
 0.9544417445893E+00 -0.1126648565190E+01  0.0000000000000E+00
 0.9705628880695E+00 -0.1045225744848E+01  0.0000000000000E+00
 0.9850631156734E+00 -0.9632635785991E+00  0.0000000000000E+00
 0.9978709648940E+00 -0.8808358055787E+00  0.0000000000000E+00
 0.1008763559910E+01 -0.7979788887677E+00  0.0000000000000E+00
 0.1017673862132E+01 -0.7147669625726E+00  0.0000000000000E+00
 0.1024466948207E+01 -0.6312622293241E+00  0.0000000000000E+00
 0.1028810163675E+01 -0.5475221703943E+00  0.0000000000000E+00
 0.1030474016787E+01 -0.4636499219902E+00  0.0000000000000E+00
 0.1030060714142E+01 -0.3797739955145E+00  0.0000000000000E+00
 0.1021861759954E+01 -0.2967819089046E+00  0.0000000000000E+00
 0.1000352732676E+01 -0.2184848673123E+00  0.0000000000000E+00
 0.8743083292160E+00 -0.1695660641007E+01  0.0000000000000E+00
 0.8858906467958E+00 -0.1610394140375E+01  0.0000000000000E+00
 0.8994352674149E+00 -0.1525581957067E+01  0.0000000000000E+00
 0.9154765135586E+00 -0.1441459227297E+01  0.0000000000000E+00
 0.9347324826162E+00 -0.1358415571256E+01  0.0000000000000E+00
 0.9567799215746E+00 -0.1276461343761E+01  0.0000000000000E+00
 0.9785324074072E+00 -0.1194304973301E+01  0.0000000000000E+00
 0.9983658577340E+00 -0.1111294916539E+01  0.0000000000000E+00
 0.1016238471353E+01 -0.1027526434362E+01  0.0000000000000E+00
 0.1032268732337E+01 -0.9431505284951E+00  0.0000000000000E+00
 0.1046395067625E+01 -0.8582508150666E+00  0.0000000000000E+00
 0.1058385564193E+01 -0.7728689743992E+00  0.0000000000000E+00
 0.1068178240839E+01 -0.6870887672930E+00  0.0000000000000E+00
 0.1075627601367E+01 -0.6009802134425E+00  0.0000000000000E+00
 0.1080360094693E+01 -0.5146077878065E+00  0.0000000000000E+00
 0.1082115068229E+01 -0.4280873017517E+00  0.0000000000000E+00
 0.1081566250656E+01 -0.3415631075997E+00  0.0000000000000E+00
 0.1072287609923E+01 -0.2560335472787E+00  0.0000000000000E+00
 0.1048060473251E+01 -0.1757860951357E+00  0.0000000000000E+00
 0.9052025707781E+00 -0.1696593670959E+01  0.0000000000000E+00
 0.9180462844761E+00 -0.1608813185199E+01  0.0000000000000E+00
 0.9330478104822E+00 -0.1521537366339E+01  0.0000000000000E+00
 0.9507975521418E+00 -0.1435027367020E+01  0.0000000000000E+00
 0.9720898664051E+00 -0.1349715959582E+01  0.0000000000000E+00
 0.9964511361435E+00 -0.1265614444782E+01  0.0000000000000E+00
 0.1020449802539E+01 -0.1181287554705E+01  0.0000000000000E+00
 0.1042281938676E+01 -0.1096011181789E+01  0.0000000000000E+00
 0.1061906692299E+01 -0.1009891207660E+01  0.0000000000000E+00
 0.1079467656524E+01 -0.9230957320237E+00  0.0000000000000E+00
 0.1094913147732E+01 -0.8357182480476E+00  0.0000000000000E+00
 0.1108002215695E+01 -0.7478056534076E+00  0.0000000000000E+00
 0.1118677936601E+01 -0.6594513352690E+00  0.0000000000000E+00
 0.1126784241405E+01 -0.5707331307489E+00  0.0000000000000E+00
 0.1131906682383E+01 -0.4817225084889E+00  0.0000000000000E+00
 0.1133753446136E+01 -0.3925479547930E+00  0.0000000000000E+00
 0.1133069783374E+01 -0.3033696633937E+00  0.0000000000000E+00
 0.1122712124713E+01 -0.2152968092632E+00  0.0000000000000E+00
 0.1095767546307E+01 -0.1330931343643E+00  0.0000000000000E+00
 0.9360836771012E+00 -0.1697637222998E+01  0.0000000000000E+00
 0.9501894785799E+00 -0.1607336932545E+01  0.0000000000000E+00
 0.9666486016325E+00 -0.1517591658659E+01  0.0000000000000E+00
 0.9861075304526E+00 -0.1428688570531E+01  0.0000000000000E+00
 0.1009436881547E+01 -0.1341103592713E+01  0.0000000000000E+00
 0.1036112673774E+01 -0.1254848971027E+01  0.0000000000000E+00
 0.1062358212428E+01 -0.1168345741829E+01  0.0000000000000E+00
 0.1086189726049E+01 -0.1080797233366E+01  0.0000000000000E+00
 0.1107567311349E+01 -0.9923199478029E+00  0.0000000000000E+00
 0.1126659670482E+01 -0.9030990828862E+00  0.0000000000000E+00
 0.1143425009267E+01 -0.8132380088607E+00  0.0000000000000E+00
 0.1157613340271E+01 -0.7227888407692E+00  0.0000000000000E+00
 0.1169172797073E+01 -0.6318545921137E+00  0.0000000000000E+00
 0.1177936737775E+01 -0.5405209174934E+00  0.0000000000000E+00
 0.1183449817999E+01 -0.4488662793275E+00  0.0000000000000E+00
 0.1185389063559E+01 -0.3570318386362E+00  0.0000000000000E+00
 0.1184571247138E+01 -0.2651936310542E+00  0.0000000000000E+00
 0.1173135260919E+01 -0.1745716736346E+00  0.0000000000000E+00
 0.1143473930147E+01 -0.9040597438278E-01  0.0000000000000E+00
 0.9669512274189E+00 -0.1698791087767E+01  0.0000000000000E+00
 0.9823198304356E+00 -0.1605965184095E+01  0.0000000000000E+00
 0.1000237264269E+01 -0.1513744646745E+01  0.0000000000000E+00
 0.1021406093943E+01 -0.1422442661578E+01  0.0000000000000E+00
 0.1046773195509E+01 -0.1332578305411E+01  0.0000000000000E+00
 0.1075764223922E+01 -0.1244164768264E+01  0.0000000000000E+00
 0.1104257348526E+01 -0.1155479391450E+01  0.0000000000000E+00
 0.1130088953323E+01 -0.1065652939060E+01  0.0000000000000E+00
 0.1153220084018E+01 -0.9748125336096E+00  0.0000000000000E+00
 0.1173844551794E+01 -0.8831604709323E+00  0.0000000000000E+00
 0.1191930451903E+01 -0.7908099983938E+00  0.0000000000000E+00
 0.1207218759703E+01 -0.6978184484149E+00  0.0000000000000E+00
 0.1219662666172E+01 -0.6042984608059E+00  0.0000000000000E+00
 0.1229084956548E+01 -0.5103435077058E+00  0.0000000000000E+00
 0.1234989389793E+01 -0.4160390454063E+00  0.0000000000000E+00
 0.1237021830960E+01 -0.3215389094206E+00  0.0000000000000E+00
 0.1236070574644E+01 -0.2270349777752E+00  0.0000000000000E+00
 0.1223556973529E+01 -0.1338581186130E+00  0.0000000000000E+00
 0.1191179602188E+01 -0.4772460436371E-01  0.0000000000000E+00
 0.9978048126931E+00 -0.1700055050828E+01  0.0000000000000E+00
 0.1014436952546E+01 -0.1604697736702E+01  0.0000000000000E+00
 0.1033813432435E+01 -0.1509996138743E+01  0.0000000000000E+00
 0.1056692898198E+01 -0.1416289459594E+01  0.0000000000000E+00
 0.1084098485417E+01 -0.1324139928402E+01  0.0000000000000E+00
 0.1115405485257E+01 -0.1233561678510E+01  0.0000000000000E+00
 0.1146146931048E+01 -0.1142688356877E+01  0.0000000000000E+00
 0.1173979362256E+01 -0.1050578163472E+01  0.0000000000000E+00
 0.1198864773607E+01 -0.9573688409702E+00  0.0000000000000E+00
 0.1221022085302E+01 -0.8632797833433E+00  0.0000000000000E+00
 0.1240429282021E+01 -0.7684341151186E+00  0.0000000000000E+00
 0.1256818301914E+01 -0.6728943861069E+00  0.0000000000000E+00
 0.1270147393358E+01 -0.5767828623979E+00  0.0000000000000E+00
 0.1280228768722E+01 -0.4802008337283E+00  0.0000000000000E+00
 0.1286525290297E+01 -0.3832407503566E+00  0.0000000000000E+00
 0.1288651662409E+01 -0.2860691220672E+00  0.0000000000000E+00
 0.1287567701494E+01 -0.1888936697665E+00  0.0000000000000E+00
 0.1273977219637E+01 -0.9315612167893E-01  0.0000000000000E+00
 0.1238884540982E+01 -0.5049013045556E-02  0.0000000000000E+00
 0.1028644034966E+01 -0.1701428892817E+01  0.0000000000000E+00
 0.1046540467967E+01 -0.1603534382536E+01  0.0000000000000E+00
 0.1067376750223E+01 -0.1506345938358E+01  0.0000000000000E+00
 0.1091967608368E+01 -0.1410228779832E+01  0.0000000000000E+00
 0.1121412437513E+01 -0.1315788288493E+01  0.0000000000000E+00
 0.1155036165145E+01 -0.1223039540143E+01  0.0000000000000E+00
 0.1188026688472E+01 -0.1129972488054E+01  0.0000000000000E+00
 0.1217860702418E+01 -0.1035572768105E+01  0.0000000000000E+00
 0.1244501150748E+01 -0.9399887429363E+00  0.0000000000000E+00
 0.1268192062681E+01 -0.8434569047128E+00  0.0000000000000E+00
 0.1288921312318E+01 -0.7461102551647E+00  0.0000000000000E+00
 0.1306411800597E+01 -0.6480165615055E+00  0.0000000000000E+00
 0.1320626833301E+01 -0.5493077160762E+00  0.0000000000000E+00
 0.1331368049922E+01 -0.4500928262700E+00  0.0000000000000E+00
 0.1338057416065E+01 -0.3504713364071E+00  0.0000000000000E+00
 0.1340278475353E+01 -0.2506224303227E+00  0.0000000000000E+00
 0.1339062566007E+01 -0.1507696722917E+00  0.0000000000000E+00
 0.1324395958307E+01 -0.5246565960526E-01  0.0000000000000E+00
 0.1286588726141E+01  0.3762081124632E-01  0.0000000000000E+00
 0.1059468491065E+01 -0.1702912387465E+01  0.0000000000000E+00
 0.1078629994763E+01 -0.1602474907241E+01  0.0000000000000E+00
 0.1100926856931E+01 -0.1502793843147E+01  0.0000000000000E+00
 0.1127229884989E+01 -0.1404260431761E+01  0.0000000000000E+00
 0.1158714733573E+01 -0.1307523207068E+01  0.0000000000000E+00
 0.1194655966603E+01 -0.1212598186461E+01  0.0000000000000E+00
 0.1229896345061E+01 -0.1117331630195E+01  0.0000000000000E+00
 0.1261732719309E+01 -0.1020636610086E+01  0.0000000000000E+00
 0.1290128982182E+01 -0.9226721085503E+00  0.0000000000000E+00
 0.1315354271908E+01 -0.8236917159966E+00  0.0000000000000E+00
 0.1337406352004E+01 -0.7238383114011E+00  0.0000000000000E+00
 0.1355999086198E+01 -0.6231848793920E+00  0.0000000000000E+00
 0.1371100837678E+01 -0.5218729385342E+00  0.0000000000000E+00
 0.1382502673051E+01 -0.4200194139358E+00  0.0000000000000E+00
 0.1389585661224E+01 -0.3177307440737E+00  0.0000000000000E+00
 0.1391902185146E+01 -0.2151987866139E+00  0.0000000000000E+00
 0.1390555104757E+01 -0.1126629496880E+00  0.0000000000000E+00
 0.1374813147288E+01 -0.1178670862095E-01  0.0000000000000E+00
 0.1334292136548E+01  0.8028488040208E-01  0.0000000000000E+00
 0.1090277780720E+01 -0.1704505302632E+01  0.0000000000000E+00
 0.1110705153744E+01 -0.1601519090897E+01  0.0000000000000E+00
 0.1134463394454E+01 -0.1499339645413E+01  0.0000000000000E+00
 0.1162479391042E+01 -0.1398384219907E+01  0.0000000000000E+00
 0.1196005057665E+01 -0.1299344500874E+01  0.0000000000000E+00
 0.1234264594794E+01 -0.1202237446439E+01  0.0000000000000E+00
 0.1271755627067E+01 -0.1104765624500E+01  0.0000000000000E+00
 0.1305595160272E+01 -0.1005769542839E+01  0.0000000000000E+00
 0.1335748036337E+01 -0.9054188034578E+00  0.0000000000000E+00
 0.1362508502496E+01 -0.8039840950629E+00  0.0000000000000E+00
 0.1385884211676E+01 -0.7016181739175E+00  0.0000000000000E+00
 0.1405579990391E+01 -0.5983992420775E+00  0.0000000000000E+00
 0.1421569259242E+01 -0.4944784443039E+00  0.0000000000000E+00
 0.1433632511940E+01 -0.3899805234782E+00  0.0000000000000E+00
 0.1441109920678E+01 -0.2850189123287E+00  0.0000000000000E+00
 0.1443522707758E+01 -0.1797981421330E+00  0.0000000000000E+00
 0.1442045254780E+01 -0.7457346536650E-01  0.0000000000000E+00
 0.1425228744639E+01  0.2888075566284E-01  0.0000000000000E+00
 0.1381994751242E+01  0.1229432066213E+00  0.0000000000000E+00
 0.1121071483195E+01 -0.1706207397020E+01  0.0000000000000E+00
 0.1142765546172E+01 -0.1600666704959E+01  0.0000000000000E+00
 0.1167985985999E+01 -0.1495983129350E+01  0.0000000000000E+00
 0.1197715771612E+01 -0.1392599941181E+01  0.0000000000000E+00
 0.1233283076667E+01 -0.1291251979511E+01  0.0000000000000E+00
 0.1273861738317E+01 -0.1191957142331E+01  0.0000000000000E+00
 0.1313604244830E+01 -0.1092274305885E+01  0.0000000000000E+00
 0.1349447757450E+01 -0.9909714139681E+00  0.0000000000000E+00
 0.1381358067225E+01 -0.8882286879731E+00  0.0000000000000E+00
 0.1409654530383E+01 -0.7843339149532E+00  0.0000000000000E+00
 0.1434354689253E+01 -0.6794497284982E+00  0.0000000000000E+00
 0.1455154333136E+01 -0.5736595481023E+00  0.0000000000000E+00
 0.1472031940047E+01 -0.4671241446931E+00  0.0000000000000E+00
 0.1484757430797E+01 -0.3599760789818E+00  0.0000000000000E+00
 0.1492630080857E+01 -0.2523357780405E+00  0.0000000000000E+00
 0.1495139951924E+01 -0.1444204465366E+00  0.0000000000000E+00
 0.1493532947170E+01 -0.3650118177095E-01  0.0000000000000E+00
 0.1475642704025E+01  0.6953675806361E-01  0.0000000000000E+00
 0.1429696546851E+01  0.1655958021522E+00  0.0000000000000E+00
 0.1151849225537E+01 -0.1708018429846E+01  0.0000000000000E+00
 0.1174810818886E+01 -0.1599917521276E+01  0.0000000000000E+00
 0.1201494298248E+01 -0.1492724079452E+01  0.0000000000000E+00
 0.1232938713290E+01 -0.1386907392741E+01  0.0000000000000E+00
 0.1270548497160E+01 -0.1283245452831E+01  0.0000000000000E+00
 0.1313447123819E+01 -0.1181757096718E+01  0.0000000000000E+00
 0.1355441945044E+01 -0.1079857509653E+01  0.0000000000000E+00
 0.1393290277519E+01 -0.9762420714703E+00  0.0000000000000E+00
 0.1426958861442E+01 -0.8711016227676E+00  0.0000000000000E+00
 0.1456792162028E+01 -0.7647410489956E+00  0.0000000000000E+00
 0.1482817611003E+01 -0.6573328611127E+00  0.0000000000000E+00
 0.1504721960451E+01 -0.5489656960643E+00  0.0000000000000E+00
 0.1522488745806E+01 -0.4398099509165E+00  0.0000000000000E+00
 0.1535877314972E+01 -0.3300060042687E+00  0.0000000000000E+00
 0.1544146046680E+01 -0.2196812776312E+00  0.0000000000000E+00
 0.1546753842050E+01 -0.1090656488427E+00  0.0000000000000E+00
 0.1545018125764E+01  0.1553939485621E-02  0.0000000000000E+00
 0.1526054988436E+01  0.1101813243664E+00  0.0000000000000E+00
 0.1477397505075E+01  0.2082426800443E+00  0.0000000000000E+00
 0.1182610616693E+01 -0.1709938151813E+01  0.0000000000000E+00
 0.1206840601434E+01 -0.1599271303676E+01  0.0000000000000E+00
 0.1234987981351E+01 -0.1489562272670E+01  0.0000000000000E+00
 0.1268147886829E+01 -0.1381306364667E+01  0.0000000000000E+00
 0.1307801010505E+01 -0.1275324724039E+01  0.0000000000000E+00
 0.1353020463274E+01 -0.1171637125933E+01  0.0000000000000E+00
 0.1397268460295E+01 -0.1067515065265E+01  0.0000000000000E+00
 0.1437122473674E+01 -0.9615813579356E+00  0.0000000000000E+00
 0.1472550192790E+01 -0.8540374635575E+00  0.0000000000000E+00
 0.1503921191834E+01 -0.7452053660319E+00  0.0000000000000E+00
 0.1531272791928E+01 -0.6352674537278E+00  0.0000000000000E+00
 0.1554282707934E+01 -0.5243175810539E+00  0.0000000000000E+00
 0.1572939532713E+01 -0.4125357711880E+00  0.0000000000000E+00
 0.1586992041247E+01 -0.3000702206755E+00  0.0000000000000E+00
 0.1595657715515E+01 -0.1870553455593E+00  0.0000000000000E+00
 0.1598364296089E+01 -0.7373369663145E-01  0.0000000000000E+00
 0.1596500729092E+01  0.3959193770200E-01  0.0000000000000E+00
 0.1576465556935E+01  0.1508144807688E+00  0.0000000000000E+00
 0.1525097605457E+01  0.2508838534040E+00  0.0000000000000E+00
-0.6299559715430E+00 -0.4448788635045E+00  0.0000000000000E+00
-0.6714480734955E+00 -0.4002935756204E+00  0.0000000000000E+00
-0.7129401754481E+00 -0.3557082877364E+00  0.0000000000000E+00
-0.7544322774006E+00 -0.3111229998524E+00  0.0000000000000E+00
-0.7959243793531E+00 -0.2665377119684E+00  0.0000000000000E+00
-0.8374164813057E+00 -0.2219524240844E+00  0.0000000000000E+00
-0.8789085832582E+00 -0.1773671362004E+00  0.0000000000000E+00
-0.9204006852108E+00 -0.1327818483163E+00  0.0000000000000E+00
-0.9618927871633E+00 -0.8819656043232E-01  0.0000000000000E+00
-0.1003384889116E+01 -0.4361127254831E-01  0.0000000000000E+00
-0.1044876991068E+01  0.9740153357094E-03  0.0000000000000E+00
-0.1086369093021E+01  0.4555930321973E-01  0.0000000000000E+00
-0.1127861194973E+01  0.9014459110374E-01  0.0000000000000E+00
-0.1169353296926E+01  0.1347298789878E+00  0.0000000000000E+00
-0.1210845398879E+01  0.1793151668718E+00  0.0000000000000E+00
-0.1252337500831E+01  0.2239004547558E+00  0.0000000000000E+00
-0.1293829602784E+01  0.2684857426398E+00  0.0000000000000E+00
-0.1335321704736E+01  0.3130710305238E+00  0.0000000000000E+00
-0.1376813806689E+01  0.3576563184078E+00  0.0000000000000E+00
-0.5974622415961E+00 -0.4366441451899E+00  0.0000000000000E+00
-0.6368419585758E+00 -0.3913664749580E+00  0.0000000000000E+00
-0.6762216755556E+00 -0.3460888047261E+00  0.0000000000000E+00
-0.7156013925353E+00 -0.3008111344942E+00  0.0000000000000E+00
-0.7549811095150E+00 -0.2555334642623E+00  0.0000000000000E+00
-0.7943608264947E+00 -0.2102557940303E+00  0.0000000000000E+00
-0.8337405434744E+00 -0.1649781237984E+00  0.0000000000000E+00
-0.8731202604541E+00 -0.1197004535665E+00  0.0000000000000E+00
-0.9124999774338E+00 -0.7442278333461E-01  0.0000000000000E+00
-0.9518796944135E+00 -0.2914511310269E-01  0.0000000000000E+00
-0.9912594113932E+00  0.1613255712922E-01  0.0000000000000E+00
-0.1030639128373E+01  0.6141022736114E-01  0.0000000000000E+00
-0.1070018845353E+01  0.1066878975930E+00  0.0000000000000E+00
-0.1109398562332E+01  0.1519655678250E+00  0.0000000000000E+00
-0.1148778279312E+01  0.1972432380569E+00  0.0000000000000E+00
-0.1188157996292E+01  0.2425209082888E+00  0.0000000000000E+00
-0.1227537713272E+01  0.2877985785207E+00  0.0000000000000E+00
-0.1266917430251E+01  0.3330762487526E+00  0.0000000000000E+00
-0.1306297147231E+01  0.3783539189845E+00  0.0000000000000E+00
-0.5647851637629E+00 -0.4291779471807E+00  0.0000000000000E+00
-0.6019607642087E+00 -0.3835976335802E+00  0.0000000000000E+00
-0.6391363646544E+00 -0.3380173199797E+00  0.0000000000000E+00
-0.6763119651002E+00 -0.2924370063792E+00  0.0000000000000E+00
-0.7134875655459E+00 -0.2468566927788E+00  0.0000000000000E+00
-0.7506631659917E+00 -0.2012763791783E+00  0.0000000000000E+00
-0.7878387664375E+00 -0.1556960655778E+00  0.0000000000000E+00
-0.8250143668832E+00 -0.1101157519773E+00  0.0000000000000E+00
-0.8621899673290E+00 -0.6453543837680E-01  0.0000000000000E+00
-0.8993655677748E+00 -0.1895512477632E-01  0.0000000000000E+00
-0.9365411682205E+00  0.2662518882417E-01  0.0000000000000E+00
-0.9737167686663E+00  0.7220550242466E-01  0.0000000000000E+00
-0.1010892369112E+01  0.1177858160251E+00  0.0000000000000E+00
-0.1048067969558E+01  0.1633661296256E+00  0.0000000000000E+00
-0.1085243570004E+01  0.2089464432261E+00  0.0000000000000E+00
-0.1122419170449E+01  0.2545267568266E+00  0.0000000000000E+00
-0.1159594770895E+01  0.3001070704271E+00  0.0000000000000E+00
-0.1196770371341E+01  0.3456873840276E+00  0.0000000000000E+00
-0.1233945971787E+01  0.3912676976281E+00  0.0000000000000E+00
-0.5319747863850E+00 -0.4224941396796E+00  0.0000000000000E+00
-0.5669005038771E+00 -0.3770102860137E+00  0.0000000000000E+00
-0.6018262213692E+00 -0.3315264323477E+00  0.0000000000000E+00
-0.6367519388613E+00 -0.2860425786818E+00  0.0000000000000E+00
-0.6716776563534E+00 -0.2405587250158E+00  0.0000000000000E+00
-0.7066033738455E+00 -0.1950748713499E+00  0.0000000000000E+00
-0.7415290913375E+00 -0.1495910176839E+00  0.0000000000000E+00
-0.7764548088296E+00 -0.1041071640180E+00  0.0000000000000E+00
-0.8113805263217E+00 -0.5862331035200E-01  0.0000000000000E+00
-0.8463062438138E+00 -0.1313945668605E-01  0.0000000000000E+00
-0.8812319613059E+00  0.3234439697990E-01  0.0000000000000E+00
-0.9161576787979E+00  0.7782825064585E-01  0.0000000000000E+00
-0.9510833962900E+00  0.1233121043118E+00  0.0000000000000E+00
-0.9860091137821E+00  0.1687959579778E+00  0.0000000000000E+00
-0.1020934831274E+01  0.2142798116437E+00  0.0000000000000E+00
-0.1055860548766E+01  0.2597636653097E+00  0.0000000000000E+00
-0.1090786266258E+01  0.3052475189756E+00  0.0000000000000E+00
-0.1125711983750E+01  0.3507313726416E+00  0.0000000000000E+00
-0.1160637701243E+01  0.3962152263075E+00  0.0000000000000E+00
-0.4990802666255E+00 -0.4165840327232E+00  0.0000000000000E+00
-0.5317553219230E+00 -0.3715827348048E+00  0.0000000000000E+00
-0.5644303772205E+00 -0.3265814368864E+00  0.0000000000000E+00
-0.5971054325179E+00 -0.2815801389680E+00  0.0000000000000E+00
-0.6297804878154E+00 -0.2365788410496E+00  0.0000000000000E+00
-0.6624555431129E+00 -0.1915775431312E+00  0.0000000000000E+00
-0.6951305984104E+00 -0.1465762452128E+00  0.0000000000000E+00
-0.7278056537078E+00 -0.1015749472944E+00  0.0000000000000E+00
-0.7604807090053E+00 -0.5657364937598E-01  0.0000000000000E+00
-0.7931557643028E+00 -0.1157235145757E-01  0.0000000000000E+00
-0.8258308196003E+00  0.3342894646083E-01  0.0000000000000E+00
-0.8585058748978E+00  0.7843024437923E-01  0.0000000000000E+00
-0.8911809301952E+00  0.1234315422976E+00  0.0000000000000E+00
-0.9238559854927E+00  0.1684328402160E+00  0.0000000000000E+00
-0.9565310407902E+00  0.2134341381344E+00  0.0000000000000E+00
-0.9892060960877E+00  0.2584354360528E+00  0.0000000000000E+00
-0.1021881151385E+01  0.3034367339713E+00  0.0000000000000E+00
-0.1054556206683E+01  0.3484380318897E+00  0.0000000000000E+00
-0.1087231261980E+01  0.3934393298081E+00  0.0000000000000E+00
-0.4661358894282E+00 -0.4113546120754E+00  0.0000000000000E+00
-0.4965895947067E+00 -0.3671248415236E+00  0.0000000000000E+00
-0.5270432999851E+00 -0.3228950709718E+00  0.0000000000000E+00
-0.5574970052636E+00 -0.2786653004201E+00  0.0000000000000E+00
-0.5879507105420E+00 -0.2344355298683E+00  0.0000000000000E+00
-0.6184044158205E+00 -0.1902057593165E+00  0.0000000000000E+00
-0.6488581210989E+00 -0.1459759887648E+00  0.0000000000000E+00
-0.6793118263774E+00 -0.1017462182130E+00  0.0000000000000E+00
-0.7097655316558E+00 -0.5751644766124E-01  0.0000000000000E+00
-0.7402192369343E+00 -0.1328667710947E-01  0.0000000000000E+00
-0.7706729422127E+00  0.3094309344230E-01  0.0000000000000E+00
-0.8011266474912E+00  0.7517286399407E-01  0.0000000000000E+00
-0.8315803527696E+00  0.1194026345458E+00  0.0000000000000E+00
-0.8620340580481E+00  0.1636324050976E+00  0.0000000000000E+00
-0.8924877633265E+00  0.2078621756494E+00  0.0000000000000E+00
-0.9229414686050E+00  0.2520919462011E+00  0.0000000000000E+00
-0.9533951738834E+00  0.2963217167529E+00  0.0000000000000E+00
-0.9838488791619E+00  0.3405514873047E+00  0.0000000000000E+00
-0.1014302584440E+01  0.3847812578564E+00  0.0000000000000E+00
-0.4331566793992E+00 -0.4067328540872E+00  0.0000000000000E+00
-0.4614288249452E+00 -0.3634866017615E+00  0.0000000000000E+00
-0.4897009704912E+00 -0.3202403494357E+00  0.0000000000000E+00
-0.5179731160371E+00 -0.2769940971100E+00  0.0000000000000E+00
-0.5462452615831E+00 -0.2337478447842E+00  0.0000000000000E+00
-0.5745174071291E+00 -0.1905015924585E+00  0.0000000000000E+00
-0.6027895526750E+00 -0.1472553401327E+00  0.0000000000000E+00
-0.6310616982210E+00 -0.1040090878070E+00  0.0000000000000E+00
-0.6593338437670E+00 -0.6076283548125E-01  0.0000000000000E+00
-0.6876059893129E+00 -0.1751658315551E-01  0.0000000000000E+00
-0.7158781348589E+00  0.2572966917024E-01  0.0000000000000E+00
-0.7441502804048E+00  0.6897592149599E-01  0.0000000000000E+00
-0.7724224259508E+00  0.1122221738217E+00  0.0000000000000E+00
-0.8006945714968E+00  0.1554684261475E+00  0.0000000000000E+00
-0.8289667170427E+00  0.1987146784732E+00  0.0000000000000E+00
-0.8572388625887E+00  0.2419609307990E+00  0.0000000000000E+00
-0.8855110081347E+00  0.2852071831247E+00  0.0000000000000E+00
-0.9137831536806E+00  0.3284534354505E+00  0.0000000000000E+00
-0.9420552992266E+00  0.3716996877762E+00  0.0000000000000E+00
-0.4001452660089E+00 -0.4026538267990E+00  0.0000000000000E+00
-0.4262736922835E+00 -0.3605344241827E+00  0.0000000000000E+00
-0.4524021185581E+00 -0.3184150215665E+00  0.0000000000000E+00
-0.4785305448327E+00 -0.2762956189502E+00  0.0000000000000E+00
-0.5046589711073E+00 -0.2341762163340E+00  0.0000000000000E+00
-0.5307873973819E+00 -0.1920568137177E+00  0.0000000000000E+00
-0.5569158236565E+00 -0.1499374111015E+00  0.0000000000000E+00
-0.5830442499311E+00 -0.1078180084852E+00  0.0000000000000E+00
-0.6091726762057E+00 -0.6569860586900E-01  0.0000000000000E+00
-0.6353011024803E+00 -0.2357920325275E-01  0.0000000000000E+00
-0.6614295287548E+00  0.1854019936350E-01  0.0000000000000E+00
-0.6875579550294E+00  0.6065960197974E-01  0.0000000000000E+00
-0.7136863813040E+00  0.1027790045960E+00  0.0000000000000E+00
-0.7398148075786E+00  0.1448984072122E+00  0.0000000000000E+00
-0.7659432338532E+00  0.1870178098285E+00  0.0000000000000E+00
-0.7920716601278E+00  0.2291372124447E+00  0.0000000000000E+00
-0.8182000864024E+00  0.2712566150610E+00  0.0000000000000E+00
-0.8443285126770E+00  0.3133760176772E+00  0.0000000000000E+00
-0.8704569389516E+00  0.3554954202935E+00  0.0000000000000E+00
-0.3670941282270E+00 -0.3990479117006E+00  0.0000000000000E+00
-0.3911043433766E+00 -0.3581255480735E+00  0.0000000000000E+00
-0.4151145585263E+00 -0.3172031844463E+00  0.0000000000000E+00
-0.4391247736759E+00 -0.2762808208192E+00  0.0000000000000E+00
-0.4631349888256E+00 -0.2353584571920E+00  0.0000000000000E+00
-0.4871452039753E+00 -0.1944360935648E+00  0.0000000000000E+00
-0.5111554191249E+00 -0.1535137299377E+00  0.0000000000000E+00
-0.5351656342746E+00 -0.1125913663105E+00  0.0000000000000E+00
-0.5591758494243E+00 -0.7166900268338E-01  0.0000000000000E+00
-0.5831860645739E+00 -0.3074663905622E-01  0.0000000000000E+00
-0.6071962797236E+00  0.1017572457094E-01  0.0000000000000E+00
-0.6312064948732E+00  0.5109808819809E-01  0.0000000000000E+00
-0.6552167100229E+00  0.9202045182525E-01  0.0000000000000E+00
-0.6792269251726E+00  0.1329428154524E+00  0.0000000000000E+00
-0.7032371403222E+00  0.1738651790796E+00  0.0000000000000E+00
-0.7272473554719E+00  0.2147875427067E+00  0.0000000000000E+00
-0.7512575706216E+00  0.2557099063339E+00  0.0000000000000E+00
-0.7752677857712E+00  0.2966322699610E+00  0.0000000000000E+00
-0.7992780009209E+00  0.3375546335882E+00  0.0000000000000E+00
-0.3339899907783E+00 -0.3958444358955E+00  0.0000000000000E+00
-0.3558893495395E+00 -0.3561153468993E+00  0.0000000000000E+00
-0.3777887083006E+00 -0.3163862579032E+00  0.0000000000000E+00
-0.3996880670618E+00 -0.2766571689070E+00  0.0000000000000E+00
-0.4215874258230E+00 -0.2369280799109E+00  0.0000000000000E+00
-0.4434867845841E+00 -0.1971989909147E+00  0.0000000000000E+00
-0.4653861433453E+00 -0.1574699019185E+00  0.0000000000000E+00
-0.4872855021064E+00 -0.1177408129224E+00  0.0000000000000E+00
-0.5091848608676E+00 -0.7801172392620E-01  0.0000000000000E+00
-0.5310842196287E+00 -0.3828263493003E-01  0.0000000000000E+00
-0.5529835783899E+00  0.1446454066132E-02  0.0000000000000E+00
-0.5748829371510E+00  0.4117554306230E-01  0.0000000000000E+00
-0.5967822959122E+00  0.8090463205846E-01  0.0000000000000E+00
-0.6186816546733E+00  0.1206337210546E+00  0.0000000000000E+00
-0.6405810134345E+00  0.1603628100508E+00  0.0000000000000E+00
-0.6624803721956E+00  0.2000918990470E+00  0.0000000000000E+00
-0.6843797309568E+00  0.2398209880431E+00  0.0000000000000E+00
-0.7062790897179E+00  0.2795500770393E+00  0.0000000000000E+00
-0.7281784484791E+00  0.3192791660354E+00  0.0000000000000E+00
-0.3008163579508E+00 -0.3929631427710E+00  0.0000000000000E+00
-0.3205906658870E+00 -0.3543402622484E+00  0.0000000000000E+00
-0.3403649738232E+00 -0.3157173817257E+00  0.0000000000000E+00
-0.3601392817595E+00 -0.2770945012030E+00  0.0000000000000E+00
-0.3799135896957E+00 -0.2384716206803E+00  0.0000000000000E+00
-0.3996878976320E+00 -0.1998487401576E+00  0.0000000000000E+00
-0.4194622055682E+00 -0.1612258596350E+00  0.0000000000000E+00
-0.4392365135044E+00 -0.1226029791123E+00  0.0000000000000E+00
-0.4590108214407E+00 -0.8398009858960E-01  0.0000000000000E+00
-0.4787851293769E+00 -0.4535721806692E-01  0.0000000000000E+00
-0.4985594373131E+00 -0.6734337544235E-02  0.0000000000000E+00
-0.5183337452494E+00  0.3188854297845E-01  0.0000000000000E+00
-0.5381080531856E+00  0.7051142350113E-01  0.0000000000000E+00
-0.5578823611218E+00  0.1091343040238E+00  0.0000000000000E+00
-0.5776566690581E+00  0.1477571845465E+00  0.0000000000000E+00
-0.5974309769943E+00  0.1863800650692E+00  0.0000000000000E+00
-0.6172052849306E+00  0.2250029455919E+00  0.0000000000000E+00
-0.6369795928668E+00  0.2636258261145E+00  0.0000000000000E+00
-0.6567539008030E+00  0.3022487066372E+00  0.0000000000000E+00
-0.2675697753590E+00 -0.3903634585794E+00  0.0000000000000E+00
-0.2851962171292E+00 -0.3527163567611E+00  0.0000000000000E+00
-0.3028226588994E+00 -0.3150692549428E+00  0.0000000000000E+00
-0.3204491006696E+00 -0.2774221531245E+00  0.0000000000000E+00
-0.3380755424398E+00 -0.2397750513062E+00  0.0000000000000E+00
-0.3557019842100E+00 -0.2021279494878E+00  0.0000000000000E+00
-0.3733284259802E+00 -0.1644808476695E+00  0.0000000000000E+00
-0.3909548677504E+00 -0.1268337458512E+00  0.0000000000000E+00
-0.4085813095206E+00 -0.8918664403293E-01  0.0000000000000E+00
-0.4262077512908E+00 -0.5153954221463E-01  0.0000000000000E+00
-0.4438341930610E+00 -0.1389244039632E-01  0.0000000000000E+00
-0.4614606348312E+00  0.2375466142199E-01  0.0000000000000E+00
-0.4790870766014E+00  0.6140176324029E-01  0.0000000000000E+00
-0.4967135183717E+00  0.9904886505860E-01  0.0000000000000E+00
-0.5143399601419E+00  0.1366959668769E+00  0.0000000000000E+00
-0.5319664019121E+00  0.1743430686952E+00  0.0000000000000E+00
-0.5495928436823E+00  0.2119901705135E+00  0.0000000000000E+00
-0.5672192854525E+00  0.2496372723318E+00  0.0000000000000E+00
-0.5848457272227E+00  0.2872843741501E+00  0.0000000000000E+00
-0.2342578969919E+00 -0.3880438745316E+00  0.0000000000000E+00
-0.2497160431228E+00 -0.3512380881835E+00  0.0000000000000E+00
-0.2651741892537E+00 -0.3144323018355E+00  0.0000000000000E+00
-0.2806323353846E+00 -0.2776265154874E+00  0.0000000000000E+00
-0.2960904815155E+00 -0.2408207291393E+00  0.0000000000000E+00
-0.3115486276463E+00 -0.2040149427913E+00  0.0000000000000E+00
-0.3270067737772E+00 -0.1672091564432E+00  0.0000000000000E+00
-0.3424649199081E+00 -0.1304033700952E+00  0.0000000000000E+00
-0.3579230660390E+00 -0.9359758374711E-01  0.0000000000000E+00
-0.3733812121699E+00 -0.5679179739905E-01  0.0000000000000E+00
-0.3888393583008E+00 -0.1998601105098E-01  0.0000000000000E+00
-0.4042975044317E+00  0.1681977529708E-01  0.0000000000000E+00
-0.4197556505626E+00  0.5362556164514E-01  0.0000000000000E+00
-0.4352137966935E+00  0.9043134799320E-01  0.0000000000000E+00
-0.4506719428244E+00  0.1272371343413E+00  0.0000000000000E+00
-0.4661300889553E+00  0.1640429206893E+00  0.0000000000000E+00
-0.4815882350862E+00  0.2008487070374E+00  0.0000000000000E+00
-0.4970463812171E+00  0.2376544933854E+00  0.0000000000000E+00
-0.5125045273480E+00  0.2744602797335E+00  0.0000000000000E+00
-0.2008905517879E+00 -0.3860140358384E+00  0.0000000000000E+00
-0.2141644306440E+00 -0.3499224952607E+00  0.0000000000000E+00
-0.2274383095000E+00 -0.3138309546829E+00  0.0000000000000E+00
-0.2407121883561E+00 -0.2777394141052E+00  0.0000000000000E+00
-0.2539860672121E+00 -0.2416478735275E+00  0.0000000000000E+00
-0.2672599460682E+00 -0.2055563329498E+00  0.0000000000000E+00
-0.2805338249242E+00 -0.1694647923721E+00  0.0000000000000E+00
-0.2938077037803E+00 -0.1333732517943E+00  0.0000000000000E+00
-0.3070815826363E+00 -0.9728171121661E-01  0.0000000000000E+00
-0.3203554614924E+00 -0.6119017063889E-01  0.0000000000000E+00
-0.3336293403484E+00 -0.2509863006116E-01  0.0000000000000E+00
-0.3469032192045E+00  0.1099291051656E-01  0.0000000000000E+00
-0.3601770980605E+00  0.4708445109428E-01  0.0000000000000E+00
-0.3734509769166E+00  0.8317599167200E-01  0.0000000000000E+00
-0.3867248557726E+00  0.1192675322497E+00  0.0000000000000E+00
-0.3999987346287E+00  0.1553590728274E+00  0.0000000000000E+00
-0.4132726134847E+00  0.1914506134052E+00  0.0000000000000E+00
-0.4265464923408E+00  0.2275421539829E+00  0.0000000000000E+00
-0.4398203711968E+00  0.2636336945606E+00  0.0000000000000E+00
-0.1674771093533E+00 -0.3842843495524E+00  0.0000000000000E+00
-0.1785546413643E+00 -0.3487884211107E+00  0.0000000000000E+00
-0.1896321733754E+00 -0.3132924926690E+00  0.0000000000000E+00
-0.2007097053864E+00 -0.2777965642273E+00  0.0000000000000E+00
-0.2117872373974E+00 -0.2423006357856E+00  0.0000000000000E+00
-0.2228647694084E+00 -0.2068047073439E+00  0.0000000000000E+00
-0.2339423014194E+00 -0.1713087789022E+00  0.0000000000000E+00
-0.2450198334305E+00 -0.1358128504605E+00  0.0000000000000E+00
-0.2560973654415E+00 -0.1003169220188E+00  0.0000000000000E+00
-0.2671748974525E+00 -0.6482099357711E-01  0.0000000000000E+00
-0.2782524294635E+00 -0.2932506513542E-01  0.0000000000000E+00
-0.2893299614745E+00  0.6170863306275E-02  0.0000000000000E+00
-0.3004074934856E+00  0.4166679174797E-01  0.0000000000000E+00
-0.3114850254966E+00  0.7716272018966E-01  0.0000000000000E+00
-0.3225625575076E+00  0.1126586486314E+00  0.0000000000000E+00
-0.3336400895186E+00  0.1481545770730E+00  0.0000000000000E+00
-0.3447176215296E+00  0.1836505055147E+00  0.0000000000000E+00
-0.3557951535407E+00  0.2191464339564E+00  0.0000000000000E+00
-0.3668726855517E+00  0.2546423623981E+00  0.0000000000000E+00
-0.1340261091775E+00 -0.3828631734966E+00  0.0000000000000E+00
-0.1428982089424E+00 -0.3478509012348E+00  0.0000000000000E+00
-0.1517703087072E+00 -0.3128386289729E+00  0.0000000000000E+00
-0.1606424084721E+00 -0.2778263567111E+00  0.0000000000000E+00
-0.1695145082369E+00 -0.2428140844493E+00  0.0000000000000E+00
-0.1783866080018E+00 -0.2078018121875E+00  0.0000000000000E+00
-0.1872587077666E+00 -0.1727895399257E+00  0.0000000000000E+00
-0.1961308075315E+00 -0.1377772676639E+00  0.0000000000000E+00
-0.2050029072963E+00 -0.1027649954021E+00  0.0000000000000E+00
-0.2138750070612E+00 -0.6775272314032E-01  0.0000000000000E+00
-0.2227471068260E+00 -0.3274045087851E-01  0.0000000000000E+00
-0.2316192065909E+00  0.2271821383293E-02  0.0000000000000E+00
-0.2404913063557E+00  0.3728409364510E-01  0.0000000000000E+00
-0.2493634061206E+00  0.7229636590690E-01  0.0000000000000E+00
-0.2582355058855E+00  0.1073086381687E+00  0.0000000000000E+00
-0.2671076056503E+00  0.1423209104305E+00  0.0000000000000E+00
-0.2759797054152E+00  0.1773331826923E+00  0.0000000000000E+00
-0.2848518051800E+00  0.2123454549541E+00  0.0000000000000E+00
-0.2937239049449E+00  0.2473577272159E+00  0.0000000000000E+00
-0.1005454709900E+00 -0.3817562677518E+00  0.0000000000000E+00
-0.1072053602565E+00 -0.3471200718438E+00  0.0000000000000E+00
-0.1138652495230E+00 -0.3124838759358E+00  0.0000000000000E+00
-0.1205251387895E+00 -0.2778476800278E+00  0.0000000000000E+00
-0.1271850280560E+00 -0.2432114841198E+00  0.0000000000000E+00
-0.1338449173226E+00 -0.2085752882118E+00  0.0000000000000E+00
-0.1405048065891E+00 -0.1739390923039E+00  0.0000000000000E+00
-0.1471646958556E+00 -0.1393028963959E+00  0.0000000000000E+00
-0.1538245851221E+00 -0.1046667004879E+00  0.0000000000000E+00
-0.1604844743886E+00 -0.7003050457989E-01  0.0000000000000E+00
-0.1671443636552E+00 -0.3539430867190E-01  0.0000000000000E+00
-0.1738042529217E+00 -0.7581127639062E-03  0.0000000000000E+00
-0.1804641421882E+00  0.3387808314408E-01  0.0000000000000E+00
-0.1871240314547E+00  0.6851427905207E-01  0.0000000000000E+00
-0.1937839207212E+00  0.1031504749601E+00  0.0000000000000E+00
-0.2004438099878E+00  0.1377866708681E+00  0.0000000000000E+00
-0.2071036992543E+00  0.1724228667760E+00  0.0000000000000E+00
-0.2137635885208E+00  0.2070590626840E+00  0.0000000000000E+00
-0.2204234777873E+00  0.2416952585920E+00  0.0000000000000E+00
-0.6704270627605E-01 -0.3809667730720E+00  0.0000000000000E+00
-0.7148545141935E-01 -0.3466011322144E+00  0.0000000000000E+00
-0.7592819656265E-01 -0.3122354913569E+00  0.0000000000000E+00
-0.8037094170595E-01 -0.2778698504993E+00  0.0000000000000E+00
-0.8481368684925E-01 -0.2435042096418E+00  0.0000000000000E+00
-0.8925643199255E-01 -0.2091385687842E+00  0.0000000000000E+00
-0.9369917713585E-01 -0.1747729279267E+00  0.0000000000000E+00
-0.9814192227916E-01 -0.1404072870692E+00  0.0000000000000E+00
-0.1025846674225E+00 -0.1060416462116E+00  0.0000000000000E+00
-0.1070274125658E+00 -0.7167600535407E-01  0.0000000000000E+00
-0.1114701577091E+00 -0.3731036449652E-01  0.0000000000000E+00
-0.1159129028524E+00 -0.2944723638973E-02  0.0000000000000E+00
-0.1203556479957E+00  0.3142091721857E-01  0.0000000000000E+00
-0.1247983931390E+00  0.6578655807612E-01  0.0000000000000E+00
-0.1292411382823E+00  0.1001521989337E+00  0.0000000000000E+00
-0.1336838834256E+00  0.1345178397912E+00  0.0000000000000E+00
-0.1381266285689E+00  0.1688834806488E+00  0.0000000000000E+00
-0.1425693737122E+00  0.2032491215063E+00  0.0000000000000E+00
-0.1470121188555E+00  0.2376147623638E+00  0.0000000000000E+00
-0.3352511022345E-01 -0.3804951770728E+00  0.0000000000000E+00
-0.3574736497451E-01 -0.3462942814123E+00  0.0000000000000E+00
-0.3796961972557E-01 -0.3120933857518E+00  0.0000000000000E+00
-0.4019187447663E-01 -0.2778924900913E+00  0.0000000000000E+00
-0.4241412922770E-01 -0.2436915944307E+00  0.0000000000000E+00
-0.4463638397876E-01 -0.2094906987702E+00  0.0000000000000E+00
-0.4685863872982E-01 -0.1752898031097E+00  0.0000000000000E+00
-0.4908089348088E-01 -0.1410889074492E+00  0.0000000000000E+00
-0.5130314823194E-01 -0.1068880117887E+00  0.0000000000000E+00
-0.5352540298300E-01 -0.7268711612818E-01  0.0000000000000E+00
-0.5574765773406E-01 -0.3848622046767E-01  0.0000000000000E+00
-0.5796991248513E-01 -0.4285324807157E-02  0.0000000000000E+00
-0.6019216723619E-01  0.2991557085336E-01  0.0000000000000E+00
-0.6241442198725E-01  0.6411646651387E-01  0.0000000000000E+00
-0.6463667673831E-01  0.9831736217438E-01  0.0000000000000E+00
-0.6685893148937E-01  0.1325182578349E+00  0.0000000000000E+00
-0.6908118624043E-01  0.1667191534954E+00  0.0000000000000E+00
-0.7130344099149E-01  0.2009200491559E+00  0.0000000000000E+00
-0.7352569574256E-01  0.2351209448164E+00  0.0000000000000E+00
-0.9110398056435E-10 -0.3803390679715E+00  0.0000000000000E+00
-0.1822079030259E-09 -0.3461942289011E+00  0.0000000000000E+00
-0.2733118393653E-09 -0.3120493898306E+00  0.0000000000000E+00
-0.3644157479491E-09 -0.2779045507602E+00  0.0000000000000E+00
-0.4555194483661E-09 -0.2437597116898E+00  0.0000000000000E+00
-0.5466233153165E-09 -0.2096148726194E+00  0.0000000000000E+00
-0.6377270712447E-09 -0.1754700335490E+00  0.0000000000000E+00
-0.7288309381951E-09 -0.1413251944785E+00  0.0000000000000E+00
-0.8199346941232E-09 -0.1071803554081E+00  0.0000000000000E+00
-0.9110384500514E-09 -0.7303551633770E-01  0.0000000000000E+00
-0.1002142205980E-08 -0.3889067726728E-01  0.0000000000000E+00
-0.1093246128441E-08 -0.4745838196866E-02  0.0000000000000E+00
-0.1184349828858E-08  0.2939900087355E-01  0.0000000000000E+00
-0.1275453529275E-08  0.6354383994397E-01  0.0000000000000E+00
-0.1366557229692E-08  0.9768867901439E-01  0.0000000000000E+00
-0.1457661263176E-08  0.1318335180848E+00  0.0000000000000E+00
-0.1548765074615E-08  0.1659783571552E+00  0.0000000000000E+00
-0.1639868886055E-08  0.2001231962256E+00  0.0000000000000E+00
-0.1730972586471E-08  0.2342680352961E+00  0.0000000000000E+00
 0.3352511004131E-01 -0.3804951770771E+00  0.0000000000000E+00
 0.3574736461023E-01 -0.3462942814209E+00  0.0000000000000E+00
 0.3796961917915E-01 -0.3120933857647E+00  0.0000000000000E+00
 0.4019187374807E-01 -0.2778924901086E+00  0.0000000000000E+00
 0.4241412831699E-01 -0.2436915944524E+00  0.0000000000000E+00
 0.4463638288591E-01 -0.2094906987962E+00  0.0000000000000E+00
 0.4685863745483E-01 -0.1752898031400E+00  0.0000000000000E+00
 0.4908089202375E-01 -0.1410889074838E+00  0.0000000000000E+00
 0.5130314659267E-01 -0.1068880118276E+00  0.0000000000000E+00
 0.5352540116158E-01 -0.7268711617143E-01  0.0000000000000E+00
 0.5574765573050E-01 -0.3848622051524E-01  0.0000000000000E+00
 0.5796991029942E-01 -0.4285324859053E-02  0.0000000000000E+00
 0.6019216486834E-01  0.2991557079713E-01  0.0000000000000E+00
 0.6241441943726E-01  0.6411646645332E-01  0.0000000000000E+00
 0.6463667400618E-01  0.9831736210951E-01  0.0000000000000E+00
 0.6685892857510E-01  0.1325182577657E+00  0.0000000000000E+00
 0.6908118314402E-01  0.1667191534219E+00  0.0000000000000E+00
 0.7130343771294E-01  0.2009200490781E+00  0.0000000000000E+00
 0.7352569228186E-01  0.2351209447343E+00  0.0000000000000E+00
 0.6704270609402E-01 -0.3809667730804E+00  0.0000000000000E+00
 0.7148545105530E-01 -0.3466011322313E+00  0.0000000000000E+00
 0.7592819601657E-01 -0.3122354913822E+00  0.0000000000000E+00
 0.8037094097785E-01 -0.2778698505331E+00  0.0000000000000E+00
 0.8481368593912E-01 -0.2435042096840E+00  0.0000000000000E+00
 0.8925643090040E-01 -0.2091385688349E+00  0.0000000000000E+00
 0.9369917586167E-01 -0.1747729279858E+00  0.0000000000000E+00
 0.9814192082294E-01 -0.1404072871367E+00  0.0000000000000E+00
 0.1025846657842E+00 -0.1060416462876E+00  0.0000000000000E+00
 0.1070274107455E+00 -0.7167600543851E-01  0.0000000000000E+00
 0.1114701557068E+00 -0.3731036458941E-01  0.0000000000000E+00
 0.1159129006680E+00 -0.2944723740310E-02  0.0000000000000E+00
 0.1203556456293E+00  0.3142091710879E-01  0.0000000000000E+00
 0.1247983905906E+00  0.6578655795789E-01  0.0000000000000E+00
 0.1292411355519E+00  0.1001521988070E+00  0.0000000000000E+00
 0.1336838805131E+00  0.1345178396561E+00  0.0000000000000E+00
 0.1381266254744E+00  0.1688834805052E+00  0.0000000000000E+00
 0.1425693704357E+00  0.2032491213543E+00  0.0000000000000E+00
 0.1470121153970E+00  0.2376147622034E+00  0.0000000000000E+00
 0.1005454708081E+00 -0.3817562677643E+00  0.0000000000000E+00
 0.1072053598928E+00 -0.3471200718688E+00  0.0000000000000E+00
 0.1138652489775E+00 -0.3124838759733E+00  0.0000000000000E+00
 0.1205251380622E+00 -0.2778476800778E+00  0.0000000000000E+00
 0.1271850271469E+00 -0.2432114841823E+00  0.0000000000000E+00
 0.1338449162316E+00 -0.2085752882868E+00  0.0000000000000E+00
 0.1405048053163E+00 -0.1739390923913E+00  0.0000000000000E+00
 0.1471646944009E+00 -0.1393028964959E+00  0.0000000000000E+00
 0.1538245834856E+00 -0.1046667006004E+00  0.0000000000000E+00
 0.1604844725703E+00 -0.7003050470487E-01  0.0000000000000E+00
 0.1671443616550E+00 -0.3539430880938E-01  0.0000000000000E+00
 0.1738042507397E+00 -0.7581129138917E-03  0.0000000000000E+00
 0.1804641398244E+00  0.3387808298160E-01  0.0000000000000E+00
 0.1871240289091E+00  0.6851427887709E-01  0.0000000000000E+00
 0.1937839179937E+00  0.1031504747726E+00  0.0000000000000E+00
 0.2004438070784E+00  0.1377866706681E+00  0.0000000000000E+00
 0.2071036961631E+00  0.1724228665636E+00  0.0000000000000E+00
 0.2137635852478E+00  0.2070590624591E+00  0.0000000000000E+00
 0.2204234743325E+00  0.2416952583545E+00  0.0000000000000E+00
 0.1340261089962E+00 -0.3828631735131E+00  0.0000000000000E+00
 0.1428982085797E+00 -0.3478509012679E+00  0.0000000000000E+00
 0.1517703081632E+00 -0.3128386290227E+00  0.0000000000000E+00
 0.1606424077467E+00 -0.2778263567775E+00  0.0000000000000E+00
 0.1695145073302E+00 -0.2428140845323E+00  0.0000000000000E+00
 0.1783866069137E+00 -0.2078018122871E+00  0.0000000000000E+00
 0.1872587064972E+00 -0.1727895400418E+00  0.0000000000000E+00
 0.1961308060807E+00 -0.1377772677966E+00  0.0000000000000E+00
 0.2050029056642E+00 -0.1027649955514E+00  0.0000000000000E+00
 0.2138750052477E+00 -0.6775272330619E-01  0.0000000000000E+00
 0.2227471048312E+00 -0.3274045106098E-01  0.0000000000000E+00
 0.2316192044147E+00  0.2271821184241E-02  0.0000000000000E+00
 0.2404913039982E+00  0.3728409342946E-01  0.0000000000000E+00
 0.2493634035817E+00  0.7229636567468E-01  0.0000000000000E+00
 0.2582355031652E+00  0.1073086379199E+00  0.0000000000000E+00
 0.2671076027487E+00  0.1423209101651E+00  0.0000000000000E+00
 0.2759797023322E+00  0.1773331824103E+00  0.0000000000000E+00
 0.2848518019157E+00  0.2123454546555E+00  0.0000000000000E+00
 0.2937239014992E+00  0.2473577269008E+00  0.0000000000000E+00
 0.1674771091722E+00 -0.3842843495732E+00  0.0000000000000E+00
 0.1785546410022E+00 -0.3487884211524E+00  0.0000000000000E+00
 0.1896321728322E+00 -0.3132924927316E+00  0.0000000000000E+00
 0.2007097046621E+00 -0.2777965643107E+00  0.0000000000000E+00
 0.2117872364921E+00 -0.2423006358899E+00  0.0000000000000E+00
 0.2228647683220E+00 -0.2068047074691E+00  0.0000000000000E+00
 0.2339423001520E+00 -0.1713087790483E+00  0.0000000000000E+00
 0.2450198319819E+00 -0.1358128506275E+00  0.0000000000000E+00
 0.2560973638119E+00 -0.1003169222066E+00  0.0000000000000E+00
 0.2671748956418E+00 -0.6482099378580E-01  0.0000000000000E+00
 0.2782524274718E+00 -0.2932506536498E-01  0.0000000000000E+00
 0.2893299593017E+00  0.6170863055847E-02  0.0000000000000E+00
 0.3004074911317E+00  0.4166679147667E-01  0.0000000000000E+00
 0.3114850229616E+00  0.7716271989750E-01  0.0000000000000E+00
 0.3225625547916E+00  0.1126586483183E+00  0.0000000000000E+00
 0.3336400866215E+00  0.1481545767391E+00  0.0000000000000E+00
 0.3447176184515E+00  0.1836505051600E+00  0.0000000000000E+00
 0.3557951502814E+00  0.2191464335808E+00  0.0000000000000E+00
 0.3668726821114E+00  0.2546423620016E+00  0.0000000000000E+00
 0.2008905516076E+00 -0.3860140358638E+00  0.0000000000000E+00
 0.2141644302833E+00 -0.3499224953114E+00  0.0000000000000E+00
 0.2274383089590E+00 -0.3138309547591E+00  0.0000000000000E+00
 0.2407121876348E+00 -0.2777394142068E+00  0.0000000000000E+00
 0.2539860663105E+00 -0.2416478736544E+00  0.0000000000000E+00
 0.2672599449862E+00 -0.2055563331021E+00  0.0000000000000E+00
 0.2805338236619E+00 -0.1694647925498E+00  0.0000000000000E+00
 0.2938077023376E+00 -0.1333732519975E+00  0.0000000000000E+00
 0.3070815810133E+00 -0.9728171144512E-01  0.0000000000000E+00
 0.3203554596891E+00 -0.6119017089279E-01  0.0000000000000E+00
 0.3336293383648E+00 -0.2509863034046E-01  0.0000000000000E+00
 0.3469032170405E+00  0.1099291021187E-01  0.0000000000000E+00
 0.3601770957162E+00  0.4708445076420E-01  0.0000000000000E+00
 0.3734509743919E+00  0.8317599131653E-01  0.0000000000000E+00
 0.3867248530677E+00  0.1192675318689E+00  0.0000000000000E+00
 0.3999987317434E+00  0.1553590724212E+00  0.0000000000000E+00
 0.4132726104191E+00  0.1914506129735E+00  0.0000000000000E+00
 0.4265464890948E+00  0.2275421535259E+00  0.0000000000000E+00
 0.4398203677705E+00  0.2636336940782E+00  0.0000000000000E+00
 0.2342578968120E+00 -0.3880438745619E+00  0.0000000000000E+00
 0.2497160427631E+00 -0.3512380882442E+00  0.0000000000000E+00
 0.2651741887142E+00 -0.3144323019265E+00  0.0000000000000E+00
 0.2806323346653E+00 -0.2776265156088E+00  0.0000000000000E+00
 0.2960904806164E+00 -0.2408207292911E+00  0.0000000000000E+00
 0.3115486265674E+00 -0.2040149429734E+00  0.0000000000000E+00
 0.3270067725185E+00 -0.1672091566557E+00  0.0000000000000E+00
 0.3424649184696E+00 -0.1304033703380E+00  0.0000000000000E+00
 0.3579230644207E+00 -0.9359758402027E-01  0.0000000000000E+00
 0.3733812103718E+00 -0.5679179770256E-01  0.0000000000000E+00
 0.3888393563228E+00 -0.1998601138485E-01  0.0000000000000E+00
 0.4042975022739E+00  0.1681977493285E-01  0.0000000000000E+00
 0.4197556482250E+00  0.5362556125056E-01  0.0000000000000E+00
 0.4352137941761E+00  0.9043134756827E-01  0.0000000000000E+00
 0.4506719401272E+00  0.1272371338860E+00  0.0000000000000E+00
 0.4661300860782E+00  0.1640429202037E+00  0.0000000000000E+00
 0.4815882320293E+00  0.2008487065214E+00  0.0000000000000E+00
 0.4970463779804E+00  0.2376544928391E+00  0.0000000000000E+00
 0.5125045239315E+00  0.2744602791568E+00  0.0000000000000E+00
 0.2675697751805E+00 -0.3903634586150E+00  0.0000000000000E+00
 0.2851962167721E+00 -0.3527163568323E+00  0.0000000000000E+00
 0.3028226583638E+00 -0.3150692550497E+00  0.0000000000000E+00
 0.3204490999555E+00 -0.2774221532670E+00  0.0000000000000E+00
 0.3380755415472E+00 -0.2397750514843E+00  0.0000000000000E+00
 0.3557019831389E+00 -0.2021279497017E+00  0.0000000000000E+00
 0.3733284247305E+00 -0.1644808479190E+00  0.0000000000000E+00
 0.3909548663222E+00 -0.1268337461363E+00  0.0000000000000E+00
 0.4085813079139E+00 -0.8918664435365E-01  0.0000000000000E+00
 0.4262077495056E+00 -0.5153954257098E-01  0.0000000000000E+00
 0.4438341910973E+00 -0.1389244078831E-01  0.0000000000000E+00
 0.4614606326889E+00  0.2375466099436E-01  0.0000000000000E+00
 0.4790870742806E+00  0.6140176277703E-01  0.0000000000000E+00
 0.4967135158723E+00  0.9904886455970E-01  0.0000000000000E+00
 0.5143399574640E+00  0.1366959663424E+00  0.0000000000000E+00
 0.5319663990557E+00  0.1743430681250E+00  0.0000000000000E+00
 0.5495928406473E+00  0.2119901699077E+00  0.0000000000000E+00
 0.5672192822390E+00  0.2496372716904E+00  0.0000000000000E+00
 0.5848457238307E+00  0.2872843734730E+00  0.0000000000000E+00
 0.3008163577734E+00 -0.3929631428122E+00  0.0000000000000E+00
 0.3205906655322E+00 -0.3543402623307E+00  0.0000000000000E+00
 0.3403649732910E+00 -0.3157173818492E+00  0.0000000000000E+00
 0.3601392810498E+00 -0.2770945013677E+00  0.0000000000000E+00
 0.3799135888087E+00 -0.2384716208863E+00  0.0000000000000E+00
 0.3996878965675E+00 -0.1998487404048E+00  0.0000000000000E+00
 0.4194622043263E+00 -0.1612258599233E+00  0.0000000000000E+00
 0.4392365120851E+00 -0.1226029794418E+00  0.0000000000000E+00
 0.4590108198439E+00 -0.8398009896027E-01  0.0000000000000E+00
 0.4787851276028E+00 -0.4535721847878E-01  0.0000000000000E+00
 0.4985594353616E+00 -0.6734337997284E-02  0.0000000000000E+00
 0.5183337431204E+00  0.3188854248421E-01  0.0000000000000E+00
 0.5381080508792E+00  0.7051142296571E-01  0.0000000000000E+00
 0.5578823586381E+00  0.1091343034472E+00  0.0000000000000E+00
 0.5776566663969E+00  0.1477571839287E+00  0.0000000000000E+00
 0.5974309741557E+00  0.1863800644102E+00  0.0000000000000E+00
 0.6172052819145E+00  0.2250029448917E+00  0.0000000000000E+00
 0.6369795896734E+00  0.2636258253732E+00  0.0000000000000E+00
 0.6567538974322E+00  0.3022487058547E+00  0.0000000000000E+00
 0.3339899906020E+00 -0.3958444359414E+00  0.0000000000000E+00
 0.3558893491867E+00 -0.3561153469911E+00  0.0000000000000E+00
 0.3777887077715E+00 -0.3163862580408E+00  0.0000000000000E+00
 0.3996880663563E+00 -0.2766571690905E+00  0.0000000000000E+00
 0.4215874249411E+00 -0.2369280801402E+00  0.0000000000000E+00
 0.4434867835259E+00 -0.1971989911899E+00  0.0000000000000E+00
 0.4653861421107E+00 -0.1574699022396E+00  0.0000000000000E+00
 0.4872855006954E+00 -0.1177408132894E+00  0.0000000000000E+00
 0.5091848592802E+00 -0.7801172433906E-01  0.0000000000000E+00
 0.5310842178650E+00 -0.3828263538877E-01  0.0000000000000E+00
 0.5529835764498E+00  0.1446453561517E-02  0.0000000000000E+00
 0.5748829350346E+00  0.4117554251181E-01  0.0000000000000E+00
 0.5967822936193E+00  0.8090463146210E-01  0.0000000000000E+00
 0.6186816522041E+00  0.1206337204124E+00  0.0000000000000E+00
 0.6405810107889E+00  0.1603628093627E+00  0.0000000000000E+00
 0.6624803693737E+00  0.2000918983130E+00  0.0000000000000E+00
 0.6843797279585E+00  0.2398209872633E+00  0.0000000000000E+00
 0.7062790865433E+00  0.2795500762135E+00  0.0000000000000E+00
 0.7281784451280E+00  0.3192791651638E+00  0.0000000000000E+00
 0.3670941280509E+00 -0.3990479117477E+00  0.0000000000000E+00
 0.3911043430246E+00 -0.3581255481675E+00  0.0000000000000E+00
 0.4151145579982E+00 -0.3172031845874E+00  0.0000000000000E+00
 0.4391247729718E+00 -0.2762808210073E+00  0.0000000000000E+00
 0.4631349879455E+00 -0.2353584574271E+00  0.0000000000000E+00
 0.4871452029191E+00 -0.1944360938470E+00  0.0000000000000E+00
 0.5111554178927E+00 -0.1535137302669E+00  0.0000000000000E+00
 0.5351656328664E+00 -0.1125913666867E+00  0.0000000000000E+00
 0.5591758478400E+00 -0.7166900310660E-01  0.0000000000000E+00
 0.5831860628136E+00 -0.3074663952647E-01  0.0000000000000E+00
 0.6071962777873E+00  0.1017572405366E-01  0.0000000000000E+00
 0.6312064927609E+00  0.5109808763380E-01  0.0000000000000E+00
 0.6552167077345E+00  0.9202045121393E-01  0.0000000000000E+00
 0.6792269227082E+00  0.1329428147941E+00  0.0000000000000E+00
 0.7032371376818E+00  0.1738651783742E+00  0.0000000000000E+00
 0.7272473526555E+00  0.2147875419543E+00  0.0000000000000E+00
 0.7512575676291E+00  0.2557099055345E+00  0.0000000000000E+00
 0.7752677826027E+00  0.2966322691146E+00  0.0000000000000E+00
 0.7992779975764E+00  0.3375546326947E+00  0.0000000000000E+00
 0.4001452658322E+00 -0.4026538268434E+00  0.0000000000000E+00
 0.4262736919301E+00 -0.3605344242716E+00  0.0000000000000E+00
 0.4524021180279E+00 -0.3184150216998E+00  0.0000000000000E+00
 0.4785305441258E+00 -0.2762956191280E+00  0.0000000000000E+00
 0.5046589702237E+00 -0.2341762165562E+00  0.0000000000000E+00
 0.5307873963216E+00 -0.1920568139844E+00  0.0000000000000E+00
 0.5569158224194E+00 -0.1499374114126E+00  0.0000000000000E+00
 0.5830442485173E+00 -0.1078180088408E+00  0.0000000000000E+00
 0.6091726746152E+00 -0.6569860626900E-01  0.0000000000000E+00
 0.6353011007131E+00 -0.2357920369720E-01  0.0000000000000E+00
 0.6614295268109E+00  0.1854019887460E-01  0.0000000000000E+00
 0.6875579529088E+00  0.6065960144641E-01  0.0000000000000E+00
 0.7136863790067E+00  0.1027790040182E+00  0.0000000000000E+00
 0.7398148051046E+00  0.1448984065900E+00  0.0000000000000E+00
 0.7659432312024E+00  0.1870178091618E+00  0.0000000000000E+00
 0.7920716573003E+00  0.2291372117336E+00  0.0000000000000E+00
 0.8182000833982E+00  0.2712566143054E+00  0.0000000000000E+00
 0.8443285094961E+00  0.3133760168772E+00  0.0000000000000E+00
 0.8704569355939E+00  0.3554954194490E+00  0.0000000000000E+00
 0.4331566792210E+00 -0.4067328541253E+00  0.0000000000000E+00
 0.4614288245888E+00 -0.3634866018376E+00  0.0000000000000E+00
 0.4897009699565E+00 -0.3202403495500E+00  0.0000000000000E+00
 0.5179731153242E+00 -0.2769940972623E+00  0.0000000000000E+00
 0.5462452606920E+00 -0.2337478449747E+00  0.0000000000000E+00
 0.5745174060597E+00 -0.1905015926870E+00  0.0000000000000E+00
 0.6027895514275E+00 -0.1472553403993E+00  0.0000000000000E+00
 0.6310616967952E+00 -0.1040090881117E+00  0.0000000000000E+00
 0.6593338421629E+00 -0.6076283582400E-01  0.0000000000000E+00
 0.6876059875307E+00 -0.1751658353633E-01  0.0000000000000E+00
 0.7158781328984E+00  0.2572966875133E-01  0.0000000000000E+00
 0.7441502782662E+00  0.6897592103899E-01  0.0000000000000E+00
 0.7724224236339E+00  0.1122221733267E+00  0.0000000000000E+00
 0.8006945690017E+00  0.1554684256143E+00  0.0000000000000E+00
 0.8289667143694E+00  0.1987146779020E+00  0.0000000000000E+00
 0.8572388597371E+00  0.2419609301896E+00  0.0000000000000E+00
 0.8855110051049E+00  0.2852071824773E+00  0.0000000000000E+00
 0.9137831504726E+00  0.3284534347650E+00  0.0000000000000E+00
 0.9420552958404E+00  0.3716996870526E+00  0.0000000000000E+00
 0.4661358892480E+00 -0.4113546121035E+00  0.0000000000000E+00
 0.4965895943463E+00 -0.3671248415798E+00  0.0000000000000E+00
 0.5270432994446E+00 -0.3228950710562E+00  0.0000000000000E+00
 0.5574970045428E+00 -0.2786653005325E+00  0.0000000000000E+00
 0.5879507096411E+00 -0.2344355300089E+00  0.0000000000000E+00
 0.6184044147394E+00 -0.1902057594852E+00  0.0000000000000E+00
 0.6488581198376E+00 -0.1459759889615E+00  0.0000000000000E+00
 0.6793118249359E+00 -0.1017462184379E+00  0.0000000000000E+00
 0.7097655300342E+00 -0.5751644791423E-01  0.0000000000000E+00
 0.7402192351324E+00 -0.1328667739058E-01  0.0000000000000E+00
 0.7706729402307E+00  0.3094309313308E-01  0.0000000000000E+00
 0.8011266453290E+00  0.7517286365674E-01  0.0000000000000E+00
 0.8315803504272E+00  0.1194026341804E+00  0.0000000000000E+00
 0.8620340555255E+00  0.1636324047041E+00  0.0000000000000E+00
 0.8924877606238E+00  0.2078621752277E+00  0.0000000000000E+00
 0.9229414657220E+00  0.2520919457514E+00  0.0000000000000E+00
 0.9533951708203E+00  0.2963217162750E+00  0.0000000000000E+00
 0.9838488759186E+00  0.3405514867987E+00  0.0000000000000E+00
 0.1014302581017E+01  0.3847812573223E+00  0.0000000000000E+00
 0.4990802664438E+00 -0.4165840327379E+00  0.0000000000000E+00
 0.5317553215595E+00 -0.3715827348342E+00  0.0000000000000E+00
 0.5644303766752E+00 -0.3265814369305E+00  0.0000000000000E+00
 0.5971054317909E+00 -0.2815801390268E+00  0.0000000000000E+00
 0.6297804869067E+00 -0.2365788411232E+00  0.0000000000000E+00
 0.6624555420224E+00 -0.1915775432195E+00  0.0000000000000E+00
 0.6951305971381E+00 -0.1465762453158E+00  0.0000000000000E+00
 0.7278056522539E+00 -0.1015749474121E+00  0.0000000000000E+00
 0.7604807073696E+00 -0.5657364950839E-01  0.0000000000000E+00
 0.7931557624853E+00 -0.1157235160470E-01  0.0000000000000E+00
 0.8258308176011E+00  0.3342894629900E-01  0.0000000000000E+00
 0.8585058727168E+00  0.7843024420269E-01  0.0000000000000E+00
 0.8911809278325E+00  0.1234315421064E+00  0.0000000000000E+00
 0.9238559829483E+00  0.1684328400101E+00  0.0000000000000E+00
 0.9565310380640E+00  0.2134341379138E+00  0.0000000000000E+00
 0.9892060931797E+00  0.2584354358175E+00  0.0000000000000E+00
 0.1021881148295E+01  0.3034367337211E+00  0.0000000000000E+00
 0.1054556203411E+01  0.3484380316248E+00  0.0000000000000E+00
 0.1087231258527E+01  0.3934393295285E+00  0.0000000000000E+00
 0.5319747862026E+00 -0.4224941396770E+00  0.0000000000000E+00
 0.5669005035122E+00 -0.3770102860085E+00  0.0000000000000E+00
 0.6018262208219E+00 -0.3315264323400E+00  0.0000000000000E+00
 0.6367519381315E+00 -0.2860425786714E+00  0.0000000000000E+00
 0.6716776554412E+00 -0.2405587250029E+00  0.0000000000000E+00
 0.7066033727508E+00 -0.1950748713344E+00  0.0000000000000E+00
 0.7415290900604E+00 -0.1495910176658E+00  0.0000000000000E+00
 0.7764548073701E+00 -0.1041071639973E+00  0.0000000000000E+00
 0.8113805246797E+00 -0.5862331032874E-01  0.0000000000000E+00
 0.8463062419894E+00 -0.1313945666021E-01  0.0000000000000E+00
 0.8812319592990E+00  0.3234439700833E-01  0.0000000000000E+00
 0.9161576766086E+00  0.7782825067687E-01  0.0000000000000E+00
 0.9510833939183E+00  0.1233121043454E+00  0.0000000000000E+00
 0.9860091112279E+00  0.1687959580139E+00  0.0000000000000E+00
 0.1020934828538E+01  0.2142798116825E+00  0.0000000000000E+00
 0.1055860545847E+01  0.2597636653510E+00  0.0000000000000E+00
 0.1090786263157E+01  0.3052475190195E+00  0.0000000000000E+00
 0.1125711980466E+01  0.3507313726881E+00  0.0000000000000E+00
 0.1160637697776E+01  0.3962152263566E+00  0.0000000000000E+00
 0.5647851635818E+00 -0.4291779471573E+00  0.0000000000000E+00
 0.6019607638464E+00 -0.3835976335334E+00  0.0000000000000E+00
 0.6391363641111E+00 -0.3380173199096E+00  0.0000000000000E+00
 0.6763119643757E+00 -0.2924370062857E+00  0.0000000000000E+00
 0.7134875646404E+00 -0.2468566926618E+00  0.0000000000000E+00
 0.7506631649050E+00 -0.2012763790380E+00  0.0000000000000E+00
 0.7878387651697E+00 -0.1556960654141E+00  0.0000000000000E+00
 0.8250143654344E+00 -0.1101157517902E+00  0.0000000000000E+00
 0.8621899656990E+00 -0.6453543816633E-01  0.0000000000000E+00
 0.8993655659637E+00 -0.1895512454246E-01  0.0000000000000E+00
 0.9365411662283E+00  0.2662518908141E-01  0.0000000000000E+00
 0.9737167664930E+00  0.7220550270529E-01  0.0000000000000E+00
 0.1010892366758E+01  0.1177858163292E+00  0.0000000000000E+00
 0.1048067967022E+01  0.1633661299530E+00  0.0000000000000E+00
 0.1085243567287E+01  0.2089464435769E+00  0.0000000000000E+00
 0.1122419167552E+01  0.2545267572008E+00  0.0000000000000E+00
 0.1159594767816E+01  0.3001070708247E+00  0.0000000000000E+00
 0.1196770368081E+01  0.3456873844485E+00  0.0000000000000E+00
 0.1233945968346E+01  0.3912676980724E+00  0.0000000000000E+00
 0.5974622414189E+00 -0.4366441451446E+00  0.0000000000000E+00
 0.6368419582214E+00 -0.3913664748674E+00  0.0000000000000E+00
 0.6762216750239E+00 -0.3460888045901E+00  0.0000000000000E+00
 0.7156013918264E+00 -0.3008111343129E+00  0.0000000000000E+00
 0.7549811086289E+00 -0.2555334640357E+00  0.0000000000000E+00
 0.7943608254314E+00 -0.2102557937584E+00  0.0000000000000E+00
 0.8337405422339E+00 -0.1649781234812E+00  0.0000000000000E+00
 0.8731202590364E+00 -0.1197004532040E+00  0.0000000000000E+00
 0.9124999758389E+00 -0.7442278292673E-01  0.0000000000000E+00
 0.9518796926414E+00 -0.2914511264950E-01  0.0000000000000E+00
 0.9912594094439E+00  0.1613255762773E-01  0.0000000000000E+00
 0.1030639126246E+01  0.6141022790496E-01  0.0000000000000E+00
 0.1070018843049E+01  0.1066878981822E+00  0.0000000000000E+00
 0.1109398559851E+01  0.1519655684594E+00  0.0000000000000E+00
 0.1148778276654E+01  0.1972432387367E+00  0.0000000000000E+00
 0.1188157993456E+01  0.2425209090139E+00  0.0000000000000E+00
 0.1227537710259E+01  0.2877985792911E+00  0.0000000000000E+00
 0.1266917427061E+01  0.3330762495684E+00  0.0000000000000E+00
 0.1306297143864E+01  0.3783539198456E+00  0.0000000000000E+00
 0.6299559713731E+00 -0.4448788634348E+00  0.0000000000000E+00
 0.6714480731557E+00 -0.4002935754811E+00  0.0000000000000E+00
 0.7129401749383E+00 -0.3557082875275E+00  0.0000000000000E+00
 0.7544322767209E+00 -0.3111229995738E+00  0.0000000000000E+00
 0.7959243785035E+00 -0.2665377116201E+00  0.0000000000000E+00
 0.8374164802861E+00 -0.2219524236665E+00  0.0000000000000E+00
 0.8789085820687E+00 -0.1773671357128E+00  0.0000000000000E+00
 0.9204006838513E+00 -0.1327818477591E+00  0.0000000000000E+00
 0.9618927856339E+00 -0.8819655980548E-01  0.0000000000000E+00
 0.1003384887417E+01 -0.4361127185182E-01  0.0000000000000E+00
 0.1044876989199E+01  0.9740161018481E-03  0.0000000000000E+00
 0.1086369090982E+01  0.4555930405551E-01  0.0000000000000E+00
 0.1127861192764E+01  0.9014459200918E-01  0.0000000000000E+00
 0.1169353294547E+01  0.1347298799628E+00  0.0000000000000E+00
 0.1210845396330E+01  0.1793151679165E+00  0.0000000000000E+00
 0.1252337498112E+01  0.2239004558702E+00  0.0000000000000E+00
 0.1293829599895E+01  0.2684857438238E+00  0.0000000000000E+00
 0.1335321701677E+01  0.3130710317775E+00  0.0000000000000E+00
 0.1376813803460E+01  0.3576563197312E+00  0.0000000000000E+00
</DataArray>
</Points>
<Cells>
<DataArray type="Int64" Name="connectivity" format="ascii">
0 11 438 243
243 438 439 244
244 439 440 245
245 440 441 246
246 441 442 247
247 442 443 248
248 443 444 249
249 444 445 250
250 445 446 251
251 446 447 252
252 447 448 253
253 448 449 254
254 449 450 255
255 450 451 256
256 451 452 257
257 452 453 258
258 453 454 259
259 454 455 260
260 455 456 261
261 456 457 262
262 457 458 263
263 458 459 264
264 459 460 265
265 460 461 266
266 461 462 267
267 462 463 268
268 463 464 269
269 464 465 270
270 465 466 271
271 466 467 272
272 467 468 273
273 468 469 274
274 469 470 275
275 470 471 276
276 471 472 277
277 472 473 278
278 473 474 279
279 474 475 280
280 475 476 281
281 476 477 282
282 477 89 3
11 12 478 438
438 478 479 439
439 479 480 440
440 480 481 441
441 481 482 442
442 482 483 443
443 483 484 444
444 484 485 445
445 485 486 446
446 486 487 447
447 487 488 448
448 488 489 449
449 489 490 450
450 490 491 451
451 491 492 452
452 492 493 453
453 493 494 454
454 494 495 455
455 495 496 456
456 496 497 457
457 497 498 458
458 498 499 459
459 499 500 460
460 500 501 461
461 501 502 462
462 502 503 463
463 503 504 464
464 504 505 465
465 505 506 466
466 506 507 467
467 507 508 468
468 508 509 469
469 509 510 470
470 510 511 471
471 511 512 472
472 512 513 473
473 513 514 474
474 514 515 475
475 515 516 476
476 516 517 477
477 517 90 89
12 13 518 478
478 518 519 479
479 519 520 480
480 520 521 481
481 521 522 482
482 522 523 483
483 523 524 484
484 524 525 485
485 525 526 486
486 526 527 487
487 527 528 488
488 528 529 489
489 529 530 490
490 530 531 491
491 531 532 492
492 532 533 493
493 533 534 494
494 534 535 495
495 535 536 496
496 536 537 497
497 537 538 498
498 538 539 499
499 539 540 500
500 540 541 501
501 541 542 502
502 542 543 503
503 543 544 504
504 544 545 505
505 545 546 506
506 546 547 507
507 547 548 508
508 548 549 509
509 549 550 510
510 550 551 511
511 551 552 512
512 552 553 513
513 553 554 514
514 554 555 515
515 555 556 516
516 556 557 517
517 557 91 90
13 14 558 518
518 558 559 519
519 559 560 520
520 560 561 521
521 561 562 522
522 562 563 523
523 563 564 524
524 564 565 525
525 565 566 526
526 566 567 527
527 567 568 528
528 568 569 529
529 569 570 530
530 570 571 531
531 571 572 532
532 572 573 533
533 573 574 534
534 574 575 535
535 575 576 536
536 576 577 537
537 577 578 538
538 578 579 539
539 579 580 540
540 580 581 541
541 581 582 542
542 582 583 543
543 583 584 544
544 584 585 545
545 585 586 546
546 586 587 547
547 587 588 548
548 588 589 549
549 589 590 550
550 590 591 551
551 591 592 552
552 592 593 553
553 593 594 554
554 594 595 555
555 595 596 556
556 596 597 557
557 597 92 91
14 15 598 558
558 598 599 559
559 599 600 560
560 600 601 561
561 601 602 562
562 602 603 563
563 603 604 564
564 604 605 565
565 605 606 566
566 606 607 567
567 607 608 568
568 608 609 569
569 609 610 570
570 610 611 571
571 611 612 572
572 612 613 573
573 613 614 574
574 614 615 575
575 615 616 576
576 616 617 577
577 617 618 578
578 618 619 579
579 619 620 580
580 620 621 581
581 621 622 582
582 622 623 583
583 623 624 584
584 624 625 585
585 625 626 586
586 626 627 587
587 627 628 588
588 628 629 589
589 629 630 590
590 630 631 591
591 631 632 592
592 632 633 593
593 633 634 594
594 634 635 595
595 635 636 596
596 636 637 597
597 637 93 92
15 16 638 598
598 638 639 599
599 639 640 600
600 640 641 601
601 641 642 602
602 642 643 603
603 643 644 604
604 644 645 605
605 645 646 606
606 646 647 607
607 647 648 608
608 648 649 609
609 649 650 610
610 650 651 611
611 651 652 612
612 652 653 613
613 653 654 614
614 654 655 615
615 655 656 616
616 656 657 617
617 657 658 618
618 658 659 619
619 659 660 620
620 660 661 621
621 661 662 622
622 662 663 623
623 663 664 624
624 664 665 625
625 665 666 626
626 666 667 627
627 667 668 628
628 668 669 629
629 669 670 630
630 670 671 631
631 671 672 632
632 672 673 633
633 673 674 634
634 674 675 635
635 675 676 636
636 676 677 637
637 677 94 93
16 17 678 638
638 678 679 639
639 679 680 640
640 680 681 641
641 681 682 642
642 682 683 643
643 683 684 644
644 684 685 645
645 685 686 646
646 686 687 647
647 687 688 648
648 688 689 649
649 689 690 650
650 690 691 651
651 691 692 652
652 692 693 653
653 693 694 654
654 694 695 655
655 695 696 656
656 696 697 657
657 697 698 658
658 698 699 659
659 699 700 660
660 700 701 661
661 701 702 662
662 702 703 663
663 703 704 664
664 704 705 665
665 705 706 666
666 706 707 667
667 707 708 668
668 708 709 669
669 709 710 670
670 710 711 671
671 711 712 672
672 712 713 673
673 713 714 674
674 714 715 675
675 715 716 676
676 716 717 677
677 717 95 94
17 18 718 678
678 718 719 679
679 719 720 680
680 720 721 681
681 721 722 682
682 722 723 683
683 723 724 684
684 724 725 685
685 725 726 686
686 726 727 687
687 727 728 688
688 728 729 689
689 729 730 690
690 730 731 691
691 731 732 692
692 732 733 693
693 733 734 694
694 734 735 695
695 735 736 696
696 736 737 697
697 737 738 698
698 738 739 699
699 739 740 700
700 740 741 701
701 741 742 702
702 742 743 703
703 743 744 704
704 744 745 705
705 745 746 706
706 746 747 707
707 747 748 708
708 748 749 709
709 749 750 710
710 750 751 711
711 751 752 712
712 752 753 713
713 753 754 714
714 754 755 715
715 755 756 716
716 756 757 717
717 757 96 95
18 19 758 718
718 758 759 719
719 759 760 720
720 760 761 721
721 761 762 722
722 762 763 723
723 763 764 724
724 764 765 725
725 765 766 726
726 766 767 727
727 767 768 728
728 768 769 729
729 769 770 730
730 770 771 731
731 771 772 732
732 772 773 733
733 773 774 734
734 774 775 735
735 775 776 736
736 776 777 737
737 777 778 738
738 778 779 739
739 779 780 740
740 780 781 741
741 781 782 742
742 782 783 743
743 783 784 744
744 784 785 745
745 785 786 746
746 786 787 747
747 787 788 748
748 788 789 749
749 789 790 750
750 790 791 751
751 791 792 752
752 792 793 753
753 793 794 754
754 794 795 755
755 795 796 756
756 796 797 757
757 797 97 96
19 20 798 758
758 798 799 759
759 799 800 760
760 800 801 761
761 801 802 762
762 802 803 763
763 803 804 764
764 804 805 765
765 805 806 766
766 806 807 767
767 807 808 768
768 808 809 769
769 809 810 770
770 810 811 771
771 811 812 772
772 812 813 773
773 813 814 774
774 814 815 775
775 815 816 776
776 816 817 777
777 817 818 778
778 818 819 779
779 819 820 780
780 820 821 781
781 821 822 782
782 822 823 783
783 823 824 784
784 824 825 785
785 825 826 786
786 826 827 787
787 827 828 788
788 828 829 789
789 829 830 790
790 830 831 791
791 831 832 792
792 832 833 793
793 833 834 794
794 834 835 795
795 835 836 796
796 836 837 797
797 837 98 97
20 21 838 798
798 838 839 799
799 839 840 800
800 840 841 801
801 841 842 802
802 842 843 803
803 843 844 804
804 844 845 805
805 845 846 806
806 846 847 807
807 847 848 808
808 848 849 809
809 849 850 810
810 850 851 811
811 851 852 812
812 852 853 813
813 853 854 814
814 854 855 815
815 855 856 816
816 856 857 817
817 857 858 818
818 858 859 819
819 859 860 820
820 860 861 821
821 861 862 822
822 862 863 823
823 863 864 824
824 864 865 825
825 865 866 826
826 866 867 827
827 867 868 828
828 868 869 829
829 869 870 830
830 870 871 831
831 871 872 832
832 872 873 833
833 873 874 834
834 874 875 835
835 875 876 836
836 876 877 837
837 877 99 98
21 22 878 838
838 878 879 839
839 879 880 840
840 880 881 841
841 881 882 842
842 882 883 843
843 883 884 844
844 884 885 845
845 885 886 846
846 886 887 847
847 887 888 848
848 888 889 849
849 889 890 850
850 890 891 851
851 891 892 852
852 892 893 853
853 893 894 854
854 894 895 855
855 895 896 856
856 896 897 857
857 897 898 858
858 898 899 859
859 899 900 860
860 900 901 861
861 901 902 862
862 902 903 863
863 903 904 864
864 904 905 865
865 905 906 866
866 906 907 867
867 907 908 868
868 908 909 869
869 909 910 870
870 910 911 871
871 911 912 872
872 912 913 873
873 913 914 874
874 914 915 875
875 915 916 876
876 916 917 877
877 917 100 99
22 23 918 878
878 918 919 879
879 919 920 880
880 920 921 881
881 921 922 882
882 922 923 883
883 923 924 884
884 924 925 885
885 925 926 886
886 926 927 887
887 927 928 888
888 928 929 889
889 929 930 890
890 930 931 891
891 931 932 892
892 932 933 893
893 933 934 894
894 934 935 895
895 935 936 896
896 936 937 897
897 937 938 898
898 938 939 899
899 939 940 900
900 940 941 901
901 941 942 902
902 942 943 903
903 943 944 904
904 944 945 905
905 945 946 906
906 946 947 907
907 947 948 908
908 948 949 909
909 949 950 910
910 950 951 911
911 951 952 912
912 952 953 913
913 953 954 914
914 954 955 915
915 955 956 916
916 956 957 917
917 957 101 100
23 24 958 918
918 958 959 919
919 959 960 920
920 960 961 921
921 961 962 922
922 962 963 923
923 963 964 924
924 964 965 925
925 965 966 926
926 966 967 927
927 967 968 928
928 968 969 929
929 969 970 930
930 970 971 931
931 971 972 932
932 972 973 933
933 973 974 934
934 974 975 935
935 975 976 936
936 976 977 937
937 977 978 938
938 978 979 939
939 979 980 940
940 980 981 941
941 981 982 942
942 982 983 943
943 983 984 944
944 984 985 945
945 985 986 946
946 986 987 947
947 987 988 948
948 988 989 949
949 989 990 950
950 990 991 951
951 991 992 952
952 992 993 953
953 993 994 954
954 994 995 955
955 995 996 956
956 996 997 957
957 997 102 101
24 25 998 958
958 998 999 959
959 999 1000 960
960 1000 1001 961
961 1001 1002 962
962 1002 1003 963
963 1003 1004 964
964 1004 1005 965
965 1005 1006 966
966 1006 1007 967
967 1007 1008 968
968 1008 1009 969
969 1009 1010 970
970 1010 1011 971
971 1011 1012 972
972 1012 1013 973
973 1013 1014 974
974 1014 1015 975
975 1015 1016 976
976 1016 1017 977
977 1017 1018 978
978 1018 1019 979
979 1019 1020 980
980 1020 1021 981
981 1021 1022 982
982 1022 1023 983
983 1023 1024 984
984 1024 1025 985
985 1025 1026 986
986 1026 1027 987
987 1027 1028 988
988 1028 1029 989
989 1029 1030 990
990 1030 1031 991
991 1031 1032 992
992 1032 1033 993
993 1033 1034 994
994 1034 1035 995
995 1035 1036 996
996 1036 1037 997
997 1037 103 102
25 26 1038 998
998 1038 1039 999
999 1039 1040 1000
1000 1040 1041 1001
1001 1041 1042 1002
1002 1042 1043 1003
1003 1043 1044 1004
1004 1044 1045 1005
1005 1045 1046 1006
1006 1046 1047 1007
1007 1047 1048 1008
1008 1048 1049 1009
1009 1049 1050 1010
1010 1050 1051 1011
1011 1051 1052 1012
1012 1052 1053 1013
1013 1053 1054 1014
1014 1054 1055 1015
1015 1055 1056 1016
1016 1056 1057 1017
1017 1057 1058 1018
1018 1058 1059 1019
1019 1059 1060 1020
1020 1060 1061 1021
1021 1061 1062 1022
1022 1062 1063 1023
1023 1063 1064 1024
1024 1064 1065 1025
1025 1065 1066 1026
1026 1066 1067 1027
1027 1067 1068 1028
1028 1068 1069 1029
1029 1069 1070 1030
1030 1070 1071 1031
1031 1071 1072 1032
1032 1072 1073 1033
1033 1073 1074 1034
1034 1074 1075 1035
1035 1075 1076 1036
1036 1076 1077 1037
1037 1077 104 103
26 27 1078 1038
1038 1078 1079 1039
1039 1079 1080 1040
1040 1080 1081 1041
1041 1081 1082 1042
1042 1082 1083 1043
1043 1083 1084 1044
1044 1084 1085 1045
1045 1085 1086 1046
1046 1086 1087 1047
1047 1087 1088 1048
1048 1088 1089 1049
1049 1089 1090 1050
1050 1090 1091 1051
1051 1091 1092 1052
1052 1092 1093 1053
1053 1093 1094 1054
1054 1094 1095 1055
1055 1095 1096 1056
1056 1096 1097 1057
1057 1097 1098 1058
1058 1098 1099 1059
1059 1099 1100 1060
1060 1100 1101 1061
1061 1101 1102 1062
1062 1102 1103 1063
1063 1103 1104 1064
1064 1104 1105 1065
1065 1105 1106 1066
1066 1106 1107 1067
1067 1107 1108 1068
1068 1108 1109 1069
1069 1109 1110 1070
1070 1110 1111 1071
1071 1111 1112 1072
1072 1112 1113 1073
1073 1113 1114 1074
1074 1114 1115 1075
1075 1115 1116 1076
1076 1116 1117 1077
1077 1117 105 104
27 28 1118 1078
1078 1118 1119 1079
1079 1119 1120 1080
1080 1120 1121 1081
1081 1121 1122 1082
1082 1122 1123 1083
1083 1123 1124 1084
1084 1124 1125 1085
1085 1125 1126 1086
1086 1126 1127 1087
1087 1127 1128 1088
1088 1128 1129 1089
1089 1129 1130 1090
1090 1130 1131 1091
1091 1131 1132 1092
1092 1132 1133 1093
1093 1133 1134 1094
1094 1134 1135 1095
1095 1135 1136 1096
1096 1136 1137 1097
1097 1137 1138 1098
1098 1138 1139 1099
1099 1139 1140 1100
1100 1140 1141 1101
1101 1141 1142 1102
1102 1142 1143 1103
1103 1143 1144 1104
1104 1144 1145 1105
1105 1145 1146 1106
1106 1146 1147 1107
1107 1147 1148 1108
1108 1148 1149 1109
1109 1149 1150 1110
1110 1150 1151 1111
1111 1151 1152 1112
1112 1152 1153 1113
1113 1153 1154 1114
1114 1154 1155 1115
1115 1155 1156 1116
1116 1156 1157 1117
1117 1157 106 105
28 29 1158 1118
1118 1158 1159 1119
1119 1159 1160 1120
1120 1160 1161 1121
1121 1161 1162 1122
1122 1162 1163 1123
1123 1163 1164 1124
1124 1164 1165 1125
1125 1165 1166 1126
1126 1166 1167 1127
1127 1167 1168 1128
1128 1168 1169 1129
1129 1169 1170 1130
1130 1170 1171 1131
1131 1171 1172 1132
1132 1172 1173 1133
1133 1173 1174 1134
1134 1174 1175 1135
1135 1175 1176 1136
1136 1176 1177 1137
1137 1177 1178 1138
1138 1178 1179 1139
1139 1179 1180 1140
1140 1180 1181 1141
1141 1181 1182 1142
1142 1182 1183 1143
1143 1183 1184 1144
1144 1184 1185 1145
1145 1185 1186 1146
1146 1186 1187 1147
1147 1187 1188 1148
1148 1188 1189 1149
1149 1189 1190 1150
1150 1190 1191 1151
1151 1191 1192 1152
1152 1192 1193 1153
1153 1193 1194 1154
1154 1194 1195 1155
1155 1195 1196 1156
1156 1196 1197 1157
1157 1197 107 106
29 30 1198 1158
1158 1198 1199 1159
1159 1199 1200 1160
1160 1200 1201 1161
1161 1201 1202 1162
1162 1202 1203 1163
1163 1203 1204 1164
1164 1204 1205 1165
1165 1205 1206 1166
1166 1206 1207 1167
1167 1207 1208 1168
1168 1208 1209 1169
1169 1209 1210 1170
1170 1210 1211 1171
1171 1211 1212 1172
1172 1212 1213 1173
1173 1213 1214 1174
1174 1214 1215 1175
1175 1215 1216 1176
1176 1216 1217 1177
1177 1217 1218 1178
1178 1218 1219 1179
1179 1219 1220 1180
1180 1220 1221 1181
1181 1221 1222 1182
1182 1222 1223 1183
1183 1223 1224 1184
1184 1224 1225 1185
1185 1225 1226 1186
1186 1226 1227 1187
1187 1227 1228 1188
1188 1228 1229 1189
1189 1229 1230 1190
1190 1230 1231 1191
1191 1231 1232 1192
1192 1232 1233 1193
1193 1233 1234 1194
1194 1234 1235 1195
1195 1235 1236 1196
1196 1236 1237 1197
1197 1237 4 107
30 31 1238 1198
1198 1238 1239 1199
1199 1239 1240 1200
1200 1240 1241 1201
1201 1241 1242 1202
1202 1242 1243 1203
1203 1243 1244 1204
1204 1244 1245 1205
1205 1245 1246 1206
1206 1246 1247 1207
1207 1247 1248 1208
1208 1248 1249 1209
1209 1249 1250 1210
1210 1250 1251 1211
1211 1251 1252 1212
1212 1252 1253 1213
1213 1253 1254 1214
1214 1254 1255 1215
1215 1255 1256 1216
1216 1256 1257 1217
1217 1257 1258 1218
1218 1258 1259 1219
1219 1259 1260 1220
1220 1260 1261 1221
1221 1261 1262 1222
1222 1262 1263 1223
1223 1263 1264 1224
1224 1264 1265 1225
1225 1265 1266 1226
1226 1266 1267 1227
1227 1267 1268 1228
1228 1268 1269 1229
1229 1269 1270 1230
1230 1270 1271 1231
1231 1271 1272 1232
1232 1272 1273 1233
1233 1273 1274 1234
1234 1274 1275 1235
1235 1275 1276 1236
1236 1276 1277 1237
1237 1277 108 4
31 32 1278 1238
1238 1278 1279 1239
1239 1279 1280 1240
1240 1280 1281 1241
1241 1281 1282 1242
1242 1282 1283 1243
1243 1283 1284 1244
1244 1284 1285 1245
1245 1285 1286 1246
1246 1286 1287 1247
1247 1287 1288 1248
1248 1288 1289 1249
1249 1289 1290 1250
1250 1290 1291 1251
1251 1291 1292 1252
1252 1292 1293 1253
1253 1293 1294 1254
1254 1294 1295 1255
1255 1295 1296 1256
1256 1296 1297 1257
1257 1297 1298 1258
1258 1298 1299 1259
1259 1299 1300 1260
1260 1300 1301 1261
1261 1301 1302 1262
1262 1302 1303 1263
1263 1303 1304 1264
1264 1304 1305 1265
1265 1305 1306 1266
1266 1306 1307 1267
1267 1307 1308 1268
1268 1308 1309 1269
1269 1309 1310 1270
1270 1310 1311 1271
1271 1311 1312 1272
1272 1312 1313 1273
1273 1313 1314 1274
1274 1314 1315 1275
1275 1315 1316 1276
1276 1316 1317 1277
1277 1317 109 108
32 33 1318 1278
1278 1318 1319 1279
1279 1319 1320 1280
1280 1320 1321 1281
1281 1321 1322 1282
1282 1322 1323 1283
1283 1323 1324 1284
1284 1324 1325 1285
1285 1325 1326 1286
1286 1326 1327 1287
1287 1327 1328 1288
1288 1328 1329 1289
1289 1329 1330 1290
1290 1330 1331 1291
1291 1331 1332 1292
1292 1332 1333 1293
1293 1333 1334 1294
1294 1334 1335 1295
1295 1335 1336 1296
1296 1336 1337 1297
1297 1337 1338 1298
1298 1338 1339 1299
1299 1339 1340 1300
1300 1340 1341 1301
1301 1341 1342 1302
1302 1342 1343 1303
1303 1343 1344 1304
1304 1344 1345 1305
1305 1345 1346 1306
1306 1346 1347 1307
1307 1347 1348 1308
1308 1348 1349 1309
1309 1349 1350 1310
1310 1350 1351 1311
1311 1351 1352 1312
1312 1352 1353 1313
1313 1353 1354 1314
1314 1354 1355 1315
1315 1355 1356 1316
1316 1356 1357 1317
1317 1357 110 109
33 34 1358 1318
1318 1358 1359 1319
1319 1359 1360 1320
1320 1360 1361 1321
1321 1361 1362 1322
1322 1362 1363 1323
1323 1363 1364 1324
1324 1364 1365 1325
1325 1365 1366 1326
1326 1366 1367 1327
1327 1367 1368 1328
1328 1368 1369 1329
1329 1369 1370 1330
1330 1370 1371 1331
1331 1371 1372 1332
1332 1372 1373 1333
1333 1373 1374 1334
1334 1374 1375 1335
1335 1375 1376 1336
1336 1376 1377 1337
1337 1377 1378 1338
1338 1378 1379 1339
1339 1379 1380 1340
1340 1380 1381 1341
1341 1381 1382 1342
1342 1382 1383 1343
1343 1383 1384 1344
1344 1384 1385 1345
1345 1385 1386 1346
1346 1386 1387 1347
1347 1387 1388 1348
1348 1388 1389 1349
1349 1389 1390 1350
1350 1390 1391 1351
1351 1391 1392 1352
1352 1392 1393 1353
1353 1393 1394 1354
1354 1394 1395 1355
1355 1395 1396 1356
1356 1396 1397 1357
1357 1397 111 110
34 35 1398 1358
1358 1398 1399 1359
1359 1399 1400 1360
1360 1400 1401 1361
1361 1401 1402 1362
1362 1402 1403 1363
1363 1403 1404 1364
1364 1404 1405 1365
1365 1405 1406 1366
1366 1406 1407 1367
1367 1407 1408 1368
1368 1408 1409 1369
1369 1409 1410 1370
1370 1410 1411 1371
1371 1411 1412 1372
1372 1412 1413 1373
1373 1413 1414 1374
1374 1414 1415 1375
1375 1415 1416 1376
1376 1416 1417 1377
1377 1417 1418 1378
1378 1418 1419 1379
1379 1419 1420 1380
1380 1420 1421 1381
1381 1421 1422 1382
1382 1422 1423 1383
1383 1423 1424 1384
1384 1424 1425 1385
1385 1425 1426 1386
1386 1426 1427 1387
1387 1427 1428 1388
1388 1428 1429 1389
1389 1429 1430 1390
1390 1430 1431 1391
1391 1431 1432 1392
1392 1432 1433 1393
1393 1433 1434 1394
1394 1434 1435 1395
1395 1435 1436 1396
1396 1436 1437 1397
1397 1437 112 111
35 36 1438 1398
1398 1438 1439 1399
1399 1439 1440 1400
1400 1440 1441 1401
1401 1441 1442 1402
1402 1442 1443 1403
1403 1443 1444 1404
1404 1444 1445 1405
1405 1445 1446 1406
1406 1446 1447 1407
1407 1447 1448 1408
1408 1448 1449 1409
1409 1449 1450 1410
1410 1450 1451 1411
1411 1451 1452 1412
1412 1452 1453 1413
1413 1453 1454 1414
1414 1454 1455 1415
1415 1455 1456 1416
1416 1456 1457 1417
1417 1457 1458 1418
1418 1458 1459 1419
1419 1459 1460 1420
1420 1460 1461 1421
1421 1461 1462 1422
1422 1462 1463 1423
1423 1463 1464 1424
1424 1464 1465 1425
1425 1465 1466 1426
1426 1466 1467 1427
1427 1467 1468 1428
1428 1468 1469 1429
1429 1469 1470 1430
1430 1470 1471 1431
1431 1471 1472 1432
1432 1472 1473 1433
1433 1473 1474 1434
1434 1474 1475 1435
1435 1475 1476 1436
1436 1476 1477 1437
1437 1477 113 112
36 37 1478 1438
1438 1478 1479 1439
1439 1479 1480 1440
1440 1480 1481 1441
1441 1481 1482 1442
1442 1482 1483 1443
1443 1483 1484 1444
1444 1484 1485 1445
1445 1485 1486 1446
1446 1486 1487 1447
1447 1487 1488 1448
1448 1488 1489 1449
1449 1489 1490 1450
1450 1490 1491 1451
1451 1491 1492 1452
1452 1492 1493 1453
1453 1493 1494 1454
1454 1494 1495 1455
1455 1495 1496 1456
1456 1496 1497 1457
1457 1497 1498 1458
1458 1498 1499 1459
1459 1499 1500 1460
1460 1500 1501 1461
1461 1501 1502 1462
1462 1502 1503 1463
1463 1503 1504 1464
1464 1504 1505 1465
1465 1505 1506 1466
1466 1506 1507 1467
1467 1507 1508 1468
1468 1508 1509 1469
1469 1509 1510 1470
1470 1510 1511 1471
1471 1511 1512 1472
1472 1512 1513 1473
1473 1513 1514 1474
1474 1514 1515 1475
1475 1515 1516 1476
1476 1516 1517 1477
1477 1517 114 113
37 38 1518 1478
1478 1518 1519 1479
1479 1519 1520 1480
1480 1520 1521 1481
1481 1521 1522 1482
1482 1522 1523 1483
1483 1523 1524 1484
1484 1524 1525 1485
1485 1525 1526 1486
1486 1526 1527 1487
1487 1527 1528 1488
1488 1528 1529 1489
1489 1529 1530 1490
1490 1530 1531 1491
1491 1531 1532 1492
1492 1532 1533 1493
1493 1533 1534 1494
1494 1534 1535 1495
1495 1535 1536 1496
1496 1536 1537 1497
1497 1537 1538 1498
1498 1538 1539 1499
1499 1539 1540 1500
1500 1540 1541 1501
1501 1541 1542 1502
1502 1542 1543 1503
1503 1543 1544 1504
1504 1544 1545 1505
1505 1545 1546 1506
1506 1546 1547 1507
1507 1547 1548 1508
1508 1548 1549 1509
1509 1549 1550 1510
1510 1550 1551 1511
1511 1551 1552 1512
1512 1552 1553 1513
1513 1553 1554 1514
1514 1554 1555 1515
1515 1555 1556 1516
1516 1556 1557 1517
1517 1557 115 114
38 39 1558 1518
1518 1558 1559 1519
1519 1559 1560 1520
1520 1560 1561 1521
1521 1561 1562 1522
1522 1562 1563 1523
1523 1563 1564 1524
1524 1564 1565 1525
1525 1565 1566 1526
1526 1566 1567 1527
1527 1567 1568 1528
1528 1568 1569 1529
1529 1569 1570 1530
1530 1570 1571 1531
1531 1571 1572 1532
1532 1572 1573 1533
1533 1573 1574 1534
1534 1574 1575 1535
1535 1575 1576 1536
1536 1576 1577 1537
1537 1577 1578 1538
1538 1578 1579 1539
1539 1579 1580 1540
1540 1580 1581 1541
1541 1581 1582 1542
1542 1582 1583 1543
1543 1583 1584 1544
1544 1584 1585 1545
1545 1585 1586 1546
1546 1586 1587 1547
1547 1587 1588 1548
1548 1588 1589 1549
1549 1589 1590 1550
1550 1590 1591 1551
1551 1591 1592 1552
1552 1592 1593 1553
1553 1593 1594 1554
1554 1594 1595 1555
1555 1595 1596 1556
1556 1596 1597 1557
1557 1597 116 115
39 40 1598 1558
1558 1598 1599 1559
1559 1599 1600 1560
1560 1600 1601 1561
1561 1601 1602 1562
1562 1602 1603 1563
1563 1603 1604 1564
1564 1604 1605 1565
1565 1605 1606 1566
1566 1606 1607 1567
1567 1607 1608 1568
1568 1608 1609 1569
1569 1609 1610 1570
1570 1610 1611 1571
1571 1611 1612 1572
1572 1612 1613 1573
1573 1613 1614 1574
1574 1614 1615 1575
1575 1615 1616 1576
1576 1616 1617 1577
1577 1617 1618 1578
1578 1618 1619 1579
1579 1619 1620 1580
1580 1620 1621 1581
1581 1621 1622 1582
1582 1622 1623 1583
1583 1623 1624 1584
1584 1624 1625 1585
1585 1625 1626 1586
1586 1626 1627 1587
1587 1627 1628 1588
1588 1628 1629 1589
1589 1629 1630 1590
1590 1630 1631 1591
1591 1631 1632 1592
1592 1632 1633 1593
1593 1633 1634 1594
1594 1634 1635 1595
1595 1635 1636 1596
1596 1636 1637 1597
1597 1637 117 116
40 41 1638 1598
1598 1638 1639 1599
1599 1639 1640 1600
1600 1640 1641 1601
1601 1641 1642 1602
1602 1642 1643 1603
1603 1643 1644 1604
1604 1644 1645 1605
1605 1645 1646 1606
1606 1646 1647 1607
1607 1647 1648 1608
1608 1648 1649 1609
1609 1649 1650 1610
1610 1650 1651 1611
1611 1651 1652 1612
1612 1652 1653 1613
1613 1653 1654 1614
1614 1654 1655 1615
1615 1655 1656 1616
1616 1656 1657 1617
1617 1657 1658 1618
1618 1658 1659 1619
1619 1659 1660 1620
1620 1660 1661 1621
1621 1661 1662 1622
1622 1662 1663 1623
1623 1663 1664 1624
1624 1664 1665 1625
1625 1665 1666 1626
1626 1666 1667 1627
1627 1667 1668 1628
1628 1668 1669 1629
1629 1669 1670 1630
1630 1670 1671 1631
1631 1671 1672 1632
1632 1672 1673 1633
1633 1673 1674 1634
1634 1674 1675 1635
1635 1675 1676 1636
1636 1676 1677 1637
1637 1677 118 117
41 42 1678 1638
1638 1678 1679 1639
1639 1679 1680 1640
1640 1680 1681 1641
1641 1681 1682 1642
1642 1682 1683 1643
1643 1683 1684 1644
1644 1684 1685 1645
1645 1685 1686 1646
1646 1686 1687 1647
1647 1687 1688 1648
1648 1688 1689 1649
1649 1689 1690 1650
1650 1690 1691 1651
1651 1691 1692 1652
1652 1692 1693 1653
1653 1693 1694 1654
1654 1694 1695 1655
1655 1695 1696 1656
1656 1696 1697 1657
1657 1697 1698 1658
1658 1698 1699 1659
1659 1699 1700 1660
1660 1700 1701 1661
1661 1701 1702 1662
1662 1702 1703 1663
1663 1703 1704 1664
1664 1704 1705 1665
1665 1705 1706 1666
1666 1706 1707 1667
1667 1707 1708 1668
1668 1708 1709 1669
1669 1709 1710 1670
1670 1710 1711 1671
1671 1711 1712 1672
1672 1712 1713 1673
1673 1713 1714 1674
1674 1714 1715 1675
1675 1715 1716 1676
1676 1716 1717 1677
1677 1717 119 118
42 43 1718 1678
1678 1718 1719 1679
1679 1719 1720 1680
1680 1720 1721 1681
1681 1721 1722 1682
1682 1722 1723 1683
1683 1723 1724 1684
1684 1724 1725 1685
1685 1725 1726 1686
1686 1726 1727 1687
1687 1727 1728 1688
1688 1728 1729 1689
1689 1729 1730 1690
1690 1730 1731 1691
1691 1731 1732 1692
1692 1732 1733 1693
1693 1733 1734 1694
1694 1734 1735 1695
1695 1735 1736 1696
1696 1736 1737 1697
1697 1737 1738 1698
1698 1738 1739 1699
1699 1739 1740 1700
1700 1740 1741 1701
1701 1741 1742 1702
1702 1742 1743 1703
1703 1743 1744 1704
1704 1744 1745 1705
1705 1745 1746 1706
1706 1746 1747 1707
1707 1747 1748 1708
1708 1748 1749 1709
1709 1749 1750 1710
1710 1750 1751 1711
1711 1751 1752 1712
1712 1752 1753 1713
1713 1753 1754 1714
1714 1754 1755 1715
1715 1755 1756 1716
1716 1756 1757 1717
1717 1757 120 119
43 44 1758 1718
1718 1758 1759 1719
1719 1759 1760 1720
1720 1760 1761 1721
1721 1761 1762 1722
1722 1762 1763 1723
1723 1763 1764 1724
1724 1764 1765 1725
1725 1765 1766 1726
1726 1766 1767 1727
1727 1767 1768 1728
1728 1768 1769 1729
1729 1769 1770 1730
1730 1770 1771 1731
1731 1771 1772 1732
1732 1772 1773 1733
1733 1773 1774 1734
1734 1774 1775 1735
1735 1775 1776 1736
1736 1776 1777 1737
1737 1777 1778 1738
1738 1778 1779 1739
1739 1779 1780 1740
1740 1780 1781 1741
1741 1781 1782 1742
1742 1782 1783 1743
1743 1783 1784 1744
1744 1784 1785 1745
1745 1785 1786 1746
1746 1786 1787 1747
1747 1787 1788 1748
1748 1788 1789 1749
1749 1789 1790 1750
1750 1790 1791 1751
1751 1791 1792 1752
1752 1792 1793 1753
1753 1793 1794 1754
1754 1794 1795 1755
1755 1795 1796 1756
1756 1796 1797 1757
1757 1797 121 120
44 45 1798 1758
1758 1798 1799 1759
1759 1799 1800 1760
1760 1800 1801 1761
1761 1801 1802 1762
1762 1802 1803 1763
1763 1803 1804 1764
1764 1804 1805 1765
1765 1805 1806 1766
1766 1806 1807 1767
1767 1807 1808 1768
1768 1808 1809 1769
1769 1809 1810 1770
1770 1810 1811 1771
1771 1811 1812 1772
1772 1812 1813 1773
1773 1813 1814 1774
1774 1814 1815 1775
1775 1815 1816 1776
1776 1816 1817 1777
1777 1817 1818 1778
1778 1818 1819 1779
1779 1819 1820 1780
1780 1820 1821 1781
1781 1821 1822 1782
1782 1822 1823 1783
1783 1823 1824 1784
1784 1824 1825 1785
1785 1825 1826 1786
1786 1826 1827 1787
1787 1827 1828 1788
1788 1828 1829 1789
1789 1829 1830 1790
1790 1830 1831 1791
1791 1831 1832 1792
1792 1832 1833 1793
1793 1833 1834 1794
1794 1834 1835 1795
1795 1835 1836 1796
1796 1836 1837 1797
1797 1837 122 121
45 46 1838 1798
1798 1838 1839 1799
1799 1839 1840 1800
1800 1840 1841 1801
1801 1841 1842 1802
1802 1842 1843 1803
1803 1843 1844 1804
1804 1844 1845 1805
1805 1845 1846 1806
1806 1846 1847 1807
1807 1847 1848 1808
1808 1848 1849 1809
1809 1849 1850 1810
1810 1850 1851 1811
1811 1851 1852 1812
1812 1852 1853 1813
1813 1853 1854 1814
1814 1854 1855 1815
1815 1855 1856 1816
1816 1856 1857 1817
1817 1857 1858 1818
1818 1858 1859 1819
1819 1859 1860 1820
1820 1860 1861 1821
1821 1861 1862 1822
1822 1862 1863 1823
1823 1863 1864 1824
1824 1864 1865 1825
1825 1865 1866 1826
1826 1866 1867 1827
1827 1867 1868 1828
1828 1868 1869 1829
1829 1869 1870 1830
1830 1870 1871 1831
1831 1871 1872 1832
1832 1872 1873 1833
1833 1873 1874 1834
1834 1874 1875 1835
1835 1875 1876 1836
1836 1876 1877 1837
1837 1877 123 122
46 47 1878 1838
1838 1878 1879 1839
1839 1879 1880 1840
1840 1880 1881 1841
1841 1881 1882 1842
1842 1882 1883 1843
1843 1883 1884 1844
1844 1884 1885 1845
1845 1885 1886 1846
1846 1886 1887 1847
1847 1887 1888 1848
1848 1888 1889 1849
1849 1889 1890 1850
1850 1890 1891 1851
1851 1891 1892 1852
1852 1892 1893 1853
1853 1893 1894 1854
1854 1894 1895 1855
1855 1895 1896 1856
1856 1896 1897 1857
1857 1897 1898 1858
1858 1898 1899 1859
1859 1899 1900 1860
1860 1900 1901 1861
1861 1901 1902 1862
1862 1902 1903 1863
1863 1903 1904 1864
1864 1904 1905 1865
1865 1905 1906 1866
1866 1906 1907 1867
1867 1907 1908 1868
1868 1908 1909 1869
1869 1909 1910 1870
1870 1910 1911 1871
1871 1911 1912 1872
1872 1912 1913 1873
1873 1913 1914 1874
1874 1914 1915 1875
1875 1915 1916 1876
1876 1916 1917 1877
1877 1917 124 123
47 48 1918 1878
1878 1918 1919 1879
1879 1919 1920 1880
1880 1920 1921 1881
1881 1921 1922 1882
1882 1922 1923 1883
1883 1923 1924 1884
1884 1924 1925 1885
1885 1925 1926 1886
1886 1926 1927 1887
1887 1927 1928 1888
1888 1928 1929 1889
1889 1929 1930 1890
1890 1930 1931 1891
1891 1931 1932 1892
1892 1932 1933 1893
1893 1933 1934 1894
1894 1934 1935 1895
1895 1935 1936 1896
1896 1936 1937 1897
1897 1937 1938 1898
1898 1938 1939 1899
1899 1939 1940 1900
1900 1940 1941 1901
1901 1941 1942 1902
1902 1942 1943 1903
1903 1943 1944 1904
1904 1944 1945 1905
1905 1945 1946 1906
1906 1946 1947 1907
1907 1947 1948 1908
1908 1948 1949 1909
1909 1949 1950 1910
1910 1950 1951 1911
1911 1951 1952 1912
1912 1952 1953 1913
1913 1953 1954 1914
1914 1954 1955 1915
1915 1955 1956 1916
1916 1956 1957 1917
1917 1957 125 124
48 49 1958 1918
1918 1958 1959 1919
1919 1959 1960 1920
1920 1960 1961 1921
1921 1961 1962 1922
1922 1962 1963 1923
1923 1963 1964 1924
1924 1964 1965 1925
1925 1965 1966 1926
1926 1966 1967 1927
1927 1967 1968 1928
1928 1968 1969 1929
1929 1969 1970 1930
1930 1970 1971 1931
1931 1971 1972 1932
1932 1972 1973 1933
1933 1973 1974 1934
1934 1974 1975 1935
1935 1975 1976 1936
1936 1976 1977 1937
1937 1977 1978 1938
1938 1978 1979 1939
1939 1979 1980 1940
1940 1980 1981 1941
1941 1981 1982 1942
1942 1982 1983 1943
1943 1983 1984 1944
1944 1984 1985 1945
1945 1985 1986 1946
1946 1986 1987 1947
1947 1987 1988 1948
1948 1988 1989 1949
1949 1989 1990 1950
1950 1990 1991 1951
1951 1991 1992 1952
1952 1992 1993 1953
1953 1993 1994 1954
1954 1994 1995 1955
1955 1995 1996 1956
1956 1996 1997 1957
1957 1997 126 125
49 1 1998 1958
1958 1998 1999 1959
1959 1999 2000 1960
1960 2000 2001 1961
1961 2001 2002 1962
1962 2002 2003 1963
1963 2003 2004 1964
1964 2004 2005 1965
1965 2005 2006 1966
1966 2006 2007 1967
1967 2007 2008 1968
1968 2008 2009 1969
1969 2009 2010 1970
1970 2010 2011 1971
1971 2011 2012 1972
1972 2012 2013 1973
1973 2013 2014 1974
1974 2014 2015 1975
1975 2015 2016 1976
1976 2016 2017 1977
1977 2017 2018 1978
1978 2018 2019 1979
1979 2019 2020 1980
1980 2020 2021 1981
1981 2021 2022 1982
1982 2022 2023 1983
1983 2023 2024 1984
1984 2024 2025 1985
1985 2025 2026 1986
1986 2026 2027 1987
1987 2027 2028 1988
1988 2028 2029 1989
1989 2029 2030 1990
1990 2030 2031 1991
1991 2031 2032 1992
1992 2032 2033 1993
1993 2033 2034 1994
1994 2034 2035 1995
1995 2035 2036 1996
1996 2036 2037 1997
1997 2037 127 126
1 50 2038 1998
1998 2038 2039 1999
1999 2039 2040 2000
2000 2040 2041 2001
2001 2041 2042 2002
2002 2042 2043 2003
2003 2043 2044 2004
2004 2044 2045 2005
2005 2045 2046 2006
2006 2046 2047 2007
2007 2047 2048 2008
2008 2048 2049 2009
2009 2049 2050 2010
2010 2050 2051 2011
2011 2051 2052 2012
2012 2052 2053 2013
2013 2053 2054 2014
2014 2054 2055 2015
2015 2055 2056 2016
2016 2056 2057 2017
2017 2057 2058 2018
2018 2058 2059 2019
2019 2059 2060 2020
2020 2060 2061 2021
2021 2061 2062 2022
2022 2062 2063 2023
2023 2063 2064 2024
2024 2064 2065 2025
2025 2065 2066 2026
2026 2066 2067 2027
2027 2067 2068 2028
2028 2068 2069 2029
2029 2069 2070 2030
2030 2070 2071 2031
2031 2071 2072 2032
2032 2072 2073 2033
2033 2073 2074 2034
2034 2074 2075 2035
2035 2075 2076 2036
2036 2076 2077 2037
2037 2077 128 127
50 51 2078 2038
2038 2078 2079 2039
2039 2079 2080 2040
2040 2080 2081 2041
2041 2081 2082 2042
2042 2082 2083 2043
2043 2083 2084 2044
2044 2084 2085 2045
2045 2085 2086 2046
2046 2086 2087 2047
2047 2087 2088 2048
2048 2088 2089 2049
2049 2089 2090 2050
2050 2090 2091 2051
2051 2091 2092 2052
2052 2092 2093 2053
2053 2093 2094 2054
2054 2094 2095 2055
2055 2095 2096 2056
2056 2096 2097 2057
2057 2097 2098 2058
2058 2098 2099 2059
2059 2099 2100 2060
2060 2100 2101 2061
2061 2101 2102 2062
2062 2102 2103 2063
2063 2103 2104 2064
2064 2104 2105 2065
2065 2105 2106 2066
2066 2106 2107 2067
2067 2107 2108 2068
2068 2108 2109 2069
2069 2109 2110 2070
2070 2110 2111 2071
2071 2111 2112 2072
2072 2112 2113 2073
2073 2113 2114 2074
2074 2114 2115 2075
2075 2115 2116 2076
2076 2116 2117 2077
2077 2117 129 128
51 52 2118 2078
2078 2118 2119 2079
2079 2119 2120 2080
2080 2120 2121 2081
2081 2121 2122 2082
2082 2122 2123 2083
2083 2123 2124 2084
2084 2124 2125 2085
2085 2125 2126 2086
2086 2126 2127 2087
2087 2127 2128 2088
2088 2128 2129 2089
2089 2129 2130 2090
2090 2130 2131 2091
2091 2131 2132 2092
2092 2132 2133 2093
2093 2133 2134 2094
2094 2134 2135 2095
2095 2135 2136 2096
2096 2136 2137 2097
2097 2137 2138 2098
2098 2138 2139 2099
2099 2139 2140 2100
2100 2140 2141 2101
2101 2141 2142 2102
2102 2142 2143 2103
2103 2143 2144 2104
2104 2144 2145 2105
2105 2145 2146 2106
2106 2146 2147 2107
2107 2147 2148 2108
2108 2148 2149 2109
2109 2149 2150 2110
2110 2150 2151 2111
2111 2151 2152 2112
2112 2152 2153 2113
2113 2153 2154 2114
2114 2154 2155 2115
2115 2155 2156 2116
2116 2156 2157 2117
2117 2157 130 129
52 53 2158 2118
2118 2158 2159 2119
2119 2159 2160 2120
2120 2160 2161 2121
2121 2161 2162 2122
2122 2162 2163 2123
2123 2163 2164 2124
2124 2164 2165 2125
2125 2165 2166 2126
2126 2166 2167 2127
2127 2167 2168 2128
2128 2168 2169 2129
2129 2169 2170 2130
2130 2170 2171 2131
2131 2171 2172 2132
2132 2172 2173 2133
2133 2173 2174 2134
2134 2174 2175 2135
2135 2175 2176 2136
2136 2176 2177 2137
2137 2177 2178 2138
2138 2178 2179 2139
2139 2179 2180 2140
2140 2180 2181 2141
2141 2181 2182 2142
2142 2182 2183 2143
2143 2183 2184 2144
2144 2184 2185 2145
2145 2185 2186 2146
2146 2186 2187 2147
2147 2187 2188 2148
2148 2188 2189 2149
2149 2189 2190 2150
2150 2190 2191 2151
2151 2191 2192 2152
2152 2192 2193 2153
2153 2193 2194 2154
2154 2194 2195 2155
2155 2195 2196 2156
2156 2196 2197 2157
2157 2197 131 130
53 54 2198 2158
2158 2198 2199 2159
2159 2199 2200 2160
2160 2200 2201 2161
2161 2201 2202 2162
2162 2202 2203 2163
2163 2203 2204 2164
2164 2204 2205 2165
2165 2205 2206 2166
2166 2206 2207 2167
2167 2207 2208 2168
2168 2208 2209 2169
2169 2209 2210 2170
2170 2210 2211 2171
2171 2211 2212 2172
2172 2212 2213 2173
2173 2213 2214 2174
2174 2214 2215 2175
2175 2215 2216 2176
2176 2216 2217 2177
2177 2217 2218 2178
2178 2218 2219 2179
2179 2219 2220 2180
2180 2220 2221 2181
2181 2221 2222 2182
2182 2222 2223 2183
2183 2223 2224 2184
2184 2224 2225 2185
2185 2225 2226 2186
2186 2226 2227 2187
2187 2227 2228 2188
2188 2228 2229 2189
2189 2229 2230 2190
2190 2230 2231 2191
2191 2231 2232 2192
2192 2232 2233 2193
2193 2233 2234 2194
2194 2234 2235 2195
2195 2235 2236 2196
2196 2236 2237 2197
2197 2237 132 131
54 55 2238 2198
2198 2238 2239 2199
2199 2239 2240 2200
2200 2240 2241 2201
2201 2241 2242 2202
2202 2242 2243 2203
2203 2243 2244 2204
2204 2244 2245 2205
2205 2245 2246 2206
2206 2246 2247 2207
2207 2247 2248 2208
2208 2248 2249 2209
2209 2249 2250 2210
2210 2250 2251 2211
2211 2251 2252 2212
2212 2252 2253 2213
2213 2253 2254 2214
2214 2254 2255 2215
2215 2255 2256 2216
2216 2256 2257 2217
2217 2257 2258 2218
2218 2258 2259 2219
2219 2259 2260 2220
2220 2260 2261 2221
2221 2261 2262 2222
2222 2262 2263 2223
2223 2263 2264 2224
2224 2264 2265 2225
2225 2265 2266 2226
2226 2266 2267 2227
2227 2267 2268 2228
2228 2268 2269 2229
2229 2269 2270 2230
2230 2270 2271 2231
2231 2271 2272 2232
2232 2272 2273 2233
2233 2273 2274 2234
2234 2274 2275 2235
2235 2275 2276 2236
2236 2276 2277 2237
2237 2277 133 132
55 56 2278 2238
2238 2278 2279 2239
2239 2279 2280 2240
2240 2280 2281 2241
2241 2281 2282 2242
2242 2282 2283 2243
2243 2283 2284 2244
2244 2284 2285 2245
2245 2285 2286 2246
2246 2286 2287 2247
2247 2287 2288 2248
2248 2288 2289 2249
2249 2289 2290 2250
2250 2290 2291 2251
2251 2291 2292 2252
2252 2292 2293 2253
2253 2293 2294 2254
2254 2294 2295 2255
2255 2295 2296 2256
2256 2296 2297 2257
2257 2297 2298 2258
2258 2298 2299 2259
2259 2299 2300 2260
2260 2300 2301 2261
2261 2301 2302 2262
2262 2302 2303 2263
2263 2303 2304 2264
2264 2304 2305 2265
2265 2305 2306 2266
2266 2306 2307 2267
2267 2307 2308 2268
2268 2308 2309 2269
2269 2309 2310 2270
2270 2310 2311 2271
2271 2311 2312 2272
2272 2312 2313 2273
2273 2313 2314 2274
2274 2314 2315 2275
2275 2315 2316 2276
2276 2316 2317 2277
2277 2317 134 133
56 57 2318 2278
2278 2318 2319 2279
2279 2319 2320 2280
2280 2320 2321 2281
2281 2321 2322 2282
2282 2322 2323 2283
2283 2323 2324 2284
2284 2324 2325 2285
2285 2325 2326 2286
2286 2326 2327 2287
2287 2327 2328 2288
2288 2328 2329 2289
2289 2329 2330 2290
2290 2330 2331 2291
2291 2331 2332 2292
2292 2332 2333 2293
2293 2333 2334 2294
2294 2334 2335 2295
2295 2335 2336 2296
2296 2336 2337 2297
2297 2337 2338 2298
2298 2338 2339 2299
2299 2339 2340 2300
2300 2340 2341 2301
2301 2341 2342 2302
2302 2342 2343 2303
2303 2343 2344 2304
2304 2344 2345 2305
2305 2345 2346 2306
2306 2346 2347 2307
2307 2347 2348 2308
2308 2348 2349 2309
2309 2349 2350 2310
2310 2350 2351 2311
2311 2351 2352 2312
2312 2352 2353 2313
2313 2353 2354 2314
2314 2354 2355 2315
2315 2355 2356 2316
2316 2356 2357 2317
2317 2357 135 134
57 58 2358 2318
2318 2358 2359 2319
2319 2359 2360 2320
2320 2360 2361 2321
2321 2361 2362 2322
2322 2362 2363 2323
2323 2363 2364 2324
2324 2364 2365 2325
2325 2365 2366 2326
2326 2366 2367 2327
2327 2367 2368 2328
2328 2368 2369 2329
2329 2369 2370 2330
2330 2370 2371 2331
2331 2371 2372 2332
2332 2372 2373 2333
2333 2373 2374 2334
2334 2374 2375 2335
2335 2375 2376 2336
2336 2376 2377 2337
2337 2377 2378 2338
2338 2378 2379 2339
2339 2379 2380 2340
2340 2380 2381 2341
2341 2381 2382 2342
2342 2382 2383 2343
2343 2383 2384 2344
2344 2384 2385 2345
2345 2385 2386 2346
2346 2386 2387 2347
2347 2387 2388 2348
2348 2388 2389 2349
2349 2389 2390 2350
2350 2390 2391 2351
2351 2391 2392 2352
2352 2392 2393 2353
2353 2393 2394 2354
2354 2394 2395 2355
2355 2395 2396 2356
2356 2396 2397 2357
2357 2397 136 135
58 59 2398 2358
2358 2398 2399 2359
2359 2399 2400 2360
2360 2400 2401 2361
2361 2401 2402 2362
2362 2402 2403 2363
2363 2403 2404 2364
2364 2404 2405 2365
2365 2405 2406 2366
2366 2406 2407 2367
2367 2407 2408 2368
2368 2408 2409 2369
2369 2409 2410 2370
2370 2410 2411 2371
2371 2411 2412 2372
2372 2412 2413 2373
2373 2413 2414 2374
2374 2414 2415 2375
2375 2415 2416 2376
2376 2416 2417 2377
2377 2417 2418 2378
2378 2418 2419 2379
2379 2419 2420 2380
2380 2420 2421 2381
2381 2421 2422 2382
2382 2422 2423 2383
2383 2423 2424 2384
2384 2424 2425 2385
2385 2425 2426 2386
2386 2426 2427 2387
2387 2427 2428 2388
2388 2428 2429 2389
2389 2429 2430 2390
2390 2430 2431 2391
2391 2431 2432 2392
2392 2432 2433 2393
2393 2433 2434 2394
2394 2434 2435 2395
2395 2435 2436 2396
2396 2436 2437 2397
2397 2437 137 136
59 60 2438 2398
2398 2438 2439 2399
2399 2439 2440 2400
2400 2440 2441 2401
2401 2441 2442 2402
2402 2442 2443 2403
2403 2443 2444 2404
2404 2444 2445 2405
2405 2445 2446 2406
2406 2446 2447 2407
2407 2447 2448 2408
2408 2448 2449 2409
2409 2449 2450 2410
2410 2450 2451 2411
2411 2451 2452 2412
2412 2452 2453 2413
2413 2453 2454 2414
2414 2454 2455 2415
2415 2455 2456 2416
2416 2456 2457 2417
2417 2457 2458 2418
2418 2458 2459 2419
2419 2459 2460 2420
2420 2460 2461 2421
2421 2461 2462 2422
2422 2462 2463 2423
2423 2463 2464 2424
2424 2464 2465 2425
2425 2465 2466 2426
2426 2466 2467 2427
2427 2467 2468 2428
2428 2468 2469 2429
2429 2469 2470 2430
2430 2470 2471 2431
2431 2471 2472 2432
2432 2472 2473 2433
2433 2473 2474 2434
2434 2474 2475 2435
2435 2475 2476 2436
2436 2476 2477 2437
2437 2477 138 137
60 61 2478 2438
2438 2478 2479 2439
2439 2479 2480 2440
2440 2480 2481 2441
2441 2481 2482 2442
2442 2482 2483 2443
2443 2483 2484 2444
2444 2484 2485 2445
2445 2485 2486 2446
2446 2486 2487 2447
2447 2487 2488 2448
2448 2488 2489 2449
2449 2489 2490 2450
2450 2490 2491 2451
2451 2491 2492 2452
2452 2492 2493 2453
2453 2493 2494 2454
2454 2494 2495 2455
2455 2495 2496 2456
2456 2496 2497 2457
2457 2497 2498 2458
2458 2498 2499 2459
2459 2499 2500 2460
2460 2500 2501 2461
2461 2501 2502 2462
2462 2502 2503 2463
2463 2503 2504 2464
2464 2504 2505 2465
2465 2505 2506 2466
2466 2506 2507 2467
2467 2507 2508 2468
2468 2508 2509 2469
2469 2509 2510 2470
2470 2510 2511 2471
2471 2511 2512 2472
2472 2512 2513 2473
2473 2513 2514 2474
2474 2514 2515 2475
2475 2515 2516 2476
2476 2516 2517 2477
2477 2517 139 138
61 62 2518 2478
2478 2518 2519 2479
2479 2519 2520 2480
2480 2520 2521 2481
2481 2521 2522 2482
2482 2522 2523 2483
2483 2523 2524 2484
2484 2524 2525 2485
2485 2525 2526 2486
2486 2526 2527 2487
2487 2527 2528 2488
2488 2528 2529 2489
2489 2529 2530 2490
2490 2530 2531 2491
2491 2531 2532 2492
2492 2532 2533 2493
2493 2533 2534 2494
2494 2534 2535 2495
2495 2535 2536 2496
2496 2536 2537 2497
2497 2537 2538 2498
2498 2538 2539 2499
2499 2539 2540 2500
2500 2540 2541 2501
2501 2541 2542 2502
2502 2542 2543 2503
2503 2543 2544 2504
2504 2544 2545 2505
2505 2545 2546 2506
2506 2546 2547 2507
2507 2547 2548 2508
2508 2548 2549 2509
2509 2549 2550 2510
2510 2550 2551 2511
2511 2551 2552 2512
2512 2552 2553 2513
2513 2553 2554 2514
2514 2554 2555 2515
2515 2555 2556 2516
2516 2556 2557 2517
2517 2557 140 139
62 63 2558 2518
2518 2558 2559 2519
2519 2559 2560 2520
2520 2560 2561 2521
2521 2561 2562 2522
2522 2562 2563 2523
2523 2563 2564 2524
2524 2564 2565 2525
2525 2565 2566 2526
2526 2566 2567 2527
2527 2567 2568 2528
2528 2568 2569 2529
2529 2569 2570 2530
2530 2570 2571 2531
2531 2571 2572 2532
2532 2572 2573 2533
2533 2573 2574 2534
2534 2574 2575 2535
2535 2575 2576 2536
2536 2576 2577 2537
2537 2577 2578 2538
2538 2578 2579 2539
2539 2579 2580 2540
2540 2580 2581 2541
2541 2581 2582 2542
2542 2582 2583 2543
2543 2583 2584 2544
2544 2584 2585 2545
2545 2585 2586 2546
2546 2586 2587 2547
2547 2587 2588 2548
2548 2588 2589 2549
2549 2589 2590 2550
2550 2590 2591 2551
2551 2591 2592 2552
2552 2592 2593 2553
2553 2593 2594 2554
2554 2594 2595 2555
2555 2595 2596 2556
2556 2596 2597 2557
2557 2597 141 140
63 64 2598 2558
2558 2598 2599 2559
2559 2599 2600 2560
2560 2600 2601 2561
2561 2601 2602 2562
2562 2602 2603 2563
2563 2603 2604 2564
2564 2604 2605 2565
2565 2605 2606 2566
2566 2606 2607 2567
2567 2607 2608 2568
2568 2608 2609 2569
2569 2609 2610 2570
2570 2610 2611 2571
2571 2611 2612 2572
2572 2612 2613 2573
2573 2613 2614 2574
2574 2614 2615 2575
2575 2615 2616 2576
2576 2616 2617 2577
2577 2617 2618 2578
2578 2618 2619 2579
2579 2619 2620 2580
2580 2620 2621 2581
2581 2621 2622 2582
2582 2622 2623 2583
2583 2623 2624 2584
2584 2624 2625 2585
2585 2625 2626 2586
2586 2626 2627 2587
2587 2627 2628 2588
2588 2628 2629 2589
2589 2629 2630 2590
2590 2630 2631 2591
2591 2631 2632 2592
2592 2632 2633 2593
2593 2633 2634 2594
2594 2634 2635 2595
2595 2635 2636 2596
2596 2636 2637 2597
2597 2637 142 141
64 65 2638 2598
2598 2638 2639 2599
2599 2639 2640 2600
2600 2640 2641 2601
2601 2641 2642 2602
2602 2642 2643 2603
2603 2643 2644 2604
2604 2644 2645 2605
2605 2645 2646 2606
2606 2646 2647 2607
2607 2647 2648 2608
2608 2648 2649 2609
2609 2649 2650 2610
2610 2650 2651 2611
2611 2651 2652 2612
2612 2652 2653 2613
2613 2653 2654 2614
2614 2654 2655 2615
2615 2655 2656 2616
2616 2656 2657 2617
2617 2657 2658 2618
2618 2658 2659 2619
2619 2659 2660 2620
2620 2660 2661 2621
2621 2661 2662 2622
2622 2662 2663 2623
2623 2663 2664 2624
2624 2664 2665 2625
2625 2665 2666 2626
2626 2666 2667 2627
2627 2667 2668 2628
2628 2668 2669 2629
2629 2669 2670 2630
2630 2670 2671 2631
2631 2671 2672 2632
2632 2672 2673 2633
2633 2673 2674 2634
2634 2674 2675 2635
2635 2675 2676 2636
2636 2676 2677 2637
2637 2677 143 142
65 66 2678 2638
2638 2678 2679 2639
2639 2679 2680 2640
2640 2680 2681 2641
2641 2681 2682 2642
2642 2682 2683 2643
2643 2683 2684 2644
2644 2684 2685 2645
2645 2685 2686 2646
2646 2686 2687 2647
2647 2687 2688 2648
2648 2688 2689 2649
2649 2689 2690 2650
2650 2690 2691 2651
2651 2691 2692 2652
2652 2692 2693 2653
2653 2693 2694 2654
2654 2694 2695 2655
2655 2695 2696 2656
2656 2696 2697 2657
2657 2697 2698 2658
2658 2698 2699 2659
2659 2699 2700 2660
2660 2700 2701 2661
2661 2701 2702 2662
2662 2702 2703 2663
2663 2703 2704 2664
2664 2704 2705 2665
2665 2705 2706 2666
2666 2706 2707 2667
2667 2707 2708 2668
2668 2708 2709 2669
2669 2709 2710 2670
2670 2710 2711 2671
2671 2711 2712 2672
2672 2712 2713 2673
2673 2713 2714 2674
2674 2714 2715 2675
2675 2715 2716 2676
2676 2716 2717 2677
2677 2717 144 143
66 67 2718 2678
2678 2718 2719 2679
2679 2719 2720 2680
2680 2720 2721 2681
2681 2721 2722 2682
2682 2722 2723 2683
2683 2723 2724 2684
2684 2724 2725 2685
2685 2725 2726 2686
2686 2726 2727 2687
2687 2727 2728 2688
2688 2728 2729 2689
2689 2729 2730 2690
2690 2730 2731 2691
2691 2731 2732 2692
2692 2732 2733 2693
2693 2733 2734 2694
2694 2734 2735 2695
2695 2735 2736 2696
2696 2736 2737 2697
2697 2737 2738 2698
2698 2738 2739 2699
2699 2739 2740 2700
2700 2740 2741 2701
2701 2741 2742 2702
2702 2742 2743 2703
2703 2743 2744 2704
2704 2744 2745 2705
2705 2745 2746 2706
2706 2746 2747 2707
2707 2747 2748 2708
2708 2748 2749 2709
2709 2749 2750 2710
2710 2750 2751 2711
2711 2751 2752 2712
2712 2752 2753 2713
2713 2753 2754 2714
2714 2754 2755 2715
2715 2755 2756 2716
2716 2756 2757 2717
2717 2757 145 144
67 68 2758 2718
2718 2758 2759 2719
2719 2759 2760 2720
2720 2760 2761 2721
2721 2761 2762 2722
2722 2762 2763 2723
2723 2763 2764 2724
2724 2764 2765 2725
2725 2765 2766 2726
2726 2766 2767 2727
2727 2767 2768 2728
2728 2768 2769 2729
2729 2769 2770 2730
2730 2770 2771 2731
2731 2771 2772 2732
2732 2772 2773 2733
2733 2773 2774 2734
2734 2774 2775 2735
2735 2775 2776 2736
2736 2776 2777 2737
2737 2777 2778 2738
2738 2778 2779 2739
2739 2779 2780 2740
2740 2780 2781 2741
2741 2781 2782 2742
2742 2782 2783 2743
2743 2783 2784 2744
2744 2784 2785 2745
2745 2785 2786 2746
2746 2786 2787 2747
2747 2787 2788 2748
2748 2788 2789 2749
2749 2789 2790 2750
2750 2790 2791 2751
2751 2791 2792 2752
2752 2792 2793 2753
2753 2793 2794 2754
2754 2794 2795 2755
2755 2795 2796 2756
2756 2796 2797 2757
2757 2797 146 145
68 69 2798 2758
2758 2798 2799 2759
2759 2799 2800 2760
2760 2800 2801 2761
2761 2801 2802 2762
2762 2802 2803 2763
2763 2803 2804 2764
2764 2804 2805 2765
2765 2805 2806 2766
2766 2806 2807 2767
2767 2807 2808 2768
2768 2808 2809 2769
2769 2809 2810 2770
2770 2810 2811 2771
2771 2811 2812 2772
2772 2812 2813 2773
2773 2813 2814 2774
2774 2814 2815 2775
2775 2815 2816 2776
2776 2816 2817 2777
2777 2817 2818 2778
2778 2818 2819 2779
2779 2819 2820 2780
2780 2820 2821 2781
2781 2821 2822 2782
2782 2822 2823 2783
2783 2823 2824 2784
2784 2824 2825 2785
2785 2825 2826 2786
2786 2826 2827 2787
2787 2827 2828 2788
2788 2828 2829 2789
2789 2829 2830 2790
2790 2830 2831 2791
2791 2831 2832 2792
2792 2832 2833 2793
2793 2833 2834 2794
2794 2834 2835 2795
2795 2835 2836 2796
2796 2836 2837 2797
2797 2837 5 146
69 70 2838 2798
2798 2838 2839 2799
2799 2839 2840 2800
2800 2840 2841 2801
2801 2841 2842 2802
2802 2842 2843 2803
2803 2843 2844 2804
2804 2844 2845 2805
2805 2845 2846 2806
2806 2846 2847 2807
2807 2847 2848 2808
2808 2848 2849 2809
2809 2849 2850 2810
2810 2850 2851 2811
2811 2851 2852 2812
2812 2852 2853 2813
2813 2853 2854 2814
2814 2854 2855 2815
2815 2855 2856 2816
2816 2856 2857 2817
2817 2857 2858 2818
2818 2858 2859 2819
2819 2859 2860 2820
2820 2860 2861 2821
2821 2861 2862 2822
2822 2862 2863 2823
2823 2863 2864 2824
2824 2864 2865 2825
2825 2865 2866 2826
2826 2866 2867 2827
2827 2867 2868 2828
2828 2868 2869 2829
2829 2869 2870 2830
2830 2870 2871 2831
2831 2871 2872 2832
2832 2872 2873 2833
2833 2873 2874 2834
2834 2874 2875 2835
2835 2875 2876 2836
2836 2876 2877 2837
2837 2877 147 5
70 71 2878 2838
2838 2878 2879 2839
2839 2879 2880 2840
2840 2880 2881 2841
2841 2881 2882 2842
2842 2882 2883 2843
2843 2883 2884 2844
2844 2884 2885 2845
2845 2885 2886 2846
2846 2886 2887 2847
2847 2887 2888 2848
2848 2888 2889 2849
2849 2889 2890 2850
2850 2890 2891 2851
2851 2891 2892 2852
2852 2892 2893 2853
2853 2893 2894 2854
2854 2894 2895 2855
2855 2895 2896 2856
2856 2896 2897 2857
2857 2897 2898 2858
2858 2898 2899 2859
2859 2899 2900 2860
2860 2900 2901 2861
2861 2901 2902 2862
2862 2902 2903 2863
2863 2903 2904 2864
2864 2904 2905 2865
2865 2905 2906 2866
2866 2906 2907 2867
2867 2907 2908 2868
2868 2908 2909 2869
2869 2909 2910 2870
2870 2910 2911 2871
2871 2911 2912 2872
2872 2912 2913 2873
2873 2913 2914 2874
2874 2914 2915 2875
2875 2915 2916 2876
2876 2916 2917 2877
2877 2917 148 147
71 72 2918 2878
2878 2918 2919 2879
2879 2919 2920 2880
2880 2920 2921 2881
2881 2921 2922 2882
2882 2922 2923 2883
2883 2923 2924 2884
2884 2924 2925 2885
2885 2925 2926 2886
2886 2926 2927 2887
2887 2927 2928 2888
2888 2928 2929 2889
2889 2929 2930 2890
2890 2930 2931 2891
2891 2931 2932 2892
2892 2932 2933 2893
2893 2933 2934 2894
2894 2934 2935 2895
2895 2935 2936 2896
2896 2936 2937 2897
2897 2937 2938 2898
2898 2938 2939 2899
2899 2939 2940 2900
2900 2940 2941 2901
2901 2941 2942 2902
2902 2942 2943 2903
2903 2943 2944 2904
2904 2944 2945 2905
2905 2945 2946 2906
2906 2946 2947 2907
2907 2947 2948 2908
2908 2948 2949 2909
2909 2949 2950 2910
2910 2950 2951 2911
2911 2951 2952 2912
2912 2952 2953 2913
2913 2953 2954 2914
2914 2954 2955 2915
2915 2955 2956 2916
2916 2956 2957 2917
2917 2957 149 148
72 73 2958 2918
2918 2958 2959 2919
2919 2959 2960 2920
2920 2960 2961 2921
2921 2961 2962 2922
2922 2962 2963 2923
2923 2963 2964 2924
2924 2964 2965 2925
2925 2965 2966 2926
2926 2966 2967 2927
2927 2967 2968 2928
2928 2968 2969 2929
2929 2969 2970 2930
2930 2970 2971 2931
2931 2971 2972 2932
2932 2972 2973 2933
2933 2973 2974 2934
2934 2974 2975 2935
2935 2975 2976 2936
2936 2976 2977 2937
2937 2977 2978 2938
2938 2978 2979 2939
2939 2979 2980 2940
2940 2980 2981 2941
2941 2981 2982 2942
2942 2982 2983 2943
2943 2983 2984 2944
2944 2984 2985 2945
2945 2985 2986 2946
2946 2986 2987 2947
2947 2987 2988 2948
2948 2988 2989 2949
2949 2989 2990 2950
2950 2990 2991 2951
2951 2991 2992 2952
2952 2992 2993 2953
2953 2993 2994 2954
2954 2994 2995 2955
2955 2995 2996 2956
2956 2996 2997 2957
2957 2997 150 149
73 74 2998 2958
2958 2998 2999 2959
2959 2999 3000 2960
2960 3000 3001 2961
2961 3001 3002 2962
2962 3002 3003 2963
2963 3003 3004 2964
2964 3004 3005 2965
2965 3005 3006 2966
2966 3006 3007 2967
2967 3007 3008 2968
2968 3008 3009 2969
2969 3009 3010 2970
2970 3010 3011 2971
2971 3011 3012 2972
2972 3012 3013 2973
2973 3013 3014 2974
2974 3014 3015 2975
2975 3015 3016 2976
2976 3016 3017 2977
2977 3017 3018 2978
2978 3018 3019 2979
2979 3019 3020 2980
2980 3020 3021 2981
2981 3021 3022 2982
2982 3022 3023 2983
2983 3023 3024 2984
2984 3024 3025 2985
2985 3025 3026 2986
2986 3026 3027 2987
2987 3027 3028 2988
2988 3028 3029 2989
2989 3029 3030 2990
2990 3030 3031 2991
2991 3031 3032 2992
2992 3032 3033 2993
2993 3033 3034 2994
2994 3034 3035 2995
2995 3035 3036 2996
2996 3036 3037 2997
2997 3037 151 150
74 75 3038 2998
2998 3038 3039 2999
2999 3039 3040 3000
3000 3040 3041 3001
3001 3041 3042 3002
3002 3042 3043 3003
3003 3043 3044 3004
3004 3044 3045 3005
3005 3045 3046 3006
3006 3046 3047 3007
3007 3047 3048 3008
3008 3048 3049 3009
3009 3049 3050 3010
3010 3050 3051 3011
3011 3051 3052 3012
3012 3052 3053 3013
3013 3053 3054 3014
3014 3054 3055 3015
3015 3055 3056 3016
3016 3056 3057 3017
3017 3057 3058 3018
3018 3058 3059 3019
3019 3059 3060 3020
3020 3060 3061 3021
3021 3061 3062 3022
3022 3062 3063 3023
3023 3063 3064 3024
3024 3064 3065 3025
3025 3065 3066 3026
3026 3066 3067 3027
3027 3067 3068 3028
3028 3068 3069 3029
3029 3069 3070 3030
3030 3070 3071 3031
3031 3071 3072 3032
3032 3072 3073 3033
3033 3073 3074 3034
3034 3074 3075 3035
3035 3075 3076 3036
3036 3076 3077 3037
3037 3077 152 151
75 76 3078 3038
3038 3078 3079 3039
3039 3079 3080 3040
3040 3080 3081 3041
3041 3081 3082 3042
3042 3082 3083 3043
3043 3083 3084 3044
3044 3084 3085 3045
3045 3085 3086 3046
3046 3086 3087 3047
3047 3087 3088 3048
3048 3088 3089 3049
3049 3089 3090 3050
3050 3090 3091 3051
3051 3091 3092 3052
3052 3092 3093 3053
3053 3093 3094 3054
3054 3094 3095 3055
3055 3095 3096 3056
3056 3096 3097 3057
3057 3097 3098 3058
3058 3098 3099 3059
3059 3099 3100 3060
3060 3100 3101 3061
3061 3101 3102 3062
3062 3102 3103 3063
3063 3103 3104 3064
3064 3104 3105 3065
3065 3105 3106 3066
3066 3106 3107 3067
3067 3107 3108 3068
3068 3108 3109 3069
3069 3109 3110 3070
3070 3110 3111 3071
3071 3111 3112 3072
3072 3112 3113 3073
3073 3113 3114 3074
3074 3114 3115 3075
3075 3115 3116 3076
3076 3116 3117 3077
3077 3117 153 152
76 77 3118 3078
3078 3118 3119 3079
3079 3119 3120 3080
3080 3120 3121 3081
3081 3121 3122 3082
3082 3122 3123 3083
3083 3123 3124 3084
3084 3124 3125 3085
3085 3125 3126 3086
3086 3126 3127 3087
3087 3127 3128 3088
3088 3128 3129 3089
3089 3129 3130 3090
3090 3130 3131 3091
3091 3131 3132 3092
3092 3132 3133 3093
3093 3133 3134 3094
3094 3134 3135 3095
3095 3135 3136 3096
3096 3136 3137 3097
3097 3137 3138 3098
3098 3138 3139 3099
3099 3139 3140 3100
3100 3140 3141 3101
3101 3141 3142 3102
3102 3142 3143 3103
3103 3143 3144 3104
3104 3144 3145 3105
3105 3145 3146 3106
3106 3146 3147 3107
3107 3147 3148 3108
3108 3148 3149 3109
3109 3149 3150 3110
3110 3150 3151 3111
3111 3151 3152 3112
3112 3152 3153 3113
3113 3153 3154 3114
3114 3154 3155 3115
3115 3155 3156 3116
3116 3156 3157 3117
3117 3157 154 153
77 78 3158 3118
3118 3158 3159 3119
3119 3159 3160 3120
3120 3160 3161 3121
3121 3161 3162 3122
3122 3162 3163 3123
3123 3163 3164 3124
3124 3164 3165 3125
3125 3165 3166 3126
3126 3166 3167 3127
3127 3167 3168 3128
3128 3168 3169 3129
3129 3169 3170 3130
3130 3170 3171 3131
3131 3171 3172 3132
3132 3172 3173 3133
3133 3173 3174 3134
3134 3174 3175 3135
3135 3175 3176 3136
3136 3176 3177 3137
3137 3177 3178 3138
3138 3178 3179 3139
3139 3179 3180 3140
3140 3180 3181 3141
3141 3181 3182 3142
3142 3182 3183 3143
3143 3183 3184 3144
3144 3184 3185 3145
3145 3185 3186 3146
3146 3186 3187 3147
3147 3187 3188 3148
3148 3188 3189 3149
3149 3189 3190 3150
3150 3190 3191 3151
3151 3191 3192 3152
3152 3192 3193 3153
3153 3193 3194 3154
3154 3194 3195 3155
3155 3195 3196 3156
3156 3196 3197 3157
3157 3197 155 154
78 79 3198 3158
3158 3198 3199 3159
3159 3199 3200 3160
3160 3200 3201 3161
3161 3201 3202 3162
3162 3202 3203 3163
3163 3203 3204 3164
3164 3204 3205 3165
3165 3205 3206 3166
3166 3206 3207 3167
3167 3207 3208 3168
3168 3208 3209 3169
3169 3209 3210 3170
3170 3210 3211 3171
3171 3211 3212 3172
3172 3212 3213 3173
3173 3213 3214 3174
3174 3214 3215 3175
3175 3215 3216 3176
3176 3216 3217 3177
3177 3217 3218 3178
3178 3218 3219 3179
3179 3219 3220 3180
3180 3220 3221 3181
3181 3221 3222 3182
3182 3222 3223 3183
3183 3223 3224 3184
3184 3224 3225 3185
3185 3225 3226 3186
3186 3226 3227 3187
3187 3227 3228 3188
3188 3228 3229 3189
3189 3229 3230 3190
3190 3230 3231 3191
3191 3231 3232 3192
3192 3232 3233 3193
3193 3233 3234 3194
3194 3234 3235 3195
3195 3235 3236 3196
3196 3236 3237 3197
3197 3237 156 155
79 80 3238 3198
3198 3238 3239 3199
3199 3239 3240 3200
3200 3240 3241 3201
3201 3241 3242 3202
3202 3242 3243 3203
3203 3243 3244 3204
3204 3244 3245 3205
3205 3245 3246 3206
3206 3246 3247 3207
3207 3247 3248 3208
3208 3248 3249 3209
3209 3249 3250 3210
3210 3250 3251 3211
3211 3251 3252 3212
3212 3252 3253 3213
3213 3253 3254 3214
3214 3254 3255 3215
3215 3255 3256 3216
3216 3256 3257 3217
3217 3257 3258 3218
3218 3258 3259 3219
3219 3259 3260 3220
3220 3260 3261 3221
3221 3261 3262 3222
3222 3262 3263 3223
3223 3263 3264 3224
3224 3264 3265 3225
3225 3265 3266 3226
3226 3266 3267 3227
3227 3267 3268 3228
3228 3268 3269 3229
3229 3269 3270 3230
3230 3270 3271 3231
3231 3271 3272 3232
3232 3272 3273 3233
3233 3273 3274 3234
3234 3274 3275 3235
3235 3275 3276 3236
3236 3276 3277 3237
3237 3277 157 156
80 81 3278 3238
3238 3278 3279 3239
3239 3279 3280 3240
3240 3280 3281 3241
3241 3281 3282 3242
3242 3282 3283 3243
3243 3283 3284 3244
3244 3284 3285 3245
3245 3285 3286 3246
3246 3286 3287 3247
3247 3287 3288 3248
3248 3288 3289 3249
3249 3289 3290 3250
3250 3290 3291 3251
3251 3291 3292 3252
3252 3292 3293 3253
3253 3293 3294 3254
3254 3294 3295 3255
3255 3295 3296 3256
3256 3296 3297 3257
3257 3297 3298 3258
3258 3298 3299 3259
3259 3299 3300 3260
3260 3300 3301 3261
3261 3301 3302 3262
3262 3302 3303 3263
3263 3303 3304 3264
3264 3304 3305 3265
3265 3305 3306 3266
3266 3306 3307 3267
3267 3307 3308 3268
3268 3308 3309 3269
3269 3309 3310 3270
3270 3310 3311 3271
3271 3311 3312 3272
3272 3312 3313 3273
3273 3313 3314 3274
3274 3314 3315 3275
3275 3315 3316 3276
3276 3316 3317 3277
3277 3317 158 157
81 82 3318 3278
3278 3318 3319 3279
3279 3319 3320 3280
3280 3320 3321 3281
3281 3321 3322 3282
3282 3322 3323 3283
3283 3323 3324 3284
3284 3324 3325 3285
3285 3325 3326 3286
3286 3326 3327 3287
3287 3327 3328 3288
3288 3328 3329 3289
3289 3329 3330 3290
3290 3330 3331 3291
3291 3331 3332 3292
3292 3332 3333 3293
3293 3333 3334 3294
3294 3334 3335 3295
3295 3335 3336 3296
3296 3336 3337 3297
3297 3337 3338 3298
3298 3338 3339 3299
3299 3339 3340 3300
3300 3340 3341 3301
3301 3341 3342 3302
3302 3342 3343 3303
3303 3343 3344 3304
3304 3344 3345 3305
3305 3345 3346 3306
3306 3346 3347 3307
3307 3347 3348 3308
3308 3348 3349 3309
3309 3349 3350 3310
3310 3350 3351 3311
3311 3351 3352 3312
3312 3352 3353 3313
3313 3353 3354 3314
3314 3354 3355 3315
3315 3355 3356 3316
3316 3356 3357 3317
3317 3357 159 158
82 83 3358 3318
3318 3358 3359 3319
3319 3359 3360 3320
3320 3360 3361 3321
3321 3361 3362 3322
3322 3362 3363 3323
3323 3363 3364 3324
3324 3364 3365 3325
3325 3365 3366 3326
3326 3366 3367 3327
3327 3367 3368 3328
3328 3368 3369 3329
3329 3369 3370 3330
3330 3370 3371 3331
3331 3371 3372 3332
3332 3372 3373 3333
3333 3373 3374 3334
3334 3374 3375 3335
3335 3375 3376 3336
3336 3376 3377 3337
3337 3377 3378 3338
3338 3378 3379 3339
3339 3379 3380 3340
3340 3380 3381 3341
3341 3381 3382 3342
3342 3382 3383 3343
3343 3383 3384 3344
3344 3384 3385 3345
3345 3385 3386 3346
3346 3386 3387 3347
3347 3387 3388 3348
3348 3388 3389 3349
3349 3389 3390 3350
3350 3390 3391 3351
3351 3391 3392 3352
3352 3392 3393 3353
3353 3393 3394 3354
3354 3394 3395 3355
3355 3395 3396 3356
3356 3396 3397 3357
3357 3397 160 159
83 84 3398 3358
3358 3398 3399 3359
3359 3399 3400 3360
3360 3400 3401 3361
3361 3401 3402 3362
3362 3402 3403 3363
3363 3403 3404 3364
3364 3404 3405 3365
3365 3405 3406 3366
3366 3406 3407 3367
3367 3407 3408 3368
3368 3408 3409 3369
3369 3409 3410 3370
3370 3410 3411 3371
3371 3411 3412 3372
3372 3412 3413 3373
3373 3413 3414 3374
3374 3414 3415 3375
3375 3415 3416 3376
3376 3416 3417 3377
3377 3417 3418 3378
3378 3418 3419 3379
3379 3419 3420 3380
3380 3420 3421 3381
3381 3421 3422 3382
3382 3422 3423 3383
3383 3423 3424 3384
3384 3424 3425 3385
3385 3425 3426 3386
3386 3426 3427 3387
3387 3427 3428 3388
3388 3428 3429 3389
3389 3429 3430 3390
3390 3430 3431 3391
3391 3431 3432 3392
3392 3432 3433 3393
3393 3433 3434 3394
3394 3434 3435 3395
3395 3435 3436 3396
3396 3436 3437 3397
3397 3437 161 160
84 85 3438 3398
3398 3438 3439 3399
3399 3439 3440 3400
3400 3440 3441 3401
3401 3441 3442 3402
3402 3442 3443 3403
3403 3443 3444 3404
3404 3444 3445 3405
3405 3445 3446 3406
3406 3446 3447 3407
3407 3447 3448 3408
3408 3448 3449 3409
3409 3449 3450 3410
3410 3450 3451 3411
3411 3451 3452 3412
3412 3452 3453 3413
3413 3453 3454 3414
3414 3454 3455 3415
3415 3455 3456 3416
3416 3456 3457 3417
3417 3457 3458 3418
3418 3458 3459 3419
3419 3459 3460 3420
3420 3460 3461 3421
3421 3461 3462 3422
3422 3462 3463 3423
3423 3463 3464 3424
3424 3464 3465 3425
3425 3465 3466 3426
3426 3466 3467 3427
3427 3467 3468 3428
3428 3468 3469 3429
3429 3469 3470 3430
3430 3470 3471 3431
3431 3471 3472 3432
3432 3472 3473 3433
3433 3473 3474 3434
3434 3474 3475 3435
3435 3475 3476 3436
3436 3476 3477 3437
3437 3477 162 161
85 86 3478 3438
3438 3478 3479 3439
3439 3479 3480 3440
3440 3480 3481 3441
3441 3481 3482 3442
3442 3482 3483 3443
3443 3483 3484 3444
3444 3484 3485 3445
3445 3485 3486 3446
3446 3486 3487 3447
3447 3487 3488 3448
3448 3488 3489 3449
3449 3489 3490 3450
3450 3490 3491 3451
3451 3491 3492 3452
3452 3492 3493 3453
3453 3493 3494 3454
3454 3494 3495 3455
3455 3495 3496 3456
3456 3496 3497 3457
3457 3497 3498 3458
3458 3498 3499 3459
3459 3499 3500 3460
3460 3500 3501 3461
3461 3501 3502 3462
3462 3502 3503 3463
3463 3503 3504 3464
3464 3504 3505 3465
3465 3505 3506 3466
3466 3506 3507 3467
3467 3507 3508 3468
3468 3508 3509 3469
3469 3509 3510 3470
3470 3510 3511 3471
3471 3511 3512 3472
3472 3512 3513 3473
3473 3513 3514 3474
3474 3514 3515 3475
3475 3515 3516 3476
3476 3516 3517 3477
3477 3517 163 162
86 87 3518 3478
3478 3518 3519 3479
3479 3519 3520 3480
3480 3520 3521 3481
3481 3521 3522 3482
3482 3522 3523 3483
3483 3523 3524 3484
3484 3524 3525 3485
3485 3525 3526 3486
3486 3526 3527 3487
3487 3527 3528 3488
3488 3528 3529 3489
3489 3529 3530 3490
3490 3530 3531 3491
3491 3531 3532 3492
3492 3532 3533 3493
3493 3533 3534 3494
3494 3534 3535 3495
3495 3535 3536 3496
3496 3536 3537 3497
3497 3537 3538 3498
3498 3538 3539 3499
3499 3539 3540 3500
3500 3540 3541 3501
3501 3541 3542 3502
3502 3542 3543 3503
3503 3543 3544 3504
3504 3544 3545 3505
3505 3545 3546 3506
3506 3546 3547 3507
3507 3547 3548 3508
3508 3548 3549 3509
3509 3549 3550 3510
3510 3550 3551 3511
3511 3551 3552 3512
3512 3552 3553 3513
3513 3553 3554 3514
3514 3554 3555 3515
3515 3555 3556 3516
3516 3556 3557 3517
3517 3557 164 163
87 88 3558 3518
3518 3558 3559 3519
3519 3559 3560 3520
3520 3560 3561 3521
3521 3561 3562 3522
3522 3562 3563 3523
3523 3563 3564 3524
3524 3564 3565 3525
3525 3565 3566 3526
3526 3566 3567 3527
3527 3567 3568 3528
3528 3568 3569 3529
3529 3569 3570 3530
3530 3570 3571 3531
3531 3571 3572 3532
3532 3572 3573 3533
3533 3573 3574 3534
3534 3574 3575 3535
3535 3575 3576 3536
3536 3576 3577 3537
3537 3577 3578 3538
3538 3578 3579 3539
3539 3579 3580 3540
3540 3580 3581 3541
3541 3581 3582 3542
3542 3582 3583 3543
3543 3583 3584 3544
3544 3584 3585 3545
3545 3585 3586 3546
3546 3586 3587 3547
3547 3587 3588 3548
3548 3588 3589 3549
3549 3589 3590 3550
3550 3590 3591 3551
3551 3591 3592 3552
3552 3592 3593 3553
3553 3593 3594 3554
3554 3594 3595 3555
3555 3595 3596 3556
3556 3596 3597 3557
3557 3597 165 164
88 2 322 3558
3558 322 321 3559
3559 321 320 3560
3560 320 319 3561
3561 319 318 3562
3562 318 317 3563
3563 317 316 3564
3564 316 315 3565
3565 315 314 3566
3566 314 313 3567
3567 313 312 3568
3568 312 311 3569
3569 311 310 3570
3570 310 309 3571
3571 309 308 3572
3572 308 307 3573
3573 307 306 3574
3574 306 305 3575
3575 305 304 3576
3576 304 303 3577
3577 303 302 3578
3578 302 301 3579
3579 301 300 3580
3580 300 299 3581
3581 299 298 3582
3582 298 297 3583
3583 297 296 3584
3584 296 295 3585
3585 295 294 3586
3586 294 293 3587
3587 293 292 3588
3588 292 291 3589
3589 291 290 3590
3590 290 289 3591
3591 289 288 3592
3592 288 287 3593
3593 287 286 3594
3594 286 285 3595
3595 285 284 3596
3596 284 283 3597
3597 283 6 165
4 108 3598 380
380 3598 3599 379
379 3599 3600 378
378 3600 3601 377
377 3601 3602 376
376 3602 3603 375
375 3603 3604 374
374 3604 3605 373
373 3605 3606 372
372 3606 3607 371
371 3607 3608 370
370 3608 3609 369
369 3609 3610 368
368 3610 3611 367
367 3611 3612 366
366 3612 3613 365
365 3613 3614 364
364 3614 3615 363
363 3615 3616 362
362 3616 323 9
108 109 3617 3598
3598 3617 3618 3599
3599 3618 3619 3600
3600 3619 3620 3601
3601 3620 3621 3602
3602 3621 3622 3603
3603 3622 3623 3604
3604 3623 3624 3605
3605 3624 3625 3606
3606 3625 3626 3607
3607 3626 3627 3608
3608 3627 3628 3609
3609 3628 3629 3610
3610 3629 3630 3611
3611 3630 3631 3612
3612 3631 3632 3613
3613 3632 3633 3614
3614 3633 3634 3615
3615 3634 3635 3616
3616 3635 324 323
109 110 3636 3617
3617 3636 3637 3618
3618 3637 3638 3619
3619 3638 3639 3620
3620 3639 3640 3621
3621 3640 3641 3622
3622 3641 3642 3623
3623 3642 3643 3624
3624 3643 3644 3625
3625 3644 3645 3626
3626 3645 3646 3627
3627 3646 3647 3628
3628 3647 3648 3629
3629 3648 3649 3630
3630 3649 3650 3631
3631 3650 3651 3632
3632 3651 3652 3633
3633 3652 3653 3634
3634 3653 3654 3635
3635 3654 325 324
110 111 3655 3636
3636 3655 3656 3637
3637 3656 3657 3638
3638 3657 3658 3639
3639 3658 3659 3640
3640 3659 3660 3641
3641 3660 3661 3642
3642 3661 3662 3643
3643 3662 3663 3644
3644 3663 3664 3645
3645 3664 3665 3646
3646 3665 3666 3647
3647 3666 3667 3648
3648 3667 3668 3649
3649 3668 3669 3650
3650 3669 3670 3651
3651 3670 3671 3652
3652 3671 3672 3653
3653 3672 3673 3654
3654 3673 326 325
111 112 3674 3655
3655 3674 3675 3656
3656 3675 3676 3657
3657 3676 3677 3658
3658 3677 3678 3659
3659 3678 3679 3660
3660 3679 3680 3661
3661 3680 3681 3662
3662 3681 3682 3663
3663 3682 3683 3664
3664 3683 3684 3665
3665 3684 3685 3666
3666 3685 3686 3667
3667 3686 3687 3668
3668 3687 3688 3669
3669 3688 3689 3670
3670 3689 3690 3671
3671 3690 3691 3672
3672 3691 3692 3673
3673 3692 327 326
112 113 3693 3674
3674 3693 3694 3675
3675 3694 3695 3676
3676 3695 3696 3677
3677 3696 3697 3678
3678 3697 3698 3679
3679 3698 3699 3680
3680 3699 3700 3681
3681 3700 3701 3682
3682 3701 3702 3683
3683 3702 3703 3684
3684 3703 3704 3685
3685 3704 3705 3686
3686 3705 3706 3687
3687 3706 3707 3688
3688 3707 3708 3689
3689 3708 3709 3690
3690 3709 3710 3691
3691 3710 3711 3692
3692 3711 328 327
113 114 3712 3693
3693 3712 3713 3694
3694 3713 3714 3695
3695 3714 3715 3696
3696 3715 3716 3697
3697 3716 3717 3698
3698 3717 3718 3699
3699 3718 3719 3700
3700 3719 3720 3701
3701 3720 3721 3702
3702 3721 3722 3703
3703 3722 3723 3704
3704 3723 3724 3705
3705 3724 3725 3706
3706 3725 3726 3707
3707 3726 3727 3708
3708 3727 3728 3709
3709 3728 3729 3710
3710 3729 3730 3711
3711 3730 329 328
114 115 3731 3712
3712 3731 3732 3713
3713 3732 3733 3714
3714 3733 3734 3715
3715 3734 3735 3716
3716 3735 3736 3717
3717 3736 3737 3718
3718 3737 3738 3719
3719 3738 3739 3720
3720 3739 3740 3721
3721 3740 3741 3722
3722 3741 3742 3723
3723 3742 3743 3724
3724 3743 3744 3725
3725 3744 3745 3726
3726 3745 3746 3727
3727 3746 3747 3728
3728 3747 3748 3729
3729 3748 3749 3730
3730 3749 330 329
115 116 3750 3731
3731 3750 3751 3732
3732 3751 3752 3733
3733 3752 3753 3734
3734 3753 3754 3735
3735 3754 3755 3736
3736 3755 3756 3737
3737 3756 3757 3738
3738 3757 3758 3739
3739 3758 3759 3740
3740 3759 3760 3741
3741 3760 3761 3742
3742 3761 3762 3743
3743 3762 3763 3744
3744 3763 3764 3745
3745 3764 3765 3746
3746 3765 3766 3747
3747 3766 3767 3748
3748 3767 3768 3749
3749 3768 331 330
116 117 3769 3750
3750 3769 3770 3751
3751 3770 3771 3752
3752 3771 3772 3753
3753 3772 3773 3754
3754 3773 3774 3755
3755 3774 3775 3756
3756 3775 3776 3757
3757 3776 3777 3758
3758 3777 3778 3759
3759 3778 3779 3760
3760 3779 3780 3761
3761 3780 3781 3762
3762 3781 3782 3763
3763 3782 3783 3764
3764 3783 3784 3765
3765 3784 3785 3766
3766 3785 3786 3767
3767 3786 3787 3768
3768 3787 332 331
117 118 3788 3769
3769 3788 3789 3770
3770 3789 3790 3771
3771 3790 3791 3772
3772 3791 3792 3773
3773 3792 3793 3774
3774 3793 3794 3775
3775 3794 3795 3776
3776 3795 3796 3777
3777 3796 3797 3778
3778 3797 3798 3779
3779 3798 3799 3780
3780 3799 3800 3781
3781 3800 3801 3782
3782 3801 3802 3783
3783 3802 3803 3784
3784 3803 3804 3785
3785 3804 3805 3786
3786 3805 3806 3787
3787 3806 333 332
118 119 3807 3788
3788 3807 3808 3789
3789 3808 3809 3790
3790 3809 3810 3791
3791 3810 3811 3792
3792 3811 3812 3793
3793 3812 3813 3794
3794 3813 3814 3795
3795 3814 3815 3796
3796 3815 3816 3797
3797 3816 3817 3798
3798 3817 3818 3799
3799 3818 3819 3800
3800 3819 3820 3801
3801 3820 3821 3802
3802 3821 3822 3803
3803 3822 3823 3804
3804 3823 3824 3805
3805 3824 3825 3806
3806 3825 334 333
119 120 3826 3807
3807 3826 3827 3808
3808 3827 3828 3809
3809 3828 3829 3810
3810 3829 3830 3811
3811 3830 3831 3812
3812 3831 3832 3813
3813 3832 3833 3814
3814 3833 3834 3815
3815 3834 3835 3816
3816 3835 3836 3817
3817 3836 3837 3818
3818 3837 3838 3819
3819 3838 3839 3820
3820 3839 3840 3821
3821 3840 3841 3822
3822 3841 3842 3823
3823 3842 3843 3824
3824 3843 3844 3825
3825 3844 335 334
120 121 3845 3826
3826 3845 3846 3827
3827 3846 3847 3828
3828 3847 3848 3829
3829 3848 3849 3830
3830 3849 3850 3831
3831 3850 3851 3832
3832 3851 3852 3833
3833 3852 3853 3834
3834 3853 3854 3835
3835 3854 3855 3836
3836 3855 3856 3837
3837 3856 3857 3838
3838 3857 3858 3839
3839 3858 3859 3840
3840 3859 3860 3841
3841 3860 3861 3842
3842 3861 3862 3843
3843 3862 3863 3844
3844 3863 336 335
121 122 3864 3845
3845 3864 3865 3846
3846 3865 3866 3847
3847 3866 3867 3848
3848 3867 3868 3849
3849 3868 3869 3850
3850 3869 3870 3851
3851 3870 3871 3852
3852 3871 3872 3853
3853 3872 3873 3854
3854 3873 3874 3855
3855 3874 3875 3856
3856 3875 3876 3857
3857 3876 3877 3858
3858 3877 3878 3859
3859 3878 3879 3860
3860 3879 3880 3861
3861 3880 3881 3862
3862 3881 3882 3863
3863 3882 337 336
122 123 3883 3864
3864 3883 3884 3865
3865 3884 3885 3866
3866 3885 3886 3867
3867 3886 3887 3868
3868 3887 3888 3869
3869 3888 3889 3870
3870 3889 3890 3871
3871 3890 3891 3872
3872 3891 3892 3873
3873 3892 3893 3874
3874 3893 3894 3875
3875 3894 3895 3876
3876 3895 3896 3877
3877 3896 3897 3878
3878 3897 3898 3879
3879 3898 3899 3880
3880 3899 3900 3881
3881 3900 3901 3882
3882 3901 338 337
123 124 3902 3883
3883 3902 3903 3884
3884 3903 3904 3885
3885 3904 3905 3886
3886 3905 3906 3887
3887 3906 3907 3888
3888 3907 3908 3889
3889 3908 3909 3890
3890 3909 3910 3891
3891 3910 3911 3892
3892 3911 3912 3893
3893 3912 3913 3894
3894 3913 3914 3895
3895 3914 3915 3896
3896 3915 3916 3897
3897 3916 3917 3898
3898 3917 3918 3899
3899 3918 3919 3900
3900 3919 3920 3901
3901 3920 339 338
124 125 3921 3902
3902 3921 3922 3903
3903 3922 3923 3904
3904 3923 3924 3905
3905 3924 3925 3906
3906 3925 3926 3907
3907 3926 3927 3908
3908 3927 3928 3909
3909 3928 3929 3910
3910 3929 3930 3911
3911 3930 3931 3912
3912 3931 3932 3913
3913 3932 3933 3914
3914 3933 3934 3915
3915 3934 3935 3916
3916 3935 3936 3917
3917 3936 3937 3918
3918 3937 3938 3919
3919 3938 3939 3920
3920 3939 340 339
125 126 3940 3921
3921 3940 3941 3922
3922 3941 3942 3923
3923 3942 3943 3924
3924 3943 3944 3925
3925 3944 3945 3926
3926 3945 3946 3927
3927 3946 3947 3928
3928 3947 3948 3929
3929 3948 3949 3930
3930 3949 3950 3931
3931 3950 3951 3932
3932 3951 3952 3933
3933 3952 3953 3934
3934 3953 3954 3935
3935 3954 3955 3936
3936 3955 3956 3937
3937 3956 3957 3938
3938 3957 3958 3939
3939 3958 341 340
126 127 3959 3940
3940 3959 3960 3941
3941 3960 3961 3942
3942 3961 3962 3943
3943 3962 3963 3944
3944 3963 3964 3945
3945 3964 3965 3946
3946 3965 3966 3947
3947 3966 3967 3948
3948 3967 3968 3949
3949 3968 3969 3950
3950 3969 3970 3951
3951 3970 3971 3952
3952 3971 3972 3953
3953 3972 3973 3954
3954 3973 3974 3955
3955 3974 3975 3956
3956 3975 3976 3957
3957 3976 3977 3958
3958 3977 342 341
127 128 3978 3959
3959 3978 3979 3960
3960 3979 3980 3961
3961 3980 3981 3962
3962 3981 3982 3963
3963 3982 3983 3964
3964 3983 3984 3965
3965 3984 3985 3966
3966 3985 3986 3967
3967 3986 3987 3968
3968 3987 3988 3969
3969 3988 3989 3970
3970 3989 3990 3971
3971 3990 3991 3972
3972 3991 3992 3973
3973 3992 3993 3974
3974 3993 3994 3975
3975 3994 3995 3976
3976 3995 3996 3977
3977 3996 343 342
128 129 3997 3978
3978 3997 3998 3979
3979 3998 3999 3980
3980 3999 4000 3981
3981 4000 4001 3982
3982 4001 4002 3983
3983 4002 4003 3984
3984 4003 4004 3985
3985 4004 4005 3986
3986 4005 4006 3987
3987 4006 4007 3988
3988 4007 4008 3989
3989 4008 4009 3990
3990 4009 4010 3991
3991 4010 4011 3992
3992 4011 4012 3993
3993 4012 4013 3994
3994 4013 4014 3995
3995 4014 4015 3996
3996 4015 344 343
129 130 4016 3997
3997 4016 4017 3998
3998 4017 4018 3999
3999 4018 4019 4000
4000 4019 4020 4001
4001 4020 4021 4002
4002 4021 4022 4003
4003 4022 4023 4004
4004 4023 4024 4005
4005 4024 4025 4006
4006 4025 4026 4007
4007 4026 4027 4008
4008 4027 4028 4009
4009 4028 4029 4010
4010 4029 4030 4011
4011 4030 4031 4012
4012 4031 4032 4013
4013 4032 4033 4014
4014 4033 4034 4015
4015 4034 345 344
130 131 4035 4016
4016 4035 4036 4017
4017 4036 4037 4018
4018 4037 4038 4019
4019 4038 4039 4020
4020 4039 4040 4021
4021 4040 4041 4022
4022 4041 4042 4023
4023 4042 4043 4024
4024 4043 4044 4025
4025 4044 4045 4026
4026 4045 4046 4027
4027 4046 4047 4028
4028 4047 4048 4029
4029 4048 4049 4030
4030 4049 4050 4031
4031 4050 4051 4032
4032 4051 4052 4033
4033 4052 4053 4034
4034 4053 346 345
131 132 4054 4035
4035 4054 4055 4036
4036 4055 4056 4037
4037 4056 4057 4038
4038 4057 4058 4039
4039 4058 4059 4040
4040 4059 4060 4041
4041 4060 4061 4042
4042 4061 4062 4043
4043 4062 4063 4044
4044 4063 4064 4045
4045 4064 4065 4046
4046 4065 4066 4047
4047 4066 4067 4048
4048 4067 4068 4049
4049 4068 4069 4050
4050 4069 4070 4051
4051 4070 4071 4052
4052 4071 4072 4053
4053 4072 347 346
132 133 4073 4054
4054 4073 4074 4055
4055 4074 4075 4056
4056 4075 4076 4057
4057 4076 4077 4058
4058 4077 4078 4059
4059 4078 4079 4060
4060 4079 4080 4061
4061 4080 4081 4062
4062 4081 4082 4063
4063 4082 4083 4064
4064 4083 4084 4065
4065 4084 4085 4066
4066 4085 4086 4067
4067 4086 4087 4068
4068 4087 4088 4069
4069 4088 4089 4070
4070 4089 4090 4071
4071 4090 4091 4072
4072 4091 348 347
133 134 4092 4073
4073 4092 4093 4074
4074 4093 4094 4075
4075 4094 4095 4076
4076 4095 4096 4077
4077 4096 4097 4078
4078 4097 4098 4079
4079 4098 4099 4080
4080 4099 4100 4081
4081 4100 4101 4082
4082 4101 4102 4083
4083 4102 4103 4084
4084 4103 4104 4085
4085 4104 4105 4086
4086 4105 4106 4087
4087 4106 4107 4088
4088 4107 4108 4089
4089 4108 4109 4090
4090 4109 4110 4091
4091 4110 349 348
134 135 4111 4092
4092 4111 4112 4093
4093 4112 4113 4094
4094 4113 4114 4095
4095 4114 4115 4096
4096 4115 4116 4097
4097 4116 4117 4098
4098 4117 4118 4099
4099 4118 4119 4100
4100 4119 4120 4101
4101 4120 4121 4102
4102 4121 4122 4103
4103 4122 4123 4104
4104 4123 4124 4105
4105 4124 4125 4106
4106 4125 4126 4107
4107 4126 4127 4108
4108 4127 4128 4109
4109 4128 4129 4110
4110 4129 350 349
135 136 4130 4111
4111 4130 4131 4112
4112 4131 4132 4113
4113 4132 4133 4114
4114 4133 4134 4115
4115 4134 4135 4116
4116 4135 4136 4117
4117 4136 4137 4118
4118 4137 4138 4119
4119 4138 4139 4120
4120 4139 4140 4121
4121 4140 4141 4122
4122 4141 4142 4123
4123 4142 4143 4124
4124 4143 4144 4125
4125 4144 4145 4126
4126 4145 4146 4127
4127 4146 4147 4128
4128 4147 4148 4129
4129 4148 351 350
136 137 4149 4130
4130 4149 4150 4131
4131 4150 4151 4132
4132 4151 4152 4133
4133 4152 4153 4134
4134 4153 4154 4135
4135 4154 4155 4136
4136 4155 4156 4137
4137 4156 4157 4138
4138 4157 4158 4139
4139 4158 4159 4140
4140 4159 4160 4141
4141 4160 4161 4142
4142 4161 4162 4143
4143 4162 4163 4144
4144 4163 4164 4145
4145 4164 4165 4146
4146 4165 4166 4147
4147 4166 4167 4148
4148 4167 352 351
137 138 4168 4149
4149 4168 4169 4150
4150 4169 4170 4151
4151 4170 4171 4152
4152 4171 4172 4153
4153 4172 4173 4154
4154 4173 4174 4155
4155 4174 4175 4156
4156 4175 4176 4157
4157 4176 4177 4158
4158 4177 4178 4159
4159 4178 4179 4160
4160 4179 4180 4161
4161 4180 4181 4162
4162 4181 4182 4163
4163 4182 4183 4164
4164 4183 4184 4165
4165 4184 4185 4166
4166 4185 4186 4167
4167 4186 353 352
138 139 4187 4168
4168 4187 4188 4169
4169 4188 4189 4170
4170 4189 4190 4171
4171 4190 4191 4172
4172 4191 4192 4173
4173 4192 4193 4174
4174 4193 4194 4175
4175 4194 4195 4176
4176 4195 4196 4177
4177 4196 4197 4178
4178 4197 4198 4179
4179 4198 4199 4180
4180 4199 4200 4181
4181 4200 4201 4182
4182 4201 4202 4183
4183 4202 4203 4184
4184 4203 4204 4185
4185 4204 4205 4186
4186 4205 354 353
139 140 4206 4187
4187 4206 4207 4188
4188 4207 4208 4189
4189 4208 4209 4190
4190 4209 4210 4191
4191 4210 4211 4192
4192 4211 4212 4193
4193 4212 4213 4194
4194 4213 4214 4195
4195 4214 4215 4196
4196 4215 4216 4197
4197 4216 4217 4198
4198 4217 4218 4199
4199 4218 4219 4200
4200 4219 4220 4201
4201 4220 4221 4202
4202 4221 4222 4203
4203 4222 4223 4204
4204 4223 4224 4205
4205 4224 355 354
140 141 4225 4206
4206 4225 4226 4207
4207 4226 4227 4208
4208 4227 4228 4209
4209 4228 4229 4210
4210 4229 4230 4211
4211 4230 4231 4212
4212 4231 4232 4213
4213 4232 4233 4214
4214 4233 4234 4215
4215 4234 4235 4216
4216 4235 4236 4217
4217 4236 4237 4218
4218 4237 4238 4219
4219 4238 4239 4220
4220 4239 4240 4221
4221 4240 4241 4222
4222 4241 4242 4223
4223 4242 4243 4224
4224 4243 356 355
141 142 4244 4225
4225 4244 4245 4226
4226 4245 4246 4227
4227 4246 4247 4228
4228 4247 4248 4229
4229 4248 4249 4230
4230 4249 4250 4231
4231 4250 4251 4232
4232 4251 4252 4233
4233 4252 4253 4234
4234 4253 4254 4235
4235 4254 4255 4236
4236 4255 4256 4237
4237 4256 4257 4238
4238 4257 4258 4239
4239 4258 4259 4240
4240 4259 4260 4241
4241 4260 4261 4242
4242 4261 4262 4243
4243 4262 357 356
142 143 4263 4244
4244 4263 4264 4245
4245 4264 4265 4246
4246 4265 4266 4247
4247 4266 4267 4248
4248 4267 4268 4249
4249 4268 4269 4250
4250 4269 4270 4251
4251 4270 4271 4252
4252 4271 4272 4253
4253 4272 4273 4254
4254 4273 4274 4255
4255 4274 4275 4256
4256 4275 4276 4257
4257 4276 4277 4258
4258 4277 4278 4259
4259 4278 4279 4260
4260 4279 4280 4261
4261 4280 4281 4262
4262 4281 358 357
143 144 4282 4263
4263 4282 4283 4264
4264 4283 4284 4265
4265 4284 4285 4266
4266 4285 4286 4267
4267 4286 4287 4268
4268 4287 4288 4269
4269 4288 4289 4270
4270 4289 4290 4271
4271 4290 4291 4272
4272 4291 4292 4273
4273 4292 4293 4274
4274 4293 4294 4275
4275 4294 4295 4276
4276 4295 4296 4277
4277 4296 4297 4278
4278 4297 4298 4279
4279 4298 4299 4280
4280 4299 4300 4281
4281 4300 359 358
144 145 4301 4282
4282 4301 4302 4283
4283 4302 4303 4284
4284 4303 4304 4285
4285 4304 4305 4286
4286 4305 4306 4287
4287 4306 4307 4288
4288 4307 4308 4289
4289 4308 4309 4290
4290 4309 4310 4291
4291 4310 4311 4292
4292 4311 4312 4293
4293 4312 4313 4294
4294 4313 4314 4295
4295 4314 4315 4296
4296 4315 4316 4297
4297 4316 4317 4298
4298 4317 4318 4299
4299 4318 4319 4300
4300 4319 360 359
145 146 4320 4301
4301 4320 4321 4302
4302 4321 4322 4303
4303 4322 4323 4304
4304 4323 4324 4305
4305 4324 4325 4306
4306 4325 4326 4307
4307 4326 4327 4308
4308 4327 4328 4309
4309 4328 4329 4310
4310 4329 4330 4311
4311 4330 4331 4312
4312 4331 4332 4313
4313 4332 4333 4314
4314 4333 4334 4315
4315 4334 4335 4316
4316 4335 4336 4317
4317 4336 4337 4318
4318 4337 4338 4319
4319 4338 361 360
146 5 399 4320
4320 399 398 4321
4321 398 397 4322
4322 397 396 4323
4323 396 395 4324
4324 395 394 4325
4325 394 393 4326
4326 393 392 4327
4327 392 391 4328
4328 391 390 4329
4329 390 389 4330
4330 389 388 4331
4331 388 387 4332
4332 387 386 4333
4333 386 385 4334
4334 385 384 4335
4335 384 383 4336
4336 383 382 4337
4337 382 381 4338
4338 381 10 361
3 89 4339 166
166 4339 4340 167
167 4340 4341 168
168 4341 4342 169
169 4342 4343 170
170 4343 4344 171
171 4344 4345 172
172 4345 4346 173
173 4346 4347 174
174 4347 4348 175
175 4348 4349 176
176 4349 4350 177
177 4350 4351 178
178 4351 4352 179
179 4352 4353 180
180 4353 4354 181
181 4354 4355 182
182 4355 4356 183
183 4356 4357 184
184 4357 418 7
89 90 4358 4339
4339 4358 4359 4340
4340 4359 4360 4341
4341 4360 4361 4342
4342 4361 4362 4343
4343 4362 4363 4344
4344 4363 4364 4345
4345 4364 4365 4346
4346 4365 4366 4347
4347 4366 4367 4348
4348 4367 4368 4349
4349 4368 4369 4350
4350 4369 4370 4351
4351 4370 4371 4352
4352 4371 4372 4353
4353 4372 4373 4354
4354 4373 4374 4355
4355 4374 4375 4356
4356 4375 4376 4357
4357 4376 417 418
90 91 4377 4358
4358 4377 4378 4359
4359 4378 4379 4360
4360 4379 4380 4361
4361 4380 4381 4362
4362 4381 4382 4363
4363 4382 4383 4364
4364 4383 4384 4365
4365 4384 4385 4366
4366 4385 4386 4367
4367 4386 4387 4368
4368 4387 4388 4369
4369 4388 4389 4370
4370 4389 4390 4371
4371 4390 4391 4372
4372 4391 4392 4373
4373 4392 4393 4374
4374 4393 4394 4375
4375 4394 4395 4376
4376 4395 416 417
91 92 4396 4377
4377 4396 4397 4378
4378 4397 4398 4379
4379 4398 4399 4380
4380 4399 4400 4381
4381 4400 4401 4382
4382 4401 4402 4383
4383 4402 4403 4384
4384 4403 4404 4385
4385 4404 4405 4386
4386 4405 4406 4387
4387 4406 4407 4388
4388 4407 4408 4389
4389 4408 4409 4390
4390 4409 4410 4391
4391 4410 4411 4392
4392 4411 4412 4393
4393 4412 4413 4394
4394 4413 4414 4395
4395 4414 415 416
92 93 4415 4396
4396 4415 4416 4397
4397 4416 4417 4398
4398 4417 4418 4399
4399 4418 4419 4400
4400 4419 4420 4401
4401 4420 4421 4402
4402 4421 4422 4403
4403 4422 4423 4404
4404 4423 4424 4405
4405 4424 4425 4406
4406 4425 4426 4407
4407 4426 4427 4408
4408 4427 4428 4409
4409 4428 4429 4410
4410 4429 4430 4411
4411 4430 4431 4412
4412 4431 4432 4413
4413 4432 4433 4414
4414 4433 414 415
93 94 4434 4415
4415 4434 4435 4416
4416 4435 4436 4417
4417 4436 4437 4418
4418 4437 4438 4419
4419 4438 4439 4420
4420 4439 4440 4421
4421 4440 4441 4422
4422 4441 4442 4423
4423 4442 4443 4424
4424 4443 4444 4425
4425 4444 4445 4426
4426 4445 4446 4427
4427 4446 4447 4428
4428 4447 4448 4429
4429 4448 4449 4430
4430 4449 4450 4431
4431 4450 4451 4432
4432 4451 4452 4433
4433 4452 413 414
94 95 4453 4434
4434 4453 4454 4435
4435 4454 4455 4436
4436 4455 4456 4437
4437 4456 4457 4438
4438 4457 4458 4439
4439 4458 4459 4440
4440 4459 4460 4441
4441 4460 4461 4442
4442 4461 4462 4443
4443 4462 4463 4444
4444 4463 4464 4445
4445 4464 4465 4446
4446 4465 4466 4447
4447 4466 4467 4448
4448 4467 4468 4449
4449 4468 4469 4450
4450 4469 4470 4451
4451 4470 4471 4452
4452 4471 412 413
95 96 4472 4453
4453 4472 4473 4454
4454 4473 4474 4455
4455 4474 4475 4456
4456 4475 4476 4457
4457 4476 4477 4458
4458 4477 4478 4459
4459 4478 4479 4460
4460 4479 4480 4461
4461 4480 4481 4462
4462 4481 4482 4463
4463 4482 4483 4464
4464 4483 4484 4465
4465 4484 4485 4466
4466 4485 4486 4467
4467 4486 4487 4468
4468 4487 4488 4469
4469 4488 4489 4470
4470 4489 4490 4471
4471 4490 411 412
96 97 4491 4472
4472 4491 4492 4473
4473 4492 4493 4474
4474 4493 4494 4475
4475 4494 4495 4476
4476 4495 4496 4477
4477 4496 4497 4478
4478 4497 4498 4479
4479 4498 4499 4480
4480 4499 4500 4481
4481 4500 4501 4482
4482 4501 4502 4483
4483 4502 4503 4484
4484 4503 4504 4485
4485 4504 4505 4486
4486 4505 4506 4487
4487 4506 4507 4488
4488 4507 4508 4489
4489 4508 4509 4490
4490 4509 410 411
97 98 4510 4491
4491 4510 4511 4492
4492 4511 4512 4493
4493 4512 4513 4494
4494 4513 4514 4495
4495 4514 4515 4496
4496 4515 4516 4497
4497 4516 4517 4498
4498 4517 4518 4499
4499 4518 4519 4500
4500 4519 4520 4501
4501 4520 4521 4502
4502 4521 4522 4503
4503 4522 4523 4504
4504 4523 4524 4505
4505 4524 4525 4506
4506 4525 4526 4507
4507 4526 4527 4508
4508 4527 4528 4509
4509 4528 409 410
98 99 4529 4510
4510 4529 4530 4511
4511 4530 4531 4512
4512 4531 4532 4513
4513 4532 4533 4514
4514 4533 4534 4515
4515 4534 4535 4516
4516 4535 4536 4517
4517 4536 4537 4518
4518 4537 4538 4519
4519 4538 4539 4520
4520 4539 4540 4521
4521 4540 4541 4522
4522 4541 4542 4523
4523 4542 4543 4524
4524 4543 4544 4525
4525 4544 4545 4526
4526 4545 4546 4527
4527 4546 4547 4528
4528 4547 408 409
99 100 4548 4529
4529 4548 4549 4530
4530 4549 4550 4531
4531 4550 4551 4532
4532 4551 4552 4533
4533 4552 4553 4534
4534 4553 4554 4535
4535 4554 4555 4536
4536 4555 4556 4537
4537 4556 4557 4538
4538 4557 4558 4539
4539 4558 4559 4540
4540 4559 4560 4541
4541 4560 4561 4542
4542 4561 4562 4543
4543 4562 4563 4544
4544 4563 4564 4545
4545 4564 4565 4546
4546 4565 4566 4547
4547 4566 407 408
100 101 4567 4548
4548 4567 4568 4549
4549 4568 4569 4550
4550 4569 4570 4551
4551 4570 4571 4552
4552 4571 4572 4553
4553 4572 4573 4554
4554 4573 4574 4555
4555 4574 4575 4556
4556 4575 4576 4557
4557 4576 4577 4558
4558 4577 4578 4559
4559 4578 4579 4560
4560 4579 4580 4561
4561 4580 4581 4562
4562 4581 4582 4563
4563 4582 4583 4564
4564 4583 4584 4565
4565 4584 4585 4566
4566 4585 406 407
101 102 4586 4567
4567 4586 4587 4568
4568 4587 4588 4569
4569 4588 4589 4570
4570 4589 4590 4571
4571 4590 4591 4572
4572 4591 4592 4573
4573 4592 4593 4574
4574 4593 4594 4575
4575 4594 4595 4576
4576 4595 4596 4577
4577 4596 4597 4578
4578 4597 4598 4579
4579 4598 4599 4580
4580 4599 4600 4581
4581 4600 4601 4582
4582 4601 4602 4583
4583 4602 4603 4584
4584 4603 4604 4585
4585 4604 405 406
102 103 4605 4586
4586 4605 4606 4587
4587 4606 4607 4588
4588 4607 4608 4589
4589 4608 4609 4590
4590 4609 4610 4591
4591 4610 4611 4592
4592 4611 4612 4593
4593 4612 4613 4594
4594 4613 4614 4595
4595 4614 4615 4596
4596 4615 4616 4597
4597 4616 4617 4598
4598 4617 4618 4599
4599 4618 4619 4600
4600 4619 4620 4601
4601 4620 4621 4602
4602 4621 4622 4603
4603 4622 4623 4604
4604 4623 404 405
103 104 4624 4605
4605 4624 4625 4606
4606 4625 4626 4607
4607 4626 4627 4608
4608 4627 4628 4609
4609 4628 4629 4610
4610 4629 4630 4611
4611 4630 4631 4612
4612 4631 4632 4613
4613 4632 4633 4614
4614 4633 4634 4615
4615 4634 4635 4616
4616 4635 4636 4617
4617 4636 4637 4618
4618 4637 4638 4619
4619 4638 4639 4620
4620 4639 4640 4621
4621 4640 4641 4622
4622 4641 4642 4623
4623 4642 403 404
104 105 4643 4624
4624 4643 4644 4625
4625 4644 4645 4626
4626 4645 4646 4627
4627 4646 4647 4628
4628 4647 4648 4629
4629 4648 4649 4630
4630 4649 4650 4631
4631 4650 4651 4632
4632 4651 4652 4633
4633 4652 4653 4634
4634 4653 4654 4635
4635 4654 4655 4636
4636 4655 4656 4637
4637 4656 4657 4638
4638 4657 4658 4639
4639 4658 4659 4640
4640 4659 4660 4641
4641 4660 4661 4642
4642 4661 402 403
105 106 4662 4643
4643 4662 4663 4644
4644 4663 4664 4645
4645 4664 4665 4646
4646 4665 4666 4647
4647 4666 4667 4648
4648 4667 4668 4649
4649 4668 4669 4650
4650 4669 4670 4651
4651 4670 4671 4652
4652 4671 4672 4653
4653 4672 4673 4654
4654 4673 4674 4655
4655 4674 4675 4656
4656 4675 4676 4657
4657 4676 4677 4658
4658 4677 4678 4659
4659 4678 4679 4660
4660 4679 4680 4661
4661 4680 401 402
106 107 4681 4662
4662 4681 4682 4663
4663 4682 4683 4664
4664 4683 4684 4665
4665 4684 4685 4666
4666 4685 4686 4667
4667 4686 4687 4668
4668 4687 4688 4669
4669 4688 4689 4670
4670 4689 4690 4671
4671 4690 4691 4672
4672 4691 4692 4673
4673 4692 4693 4674
4674 4693 4694 4675
4675 4694 4695 4676
4676 4695 4696 4677
4677 4696 4697 4678
4678 4697 4698 4679
4679 4698 4699 4680
4680 4699 400 401
107 4 380 4681
4681 380 379 4682
4682 379 378 4683
4683 378 377 4684
4684 377 376 4685
4685 376 375 4686
4686 375 374 4687
4687 374 373 4688
4688 373 372 4689
4689 372 371 4690
4690 371 370 4691
4691 370 369 4692
4692 369 368 4693
4693 368 367 4694
4694 367 366 4695
4695 366 365 4696
4696 365 364 4697
4697 364 363 4698
4698 363 362 4699
4699 362 9 400
5 147 4700 399
399 4700 4701 398
398 4701 4702 397
397 4702 4703 396
396 4703 4704 395
395 4704 4705 394
394 4705 4706 393
393 4706 4707 392
392 4707 4708 391
391 4708 4709 390
390 4709 4710 389
389 4710 4711 388
388 4711 4712 387
387 4712 4713 386
386 4713 4714 385
385 4714 4715 384
384 4715 4716 383
383 4716 4717 382
382 4717 4718 381
381 4718 419 10
147 148 4719 4700
4700 4719 4720 4701
4701 4720 4721 4702
4702 4721 4722 4703
4703 4722 4723 4704
4704 4723 4724 4705
4705 4724 4725 4706
4706 4725 4726 4707
4707 4726 4727 4708
4708 4727 4728 4709
4709 4728 4729 4710
4710 4729 4730 4711
4711 4730 4731 4712
4712 4731 4732 4713
4713 4732 4733 4714
4714 4733 4734 4715
4715 4734 4735 4716
4716 4735 4736 4717
4717 4736 4737 4718
4718 4737 420 419
148 149 4738 4719
4719 4738 4739 4720
4720 4739 4740 4721
4721 4740 4741 4722
4722 4741 4742 4723
4723 4742 4743 4724
4724 4743 4744 4725
4725 4744 4745 4726
4726 4745 4746 4727
4727 4746 4747 4728
4728 4747 4748 4729
4729 4748 4749 4730
4730 4749 4750 4731
4731 4750 4751 4732
4732 4751 4752 4733
4733 4752 4753 4734
4734 4753 4754 4735
4735 4754 4755 4736
4736 4755 4756 4737
4737 4756 421 420
149 150 4757 4738
4738 4757 4758 4739
4739 4758 4759 4740
4740 4759 4760 4741
4741 4760 4761 4742
4742 4761 4762 4743
4743 4762 4763 4744
4744 4763 4764 4745
4745 4764 4765 4746
4746 4765 4766 4747
4747 4766 4767 4748
4748 4767 4768 4749
4749 4768 4769 4750
4750 4769 4770 4751
4751 4770 4771 4752
4752 4771 4772 4753
4753 4772 4773 4754
4754 4773 4774 4755
4755 4774 4775 4756
4756 4775 422 421
150 151 4776 4757
4757 4776 4777 4758
4758 4777 4778 4759
4759 4778 4779 4760
4760 4779 4780 4761
4761 4780 4781 4762
4762 4781 4782 4763
4763 4782 4783 4764
4764 4783 4784 4765
4765 4784 4785 4766
4766 4785 4786 4767
4767 4786 4787 4768
4768 4787 4788 4769
4769 4788 4789 4770
4770 4789 4790 4771
4771 4790 4791 4772
4772 4791 4792 4773
4773 4792 4793 4774
4774 4793 4794 4775
4775 4794 423 422
151 152 4795 4776
4776 4795 4796 4777
4777 4796 4797 4778
4778 4797 4798 4779
4779 4798 4799 4780
4780 4799 4800 4781
4781 4800 4801 4782
4782 4801 4802 4783
4783 4802 4803 4784
4784 4803 4804 4785
4785 4804 4805 4786
4786 4805 4806 4787
4787 4806 4807 4788
4788 4807 4808 4789
4789 4808 4809 4790
4790 4809 4810 4791
4791 4810 4811 4792
4792 4811 4812 4793
4793 4812 4813 4794
4794 4813 424 423
152 153 4814 4795
4795 4814 4815 4796
4796 4815 4816 4797
4797 4816 4817 4798
4798 4817 4818 4799
4799 4818 4819 4800
4800 4819 4820 4801
4801 4820 4821 4802
4802 4821 4822 4803
4803 4822 4823 4804
4804 4823 4824 4805
4805 4824 4825 4806
4806 4825 4826 4807
4807 4826 4827 4808
4808 4827 4828 4809
4809 4828 4829 4810
4810 4829 4830 4811
4811 4830 4831 4812
4812 4831 4832 4813
4813 4832 425 424
153 154 4833 4814
4814 4833 4834 4815
4815 4834 4835 4816
4816 4835 4836 4817
4817 4836 4837 4818
4818 4837 4838 4819
4819 4838 4839 4820
4820 4839 4840 4821
4821 4840 4841 4822
4822 4841 4842 4823
4823 4842 4843 4824
4824 4843 4844 4825
4825 4844 4845 4826
4826 4845 4846 4827
4827 4846 4847 4828
4828 4847 4848 4829
4829 4848 4849 4830
4830 4849 4850 4831
4831 4850 4851 4832
4832 4851 426 425
154 155 4852 4833
4833 4852 4853 4834
4834 4853 4854 4835
4835 4854 4855 4836
4836 4855 4856 4837
4837 4856 4857 4838
4838 4857 4858 4839
4839 4858 4859 4840
4840 4859 4860 4841
4841 4860 4861 4842
4842 4861 4862 4843
4843 4862 4863 4844
4844 4863 4864 4845
4845 4864 4865 4846
4846 4865 4866 4847
4847 4866 4867 4848
4848 4867 4868 4849
4849 4868 4869 4850
4850 4869 4870 4851
4851 4870 427 426
155 156 4871 4852
4852 4871 4872 4853
4853 4872 4873 4854
4854 4873 4874 4855
4855 4874 4875 4856
4856 4875 4876 4857
4857 4876 4877 4858
4858 4877 4878 4859
4859 4878 4879 4860
4860 4879 4880 4861
4861 4880 4881 4862
4862 4881 4882 4863
4863 4882 4883 4864
4864 4883 4884 4865
4865 4884 4885 4866
4866 4885 4886 4867
4867 4886 4887 4868
4868 4887 4888 4869
4869 4888 4889 4870
4870 4889 428 427
156 157 4890 4871
4871 4890 4891 4872
4872 4891 4892 4873
4873 4892 4893 4874
4874 4893 4894 4875
4875 4894 4895 4876
4876 4895 4896 4877
4877 4896 4897 4878
4878 4897 4898 4879
4879 4898 4899 4880
4880 4899 4900 4881
4881 4900 4901 4882
4882 4901 4902 4883
4883 4902 4903 4884
4884 4903 4904 4885
4885 4904 4905 4886
4886 4905 4906 4887
4887 4906 4907 4888
4888 4907 4908 4889
4889 4908 429 428
157 158 4909 4890
4890 4909 4910 4891
4891 4910 4911 4892
4892 4911 4912 4893
4893 4912 4913 4894
4894 4913 4914 4895
4895 4914 4915 4896
4896 4915 4916 4897
4897 4916 4917 4898
4898 4917 4918 4899
4899 4918 4919 4900
4900 4919 4920 4901
4901 4920 4921 4902
4902 4921 4922 4903
4903 4922 4923 4904
4904 4923 4924 4905
4905 4924 4925 4906
4906 4925 4926 4907
4907 4926 4927 4908
4908 4927 430 429
158 159 4928 4909
4909 4928 4929 4910
4910 4929 4930 4911
4911 4930 4931 4912
4912 4931 4932 4913
4913 4932 4933 4914
4914 4933 4934 4915
4915 4934 4935 4916
4916 4935 4936 4917
4917 4936 4937 4918
4918 4937 4938 4919
4919 4938 4939 4920
4920 4939 4940 4921
4921 4940 4941 4922
4922 4941 4942 4923
4923 4942 4943 4924
4924 4943 4944 4925
4925 4944 4945 4926
4926 4945 4946 4927
4927 4946 431 430
159 160 4947 4928
4928 4947 4948 4929
4929 4948 4949 4930
4930 4949 4950 4931
4931 4950 4951 4932
4932 4951 4952 4933
4933 4952 4953 4934
4934 4953 4954 4935
4935 4954 4955 4936
4936 4955 4956 4937
4937 4956 4957 4938
4938 4957 4958 4939
4939 4958 4959 4940
4940 4959 4960 4941
4941 4960 4961 4942
4942 4961 4962 4943
4943 4962 4963 4944
4944 4963 4964 4945
4945 4964 4965 4946
4946 4965 432 431
160 161 4966 4947
4947 4966 4967 4948
4948 4967 4968 4949
4949 4968 4969 4950
4950 4969 4970 4951
4951 4970 4971 4952
4952 4971 4972 4953
4953 4972 4973 4954
4954 4973 4974 4955
4955 4974 4975 4956
4956 4975 4976 4957
4957 4976 4977 4958
4958 4977 4978 4959
4959 4978 4979 4960
4960 4979 4980 4961
4961 4980 4981 4962
4962 4981 4982 4963
4963 4982 4983 4964
4964 4983 4984 4965
4965 4984 433 432
161 162 4985 4966
4966 4985 4986 4967
4967 4986 4987 4968
4968 4987 4988 4969
4969 4988 4989 4970
4970 4989 4990 4971
4971 4990 4991 4972
4972 4991 4992 4973
4973 4992 4993 4974
4974 4993 4994 4975
4975 4994 4995 4976
4976 4995 4996 4977
4977 4996 4997 4978
4978 4997 4998 4979
4979 4998 4999 4980
4980 4999 5000 4981
4981 5000 5001 4982
4982 5001 5002 4983
4983 5002 5003 4984
4984 5003 434 433
162 163 5004 4985
4985 5004 5005 4986
4986 5005 5006 4987
4987 5006 5007 4988
4988 5007 5008 4989
4989 5008 5009 4990
4990 5009 5010 4991
4991 5010 5011 4992
4992 5011 5012 4993
4993 5012 5013 4994
4994 5013 5014 4995
4995 5014 5015 4996
4996 5015 5016 4997
4997 5016 5017 4998
4998 5017 5018 4999
4999 5018 5019 5000
5000 5019 5020 5001
5001 5020 5021 5002
5002 5021 5022 5003
5003 5022 435 434
163 164 5023 5004
5004 5023 5024 5005
5005 5024 5025 5006
5006 5025 5026 5007
5007 5026 5027 5008
5008 5027 5028 5009
5009 5028 5029 5010
5010 5029 5030 5011
5011 5030 5031 5012
5012 5031 5032 5013
5013 5032 5033 5014
5014 5033 5034 5015
5015 5034 5035 5016
5016 5035 5036 5017
5017 5036 5037 5018
5018 5037 5038 5019
5019 5038 5039 5020
5020 5039 5040 5021
5021 5040 5041 5022
5022 5041 436 435
164 165 5042 5023
5023 5042 5043 5024
5024 5043 5044 5025
5025 5044 5045 5026
5026 5045 5046 5027
5027 5046 5047 5028
5028 5047 5048 5029
5029 5048 5049 5030
5030 5049 5050 5031
5031 5050 5051 5032
5032 5051 5052 5033
5033 5052 5053 5034
5034 5053 5054 5035
5035 5054 5055 5036
5036 5055 5056 5037
5037 5056 5057 5038
5038 5057 5058 5039
5039 5058 5059 5040
5040 5059 5060 5041
5041 5060 437 436
165 6 242 5042
5042 242 241 5043
5043 241 240 5044
5044 240 239 5045
5045 239 238 5046
5046 238 237 5047
5047 237 236 5048
5048 236 235 5049
5049 235 234 5050
5050 234 233 5051
5051 233 232 5052
5052 232 231 5053
5053 231 230 5054
5054 230 229 5055
5055 229 228 5056
5056 228 227 5057
5057 227 226 5058
5058 226 225 5059
5059 225 224 5060
5060 224 8 437
9 323 5061 400
400 5061 5062 401
401 5062 5063 402
402 5063 5064 403
403 5064 5065 404
404 5065 5066 405
405 5066 5067 406
406 5067 5068 407
407 5068 5069 408
408 5069 5070 409
409 5070 5071 410
410 5071 5072 411
411 5072 5073 412
412 5073 5074 413
413 5074 5075 414
414 5075 5076 415
415 5076 5077 416
416 5077 5078 417
417 5078 5079 418
418 5079 185 7
323 324 5080 5061
5061 5080 5081 5062
5062 5081 5082 5063
5063 5082 5083 5064
5064 5083 5084 5065
5065 5084 5085 5066
5066 5085 5086 5067
5067 5086 5087 5068
5068 5087 5088 5069
5069 5088 5089 5070
5070 5089 5090 5071
5071 5090 5091 5072
5072 5091 5092 5073
5073 5092 5093 5074
5074 5093 5094 5075
5075 5094 5095 5076
5076 5095 5096 5077
5077 5096 5097 5078
5078 5097 5098 5079
5079 5098 186 185
324 325 5099 5080
5080 5099 5100 5081
5081 5100 5101 5082
5082 5101 5102 5083
5083 5102 5103 5084
5084 5103 5104 5085
5085 5104 5105 5086
5086 5105 5106 5087
5087 5106 5107 5088
5088 5107 5108 5089
5089 5108 5109 5090
5090 5109 5110 5091
5091 5110 5111 5092
5092 5111 5112 5093
5093 5112 5113 5094
5094 5113 5114 5095
5095 5114 5115 5096
5096 5115 5116 5097
5097 5116 5117 5098
5098 5117 187 186
325 326 5118 5099
5099 5118 5119 5100
5100 5119 5120 5101
5101 5120 5121 5102
5102 5121 5122 5103
5103 5122 5123 5104
5104 5123 5124 5105
5105 5124 5125 5106
5106 5125 5126 5107
5107 5126 5127 5108
5108 5127 5128 5109
5109 5128 5129 5110
5110 5129 5130 5111
5111 5130 5131 5112
5112 5131 5132 5113
5113 5132 5133 5114
5114 5133 5134 5115
5115 5134 5135 5116
5116 5135 5136 5117
5117 5136 188 187
326 327 5137 5118
5118 5137 5138 5119
5119 5138 5139 5120
5120 5139 5140 5121
5121 5140 5141 5122
5122 5141 5142 5123
5123 5142 5143 5124
5124 5143 5144 5125
5125 5144 5145 5126
5126 5145 5146 5127
5127 5146 5147 5128
5128 5147 5148 5129
5129 5148 5149 5130
5130 5149 5150 5131
5131 5150 5151 5132
5132 5151 5152 5133
5133 5152 5153 5134
5134 5153 5154 5135
5135 5154 5155 5136
5136 5155 189 188
327 328 5156 5137
5137 5156 5157 5138
5138 5157 5158 5139
5139 5158 5159 5140
5140 5159 5160 5141
5141 5160 5161 5142
5142 5161 5162 5143
5143 5162 5163 5144
5144 5163 5164 5145
5145 5164 5165 5146
5146 5165 5166 5147
5147 5166 5167 5148
5148 5167 5168 5149
5149 5168 5169 5150
5150 5169 5170 5151
5151 5170 5171 5152
5152 5171 5172 5153
5153 5172 5173 5154
5154 5173 5174 5155
5155 5174 190 189
328 329 5175 5156
5156 5175 5176 5157
5157 5176 5177 5158
5158 5177 5178 5159
5159 5178 5179 5160
5160 5179 5180 5161
5161 5180 5181 5162
5162 5181 5182 5163
5163 5182 5183 5164
5164 5183 5184 5165
5165 5184 5185 5166
5166 5185 5186 5167
5167 5186 5187 5168
5168 5187 5188 5169
5169 5188 5189 5170
5170 5189 5190 5171
5171 5190 5191 5172
5172 5191 5192 5173
5173 5192 5193 5174
5174 5193 191 190
329 330 5194 5175
5175 5194 5195 5176
5176 5195 5196 5177
5177 5196 5197 5178
5178 5197 5198 5179
5179 5198 5199 5180
5180 5199 5200 5181
5181 5200 5201 5182
5182 5201 5202 5183
5183 5202 5203 5184
5184 5203 5204 5185
5185 5204 5205 5186
5186 5205 5206 5187
5187 5206 5207 5188
5188 5207 5208 5189
5189 5208 5209 5190
5190 5209 5210 5191
5191 5210 5211 5192
5192 5211 5212 5193
5193 5212 192 191
330 331 5213 5194
5194 5213 5214 5195
5195 5214 5215 5196
5196 5215 5216 5197
5197 5216 5217 5198
5198 5217 5218 5199
5199 5218 5219 5200
5200 5219 5220 5201
5201 5220 5221 5202
5202 5221 5222 5203
5203 5222 5223 5204
5204 5223 5224 5205
5205 5224 5225 5206
5206 5225 5226 5207
5207 5226 5227 5208
5208 5227 5228 5209
5209 5228 5229 5210
5210 5229 5230 5211
5211 5230 5231 5212
5212 5231 193 192
331 332 5232 5213
5213 5232 5233 5214
5214 5233 5234 5215
5215 5234 5235 5216
5216 5235 5236 5217
5217 5236 5237 5218
5218 5237 5238 5219
5219 5238 5239 5220
5220 5239 5240 5221
5221 5240 5241 5222
5222 5241 5242 5223
5223 5242 5243 5224
5224 5243 5244 5225
5225 5244 5245 5226
5226 5245 5246 5227
5227 5246 5247 5228
5228 5247 5248 5229
5229 5248 5249 5230
5230 5249 5250 5231
5231 5250 194 193
332 333 5251 5232
5232 5251 5252 5233
5233 5252 5253 5234
5234 5253 5254 5235
5235 5254 5255 5236
5236 5255 5256 5237
5237 5256 5257 5238
5238 5257 5258 5239
5239 5258 5259 5240
5240 5259 5260 5241
5241 5260 5261 5242
5242 5261 5262 5243
5243 5262 5263 5244
5244 5263 5264 5245
5245 5264 5265 5246
5246 5265 5266 5247
5247 5266 5267 5248
5248 5267 5268 5249
5249 5268 5269 5250
5250 5269 195 194
333 334 5270 5251
5251 5270 5271 5252
5252 5271 5272 5253
5253 5272 5273 5254
5254 5273 5274 5255
5255 5274 5275 5256
5256 5275 5276 5257
5257 5276 5277 5258
5258 5277 5278 5259
5259 5278 5279 5260
5260 5279 5280 5261
5261 5280 5281 5262
5262 5281 5282 5263
5263 5282 5283 5264
5264 5283 5284 5265
5265 5284 5285 5266
5266 5285 5286 5267
5267 5286 5287 5268
5268 5287 5288 5269
5269 5288 196 195
334 335 5289 5270
5270 5289 5290 5271
5271 5290 5291 5272
5272 5291 5292 5273
5273 5292 5293 5274
5274 5293 5294 5275
5275 5294 5295 5276
5276 5295 5296 5277
5277 5296 5297 5278
5278 5297 5298 5279
5279 5298 5299 5280
5280 5299 5300 5281
5281 5300 5301 5282
5282 5301 5302 5283
5283 5302 5303 5284
5284 5303 5304 5285
5285 5304 5305 5286
5286 5305 5306 5287
5287 5306 5307 5288
5288 5307 197 196
335 336 5308 5289
5289 5308 5309 5290
5290 5309 5310 5291
5291 5310 5311 5292
5292 5311 5312 5293
5293 5312 5313 5294
5294 5313 5314 5295
5295 5314 5315 5296
5296 5315 5316 5297
5297 5316 5317 5298
5298 5317 5318 5299
5299 5318 5319 5300
5300 5319 5320 5301
5301 5320 5321 5302
5302 5321 5322 5303
5303 5322 5323 5304
5304 5323 5324 5305
5305 5324 5325 5306
5306 5325 5326 5307
5307 5326 198 197
336 337 5327 5308
5308 5327 5328 5309
5309 5328 5329 5310
5310 5329 5330 5311
5311 5330 5331 5312
5312 5331 5332 5313
5313 5332 5333 5314
5314 5333 5334 5315
5315 5334 5335 5316
5316 5335 5336 5317
5317 5336 5337 5318
5318 5337 5338 5319
5319 5338 5339 5320
5320 5339 5340 5321
5321 5340 5341 5322
5322 5341 5342 5323
5323 5342 5343 5324
5324 5343 5344 5325
5325 5344 5345 5326
5326 5345 199 198
337 338 5346 5327
5327 5346 5347 5328
5328 5347 5348 5329
5329 5348 5349 5330
5330 5349 5350 5331
5331 5350 5351 5332
5332 5351 5352 5333
5333 5352 5353 5334
5334 5353 5354 5335
5335 5354 5355 5336
5336 5355 5356 5337
5337 5356 5357 5338
5338 5357 5358 5339
5339 5358 5359 5340
5340 5359 5360 5341
5341 5360 5361 5342
5342 5361 5362 5343
5343 5362 5363 5344
5344 5363 5364 5345
5345 5364 200 199
338 339 5365 5346
5346 5365 5366 5347
5347 5366 5367 5348
5348 5367 5368 5349
5349 5368 5369 5350
5350 5369 5370 5351
5351 5370 5371 5352
5352 5371 5372 5353
5353 5372 5373 5354
5354 5373 5374 5355
5355 5374 5375 5356
5356 5375 5376 5357
5357 5376 5377 5358
5358 5377 5378 5359
5359 5378 5379 5360
5360 5379 5380 5361
5361 5380 5381 5362
5362 5381 5382 5363
5363 5382 5383 5364
5364 5383 201 200
339 340 5384 5365
5365 5384 5385 5366
5366 5385 5386 5367
5367 5386 5387 5368
5368 5387 5388 5369
5369 5388 5389 5370
5370 5389 5390 5371
5371 5390 5391 5372
5372 5391 5392 5373
5373 5392 5393 5374
5374 5393 5394 5375
5375 5394 5395 5376
5376 5395 5396 5377
5377 5396 5397 5378
5378 5397 5398 5379
5379 5398 5399 5380
5380 5399 5400 5381
5381 5400 5401 5382
5382 5401 5402 5383
5383 5402 202 201
340 341 5403 5384
5384 5403 5404 5385
5385 5404 5405 5386
5386 5405 5406 5387
5387 5406 5407 5388
5388 5407 5408 5389
5389 5408 5409 5390
5390 5409 5410 5391
5391 5410 5411 5392
5392 5411 5412 5393
5393 5412 5413 5394
5394 5413 5414 5395
5395 5414 5415 5396
5396 5415 5416 5397
5397 5416 5417 5398
5398 5417 5418 5399
5399 5418 5419 5400
5400 5419 5420 5401
5401 5420 5421 5402
5402 5421 203 202
341 342 5422 5403
5403 5422 5423 5404
5404 5423 5424 5405
5405 5424 5425 5406
5406 5425 5426 5407
5407 5426 5427 5408
5408 5427 5428 5409
5409 5428 5429 5410
5410 5429 5430 5411
5411 5430 5431 5412
5412 5431 5432 5413
5413 5432 5433 5414
5414 5433 5434 5415
5415 5434 5435 5416
5416 5435 5436 5417
5417 5436 5437 5418
5418 5437 5438 5419
5419 5438 5439 5420
5420 5439 5440 5421
5421 5440 204 203
342 343 5441 5422
5422 5441 5442 5423
5423 5442 5443 5424
5424 5443 5444 5425
5425 5444 5445 5426
5426 5445 5446 5427
5427 5446 5447 5428
5428 5447 5448 5429
5429 5448 5449 5430
5430 5449 5450 5431
5431 5450 5451 5432
5432 5451 5452 5433
5433 5452 5453 5434
5434 5453 5454 5435
5435 5454 5455 5436
5436 5455 5456 5437
5437 5456 5457 5438
5438 5457 5458 5439
5439 5458 5459 5440
5440 5459 205 204
343 344 5460 5441
5441 5460 5461 5442
5442 5461 5462 5443
5443 5462 5463 5444
5444 5463 5464 5445
5445 5464 5465 5446
5446 5465 5466 5447
5447 5466 5467 5448
5448 5467 5468 5449
5449 5468 5469 5450
5450 5469 5470 5451
5451 5470 5471 5452
5452 5471 5472 5453
5453 5472 5473 5454
5454 5473 5474 5455
5455 5474 5475 5456
5456 5475 5476 5457
5457 5476 5477 5458
5458 5477 5478 5459
5459 5478 206 205
344 345 5479 5460
5460 5479 5480 5461
5461 5480 5481 5462
5462 5481 5482 5463
5463 5482 5483 5464
5464 5483 5484 5465
5465 5484 5485 5466
5466 5485 5486 5467
5467 5486 5487 5468
5468 5487 5488 5469
5469 5488 5489 5470
5470 5489 5490 5471
5471 5490 5491 5472
5472 5491 5492 5473
5473 5492 5493 5474
5474 5493 5494 5475
5475 5494 5495 5476
5476 5495 5496 5477
5477 5496 5497 5478
5478 5497 207 206
345 346 5498 5479
5479 5498 5499 5480
5480 5499 5500 5481
5481 5500 5501 5482
5482 5501 5502 5483
5483 5502 5503 5484
5484 5503 5504 5485
5485 5504 5505 5486
5486 5505 5506 5487
5487 5506 5507 5488
5488 5507 5508 5489
5489 5508 5509 5490
5490 5509 5510 5491
5491 5510 5511 5492
5492 5511 5512 5493
5493 5512 5513 5494
5494 5513 5514 5495
5495 5514 5515 5496
5496 5515 5516 5497
5497 5516 208 207
346 347 5517 5498
5498 5517 5518 5499
5499 5518 5519 5500
5500 5519 5520 5501
5501 5520 5521 5502
5502 5521 5522 5503
5503 5522 5523 5504
5504 5523 5524 5505
5505 5524 5525 5506
5506 5525 5526 5507
5507 5526 5527 5508
5508 5527 5528 5509
5509 5528 5529 5510
5510 5529 5530 5511
5511 5530 5531 5512
5512 5531 5532 5513
5513 5532 5533 5514
5514 5533 5534 5515
5515 5534 5535 5516
5516 5535 209 208
347 348 5536 5517
5517 5536 5537 5518
5518 5537 5538 5519
5519 5538 5539 5520
5520 5539 5540 5521
5521 5540 5541 5522
5522 5541 5542 5523
5523 5542 5543 5524
5524 5543 5544 5525
5525 5544 5545 5526
5526 5545 5546 5527
5527 5546 5547 5528
5528 5547 5548 5529
5529 5548 5549 5530
5530 5549 5550 5531
5531 5550 5551 5532
5532 5551 5552 5533
5533 5552 5553 5534
5534 5553 5554 5535
5535 5554 210 209
348 349 5555 5536
5536 5555 5556 5537
5537 5556 5557 5538
5538 5557 5558 5539
5539 5558 5559 5540
5540 5559 5560 5541
5541 5560 5561 5542
5542 5561 5562 5543
5543 5562 5563 5544
5544 5563 5564 5545
5545 5564 5565 5546
5546 5565 5566 5547
5547 5566 5567 5548
5548 5567 5568 5549
5549 5568 5569 5550
5550 5569 5570 5551
5551 5570 5571 5552
5552 5571 5572 5553
5553 5572 5573 5554
5554 5573 211 210
349 350 5574 5555
5555 5574 5575 5556
5556 5575 5576 5557
5557 5576 5577 5558
5558 5577 5578 5559
5559 5578 5579 5560
5560 5579 5580 5561
5561 5580 5581 5562
5562 5581 5582 5563
5563 5582 5583 5564
5564 5583 5584 5565
5565 5584 5585 5566
5566 5585 5586 5567
5567 5586 5587 5568
5568 5587 5588 5569
5569 5588 5589 5570
5570 5589 5590 5571
5571 5590 5591 5572
5572 5591 5592 5573
5573 5592 212 211
350 351 5593 5574
5574 5593 5594 5575
5575 5594 5595 5576
5576 5595 5596 5577
5577 5596 5597 5578
5578 5597 5598 5579
5579 5598 5599 5580
5580 5599 5600 5581
5581 5600 5601 5582
5582 5601 5602 5583
5583 5602 5603 5584
5584 5603 5604 5585
5585 5604 5605 5586
5586 5605 5606 5587
5587 5606 5607 5588
5588 5607 5608 5589
5589 5608 5609 5590
5590 5609 5610 5591
5591 5610 5611 5592
5592 5611 213 212
351 352 5612 5593
5593 5612 5613 5594
5594 5613 5614 5595
5595 5614 5615 5596
5596 5615 5616 5597
5597 5616 5617 5598
5598 5617 5618 5599
5599 5618 5619 5600
5600 5619 5620 5601
5601 5620 5621 5602
5602 5621 5622 5603
5603 5622 5623 5604
5604 5623 5624 5605
5605 5624 5625 5606
5606 5625 5626 5607
5607 5626 5627 5608
5608 5627 5628 5609
5609 5628 5629 5610
5610 5629 5630 5611
5611 5630 214 213
352 353 5631 5612
5612 5631 5632 5613
5613 5632 5633 5614
5614 5633 5634 5615
5615 5634 5635 5616
5616 5635 5636 5617
5617 5636 5637 5618
5618 5637 5638 5619
5619 5638 5639 5620
5620 5639 5640 5621
5621 5640 5641 5622
5622 5641 5642 5623
5623 5642 5643 5624
5624 5643 5644 5625
5625 5644 5645 5626
5626 5645 5646 5627
5627 5646 5647 5628
5628 5647 5648 5629
5629 5648 5649 5630
5630 5649 215 214
353 354 5650 5631
5631 5650 5651 5632
5632 5651 5652 5633
5633 5652 5653 5634
5634 5653 5654 5635
5635 5654 5655 5636
5636 5655 5656 5637
5637 5656 5657 5638
5638 5657 5658 5639
5639 5658 5659 5640
5640 5659 5660 5641
5641 5660 5661 5642
5642 5661 5662 5643
5643 5662 5663 5644
5644 5663 5664 5645
5645 5664 5665 5646
5646 5665 5666 5647
5647 5666 5667 5648
5648 5667 5668 5649
5649 5668 216 215
354 355 5669 5650
5650 5669 5670 5651
5651 5670 5671 5652
5652 5671 5672 5653
5653 5672 5673 5654
5654 5673 5674 5655
5655 5674 5675 5656
5656 5675 5676 5657
5657 5676 5677 5658
5658 5677 5678 5659
5659 5678 5679 5660
5660 5679 5680 5661
5661 5680 5681 5662
5662 5681 5682 5663
5663 5682 5683 5664
5664 5683 5684 5665
5665 5684 5685 5666
5666 5685 5686 5667
5667 5686 5687 5668
5668 5687 217 216
355 356 5688 5669
5669 5688 5689 5670
5670 5689 5690 5671
5671 5690 5691 5672
5672 5691 5692 5673
5673 5692 5693 5674
5674 5693 5694 5675
5675 5694 5695 5676
5676 5695 5696 5677
5677 5696 5697 5678
5678 5697 5698 5679
5679 5698 5699 5680
5680 5699 5700 5681
5681 5700 5701 5682
5682 5701 5702 5683
5683 5702 5703 5684
5684 5703 5704 5685
5685 5704 5705 5686
5686 5705 5706 5687
5687 5706 218 217
356 357 5707 5688
5688 5707 5708 5689
5689 5708 5709 5690
5690 5709 5710 5691
5691 5710 5711 5692
5692 5711 5712 5693
5693 5712 5713 5694
5694 5713 5714 5695
5695 5714 5715 5696
5696 5715 5716 5697
5697 5716 5717 5698
5698 5717 5718 5699
5699 5718 5719 5700
5700 5719 5720 5701
5701 5720 5721 5702
5702 5721 5722 5703
5703 5722 5723 5704
5704 5723 5724 5705
5705 5724 5725 5706
5706 5725 219 218
357 358 5726 5707
5707 5726 5727 5708
5708 5727 5728 5709
5709 5728 5729 5710
5710 5729 5730 5711
5711 5730 5731 5712
5712 5731 5732 5713
5713 5732 5733 5714
5714 5733 5734 5715
5715 5734 5735 5716
5716 5735 5736 5717
5717 5736 5737 5718
5718 5737 5738 5719
5719 5738 5739 5720
5720 5739 5740 5721
5721 5740 5741 5722
5722 5741 5742 5723
5723 5742 5743 5724
5724 5743 5744 5725
5725 5744 220 219
358 359 5745 5726
5726 5745 5746 5727
5727 5746 5747 5728
5728 5747 5748 5729
5729 5748 5749 5730
5730 5749 5750 5731
5731 5750 5751 5732
5732 5751 5752 5733
5733 5752 5753 5734
5734 5753 5754 5735
5735 5754 5755 5736
5736 5755 5756 5737
5737 5756 5757 5738
5738 5757 5758 5739
5739 5758 5759 5740
5740 5759 5760 5741
5741 5760 5761 5742
5742 5761 5762 5743
5743 5762 5763 5744
5744 5763 221 220
359 360 5764 5745
5745 5764 5765 5746
5746 5765 5766 5747
5747 5766 5767 5748
5748 5767 5768 5749
5749 5768 5769 5750
5750 5769 5770 5751
5751 5770 5771 5752
5752 5771 5772 5753
5753 5772 5773 5754
5754 5773 5774 5755
5755 5774 5775 5756
5756 5775 5776 5757
5757 5776 5777 5758
5758 5777 5778 5759
5759 5778 5779 5760
5760 5779 5780 5761
5761 5780 5781 5762
5762 5781 5782 5763
5763 5782 222 221
360 361 5783 5764
5764 5783 5784 5765
5765 5784 5785 5766
5766 5785 5786 5767
5767 5786 5787 5768
5768 5787 5788 5769
5769 5788 5789 5770
5770 5789 5790 5771
5771 5790 5791 5772
5772 5791 5792 5773
5773 5792 5793 5774
5774 5793 5794 5775
5775 5794 5795 5776
5776 5795 5796 5777
5777 5796 5797 5778
5778 5797 5798 5779
5779 5798 5799 5780
5780 5799 5800 5781
5781 5800 5801 5782
5782 5801 223 222
361 10 419 5783
5783 419 420 5784
5784 420 421 5785
5785 421 422 5786
5786 422 423 5787
5787 423 424 5788
5788 424 425 5789
5789 425 426 5790
5790 426 427 5791
5791 427 428 5792
5792 428 429 5793
5793 429 430 5794
5794 430 431 5795
5795 431 432 5796
5796 432 433 5797
5797 433 434 5798
5798 434 435 5799
5799 435 436 5800
5800 436 437 5801
5801 437 8 223
</DataArray>
<DataArray type="Int64" Name="offsets" format="ascii">
4
8
12
16
20
24
28
32
36
40
44
48
52
56
60
64
68
72
76
80
84
88
92
96
100
104
108
112
116
120
124
128
132
136
140
144
148
152
156
160
164
168
172
176
180
184
188
192
196
200
204
208
212
216
220
224
228
232
236
240
244
248
252
256
260
264
268
272
276
280
284
288
292
296
300
304
308
312
316
320
324
328
332
336
340
344
348
352
356
360
364
368
372
376
380
384
388
392
396
400
404
408
412
416
420
424
428
432
436
440
444
448
452
456
460
464
468
472
476
480
484
488
492
496
500
504
508
512
516
520
524
528
532
536
540
544
548
552
556
560
564
568
572
576
580
584
588
592
596
600
604
608
612
616
620
624
628
632
636
640
644
648
652
656
660
664
668
672
676
680
684
688
692
696
700
704
708
712
716
720
724
728
732
736
740
744
748
752
756
760
764
768
772
776
780
784
788
792
796
800
804
808
812
816
820
824
828
832
836
840
844
848
852
856
860
864
868
872
876
880
884
888
892
896
900
904
908
912
916
920
924
928
932
936
940
944
948
952
956
960
964
968
972
976
980
984
988
992
996
1000
1004
1008
1012
1016
1020
1024
1028
1032
1036
1040
1044
1048
1052
1056
1060
1064
1068
1072
1076
1080
1084
1088
1092
1096
1100
1104
1108
1112
1116
1120
1124
1128
1132
1136
1140
1144
1148
1152
1156
1160
1164
1168
1172
1176
1180
1184
1188
1192
1196
1200
1204
1208
1212
1216
1220
1224
1228
1232
1236
1240
1244
1248
1252
1256
1260
1264
1268
1272
1276
1280
1284
1288
1292
1296
1300
1304
1308
1312
1316
1320
1324
1328
1332
1336
1340
1344
1348
1352
1356
1360
1364
1368
1372
1376
1380
1384
1388
1392
1396
1400
1404
1408
1412
1416
1420
1424
1428
1432
1436
1440
1444
1448
1452
1456
1460
1464
1468
1472
1476
1480
1484
1488
1492
1496
1500
1504
1508
1512
1516
1520
1524
1528
1532
1536
1540
1544
1548
1552
1556
1560
1564
1568
1572
1576
1580
1584
1588
1592
1596
1600
1604
1608
1612
1616
1620
1624
1628
1632
1636
1640
1644
1648
1652
1656
1660
1664
1668
1672
1676
1680
1684
1688
1692
1696
1700
1704
1708
1712
1716
1720
1724
1728
1732
1736
1740
1744
1748
1752
1756
1760
1764
1768
1772
1776
1780
1784
1788
1792
1796
1800
1804
1808
1812
1816
1820
1824
1828
1832
1836
1840
1844
1848
1852
1856
1860
1864
1868
1872
1876
1880
1884
1888
1892
1896
1900
1904
1908
1912
1916
1920
1924
1928
1932
1936
1940
1944
1948
1952
1956
1960
1964
1968
1972
1976
1980
1984
1988
1992
1996
2000
2004
2008
2012
2016
2020
2024
2028
2032
2036
2040
2044
2048
2052
2056
2060
2064
2068
2072
2076
2080
2084
2088
2092
2096
2100
2104
2108
2112
2116
2120
2124
2128
2132
2136
2140
2144
2148
2152
2156
2160
2164
2168
2172
2176
2180
2184
2188
2192
2196
2200
2204
2208
2212
2216
2220
2224
2228
2232
2236
2240
2244
2248
2252
2256
2260
2264
2268
2272
2276
2280
2284
2288
2292
2296
2300
2304
2308
2312
2316
2320
2324
2328
2332
2336
2340
2344
2348
2352
2356
2360
2364
2368
2372
2376
2380
2384
2388
2392
2396
2400
2404
2408
2412
2416
2420
2424
2428
2432
2436
2440
2444
2448
2452
2456
2460
2464
2468
2472
2476
2480
2484
2488
2492
2496
2500
2504
2508
2512
2516
2520
2524
2528
2532
2536
2540
2544
2548
2552
2556
2560
2564
2568
2572
2576
2580
2584
2588
2592
2596
2600
2604
2608
2612
2616
2620
2624
2628
2632
2636
2640
2644
2648
2652
2656
2660
2664
2668
2672
2676
2680
2684
2688
2692
2696
2700
2704
2708
2712
2716
2720
2724
2728
2732
2736
2740
2744
2748
2752
2756
2760
2764
2768
2772
2776
2780
2784
2788
2792
2796
2800
2804
2808
2812
2816
2820
2824
2828
2832
2836
2840
2844
2848
2852
2856
2860
2864
2868
2872
2876
2880
2884
2888
2892
2896
2900
2904
2908
2912
2916
2920
2924
2928
2932
2936
2940
2944
2948
2952
2956
2960
2964
2968
2972
2976
2980
2984
2988
2992
2996
3000
3004
3008
3012
3016
3020
3024
3028
3032
3036
3040
3044
3048
3052
3056
3060
3064
3068
3072
3076
3080
3084
3088
3092
3096
3100
3104
3108
3112
3116
3120
3124
3128
3132
3136
3140
3144
3148
3152
3156
3160
3164
3168
3172
3176
3180
3184
3188
3192
3196
3200
3204
3208
3212
3216
3220
3224
3228
3232
3236
3240
3244
3248
3252
3256
3260
3264
3268
3272
3276
3280
3284
3288
3292
3296
3300
3304
3308
3312
3316
3320
3324
3328
3332
3336
3340
3344
3348
3352
3356
3360
3364
3368
3372
3376
3380
3384
3388
3392
3396
3400
3404
3408
3412
3416
3420
3424
3428
3432
3436
3440
3444
3448
3452
3456
3460
3464
3468
3472
3476
3480
3484
3488
3492
3496
3500
3504
3508
3512
3516
3520
3524
3528
3532
3536
3540
3544
3548
3552
3556
3560
3564
3568
3572
3576
3580
3584
3588
3592
3596
3600
3604
3608
3612
3616
3620
3624
3628
3632
3636
3640
3644
3648
3652
3656
3660
3664
3668
3672
3676
3680
3684
3688
3692
3696
3700
3704
3708
3712
3716
3720
3724
3728
3732
3736
3740
3744
3748
3752
3756
3760
3764
3768
3772
3776
3780
3784
3788
3792
3796
3800
3804
3808
3812
3816
3820
3824
3828
3832
3836
3840
3844
3848
3852
3856
3860
3864
3868
3872
3876
3880
3884
3888
3892
3896
3900
3904
3908
3912
3916
3920
3924
3928
3932
3936
3940
3944
3948
3952
3956
3960
3964
3968
3972
3976
3980
3984
3988
3992
3996
4000
4004
4008
4012
4016
4020
4024
4028
4032
4036
4040
4044
4048
4052
4056
4060
4064
4068
4072
4076
4080
4084
4088
4092
4096
4100
4104
4108
4112
4116
4120
4124
4128
4132
4136
4140
4144
4148
4152
4156
4160
4164
4168
4172
4176
4180
4184
4188
4192
4196
4200
4204
4208
4212
4216
4220
4224
4228
4232
4236
4240
4244
4248
4252
4256
4260
4264
4268
4272
4276
4280
4284
4288
4292
4296
4300
4304
4308
4312
4316
4320
4324
4328
4332
4336
4340
4344
4348
4352
4356
4360
4364
4368
4372
4376
4380
4384
4388
4392
4396
4400
4404
4408
4412
4416
4420
4424
4428
4432
4436
4440
4444
4448
4452
4456
4460
4464
4468
4472
4476
4480
4484
4488
4492
4496
4500
4504
4508
4512
4516
4520
4524
4528
4532
4536
4540
4544
4548
4552
4556
4560
4564
4568
4572
4576
4580
4584
4588
4592
4596
4600
4604
4608
4612
4616
4620
4624
4628
4632
4636
4640
4644
4648
4652
4656
4660
4664
4668
4672
4676
4680
4684
4688
4692
4696
4700
4704
4708
4712
4716
4720
4724
4728
4732
4736
4740
4744
4748
4752
4756
4760
4764
4768
4772
4776
4780
4784
4788
4792
4796
4800
4804
4808
4812
4816
4820
4824
4828
4832
4836
4840
4844
4848
4852
4856
4860
4864
4868
4872
4876
4880
4884
4888
4892
4896
4900
4904
4908
4912
4916
4920
4924
4928
4932
4936
4940
4944
4948
4952
4956
4960
4964
4968
4972
4976
4980
4984
4988
4992
4996
5000
5004
5008
5012
5016
5020
5024
5028
5032
5036
5040
5044
5048
5052
5056
5060
5064
5068
5072
5076
5080
5084
5088
5092
5096
5100
5104
5108
5112
5116
5120
5124
5128
5132
5136
5140
5144
5148
5152
5156
5160
5164
5168
5172
5176
5180
5184
5188
5192
5196
5200
5204
5208
5212
5216
5220
5224
5228
5232
5236
5240
5244
5248
5252
5256
5260
5264
5268
5272
5276
5280
5284
5288
5292
5296
5300
5304
5308
5312
5316
5320
5324
5328
5332
5336
5340
5344
5348
5352
5356
5360
5364
5368
5372
5376
5380
5384
5388
5392
5396
5400
5404
5408
5412
5416
5420
5424
5428
5432
5436
5440
5444
5448
5452
5456
5460
5464
5468
5472
5476
5480
5484
5488
5492
5496
5500
5504
5508
5512
5516
5520
5524
5528
5532
5536
5540
5544
5548
5552
5556
5560
5564
5568
5572
5576
5580
5584
5588
5592
5596
5600
5604
5608
5612
5616
5620
5624
5628
5632
5636
5640
5644
5648
5652
5656
5660
5664
5668
5672
5676
5680
5684
5688
5692
5696
5700
5704
5708
5712
5716
5720
5724
5728
5732
5736
5740
5744
5748
5752
5756
5760
5764
5768
5772
5776
5780
5784
5788
5792
5796
5800
5804
5808
5812
5816
5820
5824
5828
5832
5836
5840
5844
5848
5852
5856
5860
5864
5868
5872
5876
5880
5884
5888
5892
5896
5900
5904
5908
5912
5916
5920
5924
5928
5932
5936
5940
5944
5948
5952
5956
5960
5964
5968
5972
5976
5980
5984
5988
5992
5996
6000
6004
6008
6012
6016
6020
6024
6028
6032
6036
6040
6044
6048
6052
6056
6060
6064
6068
6072
6076
6080
6084
6088
6092
6096
6100
6104
6108
6112
6116
6120
6124
6128
6132
6136
6140
6144
6148
6152
6156
6160
6164
6168
6172
6176
6180
6184
6188
6192
6196
6200
6204
6208
6212
6216
6220
6224
6228
6232
6236
6240
6244
6248
6252
6256
6260
6264
6268
6272
6276
6280
6284
6288
6292
6296
6300
6304
6308
6312
6316
6320
6324
6328
6332
6336
6340
6344
6348
6352
6356
6360
6364
6368
6372
6376
6380
6384
6388
6392
6396
6400
6404
6408
6412
6416
6420
6424
6428
6432
6436
6440
6444
6448
6452
6456
6460
6464
6468
6472
6476
6480
6484
6488
6492
6496
6500
6504
6508
6512
6516
6520
6524
6528
6532
6536
6540
6544
6548
6552
6556
6560
6564
6568
6572
6576
6580
6584
6588
6592
6596
6600
6604
6608
6612
6616
6620
6624
6628
6632
6636
6640
6644
6648
6652
6656
6660
6664
6668
6672
6676
6680
6684
6688
6692
6696
6700
6704
6708
6712
6716
6720
6724
6728
6732
6736
6740
6744
6748
6752
6756
6760
6764
6768
6772
6776
6780
6784
6788
6792
6796
6800
6804
6808
6812
6816
6820
6824
6828
6832
6836
6840
6844
6848
6852
6856
6860
6864
6868
6872
6876
6880
6884
6888
6892
6896
6900
6904
6908
6912
6916
6920
6924
6928
6932
6936
6940
6944
6948
6952
6956
6960
6964
6968
6972
6976
6980
6984
6988
6992
6996
7000
7004
7008
7012
7016
7020
7024
7028
7032
7036
7040
7044
7048
7052
7056
7060
7064
7068
7072
7076
7080
7084
7088
7092
7096
7100
7104
7108
7112
7116
7120
7124
7128
7132
7136
7140
7144
7148
7152
7156
7160
7164
7168
7172
7176
7180
7184
7188
7192
7196
7200
7204
7208
7212
7216
7220
7224
7228
7232
7236
7240
7244
7248
7252
7256
7260
7264
7268
7272
7276
7280
7284
7288
7292
7296
7300
7304
7308
7312
7316
7320
7324
7328
7332
7336
7340
7344
7348
7352
7356
7360
7364
7368
7372
7376
7380
7384
7388
7392
7396
7400
7404
7408
7412
7416
7420
7424
7428
7432
7436
7440
7444
7448
7452
7456
7460
7464
7468
7472
7476
7480
7484
7488
7492
7496
7500
7504
7508
7512
7516
7520
7524
7528
7532
7536
7540
7544
7548
7552
7556
7560
7564
7568
7572
7576
7580
7584
7588
7592
7596
7600
7604
7608
7612
7616
7620
7624
7628
7632
7636
7640
7644
7648
7652
7656
7660
7664
7668
7672
7676
7680
7684
7688
7692
7696
7700
7704
7708
7712
7716
7720
7724
7728
7732
7736
7740
7744
7748
7752
7756
7760
7764
7768
7772
7776
7780
7784
7788
7792
7796
7800
7804
7808
7812
7816
7820
7824
7828
7832
7836
7840
7844
7848
7852
7856
7860
7864
7868
7872
7876
7880
7884
7888
7892
7896
7900
7904
7908
7912
7916
7920
7924
7928
7932
7936
7940
7944
7948
7952
7956
7960
7964
7968
7972
7976
7980
7984
7988
7992
7996
8000
8004
8008
8012
8016
8020
8024
8028
8032
8036
8040
8044
8048
8052
8056
8060
8064
8068
8072
8076
8080
8084
8088
8092
8096
8100
8104
8108
8112
8116
8120
8124
8128
8132
8136
8140
8144
8148
8152
8156
8160
8164
8168
8172
8176
8180
8184
8188
8192
8196
8200
8204
8208
8212
8216
8220
8224
8228
8232
8236
8240
8244
8248
8252
8256
8260
8264
8268
8272
8276
8280
8284
8288
8292
8296
8300
8304
8308
8312
8316
8320
8324
8328
8332
8336
8340
8344
8348
8352
8356
8360
8364
8368
8372
8376
8380
8384
8388
8392
8396
8400
8404
8408
8412
8416
8420
8424
8428
8432
8436
8440
8444
8448
8452
8456
8460
8464
8468
8472
8476
8480
8484
8488
8492
8496
8500
8504
8508
8512
8516
8520
8524
8528
8532
8536
8540
8544
8548
8552
8556
8560
8564
8568
8572
8576
8580
8584
8588
8592
8596
8600
8604
8608
8612
8616
8620
8624
8628
8632
8636
8640
8644
8648
8652
8656
8660
8664
8668
8672
8676
8680
8684
8688
8692
8696
8700
8704
8708
8712
8716
8720
8724
8728
8732
8736
8740
8744
8748
8752
8756
8760
8764
8768
8772
8776
8780
8784
8788
8792
8796
8800
8804
8808
8812
8816
8820
8824
8828
8832
8836
8840
8844
8848
8852
8856
8860
8864
8868
8872
8876
8880
8884
8888
8892
8896
8900
8904
8908
8912
8916
8920
8924
8928
8932
8936
8940
8944
8948
8952
8956
8960
8964
8968
8972
8976
8980
8984
8988
8992
8996
9000
9004
9008
9012
9016
9020
9024
9028
9032
9036
9040
9044
9048
9052
9056
9060
9064
9068
9072
9076
9080
9084
9088
9092
9096
9100
9104
9108
9112
9116
9120
9124
9128
9132
9136
9140
9144
9148
9152
9156
9160
9164
9168
9172
9176
9180
9184
9188
9192
9196
9200
9204
9208
9212
9216
9220
9224
9228
9232
9236
9240
9244
9248
9252
9256
9260
9264
9268
9272
9276
9280
9284
9288
9292
9296
9300
9304
9308
9312
9316
9320
9324
9328
9332
9336
9340
9344
9348
9352
9356
9360
9364
9368
9372
9376
9380
9384
9388
9392
9396
9400
9404
9408
9412
9416
9420
9424
9428
9432
9436
9440
9444
9448
9452
9456
9460
9464
9468
9472
9476
9480
9484
9488
9492
9496
9500
9504
9508
9512
9516
9520
9524
9528
9532
9536
9540
9544
9548
9552
9556
9560
9564
9568
9572
9576
9580
9584
9588
9592
9596
9600
9604
9608
9612
9616
9620
9624
9628
9632
9636
9640
9644
9648
9652
9656
9660
9664
9668
9672
9676
9680
9684
9688
9692
9696
9700
9704
9708
9712
9716
9720
9724
9728
9732
9736
9740
9744
9748
9752
9756
9760
9764
9768
9772
9776
9780
9784
9788
9792
9796
9800
9804
9808
9812
9816
9820
9824
9828
9832
9836
9840
9844
9848
9852
9856
9860
9864
9868
9872
9876
9880
9884
9888
9892
9896
9900
9904
9908
9912
9916
9920
9924
9928
9932
9936
9940
9944
9948
9952
9956
9960
9964
9968
9972
9976
9980
9984
9988
9992
9996
10000
10004
10008
10012
10016
10020
10024
10028
10032
10036
10040
10044
10048
10052
10056
10060
10064
10068
10072
10076
10080
10084
10088
10092
10096
10100
10104
10108
10112
10116
10120
10124
10128
10132
10136
10140
10144
10148
10152
10156
10160
10164
10168
10172
10176
10180
10184
10188
10192
10196
10200
10204
10208
10212
10216
10220
10224
10228
10232
10236
10240
10244
10248
10252
10256
10260
10264
10268
10272
10276
10280
10284
10288
10292
10296
10300
10304
10308
10312
10316
10320
10324
10328
10332
10336
10340
10344
10348
10352
10356
10360
10364
10368
10372
10376
10380
10384
10388
10392
10396
10400
10404
10408
10412
10416
10420
10424
10428
10432
10436
10440
10444
10448
10452
10456
10460
10464
10468
10472
10476
10480
10484
10488
10492
10496
10500
10504
10508
10512
10516
10520
10524
10528
10532
10536
10540
10544
10548
10552
10556
10560
10564
10568
10572
10576
10580
10584
10588
10592
10596
10600
10604
10608
10612
10616
10620
10624
10628
10632
10636
10640
10644
10648
10652
10656
10660
10664
10668
10672
10676
10680
10684
10688
10692
10696
10700
10704
10708
10712
10716
10720
10724
10728
10732
10736
10740
10744
10748
10752
10756
10760
10764
10768
10772
10776
10780
10784
10788
10792
10796
10800
10804
10808
10812
10816
10820
10824
10828
10832
10836
10840
10844
10848
10852
10856
10860
10864
10868
10872
10876
10880
10884
10888
10892
10896
10900
10904
10908
10912
10916
10920
10924
10928
10932
10936
10940
10944
10948
10952
10956
10960
10964
10968
10972
10976
10980
10984
10988
10992
10996
11000
11004
11008
11012
11016
11020
11024
11028
11032
11036
11040
11044
11048
11052
11056
11060
11064
11068
11072
11076
11080
11084
11088
11092
11096
11100
11104
11108
11112
11116
11120
11124
11128
11132
11136
11140
11144
11148
11152
11156
11160
11164
11168
11172
11176
11180
11184
11188
11192
11196
11200
11204
11208
11212
11216
11220
11224
11228
11232
11236
11240
11244
11248
11252
11256
11260
11264
11268
11272
11276
11280
11284
11288
11292
11296
11300
11304
11308
11312
11316
11320
11324
11328
11332
11336
11340
11344
11348
11352
11356
11360
11364
11368
11372
11376
11380
11384
11388
11392
11396
11400
11404
11408
11412
11416
11420
11424
11428
11432
11436
11440
11444
11448
11452
11456
11460
11464
11468
11472
11476
11480
11484
11488
11492
11496
11500
11504
11508
11512
11516
11520
11524
11528
11532
11536
11540
11544
11548
11552
11556
11560
11564
11568
11572
11576
11580
11584
11588
11592
11596
11600
11604
11608
11612
11616
11620
11624
11628
11632
11636
11640
11644
11648
11652
11656
11660
11664
11668
11672
11676
11680
11684
11688
11692
11696
11700
11704
11708
11712
11716
11720
11724
11728
11732
11736
11740
11744
11748
11752
11756
11760
11764
11768
11772
11776
11780
11784
11788
11792
11796
11800
11804
11808
11812
11816
11820
11824
11828
11832
11836
11840
11844
11848
11852
11856
11860
11864
11868
11872
11876
11880
11884
11888
11892
11896
11900
11904
11908
11912
11916
11920
11924
11928
11932
11936
11940
11944
11948
11952
11956
11960
11964
11968
11972
11976
11980
11984
11988
11992
11996
12000
12004
12008
12012
12016
12020
12024
12028
12032
12036
12040
12044
12048
12052
12056
12060
12064
12068
12072
12076
12080
12084
12088
12092
12096
12100
12104
12108
12112
12116
12120
12124
12128
12132
12136
12140
12144
12148
12152
12156
12160
12164
12168
12172
12176
12180
12184
12188
12192
12196
12200
12204
12208
12212
12216
12220
12224
12228
12232
12236
12240
12244
12248
12252
12256
12260
12264
12268
12272
12276
12280
12284
12288
12292
12296
12300
12304
12308
12312
12316
12320
12324
12328
12332
12336
12340
12344
12348
12352
12356
12360
12364
12368
12372
12376
12380
12384
12388
12392
12396
12400
12404
12408
12412
12416
12420
12424
12428
12432
12436
12440
12444
12448
12452
12456
12460
12464
12468
12472
12476
12480
12484
12488
12492
12496
12500
12504
12508
12512
12516
12520
12524
12528
12532
12536
12540
12544
12548
12552
12556
12560
12564
12568
12572
12576
12580
12584
12588
12592
12596
12600
12604
12608
12612
12616
12620
12624
12628
12632
12636
12640
12644
12648
12652
12656
12660
12664
12668
12672
12676
12680
12684
12688
12692
12696
12700
12704
12708
12712
12716
12720
12724
12728
12732
12736
12740
12744
12748
12752
12756
12760
12764
12768
12772
12776
12780
12784
12788
12792
12796
12800
12804
12808
12812
12816
12820
12824
12828
12832
12836
12840
12844
12848
12852
12856
12860
12864
12868
12872
12876
12880
12884
12888
12892
12896
12900
12904
12908
12912
12916
12920
12924
12928
12932
12936
12940
12944
12948
12952
12956
12960
12964
12968
12972
12976
12980
12984
12988
12992
12996
13000
13004
13008
13012
13016
13020
13024
13028
13032
13036
13040
13044
13048
13052
13056
13060
13064
13068
13072
13076
13080
13084
13088
13092
13096
13100
13104
13108
13112
13116
13120
13124
13128
13132
13136
13140
13144
13148
13152
13156
13160
13164
13168
13172
13176
13180
13184
13188
13192
13196
13200
13204
13208
13212
13216
13220
13224
13228
13232
13236
13240
13244
13248
13252
13256
13260
13264
13268
13272
13276
13280
13284
13288
13292
13296
13300
13304
13308
13312
13316
13320
13324
13328
13332
13336
13340
13344
13348
13352
13356
13360
13364
13368
13372
13376
13380
13384
13388
13392
13396
13400
13404
13408
13412
13416
13420
13424
13428
13432
13436
13440
13444
13448
13452
13456
13460
13464
13468
13472
13476
13480
13484
13488
13492
13496
13500
13504
13508
13512
13516
13520
13524
13528
13532
13536
13540
13544
13548
13552
13556
13560
13564
13568
13572
13576
13580
13584
13588
13592
13596
13600
13604
13608
13612
13616
13620
13624
13628
13632
13636
13640
13644
13648
13652
13656
13660
13664
13668
13672
13676
13680
13684
13688
13692
13696
13700
13704
13708
13712
13716
13720
13724
13728
13732
13736
13740
13744
13748
13752
13756
13760
13764
13768
13772
13776
13780
13784
13788
13792
13796
13800
13804
13808
13812
13816
13820
13824
13828
13832
13836
13840
13844
13848
13852
13856
13860
13864
13868
13872
13876
13880
13884
13888
13892
13896
13900
13904
13908
13912
13916
13920
13924
13928
13932
13936
13940
13944
13948
13952
13956
13960
13964
13968
13972
13976
13980
13984
13988
13992
13996
14000
14004
14008
14012
14016
14020
14024
14028
14032
14036
14040
14044
14048
14052
14056
14060
14064
14068
14072
14076
14080
14084
14088
14092
14096
14100
14104
14108
14112
14116
14120
14124
14128
14132
14136
14140
14144
14148
14152
14156
14160
14164
14168
14172
14176
14180
14184
14188
14192
14196
14200
14204
14208
14212
14216
14220
14224
14228
14232
14236
14240
14244
14248
14252
14256
14260
14264
14268
14272
14276
14280
14284
14288
14292
14296
14300
14304
14308
14312
14316
14320
14324
14328
14332
14336
14340
14344
14348
14352
14356
14360
14364
14368
14372
14376
14380
14384
14388
14392
14396
14400
14404
14408
14412
14416
14420
14424
14428
14432
14436
14440
14444
14448
14452
14456
14460
14464
14468
14472
14476
14480
14484
14488
14492
14496
14500
14504
14508
14512
14516
14520
14524
14528
14532
14536
14540
14544
14548
14552
14556
14560
14564
14568
14572
14576
14580
14584
14588
14592
14596
14600
14604
14608
14612
14616
14620
14624
14628
14632
14636
14640
14644
14648
14652
14656
14660
14664
14668
14672
14676
14680
14684
14688
14692
14696
14700
14704
14708
14712
14716
14720
14724
14728
14732
14736
14740
14744
14748
14752
14756
14760
14764
14768
14772
14776
14780
14784
14788
14792
14796
14800
14804
14808
14812
14816
14820
14824
14828
14832
14836
14840
14844
14848
14852
14856
14860
14864
14868
14872
14876
14880
14884
14888
14892
14896
14900
14904
14908
14912
14916
14920
14924
14928
14932
14936
14940
14944
14948
14952
14956
14960
14964
14968
14972
14976
14980
14984
14988
14992
14996
15000
15004
15008
15012
15016
15020
15024
15028
15032
15036
15040
15044
15048
15052
15056
15060
15064
15068
15072
15076
15080
15084
15088
15092
15096
15100
15104
15108
15112
15116
15120
15124
15128
15132
15136
15140
15144
15148
15152
15156
15160
15164
15168
15172
15176
15180
15184
15188
15192
15196
15200
15204
15208
15212
15216
15220
15224
15228
15232
15236
15240
15244
15248
15252
15256
15260
15264
15268
15272
15276
15280
15284
15288
15292
15296
15300
15304
15308
15312
15316
15320
15324
15328
15332
15336
15340
15344
15348
15352
15356
15360
15364
15368
15372
15376
15380
15384
15388
15392
15396
15400
15404
15408
15412
15416
15420
15424
15428
15432
15436
15440
15444
15448
15452
15456
15460
15464
15468
15472
15476
15480
15484
15488
15492
15496
15500
15504
15508
15512
15516
15520
15524
15528
15532
15536
15540
15544
15548
15552
15556
15560
15564
15568
15572
15576
15580
15584
15588
15592
15596
15600
15604
15608
15612
15616
15620
15624
15628
15632
15636
15640
15644
15648
15652
15656
15660
15664
15668
15672
15676
15680
15684
15688
15692
15696
15700
15704
15708
15712
15716
15720
15724
15728
15732
15736
15740
15744
15748
15752
15756
15760
15764
15768
15772
15776
15780
15784
15788
15792
15796
15800
15804
15808
15812
15816
15820
15824
15828
15832
15836
15840
15844
15848
15852
15856
15860
15864
15868
15872
15876
15880
15884
15888
15892
15896
15900
15904
15908
15912
15916
15920
15924
15928
15932
15936
15940
15944
15948
15952
15956
15960
15964
15968
15972
15976
15980
15984
15988
15992
15996
16000
16004
16008
16012
16016
16020
16024
16028
16032
16036
16040
16044
16048
16052
16056
16060
16064
16068
16072
16076
16080
16084
16088
16092
16096
16100
16104
16108
16112
16116
16120
16124
16128
16132
16136
16140
16144
16148
16152
16156
16160
16164
16168
16172
16176
16180
16184
16188
16192
16196
16200
16204
16208
16212
16216
16220
16224
16228
16232
16236
16240
16244
16248
16252
16256
16260
16264
16268
16272
16276
16280
16284
16288
16292
16296
16300
16304
16308
16312
16316
16320
16324
16328
16332
16336
16340
16344
16348
16352
16356
16360
16364
16368
16372
16376
16380
16384
16388
16392
16396
16400
16404
16408
16412
16416
16420
16424
16428
16432
16436
16440
16444
16448
16452
16456
16460
16464
16468
16472
16476
16480
16484
16488
16492
16496
16500
16504
16508
16512
16516
16520
16524
16528
16532
16536
16540
16544
16548
16552
16556
16560
16564
16568
16572
16576
16580
16584
16588
16592
16596
16600
16604
16608
16612
16616
16620
16624
16628
16632
16636
16640
16644
16648
16652
16656
16660
16664
16668
16672
16676
16680
16684
16688
16692
16696
16700
16704
16708
16712
16716
16720
16724
16728
16732
16736
16740
16744
16748
16752
16756
16760
16764
16768
16772
16776
16780
16784
16788
16792
16796
16800
16804
16808
16812
16816
16820
16824
16828
16832
16836
16840
16844
16848
16852
16856
16860
16864
16868
16872
16876
16880
16884
16888
16892
16896
16900
16904
16908
16912
16916
16920
16924
16928
16932
16936
16940
16944
16948
16952
16956
16960
16964
16968
16972
16976
16980
16984
16988
16992
16996
17000
17004
17008
17012
17016
17020
17024
17028
17032
17036
17040
17044
17048
17052
17056
17060
17064
17068
17072
17076
17080
17084
17088
17092
17096
17100
17104
17108
17112
17116
17120
17124
17128
17132
17136
17140
17144
17148
17152
17156
17160
17164
17168
17172
17176
17180
17184
17188
17192
17196
17200
17204
17208
17212
17216
17220
17224
17228
17232
17236
17240
17244
17248
17252
17256
17260
17264
17268
17272
17276
17280
17284
17288
17292
17296
17300
17304
17308
17312
17316
17320
17324
17328
17332
17336
17340
17344
17348
17352
17356
17360
17364
17368
17372
17376
17380
17384
17388
17392
17396
17400
17404
17408
17412
17416
17420
17424
17428
17432
17436
17440
17444
17448
17452
17456
17460
17464
17468
17472
17476
17480
17484
17488
17492
17496
17500
17504
17508
17512
17516
17520
17524
17528
17532
17536
17540
17544
17548
17552
17556
17560
17564
17568
17572
17576
17580
17584
17588
17592
17596
17600
17604
17608
17612
17616
17620
17624
17628
17632
17636
17640
17644
17648
17652
17656
17660
17664
17668
17672
17676
17680
17684
17688
17692
17696
17700
17704
17708
17712
17716
17720
17724
17728
17732
17736
17740
17744
17748
17752
17756
17760
17764
17768
17772
17776
17780
17784
17788
17792
17796
17800
17804
17808
17812
17816
17820
17824
17828
17832
17836
17840
17844
17848
17852
17856
17860
17864
17868
17872
17876
17880
17884
17888
17892
17896
17900
17904
17908
17912
17916
17920
17924
17928
17932
17936
17940
17944
17948
17952
17956
17960
17964
17968
17972
17976
17980
17984
17988
17992
17996
18000
18004
18008
18012
18016
18020
18024
18028
18032
18036
18040
18044
18048
18052
18056
18060
18064
18068
18072
18076
18080
18084
18088
18092
18096
18100
18104
18108
18112
18116
18120
18124
18128
18132
18136
18140
18144
18148
18152
18156
18160
18164
18168
18172
18176
18180
18184
18188
18192
18196
18200
18204
18208
18212
18216
18220
18224
18228
18232
18236
18240
18244
18248
18252
18256
18260
18264
18268
18272
18276
18280
18284
18288
18292
18296
18300
18304
18308
18312
18316
18320
18324
18328
18332
18336
18340
18344
18348
18352
18356
18360
18364
18368
18372
18376
18380
18384
18388
18392
18396
18400
18404
18408
18412
18416
18420
18424
18428
18432
18436
18440
18444
18448
18452
18456
18460
18464
18468
18472
18476
18480
18484
18488
18492
18496
18500
18504
18508
18512
18516
18520
18524
18528
18532
18536
18540
18544
18548
18552
18556
18560
18564
18568
18572
18576
18580
18584
18588
18592
18596
18600
18604
18608
18612
18616
18620
18624
18628
18632
18636
18640
18644
18648
18652
18656
18660
18664
18668
18672
18676
18680
18684
18688
18692
18696
18700
18704
18708
18712
18716
18720
18724
18728
18732
18736
18740
18744
18748
18752
18756
18760
18764
18768
18772
18776
18780
18784
18788
18792
18796
18800
18804
18808
18812
18816
18820
18824
18828
18832
18836
18840
18844
18848
18852
18856
18860
18864
18868
18872
18876
18880
18884
18888
18892
18896
18900
18904
18908
18912
18916
18920
18924
18928
18932
18936
18940
18944
18948
18952
18956
18960
18964
18968
18972
18976
18980
18984
18988
18992
18996
19000
19004
19008
19012
19016
19020
19024
19028
19032
19036
19040
19044
19048
19052
19056
19060
19064
19068
19072
19076
19080
19084
19088
19092
19096
19100
19104
19108
19112
19116
19120
19124
19128
19132
19136
19140
19144
19148
19152
19156
19160
19164
19168
19172
19176
19180
19184
19188
19192
19196
19200
19204
19208
19212
19216
19220
19224
19228
19232
19236
19240
19244
19248
19252
19256
19260
19264
19268
19272
19276
19280
19284
19288
19292
19296
19300
19304
19308
19312
19316
19320
19324
19328
19332
19336
19340
19344
19348
19352
19356
19360
19364
19368
19372
19376
19380
19384
19388
19392
19396
19400
19404
19408
19412
19416
19420
19424
19428
19432
19436
19440
19444
19448
19452
19456
19460
19464
19468
19472
19476
19480
19484
19488
19492
19496
19500
19504
19508
19512
19516
19520
19524
19528
19532
19536
19540
19544
19548
19552
19556
19560
19564
19568
19572
19576
19580
19584
19588
19592
19596
19600
19604
19608
19612
19616
19620
19624
19628
19632
19636
19640
19644
19648
19652
19656
19660
19664
19668
19672
19676
19680
19684
19688
19692
19696
19700
19704
19708
19712
19716
19720
19724
19728
19732
19736
19740
19744
19748
19752
19756
19760
19764
19768
19772
19776
19780
19784
19788
19792
19796
19800
19804
19808
19812
19816
19820
19824
19828
19832
19836
19840
19844
19848
19852
19856
19860
19864
19868
19872
19876
19880
19884
19888
19892
19896
19900
19904
19908
19912
19916
19920
19924
19928
19932
19936
19940
19944
19948
19952
19956
19960
19964
19968
19972
19976
19980
19984
19988
19992
19996
20000
20004
20008
20012
20016
20020
20024
20028
20032
20036
20040
20044
20048
20052
20056
20060
20064
20068
20072
20076
20080
20084
20088
20092
20096
20100
20104
20108
20112
20116
20120
20124
20128
20132
20136
20140
20144
20148
20152
20156
20160
20164
20168
20172
20176
20180
20184
20188
20192
20196
20200
20204
20208
20212
20216
20220
20224
20228
20232
20236
20240
20244
20248
20252
20256
20260
20264
20268
20272
20276
20280
20284
20288
20292
20296
20300
20304
20308
20312
20316
20320
20324
20328
20332
20336
20340
20344
20348
20352
20356
20360
20364
20368
20372
20376
20380
20384
20388
20392
20396
20400
20404
20408
20412
20416
20420
20424
20428
20432
20436
20440
20444
20448
20452
20456
20460
20464
20468
20472
20476
20480
20484
20488
20492
20496
20500
20504
20508
20512
20516
20520
20524
20528
20532
20536
20540
20544
20548
20552
20556
20560
20564
20568
20572
20576
20580
20584
20588
20592
20596
20600
20604
20608
20612
20616
20620
20624
20628
20632
20636
20640
20644
20648
20652
20656
20660
20664
20668
20672
20676
20680
20684
20688
20692
20696
20700
20704
20708
20712
20716
20720
20724
20728
20732
20736
20740
20744
20748
20752
20756
20760
20764
20768
20772
20776
20780
20784
20788
20792
20796
20800
20804
20808
20812
20816
20820
20824
20828
20832
20836
20840
20844
20848
20852
20856
20860
20864
20868
20872
20876
20880
20884
20888
20892
20896
20900
20904
20908
20912
20916
20920
20924
20928
20932
20936
20940
20944
20948
20952
20956
20960
20964
20968
20972
20976
20980
20984
20988
20992
20996
21000
21004
21008
21012
21016
21020
21024
21028
21032
21036
21040
21044
21048
21052
21056
21060
21064
21068
21072
21076
21080
21084
21088
21092
21096
21100
21104
21108
21112
21116
21120
21124
21128
21132
21136
21140
21144
21148
21152
21156
21160
21164
21168
21172
21176
21180
21184
21188
21192
21196
21200
21204
21208
21212
21216
21220
21224
21228
21232
21236
21240
21244
21248
21252
21256
21260
21264
21268
21272
21276
21280
21284
21288
21292
21296
21300
21304
21308
21312
21316
21320
21324
21328
21332
21336
21340
21344
21348
21352
21356
21360
21364
21368
21372
21376
21380
21384
21388
21392
21396
21400
21404
21408
21412
21416
21420
21424
21428
21432
21436
21440
21444
21448
21452
21456
21460
21464
21468
21472
21476
21480
21484
21488
21492
21496
21500
21504
21508
21512
21516
21520
21524
21528
21532
21536
21540
21544
21548
21552
21556
21560
21564
21568
21572
21576
21580
21584
21588
21592
21596
21600
21604
21608
21612
21616
21620
21624
21628
21632
21636
21640
21644
21648
21652
21656
21660
21664
21668
21672
21676
21680
21684
21688
21692
21696
21700
21704
21708
21712
21716
21720
21724
21728
21732
21736
21740
21744
21748
21752
21756
21760
21764
21768
21772
21776
21780
21784
21788
21792
21796
21800
21804
21808
21812
21816
21820
21824
21828
21832
21836
21840
21844
21848
21852
21856
21860
21864
21868
21872
21876
21880
21884
21888
21892
21896
21900
21904
21908
21912
21916
21920
21924
21928
21932
21936
21940
21944
21948
21952
21956
21960
21964
21968
21972
21976
21980
21984
21988
21992
21996
22000
22004
22008
22012
22016
22020
22024
22028
22032
22036
22040
22044
22048
22052
22056
22060
22064
22068
22072
22076
22080
22084
22088
22092
22096
22100
22104
22108
22112
22116
22120
22124
22128
22132
22136
22140
22144
22148
22152
22156
22160
22164
22168
22172
22176
22180
22184
22188
22192
22196
22200
22204
22208
22212
22216
22220
22224
22228
22232
22236
22240
22244
22248
22252
22256
22260
22264
22268
22272
22276
22280
22284
22288
22292
22296
22300
22304
22308
22312
22316
22320
22324
22328
22332
22336
22340
22344
22348
22352
22356
22360
22364
22368
22372
22376
22380
22384
22388
22392
22396
22400
22404
22408
22412
22416
22420
22424
22428
22432
22436
22440
22444
22448
22452
22456
22460
22464
22468
22472
22476
22480
22484
22488
22492
22496
22500
22504
22508
22512
22516
22520
22524
22528
22532
22536
22540
22544
22548
22552
22556
22560
22564
22568
22572
22576
22580
22584
22588
22592
22596
22600
22604
22608
22612
22616
22620
22624
22628
22632
22636
22640
22644
22648
22652
22656
22660
22664
22668
22672
22676
22680
22684
22688
22692
22696
22700
22704
22708
22712
22716
22720
</DataArray>
<DataArray type="Int64" Name="types" format="ascii">
9
9
9
9
9
9
9
9
9
9
9
9
9
9
9
9
9
9
9
9
9
9
9
9
9
9
9
9
9
9
9
9
9
9
9
9
9
9
9
9
9
9
9
9
9
9
9
9
9
9
9
9
9
9
9
9
9
9
9
9
9
9
9
9
9
9
9
9
9
9
9
9
9
9
9
9
9
9
9
9
9
9
9
9
9
9
9
9
9
9
9
9
9
9
9
9
9
9
9
9
9
9
9
9
9
9
9
9
9
9
9
9
9
9
9
9
9
9
9
9
9
9
9
9
9
9
9
9
9
9
9
9
9
9
9
9
9
9
9
9
9
9
9
9
9
9
9
9
9
9
9
9
9
9
9
9
9
9
9
9
9
9
9
9
9
9
9
9
9
9
9
9
9
9
9
9
9
9
9
9
9
9
9
9
9
9
9
9
9
9
9
9
9
9
9
9
9
9
9
9
9
9
9
9
9
9
9
9
9
9
9
9
9
9
9
9
9
9
9
9
9
9
9
9
9
9
9
9
9
9
9
9
9
9
9
9
9
9
9
9
9
9
9
9
9
9
9
9
9
9
9
9
9
9
9
9
9
9
9
9
9
9
9
9
9
9
9
9
9
9
9
9
9
9
9
9
9
9
9
9
9
9
9
9
9
9
9
9
9
9
9
9
9
9
9
9
9
9
9
9
9
9
9
9
9
9
9
9
9
9
9
9
9
9
9
9
9
9
9
9
9
9
9
9
9
9
9
9
9
9
9
9
9
9
9
9
9
9
9
9
9
9
9
9
9
9
9
9
9
9
9
9
9
9
9
9
9
9
9
9
9
9
9
9
9
9
9
9
9
9
9
9
9
9
9
9
9
9
9
9
9
9
9
9
9
9
9
9
9
9
9
9
9
9
9
9
9
9
9
9
9
9
9
9
9
9
9
9
9
9
9
9
9
9
9
9
9
9
9
9
9
9
9
9
9
9
9
9
9
9
9
9
9
9
9
9
9
9
9
9
9
9
9
9
9
9
9
9
9
9
9
9
9
9
9
9
9
9
9
9
9
9
9
9
9
9
9
9
9
9
9
9
9
9
9
9
9
9
9
9
9
9
9
9
9
9
9
9
9
9
9
9
9
9
9
9
9
9
9
9
9
9
9
9
9
9
9
9
9
9
9
9
9
9
9
9
9
9
9
9
9
9
9
9
9
9
9
9
9
9
9
9
9
9
9
9
9
9
9
9
9
9
9
9
9
9
9
9
9
9
9
9
9
9
9
9
9
9
9
9
9
9
9
9
9
9
9
9
9
9
9
9
9
9
9
9
9
9
9
9
9
9
9
9
9
9
9
9
9
9
9
9
9
9
9
9
9
9
9
9
9
9
9
9
9
9
9
9
9
9
9
9
9
9
9
9
9
9
9
9
9
9
9
9
9
9
9
9
9
9
9
9
9
9
9
9
9
9
9
9
9
9
9
9
9
9
9
9
9
9
9
9
9
9
9
9
9
9
9
9
9
9
9
9
9
9
9
9
9
9
9
9
9
9
9
9
9
9
9
9
9
9
9
9
9
9
9
9
9
9
9
9
9
9
9
9
9
9
9
9
9
9
9
9
9
9
9
9
9
9
9
9
9
9
9
9
9
9
9
9
9
9
9
9
9
9
9
9
9
9
9
9
9
9
9
9
9
9
9
9
9
9
9
9
9
9
9
9
9
9
9
9
9
9
9
9
9
9
9
9
9
9
9
9
9
9
9
9
9
9
9
9
9
9
9
9
9
9
9
9
9
9
9
9
9
9
9
9
9
9
9
9
9
9
9
9
9
9
9
9
9
9
9
9
9
9
9
9
9
9
9
9
9
9
9
9
9
9
9
9
9
9
9
9
9
9
9
9
9
9
9
9
9
9
9
9
9
9
9
9
9
9
9
9
9
9
9
9
9
9
9
9
9
9
9
9
9
9
9
9
9
9
9
9
9
9
9
9
9
9
9
9
9
9
9
9
9
9
9
9
9
9
9
9
9
9
9
9
9
9
9
9
9
9
9
9
9
9
9
9
9
9
9
9
9
9
9
9
9
9
9
9
9
9
9
9
9
9
9
9
9
9
9
9
9
9
9
9
9
9
9
9
9
9
9
9
9
9
9
9
9
9
9
9
9
9
9
9
9
9
9
9
9
9
9
9
9
9
9
9
9
9
9
9
9
9
9
9
9
9
9
9
9
9
9
9
9
9
9
9
9
9
9
9
9
9
9
9
9
9
9
9
9
9
9
9
9
9
9
9
9
9
9
9
9
9
9
9
9
9
9
9
9
9
9
9
9
9
9
9
9
9
9
9
9
9
9
9
9
9
9
9
9
9
9
9
9
9
9
9
9
9
9
9
9
9
9
9
9
9
9
9
9
9
9
9
9
9
9
9
9
9
9
9
9
9
9
9
9
9
9
9
9
9
9
9
9
9
9
9
9
9
9
9
9
9
9
9
9
9
9
9
9
9
9
9
9
9
9
9
9
9
9
9
9
9
9
9
9
9
9
9
9
9
9
9
9
9
9
9
9
9
9
9
9
9
9
9
9
9
9
9
9
9
9
9
9
9
9
9
9
9
9
9
9
9
9
9
9
9
9
9
9
9
9
9
9
9
9
9
9
9
9
9
9
9
9
9
9
9
9
9
9
9
9
9
9
9
9
9
9
9
9
9
9
9
9
9
9
9
9
9
9
9
9
9
9
9
9
9
9
9
9
9
9
9
9
9
9
9
9
9
9
9
9
9
9
9
9
9
9
9
9
9
9
9
9
9
9
9
9
9
9
9
9
9
9
9
9
9
9
9
9
9
9
9
9
9
9
9
9
9
9
9
9
9
9
9
9
9
9
9
9
9
9
9
9
9
9
9
9
9
9
9
9
9
9
9
9
9
9
9
9
9
9
9
9
9
9
9
9
9
9
9
9
9
9
9
9
9
9
9
9
9
9
9
9
9
9
9
9
9
9
9
9
9
9
9
9
9
9
9
9
9
9
9
9
9
9
9
9
9
9
9
9
9
9
9
9
9
9
9
9
9
9
9
9
9
9
9
9
9
9
9
9
9
9
9
9
9
9
9
9
9
9
9
9
9
9
9
9
9
9
9
9
9
9
9
9
9
9
9
9
9
9
9
9
9
9
9
9
9
9
9
9
9
9
9
9
9
9
9
9
9
9
9
9
9
9
9
9
9
9
9
9
9
9
9
9
9
9
9
9
9
9
9
9
9
9
9
9
9
9
9
9
9
9
9
9
9
9
9
9
9
9
9
9
9
9
9
9
9
9
9
9
9
9
9
9
9
9
9
9
9
9
9
9
9
9
9
9
9
9
9
9
9
9
9
9
9
9
9
9
9
9
9
9
9
9
9
9
9
9
9
9
9
9
9
9
9
9
9
9
9
9
9
9
9
9
9
9
9
9
9
9
9
9
9
9
9
9
9
9
9
9
9
9
9
9
9
9
9
9
9
9
9
9
9
9
9
9
9
9
9
9
9
9
9
9
9
9
9
9
9
9
9
9
9
9
9
9
9
9
9
9
9
9
9
9
9
9
9
9
9
9
9
9
9
9
9
9
9
9
9
9
9
9
9
9
9
9
9
9
9
9
9
9
9
9
9
9
9
9
9
9
9
9
9
9
9
9
9
9
9
9
9
9
9
9
9
9
9
9
9
9
9
9
9
9
9
9
9
9
9
9
9
9
9
9
9
9
9
9
9
9
9
9
9
9
9
9
9
9
9
9
9
9
9
9
9
9
9
9
9
9
9
9
9
9
9
9
9
9
9
9
9
9
9
9
9
9
9
9
9
9
9
9
9
9
9
9
9
9
9
9
9
9
9
9
9
9
9
9
9
9
9
9
9
9
9
9
9
9
9
9
9
9
9
9
9
9
9
9
9
9
9
9
9
9
9
9
9
9
9
9
9
9
9
9
9
9
9
9
9
9
9
9
9
9
9
9
9
9
9
9
9
9
9
9
9
9
9
9
9
9
9
9
9
9
9
9
9
9
9
9
9
9
9
9
9
9
9
9
9
9
9
9
9
9
9
9
9
9
9
9
9
9
9
9
9
9
9
9
9
9
9
9
9
9
9
9
9
9
9
9
9
9
9
9
9
9
9
9
9
9
9
9
9
9
9
9
9
9
9
9
9
9
9
9
9
9
9
9
9
9
9
9
9
9
9
9
9
9
9
9
9
9
9
9
9
9
9
9
9
9
9
9
9
9
9
9
9
9
9
9
9
9
9
9
9
9
9
9
9
9
9
9
9
9
9
9
9
9
9
9
9
9
9
9
9
9
9
9
9
9
9
9
9
9
9
9
9
9
9
9
9
9
9
9
9
9
9
9
9
9
9
9
9
9
9
9
9
9
9
9
9
9
9
9
9
9
9
9
9
9
9
9
9
9
9
9
9
9
9
9
9
9
9
9
9
9
9
9
9
9
9
9
9
9
9
9
9
9
9
9
9
9
9
9
9
9
9
9
9
9
9
9
9
9
9
9
9
9
9
9
9
9
9
9
9
9
9
9
9
9
9
9
9
9
9
9
9
9
9
9
9
9
9
9
9
9
9
9
9
9
9
9
9
9
9
9
9
9
9
9
9
9
9
9
9
9
9
9
9
9
9
9
9
9
9
9
9
9
9
9
9
9
9
9
9
9
9
9
9
9
9
9
9
9
9
9
9
9
9
9
9
9
9
9
9
9
9
9
9
9
9
9
9
9
9
9
9
9
9
9
9
9
9
9
9
9
9
9
9
9
9
9
9
9
9
9
9
9
9
9
9
9
9
9
9
9
9
9
9
9
9
9
9
9
9
9
9
9
9
9
9
9
9
9
9
9
9
9
9
9
9
9
9
9
9
9
9
9
9
9
9
9
9
9
9
9
9
9
9
9
9
9
9
9
9
9
9
9
9
9
9
9
9
9
9
9
9
9
9
9
9
9
9
9
9
9
9
9
9
9
9
9
9
9
9
9
9
9
9
9
9
9
9
9
9
9
9
9
9
9
9
9
9
9
9
9
9
9
9
9
9
9
9
9
9
9
9
9
9
9
9
9
9
9
9
9
9
9
9
9
9
9
9
9
9
9
9
9
9
9
9
9
9
9
9
9
9
9
9
9
9
9
9
9
9
9
9
9
9
9
9
9
9
9
9
9
9
9
9
9
9
9
9
9
9
9
9
9
9
9
9
9
9
9
9
9
9
9
9
9
9
9
9
9
9
9
9
9
9
9
9
9
9
9
9
9
9
9
9
9
9
9
9
9
9
9
9
9
9
9
9
9
9
9
9
9
9
9
9
9
9
9
9
9
9
9
9
9
9
9
9
9
9
9
9
9
9
9
9
9
9
9
9
9
9
9
9
9
9
9
9
9
9
9
9
9
9
9
9
9
9
9
9
9
9
9
9
9
9
9
9
9
9
9
9
9
9
9
9
9
9
9
9
9
9
9
9
9
9
9
9
9
9
9
9
9
9
9
9
9
9
9
9
9
9
9
9
9
9
9
9
9
9
9
9
9
9
9
9
9
9
9
9
9
9
9
9
9
9
9
9
9
9
9
9
9
9
9
9
9
9
9
9
9
9
9
9
9
9
9
9
9
9
9
9
9
9
9
9
9
9
9
9
9
9
9
9
9
9
9
9
9
9
9
9
9
9
9
9
9
9
9
9
9
9
9
9
9
9
9
9
9
9
9
9
9
9
9
9
9
9
9
9
9
9
9
9
9
9
9
9
9
9
9
9
9
9
9
9
9
9
9
9
9
9
9
9
9
9
9
9
9
9
9
9
9
9
9
9
9
9
9
9
9
9
9
9
9
9
9
9
9
9
9
9
9
9
9
9
9
9
9
9
9
9
9
9
9
9
9
9
9
9
9
9
9
9
9
9
9
9
9
9
9
9
9
9
9
9
9
9
9
9
9
9
9
9
9
9
9
9
9
9
9
9
9
9
9
9
9
9
9
9
9
9
9
9
9
9
9
9
9
9
9
9
9
9
9
9
9
9
9
9
9
9
9
9
9
9
9
9
9
9
9
9
9
9
9
9
9
9
9
9
9
9
9
9
9
9
9
9
9
9
9
9
9
9
9
9
9
9
9
9
9
9
9
9
9
9
9
9
9
9
9
9
9
9
9
9
9
9
9
9
9
9
9
9
9
9
9
9
9
9
9
9
9
9
9
9
9
9
9
9
9
9
9
9
9
9
9
9
9
9
9
9
9
9
9
9
9
9
9
9
9
9
9
9
9
9
9
9
9
9
9
9
9
9
9
9
9
9
9
9
9
9
9
9
9
9
9
9
9
9
9
9
9
9
9
9
9
9
9
9
9
9
9
9
9
9
9
9
9
9
9
9
9
9
9
9
9
9
9
9
9
9
9
9
9
9
9
9
9
9
9
9
9
9
9
9
9
9
9
9
9
9
9
9
9
9
9
9
9
9
9
9
9
9
9
9
9
9
9
9
9
9
9
9
9
9
9
9
9
9
9
9
9
9
9
9
9
9
9
9
9
9
9
9
9
9
9
9
9
9
9
9
9
9
9
9
9
9
9
9
9
9
9
9
9
9
9
9
9
9
9
9
9
9
9
9
9
9
9
9
9
9
9
9
9
9
9
9
9
9
9
9
9
9
9
9
9
9
9
9
9
9
9
9
9
9
9
9
9
9
9
9
9
9
9
9
9
9
9
9
9
9
9
9
9
9
9
9
9
9
9
9
9
9
9
9
9
9
9
9
9
9
9
9
9
9
9
9
9
9
9
9
9
9
9
9
9
9
9
9
9
9
9
9
9
9
9
9
9
9
9
9
9
9
9
9
9
9
9
9
9
9
9
9
9
9
9
9
9
9
9
9
9
9
9
9
9
9
9
9
9
9
9
9
9
9
9
9
9
9
9
9
9
9
9
9
9
9
9
9
9
9
9
9
9
9
9
9
9
9
9
9
9
9
9
9
9
9
9
9
9
9
9
9
9
9
9
9
9
9
9
9
9
9
9
9
9
9
9
9
9
9
9
9
9
9
9
9
9
9
9
9
9
9
9
9
9
9
9
9
9
9
9
9
9
9
9
9
9
9
9
9
9
9
9
9
9
9
9
9
9
9
9
9
9
9
9
9
9
9
9
9
9
9
9
9
9
9
9
9
9
9
9
9
9
9
9
9
9
9
9
9
9
9
9
9
9
9
9
9
9
9
9
9
9
9
9
9
9
9
9
9
9
9
9
9
9
9
9
9
9
9
9
9
9
9
9
9
9
9
9
9
9
9
9
9
9
9
9
9
9
9
9
9
9
9
9
9
9
9
9
9
9
9
9
9
9
9
9
9
9
9
9
9
9
9
9
9
9
9
9
9
9
9
9
9
9
9
9
9
9
9
9
9
9
9
9
9
9
9
9
9
9
9
9
9
9
9
9
9
9
9
9
9
9
9
9
9
9
9
9
9
9
9
9
9
9
9
9
9
9
9
9
9
9
9
9
9
9
9
9
9
9
9
9
9
9
9
9
9
9
9
9
9
9
9
9
9
9
9
9
9
9
9
9
9
9
9
9
9
9
9
9
9
9
9
9
9
9
9
9
9
9
9
9
9
9
9
9
9
9
9
9
9
9
9
9
9
9
9
9
9
9
9
9
9
9
9
9
9
9
9
9
9
9
9
9
9
9
9
9
9
9
9
9
9
9
9
9
9
9
9
9
9
9
9
9
9
9
9
9
9
9
9
9
9
9
9
9
9
9
9
9
9
9
9
9
9
9
9
9
9
9
9
9
9
9
9
9
9
9
9
9
9
9
9
9
9
9
9
9
9
9
9
9
9
9
9
9
9
9
9
9
9
9
9
9
9
9
9
9
9
9
9
9
9
9
9
9
9
9
9
9
9
9
9
9
9
9
9
9
9
9
9
9
9
9
9
9
9
9
9
9
9
9
9
9
9
9
9
9
9
9
9
9
9
9
9
9
9
9
9
9
9
9
9
9
9
9
9
9
9
9
9
9
9
9
9
9
9
9
9
9
9
9
9
9
9
9
9
9
9
9
9
9
9
9
9
9
9
9
9
9
9
9
9
9
9
9
9
9
9
9
9
9
9
9
9
9
9
9
9
9
9
9
9
9
9
9
9
9
9
9
9
9
9
9
9
9
9
9
9
9
9
9
9
9
9
9
9
9
9
9
9
9
9
9
9
9
9
9
9
9
9
9
9
9
9
9
9
9
9
9
9
9
9
9
9
9
9
9
9
9
9
9
9
9
9
9
9
9
9
9
9
9
9
9
9
9
9
9
9
9
9
9
9
9
9
9
9
9
9
9
9
9
9
9
9
9
9
9
9
9
9
9
9
9
9
9
9
9
9
9
9
9
9
9
9
9
9
9
9
9
9
9
9
9
9
9
9
9
9
9
9
9
9
9
9
9
9
9
9
9
9
9
9
9
9
9
9
9
9
9
9
9
9
9
9
9
9
9
9
9
9
9
9
9
9
9
9
9
9
9
9
9
9
9
9
9
9
9
9
9
9
9
9
9
9
9
9
9
9
9
9
9
9
9
9
9
9
9
9
9
9
9
9
9
9
9
9
9
9
9
9
9
9
9
9
9
9
9
9
9
9
9
9
9
9
9
9
9
9
9
9
9
9
9
9
9
9
9
9
9
9
9
9
9
9
9
9
9
9
9
9
9
9
9
9
9
9
9
9
9
9
9
9
9
9
9
9
9
9
9
9
9
9
9
9
9
9
9
9
9
9
9
9
9
9
9
9
9
9
9
9
9
9
9
9
9
9
9
9
9
9
9
9
9
9
9
9
9
9
9
9
9
9
9
9
9
9
9
9
9
9
9
9
9
9
9
9
9
9
9
9
9
9
9
9
9
9
9
9
9
9
9
9
9
9
9
9
9
9
9
9
9
9
9
9
9
9
9
9
9
9
9
9
9
9
9
9
9
9
9
9
9
9
9
9
9
9
9
9
9
9
9
9
9
9
9
9
9
9
9
9
9
9
9
9
9
9
9
9
9
9
9
9
9
9
9
9
9
9
9
9
9
9
9
9
9
9
9
9
9
9
9
9
9
9
9
9
9
9
9
9
9
9
9
9
9
9
9
9
9
9
9
9
9
9
9
9
9
9
9
9
9
9
9
9
9
9
9
9
9
9
9
9
9
9
9
9
9
9
9
9
9
9
9
9
9
9
9
9
9
9
9
9
9
9
9
9
9
9
9
9
9
9
9
9
9
9
9
9
9
9
9
9
9
9
9
9
9
9
9
9
9
9
9
9
9
9
9
9
9
9
9
9
9
9
9
9
9
9
9
9
9
9
9
9
9
9
9
9
9
9
9
9
9
9
9
9
9
9
9
9
9
9
9
9
9
9
9
9
9
9
9
9
9
9
9
9
9
9
9
9
9
9
9
9
9
9
9
9
9
9
9
9
9
9
9
9
9
9
9
9
9
9
9
9
9
9
9
9
9
9
9
9
9
9
9
9
9
9
9
9
9
9
9
9
9
9
9
9
9
9
9
9
9
9
9
9
9
9
9
9
9
9
9
9
9
9
9
9
9
9
9
9
9
9
9
9
9
9
9
9
9
9
9
9
9
9
9
9
9
9
9
9
9
9
9
9
9
9
9
9
9
9
9
9
9
9
9
9
9
9
9
9
9
9
9
9
9
9
9
9
9
9
9
9
9
9
9
9
9
9
9
9
9
9
9
9
9
9
9
9
9
9
9
9
9
9
9
9
9
9
9
9
9
9
9
9
9
9
9
9
9
9
9
9
9
9
9
9
9
9
9
9
9
9
9
9
9
9
9
9
9
9
9
9
9
9
9
9
9
9
9
9
9
9
9
9
9
9
9
9
9
9
9
9
9
9
9
9
9
9
9
9
9
9
9
9
9
9
9
9
9
9
9
9
9
9
9
9
9
9
9
9
9
9
9
9
9
9
9
9
9
9
9
9
9
9
9
9
9
9
9
9
9
9
9
9
9
9
9
9
9
9
9
9
9
9
9
9
9
9
9
9
9
9
9
9
9
9
9
9
9
9
9
9
9
9
9
9
9
9
9
9
9
9
9
9
9
9
9
9
9
9
9
9
9
9
9
9
9
9
9
9
9
9
9
9
9
9
9
9
9
9
9
9
9
9
9
9
9
9
9
9
9
9
9
9
9
9
9
9
9
9
9
9
9
9
9
9
9
9
9
9
9
9
9
9
9
9
9
9
9
9
9
9
9
9
9
9
9
9
9
9
9
9
9
9
9
9
9
9
9
9
9
9
9
9
9
9
9
9
9
9
9
9
9
9
9
9
9
9
9
9
9
9
9
9
9
9
9
9
9
9
9
9
9
9
9
9
9
9
9
9
9
9
9
9
9
9
9
9
9
9
9
9
9
9
9
9
9
9
9
9
9
9
9
9
9
9
9
9
9
9
9
9
9
9
9
9
9
9
9
9
9
9
9
9
9
9
9
9
9
9
9
9
9
9
9
9
9
9
9
9
9
9
9
9
9
9
9
9
9
9
9
9
9
9
9
9
9
9
9
9
9
9
9
9
9
9
9
9
9
9
9
9
9
9
9
9
9
9
9
9
9
9
9
9
9
9
9
9
9
9
9
9
9
9
9
9
9
9
9
9
9
9
9
9
9
9
9
9
9
9
9
9
9
9
9
9
9
9
9
9
9
9
9
9
9
9
9
9
9
9
9
9
9
9
9
9
9
9
9
9
9
9
9
9
9
9
9
9
9
9
9
9
9
9
9
9
9
9
9
9
9
9
9
9
9
9
9
9
9
9
9
9
9
9
9
9
9
9
9
9
9
9
9
9
9
9
9
9
9
9
9
9
9
9
9
9
9
9
9
9
9
9
9
9
9
9
9
9
9
9
9
9
9
9
9
9
9
9
9
9
9
9
9
9
9
9
9
9
9
9
9
9
9
9
9
9
9
9
9
9
9
9
9
9
9
9
9
9
9
9
9
9
9
9
9
9
9
9
9
9
9
9
9
9
9
9
9
9
9
9
9
9
9
9
9
9
9
9
9
9
9
9
9
9
9
9
9
9
9
9
9
9
9
9
9
9
9
9
9
9
9
9
9
9
9
9
9
9
9
9
9
9
9
9
9
9
9
9
9
9
9
9
9
9
9
9
9
9
9
9
9
9
9
9
9
9
9
9
9
9
9
9
9
9
9
9
9
9
9
9
9
9
9
9
9
9
9
9
9
9
9
9
9
9
9
9
9
9
9
9
9
9
9
9
9
9
9
9
9
9
9
9
9
9
9
9
9
9
9
9
9
9
9
9
9
9
9
9
9
9
9
9
9
9
9
9
9
9
9
9
9
9
9
9
9
9
9
9
9
9
9
9
9
9
9
9
9
9
9
9
9
9
9
9
9
9
9
9
9
9
9
9
9
9
9
9
9
9
9
9
9
9
9
9
9
9
9
9
9
9
9
9
9
9
9
9
9
9
9
9
9
9
9
9
9
9
9
9
9
9
9
9
9
9
9
9
9
9
9
9
9
9
9
9
9
9
9
9
9
9
9
9
9
9
9
9
9
9
9
9
9
9
9
9
9
9
9
9
9
9
9
9
9
9
9
9
9
9
9
9
9
9
9
9
9
9
9
9
9
9
9
9
9
9
9
9
9
9
9
9
9
9
9
9
9
9
9
9
9
9
9
9
9
9
9
9
9
9
9
9
9
9
9
9
9
9
9
9
9
9
9
9
9
9
9
9
9
9
9
9
9
9
9
9
9
9
9
9
9
9
9
9
9
9
9
9
9
9
9
9
9
9
9
9
9
9
9
9
9
9
9
9
9
9
9
9
9
9
9
9
9
9
9
9
9
9
9
9
9
9
9
9
9
9
9
9
9
9
9
9
9
9
9
9
9
9
9
9
9
9
9
9
9
9
9
9
9
9
9
9
9
9
9
9
9
9
9
9
9
9
9
9
9
9
9
9
9
9
9
9
9
9
9
9
9
9
9
9
9
9
9
9
9
9
9
9
9
9
9
9
9
9
9
9
9
9
9
9
9
9
9
9
9
9
9
9
9
9
9
9
9
9
9
9
9
9
9
9
9
9
9
9
9
9
9
9
9
9
9
9
9
9
9
9
9
9
9
9
9
9
9
9
9
9
9
9
9
9
9
9
9
9
9
9
9
9
9
9
9
9
9
9
9
9
9
9
9
9
9
9
9
9
9
9
9
9
9
9
9
9
9
9
9
9
9
9
9
9
9
9
9
9
9
9
9
9
9
9
9
9
9
9
9
9
9
9
9
9
9
9
9
9
9
9
9
9
9
9
9
9
9
9
9
9
9
9
9
9
9
9
9
9
9
9
9
9
9
9
9
9
9
9
9
9
9
9
9
9
9
9
9
9
9
9
9
9
9
9
9
9
9
9
9
9
9
9
9
9
9
9
9
9
9
9
9
9
9
9
9
9
9
9
9
9
9
9
9
9
9
9
9
9
9
9
9
9
9
9
9
9
9
9
9
9
9
9
9
9
9
9
9
9
9
9
9
9
9
9
9
9
9
9
9
9
9
9
9
9
9
9
9
9
9
9
9
9
9
9
9
9
9
9
9
9
9
9
9
9
9
9
9
9
9
9
9
9
9
9
9
9
9
9
9
9
9
9
9
9
9
9
9
9
9
9
9
9
9
9
9
9
9
9
9
9
9
9
9
9
9
9
9
9
9
9
9
9
9
9
9
9
9
9
9
9
9
9
9
9
9
9
9
9
9
9
9
9
9
9
9
9
9
9
9
9
9
9
9
9
9
9
9
9
9
9
9
9
9
9
9
9
9
9
9
9
9
9
9
9
9
9
9
9
9
9
9
9
9
9
9
9
9
9
9
9
9
9
</DataArray>
</Cells>
<PointData Vectors="'U'">
<DataArray type="Float64" Name="U" NumberOfComponents="2" ComponentName0="U1" ComponentName1="U2" format="ascii">
 0.4816650841612E-37  0.1214256741747E-36
-0.2910866331962E-37 -0.2191319703131E-37
 0.2878071603271E-37 -0.7276675674362E-37
 0.2337329882774E-01  0.4801533677643E-03
 0.2645603166393E-01 -0.4526883101524E-02
 0.3449536680551E-01 -0.2292077799867E-01
 0.4254924611018E-01 -0.4752778869591E-01
 0.3766961507024E+00  0.7499080967025E-01
 0.8385728199356E+00 -0.6146795257459E+00
 0.9652801180956E-01 -0.1996490369201E+00
 0.5510768517399E+00 -0.4832624597948E+00
-0.1884345027964E-37  0.7148793029179E-37
-0.1745112929858E-37  0.6046079678326E-37
-0.1848988741459E-37  0.5535202350327E-37
-0.1971215351078E-37  0.5199301747153E-37
-0.2080455336036E-37  0.4931013813766E-37
-0.2174791515753E-37  0.4693760657679E-37
-0.2256647299157E-37  0.4472465832783E-37
-0.2328496471899E-37  0.4260041144010E-37
-0.2392253110996E-37  0.4052823658633E-37
-0.2449327335517E-37  0.3848781858057E-37
-0.2500761841830E-37  0.3646725458208E-37
-0.2547343101554E-37  0.3445925560769E-37
-0.2589678718530E-37  0.3245918943369E-37
-0.2628249220210E-37  0.3046401613251E-37
-0.2663442712910E-37  0.2847168262269E-37
-0.2695578406571E-37  0.2648076478879E-37
-0.2724922882961E-37  0.2449025164496E-37
-0.2751701600206E-37  0.2249941013755E-37
-0.2776107096841E-37  0.2050770111542E-37
-0.2798299104496E-37  0.1851475232004E-37
-0.2818467817506E-37  0.1651304528153E-37
-0.2836698649589E-37  0.1450954527455E-37
-0.2853097676990E-37  0.1250405745382E-37
-0.2867761525870E-37  0.1049644555113E-37
-0.2880775194361E-37  0.8486613388613E-38
-0.2892213280004E-37  0.6474502857362E-38
-0.2902141133313E-37  0.4460080916395E-38
-0.2910615764615E-37  0.2443343426313E-38
-0.2917686619691E-37  0.4243097244303E-39
-0.2923396227404E-37 -0.1596981031493E-38
-0.2927780715407E-37 -0.3620467112558E-38
-0.2930870266125E-37 -0.5646071691689E-38
-0.2932689476733E-37 -0.7673699800852E-38
-0.2933257664749E-37 -0.9703242041716E-38
-0.2932589123474E-37 -0.1173457698494E-37
-0.2930693322435E-37 -0.1376757056983E-37
-0.2927575074334E-37 -0.1580208118261E-37
-0.2923234661120E-37 -0.1783795907882E-37
-0.2917667925446E-37 -0.1987504994647E-37
-0.2902816996013E-37 -0.2395224349447E-37
-0.2893502681330E-37 -0.2599203527609E-37
-0.2882901766368E-37 -0.2803242417900E-37
-0.2870988177714E-37 -0.3007327089337E-37
-0.2857731287059E-37 -0.3211444825772E-37
-0.2843095769198E-37 -0.3415584644778E-37
-0.2827041421222E-37 -0.3619737457498E-37
-0.2809522922347E-37 -0.3823896854556E-37
-0.2790489551691E-37 -0.4028059392768E-37
-0.2769884829260E-37 -0.4232225263433E-37
-0.2747646081749E-37 -0.4436399184651E-37
-0.2723703934684E-37 -0.4640590733177E-37
-0.2697981661568E-37 -0.4844815864731E-37
-0.2670394444548E-37 -0.5049097579463E-37
-0.2640848444995E-37 -0.5253467440078E-37
-0.2609239680751E-37 -0.5457967526809E-37
-0.2575452709020E-37 -0.5662651804243E-37
-0.2539358947599E-37 -0.5867589604994E-37
-0.2500814839199E-37 -0.6072868596207E-37
-0.2459660231331E-37 -0.6278598285870E-37
-0.2415763054866E-37 -0.6484197330406E-37
-0.2368860971225E-37 -0.6690561660959E-37
-0.2318726713948E-37 -0.6897904122922E-37
-0.2265087271677E-37 -0.7106501770027E-37
-0.2207624214989E-37 -0.7316710345442E-37
-0.2145962111161E-37 -0.7528991553138E-37
-0.2079652571898E-37 -0.7743953065441E-37
-0.2008152052653E-37 -0.7962408156763E-37
-0.1930790335968E-37 -0.8185467549945E-37
-0.1846725097013E-37 -0.8414684979947E-37
-0.1754875784477E-37 -0.8652297029540E-37
-0.1653828325988E-37 -0.8901636745920E-37
-0.1541705910979E-37 -0.9167887451828E-37
-0.1416032368980E-37 -0.9459555717321E-37
-0.1273769221412E-37 -0.9791616563482E-37
-0.1112422105330E-37 -0.1019305956085E-36
-0.9366336477858E-38 -0.1072808097240E-36
-0.7948025977143E-38 -0.1157004144749E-36
-0.1013390693600E-37 -0.1334857291999E-36
 0.2361712518858E-01  0.8321141072587E-03
 0.2379401161864E-01  0.8944910521708E-03
 0.2395509465652E-01  0.8239921869297E-03
 0.2410757703268E-01  0.6782223566704E-03
 0.2425527625044E-01  0.4825952719721E-03
 0.2440028462809E-01  0.2509320362253E-03
 0.2454385678345E-01 -0.8310011737886E-05
 0.2468677403446E-01 -0.2894922022543E-03
 0.2482955006434E-01 -0.5886130891534E-03
 0.2497254515946E-01 -0.9026980875748E-03
 0.2511602981475E-01 -0.1229457964769E-02
 0.2526021971816E-01 -0.1567084461777E-02
 0.2540529455247E-01 -0.1914120291271E-02
 0.2555140788684E-01 -0.2269372400603E-02
 0.2569869194911E-01 -0.2631851267321E-02
 0.2584725931658E-01 -0.3000725900649E-02
 0.2599720285586E-01 -0.3375288762804E-02
 0.2614859695689E-01 -0.3754921211818E-02
 0.2630149347464E-01 -0.4139054808390E-02
 0.2661081275277E-01 -0.4916383590428E-02
 0.2676826305044E-01 -0.5309826214308E-02
 0.2692800246343E-01 -0.5706582464554E-02
 0.2708999080002E-01 -0.6106409554343E-02
 0.2725423002016E-01 -0.6509098136918E-02
 0.2742074444274E-01 -0.6914482555181E-02
 0.2758956317809E-01 -0.7322430880145E-02
 0.2776071562612E-01 -0.7732843901385E-02
 0.2793422836645E-01 -0.8145651107959E-02
 0.2811012376248E-01 -0.8560807943971E-02
 0.2828842020730E-01 -0.8978295872883E-02
 0.2846913115248E-01 -0.9398119199937E-02
 0.2865226593714E-01 -0.9820306039455E-02
 0.2883782970072E-01 -0.1024490715601E-01
 0.2902582356842E-01 -0.1067199553720E-01
 0.2921624539729E-01 -0.1110166732396E-01
 0.2940908965861E-01 -0.1153404087014E-01
 0.2960434830506E-01 -0.1196925811615E-01
 0.2980201101720E-01 -0.1240748463919E-01
 0.3000206574446E-01 -0.1284891044823E-01
 0.3020449927300E-01 -0.1329375091495E-01
 0.3040929777243E-01 -0.1374224774210E-01
 0.3061644737232E-01 -0.1419467009238E-01
 0.3082593482434E-01 -0.1465131601236E-01
 0.3103774820401E-01 -0.1511251407053E-01
 0.3125187734178E-01 -0.1557862456878E-01
 0.3146831500855E-01 -0.1605004259486E-01
 0.3168705703419E-01 -0.1652719901637E-01
 0.3190810344472E-01 -0.1701056404157E-01
 0.3213145897429E-01 -0.1750064989230E-01
 0.3235713318545E-01 -0.1799801327491E-01
 0.3258514167897E-01 -0.1850326118786E-01
 0.3281550484682E-01 -0.1901705270043E-01
 0.3304824791887E-01 -0.1954010561185E-01
 0.3328339850520E-01 -0.2007320058874E-01
 0.3352098159124E-01 -0.2061718391514E-01
 0.3376101284159E-01 -0.2117297184072E-01
 0.3400348195332E-01 -0.2174153822855E-01
 0.3424833172757E-01 -0.2232386975677E-01
 0.3474689649790E-01 -0.2353895620844E-01
 0.3500332916622E-01 -0.2417580662953E-01
 0.3526441113682E-01 -0.2483308891756E-01
 0.3553030151306E-01 -0.2551287678770E-01
 0.3580132813401E-01 -0.2621749915305E-01
 0.3607797704929E-01 -0.2694964297304E-01
 0.3636090358741E-01 -0.2771245144571E-01
 0.3665097225323E-01 -0.2850965519995E-01
 0.3694932505338E-01 -0.2934575367193E-01
 0.3725749082719E-01 -0.3022627993789E-01
 0.3757755714364E-01 -0.3115820117342E-01
 0.3791244150878E-01 -0.3215054907890E-01
 0.3826632210285E-01 -0.3321546119864E-01
 0.3864531981419E-01 -0.3436998932888E-01
 0.3905856022151E-01 -0.3563942994473E-01
 0.3951976852210E-01 -0.3706388523912E-01
 0.4004942261161E-01 -0.3871238139167E-01
 0.4067789043354E-01 -0.4071684938641E-01
 0.4144626154754E-01 -0.4337911779576E-01
-0.1585841515376E-01 -0.1839742121453E-01
-0.4024990356528E-01 -0.2629703392105E-01
-0.5658988031625E-01 -0.2533189436503E-01
-0.6515499167377E-01 -0.1935410340131E-01
-0.6693881878996E-01 -0.9773127935766E-02
-0.6273823940034E-01  0.2636122123431E-02
-0.5304596807768E-01  0.1680655692016E-01
-0.3839332960663E-01  0.3187314920615E-01
-0.1923221719166E-01  0.4736765053669E-01
 0.4139766668216E-02  0.6288128545435E-01
 0.3148823017574E-01  0.7796526827620E-01
 0.6257207772652E-01  0.9210508108747E-01
 0.9710366380304E-01  0.1048821860488E+00
 0.1347609327796E+00  0.1157984530557E+00
 0.1751416553604E+00  0.1241953385497E+00
 0.2177178101194E+00  0.1295131770676E+00
 0.2619858971806E+00  0.1319014560440E+00
 0.3063012390156E+00  0.1258427098610E+00
 0.3462117138897E+00  0.1064704652703E+00
 0.3893429801769E+00  0.4961728240468E-01
 0.3987381816680E+00  0.2276666898037E-01
 0.4054933571360E+00 -0.5043210551121E-02
 0.4095386805728E+00 -0.3362532146517E-01
 0.4110011914033E+00 -0.6287688766583E-01
 0.4106451202849E+00 -0.9293995752493E-01
 0.4090284432836E+00 -0.1242007258085E+00
 0.4066126522523E+00 -0.1573099845696E+00
 0.4038816888433E+00 -0.1932927414026E+00
 0.4015069870477E+00 -0.2338721575778E+00
 0.4012435008419E+00 -0.2818548012263E+00
 0.4042227587281E+00 -0.3372040614263E+00
 0.4102643338438E+00 -0.3964484853600E+00
 0.4192245349256E+00 -0.4567248271604E+00
 0.4310508555265E+00 -0.5159437561523E+00
 0.4456905596548E+00 -0.5725498930674E+00
 0.4630509086415E+00 -0.6253927500816E+00
 0.4829804360491E+00 -0.6736320400099E+00
 0.5052576414866E+00 -0.7166669501723E+00
 0.5295743717000E+00 -0.7540859361729E+00
 0.5555057803275E+00 -0.7856232966014E+00
 0.5825115483004E+00 -0.8110771141310E+00
 0.6100709154072E+00 -0.8303478835106E+00
 0.6376903267616E+00 -0.8434382065394E+00
 0.6648771758473E+00 -0.8504485147016E+00
 0.6911205637732E+00 -0.8515814289466E+00
 0.7158722951686E+00 -0.8471539572474E+00
 0.7385256782258E+00 -0.8376186951317E+00
 0.7584050935583E+00 -0.8235852292160E+00
 0.7748285396180E+00 -0.8057790415397E+00
 0.7874188644232E+00 -0.7847358813777E+00
 0.7965102815795E+00 -0.7606824658483E+00
 0.8030241059003E+00 -0.7340869526286E+00
 0.8081741145781E+00 -0.7059227395263E+00
 0.8130481203694E+00 -0.6780875800221E+00
 0.8178261946482E+00 -0.6542293631045E+00
 0.8227101835207E+00 -0.6370458183064E+00
 0.8280162366536E+00 -0.6258091140151E+00
 0.8334401747199E+00 -0.6187311662950E+00
 0.8462958924596E+00 -0.6128044160639E+00
 0.8511435719850E+00 -0.6149013421020E+00
 0.8515593396652E+00 -0.6187110747605E+00
 0.8467027651703E+00 -0.6226362087017E+00
 0.8366316787931E+00 -0.6259445059416E+00
 0.8213466159539E+00 -0.6273982678094E+00
 0.8009903652054E+00 -0.6261624624685E+00
 0.7758577109059E+00 -0.6216296714497E+00
 0.7462565336524E+00 -0.6132150667934E+00
 0.7124672946038E+00 -0.6003042320907E+00
 0.6747299480559E+00 -0.5823637716316E+00
 0.6331894580220E+00 -0.5585972939482E+00
 0.5879674885207E+00 -0.5276070902940E+00
 0.5394313327382E+00 -0.4872978671876E+00
 0.4880118024723E+00 -0.4372117654850E+00
 0.4328401151641E+00 -0.3806963359234E+00
 0.3715981125567E+00 -0.3181852559449E+00
 0.3000669075733E+00 -0.2471228603027E+00
 0.2107377773266E+00 -0.1567944463984E+00
 0.7982983666234E-04  0.1965119947329E-03
 0.1457371255549E-03  0.3724666361130E-03
 0.2401136501575E-03  0.5542973275078E-03
 0.3690137409993E-03  0.7384983397760E-03
 0.5356954431588E-03  0.9234824440107E-03
 0.7412722963430E-03  0.1107723843491E-02
 0.9861524999347E-03  0.1289928940505E-02
 0.1270283325339E-02  0.1468998806740E-02
 0.1593368051719E-02  0.1643981633133E-02
 0.1954955388179E-02  0.1814038799379E-02
 0.2354497077572E-02  0.1978414345331E-02
 0.2791378761338E-02  0.2136409321801E-02
 0.3264938581572E-02  0.2287359849384E-02
 0.3774474495006E-02  0.2430617166728E-02
 0.4319244684980E-02  0.2565529864076E-02
 0.4898464032017E-02  0.2691428259296E-02
 0.5511302210163E-02  0.2807611087197E-02
 0.6156842112966E-02  0.2913327849803E-02
 0.6834118400462E-02  0.3007776004915E-02
 0.7542044441506E-02  0.3090081630957E-02
 0.8279419061999E-02  0.3159293614153E-02
 0.9044898237449E-02  0.3214371455293E-02
 0.9836968548902E-02  0.3254170365245E-02
 0.1065392374697E-01  0.3277621514930E-02
 0.1149378165481E-01  0.3284691700734E-02
 0.1235414619334E-01  0.3275855095983E-02
 0.1323210848644E-01  0.3251507972969E-02
 0.1412421625162E-01  0.3211734109637E-02
 0.1502648661230E-01  0.3156304105588E-02
 0.1593440333774E-01  0.3084819595433E-02
 0.1684289258132E-01  0.2996886282241E-02
 0.1774623667872E-01  0.2892283056690E-02
 0.1863798086946E-01  0.2771222372216E-02
 0.1951105914685E-01  0.2633370043253E-02
 0.2035770901069E-01  0.2477029906121E-02
 0.2116888799832E-01  0.2299836254076E-02
 0.2193262292668E-01  0.2097789668807E-02
 0.2263397101984E-01  0.1863281869282E-02
 0.2323642143959E-01  0.1579931620760E-02
 0.2373263584962E-01  0.1183083258920E-02
 0.3486750305280E-01 -0.4287287001482E-01
 0.3198773029008E-01 -0.3992929186164E-01
 0.2957318044229E-01 -0.3773132482595E-01
 0.2758343366019E-01 -0.3586228630119E-01
 0.2583413331000E-01 -0.3420358244460E-01
 0.2426382853486E-01 -0.3269221040230E-01
 0.2282916193879E-01 -0.3129099968935E-01
 0.2150413829454E-01 -0.2997741891610E-01
 0.2027053182723E-01 -0.2873805946531E-01
 0.1911468253373E-01 -0.2756327218296E-01
 0.1802585857146E-01 -0.2644409750128E-01
 0.1699593154251E-01 -0.2537308720191E-01
 0.1601868104876E-01 -0.2434455806527E-01
 0.1508910645213E-01 -0.2335416812762E-01
 0.1420290448841E-01 -0.2239832870184E-01
 0.1335609727401E-01 -0.2147346667251E-01
 0.1254488447677E-01 -0.2057527977694E-01
 0.1176585466071E-01 -0.1969832329473E-01
 0.1101656401678E-01 -0.1883668306424E-01
 0.1029582815529E-01 -0.1798610990164E-01
 0.9603020907645E-02 -0.1714393891557E-01
 0.8937647629617E-02 -0.1630824232525E-01
 0.8299297974774E-02 -0.1547751176170E-01
 0.7687621029562E-02 -0.1465054290622E-01
 0.7102267086451E-02 -0.1382632766876E-01
 0.6542907418589E-02 -0.1300407541345E-01
 0.6009149753533E-02 -0.1218310508600E-01
 0.5500529971045E-02 -0.1136285148984E-01
 0.5016464730032E-02 -0.1054282652840E-01
 0.4556201588409E-02 -0.9722586173223E-02
 0.4118757675780E-02 -0.8901694215926E-02
 0.3702838636697E-02 -0.8079675515051E-02
 0.3306722628877E-02 -0.7255946555596E-02
 0.2928097326060E-02 -0.6429712036128E-02
 0.2563785579916E-02 -0.5599797974146E-02
 0.2209374330337E-02 -0.4764335107552E-02
 0.1858202631745E-02 -0.3920215957194E-02
 0.1500680585718E-02 -0.3061718323325E-02
 0.1117241651945E-02 -0.2176488114101E-02
 0.6778285574286E-03 -0.1246930902886E-02
 0.1036944597037E+00 -0.2114341729289E+00
 0.1110862268974E+00 -0.2234765600876E+00
 0.1187761212244E+00 -0.2357275832617E+00
 0.1267918703946E+00 -0.2481503039099E+00
 0.1351521685620E+00 -0.2607043715824E+00
 0.1438704486225E+00 -0.2733461382755E+00
 0.1529561368285E+00 -0.2860291763526E+00
 0.1624149339622E+00 -0.2987045642489E+00
 0.1722487541624E+00 -0.3113213644977E+00
 0.1824557662604E+00 -0.3238274250945E+00
 0.1930304314227E+00 -0.3361700155647E+00
 0.2039636291390E+00 -0.3482964718070E+00
 0.2152428387441E+00 -0.3601546554996E+00
 0.2268523037226E+00 -0.3716935389901E+00
 0.2387731699926E+00 -0.3828639097721E+00
 0.2509836716946E+00 -0.3936190785169E+00
 0.2634593507251E+00 -0.4039155070869E+00
 0.2761733247656E+00 -0.4137133609894E+00
 0.2890965894276E+00 -0.4229769778812E+00
 0.3021983434747E+00 -0.4316752551965E+00
 0.3154463221539E+00 -0.4397819525193E+00
 0.3288071176490E+00 -0.4472758777960E+00
 0.3422464990194E+00 -0.4541410408221E+00
 0.3557297237660E+00 -0.4603667672671E+00
 0.3692218403256E+00 -0.4659477397033E+00
 0.3826879742433E+00 -0.4708839672555E+00
 0.3960935920911E+00 -0.4751806852562E+00
 0.4094047319540E+00 -0.4788481839503E+00
 0.4225882156244E+00 -0.4819015688356E+00
 0.4356118014422E+00 -0.4843604318258E+00
 0.4484442993974E+00 -0.4862484260777E+00
 0.4610556802383E+00 -0.4875929790664E+00
 0.4734172739509E+00 -0.4884252642588E+00
 0.4855020571749E+00 -0.4887800497921E+00
 0.4972851257222E+00 -0.4886955387787E+00
 0.5087441648356E+00 -0.4882132727715E+00
 0.5198603736806E+00 -0.4873783087519E+00
 0.5306199295703E+00 -0.4862390431898E+00
 0.5410172643078E+00 -0.4848464752225E+00
 0.8088152310870E-01 -0.1877529799348E+00
 0.6601893166410E-01 -0.1758631767726E+00
 0.5200127828526E-01 -0.1638859238126E+00
 0.3888308389268E-01 -0.1518674132647E+00
 0.2671392955646E-01 -0.1398762652303E+00
 0.1554253534678E-01 -0.1279785566650E+00
 0.5440263800953E-02 -0.1162345497233E+00
-0.3508898083190E-02 -0.1046980797149E+00
-0.1121381030919E-01 -0.9341735047119E-01
-0.1757722906213E-01 -0.8243883624892E-01
-0.2249197570572E-01 -0.7181450615334E-01
-0.2583339351129E-01 -0.6160847424782E-01
-0.2745240721794E-01 -0.5189830616201E-01
-0.2717505939664E-01 -0.4277057024080E-01
-0.2480626556349E-01 -0.3431539581281E-01
-0.2013488672583E-01 -0.2662006790763E-01
-0.1293794795612E-01 -0.1975697776522E-01
-0.2970389859281E-02 -0.1377633825872E-01
 0.1005057868741E-01 -0.8702227510834E-02
 0.5304729460761E+00 -0.4547521458672E+00
 0.5093349568533E+00 -0.4263389327400E+00
 0.4876148227409E+00 -0.3979695807752E+00
 0.4652736171507E+00 -0.3696899279829E+00
 0.4422932664209E+00 -0.3415617949364E+00
 0.4186665630223E+00 -0.3136498899591E+00
 0.3943791269610E+00 -0.2860276071742E+00
 0.3694241343267E+00 -0.2587837515309E+00
 0.3438124062941E+00 -0.2320288627111E+00
 0.3175774394741E+00 -0.2059003846320E+00
 0.2907700945649E+00 -0.1805626010960E+00
 0.2634440905260E+00 -0.1562015770220E+00
 0.2356452503494E+00 -0.1330202965778E+00
 0.2074170646598E+00 -0.1112373975659E+00
 0.1788192632997E+00 -0.9108639323174E-01
 0.1499388171331E+00 -0.7280925570981E-01
 0.1208870706093E+00 -0.5664656396522E-01
 0.9181453555738E-01 -0.4282872556047E-01
 0.6292971430925E-01 -0.3155254663703E-01
 0.1005540445831E+00 -0.1928902312479E+00
 0.1059478114083E+00 -0.1845197299020E+00
 0.1128365441189E+00 -0.1746781467611E+00
 0.1212450254089E+00 -0.1635166324006E+00
 0.1311645965921E+00 -0.1511925695501E+00
 0.1425555242899E+00 -0.1378783524851E+00
 0.1553450456165E+00 -0.1237575963927E+00
 0.1694258209409E+00 -0.1090189156399E+00
 0.1846568268983E+00 -0.9384763670675E-01
 0.2008670648578E+00 -0.7841646337993E-01
 0.2178622503266E+00 -0.6287579447761E-01
 0.2354344449698E+00 -0.4734454403313E-01
 0.2533742668723E+00 -0.3190254284929E-01
 0.2714847278937E+00 -0.1658589251863E-01
 0.2895948600709E+00 -0.1386845035476E-02
 0.3075702968600E+00  0.1374041150670E-01
 0.3253173215418E+00  0.2886756020493E-01
 0.3427779072507E+00  0.4407503781207E-01
 0.3599144700371E+00  0.5943243964778E-01
 0.5830405072289E+00 -0.5055370282252E+00
 0.6141870067640E+00 -0.5264661408980E+00
 0.6442500794694E+00 -0.5458579980270E+00
 0.6730040152167E+00 -0.5635443982689E+00
 0.7002308578880E+00 -0.5793740783235E+00
 0.7257194784169E+00 -0.5932234607081E+00
 0.7492676489290E+00 -0.6050019181285E+00
 0.7706853259748E+00 -0.6146568909208E+00
 0.7897984684064E+00 -0.6221786093263E+00
 0.8064536168579E+00 -0.6276047023227E+00
 0.8205236691898E+00 -0.6310247232100E+00
 0.8319154867342E+00 -0.6325845426298E+00
 0.8405801813067E+00 -0.6324903929055E+00
 0.8465271645649E+00 -0.6310120395392E+00
 0.8498431951895E+00 -0.6284839503856E+00
 0.8507173308740E+00 -0.6253020527549E+00
 0.8494712096366E+00 -0.6219112905481E+00
 0.8465874021333E+00 -0.6187733769863E+00
 0.8427142401316E+00 -0.6162965999470E+00
 0.5998161313732E-04  0.1698351113461E-03
 0.1296500118946E-03  0.3425456957757E-03
 0.2233984127395E-03  0.5117771394150E-03
 0.3527510323212E-03  0.6823912696136E-03
 0.5199755486435E-03  0.8529741696544E-03
 0.7263831572865E-03  0.1022514092014E-02
 0.9723183353480E-03  0.1189926694631E-02
 0.1257722435601E-02  0.1354240673031E-02
 0.1582281820671E-02  0.1514580356128E-02
 0.1945533719798E-02  0.1670155296464E-02
 0.2346919855599E-02  0.1820241225207E-02
 0.2785818009966E-02  0.1964161293210E-02
 0.3261560166656E-02  0.2101268508671E-02
 0.3773439627312E-02  0.2230928836189E-02
 0.4320711144490E-02  0.2352505704035E-02
 0.4902587131815E-02  0.2465346130381E-02
 0.5518235438045E-02  0.2568768986555E-02
 0.6166737451799E-02  0.2662048756485E-02
 0.6847126397135E-02  0.2744413589100E-02
 0.7558313890808E-02  0.2815027458333E-02
 0.8299096468721E-02  0.2872985249660E-02
 0.9068127264285E-02  0.2917301744815E-02
 0.9863890189472E-02  0.2946895402673E-02
 0.1068467451295E-01  0.2960776144217E-02
 0.1152848788481E-01  0.2959036949889E-02
 0.1239290925500E-01  0.2942359591441E-02
 0.1327498735025E-01  0.2911383485744E-02
 0.1417121333813E-01  0.2866435072385E-02
 0.1507753753787E-01  0.2807522134452E-02
 0.1598936806167E-01  0.2734493284832E-02
 0.1690154394802E-01  0.2647234304129E-02
 0.1780824243678E-01  0.2545863330768E-02
 0.1870289983624E-01  0.2430879397197E-02
 0.1957835191157E-01  0.2302142458566E-02
 0.2042678623942E-01  0.2158425468812E-02
 0.2123888117938E-01  0.1998375067766E-02
 0.2200319711177E-01  0.1819776564241E-02
 0.2270082184540E-01  0.1620121827441E-02
 0.2331237110671E-01  0.1385376915277E-02
 0.2372858506294E-01  0.1139851153385E-02
 0.4508805898351E-04  0.1514699265319E-03
 0.1136007239671E-03  0.3110120778055E-03
 0.2080985566871E-03  0.4689375019647E-03
 0.3377143860253E-03  0.6260147154994E-03
 0.5055849793901E-03  0.7825575801427E-03
 0.7128224652759E-03  0.9376944175836E-03
 0.9598088714420E-03  0.1090586946554E-02
 0.1246464767917E-02  0.1240384253475E-02
 0.1572467973906E-02  0.1386293825535E-02
 0.1937345381860E-02  0.1527579561598E-02
 0.2340530406421E-02  0.1663555368077E-02
 0.2781393826345E-02  0.1793572617444E-02
 0.3259262046800E-02  0.1917006967063E-02
 0.3773424020683E-02  0.2033244505794E-02
 0.4323131193706E-02  0.2141668553036E-02
 0.4907593456364E-02  0.2241647606812E-02
 0.5525976697013E-02  0.2332524987931E-02
 0.6177360481211E-02  0.2413604534725E-02
 0.6860776201816E-02  0.2484148946286E-02
 0.7575133178360E-02  0.2543364242805E-02
 0.8319224880039E-02  0.2590395860980E-02
 0.9091700652484E-02  0.2624319537348E-02
 0.9891038978973E-02  0.2644130382466E-02
 0.1071551446291E-01  0.2648943105528E-02
 0.1156310636024E-01  0.2638973343819E-02
 0.1243135699935E-01  0.2615064002577E-02
 0.1331727309342E-01  0.2578046610989E-02
 0.1421729596473E-01  0.2528453287825E-02
 0.1512731592375E-01  0.2466506347061E-02
 0.1604266905666E-01  0.2392283974980E-02
 0.1695810691679E-01  0.2305928679995E-02
 0.1786771238199E-01  0.2207836723280E-02
 0.1876483620826E-01  0.2098768925585E-02
 0.1964222395505E-01  0.1978906770595E-02
 0.2049187867281E-01  0.1847630916409E-02
 0.2130438730784E-01  0.1704596382395E-02
 0.2206726039006E-01  0.1550132607490E-02
 0.2276322490636E-01  0.1383698741375E-02
 0.2336109226724E-01  0.1213327852624E-02
 0.2374587490417E-01  0.1065005534419E-02
 0.3360224938954E-04  0.1358746924903E-03
 0.9901447028682E-04  0.2806318937913E-03
 0.1938391664187E-03  0.4258190523649E-03
 0.3239101580052E-03  0.5696637451666E-03
 0.4924180317191E-03  0.7123262668719E-03
 0.7005129055145E-03  0.8533118212204E-03
 0.9485474016459E-03  0.9919153231111E-03
 0.1236441233538E-02  0.1127412157688E-02
 0.1563862298102E-02  0.1259089409691E-02
 0.1930330084870E-02  0.1386269078944E-02
 0.2335270857023E-02  0.1508307489147E-02
 0.2778049394761E-02  0.1624589039443E-02
 0.3257987139869E-02  0.1734516836392E-02
 0.3774369089541E-02  0.1837501769276E-02
 0.4326443581382E-02  0.1932951527339E-02
 0.4913418036934E-02  0.2020260315163E-02
 0.5534456305060E-02  0.2098799888270E-02
 0.6188635906563E-02  0.2167907219339E-02
 0.6874986054262E-02  0.2226883159718E-02
 0.7592413182506E-02  0.2274979431882E-02
 0.8339706810697E-02  0.2311396045097E-02
 0.9115510743117E-02  0.2335275364078E-02
 0.9918293266993E-02  0.2345699189247E-02
 0.1074630631201E-01  0.2341895811301E-02
 0.1159749183980E-01  0.2324194030343E-02
 0.1246934992271E-01  0.2293565458801E-02
 0.1335884504594E-01  0.2250994537663E-02
 0.1426237255333E-01  0.2197186221466E-02
 0.1517576767905E-01  0.2132552129612E-02
 0.1609429830928E-01  0.2057376976219E-02
 0.1701263428812E-01  0.1972028237370E-02
 0.1792477406589E-01  0.1877139723896E-02
 0.1882399001997E-01  0.1773723497468E-02
 0.1970290793951E-01  0.1662330066415E-02
 0.2055335605518E-01  0.1542939233309E-02
 0.2136552376723E-01  0.1416351500984E-02
 0.2212655554413E-01  0.1284412145603E-02
 0.2281781452413E-01  0.1151452886111E-02
 0.2340037449228E-01  0.1032206217051E-02
 0.2378604718441E-01  0.9366678034470E-03
 0.2449468695320E-04  0.1214880020443E-03
 0.8619829410238E-04  0.2513942117893E-03
 0.1807342378452E-03  0.3829869581657E-03
 0.3112530438930E-03  0.5134656310253E-03
 0.4804211232043E-03  0.6423976602537E-03
 0.6893819803663E-03  0.7694081898478E-03
 0.9384675748093E-03  0.8939218843661E-03
 0.1227588054983E-02  0.1015310006021E-02
 0.1556404816796E-02  0.1132937210052E-02
 0.1924430594793E-02  0.1246183078489E-02
 0.2331085787019E-02  0.1354449018685E-02
 0.2775729988999E-02  0.1457155922286E-02
 0.3257680310596E-02  0.1553738238238E-02
 0.3776218213892E-02  0.1643635623189E-02
 0.4330589189245E-02  0.1726284030344E-02
 0.4919998315549E-02  0.1801107100623E-02
 0.5543607396072E-02  0.1867508558386E-02
 0.6200491765953E-02  0.1924861831409E-02
 0.6889678152015E-02  0.1972509091578E-02
 0.7610069526336E-02  0.2009750889868E-02
 0.8360450429240E-02  0.2035845222080E-02
 0.9139456824938E-02  0.2050005589979E-02
 0.9945542256939E-02  0.2051405576681E-02
 0.1077693070517E-01  0.2039387227495E-02
 0.1163152293639E-01  0.2014380691385E-02
 0.1250677483759E-01  0.1977461023210E-02
 0.1339960905703E-01  0.1929734408345E-02
 0.1430637774287E-01  0.1872049133264E-02
 0.1522286519260E-01  0.1804979778158E-02
 0.1614427623188E-01  0.1728990506015E-02
 0.1706520665684E-01  0.1644641237996E-02
 0.1797957876285E-01  0.1552769726905E-02
 0.1888058231499E-01  0.1454621806324E-02
 0.1976071869741E-01  0.1351095819649E-02
 0.2061159200973E-01  0.1242751085152E-02
 0.2142304257808E-01  0.1131233660488E-02
 0.2218172331470E-01  0.1019830927279E-02
 0.2286723141131E-01  0.9156179231543E-03
 0.2344099010996E-01  0.8307275409927E-03
 0.2384592601501E-01  0.7623408294536E-03
 0.1712339489724E-04  0.1077302336950E-03
 0.7509166958089E-04  0.2230391319751E-03
 0.1688770597326E-03  0.3406718145413E-03
 0.2997156017356E-03  0.4575877373326E-03
 0.4695420862395E-03  0.5728529437361E-03
 0.6793728578192E-03  0.6860277969594E-03
 0.9295097148509E-03  0.7966157648817E-03
 0.1219847486544E-02  0.9040653083867E-03
 0.1550039714153E-02  0.1007808841363E-02
 0.1919592994401E-02  0.1107281869303E-02
 0.2327922473915E-02  0.1201931673869E-02
 0.2774383254503E-02  0.1291218026199E-02
 0.3258288658922E-02  0.1374609738589E-02
 0.3778917035741E-02  0.1451578529189E-02
 0.4335511324127E-02  0.1521591944436E-02
 0.4927274444387E-02  0.1584106298660E-02
 0.5553366219868E-02  0.1638560357941E-02
 0.6212859737203E-02  0.1684366868324E-02
 0.6904778993968E-02  0.1720912001383E-02
 0.7628022965429E-02  0.1747547677564E-02
 0.8381370116795E-02  0.1763592479374E-02
 0.9163446304471E-02  0.1768333717577E-02
 0.9972686845181E-02  0.1761037839497E-02
 0.1080728487308E-01  0.1741156182602E-02
 0.1166509907297E-01  0.1709207652280E-02
 0.1254354159100E-01  0.1666349683870E-02
 0.1343949460110E-01  0.1613784252128E-02
 0.1434926977891E-01  0.1552476165857E-02
 0.1526860475632E-01  0.1483136239172E-02
 0.1619264747873E-01  0.1406379309444E-02
 0.1711592813669E-01  0.1322925220065E-02
 0.1803229907801E-01  0.1233782537364E-02
 0.1893486799876E-01  0.1140396125855E-02
 0.1981600743309E-01  0.1043965698089E-02
 0.2066710754665E-01  0.9455036112180E-03
 0.2147771565253E-01  0.8472539042147E-03
 0.2223400645264E-01  0.7533785488542E-03
 0.2291512596302E-01  0.6710194278900E-03
 0.2348797792894E-01  0.6070173294779E-03
 0.2392063672017E-01  0.5520074809629E-03
 0.1107329293913E-04  0.9434451896217E-04
 0.6552953245912E-04  0.1953538616693E-03
 0.1582867840804E-03  0.2989282349129E-03
 0.2892891683434E-03  0.4021465816471E-03
 0.4597404160068E-03  0.5037617369676E-03
 0.6704368611808E-03  0.6032056606568E-03
 0.9216217026042E-03  0.7000051726160E-03
 0.1213167059193E-02  0.7936655237763E-03
 0.1544715449636E-02  0.8836766705723E-03
 0.1915766762032E-02  0.9695262836721E-03
 0.2325731079807E-02  0.1050707208164E-02
 0.2773959416464E-02  0.1126719459478E-02
 0.3259761746183E-02  0.1197068475280E-02
 0.3782413689355E-02  0.1261260696945E-02
 0.4341155947118E-02  0.1318798056977E-02
 0.4935189512528E-02  0.1369172298489E-02
 0.5563672364675E-02  0.1411859844005E-02
 0.6225675362484E-02  0.1446315156273E-02
 0.6920219618674E-02  0.1471970569448E-02
 0.7646199663952E-02  0.1488231275558E-02
 0.8402386896451E-02  0.1494478055910E-02
 0.9187395240401E-02  0.1490072832922E-02
 0.9999639593411E-02  0.1474373102329E-02
 0.1083728126958E-01  0.1446932478464E-02
 0.1169813795981E-01  0.1408345944362E-02
 0.1257958014504E-01  0.1359834962004E-02
 0.1347845192290E-01  0.1302674811612E-02
 0.1439102774763E-01  0.1237922131139E-02
 0.1531300343920E-01  0.1166397515917E-02
 0.1623947714489E-01  0.1088837215101E-02
 0.1716492219250E-01  0.1006088323138E-02
 0.1808312849507E-01  0.9192934387225E-03
 0.1898712677270E-01  0.8300508692942E-03
 0.1986917226646E-01  0.7397844566056E-03
 0.2072048448191E-01  0.6498053751254E-03
 0.2153040788484E-01  0.5626685312012E-03
 0.2228497405515E-01  0.4826238605154E-03
 0.2296442053180E-01  0.4152794505942E-03
 0.2354297566599E-01  0.3626885168770E-03
 0.2400640018574E-01  0.3132662123415E-03
 0.6063198128616E-05  0.8120269031921E-04
 0.5733127511467E-04  0.1681884561336E-03
 0.1489295668977E-03  0.2577407389204E-03
 0.2799597798825E-03  0.3472028996302E-03
 0.4509839473724E-03  0.4351757181042E-03
 0.6625319493760E-03  0.5209680921673E-03
 0.9147575377776E-03  0.6040947025262E-03
 0.1207499353092E-02  0.6840971303857E-03
 0.1540384589319E-02  0.7605128568877E-03
 0.1912904838904E-02  0.8328770923555E-03
 0.2324464782774E-02  0.9007269990909E-03
 0.2774411466938E-02  0.9636034276637E-03
 0.3262051808605E-02  0.1021050029624E-02
 0.3786659030912E-02  0.1072610061589E-02
 0.4347471911770E-02  0.1117822131285E-02
 0.4943689789163E-02  0.1156215703483E-02
 0.5574469003903E-02  0.1187307022965E-02
 0.6238878301986E-02  0.1210594202360E-02
 0.6935935870892E-02  0.1225557373536E-02
 0.7664531499117E-02  0.1231656226310E-02
 0.8423428795737E-02  0.1228334324545E-02
 0.9211228593160E-02  0.1215027382685E-02
 0.1002632444025E-01  0.1191180135773E-02
 0.1086684638303E-01  0.1156440076925E-02
 0.1173057359461E-01  0.1111465828392E-02
 0.1261483816892E-01  0.1057526414125E-02
 0.1351644953046E-01  0.9959503605022E-03
 0.1443164896732E-01  0.9278631781127E-03
 0.1535609614596E-01  0.8541694873191E-03
 0.1628484729778E-01  0.7756978651080E-03
 0.1721232848682E-01  0.6933893973829E-03
 0.1813227711090E-01  0.6084807755697E-03
 0.1903765911069E-01  0.5226689659634E-03
 0.1992064013966E-01  0.4375097811582E-03
 0.2077233530708E-01  0.3544506142014E-03
 0.2158204085490E-01  0.2760445326401E-03
 0.2233612650723E-01  0.2059899916657E-03
 0.2301699668778E-01  0.1478234942761E-03
 0.2360606522913E-01  0.1002026043887E-03
 0.2410057063873E-01  0.5166434023815E-04
 0.1894324074785E-05  0.6823502397830E-04
 0.5032962299623E-04  0.1414389590553E-03
 0.1407422497366E-03  0.2170698325440E-03
 0.2717016695267E-03  0.2927781702429E-03
 0.4432432868583E-03  0.3671260585995E-03
 0.6556211858925E-03  0.4393321006181E-03
 0.9088762151634E-03  0.5088843537567E-03
 0.1202801496218E-02  0.5753446728346E-03
 0.1537003629088E-02  0.6382887549597E-03
 0.1910963602530E-02  0.6972945866239E-03
 0.2324079852053E-02  0.7519418318623E-03
 0.2775695290351E-02  0.8018121730338E-03
 0.3265113912385E-02  0.8464885072689E-03
 0.3791606807221E-02  0.8855524921167E-03
 0.4354411137494E-02  0.9185812365030E-03
 0.4952724895500E-02  0.9451437819295E-03
 0.5585703063026E-02  0.9647979276759E-03
 0.6252412494573E-02  0.9770869124357E-03
 0.6951868557430E-02  0.9815397751459E-03
 0.7682956216628E-02  0.9776712532346E-03
 0.8444430961041E-02  0.9649873149628E-03
 0.9234880122714E-02  0.9429953498253E-03
 0.1005267611377E-01  0.9112222025923E-03
 0.1089591948048E-01  0.8694001571008E-03
 0.1176235438857E-01  0.8182394412453E-03
 0.1264927876626E-01  0.7590415979997E-03
 0.1355347170553E-01  0.6931701519871E-03
 0.1447114628664E-01  0.6217980391125E-03
 0.1539793255800E-01  0.5458891208272E-03
 0.1632885359113E-01  0.4663357385405E-03
 0.1725829904856E-01  0.3841394335067E-03
 0.1817996689654E-01  0.3005889195135E-03
 0.1908677803636E-01  0.2174203170652E-03
 0.1997084895516E-01  0.1362261783373E-03
 0.2082327675479E-01  0.5843145953828E-04
 0.2163350581929E-01 -0.1368623867566E-04
 0.2238868620591E-01 -0.7734360448365E-04
 0.2307389894139E-01 -0.1309835872399E-03
 0.2367671057944E-01 -0.1780105836227E-03
 0.2420133950039E-01 -0.2287010272436E-03
-0.1579089751934E-05  0.5540087076742E-04
 0.4437825445405E-04  0.1150321448833E-03
 0.1336484798429E-03  0.1768705365689E-03
 0.2644783151883E-03  0.2388698109867E-03
 0.4364883458167E-03  0.2996257748520E-03
 0.6496709548146E-03  0.3583050318072E-03
 0.9039407902484E-03  0.4143690703168E-03
 0.1199034627508E-02  0.4673901302048E-03
 0.1534532766686E-02  0.5169744162944E-03
 0.1909902802785E-02  0.5627382294136E-03
 0.2324535683192E-02  0.6043016897826E-03
 0.2777769757334E-02  0.6412868956833E-03
 0.3268906080488E-02  0.6733165764341E-03
 0.3797213799839E-02  0.7000119391813E-03
 0.4361928760308E-02  0.7209900008364E-03
 0.4962247954698E-02  0.7358608266119E-03
 0.5597325363132E-02  0.7442250901983E-03
 0.6266226290397E-02  0.7456721925249E-03
 0.6967963563754E-02  0.7397806807029E-03
 0.7701417515529E-02  0.7261202502218E-03
 0.8465335644811E-02  0.7042580596088E-03
 0.9258292130758E-02  0.6737700756875E-03
 0.1007863945721E-01  0.6342592921849E-03
 0.1092445141844E-01  0.5855334354548E-03
 0.1179344149091E-01  0.5283428022591E-03
 0.1268287843165E-01  0.4640075663325E-03
 0.1358951619479E-01  0.3939094640555E-03
 0.1450954550915E-01  0.3192488006896E-03
 0.1543857422914E-01  0.2410250468991E-03
 0.1637160196580E-01  0.1601666037393E-03
 0.1730299433645E-01  0.7770226602648E-04
 0.1822642627105E-01 -0.5069727738914E-05
 0.1913479973453E-01 -0.8643359699701E-04
 0.2002023159010E-01 -0.1648503059841E-03
 0.2087389956747E-01 -0.2390559966551E-03
 0.2168559209812E-01 -0.3072400777873E-03
 0.2244355041186E-01 -0.3676539075604E-03
 0.2313560520364E-01 -0.4203566755214E-03
 0.2375419179456E-01 -0.4698064598635E-03
 0.2430746282752E-01 -0.5247295896559E-03
-0.4467238045098E-05  0.4267505137870E-04
 0.3935195376169E-04  0.8891506452454E-04
 0.1275683302483E-03  0.1370994106442E-03
 0.2582456626247E-03  0.1854615373157E-03
 0.4306870142583E-03  0.2326737794893E-03
 0.6446495136991E-03  0.2778851526349E-03
 0.8999175362965E-03  0.3205386200096E-03
 0.1196163398156E-02  0.3602125966607E-03
 0.1532935646302E-02  0.3965382665637E-03
 0.1909685464981E-02  0.4291664284061E-03
 0.2325794796353E-02  0.4577556383999E-03
 0.2780596781133E-02  0.4819677518900E-03
 0.3273389382217E-02  0.5014655774734E-03
 0.3803439931260E-02  0.5159106528223E-03
 0.4369983244032E-02  0.5249609369138E-03
 0.4972215699108E-02  0.5282685909066E-03
 0.5609290716474E-02  0.5254780970625E-03
 0.6280272526649E-02  0.5162256400171E-03
 0.6984171897601E-02  0.5001394007868E-03
 0.7719865030246E-02  0.4768433690459E-03
 0.8486092055031E-02  0.4459639929785E-03
 0.9281415062028E-02  0.4071420159196E-03
 0.1010416867035E-01  0.3600501440260E-03
 0.1095240346755E-01  0.3045622166159E-03
 0.1182380721154E-01  0.2414576191600E-03
 0.1271562513314E-01  0.1720622748256E-03
 0.1362459200540E-01  0.9776061665624E-04
 0.1454688290140E-01  0.1976160610065E-04
 0.1547809175838E-01 -0.6092200066720E-04
 0.1641320537556E-01 -0.1433522241119E-03
 0.1734657918022E-01 -0.2265050945236E-03
 0.1827188431869E-01 -0.3091138544080E-03
 0.1918203441167E-01 -0.3895386805967E-03
 0.2006920113363E-01 -0.4663729723141E-03
 0.2092474169460E-01 -0.5386200121816E-03
 0.2173895088474E-01 -0.6050380407032E-03
 0.2250132384259E-01 -0.6648699670290E-03
 0.2320224300288E-01 -0.7193671399220E-03
 0.2383779004485E-01 -0.7733629594987E-03
 0.2441807121590E-01 -0.8340174016913E-03
-0.6855566292114E-05  0.3004105500694E-04
 0.3514437347756E-04  0.6304826740381E-04
 0.1224236452121E-03  0.9771685855771E-04
 0.2529553941867E-03  0.1325297784353E-03
 0.4258051491938E-03  0.1662588129501E-03
 0.6405260973825E-03  0.1980628825352E-03
 0.8967752453311E-03  0.2273777903849E-03
 0.1194155529355E-02  0.2537881698052E-03
 0.1532179107484E-02  0.2769469152295E-03
 0.1910277776273E-02  0.2965363789343E-03
 0.2327822812317E-02  0.3122517437673E-03
 0.2784141349798E-02  0.3237938610693E-03
 0.3278527998647E-02  0.3308656227237E-03
 0.3810248347327E-02  0.3331693763272E-03
 0.4378536467555E-02  0.3304047314163E-03
 0.4982588552434E-02  0.3222666785205E-03
 0.5621557994016E-02  0.3084440879801E-03
 0.6294508569188E-02  0.2886201677035E-03
 0.7000449686562E-02  0.2624724286064E-03
 0.7738254248136E-02  0.2296779980146E-03
 0.8506656126457E-02  0.1899201780801E-03
 0.9304207041052E-02  0.1429002171676E-03
 0.1012922653703E-01  0.8835388212031E-04
 0.1097974619582E-01  0.2621200331678E-04
 0.1185343356531E-01 -0.4272732289974E-04
 0.1274751654727E-01 -0.1171443736106E-03
 0.1365871735654E-01 -0.1956663571563E-03
 0.1458320285591E-01 -0.2770930276163E-03
 0.1551656211665E-01 -0.3604192027241E-03
 0.1645378064290E-01 -0.4447222003318E-03
 0.1738921880065E-01 -0.5290129938257E-03
 0.1831656521837E-01 -0.6120941004076E-03
 0.1922877807428E-01 -0.6924504826803E-03
 0.2011813838587E-01 -0.7688710454302E-03
 0.2097627058532E-01 -0.8406948771977E-03
 0.2179408837370E-01 -0.9072756621972E-03
 0.2256237762835E-01 -0.9687180980838E-03
 0.2327373769588E-01 -0.1027080209149E-02
 0.2392685741564E-01 -0.1087150899681E-02
 0.2453254603644E-01 -0.1154660254484E-02
-0.8811731583935E-05  0.1748743359233E-04
 0.3166528975047E-04  0.3740143372561E-04
 0.1181408010869E-03  0.5868753897097E-04
 0.2485575809031E-03  0.8004748173175E-04
 0.4218071890204E-03  0.1003626409699E-03
 0.6372705134553E-03  0.1188222567874E-03
 0.8944847193103E-03  0.1348668341592E-03
 0.1192981441355E-02  0.1480900004418E-03
 0.1532232955531E-02  0.1581650725756E-03
 0.1911648968087E-02  0.1648039669665E-03
 0.2330588414454E-02  0.1677370169929E-03
 0.2788371540384E-02  0.1667033149387E-03
 0.3284289268678E-02  0.1614456800349E-03
 0.3817605479727E-02  0.1517075087962E-03
 0.4387553791591E-02  0.1372304903616E-03
 0.4993330690026E-02  0.1177528766808E-03
 0.5634090168260E-02  0.9300818566820E-04
 0.6308896324015E-02  0.6272654503972E-04
 0.7016758136390E-02  0.2663411636807E-04
 0.7756546377009E-02 -0.1554039578571E-04
 0.8526990239450E-02 -0.6405966416997E-04
 0.9326633375635E-02 -0.1191664871483E-03
 0.1015378366197E-01 -0.1810687105706E-03
 0.1100645841506E-01 -0.2497872937003E-03
 0.1188231092788E-01 -0.3245151658076E-03
 0.1277855843679E-01 -0.4039498540762E-03
 0.1369191778881E-01 -0.4867434070105E-03
 0.1461855572322E-01 -0.5717202957061E-03
 0.1555406615308E-01 -0.6579021508136E-03
 0.1649344550367E-01 -0.7444044885216E-03
 0.1743107508047E-01 -0.8303006255738E-03
 0.1836068323311E-01 -0.9144956021850E-03
 0.1927530564822E-01 -0.9956392651553E-03
 0.2016738278676E-01 -0.1072761184629E-02
 0.2102887532444E-01 -0.1145569834632E-02
 0.2185137654310E-01 -0.1213987954808E-02
 0.2262690883223E-01 -0.1278819641984E-02
 0.2334990692466E-01 -0.1342618069299E-02
 0.2402083594249E-01 -0.1409889322968E-02
 0.2465043999929E-01 -0.1485122949341E-02
-0.1039023798311E-04  0.5005799290759E-05
 0.2883801821519E-04  0.1195053534637E-04
 0.1146519662554E-03  0.1998006751909E-04
 0.2450026267260E-03  0.2798631272901E-04
 0.4186569738712E-03  0.3496246420284E-04
 0.6348530823256E-03  0.4014236422069E-04
 0.8930184502493E-03  0.4298208430991E-04
 0.1192613961388E-02  0.4308849875774E-04
 0.1533069758613E-02  0.4015559560403E-04
 0.1913771197630E-02  0.3392377729342E-04
 0.2334063295393E-02  0.2415744701316E-04
 0.2793258510301E-02  0.1063326547078E-04
 0.3290643707631E-02 -0.6866269021301E-05
 0.3825481077613E-02 -0.2855665807431E-04
 0.4397004091236E-02 -0.5465393952982E-04
 0.5004410061070E-02 -0.8537643154099E-04
 0.5646854312827E-02 -0.1209459921441E-03
 0.6323402198420E-02 -0.1615859772841E-03
 0.7033063430085E-02 -0.2075225699226E-03
 0.7774708145872E-02 -0.2589773636143E-03
 0.8547062873478E-02 -0.3161621008247E-03
 0.9348666012604E-02 -0.3792683043971E-03
 0.1017781769240E-01 -0.4484539821084E-03
 0.1103252615150E-01 -0.5237002247293E-03
 0.1191043675199E-01 -0.6042000476158E-03
 0.1280876311560E-01 -0.6886783850232E-03
 0.1372422438012E-01 -0.7758241911196E-03
 0.1465299576791E-01 -0.8645012414149E-03
 0.1559068624770E-01 -0.9537754523304E-03
 0.1653231584263E-01 -0.1042821143197E-02
 0.1747230316661E-01 -0.1130798065178E-02
 0.1840443841483E-01 -0.1216741602799E-02
 0.1932186569349E-01 -0.1299496925662E-02
 0.2021722710523E-01 -0.1378361831191E-02
 0.2108286655736E-01 -0.1453419097890E-02
 0.2191107198369E-01 -0.1525102376406E-02
 0.2269499069658E-01 -0.1594752758940E-02
 0.2343051803152E-01 -0.1665184531729E-02
 0.2411925554769E-01 -0.1740502275316E-02
 0.2477142549965E-01 -0.1824149542711E-02
-0.1163561883485E-04 -0.7410330698239E-05
 0.2659718835142E-04 -0.1332403732586E-04
 0.1118955155213E-03 -0.1843350103570E-04
 0.2422426039499E-03 -0.2368211161314E-04
 0.4163185545372E-03 -0.2996735091562E-04
 0.6332447834581E-03 -0.3800139197126E-04
 0.8923504608843E-03 -0.4830338150756E-04
 0.1193028114471E-02 -0.6124837565468E-04
 0.1534664680740E-02 -0.7712039749587E-04
 0.1916619439557E-02 -0.9615085172322E-04
 0.2338222099948E-02 -0.1185419410951E-03
 0.2798776477765E-02 -0.1444799792117E-03
 0.3297565011225E-02 -0.1741430774719E-03
 0.3833848222498E-02 -0.2077057221173E-03
 0.4406859770280E-02 -0.2453416796413E-03
 0.5015798390911E-02 -0.2872258962189E-03
 0.5659821579901E-02 -0.3335358742284E-03
 0.6337997036864E-02 -0.3844491115228E-03
 0.7049336598506E-02 -0.4401453861122E-03
 0.7792711577128E-02 -0.5007986952207E-03
 0.8566848240543E-02 -0.5665731007449E-03
 0.9370282994130E-02 -0.6376135293118E-03
 0.1020131257104E-01 -0.7140344645893E-03
 0.1105794168275E-01 -0.7957849587487E-03
 0.1193781438398E-01 -0.8820664671463E-03
 0.1283814804435E-01 -0.9716405893424E-03
 0.1375567211936E-01 -0.1063244107883E-02
 0.1468657931157E-01 -0.1155793229841E-02
 0.1562650419147E-01 -0.1248413742468E-02
 0.1657050323628E-01 -0.1340356833922E-02
 0.1751304856827E-01 -0.1430889086107E-02
 0.1844801322328E-01 -0.1519198200577E-02
 0.1936867691199E-01 -0.1604345463776E-02
 0.2026791561456E-01 -0.1685908915772E-02
 0.2113848159598E-01 -0.1764329720549E-02
 0.2197333681083E-01 -0.1840479263414E-02
 0.2276661162872E-01 -0.1916090024888E-02
 0.2351532164640E-01 -0.1994071005595E-02
 0.2422172437801E-01 -0.2078081962422E-02
 0.2489526046692E-01 -0.2170700007326E-02
-0.1258468126899E-04 -0.1976622154621E-04
 0.2488689714189E-04 -0.3843873052272E-04
 0.1098159853771E-03 -0.5657820985516E-04
 0.2402321194511E-03 -0.7498555824430E-04
 0.4147568940265E-03 -0.9445405928982E-04
 0.6324175030739E-03 -0.1156362471625E-03
 0.8924562641040E-03 -0.1390190878659E-03
 0.1194200988738E-02 -0.1649547693866E-03
 0.1536995350942E-02 -0.1937033522349E-03
 0.1920171389842E-02 -0.2254677221334E-03
 0.2343042366013E-02 -0.2604169886300E-03
 0.2804902691933E-02 -0.2987008307585E-03
 0.3305030044373E-02 -0.3404582621093E-03
 0.3842683324871E-02 -0.3858229411086E-03
 0.4417096754901E-02 -0.4349265231312E-03
 0.5027471160553E-02 -0.4879008310168E-03
 0.5672967152475E-02 -0.5448794866303E-03
 0.6352656029157E-02 -0.6059949971878E-03
 0.7065553361802E-02 -0.6713821823248E-03
 0.7810533731938E-02 -0.7411697007550E-03
 0.8586325901582E-02 -0.8154772432709E-03
 0.9391467915974E-02 -0.8944077210941E-03
 0.1022425781695E-01 -0.9780380871466E-03
 0.1108270263180E-01 -0.1066292617623E-02
 0.1196445196700E-01 -0.1158388829460E-02
 0.1286673454133E-01 -0.1253133336506E-02
 0.1378629842498E-01 -0.1349320515815E-02
 0.1471936305556E-01 -0.1445930635007E-02
 0.1566159929858E-01 -0.1542162964295E-02
 0.1660811282727E-01 -0.1637360939994E-02
 0.1755344479272E-01 -0.1730914505177E-02
 0.1849157008909E-01 -0.1822179804950E-02
 0.1941592634286E-01 -0.1910446158709E-02
 0.2031964498465E-01 -0.1995571311185E-02
 0.2119589232142E-01 -0.2078325487660E-02
 0.2203825839867E-01 -0.2159941217739E-02
 0.2284170395606E-01 -0.2242420288495E-02
 0.2360407038834E-01 -0.2328653750047E-02
 0.2432791722881E-01 -0.2421858529496E-02
 0.2502176535938E-01 -0.2523903886634E-02
-0.1326812752859E-04 -0.3206634027324E-04
 0.2365920184027E-04 -0.6340768072319E-04
 0.1083637941106E-03 -0.9447668079581E-04
 0.2389288392565E-03 -0.1259508412316E-03
 0.4139384314150E-03 -0.1585256973652E-03
 0.6323443137757E-03 -0.1927912291623E-03
 0.8933129002663E-03 -0.2291965497223E-03
 0.1196111660833E-02 -0.2680665558660E-03
 0.1540041764813E-02 -0.3096350449789E-03
 0.1924407381041E-02 -0.3540756100295E-03
 0.2348504462971E-02 -0.4015242484627E-03
 0.2811617391696E-02 -0.4520942428366E-03
 0.3313018812904E-02 -0.5058857816221E-03
 0.3851966099760E-02 -0.5629919536432E-03
 0.4427694463271E-02 -0.6235025898754E-03
 0.5039407559471E-02 -0.6875067957977E-03
 0.5686270167487E-02 -0.7550949577033E-03
 0.6367358587642E-02 -0.8263556245328E-03
 0.7081693939711E-02 -0.9013802442726E-03
 0.7828156428268E-02 -0.9802544774250E-03
 0.8605480365714E-02 -0.1063056932579E-02
 0.9412209385683E-02 -0.1149852907821E-02
 0.1024664782855E-01 -0.1240687432579E-02
 0.1110681110814E-01 -0.1335466661026E-02
 0.1199036141739E-01 -0.1433431040783E-02
 0.1289454659414E-01 -0.1533439630081E-02
 0.1381614179476E-01 -0.1634352999631E-02
 0.1475140257362E-01 -0.1735225586696E-02
 0.1569604674797E-01 -0.1835341743142E-02
 0.1664524153545E-01 -0.1934149800025E-02
 0.1759361151783E-01 -0.2031175754696E-02
 0.1853524986675E-01 -0.2125954827903E-02
 0.1946376897708E-01 -0.2218008667860E-02
 0.2037256701792E-01 -0.2307464888968E-02
 0.2125521412038E-01 -0.2395386222177E-02
 0.2210586646806E-01 -0.2483293552861E-02
 0.2292016441736E-01 -0.2573360449655E-02
 0.2369652842711E-01 -0.2668387499124E-02
 0.2443756414780E-01 -0.2771175551587E-02
 0.2515080745467E-01 -0.2883024783398E-02
-0.1371175127835E-04 -0.4431461741769E-04
 0.2287289677172E-04 -0.8824330626175E-04
 0.1074948551699E-03 -0.1321495252806E-03
 0.2382937742675E-03 -0.1766036835101E-03
 0.4138315121602E-03 -0.2222105255658E-03
 0.6329997478427E-03 -0.2694965143705E-03
 0.8948990235822E-03 -0.3188687576966E-03
 0.1198741172068E-02 -0.3706209935699E-03
 0.1543786221458E-02 -0.4249583709543E-03
 0.1929310318246E-02 -0.4820241255358E-03
 0.2354591540688E-02 -0.5419208712561E-03
 0.2818903768991E-02 -0.6047255925587E-03
 0.3321514436624E-02 -0.6704998933963E-03
 0.3861679542407E-02 -0.7392965988767E-03
 0.4438635775226E-02 -0.8111641012927E-03
 0.5051590439233E-02 -0.8861493214639E-03
 0.5699713641282E-02 -0.9643001898979E-03
 0.6382088229361E-02 -0.1045662452660E-02
 0.7097742871750E-02 -0.1130285861595E-02
 0.7845565977753E-02 -0.1218215440520E-02
 0.8624300722680E-02 -0.1309491917161E-02
 0.9432500533860E-02 -0.1404147136537E-02
 0.1026848126371E-01 -0.1502199375793E-02
 0.1113027295237E-01 -0.1603542682310E-02
 0.1201555753323E-01 -0.1707446537214E-02
 0.1292160983491E-01 -0.1812828949159E-02
 0.1384524065517E-01 -0.1918624112813E-02
 0.1478275105019E-01 -0.2023969223730E-02
 0.1572991623855E-01 -0.2128243307951E-02
 0.1668197669403E-01 -0.2231009554239E-02
 0.1763365337493E-01 -0.2331939068071E-02
 0.1857917117901E-01 -0.2430751884500E-02
 0.1951232857642E-01 -0.2527200156844E-02
 0.2042679258477E-01 -0.2621665281327E-02
 0.2131651487200E-01 -0.2715463407009E-02
 0.2217614726351E-01 -0.2810338663898E-02
 0.2300186859678E-01 -0.2908561570036E-02
 0.2379247589128E-01 -0.3012798921021E-02
 0.2455043988293E-01 -0.3125471711896E-02
 0.2528229044598E-01 -0.3247432292772E-02
-0.1393733717619E-04 -0.5651461180720E-04
 0.2249252114284E-04 -0.1129567207781E-03
 0.1071701550859E-03 -0.1696156784045E-03
 0.2382914024397E-03 -0.2269686784733E-03
 0.4144066994593E-03 -0.2855366481955E-03
 0.6343600395337E-03 -0.3457829203353E-03
 0.8971950085142E-03 -0.4080697186566E-03
 0.1202072534725E-02 -0.4726563764587E-03
 0.1548213281551E-02 -0.5397170897804E-03
 0.1934865623399E-02 -0.6093635138296E-03
 0.2361289475866E-02 -0.6816644244768E-03
 0.2826747921165E-02 -0.7566604893699E-03
 0.3330503105360E-02 -0.8343749330264E-03
 0.3871809882387E-02 -0.9148206540299E-03
 0.4449906976948E-02 -0.9980050678054E-03
 0.5064006239508E-02 -0.1083933542597E-02
 0.5713284365664E-02 -0.1172612435600E-02
 0.6396832428356E-02 -0.1264045930008E-02
 0.7113688809380E-02 -0.1358243799848E-02
 0.7862752899911E-02 -0.1455212762363E-02
 0.8642780262468E-02 -0.1554958723191E-02
 0.9452338526726E-02 -0.1657483942228E-02
 0.1028976043841E-01 -0.1762784642397E-02
 0.1115309701906E-01 -0.1870748120588E-02
 0.1204005716311E-01 -0.1980678221066E-02
 0.1294795060072E-01 -0.2091557486611E-02
 0.1387363232669E-01 -0.2202400006978E-02
 0.1481345817561E-01 -0.2312432827145E-02
 0.1576327086210E-01 -0.2421137287100E-02
 0.1671839499892E-01 -0.2528198844764E-02
 0.1767365919023E-01 -0.2633439453652E-02
 0.1862343040075E-01 -0.2736765560869E-02
 0.1956169924856E-01 -0.2838153402314E-02
 0.2048239600864E-01 -0.2938218456523E-02
 0.2137982322342E-01 -0.3038491807261E-02
 0.2224905474757E-01 -0.3140885486849E-02
 0.2308668073202E-01 -0.3247710586984E-02
 0.2389171058276E-01 -0.3361479990005E-02
 0.2466635384453E-01 -0.3484268617481E-02
 0.2541614618610E-01 -0.3616578751277E-02
-0.1396334906077E-04 -0.6866961319318E-04
 0.2248755285424E-04 -0.1375580283003E-03
 0.1073553346580E-03 -0.2068926699733E-03
 0.2388896829108E-03 -0.2770693102761E-03
 0.4156369882790E-03 -0.3485317660433E-03
 0.6364033288006E-03 -0.4216815233699E-03
 0.9001830619121E-03 -0.4968340747217E-03
 0.1206090760015E-02 -0.5742117199238E-03
 0.1553309745521E-02 -0.6539555823849E-03
 0.1941061192359E-02 -0.7361444590666E-03
 0.2368586823795E-02 -0.8208127148383E-03
 0.2835138803086E-02 -0.9079645923077E-03
 0.3339974030929E-02 -0.9975851091992E-03
 0.3882346531396E-02 -0.1089647595355E-02
 0.4461497698263E-02 -0.1184119008733E-02
 0.5076644906726E-02 -0.1280963872626E-02
 0.5726972797824E-02 -0.1380147927245E-02
 0.6411582464693E-02 -0.1481635083113E-02
 0.7129524310200E-02 -0.1585396857417E-02
 0.7879711647044E-02 -0.1691403915175E-02
 0.8660916118121E-02 -0.1799630211766E-02
 0.9471724117927E-02 -0.1910051959489E-02
 0.1031049078350E-01 -0.2022647525560E-02
 0.1117529453884E-01 -0.2137302142248E-02
 0.1206387847770E-01 -0.2253358573666E-02
 0.1297359512441E-01 -0.2369868567871E-02
 0.1390135215235E-01 -0.2485931244250E-02
 0.1484356924702E-01 -0.2600869136905E-02
 0.1579616624095E-01 -0.2714271681160E-02
 0.1675456180724E-01 -0.2825951660933E-02
 0.1771370168367E-01 -0.2935884714194E-02
 0.1866810220545E-01 -0.3044161961491E-02
 0.1961194753858E-01 -0.3150974131850E-02
 0.2053941960462E-01 -0.3257149499504E-02
 0.2144513576984E-01 -0.3364398471628E-02
 0.2232451969735E-01 -0.3474754952053E-02
 0.2317445935112E-01 -0.3590532239715E-02
 0.2399404998038E-01 -0.3714075905451E-02
 0.2478514072431E-01 -0.3847173992365E-02
 0.2555232683372E-01 -0.3989977491854E-02
-0.1380546431988E-04 -0.8078269484196E-04
 0.2283175280883E-04 -0.1620565460226E-03
 0.1080202914005E-03 -0.2439968376652E-03
 0.2400600016275E-03 -0.3269280038211E-03
 0.4174979417041E-03 -0.4112230173900E-03
 0.6391098242894E-03 -0.4972233706455E-03
 0.9038473295080E-03 -0.5851967877584E-03
 0.1210782897285E-02 -0.6753264787989E-03
 0.1559064645208E-02 -0.7677186170047E-03
 0.1947887361075E-02 -0.8624178860552E-03
 0.2376474773427E-02 -0.9594236050155E-03
 0.2844068177576E-02 -0.1058703422389E-02
 0.3349919393777E-02 -0.1160204296781E-02
 0.3893282023367E-02 -0.1263860361598E-02
 0.4473400841101E-02 -0.1369598679889E-02
 0.5089499803880E-02 -0.1477343692955E-02
 0.5740772942709E-02 -0.1587021529031E-02
 0.6426333268962E-02 -0.1698557136411E-02
 0.7145245633003E-02 -0.1811885464826E-02
 0.7896440338398E-02 -0.1926943269166E-02
 0.8678708929457E-02 -0.2043675204500E-02
 0.9490661235878E-02 -0.2162034614309E-02
 0.1033068035398E-01 -0.2281985691885E-02
 0.1119687855219E-01 -0.2403415616605E-02
 0.1208704033490E-01 -0.2525709863584E-02
 0.1299856884384E-01 -0.2647993163014E-02
 0.1392843277509E-01 -0.2769453697229E-02
 0.1487312445669E-01 -0.2889513744792E-02
 0.1582864990374E-01 -0.3007874886678E-02
 0.1679053073796E-01 -0.3124480177427E-02
 0.1775383754045E-01 -0.3239459323690E-02
 0.1871324050375E-01 -0.3353083839979E-02
 0.1966311481538E-01 -0.3465747410270E-02
 0.2059787794095E-01 -0.3578469828456E-02
 0.2151242348073E-01 -0.3693109023234E-02
 0.2240245558030E-01 -0.3811784587585E-02
 0.2326506434643E-01 -0.3936784078898E-02
 0.2409932127105E-01 -0.4070293481703E-02
 0.2490668230290E-01 -0.4213822736048E-02
 0.2569074253958E-01 -0.4367356429043E-02
-0.1347702186708E-04 -0.9285484453690E-04
 0.2350184343138E-04 -0.1864527257196E-03
 0.1091368149536E-03 -0.2809251303474E-03
 0.2417732537411E-03 -0.3765336195612E-03
 0.4199615415584E-03 -0.4735860685491E-03
 0.6424526973534E-03 -0.5723661676647E-03
 0.9081611818951E-03 -0.6730934972856E-03
 0.1216121160357E-02 -0.7759106924043E-03
 0.1565447748758E-02 -0.8808874497522E-03
 0.1955310401876E-02 -0.9880332678830E-03
 0.2384915313459E-02 -0.1097311899371E-02
 0.2853493189862E-02 -0.1208654349826E-02
 0.3360291119053E-02 -0.1321969829885E-02
 0.3904562832654E-02 -0.1437153864425E-02
 0.4485557317743E-02 -0.1554094444897E-02
 0.5102506272017E-02 -0.1672676984407E-02
 0.5754614652015E-02 -0.1792789305196E-02
 0.6441009367895E-02 -0.1914318993990E-02
 0.7160772215338E-02 -0.2037166370468E-02
 0.7912853609988E-02 -0.2161236600157E-02
 0.8696068835198E-02 -0.2286447761124E-02
 0.9509055786451E-02 -0.2412733441566E-02
 0.1035023096886E-01 -0.2540047108161E-02
 0.1121774672077E-01 -0.2668281466607E-02
 0.1210943584274E-01 -0.2796867839080E-02
 0.1302275946912E-01 -0.2925006822504E-02
 0.1395475505087E-01 -0.3051978527011E-02
 0.1490199548847E-01 -0.3177307729114E-02
 0.1586058079600E-01 -0.3300810315773E-02
 0.1682614260770E-01 -0.3422560262242E-02
 0.1779388142943E-01 -0.3542839117995E-02
 0.1875862218905E-01 -0.3662091908103E-02
 0.1971492406418E-01 -0.3780901866649E-02
 0.2065741944073E-01 -0.3900459142037E-02
 0.2158123690277E-01 -0.4022741157722E-02
 0.2248229609309E-01 -0.4149924569782E-02
 0.2335780305466E-01 -0.4284255346315E-02
 0.2420673425676E-01 -0.4427766100245E-02
 0.2503007562160E-01 -0.4581744112000E-02
 0.2583065459269E-01 -0.4745957012083E-02
-0.1298924096828E-04 -0.1048908431416E-03
 0.2447923060081E-04 -0.2107628444016E-03
 0.1106840121488E-03 -0.3177102967215E-03
 0.2440107863776E-03 -0.4259391957447E-03
 0.4230143837965E-03 -0.5356975473011E-03
 0.6464252544799E-03 -0.6472135674651E-03
 0.9131250586126E-03 -0.7606587313046E-03
 0.1222113054162E-02 -0.8761339786917E-03
 0.1572473435423E-02 -0.9936711828547E-03
 0.1963351426486E-02 -0.1113243588031E-02
 0.2393936243713E-02 -0.1234778749517E-02
 0.2863448373308E-02 -0.1358170816650E-02
 0.3371130586991E-02 -0.1483291377570E-02
 0.3916237349729E-02 -0.1609997740423E-02
 0.4498022734024E-02 -0.1738139438243E-02
 0.5115727380516E-02 -0.1867563674489E-02
 0.5768568758683E-02 -0.1998120996622E-02
 0.6455689723001E-02 -0.2129662895483E-02
 0.7176191591879E-02 -0.2262056590501E-02
 0.7929048104671E-02 -0.2395177474007E-02
 0.8713102215946E-02 -0.2528919156538E-02
 0.9527024608170E-02 -0.2663197851767E-02
 0.1036927072644E-01 -0.2797958894498E-02
 0.1123803927884E-01 -0.2933103160953E-02
 0.1213121832705E-01 -0.3068110092493E-02
 0.1304633446840E-01 -0.3202258191409E-02
 0.1398050173543E-01 -0.3334921441179E-02
 0.1493038157351E-01 -0.3465728834318E-02
 0.1589217571722E-01 -0.3594611592318E-02
 0.1686163253830E-01 -0.3721774130480E-02
 0.1783408687528E-01 -0.3847646693409E-02
 0.1880451827762E-01 -0.3972840607418E-02
 0.1976766193003E-01 -0.4098116153698E-02
 0.2071834448397E-01 -0.4224815546867E-02
 0.2165189136623E-01 -0.4355013227728E-02
 0.2256438005887E-01 -0.4490922316172E-02
 0.2345306530855E-01 -0.4634739079019E-02
 0.2431675826100E-01 -0.4788354106658E-02
 0.2515599506483E-01 -0.4952879486966E-02
 0.2597267041403E-01 -0.5127854970089E-02
-0.1235161521836E-04 -0.1168934889510E-03
 0.2574762048320E-04 -0.2349946236013E-03
 0.1126425413929E-03 -0.3543660502527E-03
 0.2467536296750E-03 -0.4751643946171E-03
 0.4266400687381E-03 -0.5975825032237E-03
 0.6510145632787E-03 -0.7217954807979E-03
 0.9187294644270E-03 -0.8479270672718E-03
 0.1228752025020E-02 -0.9760357469036E-03
 0.1580137473497E-02 -0.1106114474349E-02
 0.1972007965249E-02 -0.1238099299391E-02
 0.2403536424017E-02 -0.1371880996464E-02
 0.2873933617746E-02 -0.1507316657211E-02
 0.3382438532882E-02 -0.1644240379847E-02
 0.3928307063649E-02 -0.1782471661784E-02
 0.4510799315874E-02 -0.1921822210451E-02
 0.5129166137861E-02 -0.2062101853274E-02
 0.5782639154687E-02 -0.2203124889811E-02
 0.6470379261131E-02 -0.2344707938349E-02
 0.7191509920733E-02 -0.2486686548218E-02
 0.7945031443089E-02 -0.2628907975974E-02
 0.8729818402976E-02 -0.2771243196978E-02
 0.9544578980049E-02 -0.2913593039330E-02
 0.1038781304307E-01 -0.3055896782941E-02
 0.1125777188016E-01 -0.3198065481859E-02
 0.1215240564851E-01 -0.3339628273884E-02
 0.1306931370259E-01 -0.3479942824122E-02
 0.1400569423343E-01 -0.3618478017778E-02
 0.1495830482247E-01 -0.3754967703229E-02
 0.1592345604880E-01 -0.3889458244472E-02
 0.1689701883563E-01 -0.4022282741195E-02
 0.1787446546763E-01 -0.4154015851825E-02
 0.1885092838385E-01 -0.4285427363380E-02
 0.1982130918873E-01 -0.4417442520607E-02
 0.2078060749482E-01 -0.4551539443847E-02
 0.2172430899567E-01 -0.4689871355599E-02
 0.2264859832912E-01 -0.4834673611255E-02
 0.2355071949055E-01 -0.4988089163708E-02
 0.2442927838360E-01 -0.5151888311823E-02
 0.2528432484460E-01 -0.5327017847760E-02
 0.2611697620466E-01 -0.5512980424032E-02
-0.1157208427330E-04 -0.1288654743483E-03
 0.2729331627595E-04 -0.2591554058038E-03
 0.1149960716637E-03 -0.3909054192295E-03
 0.2499857443971E-03 -0.5242280602200E-03
 0.4308248401232E-03 -0.6592652179092E-03
 0.6562100612599E-03 -0.7961412020053E-03
 0.9249671164715E-03 -0.9349326141543E-03
 0.1236033696895E-02 -0.1075655013271E-02
 0.1588437861490E-02 -0.1218261569750E-02
 0.1981279878594E-02 -0.1362650335835E-02
 0.2413717162928E-02 -0.1508674787887E-02
 0.2884951383399E-02 -0.1656154788165E-02
 0.3394218379624E-02 -0.1804887095991E-02
 0.3940776259642E-02 -0.1954653822511E-02
 0.4523892180491E-02 -0.2105229500308E-02
 0.5142828517490E-02 -0.2256387423244E-02
 0.5796832736613E-02 -0.2407906656032E-02
 0.6485085901206E-02 -0.2559570113993E-02
 0.7206736263480E-02 -0.2711182995122E-02
 0.7960813955796E-02 -0.2862565868826E-02
 0.8746229106593E-02 -0.3013568624587E-02
 0.9561732058518E-02 -0.3164078302694E-02
 0.1040587250813E-01 -0.3314029696834E-02
 0.1127696041552E-01 -0.3463345429279E-02
 0.1217301471276E-01 -0.3611605246458E-02
 0.1309171460889E-01 -0.3758246496328E-02
 0.1403034976695E-01 -0.3902833144496E-02
 0.1498578111804E-01 -0.4045203562976E-02
 0.1595443465296E-01 -0.4185518010343E-02
 0.1693230886129E-01 -0.4324235485241E-02
 0.1791501553014E-01 -0.4462069984675E-02
 0.1889783705549E-01 -0.4599941695114E-02
 0.1987583093837E-01 -0.4738929556480E-02
 0.2084414851861E-01 -0.4880633692596E-02
 0.2179840176524E-01 -0.5027271926715E-02
 0.2273483721795E-01 -0.5181092194407E-02
 0.2365064107900E-01 -0.5344187074383E-02
 0.2454417654974E-01 -0.5518220311730E-02
 0.2541501239278E-01 -0.5704023732704E-02
 0.2626358234262E-01 -0.5901095881238E-02
-0.1065721369540E-04 -0.1408094075196E-03
 0.2910496045369E-04 -0.2832521928478E-03
 0.1177310514615E-03 -0.4273408179569E-03
 0.2536938873447E-03 -0.5731482670095E-03
 0.4355575436560E-03 -0.7207691992308E-03
 0.6620035708215E-03 -0.8702793400806E-03
 0.9318329751189E-03 -0.1021708893220E-02
 0.1243955891626E-02 -0.1175030250563E-02
 0.1597374826495E-02 -0.1330156134635E-02
 0.1991169332351E-02 -0.1486945933869E-02
 0.2424482173076E-02 -0.1645215388215E-02
 0.2896506639951E-02 -0.1804747002937E-02
 0.3406476163242E-02 -0.1965300378643E-02
 0.3953651932375E-02 -0.2126620688629E-02
 0.4537309237326E-02 -0.2288445959961E-02
 0.5156723345427E-02 -0.2450513801021E-02
 0.5811159278160E-02 -0.2612569035048E-02
 0.6499820409630E-02 -0.2774361983041E-02
 0.7221882421911E-02 -0.2935668692027E-02
 0.7976408500809E-02 -0.3096284299247E-02
 0.8762348215773E-02 -0.3256038873933E-02
 0.9578498662712E-02 -0.3414806880843E-02
 0.1042346466125E-01 -0.3572519701866E-02
 0.1129562079155E-01 -0.3729112324948E-02
 0.1219306126499E-01 -0.3884215385504E-02
 0.1311355203210E-01 -0.4037345743767E-02
 0.1405448127522E-01 -0.4188161844185E-02
 0.1501282013026E-01 -0.4336605383088E-02
 0.1598511607156E-01 -0.4482948365625E-02
 0.1696749950598E-01 -0.4627772094342E-02
 0.1795572297092E-01 -0.4771924319431E-02
 0.1894521509501E-01 -0.4916467660647E-02
 0.1993117836214E-01 -0.5062624535573E-02
 0.2090889536082E-01 -0.5212105482628E-02
 0.2187407307569E-01 -0.5367182176178E-02
 0.2282298077423E-01 -0.5530109959260E-02
 0.2375270733224E-01 -0.5702935598428E-02
 0.2466134742238E-01 -0.5887235658970E-02
 0.2554800117581E-01 -0.6083761533754E-02
 0.2641247784863E-01 -0.6292015047166E-02
-0.9612343423898E-05 -0.1527278230401E-03
 0.3117331641745E-04 -0.3072916889777E-03
 0.1208365087870E-03 -0.4636841197113E-03
 0.2578674858321E-03 -0.6219423950417E-03
 0.4408295819666E-03 -0.7821172316121E-03
 0.6683893084943E-03 -0.9442378373642E-03
 0.9393242751455E-03 -0.1108288835153E-02
 0.1252518658190E-02 -0.1274199380722E-02
 0.1606950839766E-02 -0.1441841257894E-02
 0.2001680796750E-02 -0.1611034655809E-02
 0.2435837555267E-02 -0.1781557225683E-02
 0.2908606838798E-02 -0.1953154043397E-02
 0.3419220495973E-02 -0.2125547769911E-02
 0.3966943741590E-02 -0.2298447119240E-02
 0.4551061136956E-02 -0.2471554303272E-02
 0.5170862242234E-02 -0.2644572097964E-02
 0.5825631364558E-02 -0.2817212056031E-02
 0.6514596326505E-02 -0.2989192948326E-02
 0.7236962855931E-02 -0.3160262750050E-02
 0.7991830374287E-02 -0.3330192227248E-02
 0.8778191704446E-02 -0.3498792614758E-02
 0.9594895181454E-02 -0.3665926638643E-02
 0.1044060590774E-01 -0.3831522867010E-02
 0.1131376886587E-01 -0.3995528885033E-02
 0.1221255986043E-01 -0.4157625901350E-02
 0.1313483825285E-01 -0.4317409475761E-02
 0.1407809753274E-01 -0.4474631219059E-02
 0.1503942557029E-01 -0.4629334186057E-02
 0.1601549697772E-01 -0.4781899223098E-02
 0.1700257791572E-01 -0.4933025722517E-02
 0.1799656236478E-01 -0.5083689321930E-02
 0.1899302104297E-01 -0.5235087427226E-02
 0.1998729059790E-01 -0.5388576909980E-02
 0.2097476556812E-01 -0.5545969317192E-02
 0.2195121974722E-01 -0.5709582554632E-02
 0.2291291120170E-01 -0.5881677280954E-02
 0.2385679911643E-01 -0.6064261514771E-02
 0.2478069175344E-01 -0.6258843409239E-02
 0.2568323262722E-01 -0.6466117144135E-02
 0.2656364434786E-01 -0.6685590225744E-02
-0.8441711341137E-05 -0.1646231841899E-03
 0.3349108097124E-04 -0.3312803204185E-03
 0.1243038707581E-03 -0.4999466838201E-03
 0.2624985107049E-03 -0.6706271363542E-03
 0.4466348491945E-03 -0.8433313322239E-03
 0.6753638619268E-03 -0.1018043859346E-02
 0.9474405179741E-03 -0.1194704601166E-02
 0.1261724258160E-02 -0.1373199531976E-02
 0.1617170582679E-02 -0.1553359149598E-02
 0.2012820988145E-02 -0.1734964029641E-02
 0.2447791716027E-02 -0.1917753471553E-02
 0.2921261808533E-02 -0.2101435113417E-02
 0.3432462442192E-02 -0.2285694943665E-02
 0.3980663870567E-02 -0.2470205732888E-02
 0.4565161113573E-02 -0.2654634593616E-02
 0.5185259450477E-02 -0.2838650329558E-02
 0.5840264205669E-02 -0.3021932172140E-02
 0.6529429765134E-02 -0.3204168322234E-02
 0.7251994470759E-02 -0.3385079642672E-02
 0.8007097087688E-02 -0.3564413399496E-02
 0.8793777402295E-02 -0.3741962707779E-02
 0.9610939343056E-02 -0.3917579030598E-02
 0.1045731329478E-01 -0.4091188265457E-02
 0.1133142023926E-01 -0.4262750290293E-02
 0.1223152368546E-01 -0.4431996012513E-02
 0.1315558285530E-01 -0.4598598285314E-02
 0.1410120308826E-01 -0.4762399929222E-02
 0.1506559523464E-01 -0.4923542718143E-02
 0.1604556636897E-01 -0.5082512802511E-02
 0.1703752188374E-01 -0.5240122989777E-02
 0.1803749758403E-01 -0.5397470834115E-02
 0.1904120205392E-01 -0.5555881351070E-02
 0.2004409576598E-01 -0.5716838077046E-02
 0.2104166743208E-01 -0.5882246208860E-02
 0.2202973251721E-01 -0.6054464882341E-02
 0.2300450873089E-01 -0.6235760518955E-02
 0.2396279922982E-01 -0.6428110917615E-02
 0.2490211287383E-01 -0.6632972427329E-02
 0.2582064609477E-01 -0.6850998672043E-02
 0.2671706135747E-01 -0.7081706066552E-02
-0.7148556333429E-05 -0.1764978877963E-03
 0.3605272661094E-04 -0.3552242671697E-03
 0.1281268101324E-03 -0.5361394152258E-03
 0.2675813676279E-03 -0.7192185678306E-03
 0.4529696778357E-03 -0.9044328205057E-03
 0.6829261801044E-03 -0.1091723852995E-02
 0.9561834843796E-03 -0.1280987633148E-02
 0.1271577182407E-02 -0.1472067090279E-02
 0.1628040955868E-02 -0.1664751204266E-02
 0.2024598865745E-02 -0.1858780632412E-02
 0.2460355351572E-02 -0.2053856148991E-02
 0.2934483728033E-02 -0.2249648016424E-02
 0.3446215483189E-02 -0.2445805874142E-02
 0.3994826985043E-02 -0.2641967110019E-02
 0.4579624940069E-02 -0.2837764484381E-02
 0.5199931787673E-02 -0.3032833700256E-02
 0.5855075588360E-02 -0.3226822598669E-02
 0.6544339365628E-02 -0.3419389730211E-02
 0.7266996574269E-02 -0.3610229690123E-02
 0.8022228332512E-02 -0.3799066933736E-02
 0.8809124972077E-02 -0.3985676911873E-02
 0.9626650212245E-02 -0.4169899956823E-02
 0.1047360453710E-01 -0.4351659008125E-02
 0.1134859032190E-01 -0.4530925427740E-02
 0.1224996467967E-01 -0.4707478426904E-02
 0.1317579292498E-01 -0.4881066200487E-02
 0.1412379856491E-01 -0.5051620241059E-02
 0.1509132144173E-01 -0.5219377812438E-02
 0.1607530618178E-01 -0.5384926307818E-02
 0.1707230068586E-01 -0.5549186941403E-02
 0.1807848288602E-01 -0.5713373235927E-02
 0.1908969522742E-01 -0.5878931197987E-02
 0.2010151246746E-01 -0.6047464460857E-02
 0.2110950146068E-01 -0.6220966362924E-02
 0.2210949721846E-01 -0.6401834479891E-02
 0.2309765220865E-01 -0.6592343424325E-02
 0.2407059200216E-01 -0.6794449960249E-02
 0.2502551598061E-01 -0.7009573155791E-02
 0.2596018057969E-01 -0.7238339260015E-02
 0.2687270827965E-01 -0.7480278085583E-02
-0.5735205131808E-05 -0.1883542654492E-03
 0.3885436576609E-04 -0.3791294793296E-03
 0.1323011077282E-03 -0.5722727932706E-03
 0.2731127913223E-03 -0.7677321765760E-03
 0.4598327750909E-03 -0.9654423212586E-03
 0.6910775428979E-03 -0.1165303514459E-02
 0.9655572198202E-03 -0.1367168581246E-02
 0.1282084135545E-02 -0.1570837587850E-02
 0.1639571051412E-02 -0.1776057853309E-02
 0.2037025585960E-02 -0.1982529908620E-02
 0.2473541383123E-02 -0.2189915917598E-02
 0.2948287044109E-02 -0.2397848904910E-02
 0.3460495419650E-02 -0.2605942548864E-02
 0.4009450123325E-02 -0.2813799468395E-02
 0.4594470808533E-02 -0.3021018857510E-02
 0.5214898519772E-02 -0.3227204207999E-02
 0.5870085745654E-02 -0.3431972889174E-02
 0.6559346162741E-02 -0.3634954667349E-02
 0.7281990747180E-02 -0.3835818608772E-02
 0.8037245857490E-02 -0.4034266877002E-02
 0.8824255799677E-02 -0.4230057470724E-02
 0.9642048100310E-02 -0.4423019401013E-02
 0.1048949795591E-01 -0.4613071958461E-02
 0.1136529431156E-01 -0.4800196709372E-02
 0.1226789356571E-01 -0.4984219291866E-02
 0.1319547314578E-01 -0.5164960791256E-02
 0.1414588084339E-01 -0.5342438311235E-02
 0.1511659132445E-01 -0.5516980859502E-02
 0.1610469171833E-01 -0.5689272574532E-02
 0.1710687566235E-01 -0.5860337831303E-02
 0.1811946365300E-01 -0.6031500280410E-02
 0.1913842847042E-01 -0.6204320895880E-02
 0.2015945066882E-01 -0.6380518000740E-02
 0.2117816110407E-01 -0.6562169209980E-02
 0.2219039511124E-01 -0.6751709599370E-02
 0.2319221877592E-01 -0.6951425894719E-02
 0.2418006222898E-01 -0.7163263250496E-02
 0.2515080705462E-01 -0.7388616398869E-02
 0.2610177472856E-01 -0.7628095487934E-02
 0.2703056391199E-01 -0.7881248943008E-02
-0.4203145607927E-05 -0.2001945848819E-03
 0.4189363497426E-04 -0.4030016924447E-03
 0.1368245325015E-03 -0.6083569003961E-03
 0.2790917499497E-03 -0.8161828900994E-03
 0.4672251615400E-03 -0.1026379780911E-02
 0.6998215279746E-03 -0.1238807779575E-02
 0.9755680155514E-03 -0.1453277263087E-02
 0.1293254016884E-02 -0.1669545630605E-02
 0.1651772123197E-02 -0.1887318462336E-02
 0.2050114456721E-02 -0.2106256038983E-02
 0.2487364893787E-02 -0.2325981914207E-02
 0.2962688392192E-02 -0.2546092092899E-02
 0.3475320278794E-02 -0.2766164752235E-02
 0.4024552593075E-02 -0.2985768417910E-02
 0.4609719220049E-02 -0.3204469550998E-02
 0.5230181247438E-02 -0.3421840347846E-02
 0.5885317243130E-02 -0.3637468621153E-02
 0.6574473476438E-02 -0.3850956174898E-02
 0.7297000742556E-02 -0.4061947190432E-02
 0.8052173382695E-02 -0.4270121902919E-02
 0.8839192929610E-02 -0.4475220846509E-02
 0.9657154529905E-02 -0.4677061221780E-02
 0.1050501248205E-01 -0.4875557604914E-02
 0.1138154724527E-01 -0.5070700050484E-02
 0.1228531996108E-01 -0.5262358302668E-02
 0.1321462598501E-01 -0.5450423430103E-02
 0.1416744333543E-01 -0.5634994615324E-02
 0.1514138720835E-01 -0.5816488408533E-02
 0.1613369214471E-01 -0.5995680828742E-02
 0.1714120084336E-01 -0.6173693995511E-02
 0.1816037713292E-01 -0.6351956001029E-02
 0.1918732130568E-01 -0.6532137354872E-02
 0.2021781247714E-01 -0.6716066733017E-02
 0.2124753333979E-01 -0.6905903600150E-02
 0.2227230308651E-01 -0.7104121124529E-02
 0.2328808352397E-01 -0.7313023194518E-02
 0.2429109435093E-01 -0.7534552863779E-02
 0.2527789208901E-01 -0.7770092370725E-02
 0.2624536656271E-01 -0.8020245888227E-02
 0.2719060570905E-01 -0.8284585791864E-02
-0.2553088606541E-05 -0.2120210532387E-03
 0.4516959715129E-04 -0.4268464484918E-03
 0.1416967398176E-03 -0.6444014643616E-03
 0.2855193636837E-03 -0.8645851338217E-03
 0.4751501195902E-03 -0.1087264530565E-02
 0.7091639852881E-03 -0.1312260884639E-02
 0.9862243980068E-03 -0.1539342719107E-02
 0.1305097912538E-02 -0.1768224949067E-02
 0.1664657572494E-02 -0.1998571380929E-02
 0.2063880911397E-02 -0.2230001992806E-02
 0.2501843089401E-02 -0.2462101811106E-02
 0.2977706545275E-02 -0.2694430122778E-02
 0.3490710254054E-02 -0.2926530143635E-02
 0.4040155905120E-02 -0.3157937053109E-02
 0.4625392916339E-02 -0.3388185470108E-02
 0.5245803839437E-02 -0.3616817247784E-02
 0.5900794918293E-02 -0.3843391564420E-02
 0.6589746862034E-02 -0.4067483051581E-02
 0.7312052452258E-02 -0.4288711569592E-02
 0.8067036588866E-02 -0.4506735650603E-02
 0.8853961084881E-02 -0.4721278148907E-02
 0.9671992294252E-02 -0.4932143692565E-02
 0.1052016776443E-01 -0.5139240734340E-02
 0.1139736416777E-01 -0.5342565699868E-02
 0.1230225261846E-01 -0.5542029712154E-02
 0.1323325201839E-01 -0.5737590500923E-02
 0.1418847640712E-01 -0.5929425369521E-02
 0.1516568714657E-01 -0.6118033804028E-02
 0.1616227114725E-01 -0.6304278522687E-02
 0.1717522372752E-01 -0.6489373844862E-02
 0.1820115332221E-01 -0.6674846788142E-02
 0.1923628580975E-01 -0.6862472523216E-02
 0.2027649304429E-01 -0.7054186703745E-02
 0.2131749941632E-01 -0.7252229458860E-02
 0.2235509410999E-01 -0.7459113905000E-02
 0.2338511956188E-01 -0.7677167016787E-02
 0.2440357227001E-01 -0.7908339309520E-02
 0.2540667701951E-01 -0.8154011624119E-02
 0.2639089371928E-01 -0.8414791493811E-02
 0.2735280986210E-01 -0.8690280293494E-02
-0.7850205271498E-06 -0.2238358179322E-03
 0.4868265687004E-04 -0.4506691045515E-03
 0.1469191798488E-03 -0.6804158734009E-03
 0.2923988255169E-03 -0.9129528430445E-03
 0.4836131342254E-03 -0.1148115281107E-02
 0.7191129942165E-03 -0.1385686331694E-02
 0.9975370924085E-03 -0.1625393138346E-02
 0.1317629054455E-02 -0.1866908278517E-02
 0.1678242893731E-02 -0.2109853773327E-02
 0.2078342436386E-02 -0.2353809306412E-02
 0.2516995206574E-02 -0.2598321539679E-02
 0.2993362303712E-02 -0.2842913431686E-02
 0.3506687579694E-02 -0.3087093864449E-02
 0.4056283636914E-02 -0.3330365499577E-02
 0.4641516736660E-02 -0.3572232073131E-02
 0.5261792287955E-02 -0.3812206095627E-02
 0.5916545739723E-02 -0.4049819053039E-02
 0.6605193979127E-02 -0.4284619176905E-02
 0.7327173792313E-02 -0.4516202507183E-02
 0.8081863026638E-02 -0.4744205980761E-02
 0.8868586608224E-02 -0.4968334378173E-02
 0.9686585439067E-02 -0.5188378748827E-02
 0.1053498420152E-01 -0.5404239702321E-02
 0.1141276022136E-01 -0.5615917553106E-02
 0.1231869958183E-01 -0.5823361706070E-02
 0.1325135015932E-01 -0.6026592852381E-02
 0.1420896768589E-01 -0.6225862071554E-02
 0.1518946530549E-01 -0.6421746812517E-02
 0.1619038739064E-01 -0.6615191028239E-02
 0.1720888579380E-01 -0.6807495582805E-02
 0.1824171549276E-01 -0.7000281061688E-02
 0.1928522708868E-01 -0.7195422921003E-02
 0.2033538089327E-01 -0.7394961258161E-02
 0.2138793490882E-01 -0.7601216739632E-02
 0.2243863689289E-01 -0.7816745329165E-02
 0.2348319726152E-01 -0.8043903718816E-02
 0.2451737828331E-01 -0.8284659526856E-02
 0.2553706658857E-01 -0.8540402799693E-02
 0.2653829235052E-01 -0.8811753160511E-02
 0.2751715006171E-01 -0.9098345526325E-02
 0.1101752639313E-05 -0.2356409711177E-03
 0.5243449053281E-04 -0.4744748537196E-03
 0.1524950235103E-03 -0.7164092182091E-03
 0.2997353395719E-03 -0.9612995236082E-03
 0.4926218506488E-03 -0.1208950196140E-02
 0.7296788381939E-03 -0.1459106967084E-02
 0.1009519006445E-02 -0.1711455938216E-02
 0.1330862803929E-02 -0.1965627438345E-02
 0.1692545650441E-02 -0.2221201697894E-02
 0.2093518535288E-02 -0.2477718164473E-02
 0.2532842464043E-02 -0.2734685375865E-02
 0.3009678435215E-02 -0.2991590443662E-02
 0.3523276462531E-02 -0.3247908639825E-02
 0.4072961360077E-02 -0.3503111028820E-02
 0.4658117545850E-02 -0.3756671503867E-02
 0.5278174642314E-02 -0.4008074294830E-02
 0.5932598752144E-02 -0.4256824171793E-02
 0.6620844554358E-02 -0.4502443737487E-02
 0.7342394690544E-02 -0.4744505668024E-02
 0.8096682137133E-02 -0.4982625317712E-02
 0.8883097524671E-02 -0.5216488847363E-02
 0.9700959376848E-02 -0.5445872508081E-02
 0.1054948311748E-01 -0.5670667070061E-02
 0.1142775089381E-01 -0.5890873925884E-02
 0.1233466851553E-01 -0.6106477331516E-02
 0.1326891807704E-01 -0.6317556897316E-02
 0.1422890257330E-01 -0.6524432780863E-02
 0.1521269257303E-01 -0.6727755083031E-02
 0.1621799521544E-01 -0.6928543261805E-02
 0.1724212326991E-01 -0.7128178958780E-02
 0.1828198099582E-01 -0.7328371095028E-02
 0.1933404406056E-01 -0.7531091458265E-02
 0.2039435860220E-01 -0.7738482771151E-02
 0.2145871021845E-01 -0.7952947000809E-02
 0.2252279614156E-01 -0.8177086724711E-02
 0.2358218426534E-01 -0.8413295583955E-02
 0.2463239297147E-01 -0.8663568067475E-02
 0.2566896430483E-01 -0.8929313721717E-02
 0.2668749725481E-01 -0.9211172505142E-02
 0.2768359779967E-01 -0.9508816839407E-02
 0.3108568245861E-05 -0.2474385532204E-03
 0.5642798709642E-04 -0.4982687393216E-03
 0.1584290980445E-03 -0.7523903182442E-03
 0.3075360643496E-03 -0.1009638285344E-02
 0.5021860300427E-03 -0.1269786923573E-02
 0.7408739701630E-03 -0.1532545001234E-02
 0.1022185197954E-02 -0.1797557763814E-02
 0.1344816613056E-02 -0.2064413304499E-02
 0.1707585423773E-02 -0.2332650048428E-02
 0.2109430660720E-02 -0.2601767307425E-02
 0.2549407977126E-02 -0.2871235811956E-02
 0.3026679573761E-02 -0.3140507404814E-02
 0.3540502968869E-02 -0.3409024576885E-02
 0.4090216520035E-02 -0.3676227820035E-02
 0.4675224112094E-02 -0.3941562318472E-02
 0.5294980890855E-02 -0.4204485159233E-02
 0.5948984968997E-02 -0.4464475423211E-02
 0.6636730291951E-02 -0.4721030872543E-02
 0.7357747023122E-02 -0.4973701252975E-02
 0.8111525223365E-02 -0.5222080278590E-02
 0.8897523557278E-02 -0.5465834821188E-02
 0.9715140956703E-02 -0.5704724933013E-02
 0.1056368689561E-01 -0.5938629308008E-02
 0.1144235222393E-01 -0.6167547315109E-02
 0.1235016698847E-01 -0.6391494331901E-02
 0.1328595256270E-01 -0.6610604535271E-02
 0.1424826469161E-01 -0.6825262136925E-02
 0.1523533707749E-01 -0.7036184260032E-02
 0.1624504521075E-01 -0.7244459876820E-02
 0.1727486772698E-01 -0.7451545507614E-02
 0.1832186183003E-01 -0.7659233249853E-02
 0.1938262993034E-01 -0.7869587599510E-02
 0.2045330310607E-01 -0.8084852672362E-02
 0.2152969062189E-01 -0.8307513237217E-02
 0.2260743230525E-01 -0.8540222977985E-02
 0.2368194495044E-01 -0.8785420250513E-02
 0.2474849448397E-01 -0.9045136366121E-02
 0.2580227169926E-01 -0.9320810506016E-02
 0.2683844120620E-01 -0.9613110834251E-02
 0.2785212185273E-01 -0.9921750680426E-02
 0.5237376387694E-05 -0.2592305579922E-03
 0.6066719975032E-04 -0.5220556723406E-03
 0.1647278349579E-03 -0.7883677539076E-03
 0.3158100669302E-03 -0.1057981885704E-02
 0.5123175133124E-03 -0.1330642643314E-02
 0.7527129827868E-03 -0.1606022051431E-02
 0.1035552844755E-02 -0.1883724517440E-02
 0.1359509986659E-02 -0.2163295819153E-02
 0.1723383760666E-02 -0.2444232539350E-02
 0.2126102145728E-02 -0.2725993989285E-02
 0.2566716672227E-02 -0.3008013485440E-02
 0.3044392119440E-02 -0.3289708282579E-02
 0.3558394913628E-02 -0.3570489034637E-02
 0.4108078319506E-02 -0.3849766801698E-02
 0.4692866990592E-02 -0.4126959300671E-02
 0.5312242851246E-02 -0.4401497704911E-02
 0.5965737276507E-02 -0.4672836500303E-02
 0.6652884799387E-02 -0.4940449433261E-02
 0.7373264570529E-02 -0.5203863752415E-02
 0.8126425445979E-02 -0.5462651430278E-02
 0.8911896172750E-02 -0.5716459287712E-02
 0.9729158570158E-02 -0.5965029631202E-02
 0.1057761915415E-01 -0.6208226638420E-02
 0.1145658105580E-01 -0.6446044300016E-02
 0.1236520281253E-01 -0.6678525122011E-02
 0.1330244995387E-01 -0.6905853214875E-02
 0.1426703639014E-01 -0.7128471517651E-02
 0.1525736476323E-01 -0.7347158238482E-02
 0.1627148483565E-01 -0.7563065604251E-02
 0.1730704670960E-01 -0.7777718949205E-02
 0.1836126522744E-01 -0.7992988393215E-02
 0.1943087266581E-01 -0.8211027744597E-02
 0.2051208599012E-01 -0.8434181735672E-02
 0.2160073631942E-01 -0.8665020035921E-02
 0.2269240135078E-01 -0.8906252540726E-02
 0.2378233996349E-01 -0.9160370582253E-02
 0.2486555793708E-01 -0.9429452495191E-02
 0.2593688772266E-01 -0.9714977204365E-02
 0.2699105446763E-01 -0.1001764869215E-01
 0.2802268802955E-01 -0.1033722411843E-01
 0.7490715278765E-05 -0.2710189396845E-03
 0.6515730830822E-04 -0.5458404544535E-03
 0.1713992309569E-03 -0.8243499096827E-03
 0.3245682900840E-03 -0.1106342792081E-02
 0.5230301961400E-03 -0.1391534143693E-02
 0.7652125879358E-03 -0.1679559225233E-02
 0.1049641222088E-02 -0.1969981441892E-02
 0.1374964450955E-02 -0.2262304068104E-02
 0.1739964128735E-02 -0.2555981773357E-02
 0.2143558142572E-02 -0.2850434033537E-02
 0.2584795209953E-02 -0.3145057222652E-02
 0.3062844148530E-02 -0.3439234797891E-02
 0.3576981761605E-02 -0.3732346646322E-02
 0.4126577616220E-02 -0.4023775666534E-02
 0.4711078423769E-02 -0.4312913472510E-02
 0.5329994079854E-02 -0.4599166660640E-02
 0.5982890359587E-02 -0.4881966301638E-02
 0.6669343538043E-02 -0.5160763008513E-02
 0.7388983002023E-02 -0.5435061989960E-02
 0.8141417851537E-02 -0.5704413360065E-02
 0.8926248664236E-02 -0.5968443066623E-02
 0.9743042299425E-02 -0.6226874013400E-02
 0.1059130497053E-01 -0.6479553257659E-02
 0.1147045534775E-01 -0.6726465843555E-02
 0.1237978444229E-01 -0.6967677183687E-02
 0.1331840662620E-01 -0.7203416437670E-02
 0.1428519932360E-01 -0.7434179661657E-02
 0.1527874004118E-01 -0.7660799908287E-02
 0.1629725911582E-01 -0.7884486113026E-02
 0.1733858443857E-01 -0.8106826146147E-02
 0.1840009430949E-01 -0.8329762920398E-02
 0.1947865554397E-01 -0.8555536275120E-02
 0.2057057386403E-01 -0.8786591105645E-02
 0.2167170259040E-01 -0.9025584549118E-02
 0.2277755469088E-01 -0.9275288335529E-02
 0.2388322597109E-01 -0.9538255512873E-02
 0.2498345509319E-01 -0.9816621962811E-02
 0.2607270849009E-01 -0.1011191656973E-01
 0.2714526473009E-01 -0.1042488662178E-01
 0.2819525943614E-01 -0.1075533566313E-01
 0.9871691881393E-05 -0.2828056203392E-03
 0.6990459010684E-04 -0.5696277977777E-03
 0.1784528176941E-03 -0.8603450078571E-03
 0.3338235254276E-03 -0.1154733225998E-02
 0.5343400049665E-03 -0.1452477868304E-02
 0.7783915906759E-03 -0.1753177159646E-02
 0.1064471667787E-02 -0.2056353141133E-02
 0.1391203503444E-02 -0.2361466273208E-02
 0.1757351846537E-02 -0.2667929197744E-02
 0.2161825531835E-02 -0.2975121747600E-02
 0.2603671874240E-02 -0.3282403907540E-02
 0.3082065286035E-02 -0.3589126245894E-02
 0.3596294488366E-02 -0.3894639090888E-02
 0.4145746778159E-02 -0.4198298593427E-02
 0.4729892197623E-02 -0.4499471767103E-02
 0.5348269736645E-02 -0.4797542092602E-02
 0.6000480583454E-02 -0.5091918509912E-02
 0.6686143730501E-02 -0.5382029460205E-02
 0.7404939818543E-02 -0.5667358618766E-02
 0.8156539361717E-02 -0.5947434138583E-02
 0.8940616198055E-02 -0.6221860246208E-02
 0.9756824032833E-02 -0.6490338713888E-02
 0.1060477107565E-01 -0.6752696751150E-02
 0.1148399445354E-01 -0.7008906714757E-02
 0.1239392134696E-01 -0.7259052509225E-02
 0.1333381945413E-01 -0.7503403235746E-02
 0.1430273499093E-01 -0.7742502191014E-02
 0.1529942638396E-01 -0.7977230728095E-02
 0.1632231125926E-01 -0.8208847632892E-02
 0.1736940239700E-01 -0.8438996763074E-02
 0.1843824857929E-01 -0.8669688426719E-02
 0.1952585747787E-01 -0.8903245205390E-02
 0.2062862845498E-01 -0.9142211891321E-02
 0.2174243960489E-01 -0.9389335999963E-02
 0.2286273870750E-01 -0.9647457156242E-02
 0.2398445494288E-01 -0.9919199338121E-02
 0.2510205350465E-01 -0.1020676690307E-01
 0.2620962641591E-01 -0.1051174915760E-01
 0.2730099637142E-01 -0.1083494420643E-01
 0.2836979598945E-01 -0.1117620429630E-01
 0.1238396802569E-04 -0.2945925003207E-03
 0.7491640158939E-04 -0.5934223543980E-03
 0.1858996458425E-03 -0.8963611618490E-03
 0.3435904026599E-03 -0.1203165240266E-02
 0.5462648892958E-03 -0.1513490012537E-02
 0.7922708790853E-03 -0.1826896129660E-02
 0.1080067562818E-02 -0.2142863692613E-02
 0.1408252578331E-02 -0.2460809901046E-02
 0.1775574030348E-02 -0.2780105203935E-02
 0.2180932849853E-02 -0.3100090009955E-02
 0.2623376482302E-02 -0.3420088555212E-02
 0.3102086601978E-02 -0.3739419556413E-02
 0.3616365468046E-02 -0.4057405142017E-02
 0.4165619568903E-02 -0.4373376287354E-02
 0.4749343531298E-02 -0.4686677062266E-02
 0.5367106486304E-02 -0.4996669434845E-02
 0.6018545914387E-02 -0.5302741622772E-02
 0.6703324309968E-02 -0.5604300958531E-02
 0.7421174340816E-02 -0.5900810166089E-02
 0.8171828811159E-02 -0.6191775379650E-02
 0.8955035913120E-02 -0.6476778265900E-02
 0.9770537637901E-02 -0.6755497704842E-02
 0.1061804611204E-01 -0.7027738250594E-02
 0.1149721947480E-01 -0.7293455701664E-02
 0.1240762446261E-01 -0.7552747884342E-02
 0.1334868636237E-01 -0.7805918539657E-02
 0.1431962537690E-01 -0.8053552078155E-02
 0.1531938703697E-01 -0.8296571302159E-02
 0.1634658340244E-01 -0.8536277646345E-02
 0.1739942006241E-01 -0.8774364070334E-02
 0.1847562457882E-01 -0.9012902609724E-02
 0.1957235353302E-01 -0.9254295161043E-02
 0.2068610692551E-01 -0.9501186194373E-02
 0.2181279251039E-01 -0.9756416735149E-02
 0.2294779461802E-01 -0.1002290072776E-01
 0.2408587386229E-01 -0.1030334277664E-01
 0.2522121618383E-01 -0.1060002714212E-01
 0.2634752998563E-01 -0.1091461441298E-01
 0.2745817047480E-01 -0.1124796120966E-01
 0.2854625481404E-01 -0.1159997071000E-01
 0.1503175152466E-04 -0.3063814698746E-03
 0.8020116860064E-04 -0.6172287456771E-03
 0.1937522791998E-03 -0.9324064262091E-03
 0.3538853873067E-03 -0.1251650787706E-02
 0.5588248184823E-03 -0.1574586604241E-02
 0.8068734128760E-03 -0.1900736130746E-02
 0.1096454304283E-02 -0.2229536720242E-02
 0.1426138998200E-02 -0.2560361715802E-02
 0.1794659521676E-02 -0.2892539151691E-02
 0.2200910192273E-02 -0.3225370259693E-02
 0.2643940267036E-02 -0.3558144263279E-02
 0.3122940477319E-02 -0.3890149205418E-02
 0.3637228328654E-02 -0.4220680539348E-02
 0.4186230998976E-02 -0.4549045810735E-02
 0.4769468931713E-02 -0.4874567972700E-02
 0.5386542363996E-02 -0.5196589243176E-02
 0.6037125805237E-02 -0.5514478669460E-02
 0.6720925835095E-02 -0.5827623662788E-02
 0.7437727664130E-02 -0.6135466680291E-02
 0.8187326953857E-02 -0.6437491856494E-02
 0.8969546991342E-02 -0.6733257506138E-02
 0.9784219108308E-02 -0.7022417866090E-02
 0.1063116086900E-01 -0.7304751992107E-02
 0.1151015359354E-01 -0.7580195168798E-02
 0.1242090662680E-01 -0.7848854458229E-02
 0.1336300686026E-01 -0.8111062776107E-02
 0.1433585357391E-01 -0.8367439286964E-02
 0.1533858570211E-01 -0.8618941079491E-02
 0.1637001731479E-01 -0.8866904656828E-02
 0.1742855557471E-01 -0.9113064785655E-02
 0.1851211645013E-01 -0.9359549179895E-02
 0.1961801530714E-01 -0.9608835344890E-02
 0.2074286200688E-01 -0.9863667108765E-02
 0.2188260128184E-01 -0.1012698223405E-01
 0.2303255805090E-01 -0.1040177570296E-01
 0.2418732409283E-01 -0.1069084294034E-01
 0.2534080087501E-01 -0.1099656013858E-01
 0.2648630307794E-01 -0.1132067059140E-01
 0.2761670434858E-01 -0.1166409750386E-01
 0.2872459008796E-01 -0.1202679728043E-01
 0.1781979257908E-04 -0.3181744234146E-03
 0.8576838685217E-04 -0.6410515981856E-03
 0.2020248021175E-03 -0.9684888582472E-03
 0.3647267925672E-03 -0.1300201807444E-02
 0.5720417911797E-03 -0.1635783608468E-02
 0.8222242217583E-03 -0.1974716992062E-02
 0.1113659284718E-02 -0.2316395504604E-02
 0.1444891928855E-02 -0.2660147875737E-02
 0.1814638815629E-02 -0.3005259443383E-02
 0.2221789117157E-02 -0.3350992542995E-02
 0.2665395758583E-02 -0.3696602227636E-02
 0.3144660469354E-02 -0.4041347199338E-02
 0.3658917807651E-02 -0.4384497941817E-02
 0.4207617178479E-02 -0.4725340506882E-02
 0.4790306050572E-02 -0.5063178744740E-02
 0.5406616644643E-02 -0.5397337062248E-02
 0.6056261085631E-02 -0.5727167051077E-02
 0.6738990410800E-02 -0.6052037535615E-02
 0.7454642620636E-02 -0.6371371520162E-02
 0.8203076478999E-02 -0.6684631267925E-02
 0.8984190740026E-02 -0.6991351034377E-02
 0.9797906726206E-02 -0.7291158715729E-02
 0.1064414853754E-01 -0.7583805038595E-02
 0.1152282243005E-01 -0.7869200781373E-02
 0.1243378304528E-01 -0.8147457482817E-02
 0.1337678261620E-01 -0.8418931638602E-02
 0.1435140445235E-01 -0.8684270593604E-02
 0.1535698727841E-01 -0.8944458244697E-02
 0.1639255516722E-01 -0.9200858168066E-02
 0.1745672647306E-01 -0.9455239155933E-02
 0.1854761656759E-01 -0.9709778051002E-02
 0.1966271138088E-01 -0.9967023831807E-02
 0.2079874220261E-01 -0.1022981910583E-01
 0.2195170064349E-01 -0.1050120156195E-01
 0.2311685870062E-01 -0.1078425415948E-01
 0.2428864083934E-01 -0.1108187385456E-01
 0.2546065944781E-01 -0.1139654151771E-01
 0.2662582444588E-01 -0.1173009531401E-01
 0.2777651125200E-01 -0.1208353367069E-01
 0.2890475314252E-01 -0.1245686874856E-01
 0.2075338558497E-04 -0.3299732764586E-03
 0.9162863275185E-04 -0.6648955852856E-03
 0.2107328403592E-03 -0.1004616588596E-02
 0.3761348049702E-03 -0.1348830323337E-02
 0.5859398563718E-03 -0.1697097046903E-02
 0.8383504113403E-03 -0.2048858505834E-02
 0.1131711874148E-02 -0.2403463109551E-02
 0.1464542332378E-02 -0.2760194045128E-02
 0.1835543983832E-02 -0.3118293611988E-02
 0.2243602540095E-02 -0.3476985571201E-02
 0.2687776656406E-02 -0.3835491767702E-02
 0.3167281166955E-02 -0.4193043066805E-02
 0.3681469597218E-02 -0.4548886886580E-02
 0.4229815159569E-02 -0.4902289927226E-02
 0.4811893531515E-02 -0.5252539152828E-02
 0.5427369702664E-02 -0.5598943291716E-02
 0.6075993843028E-02 -0.5940838376354E-02
 0.6757561600431E-02 -0.6277576147929E-02
 0.7471963733734E-02 -0.6608561128496E-02
 0.8219122020023E-02 -0.6933233980495E-02
 0.8999010669193E-02 -0.7251104316763E-02
 0.9811641221997E-02 -0.7561772094010E-02
 0.1065704496627E-01 -0.7864956941154E-02
 0.1153525440661E-01 -0.8160541152930E-02
 0.1244627177068E-01 -0.8448635959474E-02
 0.1339001805101E-01 -0.8729615750450E-02
 0.1436626535762E-01 -0.9004149287467E-02
 0.1537455863652E-01 -0.9273239481886E-02
 0.1641414033979E-01 -0.9538268537106E-02
 0.1748385047363E-01 -0.9801030923188E-02
 0.1858201620754E-01 -0.1006374543595E-01
 0.1970630779618E-01 -0.1032902780031E-01
 0.2085359200466E-01 -0.1059981839383E-01
 0.2201991998473E-01 -0.1087925783693E-01
 0.2320051995846E-01 -0.1117052414531E-01
 0.2438965257259E-01 -0.1147662705424E-01
 0.2558063725056E-01 -0.1180016570112E-01
 0.2676596716626E-01 -0.1214308623219E-01
 0.2793750010720E-01 -0.1250647172091E-01
 0.2908669256991E-01 -0.1289039302795E-01
 0.2383837665154E-04 -0.3417799855636E-03
 0.9779358530475E-04 -0.6887654750880E-03
 0.2198935963970E-03 -0.1040797901695E-02
 0.3881315248622E-03 -0.1397548555468E-02
 0.6005451466903E-03 -0.1758543132446E-02
 0.8552811766940E-03 -0.2123180572383E-02
 0.1150643404349E-02 -0.2490762523267E-02
 0.1485122917216E-02 -0.2860525518069E-02
 0.1857408590223E-02 -0.3231668417446E-02
 0.2266384619312E-02 -0.3603376783336E-02
 0.2711117689675E-02 -0.3974840352183E-02
 0.3190838033317E-02 -0.4345263847204E-02
 0.3704920176785E-02 -0.4713873741164E-02
 0.4252862766208E-02 -0.5079919748125E-02
 0.4834270844597E-02 -0.5442674381577E-02
 0.5448842859107E-02 -0.5801433033319E-02
 0.6096367291175E-02 -0.6155518272561E-02
 0.6776684325411E-02 -0.6504266451735E-02
 0.7489737160187E-02 -0.6847064764505E-02
 0.8235510152027E-02 -0.7183332718320E-02
 0.9014052558478E-02 -0.7512554864036E-02
 0.9825465925781E-02 -0.7834301765681E-02
 0.1066988891238E-01 -0.8148259300973E-02
 0.1154748111089E-01 -0.8454277373907E-02
 0.1245839418739E-01 -0.8752462146308E-02
 0.1340272094587E-01 -0.9043200168802E-02
 0.1438042683101E-01 -0.9327174696318E-02
 0.1539126942682E-01 -0.9605399551266E-02
 0.1643471827138E-01 -0.9879266636646E-02
 0.1750984629409E-01 -0.1015058710697E-01
 0.1861520626327E-01 -0.1042161377796E-01
 0.1974866857052E-01 -0.1069502362920E-01
 0.2090725212682E-01 -0.1097385317946E-01
 0.2208708326778E-01 -0.1126134863712E-01
 0.2328335850714E-01 -0.1156079019831E-01
 0.2449018039364E-01 -0.1187531217906E-01
 0.2570057238997E-01 -0.1220764655116E-01
 0.2690659801556E-01 -0.1255986171560E-01
 0.2809957514982E-01 -0.1293313584269E-01
 0.2927035428843E-01 -0.1332760204432E-01
 0.2708117731129E-04 -0.3535965718187E-03
 0.1042760602001E-03 -0.7126661862609E-03
 0.2295259007694E-03 -0.1077041328792E-02
 0.4007410235438E-03 -0.1446369048404E-02
 0.6158859256689E-03 -0.1820138423532E-02
 0.8730478248421E-03 -0.2197703366095E-02
 0.1170487156135E-02 -0.2578316819666E-02
 0.1506668085815E-02 -0.2961167360646E-02
 0.1880267600113E-02 -0.3345409958716E-02
 0.2290170631240E-02 -0.3730192421620E-02
 0.2735454466620E-02 -0.4114673635494E-02
 0.3215367237104E-02 -0.4498034088081E-02
 0.3729306633909E-02 -0.4879481663150E-02
 0.4276798412365E-02 -0.5258251694104E-02
 0.4857478109280E-02 -0.5633604912994E-02
 0.5471078217153E-02 -0.6004825941246E-02
 0.6117425626662E-02 -0.6371226196847E-02
 0.6796404752603E-02 -0.6732128549106E-02
 0.7508010619658E-02 -0.7086904226341E-02
 0.8252289376573E-02 -0.7434952234876E-02
 0.9029364511984E-02 -0.7775731848889E-02
 0.9839426908279E-02 -0.8108782980799E-02
 0.1068272228494E-01 -0.8433755274375E-02
 0.1155953765669E-01 -0.8750462466098E-02
 0.1247017550080E-01 -0.9059000973136E-02
 0.1341490306413E-01 -0.9359763778590E-02
 0.1439388335679E-01 -0.9653441586221E-02
 0.1540709292735E-01 -0.9941050730783E-02
 0.1645423736280E-01 -0.1022398338124E-01
 0.1753463454225E-01 -0.1050405766089E-01
 0.1864707802872E-01 -0.1078355157917E-01
 0.1978965627482E-01 -0.1106519692717E-01
 0.2095955978562E-01 -0.1135212390660E-01
 0.2215300895629E-01 -0.1164768643148E-01
 0.2336518390490E-01 -0.1195527393069E-01
 0.2459003735982E-01 -0.1227815766465E-01
 0.2582029495739E-01 -0.1261921813197E-01
 0.2704757679461E-01 -0.1298066167021E-01
 0.2826263554604E-01 -0.1336377328949E-01
 0.2945568160225E-01 -0.1376875272368E-01
 0.3048878506481E-04 -0.3654251485181E-03
 0.1110900575231E-03 -0.7366028533201E-03
 0.2396502815281E-03 -0.1113355756293E-02
 0.4139894192231E-03 -0.1495304820214E-02
 0.6319926508144E-03 -0.1881900003112E-02
 0.8916838075102E-03 -0.2272447527861E-02
 0.1191278350490E-02 -0.2666149346101E-02
 0.1529213880277E-02 -0.3062144577957E-02
 0.1904157282940E-02 -0.3459543808795E-02
 0.2314996837126E-02 -0.3857457628397E-02
 0.2760823313693E-02 -0.4255015514880E-02
 0.3240905473141E-02 -0.4651375863512E-02
 0.3754666474860E-02 -0.5045730581886E-02
 0.4301660910145E-02 -0.5437303484672E-02
 0.4881555907320E-02 -0.5825346438892E-02
 0.5494118487165E-02 -0.6209136098893E-02
 0.6139213874308E-02 -0.6587975274277E-02
 0.6816770169563E-02 -0.6961175486856E-02
 0.7526833311114E-02 -0.7328093596582E-02
 0.8269510092543E-02 -0.7688109002928E-02
 0.9044996998882E-02 -0.8040655734254E-02
 0.9853573108175E-02 -0.8385242036688E-02
 0.1069559037682E-01 -0.8721479066673E-02
 0.1157146303775E-01 -0.9049140811395E-02
 0.1248164522713E-01 -0.9368309414847E-02
 0.1342658078478E-01 -0.9679378629053E-02
 0.1440663413526E-01 -0.9983039490542E-02
 0.1542200693534E-01 -0.1028030217867E-01
 0.1647264994225E-01 -0.1057254917512E-01
 0.1755813868411E-01 -0.1086159506378E-01
 0.1867752407240E-01 -0.1114973319147E-01
 0.1982913270190E-01 -0.1143974256657E-01
 0.2101034905798E-01 -0.1173484355129E-01
 0.2221750999337E-01 -0.1203849912245E-01
 0.2344579818380E-01 -0.1235421477572E-01
 0.2468902779308E-01 -0.1268541163503E-01
 0.2593962622060E-01 -0.1303513569823E-01
 0.2718875562407E-01 -0.1340574860238E-01
 0.2842657500540E-01 -0.1379865552952E-01
 0.2964261529590E-01 -0.1421412825718E-01
 0.3406881155581E-04 -0.3772679536368E-03
 0.1182508247429E-03 -0.7605809027277E-03
 0.2502890538876E-03 -0.1149750551369E-02
 0.4279049737214E-03 -0.1544369534294E-02
 0.6488980536488E-03 -0.1943845683801E-02
 0.9112247642252E-03 -0.2347434384242E-02
 0.1213054142589E-02 -0.2754283935863E-02
 0.1552797924325E-02 -0.3163482302410E-02
 0.1929115106542E-02 -0.3574095167051E-02
 0.2340900338365E-02 -0.3985196556901E-02
 0.2787261102260E-02 -0.4395888198915E-02
 0.3267489770430E-02 -0.4805308802495E-02
 0.3781037422738E-02 -0.5212637189791E-02
 0.4327489265562E-02 -0.5617088790774E-02
 0.4906545083089E-02 -0.6017909782956E-02
 0.5518006798468E-02 -0.6414371904760E-02
 0.6161777718129E-02 -0.6805772143483E-02
 0.6837828843871E-02 -0.7191413055797E-02
 0.7546255811641E-02 -0.7570638987380E-02
 0.8287224547814E-02 -0.7942810896887E-02
 0.9061002873708E-02 -0.8307337884135E-02
 0.9867956439002E-02 -0.8663695809664E-02
 0.1070854207773E-01 -0.9011455380031E-02
 0.1158330046646E-01 -0.9350347516067E-02
 0.1249283767552E-01 -0.9680435779803E-02
 0.1343777573960E-01 -0.1000210916421E-01
 0.1441868387580E-01 -0.1031605191349E-01
 0.1543599469905E-01 -0.1062325915604E-01
 0.1648991329379E-01 -0.1092509321458E-01
 0.1758028609648E-01 -0.1122335377316E-01
 0.1870643921107E-01 -0.1152033849350E-01
 0.1986695963667E-01 -0.1181886464381E-01
 0.2105945132489E-01 -0.1212223789721E-01
 0.2228039383086E-01 -0.1243403062782E-01
 0.2352499545186E-01 -0.1275787082713E-01
 0.2478694654551E-01 -0.1309734292756E-01
 0.2605837774375E-01 -0.1345567684106E-01
 0.2732997816577E-01 -0.1383540885561E-01
 0.2859128134089E-01 -0.1423807958108E-01
 0.2983109371346E-01 -0.1466403956539E-01
 0.3782951931226E-04 -0.3891273877323E-03
 0.1257749366360E-03 -0.7846061403112E-03
 0.2614664317426E-03 -0.1186235704355E-02
 0.4425182105692E-03 -0.1593577691211E-02
 0.6666372354757E-03 -0.2005994232460E-02
 0.9317085722007E-03 -0.2422686181047E-02
 0.1235853612897E-02 -0.2842745126119E-02
 0.1577459353868E-02 -0.3265205975826E-02
 0.1955179613838E-02 -0.3689088992514E-02
 0.2367918910406E-02 -0.4113432450034E-02
 0.2814805051917E-02 -0.4537312231525E-02
 0.3295157275983E-02 -0.4959850060914E-02
 0.3808457191068E-02 -0.5380214865470E-02
 0.4354322449448E-02 -0.5797617111019E-02
 0.4932486518349E-02 -0.6211300729681E-02
 0.5542786484506E-02 -0.6620535850891E-02
 0.6185163304195E-02 -0.7024616678576E-02
 0.6859629852586E-02 -0.7422839447598E-02
 0.7566329943531E-02 -0.7814538121681E-02
 0.8305486757527E-02 -0.8199056686486E-02
 0.9077437362086E-02 -0.8575779957380E-02
 0.9882631861274E-02 -0.8944151037388E-02
 0.1072163005397E-01 -0.9303698575572E-02
 0.1159509768356E-01 -0.9654107448996E-02
 0.1250379240859E-01 -0.9995418628637E-02
 0.1344851544091E-01 -0.1032801103823E-01
 0.1443004359750E-01 -0.1065255507342E-01
 0.1544904587879E-01 -0.1097002174815E-01
 0.1650599073938E-01 -0.1128174225649E-01
 0.1760100919545E-01 -0.1158948912609E-01
 0.1873372157269E-01 -0.1189555201482E-01
 0.1990299971207E-01 -0.1220277590654E-01
 0.2110669577147E-01 -0.1251454531391E-01
 0.2234146245736E-01 -0.1283454100930E-01
 0.2360256141342E-01 -0.1316651926417E-01
 0.2488357809679E-01 -0.1351424172620E-01
 0.2617635026867E-01 -0.1388114224587E-01
 0.2747107856487E-01 -0.1426995345096E-01
 0.2875663573518E-01 -0.1468236894174E-01
 0.3002105254529E-01 -0.1511882634557E-01
 0.4177986862949E-04 -0.4010060591134E-03
 0.1336803963114E-03 -0.8086848573346E-03
 0.2732086678846E-03 -0.1222822003744E-02
 0.4578620636865E-03 -0.1642944867586E-02
 0.6852477901831E-03 -0.2068365654858E-02
 0.9531754165998E-03 -0.2498226388057E-02
 0.1259717771727E-02 -0.2931558456951E-02
 0.1603238755992E-02 -0.3367341623194E-02
 0.1982390305654E-02 -0.3804550241722E-02
 0.2396090843079E-02 -0.4242187840186E-02
 0.2843492542205E-02 -0.4679306657690E-02
 0.3323945049732E-02 -0.5115014459869E-02
 0.3836963270950E-02 -0.5548473791466E-02
 0.4382199183555E-02 -0.5978893873711E-02
 0.4959420922680E-02 -0.6405520112502E-02
 0.5568500882762E-02 -0.6827624595456E-02
 0.6209417056086E-02 -0.7244502041120E-02
 0.6882222920992E-02 -0.7655445277997E-02
 0.7587108646449E-02 -0.8059780317003E-02
 0.8324352422671E-02 -0.8456835968564E-02
 0.9094358041977E-02 -0.8845973773924E-02
 0.9897657446096E-02 -0.9226604106316E-02
 0.1073491091738E-01 -0.9598212370983E-02
 0.1160690725802E-01 -0.9960434843283E-02
 0.1251455469954E-01 -0.1031328628202E-01
 0.1345883391924E-01 -0.1065713054398E-01
 0.1444073146231E-01 -0.1099261728431E-01
 0.1546115757341E-01 -0.1132068425286E-01
 0.1652085282882E-01 -0.1164262009235E-01
 0.1762024672221E-01 -0.1196015699901E-01
 0.1875927386659E-01 -0.1227556289277E-01
 0.1993711751306E-01 -0.1259169811103E-01
 0.2115191015876E-01 -0.1291201758420E-01
 0.2240051269893E-01 -0.1324030778136E-01
 0.2367827314726E-01 -0.1358045808532E-01
 0.2497869589857E-01 -0.1393642161410E-01
 0.2629333286497E-01 -0.1431185795788E-01
 0.2761188073365E-01 -0.1470972051287E-01
 0.2892251246302E-01 -0.1513187618471E-01
 0.3021242520457E-01 -0.1557885987316E-01
 0.4592957564195E-04 -0.4129068361410E-03
 0.1419867578443E-03 -0.8328239494795E-03
 0.2855442206528E-03 -0.1259521227076E-02
 0.4739720490223E-03 -0.1692487968019E-02
 0.7047699390665E-03 -0.2130981482377E-02
 0.9756678577303E-03 -0.2574079986037E-02
 0.1284689545316E-02 -0.3020750725447E-02
 0.1630178076450E-02 -0.3469916049019E-02
 0.2010787482588E-02 -0.3920503993709E-02
 0.2425454733871E-02 -0.4371484599289E-02
 0.2873360873648E-02 -0.4821889001561E-02
 0.3353889806586E-02 -0.5270814397575E-02
 0.3866592663768E-02 -0.5717420805146E-02
 0.4411157670676E-02 -0.6160920229256E-02
 0.4987388566184E-02 -0.6600563546494E-02
 0.5595193074959E-02 -0.7035628630395E-02
 0.6234585428437E-02 -0.7465414273409E-02
 0.6905658197202E-02 -0.7889213092885E-02
 0.7608645783354E-02 -0.8306345888511E-02
 0.8343878780662E-02 -0.8716128449030E-02
 0.9111824755722E-02 -0.9117900456155E-02
 0.9913094369317E-02 -0.9511040032857E-02
 0.1074844532620E-01 -0.9894988643718E-02
 0.1161878682248E-01 -0.1026933190859E-01
 0.1252517593196E-01 -0.1063405523773E-01
 0.1346877231569E-01 -0.1098950284399E-01
 0.1445077358029E-01 -0.1133629702944E-01
 0.1547233534159E-01 -0.1167533315196E-01
 0.1653447855044E-01 -0.1200784550254E-01
 0.1763794507280E-01 -0.1233551185966E-01
 0.1878300470793E-01 -0.1266056315631E-01
 0.1996918071865E-01 -0.1298586066922E-01
 0.2119492157433E-01 -0.1331491901133E-01
 0.2245733638679E-01 -0.1365162550735E-01
 0.2375189858926E-01 -0.1400000613510E-01
 0.2507206123354E-01 -0.1436421990229E-01
 0.2640910141682E-01 -0.1474817587387E-01
 0.2775219683652E-01 -0.1515507585081E-01
 0.2908877771393E-01 -0.1558698364248E-01
 0.3040514220765E-01 -0.1604454382340E-01
 0.5028918418123E-04 -0.4248329098360E-03
 0.1507152776565E-03 -0.8570310622797E-03
 0.2985039590873E-03 -0.1296346377686E-02
 0.4908864759731E-03 -0.1742225542134E-02
 0.7252466992857E-03 -0.2193865140208E-02
 0.9992309222767E-03 -0.2650273848403E-02
 0.1310813777153E-02 -0.3110350346297E-02
 0.1658320537196E-02 -0.3572957153663E-02
 0.2040412095938E-02 -0.4036975712766E-02
 0.2456049292685E-02 -0.4501344150268E-02
 0.2904447044630E-02 -0.4965075435927E-02
 0.3385027679061E-02 -0.5427259988438E-02
 0.3897381638464E-02 -0.5887059517608E-02
 0.4441235351824E-02 -0.6343693155515E-02
 0.5016429039847E-02 -0.6796421522105E-02
 0.5622905653554E-02 -0.7244532360590E-02
 0.6260714683530E-02 -0.7687332355525E-02
 0.6929986044860E-02 -0.8124117391563E-02
 0.7630995958160E-02 -0.8554206123272E-02
 0.8364124460232E-02 -0.8976903850033E-02
 0.9129899518460E-02 -0.9391530248823E-02
 0.9929006894420E-02 -0.9797432174907E-02
 0.1076229806858E-01 -0.1019400701402E-01
 0.1163079928892E-01 -0.1058078826946E-01
 0.1253571398333E-01 -0.1095772945616E-01
 0.1347837947050E-01 -0.1132515110876E-01
 0.1446020483619E-01 -0.1168364197925E-01
 0.1548259428505E-01 -0.1203404606486E-01
 0.1654685666087E-01 -0.1237753123842E-01
 0.1765405981817E-01 -0.1271570590803E-01
 0.1880483021055E-01 -0.1305074718490E-01
 0.1999906158381E-01 -0.1338550058995E-01
 0.2123555757237E-01 -0.1372352697407E-01
 0.2251172092848E-01 -0.1406880702320E-01
 0.2382319639920E-01 -0.1442550494276E-01
 0.2516342243222E-01 -0.1479799993114E-01
 0.2652341748327E-01 -0.1519047632889E-01
 0.2789182624962E-01 -0.1560641573581E-01
 0.2925528905942E-01 -0.1604810640084E-01
 0.3059913137127E-01 -0.1651631753520E-01
 0.5487015335847E-04 -0.4367878675562E-03
 0.1598890970963E-03 -0.8813147599090E-03
 0.3121214067486E-03 -0.1333311955412E-02
 0.5086466932018E-03 -0.1792178139812E-02
 0.7467240727144E-03 -0.2257042348310E-02
 0.1023912196675E-02 -0.2726837140412E-02
 0.1338137214516E-02 -0.3200387707577E-02
 0.1687710526769E-02 -0.3676494219294E-02
 0.2071305564456E-02 -0.4153991455221E-02
 0.2487913109691E-02 -0.4631787598711E-02
 0.2936787491177E-02 -0.5108880850186E-02
 0.3417393943620E-02 -0.5584359080432E-02
 0.3929365453113E-02 -0.6057390291155E-02
 0.4472468627482E-02 -0.6527205401368E-02
 0.5046580978689E-02 -0.6993079315196E-02
 0.5651680448672E-02 -0.7454313975141E-02
 0.6287850625041E-02 -0.7910228027381E-02
 0.6955256788996E-02 -0.8360124384473E-02
 0.7654214282018E-02 -0.8803322954584E-02
 0.8385149280100E-02 -0.9239121478453E-02
 0.9148646365459E-02 -0.9666821956577E-02
 0.9945462289885E-02 -0.1008574151171E-01
 0.1077653807734E-01 -0.1049523394053E-01
 0.1164301299467E-01 -0.1089477985326E-01
 0.1254623354257E-01 -0.1128429902462E-01
 0.1348771245625E-01 -0.1166408495517E-01
 0.1446906968071E-01 -0.1203468722423E-01
 0.1549196012802E-01 -0.1239688982929E-01
 0.1655798705420E-01 -0.1275178204725E-01
 0.1766855731483E-01 -0.1310088718999E-01
 0.1882467571876E-01 -0.1344631009692E-01
 0.2002663858827E-01 -0.1379086134516E-01
 0.2127364746382E-01 -0.1413813144598E-01
 0.2256344994699E-01 -0.1449218370052E-01
 0.2389191574166E-01 -0.1485731968701E-01
 0.2525251380545E-01 -0.1523815255816E-01
 0.2663602669705E-01 -0.1563916987311E-01
 0.2803055397169E-01 -0.1606416883005E-01
 0.2942189436358E-01 -0.1651569442443E-01
 0.3079431741683E-01 -0.1699465841213E-01
 0.5968496401193E-04 -0.4487757807021E-03
 0.1695334626208E-03 -0.9056847248261E-03
 0.3264330319689E-03 -0.1370434273887E-02
 0.5272973754391E-03 -0.1842368721685E-02
 0.7692512591166E-03 -0.2320541575376E-02
 0.1049761924128E-02 -0.2803801758550E-02
 0.1366708480605E-02 -0.3290895547230E-02
 0.1718393464475E-02 -0.3780558195272E-02
 0.2103509559600E-02 -0.4271578056463E-02
 0.2521084391189E-02 -0.4762835829510E-02
 0.2970417796809E-02 -0.5253318872020E-02
 0.3451022719719E-02 -0.5742117217908E-02
 0.3962578051177E-02 -0.6228410155588E-02
 0.4504892554155E-02 -0.6711445362823E-02
 0.5077881759287E-02 -0.7190516822652E-02
 0.5681558226969E-02 -0.7664945235676E-02
 0.6316038299994E-02 -0.8134065517060E-02
 0.6981520425298E-02 -0.8597191643723E-02
 0.7678356097397E-02 -0.9053648512366E-02
 0.8407013999268E-02 -0.9502729649896E-02
 0.9168131144594E-02 -0.9943722212013E-02
 0.9962530685403E-02 -0.1037591572388E-01
 0.1079123837839E-01 -0.1079862157922E-01
 0.1165550177969E-01 -0.1121126749698E-01
 0.1255680636120E-01 -0.1161373848711E-01
 0.1349683705511E-01 -0.1200629848756E-01
 0.1447742288805E-01 -0.1238945303864E-01
 0.1550047030087E-01 -0.1276391803523E-01
 0.1656788219083E-01 -0.1313069207390E-01
 0.1768141644533E-01 -0.1349119702377E-01
 0.1884247774434E-01 -0.1384744541509E-01
 0.2005179835067E-01 -0.1420219102181E-01
 0.2130902388892E-01 -0.1455903386401E-01
 0.2261230414555E-01 -0.1492210517360E-01
 0.2395779614807E-01 -0.1529583976378E-01
 0.2533905445003E-01 -0.1568509736385E-01
 0.2674665684526E-01 -0.1609469880876E-01
 0.2816814864901E-01 -0.1652879785162E-01
 0.2958843036612E-01 -0.1699023441527E-01
 0.3099062124327E-01 -0.1748008410923E-01
 0.6474724825827E-04 -0.4608013100227E-03
 0.1796759936642E-03 -0.9301520011407E-03
 0.3414785990116E-03 -0.1407731850518E-02
 0.5468868680054E-03 -0.1892823166868E-02
 0.7928809118052E-03 -0.2384394605705E-02
 0.1076833125900E-02 -0.2881202890830E-02
 0.1396578057570E-02 -0.3381909456239E-02
 0.1750415670278E-02 -0.3885182120004E-02
 0.2137065798931E-02 -0.4389763472666E-02
 0.2555600710897E-02 -0.4894509786596E-02
 0.3005372426900E-02 -0.5398402110338E-02
 0.3485946701821E-02 -0.5900537872133E-02
 0.3997051797085E-02 -0.6400113045249E-02
 0.4538540583782E-02 -0.6896397338021E-02
 0.5110367240638E-02 -0.7388708838985E-02
 0.5712578431375E-02 -0.7876391770934E-02
 0.6345321736313E-02 -0.8358801843307E-02
 0.7008826357164E-02 -0.8835268397777E-02
 0.7703476719869E-02 -0.9305125389360E-02
 0.8429780072886E-02 -0.9767665901311E-02
 0.9188421300597E-02 -0.1022216560551E-01
 0.9980284904990E-02 -0.1066788920770E-01
 0.1080647600117E-01 -0.1110410764712E-01
 0.1166834501302E-01 -0.1153019662516E-01
 0.1256751144617E-01 -0.1194600630573E-01
 0.1350582818009E-01 -0.1235176952301E-01
 0.1448533027554E-01 -0.1274794387269E-01
 0.1550817502592E-01 -0.1313516982455E-01
 0.1657656859645E-01 -0.1351434356406E-01
 0.1769263052733E-01 -0.1388676877436E-01
 0.1885818619451E-01 -0.1425434415457E-01
 0.2007443796216E-01 -0.1461974202029E-01
 0.2134152491234E-01 -0.1498654773306E-01
 0.2265806273757E-01 -0.1535894105817E-01
 0.2402056790243E-01 -0.1574148164349E-01
 0.2542274747107E-01 -0.1613928642982E-01
 0.2685501628907E-01 -0.1655754149119E-01
 0.2830436104850E-01 -0.1700080408664E-01
 0.2975472205217E-01 -0.1747225462340E-01
 0.3118796023424E-01 -0.1797315789564E-01
 0.7007194593149E-04 -0.4728698315593E-03
 0.1903470020142E-03 -0.9547292782305E-03
 0.3573015773608E-03 -0.1445225848668E-02
 0.5674675726050E-03 -0.1943570827157E-02
 0.8176694014703E-03 -0.2448637123868E-02
 0.1105181694105E-02 -0.2959079545578E-02
 0.1427798210862E-02 -0.3473468287868E-02
 0.1783824156424E-02 -0.3990401381388E-02
 0.2172015751229E-02 -0.4508576893688E-02
 0.2591498669293E-02 -0.5026830458174E-02
 0.3041684370355E-02 -0.5544142038880E-02
 0.3522196798596E-02 -0.6059622246522E-02
 0.4032817118188E-02 -0.6572489541568E-02
 0.4573444207669E-02 -0.7082041213592E-02
 0.5144071406713E-02 -0.7587624683995E-02
 0.5744778818979E-02 -0.8088612635090E-02
 0.6375743574694E-02 -0.8584386286760E-02
 0.7037223023259E-02 -0.9074294891679E-02
 0.7729631066804E-02 -0.9557685861030E-02
 0.8453509291814E-02 -0.1003385603630E-01
 0.9209585540086E-02 -0.1050207351706E-01
 0.9998800178259E-02 -0.1096158165017E-01
 0.1082233176527E-01 -0.1141161369340E-01
 0.1168162749480E-01 -0.1185149516859E-01
 0.1257843513095E-01 -0.1228104238047E-01
 0.1351477018303E-01 -0.1270045667533E-01
 0.1449286932849E-01 -0.1311014498494E-01
 0.1551513834177E-01 -0.1351066609560E-01
 0.1658408835130E-01 -0.1390280272716E-01
 0.1770220928203E-01 -0.1428772354602E-01
 0.1887176673562E-01 -0.1466719061445E-01
 0.2009446751293E-01 -0.1504376729779E-01
 0.2137099630509E-01 -0.1542099569899E-01
 0.2270050493769E-01 -0.1580307915344E-01
 0.2407995219741E-01 -0.1619468829573E-01
 0.2550327851916E-01 -0.1660120477311E-01
 0.2696079117599E-01 -0.1702821326578E-01
 0.2843892096781E-01 -0.1748072832482E-01
 0.2992058043200E-01 -0.1796232583603E-01
 0.3138624680733E-01 -0.1847449014199E-01
 0.7567549516060E-04 -0.4849875896601E-03
 0.2015798810099E-03 -0.9794312412073E-03
 0.3739496370044E-03 -0.1482940629141E-02
 0.5890964095021E-03 -0.1994645223576E-02
 0.8436771308532E-03 -0.2513309459646E-02
 0.1134866509564E-02 -0.3037475247770E-02
 0.1460422923669E-02 -0.3565614741441E-02
 0.1818666427862E-02 -0.4096254168339E-02
 0.2208400359777E-02 -0.4628049078773E-02
 0.2628813585897E-02 -0.5159819132621E-02
 0.3079384829808E-02 -0.5690549212641E-02
 0.3559801833951E-02 -0.6219369488267E-02
 0.4069902218100E-02 -0.6745527104477E-02
 0.4609632677038E-02 -0.7268352729403E-02
 0.5179026086591E-02 -0.7787228504192E-02
 0.5778195173432E-02 -0.8301560640320E-02
 0.6407344768147E-02 -0.8810760740563E-02
 0.7066757582461E-02 -0.9314202736078E-02
 0.7756873329998E-02 -0.9811252207583E-02
 0.8478263449646E-02 -0.1030121438936E-01
 0.9231693504814E-02 -0.1078335428655E-01
 0.1001815383825E-01 -0.1125689806360E-01
 0.1083889003042E-01 -0.1172104495121E-01
 0.1169543929897E-01 -0.1217507318172E-01
 0.1258967106837E-01 -0.1261876737970E-01
 0.1352375707538E-01 -0.1305229835149E-01
 0.1450012974619E-01 -0.1347602107556E-01
 0.1552143908501E-01 -0.1389040778166E-01
 0.1659050061244E-01 -0.1429611773354E-01
 0.1771018096042E-01 -0.1469416806903E-01
 0.1888320348910E-01 -0.1508616044621E-01
 0.2011181315806E-01 -0.1547451902813E-01
 0.2139729456414E-01 -0.1586270927097E-01
 0.2273941232053E-01 -0.1625492663896E-01
 0.2413566216391E-01 -0.1665593205241E-01
 0.2558031506569E-01 -0.1707137470297E-01
 0.2706364319713E-01 -0.1750727171749E-01
 0.2857153473629E-01 -0.1796915621355E-01
 0.3008580157067E-01 -0.1846106674592E-01
 0.3158538883201E-01 -0.1898474449092E-01
 0.8157606382787E-04 -0.4971618830128E-03
 0.2134115739494E-03 -0.1004274991458E-02
 0.3914752320046E-03 -0.1520904400064E-02
 0.6118353415590E-03 -0.2046084844727E-02
 0.8709688645522E-03 -0.2578457407000E-02
 0.1165949529031E-02 -0.3116438757632E-02
 0.1494507769605E-02 -0.3658395906819E-02
 0.1854990207088E-02 -0.4202781824030E-02
 0.2246259689083E-02 -0.4748212543577E-02
 0.2667579120481E-02 -0.5293497464169E-02
 0.3118502847606E-02 -0.5837633258380E-02
 0.3598788189192E-02 -0.6379776640597E-02
 0.4108332733874E-02 -0.6919210010190E-02
 0.4647132667450E-02 -0.7455303412585E-02
 0.5215260616169E-02 -0.7987479202366E-02
 0.5812860954796E-02 -0.8515182271616E-02
 0.6440164213516E-02 -0.9037859592035E-02
 0.7097475524333E-02 -0.9554914730429E-02
 0.7785256566682E-02 -0.1006573644722E-01
 0.8504103920348E-02 -0.1056964343195E-01
 0.9254815346944E-02 -0.1106590264961E-01
 0.1003842491161E-01 -0.1155372800158E-01
 0.1085623832797E-01 -0.1203228927702E-01
 0.1170987548623E-01 -0.1250082144218E-01
 0.1260132008417E-01 -0.1295908093192E-01
 0.1353289260501E-01 -0.1340721046896E-01
 0.1450721385079E-01 -0.1384551347612E-01
 0.1552717176145E-01 -0.1427437249484E-01
 0.1659588308260E-01 -0.1469431486192E-01
 0.1771659451218E-01 -0.1510619050931E-01
 0.1889250190469E-01 -0.1551141643329E-01
 0.2012642051230E-01 -0.1591224482078E-01
 0.2142029037633E-01 -0.1631202606164E-01
 0.2277457161840E-01 -0.1671490889482E-01
 0.2418740412698E-01 -0.1712571533855E-01
 0.2565350544193E-01 -0.1755035837668E-01
 0.2716320643512E-01 -0.1799532041255E-01
 0.2870188124313E-01 -0.1846672201054E-01
 0.3025016447481E-01 -0.1896914715271E-01
 0.3178528953177E-01 -0.1950464175307E-01
 0.8779383218514E-04 -0.5094012933948E-03
 0.2258831416799E-03 -0.1029280560942E-02
 0.4099362934005E-03 -0.1559150002353E-02
 0.6357519737848E-03 -0.2097934092633E-02
 0.8996140785728E-03 -0.2644133166146E-02
 0.1198495842002E-02 -0.3196024863463E-02
 0.1530109725821E-02 -0.3751863829049E-02
 0.1892843092020E-02 -0.4310029175033E-02
 0.2285632511639E-02 -0.4869101694648E-02
 0.2707826847251E-02 -0.5427887472075E-02
 0.3159064897585E-02 -0.5985402794608E-02
 0.3639179420616E-02 -0.6540838525673E-02
 0.4148131374175E-02 -0.7093519222461E-02
 0.4685967925880E-02 -0.7642860447410E-02
 0.5252801480847E-02 -0.8188330303778E-02
 0.5848806925926E-02 -0.8729417536753E-02
 0.6474238352840E-02 -0.9265609535364E-02
 0.7129420240945E-02 -0.9796344610026E-02
 0.7814832241874E-02 -0.1032103998263E-01
 0.8531091175834E-02 -0.1083903327738E-01
 0.9279021231307E-02 -0.1134959905333E-01
 0.1005969362091E-01 -0.1185194463078E-01
 0.1087446688774E-01 -0.1234521591483E-01
 0.1172503569423E-01 -0.1282860983402E-01
 0.1261348989052E-01 -0.1330185954601E-01
 0.1354229018099E-01 -0.1376508382665E-01
 0.1451423684446E-01 -0.1421853689151E-01
 0.1553244728962E-01 -0.1466251058841E-01
 0.1660033341374E-01 -0.1509739389714E-01
 0.1772152180615E-01 -0.1552385533555E-01
 0.1889969186496E-01 -0.1594310313847E-01
 0.2013825850441E-01 -0.1635718267295E-01
 0.2143987276368E-01 -0.1676928574950E-01
 0.2280577831427E-01 -0.1718346721519E-01
 0.2423487954528E-01 -0.1760457065617E-01
 0.2572247816270E-01 -0.1803876009849E-01
 0.2725908380229E-01 -0.1849301296021E-01
 0.2882960674558E-01 -0.1897411289820E-01
 0.3041342814720E-01 -0.1948729088837E-01
 0.3198584837433E-01 -0.2003496302772E-01
 0.9435134019067E-04 -0.5217159685582E-03
 0.2390404573645E-03 -0.1054471551797E-02
 0.4293970635367E-03 -0.1597715884320E-02
 0.6609202552030E-03 -0.2150244447987E-02
 0.9296873511246E-03 -0.2710396496059E-02
 0.1232573720837E-02 -0.3276295355155E-02
 0.1567286960837E-02 -0.3846076229121E-02
 0.1932272196623E-02 -0.4418045014841E-02
 0.2326555900674E-02 -0.4990753144463E-02
 0.2749585862314E-02 -0.5563011770812E-02
 0.3201094534411E-02 -0.6133865650618E-02
 0.3680995952977E-02 -0.6702548006193E-02
 0.4189317645086E-02 -0.7268432730003E-02
 0.4726159011151E-02 -0.7830987104637E-02
 0.5291672051950E-02 -0.8389730480175E-02
 0.5886060868247E-02 -0.8944200577275E-02
 0.6509600855480E-02 -0.9493930253301E-02
 0.7162632666893E-02 -0.1003839777477E-01
 0.7845649822682E-02 -0.1057705434655E-01
 0.8559284335587E-02 -0.1110926240680E-01
 0.9304380845832E-02 -0.1163431031977E-01
 0.1008204086678E-01 -0.1215140528079E-01
 0.1089366811139E-01 -0.1265967587093E-01
 0.1174102363677E-01 -0.1315828747349E-01
 0.1262629466874E-01 -0.1364695640045E-01
 0.1355207263077E-01 -0.1412578345855E-01
 0.1452132687375E-01 -0.1459497821687E-01
 0.1553739355187E-01 -0.1505474335415E-01
 0.1660397046500E-01 -0.1550532568363E-01
 0.1772505982434E-01 -0.1594720032511E-01
 0.1890483097771E-01 -0.1638134366029E-01
 0.2014732373053E-01 -0.1680955804411E-01
 0.2145595408915E-01 -0.1723482830728E-01
 0.2283284139648E-01 -0.1766105914757E-01
 0.2427778820151E-01 -0.1809306380000E-01
 0.2578684229021E-01 -0.1853723262706E-01
 0.2735084405622E-01 -0.1900106201371E-01
 0.2895431932027E-01 -0.1949207935280E-01
 0.3057532840060E-01 -0.2001628402127E-01
 0.3218696608976E-01 -0.2057655659105E-01
 0.1012739152512E-03 -0.5341179769222E-03
 0.2529350494365E-03 -0.1079875921403E-02
 0.4499290754560E-03 -0.1636647266639E-02
 0.6874212494313E-03 -0.2203075806416E-02
 0.9612687199082E-03 -0.2777315949918E-02
 0.1268254556096E-02 -0.3357319952998E-02
 0.1606098465350E-02 -0.3941097047414E-02
 0.1973323624907E-02 -0.4526882293212E-02
 0.2369064663904E-02 -0.5113205634755E-02
 0.2792882243989E-02 -0.5698893323560E-02
 0.3244611904875E-02 -0.6283028527204E-02
 0.3724254639102E-02 -0.6864895603245E-02
 0.4231907441874E-02 -0.7443925146631E-02
 0.4767722896998E-02 -0.8019642329871E-02
 0.5331892180605E-02 -0.8591623118121E-02
 0.5924647148852E-02 -0.9159459197702E-02
 0.6546282145214E-02 -0.9722733879152E-02
 0.7197150758297E-02 -0.1028097064791E-01
 0.7877756206410E-02 -0.1083366041416E-01
 0.8588740545903E-02 -0.1138019668528E-01
 0.9330962738059E-02 -0.1191988840883E-01
 0.1010554753212E-01 -0.1245194988836E-01
 0.1091393586222E-01 -0.1297549996238E-01
 0.1175794641082E-01 -0.1348968026927E-01
 0.1263985444902E-01 -0.1399419830439E-01
 0.1356237174257E-01 -0.1448914486617E-01
 0.1452862487176E-01 -0.1497469189908E-01
 0.1554215573069E-01 -0.1545095737709E-01
 0.1660693538577E-01 -0.1591804538456E-01
 0.1772733277822E-01 -0.1637622875942E-01
 0.1890800797015E-01 -0.1682623102183E-01
 0.2015364517265E-01 -0.1726957503309E-01
 0.2146847572285E-01 -0.1770898593783E-01
 0.2285558894614E-01 -0.1814815242529E-01
 0.2431583206221E-01 -0.1859179087193E-01
 0.2584618777581E-01 -0.1904647777576E-01
 0.2743801772485E-01 -0.1952024310173E-01
 0.2907558056790E-01 -0.2002144171743E-01
 0.3073556890784E-01 -0.2055697995260E-01
 0.3238855136731E-01 -0.2113033644272E-01
 0.1085902047594E-03 -0.5466217569864E-03
 0.2676251425931E-03 -0.1105526973167E-02
 0.4716123360764E-03 -0.1675997607098E-02
 0.7153440269916E-03 -0.2256498140143E-02
 0.9944440600747E-03 -0.2844970394453E-02
 0.1305612749786E-02 -0.3439177457397E-02
 0.1646603631317E-02 -0.4036997167594E-02
 0.2016041921784E-02 -0.4636598491080E-02
 0.2413190798149E-02 -0.5236500195410E-02
 0.2837738576880E-02 -0.5835555514391E-02
 0.3289633357031E-02 -0.6432897079910E-02
 0.3768968441110E-02 -0.7027869652826E-02
 0.4275912776822E-02 -0.7619967974276E-02
 0.4810672718060E-02 -0.8208781125776E-02
 0.5373477934983E-02 -0.8793946818954E-02
 0.5964586425807E-02 -0.9375115471370E-02
 0.6584309055164E-02 -0.9951925688025E-02
 0.7233009084366E-02 -0.1052395142447E-01
 0.7911195241367E-02 -0.1109072917313E-01
 0.8619514427475E-02 -0.1165169011158E-01
 0.9358833690674E-02 -0.1220617109909E-01
 0.1013029379012E-01 -0.1275340155217E-01
 0.1093536471594E-01 -0.1329249917585E-01
 0.1177591371396E-01 -0.1382259099750E-01
 0.1265429434245E-01 -0.1434338537768E-01
 0.1357332759885E-01 -0.1485497316470E-01
 0.1453628413466E-01 -0.1535749838422E-01
 0.1554689634210E-01 -0.1585100210679E-01
 0.1660939240458E-01 -0.1633544902525E-01
 0.1772849402748E-01 -0.1681090489231E-01
 0.1890934612094E-01 -0.1727782275155E-01
 0.2015728937252E-01 -0.1773741065311E-01
 0.2147741473167E-01 -0.1819207814559E-01
 0.2287387536678E-01 -0.1864522233228E-01
 0.2434872108709E-01 -0.1910137957164E-01
 0.2590008770504E-01 -0.1956725218787E-01
 0.2752009420586E-01 -0.2005140522784E-01
 0.2919289864858E-01 -0.2056310440795E-01
 0.3089380865159E-01 -0.2111031819128E-01
 0.3259053279630E-01 -0.2169729530017E-01
 0.1163328420084E-03 -0.5592447044980E-03
 0.2831769387557E-03 -0.1131464591365E-02
 0.4945367347600E-03 -0.1715830412522E-02
 0.7447866453180E-03 -0.2310593470953E-02
 0.1029305402451E-02 -0.2913450715764E-02
 0.1344725457069E-02 -0.3521956923140E-02
 0.1688861657679E-02 -0.4133855028558E-02
 0.2060469372737E-02 -0.4747255794861E-02
 0.2458962829326E-02 -0.5360680055493E-02
 0.2884173393823E-02 -0.5973021948678E-02
 0.3336170989164E-02 -0.6583475714048E-02
 0.3815146063121E-02 -0.7191456155643E-02
 0.4321341462618E-02 -0.7796529534780E-02
 0.4855017470385E-02 -0.8398354571597E-02
 0.5416441287699E-02 -0.8996635497973E-02
 0.6005895296860E-02 -0.9591085901290E-02
 0.6623704417568E-02 -0.1018140429287E-01
 0.7270238343861E-02 -0.1076722026780E-01
 0.7946007161770E-02 -0.1134812187859E-01
 0.8651657425704E-02 -0.1192358488240E-01
 0.9388057987497E-02 -0.1249298190572E-01
 0.1015635828790E-01 -0.1305556624038E-01
 0.1095804906785E-01 -0.1361046408822E-01
 0.1179503689157E-01 -0.1415679833894E-01
 0.1266974356807E-01 -0.1469428957956E-01
 0.1358508766188E-01 -0.1522304094230E-01
 0.1454446960322E-01 -0.1574318110603E-01
 0.1555179493287E-01 -0.1625468573969E-01
 0.1661152926921E-01 -0.1675738803245E-01
 0.1772872770660E-01 -0.1725114698769E-01
 0.1890900658738E-01 -0.1773613249214E-01
 0.2015836586958E-01 -0.1821320554005E-01
 0.2148279140548E-01 -0.1868440272404E-01
 0.2288758998333E-01 -0.1915274488039E-01
 0.2437618085529E-01 -0.1962248647073E-01
 0.2594810135338E-01 -0.2010037086093E-01
 0.2759651963641E-01 -0.2059547763396E-01
 0.2930571929368E-01 -0.2111807431610E-01
 0.3104964629033E-01 -0.2167733128337E-01
 0.3279287495845E-01 -0.2227858788199E-01
 0.1245395839968E-03 -0.5720065456905E-03
 0.2996694656665E-03 -0.1157739058096E-02
 0.5188119336965E-03 -0.1756231744187E-02
 0.7758721234096E-03 -0.2365481380063E-02
 0.1065973791034E-02 -0.2982902553402E-02
 0.1385702937458E-02 -0.3605821947686E-02
 0.1732969670097E-02 -0.4231846880580E-02
 0.2106691777945E-02 -0.4859041714712E-02
 0.2506458790521E-02 -0.5485945916633E-02
 0.2932260676219E-02 -0.6111510565765E-02
 0.3384297856013E-02 -0.6735004660626E-02
 0.3862861975621E-02 -0.7355922949903E-02
 0.4368271026385E-02 -0.7973910450462E-02
 0.4900838853907E-02 -0.8588700957086E-02
 0.5460868887252E-02 -0.9200069699696E-02
 0.6048665948979E-02 -0.9807797668537E-02
 0.6664566471995E-02 -0.1041164783994E-01
 0.7308943324795E-02 -0.1101131076053E-01
 0.7982303784470E-02 -0.1160643239735E-01
 0.8685288805919E-02 -0.1219654061953E-01
 0.9418762635871E-02 -0.1278105254550E-01
 0.1018387590048E-01 -0.1335925520813E-01
 0.1098213163484E-01 -0.1393029427923E-01
 0.1181546639334E-01 -0.1449330061961E-01
 0.1268636019773E-01 -0.1504802043703E-01
 0.1359781742965E-01 -0.1559458392715E-01
 0.1455335353495E-01 -0.1613312018242E-01
 0.1555702862544E-01 -0.1666355491320E-01
 0.1661352367541E-01 -0.1718560241272E-01
 0.1772820380883E-01 -0.1769892056099E-01
 0.1890713754136E-01 -0.1820338852636E-01
 0.2015697957283E-01 -0.1869949122006E-01
 0.2148463925001E-01 -0.1918883316577E-01
 0.2289666606771E-01 -0.1967396326802E-01
 0.2439803065124E-01 -0.2015872895720E-01
 0.2598996391039E-01 -0.2064979731136E-01
 0.2766704868298E-01 -0.2115671710144E-01
 0.2941401677530E-01 -0.2169083608168E-01
 0.3120349886996E-01 -0.2226277817005E-01
 0.3299669112414E-01 -0.2287891644099E-01
 0.1332533517200E-03 -0.5849337554940E-03
 0.3171871597414E-03 -0.1184405902719E-02
 0.5445455609540E-03 -0.1797281657186E-02
 0.8087063932663E-03 -0.2421251977070E-02
 0.1104533607459E-02 -0.3053405828788E-02
 0.1428598123927E-02 -0.3690822594614E-02
 0.1778947989587E-02 -0.4330977922098E-02
 0.2154700798833E-02 -0.4971906995002E-02
 0.2555647533890E-02 -0.5612188595851E-02
 0.2981952312870E-02 -0.6250849086974E-02
 0.3433953947561E-02 -0.6887246216161E-02
 0.3912048430359E-02 -0.7520964497414E-02
 0.4416629401634E-02 -0.8151734378175E-02
 0.4948063410315E-02 -0.8779369403070E-02
 0.5506688559084E-02 -0.9403719473627E-02
 0.6092830123650E-02 -0.1002463645615E-01
 0.6706833626431E-02 -0.1064195169209E-01
 0.7349072076943E-02 -0.1125542148828E-01
 0.8020046043849E-02 -0.1186475577164E-01
 0.8720385871992E-02 -0.1246954198701E-01
 0.9450944960265E-02 -0.1306925065945E-01
 0.1021286770517E-01 -0.1366321289283E-01
 0.1100766100485E-01 -0.1425060558063E-01
 0.1183728205797E-01 -0.1483058081570E-01
 0.1270425892379E-01 -0.1540292529983E-01
 0.1361166957949E-01 -0.1596781316663E-01
 0.1456312852349E-01 -0.1652539281593E-01
 0.1556282937265E-01 -0.1707556004802E-01
 0.1661564185305E-01 -0.1761792934502E-01
 0.1772721020166E-01 -0.1815197166592E-01
 0.1890402404844E-01 -0.1867727827211E-01
 0.2015337126927E-01 -0.1919393960108E-01
 0.2148309156189E-01 -0.1970307624058E-01
 0.2290104414786E-01 -0.2020666738760E-01
 0.2441392222973E-01 -0.2070800974949E-01
 0.2602496118143E-01 -0.2121354015365E-01
 0.2773059174926E-01 -0.2173318749093E-01
 0.2951641121401E-01 -0.2227944710057E-01
 0.3135392406112E-01 -0.2286462707981E-01
 0.3320039586466E-01 -0.2349646274069E-01
 0.1425247251045E-03 -0.5980577587744E-03
 0.3358315896785E-03 -0.1211536426214E-02
 0.5718687128342E-03 -0.1839089991834E-02
 0.8434213755591E-03 -0.2478040053946E-02
 0.1145096269702E-02 -0.3125100571504E-02
 0.1473492967665E-02 -0.3777086485100E-02
 0.1826849821925E-02 -0.4431352244589E-02
 0.2204526436979E-02 -0.5085927673833E-02
 0.2606542502361E-02 -0.5739456021197E-02
 0.3033251069443E-02 -0.6391059428326E-02
 0.3485135915746E-02 -0.7040198913717E-02
 0.3962699302789E-02 -0.7686558223864E-02
 0.4466410107251E-02 -0.8329959179819E-02
 0.4996686134265E-02 -0.8970298920940E-02
 0.5553898302751E-02 -0.9607504902599E-02
 0.6138390277898E-02 -0.1024150265464E-01
 0.6750514341717E-02 -0.1087219524555E-01
 0.7390640816185E-02 -0.1149940920216E-01
 0.8059259910767E-02 -0.1212292433853E-01
 0.8756986569753E-02 -0.1274239528754E-01
 0.9484657243329E-02 -0.1335735531860E-01
 0.1024340275713E-01 -0.1396719062011E-01
 0.1103472552608E-01 -0.1457112200289E-01
 0.1186059423069E-01 -0.1516833729968E-01
 0.1272357508140E-01 -0.1575868015564E-01
 0.1362680764417E-01 -0.1634238765672E-01
 0.1457398928164E-01 -0.1691964945985E-01
 0.1556942488291E-01 -0.1749035588827E-01
 0.1661814355347E-01 -0.1805404687915E-01
 0.1772603241964E-01 -0.1861002908437E-01
 0.1889996201100E-01 -0.1915761937754E-01
 0.2014781739479E-01 -0.1969650725023E-01
 0.2147835551684E-01 -0.2022728711206E-01
 0.2290079053473E-01 -0.2075127102565E-01
 0.2442369797824E-01 -0.2127104258483E-01
 0.2605265151999E-01 -0.2179261156031E-01
 0.2778644230500E-01 -0.2232614340091E-01
 0.2961209631602E-01 -0.2288532142421E-01
 0.3150025483344E-01 -0.2348439716881E-01
 0.3340400194696E-01 -0.2413302482878E-01
 0.1524133475306E-03 -0.6114175349241E-03
 0.3557216982105E-03 -0.1239218446537E-02
 0.6009312961826E-03 -0.1881790048106E-02
 0.8801625484620E-03 -0.2536005546448E-02
 0.1187778999283E-02 -0.3198148391110E-02
 0.1520468647816E-02 -0.3864756490507E-02
 0.1876723587144E-02 -0.4533082734481E-02
 0.2256192165399E-02 -0.5201183481323E-02
 0.2659150287831E-02 -0.5867796391547E-02
 0.3086153205098E-02 -0.6532161759356E-02
 0.3537834439509E-02 -0.7193858488216E-02
 0.4014802970390E-02 -0.7852678280139E-02
 0.4517601476038E-02 -0.8508539247523E-02
 0.5046696955492E-02 -0.9161424928980E-02
 0.5602490995580E-02 -0.9811342269044E-02
 0.6185343546218E-02 -0.1045829243637E-01
 0.6795611466742E-02 -0.1110225293614E-01
 0.7433659839511E-02 -0.1174312451877E-01
 0.8099965198171E-02 -0.1238076259874E-01
 0.8795122603168E-02 -0.1301489668367E-01
 0.9519945669061E-02 -0.1364513249989E-01
 0.1027554443557E-01 -0.1427092298414E-01
 0.1106340863133E-01 -0.1489154646176E-01
 0.1188550955508E-01 -0.1550624218752E-01
 0.1274444218209E-01 -0.1611492865893E-01
 0.1364339619364E-01 -0.1671792692026E-01
 0.1458613582039E-01 -0.1731549274787E-01
 0.1557705433733E-01 -0.1790753974617E-01
 0.1662130869255E-01 -0.1849356494568E-01
 0.1772498798517E-01 -0.1907274247743E-01
 0.1889529457949E-01 -0.1964414091942E-01
 0.2014065950802E-01 -0.2020705792993E-01
 0.2147072046180E-01 -0.2076153503983E-01
 0.2289606199764E-01 -0.2130812738559E-01
 0.2442727797766E-01 -0.2184852926968E-01
 0.2607262513900E-01 -0.2238807910734E-01
 0.2783385422725E-01 -0.2293696478314E-01
 0.2970014788183E-01 -0.2351004047968E-01
 0.3164175266834E-01 -0.2412383342347E-01
 0.3360732602662E-01 -0.2479044439738E-01
 0.1629903128855E-03 -0.6250618913733E-03
 0.3769979434614E-03 -0.1267561070185E-02
 0.6319053614185E-03 -0.1925544566141E-02
 0.9190899120657E-03 -0.2595338671269E-02
 0.1232703748936E-02 -0.3272735485578E-02
 0.1569603615502E-02 -0.3953991630025E-02
 0.1928611009452E-02 -0.4636290613665E-02
 0.2309713471845E-02 -0.5317756813740E-02
 0.2713469668576E-02 -0.5997257099641E-02
 0.3140647895356E-02 -0.6674173619822E-02
 0.3592033902125E-02 -0.7348217267000E-02
 0.4068342136113E-02 -0.8019295210736E-02
 0.4570186544194E-02 -0.8687425427103E-02
 0.5098080635560E-02 -0.9352679403348E-02
 0.5652454250797E-02 -0.1001514440859E-01
 0.6233681520606E-02 -0.1067489828878E-01
 0.6842121904154E-02 -0.1133199492602E-01
 0.7478133044354E-02 -0.1198641272431E-01
 0.8142174910216E-02 -0.1263808808670E-01
 0.8834818600976E-02 -0.1328683306781E-01
 0.9556849302878E-02 -0.1393233588329E-01
 0.1030934922932E-01 -0.1457412850122E-01
 0.1109378740540E-01 -0.1521156122159E-01
 0.1191212928272E-01 -0.1584394149725E-01
 0.1276698992449E-01 -0.1647128189918E-01
 0.1366159852223E-01 -0.1709401021256E-01
 0.1459977082548E-01 -0.1771247584803E-01
 0.1558596554341E-01 -0.1832664853161E-01
 0.1662543452672E-01 -0.1893602032575E-01
 0.1772442416929E-01 -0.1953967423038E-01
 0.1889041162796E-01 -0.2013647075648E-01
 0.2013230744706E-01 -0.2072534412245E-01
 0.2146056747447E-01 -0.2130577872001E-01
 0.2288712416469E-01 -0.2187750069144E-01
 0.2442468608158E-01 -0.2244113431335E-01
 0.2608453084377E-01 -0.2300105449892E-01
 0.2787204968466E-01 -0.2356716400716E-01
 0.2977952034792E-01 -0.2415539214827E-01
 0.3177752740289E-01 -0.2478488175728E-01
 0.3381008249171E-01 -0.2547079694331E-01
 0.1743413788880E-03 -0.6390526240137E-03
 0.3998276577388E-03 -0.1296701157214E-02
 0.6649889610246E-03 -0.1970553479497E-02
 0.9603785600251E-03 -0.2656266078762E-02
 0.1279995343947E-02 -0.3349075736805E-02
 0.1620970971017E-02 -0.4044967503414E-02
 0.1982544835590E-02 -0.4741104397377E-02
 0.2365096272278E-02 -0.5435731236941E-02
 0.2769490651536E-02 -0.6127883343854E-02
 0.3196716716556E-02 -0.6817108854431E-02
 0.3647712146236E-02 -0.7503263466021E-02
 0.4123293728664E-02 -0.8186375583792E-02
 0.4624143011301E-02 -0.8866564939483E-02
 0.5150816728065E-02 -0.9543991053210E-02
 0.5703770332382E-02 -0.1021882111056E-01
 0.6283390079874E-02 -0.1089120961857E-01
 0.6890036315056E-02 -0.1156128788920E-01
 0.7524057471525E-02 -0.1222911470852E-01
 0.8185894593990E-02 -0.1289471240115E-01
 0.8876091261926E-02 -0.1355798311796E-01
 0.9595399027676E-02 -0.1421870785141E-01
 0.1034486545899E-01 -0.1487651047775E-01
 0.1112593106793E-01 -0.1553082856917E-01
 0.1194054746708E-01 -0.1618105557043E-01
 0.1279134203789E-01 -0.1682731849049E-01
 0.1368157408617E-01 -0.1747017613595E-01
 0.1461509665379E-01 -0.1811010133459E-01
 0.1559641150618E-01 -0.1874715640545E-01
 0.1663083194532E-01 -0.1938087229043E-01
 0.1772471445819E-01 -0.2001029183424E-01
 0.1888574747838E-01 -0.2063412287730E-01
 0.2012324048082E-01 -0.2125098721280E-01
 0.2144837750751E-01 -0.2185983777211E-01
 0.2287437072839E-01 -0.2245953030972E-01
 0.2441608150753E-01 -0.2304944934627E-01
 0.2608811141937E-01 -0.2363267163136E-01
 0.2790024036879E-01 -0.2421839434417E-01
 0.2984902815027E-01 -0.2482339635727E-01
 0.3190649039001E-01 -0.2546975163825E-01
 0.3401188517462E-01 -0.2617645280072E-01
 0.1865713698871E-03 -0.6534689807141E-03
 0.4244120316604E-03 -0.1326812218424E-02
 0.7004105038057E-03 -0.2017064018050E-02
 0.1004218506200E-02 -0.2719058124618E-02
 0.1329778517429E-02 -0.3427413647270E-02
 0.1674635037211E-02 -0.4137875956089E-02
 0.2038546179914E-02 -0.4847658068749E-02
 0.2422335240518E-02 -0.5555189425566E-02
 0.2827193564588E-02 -0.6259716395184E-02
 0.3254333223151E-02 -0.6960976355138E-02
 0.3704840325354E-02 -0.7658980386236E-02
 0.4179628889928E-02 -0.8353881574999E-02
 0.4679443276249E-02 -0.9045901287484E-02
 0.5204879605466E-02 -0.9735285501940E-02
 0.5756416129487E-02 -0.1042227954232E-01
 0.6334449272056E-02 -0.1110711339978E-01
 0.6939338867862E-02 -0.1178999586653E-01
 0.7571422877455E-02 -0.1247106799939E-01
 0.8231121698177E-02 -0.1315044236898E-01
 0.8918948479862E-02 -0.1382811851237E-01
 0.9635616434605E-02 -0.1450398066089E-01
 0.1038213193496E-01 -0.1517775805229E-01
 0.1115989937607E-01 -0.1584899166618E-01
 0.1197084905359E-01 -0.1651717969639E-01
 0.1281761398005E-01 -0.1718258492341E-01
 0.1370347572140E-01 -0.1784592262028E-01
 0.1463231198337E-01 -0.1850782057061E-01
 0.1560864644188E-01 -0.1916847310997E-01
 0.1663782086636E-01 -0.1982749905896E-01
 0.1772625361252E-01 -0.2048396109345E-01
 0.1888177654141E-01 -0.2113648519831E-01
 0.2011400574071E-01 -0.2178345687433E-01
 0.2143473687856E-01 -0.2242336055717E-01
 0.2285834221232E-01 -0.2305418642022E-01
 0.2440179531302E-01 -0.2367394358466E-01
 0.2608325176147E-01 -0.2428405060794E-01
 0.2791766166564E-01 -0.2489244854729E-01
 0.2990733201619E-01 -0.2551634591712E-01
 0.3202730034504E-01 -0.2618098790098E-01
 0.3421222836693E-01 -0.2691015977895E-01
 0.1998103296724E-03 -0.6684140956425E-03
 0.4509952771071E-03 -0.1358116851145E-02
 0.7384334508282E-03 -0.2065383926104E-02
 0.1050813219593E-02 -0.2784037274069E-02
 0.1382173441743E-02 -0.3508026697836E-02
 0.1730647022811E-02 -0.4232923581044E-02
 0.2096621555239E-02 -0.4956088273062E-02
 0.2481412148950E-02 -0.5676210495243E-02
 0.2886548278007E-02 -0.6392791551183E-02
 0.3313462676163E-02 -0.7105778672917E-02
 0.3763382895648E-02 -0.7815345585856E-02
 0.4237313085050E-02 -0.8521770590167E-02
 0.4736054580630E-02 -0.9225374241543E-02
 0.5260238583000E-02 -0.9926485578172E-02
 0.5810363221715E-02 -0.1062542481338E-01
 0.6386833283345E-02 -0.1132249499694E-01
 0.6990007067331E-02 -0.1201798134077E-01
 0.7620211373260E-02 -0.1271210807355E-01
 0.8277844974693E-02 -0.1340508154584E-01
 0.8963388479881E-02 -0.1409700553631E-01
 0.9677512694169E-02 -0.1478787804518E-01
 0.1042117657471E-01 -0.1547754769248E-01
 0.1119574097322E-01 -0.1616567587939E-01
 0.1200310789966E-01 -0.1685188526202E-01
 0.1284591053258E-01 -0.1753659654060E-01
 0.1372744669525E-01 -0.1822070769164E-01
 0.1465160817759E-01 -0.1890503411073E-01
 0.1562292129058E-01 -0.1958994360689E-01
 0.1664672476223E-01 -0.2027519587496E-01
 0.1772945125531E-01 -0.2095994119886E-01
 0.1887900658523E-01 -0.2164280918139E-01
 0.2010521316206E-01 -0.2232205136939E-01
 0.2142033857857E-01 -0.2299579006220E-01
 0.2283974206305E-01 -0.2366121766970E-01
 0.2438237064281E-01 -0.2431489803853E-01
 0.2607004169783E-01 -0.2495624054561E-01
 0.2792362806826E-01 -0.2559124507431E-01
 0.2995293574690E-01 -0.2623685605904E-01
 0.3213829544684E-01 -0.2692156402359E-01
 0.3441044449167E-01 -0.2767514888387E-01
 0.2142223099666E-03 -0.6840244868850E-03
 0.4798767012697E-03 -0.1390904406840E-02
 0.7793609368065E-03 -0.2115898770057E-02
 0.1100376009171E-02 -0.2851587414195E-02
 0.1437289255821E-02 -0.3591226387833E-02
 0.1789039701596E-02 -0.4330328487281E-02
 0.2156759684205E-02 -0.5066530265891E-02
 0.2542294311242E-02 -0.5798866626591E-02
 0.2947513601832E-02 -0.6527135718857E-02
 0.3374061934501E-02 -0.7251510434441E-02
 0.3823297737928E-02 -0.7972329941710E-02
 0.4296306312244E-02 -0.8689994812422E-02
 0.4793939229557E-02 -0.9404919761294E-02
 0.5316858106241E-02 -0.1011751154354E-01
 0.5865578001184E-02 -0.1082816047539E-01
 0.6440510461076E-02 -0.1153723892787E-01
 0.7042011634450E-02 -0.1224510626529E-01
 0.7670397104268E-02 -0.1295206964714E-01
 0.8326043896997E-02 -0.1365843173190E-01
 0.9009398934879E-02 -0.1436440673110E-01
 0.9721087371288E-02 -0.1507011685999E-01
 0.1046201494246E-01 -0.1577554470328E-01
 0.1123349165530E-01 -0.1648049007741E-01
 0.1203738471276E-01 -0.1718472084552E-01
 0.1287632330627E-01 -0.1788883849360E-01
 0.1375361763251E-01 -0.1859395034342E-01
 0.1467316543152E-01 -0.1930109241594E-01
 0.1563947881916E-01 -0.2001084831681E-01
 0.1665786441406E-01 -0.2072317404013E-01
 0.1773472404366E-01 -0.2143738113429E-01
 0.1887796951069E-01 -0.2215220100168E-01
 0.2009752632805E-01 -0.2286587891552E-01
 0.2140597774071E-01 -0.2357632826223E-01
 0.2281944705289E-01 -0.2428009020915E-01
 0.2435860376946E-01 -0.2497231853778E-01
 0.2604885515931E-01 -0.2565013011774E-01
 0.2791761974003E-01 -0.2631678837013E-01
 0.2998420355881E-01 -0.2698791634668E-01
 0.3223740576741E-01 -0.2769500302026E-01
 0.3460563187285E-01 -0.2847527710512E-01
 0.2300182321772E-03 -0.7004844517181E-03
 0.5114266335269E-03 -0.1425556528737E-02
 0.8235394204224E-03 -0.2169094525293E-02
 0.1153122992238E-02 -0.2922163408661E-02
 0.1495215073842E-02 -0.3677356825939E-02
 0.1849821194360E-02 -0.4430314698958E-02
 0.2218928320647E-02 -0.5179112464653E-02
 0.2604933299229E-02 -0.5923219030658E-02
 0.3010036965674E-02 -0.6662764725981E-02
 0.3436079578109E-02 -0.7398156674724E-02
 0.3884536459445E-02 -0.8129896716338E-02
 0.4356563452722E-02 -0.8858500797399E-02
 0.4853054926823E-02 -0.9584469986408E-02
 0.5374698038955E-02 -0.1030828140406E-01
 0.5922021889873E-02 -0.1103038912139E-01
 0.6495443432920E-02 -0.1175122974955E-01
 0.7095316484511E-02 -0.1247123325472E-01
 0.7721946022225E-02 -0.1319078818844E-01
 0.8375688147686E-02 -0.1391029478718E-01
 0.9056956107409E-02 -0.1463008291838E-01
 0.9766327215914E-02 -0.1535040914795E-01
 0.1050464873272E-01 -0.1607140515125E-01
 0.1127317257647E-01 -0.1679302831335E-01
 0.1207372494006E-01 -0.1751521368987E-01
 0.1290892820978E-01 -0.1823876715468E-01
 0.1378210339366E-01 -0.1896503205581E-01
 0.1469714880202E-01 -0.1969529753296E-01
 0.1565854843566E-01 -0.2043040475289E-01
 0.1667155102860E-01 -0.2117056189117E-01
 0.1774248653912E-01 -0.2191531870392E-01
 0.1887920961408E-01 -0.2266361605504E-01
 0.2009164874211E-01 -0.2341384273013E-01
 0.2139253955191E-01 -0.2416390266722E-01
 0.2279850792179E-01 -0.2490992185859E-01
 0.2433158028320E-01 -0.2564582689287E-01
 0.2602044487275E-01 -0.2636631481576E-01
 0.2789941267157E-01 -0.2707108478826E-01
 0.2999941631107E-01 -0.2777293657269E-01
 0.3232204388407E-01 -0.2850553935515E-01
 0.3479653689073E-01 -0.2931523045001E-01
 0.2474752223061E-03 -0.7180485527365E-03
 0.5461073125084E-03 -0.1462584735710E-02
 0.8713595428822E-03 -0.2225586703251E-02
 0.1209260805972E-02 -0.2996299318986E-02
 0.1556008034765E-02 -0.3766789135826E-02
 0.1912968159411E-02 -0.4533103473193E-02
 0.2283071404758E-02 -0.5293949520973E-02
 0.2669264107836E-02 -0.6049313317688E-02
 0.3074054461465E-02 -0.6799680417903E-02
 0.3499456298203E-02 -0.7545691120992E-02
 0.3947044887683E-02 -0.8288000643757E-02
 0.4418034761837E-02 -0.9027229110041E-02
 0.4913355220672E-02 -0.9763953274617E-02
 0.5433714046159E-02 -0.1049871126945E-01
 0.5979651648239E-02 -0.1123201303629E-01
 0.6551589321871E-02 -0.1196435300727E-01
 0.7149878809378E-02 -0.1269622686827E-01
 0.7774815764163E-02 -0.1342810157974E-01
 0.8426737193570E-02 -0.1416047468148E-01
 0.9106024028208E-02 -0.1489379555089E-01
 0.9813204923552E-02 -0.1562846458122E-01
 0.1054906417801E-01 -0.1636477814321E-01
 0.1131478837543E-01 -0.1710287178210E-01
 0.1211215660945E-01 -0.1784287138753E-01
 0.1294378291618E-01 -0.1858581177991E-01
 0.1381299998308E-01 -0.1933329876424E-01
 0.1472370424046E-01 -0.2008690557771E-01
 0.1568034087416E-01 -0.2084777045009E-01
 0.1668807892541E-01 -0.2161640771924E-01
 0.1775314102896E-01 -0.2239268238619E-01
 0.1888326955925E-01 -0.2317585745370E-01
 0.2008830545263E-01 -0.2396463129334E-01
 0.2138097833444E-01 -0.2475713828038E-01
 0.2277813564925E-01 -0.2554941630841E-01
 0.2430269731106E-01 -0.2633453151859E-01
 0.2598604636400E-01 -0.2710490666074E-01
 0.2786926607488E-01 -0.2785598201961E-01
 0.2999689824026E-01 -0.2859576423244E-01
 0.3238897765600E-01 -0.2935833586072E-01
 0.3498136041438E-01 -0.3020082170791E-01
 0.2669665490850E-03 -0.7370779743493E-03
 0.5844997703469E-03 -0.1502686764181E-02
 0.9232506766824E-03 -0.2286156880198E-02
 0.1268966562938E-02 -0.3074612032161E-02
 0.1619678319977E-02 -0.3859909245768E-02
 0.1978419069042E-02 -0.4638900973626E-02
 0.2349106982734E-02 -0.5411134033136E-02
 0.2735204947773E-02 -0.6177174409680E-02
 0.3139491325231E-02 -0.6937867631276E-02
 0.3564125584447E-02 -0.7694074483608E-02
 0.4010763763502E-02 -0.8446587059259E-02
 0.4480666499240E-02 -0.9196114006412E-02
 0.4974790054319E-02 -0.9943294274200E-02
 0.5493858065782E-02 -0.1068871573467E-01
 0.6038419769887E-02 -0.1143293486108E-01
 0.6608900055651E-02 -0.1217649619799E-01
 0.7205649270207E-02 -0.1291995492591E-01
 0.7828955655684E-02 -0.1366385186439E-01
 0.8479139975091E-02 -0.1440877972758E-01
 0.9156553732379E-02 -0.1515530936821E-01
 0.9861677861695E-02 -0.1590399328492E-01
 0.1059523035001E-01 -0.1665530844732E-01
 0.1135832518449E-01 -0.1740959097613E-01
 0.1215268810502E-01 -0.1816718361849E-01
 0.1298092435654E-01 -0.1892937621529E-01
 0.1384638157326E-01 -0.1969806307441E-01
 0.1475295476585E-01 -0.2047512987049E-01
 0.1570504293451E-01 -0.2126204710096E-01
 0.1670771804642E-01 -0.2205968461646E-01
 0.1776706665861E-01 -0.2286829616517E-01
 0.1889067450450E-01 -0.2368757910331E-01
 0.2008822039914E-01 -0.2451671537755E-01
 0.2137228738175E-01 -0.2535433869884E-01
 0.2275966914920E-01 -0.2619680527173E-01
 0.2427365879386E-01 -0.2703688575107E-01
 0.2594747510556E-01 -0.2786527455137E-01
 0.2782817754706E-01 -0.2867288298821E-01
 0.2997526680434E-01 -0.2946062503220E-01
 0.3243420627375E-01 -0.3025976864430E-01
 0.3515743522710E-01 -0.3113944060307E-01
 0.2890095051282E-03 -0.7581017019053E-03
 0.6273368822736E-03 -0.1546832572373E-02
 0.9796625820561E-03 -0.2351795722557E-02
 0.1332357057587E-02 -0.3157794035144E-02
 0.1686172001475E-02 -0.3957096107637E-02
 0.2046068752391E-02 -0.4747882298387E-02
 0.2416926377623E-02 -0.5530727311286E-02
 0.2802657843205E-02 -0.6306801234034E-02
 0.3206262945166E-02 -0.7077291216064E-02
 0.3630014751688E-02 -0.7843252883025E-02
 0.4075629658336E-02 -0.8605591173390E-02
 0.4544401717533E-02 -0.9365083248912E-02
 0.5037306439610E-02 -0.1012241411582E-01
 0.5555078888483E-02 -0.1087820836993E-01
 0.6098274984458E-02 -0.1163305836102E-01
 0.6667322797347E-02 -0.1238754984341E-01
 0.7262572336443E-02 -0.1314228995854E-01
 0.7884306890546E-02 -0.1389788719187E-01
 0.8532834779809E-02 -0.1465502514422E-01
 0.9208482622297E-02 -0.1541439557355E-01
 0.9911686796894E-02 -0.1617670933560E-01
 0.1064309734185E-01 -0.1694263977547E-01
 0.1140374848729E-01 -0.1771274830322E-01
 0.1219530586343E-01 -0.1848762411708E-01
 0.1302036628763E-01 -0.1926884078310E-01
 0.1388229776796E-01 -0.2005860691357E-01
 0.1478499695977E-01 -0.2085914502740E-01
 0.1573281249976E-01 -0.2167228632577E-01
 0.1673070658027E-01 -0.2249929777992E-01
 0.1778460833136E-01 -0.2334088801638E-01
 0.1890191506688E-01 -0.2419729450166E-01
 0.2009209030047E-01 -0.2506835404636E-01
 0.2136746030582E-01 -0.2595348081336E-01
 0.2274452228668E-01 -0.2684980970802E-01
 0.2424642840175E-01 -0.2775055415425E-01
 0.2590718437402E-01 -0.2864571724746E-01
 0.2777820150314E-01 -0.2952226689982E-01
 0.2993388746432E-01 -0.3037188678677E-01
 0.3245290255894E-01 -0.3121778025015E-01
 0.3532068293834E-01 -0.3214075666138E-01
 0.3143447223687E-03 -0.7819244562673E-03
 0.6755395347159E-03 -0.1596397724676E-02
 0.1041022205742E-02 -0.2423746159544E-02
 0.1399444668428E-02 -0.3246584102861E-02
 0.1755354437958E-02 -0.4058687819193E-02
 0.2115765789934E-02 -0.4860172957475E-02
 0.2486394961131E-02 -0.5652749751799E-02
 0.2871510149173E-02 -0.6438161408692E-02
 0.3274276434123E-02 -0.7217893242948E-02
 0.3697046294943E-02 -0.7993156456469E-02
 0.4141576092100E-02 -0.8764937480013E-02
 0.4609181181495E-02 -0.9534058010417E-02
 0.5100849224417E-02 -0.1030123065128E-01
 0.5617322816466E-02 -0.1106710222286E-01
 0.6159162840781E-02 -0.1183228917829E-01
 0.6726800472298E-02 -0.1259740852767E-01
 0.7320586753723E-02 -0.1336311061723E-01
 0.7940802888068E-02 -0.1413006375332E-01
 0.8587749331718E-02 -0.1489903573078E-01
 0.9261734002017E-02 -0.1567083535876E-01
 0.9963154625197E-02 -0.1644633483929E-01
 0.1069259425757E-01 -0.1722641863538E-01
 0.1145100070407E-01 -0.1801190093255E-01
 0.1223997189484E-01 -0.1880365242051E-01
 0.1306209693076E-01 -0.1960356375978E-01
 0.1392077121491E-01 -0.2041418401959E-01
 0.1481989797286E-01 -0.2123809147866E-01
 0.1576377406287E-01 -0.2207749659916E-01
 0.1675724399929E-01 -0.2293409376974E-01
 0.1780606588656E-01 -0.2380910145573E-01
 0.1891743008091E-01 -0.2470339081226E-01
 0.2010055642894E-01 -0.2561761020571E-01
 0.2136744580627E-01 -0.2655222535990E-01
 0.2273411242944E-01 -0.2750562879187E-01
 0.2422312795983E-01 -0.2847231797117E-01
 0.2586823003957E-01 -0.2944310185089E-01
 0.2772278520650E-01 -0.3040293775701E-01
 0.2987364668914E-01 -0.3133344361982E-01
 0.3243958091381E-01 -0.3224224258338E-01
 0.3546469824725E-01 -0.3321784314046E-01
 0.3440725941342E-03 -0.8098283787558E-03
 0.7302430866822E-03 -0.1653372099580E-02
 0.1107644879587E-02 -0.2503525361575E-02
 0.1470080983329E-02 -0.3341697921267E-02
 0.1827000029530E-02 -0.4164936600278E-02
 0.2187314181383E-02 -0.4975830392993E-02
 0.2557354624055E-02 -0.5777171239436E-02
 0.2941637126777E-02 -0.6571186254201E-02
 0.3343432785067E-02 -0.7359590616530E-02
 0.3765139560595E-02 -0.8143698236376E-02
 0.4208534842356E-02 -0.8924539359101E-02
 0.4674944406709E-02 -0.9702952901021E-02
 0.5165361945208E-02 -0.1047965875926E-01
 0.5680534394716E-02 -0.1125531034451E-01
 0.6221026365773E-02 -0.1203053557286E-01
 0.6787272389613E-02 -0.1280597189533E-01
 0.7379626145031E-02 -0.1358230302410E-01
 0.7998369852196E-02 -0.1436024766733E-01
 0.8643801166293E-02 -0.1514064860317E-01
 0.9316216894197E-02 -0.1592442380730E-01
 0.1001598517243E-01 -0.1671260479743E-01
 0.1074362694658E-01 -0.1750629905580E-01
 0.1149999834240E-01 -0.1830660401477E-01
 0.1228662098621E-01 -0.1911471524970E-01
 0.1310607667581E-01 -0.1993288213342E-01
 0.1396179572040E-01 -0.2076402201207E-01
 0.1485769328580E-01 -0.2161108032393E-01
 0.1579801501814E-01 -0.2247665138388E-01
 0.1678748479103E-01 -0.2336287176759E-01
 0.1783168402189E-01 -0.2427151005438E-01
 0.1893759025085E-01 -0.2520414789894E-01
 0.2011417626888E-01 -0.2616237641404E-01
 0.2137309816650E-01 -0.2714794634883E-01
 0.2272977720899E-01 -0.2816096104359E-01
 0.2420588420880E-01 -0.2919805610858E-01
 0.2583407231913E-01 -0.3025256592199E-01
 0.2766698463204E-01 -0.3131096177347E-01
 0.2979815911513E-01 -0.3234733893758E-01
 0.3238886328383E-01 -0.3334509298433E-01
 0.3557923254708E-01 -0.3438900444228E-01
 0.3798973073474E-03 -0.8439782642526E-03
 0.7927730590860E-03 -0.1720682442256E-02
 0.1179567473439E-02 -0.2592864781434E-02
 0.1543901193618E-02 -0.3443697370282E-02
 0.1900797312501E-02 -0.4275963581028E-02
 0.2260478945507E-02 -0.5094827977651E-02
 0.2629628013706E-02 -0.5903901555201E-02
 0.3012905756342E-02 -0.6705766836893E-02
 0.3413629548729E-02 -0.7502273272281E-02
 0.3834212734547E-02 -0.8294773438890E-02
 0.4276437440255E-02 -0.9084298981805E-02
 0.4741630819311E-02 -0.9871676199797E-02
 0.5230787773101E-02 -0.1065761080054E-01
 0.5744657226044E-02 -0.1144274642110E-01
 0.6283806813524E-02 -0.1222770923789E-01
 0.6848674975476E-02 -0.1301314569824E-01
 0.7439619765838E-02 -0.1379976215271E-01
 0.8056927566837E-02 -0.1458831688355E-01
 0.8700898386593E-02 -0.1537971602037E-01
 0.9371826331036E-02 -0.1617497428076E-01
 0.1007006223427E-01 -0.1697527317750E-01
 0.1079607544497E-01 -0.1778194885961E-01
 0.1155062847190E-01 -0.1859641474438E-01
 0.1233515735982E-01 -0.1942024750810E-01
 0.1315223584606E-01 -0.2025611140313E-01
 0.1400533509038E-01 -0.2110732395847E-01
 0.1489838555941E-01 -0.2197719870154E-01
 0.1583558303085E-01 -0.2286869890484E-01
 0.1682153313943E-01 -0.2378439729024E-01
 0.1786164337248E-01 -0.2472663512023E-01
 0.1896268364414E-01 -0.2569776207807E-01
 0.2013339804022E-01 -0.2670041027667E-01
 0.2138512658132E-01 -0.2773778417813E-01
 0.2273268510530E-01 -0.2881205908900E-01
 0.2419665572123E-01 -0.2992281211482E-01
 0.2580816984760E-01 -0.3106746542169E-01
 0.2761725423006E-01 -0.3223845408662E-01
 0.2971538983511E-01 -0.3341098825479E-01
 0.3229765936737E-01 -0.3453947504050E-01
 0.3564781600322E-01 -0.3568073324968E-01
 0.4245802534033E-03 -0.8883180837921E-03
 0.8644473210306E-03 -0.1802649038330E-02
 0.1256267958159E-02 -0.2693409557383E-02
 0.1620313227589E-02 -0.3552804635692E-02
 0.1976374564576E-02 -0.4391740048033E-02
 0.2334991968734E-02 -0.5217036739348E-02
 0.2703025781161E-02 -0.6032782401058E-02
 0.3085179501133E-02 -0.6841751710445E-02
 0.3484763907080E-02 -0.7645802845902E-02
 0.3904185112092E-02 -0.8446259300673E-02
 0.4345216773897E-02 -0.9244107453228E-02
 0.4809180992091E-02 -0.1004013024123E-01
 0.5297070504224E-02 -0.1083499712982E-01
 0.5809634826514E-02 -0.1162932539953E-01
 0.6347444460786E-02 -0.1242372605221E-01
 0.6910942574715E-02 -0.1321884272553E-01
 0.7500493370036E-02 -0.1401539303792E-01
 0.8116390382579E-02 -0.1481416285344E-01
 0.8758940809733E-02 -0.1561610791352E-01
 0.9428444313872E-02 -0.1642232283017E-01
 0.1012524912202E-01 -0.1723412015662E-01
 0.1084979106062E-01 -0.1805305800256E-01
 0.1160274404024E-01 -0.1888089742356E-01
 0.1238545031204E-01 -0.1971967209699E-01
 0.1320047244354E-01 -0.2057254321960E-01
 0.1405132295897E-01 -0.2144326845997E-01
 0.1494194493559E-01 -0.2233551498805E-01
 0.1587648486306E-01 -0.2325257302577E-01
 0.1685943864684E-01 -0.2419741807463E-01
 0.1789605304302E-01 -0.2517296515806E-01
 0.1899290366295E-01 -0.2618237312995E-01
 0.2015854069232E-01 -0.2722937501501E-01
 0.2140405191145E-01 -0.2831872090627E-01
 0.2274373512200E-01 -0.2945483489963E-01
 0.2419708638889E-01 -0.3064089040911E-01
 0.2579347036395E-01 -0.3187972346643E-01
 0.2758030437320E-01 -0.3317294459636E-01
 0.2963908410291E-01 -0.3451224678077E-01
 0.3217039485321E-01 -0.3583560559255E-01
 0.3564459730982E-01 -0.3713211743606E-01
 0.4828044284427E-03 -0.9508416795988E-03
 0.9458391248909E-03 -0.1905354828304E-02
 0.1336311259856E-02 -0.2805823814932E-02
 0.1698630224152E-02 -0.3668826432572E-02
 0.2053317730316E-02 -0.4512096378490E-02
 0.2410559747315E-02 -0.5342191940183E-02
 0.2777358904470E-02 -0.6163590644096E-02
 0.3158322410108E-02 -0.6978943399835E-02
 0.3556736703904E-02 -0.7790013198709E-02
 0.3974979418146E-02 -0.8598015334091E-02
 0.4414808884308E-02 -0.9403845474878E-02
 0.4877537970777E-02 -0.1020821212759E-01
 0.5364155646586E-02 -0.1101172688614E-01
 0.5875411573245E-02 -0.1181496434545E-01
 0.6411879507389E-02 -0.1261850703915E-01
 0.6974008378753E-02 -0.1342298391607E-01
 0.7562170248489E-02 -0.1422911213290E-01
 0.8176668446699E-02 -0.1503769232158E-01
 0.8817821549749E-02 -0.1584971439017E-01
 0.9485941777054E-02 -0.1666633259486E-01
 0.1018138940809E-01 -0.1748896111228E-01
 0.1090459331041E-01 -0.1831935104707E-01
 0.1165615731955E-01 -0.1915963120547E-01
 0.1243732813004E-01 -0.2001239844540E-01
 0.1325064993514E-01 -0.2088144042253E-01
 0.1409966412040E-01 -0.2177100853671E-01
 0.1498831137140E-01 -0.2268508462690E-01
 0.1592068714680E-01 -0.2362720642919E-01
 0.1690119361773E-01 -0.2460068360814E-01
 0.1793494358127E-01 -0.2560897952652E-01
 0.1902834210297E-01 -0.2665609052586E-01
 0.2018977681345E-01 -0.2774689268229E-01
 0.2143018758322E-01 -0.2888765166887E-01
 0.2276345124544E-01 -0.3008506830185E-01
 0.2420833910645E-01 -0.3134595788715E-01
 0.2579220420914E-01 -0.3268026500996E-01
 0.2756076016478E-01 -0.3409896425186E-01
 0.2958748220441E-01 -0.3562312942157E-01
 0.3203006843226E-01 -0.3722680610878E-01
 0.3553222186216E-01 -0.3879932808701E-01
 0.5627610297067E-03 -0.1050614258280E-02
 0.1034393953407E-02 -0.2034872071635E-02
 0.1417477986162E-02 -0.2928127021766E-02
 0.1778381031719E-02 -0.3791761295527E-02
 0.2131083618704E-02 -0.4636484019372E-02
 0.2486922408524E-02 -0.5469947632338E-02
 0.2852436230412E-02 -0.6296022068605E-02
 0.3232208543913E-02 -0.7117102554169E-02
 0.3629455273345E-02 -0.7934710381466E-02
 0.4046524533115E-02 -0.8749884416939E-02
 0.4485154640912E-02 -0.9563384118379E-02
 0.4946648580807E-02 -0.1037581448204E-01
 0.5431991447301E-02 -0.1118770866950E-01
 0.5941933601860E-02 -0.1199958308806E-01
 0.6477052932200E-02 -0.1281197901480E-01
 0.7037805326313E-02 -0.1362549906155E-01
 0.7624572269138E-02 -0.1444084813676E-01
 0.8237669024351E-02 -0.1525882842049E-01
 0.8877428743622E-02 -0.1608044742067E-01
 0.9544181463542E-02 -0.1690689639209E-01
 0.1023830991891E-01 -0.1773965534413E-01
 0.1096026723142E-01 -0.1858060548826E-01
 0.1171062976338E-01 -0.1943222158288E-01
 0.1249056871179E-01 -0.2029781635877E-01
 0.1330259510828E-01 -0.2118202607580E-01
 0.1415023790904E-01 -0.2208966694712E-01
 0.1503739940451E-01 -0.2302495459111E-01
 0.1596811963301E-01 -0.2399154382635E-01
 0.1694673191320E-01 -0.2499296667306E-01
 0.1797826096377E-01 -0.2603317397097E-01
 0.1906898028288E-01 -0.2711701800889E-01
 0.2022714131620E-01 -0.2825057737370E-01
 0.2146359072944E-01 -0.2944152245927E-01
 0.2279204847565E-01 -0.3069845664193E-01
 0.2423058061465E-01 -0.3203185643583E-01
 0.2580637803802E-01 -0.3345795681699E-01
 0.2755939785486E-01 -0.3500301923308E-01
 0.2957332209370E-01 -0.3670003406690E-01
 0.3193467266007E-01 -0.3865377195033E-01
 0.3527403278529E-01 -0.4073818999534E-01
 0.1072639748612E-01 -0.9172320500238E-02
-0.1735772099476E-02 -0.1440404724204E-01
-0.1113802440868E-01 -0.2061704792041E-01
-0.1777482203295E-01 -0.2777657781845E-01
-0.2190280041632E-01 -0.3582489541012E-01
-0.2375376673657E-01 -0.4468564158534E-01
-0.2354337097220E-01 -0.5427133813139E-01
-0.2146855953392E-01 -0.6449012869729E-01
-0.1770445002676E-01 -0.7525263155272E-01
-0.1240089939104E-01 -0.8647827938975E-01
-0.5683074836137E-02 -0.9809955156950E-01
 0.2341616539598E-02 -0.1100609185366E+00
 0.1157567149260E-01 -0.1223126148411E+00
 0.2192763328921E-01 -0.1348042457954E+00
 0.3331344807041E-01 -0.1474816609301E+00
 0.4566245380913E-01 -0.1602868062693E+00
 0.5892386130193E-01 -0.1731541146734E+00
 0.7304803453527E-01 -0.1860173187127E+00
 0.8800037324269E-01 -0.1988146243987E+00
 0.1146237097399E-01 -0.9629965679021E-02
-0.4066476038420E-03 -0.1502670268966E-01
-0.9213200969828E-02 -0.2147741312353E-01
-0.1526538740946E-01 -0.2893931557458E-01
-0.1882910198427E-01 -0.3734775621544E-01
-0.2014323883236E-01 -0.4662266190775E-01
-0.1942731901504E-01 -0.5667433582758E-01
-0.1688048829943E-01 -0.6740914952213E-01
-0.1267906202567E-01 -0.7873552280744E-01
-0.6973646741343E-02 -0.9057029965809E-01
 0.1101017744077E-03 -0.1028430972419E+00
 0.8464591211871E-02 -0.1154953467098E+00
 0.1799226473791E-01 -0.1284745398764E+00
 0.2860177626711E-01 -0.1417283845106E+00
 0.4020960074268E-01 -0.1552018586821E+00
 0.5274528831587E-01 -0.1688357614475E+00
 0.6615511679590E-01 -0.1825634141488E+00
 0.8039032399514E-01 -0.1963116252240E+00
 0.9539982182909E-01 -0.2099839672329E+00
 0.1225472088082E-01 -0.1008831297112E-01
 0.1017824379562E-02 -0.1564696489088E-01
-0.7163400462208E-02 -0.2233885050757E-01
-0.1260614099297E-01 -0.3010768209550E-01
-0.1558436567928E-01 -0.3888197751961E-01
-0.1634262867852E-01 -0.4857733082751E-01
-0.1510376698391E-01 -0.5910135438854E-01
-0.1206890904187E-01 -0.7035833665267E-01
-0.7415535642906E-02 -0.8225472732979E-01
-0.1294955246839E-02 -0.9470518403094E-01
 0.6166735466363E-02 -0.1076368533160E+00
 0.1486180689801E-01 -0.1209885245720E+00
 0.2469279185679E-01 -0.1347052142519E+00
 0.3556866506248E-01 -0.1487326286253E+00
 0.4740630001197E-01 -0.1630138958119E+00
 0.6013465687355E-01 -0.1774874821087E+00
 0.7369683020425E-01 -0.1920832722931E+00
 0.8803771015459E-01 -0.2067188724167E+00
 0.1030951733062E+00 -0.2212979408388E+00
 0.1310118744978E-01 -0.1054860306865E-01
 0.2536067009098E-02 -0.1626818681593E-01
-0.4989076895721E-02 -0.2320214176687E-01
-0.9797367930943E-02 -0.3128104926153E-01
-0.1216867372848E-01 -0.4042526189251E-01
-0.1235204466449E-01 -0.5054562367364E-01
-0.1057297121294E-01 -0.6154665946917E-01
-0.7034219281276E-02 -0.7333044443444E-01
-0.1914253655692E-02 -0.8580154832759E-01
 0.4635002288410E-02 -0.9887270276716E-01
 0.1248706398367E-01 -0.1124688789903E+00
 0.2153409036535E-01 -0.1265264696803E+00
 0.3167874682173E-01 -0.1409881085591E+00
 0.4283028889106E-01 -0.1557972643379E+00
 0.5490562638397E-01 -0.1708947396569E+00
 0.6783253160166E-01 -0.1862162011354E+00
 0.8154973450330E-01 -0.2016881597094E+00
 0.9599651975222E-01 -0.2172270631239E+00
 0.1111057966794E+00 -0.2327420077911E+00
 0.1400019096377E-01 -0.1101177287053E-01
 0.4146349963243E-02 -0.1689167783439E-01
-0.2691560262256E-02 -0.2406808047495E-01
-0.6840055611745E-02 -0.3245866074659E-01
-0.8582928615139E-02 -0.4197530278993E-01
-0.8172418681853E-02 -0.5252356212768E-01
-0.5835968582444E-02 -0.6400460844112E-01
-0.1777538399081E-02 -0.7631819464046E-01
 0.3823681890325E-02 -0.8936706987348E-01
 0.1081528922822E-01 -0.1030622034548E+00
 0.1907046473528E-01 -0.1173265830791E+00
 0.2848124761072E-01 -0.1320943491414E+00
 0.3895038742766E-01 -0.1473057756014E+00
 0.5038726772160E-01 -0.1629019909906E+00
 0.6270851646678E-01 -0.1788214110637E+00
 0.7584025721626E-01 -0.1949973031637E+00
 0.8971738446403E-01 -0.2113551254083E+00
 0.1042755455703E+00 -0.2278133071294E+00
 0.1194464010315E+00 -0.2442878502202E+00
 0.1495036546989E-01 -0.1147829881199E-01
 0.5846827496920E-02 -0.1751822688809E-01
-0.2726760542715E-03 -0.2493693656465E-01
-0.3735903151432E-02 -0.3363967149690E-01
-0.4828779363109E-02 -0.4352975830947E-01
-0.3805459126971E-02 -0.5450720026777E-01
-0.8945609460464E-03 -0.6646958638079E-01
 0.3699259649551E-02 -0.7931426865300E-01
 0.9796400768903E-02 -0.9294220515915E-01
 0.1724414604339E-01 -0.1072627052433E+00
 0.2591539709096E-01 -0.1221968914592E+00
 0.3570203933444E-01 -0.1376767416767E+00
 0.4650681584795E-01 -0.1536402156005E+00
 0.5823909052953E-01 -0.1700261665254E+00
 0.7081501805288E-01 -0.1867709149083E+00
 0.8415917778030E-01 -0.2038063174566E+00
 0.9820369048826E-01 -0.2210583193129E+00
 0.1128824220114E+00 -0.2384488018468E+00
 0.1281280623534E+00 -0.2559004783126E+00
 0.1595039803660E-01 -0.1194851929114E-01
 0.7635488888021E-02 -0.1814827483395E-01
 0.2265308069788E-02 -0.2580868654578E-01
-0.4872503922885E-03 -0.3482305000632E-01
-0.9086230960615E-03 -0.4508623565697E-01
 0.7463371012490E-03 -0.5649258167302E-01
 0.4248637665596E-02 -0.6893596837908E-01
 0.9393468007347E-02 -0.8231128490136E-01
 0.1600116130861E-01 -0.9651771123915E-01
 0.2391887612908E-01 -0.1114629566187E+00
 0.3301929267508E-01 -0.1270663531766E+00
 0.4319410266508E-01 -0.1432577903317E+00
 0.5434595829518E-01 -0.1599730086099E+00
 0.6638411890714E-01 -0.1771487881599E+00
 0.7922429164778E-01 -0.1947198472349E+00
 0.9278992453929E-01 -0.2126174982655E+00
 0.1070115091455E+00 -0.2307691427016E+00
 0.1218226335341E+00 -0.2491006210455E+00
 0.1371584449383E+00 -0.2675408697695E+00
 0.1699894277327E-01 -0.1242269784431E-01
 0.9510127096939E-02 -0.1878207973754E-01
 0.4919723049508E-02 -0.2668310354374E-01
 0.2902990342397E-02 -0.3600763320921E-01
 0.3174461961807E-02 -0.4664228946733E-01
 0.5479733094187E-02 -0.5847575378312E-01
 0.9590237771310E-02 -0.7139814395289E-01
 0.1530156970482E-01 -0.8530185115861E-01
 0.2243436559014E-01 -0.1000842799209E+00
 0.3083586269209E-01 -0.1156515729272E+00
 0.4037858672812E-01 -0.1319213234483E+00
 0.5095400886253E-01 -0.1488214082980E+00
 0.6246464126278E-01 -0.1662854858676E+00
 0.7481964709834E-01 -0.1842485380396E+00
 0.8793446984387E-01 -0.2026441669501E+00
 0.1017319737626E+00 -0.2214037966743E+00
 0.1161420712209E+00 -0.2404568133309E+00
 0.1310992466645E+00 -0.2597331005003E+00
 0.1465420685385E+00 -0.2791672782234E+00
 0.1809456742836E-01 -0.1290106209605E-01
 0.1146830221587E-01 -0.1941978652937E-01
 0.7687497441931E-02 -0.2755982793399E-01
 0.6431353962872E-02 -0.3719215933059E-01
 0.7416734099901E-02 -0.4819543394694E-01
 0.1039075524075E-01 -0.6045276982024E-01
 0.1512605918738E-01 -0.7385052888626E-01
 0.2141920608142E-01 -0.8827859328787E-01
 0.2909151524144E-01 -0.1036325916025E+00
 0.3799051875319E-01 -0.1198171174358E+00
 0.4798866884460E-01 -0.1367480643077E+00
 0.5897721429408E-01 -0.1543513751829E+00
 0.7085852653219E-01 -0.1725587817379E+00
 0.8354176210825E-01 -0.1913037427794E+00
 0.9694237984226E-01 -0.2105191504610E+00
 0.1109832387713E+00 -0.2301369840664E+00
 0.1255945793532E+00 -0.2500888646647E+00
 0.1407126951733E+00 -0.2703085906778E+00
 0.1562802438085E+00 -0.2907359087539E+00
 0.1923572068102E-01 -0.1338382204733E-01
 0.1350731819781E-01 -0.2006147191429E-01
 0.1056515808822E-01 -0.2843841631375E-01
 0.1009384226988E-01 -0.3837530774430E-01
 0.1181381457106E-01 -0.4974317088014E-01
 0.1547471609113E-01 -0.6241971658300E-01
 0.2085114657063E-01 -0.7628760334685E-01
 0.2774118541941E-01 -0.9123421357891E-01
 0.3596721628004E-01 -0.1071533990311E+00
 0.4537729186867E-01 -0.1239482111734E+00
 0.5584388881784E-01 -0.1415328731559E+00
 0.6725806144597E-01 -0.1598314685336E+00
 0.7952208596878E-01 -0.1787739493427E+00
 0.9254526076271E-01 -0.1982924876545E+00
 0.1062433851838E+00 -0.2183195679843E+00
 0.1205398704594E+00 -0.2387879958871E+00
 0.1353660485498E+00 -0.2596316976225E+00
 0.1506607245698E+00 -0.2807881467489E+00
 0.1663710988520E+00 -0.3022016524245E+00
 0.2042071779935E-01 -0.1387118277094E-01
 0.1562421681351E-01 -0.2070717467988E-01
 0.1354884155128E-01 -0.2931838042127E-01
 0.1388595005605E-01 -0.3955573668074E-01
 0.1636071976338E-01 -0.5128302451207E-01
 0.2072624410836E-01 -0.6437275098179E-01
 0.2675979196776E-01 -0.7870395773391E-01
 0.3426149698978E-01 -0.9416155205261E-01
 0.4305518522411E-01 -0.1106376074749E+00
 0.5298966282311E-01 -0.1280336309395E+00
 0.6393754562144E-01 -0.1462621929553E+00
 0.7578974978714E-01 -0.1652455779633E+00
 0.8844853934993E-01 -0.1849120787679E+00
 0.1018235399798E+00 -0.2051927597629E+00
 0.1158312306548E+00 -0.2260198984429E+00
 0.1303960873679E+00 -0.2473272623862E+00
 0.1454511660460E+00 -0.2690510333590E+00
 0.1609383164030E+00 -0.2911320615376E+00
 0.1768095580090E+00 -0.3135186695219E+00
 0.2164772475748E-01 -0.1436334857005E-01
 0.1781576313186E-01 -0.2135691279137E-01
 0.1663428888355E-01 -0.3019921291678E-01
 0.1780266931078E-01 -0.4073211247687E-01
 0.2105187054467E-01 -0.5281257263883E-01
 0.2613929307204E-01 -0.6630813590763E-01
 0.3284554122197E-01 -0.8109433841260E-01
 0.4097331352025E-01 -0.9705364700422E-01
 0.5034824778372E-01 -0.1140763530250E+00
 0.6082014017965E-01 -0.1320624057297E+00
 0.7226187500478E-01 -0.1509227252010E+00
 0.8456431015792E-01 -0.1705778349016E+00
 0.9762980745119E-01 -0.1909544517690E+00
 0.1113685246332E+00 -0.2119826491811E+00
 0.1256979531745E+00 -0.2335946068741E+00
 0.1405440921475E+00 -0.2557250844590E+00
 0.1558422399127E+00 -0.2783123855164E+00
 0.1715376873696E+00 -0.3013004053867E+00
 0.1875874087434E+00 -0.3246409653335E+00
 0.2291475845670E-01 -0.1486052910956E-01
 0.2007845386192E-01 -0.2201070051125E-01
 0.1981686622688E-01 -0.3108041455894E-01
 0.2183852119843E-01 -0.4190314424799E-01
 0.2588113164723E-01 -0.5432948791673E-01
 0.3170718413680E-01 -0.6822228988242E-01
 0.3910123517428E-01 -0.8345370902041E-01
 0.4786902940872E-01 -0.9990381129862E-01
 0.5783837267769E-01 -0.1174610961688E+00
 0.6886028790525E-01 -0.1360239286112E+00
 0.8080806775031E-01 -0.1555015611102E+00
 0.9357260918474E-01 -0.1758127668426E+00
 0.1070564988095E+00 -0.1968827289452E+00
 0.1211706373544E+00 -0.2186405857715E+00
 0.1358338433417E+00 -0.2410184496689E+00
 0.1509740407377E+00 -0.2639520187229E+00
 0.1665291908286E+00 -0.2873815216049E+00
 0.1824483129649E+00 -0.3112535427372E+00
 0.1986933609564E+00 -0.3355229073580E+00
 0.2421968496263E-01 -0.1536294146890E-01
 0.2240851998476E-01 -0.2266855916406E-01
 0.2309157508549E-01 -0.3196151419638E-01
 0.2598757380765E-01 -0.4306761197266E-01
 0.3084183445689E-01 -0.5583157361470E-01
 0.3742263049201E-01 -0.7011183163761E-01
 0.4551903366035E-01 -0.8577730618901E-01
 0.5494028235596E-01 -0.1027057018514E+00
 0.6551668963910E-01 -0.1207837073527E+00
 0.7710073830584E-01 -0.1399080605391E+00
 0.8956627554788E-01 -0.1599863067799E+00
 0.1028043460684E+00 -0.1809354496281E+00
 0.1167178969420E+00 -0.2026791390170E+00
 0.1312187794450E+00 -0.2251455787897E+00
 0.1462274283726E+00 -0.2482667777037E+00
 0.1616740389312E+00 -0.2719792521975E+00
 0.1774995714641E+00 -0.2962249099477E+00
 0.1936569719365E+00 -0.3209526456365E+00
 0.2101131142902E+00 -0.3461198044104E+00
 0.2556022262306E-01 -0.1587081206420E-01
 0.2480193611825E-01 -0.2333052683791E-01
 0.2645306961964E-01 -0.3284208776478E-01
 0.3024346681717E-01 -0.4422439469625E-01
 0.3592680691876E-01 -0.5731680103798E-01
 0.4327776982616E-01 -0.7197362766784E-01
 0.5209044825244E-01 -0.8806069896179E-01
 0.6217798468415E-01 -0.1054533930612E+00
 0.7337351800250E-01 -0.1240365567780E+00
 0.8553121669292E-01 -0.1437052393052E+00
 0.9852563064814E-01 -0.1643652153038E+00
 0.1122480667972E+00 -0.1859316689285E+00
 0.1266019704532E+00 -0.2083266784707E+00
 0.1415003411497E+00 -0.2314774651723E+00
 0.1568654900427E+00 -0.2553158430879E+00
 0.1726301770418E+00 -0.2797789744142E+00
 0.1887386246830E+00 -0.3048101616946E+00
 0.2051478306312E+00 -0.3303602142884E+00
 0.2218294724002E+00 -0.3563885266538E+00
 0.2693395192721E-01 -0.1638437969348E-01
 0.2725444042952E-01 -0.2399666885658E-01
 0.2989568682391E-01 -0.3372177839373E-01
 0.3459945073590E-01 -0.4537250091785E-01
 0.4112841962922E-01 -0.5878335058923E-01
 0.4926421473853E-01 -0.7380484482443E-01
 0.5880639479783E-01 -0.9029985437047E-01
 0.6957237631177E-01 -0.1081414572988E+00
 0.8139841887591E-01 -0.1272126121940E+00
 0.9414059189659E-01 -0.1474065977472E+00
 0.1076742943717E+00 -0.1686273297098E+00
 0.1218912113047E+00 -0.1907880938784E+00
 0.1366954211953E+00 -0.2138093234893E+00
 0.1520012554542E+00 -0.2376171681692E+00
 0.1677331309429E+00 -0.2621431123275E+00
 0.1838266163594E+00 -0.2873247514836E+00
 0.2002293967080E+00 -0.3131064721968E+00
 0.2169025883737E+00 -0.3394405956922E+00
 0.2338225217302E+00 -0.3662881123322E+00
 0.2833832193013E-01 -0.1690389600956E-01
 0.2976154803833E-01 -0.2466708469754E-01
 0.3341346692071E-01 -0.3460031208881E-01
 0.3904841339395E-01 -0.4651109390464E-01
 0.4643861686373E-01 -0.6022964718871E-01
 0.5537308655931E-01 -0.7560299656276E-01
 0.6565722857864E-01 -0.9249119571075E-01
 0.7711306025113E-01 -0.1107650369397E+00
 0.8958023046225E-01 -0.1303055270310E+00
 0.1029169114326E+00 -0.1510040711375E+00
 0.1169994928586E+00 -0.1727626138550E+00
 0.1317201516269E+00 -0.1954924369662E+00
 0.1469837281792E+00 -0.2191122253748E+00
 0.1627060528671E+00 -0.2435469352483E+00
 0.1788138468013E+00 -0.2687275532303E+00
 0.1952456863439E+00 -0.2945918677249E+00
 0.2119528660319E+00 -0.3210850229789E+00
 0.2289006436639E+00 -0.3481604514493E+00
 0.2460698348822E+00 -0.3757803070695E+00
 0.2977066574371E-01 -0.1742962862842E-01
 0.3231857927529E-01 -0.2534191778194E-01
 0.3700019270079E-01 -0.3547751683156E-01
 0.4358292831939E-01 -0.4763952131242E-01
 0.5184897171943E-01 -0.6165440106088E-01
 0.6159507507844E-01 -0.7736599557314E-01
 0.7263280686801E-01 -0.9463166802562E-01
 0.8478906678679E-01 -0.1133199241802E+00
 0.9790713328058E-01 -0.1333097366263E+00
 0.1118474678992E+00 -0.1544905126521E+00
 0.1264875856518E+00 -0.1767620908482E+00
 0.1417202648239E+00 -0.2000336200060E+00
 0.1574512283639E+00 -0.2242219093091E+00
 0.1735979550544E+00 -0.2492505750352E+00
 0.1900896391167E+00 -0.2750499149780E+00
 0.2068680229079E+00 -0.3015576530150E+00
 0.2238881134311E+00 -0.3287193595030E+00
 0.2411193003874E+00 -0.3564891877682E+00
 0.2585467130097E+00 -0.3848300482331E+00
 0.3122821390245E-01 -0.1796186269086E-01
 0.3492068412040E-01 -0.2602136319786E-01
 0.4064942326328E-01 -0.3635333903381E-01
 0.4819529592186E-01 -0.4875734159993E-01
 0.5735073288419E-01 -0.6305664474325E-01
 0.6792048926842E-01 -0.7909220197065E-01
 0.7972254243419E-01 -0.9671879833111E-01
 0.9258890916683E-01 -0.1158026345991E+00
 0.1063667081175E+00 -0.1362205470007E+00
 0.1209188600284E+00 -0.1578597999136E+00
 0.1361241315954E+00 -0.1806179706336E+00
 0.1518760065552E+00 -0.2044019266785E+00
 0.1680812019369E+00 -0.2291264561741E+00
 0.1846589769916E+00 -0.2547136727405E+00
 0.2015411401640E+00 -0.2810929809912E+00
 0.2186727224099E+00 -0.3082017759100E+00
 0.2360125102450E+00 -0.3359857260385E+00
 0.2535339939029E+00 -0.3643993321470E+00
 0.2712264505940E+00 -0.3934058834590E+00
 0.3270811175805E-01 -0.1850090339973E-01
 0.3756287323387E-01 -0.2670567645470E-01
 0.4435453599071E-01 -0.3722786107367E-01
 0.5287759394683E-01 -0.4986435161325E-01
 0.6293488139033E-01 -0.6443577132662E-01
 0.7433931858725E-01 -0.8078047265348E-01
 0.8691546821944E-01 -0.9875075673245E-01
 0.1005006511506E+00 -0.1182104810385E+00
 0.1149460066852E+00 -0.1390342229956E+00
 0.1301170675316E+00 -0.1611069394286E+00
 0.1458939698838E+00 -0.1843237733081E+00
 0.1621710013892E+00 -0.2085891477390E+00
 0.1788559760008E+00 -0.2338156728795E+00
 0.1958700490514E+00 -0.2599237887168E+00
 0.2131477590107E+00 -0.2868417982507E+00
 0.2306375169223E+00 -0.3145065051735E+00
 0.2483019272111E+00 -0.3428633593074E+00
 0.2661185362141E+00 -0.3718668580765E+00
 0.2840806181159E+00 -0.4014803255836E+00
 0.3420743897306E-01 -0.1904707890874E-01
 0.4024005239741E-01 -0.2739518256183E-01
 0.4810877262835E-01 -0.3810131903059E-01
 0.5762173234135E-01 -0.5096061417560E-01
 0.6859219192855E-01 -0.6579157240450E-01
 0.8084129900417E-01 -0.8243020990681E-01
 0.9420030701611E-01 -0.1007264160837E+00
 0.1085119800078E+00 -0.1205416450100E+00
 0.1236316284169E+00 -0.1417480725094E+00
 0.1394275330313E+00 -0.1642281651563E+00
 0.1557813094052E+00 -0.1878744439008E+00
 0.1725881428176E+00 -0.2125887141516E+00
 0.1897570394520E+00 -0.2382812460776E+00
 0.2072111516433E+00 -0.2648706347990E+00
 0.2248878410219E+00 -0.2922838777535E+00
 0.2427389631876E+00 -0.3204569347960E+00
 0.2607309561392E+00 -0.3493347370221E+00
 0.2788453726587E+00 -0.3788714541545E+00
 0.2970793554492E+00 -0.4090301409296E+00
 0.3572323068950E-01 -0.1960074351155E-01
 0.4294705971414E-01 -0.2809028542129E-01
 0.5190528866979E-01 -0.3897412060666E-01
 0.6241951162410E-01 -0.5204648561177E-01
 0.7431329771901E-01 -0.6712427555043E-01
 0.8741598264874E-01 -0.8404140892270E-01
 0.1015655449355E+00 -0.1026454096857E+00
 0.1166102836373E+00 -0.1227952449206E+00
 0.1324098019026E+00 -0.1443605258937E+00
 0.1488352493579E+00 -0.1672210300126E+00
 0.1657698243581E+00 -0.1912664571509E+00
 0.1831097005747E+00 -0.2163958164237E+00
 0.2007651662184E+00 -0.2425168773210E+00
 0.2186614591285E+00 -0.2695462263603E+00
 0.2367388372030E+00 -0.2974093640897E+00
 0.2549526412904E+00 -0.3260411708814E+00
 0.2732731402316E+00 -0.3553857803585E+00
 0.2916858441800E+00 -0.3853967375261E+00
 0.3101916674002E+00 -0.4160365607401E+00
 0.3725250066882E-01 -0.2016228133273E-01
 0.4567870609306E-01 -0.2879147782224E-01
 0.5573720675600E-01 -0.3984686358014E-01
 0.6726268557792E-01 -0.5312264356546E-01
 0.8008875979287E-01 -0.6843458164565E-01
 0.9405281189731E-01 -0.8561470448075E-01
 0.1089995093675E+00 -0.1045081871547E+00
 0.1247827323075E+00 -0.1249714011072E+00
 0.1412664711765E+00 -0.1468712103311E+00
 0.1583248520276E+00 -0.1700844899416E+00
 0.1758427554480E+00 -0.1944979117092E+00
 0.1937174339563E+00 -0.2200075093600E+00
 0.2118605448681E+00 -0.2465183986917E+00
 0.2301994903391E+00 -0.2739450089632E+00
 0.2486774800941E+00 -0.3022111729841E+00
 0.2672533593432E+00 -0.3312504794280E+00
 0.2859012088231E+00 -0.3610060102519E+00
 0.3046104509999E+00 -0.3914304147859E+00
 0.3233857109625E+00 -0.4224854384039E+00
 0.3879226676093E-01 -0.2073211074447E-01
 0.4842981964207E-01 -0.2949935234904E-01
 0.5959767491115E-01 -0.4072035516829E-01
 0.7214302920287E-01 -0.5419011551311E-01
 0.8590914165424E-01 -0.6972370243841E-01
 0.1007411988228E+00 -0.8715141710691E-01
 0.1164904522367E+00 -0.1063160686843E+00
 0.1330163656172E+00 -0.1270712977905E+00
 0.1501873871602E+00 -0.1492810191851E+00
 0.1678807168059E+00 -0.1728189804298E+00
 0.1859830160601E+00 -0.1975686135408E+00
 0.2043927099220E+00 -0.2234228019298E+00
 0.2230229126937E+00 -0.2502838685206E+00
 0.2418032631333E+00 -0.2780639591721E+00
 0.2606799631059E+00 -0.3066850963629E+00
 0.2796153607271E+00 -0.3360793947053E+00
 0.2985873133390E+00 -0.3661886578253E+00
 0.3175891148017E+00 -0.3969643925715E+00
 0.3366290805777E+00 -0.4283673616416E+00
 0.4033957836564E-01 -0.2131068948389E-01
 0.5119529344631E-01 -0.3021461321535E-01
 0.6347992894370E-01 -0.4159563234778E-01
 0.7705241111392E-01 -0.5525030801600E-01
 0.9176508836761E-01 -0.7099339832619E-01
 0.1074706089213E+00 -0.8865359861554E-01
 0.1240266373341E+00 -0.1080712975030E+00
 0.1412981833137E+00 -0.1290972416458E+00
 0.1591582027248E+00 -0.1515921759444E+00
 0.1774870606023E+00 -0.1754264850604E+00
 0.1961733013682E+00 -0.2004801481608E+00
 0.2151166235875E+00 -0.2266427319691E+00
 0.2342316914916E+00 -0.2538136470479E+00
 0.2534504498576E+00 -0.2819026595086E+00
 0.2727221199779E+00 -0.3108298750520E+00
 0.2920125307427E+00 -0.3405257885233E+00
 0.3113032618417E+00 -0.3709307294320E+00
 0.3305914389525E+00 -0.4019948381039E+00
 0.3498890903658E+00 -0.4336777068890E+00
 0.4189154372944E-01 -0.2189851970106E-01
 0.5397013313838E-01 -0.3093808820251E-01
 0.6737735423024E-01 -0.4247398222663E-01
 0.8198286462471E-01 -0.5630503569192E-01
 0.9764740352966E-01 -0.7224601518478E-01
 0.1142306419793E+00 -0.9012407566913E-01
 0.1315964241626E+00 -0.1097770889607E+00
 0.1496152321143E+00 -0.1310527152543E+00
 0.1681645633427E+00 -0.1538082909146E+00
 0.1871280375664E+00 -0.1779105942517E+00
 0.2063961921921E+00 -0.2032359399582E+00
 0.2258701128786E+00 -0.2296704241966E+00
 0.2454661167846E+00 -0.2571104507884E+00
 0.2651185255296E+00 -0.2854633465980E+00
 0.2847795964555E+00 -0.3146472383724E+00
 0.3044185954204E+00 -0.3445908997318E+00
 0.3240207461876E+00 -0.3752330256051E+00
 0.3435869616640E+00 -0.4065221873557E+00
 0.3631330471847E+00 -0.4384166334398E+00
 0.4344536432516E-01 -0.2249615581739E-01
 0.5674951650817E-01 -0.3167074415286E-01
 0.7128356308843E-01 -0.4335696655503E-01
 0.8692667669986E-01 -0.5735655461683E-01
 0.1035471454301E+00 -0.7348452552231E-01
 0.1210111327666E+00 -0.9156649711906E-01
 0.1391883716965E+00 -0.1114376824056E+00
 0.1579547120644E+00 -0.1329424319050E+00
 0.1771922164598E+00 -0.1559344173869E+00
 0.1967878526172E+00 -0.1802765611473E+00
 0.2166342744479E+00 -0.2058413058108E+00
 0.2366340863225E+00 -0.2325111389457E+00
 0.2567053771632E+00 -0.2601793930980E+00
 0.2767849227665E+00 -0.2887509398796E+00
 0.2968280253797E+00 -0.3181419175141E+00
 0.3168073209166E+00 -0.3482793298092E+00
 0.3367115675817E+00 -0.3791001179852E+00
 0.3565454050942E+00 -0.4105511031513E+00
 0.3763285140973E+00 -0.4425890193323E+00
 0.4499836364872E-01 -0.2310421040512E-01
 0.5952884383707E-01 -0.3241370041982E-01
 0.7519245939794E-01 -0.4424644395577E-01
 0.9187646085588E-01 -0.5840759287882E-01
 0.1094557042128E+00 -0.7471256577600E-01
 0.1278022303122E+00 -0.9298537602641E-01
 0.1467913188643E+00 -0.1130583858710E+00
 0.1663040582812E+00 -0.1347723810130E+00
 0.1862270953746E+00 -0.1579770960163E+00
 0.2064508489077E+00 -0.1825313431911E+00
 0.2268702320467E+00 -0.2083034917355E+00
 0.2473895236927E+00 -0.2351723009902E+00
 0.2679287257243E+00 -0.2630280012916E+00
 0.2884271580923E+00 -0.2917730423997E+00
 0.3088431729107E+00 -0.3213216254274E+00
 0.3291526848247E+00 -0.3515989982981E+00
 0.3493478362318E+00 -0.3825402784848E+00
 0.3694369014855E+00 -0.4140903782604E+00
 0.3894435510467E+00 -0.4462043361807E+00
 0.4654802527703E-01 -0.2372336382753E-01
 0.6230380434654E-01 -0.3316824722408E-01
 0.7909832446073E-01 -0.4514459814244E-01
 0.9682525478447E-01 -0.5946138792209E-01
 0.1153649060052E+00 -0.7593448070927E-01
 0.1345945055526E+00 -0.9438613851874E-01
 0.1543944941551E+00 -0.1146456267620E+00
 0.1746510520483E+00 -0.1365498782054E+00
 0.1952554322385E+00 -0.1599444022014E+00
 0.2161016236523E+00 -0.1846836448884E+00
 0.2370869666597E+00 -0.2106317088188E+00
 0.2581176010526E+00 -0.2376635254716E+00
 0.2791156124054E+00 -0.2656662279668E+00
 0.3000229748655E+00 -0.2945399316493E+00
 0.3208010969663E+00 -0.3241970209533E+00
 0.3414290559074E+00 -0.3545610750159E+00
 0.3619021766843E+00 -0.3855653758711E+00
 0.3822322239508E+00 -0.4171527944232E+00
 0.4024469572967E+00 -0.4492764703735E+00
 0.4809202883557E-01 -0.2435437335723E-01
 0.6507043942792E-01 -0.3393586380486E-01
 0.8299589793340E-01 -0.4605396630372E-01
 0.1017666106614E+00 -0.6052172412542E-01
 0.1212671070123E+00 -0.7715536752084E-01
 0.1413790462737E+00 -0.9577517113100E-01
 0.1619876100433E+00 -0.1162069991127E+00
 0.1829839145381E+00 -0.1382836095214E+00
 0.2042638518354E+00 -0.1618459848861E+00
 0.2257251230829E+00 -0.1867439494427E+00
 0.2472676947898E+00 -0.2128371558992E+00
 0.2687997906568E+00 -0.2399966287835E+00
 0.2902457878243E+00 -0.2681064452436E+00
 0.3115504536457E+00 -0.2970645301612E+00
 0.3326782690753E+00 -0.3267816477955E+00
 0.3536113343028E+00 -0.3571798804347E+00
 0.3743478920511E+00 -0.3881907326902E+00
 0.3949029755796E+00 -0.4197549301855E+00
 0.4153084743259E+00 -0.4518234731607E+00
 0.4962828617634E-01 -0.2499808247469E-01
 0.6782520707428E-01 -0.3471823735507E-01
 0.8688046004063E-01 -0.4697746914555E-01
 0.1066946857341E+00 -0.6159297276742E-01
 0.1271552862401E+00 -0.7838112245233E-01
 0.1481475489213E+00 -0.9715986992249E-01
 0.1695609526273E+00 -0.1177513110352E+00
 0.1912913943945E+00 -0.1399836735208E+00
 0.2132394583216E+00 -0.1636931007037E+00
 0.2353067298263E+00 -0.1887245435191E+00
 0.2573960366112E+00 -0.2149330340729E+00
 0.2794179511285E+00 -0.2421856309978E+00
 0.3012993944624E+00 -0.2703634305951E+00
 0.3229881055597E+00 -0.2993623666860E+00
 0.3444516745034E+00 -0.3290918607052E+00
 0.3656750664849E+00 -0.3594727675919E+00
 0.3866591017217E+00 -0.3904349572506E+00
 0.4074217506500E+00 -0.4219169398529E+00
 0.4279989545076E+00 -0.4538672635089E+00
 0.5115498829549E-01 -0.2565543470308E-01
 0.7056506598067E-01 -0.3551728789161E-01
 0.9074793995720E-01 -0.4791844894571E-01
 0.1116043628239E+00 -0.6268014205524E-01
 0.1330231697626E+00 -0.7961849873565E-01
 0.1548924422828E+00 -0.9854870102791E-01
 0.1771055025834E+00 -0.1192886423867E+00
 0.1995628855990E+00 -0.1416616312210E+00
 0.2221699511854E+00 -0.1654986528984E+00
 0.2448323785030E+00 -0.1906395439674E+00
 0.2674561316380E+00 -0.2169345616282E+00
 0.2899544416746E+00 -0.2442467590900E+00
 0.3122570765798E+00 -0.2724543551074E+00
 0.3343149762402E+00 -0.3014515405986E+00
 0.3560989131949E+00 -0.3311467524009E+00
 0.3775965525776E+00 -0.3614599982440E+00
 0.3988108664271E+00 -0.3923197627060E+00
 0.4197622840144E+00 -0.4236623211602E+00
 0.4404905125676E+00 -0.4554333653870E+00
 0.5267064016057E-01 -0.2632748214096E-01
 0.7328754181864E-01 -0.3633518733680E-01
 0.9459500106148E-01 -0.4888070276229E-01
 0.1164913420150E+00 -0.6378892368588E-01
 0.1388653205972E+00 -0.8087516172759E-01
 0.1616069721758E+00 -0.9995125769665E-01
 0.1846130138193E+00 -0.1208303967661E+00
 0.2077885013426E+00 -0.1433305469110E+00
 0.2310436975592E+00 -0.1672772169867E+00
 0.2542886302267E+00 -0.1925049076008E+00
 0.2774327174794E+00 -0.2188589705137E+00
 0.3003922036926E+00 -0.2461984338927E+00
 0.3231000597289E+00 -0.2743987614420E+00
 0.3455107179265E+00 -0.3033526826833E+00
 0.3675982649341E+00 -0.3329680794497E+00
 0.3893529156049E+00 -0.3631646138157E+00
 0.4107792804098E+00 -0.3938697730943E+00
 0.4318995845944E+00 -0.4250176715476E+00
 0.4527567117367E+00 -0.4565506803922E+00
 0.5417410993713E-01 -0.2701539905007E-01
 0.7599082125358E-01 -0.3717438490448E-01
 0.9841916310366E-01 -0.4986852563098E-01
 0.1213522729864E+00 -0.6492575396787E-01
 0.1446772685634E+00 -0.8215976178614E-01
 0.1682853228028E+00 -0.1013783359886E+00
 0.1920761236722E+00 -0.1223893705206E+00
 0.2159591733229E+00 -0.1450050420089E+00
 0.2398498238688E+00 -0.1690450736440E+00
 0.2636627612073E+00 -0.1943384417476E+00
 0.2873112184922E+00 -0.2207254986526E+00
 0.3107148477248E+00 -0.2480612529721E+00
 0.3338102275100E+00 -0.2762185446740E+00
 0.3565556433695E+00 -0.3050889301498E+00
 0.3789287135394E+00 -0.3345802084779E+00
 0.4009221067252E+00 -0.3646123199814E+00
 0.4225414852829E+00 -0.3951123259834E+00
 0.4438099978850E+00 -0.4260124249459E+00
 0.4647727119778E+00 -0.4572512217354E+00
 0.5566466972796E-01 -0.2772048966108E-01
 0.7867384023357E-01 -0.3803762533620E-01
 0.1022189211925E+00 -0.5088675092176E-01
 0.1261848838350E+00 -0.6609787789803E-01
 0.1504556345480E+00 -0.8348201458137E-01
 0.1749227309068E+00 -0.1028420190664E+00
 0.1994884556129E+00 -0.1239798290542E+00
 0.2240667449134E+00 -0.1467013524516E+00
 0.2485783052994E+00 -0.1708202393340E+00
 0.2729428566700E+00 -0.1961598055158E+00
 0.2970778513074E+00 -0.2225553669623E+00
 0.3209067725139E+00 -0.2498579573513E+00
 0.3443702446783E+00 -0.2779379294832E+00
 0.3674308313998E+00 -0.3066859226881E+00
 0.3900700134525E+00 -0.3360101083471E+00
 0.4122829373241E+00 -0.3658314156559E+00
 0.4340757100173E+00 -0.3960772900902E+00
 0.4554713198986E+00 -0.4266785744284E+00
 0.4765155309268E+00 -0.4575698256096E+00
 0.5714203119047E-01 -0.2844418687579E-01
 0.8133637509987E-01 -0.3892795688462E-01
 0.1059938714633E+00 -0.5194078673654E-01
 0.1309881114912E+00 -0.6731342083833E-01
 0.1561982449085E+00 -0.8485279389208E-01
 0.1815155772803E+00 -0.1043557752033E+00
 0.2068446859818E+00 -0.1256175937520E+00
 0.2321040151174E+00 -0.1484373911807E+00
 0.2572199938623E+00 -0.1726224930591E+00
 0.2821178341978E+00 -0.1979904952331E+00
 0.3067196553548E+00 -0.2243717275976E+00
 0.3309532099883E+00 -0.2516133599177E+00
 0.3547636130644E+00 -0.2795834112048E+00
 0.3781181625834E+00 -0.3081718029945E+00
 0.4010026558113E+00 -0.3372873989349E+00
 0.4234149526581E+00 -0.3668528031553E+00
 0.4453611060204E+00 -0.3967968984056E+00
 0.4668627258358E+00 -0.4270503230962E+00
 0.4879641729495E+00 -0.4575438030365E+00
 0.5860638351712E-01 -0.2918804209507E-01
 0.8397916782635E-01 -0.3984871954642E-01
 0.1097448964763E+00 -0.5303666046656E-01
 0.1357623012372E+00 -0.6858148346759E-01
 0.1619043182818E+00 -0.8628426112972E-01
 0.1880615537698E+00 -0.1059345918763E+00
 0.2141406911139E+00 -0.1273201666004E+00
 0.2400648664397E+00 -0.1502328453736E+00
 0.2657667352703E+00 -0.1744734301268E+00
 0.2911775638095E+00 -0.1998538449021E+00
 0.3162246335085E+00 -0.2261996101994E+00
 0.3408404024821E+00 -0.2533542540414E+00
 0.3649748899228E+00 -0.2811836658455E+00
 0.3886005665923E+00 -0.3095771966540E+00
 0.4117080479862E+00 -0.3384445271201E+00
 0.4342984363295E+00 -0.3677102053598E+00
 0.4563776086007E+00 -0.3973057194653E+00
 0.4779647336318E+00 -0.4271635902044E+00
 0.4991000034676E+00 -0.4572123489446E+00
 0.6005838903225E-01 -0.2995362498232E-01
 0.8660403382832E-01 -0.4080348564512E-01
 0.1134743371947E+00 -0.5418102534854E-01
 0.1405093681435E+00 -0.6991226519264E-01
 0.1675745761642E+00 -0.8778999765019E-01
 0.1945597362474E+00 -0.1075951136961E+00
 0.2213735765373E+00 -0.1291068617915E+00
 0.2479442489145E+00 -0.1521092745974E+00
 0.2742113201967E+00 -0.1763965017797E+00
 0.3001128056110E+00 -0.2017749988032E+00
 0.3255816964615E+00 -0.2280658213936E+00
 0.3505555829233E+00 -0.2551092399008E+00
 0.3749897288528E+00 -0.2827693538409E+00
 0.3988621174849E+00 -0.3109350682545E+00
 0.4221686682970E+00 -0.3395168209556E+00
 0.4449142714076E+00 -0.3684409026594E+00
 0.4671052765115E+00 -0.3976410271067E+00
 0.4887585359717E+00 -0.4270552970914E+00
 0.5099068252803E+00 -0.4566151180877E+00
 0.6149910707424E-01 -0.3074239968800E-01
 0.8921406067185E-01 -0.4179568217186E-01
 0.1171863299080E+00 -0.5538134903044E-01
 0.1452330141345E+00 -0.7131724862077E-01
 0.1732114367962E+00 -0.8938514861922E-01
 0.2010107622576E+00 -0.1093558250948E+00
 0.2285417993481E+00 -0.1309990191094E+00
 0.2557382436107E+00 -0.1540902620277E+00
 0.2825475193554E+00 -0.1784170907827E+00
 0.3089152336346E+00 -0.2037809158552E+00
 0.3347806916988E+00 -0.2299988620180E+00
 0.3600870385246E+00 -0.2569085304841E+00
 0.3847950464915E+00 -0.2843728064875E+00
 0.4088883285489E+00 -0.3122804738462E+00
 0.4323684283329E+00 -0.3405423376249E+00
 0.4552446588520E+00 -0.3690860063913E+00
 0.4775236771458E+00 -0.3978459434640E+00
 0.4992238637385E+00 -0.4267627569908E+00
 0.5203707589109E+00 -0.4557877690000E+00
-0.1395621364169E-01 -0.1144967217399E-01
-0.4018545484704E-01 -0.2122415108905E-01
-0.5727358181526E-01 -0.2339916764659E-01
-0.6634808191901E-01 -0.2044730401880E-01
-0.6852455056231E-01 -0.1370825816757E-01
-0.6487032580160E-01 -0.3740313566601E-02
-0.5603405473570E-01  0.8346468501489E-02
-0.4242645028726E-01  0.2149420288088E-01
-0.2442082857383E-01  0.3516562466886E-01
-0.2299300429693E-02  0.4896753338280E-01
 0.2371227667760E-01  0.6248559871627E-01
 0.5339578835029E-01  0.7523280410571E-01
 0.8649875811140E-01  0.8681921232646E-01
 0.1227323323832E+00  0.9679290738668E-01
 0.1617374140247E+00  0.1045347847743E+00
 0.2030585837527E+00  0.1094985824699E+00
 0.2462157987870E+00  0.1119035452946E+00
 0.2896472196596E+00  0.1066031879455E+00
 0.3291685949582E+00  0.8881338959679E-01
-0.1209708178047E-01 -0.8660742821731E-02
-0.3916775282305E-01 -0.1722514753853E-01
-0.5716658096372E-01 -0.2140182538142E-01
-0.6689260057139E-01 -0.2099370558134E-01
-0.6967347422014E-01 -0.1679706609497E-01
-0.6669048553840E-01 -0.9246279234988E-02
-0.5871221697062E-01  0.6701988832615E-03
-0.4612617859558E-01  0.1185663311904E-01
-0.2926143797343E-01  0.2370005571961E-01
-0.8385779998317E-02  0.3579415623932E-01
 0.1628580181659E-01  0.4774417602732E-01
 0.4455440536623E-01  0.5909646587490E-01
 0.7619633680279E-01  0.6948800436219E-01
 0.1109567635538E+00  0.7850284801865E-01
 0.1485224265711E+00  0.8556637975486E-01
 0.1884908002666E+00  0.9017620623221E-01
 0.2304184796790E+00  0.9252583618479E-01
 0.2728555121695E+00  0.8782816274619E-01
 0.3118751517951E+00  0.7146983059040E-01
-0.1055687360586E-01 -0.7185932605112E-02
-0.3769596572116E-01 -0.1471728974659E-01
-0.5634546502549E-01 -0.1966753172737E-01
-0.6680764804840E-01 -0.2118845135707E-01
-0.7031576551564E-01 -0.1921586161651E-01
-0.6811064232951E-01 -0.1394303187690E-01
-0.6102255845084E-01 -0.6196769902801E-02
-0.4945267575630E-01  0.2994042208119E-02
-0.3371832129443E-01  0.1299067394621E-01
-0.1408217732359E-01  0.2336857637202E-01
 0.9248227316562E-02  0.3374218358538E-01
 0.3608985531993E-01  0.4368603801252E-01
 0.6624329651546E-01  0.5286288907825E-01
 0.9948545857951E-01  0.6089035778250E-01
 0.1355449377224E+00  0.6724051520945E-01
 0.1740699696777E+00  0.7144645146664E-01
 0.2146616256225E+00  0.7367519291281E-01
 0.2559908069165E+00  0.6946443391848E-01
 0.2943825738847E+00  0.5439897127134E-01
-0.9230997711576E-02 -0.6387471576659E-02
-0.3603908883618E-01 -0.1315601725191E-01
-0.5500142784716E-01 -0.1842287375164E-01
-0.6612843003785E-01 -0.2124820798635E-01
-0.7042164141336E-01 -0.2112611670843E-01
-0.6906435019234E-01 -0.1792897273784E-01
-0.6290220924225E-01 -0.1227941538456E-01
-0.5235567069710E-01 -0.5080237018814E-02
-0.3774798015343E-01  0.3055772835273E-02
-0.1934607536982E-01  0.1170326496203E-01
 0.2644048754105E-02  0.2048458021806E-01
 0.2805040416166E-01  0.2899794215288E-01
 0.5669308171720E-01  0.3692916953561E-01
 0.8837675972478E-01  0.4392809087111E-01
 0.1228684597725E+00  0.4951122882625E-01
 0.1598646700604E+00  0.5324609807177E-01
 0.1990146529890E+00  0.5527570572248E-01
 0.2391169084162E+00  0.5144358659170E-01
 0.2767446185257E+00  0.3753755947648E-01
-0.8039368822259E-02 -0.5975120745732E-02
-0.3429460422329E-01 -0.1221843695641E-01
-0.5329854658866E-01 -0.1761822478428E-01
-0.6493622356170E-01 -0.2133706903594E-01
-0.6999028468163E-01 -0.2268727030908E-01
-0.6950951553404E-01 -0.2131837913054E-01
-0.6429642836283E-01 -0.1763651655180E-01
-0.5478210730525E-01 -0.1238110755963E-01
-0.4130117845461E-01 -0.6098343104797E-02
-0.2412968015185E-01  0.8092540570520E-03
-0.3477282032932E-02  0.7979825429967E-02
 0.2048966685856E-01  0.1503487568077E-01
 0.4760530045547E-01  0.2168146924732E-01
 0.7769736485879E-01  0.2759957653120E-01
 0.1105670040029E+00  0.3234845991700E-01
 0.1459554199654E+00  0.3552975413576E-01
 0.1835597606413E+00  0.3726852518076E-01
 0.2223106800913E+00  0.3369931052131E-01
 0.2590298345722E+00  0.2081412286846E-01
-0.6923911854477E-02 -0.5800563335822E-02
-0.3249995445106E-01 -0.1169614398447E-01
-0.5134355796266E-01 -0.1716517174917E-01
-0.6332204591297E-01 -0.2151834525353E-01
-0.6905171912010E-01 -0.2403097189897E-01
-0.6942797757514E-01 -0.2423041987885E-01
-0.6516486536176E-01 -0.2234764822724E-01
-0.5668371254788E-01 -0.1894785628771E-01
-0.4432762768760E-01 -0.1448264548892E-01
-0.2838181958477E-01 -0.9309859424163E-02
-0.9062267810043E-02 -0.3763746178668E-02
 0.1346575019601E-01  0.1804315343982E-02
 0.3904498919373E-01  0.7122847267688E-02
 0.6752097460829E-01  0.1190051723725E-01
 0.9872383319577E-01  0.1573770573537E-01
 0.1324345647877E+00  0.1827053061083E-01
 0.1683946971457E+00  0.1961199438220E-01
 0.2056695414503E+00  0.1617707386455E-01
 0.2413328312698E+00  0.4163649740777E-02
-0.5844526021733E-02 -0.5778366379430E-02
-0.3066707562422E-01 -0.1145325648915E-01
-0.4920364040219E-01 -0.1697748328806E-01
-0.6136431585325E-01 -0.2180418709326E-01
-0.6765321958776E-01 -0.2524259598204E-01
-0.6882484992174E-01 -0.2677235766181E-01
-0.6548444603149E-01 -0.2650135698136E-01
-0.5802226402213E-01 -0.2483728831245E-01
-0.4678104082606E-01 -0.2212493196568E-01
-0.3205144714920E-01 -0.1866141319803E-01
-0.1405553087157E-01 -0.1474174360824E-01
 0.7039735699636E-02 -0.1068421103871E-01
 0.3108115498938E-01 -0.6736568200688E-02
 0.5792672797064E-01 -0.3161817735835E-02
 0.8742983758206E-01 -0.3196508365901E-03
 0.1194052695173E+00  0.1460883440479E-02
 0.1536330931939E+00  0.2285498166466E-02
 0.1893137907060E+00 -0.1157297420458E-02
 0.2237793754032E+00 -0.1245778315909E-01
-0.4773847753334E-02 -0.5856051555717E-02
-0.2879733960579E-01 -0.1139839256875E-01
-0.4692043701729E-01 -0.1698259023115E-01
-0.5912494469911E-01 -0.2218220183027E-01
-0.6584613372782E-01 -0.2637087565944E-01
-0.6772232383623E-01 -0.2902776226782E-01
-0.6524956771792E-01 -0.3018284361986E-01
-0.5877260075314E-01 -0.3011524753727E-01
-0.4862323349936E-01 -0.2906610984513E-01
-0.3509148278741E-01 -0.2726403796625E-01
-0.1840284272673E-01 -0.2495620106348E-01
 0.1273306275200E-02 -0.2242186902242E-01
 0.2378467892467E-01 -0.1988175416707E-01
 0.4899705268427E-01 -0.1756992310702E-01
 0.7678126350560E-01 -0.1580685025088E-01
 0.1069792647547E+00 -0.1488650535362E-01
 0.1394024201176E+00 -0.1470712619800E-01
 0.1733849453177E+00 -0.1830997601343E-01
 0.2065247169767E+00 -0.2906166704049E-01
-0.3693546904315E-02 -0.5999905705241E-02
-0.2688809956797E-01 -0.1146870477818E-01
-0.4451967913838E-01 -0.1712229158317E-01
-0.5665091380717E-01 -0.2263002357455E-01
-0.6367892010886E-01 -0.2743934627131E-01
-0.6615212468384E-01 -0.3105601468740E-01
-0.6446914896937E-01 -0.3346521976080E-01
-0.5892331519734E-01 -0.3484800357655E-01
-0.4982673284191E-01 -0.3535463612318E-01
-0.3746213091201E-01 -0.3514560339357E-01
-0.2205437323348E-01 -0.3441619854954E-01
-0.3774178104345E-02 -0.3340251606843E-01
 0.1722560031450E-01 -0.3229509116609E-01
 0.4081490389654E-01 -0.3129805043359E-01
 0.6687668282432E-01 -0.3069305212872E-01
 0.9527340732447E-01 -0.3073887637211E-01
 0.1258399436970E+00 -0.3133563066517E-01
 0.1580407300143E+00 -0.3525434003848E-01
 0.1897467548805E+00 -0.4562038458351E-01
-0.2591747010859E-02 -0.6187623397820E-02
-0.2493573712713E-01 -0.1162024327381E-01
-0.4201735609745E-01 -0.1735090837832E-01
-0.5397731718634E-01 -0.2312261269137E-01
-0.6119427405355E-01 -0.2845561326500E-01
-0.6414976921972E-01 -0.3289611173050E-01
-0.6316238967545E-01 -0.3640631316847E-01
-0.5847538344183E-01 -0.3909574637935E-01
-0.5037570525311E-01 -0.4104065433646E-01
-0.3913316514680E-01 -0.4233968316064E-01
-0.2496756809851E-01 -0.4313683642611E-01
-0.8048710756298E-02 -0.4362356665915E-01
 0.1147003740036E-01 -0.4395828256244E-01
 0.3346050311884E-01 -0.4431446229994E-01
 0.5781331228405E-01 -0.4493539639179E-01
 0.8440529352533E-01 -0.4604479360201E-01
 0.1130872113141E+00 -0.4754351426593E-01
 0.1434478078051E+00 -0.5192966453148E-01
 0.1736360550262E+00 -0.6206561074133E-01
-0.1461234985318E-02 -0.6404165521939E-02
-0.2293709153104E-01 -0.1182195280085E-01
-0.3942366033360E-01 -0.1763301881835E-01
-0.5113035969562E-01 -0.2363581021345E-01
-0.5842853587560E-01 -0.2941785239737E-01
-0.6175093571509E-01 -0.3457149693799E-01
-0.6135484149630E-01 -0.3904896132006E-01
-0.5743973674534E-01 -0.4290911114762E-01
-0.5026544196294E-01 -0.4617125448745E-01
-0.4008499710706E-01 -0.4888166165801E-01
-0.2710925372434E-01 -0.5113715894285E-01
-0.1150433900644E-01 -0.5308580968118E-01
 0.6577100191307E-02 -0.5485365025295E-01
 0.2700784211255E-01 -0.5658364332384E-01
 0.4968292111737E-01 -0.5848160765482E-01
 0.7448827047524E-01 -0.6073673695534E-01
 0.1012836968641E+00 -0.6325029573107E-01
 0.1297734013333E+00 -0.6824317817698E-01
 0.1583847319561E+00 -0.7829111774369E-01
-0.2982009975031E-03 -0.6639289717849E-02
-0.2089010785496E-01 -0.1205179800500E-01
-0.3674552357688E-01 -0.1794142392288E-01
-0.4812989378580E-01 -0.2414795281042E-01
-0.5541220791495E-01 -0.3031913392862E-01
-0.5898952002532E-01 -0.3609447794431E-01
-0.5907539475229E-01 -0.4142300468374E-01
-0.5583467347799E-01 -0.4632811924545E-01
-0.4950097477711E-01 -0.5078747179449E-01
-0.4030866749946E-01 -0.5480540870209E-01
-0.2845680521943E-01 -0.5843776077400E-01
-0.1410521427107E-01 -0.6179254540436E-01
 0.2596154385600E-02 -0.6496484670705E-01
 0.2152128584640E-01 -0.6806830907964E-01
 0.4256764385450E-01 -0.7127291549135E-01
 0.6562622155867E-01 -0.7473461466124E-01
 0.9056018173050E-01 -0.7835551435162E-01
 0.1171767974011E+00 -0.8407479619029E-01
 0.1441757529807E+00 -0.9415882713144E-01
 0.8986621506151E-03 -0.6886007793483E-02
-0.1879409468028E-01 -0.1229418597360E-01
-0.3398826185589E-01 -0.1825547490963E-01
-0.4499144341948E-01 -0.2464049641559E-01
-0.5217093916490E-01 -0.3115021551221E-01
-0.5589684597322E-01 -0.3746981227376E-01
-0.5635425748622E-01 -0.4354783171897E-01
-0.5368361617158E-01 -0.4938264840375E-01
-0.4809537628932E-01 -0.5492288303628E-01
-0.3980509590693E-01 -0.6014096303390E-01
-0.2899843321258E-01 -0.6505866533705E-01
-0.1582682818903E-01 -0.6974849700323E-01
-0.4352718752478E-03 -0.7427720848056E-01
 0.1705261331627E-01 -0.7873123699035E-01
 0.3653603806042E-01 -0.8324715720885E-01
 0.5790847212652E-01 -0.8794990279676E-01
 0.8103231032169E-01 -0.9274389516842E-01
 0.1058014348427E+00 -0.9928360680904E-01
 0.1311736831140E+00 -0.1095068590986E+00
 0.2128814207101E-02 -0.7139587397446E-02
-0.1664978133028E-01 -0.1253820813327E-01
-0.3115664706713E-01 -0.1855974571691E-01
-0.4172777531534E-01 -0.2509814261480E-01
-0.4872664336065E-01 -0.3190131366818E-01
-0.5250160029449E-01 -0.3869745815057E-01
-0.5322177908658E-01 -0.4543489131002E-01
-0.5101341034496E-01 -0.5209370262353E-01
-0.4606812616698E-01 -0.5860337833242E-01
-0.3858394674200E-01 -0.6491323465367E-01
-0.2873277804986E-01 -0.7101776693818E-01
-0.1665640947458E-01 -0.7695884667184E-01
-0.2492731603661E-02 -0.8277802968428E-01
 0.1363881761116E-01 -0.8853707905007E-01
 0.3163973138398E-01 -0.9434211191464E-01
 0.5140510915016E-01 -0.1002902557694E+00
 0.7279455864385E-01 -0.1062911854811E+00
 0.9576791390947E-01 -0.1137151798140E+00
 0.1195173936833E+00 -0.1241584447504E+00
 0.3390353913801E-02 -0.7396888273844E-02
-0.1445927150035E-01 -0.1277641905874E-01
-0.2825560476293E-01 -0.1884299528599E-01
-0.3835010341100E-01 -0.2550872633768E-01
-0.4509859004762E-01 -0.3256320757000E-01
-0.4883019210192E-01 -0.3977462402166E-01
-0.4970792138803E-01 -0.4708992565877E-01
-0.4785319008845E-01 -0.5447500102091E-01
-0.4344376443999E-01 -0.6184766651370E-01
-0.3666241421030E-01 -0.6914149779358E-01
-0.2766805645660E-01 -0.7632981967089E-01
-0.1659256258708E-01 -0.8342849039024E-01
-0.3565112773850E-02 -0.9045687807593E-01
 0.1130098472442E-01 -0.9745432919986E-01
 0.2791106523570E-01 -0.1044992392263E+00
 0.4616300237520E-01 -0.1116647600060E+00
 0.6591464525217E-01 -0.1188704051428E+00
 0.8716780476887E-01 -0.1272089544818E+00
 0.1093147889337E+00 -0.1379306434681E+00
 0.4680391091219E-02 -0.7655917742009E-02
-0.1222594343810E-01 -0.1300397993298E-01
-0.2529066569170E-01 -0.1909736886911E-01
-0.3486900876872E-01 -0.2586299700735E-01
-0.4130439817248E-01 -0.3312791112365E-01
-0.4490733980703E-01 -0.4069727119512E-01
-0.4584219393627E-01 -0.4851486152614E-01
-0.4423375551271E-01 -0.5653462499465E-01
-0.4025094176008E-01 -0.6466819029497E-01
-0.3406416859171E-01 -0.7283940345453E-01
-0.2582104271427E-01 -0.8100576978037E-01
-0.1564433052138E-01 -0.8916131386564E-01
-0.3653857947065E-02 -0.9730574371176E-01
 0.1004465847597E-01 -0.1054573241423E+00
 0.2536231606122E-01 -0.1136681496437E+00
 0.4220307483721E-01 -0.1219902633639E+00
 0.6042829072954E-01 -0.1303591296971E+00
 0.8005752442937E-01 -0.1396051586975E+00
 0.1006389177426E+00 -0.1506420502883E+00
 0.5995351081079E-02 -0.7915527116353E-02
-0.9954318054483E-02 -0.1321809096337E-01
-0.2226825649134E-01 -0.1931778298110E-01
-0.3129513803437E-01 -0.2615437773308E-01
-0.3736090637102E-01 -0.3358905561987E-01
-0.4075674950829E-01 -0.4146120969260E-01
-0.4165389345920E-01 -0.4970938243186E-01
-0.4018736271188E-01 -0.5827662541708E-01
-0.3652189417672E-01 -0.6707229569076E-01
-0.3081865183053E-01 -0.7601535871483E-01
-0.2321621407582E-01 -0.8505224288014E-01
-0.1383005277090E-01 -0.9415910831582E-01
-0.2771302288481E-02 -0.1033183173460E+00
 0.9861977406986E-02 -0.1125274230482E+00
 0.2398776594896E-01 -0.1218113697398E+00
 0.3951999094950E-01 -0.1312004520266E+00
 0.5633487360443E-01 -0.1406489437230E+00
 0.7445062667911E-01 -0.1507529028063E+00
 0.9352343310044E-01 -0.1621176364643E+00
 0.7331252635764E-02 -0.8175335567307E-02
-0.7649920236582E-02 -0.1341757673285E-01
-0.1919588797655E-01 -0.1950155901548E-01
-0.2763976747684E-01 -0.2637865984839E-01
-0.3328490867365E-01 -0.3394210242103E-01
-0.3640181658655E-01 -0.4206286217263E-01
-0.3717251964448E-01 -0.5067221281139E-01
-0.3574781104131E-01 -0.5970255828156E-01
-0.3229230310699E-01 -0.6906363349063E-01
-0.2696084575557E-01 -0.7867332557633E-01
-0.1988543953947E-01 -0.8847126222862E-01
-0.1117668520609E-01 -0.9841992574665E-01
-0.9389411261191E-03 -0.1084873393997E+00
 0.1073539361794E-01 -0.1186511278239E+00
 0.2376939586566E-01 -0.1289066074694E+00
 0.3808903827715E-01 -0.1392566000517E+00
 0.5359611045439E-01 -0.1496658461755E+00
 0.7030713781055E-01 -0.1605202071421E+00
 0.8795196983411E-01 -0.1721950331479E+00
 0.8684098962770E-02 -0.8435315794498E-02
-0.5319114879286E-02 -0.1360339221511E-01
-0.1608246280850E-01 -0.1964772156722E-01
-0.2391515787492E-01 -0.2653386485044E-01
-0.2909381562095E-01 -0.3418439022288E-01
-0.3186629609408E-01 -0.4249976688857E-01
-0.3242826296587E-01 -0.5140208631444E-01
-0.3095066184293E-01 -0.6081292874576E-01
-0.2760138921210E-01 -0.7064384913563E-01
-0.2253146277545E-01 -0.8081431372590E-01
-0.1586844646985E-01 -0.9126082514202E-01
-0.7720424141891E-02 -0.1019366408978E+00
 0.1812640275451E-02 -0.1127999475047E+00
 0.1264047216434E-01 -0.1238120502172E+00
 0.2468568227187E-01 -0.1349392850398E+00
 0.3788124069297E-01 -0.1461495250001E+00
 0.5216001236779E-01 -0.1573993245377E+00
 0.6752021080194E-01 -0.1688526772428E+00
 0.8382434410387E-01 -0.1807118608583E+00
 0.6580021954100E-01 -0.3295822527592E-01
 0.9743561513983E-01 -0.4528829926891E-01
 0.1292796571820E+00 -0.6040731532590E-01
 0.1610749779644E+00 -0.7807385637109E-01
 0.1926518014418E+00 -0.9799852007364E-01
 0.2238815714467E+00 -0.1198772477378E+00
 0.2546307322737E+00 -0.1434180638538E+00
 0.2847929095769E+00 -0.1683409118037E+00
 0.3143030144103E+00 -0.1943838774019E+00
 0.3431088537837E+00 -0.2213103202536E+00
 0.3711550111823E+00 -0.2489089608165E+00
 0.3983882270524E+00 -0.2769966403483E+00
 0.4247779938773E+00 -0.3054243860060E+00
 0.4503113034869E+00 -0.3340748140878E+00
 0.4749801313274E+00 -0.3628547006652E+00
 0.4987837534488E+00 -0.3916943902131E+00
 0.5217539001980E+00 -0.4205610855244E+00
 0.5436129288945E+00 -0.4493107076798E+00
 0.5640228786306E+00 -0.4777119173965E+00
 0.6883368147437E-01 -0.3443513434572E-01
 0.1033618814088E+00 -0.4792796113394E-01
 0.1381014823740E+00 -0.6447626617312E-01
 0.1727318060688E+00 -0.8377970882721E-01
 0.2070597464780E+00 -0.1054787881136E+00
 0.2409366061218E+00 -0.1291971065618E+00
 0.2741800296943E+00 -0.1545791168297E+00
 0.3066420442263E+00 -0.1812848596698E+00
 0.3382439094258E+00 -0.2090032737966E+00
 0.3689342697170E+00 -0.2374633352035E+00
 0.3986620714407E+00 -0.2664302343038E+00
 0.4273767056417E+00 -0.2957054220151E+00
 0.4550547373091E+00 -0.3251347211930E+00
 0.4816848510243E+00 -0.3546023492499E+00
 0.5072494436807E+00 -0.3840213493310E+00
 0.5317413605602E+00 -0.4133379047411E+00
 0.5552272676364E+00 -0.4425520453650E+00
 0.5771615546875E+00 -0.4714363650590E+00
 0.5968718767084E+00 -0.4995508450876E+00
 0.7204202354239E-01 -0.3600798237992E-01
 0.1096174884631E+00 -0.5078068310967E-01
 0.1473730465523E+00 -0.6890299739929E-01
 0.1849169781553E+00 -0.8999233980489E-01
 0.2220300975626E+00 -0.1136058086877E+00
 0.2585429878627E+00 -0.1392833001217E+00
 0.2942243284981E+00 -0.1665874214227E+00
 0.3288922964676E+00 -0.1951046941749E+00
 0.3624649533838E+00 -0.2244713478986E+00
 0.3949003938839E+00 -0.2543838631600E+00
 0.4261587049649E+00 -0.2845882583730E+00
 0.4561975863993E+00 -0.3148764369689E+00
 0.4850052878007E+00 -0.3450968228246E+00
 0.5125765993007E+00 -0.3751429769386E+00
 0.5388897719466E+00 -0.4049403177561E+00
 0.5639363806602E+00 -0.4344529007136E+00
 0.5878157623072E+00 -0.4637080512536E+00
 0.6097369334040E+00 -0.4923957645002E+00
 0.6286717431666E+00 -0.5199360141960E+00
 0.7544319582834E-01 -0.3769310817401E-01
 0.1162284598384E+00 -0.5388613838341E-01
 0.1571165233407E+00 -0.7374693922184E-01
 0.1976365964503E+00 -0.9678847638557E-01
 0.2375444536387E+00 -0.1224678562275E+00
 0.2766518718098E+00 -0.1502281533798E+00
 0.3146819819645E+00 -0.1795287488078E+00
 0.3514308120599E+00 -0.2098687611791E+00
 0.3868259011077E+00 -0.2408311489463E+00
 0.4208442809273E+00 -0.2720851822934E+00
 0.4534642212232E+00 -0.3033648107252E+00
 0.4846573367410E+00 -0.3344599967178E+00
 0.5144275296416E+00 -0.3652300395960E+00
 0.5427787522145E+00 -0.3955843442801E+00
 0.5696877550872E+00 -0.4254644459180E+00
 0.5951445431213E+00 -0.4548541060551E+00
 0.6192724829291E+00 -0.4838066509831E+00
 0.6410512462186E+00 -0.5119578215421E+00
 0.6591370120275E+00 -0.5386860559153E+00
 0.7906084340649E-01 -0.3950996294309E-01
 0.1232256949467E+00 -0.5728985399604E-01
 0.1673553192683E+00 -0.7907835374400E-01
 0.2108938470158E+00 -0.1042562511165E+00
 0.2535765871945E+00 -0.1321625445602E+00
 0.2952023537156E+00 -0.1621291496934E+00
 0.3354570803188E+00 -0.1934883516267E+00
 0.3741308120719E+00 -0.2256389430980E+00
 0.4111749882871E+00 -0.2581141109043E+00
 0.4465951756198E+00 -0.2905651929681E+00
 0.4803943502736E+00 -0.3227240602215E+00
 0.5125627001834E+00 -0.3543880075080E+00
 0.5431220547979E+00 -0.3854360688529E+00
 0.5720862419508E+00 -0.4157998449544E+00
 0.5994301856703E+00 -0.4454412325339E+00
 0.6251391958661E+00 -0.4743679246336E+00
 0.6493485806291E+00 -0.5026640564463E+00
 0.6708406827283E+00 -0.5299482558876E+00
 0.6880152938763E+00 -0.5556376322206E+00
 0.8292485292130E-01 -0.4148183400614E-01
 0.1306453782596E+00 -0.6104621636367E-01
 0.1781138609811E+00 -0.8497939153026E-01
 0.2246872094185E+00 -0.1124958970803E+00
 0.2700900128248E+00 -0.1427963644598E+00
 0.3141191866930E+00 -0.1750870313900E+00
 0.3564382103855E+00 -0.2085476694785E+00
 0.3968517790273E+00 -0.2424664244287E+00
 0.4353504169276E+00 -0.2763356565597E+00
 0.4719769295422E+00 -0.3098026827054E+00
 0.5067641279025E+00 -0.3426103618790E+00
 0.5397236983406E+00 -0.3745743533100E+00
 0.5708954123112E+00 -0.4056031196557E+00
 0.6003012802262E+00 -0.4356573023529E+00
 0.6279120494827E+00 -0.4647243285248E+00
 0.6537038492045E+00 -0.4928416858516E+00
 0.6778132007771E+00 -0.5201306113251E+00
 0.6988660138716E+00 -0.5462262512013E+00
 0.7150745194133E+00 -0.5706594427395E+00
 0.8707236803931E-01 -0.4363719609404E-01
 0.1385292888524E+00 -0.6522057428972E-01
 0.1894166371454E+00 -0.9154617157089E-01
 0.2390083273515E+00 -0.1216205006462E+00
 0.2870352671603E+00 -0.1544838056886E+00
 0.3333105833509E+00 -0.1892030304438E+00
 0.3774976838281E+00 -0.2247800421145E+00
 0.4194403642457E+00 -0.2603868056249E+00
 0.4591826769974E+00 -0.2954907681908E+00
 0.4968112890418E+00 -0.3297542981299E+00
 0.5323917413295E+00 -0.3629473826200E+00
 0.5659578533339E+00 -0.3949166700112E+00
 0.5975649183255E+00 -0.4256103685092E+00
 0.6272393560359E+00 -0.4550252153320E+00
 0.6549440229511E+00 -0.4831795389375E+00
 0.6806412361240E+00 -0.5101463667347E+00
 0.7044590438412E+00 -0.5360885013599E+00
 0.7249130755480E+00 -0.5606875685279E+00
 0.7401012858210E+00 -0.5836565576251E+00
 0.9154911786628E-01 -0.4601116254173E-01
 0.1469250022522E+00 -0.6989187622987E-01
 0.2012867651809E+00 -0.9889113505440E-01
 0.2538392685418E+00 -0.1317568037839E+00
 0.3043468886734E+00 -0.1673458310535E+00
 0.3526662261297E+00 -0.2045750414565E+00
 0.3984914981976E+00 -0.2422453958708E+00
 0.4417323051775E+00 -0.2794146917919E+00
 0.4824979199024E+00 -0.3155497749535E+00
 0.5209221430199E+00 -0.3503524056577E+00
 0.5571031982288E+00 -0.3836384167811E+00
 0.5910950658433E+00 -0.4152989952610E+00
 0.6229637933135E+00 -0.4453323014829E+00
 0.6527347299969E+00 -0.4737776902954E+00
 0.6803582835266E+00 -0.5006890362747E+00
 0.7057783807234E+00 -0.5261792125506E+00
 0.7291058461653E+00 -0.5504547030294E+00
 0.7487943639693E+00 -0.5732686128424E+00
 0.7629029183529E+00 -0.5945766383649E+00
 0.9641108865747E-01 -0.4864740977688E-01
 0.1558859438225E+00 -0.7515600654468E-01
 0.2137439271535E+00 -0.1071458830920E+00
 0.2691490605146E+00 -0.1430457713500E+00
 0.3219400758665E+00 -0.1815073886933E+00
 0.3720557097808E+00 -0.2212924301293E+00
 0.4192603456658E+00 -0.2609838273542E+00
 0.4635556016279E+00 -0.2995379707072E+00
 0.5051224633085E+00 -0.3364547363145E+00
 0.5441405836645E+00 -0.3715041750333E+00
 0.5807374129833E+00 -0.4045680365491E+00
 0.6149824812121E+00 -0.4355953313628E+00
 0.6469457781429E+00 -0.4646432528580E+00
 0.6766448414697E+00 -0.4917989953739E+00
 0.7040125643433E+00 -0.5171552331767E+00
 0.7289700983948E+00 -0.5408670720528E+00
 0.7516031831759E+00 -0.5631843984273E+00
 0.7703518401379E+00 -0.5839509432632E+00
 0.7833111973429E+00 -0.6034148915545E+00
 0.1017266284309E+00 -0.5160082745305E-01
 0.1654711964218E+00 -0.8113022567645E-01
 0.2268014501283E+00 -0.1164646116619E+00
 0.2848893445397E+00 -0.1556426841941E+00
 0.3397071545101E+00 -0.1970934757978E+00
 0.3913278207436E+00 -0.2394291209012E+00
 0.4396321126193E+00 -0.2810081346546E+00
 0.4847351974870E+00 -0.3207122550840E+00
 0.5268883868804E+00 -0.3581170741875E+00
 0.5663104677489E+00 -0.3930924232380E+00
 0.6031512109911E+00 -0.4256053584340E+00
 0.6374887808834E+00 -0.4556742273094E+00
 0.6693887905326E+00 -0.4834222571440E+00
 0.6988534696530E+00 -0.5089879189046E+00
 0.7257929519758E+00 -0.5325043420217E+00
 0.7501015600206E+00 -0.5541693182585E+00
 0.7718331736579E+00 -0.5742739340924E+00
 0.7894605136388E+00 -0.5927647513487E+00
 0.8011871415792E+00 -0.6102182282200E+00
 0.1075791220908E+00 -0.5494132013812E-01
 0.1757448683528E+00 -0.8795926887573E-01
 0.2404621379525E+00 -0.1270282844960E+00
 0.3009889458007E+00 -0.1697162853338E+00
 0.3575141206636E+00 -0.2142230355043E+00
 0.4103112598636E+00 -0.2590345778240E+00
 0.4594263679770E+00 -0.3022956250091E+00
 0.5050992750258E+00 -0.3428563608843E+00
 0.5476399235687E+00 -0.3804173703029E+00
 0.5872939349971E+00 -0.4149787726781E+00
 0.6242236619773E+00 -0.4466090236440E+00
 0.6585074314946E+00 -0.4754041880079E+00
 0.6901973679066E+00 -0.5015579333612E+00
 0.7192726821625E+00 -0.5252616277630E+00
 0.7456156496159E+00 -0.5466890983870E+00
 0.7690902490566E+00 -0.5660797316787E+00
 0.7897131859292E+00 -0.5837624230091E+00
 0.8060326349406E+00 -0.5997909181500E+00
 0.8164268246620E+00 -0.6150884397248E+00
 0.1140704428941E+00 -0.5875948825648E-01
 0.1867746606338E+00 -0.9582400025578E-01
 0.2547122305941E+00 -0.1390496339729E+00
 0.3173471651262E+00 -0.1854460975540E+00
 0.3751978304646E+00 -0.2329996329945E+00
 0.4288177082126E+00 -0.2801224489805E+00
 0.4784613232017E+00 -0.3247801253249E+00
 0.5244869738443E+00 -0.3658502528060E+00
 0.5672399940975E+00 -0.4032083767377E+00
 0.6069761317924E+00 -0.4370093755301E+00
 0.6438591678264E+00 -0.4674335222798E+00
 0.6779585861392E+00 -0.4946593223223E+00
 0.7093038307489E+00 -0.5189528724993E+00
 0.7378436571721E+00 -0.5405585724701E+00
 0.7634278697969E+00 -0.5596902027451E+00
 0.7858874443864E+00 -0.5766267736193E+00
 0.8051985677533E+00 -0.5917314301505E+00
 0.8200224547738E+00 -0.6051611938330E+00
 0.8289684557868E+00 -0.6181841771021E+00
 0.1213254949386E+00 -0.6317553054850E-01
 0.1986289495708E+00 -0.1049541370401E+00
 0.2695125079648E+00 -0.1527788875352E+00
 0.3338257473411E+00 -0.2030162538278E+00
 0.3925649911201E+00 -0.2534974757784E+00
 0.4466484725073E+00 -0.3026572554175E+00
 0.4965634746520E+00 -0.3483462149364E+00
 0.5427567617159E+00 -0.3895374634963E+00
 0.5855757953486E+00 -0.4263219617481E+00
 0.6252683204322E+00 -0.4590226850174E+00
 0.6619889422131E+00 -0.4879358695038E+00
 0.6957896075405E+00 -0.5133244214774E+00
 0.7266682765524E+00 -0.5355270505050E+00
 0.7545365082586E+00 -0.5548401423411E+00
 0.7792079443441E+00 -0.5715161527312E+00
 0.8004792500137E+00 -0.5858717979293E+00
 0.8182853552296E+00 -0.5983021467969E+00
 0.8314315346667E+00 -0.6090558998990E+00
 0.8388010313839E+00 -0.6197212590548E+00
 0.1294982973348E+00 -0.6835398864225E-01
 0.2113709761101E+00 -0.1156476622140E+00
 0.2847849335045E+00 -0.1685094397489E+00
 0.3502399598803E+00 -0.2226026193986E+00
 0.4093950995223E+00 -0.2757410993152E+00
 0.4636060642801E+00 -0.3265410622316E+00
 0.5135792136360E+00 -0.3728293475557E+00
 0.5597937243500E+00 -0.4137339386840E+00
 0.6025620433259E+00 -0.4495793988879E+00
 0.6421088576095E+00 -0.4808575051588E+00
 0.6785709771897E+00 -0.5079812759425E+00
 0.7119744708938E+00 -0.5312988955081E+00
 0.7422775914431E+00 -0.5512201501502E+00
 0.7693491786421E+00 -0.5680909999195E+00
 0.7929646169346E+00 -0.5822012293049E+00
 0.8128870547954E+00 -0.5939047236878E+00
 0.8290127935705E+00 -0.6036293085625E+00
 0.8403144714467E+00 -0.6116982117181E+00
 0.8459747981176E+00 -0.6199704394152E+00
 0.1387802701042E+00 -0.7452985171773E-01
 0.2250471216470E+00 -0.1283017332441E+00
 0.3003923662155E+00 -0.1865805781943E+00
 0.3663506788083E+00 -0.2443471332736E+00
 0.4254511569103E+00 -0.2996777588884E+00
 0.4795112496580E+00 -0.3516058665091E+00
 0.5293857349444E+00 -0.3980270417619E+00
 0.5755130730003E+00 -0.4382434103570E+00
 0.6181409886085E+00 -0.4728016705012E+00
 0.6574624599538E+00 -0.5023588051616E+00
 0.6935891321688E+00 -0.5274470607908E+00
 0.7265124183704E+00 -0.5484998033121E+00
 0.7561435624548E+00 -0.5659930996187E+00
 0.7823053293892E+00 -0.5803181028325E+00
 0.8047353587643E+00 -0.5918013423410E+00
 0.8231671627275E+00 -0.6008366316120E+00
 0.8374652974002E+00 -0.6078909056882E+00
 0.8467845869784E+00 -0.6133435956363E+00
 0.8506134408309E+00 -0.6192510534205E+00
 0.1494114276443E+00 -0.8205925656691E-01
 0.2396624558957E+00 -0.1434636760051E+00
 0.3161077799973E+00 -0.2073685291748E+00
 0.3818636381815E+00 -0.2683075090372E+00
 0.4405036356885E+00 -0.3251470726933E+00
 0.4942227293475E+00 -0.3776237491519E+00
 0.5438952480419E+00 -0.4237255999478E+00
 0.5898579241703E+00 -0.4628725217517E+00
 0.6322803190748E+00 -0.4958146061309E+00
 0.6713191820527E+00 -0.5233800895571E+00
 0.7070520791493E+00 -0.5462257932960E+00
 0.7394259255267E+00 -0.5648650176251E+00
 0.7682998883585E+00 -0.5798291134365E+00
 0.7934510258712E+00 -0.5915481266914E+00
 0.8145834851760E+00 -0.6003873629577E+00
 0.8314091934338E+00 -0.6067887720103E+00
 0.8437731300047E+00 -0.6112727287494E+00
 0.8510184500966E+00 -0.6142623162881E+00
 0.8529270267983E+00 -0.6179177781896E+00
 0.1616950529158E+00 -0.9152784827732E-01
 0.2551253437187E+00 -0.1619211556222E+00
 0.3315716472737E+00 -0.2312327234216E+00
 0.3964513907601E+00 -0.2943680225771E+00
 0.4543729183642E+00 -0.3518664201802E+00
 0.5076449142279E+00 -0.4043594167169E+00
 0.5570473769540E+00 -0.4497270917820E+00
 0.6027941172269E+00 -0.4874343694454E+00
 0.6449719914755E+00 -0.5184463342458E+00
 0.6836946162218E+00 -0.5437847739133E+00
 0.7189920279712E+00 -0.5642303456079E+00
 0.7507573846642E+00 -0.5803572891083E+00
 0.7787977404390E+00 -0.5927335974406E+00
 0.8028500846909E+00 -0.6018227250933E+00
 0.8225939302459E+00 -0.6080355262442E+00
 0.8377327145724E+00 -0.6118780293725E+00
 0.8481105426595E+00 -0.6139469756923E+00
 0.8532569255652E+00 -0.6147127594104E+00
 0.8532224649828E+00 -0.6163356233662E+00
 0.1760024148428E+00 -0.1040471886995E+00
 0.2711199880043E+00 -0.1848293138967E+00
 0.3462437916058E+00 -0.2583458474979E+00
 0.4098483315271E+00 -0.3220749273431E+00
 0.4669596738093E+00 -0.3795429050129E+00
 0.5197073890321E+00 -0.4316270683735E+00
 0.5687971770079E+00 -0.4758523497455E+00
 0.6143080520378E+00 -0.5117347849348E+00
 0.6562354486159E+00 -0.5405217274591E+00
 0.6946309903456E+00 -0.5634532329290E+00
 0.7294616145351E+00 -0.5814029594386E+00
 0.7605637421720E+00 -0.5949675372232E+00
 0.7876998193027E+00 -0.6047316605347E+00
 0.8105783690686E+00 -0.6111908108301E+00
 0.8288675052260E+00 -0.6148158265499E+00
 0.8422815830736E+00 -0.6161984573158E+00
 0.8506898016705E+00 -0.6160466841541E+00
 0.8537982872597E+00 -0.6149035005617E+00
 0.8519041427962E+00 -0.6148367550711E+00
 0.1927653675765E+00 -0.1220309812002E+00
 0.2866785834998E+00 -0.2140793506115E+00
 0.3595724707241E+00 -0.2877214218072E+00
 0.4219855510311E+00 -0.3509273523489E+00
 0.4781944370399E+00 -0.4080030810815E+00
 0.5303397911007E+00 -0.4593012268096E+00
 0.5791070272323E+00 -0.5019100466502E+00
 0.6244162339561E+00 -0.5355450575128E+00
 0.6661249317961E+00 -0.5618695579916E+00
 0.7041949810863E+00 -0.5823018204001E+00
 0.7385268805091E+00 -0.5977244130956E+00
 0.7689090971485E+00 -0.6087135874556E+00
 0.7950744283493E+00 -0.6158608612432E+00
 0.8167166470623E+00 -0.6197020461839E+00
 0.8335135782421E+00 -0.6207751228529E+00
 0.8452157448612E+00 -0.6198028452731E+00
 0.8517500427625E+00 -0.6176348378967E+00
 0.8529802741172E+00 -0.6149557144205E+00
 0.8494457397679E+00 -0.6136499318107E+00
 0.1077396699415E+00 -0.2055609906240E+00
 0.1131568698952E+00 -0.1982904546645E+00
 0.1200637811041E+00 -0.1894888671575E+00
 0.1284768554212E+00 -0.1792602995254E+00
 0.1384147543853E+00 -0.1677546813172E+00
 0.1498637519069E+00 -0.1551452720843E+00
 0.1627753063947E+00 -0.1416220479560E+00
 0.1770613617631E+00 -0.1273858302286E+00
 0.1925931178907E+00 -0.1126403412989E+00
 0.2092025476258E+00 -0.9758246242313E-01
 0.2266874060775E+00 -0.8239134432917E-01
 0.2448201388747E+00 -0.6721723166784E-01
 0.2633609135195E+00 -0.5217112400020E-01
 0.2820743904692E+00 -0.3731679275458E-01
 0.3007487219324E+00 -0.2266711959412E-01
 0.3192135257218E+00 -0.8186943501767E-02
 0.3373518346059E+00  0.6195974798484E-02
 0.3551003990675E+00  0.2057209296618E-01
 0.3724368984528E+00  0.3502696600715E-01
 0.1152257761355E+00 -0.2187249881160E+00
 0.1205735713484E+00 -0.2125474367545E+00
 0.1273424321717E+00 -0.2048711230004E+00
 0.1355882302905E+00 -0.1957150820594E+00
 0.1453444264687E+00 -0.1851922756363E+00
 0.1566222742301E+00 -0.1734584299295E+00
 0.1693999386253E+00 -0.1606972467481E+00
 0.1836155560548E+00 -0.1471117318842E+00
 0.1991624723885E+00 -0.1329160001250E+00
 0.2158875615120E+00 -0.1183254301148E+00
 0.2335931244847E+00 -0.1035451170237E+00
 0.2520432712512E+00 -0.8875715187172E-01
 0.2709756528328E+00 -0.7410768880707E-01
 0.2901190793608E+00 -0.5969526833272E-01
 0.3092165475704E+00 -0.4556255432640E-01
 0.3280511297929E+00 -0.3169436345977E-01
 0.3464688954733E+00 -0.1802502300195E-01
 0.3643905263755E+00 -0.4456509524170E-02
 0.3818031610006E+00  0.9114862508778E-02
 0.1229597337617E+00 -0.2322038451783E+00
 0.1282127833087E+00 -0.2272261327762E+00
 0.1347610799425E+00 -0.2207472918084E+00
 0.1427119659028E+00 -0.2127709910279E+00
 0.1521277922607E+00 -0.2033668787493E+00
 0.1630447494917E+00 -0.1926599840325E+00
 0.1754695420433E+00 -0.1808141486693E+00
 0.1893710106765E+00 -0.1680224853167E+00
 0.2046728609039E+00 -0.1544989371285E+00
 0.2212483878558E+00 -0.1404687600160E+00
 0.2389183321312E+00 -0.1261569829690E+00
 0.2574530602665E+00 -0.1117748690443E+00
 0.2765805721878E+00 -0.9750496520581E-01
 0.2960019108054E+00 -0.8348593585762E-01
 0.3154151074109E+00 -0.6979922383460E-01
 0.3345471002985E+00 -0.5646076046976E-01
 0.3531891510586E+00 -0.4342207209215E-01
 0.3712249210743E+00 -0.3058472082947E-01
 0.3886378055037E+00 -0.1782815052107E-01
 0.1309586563584E+00 -0.2459031175439E+00
 0.1360655247993E+00 -0.2421971208691E+00
 0.1423290944060E+00 -0.2369984151037E+00
 0.1498829587581E+00 -0.2302983177602E+00
 0.1588181048773E+00 -0.2221370321875E+00
 0.1691973187402E+00 -0.2126041679593E+00
 0.1810561326282E+00 -0.2018333349362E+00
 0.1943965142790E+00 -0.1899950816131E+00
 0.2091784880441E+00 -0.1772901271797E+00
 0.2253121632986E+00 -0.1639412823963E+00
 0.2426515122738E+00 -0.1501830803105E+00
 0.2609913808603E+00 -0.1362486511459E+00
 0.2800695961451E+00 -0.1223539359338E+00
 0.2995765664748E+00 -0.1086799354810E+00
 0.3191751537342E+00 -0.9535457491496E-01
 0.3385332213875E+00 -0.8243719810717E-01
 0.3573684009126E+00 -0.6991078581215E-01
 0.3754966814215E+00 -0.5768864299971E-01
 0.3928638888547E+00 -0.4563962579017E-01
 0.1392417639928E+00 -0.2597350075197E+00
 0.1441507546244E+00 -0.2573349670395E+00
 0.1500737168861E+00 -0.2534730521998E+00
 0.1571534200584E+00 -0.2481297517633E+00
 0.1654988748010E+00 -0.2413194439329E+00
 0.1751948477274E+00 -0.2330977198272E+00
 0.1863029032100E+00 -0.2235620361876E+00
 0.1988567867698E+00 -0.2128498277041E+00
 0.2128545932273E+00 -0.2011350486509E+00
 0.2282495946668E+00 -0.1886230568187E+00
 0.2449411127977E+00 -0.1755429769731E+00
 0.2627667735828E+00 -0.1621368071941E+00
 0.2814979257629E+00 -0.1486448084340E+00
 0.3008407768194E+00 -0.1352871577221E+00
 0.3204468986966E+00 -0.1222425710828E+00
 0.3399379706445E+00 -0.1096259508040E+00
 0.3589499657679E+00 -0.9746968512844E-01
 0.3771971199996E+00 -0.8571725775915E-01
 0.3945382224096E+00 -0.7423983037448E-01
 0.1478483254565E+00 -0.2736357116819E+00
 0.1525338926153E+00 -0.2725536469370E+00
 0.1580947307015E+00 -0.2700662711344E+00
 0.1646701689904E+00 -0.2661435562036E+00
 0.1723767078990E+00 -0.2607777556929E+00
 0.1813128759834E+00 -0.2539927613403E+00
 0.1915598035358E+00 -0.2458485702453E+00
 0.2031777148315E+00 -0.2364431870461E+00
 0.2161993265281E+00 -0.2259129331696E+00
 0.2306210463016E+00 -0.2144310635321E+00
 0.2463927843829E+00 -0.2022040908488E+00
 0.2634072465892E+00 -0.1894649261809E+00
 0.2814899109121E+00 -0.1764619122714E+00
 0.3003916227930E+00 -0.1634429374361E+00
 0.3197870357065E+00 -0.1506341522624E+00
 0.3392842607080E+00 -0.1382136488409E+00
 0.3584543310499E+00 -0.1262825008427E+00
 0.3768924202168E+00 -0.1148406168261E+00
 0.3943139140592E+00 -0.1037838383572E+00
 0.1568118996945E+00 -0.2875457902741E+00
 0.1612727986440E+00 -0.2877764870507E+00
 0.1664786844026E+00 -0.2866833968066E+00
 0.1725575688036E+00 -0.2842276544544E+00
 0.1796245367188E+00 -0.2803836140285E+00
 0.1877833798231E+00 -0.2751479523093E+00
 0.1971265820505E+00 -0.2685455532107E+00
 0.2077327749283E+00 -0.2606336264248E+00
 0.2196616914904E+00 -0.2515047113022E+00
 0.2329468327500E+00 -0.2412886049666E+00
 0.2475860680014E+00 -0.2301527563489E+00
 0.2635304224207E+00 -0.2183003152070E+00
 0.2806714673721E+00 -0.2059647343427E+00
 0.2988281462485E+00 -0.1933995849481E+00
 0.3177347579017E+00 -0.1808620552815E+00
 0.3370336505926E+00 -0.1685885752996E+00
 0.3562798833602E+00 -0.1567615869838E+00
 0.3749731860167E+00 -0.1454691223185E+00
 0.3926472702926E+00 -0.1346700497300E+00
 0.1661619634054E+00 -0.3014103851757E+00
 0.1704207970238E+00 -0.3029370200620E+00
 0.1753053426767E+00 -0.3032430533744E+00
 0.1809281349854E+00 -0.3022835323101E+00
 0.1873965502010E+00 -0.3000200627179E+00
 0.1948124812441E+00 -0.2964283879250E+00
 0.2032718969878E+00 -0.2915041145253E+00
 0.2128630746083E+00 -0.2852674110071E+00
 0.2236631079583E+00 -0.2777671915306E+00
 0.2357325211890E+00 -0.2690849272937E+00
 0.2491078473158E+00 -0.2593378966004E+00
 0.2637919981984E+00 -0.2486813606637E+00
 0.2797422262441E+00 -0.2373088138995E+00
 0.2968555216569E+00 -0.2254490507685E+00
 0.3149515147561E+00 -0.2133582564675E+00
 0.3337535996184E+00 -0.2013045790687E+00
 0.3528708799447E+00 -0.1895416135621E+00
 0.3717883367979E+00 -0.1782660245883E+00
 0.3898919296222E+00 -0.1675553497099E+00
 0.1759269890625E+00 -0.3151827501952E+00
 0.1800329806366E+00 -0.3179865024723E+00
 0.1846578009255E+00 -0.3196894124415E+00
 0.1898972051305E+00 -0.3202436416505E+00
 0.1958472397938E+00 -0.3196034408869E+00
 0.2026029415626E+00 -0.3177308179799E+00
 0.2102576440111E+00 -0.3146002442994E+00
 0.2189017778786E+00 -0.3102028381892E+00
 0.2286206475401E+00 -0.3045504020158E+00
 0.2394908767182E+00 -0.2976795319389E+00
 0.2515752495312E+00 -0.2896558408463E+00
 0.2649156158664E+00 -0.2805781447807E+00
 0.2795234122731E+00 -0.2705822360978E+00
 0.2953671769032E+00 -0.2598435608609E+00
 0.3123561963685E+00 -0.2485776527972E+00
 0.3303191146935E+00 -0.2370364037618E+00
 0.3489758668283E+00 -0.2254968142368E+00
 0.3679014288869E+00 -0.2142360793657E+00
 0.3864785930559E+00 -0.2034794444099E+00
 0.1861329857623E+00 -0.3288229856827E+00
 0.1901631642215E+00 -0.3328914766189E+00
 0.1946181623801E+00 -0.3359898527151E+00
 0.1995776173641E+00 -0.3380703713171E+00
 0.2051248997869E+00 -0.3390847752034E+00
 0.2113455111326E+00 -0.3389881947290E+00
 0.2183263173881E+00 -0.3377426258878E+00
 0.2261547513128E+00 -0.3353201642793E+00
 0.2349175072717E+00 -0.3317062372831E+00
 0.2446984172979E+00 -0.3269030389759E+00
 0.2555752335461E+00 -0.3209333061638E+00
 0.2676149963948E+00 -0.3138444960686E+00
 0.2808675496910E+00 -0.3057133329718E+00
 0.2953565562602E+00 -0.2966505619833E+00
 0.3110670148995E+00 -0.2868055431627E+00
 0.3279276391389E+00 -0.2763699480012E+00
 0.3457852692002E+00 -0.2655791037967E+00
 0.3643653867681E+00 -0.2547077624635E+00
 0.3832068867847E+00 -0.2440532195857E+00
 0.1968056171583E+00 -0.3423009001269E+00
 0.2008680855732E+00 -0.3476391665514E+00
 0.2052742552990E+00 -0.3521436095348E+00
 0.2100895091099E+00 -0.3557689115876E+00
 0.2153848855029E+00 -0.3584680220881E+00
 0.2212355953816E+00 -0.3601946855808E+00
 0.2277203516710E+00 -0.3609058620755E+00
 0.2349209031939E+00 -0.3605640688956E+00
 0.2429214009689E+00 -0.3591397744634E+00
 0.2518073425095E+00 -0.3566139950210E+00
 0.2616638767318E+00 -0.3529812372715E+00
 0.2725732311971E+00 -0.3482529155807E+00
 0.2846109489476E+00 -0.3424613591748E+00
 0.2978404809685E+00 -0.3356645149074E+00
 0.3123054318929E+00 -0.3279514442058E+00
 0.3280183228791E+00 -0.3194487154566E+00
 0.3449438711101E+00 -0.3103278089350E+00
 0.3629731930291E+00 -0.3008138890532E+00
 0.3818800989617E+00 -0.2911965910555E+00
 0.2079525417855E+00 -0.3555735576369E+00
 0.2121720556123E+00 -0.3621924476337E+00
 0.2166666392089E+00 -0.3681151483370E+00
 0.2214897306001E+00 -0.3733004185634E+00
 0.2267013027881E+00 -0.3777049530591E+00
 0.2323667148105E+00 -0.3812849353013E+00
 0.2385562580043E+00 -0.3839976691644E+00
 0.2453450050658E+00 -0.3858032438422E+00
 0.2528127070173E+00 -0.3866662918630E+00
 0.2610435638039E+00 -0.3865579442276E+00
 0.2701257327091E+00 -0.3854581079638E+00
 0.2801504460571E+00 -0.3833582099119E+00
 0.2912105914897E+00 -0.3802645790593E+00
 0.3033985647450E+00 -0.3762026901655E+00
 0.3168031341086E+00 -0.3712225831160E+00
 0.3315049518430E+00 -0.3654059422461E+00
 0.3475702591405E+00 -0.3588756746351E+00
 0.3650423651072E+00 -0.3518095756067E+00
 0.3839319819313E+00 -0.3444620926271E+00
 0.2195630887043E+00 -0.3685831635667E+00
 0.2240661987916E+00 -0.3764848135189E+00
 0.2287875780141E+00 -0.3838258854646E+00
 0.2337709788714E+00 -0.3905702769382E+00
 0.2390668945316E+00 -0.3966799653153E+00
 0.2447318147008E+00 -0.4021158976499E+00
 0.2508280370850E+00 -0.4068390525731E+00
 0.2574238069607E+00 -0.4108115998669E+00
 0.2645936312837E+00 -0.4139981752092E+00
 0.2724186689948E+00 -0.4163673351873E+00
 0.2809871375084E+00 -0.4178932874069E+00
 0.2903947030304E+00 -0.4185580179358E+00
 0.3007448466646E+00 -0.4183539744307E+00
 0.3121492290778E+00 -0.4172875191009E+00
 0.3247281304368E+00 -0.4153834558245E+00
 0.3386111587049E+00 -0.4126910855362E+00
 0.3539386928662E+00 -0.4092924864795E+00
 0.3708652315801E+00 -0.4053141274257E+00
 0.3895681654493E+00 -0.4009433325815E+00
 0.2316179622503E+00 -0.3812685756671E+00
 0.2365275915113E+00 -0.3904424204220E+00
 0.2416097681838E+00 -0.3991863003129E+00
 0.2469005391963E+00 -0.4074697916237E+00
 0.2524424930175E+00 -0.4152608825353E+00
 0.2582843936478E+00 -0.4225264258994E+00
 0.2644812451271E+00 -0.4292327877143E+00
 0.2710946711172E+00 -0.4353466151907E+00
 0.2781935309635E+00 -0.4408357170564E+00
 0.2858547308292E+00 -0.4456700884863E+00
 0.2941642229392E+00 -0.4498231386635E+00
 0.3032182208129E+00 -0.4532732002280E+00
 0.3131247001347E+00 -0.4560054232943E+00
 0.3240053137799E+00 -0.4580141872155E+00
 0.3359979420287E+00 -0.4593062047641E+00
 0.3492602526765E+00 -0.4599045454187E+00
 0.3639748944419E+00 -0.4598538533791E+00
 0.3803573638771E+00 -0.4592269956777E+00
 0.3986673944191E+00 -0.4581328576352E+00
 0.2440930848983E+00 -0.3935703184232E+00
 0.2495266864232E+00 -0.4039932951666E+00
 0.2550973606744E+00 -0.4141092447005E+00
 0.2608350583362E+00 -0.4238934803083E+00
 0.2667758460203E+00 -0.4333200743775E+00
 0.2729618362017E+00 -0.4423620230813E+00
 0.2794414495926E+00 -0.4509915875279E+00
 0.2862699603907E+00 -0.4591807442035E+00
 0.2935102926565E+00 -0.4669017233130E+00
 0.3012340602424E+00 -0.4741276413452E+00
 0.3095228693757E+00 -0.4808332507427E+00
 0.3184699331283E+00 -0.4869958396423E+00
 0.3281820841272E+00 -0.4925963206716E+00
 0.3387823213543E+00 -0.4976205498037E+00
 0.3504130957348E+00 -0.5020609111703E+00
 0.3632406308734E+00 -0.5059181831872E+00
 0.3774606867926E+00 -0.5092036468186E+00
 0.3933061594471E+00 -0.5119412710947E+00
 0.4110567820270E+00 -0.5141697255662E+00
 0.2569609055854E+00 -0.4054325962180E+00
 0.2630296813694E+00 -0.4170706224686E+00
 0.2692093671880E+00 -0.4285145263220E+00
 0.2755250430794E+00 -0.4397449767433E+00
 0.2820073541757E+00 -0.4507416736079E+00
 0.2886926339580E+00 -0.4614833134251E+00
 0.2956232859548E+00 -0.4719476924817E+00
 0.3028484063603E+00 -0.4821118902469E+00
 0.3104246389688E+00 -0.4919525039150E+00
 0.3184172683860E+00 -0.5014459217747E+00
 0.3269015744955E+00 -0.5105686311643E+00
 0.3359644899949E+00 -0.5192975578112E+00
 0.3457066238405E+00 -0.5276104275606E+00
 0.3562447370238E+00 -0.5354861272085E+00
 0.3677147818161E+00 -0.5429050145907E+00
 0.3802756378813E+00 -0.5498490836529E+00
 0.3941136770484E+00 -0.5563018234346E+00
 0.4094482980134E+00 -0.5622475494808E+00
 0.4265385344132E+00 -0.5676699787388E+00
 0.2701909492228E+00 -0.4168043069304E+00
 0.2769993932508E+00 -0.4296141307528E+00
 0.2839008409456E+00 -0.4423306965067E+00
 0.2909163711518E+00 -0.4549392637179E+00
 0.2980719970324E+00 -0.4674242818783E+00
 0.3053988831643E+00 -0.4797692068252E+00
 0.3129337626196E+00 -0.4919564120376E+00
 0.3207195474424E+00 -0.5039671452018E+00
 0.3288061306594E+00 -0.5157814971120E+00
 0.3372513855137E+00 -0.5273783594243E+00
 0.3461223755773E+00 -0.5387353507477E+00
 0.3554967963398E+00 -0.5498286876232E+00
 0.3654646732575E+00 -0.5606329679709E+00
 0.3761303405875E+00 -0.5711208185948E+00
 0.3876147157686E+00 -0.5812623336577E+00
 0.4000578587489E+00 -0.5910241958487E+00
 0.4136217700140E+00 -0.6003683277992E+00
 0.4284933362651E+00 -0.6092498628389E+00
 0.4448874864156E+00 -0.6176141550022E+00
 0.2837502305098E+00 -0.4276397650205E+00
 0.2913958438959E+00 -0.4415709749250E+00
 0.2991236339601E+00 -0.4554961055317E+00
 0.3069512342489E+00 -0.4694039252071E+00
 0.3149005135895E+00 -0.4832824320393E+00
 0.3229978030668E+00 -0.4971185490611E+00
 0.3312742724760E+00 -0.5108978784180E+00
 0.3397664493408E+00 -0.5246044696384E+00
 0.3485168763254E+00 -0.5382205679878E+00
 0.3575749057309E+00 -0.5517263148598E+00
 0.3669976311769E+00 -0.5650993736515E+00
 0.3768509551524E+00 -0.5783144522401E+00
 0.3872107850127E+00 -0.5913426875420E+00
 0.3981643365099E+00 -0.6041508491262E+00
 0.4098114991300E+00 -0.6167003080346E+00
 0.4222661779161E+00 -0.6289457047964E+00
 0.4356574636814E+00 -0.6408332349449E+00
 0.4501304061988E+00 -0.6522984432349E+00
 0.4658459574248E+00 -0.6632633181166E+00
 0.2976036783638E+00 -0.4378993184867E+00
 0.3061768462475E+00 -0.4528964875549E+00
 0.3148271593397E+00 -0.4679597810396E+00
 0.3235690906927E+00 -0.4830801491882E+00
 0.3324205768391E+00 -0.4982477012103E+00
 0.3414031913899E+00 -0.5134512991818E+00
 0.3505424208327E+00 -0.5286781869222E+00
 0.3598680307641E+00 -0.5439136116658E+00
 0.3694145129302E+00 -0.5591404056113E+00
 0.3792216036110E+00 -0.5743384997585E+00
 0.3893348619698E+00 -0.5894843448950E+00
 0.3998062921624E+00 -0.6045502152319E+00
 0.4106949842328E+00 -0.6195033702116E+00
 0.4220677346802E+00 -0.6343050509111E+00
 0.4339995864299E+00 -0.6489092912971E+00
 0.4465741965174E+00 -0.6632615337772E+00
 0.4598838930210E+00 -0.6772970567717E+00
 0.4740291836416E+00 -0.6909392498945E+00
 0.4891172969772E+00 -0.7040978308359E+00
 0.3117145952253E+00 -0.4475499330547E+00
 0.3212986388955E+00 -0.4635549394893E+00
 0.3309592245110E+00 -0.4796823437441E+00
 0.3407077115254E+00 -0.4959237731718E+00
 0.3505580691013E+00 -0.5122698460687E+00
 0.3605269548937E+00 -0.5287096844788E+00
 0.3706338494014E+00 -0.5452304512153E+00
 0.3809012299689E+00 -0.5618168711704E+00
 0.3913547696906E+00 -0.5784507067138E+00
 0.4020235458418E+00 -0.5951101632416E+00
 0.4129402399571E+00 -0.6117692052487E+00
 0.4241413075116E+00 -0.6283967669679E+00
 0.4356670894463E+00 -0.6449558460674E+00
 0.4475618309477E+00 -0.6614024757908E+00
 0.4598735657010E+00 -0.6776845824387E+00
 0.4726538176948E+00 -0.6937407545596E+00
 0.4859570679682E+00 -0.7094989830346E+00
 0.4998399359512E+00 -0.7248754960874E+00
 0.5143600081211E+00 -0.7397739412897E+00
 0.3260444760460E+00 -0.4565645938764E+00
 0.3367152277689E+00 -0.4735180036516E+00
 0.3474649092675E+00 -0.4906334941564E+00
 0.3583015917467E+00 -0.5079017452283E+00
 0.3692350135106E+00 -0.5253121765870E+00
 0.3802765404610E+00 -0.5428524026549E+00
 0.3914391381397E+00 -0.5605077139761E+00
 0.4027373362980E+00 -0.5782605477011E+00
 0.4141871685920E+00 -0.5960899205733E+00
 0.4258060696189E+00 -0.6139708055623E+00
 0.4376127101645E+00 -0.6318734392802E+00
 0.4496267499494E+00 -0.6497625527851E+00
 0.4618684864808E+00 -0.6675965243595E+00
 0.4743583805418E+00 -0.6853264603622E+00
 0.4871164461403E+00 -0.7028952204017E+00
 0.5001615101125E+00 -0.7202364170569E+00
 0.5135103836680E+00 -0.7372734405610E+00
 0.5271770758091E+00 -0.7539185851287E+00
 0.5411723951288E+00 -0.7700724103977E+00
 0.3405514007824E+00 -0.4649189332598E+00
 0.3523748718974E+00 -0.4827577496639E+00
 0.3642811378834E+00 -0.5007812820478E+00
 0.3762745909555E+00 -0.5189775769531E+00
 0.3883602512508E+00 -0.5373331019880E+00
 0.4005436036108E+00 -0.5558321688044E+00
 0.4128304049713E+00 -0.5744563975576E+00
 0.4252264429606E+00 -0.5931841871990E+00
 0.4377372284353E+00 -0.6119901683892E+00
 0.4503676054890E+00 -0.6308446250063E+00
 0.4631212626898E+00 -0.6497128773869E+00
 0.4760001301020E+00 -0.6685546263169E+00
 0.4890036494646E+00 -0.6873232617971E+00
 0.5021279116289E+00 -0.7059651447638E+00
 0.5153646688486E+00 -0.7244188726795E+00
 0.5287002537397E+00 -0.7426145397374E+00
 0.5421144798370E+00 -0.7604729947222E+00
 0.5555796643727E+00 -0.7779050732942E+00
 0.5690600883987E+00 -0.7948106714852E+00
 0.3551926174529E+00 -0.4725947645741E+00
 0.3682249683673E+00 -0.4912535734554E+00
 0.3813439397983E+00 -0.5101024302841E+00
 0.3945496464486E+00 -0.5291250450363E+00
 0.4078416915535E+00 -0.5483031742933E+00
 0.4212188909787E+00 -0.5676160412377E+00
 0.4346789315069E+00 -0.5870398237083E+00
 0.4482179449101E+00 -0.6065471745292E+00
 0.4618299840519E+00 -0.6261067525035E+00
 0.4755063894006E+00 -0.6456827534693E+00
 0.4892350356023E+00 -0.6652344389650E+00
 0.5029994493443E+00 -0.6847156657605E+00
 0.5167777926850E+00 -0.7040744227955E+00
 0.5305417113023E+00 -0.7232523822913E+00
 0.5442550556001E+00 -0.7421844674834E+00
 0.5578724950426E+00 -0.7607984277712E+00
 0.5713380577184E+00 -0.7790143887822E+00
 0.5845836306513E+00 -0.7967443011959E+00
 0.5975272785339E+00 -0.8138911437350E+00
 0.3699254874183E+00 -0.4795812020378E+00
 0.3842136643584E+00 -0.4989943245528E+00
 0.3985907536497E+00 -0.5185854767922E+00
 0.4130517882607E+00 -0.5383323438834E+00
 0.4275900464637E+00 -0.5582102352509E+00
 0.4421966942847E+00 -0.5781915335269E+00
 0.4568603264242E+00 -0.5982452497804E+00
 0.4715663915849E+00 -0.6183366439413E+00
 0.4862964961401E+00 -0.6384268874639E+00
 0.5010275832345E+00 -0.6584727590753E+00
 0.5157309855809E+00 -0.6784263740574E+00
 0.5303713507125E+00 -0.6982349535119E+00
 0.5449054375461E+00 -0.7178406427314E+00
 0.5592807822031E+00 -0.7371803868171E+00
 0.5734342275721E+00 -0.7561858660127E+00
 0.5872903015330E+00 -0.7747834812938E+00
 0.6007594088353E+00 -0.7928943617142E+00
 0.6137357455457E+00 -0.8104343461619E+00
 0.6260947864483E+00 -0.8273139247101E+00
 0.3847077278308E+00 -0.4858745966795E+00
 0.4002900687469E+00 -0.5059781289505E+00
 0.4159606185008E+00 -0.5262304734683E+00
 0.4317083045244E+00 -0.5466016432028E+00
 0.4475189519324E+00 -0.5670588061484E+00
 0.4633748974265E+00 -0.5875658033643E+00
 0.4792544584151E+00 -0.6080828213296E+00
 0.4951312547783E+00 -0.6285661645734E+00
 0.5109733913683E+00 -0.6489681005730E+00
 0.5267425119658E+00 -0.6692367673196E+00
 0.5423927349999E+00 -0.6893161458564E+00
 0.5578694795023E+00 -0.7091461072756E+00
 0.5731081861444E+00 -0.7286625475479E+00
 0.5880329309315E+00 -0.7477976251676E+00
 0.6025549146257E+00 -0.7664801166870E+00
 0.6165707846976E+00 -0.7846359044879E+00
 0.6299607030086E+00 -0.8021886107390E+00
 0.6425860326465E+00 -0.8190603946731E+00
 0.6542865432614E+00 -0.8351729286490E+00
 0.3994977069771E+00 -0.4914784747407E+00
 0.4164045863771E+00 -0.5122122889493E+00
 0.4333945542166E+00 -0.5330488339314E+00
 0.4504491567231E+00 -0.5539488590676E+00
 0.4675453958534E+00 -0.5748697468457E+00
 0.4846553895609E+00 -0.5957651575282E+00
 0.5017458233761E+00 -0.6165848806916E+00
 0.5187772166503E+00 -0.6372748177437E+00
 0.5357030357525E+00 -0.6577770592225E+00
 0.5524686850296E+00 -0.6780300457642E+00
 0.5690104022533E+00 -0.6979688163456E+00
 0.5852540806945E+00 -0.7175253559541E+00
 0.6011140343507E+00 -0.7366290605804E+00
 0.6164917140071E+00 -0.7552073433036E+00
 0.6312743662023E+00 -0.7731864143681E+00
 0.6453335991620E+00 -0.7904922842256E+00
 0.6585237748886E+00 -0.8070520641017E+00
 0.6706800814179E+00 -0.8227956640462E+00
 0.6816160904000E+00 -0.8376579628647E+00
 0.4142547094546E+00 -0.4964033683616E+00
 0.4325092153997E+00 -0.5177130364723E+00
 0.4508358889781E+00 -0.5390629916324E+00
 0.4692073167461E+00 -0.5604031830421E+00
 0.4875900384328E+00 -0.5816796093766E+00
 0.5059443443656E+00 -0.6028341776436E+00
 0.5242237629920E+00 -0.6238048150630E+00
 0.5423743137704E+00 -0.6445257286215E+00
 0.5603335963737E+00 -0.6649277675176E+00
 0.5780297745675E+00 -0.6849388767584E+00
 0.5953805021581E+00 -0.7044846468760E+00
 0.6122918308787E+00 -0.7234889730591E+00
 0.6286571354756E+00 -0.7418748423785E+00
 0.6443560885626E+00 -0.7595652746805E+00
 0.6592537155840E+00 -0.7764844560027E+00
 0.6731995564939E+00 -0.7925591292325E+00
 0.6860269450249E+00 -0.8077203545590E+00
 0.6975523499075E+00 -0.8219058339014E+00
 0.7075744548861E+00 -0.8350631144974E+00
 0.4289390211229E+00 -0.5006662704436E+00
 0.4485575173129E+00 -0.5225046050250E+00
 0.4682300980291E+00 -0.5443050655081E+00
 0.4879184431675E+00 -0.5660052987230E+00
 0.5075766995839E+00 -0.5875383501955E+00
 0.5271515052222E+00 -0.6088328710925E+00
 0.5465815495127E+00 -0.6298135972254E+00
 0.5657968384752E+00 -0.6504019651463E+00
 0.5847177918875E+00 -0.6705168174266E+00
 0.6032542650229E+00 -0.6900751891098E+00
 0.6213045647451E+00 -0.7089931831352E+00
 0.6387545180360E+00 -0.7271869467575E+00
 0.6554766491526E+00 -0.7445737606118E+00
 0.6713295303012E+00 -0.7610732513503E+00
 0.6861573939654E+00 -0.7766087413305E+00
 0.6997901383014E+00 -0.7911087604482E+00
 0.7120439294412E+00 -0.8045087765931E+00
 0.7227226897608E+00 -0.8167532964618E+00
 0.7316207328989E+00 -0.8277987872681E+00
 0.4435115734458E+00 -0.5042889140791E+00
 0.4645037172278E+00 -0.5266160161487E+00
 0.4855233252829E+00 -0.5488121228822E+00
 0.5065187900380E+00 -0.5708010702928E+00
 0.5274296470448E+00 -0.5925013888039E+00
 0.5481868779394E+00 -0.6138270542731E+00
 0.5687125416907E+00 -0.6346884698949E+00
 0.5889190493445E+00 -0.6549935302029E+00
 0.6087082834744E+00 -0.6746487311620E+00
 0.6279706911367E+00 -0.6935603320670E+00
 0.6465844382235E+00 -0.7116355841525E+00
 0.6644146939796E+00 -0.7287840354081E+00
 0.6813131125719E+00 -0.7449189080027E+00
 0.6971175955428E+00 -0.7599585255938E+00
 0.7116524625563E+00 -0.7738277408844E+00
 0.7247292490240E+00 -0.7864592734423E+00
 0.7361485206403E+00 -0.7977948118437E+00
 0.7457034710843E+00 -0.8077856439471E+00
 0.7531869400361E+00 -0.8163925232268E+00
 0.4579322763463E+00 -0.5072923831121E+00
 0.4802992024445E+00 -0.5300706169114E+00
 0.5026569981884E+00 -0.5526105995950E+00
 0.5249379399327E+00 -0.5748207995685E+00
 0.5470645252078E+00 -0.5966036835639E+00
 0.5689500135953E+00 -0.6178572781124E+00
 0.5904980604822E+00 -0.6384768135997E+00
 0.6116019631109E+00 -0.6583563289983E+00
 0.6321438023381E+00 -0.6773902432572E+00
 0.6519936372049E+00 -0.6954749299330E+00
 0.6710088442614E+00 -0.7125103257456E+00
 0.6890336620285E+00 -0.7284015822480E+00
 0.7058989908138E+00 -0.7430607390755E+00
 0.7214225063697E+00 -0.7564083543695E+00
 0.7354091791397E+00 -0.7683749623361E+00
 0.7476523637460E+00 -0.7789021190137E+00
 0.7579358022856E+00 -0.7879425919778E+00
 0.7660372376661E+00 -0.7954588775821E+00
 0.7717355183720E+00 -0.8014181950088E+00
 0.4721557168672E+00 -0.5096835949673E+00
 0.4958836638174E+00 -0.5328594574797E+00
 0.5195543996791E+00 -0.5556765400551E+00
 0.5430809646221E+00 -0.5780263694407E+00
 0.5663664490188E+00 -0.5997939439594E+00
 0.5893045677655E+00 -0.6208604282631E+00
 0.6117791436051E+00 -0.6411056095267E+00
 0.6336632597385E+00 -0.6604101034439E+00
 0.6548184307435E+00 -0.6786574042722E+00
 0.6750939517508E+00 -0.6957358712591E+00
 0.6943264950158E+00 -0.7115407083783E+00
 0.7123399752388E+00 -0.7259759510207E+00
 0.7289456750327E+00 -0.7389564242290E+00
 0.7439425950197E+00 -0.7504095777580E+00
 0.7571179546026E+00 -0.7602770181029E+00
 0.7682477125811E+00 -0.7685154125943E+00
 0.7770968458408E+00 -0.7750961854050E+00
 0.7834190062363E+00 -0.7800028540585E+00
 0.7869540233968E+00 -0.7832240329403E+00
 0.4861315987218E+00 -0.5114553077067E+00
 0.5111856855475E+00 -0.5349419337089E+00
 0.5361214290361E+00 -0.5579372384547E+00
 0.5608296021547E+00 -0.5803143106092E+00
 0.5851920274882E+00 -0.6019396640534E+00
 0.6090817480595E+00 -0.6226773773650E+00
 0.6323621288722E+00 -0.6423924355260E+00
 0.6548858552335E+00 -0.6609535015066E+00
 0.6764941805358E+00 -0.6782353690958E+00
 0.6970165363791E+00 -0.6941212709060E+00
 0.7162705100936E+00 -0.7085051355936E+00
 0.7340621355808E+00 -0.7212938141302E+00
 0.7501863883390E+00 -0.7324092371282E+00
 0.7644276886641E+00 -0.7417904144372E+00
 0.7765600565125E+00 -0.7493951355324E+00
 0.7863462354585E+00 -0.7552011650963E+00
 0.7935345052647E+00 -0.7592066175235E+00
 0.7978503664062E+00 -0.7614291476303E+00
 0.7989781745599E+00 -0.7619032835820E+00
 0.4998123879589E+00 -0.5126101736112E+00
 0.5261377517208E+00 -0.5362946198132E+00
 0.5522688957424E+00 -0.5593454379882E+00
 0.5780718588360E+00 -0.5816158758053E+00
 0.6034062696874E+00 -0.6029534983774E+00
 0.6281243913143E+00 -0.6232059739963E+00
 0.6520695566584E+00 -0.6422251960576E+00
 0.6750749914591E+00 -0.6598704252218E+00
 0.6969632559344E+00 -0.6760109344216E+00
 0.7175462830143E+00 -0.6905284521719E+00
 0.7366259039550E+00 -0.7033195305007E+00
 0.7539947044833E+00 -0.7142978691222E+00
 0.7694369875351E+00 -0.7233965791928E+00
 0.7827294804597E+00 -0.7305703776853E+00
 0.7936411396828E+00 -0.7357977690844E+00
 0.8019308717958E+00 -0.7390834283518E+00
 0.8073408624279E+00 -0.7404613818518E+00
 0.8095814179361E+00 -0.7400003337510E+00
 0.8082979040941E+00 -0.7378148723827E+00
 0.5131500179725E+00 -0.5131574298732E+00
 0.5406691490859E+00 -0.5369050805625E+00
 0.5679017276614E+00 -0.5598704359984E+00
 0.5946878538266E+00 -0.5818856827748E+00
 0.6208654562017E+00 -0.6027798408844E+00
 0.6462672118268E+00 -0.6223860755720E+00
 0.6707180407012E+00 -0.6405462148094E+00
 0.6940338478220E+00 -0.6571138353336E+00
 0.7160213671593E+00 -0.6719567948438E+00
 0.7364788409824E+00 -0.6849595945096E+00
 0.7551972642814E+00 -0.6960257295119E+00
 0.7719619489247E+00 -0.7050800499108E+00
 0.7865541304910E+00 -0.7120711765933E+00
 0.7987522019278E+00 -0.7169741340729E+00
 0.8083318917486E+00 -0.7197936061593E+00
 0.8150642023703E+00 -0.7205687022401E+00
 0.8187091886076E+00 -0.7193810504605E+00
 0.8190019688143E+00 -0.7163700124672E+00
 0.8156277731943E+00 -0.7117621261563E+00
 0.5260956369896E+00 -0.5131156740438E+00
 0.5547048113059E+00 -0.5367777299184E+00
 0.5829171444448E+00 -0.5595070148681E+00
 0.6105477652968E+00 -0.5811138581663E+00
 0.6374152676938E+00 -0.6014104754936E+00
 0.6633352917035E+00 -0.6202191769432E+00
 0.6881170485203E+00 -0.6373763408246E+00
 0.7115622709753E+00 -0.6527348991411E+00
 0.7334657912796E+00 -0.6661664420351E+00
 0.7536170562122E+00 -0.6775634749007E+00
 0.7718021791934E+00 -0.6868418268589E+00
 0.7878063149663E+00 -0.6939432265073E+00
 0.8014161607314E+00 -0.6988381958765E+00
 0.8124223601652E+00 -0.7015296661729E+00
 0.8206215464669E+00 -0.7020581362168E+00
 0.8258178537072E+00 -0.7005099225293E+00
 0.8278240313458E+00 -0.6970314109279E+00
 0.8264641458508E+00 -0.6918546480605E+00
 0.8215814306450E+00 -0.6853441512542E+00
 0.5385952668162E+00 -0.5125080618364E+00
 0.5681560742173E+00 -0.5359241996174E+00
 0.5971910960734E+00 -0.5582609348299E+00
 0.6254950163120E+00 -0.5793068500175E+00
 0.6528715168126E+00 -0.5988615875069E+00
 0.6791229497352E+00 -0.6167426274615E+00
 0.7040462489499E+00 -0.6327875746772E+00
 0.7274329093748E+00 -0.6468552180233E+00
 0.7490706433927E+00 -0.6588274765263E+00
 0.7687457120790E+00 -0.6686119135861E+00
 0.7862457112926E+00 -0.6761446700436E+00
 0.8013627417804E+00 -0.6813938700739E+00
 0.8138970112792E+00 -0.6843638585494E+00
 0.8236610713302E+00 -0.6851009898434E+00
 0.8304852922103E+00 -0.6837022096431E+00
 0.8342260860696E+00 -0.6803284900745E+00
 0.8347807376142E+00 -0.6752264786818E+00
 0.8321170624905E+00 -0.6687638757647E+00
 0.8263381501314E+00 -0.6614875682476E+00
 0.5505836318991E+00 -0.5113585112118E+00
 0.5809073466032E+00 -0.5343554736191E+00
 0.6105596309813E+00 -0.5561363003246E+00
 0.6393238557977E+00 -0.5764711883140E+00
 0.6669954743455E+00 -0.5951550379208E+00
 0.6933674140377E+00 -0.6120103533997E+00
 0.7182282731852E+00 -0.6268841164930E+00
 0.7413643287515E+00 -0.6396487044721E+00
 0.7625620510741E+00 -0.6502044428466E+00
 0.7816110574934E+00 -0.6584830395522E+00
 0.7983074850457E+00 -0.6644516278678E+00
 0.8124580095607E+00 -0.6681176492142E+00
 0.8238849067676E+00 -0.6695351299674E+00
 0.8324329654664E+00 -0.6688132410137E+00
 0.8379798898235E+00 -0.6661284293722E+00
 0.8404535700370E+00 -0.6617418915664E+00
 0.8398628694327E+00 -0.6560246006775E+00
 0.8363562958980E+00 -0.6494921312665E+00
 0.8303348343771E+00 -0.6428508046499E+00
 0.5620205357355E+00 -0.5097424100307E+00
 0.5928875929397E+00 -0.5321773770637E+00
 0.6229243551553E+00 -0.5532719192705E+00
 0.6519205416174E+00 -0.5727837927512E+00
 0.6796662138643E+00 -0.5905210177250E+00
 0.7059470236339E+00 -0.6063203772485E+00
 0.7305478528594E+00 -0.6200456485221E+00
 0.7532555155175E+00 -0.6315899995418E+00
 0.7738618367718E+00 -0.6408799900418E+00
 0.7921670186217E+00 -0.6478801272673E+00
 0.8079837130177E+00 -0.6525980155982E+00
 0.8211422501626E+00 -0.6550904307123E+00
 0.8314978102419E+00 -0.6554708220722E+00
 0.8389409001228E+00 -0.6539188497553E+00
 0.8434135367180E+00 -0.6506925695628E+00
 0.8449352622973E+00 -0.6461435833173E+00
 0.8436463078912E+00 -0.6407343982555E+00
 0.8398792755894E+00 -0.6350538189377E+00
 0.8342846087948E+00 -0.6298176934072E+00
 0.5728798702372E+00 -0.5077587991412E+00
 0.6040334623118E+00 -0.5295336175692E+00
 0.6342141931120E+00 -0.5498333031776E+00
 0.6632167346448E+00 -0.5684550864443E+00
 0.6908208606543E+00 -0.5852291062884E+00
 0.7168097918713E+00 -0.6000115062858E+00
 0.7409705806054E+00 -0.6126875128455E+00
 0.7630974801213E+00 -0.6231762878290E+00
 0.7829951227458E+00 -0.6314358882920E+00
 0.8004824789321E+00 -0.6374683483581E+00
 0.8153978558682E+00 -0.6413250842869E+00
 0.8276055978413E+00 -0.6431128526792E+00
 0.8370054604843E+00 -0.6430004349591E+00
 0.8435461626105E+00 -0.6412260630872E+00
 0.8472453485806E+00 -0.6381051928898E+00
 0.8482191449334E+00 -0.6340372602615E+00
 0.8467250499452E+00 -0.6295076683806E+00
 0.8432219219375E+00 -0.6250759644059E+00
 0.8384396996454E+00 -0.6213257099294E+00
</DataArray>
</PointData>
   <DataArray type="Float64" Name="Load" NumberOfComponents="1"    ComponentName0="Load" format="ascii">
 0.1157274703980E+01
 0.1183907205010E+01
 0.1177301639244E+01
 0.1192420642815E+01
 0.1194391614780E+01
 0.1188478454601E+01
 0.1174448911550E+01
 0.1153498952579E+01
 0.1126405900339E+01
 0.1093844067953E+01
 0.1056310520074E+01
 0.1014157271386E+01
 0.9676008718412E+00
 0.9167360920733E+00
 0.8615468595086E+00
 0.8019163283333E+00
 0.7376358348083E+00
 0.6684165492883E+00
 0.5938926546166E+00
 0.5136325167207E+00
 0.4271386663705E+00
 0.3338413403578E+00
 0.2330669442061E+00
 0.1239306643588E+00
 0.5295948429431E-02
 0.1236507239625E+00
 0.2626746185797E+00
 0.4106164638487E+00
 0.5657106704940E+00
 0.7258970711870E+00
 0.8889115987298E+00
 0.1052134476580E+01
 0.1212209577745E+01
 0.1366014165932E+01
 0.1513338025945E+01
 0.1655691174444E+01
 0.1801486831603E+01
 0.1943324376078E+01
 0.2197783047357E+01
 0.2154689967604E+01
 0.3871573805161E+01
 0.1002226183652E+01
 0.1110270934258E+01
 0.1099652836576E+01
 0.1099520089848E+01
 0.1098011790064E+01
 0.1089548666326E+01
 0.1074792602519E+01
 0.1053913862313E+01
 0.1027466281864E+01
 0.9959135942469E+00
 0.9596450136307E+00
 0.9189440092045E+00
 0.8739898322560E+00
 0.8248603320970E+00
 0.7715380659414E+00
 0.7139172621196E+00
 0.6518111327784E+00
 0.5849605351879E+00
 0.5130404095040E+00
 0.4356661382549E+00
 0.3523981334871E+00
 0.2627353778126E+00
 0.1660949983936E+00
 0.6184259197231E-01
 0.5056742587543E-01
 0.1711532774091E+00
 0.2994882624650E+00
 0.4345011512809E+00
 0.5746417303574E+00
 0.7179812291177E+00
 0.8622256641428E+00
 0.1004696565974E+01
 0.1142516871472E+01
 0.1273098580244E+01
 0.1394220798259E+01
 0.1504839101159E+01
 0.1599735722521E+01
 0.1684657671262E+01
 0.1704628617451E+01
 0.1446878549998E+01
 0.2395365890571E+01
 0.8869317886153E+00
 0.1004437718845E+01
 0.1016669642321E+01
 0.1009756867487E+01
 0.1003926701409E+01
 0.9934175855239E+00
 0.9776572619518E+00
 0.9566685256784E+00
 0.9306721539279E+00
 0.8999798770214E+00
 0.8648695143149E+00
 0.8255587545205E+00
 0.7821876735372E+00
 0.7348152204334E+00
 0.6834202062715E+00
 0.6279054518224E+00
 0.5681031027065E+00
 0.5037824754647E+00
 0.4346564319805E+00
 0.3603883540142E+00
 0.2805996234974E+00
 0.1948714425969E+00
 0.1027667284175E+00
 0.4772479579028E-02
 0.1018998513287E+00
 0.2140994228866E+00
 0.3321501121709E+00
 0.4550048059100E+00
 0.5812353597489E+00
 0.7090100043332E+00
 0.8360774818269E+00
 0.9598483353586E+00
 0.1077627613390E+01
 0.1186528509291E+01
 0.1283118749626E+01
 0.1362227951987E+01
 0.1415918182551E+01
 0.1429724416367E+01
 0.1308319407225E+01
 0.1137947212574E+01
 0.2018134591962E+01
 0.7881434814370E+00
 0.8976752883553E+00
 0.9252708126746E+00
 0.9206243346706E+00
 0.9117090642561E+00
 0.8994366894708E+00
 0.8827420922193E+00
 0.8615338933765E+00
 0.8358730012224E+00
 0.8059325301325E+00
 0.7719004118734E+00
 0.7339329301168E+00
 0.6921331502479E+00
 0.6465408027979E+00
 0.5971297466196E+00
 0.5438095362332E+00
 0.4864292737773E+00
 0.4247848700275E+00
 0.3586256913428E+00
 0.2876635366008E+00
 0.2115853416973E+00
 0.1300750266671E+00
 0.4296642540126E-01
 0.5070539690180E-01
 0.1493850336551E+00
 0.2532762221418E+00
 0.3614704035947E+00
 0.4729187023521E+00
 0.5862684885272E+00
 0.6997771064837E+00
 0.8112861411505E+00
 0.9183159544819E+00
 0.1018159456061E+01
 0.1107570766668E+01
 0.1181941743764E+01
 0.1234125433358E+01
 0.1253483638441E+01
 0.1212495087587E+01
 0.1070628776108E+01
 0.1067937451320E+01
 0.1901827135372E+01
 0.6977994871606E+00
 0.7951880118244E+00
 0.8304585366500E+00
 0.8304826594025E+00
 0.8207785737730E+00
 0.8071857217559E+00
 0.7897315958239E+00
 0.7683020715055E+00
 0.7429154491074E+00
 0.7136581946856E+00
 0.6806482965967E+00
 0.6439916098549E+00
 0.6037583757885E+00
 0.5599706047981E+00
 0.5125969993544E+00
 0.4615527747650E+00
 0.4067025335544E+00
 0.3478673557107E+00
 0.2848325588037E+00
 0.2173606146496E+00
 0.1452171976736E+00
 0.6827714248725E-01
 0.1601686918372E-01
 0.1018438642116E+00
 0.1936163775841E+00
 0.2893706317269E+00
 0.3881662773251E+00
 0.4889546618365E+00
 0.5904436613919E+00
 0.6909858989780E+00
 0.7885433204570E+00
 0.8807393700113E+00
 0.9648348627351E+00
 0.1037298023565E+01
 0.1092912767941E+01
 0.1124013216883E+01
 0.1118555909477E+01
 0.1056599713753E+01
 0.9607807989315E+00
 0.1106193554436E+01
 0.1869831399663E+01
 0.6124180573891E+00
 0.6973655794145E+00
 0.7352931293837E+00
 0.7395952455974E+00
 0.7305929310871E+00
 0.7163524753252E+00
 0.6983607804477E+00
 0.6767782851498E+00
 0.6516534087392E+00
 0.6230433803220E+00
 0.5910214443204E+00
 0.5556561272332E+00
 0.5169913282979E+00
 0.4750341438095E+00
 0.4297489440610E+00
 0.3810563534682E+00
 0.3288358658834E+00
 0.2729336692037E+00
 0.2131737700857E+00
 0.1493834544661E+00
 0.8149378735079E-01
 0.1278590531565E-01
 0.6934594231001E-01
 0.1502457363593E+00
 0.2351257181735E+00
 0.3229867248345E+00
 0.4128711720719E+00
 0.5037462794639E+00
 0.5943845840988E+00
 0.6832470577735E+00
 0.7684344695408E+00
 0.8476907831685E+00
 0.9183067429977E+00
 0.9766866771197E+00
 0.1017680048278E+01
 0.1034149838470E+01
 0.1016735047520E+01
 0.9629055675972E+00
 0.9378554052113E+00
 0.1185221420644E+01
 0.1872339573091E+01
 0.5302686032905E+00
 0.6036578952225E+00
 0.6412590836983E+00
 0.6486448735123E+00
 0.6409716885415E+00
 0.6266861934804E+00
 0.6084225343525E+00
 0.5867905678320E+00
 0.5619516805825E+00
 0.5339792218090E+00
 0.5029293254978E+00
 0.4688475657628E+00
 0.4317593604104E+00
 0.3916608958792E+00
 0.3485141322177E+00
 0.3022461731976E+00
 0.2527530209878E+00
 0.1999112334911E+00
 0.1436039729100E+00
 0.8383238980357E-01
 0.2257947451179E-01
 0.5044826487729E-01
 0.1212680915129E+00
 0.1962892513427E+00
 0.2743913926272E+00
 0.3546577632481E+00
 0.4361427880364E+00
 0.5178513658561E+00
 0.5986354001221E+00
 0.6770814805256E+00
 0.7514513767765E+00
 0.8196517923341E+00
 0.8791171036785E+00
 0.9264824496774E+00
 0.9572409141585E+00
 0.9659962099777E+00
 0.9492875498142E+00
 0.9220623805204E+00
 0.9689292327389E+00
 0.1276526791803E+01
 0.1892227243084E+01
 0.4504020037268E+00
 0.5134171113934E+00
 0.5489990673842E+00
 0.5582310498132E+00
 0.5519637340953E+00
 0.5380370197913E+00
 0.5197583335469E+00
 0.4981975648625E+00
 0.4736912592342E+00
 0.4463667557064E+00
 0.4162879316029E+00
 0.3834923358110E+00
 0.3479956310575E+00
 0.3097884106513E+00
 0.2688340918867E+00
 0.2250710080931E+00
 0.1784223361567E+00
 0.1288300624508E+00
 0.7640958117629E-01
 0.2380107864098E-01
 0.4366050571204E-01
 0.1052400278169E+00
 0.1712206371564E+00
 0.2403424056015E+00
 0.3118437751786E+00
 0.3848548154897E+00
 0.4584698373488E+00
 0.5317553639842E+00
 0.6036626449944E+00
 0.6729249666630E+00
 0.7379944846888E+00
 0.7970006356434E+00
 0.8476620751184E+00
 0.8871309148300E+00
 0.9120531531147E+00
 0.9198013244805E+00
 0.9139258879091E+00
 0.9223045574682E+00
 0.1031052007808E+01
 0.1369362569459E+01
 0.1922564387800E+01
 0.3722571216993E+00
 0.4260836409955E+00
 0.4587415195187E+00
 0.4687804154131E+00
 0.4637128774971E+00
 0.4503506610892E+00
 0.4322633478444E+00
 0.4108939197554E+00
 0.3867782218449E+00
 0.3601260934052E+00
 0.3310301472380E+00
 0.2995344292185E+00
 0.2656548603357E+00
 0.2293847545464E+00
 0.1906995712383E+00
 0.1495713372389E+00
 0.1060220717393E+00
 0.6042613709204E-01
 0.1906616269832E-01
 0.4717672166595E-01
 0.1008279217233E+00
 0.1586192673746E+00
 0.2194404909975E+00
 0.2827472734417E+00
 0.3478694125918E+00
 0.4139932184290E+00
 0.4802778651916E+00
 0.5458754322121E+00
 0.6098588537394E+00
 0.6711323480331E+00
 0.7283738495609E+00
 0.7800050409402E+00
 0.8241697010214E+00
 0.8587833493050E+00
 0.8820453077657E+00
 0.8946226460947E+00
 0.9064639703968E+00
 0.9526090420338E+00
 0.1109777974187E+01
 0.1460170899976E+01
 0.1960153227492E+01
 0.2954818862289E+00
 0.3412153080990E+00
 0.3705269013560E+00
 0.3805799386588E+00
 0.3763942580916E+00
 0.3636526596763E+00
 0.3458975200333E+00
 0.3248254458736E+00
 0.3011628611619E+00
 0.2752192277395E+00
 0.2471335912364E+00
 0.2169720426773E+00
 0.1847665501640E+00
 0.1505367618151E+00
 0.1143255507519E+00
 0.7633502351550E-01
 0.3794667379926E-01
 0.2180646188715E-01
 0.5970938579127E-01
 0.1067947126424E+00
 0.1572914694416E+00
 0.2105396203406E+00
 0.2661908281310E+00
 0.3238182726173E+00
 0.3828144107186E+00
 0.4424377571047E+00
 0.5019344566389E+00
 0.5605649562867E+00
 0.6175468823096E+00
 0.6719815089215E+00
 0.7228110512075E+00
 0.7688191916258E+00
 0.8086980880012E+00
 0.8413143107971E+00
 0.8666498931960E+00
 0.8886408369921E+00
 0.9220385233578E+00
 0.1003854526746E+01
 0.1196675733378E+01
 0.1548148837192E+01
 0.2003323423903E+01
 0.2198466406781E+00
 0.2584877812625E+00
 0.2843410019357E+00
 0.2938501536099E+00
 0.2902178273597E+00
 0.2780616392195E+00
 0.2607225567764E+00
 0.2400388111374E+00
 0.2169010970832E+00
 0.1917282862340E+00
 0.1647272113346E+00
 0.1360190839414E+00
 0.1057196051759E+00
 0.7407731872032E-01
 0.4218320239347E-01
 0.2069633506116E-01
 0.4300311567076E-01
 0.8064669036169E-01
 0.1220799076528E+00
 0.1661441673162E+00
 0.2125689488099E+00
 0.2611771467515E+00
 0.3117254278451E+00
 0.3638424292504E+00
 0.4169873842484E+00
 0.4705070543529E+00
 0.5237540223957E+00
 0.5761182335927E+00
 0.6269845444602E+00
 0.6756777300580E+00
 0.7214423141438E+00
 0.7634860845048E+00
 0.8011441111792E+00
 0.8343462683383E+00
 0.8648892143488E+00
 0.8995198451126E+00
 0.9558567360382E+00
 0.1069095316668E+01
 0.1287061481508E+01
 0.1633481862458E+01
 0.2051091071545E+01
 0.1452079470650E+00
 0.1777270773490E+00
 0.2002518592455E+00
 0.2088854211755E+00
 0.2055407289766E+00
 0.1939140406581E+00
 0.1770648471562E+00
 0.1568938342221E+00
 0.1344406448392E+00
 0.1102752868453E+00
 0.8479553438577E-01
 0.5856543584303E-01
 0.3363769837232E-01
 0.2346896359998E-01
 0.4426457586748E-01
 0.7519140501274E-01
 0.1093752054729E+00
 0.1457832901909E+00
 0.1841898430381E+00
 0.2245294300652E+00
 0.2667463662478E+00
 0.3107311784391E+00
 0.3562821952216E+00
 0.4030802826742E+00
 0.4506621639641E+00
 0.4984774786060E+00
 0.5460022877739E+00
 0.5927751785931E+00
 0.6383694321576E+00
 0.6823584351816E+00
 0.7243231235329E+00
 0.7639440313790E+00
 0.8012576676977E+00
 0.8372854203558E+00
 0.8754901246791E+00
 0.9247145446627E+00
 0.1003623897756E+01
 0.1143345189305E+01
 0.1378430231754E+01
 0.1716653581747E+01
 0.2102805224968E+01
 0.7156260037395E-01
 0.9918880055929E-01
 0.1188498917599E+00
 0.1265780453995E+00
 0.1234682173685E+00
 0.1125142960021E+00
 0.9654366765052E-01
 0.7761783997967E-01
 0.5733481663052E-01
 0.3800662708156E-01
 0.2715771261875E-01
 0.3695435043903E-01
 0.5928367251206E-01
 0.8586761391795E-01
 0.1146495388346E+00
 0.1450960861912E+00
 0.1770594434755E+00
 0.2105163900670E+00
 0.2454839623942E+00
 0.2819769192271E+00
 0.3199754164854E+00
 0.3593980569955E+00
 0.4000815426071E+00
 0.4417670792334E+00
 0.4840803436787E+00
 0.5265867245863E+00
 0.5689005354369E+00
 0.6107259647586E+00
 0.6518438377149E+00
 0.6920983727421E+00
 0.7314342470086E+00
 0.7700360054716E+00
 0.8086604572070E+00
 0.8493676742645E+00
 0.8970041032415E+00
 0.9617065852638E+00
 0.1061737545158E+01
 0.1223160757143E+01
 0.1469500703221E+01
 0.1798184033274E+01
 0.2157987810006E+01
 0.8408429163559E-02
 0.2890500973473E-01
 0.4600336585356E-01
 0.5342207925874E-01
 0.5207168790669E-01
 0.4533310812222E-01
 0.3824501510795E-01
 0.3764782306638E-01
 0.4741173143564E-01
 0.6457585616076E-01
 0.8565696534537E-01
 0.1089705321418E+00
 0.1337952194887E+00
 0.1598179450850E+00
 0.1869119609501E+00
 0.2150452003709E+00
 0.2442367034195E+00
 0.2745301156856E+00
 0.3059742074172E+00
 0.3386035486879E+00
 0.3724179890872E+00
 0.4073646783014E+00
 0.4433261839455E+00
 0.4801141296937E+00
 0.5174537201431E+00
 0.5550371619671E+00
 0.5926296399037E+00
 0.6301155672905E+00
 0.6674997386295E+00
 0.7049152217367E+00
 0.7426889267468E+00
 0.7815212096784E+00
 0.8228688911364E+00
 0.8697105609345E+00
 0.9279178025669E+00
 0.1008165210049E+01
 0.1127314362904E+01
 0.1306219800309E+01
 0.1559664319919E+01
 0.1878538545527E+01
 0.2216256647091E+01
 0.7497165966831E-01
 0.6302272100171E-01
 0.5807284926588E-01
 0.5922856572383E-01
 0.6439568879627E-01
 0.7325259897586E-01
 0.8594253535652E-01
 0.1020272550315E+00
 0.1207119724246E+00
 0.1412558505323E+00
 0.1631220049974E+00
 0.1859669724402E+00
 0.2095909858515E+00
 0.2338938009546E+00
 0.2588432341761E+00
 0.2844534150858E+00
 0.3107687116140E+00
 0.3378492846969E+00
 0.3657578446153E+00
 0.3945449605839E+00
 0.4242335035934E+00
 0.4548064769171E+00
 0.4862015273181E+00
 0.5183102807933E+00
 0.5509666663995E+00
 0.5839990181924E+00
 0.6173339307340E+00
 0.6510482041695E+00
 0.6853838359041E+00
 0.7207755870183E+00
 0.7579410555151E+00
 0.7980885368994E+00
 0.8433200715316E+00
 0.8973658854337E+00
 0.9667441055271E+00
 0.1062036696300E+01
 0.1198119842794E+01
 0.1390977658927E+01
 0.1648672344166E+01
 0.1958102934874E+01
 0.2277286671060E+01
 0.1466338182362E+00
 0.1369018443308E+00
 0.1314842784146E+00
 0.1319705706648E+00
 0.1380987845467E+00
 0.1489504763433E+00
 0.1634827744812E+00
 0.1807084527327E+00
 0.1998016466689E+00
 0.2201427726478E+00
 0.2413053147858E+00
 0.2630167230726E+00
 0.2851184911986E+00
 0.3075345150874E+00
 0.3302480037525E+00
 0.3532845570856E+00
 0.3766989004395E+00
 0.4005625160918E+00
 0.4249523923774E+00
 0.4499390504673E+00
 0.4755748814077E+00
 0.5018868497264E+00
 0.5288763709394E+00
 0.5565234503682E+00
 0.5847784417178E+00
 0.6136134194632E+00
 0.6431248987911E+00
 0.6735916730460E+00
 0.7055026333793E+00
 0.7396013294702E+00
 0.7769941643810E+00
 0.8193714510001E+00
 0.8693990119531E+00
 0.9313679627471E+00
 0.1012087948048E+01
 0.1121575509621E+01
 0.1272459032236E+01
 0.1476415389113E+01
 0.1736457046776E+01
 0.2037180831522E+01
 0.2340789208017E+01
 0.2178938237440E+00
 0.2114750484092E+00
 0.2081891791819E+00
 0.2099251429533E+00
 0.2168844381007E+00
 0.2283311036912E+00
 0.2432049783425E+00
 0.2604737243812E+00
 0.2792898163913E+00
 0.2990267877429E+00
 0.3192552936251E+00
 0.3397008034889E+00
 0.3602038592079E+00
 0.3806891437565E+00
 0.4011428795775E+00
 0.4215962364118E+00
 0.4421124755957E+00
 0.4627754309320E+00
 0.4836796334032E+00
 0.5049206839194E+00
 0.5265870840036E+00
 0.5487572117543E+00
 0.5715037996425E+00
 0.5949022194418E+00
 0.6190254628359E+00
 0.6439953279879E+00
 0.6700847794144E+00
 0.6977816055719E+00
 0.7278275584869E+00
 0.7612761701173E+00
 0.7996109974300E+00
 0.8449635461082E+00
 0.9004649296428E+00
 0.9707733895919E+00
 0.1062686379632E+01
 0.1185335892864E+01
 0.1349064141374E+01
 0.1561867327900E+01
 0.1823028814311E+01
 0.2115990312450E+01
 0.2406497348882E+01
 0.2886924096422E+00
 0.2855734228413E+00
 0.2847643300315E+00
 0.2881216600472E+00
 0.2960463479577E+00
 0.3079970321804E+00
 0.3230289494187E+00
 0.3401615107776E+00
 0.3585615637601E+00
 0.3775981077909E+00
 0.3968302429111E+00
 0.4159717806378E+00
 0.4348547949991E+00
 0.4533998260063E+00
 0.4715934439960E+00
 0.4894716025608E+00
 0.5071069258467E+00
 0.5245978949921E+00
 0.5420602661508E+00
 0.5596196663101E+00
 0.5774066363642E+00
 0.5955573795594E+00
 0.6142222083937E+00
 0.6335774555685E+00
 0.6538235333827E+00
 0.6752363849301E+00
 0.6982700231476E+00
 0.7236256403788E+00
 0.7523000960483E+00
 0.7856524546825E+00
 0.8255233303372E+00
 0.8744338439899E+00
 0.9358745818076E+00
 0.1014690315741E+01
 0.1117426324837E+01
 0.1252142460787E+01
 0.1426993626019E+01
 0.1646910182278E+01
 0.1908425863098E+01
 0.2194640527091E+01
 0.2474146713233E+01
 0.3590502550612E+00
 0.3590687193360E+00
 0.3607665572338E+00
 0.3658680453290E+00
 0.3748632886103E+00
 0.3873653964795E+00
 0.4025572095295E+00
 0.4195337541360E+00
 0.4374932805289E+00
 0.4558087527713E+00
 0.4740307040046E+00
 0.4918615946506E+00
 0.5091244346075E+00
 0.5257350731991E+00
 0.5416803947924E+00
 0.5570018431624E+00
 0.5717829782937E+00
 0.5861394498229E+00
 0.6002117394766E+00
 0.6141599067507E+00
 0.6281615984009E+00
 0.6424161343705E+00
 0.6571563955226E+00
 0.6726639371239E+00
 0.6892700173020E+00
 0.7074076547742E+00
 0.7277146506213E+00
 0.7511074988608E+00
 0.7788368777426E+00
 0.8125579146968E+00
 0.8544416036254E+00
 0.9073409068627E+00
 0.9750012344650E+00
 0.1062297173524E+01
 0.1175346046086E+01
 0.1321051491591E+01
 0.1505553813899E+01
 0.1731273124537E+01
 0.1992750921174E+01
 0.2273060404314E+01
 0.2543374180924E+01
 0.4289988107817E+00
 0.4319722416666E+00
 0.4361270433663E+00
 0.4430192119305E+00
 0.4531651368999E+00
 0.4662901590955E+00
 0.4816907891162E+00
 0.4985399095835E+00
 0.5160744301858E+00
 0.5336780564182E+00
 0.5508974439377E+00
 0.5674264767894E+00
 0.5830806668919E+00
 0.5977722090223E+00
 0.6114893019338E+00
 0.6242801710901E+00
 0.6362411092227E+00
 0.6475073711167E+00
 0.6582472941051E+00
 0.6686591292646E+00
 0.6789717928987E+00
 0.6894519123973E+00
 0.7004187125276E+00
 0.7122619800771E+00
 0.7254459670338E+00
 0.7405622863025E+00
 0.7584335030106E+00
 0.7801909555904E+00
 0.8073346687186E+00
 0.8418022446341E+00
 0.8860639729451E+00
 0.9432450181855E+00
 0.1017248852000E+01
 0.1112851888451E+01
 0.1235627403873E+01
 0.1391308417229E+01
 0.1584243576665E+01
 0.1814775816972E+01
 0.2076140460821E+01
 0.2351374422377E+01
 0.2612923024332E+01
 0.4985688707690E+00
 0.5043181478953E+00
 0.5108510412320E+00
 0.5195429003715E+00
 0.5308959063443E+00
 0.5447109356095E+00
 0.5603778470853E+00
 0.5771414336531E+00
 0.5942792211532E+00
 0.6111902882226E+00
 0.6274219300542E+00
 0.6426629267608E+00
 0.6567237575121E+00
 0.6695147859180E+00
 0.6810270892106E+00
 0.6913172819188E+00
 0.7004962555147E+00
 0.7087211276617E+00
 0.7161907870200E+00
 0.7231447398627E+00
 0.7298663918062E+00
 0.7366927203334E+00
 0.7440317796384E+00
 0.7523832095413E+00
 0.7623449089395E+00
 0.7746668891336E+00
 0.7903553239270E+00
 0.8107532034985E+00
 0.8376019993805E+00
 0.8731043353316E+00
 0.9199956486839E+00
 0.9816148522287E+00
 0.1061938501089E+01
 0.1165547760794E+01
 0.1297404812992E+01
 0.1462117729953E+01
 0.1662449699797E+01
 0.1897151503895E+01
 0.2158239133489E+01
 0.2430219302512E+01
 0.2681683136960E+01
 0.5677935683973E+00
 0.5761574881312E+00
 0.5849865590301E+00
 0.5954730771636E+00
 0.6080777884908E+00
 0.6226465981187E+00
 0.6386417921310E+00
 0.6553707435580E+00
 0.6721504044839E+00
 0.6883979847412E+00
 0.7036652297900E+00
 0.7176392942595E+00
 0.7301283970645E+00
 0.7410432413608E+00
 0.7503795999459E+00
 0.7582041826604E+00
 0.7646442637061E+00
 0.7698808041888E+00
 0.7741454575748E+00
 0.7777213628593E+00
 0.7809487691704E+00
 0.7842370515887E+00
 0.7880845184163E+00
 0.7931012007140E+00
 0.8000181886985E+00
 0.8097424826774E+00
 0.8234612454171E+00
 0.8427241191459E+00
 0.8695040643425E+00
 0.9062495017605E+00
 0.9559269348082E+00
 0.1022035674442E+01
 0.1108555529109E+01
 0.1219803676346E+01
 0.1360105162355E+01
 0.1533010583906E+01
 0.1739935795051E+01
 0.1978276817632E+01
 0.2239641190227E+01
 0.2507729207563E+01
 0.2761182101154E+01
 0.6367053759558E+00
 0.6475499705637E+00
 0.6586042453676E+00
 0.6708809654155E+00
 0.6847806084650E+00
 0.7001691260717E+00
 0.7165616413899E+00
 0.7333175067993E+00
 0.7497899765844E+00
 0.7654156224308E+00
 0.7797536023597E+00
 0.7924926145581E+00
 0.8034413763575E+00
 0.8125131817909E+00
 0.8197103644934E+00
 0.8251113825561E+00
 0.8288614869825E+00
 0.8311671181755E+00
 0.8322944030862E+00
 0.8325718362850E+00
 0.8323980922598E+00
 0.8322561571336E+00
 0.8327351854941E+00
 0.8345553540655E+00
 0.8385797674318E+00
 0.8458702840455E+00
 0.8577916224908E+00
 0.8760941755471E+00
 0.9029716844264E+00
 0.9410992678918E+00
 0.9936429936708E+00
 0.1064216991866E+01
 0.1156750365329E+01
 0.1275252980520E+01
 0.1423412451554E+01
 0.1603812960957E+01
 0.1816700089538E+01
 0.2058478859018E+01
 0.2320210255492E+01
 0.2586770566710E+01
 0.2841111730971E+01
 0.7053343444677E+00
 0.7185454102467E+00
 0.7317621230678E+00
 0.7458232290807E+00
 0.7610559276030E+00
 0.7773260547788E+00
 0.7941840471772E+00
 0.8110305185818E+00
 0.8272508296752E+00
 0.8423010524421E+00
 0.8557500014421E+00
 0.8672907634464E+00
 0.8767352466895E+00
 0.8840016262630E+00
 0.8891006908418E+00
 0.8921242460538E+00
 0.8932369350532E+00
 0.8926719858170E+00
 0.8907312213882E+00
 0.8877895761110E+00
 0.8843049651309E+00
 0.8808343462179E+00
 0.8780574182328E+00
 0.8768033521674E+00
 0.8780651734567E+00
 0.8830564889919E+00
 0.8933150393573E+00
 0.9107849036313E+00
 0.9378690067266E+00
 0.9774502889435E+00
 0.1032865813438E+01
 0.1107806839959E+01
 0.1206112731814E+01
 0.1331463329998E+01
 0.1486931121381E+01
 0.1674225373591E+01
 0.1892610689460E+01
 0.2137685251426E+01
 0.2400293876084E+01
 0.2666641703267E+01
 0.2921401618368E+01
 0.7737093260499E+00
 0.7891915884816E+00
 0.8045176383325E+00
 0.8203587111497E+00
 0.8369596704750E+00
 0.8541700426383E+00
 0.8715602603904E+00
 0.8885619360343E+00
 0.9045878115663E+00
 0.9191128252194E+00
 0.9317170846237E+00
 0.9421005707839E+00
 0.9500809426137E+00
 0.9555835116189E+00
 0.9586293821451E+00
 0.9593252062712E+00
 0.9578562249595E+00
 0.9544834192982E+00
 0.9495450470150E+00
 0.9434629487373E+00
 0.9367543687671E+00
 0.9300497993404E+00
 0.9241183527175E+00
 0.9198962101759E+00
 0.9185033936590E+00
 0.9213012886056E+00
 0.9299952158785E+00
 0.9467150457250E+00
 0.9740609541191E+00
 0.1015105875404E+01
 0.1073333173040E+01
 0.1152481960938E+01
 0.1256276476392E+01
 0.1388061234770E+01
 0.1550329088491E+01
 0.1744011457120E+01
 0.1967545456679E+01
 0.2215905788849E+01
 0.2479938270587E+01
 0.2746835200580E+01
 0.3002182326716E+01
 0.8418581227958E+00
 0.8595340487510E+00
 0.8769266476284E+00
 0.8945464149258E+00
 0.9125496173533E+00
 0.9307564686163E+00
 0.9487441919287E+00
 0.9659658869878E+00
 0.9818567935928E+00
 0.9959095767935E+00
 0.1007716794032E+01
 0.1016987511830E+01
 0.1023547538715E+01
 0.1027331497732E+01
 0.1028372592143E+01
 0.1026793684433E+01
 0.1022801586660E+01
 0.1016685646590E+01
 0.1008820817108E+01
 0.9996757162041E+00
 0.9898263170972E+00
 0.9799754624271E+00
 0.9709797783161E+00
 0.9638797088963E+00
 0.9599186018481E+00
 0.9606009102444E+00
 0.9677933762513E+00
 0.9838032480186E+00
 0.1011416168895E+01
 0.1053878929030E+01
 0.1114800965310E+01
 0.1197948326514E+01
 0.1306916989024E+01
 0.1444724247382E+01
 0.1613328441520E+01
 0.1812976136273E+01
 0.2041409940306E+01
 0.2293136366647E+01
 0.2559071162731E+01
 0.2827105110065E+01
 0.3083482137879E+01
 0.9098075943808E+00
 0.9296161640607E+00
 0.9490430236832E+00
 0.9684445215384E+00
 0.9878840412305E+00
 0.1007142034012E+01
 0.1025791222977E+01
 0.1043297575299E+01
 0.1059114041836E+01
 0.1072749589144E+01
 0.1083810030428E+01
 0.1092015442314E+01
 0.1097202018370E+01
 0.1099315763141E+01
 0.1098403655195E+01
 0.1094605971549E+01
 0.1088151820330E+01
 0.1079359173049E+01
 0.1068639468744E+01
 0.1056507401086E+01
 0.1043596419104E+01
 0.1030679831468E+01
 0.1018699164890E+01
 0.1008795679815E+01
 0.1002331713220E+01
 0.1000949448885E+01
 0.1006670353435E+01
 0.1021970400336E+01
 0.1049809461131E+01
 0.1093594188003E+01
 0.1157044603481E+01
 0.1243940751512E+01
 0.1357747768904E+01
 0.1501174280863E+01
 0.1675694610973E+01
 0.1880957318585E+01
 0.2114125450083E+01
 0.2369347079946E+01
 0.2637612131252E+01
 0.2907315986201E+01
 0.3165268873123E+01
 0.9775837480978E+00
 0.9994792960198E+00
 0.1020918566984E+01
 0.1042109921645E+01
 0.1063020948466E+01
 0.1083383914573E+01
 0.1102757441459E+01
 0.1120612681538E+01
 0.1136415781629E+01
 0.1149690477265E+01
 0.1160056415462E+01
 0.1167246400908E+01
 0.1171109098879E+01
 0.1171603850720E+01
 0.1168792961976E+01
 0.1162835151799E+01
 0.1153982290851E+01
 0.1142580874330E+01
 0.1129078159685E+01
 0.1114033664447E+01
 0.1098136441012E+01
 0.1082227721745E+01
 0.1067330656660E+01
 0.1054683235772E+01
 0.1045761858409E+01
 0.1042340582858E+01
 0.1046588526428E+01
 0.1061141730202E+01
 0.1089123898342E+01
 0.1134089972180E+01
 0.1199859835338E+01
 0.1290221946184E+01
 0.1408516971940E+01
 0.1557171284895E+01
 0.1737228177893E+01
 0.1947818229451E+01
 0.2185620079806E+01
 0.2444496232912E+01
 0.2715492477366E+01
 0.2987381236404E+01
 0.3247485013266E+01
 0.1045211814898E+01
 0.1069162983543E+01
 0.1092603069915E+01
 0.1115598027890E+01
 0.1138017667390E+01
 0.1159539247291E+01
 0.1179699150475E+01
 0.1197966963219E+01
 0.1213817903279E+01
 0.1226788980251E+01
 0.1236514138631E+01
 0.1242740488636E+01
 0.1245331131760E+01
 0.1244260589114E+01
 0.1239607911762E+01
 0.1231551102365E+01
 0.1220364996879E+01
 0.1206424159706E+01
 0.1190210552590E+01
 0.1172326737317E+01
 0.1153514909146E+01
 0.1134681062195E+01
 0.1116926073021E+01
 0.1101579987222E+01
 0.1090227816832E+01
 0.1084769214184E+01
 0.1087513633630E+01
 0.1101248704821E+01
 0.1129252614290E+01
 0.1175219560366E+01
 0.1243063158531E+01
 0.1336581324243E+01
 0.1459004097082E+01
 0.1612507798283E+01
 0.1797758385563E+01
 0.2013440909877E+01
 0.2255826285902E+01
 0.2518538846251E+01
 0.2792655641119E+01
 0.3067236380065E+01
 0.3330060902823E+01
 0.1112716314627E+01
 0.1138705121420E+01
 0.1164144431173E+01
 0.1188962709297E+01
 0.1212930597446E+01
 0.1235664767186E+01
 0.1256672481102E+01
 0.1275415903210E+01
 0.1291375666752E+01
 0.1304100715838E+01
 0.1313239745129E+01
 0.1318555675748E+01
 0.1319927922420E+01
 0.1317347927994E+01
 0.1310912773857E+01
 0.1300820397636E+01
 0.1287368538807E+01
 0.1270959027672E+01
 0.1252106983510E+01
 0.1231455726949E+01
 0.1209797576570E+01
 0.1188099541132E+01
 0.1167535746718E+01
 0.1149523079273E+01
 0.1135749249592E+01
 0.1128232879240E+01
 0.1129416314898E+01
 0.1142230604478E+01
 0.1170100220772E+01
 0.1216852114053E+01
 0.1286491793452E+01
 0.1382833523921E+01
 0.1509016733473E+01
 0.1667004129318E+01
 0.1857137580980E+01
 0.2077721434376E+01
 0.2324680051346E+01
 0.2591429978536E+01
 0.2869053460572E+01
 0.3146826689180E+01
 0.3412922282525E+01
 0.1180121116805E+01
 0.1208142139264E+01
 0.1235588816191E+01
 0.1262256331430E+01
 0.1287815106356E+01
 0.1311816602673E+01
 0.1333733148607E+01
 0.1353014475832E+01
 0.1369143500582E+01
 0.1381680013999E+01
 0.1390287996244E+01
 0.1394747680898E+01
 0.1394956625202E+01
 0.1390924852719E+01
 0.1382768631792E+01
 0.1370706297883E+01
 0.1355058170613E+01
 0.1336252202184E+01
 0.1314834704921E+01
 0.1291486988710E+01
 0.1267047943954E+01
 0.1242541292633E+01
 0.1219209387036E+01
 0.1198550235710E+01
 0.1182347917828E+01
 0.1172733117927E+01
 0.1172273578094E+01
 0.1184035980340E+01
 0.1211584067030E+01
 0.1258873440844E+01
 0.1330003563613E+01
 0.1428817030044E+01
 0.1558387761714E+01
 0.1720504408528E+01
 0.1915236913125E+01
 0.2140566721970E+01
 0.2392120477333E+01
 0.2663125686446E+01
 0.2944642855388E+01
 0.3226101978181E+01
 0.3495994976349E+01
 0.1247449495809E+01
 0.1277509164994E+01
 0.1306980822460E+01
 0.1335529835058E+01
 0.1362725489886E+01
 0.1388050136239E+01
 0.1410936257314E+01
 0.1430816935469E+01
 0.1447174797361E+01
 0.1459579726844E+01
 0.1467711692656E+01
 0.1471369805394E+01
 0.1470471589125E+01
 0.1465047246850E+01
 0.1455233272704E+01
 0.1441268679676E+01
 0.1423495788700E+01
 0.1402367199517E+01
 0.1378458051278E+01
 0.1352484410782E+01
 0.1325327682182E+01
 0.1298063472452E+01
 0.1271996819226E+01
 0.1248700664358E+01
 0.1230048744757E+01
 0.1218276664679E+01
 0.1216070060600E+01
 0.1226623878015E+01
 0.1253635243777E+01
 0.1301186512853E+01
 0.1373476607374E+01
 0.1474392802976E+01
 0.1606972833880E+01
 0.1772873217986E+01
 0.1971942856985E+01
 0.2201892096442E+01
 0.2458089114620E+01
 0.2733582757744E+01
 0.3019383383157E+01
 0.3305014551450E+01
 0.3579207782093E+01
 0.1314724186257E+01
 0.1346840180468E+01
 0.1378363652216E+01
 0.1408832848773E+01
 0.1437714987474E+01
 0.1464419928033E+01
 0.1488336160535E+01
 0.1508876643933E+01
 0.1525521730519E+01
 0.1537851045911E+01
 0.1545561496297E+01
 0.1548472761527E+01
 0.1546524196000E+01
 0.1539767746462E+01
 0.1528361067705E+01
 0.1512563955405E+01
 0.1492739906308E+01
 0.1469364375250E+01
 0.1443038577330E+01
 0.1414509662557E+01
 0.1384697008175E+01
 0.1354722775723E+01
 0.1325948653534E+01
 0.1300015878957E+01
 0.1278880779740E+01
 0.1264876525101E+01
 0.1260799158940E+01
 0.1269964914988E+01
 0.1296199441708E+01
 0.1343711875382E+01
 0.1416809076185E+01
 0.1519443066710E+01
 0.1654648243762E+01
 0.1823992842908E+01
 0.2027154491121E+01
 0.2261619397495E+01
 0.2522529198851E+01
 0.2802758114051E+01
 0.3093235770257E+01
 0.3383518706010E+01
 0.3662494521377E+01
 0.1381967439035E+01
 0.1416168174922E+01
 0.1449779295586E+01
 0.1482213834799E+01
 0.1512835851443E+01
 0.1540979702824E+01
 0.1565986382018E+01
 0.1587245950086E+01
 0.1604235112315E+01
 0.1616543351825E+01
 0.1623885779485E+01
 0.1626104526543E+01
 0.1623162724684E+01
 0.1615135621750E+01
 0.1602202880167E+01
 0.1584645019869E+01
 0.1562845652144E+01
 0.1537300990391E+01
 0.1508635208293E+01
 0.1477622445630E+01
 0.1445215052637E+01
 0.1412575934941E+01
 0.1381116922360E+01
 0.1352540476781E+01
 0.1328878105523E+01
 0.1312552983331E+01
 0.1306464078737E+01
 0.1314042275632E+01
 0.1339237743804E+01
 0.1386388041547E+01
 0.1459918923608E+01
 0.1563870348467E+01
 0.1701309240989E+01
 0.1873761135580E+01
 0.2080781433179E+01
 0.2319675543608E+01
 0.2585384959544E+01
 0.2870608302526E+01
 0.3166161249264E+01
 0.3461571071100E+01
 0.3745795642127E+01
 0.1449201079603E+01
 0.1485525289576E+01
 0.1521268707385E+01
 0.1555720238299E+01
 0.1588139428129E+01
 0.1617782349257E+01
 0.1643939540745E+01
 0.1665976057683E+01
 0.1683364223189E+01
 0.1695704020262E+01
 0.1702730418746E+01
 0.1704310133033E+01
 0.1700432145900E+01
 0.1691196584506E+01
 0.1676805895214E+01
 0.1657561112645E+01
 0.1633864678129E+01
 0.1606231178536E+01
 0.1575304281641E+01
 0.1541880626038E+01
 0.1506940098131E+01
 0.1471680077450E+01
 0.1437555566687E+01
 0.1406322756224E+01
 0.1380080577308E+01
 0.1361334434999E+01
 0.1353078708066E+01
 0.1358852536908E+01
 0.1382727275002E+01
 0.1429171802990E+01
 0.1502743709911E+01
 0.1607596668214E+01
 0.1746868635805E+01
 0.1922089764179E+01
 0.2132742132708E+01
 0.2375991253359E+01
 0.2646600842923E+01
 0.2937088939796E+01
 0.3238121186005E+01
 0.3539131065940E+01
 0.3829059313411E+01
 0.1516446572160E+01
 0.1554942967948E+01
 0.1592871998386E+01
 0.1629398666003E+01
 0.1663676282342E+01
 0.1694879970194E+01
 0.1722247327104E+01
 0.1745116939566E+01
 0.1762956680713E+01
 0.1775378261904E+01
 0.1782138619525E+01
 0.1783131489584E+01
 0.1778373948207E+01
 0.1767992627964E+01
 0.1752213482008E+01
 0.1731357712075E+01
 0.1705845095491E+01
 0.1676205935849E+01
 0.1643099604083E+01
 0.1607340372312E+01
 0.1569929812533E+01
 0.1532093067555E+01
 0.1495320896954E+01
 0.1461415300084E+01
 0.1432534521223E+01
 0.1411258177127E+01
 0.1400668452225E+01
 0.1404406472752E+01
 0.1426661869782E+01
 0.1472038629591E+01
 0.1545240602033E+01
 0.1650563053682E+01
 0.1791255852490E+01
 0.1968902979281E+01
 0.2182962646203E+01
 0.2430500104155E+01
 0.2706120932011E+01
 0.3002154397027E+01
 0.3309077105925E+01
 0.3616161598603E+01
 0.3912242494502E+01
 0.1583725089276E+01
 0.1624452106909E+01
 0.1664628629562E+01
 0.1703295074171E+01
 0.1739496336224E+01
 0.1772323947209E+01
 0.1800960486709E+01
 0.1824717248757E+01
 0.1843058293466E+01
 0.1855608936675E+01
 0.1862150707083E+01
 0.1862607162035E+01
 0.1857025920686E+01
 0.1845561820024E+01
 0.1828465005589E+01
 0.1806076373748E+01
 0.1778831348635E+01
 0.1747273040325E+01
 0.1712072427759E+01
 0.1674056201571E+01
 0.1634241378926E+01
 0.1593873733963E+01
 0.1554471929603E+01
 0.1517875427454E+01
 0.1486293298096E+01
 0.1462371065572E+01
 0.1449270946715E+01
 0.1450729761038E+01
 0.1471052687851E+01
 0.1514983090451E+01
 0.1587386494490E+01
 0.1692729286402E+01
 0.1834416302357E+01
 0.2014136726786E+01
 0.2231375694359E+01
 0.2483137735414E+01
 0.2763888391055E+01
 0.3065757503917E+01
 0.3378990772393E+01
 0.3692629686011E+01
 0.3995311781173E+01
 0.1651057590793E+01
 0.1694083215745E+01
 0.1736577618728E+01
 0.1777454975724E+01
 0.1815649032381E+01
 0.1850165029613E+01
 0.1880128823825E+01
 0.1904824240824E+01
 0.1923712917154E+01
 0.1936436362632E+01
 0.1942803906880E+01
 0.1942772141273E+01
 0.1936421920520E+01
 0.1923938079896E+01
 0.1905595619853E+01
 0.1881754546246E+01
 0.1852864060438E+01
 0.1819476934625E+01
 0.1782271380347E+01
 0.1742080968599E+01
 0.1699931557041E+01
 0.1657082017845E+01
 0.1615070635164E+01
 0.1575765551323E+01
 0.1541417772075E+01
 0.1514730083466E+01
 0.1498936697597E+01
 0.1497863649319E+01
 0.1515928841283E+01
 0.1558019364770E+01
 0.1629178320293E+01
 0.1734073940867E+01
 0.1876311123914E+01
 0.2057738139045E+01
 0.2277920030070E+01
 0.2533841243182E+01
 0.2819845000936E+01
 0.3127849315973E+01
 0.3447824321220E+01
 0.3768507038763E+01
 0.4078244222638E+01
 0.1718464912843E+01
 0.1763866588042E+01
 0.1808757765572E+01
 0.1851923672543E+01
 0.1892183526458E+01
 0.1928453452622E+01
 0.1959801229132E+01
 0.1985483713318E+01
 0.2004962320516E+01
 0.2017898129158E+01
 0.2024132126198E+01
 0.2023657611219E+01
 0.2016591640743E+01
 0.2003150954709E+01
 0.1983636059040E+01
 0.1958425382043E+01
 0.1927979867044E+01
 0.1892858590428E+01
 0.1853742366665E+01
 0.1811465814880E+01
 0.1767056692502E+01
 0.1721779057111E+01
 0.1677182112956E+01
 0.1635153457060E+01
 0.1597976700327E+01
 0.1568402839323E+01
 0.1549729671611E+01
 0.1545865606326E+01
 0.1561338064450E+01
 0.1601181876464E+01
 0.1670633584749E+01
 0.1774594743755E+01
 0.1916917306194E+01
 0.2099665408499E+01
 0.2322540117450E+01
 0.2582548773448E+01
 0.2873930797076E+01
 0.3188378940612E+01
 0.3515540429082E+01
 0.3843770643975E+01
 0.4161028145600E+01
 0.1785967869244E+01
 0.1833832485875E+01
 0.1881207891738E+01
 0.1926746504772E+01
 0.1969148895077E+01
 0.2007239064327E+01
 0.2040025705854E+01
 0.2066739931588E+01
 0.2086846026561E+01
 0.2100028876939E+01
 0.2106165696866E+01
 0.2105290674447E+01
 0.2097560333134E+01
 0.2083225348568E+01
 0.2062612377757E+01
 0.2036117491126E+01
 0.2004211187391E+01
 0.1967455297387E+01
 0.1926528382912E+01
 0.1882260017111E+01
 0.1835672612056E+01
 0.1788027144144E+01
 0.1740874629417E+01
 0.1696112439442E+01
 0.1656046983353E+01
 0.1623467937644E+01
 0.1601727783538E+01
 0.1594809911935E+01
 0.1607347384071E+01
 0.1644526012612E+01
 0.1711791082059E+01
 0.1814309208873E+01
 0.1956228141762E+01
 0.2139887977491E+01
 0.2365186042727E+01
 0.2629199223535E+01
 0.2926083702768E+01
 0.3247293287735E+01
 0.3582102364508E+01
 0.3918403201417E+01
 0.4243663891946E+01
 0.1853587368032E+01
 0.1904011344893E+01
 0.1953967108306E+01
 0.2001969131923E+01
 0.2046594375248E+01
 0.2086571478711E+01
 0.2120849413108E+01
 0.2148635562442E+01
 0.2169401154190E+01
 0.2182860074037E+01
 0.2188931112837E+01
 0.2187694073426E+01
 0.2179348528105E+01
 0.2164181249161E+01
 0.2142545687267E+01
 0.2114854687112E+01
 0.2081585978750E+01
 0.2043300428933E+01
 0.2000669296292E+01
 0.1954510787910E+01
 0.1905834457095E+01
 0.1855889608527E+01
 0.1806219570622E+01
 0.1758721348004E+01
 0.1715713825534E+01
 0.1680015272498E+01
 0.1655023333244E+01
 0.1644788240811E+01
 0.1654043847554E+01
 0.1688128986729E+01
 0.1752711858767E+01
 0.1853255615372E+01
 0.1994254079968E+01
 0.2178387116296E+01
 0.2405813729626E+01
 0.2673732124741E+01
 0.2976239230608E+01
 0.3304536818005E+01
 0.3647474006315E+01
 0.3992393536285E+01
 0.4326164610382E+01
 0.1921344545497E+01
 0.1974434002787E+01
 0.2027075112459E+01
 0.2077637844993E+01
 0.2124569630348E+01
 0.2166500245021E+01
 0.2202318712532E+01
 0.2231211598621E+01
 0.2252662241359E+01
 0.2266419768393E+01
 0.2272450742706E+01
 0.2270885887308E+01
 0.2261971731146E+01
 0.2246033430849E+01
 0.2223451866048E+01
 0.2194655702733E+01
 0.2160127453820E+01
 0.2120423159090E+01
 0.2076201562702E+01
 0.2028262999908E+01
 0.1977596425056E+01
 0.1925430592793E+01
 0.1873291275629E+01
 0.1823064506367E+01
 0.1777070771375E+01
 0.1738146210483E+01
 0.1709723360982E+01
 0.1695910211286E+01
 0.1701535284261E+01
 0.1732090824517E+01
 0.1793480405374E+01
 0.1891494315376E+01
 0.2031023970415E+01
 0.2215156878074E+01
 0.2444385438836E+01
 0.2716087670016E+01
 0.3024330197396E+01
 0.3360051219365E+01
 0.3711619757178E+01
 0.4065736924275E+01
 0.4408557039663E+01
 0.1989260920964E+01
 0.2045131956579E+01
 0.2100572519790E+01
 0.2153799915066E+01
 0.2203125045392E+01
 0.2247075032827E+01
 0.2284479214639E+01
 0.2314507268994E+01
 0.2336661044707E+01
 0.2350732312818E+01
 0.2356742514857E+01
 0.2354879203658E+01
 0.2345440096557E+01
 0.2328791135820E+01
 0.2305341246567E+01
 0.2275533876539E+01
 0.2239853760832E+01
 0.2198848131038E+01
 0.2153157882291E+01
 0.2103558831810E+01
 0.2051011415828E+01
 0.1996714716578E+01
 0.1942166744099E+01
 0.1889231497170E+01
 0.1840219607761E+01
 0.1797973653048E+01
 0.1765949911861E+01
 0.1748303892458E+01
 0.1749951095552E+01
 0.1776535471760E+01
 0.1834206082237E+01
 0.1929109387429E+01
 0.2066586724722E+01
 0.2250205464933E+01
 0.2480870580590E+01
 0.2756206900174E+01
 0.3070286448361E+01
 0.3413774998243E+01
 0.3774504341989E+01
 0.4138435327475E+01
 0.4490882292327E+01
 0.2057358576160E+01
 0.2116137655596E+01
 0.2174501240793E+01
 0.2230503986335E+01
 0.2282312056850E+01
 0.2328345834522E+01
 0.2367375823873E+01
 0.2398559932396E+01
 0.2421426314248E+01
 0.2435818063092E+01
 0.2441819578486E+01
 0.2439681770858E+01
 0.2429758086295E+01
 0.2412457742599E+01
 0.2388218288441E+01
 0.2357496821405E+01
 0.2320777637252E+01
 0.2278595087704E+01
 0.2231566802514E+01
 0.2180437345064E+01
 0.2126130590391E+01
 0.2069806634482E+01
 0.2012925221194E+01
 0.1957316813025E+01
 0.1905270130232E+01
 0.1859621974511E+01
 0.1823840205374E+01
 0.1802116266268E+01
 0.1799443072387E+01
 0.1821612026894E+01
 0.1875024789864E+01
 0.1966210659785E+01
 0.2101013438164E+01
 0.2283557058429E+01
 0.2515246889946E+01
 0.2794032079499E+01
 0.3114034600311E+01
 0.3465642986339E+01
 0.3836092498175E+01
 0.4210497556748E+01
 0.4573196660782E+01
 0.2125660363582E+01
 0.2187484837474E+01
 0.2248904910209E+01
 0.2307800520793E+01
 0.2362183520326E+01
 0.2410363183742E+01
 0.2451052777005E+01
 0.2483404947958E+01
 0.2506983536454E+01
 0.2521693044461E+01
 0.2527689938362E+01
 0.2525295631526E+01
 0.2514924116135E+01
 0.2497030425334E+01
 0.2472081241995E+01
 0.2440546078922E+01
 0.2402906040860E+01
 0.2359678467567E+01
 0.2311452271013E+01
 0.2258933992248E+01
 0.2203002841104E+01
 0.2144770484869E+01
 0.2085647654073E+01
 0.2027419364484E+01
 0.1972339760813E+01
 0.1923226820404E+01
 0.1883546692927E+01
 0.1857513627539E+01
 0.1850186225255E+01
 0.1867496087105E+01
 0.1916100881617E+01
 0.2002936119129E+01
 0.2134400010716E+01
 0.2315254171931E+01
 0.2547502019679E+01
 0.2829507290951E+01
 0.3155497803829E+01
 0.3515585749912E+01
 0.3896348551393E+01
 0.4281939358642E+01
 0.4655572438766E+01
 0.2194190148729E+01
 0.2259208913482E+01
 0.2323829375366E+01
 0.2385742297000E+01
 0.2442794111634E+01
 0.2493178377406E+01
 0.2535553656073E+01
 0.2569075499356E+01
 0.2593354622020E+01
 0.2608368563478E+01
 0.2614356041539E+01
 0.2611716716216E+01
 0.2600930168831E+01
 0.2582499783130E+01
 0.2556921780418E+01
 0.2524676736340E+01
 0.2486239733012E+01
 0.2442106938392E+01
 0.2392833108735E+01
 0.2339080025055E+01
 0.2281674138644E+01
 0.2221669191138E+01
 0.2160415977559E+01
 0.2099641798029E+01
 0.2041552965775E+01
 0.1988934710524E+01
 0.1945236945479E+01
 0.1914681864313E+01
 0.1902379571922E+01
 0.1914391160186E+01
 0.1957629284199E+01
 0.2039454694392E+01
 0.2166870291022E+01
 0.2345360576603E+01
 0.2577635603374E+01
 0.2862579270546E+01
 0.3194595498230E+01
 0.3563528849987E+01
 0.3955235825249E+01
 0.4352783370004E+01
 0.4738098678497E+01
 0.2262973094143E+01
 0.2331347418552E+01
 0.2399323263993E+01
 0.2464384984371E+01
 0.2524200780301E+01
 0.2576843717167E+01
 0.2620921390461E+01
 0.2655602389823E+01
 0.2680557560499E+01
 0.2695850794493E+01
 0.2701814352862E+01
 0.2698934441120E+01
 0.2687761423773E+01
 0.2668849493688E+01
 0.2642724658614E+01
 0.2609877067297E+01
 0.2570772877955E+01
 0.2525882934961E+01
 0.2475722471098E+01
 0.2420901870810E+01
 0.2362186824766E+01
 0.2300563683683E+01
 0.2237312294591E+01
 0.2174089685424E+01
 0.2113040528788E+01
 0.2056902495437E+01
 0.2009093413599E+01
 0.1973826655960E+01
 0.1956246918021E+01
 0.1962530178030E+01
 0.1999837869463E+01
 0.2075969480635E+01
 0.2198579845938E+01
 0.2373964941838E+01
 0.2605661940183E+01
 0.2893198602403E+01
 0.3231243235641E+01
 0.3609392018703E+01
 0.4012715988886E+01
 0.4423059065405E+01
 0.4820882024490E+01
 0.2332035991158E+01
 0.2403940533165E+01
 0.2475438636519E+01
 0.2543787790429E+01
 0.2606463240674E+01
 0.2661412742403E+01
 0.2707198210027E+01
 0.2743013764018E+01
 0.2768605996002E+01
 0.2784140295271E+01
 0.2790054874379E+01
 0.2786931264807E+01
 0.2775395857021E+01
 0.2756055942814E+01
 0.2729467347230E+01
 0.2696128141240E+01
 0.2656492599257E+01
 0.2611002137900E+01
 0.2560127230249E+01
 0.2504420406345E+01
 0.2444578775170E+01
 0.2381511961710E+01
 0.2316417864682E+01
 0.2250870490657E+01
 0.2186938577975E+01
 0.2127296557300E+01
 0.2075312944863E+01
 0.2035173471582E+01
 0.2012037515664E+01
 0.2012177005412E+01
 0.2042989988334E+01
 0.2112721347218E+01
 0.2229720353604E+01
 0.2401185244413E+01
 0.2631613373547E+01
 0.2921321298620E+01
 0.3265352509208E+01
 0.3653088131069E+01
 0.4068748232519E+01
 0.4492802590858E+01
 0.4904047404088E+01
 0.2401407651330E+01
 0.2477031695349E+01
 0.2552231744697E+01
 0.2624014199180E+01
 0.2689644510000E+01
 0.2746940454912E+01
 0.2794425544339E+01
 0.2831334752405E+01
 0.2857508724641E+01
 0.2873231459456E+01
 0.2879060623380E+01
 0.2875682224459E+01
 0.2863803836250E+01
 0.2844087857140E+01
 0.2817119671014E+01
 0.2783403431941E+01
 0.2743378524648E+01
 0.2697452925567E+01
 0.2646047310838E+01
 0.2589650161769E+01
 0.2528882464459E+01
 0.2464568025161E+01
 0.2397811927181E+01
 0.2330092335654E+01
 0.2263387380091E+01
 0.2200291758630E+01
 0.2144106052505E+01
 0.2098967355276E+01
 0.2070026583716E+01
 0.2063627930582E+01
 0.2087387165068E+01
 0.2149992958750E+01
 0.2260524708009E+01
 0.2427174108826E+01
 0.2655544566027E+01
 0.2946910923786E+01
 0.3296830640966E+01
 0.3694521967112E+01
 0.4123288329903E+01
 0.4562056584530E+01
 0.4987738636440E+01
 0.2471119368914E+01
 0.2550668324624E+01
 0.2629763922167E+01
 0.2705132821674E+01
 0.2773811503689E+01
 0.2833483535139E+01
 0.2882643863308E+01
 0.2920587036151E+01
 0.2947269119706E+01
 0.2963111921852E+01
 0.2968807094330E+01
 0.2965154484244E+01
 0.2952947748589E+01
 0.2932905981661E+01
 0.2905643495683E+01
 0.2871668471166E+01
 0.2831402366863E+01
 0.2785215847860E+01
 0.2733475029100E+01
 0.2676598504357E+01
 0.2615123982962E+01
 0.2549780724636E+01
 0.2481570403127E+01
 0.2411862601423E+01
 0.2342529927986E+01
 0.2276070151524E+01
 0.2215695932753E+01
 0.2165472481968E+01
 0.2130515664386E+01
 0.2117213109877E+01
 0.2133371930938E+01
 0.2188113215022E+01
 0.2291272905778E+01
 0.2452125244422E+01
 0.2677537901695E+01
 0.2969941456475E+01
 0.3325580777507E+01
 0.3733588708419E+01
 0.4176287628122E+01
 0.4630870149339E+01
 0.5072118949853E+01
 0.2541205469314E+01
 0.2624902674060E+01
 0.2708102618923E+01
 0.2787218354063E+01
 0.2859035658513E+01
 0.2921100497259E+01
 0.2971892391234E+01
 0.3010788258631E+01
 0.3037884410900E+01
 0.3053761845025E+01
 0.3059261634288E+01
 0.3055306824076E+01
 0.3042781585976E+01
 0.3022462721478E+01
 0.2994992376498E+01
 0.2960880454151E+01
 0.2920527440477E+01
 0.2874263015355E+01
 0.2822394322307E+01
 0.2765264683432E+01
 0.2703321880123E+01
 0.2637192397438E+01
 0.2567764336193E+01
 0.2496286215835E+01
 0.2424510161034E+01
 0.2354819273758E+01
 0.2290317043963E+01
 0.2234971287336E+01
 0.2193832618273E+01
 0.2173297778454E+01
 0.2181330632720E+01
 0.2227461991461E+01
 0.2322298687348E+01
 0.2476281087360E+01
 0.2697710236212E+01
 0.2990401078133E+01
 0.3351501962781E+01
 0.3770171901776E+01
 0.4227691765482E+01
 0.4699298948984E+01
 0.5157371064482E+01
 0.2611703966036E+01
 0.2699792853130E+01
 0.2787322632507E+01
 0.2870352691615E+01
 0.2945393619489E+01
 0.3009851809641E+01
 0.3062208723091E+01
 0.3101951326233E+01
 0.3129344880818E+01
 0.3145153171757E+01
 0.3150382834981E+01
 0.3146089186970E+01
 0.3133250618115E+01
 0.3112701887723E+01
 0.3085111317408E+01
 0.3050987954205E+01
 0.3010708280406E+01
 0.2964557577733E+01
 0.2912780050591E+01
 0.2855638925875E+01
 0.2793486030704E+01
 0.2726837490635E+01
 0.2656458275019E+01
 0.2583463826767E+01
 0.2509471007264E+01
 0.2436730203037E+01
 0.2368213394659E+01
 0.2307763291154E+01
 0.2260331351175E+01
 0.2232283301008E+01
 0.2231696279823E+01
 0.2268475254260E+01
 0.2353997069622E+01
 0.2499941923921E+01
 0.2716221430505E+01
 0.3008297354070E+01
 0.3374489521621E+01
 0.3804140798291E+01
 0.4277439181215E+01
 0.4767406001364E+01
 0.5243697052240E+01
 0.2682657347084E+01
 0.2775404047768E+01
 0.2867507554016E+01
 0.2954626188330E+01
 0.3032967940659E+01
 0.3099799897467E+01
 0.3153628242273E+01
 0.3194083495122E+01
 0.3221632880325E+01
 0.3237248750317E+01
 0.3242119850160E+01
 0.3237442190730E+01
 0.3224291052505E+01
 0.3203558438819E+01
 0.3175936522665E+01
 0.3141930618741E+01
 0.3101890224750E+01
 0.3056053144632E+01
 0.3004597215001E+01
 0.2947701417053E+01
 0.2885616349720E+01
 0.2818740988032E+01
 0.2747708403747E+01
 0.2673489655246E+01
 0.2597552026203E+01
 0.2521995128671E+01
 0.2449636276767E+01
 0.2384163328075E+01
 0.2330390972513E+01
 0.2294607763855E+01
 0.2284951152213E+01
 0.2311650319159E+01
 0.2386832643900E+01
 0.2523476568752E+01
 0.2733284987598E+01
 0.3023664231673E+01
 0.3394435879327E+01
 0.3835346523996E+01
 0.4325458776045E+01
 0.4835263333414E+01
 0.5331317333821E+01
 0.2754113527758E+01
 0.2851809993193E+01
 0.2948751487461E+01
 0.3040139096876E+01
 0.3121847799314E+01
 0.3191009002417E+01
 0.3246183312005E+01
 0.3287185231611E+01
 0.3314721673269E+01
 0.3330001363941E+01
 0.3334411684525E+01
 0.3329296659277E+01
 0.3315829741799E+01
 0.3294958280323E+01
 0.3267395206564E+01
 0.3233638914986E+01
 0.3194009033085E+01
 0.3148693223254E+01
 0.3097800169608E+01
 0.3041421248766E+01
 0.2979701441478E+01
 0.2912916729355E+01
 0.2841560509896E+01
 0.2766449114388E+01
 0.2688886728386E+01
 0.2610804498086E+01
 0.2534841473241E+01
 0.2464499179663E+01
 0.2404414344054E+01
 0.2360746042747E+01
 0.2341629096312E+01
 0.2357551197337E+01
 0.2421348659474E+01
 0.2547334820267E+01
 0.2749181328113E+01
 0.3036571646944E+01
 0.3411232419252E+01
 0.3863616705154E+01
 0.4371665881373E+01
 0.4902955206908E+01
 0.5420468623307E+01
 0.2826127009692E+01
 0.2929094766701E+01
 0.3031161108921E+01
 0.3127003221298E+01
 0.3212129709568E+01
 0.3283544856565E+01
 0.3339902199055E+01
 0.3381248828469E+01
 0.3408574123345E+01
 0.3423352703080E+01
 0.3427186509831E+01
 0.3421573238678E+01
 0.3407784008470E+01
 0.3386818196342E+01
 0.3359405536953E+01
 0.3326034003857E+01
 0.3286990621986E+01
 0.3242410758014E+01
 0.3192331916647E+01
 0.3136755427030E+01
 0.3075717279229E+01
 0.3009365721132E+01
 0.2938047889740E+01
 0.2862416290404E+01
 0.2783599656300E+01
 0.2703343800318E+01
 0.2624085966065E+01
 0.2549108584721E+01
 0.2482825941893E+01
 0.2431209223755E+01
 0.2402317360502E+01
 0.2406813879509E+01
 0.2458176804178E+01
 0.2572061814795E+01
 0.2764274201201E+01
 0.3047138658197E+01
 0.3424773394318E+01
 0.3888748257745E+01
 0.4415954606340E+01
 0.4970583547242E+01
 0.5511400024465E+01
 0.2898760301448E+01
 0.3007354969429E+01
 0.3114858115655E+01
 0.3215343766563E+01
 0.3303918139685E+01
 0.3377474023105E+01
 0.3434807571777E+01
 0.3476256635417E+01
 0.3503141102837E+01
 0.3517232173275E+01
 0.3520360902434E+01
 0.3514181984591E+01
 0.3500061461197E+01
 0.3479045772945E+01
 0.3451876558923E+01
 0.3419027574853E+01
 0.3380750737305E+01
 0.3337127578632E+01
 0.3288123278255E+01
 0.3233647721010E+01
 0.3173625685613E+01
 0.3108074199302E+01
 0.3037188941362E+01
 0.2961451024595E+01
 0.2881802950370E+01
 0.2799789687466E+01
 0.2717623812287E+01
 0.2638335251401E+01
 0.2566068607481E+01
 0.2506542919829E+01
 0.2467657513068E+01
 0.2460151141158E+01
 0.2498047369823E+01
 0.2598314245337E+01
 0.2779030683896E+01
 0.3055551110356E+01
 0.3434963526044E+01
 0.3910498815820E+01
 0.4458182796464E+01
 0.5038274834202E+01
 0.5604364970293E+01
 0.2972085679604E+01
 0.3086702425309E+01
 0.3199982193248E+01
 0.3305301454052E+01
 0.3397326032291E+01
 0.3472862877741E+01
 0.3530914576316E+01
 0.3572178967299E+01
 0.3598359746672E+01
 0.3611555706764E+01
 0.3613839198586E+01
 0.3607022134902E+01
 0.3592560029623E+01
 0.3571539552685E+01
 0.3544708351599E+01
 0.3512521910447E+01
 0.3475194848755E+01
 0.3432754060286E+01
 0.3385092267202E+01
 0.3332027695091E+01
 0.3273372976121E+01
 0.3209011826087E+01
 0.3138984846467E+01
 0.3063596010924E+01
 0.2983592818258E+01
 0.2900305839663E+01
 0.2815701556846E+01
 0.2732524172511E+01
 0.2654599392993E+01
 0.2587324579897E+01
 0.2538345446313E+01
 0.2518356807648E+01
 0.2541799730223E+01
 0.2626878545062E+01
 0.2794045379422E+01
 0.3062084964365E+01
 0.3441731526978E+01
 0.3928580119319E+01
 0.4498144993559E+01
 0.5106185032766E+01
 0.5699603828812E+01
 0.3046187384188E+01
 0.3167267516964E+01
 0.3286694580342E+01
 0.3397034860487E+01
 0.3492475053048E+01
 0.3569775995461E+01
 0.3628228268839E+01
 0.3668971514299E+01
 0.3694151417040E+01
 0.3706224461240E+01
 0.3707512848246E+01
 0.3699981933553E+01
 0.3685168064339E+01
 0.3664189247700E+01
 0.3637792227282E+01
 0.3606409972023E+01
 0.3570218041893E+01
 0.3529188753634E+01
 0.3483143396779E+01
 0.3431809646764E+01
 0.3374888472023E+01
 0.3312129713291E+01
 0.3243417020504E+01
 0.3168873576117E+01
 0.3089045558635E+01
 0.3005038200475E+01
 0.2918552768858E+01
 0.2832015766744E+01
 0.2748883935467E+01
 0.2674159130502E+01
 0.2615129745515E+01
 0.2582308762138E+01
 0.2590392481569E+01
 0.2658690679303E+01
 0.2810069113708E+01
 0.3067136419456E+01
 0.3445050820865E+01
 0.3942660177258E+01
 0.4535532221909E+01
 0.5174488871523E+01
 0.5797293242235E+01
 0.3121164398434E+01
 0.3249203341809E+01
 0.3375182391577E+01
 0.3490722988352E+01
 0.3589495426942E+01
 0.3668273766857E+01
 0.3726740284687E+01
 0.3766572225462E+01
 0.3790419421256E+01
 0.3801123485366E+01
 0.3801259857453E+01
 0.3792938593412E+01
 0.3777764585036E+01
 0.3756876091416E+01
 0.3731011053269E+01
 0.3700575590627E+01
 0.3665704995389E+01
 0.3626318077860E+01
 0.3582167028532E+01
 0.3532891555381E+01
 0.3478082996018E+01
 0.3417358396095E+01
 0.3350444467986E+01
 0.3277282291642E+01
 0.3198213296470E+01
 0.3114109735385E+01
 0.3026391826055E+01
 0.2937138904335E+01
 0.2849389302310E+01
 0.2767672737834E+01
 0.2698808057746E+01
 0.2652970244511E+01
 0.2644912772235E+01
 0.2694857222801E+01
 0.2828042674430E+01
 0.3071260043376E+01
 0.3444969105006E+01
 0.3952377986201E+01
 0.4569900688163E+01
 0.5243336327624E+01
 0.5897355659456E+01
 0.3197134031982E+01
 0.3332690861390E+01
 0.3465663949569E+01
 0.3586568023341E+01
 0.3688525162199E+01
 0.3768409019728E+01
 0.3826424622521E+01
 0.3864897672567E+01
 0.3887046580110E+01
 0.3896120489374E+01
 0.3894944466654E+01
 0.3885758542324E+01
 0.3870219817311E+01
 0.3849473469821E+01
 0.3824239842403E+01
 0.3794893917310E+01
 0.3761530208986E+01
 0.3724016253399E+01
 0.3682038945667E+01
 0.3635154241183E+01
 0.3582847563427E+01
 0.3524605986615E+01
 0.3460001291800E+01
 0.3388793686161E+01
 0.3311119714063E+01
 0.3227615000667E+01
 0.3139407211212E+01
 0.3048203009726E+01
 0.2956575360057E+01
 0.2868504523349E+01
 0.2790221053830E+01
 0.2731388815231E+01
 0.2706584172433E+01
 0.2736676950978E+01
 0.2849135917461E+01
 0.3075216702602E+01
 0.3441645842098E+01
 0.3957379463556E+01
 0.4600631251691E+01
 0.5313030032057E+01
 0.5998274843406E+01
 0.3274239025489E+01
 0.3417956271069E+01
 0.3558413992699E+01
 0.3684825773494E+01
 0.3789744752455E+01
 0.3870266917612E+01
 0.3927284361010E+01
 0.3963897562535E+01
 0.3983957659214E+01
 0.3991135855223E+01
 0.3988494384186E+01
 0.3978381749295E+01
 0.3962486758381E+01
 0.3941946112538E+01
 0.3917453135358E+01
 0.3889347692370E+01
 0.3857683949636E+01
 0.3822281782461E+01
 0.3782768267292E+01
 0.3738621616018E+01
 0.3689226810572E+01
 0.3633945464646E+01
 0.3572198261079E+01
 0.3503568125755E+01
 0.3427989795563E+01
 0.3345862708277E+01
 0.3258015097489E+01
 0.3165759905295E+01
 0.3071160946223E+01
 0.2977571797013E+01
 0.2890509936830E+01
 0.2818937694985E+01
 0.2776981873066E+01
 0.2785821175603E+01
 0.2874885252491E+01
 0.3080068553970E+01
 0.3435387142525E+01
 0.3957337128514E+01
 0.4627266242882E+01
 0.5382712255965E+01
 0.6108557702241E+01
 0.3352645556050E+01
 0.3505258135716E+01
 0.3653733090800E+01
 0.3785752894330E+01
 0.3893301036085E+01
 0.3973869080713E+01
 0.4029240626979E+01
 0.4063431765409E+01
 0.4080985743447E+01
 0.4085998293381E+01
 0.4081744979692E+01
 0.4070653420854E+01
 0.4054419200024E+01
 0.4034153147824E+01
 0.4010511664125E+01
 0.3983795956009E+01
 0.3954021318733E+01
 0.3920965090944E+01
 0.3884201863461E+01
 0.3843140152508E+01
 0.3797072002851E+01
 0.3745240034553E+01
 0.3686919781249E+01
 0.3621523273178E+01
 0.3548790475379E+01
 0.3468890388707E+01
 0.3382351426140E+01
 0.3290078964900E+01
 0.3193590998502E+01
 0.3095542554677E+01
 0.3000613507878E+01
 0.2916863047043E+01
 0.2857661618115E+01
 0.2844076898443E+01
 0.2907077643386E+01
 0.3087179165133E+01
 0.3426721356142E+01
 0.3951826075631E+01
 0.4649432289774E+01
 0.5450871008198E+01
 0.6238166156627E+01
 0.3432557476010E+01
 0.3594901808170E+01
 0.3751961476625E+01
 0.3889612556032E+01
 0.3999304594911E+01
 0.4079166830260E+01
 0.4132126168572E+01
 0.4163266443901E+01
 0.4177871064669E+01
 0.4180445549113E+01
 0.4174440950633E+01
 0.4162325943645E+01
 0.4145773513509E+01
 0.4125849461117E+01
 0.4103163093288E+01
 0.4077973994866E+01
 0.4050261200732E+01
 0.4019766233485E+01
 0.3986020535424E+01
 0.3948373245588E+01
 0.3906033284593E+01
 0.3858132958451E+01
 0.3803810949235E+01
 0.3742317907364E+01
 0.3673210653170E+01
 0.3596439940980E+01
 0.3512242329129E+01
 0.3421111935417E+01
 0.3323995889948E+01
 0.3222790780907E+01
 0.3121223369205E+01
 0.3026246887466E+01
 0.2950142980469E+01
 0.2913370319163E+01
 0.2947836983540E+01
 0.3098391045169E+01
 0.3416569140960E+01
 0.3940709087410E+01
 0.4665939488616E+01
 0.5520269476089E+01
 0.6373907983855E+01
 0.3514225983566E+01
 0.3687270987434E+01
 0.3853522307967E+01
 0.3996724585684E+01
 0.4107887991920E+01
 0.4186113237658E+01
 0.4235775462281E+01
 0.4263182953495E+01
 0.4274387215700E+01
 0.4274266123104E+01
 0.4266392416695E+01
 0.4253229071629E+01
 0.4236393330529E+01
 0.4216885741249E+01
 0.4195258614186E+01
 0.4171727869562E+01
 0.4146240233771E+01
 0.4118509877916E+01
 0.4088036586424E+01
 0.4054122872096E+01
 0.4015906748120E+01
 0.3972420990878E+01
 0.3922677696389E+01
 0.3865778226977E+01
 0.3801111951975E+01
 0.3728429649535E+01
 0.3647692232081E+01
 0.3558989357463E+01
 0.3462685190765E+01
 0.3359873018907E+01
 0.3253225509314E+01
 0.3148393775165E+01
 0.3056221511640E+01
 0.2995989156354E+01
 0.2999761106405E+01
 0.3116088259841E+01
 0.3406319608021E+01
 0.3923878258514E+01
 0.4676218168980E+01
 0.5590325234467E+01
 0.6517480186500E+01
 0.3597963004123E+01
 0.3782838345114E+01
 0.3958919052852E+01
 0.4107439162791E+01
 0.4219158572640E+01
 0.4294604872292E+01
 0.4339962785074E+01
 0.4362914376902E+01
 0.4370275129026E+01
 0.4367228962612E+01
 0.4357398953567E+01
 0.4343187389333E+01
 0.4326119779695E+01
 0.4307110913442E+01
 0.4286646974525E+01
 0.4264899367651E+01
 0.4241787922613E+01
 0.4217009740227E+01
 0.4190046722673E+01
 0.4160170181270E+01
 0.4126462125134E+01
 0.4087868837859E+01
 0.4043287948819E+01
 0.3991685914430E+01
 0.3932304196280E+01
 0.3864717994679E+01
 0.3788637472708E+01
 0.3703766261878E+01
 0.3609888932883E+01
 0.3507270708351E+01
 0.3397452627991E+01
 0.3284607513853E+01
 0.3177791185182E+01
 0.3094479237664E+01
 0.3065922090364E+01
 0.3143334052637E+01
 0.3398000752458E+01
 0.3901544633166E+01
 0.4679333612412E+01
 0.5660105530613E+01
 0.6670451365075E+01
 0.3684160530050E+01
 0.3882191870810E+01
 0.4068751672958E+01
 0.4222131140660E+01
 0.4333178033514E+01
 0.4404460772833E+01
 0.4444388644728E+01
 0.4462139833129E+01
 0.4465242425926E+01
 0.4459085150296E+01
 0.4447252029945E+01
 0.4432022779654E+01
 0.4414793737507E+01
 0.4396374131132E+01
 0.4377176234418E+01
 0.4357327539237E+01
 0.4336727919197E+01
 0.4315069507322E+01
 0.4291832465701E+01
 0.4266275256544E+01
 0.4237441843297E+01
 0.4204207549907E+01
 0.4165369404616E+01
 0.4119775219006E+01
 0.4066541498963E+01
 0.4005098139229E+01
 0.3934938179391E+01
 0.3855409918343E+01
 0.3765739172425E+01
 0.3665363262818E+01
 0.3554647278260E+01
 0.3436146279570E+01
 0.3316800960111E+01
 0.3211622500276E+01
 0.3149901412529E+01
 0.3184004937314E+01
 0.3394535179175E+01
 0.3874374073407E+01
 0.4673985228556E+01
 0.5728542200124E+01
 0.6834573297161E+01
 0.3773317890012E+01
 0.3986070521713E+01
 0.4183734939527E+01
 0.4341186974016E+01
 0.4449932295964E+01
 0.4515395703211E+01
 0.4548665062142E+01
 0.4560479945232E+01
 0.4558964337434E+01
 0.4549570832781E+01
 0.4535738269793E+01
 0.4519557412476E+01
 0.4502258414318E+01
 0.4484527007164E+01
 0.4466695729986E+01
 0.4448850451914E+01
 0.4430879557278E+01
 0.4412484043522E+01
 0.4393160839615E+01
 0.4372177087305E+01
 0.4348560197253E+01
 0.4321132968230E+01
 0.4288607397066E+01
 0.4249730268980E+01
 0.4203518800931E+01
 0.4149293105674E+01
 0.4086370979298E+01
 0.4013788274184E+01
 0.3930251514021E+01
 0.3834399233671E+01
 0.3725419183488E+01
 0.3604165211233E+01
 0.3475190038192E+01
 0.3350388364072E+01
 0.3255801138723E+01
 0.3242933195859E+01
 0.3400054802183E+01
 0.3843761180449E+01
 0.4658651964570E+01
 0.5794285139894E+01
 0.7011926575890E+01
 0.3866080956244E+01
 0.4095413070767E+01
 0.4304717663732E+01
 0.4464979122050E+01
 0.4569287925764E+01
 0.4626987193428E+01
 0.4652300866559E+01
 0.4657494599911E+01
 0.4651086811849E+01
 0.4638411636185E+01
 0.4622643619715E+01
 0.4605617270759E+01
 0.4588362272557E+01
 0.4571426080725E+01
 0.4555058249106E+01
 0.4539307185168E+01
 0.4524059685311E+01
 0.4509040954183E+01
 0.4493785427543E+01
 0.4477593838569E+01
 0.4459502683617E+01
 0.4438304227206E+01
 0.4412642831120E+01
 0.4381182641391E+01
 0.4342868997453E+01
 0.4296951936146E+01
 0.4242623025285E+01
 0.4178659813537E+01
 0.4103307633573E+01
 0.4014466917646E+01
 0.3910198125565E+01
 0.3789646579858E+01
 0.3654797863129E+01
 0.3513846746623E+01
 0.3388216143122E+01
 0.3326037165024E+01
 0.3420288897014E+01
 0.3812315840057E+01
 0.4631751524218E+01
 0.5855523181503E+01
 0.7205053490225E+01
 0.3963299819210E+01
 0.4211425709392E+01
 0.4432699653716E+01
 0.4593819573644E+01
 0.4690930367123E+01
 0.4738636744962E+01
 0.4754689092303E+01
 0.4752684463683E+01
 0.4741232411405E+01
 0.4725328732471E+01
 0.4707758427011E+01
 0.4690036169294E+01
 0.4672962220675E+01
 0.4656935465587E+01
 0.4642122372337E+01
 0.4628540030770E+01
 0.4616084788006E+01
 0.4604522531371E+01
 0.4593447851652E+01
 0.4582223466504E+01
 0.4569925488183E+01
 0.4555342215825E+01
 0.4537070042574E+01
 0.4513709064010E+01
 0.4484160640903E+01
 0.4447647008402E+01
 0.4403287734978E+01
 0.4349665497331E+01
 0.4284639846261E+01
 0.4205466011978E+01
 0.4109184545730E+01
 0.3993319287419E+01
 0.3857246436554E+01
 0.3705029574811E+01
 0.3552142209949E+01
 0.3440409703327E+01
 0.3463027507026E+01
 0.3784606173927E+01
 0.4591933398248E+01
 0.5909746819964E+01
 0.7417119337090E+01
 0.4066115850466E+01
 0.4335676347317E+01
 0.4568839078346E+01
 0.4727879099071E+01
 0.4814278689573E+01
 0.4849527497631E+01
 0.4855099886839E+01
 0.4845497993287E+01
 0.4829009510490E+01
 0.4810046631429E+01
 0.4790883385273E+01
 0.4772660196325E+01
 0.4755927015812E+01
 0.4740929622560E+01
 0.4727754932690E+01
 0.4716396867537E+01
 0.4706773392502E+01
 0.4698708124763E+01
 0.4691879771988E+01
 0.4685744785265E+01
 0.4679455157892E+01
 0.4671827900504E+01
 0.4661434382742E+01
 0.4646829062668E+01
 0.4626896176381E+01
 0.4600872698983E+01
 0.4567862691228E+01
 0.4526323515276E+01
 0.4473818893445E+01
 0.4407082273669E+01
 0.4322300948060E+01
 0.4215571684160E+01
 0.4083796440523E+01
 0.3926728810820E+01
 0.3752783513410E+01
 0.3594318247304E+01
 0.3538624519504E+01
 0.3768249816098E+01
 0.4538674219078E+01
 0.5953445980330E+01
 0.7652143045996E+01
 0.4176097005667E+01
 0.4470226691732E+01
 0.4714434382754E+01
 0.4867051117320E+01
 0.4938372389710E+01
 0.4958584271470E+01
 0.4952683917637E+01
 0.4935345671824E+01
 0.4914025081986E+01
 0.4892302667476E+01
 0.4871836262467E+01
 0.4853352498431E+01
 0.4837140818659E+01
 0.4823296220055E+01
 0.4811833573901E+01
 0.4802733706698E+01
 0.4795948786273E+01
 0.4791377027869E+01
 0.4788805582414E+01
 0.4787819211309E+01
 0.4787688607451E+01
 0.4787300469644E+01
 0.4785229317627E+01
 0.4780002329899E+01
 0.4770510677648E+01
 0.4756045680703E+01
 0.4735750305106E+01
 0.4708027726123E+01
 0.4670246263196E+01
 0.4618767468303E+01
 0.4549148109206E+01
 0.4456364137018E+01
 0.4335184730139E+01
 0.4181226236445E+01
 0.3995214008399E+01
 0.3797034397180E+01
 0.3660463563542E+01
 0.3775447982690E+01
 0.4473476204561E+01
 0.5981758653753E+01
 0.7915340721025E+01
 0.4295455127433E+01
 0.4617816590076E+01
 0.4870847285270E+01
 0.5010727933149E+01
 0.5061730380409E+01
 0.5064447986288E+01
 0.5046492521288E+01
 0.5021622567151E+01
 0.4995900950326E+01
 0.4971857978473E+01
 0.4950459214477E+01
 0.4931998253441E+01
 0.4916506785637E+01
 0.4903938992047E+01
 0.4894249329677E+01
 0.4887417338696E+01
 0.4883441997517E+01
 0.4882311894677E+01
 0.4883945942344E+01
 0.4888093425950E+01
 0.4894193624419E+01
 0.4901255172192E+01
 0.4907892600401E+01
 0.4912625290560E+01
 0.4914370800981E+01
 0.4912507001458E+01
 0.4906261757723E+01
 0.4894050513295E+01
 0.4873152075580E+01
 0.4839726664445E+01
 0.4788970412868E+01
 0.4715149417010E+01
 0.4611457292159E+01
 0.4469966328302E+01
 0.4283849867530E+01
 0.4058356104286E+01
 0.3845237720841E+01
 0.3825000043890E+01
 0.4402204197135E+01
 0.5988175033724E+01
 0.8213661650430E+01
 0.4427408290181E+01
 0.4782116344856E+01
 0.5039296924144E+01
 0.5157443304408E+01
 0.5182195785500E+01
 0.5165485467686E+01
 0.5135520506315E+01
 0.5103738912336E+01
 0.5074293036028E+01
 0.5048509648581E+01
 0.5026626418229E+01
 0.5008509666043E+01
 0.4993950593503E+01
 0.4982780521656E+01
 0.4974909169090E+01
 0.4970328032160E+01
 0.4969094998481E+01
 0.4971302709713E+01
 0.4977022342934E+01
 0.4986203369154E+01
 0.4998510264238E+01
 0.5013140828867E+01
 0.5028800963699E+01
 0.5044026123755E+01
 0.5057773569021E+01
 0.5069526196949E+01
 0.5078624959779E+01
 0.5083550932439E+01
 0.5081599468348E+01
 0.5068914664637E+01
 0.5040634931789E+01
 0.4990810301495E+01
 0.4911816756600E+01
 0.4793208049020E+01
 0.4621725442569E+01
 0.4387621723219E+01
 0.4112746482064E+01
 0.3944675213053E+01
 0.4339463588565E+01
 0.5964666378180E+01
 0.8556685827785E+01
 0.4576811784019E+01
 0.4968052498753E+01
 0.5220379104277E+01
 0.5304325613102E+01
 0.5296812440696E+01
 0.5259865300318E+01
 0.5218773005206E+01
 0.5181156553347E+01
 0.5148912964574E+01
 0.5122103463796E+01
 0.5100251659467E+01
 0.5082830784400E+01
 0.5069423761388E+01
 0.5059764855384E+01
 0.5053738428153E+01
 0.5051362202851E+01
 0.5052764036800E+01
 0.5058151247180E+01
 0.5067762854108E+01
 0.5081780098129E+01
 0.5100153792101E+01
 0.5122357096260E+01
 0.5147262480534E+01
 0.5173456984991E+01
 0.5199944256147E+01
 0.5226307680352E+01
 0.5251997418486E+01
 0.5275589046309E+01
 0.5294496050063E+01
 0.5305042398386E+01
 0.5302628163488E+01
 0.5281624821892E+01
 0.5234503796016E+01
 0.5149712302566E+01
 0.5009655097303E+01
 0.4792006559930E+01
 0.4484596120319E+01
 0.4173504028107E+01
 0.4316336409449E+01
 0.5903346316987E+01
 0.8958292787022E+01
 0.4751314632827E+01
 0.5182158300074E+01
 0.5413005168188E+01
 0.5446328739034E+01
 0.5401846097110E+01
 0.5345729899589E+01
 0.5295346565461E+01
 0.5253428774820E+01
 0.5219551345486E+01
 0.5192546352138E+01
 0.5171295491858E+01
 0.5154941897163E+01
 0.5142906610690E+01
 0.5134859834592E+01
 0.5130683024175E+01
 0.5130434940904E+01
 0.5134322946651E+01
 0.5142675834212E+01
 0.5155909059318E+01
 0.5174458158864E+01
 0.5198620302158E+01
 0.5228251873756E+01
 0.5262505333108E+01
 0.5300081339815E+01
 0.5340032155720E+01
 0.5381999720308E+01
 0.5425485198611E+01
 0.5469147468977E+01
 0.5510612578254E+01
 0.5546592815148E+01
 0.5573071870224E+01
 0.5585270818899E+01
 0.5576731324245E+01
 0.5536514203824E+01
 0.5445497203662E+01
 0.5274109751788E+01
 0.4980637927998E+01
 0.4562900989626E+01
 0.4392792737745E+01
 0.5802776377370E+01
 0.9440223674709E+01
 0.4963615719106E+01
 0.5432683463804E+01
 0.5612126878733E+01
 0.5575362556365E+01
 0.5493174527509E+01
 0.5421451607962E+01
 0.5364502233891E+01
 0.5320245256557E+01
 0.5286100511235E+01
 0.5259817512089E+01
 0.5239771682335E+01
 0.5224863246222E+01
 0.5214410758746E+01
 0.5208059069572E+01
 0.5205711395814E+01
 0.5207482329183E+01
 0.5213666331507E+01
 0.5224716185912E+01
 0.5241223986302E+01
 0.5263887217855E+01
 0.5293397063094E+01
 0.5330120161032E+01
 0.5373661311114E+01
 0.5422953062122E+01
 0.5477102505489E+01
 0.5535706831392E+01
 0.5598169893689E+01
 0.5663161830439E+01
 0.5728608920314E+01
 0.5791844868248E+01
 0.5849755994955E+01
 0.5898878154756E+01
 0.5934704947005E+01
 0.5948782093199E+01
 0.5923783756695E+01
 0.5829545148002E+01
 0.5611579626478E+01
 0.5173554317616E+01
 0.4674654102785E+01
 0.5687294013233E+01
 0.1004103053134E+02
 0.5236228574168E+01
 0.5728355675876E+01
 0.5804005354333E+01
 0.5680049977913E+01
 0.5567336386792E+01
 0.5485823170492E+01
 0.5425731413335E+01
 0.5381485294681E+01
 0.5348570669459E+01
 0.5323978729867E+01
 0.5305752153250E+01
 0.5292657890413E+01
 0.5283981002765E+01
 0.5279383461635E+01
 0.5278816086555E+01
 0.5282463446446E+01
 0.5290712474478E+01
 0.5304137988616E+01
 0.5323500333888E+01
 0.5349747232746E+01
 0.5383980848759E+01
 0.5427207554472E+01
 0.5479741540769E+01
 0.5540981257344E+01
 0.5610121862060E+01
 0.5686507198061E+01
 0.5769146168775E+01
 0.5856562297333E+01
 0.5947067902817E+01
 0.6038900860054E+01
 0.6130186049994E+01
 0.6219118939053E+01
 0.6303784929246E+01
 0.6379780801852E+01
 0.6435622335536E+01
 0.6446357697563E+01
 0.6367887315124E+01
 0.6059138048341E+01
 0.5331467188005E+01
 0.5660207817964E+01
 0.1084247434307E+02
 0.5612683009378E+01
 0.6071151163763E+01
 0.5957254497967E+01
 0.5748737510828E+01
 0.5622933911055E+01
 0.5537911998893E+01
 0.5478927278158E+01
 0.5437237088020E+01
 0.5407105876557E+01
 0.5385181845308E+01
 0.5369370019798E+01
 0.5358433636198E+01
 0.5351696455759E+01
 0.5348882242110E+01
 0.5350014929155E+01
 0.5355361998484E+01
 0.5365405852717E+01
 0.5380837058835E+01
 0.5402567891762E+01
 0.5431765882476E+01
 0.5469908995849E+01
 0.5518726408144E+01
 0.5579600984264E+01
 0.5652869368268E+01
 0.5737933404689E+01
 0.5833478960187E+01
 0.5937573643071E+01
 0.6048328429968E+01
 0.6164540259297E+01
 0.6285710933744E+01
 0.6411631177891E+01
 0.6542343275946E+01
 0.6678735178610E+01
 0.6821297981182E+01
 0.6968058087259E+01
 0.7107526364482E+01
 0.7213279540088E+01
 0.7218782400065E+01
 0.6600161324230E+01
 0.6030826842101E+01
 0.1206433017852E+02
 0.6188273733432E+01
 0.6421085083900E+01
 0.6013525515736E+01
 0.5781692016936E+01
 0.5658814315897E+01
 0.5577523518911E+01
 0.5524468308291E+01
 0.5487791942829E+01
 0.5462004967982E+01
 0.5443668199227E+01
 0.5430822099837E+01
 0.5422343253732E+01
 0.5417670984958E+01
 0.5416633372683E+01
 0.5419351741749E+01
 0.5426187461375E+01
 0.5437719015136E+01
 0.5454742824393E+01
 0.5478299537120E+01
 0.5509733086983E+01
 0.5550806646257E+01
 0.5603905296108E+01
 0.5671886974166E+01
 0.5757003507500E+01
 0.5859219564451E+01
 0.5975743152812E+01
 0.6102747332832E+01
 0.6237559314423E+01
 0.6379602873139E+01
 0.6530102033069E+01
 0.6691118193813E+01
 0.6864797533771E+01
 0.7053999353646E+01
 0.7264466457872E+01
 0.7504486813604E+01
 0.7788801590865E+01
 0.8107046990552E+01
 0.8514491718486E+01
 0.8692397744392E+01
 0.7517846247731E+01
 0.1447742984295E+02
 0.7216952196072E+01
 0.6503794929671E+01
 0.5959943097742E+01
 0.5787488184404E+01
 0.5672522317785E+01
 0.5606433760009E+01
 0.5562848624947E+01
 0.5533771091457E+01
 0.5513690304051E+01
 0.5499776631454E+01
 0.5490365763044E+01
 0.5484584210359E+01
 0.5482052534594E+01
 0.5482743366452E+01
 0.5486896446627E+01
 0.5494975729775E+01
 0.5507653699059E+01
 0.5525820637212E+01
 0.5550616385604E+01
 0.5583507957201E+01
 0.5626432112932E+01
 0.5682131374142E+01
 0.5754969304044E+01
 0.5851222766697E+01
 0.5972468289025E+01
 0.6112533142196E+01
 0.6264192804984E+01
 0.6423560379049E+01
 0.6590931754512E+01
 0.6769824146345E+01
 0.6965371542629E+01
 0.7182646868195E+01
 0.7424764551606E+01
 0.7699102703630E+01
 0.8030031888062E+01
 0.8449098462075E+01
 0.9025493790578E+01
 0.9738340175321E+01
 0.1127353802840E+02
 0.1125689919702E+02
 0.2188811402983E+02
 0.3658517723588E+00
 0.4723923746730E+00
 0.5809069893275E+00
 0.6868161947382E+00
 0.7874337432433E+00
 0.8805749225636E+00
 0.9649437857280E+00
 0.1040124084871E+01
 0.1106112013460E+01
 0.1163095236586E+01
 0.1211422320599E+01
 0.1251532086091E+01
 0.1283799788778E+01
 0.1308419118474E+01
 0.1325413823357E+01
 0.1334691229514E+01
 0.1335748134292E+01
 0.1328484913812E+01
 0.1314803745814E+01
 0.1297403694814E+01
 0.3667251931969E+00
 0.4832168516325E+00
 0.5995851841758E+00
 0.7124091820124E+00
 0.8191188520488E+00
 0.9179340648543E+00
 0.1007810706040E+01
 0.1088288357626E+01
 0.1159285999872E+01
 0.1220979639496E+01
 0.1273721230700E+01
 0.1317967206994E+01
 0.1354140748750E+01
 0.1382532214573E+01
 0.1403300398419E+01
 0.1416416197661E+01
 0.1421294813640E+01
 0.1417691490575E+01
 0.1404170627021E+01
 0.1378240786378E+01
 0.3669397352933E+00
 0.4941784771270E+00
 0.6187519480182E+00
 0.7385259577183E+00
 0.8514354052135E+00
 0.9559872560538E+00
 0.1051309781685E+01
 0.1136994540602E+01
 0.1212953909905E+01
 0.1279356393144E+01
 0.1336563524430E+01
 0.1385050338730E+01
 0.1425279696023E+01
 0.1457602314871E+01
 0.1482209908900E+01
 0.1499004742007E+01
 0.1507350920322E+01
 0.1506252123143E+01
 0.1493804943676E+01
 0.1470057807794E+01
 0.3670994484471E+00
 0.5049939770493E+00
 0.6381399454621E+00
 0.7650414326611E+00
 0.8842307809561E+00
 0.9945460686918E+00
 0.1095286984574E+01
 0.1186125328332E+01
 0.1267006690222E+01
 0.1338113466985E+01
 0.1399820443690E+01
 0.1452619266883E+01
 0.1496996707112E+01
 0.1533324011165E+01
 0.1561771190999E+01
 0.1582170135403E+01
 0.1593774012618E+01
 0.1595494591262E+01
 0.1586291074891E+01
 0.1566983197989E+01
 0.3673568315102E+00
 0.5157949095722E+00
 0.6576269646933E+00
 0.7918094480445E+00
 0.9173560772305E+00
 0.1033453137260E+01
 0.1139591998386E+01
 0.1235546191305E+01
 0.1321317098638E+01
 0.1397117268006E+01
 0.1463340154621E+01
 0.1520490033313E+01
 0.1569062977932E+01
 0.1609427539713E+01
 0.1641725355502E+01
 0.1665742977578E+01
 0.1680791566782E+01
 0.1686080338065E+01
 0.1681194663659E+01
 0.1667223785524E+01
 0.3678085549560E+00
 0.5266371562210E+00
 0.6771773439904E+00
 0.8187135088265E+00
 0.9506717484314E+00
 0.1072561577429E+01
 0.1184078656222E+01
 0.1285115304411E+01
 0.1375743977997E+01
 0.1456218525800E+01
 0.1526955329075E+01
 0.1588468797515E+01
 0.1641256514050E+01
 0.1685680155590E+01
 0.1721868739043E+01
 0.1749632977007E+01
 0.1768458966878E+01
 0.1777881788185E+01
 0.1777916874343E+01
 0.1769717469877E+01
 0.3685192408492E+00
 0.5375585674574E+00
 0.6967608698949E+00
 0.8456645352477E+00
 0.9840525331626E+00
 0.1111732334442E+01
 0.1228603280025E+01
 0.1334686976685E+01
 0.1430137326476E+01
 0.1515257193388E+01
 0.1590489433926E+01
 0.1656358761888E+01
 0.1713364291295E+01
 0.1761868404616E+01
 0.1802016737483E+01
 0.1833698400497E+01
 0.1856602812926E+01
 0.1870552555345E+01
 0.1875849053601E+01
 0.1873662108133E+01
 0.3695381375801E+00
 0.5485803290411E+00
 0.7163486015360E+00
 0.8725844048055E+00
 0.1017386052612E+01
 0.1150833952227E+01
 0.1273024996792E+01
 0.1384113867059E+01
 0.1484342112100E+01
 0.1574066947030E+01
 0.1653761183315E+01
 0.1723962730963E+01
 0.1785177574731E+01
 0.1837782277548E+01
 0.1881964971147E+01
 0.1917719449114E+01
 0.1944931719330E+01
 0.1963659340596E+01
 0.1974402544031E+01
 0.1978341827997E+01
 0.3709050749616E+00
 0.5597134680665E+00
 0.7359096783961E+00
 0.8994012748471E+00
 0.1050568657051E+01
 0.1189742122646E+01
 0.1317206566629E+01
 0.1433249006218E+01
 0.1538201313497E+01
 0.1632478610047E+01
 0.1716587246013E+01
 0.1791083022423E+01
 0.1856486707374E+01
 0.1913202388947E+01
 0.1961477582437E+01
 0.2001419248325E+01
 0.2033089532445E+01
 0.2056734659583E+01
 0.2072996951698E+01
 0.2083067017630E+01
 0.3726538015179E+00
 0.5709620831175E+00
 0.7554114478918E+00
 0.9260470022161E+00
 0.1083503244640E+01
 0.1228338777716E+01
 0.1361015019969E+01
 0.1481947391034E+01
 0.1591558135775E+01
 0.1690322391164E+01
 0.1778783506584E+01
 0.1857520544154E+01
 0.1927077102346E+01
 0.1987895209005E+01
 0.2040290833767E+01
 0.2084482484159E+01
 0.2120685209066E+01
 0.2149295622530E+01
 0.2171057605158E+01
 0.2187165857188E+01
 0.3748138499901E+00
 0.5823256879736E+00
 0.7748200746647E+00
 0.9524563488994E+00
 0.1116098157309E+01
 0.1266511744835E+01
 0.1404322275379E+01
 0.1530067407881E+01
 0.1644257830763E+01
 0.1747429576212E+01
 0.1840165980081E+01
 0.1923074426224E+01
 0.1996728147896E+01
 0.2061614133248E+01
 0.2118120240054E+01
 0.2166569972820E+01
 0.2207309207565E+01
 0.2240854129439E+01
 0.2268019048918E+01
 0.2289989860761E+01
 0.3774117150998E+00
 0.5938008378070E+00
 0.7941013630606E+00
 0.9785668990289E+00
 0.1148266815346E+01
 0.1304154710093E+01
 0.1447005724043E+01
 0.1577471956165E+01
 0.1696149084638E+01
 0.1803633802130E+01
 0.1900551648785E+01
 0.1987542472172E+01
 0.2065214209386E+01
 0.2134102841313E+01
 0.2194667881407E+01
 0.2247329160685E+01
 0.2292543811131E+01
 0.2330923113252E+01
 0.2363328365242E+01
 0.2390917521348E+01
 0.3804716148136E+00
 0.6053823544523E+00
 0.8132216179078E+00
 0.1004319403035E+01
 0.1179927834779E+01
 0.1341167501655E+01
 0.1488948892513E+01
 0.1624029480366E+01
 0.1747085251845E+01
 0.1858772289520E+01
 0.1959759619255E+01
 0.2050722522275E+01
 0.2132306965171E+01
 0.2205099614764E+01
 0.2269629136805E+01
 0.2326402360962E+01
 0.2375970747383E+01
 0.2419021283396E+01
 0.2456444902864E+01
 0.2489354782615E+01
 0.3840160429393E+00
 0.6170643196133E+00
 0.8321485348789E+00
 0.1029658384718E+01
 0.1211005481827E+01
 0.1377456621970E+01
 0.1530042205661E+01
 0.1669614980500E+01
 0.1796925539220E+01
 0.1912687130538E+01
 0.2017612577740E+01
 0.2112414380334E+01
 0.2197778334978E+01
 0.2274341764521E+01
 0.2342698639955E+01
 0.2403433509638E+01
 0.2457177557320E+01
 0.2504677816267E+01
 0.2546841904666E+01
 0.2584730255896E+01
 0.3880661652868E+00
 0.6288408837942E+00
 0.8508520397879E+00
 0.1054532833471E+01
 0.1241430261393E+01
 0.1412935868257E+01
 0.1570183746762E+01
 0.1714110948167E+01
 0.1845536110613E+01
 0.1965226578840E+01
 0.2073938384088E+01
 0.2172421969620E+01
 0.2261403534441E+01
 0.2341569818526E+01
 0.2413575511239E+01
 0.2478073979880E+01
 0.2535763471885E+01
 0.2587438199737E+01
 0.2634013252030E+01
 0.2676496122815E+01
 0.3926421397454E+00
 0.6407069961437E+00
 0.8693051450296E+00
 0.1078897017705E+01
 0.1271139678233E+01
 0.1447527114507E+01
 0.1609280134910E+01
 0.1757408383867E+01
 0.1892791275328E+01
 0.2016246468276E+01
 0.2128571847589E+01
 0.2230555662553E+01
 0.2322964165733E+01
 0.2406531478034E+01
 0.2481968084524E+01
 0.2549987825952E+01
 0.2611345043624E+01
 0.2666870662818E+01
 0.2717481164808E+01
 0.2764135237033E+01
 0.3977633793241E+00
 0.6526590619060E+00
 0.8874847820579E+00
 0.1102711329967E+01
 0.1300079057821E+01
 0.1481161143705E+01
 0.1647247422142E+01
 0.1799407807198E+01
 0.1938574662418E+01
 0.2065611626847E+01
 0.2181356496525E+01
 0.2286634550806E+01
 0.2382251115900E+01
 0.2468985189437E+01
 0.2547598078372E+01
 0.2618856416822E+01
 0.2683561226035E+01
 0.2742571832722E+01
 0.2796802470600E+01
 0.2847168863956E+01
 0.4034487729204E+00
 0.6646955597700E+00
 0.9053726233398E+00
 0.1125943160170E+01
 0.1328202415799E+01
 0.1513778524109E+01
 0.1684012013930E+01
 0.1840020267504E+01
 0.1982780377962E+01
 0.2113197256309E+01
 0.2232146277883E+01
 0.2340488570062E+01
 0.2439067185902E+01
 0.2528703293845E+01
 0.2610204205061E+01
 0.2684382404195E+01
 0.2752077620949E+01
 0.2814171170388E+01
 0.2871573272942E+01
 0.2925162946722E+01
 0.4097168987868E+00
 0.6768176515944E+00
 0.9229559194641E+00
 0.1148567811193E+01
 0.1355473385332E+01
 0.1545330541268E+01
 0.1719511630151E+01
 0.1879168373887E+01
 0.2025314157613E+01
 0.2158890275180E+01
 0.2280807169517E+01
 0.2391960456698E+01
 0.2493229440790E+01
 0.2585474769995E+01
 0.2669545245672E+01
 0.2746293020641E+01
 0.2816589864692E+01
 0.2881334296647E+01
 0.2941432265881E+01
 0.2997732548659E+01
 0.4165862173442E+00
 0.6890297736263E+00
 0.9402283225472E+00
 0.1170569410751E+01
 0.1381866143731E+01
 0.1575780120779E+01
 0.1753696238311E+01
 0.1916787272130E+01
 0.2066094434244E+01
 0.2202590534683E+01
 0.2327218606208E+01
 0.2440907437916E+01
 0.2544571193495E+01
 0.2639107500260E+01
 0.2725402534052E+01
 0.2804342661789E+01
 0.2876826154565E+01
 0.2943765339528E+01
 0.3006062927681E+01
 0.3064544593083E+01
 0.4240752698822E+00
 0.7013402418639E+00
 0.9571907301595E+00
 0.1191941852098E+01
 0.1407366369261E+01
 0.1605102772262E+01
 0.1786528989121E+01
 0.1952825596258E+01
 0.2105053343108E+01
 0.2244211922868E+01
 0.2371274728814E+01
 0.2487202662817E+01
 0.2592943633762E+01
 0.2689430079779E+01
 0.2777581882450E+01
 0.2858314812430E+01
 0.2932549013010E+01
 0.3001208405072E+01
 0.3065194786321E+01
 0.3125318863691E+01
 0.4322028860692E+00
 0.7137618722565E+00
 0.9738521434509E+00
 0.1212689748185E+01
 0.1431972204956E+01
 0.1633287525903E+01
 0.1817987121999E+01
 0.1987246359004E+01
 0.2142137625351E+01
 0.2283683314900E+01
 0.2412885413649E+01
 0.2530736334298E+01
 0.2638217069367E+01
 0.2736293148581E+01
 0.2825914951223E+01
 0.2908023352691E+01
 0.2983556375597E+01
 0.3053448181417E+01
 0.3118603258359E+01
 0.3179826064735E+01
 0.4409884083112E+00
 0.7263126255318E+00
 0.9902305468040E+00
 0.1232829401990E+01
 0.1455695227224E+01
 0.1660337855499E+01
 0.1848062831657E+01
 0.2020027770145E+01
 0.2177309417145E+01
 0.2320949355796E+01
 0.2451977068757E+01
 0.2571416530713E+01
 0.2680281773389E+01
 0.2779570249778E+01
 0.2870260081643E+01
 0.2953313296184E+01
 0.3029682094108E+01
 0.3100309955076E+01
 0.3166108418295E+01
 0.3227885915971E+01
 0.4504519447693E+00
 0.7390162898525E+00
 0.1006353821178E+01
 0.1252389801671E+01
 0.1478561423443E+01
 0.1686272588415E+01
 0.1876764093517E+01
 0.2051163978868E+01
 0.2210546920066E+01
 0.2355971071850E+01
 0.2488493194873E+01
 0.2609169717279E+01
 0.2719048440500E+01
 0.2819158221349E+01
 0.2910502609878E+01
 0.2994060995880E+01
 0.3070795966793E+01
 0.3141659303736E+01
 0.3207574398393E+01
 0.3269366304581E+01
 0.4606146629980E+00
 0.7519032123760E+00
 0.1022260701888E+01
 0.1271413647502E+01
 0.1500612180520E+01
 0.1711126800112E+01
 0.1904115442838E+01
 0.2080665734046E+01
 0.2241844947637E+01
 0.2388726308529E+01
 0.2522394712662E+01
 0.2643940952300E+01
 0.2754448259291E+01
 0.2854977129498E+01
 0.2946554671573E+01
 0.3030173841013E+01
 0.3106803331000E+01
 0.3177401593571E+01
 0.3242908847943E+01
 0.3304182299209E+01
 0.4714991262315E+00
 0.7650110821188E+00
 0.1038001782207E+01
 0.1289958407234E+01
 0.1521905274951E+01
 0.1734952678461E+01
 0.1930158689522E+01
 0.2108560943996E+01
 0.2271215332522E+01
 0.2419209985188E+01
 0.2553660053783E+01
 0.2675693791720E+01
 0.2786432606521E+01
 0.2886969746600E+01
 0.2978354494146E+01
 0.3061589433909E+01
 0.3137644206723E+01
 0.3207481115403E+01
 0.3272061801132E+01
 0.3332294063607E+01
 0.4831296968169E+00
 0.7783857957184E+00
 0.1053640597929E+01
 0.1308097435500E+01
 0.1542515896652E+01
 0.1757820386078E+01
 0.1954953593829E+01
 0.2134895160282E+01
 0.2298687221893E+01
 0.2447434200684E+01
 0.2582285057777E+01
 0.2704409939430E+01
 0.2814972409528E+01
 0.2915100609634E+01
 0.3005865191022E+01
 0.3088274230092E+01
 0.3163291926415E+01
 0.3231879739109E+01
 0.3295023993069E+01
 0.3353703853444E+01
 0.4955330107410E+00
 0.7920824027880E+00
 0.1069254793075E+01
 0.1325921151660E+01
 0.1562537691959E+01
 0.1779818896816E+01
 0.1978578472295E+01
 0.2159731952625E+01
 0.2324307232606E+01
 0.2473428173248E+01
 0.2608282673965E+01
 0.2730088656302E+01
 0.2840057194745E+01
 0.2939354668594E+01
 0.3029073043970E+01
 0.3110221581874E+01
 0.3183751127637E+01
 0.3250614984097E+01
 0.3311824661741E+01
 0.3368452063174E+01
 0.5087385246900E+00
 0.8061661491741E+00
 0.1084937389825E+01
 0.1343538300639E+01
 0.1582083844740E+01
 0.1801056817515E+01
 0.2001130737935E+01
 0.2183153176234E+01
 0.2348139473068E+01
 0.2497238037197E+01
 0.2631682513450E+01
 0.2752745993798E+01
 0.2861693896425E+01
 0.2959735587793E+01
 0.3047985307404E+01
 0.3127449177417E+01
 0.3199055017801E+01
 0.3263737327588E+01
 0.3322528767302E+01
 0.3376612132880E+01
 0.5227791724905E+00
 0.8207136550244E+00
 0.1100798215486E+01
 0.1361077351385E+01
 0.1601288241949E+01
 0.1821663227343E+01
 0.2022727391974E+01
 0.2205259137736E+01
 0.2370265437656E+01
 0.2518926517573E+01
 0.2652530300930E+01
 0.2772413932298E+01
 0.2879905520149E+01
 0.2976263779989E+01
 0.3062627575465E+01
 0.3139995881175E+01
 0.3209261897773E+01
 0.3271326485718E+01
 0.3327233011791E+01
 0.3378283872370E+01
 0.5376920897884E+00
 0.8358141996371E+00
 0.1116965473900E+01
 0.1378688023215E+01
 0.1620306701267E+01
 0.1841788491993E+01
 0.2043505402719E+01
 0.2226168579002E+01
 0.2390783691949E+01
 0.2538572424174E+01
 0.2670887216530E+01
 0.2789139474828E+01
 0.2894729755453E+01
 0.2988974265157E+01
 0.3073040756583E+01
 0.3147917976544E+01
 0.3214451011531E+01
 0.3273486933078E+01
 0.3326059860676E+01
 0.3373584068383E+01
 0.5535194550652E+00
 0.8515711833020E+00
 0.1133587568897E+01
 0.1396543065786E+01
 0.1639318377974E+01
 0.1861605145251E+01
 0.2063622032019E+01
 0.2246018508426E+01
 0.2409809360830E+01
 0.2556269989119E+01
 0.2686829204724E+01
 0.2802983858636E+01
 0.2906217774522E+01
 0.2997914596573E+01
 0.3079277807396E+01
 0.3151284850578E+01
 0.3214717780351E+01
 0.3270343509572E+01
 0.3319152991215E+01
 0.3362640367710E+01
 0.5703093883247E+00
 0.8681037213532E+00
 0.1150835196993E+01
 0.1414840333271E+01
 0.1658527375302E+01
 0.1881308822554E+01
 0.2083255049265E+01
 0.2264963777136E+01
 0.2427473288224E+01
 0.2572127921229E+01
 0.2700446191018E+01
 0.2814021965539E+01
 0.2914433464042E+01
 0.3003143168468E+01
 0.3081400425774E+01
 0.3150174064957E+01
 0.3210168256953E+01
 0.3262037231143E+01
 0.3306678361993E+01
 0.3345601488957E+01
 0.5881168307059E+00
 0.8855483620913E+00
 0.1168903796313E+01
 0.1433805290591E+01
 0.1678164664640E+01
 0.1901119291935E+01
 0.2102602810895E+01
 0.2283176315867E+01
 0.2443920726555E+01
 0.2586268000954E+01
 0.2711841067067E+01
 0.2822341973638E+01
 0.2919453434316E+01
 0.3004728490620E+01
 0.3079476148799E+01
 0.3144665792683E+01
 0.3200912217765E+01
 0.3248720489341E+01
 0.3288826580054E+01
 0.3322657349011E+01
 0.6070043652484E+00
 0.9040609289366E+00
 0.1188016579160E+01
 0.1453694243093E+01
 0.1698490559620E+01
 0.1921281716994E+01
 0.2121884266272E+01
 0.2300844019276E+01
 0.2459309460873E+01
 0.2598823035362E+01
 0.2721128216644E+01
 0.2828045153009E+01
 0.2921368216544E+01
 0.3002750431615E+01
 0.3073576959653E+01
 0.3134836647811E+01
 0.3187053742224E+01
 0.3230549698611E+01
 0.3265814081744E+01
 0.3294053906911E+01
 0.6270425537294E+00
 0.9238183147669E+00
 0.1208428286257E+01
 0.1474798607390E+01
 0.1719797822172E+01
 0.1942068104139E+01
 0.2141338749855E+01
 0.2318169100950E+01
 0.2473807099166E+01
 0.2609933776030E+01
 0.2728431074252E+01
 0.2831245230823E+01
 0.2920284536840E+01
 0.2997304968626E+01
 0.3063781802846E+01
 0.3120754149013E+01
 0.3168676468222E+01
 0.3207672002595E+01
 0.3237883860329E+01
 0.3260117205298E+01
 0.6483094184727E+00
 0.9450199371327E+00
 0.1230430821002E+01
 0.1497450946707E+01
 0.1742415888399E+01
 0.1963778988446E+01
 0.2161225738129E+01
 0.2335366015895E+01
 0.2487587457075E+01
 0.2619744553515E+01
 0.2733878163657E+01
 0.2832066536619E+01
 0.2916327441816E+01
 0.2988512731399E+01
 0.3050189220294E+01
 0.3102476213359E+01
 0.3145820524843E+01
 0.3180192818667E+01
 0.3205303712306E+01
 0.3221308540192E+01
 0.6708865911264E+00
 0.9678902743805E+00
 0.1254361701938E+01
 0.1522034994328E+01
 0.1766715119293E+01
 0.1986745100293E+01
 0.2181824849133E+01
 0.2352658794299E+01
 0.2500825616474E+01
 0.2628397366275E+01
 0.2737597051425E+01
 0.2830639423818E+01
 0.2909640931295E+01
 0.2976527318004E+01
 0.3032942290452E+01
 0.3080083428810E+01
 0.3118448595098E+01
 0.3148094827087E+01
 0.3168328811373E+01
 0.3178341653655E+01
 0.6948498143609E+00
 0.9926730139867E+00
 0.1280634520614E+01
 0.1548996159994E+01
 0.1793106937042E+01
 0.2011330966574E+01
 0.2203437704004E+01
 0.2370276667605E+01
 0.2513691115025E+01
 0.2636024771185E+01
 0.2739706320204E+01
 0.2827091405335E+01
 0.2900382996920E+01
 0.2961544052772E+01
 0.3012246073239E+01
 0.3053755418170E+01
 0.3086537389738E+01
 0.3110992515501E+01
 0.3126984332741E+01
 0.3132443278596E+01
 0.7201615126542E+00
 0.1019758232618E+01
 0.1309809694787E+01
 0.1578815214097E+01
 0.1822039726142E+01
 0.2037955663626E+01
 0.2226388705401E+01
 0.2388444317837E+01
 0.2526339938614E+01
 0.2642742225313E+01
 0.2740306616451E+01
 0.2821534459659E+01
 0.2888708634615E+01
 0.2943797484446E+01
 0.2988404388528E+01
 0.3023766607718E+01
 0.3050366706042E+01
 0.3068472093509E+01
 0.3079707512444E+01
 0.3086867724252E+01
 0.6575983091629E+00
 0.2569743607639E+00
 0.1442717688652E+00
 0.3018265628876E+00
 0.3484825431285E+00
 0.3434122729640E+00
 0.3408721160496E+00
 0.3553556155440E+00
 0.3711865793609E+00
 0.3797804431060E+00
 0.3801016012679E+00
 0.3721028279355E+00
 0.3547874878183E+00
 0.3269539301165E+00
 0.2888475344981E+00
 0.2402369605784E+00
 0.1798891016519E+00
 0.1153602062177E+00
 0.5487299069490E-01
 0.7051614002963E-02
 0.5553796995025E+00
 0.3920897612453E+00
 0.5002594963900E-01
 0.1460369856070E+00
 0.2336387942064E+00
 0.2692287458233E+00
 0.2871073723713E+00
 0.3054465911393E+00
 0.3224571034731E+00
 0.3336982874788E+00
 0.3379874107356E+00
 0.3347656242096E+00
 0.3233059586639E+00
 0.3025442239088E+00
 0.2717102384204E+00
 0.2304415666648E+00
 0.1797775783632E+00
 0.1220165447848E+00
 0.6061957213281E-01
 0.6311906682982E-02
 0.4848657795531E+00
 0.4031811439119E+00
 0.1853514779486E+00
 0.4522715836418E-02
 0.1166885824398E+00
 0.1810215216468E+00
 0.2197466368324E+00
 0.2470542942993E+00
 0.2678346722213E+00
 0.2824292033705E+00
 0.2908262152725E+00
 0.2926615539802E+00
 0.2872764017808E+00
 0.2736694973951E+00
 0.2508006303309E+00
 0.2181242882169E+00
 0.1762143651561E+00
 0.1247905472956E+00
 0.6454487644367E-01
 0.4743968334663E-02
 0.4405045351361E+00
 0.3951535122665E+00
 0.2634942850366E+00
 0.1167396803922E+00
 0.4127304266854E-02
 0.8543133553212E-01
 0.1412105937150E+00
 0.1791069351609E+00
 0.2058918997558E+00
 0.2249823783019E+00
 0.2379050836495E+00
 0.2449396699137E+00
 0.2457145182793E+00
 0.2393950263523E+00
 0.2248437916426E+00
 0.2011642504574E+00
 0.1684540010469E+00
 0.1242926653552E+00
 0.6737306680124E-01
 0.3035701058740E-02
 0.4122232153483E+00
 0.3855463560784E+00
 0.3115078159753E+00
 0.2077932471438E+00
 0.1018519034148E+00
 0.1278618828227E-01
 0.5503043685870E-01
 0.1025091593681E+00
 0.1361192620876E+00
 0.1605693188826E+00
 0.1784695773895E+00
 0.1908320112619E+00
 0.1977477172940E+00
 0.1986845947122E+00
 0.1925255491239E+00
 0.1781318764170E+00
 0.1551916627708E+00
 0.1196523245079E+00
 0.6846653692377E-01
 0.5598716029700E-02
 0.3942776688040E+00
 0.3789625236272E+00
 0.3435393741635E+00
 0.2771946088402E+00
 0.1924594684919E+00
 0.1075280903314E+00
 0.3522072886051E-01
 0.1927243345290E-01
 0.5906888308217E-01
 0.8897808354426E-01
 0.1120144467291E+00
 0.1297032136615E+00
 0.1426073183563E+00
 0.1505790898524E+00
 0.1526586863264E+00
 0.1476138293880E+00
 0.1348947374150E+00
 0.1092485042744E+00
 0.6606537735558E-01
 0.9093081521376E-02
 0.3830765625747E+00
 0.3761798231533E+00
 0.3672098505284E+00
 0.3312202255443E+00
 0.2696835180115E+00
 0.1961807398413E+00
 0.1256195531898E+00
 0.6817582189885E-01
 0.2392471004366E-01
 0.1069704532679E-01
 0.3849091437868E-01
 0.6120409899429E-01
 0.7972790413130E-01
 0.9429395644344E-01
 0.1041975299531E+00
 0.1082669344632E+00
 0.1058899420045E+00
 0.9102949892806E-01
 0.5764132977199E-01
 0.8923828858890E-02
 0.3763073860419E+00
 0.3768636064676E+00
 0.3866151707337E+00
 0.3747293742191E+00
 0.3354188177886E+00
 0.2770301703200E+00
 0.2134554286705E+00
 0.1571315030978E+00
 0.1110669933699E+00
 0.7335345955476E-01
 0.4180450231292E-01
 0.1500882688791E-01
 0.9385430951432E-02
 0.2943954233555E-01
 0.4638959824319E-01
 0.5895336992751E-01
 0.6657615185247E-01
 0.6282703541612E-01
 0.4036225988505E-01
 0.2911629043972E-02
 0.3724301928213E+00
 0.3803714772212E+00
 0.4039633226280E+00
 0.4111703125421E+00
 0.3919196930962E+00
 0.3500068694699E+00
 0.2969290847421E+00
 0.2454208028306E+00
 0.2004417600967E+00
 0.1616740862567E+00
 0.1277993044719E+00
 0.9767087633554E-01
 0.7034842446928E-01
 0.4518039907224E-01
 0.2250165039962E-01
 0.6165186790386E-02
 0.1634612214072E-01
 0.2302487749916E-01
 0.1229526397884E-01
 0.1875513942303E-01
 0.3703955303248E+00
 0.3860284972090E+00
 0.4204151737265E+00
 0.4428997830772E+00
 0.4412533782113E+00
 0.4157817226312E+00
 0.3752350959995E+00
 0.3314365422741E+00
 0.2903076937968E+00
 0.2527942082073E+00
 0.2184628971687E+00
 0.1866904369102E+00
 0.1567620904565E+00
 0.1279599239904E+00
 0.1002172062787E+00
 0.7402784716114E-01
 0.4952282538040E-01
 0.3286701237430E-01
 0.3316133533017E-01
 0.5204317799466E-01
 0.3694769447282E+00
 0.3932186814831E+00
 0.4365371237421E+00
 0.4714846557570E+00
 0.4851233542650E+00
 0.4753150208657E+00
 0.4482353968345E+00
 0.4141877383714E+00
 0.3792708917003E+00
 0.3452646967968E+00
 0.3124798222202E+00
 0.2808302980675E+00
 0.2499314208987E+00
 0.2191541256540E+00
 0.1882897057634E+00
 0.1575584989789E+00
 0.1267700564822E+00
 0.1015006443100E+00
 0.9199370213969E-01
 0.1018951159637E+00
 0.3691674382488E+00
 0.4014105046208E+00
 0.4525528691290E+00
 0.4979338294347E+00
 0.5248476144050E+00
 0.5295985970284E+00
 0.5161816060382E+00
 0.4931761231653E+00
 0.4663242695521E+00
 0.4378337318439E+00
 0.4085534298391E+00
 0.3788677579772E+00
 0.3487550627902E+00
 0.3177698757249E+00
 0.2856547582217E+00
 0.2524070167672E+00
 0.2175416364473E+00
 0.1857726536068E+00
 0.1678040896779E+00
 0.1693890358220E+00
 0.3691130544446E+00
 0.4101580523327E+00
 0.4684881232009E+00
 0.5228651612420E+00
 0.5613960697908E+00
 0.5795229446373E+00
 0.5795084274404E+00
 0.5682448585915E+00
 0.5508050213307E+00
 0.5294963119120E+00
 0.5054935302069E+00
 0.4795436497043E+00
 0.4519739748876E+00
 0.4225875589527E+00
 0.3911717461577E+00
 0.3575670424947E+00
 0.3210030164043E+00
 0.2850554591665E+00
 0.2603920973447E+00
 0.2546402708170E+00
 0.3690690434278E+00
 0.4190938924627E+00
 0.4842561287275E+00
 0.5466231894277E+00
 0.5954450762689E+00
 0.6258183723971E+00
 0.6386949497391E+00
 0.6394410062937E+00
 0.6323155337534E+00
 0.6194888147575E+00
 0.6022714645943E+00
 0.5816498820098E+00
 0.5582543210729E+00
 0.5321773246767E+00
 0.5033523615420E+00
 0.4715694685020E+00
 0.4358214973608E+00
 0.3982845227821E+00
 0.3689347304846E+00
 0.3568262686102E+00
 0.3688703648625E+00
 0.4279201200536E+00
 0.4997093438983E+00
 0.5693617739853E+00
 0.6274318905326E+00
 0.6690373598731E+00
 0.6941784146019E+00
 0.7069057410740E+00
 0.7106359722360E+00
 0.7072500263398E+00
 0.6980375183235E+00
 0.6840970395613E+00
 0.6662880950998E+00
 0.6450043970606E+00
 0.6204319322947E+00
 0.5924794886434E+00
 0.5600510522098E+00
 0.5237414865692E+00
 0.4919382802656E+00
 0.4743389134880E+00
 0.3684119313528E+00
 0.4364001953211E+00
 0.5146712716583E+00
 0.5911018095452E+00
 0.6576027794893E+00
 0.7095585903538E+00
 0.7463050679959E+00
 0.7707931159090E+00
 0.7856420871024E+00
 0.7923633427340E+00
 0.7921062082626E+00
 0.7859556231708E+00
 0.7748934212985E+00
 0.7595749262328E+00
 0.7405135361138E+00
 0.7179675357012E+00
 0.6910970254432E+00
 0.6589884555094E+00
 0.6273429662801E+00
 0.6050131844256E+00
 0.3676359206698E+00
 0.4443539499040E+00
 0.5289550318145E+00
 0.6117712697417E+00
 0.6860524300971E+00
 0.7476019104585E+00
 0.7953065307433E+00
 0.8312143612744E+00
 0.8572343617314E+00
 0.8744882155755E+00
 0.8839094969291E+00
 0.8864570710081E+00
 0.8830964189049E+00
 0.8746188578442E+00
 0.8618360644938E+00
 0.8455219151834E+00
 0.8256749175896E+00
 0.8006546427384E+00
 0.7724821506198E+00
 0.7464620626586E+00
 0.3665288735723E+00
 0.4516517800451E+00
 0.5423759594843E+00
 0.6312270423463E+00
 0.7127563004619E+00
 0.7832476347477E+00
 0.8412938488619E+00
 0.8882054276265E+00
 0.9252838155541E+00
 0.9532889272056E+00
 0.9729163581727E+00
 0.9849276807500E+00
 0.9901343161532E+00
 0.9892580211320E+00
 0.9831719051472E+00
 0.9730818473506E+00
 0.9600976454448E+00
 0.9437820294582E+00
 0.9236369259687E+00
 0.8963371927936E+00
 0.3651199767518E+00
 0.4582467072773E+00
 0.5547194448980E+00
 0.6492751955055E+00
 0.7375961494469E+00
 0.8164541430356E+00
 0.8842629052218E+00
 0.9417182662320E+00
 0.9896037368838E+00
 0.1028377051243E+01
 0.1058533036395E+01
 0.1080637580898E+01
 0.1095282622262E+01
 0.1102942348987E+01
 0.1104178331772E+01
 0.1100030942471E+01
 0.1092305899842E+01
 0.1081900334066E+01
 0.1072608160167E+01
 0.1052705636792E+01
 0.3637019325251E+00
 0.4638969246005E+00
 0.5657294114284E+00
 0.6657168367195E+00
 0.7603746023484E+00
 0.8470508608769E+00
 0.9241099593000E+00
 0.9916430859123E+00
 0.1049957627923E+01
 0.1099296432338E+01
 0.1140033340309E+01
 0.1172619833236E+01
 0.1197481996867E+01
 0.1214856077468E+01
 0.1224867323447E+01
 0.1227763015172E+01
 0.1224428721021E+01
 0.1215654533650E+01
 0.1206164070743E+01
 0.1204012846978E+01
 0.7546295641308E+00
 0.1063358220131E+01
 0.1361788372196E+01
 0.1636150103169E+01
 0.1881312069538E+01
 0.2095658999240E+01
 0.2279238137118E+01
 0.2433935874894E+01
 0.2562767563088E+01
 0.2669024192755E+01
 0.2755814227671E+01
 0.2825945049900E+01
 0.2881930680244E+01
 0.2925893993910E+01
 0.2959557196571E+01
 0.2984403533205E+01
 0.3002060414120E+01
 0.3013195333567E+01
 0.3021119008335E+01
 0.3033074723751E+01
 0.7955889602697E+00
 0.1122813979615E+01
 0.1435321410396E+01
 0.1718915368602E+01
 0.1967552484959E+01
 0.2179739439727E+01
 0.2356191671431E+01
 0.2499862312959E+01
 0.2615027868087E+01
 0.2706045591826E+01
 0.2776788386858E+01
 0.2830599176029E+01
 0.2870399064521E+01
 0.2898651795343E+01
 0.2917468910965E+01
 0.2928968771399E+01
 0.2935716085795E+01
 0.2938240705416E+01
 0.2939645126628E+01
 0.2935969846361E+01
 0.8392071680073E+00
 0.1187654555736E+01
 0.1514850842944E+01
 0.1806252612690E+01
 0.2055793731813E+01
 0.2262578943479E+01
 0.2428361465146E+01
 0.2557360588595E+01
 0.2655418238822E+01
 0.2728190186384E+01
 0.2780403555709E+01
 0.2815975036707E+01
 0.2838269044182E+01
 0.2850099278609E+01
 0.2853901422869E+01
 0.2852057226642E+01
 0.2846940135659E+01
 0.2837679849340E+01
 0.2825235827373E+01
 0.2811629335859E+01
 0.8866366808367E+00
 0.1258619700039E+01
 0.1600844593918E+01
 0.1898330690026E+01
 0.2145630337615E+01
 0.2343103888821E+01
 0.2494030860614E+01
 0.2604344384026E+01
 0.2681806346276E+01
 0.2733523804894E+01
 0.2765092161092E+01
 0.2780957088447E+01
 0.2784835489672E+01
 0.2779712358445E+01
 0.2768034817859E+01
 0.2751956807599E+01
 0.2733148744902E+01
 0.2709233131212E+01
 0.2683673504705E+01
 0.2666070777430E+01
 0.9387374334326E+00
 0.1336959465432E+01
 0.1693998963255E+01
 0.1995161883904E+01
 0.2236293804828E+01
 0.2419776428302E+01
 0.2551092812205E+01
 0.2638470575231E+01
 0.2691953527311E+01
 0.2720150870227E+01
 0.2729422030409E+01
 0.2724585811037E+01
 0.2709510250099E+01
 0.2687087280565E+01
 0.2659483720244E+01
 0.2628410939577E+01
 0.2594785412284E+01
 0.2555976344617E+01
 0.2519498380251E+01
 0.2500538972474E+01
 0.9964871048945E+00
 0.1424019838197E+01
 0.1795081758492E+01
 0.2096565677412E+01
 0.2326610590022E+01
 0.2490585579975E+01
 0.2597032506452E+01
 0.2657158384822E+01
 0.2683580278167E+01
 0.2686303918756E+01
 0.2672210137647E+01
 0.2646233734336E+01
 0.2612130716798E+01
 0.2572440019653E+01
 0.2528865553052E+01
 0.2482633472413E+01
 0.2434120051074E+01
 0.2381191426288E+01
 0.2335534394354E+01
 0.2316801118663E+01
 0.1061034765542E+01
 0.1521309124536E+01
 0.1904810603200E+01
 0.2202072139812E+01
 0.2414928807829E+01
 0.2553001357153E+01
 0.2628938506855E+01
 0.2657658214190E+01
 0.2654479398051E+01
 0.2630483947563E+01
 0.2592683963620E+01
 0.2545793373889E+01
 0.2493168730963E+01
 0.2436771960883E+01
 0.2377736781114E+01
 0.2316836900332E+01
 0.2254035449708E+01
 0.2188087510830E+01
 0.2134659805559E+01
 0.2117110079360E+01
 0.1133758903809E+01
 0.1630516196470E+01
 0.2023790614870E+01
 0.2310800440965E+01
 0.2499011839781E+01
 0.2603928863905E+01
 0.2643544123842E+01
 0.2637171506440E+01
 0.2602678278888E+01
 0.2551632914820E+01
 0.2490643470041E+01
 0.2423811620769E+01
 0.2353808879136E+01
 0.2281836939907E+01
 0.2208400334509E+01
 0.2133851048787E+01
 0.2057775682361E+01
 0.1980074255303E+01
 0.1920081601155E+01
 0.1904235727757E+01
 0.1216328811636E+01
 0.1753533895540E+01
 0.2152430024095E+01
 0.2421312465956E+01
 0.2575910489032E+01
 0.2639676373141E+01
 0.2637319173128E+01
 0.2593031139930E+01
 0.2526645718399E+01
 0.2449318302958E+01
 0.2366594869117E+01
 0.2281555984396E+01
 0.2195933462632E+01
 0.2110037809399E+01
 0.2023722855029E+01
 0.1936943079785E+01
 0.1848900547410E+01
 0.1760854357570E+01
 0.1695429876136E+01
 0.1681433442289E+01
 0.1310783518123E+01
 0.1892479258006E+01
 0.2290818459576E+01
 0.2531417592874E+01
 0.2641818373588E+01
 0.2655960794564E+01
 0.2606638215569E+01
 0.2522954298025E+01
 0.2425534038726E+01
 0.2323906283053E+01
 0.2221833893565E+01
 0.2121009882878E+01
 0.2022043167284E+01
 0.1924292760796E+01
 0.1826983113647E+01
 0.1729700770898E+01
 0.1631244607928E+01
 0.1534446063350E+01
 0.1464760953387E+01
 0.1452457772208E+01
 0.1419638734411E+01
 0.2049707795587E+01
 0.2438539133665E+01
 0.2637906199233E+01
 0.2691918283972E+01
 0.2647987718947E+01
 0.2548060643737E+01
 0.2425374333863E+01
 0.2299433524385E+01
 0.2176688601851E+01
 0.2058452819324E+01
 0.1944792820860E+01
 0.1835125840328E+01
 0.1727883813838E+01
 0.1621729730422E+01
 0.1515926957470E+01
 0.1408864386491E+01
 0.1305161757100E+01
 0.1232547395008E+01
 0.1221601395394E+01
 0.1546037765973E+01
 0.2227810744934E+01
 0.2594368492612E+01
 0.2736181034769E+01
 0.2720245042109E+01
 0.2610668552512E+01
 0.2458763685438E+01
 0.2299837706428E+01
 0.2149588062886E+01
 0.2009911849726E+01
 0.1879245633847E+01
 0.1756007808524E+01
 0.1638489038854E+01
 0.1524296465027E+01
 0.1411641701213E+01
 0.1299532850748E+01
 0.1185968866690E+01
 0.1077567191483E+01
 0.1003665045789E+01
 0.9937538800724E+00
 0.1693972365453E+01
 0.2429568852718E+01
 0.2755778778396E+01
 0.2819748634471E+01
 0.2719630289439E+01
 0.2539076878432E+01
 0.2337157769945E+01
 0.2147401447645E+01
 0.1978478259414E+01
 0.1826650937503E+01
 0.1687505785630E+01
 0.1558042041763E+01
 0.1435584133650E+01
 0.1317064177667E+01
 0.1200391004165E+01
 0.1084422353625E+01
 0.9668310850311E+00
 0.8564230783359E+00
 0.7833711240996E+00
 0.7744662359740E+00
 0.1868618195661E+01
 0.2657797685928E+01
 0.2918083354031E+01
 0.2879536763676E+01
 0.2681883746489E+01
 0.2429293402907E+01
 0.2183649798268E+01
 0.1970866503405E+01
 0.1789642097132E+01
 0.1630501790912E+01
 0.1486765076499E+01
 0.1354376838854E+01
 0.1229853278332E+01
 0.1109624299858E+01
 0.9915001954392E+00
 0.8743565470491E+00
 0.7556696977685E+00
 0.6465961297473E+00
 0.5772519993353E+00
 0.5699967008848E+00
 0.2076865953639E+01
 0.2914919404739E+01
 0.3072906832241E+01
 0.2903062675586E+01
 0.2598554096931E+01
 0.2279805204702E+01
 0.2001319294893E+01
 0.1774546616353E+01
 0.1587137690734E+01
 0.1425189721010E+01
 0.1280588661896E+01
 0.1148464735389E+01
 0.1024607123978E+01
 0.9051722516244E+00
 0.7881800247384E+00
 0.6727853656178E+00
 0.5564822423573E+00
 0.4529110058965E+00
 0.3910979384587E+00
 0.3872875496306E+00
 0.2328198443000E+01
 0.3201798679570E+01
 0.3205340624676E+01
 0.2873720673151E+01
 0.2463013627774E+01
 0.2093401828986E+01
 0.1795852063836E+01
 0.1563199759498E+01
 0.1374854067864E+01
 0.1214344988373E+01
 0.1072536147726E+01
 0.9436731349771E+00
 0.8228953910731E+00
 0.7064857068734E+00
 0.5931379791218E+00
 0.4826395373389E+00
 0.3728090307417E+00
 0.2798917887270E+00
 0.2306239229501E+00
 0.2337672878616E+00
 0.2636243148925E+01
 0.3514489983720E+01
 0.3288356835397E+01
 0.2771582941849E+01
 0.2275067128927E+01
 0.1878632517519E+01
 0.1573238465530E+01
 0.1340623571155E+01
 0.1156252041955E+01
 0.1001665356117E+01
 0.8662650257155E+00
 0.7431910154293E+00
 0.6273049025392E+00
 0.5157123771748E+00
 0.4083681982368E+00
 0.3060959381020E+00
 0.2074024313397E+00
 0.1313256969992E+00
 0.1008875176464E+00
 0.1167641474652E+00
 0.3021302462951E+01
 0.3833400846636E+01
 0.3272686168354E+01
 0.2579925345544E+01
 0.2050174165492E+01
 0.1645091084929E+01
 0.1336559945686E+01
 0.1109303450571E+01
 0.9349581994121E+00
 0.7914191691239E+00
 0.6655141259417E+00
 0.5497381580455E+00
 0.4396868660010E+00
 0.3341600838639E+00
 0.2349732713817E+00
 0.1443093426724E+00
 0.6184419351629E-01
 0.9678546971998E-02
 0.5287380557197E-02
 0.4212310932092E-01
 0.3517006755859E+01
 0.4087182961014E+01
 0.3063710129757E+01
 0.2327904762297E+01
 0.1810388306195E+01
 0.1395419199648E+01
 0.1085360111045E+01
 0.8716443744954E+00
 0.7163250496556E+00
 0.5886747455063E+00
 0.4735497347228E+00
 0.3650787469246E+00
 0.2609485705253E+00
 0.1622455499702E+00
 0.7289661589749E-01
 0.2777988598842E-02
 0.6394159597373E-01
 0.8520871726423E-01
 0.5680127475619E-01
 0.1202007269705E-01
 0.4124869796723E+01
 0.3847190396937E+01
 0.2698017744736E+01
 0.2076797533378E+01
 0.1562089403044E+01
 0.1125377233454E+01
 0.8158825811411E+00
 0.6344831797419E+00
 0.5085754848405E+00
 0.3980533149557E+00
 0.2921610254842E+00
 0.1896356266747E+00
 0.9112108970852E-01
 0.3748026129920E-03
 0.7910537084114E-01
 0.1379842243676E+00
 0.1701643187014E+00
 0.1541223500714E+00
 0.9167496806152E-01
 0.1704087588976E-01
 0.1229280774970E+01
 0.1071076303962E+01
 0.9219224841221E+00
 0.7770480895370E+00
 0.6374841475239E+00
 0.5069555241795E+00
 0.3888629045508E+00
 0.2861067631038E+00
 0.2008400706381E+00
 0.1342811369205E+00
 0.8653568453396E-01
 0.5648110446619E-01
 0.4178179859169E-01
 0.3903767033999E-01
 0.4397110320249E-01
 0.5197643606337E-01
 0.5903573950209E-01
 0.6257284806526E-01
 0.6208193454796E-01
 0.5896926961338E-01
 0.1316734554076E+01
 0.1177722966792E+01
 0.1023600469867E+01
 0.8722821550663E+00
 0.7264036103893E+00
 0.5885260523170E+00
 0.4619170687530E+00
 0.3498329748125E+00
 0.2550963551341E+00
 0.1797377498741E+00
 0.1246965604938E+00
 0.8958381403218E-01
 0.7255299471171E-01
 0.7027815788560E-01
 0.7807072391171E-01
 0.9042402871286E-01
 0.1020169368410E+00
 0.1089058485693E+00
 0.1095256967314E+00
 0.1056989017338E+00
 0.1406411251762E+01
 0.1277064032840E+01
 0.1130663557347E+01
 0.9784861859374E+00
 0.8283322844048E+00
 0.6840508103775E+00
 0.5491644777755E+00
 0.4272796200766E+00
 0.3218274023157E+00
 0.2356881424151E+00
 0.1707971419109E+00
 0.1277763891338E+00
 0.1056334346736E+00
 0.1015455085273E+00
 0.1107918564998E+00
 0.1271311891596E+00
 0.1438091149791E+00
 0.1550486668816E+00
 0.1576682630821E+00
 0.1520438487916E+00
 0.1502390648537E+01
 0.1379554182094E+01
 0.1240894378169E+01
 0.1092895262052E+01
 0.9422014369674E+00
 0.7938809092096E+00
 0.6520603911301E+00
 0.5207623424845E+00
 0.4039773932228E+00
 0.3054098988995E+00
 0.2280815127799E+00
 0.1738719310947E+00
 0.1430518269441E+00
 0.1338425875456E+00
 0.1420650937603E+00
 0.1611718916312E+00
 0.1830348129543E+00
 0.1996237439535E+00
 0.2052488434221E+00
 0.1981378788511E+00
 0.1603560607669E+01
 0.1486939420550E+01
 0.1356262437209E+01
 0.1214686396900E+01
 0.1067084773392E+01
 0.9180722981958E+00
 0.7719458175920E+00
 0.6329396551205E+00
 0.5053955044680E+00
 0.3936510946007E+00
 0.3017251814800E+00
 0.2328549797450E+00
 0.1889280889381E+00
 0.1698406028825E+00
 0.1728184289589E+00
 0.1919249731175E+00
 0.2182618205528E+00
 0.2413979140722E+00
 0.2522375671926E+00
 0.2460665537436E+00
 0.1708918690338E+01
 0.1599021817480E+01
 0.1476831989780E+01
 0.1343371427408E+01
 0.1201746056075E+01
 0.1055588654665E+01
 0.9086922200935E+00
 0.7650579997582E+00
 0.6289810813265E+00
 0.5050316690447E+00
 0.3978658505383E+00
 0.3118595108655E+00
 0.2505646881465E+00
 0.2159854756188E+00
 0.2076613622507E+00
 0.2216339322117E+00
 0.2497072065160E+00
 0.2798442406640E+00
 0.2988901371322E+00
 0.2977086045445E+00
 0.1817481910323E+01
 0.1715144932619E+01
 0.1602123472892E+01
 0.1478158664302E+01
 0.1344924518445E+01
 0.1204933025754E+01
 0.1061146571506E+01
 0.9169231556129E+00
 0.7760727039422E+00
 0.6428917743365E+00
 0.5221059637325E+00
 0.4186699344943E+00
 0.3373837816242E+00
 0.2822773184823E+00
 0.2556903518515E+00
 0.2569621539895E+00
 0.2808036327497E+00
 0.3159193053880E+00
 0.3456934502515E+00
 0.3539699982919E+00
 0.1928231206892E+01
 0.1834354034882E+01
 0.1731227042586E+01
 0.1617916570292E+01
 0.1495062328951E+01
 0.1364178708929E+01
 0.1227327905171E+01
 0.1087036994902E+01
 0.9463324736554E+00
 0.8088078185095E+00
 0.6786647678120E+00
 0.5606811332394E+00
 0.4600547414083E+00
 0.3820576446279E+00
 0.3313987107315E+00
 0.3111184047752E+00
 0.3207658719416E+00
 0.3536728947310E+00
 0.3938450648733E+00
 0.4172417826696E+00
 0.2040149367203E+01
 0.1955562910571E+01
 0.1862996614096E+01
 0.1761247850716E+01
 0.1650300017890E+01
 0.1530908329866E+01
 0.1404356878464E+01
 0.1272373289557E+01
 0.1137143394565E+01
 0.1001377438317E+01
 0.8683922184392E+00
 0.7421789229063E+00
 0.6274240496695E+00
 0.5294375436681E+00
 0.4539113172732E+00
 0.4063624625879E+00
 0.3909575992644E+00
 0.4081545680983E+00
 0.4498711610186E+00
 0.4914662053748E+00
 0.2152258625493E+01
 0.2077675313753E+01
 0.1996221966717E+01
 0.1906681888493E+01
 0.1808688533601E+01
 0.1702496889773E+01
 0.1588820795561E+01
 0.1468761046058E+01
 0.1343805192560E+01
 0.1215875888406E+01
 0.1087409043044E+01
 0.9614469187306E+00
 0.8417316979152E+00
 0.7327802909391E+00
 0.6399072388162E+00
 0.5691272269958E+00
 0.5267831704499E+00
 0.5184896117269E+00
 0.5464189671193E+00
 0.5993909387557E+00
 0.2263649028661E+01
 0.2199649887066E+01
 0.2129724947396E+01
 0.2052796058893E+01
 0.1968363196604E+01
 0.1876397210000E+01
 0.1777245878391E+01
 0.1671585543088E+01
 0.1560419254568E+01
 0.1445113580783E+01
 0.1327466513547E+01
 0.1209801401305E+01
 0.1095084409342E+01
 0.9870650063479E+00
 0.8904400675047E+00
 0.8110423159067E+00
 0.7560480673156E+00
 0.7341970447361E+00
 0.7559317951592E+00
 0.8339656307471E+00
 0.2373443649860E+01
 0.2320438731373E+01
 0.2262306900157E+01
 0.2198182344127E+01
 0.2127561650463E+01
 0.2050279737954E+01
 0.1966468326566E+01
 0.1876532533784E+01
 0.1781155699907E+01
 0.1681333602234E+01
 0.1578437730138E+01
 0.1474309099573E+01
 0.1371387684453E+01
 0.1272888111364E+01
 0.1183041495320E+01
 0.1107440190840E+01
 0.1053559579342E+01
 0.1031620036377E+01
 0.1056252235164E+01
 0.1150964392630E+01
 0.2480785657374E+01
 0.2438943041798E+01
 0.2392663937061E+01
 0.2341305666040E+01
 0.2284427018433E+01
 0.2221814316145E+01
 0.2153475214683E+01
 0.2079634235881E+01
 0.2000743352389E+01
 0.1917512817788E+01
 0.1830965260962E+01
 0.1742516933164E+01
 0.1654092897381E+01
 0.1568288033678E+01
 0.1488594216762E+01
 0.1419728864649E+01
 0.1368127122393E+01
 0.1342711668470E+01
 0.1356173958310E+01
 0.1426591042918E+01
 0.2584871420335E+01
 0.2554091838612E+01
 0.2519484429795E+01
 0.2480601655418E+01
 0.2437087098167E+01
 0.2388723221908E+01
 0.2335445216270E+01
 0.2277347903214E+01
 0.2214698392208E+01
 0.2147960544207E+01
 0.2077834848967E+01
 0.2005317131031E+01
 0.1931780729484E+01
 0.1859089199547E+01
 0.1789750226123E+01
 0.1727126257217E+01
 0.1675721168290E+01
 0.1641557200872E+01
 0.1632558105951E+01
 0.1658687164099E+01
 0.2684962451292E+01
 0.2664895438728E+01
 0.2641537702463E+01
 0.2614592366437E+01
 0.2583782624202E+01
 0.2548902218691E+01
 0.2509837123417E+01
 0.2466576882199E+01
 0.2419225554621E+01
 0.2368017422664E+01
 0.2313340223545E+01
 0.2255767640625E+01
 0.2196102417479E+01
 0.2135431251020E+01
 0.2075191977945E+01
 0.2017251227359E+01
 0.1963984221724E+01
 0.1918327003262E+01
 0.1883743977662E+01
 0.1864069121036E+01
 0.2780387612362E+01
 0.2770462682914E+01
 0.2757709620491E+01
 0.2741936229038E+01
 0.2722925275315E+01
 0.2700478252664E+01
 0.2674436881766E+01
 0.2644693718280E+01
 0.2611198686711E+01
 0.2573965163593E+01
 0.2533077171587E+01
 0.2488697830509E+01
 0.2441077961328E+01
 0.2390562180898E+01
 0.2337587381354E+01
 0.2282664553391E+01
 0.2226328592082E+01
 0.2169037370275E+01
 0.2111011362703E+01
 0.2052006895432E+01
 0.2870543926661E+01
 0.2870004796875E+01
 0.2867015434086E+01
 0.2861448275041E+01
 0.2853120562470E+01
 0.2841828668251E+01
 0.2827365424622E+01
 0.2809527133780E+01
 0.2788114568590E+01
 0.2762930223083E+01
 0.2733772469252E+01
 0.2700425939241E+01
 0.2662646117478E+01
 0.2620134514184E+01
 0.2572498656284E+01
 0.2519188301568E+01
 0.2459396713221E+01
 0.2391914612377E+01
 0.2314931693848E+01
 0.2225817707135E+01
 0.2954897712035E+01
 0.2962835194097E+01
 0.2968603320950E+01
 0.2972107359321E+01
 0.2973174997188E+01
 0.2971582151517E+01
 0.2967065181304E+01
 0.2959323560579E+01
 0.2948015745548E+01
 0.2932749658696E+01
 0.2913068080697E+01
 0.2888428266667E+01
 0.2858174196098E+01
 0.2821498945457E+01
 0.2777393699324E+01
 0.2724578995111E+01
 0.2661412646205E+01
 0.2585766671882E+01
 0.2494852666524E+01
 0.2384978257491E+01
 0.3032985562831E+01
 0.3048367589156E+01
 0.3061752943271E+01
 0.3073055783831E+01
 0.3082094190930E+01
 0.3088609988503E+01
 0.3092276813357E+01
 0.3092699251170E+01
 0.3089405072621E+01
 0.3081831703336E+01
 0.3069307313669E+01
 0.3051026367022E+01
 0.3026019117627E+01
 0.2993114433702E+01
 0.2950895530529E+01
 0.2897648780071E+01
 0.2831306662388E+01
 0.2749385566896E+01
 0.2648917081112E+01
 0.2526285991253E+01
 0.3104414558344E+01
 0.3126112831299E+01
 0.3145870762577E+01
 0.3163593681253E+01
 0.3179074442669E+01
 0.3192010585468E+01
 0.3202010122852E+01
 0.3208588785828E+01
 0.3211160706915E+01
 0.3209023754494E+01
 0.3201340239961E+01
 0.3187113486492E+01
 0.3165160796820E+01
 0.3134083753821E+01
 0.3092237642514E+01
 0.3037703288365E+01
 0.2968267097253E+01
 0.2881420124055E+01
 0.2774396988624E+01
 0.2644341708087E+01
 0.3168859184620E+01
 0.3195671789928E+01
 0.3220480462338E+01
 0.3243167108081E+01
 0.3263487343322E+01
 0.3281087806107E+01
 0.3295511605991E+01
 0.3306195620130E+01
 0.3312461800467E+01
 0.3313503961353E+01
 0.3308371131610E+01
 0.3295948444081E+01
 0.3274936687362E+01
 0.3243832090779E+01
 0.3200908724235E+01
 0.3144207216104E+01
 0.3071535734196E+01
 0.2980493609906E+01
 0.2868539306248E+01
 0.2733180257828E+01
 0.3226054885210E+01
 0.3256726223990E+01
 0.3285210685594E+01
 0.3311352968784E+01
 0.3334862272101E+01
 0.3355330697866E+01
 0.3372240249404E+01
 0.3384962010731E+01
 0.3392749976786E+01
 0.3394731292778E+01
 0.3389894268952E+01
 0.3377075355830E+01
 0.3354946252138E+01
 0.3322002433101E+01
 0.3276554589564E+01
 0.3216724684152E+01
 0.3140448400085E+01
 0.3045484532418E+01
 0.2929427576459E+01
 0.2789641257853E+01
 0.3275803627856E+01
 0.3309047484506E+01
 0.3339803217750E+01
 0.3367866763685E+01
 0.3392893409764E+01
 0.3414419100071E+01
 0.3431870631980E+01
 0.3444568211528E+01
 0.3451723149812E+01
 0.3452432792974E+01
 0.3445674257481E+01
 0.3430298166883E+01
 0.3405023274621E+01
 0.3368432503350E+01
 0.3318970385087E+01
 0.3254940926845E+01
 0.3174502964709E+01
 0.3075656132600E+01
 0.2956195864587E+01
 0.2813614617853E+01
 0.3317969092924E+01
 0.3352489746548E+01
 0.3384105168755E+01
 0.3412552190305E+01
 0.3437425191606E+01
 0.3458203183186E+01
 0.3474264746059E+01
 0.3484894888644E+01
 0.3489287233627E+01
 0.3486544078628E+01
 0.3475676117209E+01
 0.3455602988351E+01
 0.3425155247893E+01
 0.3383077678975E+01
 0.3328032904473E+01
 0.3258602809032E+01
 0.3173283278333E+01
 0.3070465070999E+01
 0.2948397678615E+01
 0.2805161252011E+01
 0.3352473417201E+01
 0.3386983986805E+01
 0.3418061141225E+01
 0.3445370716017E+01
 0.3468438287328E+01
 0.3486685263255E+01
 0.3499449658246E+01
 0.3505997376985E+01
 0.3505528664253E+01
 0.3497182946104E+01
 0.3480044139995E+01
 0.3453147661903E+01
 0.3415489681926E+01
 0.3366038528919E+01
 0.3303747377080E+01
 0.3227566388674E+01
 0.3136451392220E+01
 0.3029366727951E+01
 0.2905285324031E+01
 0.2763190795829E+01
 0.3379294297242E+01
 0.3412533830716E+01
 0.3441707384910E+01
 0.3466393340031E+01
 0.3486038483028E+01
 0.3500006069479E+01
 0.3507602359539E+01
 0.3508091282692E+01
 0.3500703948455E+01
 0.3484647142196E+01
 0.3459113207496E+01
 0.3423292664030E+01
 0.3376390323123E+01
 0.3317645395178E+01
 0.3246356081065E+01
 0.3161909383855E+01
 0.3063817334427E+01
 0.2951760345360E+01
 0.2825633072026E+01
 0.2685576118931E+01
 0.3398461743482E+01
 0.3429212436899E+01
 0.3455167656488E+01
 0.3475794090055E+01
 0.3490447369172E+01
 0.3498433283655E+01
 0.3499037854748E+01
 0.3491542735539E+01
 0.3475235537020E+01
 0.3449420149789E+01
 0.3413429595218E+01
 0.3366642706385E+01
 0.3308505547187E+01
 0.3238558753124E+01
 0.3156472954950E+01
 0.3062096303180E+01
 0.2955520776420E+01
 0.2837175742728E+01
 0.2707950185638E+01
 0.2569320595453E+01
 0.3410054610609E+01
 0.3437160378061E+01
 0.3458650344467E+01
 0.3473844534764E+01
 0.3481993910597E+01
 0.3482351297738E+01
 0.3474199307592E+01
 0.3456861889236E+01
 0.3429712280743E+01
 0.3392182857783E+01
 0.3343778959792E+01
 0.3284097380060E+01
 0.3212849959081E+01
 0.3129893313171E+01
 0.3035267260649E+01
 0.2929247388963E+01
 0.2812422419258E+01
 0.2685817270663E+01
 0.2551103618862E+01
 0.2410942141647E+01
 0.3414197576718E+01
 0.3436585139159E+01
 0.3452446510639E+01
 0.3460907803656E+01
 0.3461104413573E+01
 0.3452248907623E+01
 0.3433646268748E+01
 0.3404695022650E+01
 0.3364889053990E+01
 0.3313824730806E+01
 0.3251213857470E+01
 0.3176901545798E+01
 0.3090887809298E+01
 0.2993351994691E+01
 0.2884679953928E+01
 0.2765495534278E+01
 0.2636701843515E+01
 0.2499548927381E+01
 0.2355786597573E+01
 0.2208122708873E+01
 0.3411060154922E+01
 0.3427762784862E+01
 0.3436924906358E+01
 0.3437423493941E+01
 0.3428278105300E+01
 0.3408688615780E+01
 0.3378021694478E+01
 0.3335793359377E+01
 0.3281661211953E+01
 0.3215427581664E+01
 0.3137050920506E+01
 0.3046661699380E+01
 0.2944578668921E+01
 0.2831320673191E+01
 0.2707607643174E+01
 0.2574341098669E+01
 0.2432548861382E+01
 0.2283267801635E+01
 0.2127312315995E+01
 0.1964920339544E+01
 0.3400860724385E+01
 0.3411035541434E+01
 0.3412505160168E+01
 0.3403853869548E+01
 0.3384010218367E+01
 0.3352213271141E+01
 0.3307949054991E+01
 0.3250906636768E+01
 0.3180959395033E+01
 0.3098165478379E+01
 0.3002779551204E+01
 0.2895268221505E+01
 0.2776321416084E+01
 0.2646850363801E+01
 0.2507958218767E+01
 0.2360859521667E+01
 0.2206703326329E+01
 0.2046211655462E+01
 0.1878923041652E+01
 0.1701246734707E+01
 0.3383856425281E+01
 0.3386768177322E+01
 0.3379582676511E+01
 0.3360586794790E+01
 0.3328687961098E+01
 0.3283249746250E+01
 0.3223955214415E+01
 0.3150732259014E+01
 0.3063727055685E+01
 0.2963306811704E+01
 0.2850076676992E+01
 0.2724898826059E+01
 0.2588903424475E+01
 0.2443479844200E+01
 0.2290231060909E+01
 0.2130861184389E+01
 0.1966941314356E+01
 0.1799439764110E+01
 0.1627833949606E+01
 0.1448440832793E+01
 0.3360344928025E+01
 0.3355329478819E+01
 0.3338512369485E+01
 0.3307940991897E+01
 0.3262633661880E+01
 0.3202198736491E+01
 0.3126605959861E+01
 0.3036085696399E+01
 0.2931104262703E+01
 0.2812377793870E+01
 0.2680899542002E+01
 0.2537965769850E+01
 0.2385190322358E+01
 0.2224499720748E+01
 0.2058098507288E+01
 0.1888390119940E+01
 0.1717828706707E+01
 0.1548685322553E+01
 0.1382689667256E+01
 0.1221678746658E+01
 0.3330726226301E+01
 0.3317168278544E+01
 0.3289683688140E+01
 0.3246249114512E+01
 0.3186201736129E+01
 0.3109538744604E+01
 0.3016596950316E+01
 0.2907946465475E+01
 0.2784389329475E+01
 0.2646995015727E+01
 0.2497141298037E+01
 0.2336545882917E+01
 0.2167286869664E+01
 0.1991815637583E+01
 0.1812972535292E+01
 0.1634029599656E+01
 0.1458824075310E+01
 0.1292115419865E+01
 0.1140589832984E+01
 0.1014199565333E+01
 0.3295513937380E+01
 0.3272801370836E+01
 0.3233502784144E+01
 0.3175868065593E+01
 0.3099839653550E+01
 0.3005943215904E+01
 0.2894914852976E+01
 0.2767649017970E+01
 0.2625249869966E+01
 0.2469100578953E+01
 0.2300911277684E+01
 0.2122749971646E+01
 0.1937069953069E+01
 0.1746754921896E+01
 0.1555219492939E+01
 0.1366641916377E+01
 0.1186483050963E+01
 0.1022636420713E+01
 0.8877702160171E+00
 0.8035867248188E+00
 0.3255351584249E+01
 0.3222784608255E+01
 0.3170349673584E+01
 0.3097174043720E+01
 0.3004155298811E+01
 0.2892406182276E+01
 0.2763003136881E+01
 0.2617073135663E+01
 0.2455954502509E+01
 0.2281278597013E+01
 0.2095004551590E+01
 0.1899438911611E+01
 0.1697268060636E+01
 0.1491637988911E+01
 0.1286339730004E+01
 0.1086208052361E+01
 0.8979481561433E+00
 0.7317787889996E+00
 0.6047260539258E+00
 0.5481349699214E+00
 0.3211012015470E+01
 0.3167611824503E+01
 0.3100471084321E+01
 0.3010587906598E+01
 0.2900083403736E+01
 0.2770543966598E+01
 0.2623141810785E+01
 0.2459146559871E+01
 0.2280101177340E+01
 0.2087867283285E+01
 0.1884636582183E+01
 0.1672952809897E+01
 0.1455777662242E+01
 0.1236643639977E+01
 0.1019963605114E+01
 0.8116166993512E+00
 0.6200039014332E+00
 0.4579344815052E+00
 0.3459445343546E+00
 0.3193650672971E+00
 0.3163481080049E+01
 0.3107715494673E+01
 0.3024116339632E+01
 0.2916977001111E+01
 0.2789657994845E+01
 0.2643355453379E+01
 0.2479206298847E+01
 0.2298677049069E+01
 0.2103599511490E+01
 0.1896165559586E+01
 0.1678942607089E+01
 0.1454939458314E+01
 0.1227750226242E+01
 0.1001819118050E+01
 0.7828887285536E+00
 0.5787134735538E+00
 0.4001374760738E+00
 0.2625824243447E+00
 0.1881579953320E+00
 0.2061162265458E+00
 0.3114184125306E+01
 0.3042615930172E+01
 0.2940583172507E+01
 0.2817990750297E+01
 0.2675656533452E+01
 0.2514312927271E+01
 0.2335371227299E+01
 0.2140704702324E+01
 0.1932595094605E+01
 0.1713729119085E+01
 0.1487256173762E+01
 0.1256907882179E+01
 0.1027199144651E+01
 0.8037348006026E+00
 0.5936423582503E+00
 0.4061247322263E+00
 0.2530324155909E+00
 0.1491599017086E+00
 0.1112958806368E+00
 0.1524927737064E+00
 0.3061337269742E+01
 0.2965649148646E+01
 0.2851417161491E+01
 0.2716708568373E+01
 0.2561378676859E+01
 0.2387155348208E+01
 0.2196093595805E+01
 0.1990626998562E+01
 0.1773572110960E+01
 0.1548190640710E+01
 0.1318275375417E+01
 0.1088277291129E+01
 0.8634802729112E+00
 0.6502210740088E+00
 0.4561264555460E+00
 0.2902761767541E+00
 0.1630623619195E+00
 0.8518886666469E-01
 0.6464343986841E-01
 0.9684394470803E-01
</DataArray>
<CellData Tensors="'E_Centroid','S_Centroid'">
<DataArray type="Float64" Name="E_Centroid" NumberOfComponents="4" ComponentName0="E11" ComponentName1="E22" ComponentName2="E33" ComponentName3="E12" format="ascii">
-0.3629232865481E-03  0.2578157018697E-02  0.0000000000000E+00  0.4935478959298E-03
-0.6593833671899E-03  0.2453711833152E-02  0.0000000000000E+00 -0.9028954954150E-04
-0.6102144686988E-03  0.2470557419198E-02  0.0000000000000E+00 -0.1903617202101E-04
-0.6260400665600E-03  0.2496963823610E-02  0.0000000000000E+00 -0.1255632956334E-04
-0.6253483558244E-03  0.2502242423673E-02  0.0000000000000E+00  0.7260396244282E-07
-0.6225423045501E-03  0.2489661125219E-02  0.0000000000000E+00  0.9709340473431E-05
-0.6150798693364E-03  0.2460347313985E-02  0.0000000000000E+00  0.1793585195730E-04
-0.6041042109925E-03  0.2416461873924E-02  0.0000000000000E+00  0.2493359026447E-04
-0.5898971856463E-03  0.2359716710455E-02  0.0000000000000E+00  0.3102449086119E-04
-0.5728377878616E-03  0.2291507209162E-02  0.0000000000000E+00  0.3643848260954E-04
-0.5531782500570E-03  0.2212880061169E-02  0.0000000000000E+00  0.4137175971820E-04
-0.5311037897147E-03  0.2124572126276E-02  0.0000000000000E+00  0.4599008268567E-04
-0.5067270597976E-03  0.2027037559327E-02  0.0000000000000E+00  0.5043855197374E-04
-0.4800976461571E-03  0.1920474926320E-02  0.0000000000000E+00  0.5484610877187E-04
-0.4512071103505E-03  0.1804850570831E-02  0.0000000000000E+00  0.5932838731918E-04
-0.4199942384673E-03  0.1679919726183E-02  0.0000000000000E+00  0.6398913664662E-04
-0.3863504657884E-03  0.1545244786136E-02  0.0000000000000E+00  0.6892370929049E-04
-0.3501239746520E-03  0.1400221050966E-02  0.0000000000000E+00  0.7421394799576E-04
-0.3111243097717E-03  0.1244081418596E-02  0.0000000000000E+00  0.7993769215202E-04
-0.2691256680267E-03  0.1075921492658E-02  0.0000000000000E+00  0.8616527526247E-04
-0.2238683462948E-03  0.8946985722190E-03  0.0000000000000E+00  0.9296774671416E-04
-0.1750549208557E-03  0.6992184119257E-03  0.0000000000000E+00  0.1004305932513E-03
-0.1223306205205E-03  0.4880712242040E-03  0.0000000000000E+00  0.1086655500071E-03
-0.6529344813894E-04  0.2593623815694E-03  0.0000000000000E+00  0.1179997165852E-03
-0.3525876803356E-05  0.1057510306515E-04  0.0000000000000E+00  0.1296067882391E-03
 0.6321763511466E-04 -0.2600591053367E-03  0.0000000000000E+00  0.1463623478577E-03
 0.1347621271722E-03 -0.5521410110819E-03  0.0000000000000E+00  0.1722401562783E-03
 0.2104625990577E-03 -0.8632463701320E-03  0.0000000000000E+00  0.2109259494549E-03
 0.2893211004565E-03 -0.1189724891087E-02  0.0000000000000E+00  0.2651131578348E-03
 0.3701147129903E-03 -0.1527355652488E-02  0.0000000000000E+00  0.3365823281063E-03
 0.4514328404907E-03 -0.1871543691985E-02  0.0000000000000E+00  0.4266590646322E-03
 0.5316081154985E-03 -0.2216994667789E-02  0.0000000000000E+00  0.5365590343853E-03
 0.6088765491461E-03 -0.2556679674890E-02  0.0000000000000E+00  0.6657882772023E-03
 0.6818211568308E-03 -0.2883910264167E-02  0.0000000000000E+00  0.8101236610573E-03
 0.7506184333499E-03 -0.3198055423324E-02  0.0000000000000E+00  0.9658047605285E-03
 0.8136421496123E-03 -0.3503863561528E-02  0.0000000000000E+00  0.1135260575425E-02
 0.8819506265700E-03 -0.3814593518920E-02  0.0000000000000E+00  0.1330158311159E-02
 0.9093029787380E-03 -0.4142366201514E-02  0.0000000000000E+00  0.1586665270269E-02
 0.1145054718713E-02 -0.4608098014908E-02  0.0000000000000E+00  0.1918819517905E-02
 0.2328505514799E-03 -0.5050897378377E-02  0.0000000000000E+00  0.3229138853735E-02
 0.4473582582437E-02 -0.6208764751184E-02  0.0000000000000E+00  0.3560250052948E-02
-0.2722879164720E-03  0.2257612227815E-02  0.0000000000000E+00  0.3997889985010E-03
-0.5685357138365E-03  0.2334498323021E-02  0.0000000000000E+00  0.4943079303720E-04
-0.5834133598906E-03  0.2298645248369E-02  0.0000000000000E+00 -0.5302618046593E-04
-0.5773462241384E-03  0.2302373673084E-02  0.0000000000000E+00 -0.1740015172029E-04
-0.5778314570134E-03  0.2298363018132E-02  0.0000000000000E+00  0.6465005932044E-05
-0.5726762633064E-03  0.2281116117929E-02  0.0000000000000E+00  0.3180494199905E-04
-0.5647116309642E-03  0.2250361588966E-02  0.0000000000000E+00  0.5388809914093E-04
-0.5535098958995E-03  0.2206801059106E-02  0.0000000000000E+00  0.7344059627250E-04
-0.5394727722696E-03  0.2151520264430E-02  0.0000000000000E+00  0.9079099828732E-04
-0.5228086725599E-03  0.2085513672003E-02  0.0000000000000E+00  0.1064364297096E-03
-0.5037208199936E-03  0.2009597059992E-02  0.0000000000000E+00  0.1208277569022E-03
-0.4823510350373E-03  0.1924368696676E-02  0.0000000000000E+00  0.1343832418644E-03
-0.4587895067922E-03  0.1830206555126E-02  0.0000000000000E+00  0.1474836281053E-03
-0.4330736995469E-03  0.1727275925714E-02  0.0000000000000E+00  0.1604762473518E-03
-0.4051916978419E-03  0.1615542118694E-02  0.0000000000000E+00  0.1736774134370E-03
-0.3750857906701E-03  0.1494785092605E-02  0.0000000000000E+00  0.1873747893882E-03
-0.3426560424842E-03  0.1364614945074E-02  0.0000000000000E+00  0.2018277831453E-03
-0.3077646165180E-03  0.1224490196949E-02  0.0000000000000E+00  0.2172693669556E-03
-0.2702402406233E-03  0.1073730543198E-02  0.0000000000000E+00  0.2339110010824E-03
-0.2298812835555E-03  0.9115303319960E-03  0.0000000000000E+00  0.2519475394413E-03
-0.1864599731024E-03  0.7369669253983E-03  0.0000000000000E+00  0.2715780267455E-03
-0.1397195562037E-03  0.5489866792773E-03  0.0000000000000E+00  0.2930401410941E-03
-0.8938355929783E-04  0.3463481346756E-03  0.0000000000000E+00  0.3167525603658E-03
-0.3529327932389E-04  0.1275943464364E-03  0.0000000000000E+00  0.3436302466299E-03
 0.2244258070738E-04 -0.1085741180109E-03  0.0000000000000E+00  0.3749941317130E-03
 0.8352099526873E-04 -0.3625888845948E-03  0.0000000000000E+00  0.4124090702453E-03
 0.1475652972383E-03 -0.6335371576461E-03  0.0000000000000E+00  0.4576782026466E-03
 0.2140722125369E-03 -0.9191546284105E-03  0.0000000000000E+00  0.5125528515552E-03
 0.2823084316340E-03 -0.1216142374005E-02  0.0000000000000E+00  0.5783751810105E-03
 0.3512644149136E-03 -0.1520458291062E-02  0.0000000000000E+00  0.6559555351681E-03
 0.4196212773119E-03 -0.1827372009368E-02  0.0000000000000E+00  0.7455923035743E-03
 0.4859312394797E-03 -0.2131299454828E-02  0.0000000000000E+00  0.8467163941936E-03
 0.5490460967576E-03 -0.2425976420661E-02  0.0000000000000E+00  0.9574377275174E-03
 0.6080895389404E-03 -0.2705666703771E-02  0.0000000000000E+00  0.1075714903703E-02
 0.6610159042259E-03 -0.2966290335611E-02  0.0000000000000E+00  0.1201757942219E-02
 0.7072359696220E-03 -0.3205682167834E-02  0.0000000000000E+00  0.1338533608244E-02
 0.7338099733114E-03 -0.3419501159721E-02  0.0000000000000E+00  0.1504514842753E-02
 0.7654648683770E-03 -0.3605730853353E-02  0.0000000000000E+00  0.1687304705182E-02
 0.6476203379004E-03 -0.3728671941257E-02  0.0000000000000E+00  0.2165365009071E-02
 0.2752575310609E-03 -0.3326687970859E-02  0.0000000000000E+00  0.2002857573359E-02
 0.3279807631218E-02 -0.3358270493991E-02  0.0000000000000E+00  0.3603183575364E-03
-0.2099223451623E-03  0.2015897602953E-02  0.0000000000000E+00  0.2645413588551E-03
-0.4796181572768E-03  0.2134787897915E-02  0.0000000000000E+00  0.9096632293206E-04
-0.5375798235798E-03  0.2126390839312E-02  0.0000000000000E+00 -0.2928931211595E-04
-0.5353599913041E-03  0.2110972928596E-02  0.0000000000000E+00 -0.1622955690113E-04
-0.5321356488242E-03  0.2098873650732E-02  0.0000000000000E+00  0.2041009325742E-04
-0.5261437088911E-03  0.2077184495185E-02  0.0000000000000E+00  0.5640701545861E-04
-0.5171410257864E-03  0.2044668713668E-02  0.0000000000000E+00  0.9046765135538E-04
-0.5055535781683E-03  0.2001097253249E-02  0.0000000000000E+00  0.1211644691416E-03
-0.4914483295570E-03  0.1946965215857E-02  0.0000000000000E+00  0.1488918928297E-03
-0.4750078533897E-03  0.1882912788217E-02  0.0000000000000E+00  0.1741551510565E-03
-0.4563639199254E-03  0.1809531178622E-02  0.0000000000000E+00  0.1975653492395E-03
-0.4356223138775E-03  0.1727281930939E-02  0.0000000000000E+00  0.2197203726124E-03
-0.4128473514678E-03  0.1636464530860E-02  0.0000000000000E+00  0.2411896264234E-03
-0.3880620612205E-03  0.1537207694710E-02  0.0000000000000E+00  0.2625039872183E-03
-0.3612480023969E-03  0.1429471906248E-02  0.0000000000000E+00  0.2841536119991E-03
-0.3323474610258E-03  0.1313058084373E-02  0.0000000000000E+00  0.3065868106647E-03
-0.3012659815030E-03  0.1187618874512E-02  0.0000000000000E+00  0.3302093048831E-03
-0.2678767306857E-03  0.1052674890027E-02  0.0000000000000E+00  0.3553857666497E-03
-0.2320248626213E-03  0.9076273220181E-03  0.0000000000000E+00  0.3824445366484E-03
-0.1935325724803E-03  0.7517714629154E-03  0.0000000000000E+00  0.4116882437663E-03
-0.1522063558046E-03  0.5843096761092E-03  0.0000000000000E+00  0.4434211757738E-03
-0.1078460380777E-03  0.4043478931788E-03  0.0000000000000E+00  0.4780147232266E-03
-0.6030152488137E-04  0.2108972775431E-03  0.0000000000000E+00  0.5160918269635E-03
-0.9646842450362E-05  0.3012190874636E-05  0.0000000000000E+00  0.5586969117777E-03
 0.4370112213531E-04 -0.2197629284500E-03  0.0000000000000E+00  0.6068443464183E-03
 0.9916602273030E-04 -0.4570279818578E-03  0.0000000000000E+00  0.6610669966346E-03
 0.1562550223843E-03 -0.7074632053698E-03  0.0000000000000E+00  0.7216327855340E-03
 0.2145316144945E-03 -0.9688249586739E-03  0.0000000000000E+00  0.7887437106170E-03
 0.2734335189502E-03 -0.1238002325580E-02  0.0000000000000E+00  0.8624415777765E-03
 0.3321291056976E-03 -0.1511073479638E-02  0.0000000000000E+00  0.9424098257192E-03
 0.3894968741141E-03 -0.1783282492719E-02  0.0000000000000E+00  0.1027700381792E-02
 0.4443780457575E-03 -0.2049073838083E-02  0.0000000000000E+00  0.1116369053720E-02
 0.4959122657748E-03 -0.2302442548694E-02  0.0000000000000E+00  0.1205776662148E-02
 0.5428492134991E-03 -0.2537169620296E-02  0.0000000000000E+00  0.1294265333462E-02
 0.5828979646804E-03 -0.2746379251593E-02  0.0000000000000E+00  0.1381524298055E-02
 0.6103931150490E-03 -0.2921131943667E-02  0.0000000000000E+00  0.1470564115849E-02
 0.6198193010061E-03 -0.3045631445816E-02  0.0000000000000E+00  0.1556878099335E-02
 0.5943631708049E-03 -0.3095329867385E-02  0.0000000000000E+00  0.1664824601219E-02
 0.4177258961806E-03 -0.2910194435565E-02  0.0000000000000E+00  0.1703790881375E-02
 0.5536638493563E-03 -0.2411820845586E-02  0.0000000000000E+00  0.6026753637747E-03
 0.3109847824244E-02 -0.2470787236383E-02  0.0000000000000E+00 -0.9841304369191E-03
-0.1663738123342E-03  0.1802861842495E-02  0.0000000000000E+00  0.1419418218521E-03
-0.4037499610860E-03  0.1923982027370E-02  0.0000000000000E+00  0.8616490628056E-04
-0.4840209560042E-03  0.1938718531389E-02  0.0000000000000E+00 -0.2644981617014E-05
-0.4928721641200E-03  0.1921440987889E-02  0.0000000000000E+00 -0.1262813784151E-05
-0.4889688055368E-03  0.1902250662624E-02  0.0000000000000E+00  0.3875295507812E-04
-0.4819087423371E-03  0.1876965462153E-02  0.0000000000000E+00  0.8394644606378E-04
-0.4720919891797E-03  0.1842711430300E-02  0.0000000000000E+00  0.1277305822181E-03
-0.4599513775589E-03  0.1798974707288E-02  0.0000000000000E+00  0.1683321110795E-03
-0.4456515733644E-03  0.1745794031767E-02  0.0000000000000E+00  0.2055116938345E-03
-0.4293041665628E-03  0.1683518190539E-02  0.0000000000000E+00  0.2397418750813E-03
-0.4110087078318E-03  0.1612540231541E-02  0.0000000000000E+00  0.2716782858482E-03
-0.3908360763753E-03  0.1533194946521E-02  0.0000000000000E+00  0.3020400258461E-03
-0.3688278495408E-03  0.1445706537450E-02  0.0000000000000E+00  0.3315394727336E-03
-0.3449917590763E-03  0.1350166913847E-02  0.0000000000000E+00  0.3608579528533E-03
-0.3193011185478E-03  0.1246529858926E-02  0.0000000000000E+00  0.3906329281420E-03
-0.2916956680027E-03  0.1134614266880E-02  0.0000000000000E+00  0.4214513643972E-03
-0.2620836661415E-03  0.1014112097996E-02  0.0000000000000E+00  0.4538459796845E-03
-0.2303463271930E-03  0.8846030226356E-03  0.0000000000000E+00  0.4882945091880E-03
-0.1963428041903E-03  0.7455669917809E-03  0.0000000000000E+00  0.5252239908532E-03
-0.1599178216880E-03  0.5964000969070E-03  0.0000000000000E+00  0.5650237062348E-03
-0.1209141300116E-03  0.4364338349343E-03  0.0000000000000E+00  0.6080771330693E-03
-0.7919937132850E-04  0.2649524240471E-03  0.0000000000000E+00  0.6548409456837E-03
-0.3475239030942E-04  0.8125350908496E-04  0.0000000000000E+00  0.7059919610407E-03
 0.1217665054357E-04 -0.1151468662509E-03  0.0000000000000E+00  0.7624343241246E-03
 0.6100446672222E-04 -0.3241079165386E-03  0.0000000000000E+00  0.8247019224267E-03
 0.1110374983707E-03 -0.5446898418795E-03  0.0000000000000E+00  0.8924600011473E-03
 0.1617389741461E-03 -0.7752770502250E-03  0.0000000000000E+00  0.9648086886758E-03
 0.2127219299111E-03 -0.1013593557442E-02  0.0000000000000E+00  0.1040678929464E-02
 0.2635527549179E-03 -0.1256632364573E-02  0.0000000000000E+00  0.1118890810525E-02
 0.3135787910675E-03 -0.1500574216715E-02  0.0000000000000E+00  0.1197933787986E-02
 0.3619194568136E-03 -0.1740734190295E-02  0.0000000000000E+00  0.1275601171565E-02
 0.4076925764502E-03 -0.1971647275050E-02  0.0000000000000E+00  0.1348759238310E-02
 0.4500923765683E-03 -0.2187247130151E-02  0.0000000000000E+00  0.1413892504558E-02
 0.4877542451618E-03 -0.2380515908321E-02  0.0000000000000E+00  0.1468118661247E-02
 0.5175322218873E-03 -0.2542262511689E-02  0.0000000000000E+00  0.1509210010405E-02
 0.5340162874917E-03 -0.2658564922885E-02  0.0000000000000E+00  0.1531684429753E-02
 0.5303556134822E-03 -0.2707914276056E-02  0.0000000000000E+00  0.1523157733995E-02
 0.4826706287772E-03 -0.2638474266764E-02  0.0000000000000E+00  0.1449682972009E-02
 0.4083559106787E-03 -0.2340878221554E-02  0.0000000000000E+00  0.1019488328994E-02
 0.9081492172264E-03 -0.1985325622114E-02  0.0000000000000E+00 -0.4169818412600E-03
 0.3088964345467E-02 -0.2153806097014E-02  0.0000000000000E+00 -0.1592467127344E-02
-0.1345675377697E-03  0.1603375278655E-02  0.0000000000000E+00  0.3798078756814E-04
-0.3406504800534E-03  0.1715186374104E-02  0.0000000000000E+00  0.6176307855799E-04
-0.4298015486635E-03  0.1743134604923E-02  0.0000000000000E+00  0.1596869089335E-04
-0.4491763821642E-03  0.1730241927114E-02  0.0000000000000E+00  0.1994534311031E-04
-0.4472526862284E-03  0.1707786612765E-02  0.0000000000000E+00  0.6162606388924E-04
-0.4396559379232E-03  0.1679631964233E-02  0.0000000000000E+00  0.1136629748984E-03
-0.4291575108948E-03  0.1643980259813E-02  0.0000000000000E+00  0.1657455174715E-03
-0.4164721133215E-03  0.1600070485922E-02  0.0000000000000E+00  0.2150114528358E-03
-0.4018977978938E-03  0.1547746962395E-02  0.0000000000000E+00  0.2607712646907E-03
-0.3855625698023E-03  0.1487135478417E-02  0.0000000000000E+00  0.3032954690970E-03
-0.3675468495309E-03  0.1418470912215E-02  0.0000000000000E+00  0.3432325074649E-03
-0.3479011251112E-03  0.1341978437151E-02  0.0000000000000E+00  0.3813652342925E-03
-0.3266480585268E-03  0.1257814616511E-02  0.0000000000000E+00  0.4185104576989E-03
-0.3037816073979E-03  0.1166037089198E-02  0.0000000000000E+00  0.4554689268000E-03
-0.2792661217506E-03  0.1066592693630E-02  0.0000000000000E+00  0.4930004699880E-03
-0.2530370281407E-03  0.9593164434219E-03  0.0000000000000E+00  0.5318094757395E-03
-0.2250028404337E-03  0.8439369377998E-03  0.0000000000000E+00  0.5725364466183E-03
-0.1950499630524E-03  0.7200898502201E-03  0.0000000000000E+00  0.6157536236797E-03
-0.1630488092231E-03  0.5873311367679E-03  0.0000000000000E+00  0.6619673509653E-03
-0.1288644054291E-03  0.4451562028488E-03  0.0000000000000E+00  0.7116303147810E-03
-0.9237562112033E-04  0.2930276634256E-03  0.0000000000000E+00  0.7651728787548E-03
-0.5351713466245E-04  0.1304156102845E-03  0.0000000000000E+00  0.8230717507608E-03
-0.1237471000645E-04 -0.4310375906150E-04  0.0000000000000E+00  0.8859289044115E-03
 0.3068812518958E-04 -0.2276320558792E-03  0.0000000000000E+00  0.9543584697942E-03
 0.7501819095365E-04 -0.4226061748135E-03  0.0000000000000E+00  0.1028355136260E-02
 0.1199008156512E-03 -0.6267325876205E-03  0.0000000000000E+00  0.1106829986500E-02
 0.1648128454442E-03 -0.8381935815051E-03  0.0000000000000E+00  0.1187940269792E-02
 0.2094273915907E-03 -0.1054676963926E-02  0.0000000000000E+00  0.1269542983885E-02
 0.2534328357062E-03 -0.1273248392360E-02  0.0000000000000E+00  0.1349323369375E-02
 0.2963664277829E-03 -0.1490201213378E-02  0.0000000000000E+00  0.1424587883307E-02
 0.3376074665023E-03 -0.1700978925177E-02  0.0000000000000E+00  0.1491908568719E-02
 0.3765170342361E-03 -0.1900214322213E-02  0.0000000000000E+00  0.1546987662199E-02
 0.4123939925930E-03 -0.2081699151241E-02  0.0000000000000E+00  0.1585032073264E-02
 0.4438347307429E-03 -0.2237746085641E-02  0.0000000000000E+00  0.1601195824066E-02
 0.4678894691098E-03 -0.2357558599665E-02  0.0000000000000E+00  0.1589013516245E-02
 0.4803868686070E-03 -0.2425165505510E-02  0.0000000000000E+00  0.1535196988212E-02
 0.4757749897870E-03 -0.2414837977793E-02  0.0000000000000E+00  0.1410971936015E-02
 0.4536226698003E-03 -0.2278413387238E-02  0.0000000000000E+00  0.1121585976150E-02
 0.5312505849152E-03 -0.1993884424614E-02  0.0000000000000E+00  0.3671284587514E-03
 0.1241181112327E-02 -0.1806940658034E-02  0.0000000000000E+00 -0.1075684413047E-02
 0.3108944755301E-02 -0.2035702978685E-02  0.0000000000000E+00 -0.1907648971470E-02
-0.1103597579368E-03  0.1411512796821E-02  0.0000000000000E+00 -0.4898521513988E-04
-0.2881273763635E-03  0.1510908511870E-02  0.0000000000000E+00  0.3029282424345E-04
-0.3781979359404E-03  0.1544943487234E-02  0.0000000000000E+00  0.2654509896012E-04
-0.4052673231516E-03  0.1537350621844E-02  0.0000000000000E+00  0.4223250306952E-04
-0.4064265025970E-03  0.1514519404576E-02  0.0000000000000E+00  0.8751515146759E-04
-0.3990220931385E-03  0.1484648282729E-02  0.0000000000000E+00  0.1451015329585E-03
-0.3880496690852E-03  0.1448004372134E-02  0.0000000000000E+00  0.2042989657046E-03
-0.3748817099904E-03  0.1404050254280E-02  0.0000000000000E+00  0.2612111897030E-03
-0.3600131837300E-03  0.1352569462987E-02  0.0000000000000E+00  0.3147189854829E-03
-0.3436438692716E-03  0.1293567456999E-02  0.0000000000000E+00  0.3648754005240E-03
-0.3258646101674E-03  0.1227162570930E-02  0.0000000000000E+00  0.4122677105686E-03
-0.3067185851613E-03  0.1153493524590E-02  0.0000000000000E+00  0.4577050734357E-03
-0.2862167100719E-03  0.1072660124966E-02  0.0000000000000E+00  0.5020748835425E-03
-0.2643417626609E-03  0.9846905346392E-03  0.0000000000000E+00  0.5462702770455E-03
-0.2410494481310E-03  0.8895258243225E-03  0.0000000000000E+00  0.5911504706320E-03
-0.2162696585150E-03  0.7870161639751E-03  0.0000000000000E+00  0.6375172271790E-03
-0.1899089553698E-03  0.6769245143458E-03  0.0000000000000E+00  0.6861002480379E-03
-0.1618560359797E-03  0.5589394897691E-03  0.0000000000000E+00  0.7375479171151E-03
-0.1319893018931E-03  0.4326897416849E-03  0.0000000000000E+00  0.7924259639353E-03
-0.1001906242602E-03  0.2977669862054E-03  0.0000000000000E+00  0.8512258769081E-03
-0.6637095636422E-04  0.1537629093309E-03  0.0000000000000E+00  0.9143883246908E-03
-0.3052098766432E-04  0.3277449131429E-06  0.0000000000000E+00  0.9823454914533E-03
 0.7198913427098E-05 -0.1627139938228E-03  0.0000000000000E+00  0.1055530936403E-02
 0.4636891459595E-04 -0.3351623352362E-03  0.0000000000000E+00  0.1134191324355E-02
 0.8633427154695E-04 -0.5161594522102E-03  0.0000000000000E+00  0.1217775100482E-02
 0.1264229630829E-03 -0.7041857907003E-03  0.0000000000000E+00  0.1304524710322E-02
 0.1661717491890E-03 -0.8972991622349E-03  0.0000000000000E+00  0.1391802040624E-02
 0.2053375110583E-03 -0.1093172703962E-02  0.0000000000000E+00  0.1476533289116E-02
 0.2437431165015E-03 -0.1288947301400E-02  0.0000000000000E+00  0.1555359464497E-02
 0.2811319276209E-03 -0.1481051908710E-02  0.0000000000000E+00  0.1624456014015E-02
 0.3171522415586E-03 -0.1665099314808E-02  0.0000000000000E+00  0.1679218534865E-02
 0.3514286771236E-03 -0.1835850300746E-02  0.0000000000000E+00  0.1714122934556E-02
 0.3834612641151E-03 -0.1987042604861E-02  0.0000000000000E+00  0.1722831732799E-02
 0.4121498548882E-03 -0.2110638378954E-02  0.0000000000000E+00  0.1697904098803E-02
 0.4355311522762E-03 -0.2195367062528E-02  0.0000000000000E+00  0.1628184341419E-02
 0.4517035972617E-03 -0.2225086071448E-02  0.0000000000000E+00  0.1492492866796E-02
 0.4622739778514E-03 -0.2175962512574E-02  0.0000000000000E+00  0.1244148280964E-02
 0.4970998310124E-03 -0.2021971329932E-02  0.0000000000000E+00  0.7636197262130E-03
 0.7176893801551E-03 -0.1804493146281E-02  0.0000000000000E+00 -0.1652370378156E-03
 0.1530476973344E-02 -0.1751622485974E-02  0.0000000000000E+00 -0.1486059280187E-02
 0.3141622925299E-02 -0.2005531598919E-02  0.0000000000000E+00 -0.2084111363907E-02
-0.9130377321914E-04  0.1224533975228E-02  0.0000000000000E+00 -0.1215698771279E-03
-0.2440399660979E-03  0.1311260807079E-02  0.0000000000000E+00 -0.2329175471934E-05
-0.3304802919958E-03  0.1346935504443E-02  0.0000000000000E+00  0.3125343143896E-04
-0.3622064289445E-03  0.1343714243291E-02  0.0000000000000E+00  0.6324746792171E-04
-0.3664293893876E-03  0.1322030349293E-02  0.0000000000000E+00  0.1147385250220E-03
-0.3597317153121E-03  0.1291562632334E-02  0.0000000000000E+00  0.1776635297887E-03
-0.3485344411159E-03  0.1254409784465E-02  0.0000000000000E+00  0.2431290344697E-03
-0.3349759418728E-03  0.1210606659590E-02  0.0000000000000E+00  0.3068508800377E-03
-0.3198308942813E-03  0.1160020074116E-02  0.0000000000000E+00  0.3673561479344E-03
-0.3034105967994E-03  0.1102618127665E-02  0.0000000000000E+00  0.4245042253052E-03
-0.2858447325512E-03  0.1038450538449E-02  0.0000000000000E+00  0.4788014696030E-03
-0.2671841092239E-03  0.9675943079406E-03  0.0000000000000E+00  0.5310562628877E-03
-0.2474358327474E-03  0.8901058522258E-03  0.0000000000000E+00  0.5822011211046E-03
-0.2265751940291E-03  0.8059902325211E-03  0.0000000000000E+00  0.6331984604074E-03
-0.2045502135356E-03  0.7151850507501E-03  0.0000000000000E+00  0.6849865017853E-03
-0.1812844544268E-03  0.6175553426888E-03  0.0000000000000E+00  0.7384458599912E-03
-0.1566804611729E-03  0.5128964249458E-03  0.0000000000000E+00  0.7943778368911E-03
-0.1306261670082E-03  0.4009466422522E-03  0.0000000000000E+00  0.8534891375315E-03
-0.1030040399625E-03  0.2814032643989E-03  0.0000000000000E+00  0.9163850835235E-03
-0.7370774594967E-04  0.1539494423086E-03  0.0000000000000E+00  0.9835709785513E-03
-0.4267226218171E-04  0.1829901391412E-04  0.0000000000000E+00  0.1055461299184E-02
-0.9926750848932E-05 -0.1257336233243E-03  0.0000000000000E+00  0.1132389060203E-02
 0.2432863294960E-04 -0.2781154808680E-03  0.0000000000000E+00  0.1214557831399E-02
 0.5966637778787E-04 -0.4384185510211E-03  0.0000000000000E+00  0.1301812741876E-02
 0.9548038008300E-04 -0.6055872089573E-03  0.0000000000000E+00  0.1393073153705E-02
 0.1311865312006E-03 -0.7779692023576E-03  0.0000000000000E+00  0.1485981763249E-02
 0.1664197710374E-03 -0.9535632873892E-03  0.0000000000000E+00  0.1577209567217E-02
 0.2010495303376E-03 -0.1130061979535E-02  0.0000000000000E+00  0.1662862255182E-02
 0.2350550826782E-03 -0.1304703260206E-02  0.0000000000000E+00  0.1738627187883E-02
 0.2684046561988E-03 -0.1474082399999E-02  0.0000000000000E+00  0.1799620337635E-02
 0.3010339137053E-03 -0.1634023875410E-02  0.0000000000000E+00  0.1840103051519E-02
 0.3328792058740E-03 -0.1779486650661E-02  0.0000000000000E+00  0.1853284123624E-02
 0.3637963856782E-03 -0.1904327395309E-02  0.0000000000000E+00  0.1831118933931E-02
 0.3933607980893E-03 -0.2000627073459E-02  0.0000000000000E+00  0.1763410215999E-02
 0.4211915580727E-03 -0.2057640285828E-02  0.0000000000000E+00  0.1634597200213E-02
 0.4490116923092E-03 -0.2061041743664E-02  0.0000000000000E+00  0.1416394432545E-02
 0.4886355553741E-03 -0.1994327429834E-02  0.0000000000000E+00  0.1051417786598E-02
 0.5930116746465E-03 -0.1856027396565E-02  0.0000000000000E+00  0.4284044907507E-03
 0.9276375675240E-03 -0.1718437355363E-02  0.0000000000000E+00 -0.5680872736970E-03
 0.1777146004465E-02 -0.1760455697278E-02  0.0000000000000E+00 -0.1735026962637E-02
 0.3180149207461E-02 -0.2020854121333E-02  0.0000000000000E+00 -0.2185266659964E-02
-0.7589296671904E-04  0.1041018352574E-02  0.0000000000000E+00 -0.1821288781991E-03
-0.2066498269351E-03  0.1115810585432E-02  0.0000000000000E+00 -0.3330206632758E-04
-0.2869557551135E-03  0.1150471953879E-02  0.0000000000000E+00  0.3223789550175E-04
-0.3207480539650E-03  0.1150268066033E-02  0.0000000000000E+00  0.8223338905361E-04
-0.3274236841090E-03  0.1130297330350E-02  0.0000000000000E+00  0.1420600580122E-03
-0.3216388906172E-03  0.1100068422025E-02  0.0000000000000E+00  0.2106942017703E-03
-0.3104262315177E-03  0.1062893337511E-02  0.0000000000000E+00  0.2819382968221E-03
-0.2965799975579E-03  0.1019471501881E-02  0.0000000000000E+00  0.3518020316570E-03
-0.2811961536819E-03  0.9698725373838E-03  0.0000000000000E+00  0.4186430399266E-03
-0.2647287222328E-03  0.9140964980056E-03  0.0000000000000E+00  0.4821762689360E-03
-0.2473688516468E-03  0.8521687349001E-03  0.0000000000000E+00  0.5428324861132E-03
-0.2291895491888E-03  0.7841301097161E-03  0.0000000000000E+00  0.6014054825956E-03
-0.2102022899887E-03  0.7100079131209E-03  0.0000000000000E+00  0.6588548090268E-03
-0.1903790233339E-03  0.6297915248746E-03  0.0000000000000E+00  0.7161936959825E-03
-0.1696614690991E-03  0.5434181259412E-03  0.0000000000000E+00  0.7744217845070E-03
-0.1479663166844E-03  0.4507677924093E-03  0.0000000000000E+00  0.8344818789547E-03
-0.1251900743088E-03  0.3516663270952E-03  0.0000000000000E+00  0.8972305696120E-03
-0.1012166103718E-03  0.2458983294145E-03  0.0000000000000E+00  0.9634160045410E-03
-0.7592781279103E-04  0.1332247275464E-03  0.0000000000000E+00  0.1033664069234E-02
-0.4922243316541E-04  0.1341317316039E-04  0.0000000000000E+00  0.1108469909478E-02
-0.2104823357116E-04 -0.1137116643105E-03  0.0000000000000E+00  0.1188189007604E-02
 0.8547938780384E-05 -0.2481935916430E-03  0.0000000000000E+00  0.1273013549670E-02
 0.3935963935126E-04 -0.3898335413757E-03  0.0000000000000E+00  0.1362880778412E-02
 0.7099215044110E-04 -0.5380398398737E-03  0.0000000000000E+00  0.1457226478851E-02
 0.1029261563893E-03 -0.6916349830382E-03  0.0000000000000E+00  0.1554469753092E-02
 0.1346995162766E-03 -0.8489057922111E-03  0.0000000000000E+00  0.1651712294184E-02
 0.1660776541943E-03 -0.1007848203776E-02  0.0000000000000E+00  0.1745014686058E-02
 0.1970721589422E-03 -0.1166213393691E-02  0.0000000000000E+00  0.1829753071214E-02
 0.2278441484279E-03 -0.1321368407140E-02  0.0000000000000E+00  0.1900750270309E-02
 0.2586087320757E-03 -0.1470111307793E-02  0.0000000000000E+00  0.1952142780984E-02
 0.2896163004215E-03 -0.1608529913256E-02  0.0000000000000E+00  0.1977112623586E-02
 0.3211817890529E-03 -0.1731878758621E-02  0.0000000000000E+00  0.1967608846323E-02
 0.3536859899216E-03 -0.1834355207370E-02  0.0000000000000E+00  0.1913879471794E-02
 0.3876886839736E-03 -0.1908630483933E-02  0.0000000000000E+00  0.1803183419016E-02
 0.4248705149601E-03 -0.1945345478274E-02  0.0000000000000E+00  0.1616314712088E-02
 0.4714508858270E-03 -0.1933712077650E-02  0.0000000000000E+00  0.1320327364169E-02
 0.5489681297083E-03 -0.1866795030220E-02  0.0000000000000E+00  0.8568238216418E-03
 0.7226178811789E-03 -0.1761916621105E-02  0.0000000000000E+00  0.1409058865725E-03
 0.1140270654799E-02 -0.1698809412854E-02  0.0000000000000E+00 -0.8582606085138E-03
 0.1988561045794E-02 -0.1804845221981E-02  0.0000000000000E+00 -0.1879259890439E-02
 0.3222813060292E-02 -0.2062900087832E-02  0.0000000000000E+00 -0.2240237655185E-02
-0.6315706328850E-04  0.8601627387925E-03  0.0000000000000E+00 -0.2325894576487E-03
-0.1746101209655E-03  0.9240533105167E-03  0.0000000000000E+00 -0.6134356701559E-04
-0.2474935127074E-03  0.9561682447751E-03  0.0000000000000E+00  0.3116595675923E-04
-0.2813352559158E-03  0.9577071305742E-03  0.0000000000000E+00  0.9918736052758E-04
-0.2896185134283E-03  0.9394700100526E-03  0.0000000000000E+00  0.1687325341372E-03
-0.2846943302194E-03  0.9099980229883E-03  0.0000000000000E+00  0.2436168990518E-03
-0.2735892185261E-03  0.8732187257282E-03  0.0000000000000E+00  0.3204171851557E-03
-0.2595459171253E-03  0.8304143705922E-03  0.0000000000000E+00  0.3959115535052E-03
-0.2439680498342E-03  0.7819190010441E-03  0.0000000000000E+00  0.4685120046379E-03
-0.2274694652824E-03  0.7278187485085E-03  0.0000000000000E+00  0.5378641022384E-03
-0.2103191172341E-03  0.6681519731093E-03  0.0000000000000E+00  0.6043448307235E-03
-0.1926244912226E-03  0.6029474289713E-03  0.0000000000000E+00  0.6687316554486E-03
-0.1744091307125E-03  0.5322175210480E-03  0.0000000000000E+00  0.7320002134694E-03
-0.1556457827536E-03  0.4559437432119E-03  0.0000000000000E+00  0.7952006647548E-03
-0.1362713984157E-03  0.3740663145718E-03  0.0000000000000E+00  0.8593794845311E-03
-0.1161953476455E-03  0.2864807797813E-03  0.0000000000000E+00  0.9255270691911E-03
-0.9530603693343E-04  0.1930415698875E-03  0.0000000000000E+00  0.9945405435866E-03
-0.7347967712547E-04  0.9357572007969E-04  0.0000000000000E+00  0.1067193947131E-02
-0.5059220744849E-04 -0.1209806124282E-04  0.0000000000000E+00  0.1144116120441E-02
-0.2653932661886E-04 -0.1241364853862E-03  0.0000000000000E+00  0.1225770445239E-02
-0.1268293107481E-05 -0.2426186665293E-03  0.0000000000000E+00  0.1312426407438E-02
 0.2517809094688E-04 -0.3674722168791E-03  0.0000000000000E+00  0.1404106569344E-02
 0.5261760687431E-04 -0.4983733151040E-03  0.0000000000000E+00  0.1500464339296E-02
 0.8072176874718E-04 -0.6346221363048E-03  0.0000000000000E+00  0.1600534471743E-02
 0.1090878790655E-03 -0.7749803204938E-03  0.0000000000000E+00  0.1702270398141E-02
 0.1374025578214E-03 -0.9177311945944E-03  0.0000000000000E+00  0.1802285472328E-02
 0.1655892923816E-03 -0.1060916888408E-02  0.0000000000000E+00  0.1896097116589E-02
 0.1938299516311E-03 -0.1202387605907E-02  0.0000000000000E+00  0.1978431863955E-02
 0.2224934705986E-03 -0.1339675989744E-02  0.0000000000000E+00  0.2043335322523E-02
 0.2520659160457E-03 -0.1469823675251E-02  0.0000000000000E+00  0.2084051402889E-02
 0.2831452458843E-03 -0.1589240928336E-02  0.0000000000000E+00  0.2092758701803E-02
 0.3164966240455E-03 -0.1693589080583E-02  0.0000000000000E+00  0.2060218477207E-02
 0.3531721267895E-03 -0.1777631149585E-02  0.0000000000000E+00  0.1975129493962E-02
 0.3949377362920E-03 -0.1835034289010E-02  0.0000000000000E+00  0.1822674459543E-02
 0.4458138594537E-03 -0.1858496474714E-02  0.0000000000000E+00  0.1581196777185E-02
 0.5165320101538E-03 -0.1841712610352E-02  0.0000000000000E+00  0.1216412602762E-02
 0.6357923669293E-03 -0.1786785547291E-02  0.0000000000000E+00  0.6766796951220E-03
 0.8716480990925E-03 -0.1722222470895E-02  0.0000000000000E+00 -0.9113586012102E-04
 0.1345813635612E-02 -0.1722014156748E-02  0.0000000000000E+00 -0.1057893988479E-02
 0.2172519038288E-02 -0.1870260631525E-02  0.0000000000000E+00 -0.1954224106877E-02
 0.3269364273342E-02 -0.2122247319082E-02  0.0000000000000E+00 -0.2264109452644E-02
-0.5244477700177E-04  0.6814782129097E-03  0.0000000000000E+00 -0.2744959032887E-03
-0.1468871366102E-03  0.7355327949381E-03  0.0000000000000E+00 -0.8593247384790E-04
-0.2117805437936E-03  0.7642552437159E-03  0.0000000000000E+00  0.2923146702158E-04
-0.2441765877429E-03  0.7664881104797E-03  0.0000000000000E+00  0.1144127434085E-03
-0.2531899900228E-03  0.7497357176238E-03  0.0000000000000E+00  0.1943785497898E-03
-0.2489003371026E-03  0.7212788838707E-03  0.0000000000000E+00  0.2759925379808E-03
-0.2379297110396E-03  0.6852103967854E-03  0.0000000000000E+00  0.3582772847590E-03
-0.2237503124185E-03  0.6432397331561E-03  0.0000000000000E+00  0.4390183749083E-03
-0.2080193968907E-03  0.5959707209921E-03  0.0000000000000E+00  0.5168794966098E-03
-0.1915103937725E-03  0.5436098156722E-03  0.0000000000000E+00  0.5915252671480E-03
-0.1745794073667E-03  0.4862376219814E-03  0.0000000000000E+00  0.6633120228124E-03
-0.1573774940581E-03  0.4238915950939E-03  0.0000000000000E+00  0.7330084024169E-03
-0.1399467764719E-03  0.3565825417612E-03  0.0000000000000E+00  0.8016016388810E-03
-0.1222645509773E-03  0.2842916948403E-03  0.0000000000000E+00  0.8701692640666E-03
-0.1042644324013E-03  0.2069658467623E-03  0.0000000000000E+00  0.9397930121770E-03
-0.8584798487403E-04  0.1245165017141E-03  0.0000000000000E+00  0.1011498471345E-02
-0.6689333007961E-04  0.3682476682496E-04  0.0000000000000E+00  0.1086210321354E-02
-0.4726512400943E-04 -0.5624408613180E-04  0.0000000000000E+00  0.1164714613357E-02
-0.2682735794352E-04 -0.1548203042776E-03  0.0000000000000E+00  0.1247627553293E-02
-0.5463506760228E-05 -0.2589953876151E-03  0.0000000000000E+00  0.1335362519883E-02
 0.1689396137522E-04 -0.3687689241839E-03  0.0000000000000E+00  0.1428082633033E-02
 0.4022750077640E-04 -0.4839789386951E-03  0.0000000000000E+00  0.1525623432891E-02
 0.6440609723690E-04 -0.6042153838749E-03  0.0000000000000E+00  0.1627350708272E-02
 0.8919509392741E-04 -0.7287179357574E-03  0.0000000000000E+00  0.1731916562085E-02
 0.1143322576935E-03 -0.8562374479587E-03  0.0000000000000E+00  0.1836846305993E-02
 0.1396746760701E-03 -0.9851010379762E-03  0.0000000000000E+00  0.1938314118506E-02
 0.1653274549459E-03 -0.1113440012407E-02  0.0000000000000E+00  0.2031354430259E-02
 0.1916682091587E-03 -0.1239242659744E-02  0.0000000000000E+00  0.2110117984479E-02
 0.2192983566299E-03 -0.1360244933060E-02  0.0000000000000E+00  0.2167959623641E-02
 0.2489990138743E-03 -0.1473774664046E-02  0.0000000000000E+00  0.2197324952748E-02
 0.2817488272103E-03 -0.1576626303259E-02  0.0000000000000E+00  0.2189489999882E-02
 0.3188256677645E-03 -0.1664977598757E-02  0.0000000000000E+00  0.2134165210002E-02
 0.3620565532263E-03 -0.1734352539236E-02  0.0000000000000E+00  0.2018780012243E-02
 0.4145301582540E-03 -0.1779719534249E-02  0.0000000000000E+00  0.1827079679345E-02
 0.4826119645337E-03 -0.1796228514507E-02  0.0000000000000E+00  0.1536400023530E-02
 0.5808377048367E-03 -0.1782150110770E-02  0.0000000000000E+00  0.1114270902891E-02
 0.7418965501951E-03 -0.1746617586455E-02  0.0000000000000E+00  0.5202991113946E-03
 0.1030246579602E-02 -0.1722829735698E-02  0.0000000000000E+00 -0.2690118900904E-03
 0.1540393975879E-02 -0.1773206014104E-02  0.0000000000000E+00 -0.1187140819329E-02
 0.2335633470935E-02 -0.1948908735432E-02  0.0000000000000E+00 -0.1982150412834E-02
 0.3319916990029E-02 -0.2193643560995E-02  0.0000000000000E+00 -0.2265573421322E-02
-0.4330254002271E-04  0.5046462983928E-03  0.0000000000000E+00 -0.3090865624441E-03
-0.1226840289489E-03  0.5498627369218E-03  0.0000000000000E+00 -0.1069343743776E-03
-0.1794442900314E-03  0.5747661478786E-03  0.0000000000000E+00  0.2725508550646E-04
-0.2093224236360E-03  0.5768826769272E-03  0.0000000000000E+00  0.1283021494764E-03
-0.2182554772813E-03  0.5612582720542E-03  0.0000000000000E+00  0.2188626551575E-03
-0.2142765934770E-03  0.5338901141072E-03  0.0000000000000E+00  0.3075230182705E-03
-0.2033835675793E-03  0.4987410222421E-03  0.0000000000000E+00  0.3952750335826E-03
-0.1890908211182E-03  0.4577831251730E-03  0.0000000000000E+00  0.4809677264335E-03
-0.1732357464015E-03  0.4118572900202E-03  0.0000000000000E+00  0.5636558766466E-03
-0.1567357716597E-03  0.3613041536934E-03  0.0000000000000E+00  0.6431086539913E-03
-0.1400361620133E-03  0.3062668080073E-03  0.0000000000000E+00  0.7197009388925E-03
-0.1233370650537E-03  0.2468081085787E-03  0.0000000000000E+00  0.7942064594984E-03
-0.1067040385990E-03  0.1829488557742E-03  0.0000000000000E+00  0.8676248469287E-03
-0.9012197287561E-04  0.1146770170485E-03  0.0000000000000E+00  0.9410553559196E-03
-0.7352227804873E-04  0.4194927955802E-04  0.0000000000000E+00  0.1015606293498E-02
-0.5679806726101E-04 -0.3530650785820E-04  0.0000000000000E+00  0.1092328284416E-02
-0.3981482784826E-04 -0.1171846882489E-03  0.0000000000000E+00  0.1172162515352E-02
-0.2242148294494E-04 -0.2037863285308E-03  0.0000000000000E+00  0.1255895126319E-02
-0.4463603601040E-05 -0.2951980793805E-03  0.0000000000000E+00  0.1344116585754E-02
 0.1419731819108E-04 -0.3914577380004E-03  0.0000000000000E+00  0.1437175970080E-02
 0.3365805048122E-04 -0.4925030541442E-03  0.0000000000000E+00  0.1535116290323E-02
 0.5394614890175E-04 -0.5981086267297E-03  0.0000000000000E+00  0.1637578209047E-02
 0.7500522308238E-04 -0.7078132015117E-03  0.0000000000000E+00  0.1743646019184E-02
 0.9671723206595E-04 -0.8208368172807E-03  0.0000000000000E+00  0.1851613952119E-02
 0.1189797385092E-03 -0.9359612386395E-03  0.0000000000000E+00  0.1958618358060E-02
 0.1418381307548E-03 -0.1051597010605E-02  0.0000000000000E+00  0.2060441514137E-02
 0.1655990756090E-03 -0.1166002282776E-02  0.0000000000000E+00  0.2151691400950E-02
 0.1908581361627E-03 -0.1277339765437E-02  0.0000000000000E+00  0.2226013585878E-02
 0.2184712479726E-03 -0.1383585246714E-02  0.0000000000000E+00  0.2276158733047E-02
 0.2495363609804E-03 -0.1482394347407E-02  0.0000000000000E+00  0.2293876151098E-02
 0.2854407680563E-03 -0.1571004157323E-02  0.0000000000000E+00  0.2269664451856E-02
 0.3280184456328E-03 -0.1646203557016E-02  0.0000000000000E+00  0.2192373050500E-02
 0.3799227239767E-03 -0.1704423955108E-02  0.0000000000000E+00  0.2048521469660E-02
 0.4455653956257E-03 -0.1742117735951E-02  0.0000000000000E+00  0.1821141683284E-02
 0.5334031935382E-03 -0.1756978938810E-02  0.0000000000000E+00  0.1487986949707E-02
 0.6606679871273E-03 -0.1751314743214E-02  0.0000000000000E+00  0.1020748975588E-02
 0.8611485393276E-03 -0.1738875226423E-02  0.0000000000000E+00  0.3918547060464E-03
 0.1192018017545E-02 -0.1752990148900E-02  0.0000000000000E+00 -0.3980308582163E-03
 0.1723128336572E-02 -0.1843009476585E-02  0.0000000000000E+00 -0.1262349414050E-02
 0.2483113578809E-02 -0.2036370168822E-02  0.0000000000000E+00 -0.1977228229573E-02
 0.3374621658315E-02 -0.2273891036476E-02  0.0000000000000E+00 -0.2250093323139E-02
-0.3540409212706E-04  0.3294456417437E-03  0.0000000000000E+00 -0.3373620391614E-03
-0.1013804167407E-03  0.3667210205184E-03  0.0000000000000E+00 -0.1244101767565E-03
-0.1501099379654E-03  0.3876338088328E-03  0.0000000000000E+00  0.2578545551477E-04
-0.1767231719150E-03  0.3890307664157E-03  0.0000000000000E+00  0.1412401557838E-03
-0.1848728217111E-03  0.3741567746479E-03  0.0000000000000E+00  0.2421937484952E-03
-0.1808394935874E-03  0.3478314403031E-03  0.0000000000000E+00  0.3380294755104E-03
-0.1699037564141E-03  0.3137169395242E-03  0.0000000000000E+00  0.4312217521368E-03
-0.1554814188105E-03  0.2739060398435E-03  0.0000000000000E+00  0.5216219799549E-03
-0.1395138052497E-03  0.2294250105283E-03  0.0000000000000E+00  0.6087532959254E-03
-0.1230363679724E-03  0.1807457618757E-03  0.0000000000000E+00  0.6925600532076E-03
-0.1065788513266E-03  0.1280851580504E-03  0.0000000000000E+00  0.7734754455932E-03
-0.9039239508585E-04  0.7154366055148E-04  0.0000000000000E+00  0.8522959762566E-03
-0.7456896335173E-04  0.1116148906632E-04  0.0000000000000E+00  0.9300384391060E-03
-0.5910315387388E-04 -0.5306064521986E-04  0.0000000000000E+00  0.1007821497463E-02
-0.4392484829097E-04 -0.1211532868848E-03  0.0000000000000E+00  0.1086774014648E-02
-0.2891781571206E-04 -0.1931721000559E-03  0.0000000000000E+00  0.1167963712036E-02
-0.1393236809658E-04 -0.2691892304758E-03  0.0000000000000E+00  0.1252339260169E-02
 0.1202708117112E-05 -0.3492769929044E-03  0.0000000000000E+00  0.1340677125869E-02
 0.1666701578229E-04 -0.4334864022451E-03  0.0000000000000E+00  0.1433531721988E-02
 0.3263097766412E-04 -0.5218136537680E-03  0.0000000000000E+00  0.1531177661864E-02
 0.4923459263922E-04 -0.6141524915557E-03  0.0000000000000E+00  0.1633530254116E-02
 0.6656855380385E-04 -0.7102389153119E-03  0.0000000000000E+00  0.1740035169113E-02
 0.8467116396599E-04 -0.8095917824596E-03  0.0000000000000E+00  0.1849508465226E-02
 0.1035597943496E-03 -0.9114465173566E-03  0.0000000000000E+00  0.1959915421630E-02
 0.1233075555313E-03 -0.1014650837294E-02  0.0000000000000E+00  0.2068043508505E-02
 0.1441627858637E-03 -0.1117732228754E-02  0.0000000000000E+00  0.2169329428062E-02
 0.1666502940191E-03 -0.1219108466693E-02  0.0000000000000E+00  0.2258009495545E-02
 0.1916021915389E-03 -0.1317149418358E-02  0.0000000000000E+00  0.2327293143437E-02
 0.2201473128391E-03 -0.1410104243027E-02  0.0000000000000E+00  0.2369414147625E-02
 0.2537177114713E-03 -0.1495994058638E-02  0.0000000000000E+00  0.2375534500513E-02
 0.2941277663575E-03 -0.1572548289540E-02  0.0000000000000E+00  0.2335519992689E-02
 0.3437863940566E-03 -0.1637237695329E-02  0.0000000000000E+00  0.2237583538190E-02
 0.4061696245519E-03 -0.1687489034918E-02  0.0000000000000E+00  0.2067731410594E-02
 0.4869037241203E-03 -0.1721293310588E-02  0.0000000000000E+00  0.1809000065972E-02
 0.5960993225696E-03 -0.1738722554894E-02  0.0000000000000E+00  0.1440751763114E-02
 0.7524767016681E-03 -0.1745245279041E-02  0.0000000000000E+00  0.9402085170802E-03
 0.9886967399522E-03 -0.1757024998048E-02  0.0000000000000E+00  0.2921722085970E-03
 0.1353025766932E-02 -0.1804753557506E-02  0.0000000000000E+00 -0.4847991017372E-03
 0.1894551466237E-02 -0.1925424870260E-02  0.0000000000000E+00 -0.1296163044791E-02
 0.2618948945601E-02 -0.2129998035183E-02  0.0000000000000E+00 -0.1948741213932E-02
 0.3433566275338E-02 -0.2360897138012E-02  0.0000000000000E+00 -0.2221338131474E-02
-0.2850800084046E-04  0.1557125133727E-03  0.0000000000000E+00 -0.3601385119863E-03
-0.8248739521078E-04  0.1858381402544E-03  0.0000000000000E+00 -0.1385155251736E-03
-0.1234255213211E-03  0.2027419903310E-03  0.0000000000000E+00  0.2517959665935E-04
-0.1462696532988E-03  0.2029822154463E-03  0.0000000000000E+00  0.1535650736411E-03
-0.1530491666293E-03  0.1885031754476E-03  0.0000000000000E+00  0.2644593280725E-03
-0.1485918107200E-03  0.1631043568521E-03  0.0000000000000E+00  0.3674241294885E-03
-0.1374504970959E-03  0.1300651846726E-03  0.0000000000000E+00  0.4659834533284E-03
-0.1228474770261E-03  0.9149016122250E-04  0.0000000000000E+00  0.5608672110734E-03
-0.1067594542195E-03  0.4853471738133E-04  0.0000000000000E+00  0.6520917131725E-03
-0.9030890605211E-04  0.1787718645831E-05  0.0000000000000E+00  0.7398267388769E-03
-0.7410015217768E-04 -0.4845682012500E-04  0.0000000000000E+00  0.8245996044069E-03
-0.5843388676297E-04 -0.1020530953371E-03  0.0000000000000E+00  0.9072486135096E-03
-0.4342952708639E-04 -0.1589344314996E-03  0.0000000000000E+00  0.9888151349247E-03
-0.2909244131322E-04 -0.2190825890994E-03  0.0000000000000E+00  0.1070437603915E-02
-0.1535110058465E-04 -0.2825130926113E-03  0.0000000000000E+00  0.1153261799294E-02
-0.2078731213231E-05 -0.3492653199999E-03  0.0000000000000E+00  0.1238366718506E-02
 0.1089226433007E-04 -0.4193918225985E-03  0.0000000000000E+00  0.1326701545585E-02
 0.2375778953381E-04 -0.4929413342745E-03  0.0000000000000E+00  0.1419025585217E-02
 0.3672945901315E-04 -0.5699374857032E-03  0.0000000000000E+00  0.1515849788729E-02
 0.5001936526355E-04 -0.6503471205065E-03  0.0000000000000E+00  0.1617368205863E-02
 0.6382386808854E-04 -0.7340373248094E-03  0.0000000000000E+00  0.1723366300082E-02
 0.7831283616819E-04 -0.8207284797293E-03  0.0000000000000E+00  0.1833100792021E-02
 0.9363627473707E-04 -0.9099472347329E-03  0.0000000000000E+00  0.1945137905726E-02
 0.1099624037830E-03 -0.1000974367777E-02  0.0000000000000E+00  0.2057145589070E-02
 0.1275526607685E-03 -0.1092753095777E-02  0.0000000000000E+00  0.2165603044845E-02
 0.1468702047669E-03 -0.1183956196047E-02  0.0000000000000E+00  0.2265647261742E-02
 0.1686713721366E-03 -0.1273189239719E-02  0.0000000000000E+00  0.2351196832167E-02
 0.1940396292049E-03 -0.1359057797549E-02  0.0000000000000E+00  0.2415093264614E-02
 0.2243906646366E-03 -0.1440113552431E-02  0.0000000000000E+00  0.2449141331891E-02
 0.2615016637809E-03 -0.1514774488816E-02  0.0000000000000E+00  0.2444029588746E-02
 0.3076203233258E-03 -0.1581299232626E-02  0.0000000000000E+00  0.2389147538407E-02
 0.3657230495152E-03 -0.1637882387949E-02  0.0000000000000E+00  0.2272311338629E-02
 0.4400537604705E-03 -0.1682973731567E-02  0.0000000000000E+00  0.2079407870667E-02
 0.5372591657298E-03 -0.1716042942194E-02  0.0000000000000E+00  0.1794110711304E-02
 0.6685761027135E-03 -0.1739198085534E-02  0.0000000000000E+00  0.1398237834650E-02
 0.8531072089437E-03 -0.1760101909632E-02  0.0000000000000E+00  0.8750365636595E-03
 0.1120880131575E-02 -0.1795592983954E-02  0.0000000000000E+00  0.2201024740087E-03
 0.1510987304615E-02 -0.1872310023119E-02  0.0000000000000E+00 -0.5358796286529E-03
 0.2055795022053E-02 -0.2016541735673E-02  0.0000000000000E+00 -0.1298160372334E-02
 0.2746166893131E-02 -0.2228123121758E-02  0.0000000000000E+00 -0.1902922948830E-02
 0.3496754736204E-02 -0.2453210363341E-02  0.0000000000000E+00 -0.2181897443346E-02
-0.2243110601698E-04 -0.1668142866715E-04  0.0000000000000E+00 -0.3780879786106E-03
-0.6561467830128E-04  0.6986041492280E-05  0.0000000000000E+00 -0.1494470236758E-03
-0.9907125888599E-04  0.1995255664631E-04  0.0000000000000E+00  0.2566193402753E-04
-0.1178198104847E-03  0.1872668494594E-04  0.0000000000000E+00  0.1655586536395E-03
-0.1227521145741E-03  0.4327461480405E-05  0.0000000000000E+00  0.2857841729634E-03
-0.1175189438850E-03 -0.2029785710436E-04  0.0000000000000E+00  0.3956842508817E-03
-0.1059844725603E-03 -0.5227646800013E-04  0.0000000000000E+00  0.4994749612336E-03
-0.9112131339041E-04 -0.8956821462889E-04  0.0000000000000E+00  0.5986158796943E-03
-0.7488561904092E-04 -0.1309406834516E-03  0.0000000000000E+00  0.6936030297070E-03
-0.5845528582799E-04 -0.1757086044551E-03  0.0000000000000E+00  0.7848610608178E-03
-0.4249590782075E-04 -0.2235036338700E-03  0.0000000000000E+00  0.8730403645310E-03
-0.2735350875216E-04 -0.2741309774374E-03  0.0000000000000E+00  0.9590393795860E-03
-0.1317419756329E-04 -0.3274928744656E-03  0.0000000000000E+00  0.1043932904049E-02
 0.2590057668339E-07 -0.3835501182123E-03  0.0000000000000E+00  0.1128881515783E-02
 0.1232021516168E-04 -0.4423016941654E-03  0.0000000000000E+00  0.1215046303081E-02
 0.2384759395148E-04 -0.5037713014756E-03  0.0000000000000E+00  0.1303513689375E-02
 0.3479645200576E-04 -0.5679947484463E-03  0.0000000000000E+00  0.1395228418916E-02
 0.4539199727058E-04 -0.6350025305891E-03  0.0000000000000E+00  0.1490927438794E-02
 0.5588459478001E-04 -0.7047992181600E-03  0.0000000000000E+00  0.1591073725174E-02
 0.6653731098982E-04 -0.7773343329679E-03  0.0000000000000E+00  0.1695778462956E-02
 0.7761487245195E-04 -0.8524647254399E-03  0.0000000000000E+00  0.1804699810475E-02
 0.8938032432376E-04 -0.9299160271581E-03  0.0000000000000E+00  0.1916916410860E-02
 0.1021096226437E-03 -0.1009246896347E-02  0.0000000000000E+00  0.2030766744010E-02
 0.1161343931917E-03 -0.1089809005446E-02  0.0000000000000E+00  0.2143654795508E-02
 0.1319146115892E-03 -0.1170665926819E-02  0.0000000000000E+00  0.2251792366489E-02
 0.1501376055500E-03 -0.1250659540465E-02  0.0000000000000E+00  0.2350062295158E-02
 0.1718015599392E-03 -0.1328606959487E-02  0.0000000000000E+00  0.2432118866958E-02
 0.1982522250222E-03 -0.1403373428558E-02  0.0000000000000E+00  0.2490503148689E-02
 0.2312011735540E-03 -0.1473836897342E-02  0.0000000000000E+00  0.2516678617010E-02
 0.2727744667142E-03 -0.1538835464735E-02  0.0000000000000E+00  0.2500976060776E-02
 0.3256461528254E-03 -0.1597178674313E-02  0.0000000000000E+00  0.2432468615312E-02
 0.3933277903171E-03 -0.1647797073601E-02  0.0000000000000E+00  0.2298812117548E-02
 0.4807344784626E-03 -0.1690136034893E-02  0.0000000000000E+00  0.2086131238684E-02
 0.5952860485168E-03 -0.1724996221980E-02  0.0000000000000E+00  0.1779232893611E-02
 0.7488083209372E-03 -0.1756090087548E-02  0.0000000000000E+00  0.1362875260476E-02
 0.9598841372817E-03 -0.1792372633169E-02  0.0000000000000E+00  0.8261739216688E-03
 0.1255031096330E-02 -0.1850124002328E-02  0.0000000000000E+00  0.1734586260544E-03
 0.1664691910208E-02 -0.1951423295782E-02  0.0000000000000E+00 -0.5572104558364E-03
 0.2208170581339E-02 -0.2113754226390E-02  0.0000000000000E+00 -0.1275540596631E-02
 0.2867063463414E-02 -0.2329640484606E-02  0.0000000000000E+00 -0.1844058541425E-02
 0.3564111345701E-02 -0.2549775762649E-02  0.0000000000000E+00 -0.2133674435774E-02
-0.1703137351840E-04 -0.1878421153122E-03  0.0000000000000E+00 -0.3917684243215E-03
-0.5044666938106E-04 -0.1700310804871E-03  0.0000000000000E+00 -0.1574132756287E-03
-0.7676132232259E-04 -0.1608801312697E-03  0.0000000000000E+00  0.2736626568695E-04
-0.9121583704959E-04 -0.1637856062270E-03  0.0000000000000E+00  0.1774482073104E-03
-0.9392020021617E-04 -0.1783748724470E-03  0.0000000000000E+00  0.3063057526034E-03
-0.8758888474590E-04 -0.2023944857650E-03  0.0000000000000E+00  0.4228311145076E-03
-0.7546270261558E-04 -0.2333664280343E-03  0.0000000000000E+00  0.5316517520646E-03
-0.6023861151989E-04 -0.2693630153751E-03  0.0000000000000E+00  0.6348066567188E-03
-0.4381022961457E-04 -0.3091187090255E-03  0.0000000000000E+00  0.7332335014672E-03
-0.2738169251571E-04 -0.3518745285082E-03  0.0000000000000E+00  0.8276230813038E-03
-0.1166493485856E-04 -0.3971949203742E-03  0.0000000000000E+00  0.9187697265938E-03
 0.2954992987636E-05 -0.4448359017723E-03  0.0000000000000E+00  0.1007648179550E-02
 0.1630762617401E-04 -0.4946662579427E-03  0.0000000000000E+00  0.1095375937743E-02
 0.2836711943423E-04 -0.5466237403302E-03  0.0000000000000E+00  0.1183139466768E-02
 0.3920990293012E-04 -0.6006900606482E-03  0.0000000000000E+00  0.1272115233018E-02
 0.4898876015377E-04 -0.6568742804791E-03  0.0000000000000E+00  0.1363395016902E-02
 0.5791596973027E-04 -0.7151985408079E-03  0.0000000000000E+00  0.1457916094267E-02
 0.6625062859189E-04 -0.7756805125528E-03  0.0000000000000E+00  0.1556390089961E-02
 0.7428833260736E-04 -0.8383139022106E-03  0.0000000000000E+00  0.1659230249080E-02
 0.8235177372695E-04 -0.9030424272930E-03  0.0000000000000E+00  0.1766466021570E-02
 0.9078477911006E-04 -0.9697279066416E-03  0.0000000000000E+00  0.1877634729452E-02
 0.9995557930650E-04 -0.1038119868036E-02  0.0000000000000E+00  0.1991651552206E-02
 0.1102778468994E-03 -0.1107829946763E-02  0.0000000000000E+00  0.2106651940188E-02
 0.1222566590351E-03 -0.1178302322601E-02  0.0000000000000E+00  0.2219810365603E-02
 0.1365584585625E-03 -0.1248741662708E-02  0.0000000000000E+00  0.2327112101994E-02
 0.1541017493668E-03 -0.1318178659339E-02  0.0000000000000E+00  0.2423231053696E-02
 0.1761339492174E-03 -0.1385661441137E-02  0.0000000000000E+00  0.2501610020984E-02
 0.2042701682679E-03 -0.1450334099912E-02  0.0000000000000E+00  0.2554556027376E-02
 0.2405217721905E-03 -0.1511418538845E-02  0.0000000000000E+00  0.2573277491664E-02
 0.2873598526278E-03 -0.1568187108533E-02  0.0000000000000E+00  0.2547861260927E-02
 0.3478651465140E-03 -0.1620006205982E-02  0.0000000000000E+00  0.2467219034870E-02
 0.4260309630717E-03 -0.1666526546041E-02  0.0000000000000E+00  0.2319063673457E-02
 0.5273176485342E-03 -0.1708116835757E-02  0.0000000000000E+00  0.2090053962385E-02
 0.6596495874801E-03 -0.1746705077372E-02  0.0000000000000E+00  0.1766468859701E-02
 0.8349511946091E-03 -0.1787156979202E-02  0.0000000000000E+00  0.1336171934947E-02
 0.1070617489576E-02 -0.1838962527546E-02  0.0000000000000E+00  0.7935704140086E-03
 0.1389262385865E-02 -0.1917052483706E-02  0.0000000000000E+00  0.1496104619357E-03
 0.1813600792439E-02 -0.2038992492288E-02  0.0000000000000E+00 -0.5539166624592E-03
 0.2352965291031E-02 -0.2215277944952E-02  0.0000000000000E+00 -0.1233705271276E-02
 0.2983387087885E-02 -0.2433781425930E-02  0.0000000000000E+00 -0.1775145070096E-02
 0.3635493721316E-02 -0.2649797027596E-02  0.0000000000000E+00 -0.2078120024011E-02
-0.1219649637301E-04 -0.3578608673337E-03  0.0000000000000E+00 -0.4016465319199E-03
-0.3672495391411E-04 -0.3453839458973E-03  0.0000000000000E+00 -0.1626193850392E-03
-0.5624214812768E-04 -0.3399017039681E-03  0.0000000000000E+00  0.3036519918402E-04
-0.6629486959231E-04 -0.3446297565449E-03  0.0000000000000E+00  0.1894135696217E-03
-0.6647163833560E-04 -0.3596353924634E-03  0.0000000000000E+00  0.3261604444861E-03
-0.5875404122099E-04 -0.3832184262932E-03  0.0000000000000E+00  0.4489141988994E-03
-0.4583641685824E-04 -0.4132636772535E-03  0.0000000000000E+00  0.5625015667286E-03
-0.3013579791546E-04 -0.4479822262308E-03  0.0000000000000E+00  0.6694024705197E-03
-0.1345443764240E-04 -0.4861095873641E-03  0.0000000000000E+00  0.7709447272927E-03
 0.3002302748363E-05 -0.5268351065437E-03  0.0000000000000E+00  0.8680823267728E-03
 0.1849125760750E-04 -0.5696656814906E-03  0.0000000000000E+00  0.9617663787703E-03
 0.3259598728823E-04 -0.6143106303820E-03  0.0000000000000E+00  0.1053061053949E-02
 0.4512527140669E-04 -0.6606049102990E-03  0.0000000000000E+00  0.1143135433873E-02
 0.5604549234818E-04 -0.7084624559203E-03  0.0000000000000E+00  0.1233206430792E-02
 0.6543775192182E-04 -0.7578477524312E-03  0.0000000000000E+00  0.1324467276459E-02
 0.7347093425789E-04 -0.8087566941596E-03  0.0000000000000E+00  0.1418014603716E-02
 0.8038431723308E-04 -0.8612010130842E-03  0.0000000000000E+00  0.1514776975830E-02
 0.8647535294072E-04 -0.9151909392054E-03  0.0000000000000E+00  0.1615439830094E-02
 0.9209095946103E-04 -0.9707172126863E-03  0.0000000000000E+00  0.1720367465979E-02
 0.9762131266172E-04 -0.1027728532133E-02  0.0000000000000E+00  0.1829511738849E-02
 0.1034987327962E-03 -0.1086105488309E-02  0.0000000000000E+00  0.1942298832636E-02
 0.1102067421111E-03 -0.1145637909941E-02  0.0000000000000E+00  0.2057497933573E-02
 0.1183062603270E-03 -0.1206008350530E-02  0.0000000000000E+00  0.2173068001372E-02
 0.1284836381746E-03 -0.1266771582636E-02  0.0000000000000E+00  0.2285989025361E-02
 0.1416176489726E-03 -0.1327290420231E-02  0.0000000000000E+00  0.2392060390996E-02
 0.1588627935753E-03 -0.1386800303458E-02  0.0000000000000E+00  0.2485791749448E-02
 0.1817203219943E-03 -0.1444595733982E-02  0.0000000000000E+00  0.2560466335905E-02
 0.2120780668564E-03 -0.1500113965838E-02  0.0000000000000E+00  0.2608221790778E-02
 0.2522460902190E-03 -0.1552932221753E-02  0.0000000000000E+00  0.2620094658381E-02
 0.3050294494546E-03 -0.1602761926067E-02  0.0000000000000E+00  0.2586036142533E-02
 0.3738848856217E-03 -0.1649517301327E-02  0.0000000000000E+00  0.2494939139780E-02
 0.4632183864321E-03 -0.1693529844468E-02  0.0000000000000E+00  0.2334759952004E-02
 0.5788939149941E-03 -0.1735987350459E-02  0.0000000000000E+00  0.2092913756929E-02
 0.7290771630871E-03 -0.1779715479201E-02  0.0000000000000E+00  0.1757336199767E-02
 0.9253792230817E-03 -0.1830310563650E-02  0.0000000000000E+00  0.1318912567585E-02
 0.1183560580266E-02 -0.1897210359429E-02  0.0000000000000E+00  0.7765408093447E-03
 0.1522277161331E-02 -0.1993551907285E-02  0.0000000000000E+00  0.1458391715541E-03
 0.1957581543587E-02 -0.2132731005164E-02  0.0000000000000E+00 -0.5303146824647E-03
 0.2491346204312E-02 -0.2319845957909E-02  0.0000000000000E+00 -0.1176718499201E-02
 0.3096476584901E-02 -0.2539974489725E-02  0.0000000000000E+00 -0.1698290220689E-02
 0.3710708400541E-02 -0.2752651511712E-02  0.0000000000000E+00 -0.2016377436027E-02
-0.7836115691556E-05 -0.5268192014274E-03  0.0000000000000E+00 -0.4081149308367E-03
-0.2423538450976E-04 -0.5192236529936E-03  0.0000000000000E+00 -0.1652588850851E-03
-0.3728934959205E-04 -0.5172540201528E-03  0.0000000000000E+00  0.3469069345897E-04
-0.4289545347499E-04 -0.5238966539167E-03  0.0000000000000E+00  0.2015953202131E-03
-0.4031119239590E-04 -0.5395062367438E-03  0.0000000000000E+00  0.3454764717660E-03
-0.3095379901064E-04 -0.5628154907034E-03  0.0000000000000E+00  0.4739999038900E-03
-0.1705028881269E-04 -0.5920302922983E-03  0.0000000000000E+00  0.5920368350458E-03
-0.7482834083021E-06 -0.6255107458883E-03  0.0000000000000E+00  0.7023876474106E-03
 0.1625883039414E-04 -0.6620182378818E-03  0.0000000000000E+00  0.8067135827329E-03
 0.3278457997687E-04 -0.7007101538946E-03  0.0000000000000E+00  0.9062187806208E-03
 0.4806879310152E-04 -0.7410466155699E-03  0.0000000000000E+00  0.1002016847891E-02
 0.6167192928337E-04 -0.7826946468828E-03  0.0000000000000E+00  0.1095271119857E-02
 0.7338653648900E-04 -0.8254566608241E-03  0.0000000000000E+00  0.1187210201746E-02
 0.8317393047338E-04 -0.8692231732423E-03  0.0000000000000E+00  0.1279086358081E-02
 0.9112205634089E-04 -0.9139422263284E-03  0.0000000000000E+00  0.1372111957670E-02
 0.9741831994663E-04 -0.9595984145571E-03  0.0000000000000E+00  0.1467389314293E-02
 0.1023321672808E-03 -0.1006196447307E-02  0.0000000000000E+00  0.1565838641687E-02
 0.1062036719273E-03 -0.1053744370224E-02  0.0000000000000E+00  0.1668120239655E-02
 0.1094366736002E-03 -0.1102237413044E-02  0.0000000000000E+00  0.1774552519324E-02
 0.1124958064485E-03 -0.1151639150456E-02  0.0000000000000E+00  0.1885016455762E-02
 0.1159099182331E-03 -0.1201861245186E-02  0.0000000000000E+00  0.1998839393332E-02
 0.1202861362370E-03 -0.1252748028970E-02  0.0000000000000E+00  0.2114664131383E-02
 0.1263401393533E-03 -0.1304068099754E-02  0.0000000000000E+00  0.2230300885925E-02
 0.1349453836388E-03 -0.1355501709115E-02  0.0000000000000E+00  0.2342570381036E-02
 0.1471969495622E-03 -0.1406583521007E-02  0.0000000000000E+00  0.2447126270359E-02
 0.1644881199312E-03 -0.1456766159200E-02  0.0000000000000E+00  0.2538357821290E-02
 0.1885759810065E-03 -0.1505601924528E-02  0.0000000000000E+00  0.2609439277325E-02
 0.2216209966065E-03 -0.1552830787611E-02  0.0000000000000E+00  0.2652401006492E-02
 0.2662262251059E-03 -0.1598390434408E-02  0.0000000000000E+00  0.2658186153755E-02
 0.3255133266111E-03 -0.1642427351590E-02  0.0000000000000E+00  0.2616709750098E-02
 0.4032758117853E-03 -0.1685381518212E-02  0.0000000000000E+00  0.2516970527630E-02
 0.5042536665029E-03 -0.1728207823108E-02  0.0000000000000E+00  0.2347316405586E-02
 0.6345694945791E-03 -0.1772790090181E-02  0.0000000000000E+00  0.2096063912488E-02
 0.8023912907389E-03 -0.1822619949338E-02  0.0000000000000E+00  0.1752855486987E-02
 0.1018695431401E-02 -0.1883657974351E-02  0.0000000000000E+00  0.1311340374603E-02
 0.1297348407358E-02 -0.1964865037117E-02  0.0000000000000E+00  0.7740256609151E-03
 0.1653214114693E-02 -0.2077392416094E-02  0.0000000000000E+00  0.1595368995317E-03
 0.2096738749192E-02 -0.2230941412872E-02  0.0000000000000E+00 -0.4899990363796E-03
 0.2624318358608E-02 -0.2426516406057E-02  0.0000000000000E+00 -0.1107676294587E-02
 0.3207358498362E-02 -0.2647738060265E-02  0.0000000000000E+00 -0.1614953166333E-02
 0.3789523874455E-02 -0.2857828265263E-02  0.0000000000000E+00 -0.1949364487723E-02
-0.3876387768797E-05 -0.6947918459175E-03  0.0000000000000E+00 -0.4115054240406E-03
-0.1279845803247E-04 -0.6916858170777E-03  0.0000000000000E+00 -0.1655097943575E-03
-0.1970424000964E-04 -0.6930734441641E-03  0.0000000000000E+00  0.4034837837009E-04
-0.2086128065979E-04 -0.7016865782392E-03  0.0000000000000E+00  0.2141026760625E-03
-0.1533536352493E-04 -0.7180547858669E-03  0.0000000000000E+00  0.3643708875194E-03
-0.4117205116869E-05 -0.7412428819722E-03  0.0000000000000E+00  0.4981638175860E-03
 0.1095747137301E-04 -0.7697326663242E-03  0.0000000000000E+00  0.6202883205112E-03
 0.2799058763346E-04 -0.8020323737479E-03  0.0000000000000E+00  0.7337647548356E-03
 0.4540596572908E-04 -0.8369458772060E-03  0.0000000000000E+00  0.8405314478007E-03
 0.6205119291290E-04 -0.8736151873770E-03  0.0000000000000E+00  0.9420232622009E-03
 0.7716175413694E-04 -0.9114644820629E-03  0.0000000000000E+00  0.1039516218943E-02
 0.9028338090759E-04 -0.9501241115672E-03  0.0000000000000E+00  0.1134279229788E-02
 0.1011975022217E-03 -0.9893665246144E-03  0.0000000000000E+00  0.1227607088067E-02
 0.1098636570224E-03 -0.1029060221890E-02  0.0000000000000E+00  0.1320792298541E-02
 0.1163792143294E-03 -0.1069138243727E-02  0.0000000000000E+00  0.1415069422620E-02
 0.1209527176178E-03 -0.1109576096118E-02  0.0000000000000E+00  0.1511548381138E-02
 0.1238869222742E-03 -0.1150374917614E-02  0.0000000000000E+00  0.1611142805565E-02
 0.1255685173327E-03 -0.1191545609710E-02  0.0000000000000E+00  0.1714490603022E-02
 0.1264632939072E-03 -0.1233094792644E-02  0.0000000000000E+00  0.1821869326006E-02
 0.1271163818334E-03 -0.1275009813545E-02  0.0000000000000E+00  0.1933097927856E-02
 0.1281598502333E-03 -0.1317244156966E-02  0.0000000000000E+00  0.2047419255669E-02
 0.1303310681552E-03 -0.1359708727594E-02  0.0000000000000E+00  0.2163370873898E-02
 0.1345061565228E-03 -0.1402270677172E-02  0.0000000000000E+00  0.2278642722706E-02
 0.1417497137174E-03 -0.1444747699908E-02  0.0000000000000E+00  0.2389931338454E-02
 0.1533753792761E-03 -0.1486856947640E-02  0.0000000000000E+00  0.2492784065619E-02
 0.1710161294501E-03 -0.1528277415665E-02  0.0000000000000E+00  0.2581512528621E-02
 0.1966845307110E-03 -0.1568826926955E-02  0.0000000000000E+00  0.2649230704042E-02
 0.2328105042657E-03 -0.1608553209718E-02  0.0000000000000E+00  0.2687920404949E-02
 0.2822804410395E-03 -0.1647753748795E-02  0.0000000000000E+00  0.2688503624932E-02
 0.3485102507791E-03 -0.1686998269956E-02  0.0000000000000E+00  0.2640947217589E-02
 0.4355853292190E-03 -0.1727220033104E-02  0.0000000000000E+00  0.2534458632057E-02
 0.5484972512712E-03 -0.1769928003126E-02  0.0000000000000E+00  0.2357884256289E-02
 0.6934890460497E-03 -0.1817571866431E-02  0.0000000000000E+00  0.2100514278171E-02
 0.8785272146013E-03 -0.1874092819121E-02  0.0000000000000E+00  0.1753639816465E-02
 0.1113722141947E-02 -0.1945516367647E-02  0.0000000000000E+00  0.1313311720648E-02
 0.1410932057398E-02 -0.2040045028726E-02  0.0000000000000E+00  0.7847716427797E-03
 0.1781525657304E-02 -0.2166813836885E-02  0.0000000000000E+00  0.1883103014317E-03
 0.2231313690241E-02 -0.2332364794125E-02  0.0000000000000E+00 -0.4359425845396E-03
 0.2752716859974E-02 -0.2534568153890E-02  0.0000000000000E+00 -0.1029026507564E-02
 0.3316792523674E-02 -0.2756567002168E-02  0.0000000000000E+00 -0.1526134090522E-02
 0.3871704313231E-02 -0.2964831952757E-02  0.0000000000000E+00 -0.1877743810689E-02
-0.2561110881962E-06 -0.8618486412865E-03  0.0000000000000E+00 -0.4120992213667E-03
-0.2262062379111E-05 -0.8628937330851E-03  0.0000000000000E+00 -0.1635329619288E-03
-0.3310442178676E-05 -0.8674902141722E-03  0.0000000000000E+00  0.4732751075659E-04
-0.4319539920802E-07 -0.8781049078731E-03  0.0000000000000E+00  0.2270204382788E-03
 0.8563798903152E-05 -0.8953594260123E-03  0.0000000000000E+00  0.3829488983706E-03
 0.2183453698400E-04 -0.9185673619801E-03  0.0000000000000E+00  0.5214856134018E-03
 0.3825452898492E-04 -0.9464418608911E-03  0.0000000000000E+00  0.6473000340982E-03
 0.5615004915889E-04 -0.9776310717382E-03  0.0000000000000E+00  0.7635515123463E-03
 0.7406343749713E-04 -0.1010991227098E-02  0.0000000000000E+00  0.8724030057892E-03
 0.9088694877375E-04 -0.1045662205135E-02  0.0000000000000E+00  0.9754973280896E-03
 0.1058624762222E-03 -0.1081042431141E-02  0.0000000000000E+00  0.1074268475577E-02
 0.1185290526420E-03 -0.1116731836617E-02  0.0000000000000E+00  0.1170094361871E-02
 0.1286623886232E-03 -0.1152476429612E-02  0.0000000000000E+00  0.1264341220720E-02
 0.1362239424331E-03 -0.1188124917695E-02  0.0000000000000E+00  0.1358346403907E-02
 0.1413233931030E-03 -0.1223597337377E-02  0.0000000000000E+00  0.1453370144528E-02
 0.1441931623462E-03 -0.1258862593541E-02  0.0000000000000E+00  0.1550532763379E-02
 0.1451723669211E-03 -0.1293921704201E-02  0.0000000000000E+00  0.1650744262763E-02
 0.1446979701828E-03 -0.1328793171014E-02  0.0000000000000E+00  0.1754624353619E-02
 0.1433021186086E-03 -0.1363501263243E-02  0.0000000000000E+00  0.1862416420086E-02
 0.1416155135115E-03 -0.1398064929370E-02  0.0000000000000E+00  0.1973887987425E-02
 0.1403788374475E-03 -0.1432488667738E-02  0.0000000000000E+00  0.2088213303420E-02
 0.1404647769996E-03 -0.1466759982104E-02  0.0000000000000E+00  0.2203846907385E-02
 0.1429139155988E-03 -0.1500854653872E-02  0.0000000000000E+00  0.2318387258142E-02
 0.1489844073153E-03 -0.1534737101388E-02  0.0000000000000E+00  0.2428441362612E-02
 0.1602091335703E-03 -0.1568314788725E-02  0.0000000000000E+00  0.2529488702205E-02
 0.1784599819539E-03 -0.1601499271513E-02  0.0000000000000E+00  0.2615804547416E-02
 0.2060025628692E-03 -0.1634378191374E-02  0.0000000000000E+00  0.2680488989097E-02
 0.2455304642163E-03 -0.1667307940867E-02  0.0000000000000E+00  0.2715529836408E-02
 0.3002005914289E-03 -0.1700939996152E-02  0.0000000000000E+00  0.2711892714209E-02
 0.3736972996341E-03 -0.1736249076757E-02  0.0000000000000E+00  0.2659671005629E-02
 0.4703502769069E-03 -0.1774621816147E-02  0.0000000000000E+00  0.2548360126132E-02
 0.5953218058430E-03 -0.1818045812733E-02  0.0000000000000E+00  0.2367371144349E-02
 0.7548508356406E-03 -0.1869408811638E-02  0.0000000000000E+00  0.2106976646884E-02
 0.9565395657283E-03 -0.1932910782248E-02  0.0000000000000E+00  0.1759980016552E-02
 0.1209479460167E-02 -0.2014411732827E-02  0.0000000000000E+00  0.1324415624864E-02
 0.1523521495945E-02 -0.2121185923171E-02  0.0000000000000E+00  0.8074660284960E-03
 0.1906877274966E-02 -0.2260439382764E-02  0.0000000000000E+00  0.2299883547446E-03
 0.2361632176066E-02 -0.2436020427946E-02  0.0000000000000E+00 -0.3705135865059E-03
 0.2877240733877E-02 -0.2643584716104E-02  0.0000000000000E+00 -0.9428898755942E-03
 0.3425283457694E-02 -0.2865716472433E-02  0.0000000000000E+00 -0.1432645393694E-02
 0.3956904220528E-02 -0.3073002604824E-02  0.0000000000000E+00 -0.1801804097317E-02
 0.3076093484769E-05 -0.1028055655306E-02  0.0000000000000E+00 -0.4101347885601E-03
 0.7504082958919E-05 -0.1032960972377E-02  0.0000000000000E+00 -0.1594716571804E-03
 0.1204920587041E-04 -0.1040628288019E-02  0.0000000000000E+00  0.5560779036379E-04
 0.1969987456802E-04 -0.1053259290098E-02  0.0000000000000E+00  0.2404149093016E-03
 0.3149597734851E-04 -0.1071506251294E-02  0.0000000000000E+00  0.4013044432373E-03
 0.4698589284249E-04 -0.1094863420060E-02  0.0000000000000E+00  0.5440458440833E-03
 0.6491359495175E-04 -0.1122233433509E-02  0.0000000000000E+00  0.6731253057185E-03
 0.8380204419318E-04 -0.1152391688628E-02  0.0000000000000E+00  0.7917779808012E-03
 0.1023082726207E-03 -0.1184251383908E-02  0.0000000000000E+00  0.9023448365571E-03
 0.1193758451678E-03 -0.1216960316736E-02  0.0000000000000E+00  0.1006652838929E-02
 0.1342617963261E-03 -0.1249900301218E-02  0.0000000000000E+00  0.1106286539959E-02
 0.1465058544270E-03 -0.1282647290712E-02  0.0000000000000E+00  0.1202733784719E-02
 0.1558834492877E-03 -0.1314925003238E-02  0.0000000000000E+00  0.1297436098370E-02
 0.1623618928233E-03 -0.1346565203290E-02  0.0000000000000E+00  0.1391779832293E-02
 0.1660662589556E-03 -0.1377477365956E-02  0.0000000000000E+00  0.1487054575681E-02
 0.1672556393226E-03 -0.1407626481556E-02  0.0000000000000E+00  0.1584394489266E-02
 0.1663084147419E-03 -0.1437016828922E-02  0.0000000000000E+00  0.1684709860439E-02
 0.1637150937685E-03 -0.1465678889196E-02  0.0000000000000E+00  0.1788607598358E-02
 0.1600779179999E-03 -0.1493660131886E-02  0.0000000000000E+00  0.1896304958022E-02
 0.1561172700981E-03 -0.1521017829881E-02  0.0000000000000E+00  0.2007529983560E-02
 0.1526865875150E-03 -0.1547815148041E-02  0.0000000000000E+00  0.2121405350400E-02
 0.1507975004050E-03 -0.1574124268907E-02  0.0000000000000E+00  0.2236325433441E-02
 0.1516575613515E-03 -0.1600037416181E-02  0.0000000000000E+00  0.2349826005839E-02
 0.1567194245529E-03 -0.1625672546745E-02  0.0000000000000E+00  0.2458458543941E-02
 0.1677344824806E-03 -0.1651132682348E-02  0.0000000000000E+00  0.2557671910955E-02
 0.1868112563743E-03 -0.1676565383142E-02  0.0000000000000E+00  0.2641744560197E-02
 0.2164642015913E-03 -0.1702329302092E-02  0.0000000000000E+00  0.2703806296876E-02
 0.2596426977272E-03 -0.1729086752721E-02  0.0000000000000E+00  0.2735900684045E-02
 0.3197591048207E-03 -0.1757833091482E-02  0.0000000000000E+00  0.2729093435779E-02
 0.4007385639522E-03 -0.1789924953217E-02  0.0000000000000E+00  0.2673664933493E-02
 0.5071075340320E-03 -0.1827157991414E-02  0.0000000000000E+00  0.2559454065207E-02
 0.6441237022934E-03 -0.1871921928217E-02  0.0000000000000E+00  0.2376465357588E-02
 0.8179159907624E-03 -0.1927423953394E-02  0.0000000000000E+00  0.2115911217460E-02
 0.1035599294391E-02 -0.1997962886739E-02  0.0000000000000E+00  0.1771917370684E-02
 0.1305164623045E-02 -0.2089065640252E-02  0.0000000000000E+00  0.1344074551809E-02
 0.1634517847051E-02 -0.2206996504742E-02  0.0000000000000E+00  0.8407917899627E-03
 0.2029123043143E-02 -0.2357174298362E-02  0.0000000000000E+00  0.2827208027178E-03
 0.2487941877456E-02 -0.2541218342725E-02  0.0000000000000E+00 -0.2958712996353E-03
 0.2998771667275E-02 -0.2753048240653E-02  0.0000000000000E+00 -0.8502201699959E-03
 0.3532731960130E-02 -0.2975645520873E-02  0.0000000000000E+00 -0.1337507360564E-02
 0.4045551368919E-02 -0.3178259612236E-02  0.0000000000000E+00 -0.1719170170257E-02
 0.6162699172369E-05 -0.1193472040710E-02  0.0000000000000E+00 -0.4058048112978E-03
 0.1661124710125E-04 -0.1201972440481E-02  0.0000000000000E+00 -0.1534494990329E-03
 0.2651155543770E-04 -0.1212571726372E-02  0.0000000000000E+00  0.6516788961193E-04
 0.3849492475827E-04 -0.1227209759983E-02  0.0000000000000E+00  0.2543397004842E-03
 0.5356217367625E-04 -0.1246524452793E-02  0.0000000000000E+00  0.4195200262906E-03
 0.7141391678774E-04 -0.1270135554041E-02  0.0000000000000E+00  0.5659196622734E-03
 0.9099743408993E-04 -0.1297097275311E-02  0.0000000000000E+00  0.6978163789481E-03
 0.1110043035071E-03 -0.1326297332018E-02  0.0000000000000E+00  0.8184736316801E-03
 0.1301989341384E-03 -0.1356706663944E-02  0.0000000000000E+00  0.9303706021713E-03
 0.1475796249176E-03 -0.1387488311481E-02  0.0000000000000E+00  0.1035495289124E-02
 0.1624253972915E-03 -0.1418015498488E-02  0.0000000000000E+00  0.1135573605385E-02
 0.1742833319215E-03 -0.1447846631581E-02  0.0000000000000E+00  0.1232202296079E-02
 0.1829339261612E-03 -0.1476687779263E-02  0.0000000000000E+00  0.1326900721696E-02
 0.1883544299875E-03 -0.1504357191603E-02  0.0000000000000E+00  0.1421107819140E-02
 0.1906885409262E-03 -0.1530756681469E-02  0.0000000000000E+00  0.1516146239622E-02
 0.1902248186636E-03 -0.1555850251632E-02  0.0000000000000E+00  0.1613167870410E-02
 0.1873836081779E-03 -0.1579648799184E-02  0.0000000000000E+00  0.1713087954268E-02
 0.1827117705010E-03 -0.1602198834561E-02  0.0000000000000E+00  0.1816506967298E-02
 0.1768846185630E-03 -0.1623575894628E-02  0.0000000000000E+00  0.1923625173596E-02
 0.1707152411825E-03 -0.1643881211375E-02  0.0000000000000E+00  0.2034144152915E-02
 0.1651725816287E-03 -0.1663242750159E-02  0.0000000000000E+00  0.2147152879263E-02
 0.1614092177892E-03 -0.1681823524096E-02  0.0000000000000E+00  0.2261008829726E-02
 0.1608004290013E-03 -0.1699837740843E-02  0.0000000000000E+00  0.2373213714089E-02
 0.1649925211510E-03 -0.1717561172566E-02  0.0000000000000E+00  0.2480296679256E-02
 0.1759528412701E-03 -0.1735294893113E-02  0.0000000000000E+00  0.2577711826250E-02
 0.1960223158404E-03 -0.1753422902820E-02  0.0000000000000E+00  0.2659778251640E-02
 0.2279578714787E-03 -0.1772572649487E-02  0.0000000000000E+00  0.2719695782668E-02
 0.2749544655484E-03 -0.1793705723456E-02  0.0000000000000E+00  0.2749607994059E-02
 0.3406626899234E-03 -0.1818146934727E-02  0.0000000000000E+00  0.2740727942340E-02
 0.4292196722683E-03 -0.1847607484003E-02  0.0000000000000E+00  0.2683568427206E-02
 0.5453028314137E-03 -0.1884244855298E-02  0.0000000000000E+00  0.2568343705497E-02
 0.6941983147941E-03 -0.1930776302043E-02  0.0000000000000E+00  0.2385646468277E-02
 0.8818395063168E-03 -0.1990622641175E-02  0.0000000000000E+00  0.2127544646999E-02
 0.1114771606994E-02 -0.2068053655595E-02  0.0000000000000E+00  0.1789263763907E-02
 0.1399855850069E-02 -0.2168150877992E-02  0.0000000000000E+00  0.1371531108428E-02
 0.1743189022405E-02 -0.2296153812330E-02  0.0000000000000E+00  0.8833866153032E-03
 0.2147812491768E-02 -0.2455868940909E-02  0.0000000000000E+00  0.3446462396731E-03
 0.2610393848115E-02 -0.2647103915297E-02  0.0000000000000E+00 -0.2136965108659E-03
 0.3116843365715E-02 -0.2862440628349E-02  0.0000000000000E+00 -0.7534340074844E-03
 0.3641661994944E-02 -0.3085500315099E-02  0.0000000000000E+00 -0.1237869217002E-02
 0.4131533568385E-02 -0.3284039548822E-02  0.0000000000000E+00 -0.1650327379546E-02
 0.9044526645245E-05 -0.1358159792695E-02  0.0000000000000E+00 -0.3993026720091E-03
 0.2515904614477E-04 -0.1370026781991E-02  0.0000000000000E+00 -0.1455887260196E-03
 0.4020478009580E-04 -0.1383433541516E-02  0.0000000000000E+00  0.7596898119460E-04
 0.5646849551575E-04 -0.1400064194836E-02  0.0000000000000E+00  0.2688243050513E-03
 0.7487236097620E-04 -0.1420509334831E-02  0.0000000000000E+00  0.4376582540626E-03
 0.9521127235002E-04 -0.1444469606406E-02  0.0000000000000E+00  0.5871723685991E-03
 0.1165879491130E-03 -0.1471117114693E-02  0.0000000000000E+00  0.7214257746532E-03
 0.1378353112186E-03 -0.1499436053486E-02  0.0000000000000E+00  0.8436758503924E-03
 0.1578155816319E-03 -0.1528453093416E-02  0.0000000000000E+00  0.9565071035340E-03
 0.1755826404245E-03 -0.1557351454663E-02  0.0000000000000E+00  0.1062047223123E-02
 0.1904425788873E-03 -0.1585502520295E-02  0.0000000000000E+00  0.1162153518815E-02
 0.2019556148652E-03 -0.1612453231257E-02  0.0000000000000E+00  0.1258529213892E-02
 0.2099123694254E-03 -0.1637896785573E-02  0.0000000000000E+00  0.1352772938284E-02
 0.2143040800757E-03 -0.1661641625012E-02  0.0000000000000E+00  0.1446379207998E-02
 0.2152962973661E-03 -0.1683585006964E-02  0.0000000000000E+00  0.1540707323199E-02
 0.2132097546507E-03 -0.1703692902775E-02  0.0000000000000E+00  0.1636931026923E-02
 0.2085092008952E-03 -0.1721985977267E-02  0.0000000000000E+00  0.1735975685397E-02
 0.2018001874079E-03 -0.1738530333777E-02  0.0000000000000E+00  0.1838442368380E-02
 0.1938333698269E-03 -0.1753433643302E-02  0.0000000000000E+00  0.1944524186414E-02
 0.1855166282551E-03 -0.1766845592056E-02  0.0000000000000E+00  0.2053909870620E-02
 0.1779360315786E-03 -0.1778963604786E-02  0.0000000000000E+00  0.2165672876199E-02
 0.1723858688506E-03 -0.1790045912185E-02  0.0000000000000E+00  0.2278156907098E-02
 0.1704086610013E-03 -0.1800432273675E-02  0.0000000000000E+00  0.2388857530544E-02
 0.1738423496339E-03 -0.1810558456180E-02  0.0000000000000E+00  0.2494313483739E-02
 0.1848666102838E-03 -0.1820923927464E-02  0.0000000000000E+00  0.2590018128609E-02
 0.2060495330582E-03 -0.1832147356962E-02  0.0000000000000E+00  0.2670366162471E-02
 0.2403831462756E-03 -0.1845120435530E-02  0.0000000000000E+00  0.2728664051488E-02
 0.2912969261865E-03 -0.1861094942531E-02  0.0000000000000E+00  0.2757193838281E-02
 0.3626622162352E-03 -0.1881708411734E-02  0.0000000000000E+00  0.2747353999034E-02
 0.4588005828290E-03 -0.1908997786768E-02  0.0000000000000E+00  0.2689921081353E-02
 0.5844991702882E-03 -0.1945436112428E-02  0.0000000000000E+00  0.2575496218273E-02
 0.7450164434054E-03 -0.1993999915282E-02  0.0000000000000E+00  0.2395228615174E-02
 0.9460261966872E-03 -0.2058234250610E-02  0.0000000000000E+00  0.2141930866371E-02
 0.1193453998950E-02 -0.2142282989135E-02  0.0000000000000E+00  0.1811694473487E-02
 0.1493048784886E-02 -0.2250715623094E-02  0.0000000000000E+00  0.1405998578056E-02
 0.1849237049941E-02 -0.2387773567038E-02  0.0000000000000E+00  0.9340183224912E-03
 0.2263039528443E-02 -0.2555847617058E-02  0.0000000000000E+00  0.4143157305869E-03
 0.2729103492889E-02 -0.2753240345046E-02  0.0000000000000E+00 -0.1254642926629E-03
 0.3233059272430E-02 -0.2971783090307E-02  0.0000000000000E+00 -0.6528803150063E-03
 0.3747645122727E-02 -0.3194639975683E-02  0.0000000000000E+00 -0.1137473717594E-02
 0.4240078565627E-02 -0.3396415169778E-02  0.0000000000000E+00 -0.1579515068546E-02
 0.1175237981132E-04 -0.1522182821002E-02  0.0000000000000E+00 -0.3907626570292E-03
 0.3323405134382E-04 -0.1537236374808E-02  0.0000000000000E+00 -0.1359778090033E-03
 0.5324524403087E-04 -0.1553354827195E-02  0.0000000000000E+00  0.8799599052998E-04
 0.7374208066340E-04 -0.1571976281769E-02  0.0000000000000E+00  0.2839159148257E-03
 0.9553949242560E-04 -0.1593619659815E-02  0.0000000000000E+00  0.4558018393195E-03
 0.1184800043214E-03 -0.1618030363003E-02  0.0000000000000E+00  0.6078965754658E-03
 0.1417805117192E-03 -0.1644468804050E-02  0.0000000000000E+00  0.7440410526040E-03
 0.1643894861092E-03 -0.1671999769225E-02  0.0000000000000E+00  0.8674629254046E-03
 0.1852560543829E-03 -0.1699701689569E-02  0.0000000000000E+00  0.9808256745706E-03
 0.2034884964576E-03 -0.1726780876830E-02  0.0000000000000E+00  0.1086377738375E-02
 0.2184234475301E-03 -0.1752612310518E-02  0.0000000000000E+00  0.1186097832124E-02
 0.2296390956336E-03 -0.1776736955825E-02  0.0000000000000E+00  0.1281792335119E-02
 0.2369407858223E-03 -0.1798839769029E-02  0.0000000000000E+00  0.1375139679341E-02
 0.2403375929518E-03 -0.1818723099044E-02  0.0000000000000E+00  0.1467692373431E-02
 0.2400200170718E-03 -0.1836282731094E-02  0.0000000000000E+00  0.1560849733941E-02
 0.2363434839319E-03 -0.1851489393598E-02  0.0000000000000E+00  0.1655811567213E-02
 0.2298192769700E-03 -0.1864376294552E-02  0.0000000000000E+00  0.1753518821296E-02
 0.2211135067210E-03 -0.1875032075134E-02  0.0000000000000E+00  0.1854580594617E-02
 0.2110538047136E-03 -0.1883599721388E-02  0.0000000000000E+00  0.1959193101138E-02
 0.2006441392066E-03 -0.1890280712298E-02  0.0000000000000E+00  0.2067046133878E-02
 0.1910884413765E-03 -0.1895345190939E-02  0.0000000000000E+00  0.2177215835749E-02
 0.1838225900068E-03 -0.1899149415580E-02  0.0000000000000E+00  0.2288054888631E-02
 0.1805550797375E-03 -0.1902160604412E-02  0.0000000000000E+00  0.2397079796053E-02
 0.1833128760284E-03 -0.1904975053442E-02  0.0000000000000E+00  0.2500869476908E-02
 0.1944839871643E-03 -0.1908289436220E-02  0.0000000000000E+00  0.2594988793361E-02
 0.2168582615332E-03 -0.1912953922214E-02  0.0000000000000E+00  0.2673940653594E-02
 0.2536555156734E-03 -0.1920118610304E-02  0.0000000000000E+00  0.2731171383496E-02
 0.3085291510975E-03 -0.1931315326937E-02  0.0000000000000E+00  0.2759134703991E-02
 0.3855551304757E-03 -0.1948477147428E-02  0.0000000000000E+00  0.2749444495949E-02
 0.4892150559123E-03 -0.1973938890223E-02  0.0000000000000E+00  0.2693160461090E-02
 0.6243710132601E-03 -0.2010446774661E-02  0.0000000000000E+00  0.2581265995987E-02
 0.7962097380287E-03 -0.2061177655113E-02  0.0000000000000E+00  0.2405416616723E-02
 0.1010100772898E-02 -0.2129729237734E-02  0.0000000000000E+00  0.2159044450239E-02
 0.1271328511657E-02 -0.2220050900595E-02  0.0000000000000E+00  0.1838877259388E-02
 0.1584568440516E-02 -0.2336167557005E-02  0.0000000000000E+00  0.1446805263892E-02
 0.1952746942975E-02 -0.2481378521531E-02  0.0000000000000E+00  0.9917376588288E-03
 0.2375124524713E-02 -0.2656834594601E-02  0.0000000000000E+00  0.4907115823687E-03
 0.2844957065047E-02 -0.2859660584995E-02  0.0000000000000E+00 -0.3202937928676E-04
 0.3347045298622E-02 -0.3081076135839E-02  0.0000000000000E+00 -0.5486746591870E-03
 0.3856781337314E-02 -0.3304800384208E-02  0.0000000000000E+00 -0.1037376081555E-02
 0.4346697097474E-02 -0.3512062947974E-02  0.0000000000000E+00 -0.1494599403309E-02
 0.1431495184122E-04 -0.1685599559736E-02  0.0000000000000E+00 -0.3803058768821E-03
 0.4091293300217E-04 -0.1703688495979E-02  0.0000000000000E+00 -0.1246969699830E-03
 0.6573649192136E-04 -0.1722437905667E-02  0.0000000000000E+00  0.1012275179299E-03
 0.9042527800661E-04 -0.1743049269272E-02  0.0000000000000E+00  0.2996459193428E-03
 0.1156662159009E-03 -0.1765952321067E-02  0.0000000000000E+00  0.4740135424925E-03
 0.1413121938756E-03 -0.1790908123525E-02  0.0000000000000E+00  0.6281646467880E-03
 0.1666589927846E-03 -0.1817239790872E-02  0.0000000000000E+00  0.7657301639539E-03
 0.1907468452193E-03 -0.1844077489769E-02  0.0000000000000E+00  0.8898932990028E-03
 0.2126003198568E-03 -0.1870546297012E-02  0.0000000000000E+00  0.1003376274588E-02
 0.2313795013648E-03 -0.1895877048512E-02  0.0000000000000E+00  0.1108532127082E-02
 0.2464537664825E-03 -0.1919452700274E-02  0.0000000000000E+00  0.1207451513099E-02
 0.2574232866892E-03 -0.1940813226251E-02  0.0000000000000E+00  0.1302040140019E-02
 0.2641123096900E-03 -0.1959639848008E-02  0.0000000000000E+00  0.1394056046076E-02
 0.2665513980850E-03 -0.1975732576866E-02  0.0000000000000E+00  0.1485111570345E-02
 0.2649589562799E-03 -0.1988988835961E-02  0.0000000000000E+00  0.1576649097659E-02
 0.2597274205393E-03 -0.1999386799774E-02  0.0000000000000E+00  0.1669898635134E-02
 0.2514164063958E-03 -0.2006974699936E-02  0.0000000000000E+00  0.1765822286848E-02
 0.2407539461821E-03 -0.2011866126464E-02  0.0000000000000E+00  0.1865044837367E-02
 0.2286455856646E-03 -0.2014241762508E-02  0.0000000000000E+00  0.1967776093178E-02
 0.2161918080059E-03 -0.2014357148086E-02  0.0000000000000E+00  0.2073720945784E-02
 0.2047141432141E-03 -0.2012557081510E-02  0.0000000000000E+00  0.2181976329318E-02
 0.1957888819856E-03 -0.2009297134402E-02  0.0000000000000E+00  0.2290926219439E-02
 0.1912881969216E-03 -0.2005172233468E-02  0.0000000000000E+00  0.2398134301131E-02
 0.1934245391938E-03 -0.2000938024076E-02  0.0000000000000E+00  0.2500248996762E-02
 0.2047894776253E-03 -0.1997485505333E-02  0.0000000000000E+00  0.2592937183718E-02
 0.2283886079054E-03 -0.1995891542308E-02  0.0000000000000E+00  0.2670840267846E-02
 0.2676618581914E-03 -0.1997557258224E-02  0.0000000000000E+00  0.2727574282978E-02
 0.3264760926947E-03 -0.2004283094205E-02  0.0000000000000E+00  0.2755792718669E-02
 0.4090969209077E-03 -0.2018279887419E-02  0.0000000000000E+00  0.2747347169785E-02
 0.5201446830984E-03 -0.2042153404720E-02  0.0000000000000E+00  0.2693589027245E-02
 0.6645281086548E-03 -0.2078884578024E-02  0.0000000000000E+00  0.2585865448294E-02
 0.8473296666209E-03 -0.2131800621632E-02  0.0000000000000E+00  0.2416273558533E-02
 0.1073588174592E-02 -0.2204496483763E-02  0.0000000000000E+00  0.2178731173404E-02
 0.1347946992741E-02 -0.2300682134164E-02  0.0000000000000E+00  0.1870382400083E-02
 0.1674072238060E-02 -0.2423832665455E-02  0.0000000000000E+00  0.1493227656545E-02
 0.2053543035780E-02 -0.2576376702128E-02  0.0000000000000E+00  0.1055602841355E-02
 0.2484166728946E-02 -0.2758399622303E-02  0.0000000000000E+00  0.5727989284985E-03
 0.2958026503738E-02 -0.2966098823423E-02  0.0000000000000E+00  0.6594252666717E-04
 0.3459787403715E-02 -0.3190282015439E-02  0.0000000000000E+00 -0.4419437502135E-03
 0.3966956178850E-02 -0.3416214247894E-02  0.0000000000000E+00 -0.9336210099664E-03
 0.4454469540671E-02 -0.3627464162370E-02  0.0000000000000E+00 -0.1403601566245E-02
 0.1675762372426E-04 -0.1848466863435E-02  0.0000000000000E+00 -0.3680329694584E-03
 0.4826431400183E-04 -0.1869466403306E-02  0.0000000000000E+00 -0.1118131291829E-03
 0.7777311224808E-04 -0.1890780678611E-02  0.0000000000000E+00  0.1156463767914E-03
 0.1066210455971E-03 -0.1913383976582E-02  0.0000000000000E+00  0.3160431624820E-03
 0.1353520729739E-03 -0.1937604109704E-02  0.0000000000000E+00  0.4923518667528E-03
 0.1637995969270E-03 -0.1963194455975E-02  0.0000000000000E+00  0.6480465546795E-03
 0.1913082806389E-03 -0.1989518863056E-02  0.0000000000000E+00  0.7865618460252E-03
 0.2169885211376E-03 -0.2015758723064E-02  0.0000000000000E+00  0.9110289715949E-03
 0.2399288620007E-03 -0.2041080060948E-02  0.0000000000000E+00  0.1024214177696E-02
 0.2593376547650E-03 -0.2064738589249E-02  0.0000000000000E+00  0.1128561873239E-02
 0.2746182037109E-03 -0.2086128731089E-02  0.0000000000000E+00  0.1226266108610E-02
 0.2853959479766E-03 -0.2104793953999E-02  0.0000000000000E+00  0.1319327920961E-02
 0.2915177884177E-03 -0.2120416062366E-02  0.0000000000000E+00  0.1409584208876E-02
 0.2930391822426E-03 -0.2132796441596E-02  0.0000000000000E+00  0.1498708435977E-02
 0.2902092018432E-03 -0.2141837216087E-02  0.0000000000000E+00  0.1588188720843E-02
 0.2834593696765E-03 -0.2147526539272E-02  0.0000000000000E+00  0.1679289202392E-02
 0.2733990691199E-03 -0.2149929812912E-02  0.0000000000000E+00  0.1772998651870E-02
 0.2608190976746E-03 -0.2149187432566E-02  0.0000000000000E+00  0.1869965211304E-02
 0.2467031661000E-03 -0.2145519363792E-02  0.0000000000000E+00  0.1970422773503E-02
 0.2322478598307E-03 -0.2139236435405E-02  0.0000000000000E+00  0.2074105260095E-02
 0.2188910987397E-03 -0.2130758777321E-02  0.0000000000000E+00  0.2180148183598E-02
 0.2083474258860E-03 -0.2120641129205E-02  0.0000000000000E+00  0.2286988519660E-02
 0.2026494581874E-03 -0.2109604841488E-02  0.0000000000000E+00  0.2392262423702E-02
 0.2041907750136E-03 -0.2098562167802E-02  0.0000000000000E+00  0.2492715804841E-02
 0.2157610942093E-03 -0.2088594049968E-02  0.0000000000000E+00  0.2584146324929E-02
 0.2405753394656E-03 -0.2080997860288E-02  0.0000000000000E+00  0.2661361885766E-02
 0.2822858092097E-03 -0.2077417171470E-02  0.0000000000000E+00  0.2718174854263E-02
 0.3449629350709E-03 -0.2079908834311E-02  0.0000000000000E+00  0.2747461855549E-02
 0.4330487399991E-03 -0.2090943795460E-02  0.0000000000000E+00  0.2741327718254E-02
 0.5512847720777E-03 -0.2113373708304E-02  0.0000000000000E+00  0.2691414953267E-02
 0.7046050261814E-03 -0.2150380620823E-02  0.0000000000000E+00  0.2589405292915E-02
 0.8979664811104E-03 -0.2205401563491E-02  0.0000000000000E+00  0.2427763260774E-02
 0.1136066369631E-02 -0.2281988414819E-02  0.0000000000000E+00  0.2200756565032E-02
 0.1422926064754E-02 -0.2383586839060E-02  0.0000000000000E+00  0.1905739950639E-02
 0.1761276138582E-02 -0.2513136624087E-02  0.0000000000000E+00  0.1544568179836E-02
 0.2151509142445E-02 -0.2672276103529E-02  0.0000000000000E+00  0.1124753239567E-02
 0.2590205675471E-02 -0.2860187807289E-02  0.0000000000000E+00  0.6597575416528E-03
 0.3068572210058E-02 -0.3072325680540E-02  0.0000000000000E+00  0.1676770406128E-03
 0.3571384062685E-02 -0.3299428667409E-02  0.0000000000000E+00 -0.3324597041131E-03
 0.4077684954554E-02 -0.3527948440361E-02  0.0000000000000E+00 -0.8264386207429E-03
 0.4563762202513E-02 -0.3742610978631E-02  0.0000000000000E+00 -0.1308208818432E-02
 0.1910304127210E-04 -0.2010840247166E-02  0.0000000000000E+00 -0.3540262315100E-03
 0.5535005214417E-04 -0.2034649700608E-02  0.0000000000000E+00 -0.9738070510190E-04
 0.8944196821041E-04 -0.2058477083550E-02  0.0000000000000E+00  0.1312402033001E-03
 0.1224263082430E-03 -0.2083078666898E-02  0.0000000000000E+00  0.3331354618393E-03
 0.1546933877217E-03 -0.2108671165735E-02  0.0000000000000E+00  0.5108721722936E-03
 0.1860331648344E-03 -0.2134981525587E-02  0.0000000000000E+00  0.6676101392406E-03
 0.2158137624141E-03 -0.2161395624193E-02  0.0000000000000E+00  0.8066051052906E-03
 0.2431963888224E-03 -0.2187133191054E-02  0.0000000000000E+00  0.9309345881846E-03
 0.2673224774558E-03 -0.2211395341179E-02  0.0000000000000E+00  0.1043399006430E-02
 0.2874445583223E-03 -0.2233462283773E-02  0.0000000000000E+00  0.1146523820396E-02
 0.3030002910245E-03 -0.2252742690759E-02  0.0000000000000E+00  0.1242599091130E-02
 0.3136430503106E-03 -0.2268787550693E-02  0.0000000000000E+00  0.1333717272572E-02
 0.3192457339986E-03 -0.2281283345796E-02  0.0000000000000E+00  0.1421792978688E-02
 0.3198918355406E-03 -0.2290036444669E-02  0.0000000000000E+00  0.1508561580952E-02
 0.3158636333071E-03 -0.2294956631393E-02  0.0000000000000E+00  0.1595559150888E-02
 0.3076335374872E-03 -0.2296044368663E-02  0.0000000000000E+00  0.1684087560496E-02
 0.2958617515492E-03 -0.2293384009976E-02  0.0000000000000E+00  0.1775167530789E-02
 0.2814021552163E-03 -0.2287144046116E-02  0.0000000000000E+00  0.1869478053253E-02
 0.2653161983801E-03 -0.2277584522541E-02  0.0000000000000E+00  0.1967287397456E-02
 0.2488953480669E-03 -0.2265071778548E-02  0.0000000000000E+00  0.2068372134664E-02
 0.2336918106799E-03 -0.2250100753592E-02  0.0000000000000E+00  0.2171923639615E-02
 0.2215553077724E-03 -0.2233323868181E-02  0.0000000000000E+00  0.2276452836424E-02
 0.2146748094911E-03 -0.2215586191893E-02  0.0000000000000E+00  0.2379692587129E-02
 0.2156199428109E-03 -0.2197952426097E-02  0.0000000000000E+00  0.2478512893216E-02
 0.2273726480857E-03 -0.2181687746836E-02  0.0000000000000E+00  0.2568869246923E-02
 0.2533505259935E-03 -0.2168302694655E-02  0.0000000000000E+00  0.2645761859764E-02
 0.2974106988924E-03 -0.2159673851215E-02  0.0000000000000E+00  0.2703223087595E-02
 0.3638181995057E-03 -0.2158101953950E-02  0.0000000000000E+00  0.2734371875595E-02
 0.4571804179282E-03 -0.2166301132740E-02  0.0000000000000E+00  0.2731576066984E-02
 0.5823467670407E-03 -0.2187346417691E-02  0.0000000000000E+00  0.2686761504870E-02
 0.7442622046519E-03 -0.2224592801172E-02  0.0000000000000E+00  0.2591907670516E-02
 0.9477475342223E-03 -0.2281555947337E-02  0.0000000000000E+00  0.2439767166255E-02
 0.1197161301856E-02 -0.2361717995354E-02  0.0000000000000E+00  0.2224824395407E-02
 0.1495935264134E-02 -0.2468251805948E-02  0.0000000000000E+00  0.1944457652395E-02
 0.1845947237076E-02 -0.2603590184339E-02  0.0000000000000E+00  0.1600157018474E-02
 0.2246549739809E-02 -0.2768666011607E-02  0.0000000000000E+00  0.1198427618866E-02
 0.2693299420797E-02 -0.2961895980124E-02  0.0000000000000E+00  0.7508477535224E-03
 0.3176751046361E-02 -0.3178174829402E-02  0.0000000000000E+00  0.2726871055470E-03
 0.3681853909263E-02 -0.3408293223089E-02  0.0000000000000E+00 -0.2203168255036E-03
 0.4188749477247E-02 -0.3639534732117E-02  0.0000000000000E+00 -0.7162450556464E-03
 0.4674776293858E-02 -0.3857378667796E-02  0.0000000000000E+00 -0.1209373350484E-02
 0.2137157516898E-04 -0.2172774001869E-02  0.0000000000000E+00 -0.3383514737343E-03
 0.6222630491437E-04 -0.2199314726641E-02  0.0000000000000E+00 -0.8144237812561E-04
 0.1008232450062E-03 -0.2225617410031E-02  0.0000000000000E+00  0.1480019162628E-03
 0.1379325325772E-03 -0.2252228983373E-02  0.0000000000000E+00  0.3509507511051E-03
 0.1737832727192E-03 -0.2279248524552E-02  0.0000000000000E+00  0.5296276462821E-03
 0.2081026959302E-03 -0.2306361484233E-02  0.0000000000000E+00  0.6869214147116E-03
 0.2402608878912E-03 -0.2332959938875E-02  0.0000000000000E+00  0.8259288680767E-03
 0.2694527057816E-03 -0.2358290431058E-02  0.0000000000000E+00  0.9496766921630E-03
 0.2948620370480E-03 -0.2381583458547E-02  0.0000000000000E+00  0.1060993870409E-02
 0.3157812709206E-03 -0.2402142910655E-02  0.0000000000000E+00  0.1162479374225E-02
 0.3316823264297E-03 -0.2419393961103E-02  0.0000000000000E+00  0.1256513191896E-02
 0.3422486900766E-03 -0.2432898756421E-02  0.0000000000000E+00  0.1345275548178E-02
 0.3473822363550E-03 -0.2442352323921E-02  0.0000000000000E+00  0.1430757346579E-02
 0.3471973688939E-03 -0.2447569484919E-02  0.0000000000000E+00  0.1514756165394E-02
 0.3420118642243E-03 -0.2448470493626E-02  0.0000000000000E+00  0.1598857748270E-02
 0.3323405259232E-03 -0.2445070213747E-02  0.0000000000000E+00  0.1684404859268E-02
 0.3188950317742E-03 -0.2437473344528E-02  0.0000000000000E+00  0.1772455070722E-02
 0.3025921323763E-03 -0.2425877188988E-02  0.0000000000000E+00  0.1863725358448E-02
 0.2845699279808E-03 -0.2410581896871E-02  0.0000000000000E+00  0.1958528266390E-02
 0.2662127694138E-03 -0.2392008571297E-02  0.0000000000000E+00  0.2056696137227E-02
 0.2491841989220E-03 -0.2370725302512E-02  0.0000000000000E+00  0.2157492824413E-02
 0.2354651881756E-03 -0.2347479447427E-02  0.0000000000000E+00  0.2259523265713E-02
 0.2273961822395E-03 -0.2323235776665E-02  0.0000000000000E+00  0.2360640139134E-02
 0.2277171356284E-03 -0.2299205989287E-02  0.0000000000000E+00  0.2457862754414E-02
 0.2395958768956E-03 -0.2276832622013E-02  0.0000000000000E+00  0.2547329818593E-02
 0.2666459506233E-03 -0.2257831102732E-02  0.0000000000000E+00  0.2624257646271E-02
 0.3129221646231E-03 -0.2244300999393E-02  0.0000000000000E+00  0.2682919608681E-02
 0.3828763968752E-03 -0.2238774474067E-02  0.0000000000000E+00  0.2716692620744E-02
 0.4812728572535E-03 -0.2244193104790E-02  0.0000000000000E+00  0.2718212733566E-02
 0.6130598962192E-03 -0.2263835807115E-02  0.0000000000000E+00  0.2679676001792E-02
 0.7831860686418E-03 -0.2301208012899E-02  0.0000000000000E+00  0.2593318010298E-02
 0.9963350134851E-03 -0.2359881783805E-02  0.0000000000000E+00  0.2452098526363E-02
 0.1256540900213E-02 -0.2443254877827E-02  0.0000000000000E+00  0.2250591733969E-02
 0.1566688619768E-02 -0.2554231855085E-02  0.0000000000000E+00  0.1986031250809E-02
 0.1927888770746E-02 -0.2694776666923E-02  0.0000000000000E+00  0.1659359878485E-02
 0.2338588621913E-02 -0.2865198847560E-02  0.0000000000000E+00  0.1275936941961E-02
 0.2793493110602E-02 -0.3063272444689E-02  0.0000000000000E+00  0.8454457381278E-03
 0.3282659257054E-02 -0.3283467979822E-02  0.0000000000000E+00  0.3805653915833E-03
 0.3791198507852E-02 -0.3516647753830E-02  0.0000000000000E+00 -0.1057334491543E-03
 0.4300065448636E-02 -0.3750679000395E-02  0.0000000000000E+00 -0.6034657896745E-03
 0.4787537058337E-02 -0.3971656571993E-02  0.0000000000000E+00 -0.1107624702127E-02
 0.2358169777820E-04 -0.2334321268203E-02  0.0000000000000E+00 -0.3210596357081E-03
 0.6894441310265E-04 -0.2363534899647E-02  0.0000000000000E+00 -0.6402983147252E-04
 0.1119913572498E-03 -0.2392288592312E-02  0.0000000000000E+00  0.1659299878086E-03
 0.1532262794423E-03 -0.2420927951628E-02  0.0000000000000E+00  0.3695179276014E-03
 0.1927117247959E-03 -0.2449429801810E-02  0.0000000000000E+00  0.5486700801773E-03
 0.2300966098908E-03 -0.2477425989002E-02  0.0000000000000E+00  0.7060448502813E-03
 0.2647348267368E-03 -0.2504301457132E-02  0.0000000000000E+00  0.8446017096455E-03
 0.2958397963126E-03 -0.2529319420914E-02  0.0000000000000E+00  0.9673230791580E-03
 0.3226282513571E-03 -0.2551734430656E-02  0.0000000000000E+00  0.1077064570225E-02
 0.3444281479001E-03 -0.2570873050195E-02  0.0000000000000E+00  0.1176493721480E-02
 0.3607452568728E-03 -0.2586178851776E-02  0.0000000000000E+00  0.1268075713592E-02
 0.3712949896885E-03 -0.2597228468264E-02  0.0000000000000E+00  0.1354075279380E-02
 0.3760108708685E-03 -0.2603729127824E-02  0.0000000000000E+00  0.1436557988688E-02
 0.3750408338493E-03 -0.2605507416304E-02  0.0000000000000E+00  0.1517383456465E-02
 0.3687401922868E-03 -0.2602496691614E-02  0.0000000000000E+00  0.1598188265920E-02
 0.3576673405262E-03 -0.2594728045964E-02  0.0000000000000E+00  0.1680358685892E-02
 0.3425856790245E-03 -0.2582327516031E-02  0.0000000000000E+00  0.1764993520061E-02
 0.3244740918887E-03 -0.2565521362232E-02  0.0000000000000E+00  0.1852854343321E-02
 0.3045455938193E-03 -0.2544649109402E-02  0.0000000000000E+00  0.1944307306749E-02
 0.2842746745710E-03 -0.2520184949621E-02  0.0000000000000E+00  0.2039252982215E-02
 0.2654324569060E-03 -0.2492767389235E-02  0.0000000000000E+00  0.2137043506838E-02
 0.2501264319577E-03 -0.2463234799670E-02  0.0000000000000E+00  0.2236396907420E-02
 0.2408429138595E-03 -0.2432666418417E-02  0.0000000000000E+00  0.2335307605620E-02
 0.2404858946234E-03 -0.2402414319326E-02  0.0000000000000E+00  0.2430968056807E-02
 0.2524024360888E-03 -0.2374090502640E-02  0.0000000000000E+00  0.2519724000943E-02
 0.2803953299887E-03 -0.2349606240045E-02  0.0000000000000E+00  0.2597029841911E-02
 0.3287105007960E-03 -0.2331273715969E-02  0.0000000000000E+00  0.2657418768715E-02
 0.4019803251113E-03 -0.2321844413899E-02  0.0000000000000E+00  0.2694538500367E-02
 0.5051199728227E-03 -0.2324473149103E-02  0.0000000000000E+00  0.2701295093017E-02
 0.6431722734033E-03 -0.2342626520207E-02  0.0000000000000E+00  0.2670138183129E-02
 0.8210886501999E-03 -0.2379943551500E-02  0.0000000000000E+00  0.2593515473943E-02
 0.1043423266511E-02 -0.2440038785736E-02  0.0000000000000E+00  0.2464514284478E-02
 0.1313909727356E-02 -0.2526221305659E-02  0.0000000000000E+00  0.2277680070052E-02
 0.1634936117760E-02 -0.2641142163739E-02  0.0000000000000E+00  0.2029952736044E-02
 0.2006931330927E-02 -0.2786340357983E-02  0.0000000000000E+00  0.1721575775296E-02
 0.2427559490155E-02 -0.2961580409995E-02  0.0000000000000E+00  0.1356659405494E-02
 0.2890814220442E-02 -0.3164098433908E-02  0.0000000000000E+00  0.9430120530673E-03
 0.3386355744485E-02 -0.3388030882205E-02  0.0000000000000E+00  0.4909412074919E-03
 0.3899421999784E-02 -0.3624294900244E-02  0.0000000000000E+00  0.1102638335913E-04
 0.4411591599057E-02 -0.3861181012772E-02  0.0000000000000E+00 -0.4884566057830E-03
 0.4902002683526E-02 -0.4085331949874E-02  0.0000000000000E+00 -0.1003319872632E-02
 0.2575028369460E-04 -0.2495534093966E-02  0.0000000000000E+00 -0.3021881174573E-03
 0.7555163378242E-04 -0.2527381026552E-02  0.0000000000000E+00 -0.4516441332801E-04
 0.1230157345232E-03 -0.2558574505272E-02  0.0000000000000E+00  0.1850286092592E-03
 0.1683897281268E-03 -0.2589266061186E-02  0.0000000000000E+00  0.3888675147747E-03
 0.2115657830204E-03 -0.2619307021444E-02  0.0000000000000E+00  0.5680505216262E-03
 0.2521018217939E-03 -0.2648265876036E-02  0.0000000000000E+00  0.7250436487575E-03
 0.2893202118591E-03 -0.2675509267407E-02  0.0000000000000E+00  0.8626916728505E-03
 0.3224397868224E-03 -0.2700308297251E-02  0.0000000000000E+00  0.9839422701705E-03
 0.3507014554582E-03 -0.2721936777227E-02  0.0000000000000E+00  0.1091678903620E-02
 0.3734646813432E-03 -0.2739742956643E-02  0.0000000000000E+00  0.1188635116683E-02
 0.3902685572630E-03 -0.2753190507115E-02  0.0000000000000E+00  0.1277357880919E-02
 0.4008619979272E-03 -0.2761873657789E-02  0.0000000000000E+00  0.1360193617765E-02
 0.4052126128397E-03 -0.2765515314049E-02  0.0000000000000E+00  0.1439280792195E-02
 0.4035042565671E-03 -0.2763956977978E-02  0.0000000000000E+00  0.1516540417538E-02
 0.3961315692262E-03 -0.2757147551561E-02  0.0000000000000E+00  0.1593660479617E-02
 0.3836974210679E-03 -0.2745135902697E-02  0.0000000000000E+00  0.1672072721139E-02
 0.3670167759389E-03 -0.2728069987542E-02  0.0000000000000E+00  0.1752920906187E-02
 0.3471293943612E-03 -0.2706204603876E-02  0.0000000000000E+00  0.1837017154376E-02
 0.3253208398007E-03 -0.2679917192518E-02  0.0000000000000E+00  0.1924789835964E-02
 0.3031522778652E-03 -0.2649732473278E-02  0.0000000000000E+00  0.2016219396874E-02
 0.2824978903322E-03 -0.2616355617370E-02  0.0000000000000E+00  0.2110761124155E-02
 0.2655861997200E-03 -0.2580710986197E-02  0.0000000000000E+00  0.2207264128774E-02
 0.2550431048682E-03 -0.2543985922313E-02  0.0000000000000E+00  0.2303885283068E-02
 0.2539298297343E-03 -0.2507665181182E-02  0.0000000000000E+00  0.2398012677051E-02
 0.2657657591415E-03 -0.2473521426039E-02  0.0000000000000E+00  0.2486221457019E-02
 0.2945363562094E-03 -0.2443652112746E-02  0.0000000000000E+00  0.2564224545392E-02
 0.3446727718746E-03 -0.2420571508160E-02  0.0000000000000E+00  0.2626831978063E-02
 0.4209830629213E-03 -0.2407238888026E-02  0.0000000000000E+00  0.2667973055291E-02
 0.5285302629787E-03 -0.2407009827505E-02  0.0000000000000E+00  0.2680823427665E-02
 0.6724516108741E-03 -0.2423525797440E-02  0.0000000000000E+00  0.2658067875892E-02
 0.8577068788116E-03 -0.2460548034854E-02  0.0000000000000E+00  0.2592322056070E-02
 0.1088736121494E-02 -0.2521727208418E-02  0.0000000000000E+00  0.2476724721403E-02
 0.1369003960269E-02 -0.2610288240961E-02  0.0000000000000E+00  0.2305683872015E-02
 0.1700456754809E-02 -0.2728651343182E-02  0.0000000000000E+00  0.2075714805247E-02
 0.2082925351884E-02 -0.2877977769121E-02  0.0000000000000E+00  0.1786235265118E-02
 0.2513399505408E-02 -0.3057559913175E-02  0.0000000000000E+00  0.1440030402440E-02
 0.2985273434654E-02 -0.3264181535785E-02  0.0000000000000E+00  0.1043068364343E-02
 0.3487875705651E-02 -0.3491703549862E-02  0.0000000000000E+00  0.6034699013395E-03
 0.4006528837440E-02 -0.3731071312755E-02  0.0000000000000E+00  0.1296975659173E-03
 0.4523298784862E-02 -0.3970890623548E-02  0.0000000000000E+00 -0.3715084797242E-03
 0.5018095373303E-02 -0.4198294543076E-02  0.0000000000000E+00 -0.8967304012132E-03
 0.2789286038432E-04 -0.2656463479254E-02  0.0000000000000E+00 -0.2817619215267E-03
 0.8209175631070E-04 -0.2690921548663E-02  0.0000000000000E+00 -0.2485774735808E-04
 0.1339615056791E-03 -0.2724556202534E-02  0.0000000000000E+00  0.2053077462280E-03
 0.1835011681158E-03 -0.2757331323895E-02  0.0000000000000E+00  0.4090321372693E-03
 0.2304297222980E-03 -0.2788970446733E-02  0.0000000000000E+00  0.5878197685022E-03
 0.2742036819008E-03 -0.2818970827380E-02  0.0000000000000E+00  0.7439799529236E-03
 0.3141009377524E-03 -0.2846671500693E-02  0.0000000000000E+00  0.8802660884306E-03
 0.3493343643331E-03 -0.2871343972712E-02  0.0000000000000E+00  0.9996030176737E-03
 0.3791613840862E-03 -0.2892277179495E-02  0.0000000000000E+00  0.1104905999321E-02
 0.4029693075669E-03 -0.2908840253895E-02  0.0000000000000E+00  0.1198974174886E-02
 0.4203300646602E-03 -0.2920518619087E-02  0.0000000000000E+00  0.1284434177225E-02
 0.4310275416661E-03 -0.2926927085724E-02  0.0000000000000E+00  0.1363711753457E-02
 0.4350657040834E-03 -0.2927807576926E-02  0.0000000000000E+00  0.1439016361750E-02
 0.4326665263240E-03 -0.2923019512894E-02  0.0000000000000E+00  0.1512329292838E-02
 0.4242655274589E-03 -0.2912529581651E-02  0.0000000000000E+00  0.1585389838069E-02
 0.4105106299507E-03 -0.2896405686362E-02  0.0000000000000E+00  0.1659676447105E-02
 0.3922677976972E-03 -0.2874817874741E-02  0.0000000000000E+00  0.1736380802987E-02
 0.3706359004632E-03 -0.2848048508721E-02  0.0000000000000E+00  0.1816370710606E-02
 0.3469700735281E-03 -0.2816510783346E-02  0.0000000000000E+00  0.1900144509706E-02
 0.3229140044874E-03 -0.2780776541767E-02  0.0000000000000E+00  0.1987773218489E-02
 0.3004396805514E-03 -0.2741612910070E-02  0.0000000000000E+00  0.2078829088660E-02
 0.2818904474378E-03 -0.2700024182176E-02  0.0000000000000E+00  0.2172309152325E-02
 0.2700248636244E-03 -0.2657298395297E-02  0.0000000000000E+00  0.2266552191559E-02
 0.2680541020722E-03 -0.2615044310518E-02  0.0000000000000E+00  0.2359163114855E-02
 0.2796627460519E-03 -0.2575185647187E-02  0.0000000000000E+00  0.2446967542552E-02
 0.3090125239066E-03 -0.2539995880763E-02  0.0000000000000E+00  0.2525956061157E-02
 0.3607146566285E-03 -0.2512180790646E-02  0.0000000000000E+00  0.2591231283997E-02
 0.4397496335403E-03 -0.2494896623720E-02  0.0000000000000E+00  0.2637013579793E-02
 0.5513279972734E-03 -0.2491689067425E-02  0.0000000000000E+00  0.2656746722277E-02
 0.7006855297101E-03 -0.2506365010254E-02  0.0000000000000E+00  0.2643331945916E-02
 0.8928015469137E-03 -0.2542801667183E-02  0.0000000000000E+00  0.2589510339570E-02
 0.1132024088342E-02 -0.2604686243017E-02  0.0000000000000E+00  0.2488401132480E-02
 0.1421586686563E-02 -0.2695171422470E-02  0.0000000000000E+00  0.2334176583934E-02
 0.1763052419498E-02 -0.2816475229263E-02  0.0000000000000E+00  0.2122813054616E-02
 0.2155734738371E-02 -0.2969429935364E-02  0.0000000000000E+00  0.1852797071444E-02
 0.2596044908509E-02 -0.3152922285386E-02  0.0000000000000E+00  0.1525531822517E-02
 0.3076866197808E-02 -0.3363352498212E-02  0.0000000000000E+00  0.1145182155503E-02
 0.3587236483284E-02 -0.3594343781586E-02  0.0000000000000E+00  0.7178312847333E-03
 0.4112519348633E-02 -0.3836841630281E-02  0.0000000000000E+00  0.2500310305755E-03
 0.4635156576659E-02 -0.4079686581542E-02  0.0000000000000E+00 -0.2528625736694E-03
 0.5135721076347E-02 -0.4310437136431E-02  0.0000000000000E+00 -0.7880882360584E-03
 0.3002381868067E-04 -0.2817159424721E-02  0.0000000000000E+00 -0.2597946282041E-03
 0.8860562700193E-04 -0.2854222779455E-02  0.0000000000000E+00 -0.3112281202524E-05
 0.1448901051566E-03 -0.2890312174985E-02  0.0000000000000E+00  0.2267831254011E-03
 0.1986354696926E-03 -0.2925209407458E-02  0.0000000000000E+00  0.4300468602007E-03
 0.2493852864096E-03 -0.2958508535933E-02  0.0000000000000E+00  0.6080287424108E-03
 0.2964859884485E-03 -0.2989629185414E-02  0.0000000000000E+00  0.7629149953178E-03
 0.3391600333452E-03 -0.3017875079182E-02  0.0000000000000E+00  0.8973914016349E-03
 0.3766045916761E-03 -0.3042511882995E-02  0.0000000000000E+00  0.1014373851884E-02
 0.4080869819678E-03 -0.3062840257187E-02  0.0000000000000E+00  0.1116815695309E-02
 0.4330192340345E-03 -0.3078249745922E-02  0.0000000000000E+00  0.1207583196849E-02
 0.4510058244184E-03 -0.3088249261543E-02  0.0000000000000E+00  0.1289381699026E-02
 0.4618670886841E-03 -0.3092477150677E-02  0.0000000000000E+00  0.1364714342773E-02
 0.4656455333326E-03 -0.3090697610000E-02  0.0000000000000E+00  0.1435859534765E-02
 0.4626033014532E-03 -0.3082790849930E-02  0.0000000000000E+00  0.1504857208926E-02
 0.4532181268082E-03 -0.3068743391932E-02  0.0000000000000E+00  0.1573497144706E-02
 0.4381832611244E-03 -0.3048643146793E-02  0.0000000000000E+00  0.1643304907149E-02
 0.4184147091561E-03 -0.3022682021683E-02  0.0000000000000E+00  0.1715522175774E-02
 0.3950681852045E-03 -0.2991168433102E-02  0.0000000000000E+00  0.1791076652359E-02
 0.3695648275932E-03 -0.2954548496351E-02  0.0000000000000E+00  0.1870543407208E-02
 0.3436260273329E-03 -0.2913436974694E-02  0.0000000000000E+00  0.1954093662175E-02
 0.3193156215199E-03 -0.2868657336620E-02  0.0000000000000E+00  0.2041429295929E-02
 0.2990848810886E-03 -0.2821286783032E-02  0.0000000000000E+00  0.2131710872378E-02
 0.2858174853665E-03 -0.2772705656697E-02  0.0000000000000E+00  0.2223477275005E-02
 0.2828668177966E-03 -0.2724637137783E-02  0.0000000000000E+00  0.2314570160253E-02
 0.2940753382106E-03 -0.2679145661933E-02  0.0000000000000E+00  0.2402085532532E-02
 0.3237748163595E-03 -0.2638670129891E-02  0.0000000000000E+00  0.2482309787876E-02
 0.3767521241590E-03 -0.2606097302681E-02  0.0000000000000E+00  0.2550653029546E-02
 0.4581584795933E-03 -0.2584770342817E-02  0.0000000000000E+00  0.2601635644712E-02
 0.5733542162096E-03 -0.2578416228873E-02  0.0000000000000E+00  0.2628968080990E-02
 0.7276817335680E-03 -0.2591001023245E-02  0.0000000000000E+00  0.2625750478912E-02
 0.9261562789259E-03 -0.2626516423128E-02  0.0000000000000E+00  0.2584810014535E-02
 0.1173061832345E-02 -0.2688692556861E-02  0.0000000000000E+00  0.2499181818451E-02
 0.1471443885700E-02 -0.2780627990428E-02  0.0000000000000E+00  0.2362714728622E-02
 0.1822542891272E-02 -0.2904371771389E-02  0.0000000000000E+00  0.2170746620338E-02
 0.2225232030685E-02 -0.3060476330692E-02  0.0000000000000E+00  0.1920743925480E-02
 0.2675428355998E-02 -0.3247482829587E-02  0.0000000000000E+00  0.1612682841516E-02
 0.3165574021563E-02 -0.3461463238457E-02  0.0000000000000E+00  0.1248957025351E-02
 0.3684440253749E-02 -0.3695827229815E-02  0.0000000000000E+00  0.8337289287186E-03
 0.4217386566610E-02 -0.3941492355389E-02  0.0000000000000E+00  0.3717986551970E-03
 0.4747129242433E-02 -0.4187465858255E-02  0.0000000000000E+00 -0.1327256384603E-03
 0.5254780607183E-02 -0.4421657204086E-02  0.0000000000000E+00 -0.6776079014726E-03
 0.3215658707318E-04 -0.2977670981004E-02  0.0000000000000E+00 -0.2362892010472E-03
 0.9513159887952E-04 -0.3017349111408E-02  0.0000000000000E+00  0.2007823488440E-04
 0.1558598099933E-03 -0.3055918580716E-02  0.0000000000000E+00  0.2494761846823E-03
 0.2138645270257E-03 -0.3092983763571E-02  0.0000000000000E+00  0.4519494263530E-03
 0.2685119391301E-03 -0.3128007912949E-02  0.0000000000000E+00  0.6287287598231E-03
 0.3190310441398E-03 -0.3160327783071E-02  0.0000000000000E+00  0.7819091878998E-03
 0.3645795782844E-03 -0.3189205460620E-02  0.0000000000000E+00  0.9141329872042E-03
 0.4043307486201E-03 -0.3213895698788E-02  0.0000000000000E+00  0.1028322646333E-02
 0.4375562176269E-03 -0.3233708280348E-02  0.0000000000000E+00  0.1127477945963E-02
 0.4636902508999E-03 -0.3248053139368E-02  0.0000000000000E+00  0.1214535519399E-02
 0.4823699089208E-03 -0.3256464622664E-02  0.0000000000000E+00  0.1292279528990E-02
 0.4934535772384E-03 -0.3258607628753E-02  0.0000000000000E+00  0.1363288951690E-02
 0.4970244816093E-03 -0.3254271854776E-02  0.0000000000000E+00  0.1429908916944E-02
 0.4933868802100E-03 -0.3243361070893E-02  0.0000000000000E+00  0.1494235808313E-02
 0.4830618660799E-03 -0.3225883496033E-02  0.0000000000000E+00  0.1558108290278E-02
 0.4667880125213E-03 -0.3201947740548E-02  0.0000000000000E+00  0.1623098541253E-02
 0.4455300221092E-03 -0.3171766946034E-02  0.0000000000000E+00  0.1690499331356E-02
 0.4204977064043E-03 -0.3135673558657E-02  0.0000000000000E+00  0.1761301429323E-02
 0.3931740663836E-03 -0.3094143141178E-02  0.0000000000000E+00  0.1836162292773E-02
 0.3653527379949E-03 -0.3047828420330E-02  0.0000000000000E+00  0.1915361803232E-02
 0.3391827771200E-03 -0.2997602747002E-02  0.0000000000000E+00  0.1998742884967E-02
 0.3172158157652E-03 -0.2944608295851E-02  0.0000000000000E+00  0.2085643956454E-02
 0.3024525179238E-03 -0.2890308408418E-02  0.0000000000000E+00  0.2174820910988E-02
 0.2983802888572E-03 -0.2836530244061E-02  0.0000000000000E+00  0.2264370880010E-02
 0.3089919381371E-03 -0.2785467931612E-02  0.0000000000000E+00  0.2351679151972E-02
 0.3387832126586E-03 -0.2739714812518E-02  0.0000000000000E+00  0.2433345358280E-02
 0.3927129074123E-03 -0.2702328160244E-02  0.0000000000000E+00  0.2505101655307E-02
 0.4761027185859E-03 -0.2676828749668E-02  0.0000000000000E+00  0.2561777579477E-02
 0.5944675147168E-03 -0.2667117766026E-02  0.0000000000000E+00  0.2597349826632E-02
 0.7532680114569E-03 -0.2677317181031E-02  0.0000000000000E+00  0.2605102276100E-02
 0.9575764442813E-03 -0.2711535961570E-02  0.0000000000000E+00  0.2577913292851E-02
 0.1211645800114E-02 -0.2773558779377E-02  0.0000000000000E+00  0.2508676603623E-02
 0.1518380847195E-02 -0.2866453395601E-02  0.0000000000000E+00  0.2390840409698E-02
 0.1878761565648E-02 -0.2992136601026E-02  0.0000000000000E+00  0.2219017489041E-02
 0.2291294500291E-02 -0.3150929871443E-02  0.0000000000000E+00  0.1989577909985E-02
 0.2751476869436E-02 -0.3341083093560E-02  0.0000000000000E+00  0.1701032048666E-02
 0.3251364986898E-02 -0.3558384783693E-02  0.0000000000000E+00  0.1354025517737E-02
 0.3779474962425E-02 -0.3796045772154E-02  0.0000000000000E+00  0.9508882355619E-03
 0.4321114381943E-02 -0.4044926833493E-02  0.0000000000000E+00  0.4947920630729E-03
 0.4859175301059E-02 -0.4294138242530E-02  0.0000000000000E+00 -0.1128236572936E-04
 0.5375176211842E-02 -0.4531858283259E-02  0.0000000000000E+00 -0.5654983876671E-03
 0.3430378714339E-04 -0.3138046305916E-02  0.0000000000000E+00 -0.2112386969838E-03
 0.1017059274963E-03 -0.3180363212438E-02  0.0000000000000E+00  0.4472831141585E-04
 0.1669262285445E-03 -0.3221449471662E-02  0.0000000000000E+00  0.2734139725754E-03
 0.2292576858830E-03 -0.3260735777005E-02  0.0000000000000E+00  0.4747803831269E-03
 0.2878871379700E-03 -0.3297553382166E-02  0.0000000000000E+00  0.6499716835216E-03
 0.3419197584724E-03 -0.3331151826577E-02  0.0000000000000E+00  0.8010221198382E-03
 0.3904406676277E-03 -0.3360746426616E-02  0.0000000000000E+00  0.9305549107165E-03
 0.4325922089055E-03 -0.3385577063218E-02  0.0000000000000E+00  0.1041516158636E-02
 0.4676459150561E-03 -0.3404960887361E-02  0.0000000000000E+00  0.1136962217988E-02
 0.4950565442452E-03 -0.3418328758119E-02  0.0000000000000E+00  0.1219904857094E-02
 0.5144942270090E-03 -0.3425242721896E-02  0.0000000000000E+00  0.1293208098818E-02
 0.5258572305215E-03 -0.3425397395712E-02  0.0000000000000E+00  0.1359525489486E-02
 0.5292717502195E-03 -0.3418611233190E-02  0.0000000000000E+00  0.1421266412917E-02
 0.5250860535578E-03 -0.3404814263184E-02  0.0000000000000E+00  0.1480580888594E-02
 0.5138655757009E-03 -0.3384038099328E-02  0.0000000000000E+00  0.1539354006712E-02
 0.4963939373256E-03 -0.3356412475123E-02  0.0000000000000E+00  0.1599203063196E-02
 0.4736828269993E-03 -0.3322170764469E-02  0.0000000000000E+00  0.1661471934806E-02
 0.4469929406809E-03 -0.3281666927903E-02  0.0000000000000E+00  0.1727216483729E-02
 0.4178644508767E-03 -0.3235401900124E-02  0.0000000000000E+00  0.1797181003611E-02
 0.3881571638761E-03 -0.3184060707913E-02  0.0000000000000E+00  0.1871761218104E-02
 0.3600980709311E-03 -0.3128559331049E-02  0.0000000000000E+00  0.1950951188275E-02
 0.3363309524550E-03 -0.3070096133482E-02  0.0000000000000E+00  0.2034280164113E-02
 0.3199647299228E-03 -0.3010207283975E-02  0.0000000000000E+00  0.2120736657243E-02
 0.3146121813330E-03 -0.2950812670672E-02  0.0000000000000E+00  0.2208690845618E-02
 0.3244087030185E-03 -0.2894224435960E-02  0.0000000000000E+00  0.2295835329783E-02
 0.3540080574952E-03 -0.2843178992198E-02  0.0000000000000E+00  0.2379099947912E-02
 0.4085378340889E-03 -0.2800893691628E-02  0.0000000000000E+00  0.2454553564962E-02
 0.4934912631640E-03 -0.2771058292692E-02  0.0000000000000E+00  0.2517344846174E-02
 0.6145447221420E-03 -0.2757742675482E-02  0.0000000000000E+00  0.2561718244919E-02
 0.7772922100142E-03 -0.2765224137431E-02  0.0000000000000E+00  0.2581129682291E-02
 0.9868881725395E-03 -0.2797735504509E-02  0.0000000000000E+00  0.2568479323553E-02
 0.1247592147217E-02 -0.2859132163326E-02  0.0000000000000E+00  0.2516470103385E-02
 0.1562219132153E-02 -0.2952478772860E-02  0.0000000000000E+00  0.2418082534916E-02
 0.1931551944155E-02 -0.3079599385352E-02  0.0000000000000E+00  0.2267128857709E-02
 0.2353801073224E-02 -0.3240632961185E-02  0.0000000000000E+00  0.2058815690513E-02
 0.2824110220813E-02 -0.3433587642091E-02  0.0000000000000E+00  0.1790150681111E-02
 0.3334193814616E-02 -0.3654005270543E-02  0.0000000000000E+00  0.1460043246722E-02
 0.3872314674187E-02 -0.3894905522032E-02  0.0000000000000E+00  0.1069053495445E-02
 0.4423676896104E-02 -0.4147061746792E-02  0.0000000000000E+00  0.6188191570071E-03
 0.4971248590124E-02 -0.4399623790687E-02  0.0000000000000E+00  0.1112955968487E-03
 0.5496815888689E-02 -0.4640951333987E-02  0.0000000000000E+00 -0.4519696790915E-03
 0.3647736507911E-04 -0.3298332733957E-02  0.0000000000000E+00 -0.1846268426784E-03
 0.1083631216432E-03 -0.3343326228549E-02  0.0000000000000E+00  0.7086035057965E-04
 0.1781427486450E-03 -0.3386977038029E-02  0.0000000000000E+00  0.2986290430926E-03
 0.2448821583879E-03 -0.3428544958114E-02  0.0000000000000E+00  0.4985831507438E-03
 0.3075866272191E-03 -0.3467228012038E-02  0.0000000000000E+00  0.6718100002332E-03
 0.3652317906525E-03 -0.3502184860843E-02  0.0000000000000E+00  0.8203124982693E-03
 0.4168234218273E-03 -0.3532579953703E-02  0.0000000000000E+00  0.9467196622698E-03
 0.4614673543635E-03 -0.3557635403262E-02  0.0000000000000E+00  0.1054019569173E-02
 0.4984316087593E-03 -0.3576674866397E-02  0.0000000000000E+00  0.1145336899345E-02
 0.5271905197604E-03 -0.3589151314144E-02  0.0000000000000E+00  0.1223764662727E-02
 0.5474483348717E-03 -0.3594657181250E-02  0.0000000000000E+00  0.1292248572094E-02
 0.5591453678694E-03 -0.3592920206027E-02  0.0000000000000E+00  0.1353515663042E-02
 0.5624531837785E-03 -0.3583790941945E-02  0.0000000000000E+00  0.1410036780376E-02
 0.5577659524496E-03 -0.3567228339484E-02  0.0000000000000E+00  0.1464012071248E-02
 0.5456943038614E-03 -0.3543288957692E-02  0.0000000000000E+00  0.1517369660375E-02
 0.5270663860584E-03 -0.3512123824361E-02  0.0000000000000E+00  0.1571769390449E-02
 0.5029388102931E-03 -0.3473985186105E-02  0.0000000000000E+00  0.1628605095596E-02
 0.4746194971286E-03 -0.3429245540429E-02  0.0000000000000E+00  0.1688998522514E-02
 0.4437005703565E-03 -0.3378426554485E-02  0.0000000000000E+00  0.1753783948504E-02
 0.4121013390770E-03 -0.3322239232971E-02  0.0000000000000E+00  0.1823478759166E-02
 0.3821188149823E-03 -0.3261634191249E-02  0.0000000000000E+00  0.1898236838241E-02
 0.3564800783458E-03 -0.3197856400351E-02  0.0000000000000E+00  0.1977789841569E-02
 0.3383929875425E-03 -0.3132503865841E-02  0.0000000000000E+00  0.2061373186654E-02
 0.3315865591661E-03 -0.3067577173635E-02  0.0000000000000E+00  0.2147646549939E-02
 0.3403307239696E-03 -0.3005494149148E-02  0.0000000000000E+00  0.2234627120594E-02
 0.3694313128999E-03 -0.2949122493840E-02  0.0000000000000E+00  0.2319591699323E-02
 0.4241820456020E-03 -0.2901829169462E-02  0.0000000000000E+00  0.2398961009304E-02
 0.5102498519152E-03 -0.2867464828435E-02  0.0000000000000E+00  0.2468214279277E-02
 0.6334815413761E-03 -0.2850263879480E-02  0.0000000000000E+00  0.2521867982357E-02
 0.7996222516353E-03 -0.2854660693703E-02  0.0000000000000E+00  0.2553542812248E-02
 0.1013937548991E-02 -0.2885021856955E-02  0.0000000000000E+00  0.2556137755355E-02
 0.1280735025906E-02 -0.2945293584234E-02  0.0000000000000E+00  0.2522123980101E-02
 0.1602794091238E-02 -0.3038568899211E-02  0.0000000000000E+00  0.2443957074247E-02
 0.1980764829501E-02 -0.3166621011636E-02  0.0000000000000E+00  0.2314582889293E-02
 0.2412629933524E-02 -0.3329454497541E-02  0.0000000000000E+00  0.2127983865337E-02
 0.2893239653435E-02 -0.3524881600401E-02  0.0000000000000E+00  0.1879626751143E-02
 0.3414001772366E-02 -0.3748228234192E-02  0.0000000000000E+00  0.1566683837549E-02
 0.3962919848984E-02 -0.3992325141233E-02  0.0000000000000E+00  0.1187984566582E-02
 0.4525038643934E-02 -0.4247824991854E-02  0.0000000000000E+00  0.7437003486322E-03
 0.5083300007814E-02 -0.4503851963314E-02  0.0000000000000E+00  0.2348435503041E-03
 0.5619616429891E-02 -0.4748856173976E-02  0.0000000000000E+00 -0.3372362094636E-03
 0.3868871149030E-04 -0.3458576856407E-02  0.0000000000000E+00 -0.1564285271192E-03
 0.1151362623318E-03 -0.3506297974224E-02  0.0000000000000E+00  0.9850431978751E-04
 0.1895609567965E-03 -0.3552571834466E-02  0.0000000000000E+00  0.3251593263434E-03
 0.2608034284191E-03 -0.3596489120896E-02  0.0000000000000E+00  0.5234040131467E-03
 0.3276847442830E-03 -0.3637113207728E-02  0.0000000000000E+00  0.6942967985093E-03
 0.3890457192956E-03 -0.3673508718352E-02  0.0000000000000E+00  0.8398379953459E-03
 0.4438070231109E-03 -0.3704786051229E-02  0.0000000000000E+00  0.9626878176507E-03
 0.4910335038872E-03 -0.3730147684053E-02  0.0000000000000E+00  0.1065895970464E-02
 0.5299873970319E-03 -0.3748923854435E-02  0.0000000000000E+00  0.1152668677129E-02
 0.5601626084986E-03 -0.3760591573806E-02  0.0000000000000E+00  0.1226187469261E-02
 0.5812992163611E-03 -0.3764776875106E-02  0.0000000000000E+00  0.1289482217652E-02
 0.5933821768814E-03 -0.3761244338287E-02  0.0000000000000E+00  0.1345352430263E-02
 0.5966310488178E-03 -0.3749880104190E-02  0.0000000000000E+00  0.1396327193630E-02
 0.5914878470107E-03 -0.3730674707069E-02  0.0000000000000E+00  0.1444652493074E-02
 0.5786091510307E-03 -0.3703711077734E-02  0.0000000000000E+00  0.1492295084774E-02
 0.5588668925152E-03 -0.3669161475579E-02  0.0000000000000E+00  0.1540953634103E-02
 0.5333602094591E-03 -0.3627295325532E-02  0.0000000000000E+00  0.1592069538197E-02
 0.5034401603122E-03 -0.3578500253875E-02  0.0000000000000E+00  0.1646829901979E-02
 0.4707450931996E-03 -0.3523313498193E-02  0.0000000000000E+00  0.1706160749988E-02
 0.4372465825603E-03 -0.3462465110222E-02  0.0000000000000E+00  0.1770705505941E-02
 0.4053031331812E-03 -0.3396931661859E-02  0.0000000000000E+00  0.1840785082975E-02
 0.3777156493930E-03 -0.3327994402823E-02  0.0000000000000E+00  0.1916343656137E-02
 0.3577810025247E-03 -0.3257301406493E-02  0.0000000000000E+00  0.1996876485569E-02
 0.3493347909948E-03 -0.3186921163615E-02  0.0000000000000E+00  0.2081348097539E-02
 0.3567730648714E-03 -0.3119364187805E-02  0.0000000000000E+00  0.2168116888655E-02
 0.3850476730767E-03 -0.3057617219947E-02  0.0000000000000E+00  0.2254823363508E-02
 0.4396160931858E-03 -0.3005186214490E-02  0.0000000000000E+00  0.2338256096925E-02
 0.5263219869144E-03 -0.2966074980835E-02  0.0000000000000E+00  0.2414238305531E-02
 0.6511931463233E-03 -0.2944679353951E-02  0.0000000000000E+00  0.2477566220156E-02
 0.8201461908762E-03 -0.2945594467389E-02  0.0000000000000E+00  0.2522023307861E-02
 0.1038589958626E-02 -0.2973333387148E-02  0.0000000000000E+00  0.2540491588421E-02
 0.1310925151071E-02 -0.3031956671667E-02  0.0000000000000E+00  0.2525178325597E-02
 0.1639952779417E-02 -0.3124620475048E-02  0.0000000000000E+00  0.2467966453061E-02
 0.2026255964239E-02 -0.3253091254610E-02  0.0000000000000E+00  0.2360877861051E-02
 0.2467656454474E-02 -0.3417287393106E-02  0.0000000000000E+00  0.2196614191654E-02
 0.2958766607549E-02 -0.3614868519077E-02  0.0000000000000E+00  0.1969059461875E-02
 0.3490716246974E-02 -0.3840970934854E-02  0.0000000000000E+00  0.1673634004905E-02
 0.4051237346069E-02 -0.4088234278840E-02  0.0000000000000E+00  0.1307453126597E-02
 0.4625154963505E-02 -0.4347154228199E-02  0.0000000000000E+00  0.8692647711162E-03
 0.5195279036920E-02 -0.4606761336414E-02  0.0000000000000E+00  0.3591994287793E-03
 0.5743505406617E-02 -0.4855502576037E-02  0.0000000000000E+00 -0.2215190834753E-03
 0.4094877115496E-04 -0.3618824620027E-02  0.0000000000000E+00 -0.1266102100594E-03
 0.1220572994496E-03 -0.3669337143370E-02  0.0000000000000E+00  0.1276974748139E-03
 0.2012310407268E-03 -0.3718303037873E-02  0.0000000000000E+00  0.3530479932126E-03
 0.2770856589557E-03 -0.3764644611926E-02  0.0000000000000E+00  0.5492920549657E-03
 0.3482547493301E-03 -0.3807288853329E-02  0.0000000000000E+00  0.7174856679447E-03
 0.4134392494753E-03 -0.3845203548944E-02  0.0000000000000E+00  0.8596550163954E-03
 0.4714697920178E-03 -0.3877442682238E-02  0.0000000000000E+00  0.9785176358635E-03
 0.5213668760758E-03 -0.3903188241928E-02  0.0000000000000E+00  0.1077205812900E-02
 0.5623858180049E-03 -0.3921778109121E-02  0.0000000000000E+00  0.1159021889437E-02
 0.5940410846335E-03 -0.3932716093229E-02  0.0000000000000E+00  0.1227244218465E-02
 0.6161110673062E-03 -0.3935665649040E-02  0.0000000000000E+00  0.1284989777913E-02
 0.6286284847827E-03 -0.3930432312910E-02  0.0000000000000E+00  0.1335129453971E-02
 0.6318638092187E-03 -0.3916941498585E-02  0.0000000000000E+00  0.1380246812064E-02
 0.6263089409668E-03 -0.3895218019409E-02  0.0000000000000E+00  0.1422628507224E-02
 0.6126670974938E-03 -0.3865372502378E-02  0.0000000000000E+00  0.1464274428727E-02
 0.5918530487105E-03 -0.3827598161973E-02  0.0000000000000E+00  0.1506917112026E-02
 0.5650057504638E-03 -0.3782179597117E-02  0.0000000000000E+00  0.1552041805975E-02
 0.5335149065768E-03 -0.3729515757909E-02  0.0000000000000E+00  0.1600899058299E-02
 0.4990588792579E-03 -0.3670153811987E-02  0.0000000000000E+00  0.1654506947265E-02
 0.4636537243128E-03 -0.3604835370729E-02  0.0000000000000E+00  0.1713637793740E-02
 0.4297103182976E-03 -0.3534553653190E-02  0.0000000000000E+00  0.1778785197031E-02
 0.4000932926096E-03 -0.3460615164179E-02  0.0000000000000E+00  0.1850114441961E-02
 0.3781779885441E-03 -0.3384705533892E-02  0.0000000000000E+00  0.1927392175654E-02
 0.3678963587617E-03 -0.3308947612923E-02  0.0000000000000E+00  0.2009902021676E-02
 0.3737617040086E-03 -0.3235930914668E-02  0.0000000000000E+00  0.2096359605367E-02
 0.4008655941296E-03 -0.3168748420889E-02  0.0000000000000E+00  0.2184786016788E-02
 0.4548269762586E-03 -0.3111034166635E-02  0.0000000000000E+00  0.2272354807342E-02
 0.5416698610416E-03 -0.3066937502126E-02  0.0000000000000E+00  0.2355249051341E-02
 0.6676148415730E-03 -0.3041013320837E-02  0.0000000000000E+00  0.2428556580283E-02
 0.8387724330431E-03 -0.3038022722806E-02  0.0000000000000E+00  0.2486227649410E-02
 0.1060729716300E-02 -0.3062640302534E-02  0.0000000000000E+00  0.2521119420447E-02
 0.1338028785118E-02 -0.3119067398542E-02  0.0000000000000E+00  0.2525152360450E-02
 0.1673552398712E-02 -0.3210561028484E-02  0.0000000000000E+00  0.2489598339797E-02
 0.2067884230634E-02 -0.3338927185533E-02  0.0000000000000E+00  0.2405504986364E-02
 0.2518751591408E-02 -0.3504046841506E-02  0.0000000000000E+00  0.2264238908277E-02
 0.3020581681567E-02 -0.3703468844320E-02  0.0000000000000E+00  0.2058054053445E-02
 0.3564250360246E-02 -0.3932163140304E-02  0.0000000000000E+00  0.1780589055414E-02
 0.4137200538638E-02 -0.4182572559122E-02  0.0000000000000E+00  0.1427239212130E-02
 0.4723972676477E-02 -0.4444996236635E-02  0.0000000000000E+00  0.9953472670369E-03
 0.5307135324347E-02 -0.4708299945607E-02  0.0000000000000E+00  0.4842011674359E-03
 0.5868422936545E-02 -0.4960831515172E-02  0.0000000000000E+00 -0.1050471156437E-03
 0.4326814321518E-04 -0.3779121443417E-02  0.0000000000000E+00 -0.9513023929251E-04
 0.1291573322898E-03 -0.3832501527223E-02  0.0000000000000E+00  0.1584841349385E-03
 0.2132021802577E-03 -0.3884238710505E-02  0.0000000000000E+00  0.3823433222181E-03
 0.2937921019087E-03 -0.3933086547721E-02  0.0000000000000E+00  0.5762990524711E-03
 0.3693691719607E-03 -0.3977833464335E-02  0.0000000000000E+00  0.7414305230117E-03
 0.4384894443933E-03 -0.4017347855173E-02  0.0000000000000E+00  0.8798183857492E-03
 0.4998892863387E-03 -0.4050625677735E-02  0.0000000000000E+00  0.9942645845140E-03
 0.5525425642283E-03 -0.4076828593798E-02  0.0000000000000E+00  0.1088006297095E-02
 0.5956977244447E-03 -0.4095304239154E-02  0.0000000000000E+00  0.1164457844124E-02
 0.6288918688770E-03 -0.4105586896939E-02  0.0000000000000E+00  0.1227003574352E-02
 0.6519450552099E-03 -0.4107381970613E-02  0.0000000000000E+00  0.1278850836539E-02
 0.6649414981594E-03 -0.4100540534129E-02  0.0000000000000E+00  0.1322940566769E-02
 0.6682058654167E-03 -0.4085031207086E-02  0.0000000000000E+00  0.1361906369583E-02
 0.6622821262381E-03 -0.4060915841340E-02  0.0000000000000E+00  0.1398069414932E-02
 0.6479207870436E-03 -0.4028334003636E-02  0.0000000000000E+00  0.1433456045856E-02
 0.6260783304904E-03 -0.3987499393468E-02  0.0000000000000E+00  0.1469826415871E-02
 0.5979305283252E-03 -0.3938709495924E-02  0.0000000000000E+00  0.1508704534107E-02
 0.5649008534927E-03 -0.3882370419669E-02  0.0000000000000E+00  0.1551401025231E-02
 0.5287010133875E-03 -0.3819033190751E-02  0.0000000000000E+00  0.1599024807581E-02
 0.4913832392455E-03 -0.3749442991450E-02  0.0000000000000E+00  0.1652478374713E-02
 0.4554010829388E-03 -0.3674599806008E-02  0.0000000000000E+00  0.1712432050196E-02
 0.4236721897724E-03 -0.3595823727516E-02  0.0000000000000E+00  0.1779279229359E-02
 0.3996391895807E-03 -0.3514824724940E-02  0.0000000000000E+00  0.1853068041653E-02
 0.3873195345788E-03 -0.3433765715605E-02  0.0000000000000E+00  0.1933414321308E-02
 0.3913343488791E-03 -0.3355300788978E-02  0.0000000000000E+00  0.2019406365497E-02
 0.4169082139755E-03 -0.3282615718372E-02  0.0000000000000E+00  0.2109462970454E-02
 0.4698191038215E-03 -0.3219461233462E-02  0.0000000000000E+00  0.2201161136552E-02
 0.5562752604660E-03 -0.3170124458420E-02  0.0000000000000E+00  0.2291062480447E-02
 0.6827027706292E-03 -0.3139317340266E-02  0.0000000000000E+00  0.2374562918014E-02
 0.8554300941876E-03 -0.3131973206644E-02  0.0000000000000E+00  0.2445790182455E-02
 0.1080259941753E-02 -0.3152945062374E-02  0.0000000000000E+00  0.2497577244817E-02
 0.1361927062323E-02 -0.3206603950829E-02  0.0000000000000E+00  0.2521544581970E-02
 0.1703459133962E-02 -0.3296348227817E-02  0.0000000000000E+00  0.2508323896956E-02
 0.2105510214578E-02 -0.3424072058510E-02  0.0000000000000E+00  0.2447944861051E-02
 0.2565780497669E-02 -0.3589669028341E-02  0.0000000000000E+00  0.2330385935717E-02
 0.3078563594685E-02 -0.3790618706101E-02  0.0000000000000E+00  0.2146216716346E-02
 0.3634502407540E-02 -0.4021746113051E-02  0.0000000000000E+00  0.1887248469629E-02
 0.4220729237718E-02 -0.4275288805401E-02  0.0000000000000E+00  0.1547127853499E-02
 0.4821430611520E-02 -0.4541306589798E-02  0.0000000000000E+00  0.1121785848925E-02
 0.5418819930697E-02 -0.4808425756297E-02  0.0000000000000E+00  0.6096850080561E-03
 0.5994322990832E-02 -0.5064796259722E-02  0.0000000000000E+00  0.1194256814857E-04
 0.4565718056727E-04 -0.3939512355765E-02  0.0000000000000E+00 -0.6193910996704E-04
 0.1364668842775E-03 -0.3995848252341E-02  0.0000000000000E+00  0.1909154964275E-03
 0.2255229395315E-03 -0.4050446086445E-02  0.0000000000000E+00  0.4130985563154E-03
 0.3109855219133E-03 -0.4101889081542E-02  0.0000000000000E+00  0.6044793072918E-03
 0.3911001835944E-03 -0.4148824373383E-02  0.0000000000000E+00  0.7661853369044E-03
 0.4642729877375E-03 -0.4190018558882E-02  0.0000000000000E+00  0.9003809305542E-03
 0.5291424272427E-03 -0.4224408673878E-02  0.0000000000000E+00  0.1009980769248E-02
 0.5846345286331E-03 -0.4251137257534E-02  0.0000000000000E+00  0.1098350687467E-02
 0.6299921634444E-03 -0.4269564933697E-02  0.0000000000000E+00  0.1169034079878E-02
 0.6647783253353E-03 -0.4279261146200E-02  0.0000000000000E+00  0.1225531198866E-02
 0.6888590637654E-03 -0.4279978564217E-02  0.0000000000000E+00  0.1271143164580E-02
 0.7023745219116E-03 -0.4271618913474E-02  0.0000000000000E+00  0.1308879226525E-02
 0.7057072692677E-03 -0.4254198243244E-02  0.0000000000000E+00  0.1341417763464E-02
 0.6994557102449E-03 -0.4227818293539E-02  0.0000000000000E+00  0.1371107203468E-02
 0.6844182796564E-03 -0.4192648751687E-02  0.0000000000000E+00  0.1399992396650E-02
 0.6615918865831E-03 -0.4148923157898E-02  0.0000000000000E+00  0.1429853497886E-02
 0.6321858431740E-03 -0.4096949339419E-02  0.0000000000000E+00  0.1462246751489E-02
 0.5976521543766E-03 -0.4037136076652E-02  0.0000000000000E+00  0.1498537992751E-02
 0.5597287714479E-03 -0.3970031801402E-02  0.0000000000000E+00  0.1539924193567E-02
 0.5204952995576E-03 -0.3896376835525E-02  0.0000000000000E+00  0.1587437653033E-02
 0.4824377148207E-03 -0.3817167535141E-02  0.0000000000000E+00  0.1641927771302E-02
 0.4485153528643E-03 -0.3733725326325E-02  0.0000000000000E+00  0.1704021391645E-02
 0.4222262914470E-03 -0.3647770627543E-02  0.0000000000000E+00  0.1774056698324E-02
 0.4076619391568E-03 -0.3561491382828E-02  0.0000000000000E+00  0.1851993654166E-02
 0.4095411415835E-03 -0.3477591048721E-02  0.0000000000000E+00  0.1937308065535E-02
 0.4332141864491E-03 -0.3399333972045E-02  0.0000000000000E+00  0.2028833829772E-02
 0.4846152121545E-03 -0.3330575513086E-02  0.0000000000000E+00  0.2124571351431E-02
 0.5701404869026E-03 -0.3275732346125E-02  0.0000000000000E+00  0.2221482565026E-02
 0.6964347289243E-03 -0.3239671418313E-02  0.0000000000000E+00  0.2315293036815E-02
 0.8700695675372E-03 -0.3227505111487E-02  0.0000000000000E+00  0.2400325931574E-02
 0.1097102746663E-02 -0.3244283050215E-02  0.0000000000000E+00  0.2469399903378E-02
 0.1382515712310E-02 -0.3294576990592E-02  0.0000000000000E+00  0.2513832480790E-02
 0.1729547425225E-02 -0.3381969693446E-02  0.0000000000000E+00  0.2523595606296E-02
 0.2138995162137E-02 -0.3508494739477E-02  0.0000000000000E+00  0.2487663600679E-02
 0.2608601396207E-02 -0.3674110341211E-02  0.0000000000000E+00  0.2394573954093E-02
 0.3132578215133E-02 -0.3876269096548E-02  0.0000000000000E+00  0.2233149543151E-02
 0.3701355213689E-02 -0.4109671895562E-02  0.0000000000000E+00  0.1993311605538E-02
 0.4301729494488E-02 -0.4366340553748E-02  0.0000000000000E+00  0.1666905950256E-02
 0.4917460005274E-02 -0.4636049609899E-02  0.0000000000000E+00  0.1248419701612E-02
 0.5530286355495E-02 -0.4907107271823E-02  0.0000000000000E+00  0.7354845599486E-03
 0.6121174611335E-02 -0.5167363467179E-02  0.0000000000000E+00  0.1292043597627E-03
 0.4812608461459E-04 -0.4100042162085E-02  0.0000000000000E+00 -0.2697963843101E-04
 0.1440161760249E-03 -0.4159434048607E-02  0.0000000000000E+00  0.2250495000529E-03
 0.2382416661049E-03 -0.4216991894382E-02  0.0000000000000E+00  0.4453717710253E-03
 0.3287286390667E-03 -0.4271125713566E-02  0.0000000000000E+00  0.6338894439056E-03
 0.4135199980580E-03 -0.4320337963040E-02  0.0000000000000E+00  0.7918038034961E-03
 0.4908664765660E-03 -0.4363291112778E-02  0.0000000000000E+00  0.9213929766131E-03
 0.5593056507433E-03 -0.4398863086973E-02  0.0000000000000E+00  0.1025714278326E-02
 0.6177156040302E-03 -0.4426179600593E-02  0.0000000000000E+00  0.1108287557365E-02
 0.6653362598086E-03 -0.4444618711346E-02  0.0000000000000E+00  0.1172803581043E-02
 0.7017610522694E-03 -0.4453790821343E-02  0.0000000000000E+00  0.1222889003076E-02
 0.7269074245602E-03 -0.4453502057989E-02  0.0000000000000E+00  0.1261942059697E-02
 0.7409766615648E-03 -0.4443710506149E-02  0.0000000000000E+00  0.1293037976970E-02
 0.7444134201397E-03 -0.4424484195279E-02  0.0000000000000E+00  0.1318893655286E-02
 0.7378731224525E-03 -0.4395967712829E-02  0.0000000000000E+00  0.1341876299504E-02
 0.7222027801595E-03 -0.4358361998445E-02  0.0000000000000E+00  0.1364039967447E-02
 0.6984382981308E-03 -0.4311919631877E-02  0.0000000000000E+00  0.1387175776079E-02
 0.6678189984814E-03 -0.4256956009942E-02  0.0000000000000E+00  0.1412864203824E-02
 0.6318198438049E-03 -0.4193877817224E-02  0.0000000000000E+00  0.1442519892143E-02
 0.5921975236411E-03 -0.4123224111313E-02  0.0000000000000E+00  0.1477423465551E-02
 0.5510497491420E-03 -0.4045721542796E-02  0.0000000000000E+00  0.1518734967263E-02
 0.5108841384650E-03 -0.3962352001030E-02  0.0000000000000E+00  0.1567483475211E-02
 0.4746897919490E-03 -0.3874425460666E-02  0.0000000000000E+00  0.1624532874426E-02
 0.4460077160325E-03 -0.3783658268608E-02  0.0000000000000E+00  0.1690518361099E-02
 0.4289909809640E-03 -0.3692247610906E-02  0.0000000000000E+00  0.1765754653803E-02
 0.4284452547985E-03 -0.3602930263325E-02  0.0000000000000E+00  0.1850119220293E-02
 0.4498384321567E-03 -0.3519034030896E-02  0.0000000000000E+00  0.1942878692534E-02
 0.4992572458529E-03 -0.3444505938479E-02  0.0000000000000E+00  0.2042478363662E-02
 0.5832893126786E-03 -0.3383883193523E-02  0.0000000000000E+00  0.2146305527475E-02
 0.7088111007803E-03 -0.3342185192976E-02  0.0000000000000E+00  0.2250442393268E-02
 0.8826633192804E-03 -0.3324710236661E-02  0.0000000000000E+00  0.2349433298286E-02
 0.1111199754887E-02 -0.3336723577445E-02  0.0000000000000E+00  0.2436102312638E-02
 0.1399705194296E-02 -0.3383030377318E-02  0.0000000000000E+00  0.2501471948672E-02
 0.1751699672299E-02 -0.3467443359259E-02  0.0000000000000E+00  0.2534844768572E-02
 0.2168200308913E-02 -0.3592189710245E-02  0.0000000000000E+00  0.2524108720127E-02
 0.2647064684179E-02 -0.3757347102683E-02  0.0000000000000E+00  0.2456307354074E-02
 0.3182477644376E-02 -0.3960385468629E-02  0.0000000000000E+00  0.2318445494178E-02
 0.3764675406264E-02 -0.4195902925074E-02  0.0000000000000E+00  0.2098473543505E-02
 0.4380093267578E-02 -0.4455693856588E-02  0.0000000000000E+00  0.1786359456857E-02
 0.5011984755323E-02 -0.4729198575721E-02  0.0000000000000E+00  0.1375087735573E-02
 0.5641491420396E-02 -0.5004324286649E-02  0.0000000000000E+00  0.8614305121270E-03
 0.6248963077119E-02 -0.5268514348310E-02  0.0000000000000E+00  0.2464844262135E-03
 0.5068500274548E-04 -0.4260755636652E-02  0.0000000000000E+00  0.9812925884274E-05
 0.1518354051972E-03 -0.4323315541992E-02  0.0000000000000E+00  0.2609507400586E-03
 0.2514069067362E-03 -0.4383942704220E-02  0.0000000000000E+00  0.4792257381106E-03
 0.3470845980202E-03 -0.4440869622026E-02  0.0000000000000E+00  0.6645881519797E-03
 0.4367013028557E-03 -0.4492449911838E-02  0.0000000000000E+00  0.8183389036379E-03
 0.5183467412527E-03 -0.4537239611653E-02  0.0000000000000E+00  0.9429017283249E-03
 0.5904550755372E-03 -0.4574058070390E-02  0.0000000000000E+00  0.1041508412748E-02
 0.6518575090033E-03 -0.4602017651998E-02  0.0000000000000E+00  0.1117859937661E-02
 0.7017950869947E-03 -0.4620519616295E-02  0.0000000000000E+00  0.1175813922244E-02
 0.7398976487955E-03 -0.4629222339292E-02  0.0000000000000E+00  0.1219134355438E-02
 0.7661406168211E-03 -0.4627992558192E-02  0.0000000000000E+00  0.1251319665666E-02
 0.7807924888720E-03 -0.4616851070162E-02  0.0000000000000E+00  0.1275507905632E-02
 0.7843647212563E-03 -0.4595922788271E-02  0.0000000000000E+00  0.1294447080304E-02
 0.7775725781987E-03 -0.4565398227164E-02  0.0000000000000E+00  0.1310513337666E-02
 0.7613123198837E-03 -0.4525510669026E-02  0.0000000000000E+00  0.1325759209148E-02
 0.7366572846319E-03 -0.4476530789427E-02  0.0000000000000E+00  0.1341976263539E-02
 0.7048730364138E-03 -0.4418778580983E-02  0.0000000000000E+00  0.1360759706947E-02
 0.6674516082773E-03 -0.4352653627114E-02  0.0000000000000E+00  0.1383565020456E-02
 0.6261605487794E-03 -0.4278678561406E-02  0.0000000000000E+00  0.1411750436336E-02
 0.5831059733281E-03 -0.4197557240994E-02  0.0000000000000E+00  0.1446599942946E-02
 0.5408058566668E-03 -0.4110245876592E-02  0.0000000000000E+00  0.1489321082815E-02
 0.5022665492979E-03 -0.4018029743949E-02  0.0000000000000E+00  0.1541016545702E-02
 0.4710587731594E-03 -0.3922606011515E-02  0.0000000000000E+00  0.1602623769292E-02
 0.4513841529404E-03 -0.3826164585334E-02  0.0000000000000E+00  0.1674821432461E-02
 0.4481233583044E-03 -0.3731458621649E-02  0.0000000000000E+00  0.1757901995580E-02
 0.4668527907016E-03 -0.3641863237943E-02  0.0000000000000E+00  0.1851582583916E-02
 0.5138071930217E-03 -0.3561403017792E-02  0.0000000000000E+00  0.1954776341046E-02
 0.5957679666300E-03 -0.3494725530490E-02  0.0000000000000E+00  0.2065324291725E-02
 0.7198559250646E-03 -0.3446999090961E-02  0.0000000000000E+00  0.2179697947503E-02
 0.8932069221261E-03 -0.3423714247670E-02  0.0000000000000E+00  0.2292696804187E-02
 0.1122512961638E-02 -0.3430371123767E-02  0.0000000000000E+00  0.2397180610212E-02
 0.1413421235923E-02 -0.3472042250619E-02  0.0000000000000E+00  0.2483896481798E-02
 0.1769806343759E-02 -0.3552818275461E-02  0.0000000000000E+00  0.2541478706488E-02
 0.2192986527701E-02 -0.3675177523386E-02  0.0000000000000E+00  0.2556704682004E-02
 0.2681012190304E-02 -0.3839375687561E-02  0.0000000000000E+00  0.2515070883547E-02
 0.3228099254090E-02 -0.4042947605640E-02  0.0000000000000E+00  0.2401683130677E-02
 0.3824312474397E-02 -0.4280411811009E-02  0.0000000000000E+00  0.2202420807033E-02
 0.4455697781867E-02 -0.4543323175365E-02  0.0000000000000E+00  0.1905270603677E-02
 0.5104921330381E-02 -0.4820735952289E-02  0.0000000000000E+00  0.1501627356395E-02
 0.5752395815278E-02 -0.5100068577695E-02  0.0000000000000E+00  0.9873506303200E-03
 0.6377690922868E-02 -0.5368245736902E-02  0.0000000000000E+00  0.3635210581545E-03
 0.5334412857735E-04 -0.4421697751205E-02  0.0000000000000E+00  0.4851086186731E-04
 0.1599550392665E-03 -0.4487549589570E-02  0.0000000000000E+00  0.2986904230555E-03
 0.2650678491038E-03 -0.4551365322584E-02  0.0000000000000E+00  0.5147277943849E-03
 0.3661174733002E-03 -0.4611194046137E-02  0.0000000000000E+00  0.6966358805801E-03
 0.4607177295628E-03 -0.4665235488515E-02  0.0000000000000E+00  0.8458423791475E-03
 0.5467911987344E-03 -0.4711936942133E-02  0.0000000000000E+00  0.9649505329743E-03
 0.6226666919040E-03 -0.4750060497084E-02  0.0000000000000E+00  0.1057400801016E-02
 0.6871308619543E-03 -0.4778709927680E-02  0.0000000000000E+00  0.1127104368781E-02
 0.7394315318278E-03 -0.4797316919339E-02  0.0000000000000E+00  0.1178106344681E-02
 0.7792424664999E-03 -0.4805596172441E-02  0.0000000000000E+00  0.1214319250505E-02
 0.8066049474693E-03 -0.4803483225868E-02  0.0000000000000E+00  0.1239344275494E-02
 0.8218616862276E-03 -0.4791068631198E-02  0.0000000000000E+00  0.1256378100225E-02
 0.8255962146101E-03 -0.4768539455887E-02  0.0000000000000E+00  0.1268191061897E-02
 0.8185867202465E-03 -0.4736135342170E-02  0.0000000000000E+00  0.1277156934455E-02
 0.8017794131284E-03 -0.4694122963461E-02  0.0000000000000E+00  0.1285314477771E-02
 0.7762833788062E-03 -0.4642790015260E-02  0.0000000000000E+00  0.1294443694852E-02
 0.7433864328596E-03 -0.4582457937831E-02  0.0000000000000E+00  0.1306143493415E-02
 0.7045915040285E-03 -0.4513514015308E-02  0.0000000000000E+00  0.1321900656965E-02
 0.6616687803944E-03 -0.4436457199386E-02  0.0000000000000E+00  0.1343143320714E-02
 0.6167226832940E-03 -0.4351959194298E-02  0.0000000000000E+00  0.1371273847775E-02
 0.5722697890201E-03 -0.4260939026461E-02  0.0000000000000E+00  0.1407675157657E-02
 0.5313206146703E-03 -0.4164643636946E-02  0.0000000000000E+00  0.1453688583663E-02
 0.4974616824595E-03 -0.4064735378650E-02  0.0000000000000E+00  0.1510557175541E-02
 0.4749291970113E-03 -0.3963379635007E-02  0.0000000000000E+00  0.1579331185291E-02
 0.4686659650822E-03 -0.3863328068278E-02  0.0000000000000E+00  0.1660730381076E-02
 0.4843465837634E-03 -0.3767985800974E-02  0.0000000000000E+00  0.1754940068571E-02
 0.5283478870082E-03 -0.3681439484916E-02  0.0000000000000E+00  0.1861365522756E-02
 0.6076461689675E-03 -0.3608435344398E-02  0.0000000000000E+00  0.1978333144124E-02
 0.7296181161048E-03 -0.3554285579441E-02  0.0000000000000E+00  0.2102742197113E-02
 0.9017203631534E-03 -0.3524678165910E-02  0.0000000000000E+00  0.2229689953331E-02
 0.1131025977510E-02 -0.3525366953182E-02  0.0000000000000E+00  0.2352113321118E-02
 0.1423605829224E-02 -0.3561726616786E-02  0.0000000000000E+00  0.2460516285635E-02
 0.1783766545908E-02 -0.3638175994690E-02  0.0000000000000E+00  0.2542877760787E-02
 0.2213214350738E-02 -0.3757505845716E-02  0.0000000000000E+00  0.2584848172390E-02
 0.2710276643867E-02 -0.3920213157582E-02  0.0000000000000E+00  0.2570324022944E-02
 0.3269264741146E-02 -0.4123949890627E-02  0.0000000000000E+00  0.2482421153824E-02
 0.3880097686817E-02 -0.4363181397189E-02  0.0000000000000E+00  0.2304827036994E-02
 0.4528404666225E-02 -0.4629211474743E-02  0.0000000000000E+00  0.2023415266970E-02
 0.5196178455193E-02 -0.4910653759549E-02  0.0000000000000E+00  0.1627873565519E-02
 0.5862964499095E-02 -0.5194344682744E-02  0.0000000000000E+00  0.1113070135157E-02
 0.6507379010246E-02 -0.5466571254068E-02  0.0000000000000E+00  0.4800453345207E-03
 0.5611380797442E-04 -0.4582913942167E-02  0.0000000000000E+00  0.8919401164228E-04
 0.1684061282554E-03 -0.4652193659138E-02  0.0000000000000E+00  0.3383463769710E-03
 0.2792747987633E-03 -0.4719327236647E-02  0.0000000000000E+00  0.5519497119232E-03
 0.3858928191422E-03 -0.4782172714500E-02  0.0000000000000E+00  0.7300944750341E-03
 0.4856443675630E-03 -0.4838769880533E-02  0.0000000000000E+00  0.8743640998080E-03
 0.5762782377660E-03 -0.4887454948860E-02  0.0000000000000E+00  0.9875780116637E-03
 0.6560165651934E-03 -0.4926934938510E-02  0.0000000000000E+00  0.1073422381334E-02
 0.7236051935301E-03 -0.4956311234736E-02  0.0000000000000E+00  0.1136049842545E-02
 0.7783061410893E-03 -0.4975054786020E-02  0.0000000000000E+00  0.1179714755678E-02
 0.8198463338325E-03 -0.4982946429323E-02  0.0000000000000E+00  0.1208489434905E-02
 0.8483422000106E-03 -0.4979999815033E-02  0.0000000000000E+00  0.1226079619076E-02
 0.8642186593253E-03 -0.4966383011454E-02  0.0000000000000E+00  0.1235735106864E-02
 0.8681371846071E-03 -0.4942350878490E-02  0.0000000000000E+00  0.1240238235371E-02
 0.8609422285624E-03 -0.4908195494263E-02  0.0000000000000E+00  0.1241947471520E-02
 0.8436306788662E-03 -0.4864217921468E-02  0.0000000000000E+00  0.1242873979958E-02
 0.8173455603857E-03 -0.4810721673035E-02  0.0000000000000E+00  0.1244772651552E-02
 0.7833927414598E-03 -0.4748026340217E-02  0.0000000000000E+00  0.1249233553223E-02
 0.7432796104822E-03 -0.4676501564222E-02  0.0000000000000E+00  0.1257763671828E-02
 0.6987704722234E-03 -0.4596615215217E-02  0.0000000000000E+00  0.1271851679715E-02
 0.6519576015935E-03 -0.4508997328569E-02  0.0000000000000E+00  0.1293010949976E-02
 0.6053439927216E-03 -0.4414518035131E-02  0.0000000000000E+00  0.1322794761638E-02
 0.5619307056041E-03 -0.4314372002756E-02  0.0000000000000E+00  0.1362780908391E-02
 0.5253054477234E-03 -0.4210170669882E-02  0.0000000000000E+00  0.1414519414091E-02
 0.4997241176480E-03 -0.4104036964968E-02  0.0000000000000E+00  0.1479437918725E-02
 0.4901776376640E-03 -0.3998702214608E-02  0.0000000000000E+00  0.1558694541256E-02
 0.5024270703990E-03 -0.3897582955348E-02  0.0000000000000E+00  0.1652960098303E-02
 0.5429837586415E-03 -0.3804810787984E-02  0.0000000000000E+00  0.1762157322420E-02
 0.6190182040797E-03 -0.3725216954494E-02  0.0000000000000E+00  0.1885132716025E-02
 0.7381728361059E-03 -0.3664250452915E-02  0.0000000000000E+00  0.2019257532498E-02
 0.9082496306444E-03 -0.3627800039273E-02  0.0000000000000E+00  0.2159978367029E-02
 0.1136745669329E-02 -0.3621891067499E-02  0.0000000000000E+00  0.2300362691513E-02
 0.1430218698421E-02 -0.3652235410496E-02  0.0000000000000E+00  0.2430717393728E-02
 0.1793489061396E-02 -0.3723632516685E-02  0.0000000000000E+00  0.2538392124810E-02
 0.2228744361974E-02 -0.3839251062185E-02  0.0000000000000E+00  0.2607903061413E-02
 0.2734681328095E-02 -0.3999898374430E-02  0.0000000000000E+00  0.2621494963231E-02
 0.3305779145619E-02 -0.4203401919522E-02  0.0000000000000E+00  0.2560192571989E-02
 0.3931842786667E-02 -0.4444205032126E-02  0.0000000000000E+00  0.2405348429168E-02
 0.4598058767912E-02 -0.4713350424029E-02  0.0000000000000E+00  0.2140560300404E-02
 0.5285656467178E-02 -0.4998953981011E-02  0.0000000000000E+00  0.1753658195855E-02
 0.5973166861958E-02 -0.5287170681261E-02  0.0000000000000E+00  0.1238412286920E-02
 0.6638067566344E-02 -0.5563522480937E-02  0.0000000000000E+00  0.5957819507398E-03
 0.5900465369540E-04 -0.4744450423085E-02  0.0000000000000E+00  0.1319498921371E-03
 0.1772206452361E-03 -0.4817306262282E-02  0.0000000000000E+00  0.3800031123445E-03
 0.2940797022379E-03 -0.4887897115673E-02  0.0000000000000E+00  0.5909675671762E-03
 0.4064782743315E-03 -0.4953880326172E-02  0.0000000000000E+00  0.7650267470032E-03
 0.5115583279370E-03 -0.5013128559530E-02  0.0000000000000E+00  0.9039513079636E-03
 0.6068876376948E-03 -0.5063864614720E-02  0.0000000000000E+00  0.1010817038990E-02
 0.6905810505477E-03 -0.5104743633681E-02  0.0000000000000E+00  0.1089596235095E-02
 0.7613489491489E-03 -0.5134872446654E-02  0.0000000000000E+00  0.1144716622563E-02
 0.8184769428629E-03 -0.5153771904501E-02  0.0000000000000E+00  0.1180664646179E-02
 0.8617562471834E-03 -0.5161300391756E-02  0.0000000000000E+00  0.1201683490333E-02
 0.8913892481358E-03 -0.5157560169855E-02  0.0000000000000E+00  0.1211584138093E-02
 0.9078921160898E-03 -0.5142805322481E-02  0.0000000000000E+00  0.1213662393454E-02
 0.9120107302606E-03 -0.5117364489667E-02  0.0000000000000E+00  0.1210700483050E-02
 0.9046593993260E-03 -0.5081585573649E-02  0.0000000000000E+00  0.1205026887395E-02
 0.8868864292337E-03 -0.5035804954053E-02  0.0000000000000E+00  0.1198609718749E-02
 0.8598668503555E-03 -0.4980340632203E-02  0.0000000000000E+00  0.1193163677791E-02
 0.8249201877027E-03 -0.4915506929993E-02  0.0000000000000E+00  0.1190255955618E-02
 0.7835516195875E-03 -0.4841650406207E-02  0.0000000000000E+00  0.1191401109819E-02
 0.7375107821757E-03 -0.4759200379572E-02  0.0000000000000E+00  0.1198137338819E-02
 0.6888670464414E-03 -0.4668735632315E-02  0.0000000000000E+00  0.1212079856132E-02
 0.6400972614493E-03 -0.4571065580856E-02  0.0000000000000E+00  0.1234945304196E-02
 0.5941789062455E-03 -0.4467318476802E-02  0.0000000000000E+00  0.1268543631900E-02
 0.5546855746237E-03 -0.4359038367786E-02  0.0000000000000E+00  0.1314731025515E-02
 0.5258770326384E-03 -0.4248287154764E-02  0.0000000000000E+00  0.1375316288301E-02
 0.5127770405683E-03 -0.4137756008116E-02  0.0000000000000E+00  0.1451905343431E-02
 0.5212197793055E-03 -0.4030852899346E-02  0.0000000000000E+00  0.1545671115534E-02
 0.5578415249374E-03 -0.3931735395345E-02  0.0000000000000E+00  0.1657079767822E-02
 0.6300040218891E-03 -0.3845303786586E-02  0.0000000000000E+00  0.1785535370904E-02
 0.7456230185773E-03 -0.3777134143770E-02  0.0000000000000E+00  0.1928931030836E-02
 0.9128685922936E-03 -0.3733316793947E-02  0.0000000000000E+00  0.2083123334169E-02
 0.1139704225214E-02 -0.3720164513200E-02  0.0000000000000E+00  0.2241376339167E-02
 0.1433239280349E-02 -0.3743761063930E-02  0.0000000000000E+00  0.2393860925873E-02
 0.1798893904879E-02 -0.3809340836409E-02  0.0000000000000E+00  0.2527338586271E-02
 0.2239438001932E-02 -0.3920520488951E-02  0.0000000000000E+00  0.2625195038943E-02
 0.2754039942821E-02 -0.4078493631898E-02  0.0000000000000E+00  0.2667974102647E-02
 0.3337429830625E-02 -0.4281329480875E-02  0.0000000000000E+00  0.2634498371589E-02
 0.3979338438252E-02 -0.4523487049920E-02  0.0000000000000E+00  0.2503618812312E-02
 0.4664486610100E-02 -0.4795740696479E-02  0.0000000000000E+00  0.2256460726513E-02
 0.5373246320885E-02 -0.5085649005947E-02  0.0000000000000E+00  0.1878809195265E-02
 0.6082976642294E-02 -0.5378578979938E-02  0.0000000000000E+00  0.1363199108344E-02
 0.6769817198796E-02 -0.5659150156278E-02  0.0000000000000E+00  0.7104501890542E-03
 0.6202767159998E-04 -0.4906354550076E-02  0.0000000000000E+00  0.1768738892577E-03
 0.1864318632288E-03 -0.4982947452714E-02  0.0000000000000E+00  0.4237519399521E-03
 0.3095367286861E-03 -0.5057145383760E-02  0.0000000000000E+00  0.6318616062467E-03
 0.4279442342611E-03 -0.5126393096225E-02  0.0000000000000E+00  0.8014959661727E-03
 0.5385393656748E-03 -0.5188387691333E-02  0.0000000000000E+00  0.9346477222067E-03
 0.6387010230517E-03 -0.5241236257894E-02  0.0000000000000E+00  0.1034693550984E-02
 0.7264370159197E-03 -0.5283546447797E-02  0.0000000000000E+00  0.1105936254494E-02
 0.8004294757431E-03 -0.5314440248330E-02  0.0000000000000E+00  0.1153114932615E-02
 0.8599992364895E-03 -0.5333501074025E-02  0.0000000000000E+00  0.1180971922731E-02
 0.9050150243026E-03 -0.5340678013122E-02  0.0000000000000E+00  0.1193931875436E-02
 0.9357776325517E-03 -0.5336173689913E-02  0.0000000000000E+00  0.1195910252551E-02
 0.9529046133604E-03 -0.5320337435295E-02  0.0000000000000E+00  0.1190239822164E-02
 0.9572333098726E-03 -0.5293577967852E-02  0.0000000000000E+00  0.1179688581739E-02
 0.9497516987941E-03 -0.5256302436270E-02  0.0000000000000E+00  0.1166538474332E-02
 0.9315602313439E-03 -0.5208883362616E-02  0.0000000000000E+00  0.1152697431001E-02
 0.9038638724362E-03 -0.5151651774997E-02  0.0000000000000E+00  0.1139823371947E-02
 0.8679912195963E-03 -0.5084913205680E-02  0.0000000000000E+00  0.1129445131995E-02
 0.8254383668446E-03 -0.5008985648088E-02  0.0000000000000E+00  0.1123070723493E-02
 0.7779312794698E-03 -0.4924252406394E-02  0.0000000000000E+00  0.1122275249092E-02
 0.7275054178600E-03 -0.4831231453410E-02  0.0000000000000E+00  0.1128764792529E-02
 0.6765986032459E-03 -0.4730659673582E-02  0.0000000000000E+00  0.1144410345131E-02
 0.6281501627690E-03 -0.4623584667547E-02  0.0000000000000E+00  0.1171247484572E-02
 0.5857036262262E-03 -0.4511466341655E-02  0.0000000000000E+00  0.1211435396875E-02
 0.5535058512425E-03 -0.4396286429854E-02  0.0000000000000E+00  0.1267165510642E-02
 0.5365968246634E-03 -0.4280675162005E-02  0.0000000000000E+00  0.1340499040150E-02
 0.5408687003822E-03 -0.4168010499191E-02  0.0000000000000E+00  0.1433126410771E-02
 0.5730707953475E-03 -0.4062454912559E-02  0.0000000000000E+00  0.1546083305561E-02
 0.6407503515621E-03 -0.3968959041451E-02  0.0000000000000E+00  0.1679371062074E-02
 0.7521010348645E-03 -0.3893213055275E-02  0.0000000000000E+00  0.1831459794969E-02
 0.9156811714864E-03 -0.3841506278359E-02  0.0000000000000E+00  0.1998685916672E-02
 0.1139961670191E-02 -0.3820452071585E-02  0.0000000000000E+00  0.2174589373835E-02
 0.1432669264262E-02 -0.3836539635940E-02  0.0000000000000E+00  0.2349282620199E-02
 0.1799914456666E-02 -0.3895494168535E-02  0.0000000000000E+00  0.2508997255002E-02
 0.2245158846043E-02 -0.4001455278210E-02  0.0000000000000E+00  0.2636005921720E-02
 0.2768156718821E-02 -0.4156086882725E-02  0.0000000000000E+00  0.2709106978009E-02
 0.3363985435005E-02 -0.4357775955475E-02  0.0000000000000E+00  0.2704800563920E-02
 0.4022352409100E-02 -0.4601043490358E-02  0.0000000000000E+00  0.2599244248154E-02
 0.4727494470331E-02 -0.4876392384125E-02  0.0000000000000E+00  0.2370856707458E-02
 0.5458828234713E-02 -0.5170762128726E-02  0.0000000000000E+00  0.2003149903963E-02
 0.6192371612397E-02 -0.5468617133616E-02  0.0000000000000E+00  0.1487252209731E-02
 0.6902709915871E-02 -0.5753525432538E-02  0.0000000000000E+00  0.8237650492458E-03
 0.6519440156734E-04 -0.5068675249211E-02  0.0000000000000E+00  0.2240695434499E-03
 0.1960747782769E-03 -0.5149179402035E-02  0.0000000000000E+00  0.4696911497160E-03
 0.3257029241205E-03 -0.5227144876412E-02  0.0000000000000E+00  0.6747161018842E-03
 0.4503646035807E-03 -0.5299789375005E-02  0.0000000000000E+00  0.8395652576684E-03
 0.5666705683831E-03 -0.5364624593139E-02  0.0000000000000E+00  0.9664924761242E-03
 0.6718023548057E-03 -0.5419639741216E-02  0.0000000000000E+00  0.1059225156083E-02
 0.7636620678223E-03 -0.5463400810827E-02  0.0000000000000E+00  0.1122445624499E-02
 0.8409129836165E-03 -0.5495056839480E-02  0.0000000000000E+00  0.1161243502474E-02
 0.9029253417280E-03 -0.5514268743981E-02  0.0000000000000E+00  0.1180641652642E-02
 0.9496609127509E-03 -0.5521091371284E-02  0.0000000000000E+00  0.1185255931904E-02
 0.9815330969489E-03 -0.5515840761197E-02  0.0000000000000E+00  0.1179103627147E-02
 0.9992720704795E-03 -0.5498971429211E-02  0.0000000000000E+00  0.1165543138700E-02
 0.1003814259953E-02 -0.5470978717311E-02  0.0000000000000E+00  0.1147311867280E-02
 0.9962252954852E-03 -0.5432332410794E-02  0.0000000000000E+00  0.1126626680537E-02
 0.9776584467484E-03 -0.5383441852455E-02  0.0000000000000E+00  0.1105316511659E-02
 0.9493463862958E-03 -0.5324649490612E-02  0.0000000000000E+00  0.1084964444091E-02
 0.9126220190500E-03 -0.5256248470626E-02  0.0000000000000E+00  0.1067044104647E-02
 0.8689653073823E-03 -0.5178522749758E-02  0.0000000000000E+00  0.1053041435635E-02
 0.8200693771466E-03 -0.5091802244499E-02  0.0000000000000E+00  0.1044554266437E-02
 0.7679245862559E-03 -0.4996534694961E-02  0.0000000000000E+00  0.1043366800955E-02
 0.7149165956861E-03 -0.4893372758089E-02  0.0000000000000E+00  0.1051493318487E-02
 0.6639316304875E-03 -0.4783269185894E-02  0.0000000000000E+00  0.1071186183426E-02
 0.6184666071611E-03 -0.4667582843827E-02  0.0000000000000E+00  0.1104901883537E-02
 0.5827377653812E-03 -0.4548195693802E-02  0.0000000000000E+00  0.1155213321293E-02
 0.5617833232901E-03 -0.4427655326053E-02  0.0000000000000E+00  0.1224642089882E-02
 0.5615363100283E-03 -0.4309286737347E-02  0.0000000000000E+00  0.1315409739233E-02
 0.5888445666657E-03 -0.4197233978079E-02  0.0000000000000E+00  0.1429147007235E-02
 0.6514317997201E-03 -0.4096476222271E-02  0.0000000000000E+00  0.1566493738034E-02
 0.7577704838401E-03 -0.4012800886516E-02  0.0000000000000E+00  0.1726556958751E-02
 0.9168238181542E-03 -0.3952689482216E-02  0.0000000000000E+00  0.1906231769972E-02
 0.1137608853186E-02 -0.3923065338645E-02  0.0000000000000E+00  0.2099427164782E-02
 0.1428535739407E-02 -0.3930854538396E-02  0.0000000000000E+00  0.2296292797226E-02
 0.1796500244121E-02 -0.3982329915402E-02  0.0000000000000E+00  0.2482608370478E-02
 0.2245774429449E-02 -0.4082234099414E-02  0.0000000000000E+00  0.2639567625380E-02
 0.2776826833710E-02 -0.4232794639188E-02  0.0000000000000E+00  0.2744186519771E-02
 0.3385194804540E-02 -0.4432804186649E-02  0.0000000000000E+00  0.2770514434863E-02
 0.4060627451413E-02 -0.4676903075376E-02  0.0000000000000E+00  0.2691796987638E-02
 0.4786866031672E-02 -0.4955325531023E-02  0.0000000000000E+00  0.2483470180391E-02
 0.5542269948990E-02 -0.5254328115523E-02  0.0000000000000E+00  0.2126498247294E-02
 0.6301333012231E-02 -0.5557348717330E-02  0.0000000000000E+00  0.1610393642903E-02
 0.7036850134194E-02 -0.5846741189920E-02  0.0000000000000E+00  0.9354385163969E-03
 0.6851707660841E-04 -0.5231463515695E-02  0.0000000000000E+00  0.2736489382252E-03
 0.2061865897797E-03 -0.5316067061905E-02  0.0000000000000E+00  0.5179262554173E-03
 0.3426389534019E-03 -0.5397971586647E-02  0.0000000000000E+00  0.7196191940314E-03
 0.4738176429153E-03 -0.5474150338289E-02  0.0000000000000E+00  0.8792968817594E-03
 0.5960391173248E-03 -0.5541918222893E-02  0.0000000000000E+00  0.9995188591493E-03
 0.7062784540324E-03 -0.5599144666169E-02  0.0000000000000E+00  0.1084419516275E-02
 0.8023347667908E-03 -0.5644361598432E-02  0.0000000000000E+00  0.1139115095255E-02
 0.8828644652794E-03 -0.5676759553176E-02  0.0000000000000E+00  0.1169087960510E-02
 0.9473042877847E-03 -0.5696094458568E-02  0.0000000000000E+00  0.1179666724544E-02
 0.9957271356221E-03 -0.5702544031752E-02  0.0000000000000E+00  0.1175666866344E-02
 0.1028675068113E-02 -0.5696552109742E-02  0.0000000000000E+00  0.1161202453996E-02
 0.1047003237471E-02 -0.5678688977005E-02  0.0000000000000E+00  0.1139643496072E-02
 0.1051755277943E-02 -0.5649543295709E-02  0.0000000000000E+00  0.1113677932684E-02
 0.1044078561119E-02 -0.5609650756249E-02  0.0000000000000E+00  0.1085436931942E-02
 0.1025179738945E-02 -0.5559457993757E-02  0.0000000000000E+00  0.1056649936503E-02
 0.9963167821866E-03 -0.5499317106405E-02  0.0000000000000E+00  0.1028805748866E-02
 0.9588219625117E-03 -0.5429505200892E-02  0.0000000000000E+00  0.1003304669400E-02
 0.9141519241965E-03 -0.5350266798997E-02  0.0000000000000E+00  0.9815937381208E-03
 0.8639576753883E-03 -0.5261871236203E-02  0.0000000000000E+00  0.9652778558085E-03
 0.8101731668708E-03 -0.5164686843796E-02  0.0000000000000E+00  0.9562048561262E-03
 0.7551185992801E-03 -0.5059270610746E-02  0.0000000000000E+00  0.9565191858479E-03
 0.7016118503556E-03 -0.4946466425771E-02  0.0000000000000E+00  0.9686787531157E-03
 0.6530861499145E-03 -0.4827515213771E-02  0.0000000000000E+00  0.9954289286849E-03
 0.6137085220398E-03 -0.4704179228250E-02  0.0000000000000E+00  0.1039720003806E-02
 0.5884960224217E-03 -0.4578900896059E-02  0.0000000000000E+00  0.1104536157428E-02
 0.5834033869422E-03 -0.4454927791517E-02  0.0000000000000E+00  0.1192641263090E-02
 0.6053595601868E-03 -0.4336359816524E-02  0.0000000000000E+00  0.1306285279121E-02
 0.6622518887777E-03 -0.4228179396006E-02  0.0000000000000E+00  0.1446788442726E-02
 0.7628280709666E-03 -0.4136249828683E-02  0.0000000000000E+00  0.1613958556098E-02
 0.9164682622979E-03 -0.4067232827053E-02  0.0000000000000E+00  0.1805336919133E-02
 0.1132770926640E-02 -0.4028366122689E-02  0.0000000000000E+00  0.2015309015197E-02
 0.1420895010662E-02 -0.4027040831357E-02  0.0000000000000E+00  0.2234176990111E-02
 0.1788620463742E-02 -0.4070134396141E-02  0.0000000000000E+00  0.2447369339186E-02
 0.2241158719831E-02 -0.4163077646480E-02  0.0000000000000E+00  0.2635055814123E-02
 0.2779837200895E-02 -0.4308765597881E-02  0.0000000000000E+00  0.2772444489670E-02
 0.3400785907265E-02 -0.4506498837424E-02  0.0000000000000E+00  0.2830999747993E-02
 0.4093878816954E-02 -0.4751108410904E-02  0.0000000000000E+00  0.2780808519847E-02
 0.4842359505874E-02 -0.5032570730936E-02  0.0000000000000E+00  0.2594000952150E-02
 0.5623424495110E-02 -0.5336393793387E-02  0.0000000000000E+00  0.2248665671952E-02
 0.6409844624349E-02 -0.5644854200375E-02  0.0000000000000E+00  0.1732446610949E-02
 0.7172365518002E-02 -0.5938913347681E-02  0.0000000000000E+00  0.1045180793534E-02
 0.7200880733593E-04 -0.5394773000186E-02  0.0000000000000E+00  0.3257331948553E-03
 0.2168072536093E-03 -0.5483678940888E-02  0.0000000000000E+00  0.5685703092784E-03
 0.3604099529617E-03 -0.5569705536287E-02  0.0000000000000E+00  0.7666627016382E-03
 0.4983869322727E-03 -0.5649560785903E-02  0.0000000000000E+00  0.9207513665602E-03
 0.6267371370210E-03 -0.5720349736125E-02  0.0000000000000E+00  0.1033752819715E-02
 0.7422195655677E-03 -0.5779820584510E-02  0.0000000000000E+00  0.1110272459802E-02
 0.8425348338568E-03 -0.5826480989680E-02  0.0000000000000E+00  0.1155921016861E-02
 0.9263475711197E-03 -0.5859580430696E-02  0.0000000000000E+00  0.1176619058986E-02
 0.9931814453475E-03 -0.5878990259361E-02  0.0000000000000E+00  0.1178026421549E-02
 0.1043241383931E-02 -0.5885030386765E-02  0.0000000000000E+00  0.1165164710335E-02
 0.1077216096785E-02 -0.5878288157102E-02  0.0000000000000E+00  0.1142236752761E-02
 0.1096099141058E-02 -0.5859460757963E-02  0.0000000000000E+00  0.1112607007279E-02
 0.1101049897315E-02 -0.5829236890399E-02  0.0000000000000E+00  0.1078892344233E-02
 0.1093301572769E-02 -0.5788221181380E-02  0.0000000000000E+00  0.1043115446093E-02
 0.1074114584027E-02 -0.5736897748746E-02  0.0000000000000E+00  0.1006884143314E-02
 0.1044769573764E-02 -0.5675626381473E-02  0.0000000000000E+00  0.9715722406750E-03
 0.1006593068549E-02 -0.5604664464243E-02  0.0000000000000E+00  0.9384874657471E-03
 0.9610111065522E-03 -0.5524211819326E-02  0.0000000000000E+00  0.9090199471510E-03
 0.9096232533079E-03 -0.5434470284632E-02  0.0000000000000E+00  0.8847646261615E-03
 0.8542957165621E-03 -0.5335719977215E-02  0.0000000000000E+00  0.8676167957987E-03
 0.7972698631115E-03 -0.5228411178212E-02  0.0000000000000E+00  0.8598358951047E-03
 0.7412797846363E-03 -0.5113265245003E-02  0.0000000000000E+00  0.8640716612981E-03
 0.6896775264746E-03 -0.4991388437103E-02  0.0000000000000E+00  0.8833470298445E-03
 0.6465614909230E-03 -0.4864403202623E-02  0.0000000000000E+00  0.9209823319397E-03
 0.6169068071521E-03 -0.4734623594915E-02  0.0000000000000E+00  0.9804231367886E-03
 0.6066686074198E-03 -0.4605193865289E-02  0.0000000000000E+00  0.1064983675555E-02
 0.6228363774560E-03 -0.4480141556844E-02  0.0000000000000E+00  0.1177554961877E-02
 0.6734440034164E-03 -0.4364423284131E-02  0.0000000000000E+00  0.1320179046486E-02
 0.7675055457451E-03 -0.4263951723114E-02  0.0000000000000E+00  0.1493431255557E-02
 0.9148245346179E-03 -0.4185550626522E-02  0.0000000000000E+00  0.1695594565544E-02
 0.1125611335701E-02 -0.4136770283123E-02  0.0000000000000E+00  0.1921652880275E-02
 0.1409837145514E-02 -0.4125490252542E-02  0.0000000000000E+00  0.2162197403703E-02
 0.1776268355014E-02 -0.4159248552084E-02  0.0000000000000E+00  0.2402432132324E-02
 0.2231195377823E-02 -0.4244254224189E-02  0.0000000000000E+00  0.2621583265465E-02
 0.2776967759746E-02 -0.4384185244908E-02  0.0000000000000E+00  0.2793042018870E-02
 0.3410464809263E-02 -0.4578969449147E-02  0.0000000000000E+00  0.2885550747910E-02
 0.4121791429077E-02 -0.4823717569000E-02  0.0000000000000E+00  0.2865761609947E-02
 0.4893704260335E-02 -0.5108169922834E-02  0.0000000000000E+00  0.2702122294612E-02
 0.5702127590521E-02 -0.5417018830458E-02  0.0000000000000E+00  0.2369455960389E-02
 0.6517891647809E-02 -0.5731232012355E-02  0.0000000000000E+00  0.1853236107893E-02
 0.7309407874840E-02 -0.6030182338634E-02  0.0000000000000E+00  0.1152701667214E-02
 0.7568379184452E-04 -0.5558660696350E-02  0.0000000000000E+00  0.3804531102446E-03
 0.2279801214756E-03 -0.5652088005380E-02  0.0000000000000E+00  0.6217443009101E-03
 0.3790865121187E-03 -0.5742431773408E-02  0.0000000000000E+00  0.8159419003007E-03
 0.5241624649381E-03 -0.5826110033158E-02  0.0000000000000E+00  0.9639864642770E-03
 0.6588626341572E-03 -0.5900003072678E-02  0.0000000000000E+00  0.1069211189218E-02
 0.7797199466670E-03 -0.5961737168352E-02  0.0000000000000E+00  0.1136765788631E-02
 0.8843433204934E-03 -0.6009808226031E-02  0.0000000000000E+00  0.1172823117723E-02
 0.9714244079539E-03 -0.6043545667729E-02  0.0000000000000E+00  0.1183790735925E-02
 0.1040598066983E-02 -0.6062959956892E-02  0.0000000000000E+00  0.1175684930661E-02
 0.1092225223787E-02 -0.6068534880269E-02  0.0000000000000E+00  0.1153737295405E-02
 0.1127161231111E-02 -0.6061018286704E-02  0.0000000000000E+00  0.1122227731153E-02
 0.1146552483361E-02 -0.6041245805527E-02  0.0000000000000E+00  0.1084494371367E-02
 0.1151682931468E-02 -0.6010012746080E-02  0.0000000000000E+00  0.1043058419194E-02
 0.1143875592745E-02 -0.5967995322681E-02  0.0000000000000E+00  0.9998090806150E-03
 0.1124444759968E-02 -0.5915714955089E-02  0.0000000000000E+00  0.9562089135467E-03
 0.1094690862844E-02 -0.5853536945176E-02  0.0000000000000E+00  0.9134948941398E-03
 0.1055929404004E-02 -0.5781695264946E-02  0.0000000000000E+00  0.8728619795995E-03
 0.1009548467884E-02 -0.5700339977626E-02  0.0000000000000E+00  0.8356243632603E-03
 0.9570868761529E-03 -0.5609598888372E-02  0.0000000000000E+00  0.8033487487070E-03
 0.9003318173000E-03 -0.5509655598459E-02  0.0000000000000E+00  0.7779601208585E-03
 0.8414324841043E-03 -0.5400843199965E-02  0.0000000000000E+00  0.7618157070890E-03
 0.7830236692641E-03 -0.5283747378937E-02  0.0000000000000E+00  0.7577408364269E-03
 0.7283584376241E-03 -0.5159323381211E-02  0.0000000000000E+00  0.7690216276001E-03
 0.6814464726686E-03 -0.5029033802500E-02  0.0000000000000E+00  0.7993375103472E-03
 0.6471989211422E-03 -0.4895040619438E-02  0.0000000000000E+00  0.8525902979682E-03
 0.6315478472832E-03 -0.4760357548147E-02  0.0000000000000E+00  0.9326486338083E-03
 0.6415193936548E-03 -0.4628909077142E-02  0.0000000000000E+00  0.1043062985581E-02
 0.6852721615462E-03 -0.4505592932927E-02  0.0000000000000E+00  0.1186636825964E-02
 0.7720716222427E-03 -0.4396338930427E-02  0.0000000000000E+00  0.1364781243317E-02
 0.9121442043532E-03 -0.4308107483342E-02  0.0000000000000E+00  0.1576623272151E-02
 0.1116336312888E-02 -0.4248751819927E-02  0.0000000000000E+00  0.1817881519571E-02
 0.1395491310257E-02 -0.4226656858686E-02  0.0000000000000E+00  0.2079595581146E-02
 0.1759466545658E-02 -0.4250074588549E-02  0.0000000000000E+00  0.2346901324350E-02
 0.2215781956349E-02 -0.4326086445003E-02  0.0000000000000E+00  0.2598193034367E-02
 0.2767993385625E-02 -0.4459281496739E-02  0.0000000000000E+00  0.2805059073071E-02
 0.3413914719616E-02 -0.4650354209325E-02  0.0000000000000E+00  0.2933384573590E-02
 0.4144016577434E-02 -0.4894805964127E-02  0.0000000000000E+00  0.2946080887551E-02
 0.4940596736243E-02 -0.5182177242091E-02  0.0000000000000E+00  0.2807475732658E-02
 0.5778194461986E-02 -0.5496276594776E-02  0.0000000000000E+00  0.2488663708187E-02
 0.6625459172031E-02 -0.5816599707033E-02  0.0000000000000E+00  0.1972589173524E-02
 0.7448153686603E-02 -0.6120714566724E-02  0.0000000000000E+00  0.1257711660884E-02
 0.7955756598037E-04 -0.5723187750626E-02  0.0000000000000E+00  0.4379499271391E-03
 0.2397526911569E-03 -0.5821372734766E-02  0.0000000000000E+00  0.6775776339287E-03
 0.3987458170133E-03 -0.5916241528114E-02  0.0000000000000E+00  0.8675552287026E-03
 0.5512419018040E-03 -0.6003892919777E-02  0.0000000000000E+00  0.1009055865842E-02
 0.6925205421258E-03 -0.6080965584657E-02  0.0000000000000E+00  0.1105899547961E-02
 0.8188784809938E-03 -0.6144964338076E-02  0.0000000000000E+00  0.1163864709149E-02
 0.9278427313579E-03 -0.6194389266191E-02  0.0000000000000E+00  0.1189761976854E-02
 0.1018155246813E-02 -0.6228674930316E-02  0.0000000000000E+00  0.1190537989060E-02
 0.1089590726102E-02 -0.6247998279662E-02  0.0000000000000E+00  0.1172589782881E-02
 0.1142693415988E-02 -0.6253031139615E-02  0.0000000000000E+00  0.1141359246144E-02
 0.1178507328227E-02 -0.6244700053624E-02  0.0000000000000E+00  0.1101187208531E-02
 0.1198347005310E-02 -0.6223990831634E-02  0.0000000000000E+00  0.1055360568864E-02
 0.1203629902895E-02 -0.6191811592851E-02  0.0000000000000E+00  0.1006277051444E-02
 0.1195772545330E-02 -0.6148912235048E-02  0.0000000000000E+00  0.9556651920623E-03
 0.1176142834952E-02 -0.6095850823094E-02  0.0000000000000E+00  0.9048172201227E-03
 0.1146057796948E-02 -0.6032995740917E-02  0.0000000000000E+00  0.8548105459368E-03
 0.1106816469530E-02 -0.5960553877064E-02  0.0000000000000E+00  0.8067064257736E-03
 0.1059761623672E-02 -0.5878620756336E-02  0.0000000000000E+00  0.7617232744554E-03
 0.1006362137815E-02 -0.5787244110208E-02  0.0000000000000E+00  0.7213801878846E-03
 0.9483150652284E-03 -0.5686503369130E-02  0.0000000000000E+00  0.6876125853696E-03
 0.8876642368339E-03 -0.5576604683401E-02  0.0000000000000E+00  0.6628563000121E-03
 0.8269296963256E-03 -0.5457985654354E-02  0.0000000000000E+00  0.6500934675666E-03
 0.7692475874251E-03 -0.5331434771074E-02  0.0000000000000E+00  0.6528558066188E-03
 0.7185182461237E-03 -0.5198235032456E-02  0.0000000000000E+00  0.6751669977839E-03
 0.6795656250027E-03 -0.5060372396187E-02  0.0000000000000E+00  0.7213754429439E-03
 0.6582731610207E-03 -0.4920701730681E-02  0.0000000000000E+00  0.7959033999228E-03
 0.6616763431779E-03 -0.4783011381054E-02  0.0000000000000E+00  0.9029745124398E-03
 0.6980315522767E-03 -0.4652102947817E-02  0.0000000000000E+00  0.1046189883397E-02
 0.7768338245223E-03 -0.4533884882570E-02  0.0000000000000E+00  0.1227864329291E-02
 0.9087237958686E-03 -0.4435420600052E-02  0.0000000000000E+00  0.1448076703817E-02
 0.1105199887228E-02 -0.4364847224430E-02  0.0000000000000E+00  0.1703430356835E-02
 0.1378031979208E-02 -0.4331063355691E-02  0.0000000000000E+00  0.1985596603906E-02
 0.1738273539063E-02 -0.4343083720579E-02  0.0000000000000E+00  0.2279833062169E-02
 0.2194835275218E-02 -0.4408959291440E-02  0.0000000000000E+00  0.2563851552332E-02
 0.2752686654127E-02 -0.4534331670492E-02  0.0000000000000E+00  0.2807482730711E-02
 0.3410795240508E-02 -0.4720824669481E-02  0.0000000000000E+00  0.2973627738968E-02
 0.4160168122292E-02 -0.4964468636640E-02  0.0000000000000E+00  0.3021121621669E-02
 0.4982695586751E-02 -0.5254659958039E-02  0.0000000000000E+00  0.2909664912676E-02
 0.5851416151461E-02 -0.5574255192774E-02  0.0000000000000E+00  0.2606072561836E-02
 0.6732530361607E-02 -0.5901095393189E-02  0.0000000000000E+00  0.2090334679090E-02
 0.7588804343774E-02 -0.6210703954937E-02  0.0000000000000E+00  0.1359922781383E-02
 0.8364729475325E-04 -0.5888420420983E-02  0.0000000000000E+00  0.4983762900911E-03
 0.2521774896310E-03 -0.5991618370464E-02  0.0000000000000E+00  0.7362087053428E-03
 0.4194729882181E-03 -0.6091233569003E-02  0.0000000000000E+00  0.9216039178879E-03
 0.5797320122616E-03 -0.6183010969552E-02  0.0000000000000E+00  0.1056007633967E-02
 0.7278238804781E-03 -0.6263328722770E-02  0.0000000000000E+00  0.1143809679817E-02
 0.8597993089591E-03 -0.6329572352106E-02  0.0000000000000E+00  0.1191514845885E-02
 0.9731170801211E-03 -0.6380266337623E-02  0.0000000000000E+00  0.1206656179690E-02
 0.1066598120001E-02 -0.6414980548915E-02  0.0000000000000E+00  0.1196774582470E-02
 0.1140190642376E-02 -0.6434089923599E-02  0.0000000000000E+00  0.1168670265657E-02
 0.1194653147335E-02 -0.6438481053759E-02  0.0000000000000E+00  0.1127991040523E-02
 0.1231242314426E-02 -0.6429278392775E-02  0.0000000000000E+00  0.1079117147688E-02
 0.1251456834099E-02 -0.6407629594649E-02  0.0000000000000E+00  0.1025254660842E-02
 0.1256856483067E-02 -0.6374561150374E-02  0.0000000000000E+00  0.9686466055775E-03
 0.1248954519547E-02 -0.6330897977150E-02  0.0000000000000E+00  0.9108315117686E-03
 0.1229171686059E-02 -0.6277233533628E-02  0.0000000000000E+00  0.8529050347546E-03
 0.1198838052043E-02 -0.6213936566153E-02  0.0000000000000E+00  0.7957616389675E-03
 0.1159230597363E-02 -0.6141183260812E-02  0.0000000000000E+00  0.7403074791614E-03
 0.1111639462118E-02 -0.6059010188149E-02  0.0000000000000E+00  0.6876447593081E-03
 0.1057454570911E-02 -0.5967379580859E-02  0.0000000000000E+00  0.6392246890761E-03
 0.9982719962205E-03 -0.5866259841855E-02  0.0000000000000E+00  0.5969725065202E-03
 0.9360173021547E-03 -0.5755721336132E-02  0.0000000000000E+00  0.5633815658149E-03
 0.8730805500639E-03 -0.5636042107668E-02  0.0000000000000E+00  0.5415694827753E-03
 0.8124630580700E-03 -0.5507829005396E-02  0.0000000000000E+00  0.5352926871912E-03
 0.7579348570908E-03 -0.5372166284874E-02  0.0000000000000E+00  0.5489000743068E-03
 0.7142085378453E-03 -0.5230840023048E-02  0.0000000000000E+00  0.5871719215294E-03
 0.6870913988861E-03 -0.5086517130123E-02  0.0000000000000E+00  0.6550775423308E-03
 0.6835975312601E-03 -0.4942814533228E-02  0.0000000000000E+00  0.7575214425496E-03
 0.7120487493448E-03 -0.4804396289595E-02  0.0000000000000E+00  0.8989333335107E-03
 0.7821401502400E-03 -0.4677104292143E-02  0.0000000000000E+00  0.1082597293188E-02
 0.9049082843123E-03 -0.4568061973459E-02  0.0000000000000E+00  0.1309655059687E-02
 0.1092509349235E-02 -0.4485660090649E-02  0.0000000000000E+00  0.1577757312824E-02
 0.1357686037286E-02 -0.4439308189517E-02  0.0000000000000E+00  0.1879415183522E-02
 0.1712791468029E-02 -0.4438825205295E-02  0.0000000000000E+00  0.2200235321424E-02
 0.2168298185918E-02 -0.4493329846426E-02  0.0000000000000E+00  0.2517441871539E-02
 0.2730821691743E-02 -0.4609671157711E-02  0.0000000000000E+00  0.2799194194927E-02
 0.3400741943188E-02 -0.4790591739546E-02  0.0000000000000E+00  0.3005300290525E-02
 0.4169818121136E-02 -0.5032823091486E-02  0.0000000000000E+00  0.3090156230601E-02
 0.5019615847174E-02 -0.5325699494970E-02  0.0000000000000E+00  0.3008248475641E-02
 0.5921555314266E-02 -0.5651058779204E-02  0.0000000000000E+00  0.2721453555320E-02
 0.6839084558669E-02 -0.5984879683323E-02  0.0000000000000E+00  0.2206302669478E-02
 0.7731585965278E-02 -0.6300373683169E-02  0.0000000000000E+00  0.1459048739639E-02
 0.8797212011592E-04 -0.6054431212564E-02  0.0000000000000E+00  0.5618973996965E-03
 0.2653131221062E-03 -0.6162918378989E-02  0.0000000000000E+00  0.7977855817777E-03
 0.4413626533342E-03 -0.6267515763665E-02  0.0000000000000E+00  0.9781914870362E-03
 0.6097503298511E-03 -0.6363573670168E-02  0.0000000000000E+00  0.1104882251965E-02
 0.7648950285398E-03 -0.6447188708477E-02  0.0000000000000E+00  0.1182916497791E-02
 0.9025924434680E-03 -0.6515631748883E-02  0.0000000000000E+00  0.1219638742104E-02
 0.1020251827493E-02 -0.6567477251668E-02  0.0000000000000E+00  0.1223399104963E-02
 0.1116808249933E-02 -0.6602466448063E-02  0.0000000000000E+00  0.1202390578331E-02
 0.1192422839079E-02 -0.6621208358403E-02  0.0000000000000E+00  0.1163835832357E-02
 0.1248103125826E-02 -0.6624833655284E-02  0.0000000000000E+00  0.1113578178497E-02
 0.1285344351965E-02 -0.6614684681254E-02  0.0000000000000E+00  0.1056009340316E-02
 0.1305845775697E-02 -0.6592082161198E-02  0.0000000000000E+00  0.9942197355689E-03
 0.1311317904006E-02 -0.6558175549384E-02  0.0000000000000E+00  0.9302629209425E-03
 0.1303373256695E-02 -0.6513865121263E-02  0.0000000000000E+00  0.8654560794092E-03
 0.1283484003476E-02 -0.6459777753740E-02  0.0000000000000E+00  0.8006711376015E-03
 0.1252989291527E-02 -0.6396279512264E-02  0.0000000000000E+00  0.7365959166457E-03
 0.1213138308237E-02 -0.6323512352182E-02  0.0000000000000E+00  0.6739599098511E-03
 0.1165161350670E-02 -0.6241449930079E-02  0.0000000000000E+00  0.6137283548423E-03
 0.1110360664133E-02 -0.6149964301538E-02  0.0000000000000E+00  0.5572635990541E-03
 0.1050220884822E-02 -0.6048906944281E-02  0.0000000000000E+00  0.5064588825515E-03
 0.9865368290326E-03 -0.5938204693809E-02  0.0000000000000E+00  0.4638421987697E-03
 0.9215537280240E-03 -0.5817965732441E-02  0.0000000000000E+00  0.4326428181989E-03
 0.8581204127854E-03 -0.5688601523319E-02  0.0000000000000E+00  0.4168176308066E-03
 0.7998555700662E-03 -0.5550979367464E-02  0.0000000000000E+00  0.4210172881878E-03
 0.7513355742892E-03 -0.5406662067680E-02  0.0000000000000E+00  0.4504336589521E-03
 0.7182623618247E-03 -0.5258099070805E-02  0.0000000000000E+00  0.5105698750226E-03
 0.7075945575569E-03 -0.5108698767812E-02  0.0000000000000E+00  0.6070115025216E-03
 0.7276814751515E-03 -0.4962942215577E-02  0.0000000000000E+00  0.7450405470746E-03
 0.7883804292933E-03 -0.4826552580208E-02  0.0000000000000E+00  0.9289708620953E-03
 0.9010945752987E-03 -0.4706660036745E-02  0.0000000000000E+00  0.1161118720818E-02
 0.1078631145708E-02 -0.4611865597634E-02  0.0000000000000E+00  0.1440355269274E-02
 0.1334740866211E-02 -0.4552073113461E-02  0.0000000000000E+00  0.1760264385718E-02
 0.1683175353497E-02 -0.4537936537761E-02  0.0000000000000E+00  0.2107070142041E-02
 0.2136148099304E-02 -0.4579738753977E-02  0.0000000000000E+00  0.2457757491558E-02
 0.2702179522870E-02 -0.4685704003866E-02  0.0000000000000E+00  0.2778954488984E-02
 0.3383366520901E-02 -0.4859913146337E-02  0.0000000000000E+00  0.3027296983738E-02
 0.4172491760034E-02 -0.5100012635184E-02  0.0000000000000E+00  0.3152357519756E-02
 0.5050921704753E-02 -0.5395392181805E-02  0.0000000000000E+00  0.3102731292749E-02
 0.5988341226131E-02 -0.5726808854581E-02  0.0000000000000E+00  0.2834563570769E-02
 0.6945095230164E-02 -0.6068138153743E-02  0.0000000000000E+00  0.2320322918975E-02
 0.7876748110258E-02 -0.6389977877099E-02  0.0000000000000E+00  0.1554803577595E-02
 0.9255358165185E-04 -0.6221300235649E-02  0.0000000000000E+00  0.6286923941671E-03
 0.2792255302002E-03 -0.6335376206854E-02  0.0000000000000E+00  0.8624667851113E-03
 0.4645208143058E-03 -0.6445206933715E-02  0.0000000000000E+00  0.1037423061108E-02
 0.6414270722976E-03 -0.6545699957565E-02  0.0000000000000E+00  0.1155710193074E-02
 0.8038671365408E-03 -0.6632647261670E-02  0.0000000000000E+00  0.1223174332562E-02
 0.9473743700719E-03 -0.6703213204933E-02  0.0000000000000E+00  0.1248131769521E-02
 0.1069333691673E-02 -0.6756054558765E-02  0.0000000000000E+00  0.1239855315239E-02
 0.1168837308402E-02 -0.6791126917469E-02  0.0000000000000E+00  0.1207249709946E-02
 0.1246305150157E-02 -0.6809314534258E-02  0.0000000000000E+00  0.1157974546337E-02
 0.1303032579314E-02 -0.6812023987257E-02  0.0000000000000E+00  0.1098050494508E-02
 0.1340780971071E-02 -0.6800835868595E-02  0.0000000000000E+00  0.1031845263534E-02
 0.1361466625308E-02 -0.6777254302457E-02  0.0000000000000E+00  0.9622929940593E-03
 0.1366958424460E-02 -0.6742554933336E-02  0.0000000000000E+00  0.8912193889600E-03
 0.1358969712594E-02 -0.6697712469812E-02  0.0000000000000E+00  0.8196871705059E-03
 0.1339021875515E-02 -0.6643384370395E-02  0.0000000000000E+00  0.7483168395797E-03
 0.1308458701234E-02 -0.6579930622572E-02  0.0000000000000E+00  0.6775659521790E-03
 0.1268495731195E-02 -0.6507455562059E-02  0.0000000000000E+00  0.6079659810690E-03
 0.1220296385749E-02 -0.6425866531258E-02  0.0000000000000E+00  0.5403244205217E-03
 0.1165066897278E-02 -0.6334941617855E-02  0.0000000000000E+00  0.4758933204079E-03
 0.1104170529054E-02 -0.6234410604715E-02  0.0000000000000E+00  0.4165110863704E-03
 0.1039259442350E-02 -0.6124050350548E-02  0.0000000000000E+00  0.3647158060680E-03
 0.9724197572575E-03 -0.6003790277644E-02  0.0000000000000E+00  0.3238221646121E-03
 0.9063306287820E-03 -0.5873834153037E-02  0.0000000000000E+00  0.2979598989158E-03
 0.8444385696723E-03 -0.5734815423540E-02  0.0000000000000E+00  0.2920533718869E-03
 0.7911585386509E-03 -0.5588051149267E-02  0.0000000000000E+00  0.3116797376196E-03
 0.7520565196963E-03 -0.5435743924936E-02  0.0000000000000E+00  0.3628551420898E-03
 0.7339985298785E-03 -0.5281055139108E-02  0.0000000000000E+00  0.4518374155412E-03
 0.7453178395249E-03 -0.5128233685170E-02  0.0000000000000E+00  0.5847749849143E-03
 0.7959872515204E-03 -0.4982824787295E-02  0.0000000000000E+00  0.7670639523162E-03
 0.8977348153409E-03 -0.4851900971791E-02  0.0000000000000E+00  0.1002303918987E-02
 0.1063997071165E-02 -0.4744215082218E-02  0.0000000000000E+00  0.1290767203171E-02
 0.1309553368348E-02 -0.4670131513057E-02  0.0000000000000E+00  0.1627367264579E-02
 0.1649643974968E-02 -0.4641155227914E-02  0.0000000000000E+00  0.1999258270579E-02
 0.2098407562858E-02 -0.4668824015134E-02  0.0000000000000E+00  0.2383497152156E-02
 0.2666555324629E-02 -0.4762916172162E-02  0.0000000000000E+00  0.2745388903397E-02
 0.3358257867000E-02 -0.4929103163142E-02  0.0000000000000E+00  0.3038364994345E-02
 0.4167661591286E-02 -0.5166210726498E-02  0.0000000000000E+00  0.3206777780011E-02
 0.5076117524874E-02 -0.5463849754752E-02  0.0000000000000E+00  0.3192553801389E-02
 0.6051464089332E-02 -0.5801645616413E-02  0.0000000000000E+00  0.2945145070749E-02
 0.7050528665545E-02 -0.6151084994215E-02  0.0000000000000E+00  0.2432223458061E-02
 0.8024561568064E-02 -0.6479803664008E-02  0.0000000000000E+00  0.1646898170496E-02
 0.9741611707446E-04 -0.6389116832381E-02  0.0000000000000E+00  0.6989560372974E-03
 0.2939895039776E-03 -0.6509107364749E-02  0.0000000000000E+00  0.9304222038448E-03
 0.4890670624185E-03 -0.6624439014104E-02  0.0000000000000E+00  0.1099404448787E-02
 0.6749073536699E-03 -0.6729519858933E-02  0.0000000000000E+00  0.1208508879063E-02
 0.8448856536007E-03 -0.6819812272603E-02  0.0000000000000E+00  0.1264512442900E-02
 0.9942685668465E-03 -0.6892387146049E-02  0.0000000000000E+00  0.1276857355882E-02
 0.1120450243753E-02 -0.6946024354663E-02  0.0000000000000E+00  0.1255856536299E-02
 0.1222732417884E-02 -0.6980945030775E-02  0.0000000000000E+00  0.1211186648255E-02
 0.1301847000010E-02 -0.6998355300130E-02  0.0000000000000E+00  0.1150951651489E-02
 0.1359420093983E-02 -0.6999971770070E-02  0.0000000000000E+00  0.1081321719279E-02
 0.1397508112754E-02 -0.6987633487467E-02  0.0000000000000E+00  0.1006596210633E-02
 0.1418260444834E-02 -0.6963036827872E-02  0.0000000000000E+00  0.9295060704909E-03
 0.1423710798470E-02 -0.6927585028366E-02  0.0000000000000E+00  0.8516071943685E-03
 0.1415673638142E-02 -0.6882324749095E-02  0.0000000000000E+00  0.7736733078466E-03
 0.1395716392459E-02 -0.6827940193802E-02  0.0000000000000E+00  0.6960457114941E-03
 0.1365182532408E-02 -0.6764781500559E-02  0.0000000000000E+00  0.6189286153122E-03
 0.1325248012269E-02 -0.6692912197382E-02  0.0000000000000E+00  0.5426347239859E-03
 0.1277002606032E-02 -0.6612170587558E-02  0.0000000000000E+00  0.4677933266195E-03
 0.1221548709289E-02 -0.6522238038861E-02  0.0000000000000E+00  0.3955245445596E-03
 0.1160118932245E-02 -0.6422719174236E-02  0.0000000000000E+00  0.3275882970106E-03
 0.1094211604381E-02 -0.6313235928090E-02  0.0000000000000E+00  0.2665067199785E-03
 0.1025740209954E-02 -0.6193531713990E-02  0.0000000000000E+00  0.2156513867230E-03
 0.9571977602559E-03 -0.6063592039637E-02  0.0000000000000E+00  0.1792939730514E-03
 0.8918383047024E-03 -0.5923801319431E-02  0.0000000000000E+00  0.1625998453104E-03
 0.8338902575295E-03 -0.5775209849747E-02  0.0000000000000E+00  0.1714987608761E-03
 0.7887521560537E-03 -0.5619744723925E-02  0.0000000000000E+00  0.2124906901719E-03
 0.7631576068794E-03 -0.5460281179430E-02  0.0000000000000E+00  0.2924864260541E-03
 0.7653748644273E-03 -0.5300783642222E-02  0.0000000000000E+00  0.4185029585950E-03
 0.8054362542230E-03 -0.5146553329029E-02  0.0000000000000E+00  0.5970596266413E-03
 0.8953393305589E-03 -0.5004529024523E-02  0.0000000000000E+00  0.8331410570392E-03
 0.1049110615457E-02 -0.4883540061294E-02  0.0000000000000E+00  0.1128604849901E-02
 0.1282559929744E-02 -0.4794356965032E-02  0.0000000000000E+00  0.1479972476771E-02
 0.1612492573661E-02 -0.4749331859595E-02  0.0000000000000E+00  0.1875687350996E-02
 0.2055157355305E-02 -0.4761337124620E-02  0.0000000000000E+00  0.2293261525697E-02
 0.2623768229777E-02 -0.4841891809208E-02  0.0000000000000E+00  0.2696970534168E-02
 0.3324984638568E-02 -0.4998545103617E-02  0.0000000000000E+00  0.3037077471482E-02
 0.4154741051775E-02 -0.5231626551142E-02  0.0000000000000E+00  0.3252321930797E-02
 0.5094636194937E-02 -0.5531198956817E-02  0.0000000000000E+00  0.3277077828021E-02
 0.6110567804249E-02 -0.5875728394225E-02  0.0000000000000E+00  0.3052927728136E-02
 0.7155343843334E-02 -0.6233967869499E-02  0.0000000000000E+00  0.2541829830160E-02
 0.8175313866422E-02 -0.6570173221297E-02  0.0000000000000E+00  0.1735032352702E-02
 0.1025876831651E-03 -0.6557981539835E-02  0.0000000000000E+00  0.7729007129132E-03
 0.3096905234711E-03 -0.6684241931313E-02  0.0000000000000E+00  0.1001834108539E-02
 0.5151372356639E-03 -0.6805359599172E-02  0.0000000000000E+00  0.1164240850511E-02
 0.7103537527998E-03 -0.6915176335044E-02  0.0000000000000E+00  0.1263278816234E-02
 0.8881099817600E-03 -0.7008798407841E-02  0.0000000000000E+00  0.1306829531925E-02
 0.1043405908237E-02 -0.7083223072250E-02  0.0000000000000E+00  0.1305641383381E-02
 0.1173689237538E-02 -0.7137404703316E-02  0.0000000000000E+00  0.1271197171407E-02
 0.1278534856875E-02 -0.7171890708244E-02  0.0000000000000E+00  0.1214004178583E-02
 0.1359047943448E-02 -0.7188261568836E-02  0.0000000000000E+00  0.1142608316080E-02
 0.1417232305149E-02 -0.7188579937503E-02  0.0000000000000E+00  0.1063289333148E-02
 0.1455469112854E-02 -0.7174962638073E-02  0.0000000000000E+00  0.9802237150594E-03
 0.1476155847898E-02 -0.7149304964284E-02  0.0000000000000E+00  0.8958855784068E-03
 0.1481495791392E-02 -0.7113136798443E-02  0.0000000000000E+00  0.8115156859616E-03
 0.1473403224790E-02 -0.7067572403255E-02  0.0000000000000E+00  0.7275633018801E-03
 0.1453487316258E-02 -0.7013317759081E-02  0.0000000000000E+00  0.6440632485659E-03
 0.1423085699998E-02 -0.6950709003096E-02  0.0000000000000E+00  0.5609443909323E-03
 0.1383328759953E-02 -0.6879765945929E-02  0.0000000000000E+00  0.4782809904647E-03
 0.1335226218124E-02 -0.6800255932042E-02  0.0000000000000E+00  0.3965043545912E-03
 0.1279769449494E-02 -0.6711762058308E-02  0.0000000000000E+00  0.3165811366369E-03
 0.1218051933686E-02 -0.6613761810981E-02  0.0000000000000E+00  0.2401685259667E-03
 0.1151407883259E-02 -0.6505718958296E-02  0.0000000000000E+00  0.1697453489975E-03
 0.1081565572155E-02 -0.6387185551121E-02  0.0000000000000E+00  0.1087094279362E-03
 0.1010816382326E-02 -0.6257920340616E-02  0.0000000000000E+00  0.6144031793487E-04
 0.9422025170958E-03 -0.6118045687601E-02  0.0000000000000E+00  0.3330705085910E-04
 0.8797412755093E-03 -0.5968326133599E-02  0.0000000000000E+00  0.3055270315355E-04
 0.8286319342230E-03 -0.5810386095318E-02  0.0000000000000E+00  0.6012279784348E-04
 0.7954338197760E-03 -0.5646775675823E-02  0.0000000000000E+00  0.1295498323055E-03
 0.7882961866054E-03 -0.5481120221011E-02  0.0000000000000E+00  0.2467069992202E-03
 0.8172455997711E-03 -0.5318404562883E-02  0.0000000000000E+00  0.4192625538596E-03
 0.8944789821001E-03 -0.5165345714688E-02  0.0000000000000E+00  0.6536756813058E-03
 0.1034553272988E-02 -0.5030755565209E-02  0.0000000000000E+00  0.9535712220207E-03
 0.1254287246825E-02 -0.4925731959447E-02  0.0000000000000E+00  0.1317374582117E-02
 0.1572107552248E-02 -0.4863444564075E-02  0.0000000000000E+00  0.1735224657246E-02
 0.2006552578282E-02 -0.4858162002192E-02  0.0000000000000E+00  0.2185552806261E-02
 0.2573674452837E-02 -0.4923333335607E-02  0.0000000000000E+00  0.2632003496224E-02
 0.3283100196002E-02 -0.5068707730512E-02  0.0000000000000E+00  0.3021802523170E-02
 0.4133077667603E-02 -0.5296512856815E-02  0.0000000000000E+00  0.3287712666669E-02
 0.5105823855374E-02 -0.5597579995561E-02  0.0000000000000E+00  0.3355566415498E-02
 0.6165240161221E-02 -0.5949233843916E-02  0.0000000000000E+00  0.3157633164863E-02
 0.7259495079157E-02 -0.6317074310017E-02  0.0000000000000E+00  0.2648968029526E-02
 0.8329301949484E-02 -0.6661445873651E-02  0.0000000000000E+00  0.1818879971984E-02
 0.1081005102828E-03 -0.6728008477852E-02  0.0000000000000E+00  0.8507588501299E-03
 0.3264270079252E-03 -0.6860927592226E-02  0.0000000000000E+00  0.1076898302142E-02
 0.5428866122928E-03 -0.6988134975445E-02  0.0000000000000E+00  0.1232035099672E-02
 0.7479492894304E-03 -0.7102827362566E-02  0.0000000000000E+00  0.1319998713743E-02
 0.9337152362604E-03 -0.7199727623674E-02  0.0000000000000E+00  0.1349987084603E-02
 0.1094924881550E-02 -0.7275788536199E-02  0.0000000000000E+00  0.1334265674943E-02
 0.1229137593218E-02 -0.7330203628674E-02  0.0000000000000E+00  0.1285629388960E-02
 0.1336278413374E-02 -0.7363918418548E-02  0.0000000000000E+00  0.1215470408808E-02
 0.1417895947369E-02 -0.7378946273721E-02  0.0000000000000E+00  0.1132760697746E-02
 0.1476422455298E-02 -0.7377733127041E-02  0.0000000000000E+00  0.1043834843684E-02
 0.1514593664700E-02 -0.7362691057335E-02  0.0000000000000E+00  0.9526803662711E-03
 0.1535068341934E-02 -0.7335917906223E-02  0.0000000000000E+00  0.8614539456217E-03
 0.1540221798313E-02 -0.7299066319614E-02  0.0000000000000E+00  0.7710329102633E-03
 0.1532064872077E-02 -0.7253311628199E-02  0.0000000000000E+00  0.6815063313799E-03
 0.1512242874455E-02 -0.7199375371573E-02  0.0000000000000E+00  0.5925764647389E-03
 0.1482081495842E-02 -0.7137575170397E-02  0.0000000000000E+00  0.5038765296280E-03
 0.1442659588395E-02 -0.7067884583614E-02  0.0000000000000E+00  0.4152242501632E-03
 0.1394900897081E-02 -0.6989999027892E-02  0.0000000000000E+00  0.3268342615930E-03
 0.1339679376052E-02 -0.6903403152992E-02  0.0000000000000E+00  0.2394986086110E-03
 0.1277941853721E-02 -0.6807447010191E-02  0.0000000000000E+00  0.1547471563854E-03
 0.1210849195284E-02 -0.6701434871598E-02  0.0000000000000E+00  0.7498696281596E-04
 0.1139933032099E-02 -0.6584724206935E-02  0.0000000000000E+00  0.3609564812712E-05
 0.1067268878378E-02 -0.6456840896634E-02  0.0000000000000E+00 -0.5493458874711E-04
 0.9956690071710E-03 -0.6317634833758E-02  0.0000000000000E+00 -0.9511460759290E-04
 0.9289161428534E-03 -0.6167568474774E-02  0.0000000000000E+00 -0.1104200421360E-03
 0.8719788749116E-03 -0.6007938697464E-02  0.0000000000000E+00 -0.9350769032013E-04
 0.8311991037548E-03 -0.5840932687349E-02  0.0000000000000E+00 -0.3626787713018E-04
 0.8145487866747E-03 -0.5669780917691E-02  0.0000000000000E+00  0.6999941889868E-04
 0.8319743942919E-03 -0.5499074100960E-02  0.0000000000000E+00  0.2341176268762E-03
 0.8957866012069E-03 -0.5335207761236E-02  0.0000000000000E+00  0.4640919678062E-03
 0.1020990445734E-02 -0.5186862529871E-02  0.0000000000000E+00  0.7654872122720E-03
 0.1225363738165E-02 -0.5065356570297E-02  0.0000000000000E+00  0.1138939742779E-02
 0.1528983144817E-02 -0.4984614907339E-02  0.0000000000000E+00  0.1576735516775E-02
 0.1952842095471E-02 -0.4960337108165E-02  0.0000000000000E+00  0.2058778469238E-02
 0.2516184467914E-02 -0.5008086212392E-02  0.0000000000000E+00  0.2548606741103E-02
 0.3232150943560E-02 -0.5140166940041E-02  0.0000000000000E+00  0.2990667661009E-02
 0.4101946730477E-02 -0.5361177769404E-02  0.0000000000000E+00  0.3311445379286E-02
 0.5108919802373E-02 -0.5663144081857E-02  0.0000000000000E+00  0.3427153043210E-02
 0.6214997795437E-02 -0.6022349165146E-02  0.0000000000000E+00  0.3258983108996E-02
 0.7362939775480E-02 -0.6400738982965E-02  0.0000000000000E+00  0.2753477744743E-02
 0.8486820558234E-02 -0.6754019538854E-02  0.0000000000000E+00  0.1898063053346E-02
 0.1139920417554E-03 -0.6899328267442E-02  0.0000000000000E+00  0.9327858299876E-03
 0.3443130887571E-03 -0.7039333313162E-02  0.0000000000000E+00  0.1155825362848E-02
 0.5724937681917E-03 -0.7172953680725E-02  0.0000000000000E+00  0.1302885204221E-02
 0.7879008621875E-03 -0.7292648177096E-02  0.0000000000000E+00  0.1378619224111E-02
 0.9818940576219E-03 -0.7392729383989E-02  0.0000000000000E+00  0.1393801196135E-02
 0.1148971484896E-02 -0.7470147499386E-02  0.0000000000000E+00  0.1362460388336E-02
 0.1286879884729E-02 -0.7524416389429E-02  0.0000000000000E+00  0.1298857770444E-02
 0.1395987258774E-02 -0.7556964259698E-02  0.0000000000000E+00  0.1215316104538E-02
 0.1478365320723E-02 -0.7570301886382E-02  0.0000000000000E+00  0.1121199462017E-02
 0.1536928751744E-02 -0.7567295907914E-02  0.0000000000000E+00  0.1022824609221E-02
 0.1574796703771E-02 -0.7550668051616E-02  0.0000000000000E+00  0.9239111119701E-03
 0.1594899669659E-02 -0.7522718297849E-02  0.0000000000000E+00  0.8262306089952E-03
 0.1599784499292E-02 -0.7485214608722E-02  0.0000000000000E+00  0.7302463673556E-03
 0.1591553001215E-02 -0.7439384353519E-02  0.0000000000000E+00  0.6356521227106E-03
 0.1571879591630E-02 -0.7385957076668E-02  0.0000000000000E+00  0.5417934822085E-03
 0.1542071319955E-02 -0.7325227046936E-02  0.0000000000000E+00  0.4479901078769E-03
 0.1503149652192E-02 -0.7257119532199E-02  0.0000000000000E+00  0.3537872254578E-03
 0.1455947047021E-02 -0.7181258165343E-02  0.0000000000000E+00  0.2591656216558E-03
 0.1401214579353E-02 -0.7097030533279E-02  0.0000000000000E+00  0.1647223157599E-03
 0.1339746025336E-02 -0.7003660829138E-02  0.0000000000000E+00  0.7183515603010E-04
 0.1272520889856E-02 -0.6900294615770E-02  0.0000000000000E+00 -0.1718990034752E-04
 0.1200864056206E-02 -0.6786093930063E-02  0.0000000000000E+00 -0.9900177374814E-04
 0.1126622439482E-02 -0.6660348356022E-02  0.0000000000000E+00 -0.1691187230713E-03
 0.1052362003619E-02 -0.6522627962569E-02  0.0000000000000E+00 -0.2218939708453E-03
 0.9816091593945E-03 -0.6373080116381E-02  0.0000000000000E+00 -0.2506021607511E-03
 0.9190715964937E-03 -0.6212652537550E-02  0.0000000000000E+00 -0.2475601697128E-03
 0.8708303628231E-03 -0.6043134129732E-02  0.0000000000000E+00 -0.2041400240476E-03
 0.8446185224464E-03 -0.5867304968586E-02  0.0000000000000E+00 -0.1108636431117E-03
 0.8502197645934E-03 -0.5689279997201E-02  0.0000000000000E+00  0.4223014049831E-04
 0.8999571689211E-03 -0.5515022729524E-02  0.0000000000000E+00  0.2647393697365E-03
 0.1009176614727E-02 -0.5352948174880E-02  0.0000000000000E+00  0.5643233586690E-03
 0.1196531367526E-02 -0.5214456057310E-02  0.0000000000000E+00  0.9441384788155E-03
 0.1483740242406E-02 -0.5114124462192E-02  0.0000000000000E+00  0.1399109617177E-02
 0.1894392044968E-02 -0.5069080560508E-02  0.0000000000000E+00  0.1911261524138E-02
 0.2451285464497E-02 -0.5097168856099E-02  0.0000000000000E+00  0.2444700201555E-02
 0.3171689692437E-02 -0.5213633806233E-02  0.0000000000000E+00  0.2941520442455E-02
 0.4060547376184E-02 -0.5426002814382E-02  0.0000000000000E+00  0.3321731039286E-02
 0.5103031007930E-02 -0.5728051636322E-02  0.0000000000000E+00  0.3490791925018E-02
 0.6259260290639E-02 -0.6095255468392E-02  0.0000000000000E+00  0.3356705794388E-02
 0.7465653368653E-02 -0.6485347526223E-02  0.0000000000000E+00  0.2855247809745E-02
 0.8648143406963E-02 -0.6848328008161E-02  0.0000000000000E+00  0.1972109709114E-02
 0.1203061170010E-03 -0.7072091638225E-02  0.0000000000000E+00  0.1019263475036E-02
 0.3634820600595E-03 -0.7219653865129E-02  0.0000000000000E+00  0.1238841963442E-02
 0.6041652742413E-03 -0.7360030785932E-02  0.0000000000000E+00  0.1376880939948E-02
 0.8304432380527E-03 -0.7484833779406E-02  0.0000000000000E+00  0.1439054915437E-02
 0.1032858445695E-02 -0.7587940593550E-02  0.0000000000000E+00  0.1438032566807E-02
 0.1205698712173E-02 -0.7666358062765E-02  0.0000000000000E+00  0.1389895199243E-02
 0.1346996251494E-02 -0.7720022100780E-02  0.0000000000000E+00  0.1310533594726E-02
 0.1457673325897E-02 -0.7750942588303E-02  0.0000000000000E+00  0.1213232323800E-02
 0.1540414345973E-02 -0.7762197764273E-02  0.0000000000000E+00  0.1107689923699E-02
 0.1598672629089E-02 -0.7757111089065E-02  0.0000000000000E+00  0.1000111317677E-02
 0.1635977349861E-02 -0.7738723682942E-02  0.0000000000000E+00  0.8938550821093E-03
 0.1655537300453E-02 -0.7709532068606E-02  0.0000000000000E+00  0.7902335400689E-03
 0.1660066709684E-02 -0.7671407854832E-02  0.0000000000000E+00  0.6892439107620E-03
 0.1651750079022E-02 -0.7625618647069E-02  0.0000000000000E+00  0.5901511123431E-03
 0.1632282329667E-02 -0.7572893058040E-02  0.0000000000000E+00  0.4919229694336E-03
 0.1602944609770E-02 -0.7513496929791E-02  0.0000000000000E+00  0.3935508205012E-03
 0.1564695362346E-02 -0.7447305839289E-02  0.0000000000000E+00  0.2942941537078E-03
 0.1518271221737E-02 -0.7373873071981E-02  0.0000000000000E+00  0.1938846958291E-03
 0.1464296040855E-02 -0.7292492294467E-02  0.0000000000000E+00  0.9270508672141E-04
 0.1403405433417E-02 -0.7202265496806E-02  0.0000000000000E+00 -0.8043373786515E-05
 0.1336390908793E-02 -0.7102182638190E-02  0.0000000000000E+00 -0.1061857985915E-03
 0.1264361993501E-02 -0.6991212053621E-02  0.0000000000000E+00 -0.1984470869086E-03
 0.1188926021271E-02 -0.6868406575458E-02  0.0000000000000E+00 -0.2803560301656E-03
 0.1112388379117E-02 -0.6733052583846E-02  0.0000000000000E+00 -0.3461996374079E-03
 0.1037999795329E-02 -0.6584973352501E-02  0.0000000000000E+00 -0.3890962568028E-03
 0.9701789943249E-03 -0.6424750067555E-02  0.0000000000000E+00 -0.4010904703567E-03
 0.9147036648445E-03 -0.6253741790273E-02  0.0000000000000E+00 -0.3731099882287E-03
 0.8790044369859E-03 -0.6074224712288E-02  0.0000000000000E+00 -0.2949689341081E-03
 0.8726123864512E-03 -0.5889754432283E-02  0.0000000000000E+00 -0.1556137588967E-03
 0.9077463245857E-03 -0.5705742808203E-02  0.0000000000000E+00  0.5616129031194E-04
 0.9999591854713E-03 -0.5530184551682E-02  0.0000000000000E+00  0.3502360881521E-03
 0.1168657250625E-02 -0.5374387459180E-02  0.0000000000000E+00  0.7325855901872E-03
 0.1437146988986E-02 -0.5253432264614E-02  0.0000000000000E+00  0.1201296264389E-02
 0.1831713591526E-02 -0.5185818934371E-02  0.0000000000000E+00  0.1741259018466E-02
 0.2379069916722E-02 -0.5191809098007E-02  0.0000000000000E+00  0.2317994893794E-02
 0.3101295204886E-02 -0.5289990879625E-02  0.0000000000000E+00  0.2871886240712E-02
 0.4008003667858E-02 -0.5491470258847E-02  0.0000000000000E+00  0.3316428206600E-02
 0.5087103498052E-02 -0.5792477668158E-02  0.0000000000000E+00  0.3545180153752E-02
 0.6297304518609E-02 -0.6168097373230E-02  0.0000000000000E+00  0.3450523487645E-02
 0.7567653008867E-02 -0.6571325599265E-02  0.0000000000000E+00  0.2954293035537E-02
 0.8813494666872E-02 -0.6944821785693E-02  0.0000000000000E+00  0.2040398398567E-02
 0.1270944535589E-03 -0.7246473920510E-02  0.0000000000000E+00  0.1110504303298E-02
 0.3840906906601E-03 -0.7402115381264E-02  0.0000000000000E+00  0.1326192216840E-02
 0.6381414155711E-03 -0.7549612971368E-02  0.0000000000000E+00  0.1454099130921E-02
 0.8758436296754E-03 -0.7679601566109E-02  0.0000000000000E+00  0.1501173925784E-02
 0.1086841466334E-02 -0.7785504909865E-02  0.0000000000000E+00  0.1482374240681E-02
 0.1265265378336E-02 -0.7864469157646E-02  0.0000000000000E+00  0.1416169156875E-02
 0.1409559498230E-02 -0.7916979318973E-02  0.0000000000000E+00  0.1320248909192E-02
 0.1521333020375E-02 -0.7945741884147E-02  0.0000000000000E+00  0.1208868629543E-02
 0.1603982506517E-02 -0.7954477070531E-02  0.0000000000000E+00  0.1091973093751E-02
 0.1661556848854E-02 -0.7946997867003E-02  0.0000000000000E+00  0.9755363491890E-03
 0.1698017849221E-02 -0.7926667954453E-02  0.0000000000000E+00  0.8624481054072E-03
 0.1716854007011E-02 -0.7896168336558E-02  0.0000000000000E+00  0.7534812352893E-03
 0.1720938346784E-02 -0.7857457729778E-02  0.0000000000000E+00  0.6481149115865E-03
 0.1712526758346E-02 -0.7811829181248E-02  0.0000000000000E+00  0.5451547163483E-03
 0.1693324429203E-02 -0.7760000067935E-02  0.0000000000000E+00  0.4431735646808E-03
 0.1664578847379E-02 -0.7702202614088E-02  0.0000000000000E+00  0.3408236606112E-03
 0.1627180151899E-02 -0.7638262116415E-02  0.0000000000000E+00  0.2370688530044E-03
 0.1581765562538E-02 -0.7567664437343E-02  0.0000000000000E+00  0.1313790313321E-03
 0.1528828673787E-02 -0.7489614433683E-02  0.0000000000000E+00  0.2390451548534E-04
 0.1468843298968E-02 -0.7403097836245E-02  0.0000000000000E+00 -0.8435405124380E-04
 0.1402407851331E-02 -0.7306954623818E-02  0.0000000000000E+00 -0.1913832234513E-03
 0.1330409537903E-02 -0.7199963939276E-02  0.0000000000000E+00 -0.2940204441539E-03
 0.1254207089303E-02 -0.7080944625583E-02  0.0000000000000E+00 -0.3878486187529E-03
 0.1175833545312E-02 -0.6948899398853E-02  0.0000000000000E+00 -0.4671412952763E-03
 0.1098247622527E-02 -0.6803323099898E-02  0.0000000000000E+00 -0.5249246445447E-03
 0.1025554183066E-02 -0.6644418283662E-02  0.0000000000000E+00 -0.5530480741276E-03
 0.9631873610966E-03 -0.6473087933186E-02  0.0000000000000E+00 -0.5420843776587E-03
 0.9182115716901E-03 -0.6291054989090E-02  0.0000000000000E+00 -0.4812332771839E-03
 0.8998100860887E-03 -0.6101232783561E-02  0.0000000000000E+00 -0.3584260454340E-03
 0.9199666795012E-03 -0.5908355378022E-02  0.0000000000000E+00 -0.1608737246171E-03
 0.9942803695062E-03 -0.5719823685210E-02  0.0000000000000E+00  0.1236094449562E-03
 0.1142744439678E-02 -0.5546643500780E-02  0.0000000000000E+00  0.5040891167172E-03
 0.1390140931166E-02 -0.5404191671510E-02  0.0000000000000E+00  0.9823516381428E-03
 0.1765495471638E-02 -0.5312219060337E-02  0.0000000000000E+00  0.1546992511759E-02
 0.2299771817392E-02 -0.5293487488684E-02  0.0000000000000E+00  0.2165990474790E-02
 0.3020599799623E-02 -0.5370338123266E-02  0.0000000000000E+00  0.2778924513619E-02
 0.3943372562711E-02 -0.5558200894118E-02  0.0000000000000E+00  0.3292966689275E-02
 0.5059899883725E-02 -0.5856633351359E-02  0.0000000000000E+00  0.3588652490934E-02
 0.6328186420016E-02 -0.6240948292871E-02  0.0000000000000E+00  0.3540070832211E-02
 0.7669024700185E-02 -0.6659079787328E-02  0.0000000000000E+00  0.3050886021501E-02
 0.8982989317953E-02 -0.7043886375941E-02  0.0000000000000E+00  0.2102108609704E-02
 0.1344185624670E-03 -0.7422680711289E-02  0.0000000000000E+00  0.1206856609807E-02
 0.4063246741794E-03 -0.7586982223148E-02  0.0000000000000E+00  0.1418138895168E-02
 0.6747032169366E-03 -0.7741984600580E-02  0.0000000000000E+00  0.1534597057048E-02
 0.9244069465925E-03 -0.7877194035479E-02  0.0000000000000E+00  0.1564784500239E-02
 0.1144098681975E-02 -0.7985571178904E-02  0.0000000000000E+00  0.1526436522169E-02
 0.1327834047384E-02 -0.8064515924479E-02  0.0000000000000E+00  0.1440799067964E-02
 0.1474631196843E-02 -0.8115220425989E-02  0.0000000000000E+00  0.1327530557996E-02
 0.1586943188461E-02 -0.8141219835917E-02  0.0000000000000E+00  0.1201832160858E-02
 0.1668987327268E-02 -0.8146953361648E-02  0.0000000000000E+00  0.1073767862533E-02
 0.1725463504403E-02 -0.8136749963451E-02  0.0000000000000E+00  0.9489331455635E-03
 0.1760782599916E-02 -0.8114290159250E-02  0.0000000000000E+00  0.8296259426897E-03
 0.1778707606848E-02 -0.8082419540087E-02  0.0000000000000E+00  0.7159951295819E-03
 0.1782256583612E-02 -0.8043161932285E-02  0.0000000000000E+00  0.6069516097639E-03
 0.1773742198673E-02 -0.7997817913168E-02  0.0000000000000E+00  0.5008156118326E-03
 0.1754868012455E-02 -0.7947082044808E-02  0.0000000000000E+00  0.3957531797335E-03
 0.1726839704625E-02 -0.7891147798400E-02  0.0000000000000E+00  0.2900713721503E-03
 0.1690474352598E-02 -0.7829790608325E-02  0.0000000000000E+00  0.1824324646502E-03
 0.1646307316820E-02 -0.7762433536337E-02  0.0000000000000E+00  0.7203464849762E-04
 0.1594700411763E-02 -0.7688199928765E-02  0.0000000000000E+00 -0.4122024144440E-04
 0.1535963678079E-02 -0.7605967709186E-02  0.0000000000000E+00 -0.1565556411911E-03
 0.1470499020916E-02 -0.7514435214597E-02  0.0000000000000E+00 -0.2721500979381E-03
 0.1398966134055E-02 -0.7412199858071E-02  0.0000000000000E+00 -0.3849909006143E-03
 0.1322468250074E-02 -0.7297852673285E-02  0.0000000000000E+00 -0.4907598824984E-03
 0.1242757134215E-02 -0.7170116965740E-02  0.0000000000000E+00 -0.5837721783423E-03
 0.1162486866017E-02 -0.7028160082129E-02  0.0000000000000E+00 -0.6570304867179E-03
 0.1085427798127E-02 -0.6871800160959E-02  0.0000000000000E+00 -0.7022748726678E-03
 0.1016634181839E-02 -0.6701464804520E-02  0.0000000000000E+00 -0.7098277999258E-03
 0.9627422388054E-03 -0.6518280804569E-02  0.0000000000000E+00 -0.6683920902934E-03
 0.9324892935320E-03 -0.6324440130339E-02  0.0000000000000E+00 -0.5649961893130E-03
 0.9374814625937E-03 -0.6123870127083E-02  0.0000000000000E+00 -0.3853391822554E-03
 0.9931763297673E-03 -0.5923188685086E-02  0.0000000000000E+00 -0.1148981514685E-03
 0.1119941008321E-02 -0.5732852848356E-02  0.0000000000000E+00  0.2587090478000E-03
 0.1343851971630E-02 -0.5568265741035E-02  0.0000000000000E+00  0.7415001256625E-03
 0.1696641723614E-02 -0.5450222362894E-02  0.0000000000000E+00  0.1326694853871E-02
 0.2213811694469E-02 -0.5403989074884E-02  0.0000000000000E+00  0.1985983094898E-02
 0.2929328076750E-02 -0.5456049391411E-02  0.0000000000000E+00  0.2659388001868E-02
 0.3865658056893E-02 -0.5627006556694E-02  0.0000000000000E+00  0.3248258770969E-02
 0.5019994168768E-02 -0.5920802688587E-02  0.0000000000000E+00  0.3619073827495E-02
 0.6350645677163E-02 -0.6313816788168E-02  0.0000000000000E+00  0.3624703563643E-02
 0.7769906188862E-02 -0.6748891742389E-02  0.0000000000000E+00  0.3145580524038E-02
 0.9156525212326E-02 -0.7145407692042E-02  0.0000000000000E+00  0.2156398667145E-02
 0.1423521966851E-03 -0.7600955186238E-02  0.0000000000000E+00  0.1308710498343E-02
 0.4304055292942E-03 -0.7774565384866E-02  0.0000000000000E+00  0.1514964402577E-02
 0.7141811057063E-03 -0.7937475176355E-02  0.0000000000000E+00  0.1618403394845E-02
 0.9764817608943E-03 -0.8077881414247E-02  0.0000000000000E+00  0.1629617399559E-02
 0.1204909031457E-02 -0.8188290674663E-02  0.0000000000000E+00  0.1569728577387E-02
 0.1393567730128E-02 -0.8266513453035E-02  0.0000000000000E+00  0.1463206437808E-02
 0.1542256557978E-02 -0.8314644677006E-02  0.0000000000000E+00  0.1331834595210E-02
 0.1654456275132E-02 -0.8337197714850E-02  0.0000000000000E+00  0.1191688063448E-02
 0.1735320884236E-02 -0.8339407046049E-02  0.0000000000000E+00  0.1052774708627E-02
 0.1790252046273E-02 -0.8326134014433E-02  0.0000000000000E+00  0.9201318153996E-03
 0.1824117389317E-02 -0.8301358665955E-02  0.0000000000000E+00  0.7953283398800E-03
 0.1840940991980E-02 -0.8268062066812E-02  0.0000000000000E+00  0.6778024613041E-03
 0.1843866304620E-02 -0.8228305231369E-02  0.0000000000000E+00  0.5658506443823E-03
 0.1835244677287E-02 -0.8183375248719E-02  0.0000000000000E+00  0.4572880070632E-03
 0.1816764558720E-02 -0.8133931200390E-02  0.0000000000000E+00  0.3498681526616E-03
 0.1789581442340E-02 -0.8080122950131E-02  0.0000000000000E+00  0.2415526353308E-03
 0.1754435305955E-02 -0.8021677714891E-02  0.0000000000000E+00  0.1307008195289E-03
 0.1711758568126E-02 -0.7957962295535E-02  0.0000000000000E+00  0.1623274462498E-04
 0.1661781482978E-02 -0.7888028245868E-02  0.0000000000000E+00 -0.1022122546244E-03
 0.1604650220625E-02 -0.7810656873156E-02  0.0000000000000E+00 -0.2241041703452E-03
 0.1540568608272E-02 -0.7724416127142E-02  0.0000000000000E+00 -0.3478440735937E-03
 0.1469965493921E-02 -0.7627732257098E-02  0.0000000000000E+00 -0.4706068559367E-03
 0.1393683949626E-02 -0.7518978228857E-02  0.0000000000000E+00 -0.5882187700884E-03
 0.1313188660450E-02 -0.7396606675208E-02  0.0000000000000E+00 -0.6950929512456E-03
 0.1230820774017E-02 -0.7259464198844E-02  0.0000000000000E+00 -0.7842807070700E-03
 0.1150000839733E-02 -0.7106986025220E-02  0.0000000000000E+00 -0.8475060724929E-03
 0.1075372439939E-02 -0.6939113634401E-02  0.0000000000000E+00 -0.8749600845078E-03
 0.1013085766872E-02 -0.6756343783541E-02  0.0000000000000E+00 -0.8549903850129E-03
 0.9713341402624E-03 -0.6560075531818E-02  0.0000000000000E+00 -0.7738723810493E-03
 0.9611949221321E-03 -0.6353302692681E-02  0.0000000000000E+00 -0.6159178182359E-03
 0.9977725872555E-03 -0.6141660276441E-02  0.0000000000000E+00 -0.3643033532632E-03
 0.1101545926299E-02 -0.5934775620899E-02  0.0000000000000E+00 -0.3174482615886E-05
 0.1299625055584E-02 -0.5747739742316E-02  0.0000000000000E+00  0.4782120935009E-03
 0.1626313181486E-02 -0.5602081325266E-02  0.0000000000000E+00  0.1078675888585E-02
 0.2121854027671E-02 -0.5525463240994E-02  0.0000000000000E+00  0.1775093909535E-02
 0.2827343708389E-02 -0.5548847278992E-02  0.0000000000000E+00  0.2509573237262E-02
 0.3773843465881E-02 -0.5698943663318E-02  0.0000000000000E+00  0.3178632749037E-02
 0.4965763420609E-02 -0.5985435977700E-02  0.0000000000000E+00  0.3633657165879E-02
 0.6363043510814E-02 -0.6386592591213E-02  0.0000000000000E+00  0.3703462625366E-02
 0.7870583820854E-02 -0.6841320411024E-02  0.0000000000000E+00  0.3238471070540E-02
 0.9332626170214E-02 -0.7246593441999E-02  0.0000000000000E+00  0.2202824952074E-02
 0.1509893679662E-03 -0.7781590987815E-02  0.0000000000000E+00  0.1416498295082E-02
 0.4566043579379E-03 -0.7965256454988E-02  0.0000000000000E+00  0.1616979104320E-02
 0.7569768640125E-03 -0.8136506947263E-02  0.0000000000000E+00  0.1705514617005E-02
 0.1032484295036E-02 -0.8282020327222E-02  0.0000000000000E+00  0.1695314540345E-02
 0.1269599436816E-02 -0.8393885702332E-02  0.0000000000000E+00  0.1611644016205E-02
 0.1462656036684E-02 -0.8470537154298E-02  0.0000000000000E+00  0.1482704868666E-02
 0.1612494519948E-02 -0.8515212724035E-02  0.0000000000000E+00  0.1332535441872E-02
 0.1723835923768E-02 -0.8533570312569E-02  0.0000000000000E+00  0.1177947417281E-02
 0.1802891275339E-02 -0.8531710729753E-02  0.0000000000000E+00  0.1028659152484E-02
 0.1855806225774E-02 -0.8515029730490E-02  0.0000000000000E+00  0.8889361576516E-03
 0.1887901277368E-02 -0.8487775383511E-02  0.0000000000000E+00  0.7594690533052E-03
 0.1903438646645E-02 -0.8453024925090E-02  0.0000000000000E+00  0.6388995670722E-03
 0.1905661281636E-02 -0.8412842709591E-02  0.0000000000000E+00  0.5248701392760E-03
 0.1896937735262E-02 -0.8368478614990E-02  0.0000000000000E+00  0.4146789078466E-03
 0.1878926536237E-02 -0.8320542983108E-02  0.0000000000000E+00  0.3056687527948E-03
 0.1852724665871E-02 -0.8269137959963E-02  0.0000000000000E+00  0.1954614410725E-03
 0.1818991933352E-02 -0.8213945834967E-02  0.0000000000000E+00  0.8211683218998E-04
 0.1778058303830E-02 -0.8154286000198E-02  0.0000000000000E+00 -0.3572627438017E-04
 0.1730024585749E-02 -0.8089150739467E-02  0.0000000000000E+00 -0.1587031473876E-03
 0.1674874905394E-02 -0.8017239022694E-02  0.0000000000000E+00 -0.2865523246007E-03
 0.1612615155131E-02 -0.7937002822344E-02  0.0000000000000E+00 -0.4179285491744E-03
 0.1543441515905E-02 -0.7846710950866E-02  0.0000000000000E+00 -0.5502331479036E-03
 0.1467933962820E-02 -0.7744531480845E-02  0.0000000000000E+00 -0.6794832846805E-03
 0.1387266939333E-02 -0.7628659384136E-02  0.0000000000000E+00 -0.8002477311611E-03
 0.1303464446777E-02 -0.7497632937459E-02  0.0000000000000E+00 -0.9057012973237E-03
 0.1219587366644E-02 -0.7350513317317E-02  0.0000000000000E+00 -0.9876519879329E-03
 0.1139843808138E-02 -0.7186754101550E-02  0.0000000000000E+00 -0.1036291850654E-02
 0.1069845109662E-02 -0.7006198048160E-02  0.0000000000000E+00 -0.1039778786929E-02
 0.1017144060105E-02 -0.6809389024257E-02  0.0000000000000E+00 -0.9838228684630E-03
 0.9921317242935E-03 -0.6598265322649E-02  0.0000000000000E+00 -0.8515296527877E-03
 0.1009325376993E-02 -0.6377271754248E-02  0.0000000000000E+00 -0.6238889668623E-03
 0.1089003223504E-02 -0.6154891961267E-02  0.0000000000000E+00 -0.2815056465659E-03
 0.1258959107618E-02 -0.5945491612444E-02  0.0000000000000E+00  0.1915208404181E-03
 0.1555807072542E-02 -0.5770898210005E-02  0.0000000000000E+00  0.8006224739772E-03
 0.2024617986752E-02 -0.5660912970607E-02  0.0000000000000E+00  0.1529574968329E-02
 0.2714415641830E-02 -0.5651219784161E-02  0.0000000000000E+00  0.2324712974366E-02
 0.3666572667986E-02 -0.5775658438313E-02  0.0000000000000E+00  0.3079269662006E-02
 0.4895225204290E-02 -0.6051337737405E-02  0.0000000000000E+00  0.3629110478489E-02
 0.6363498863816E-02 -0.6459836914411E-02  0.0000000000000E+00  0.3773805493216E-02
 0.7969548637684E-02 -0.6935509889932E-02  0.0000000000000E+00  0.3334374657834E-02
 0.9526999918419E-02 -0.7355022812345E-02  0.0000000000000E+00  0.2213316066636E-02
 0.1604279943372E-03 -0.7964935788801E-02  0.0000000000000E+00  0.1530742941144E-02
 0.4852387020874E-03 -0.8159497952799E-02  0.0000000000000E+00  0.1724521392389E-02
 0.8035490624262E-03 -0.8339528651567E-02  0.0000000000000E+00  0.1795873887727E-02
 0.1092866946005E-02 -0.8489944100776E-02  0.0000000000000E+00  0.1761392704349E-02
 0.1338491720739E-02 -0.8602497115171E-02  0.0000000000000E+00  0.1651431767918E-02
 0.1535244461286E-02 -0.8676534115786E-02  0.0000000000000E+00  0.1498493000033E-02
 0.1685335324775E-02 -0.8716729131876E-02  0.0000000000000E+00  0.1328945252413E-02
 0.1794967414709E-02 -0.8730064323136E-02  0.0000000000000E+00  0.1160110067397E-02
 0.1871528006112E-02 -0.8723565103272E-02  0.0000000000000E+00  0.1001112967087E-02
 0.1921934668958E-02 -0.8703142891096E-02  0.0000000000000E+00  0.8551990002668E-03
 0.1951941633723E-02 -0.8673264476518E-02  0.0000000000000E+00  0.7220226340311E-03
 0.1966015019661E-02 -0.8637052375208E-02  0.0000000000000E+00  0.5993487320448E-03
 0.1967464586092E-02 -0.8596534273310E-02  0.0000000000000E+00  0.4841361557555E-03
 0.1958651234753E-02 -0.8552896589582E-02  0.0000000000000E+00  0.3731644142407E-03
 0.1941187628704E-02 -0.8506687300891E-02  0.0000000000000E+00  0.2633762320439E-03
 0.1916104189178E-02 -0.8457957626537E-02  0.0000000000000E+00  0.1520665552979E-03
 0.1883978704100E-02 -0.8406349958320E-02  0.0000000000000E+00  0.3700493324277E-04
 0.1845041051907E-02 -0.8351147540415E-02  0.0000000000000E+00 -0.8344976882887E-04
 0.1799267004809E-02 -0.8291298878183E-02  0.0000000000000E+00 -0.2102166054052E-03
 0.1746482875768E-02 -0.8225438229591E-02  0.0000000000000E+00 -0.3433232740374E-03
 0.1686498977738E-02 -0.8151919475043E-02  0.0000000000000E+00 -0.4817092113290E-03
 0.1619278974950E-02 -0.8068871204125E-02  0.0000000000000E+00 -0.6230413490375E-03
 0.1545139021201E-02 -0.7974273559294E-02  0.0000000000000E+00 -0.7635742131875E-03
 0.1464963521941E-02 -0.7866081682852E-02  0.0000000000000E+00 -0.8980894495625E-03
 0.1380460433721E-02 -0.7742544582171E-02  0.0000000000000E+00 -0.1019960913334E-02
 0.1294328544913E-02 -0.7602367265995E-02  0.0000000000000E+00 -0.1121184924720E-02
 0.1210324614298E-02 -0.7444525314866E-02  0.0000000000000E+00 -0.1192098470840E-02
 0.1133477460986E-02 -0.7268197823978E-02  0.0000000000000E+00 -0.1220857812562E-02
 0.1070610081600E-02 -0.7073027299088E-02  0.0000000000000E+00 -0.1192834748929E-02
 0.1031270708270E-02 -0.6859789445555E-02  0.0000000000000E+00 -0.1090173623256E-02
 0.1029141001809E-02 -0.6631537310812E-02  0.0000000000000E+00 -0.8918870164438E-03
 0.1083940612241E-02 -0.6395277232208E-02  0.0000000000000E+00 -0.5750971854255E-03
 0.1223699950562E-02 -0.6164166805770E-02  0.0000000000000E+00 -0.1184405482832E-03
 0.1486924019379E-02 -0.5959755707226E-02  0.0000000000000E+00  0.4911005065730E-03
 0.1923410985357E-02 -0.5813521907489E-02  0.0000000000000E+00  0.1246106880599E-02
 0.2590803174795E-02 -0.5765936358993E-02  0.0000000000000E+00  0.2099836382218E-02
 0.3542750553742E-02 -0.5859026030834E-02  0.0000000000000E+00  0.2944666590978E-02
 0.4806008076531E-02 -0.6119332975464E-02  0.0000000000000E+00  0.3600810419565E-02
 0.6350372126401E-02 -0.6534076100614E-02  0.0000000000000E+00  0.3834762975654E-02
 0.8063066538924E-02 -0.7031075332956E-02  0.0000000000000E+00  0.3424844517857E-02
 0.9757826360428E-02 -0.7479783739763E-02  0.0000000000000E+00  0.2225790447765E-02
 0.1708075216823E-03 -0.8151406039585E-02  0.0000000000000E+00  0.1652001535397E-02
 0.5167047098964E-03 -0.8357799921539E-02  0.0000000000000E+00  0.1837915609523E-02
 0.8544496194139E-03 -0.8547026983053E-02  0.0000000000000E+00  0.1889296089119E-02
 0.1158141741032E-02 -0.8701961702921E-02  0.0000000000000E+00  0.1827154934827E-02
 0.1411910937129E-02 -0.8814172661129E-02  0.0000000000000E+00  0.1688115798656E-02
 0.1611432466651E-02 -0.8884308132883E-02  0.0000000000000E+00  0.1509594992579E-02
 0.1760695180802E-02 -0.8918830583569E-02  0.0000000000000E+00  0.1320273836050E-02
 0.1867653029822E-02 -0.8926232334692E-02  0.0000000000000E+00  0.1137635900116E-02
 0.1940979233454E-02 -0.8914498214168E-02  0.0000000000000E+00  0.9698288791494E-03
 0.1988369567385E-02 -0.8890008166915E-02  0.0000000000000E+00  0.8187952684941E-03
 0.2015973437957E-02 -0.8857377064660E-02  0.0000000000000E+00  0.6829934068914E-03
 0.2028413731846E-02 -0.8819709323428E-02  0.0000000000000E+00  0.5592420950380E-03
 0.2029027232353E-02 -0.8778950014496E-02  0.0000000000000E+00  0.4438011214193E-03
 0.2020139126337E-02 -0.8736193796104E-02  0.0000000000000E+00  0.3329423859658E-03
 0.2003299380766E-02 -0.8691912659283E-02  0.0000000000000E+00  0.2232293745693E-03
 0.1979464306582E-02 -0.8646104781307E-02  0.0000000000000E+00  0.1116515097111E-03
 0.1949129237317E-02 -0.8598379487301E-02  0.0000000000000E+00 -0.4295976045093E-05
 0.1912428462356E-02 -0.8547997571413E-02  0.0000000000000E+00 -0.1265273384108E-03
 0.1869219792375E-02 -0.8493882316421E-02  0.0000000000000E+00 -0.2562504792383E-03
 0.1819178860257E-02 -0.8434624451301E-02  0.0000000000000E+00 -0.3938003107273E-03
 0.1761925514373E-02 -0.8368501409731E-02  0.0000000000000E+00 -0.5384307959741E-03
 0.1697193527406E-02 -0.8293522519715E-02  0.0000000000000E+00 -0.6881128961886E-03
 0.1625037202232E-02 -0.8207500952667E-02  0.0000000000000E+00 -0.8393834003926E-03
 0.1546055190840E-02 -0.8108174965762E-02  0.0000000000000E+00 -0.9872913468017E-03
 0.1461647100507E-02 -0.7993530629624E-02  0.0000000000000E+00 -0.1125482629273E-02
 0.1374156723913E-02 -0.7861945007899E-02  0.0000000000000E+00 -0.1246246654621E-02
 0.1286885709965E-02 -0.7711939734604E-02  0.0000000000000E+00 -0.1340216261529E-02
 0.1204250609204E-02 -0.7542039188181E-02  0.0000000000000E+00 -0.1395752095764E-02
 0.1132269725479E-02 -0.7350961741680E-02  0.0000000000000E+00 -0.1398150436424E-02
 0.1079503209199E-02 -0.7138240067572E-02  0.0000000000000E+00 -0.1328904172364E-02
 0.1058547648967E-02 -0.6905356723215E-02  0.0000000000000E+00 -0.1165367385267E-02
 0.1088173303410E-02 -0.6657508303440E-02  0.0000000000000E+00 -0.8814021932543E-03
 0.1196104019506E-02 -0.6406108239405E-02  0.0000000000000E+00 -0.4500778569824E-03
 0.1422127559995E-02 -0.6171702412215E-02  0.0000000000000E+00  0.1500298354871E-03
 0.1820397762220E-02 -0.5986723130678E-02  0.0000000000000E+00  0.9223004326147E-03
 0.2457654470135E-02 -0.5896206594320E-02  0.0000000000000E+00  0.1830177123081E-02
 0.3401833545812E-02 -0.5951325262724E-02  0.0000000000000E+00  0.2768676832647E-02
 0.4696148142051E-02 -0.6190530524459E-02  0.0000000000000E+00  0.3543331277524E-02
 0.6320241683365E-02 -0.6609312067887E-02  0.0000000000000E+00  0.3883111049505E-02
 0.8155526922896E-02 -0.7131258656466E-02  0.0000000000000E+00  0.3509747375129E-02
 0.9995959098514E-02 -0.7614332357808E-02  0.0000000000000E+00  0.2243644093873E-02
 0.1822948933515E-03 -0.8341517265049E-02  0.0000000000000E+00  0.1780930684683E-02
 0.5514896858379E-03 -0.8560808024691E-02  0.0000000000000E+00  0.1957516133580E-02
 0.9103444315771E-03 -0.8759617421096E-02  0.0000000000000E+00  0.1985495621271E-02
 0.1228902265047E-02 -0.8918464506346E-02  0.0000000000000E+00  0.1891708618839E-02
 0.1490209092523E-02 -0.9028992964618E-02  0.0000000000000E+00  0.1720520865958E-02
 0.1691306984962E-02 -0.9093673681682E-02  0.0000000000000E+00  0.1514897964131E-02
 0.1838465872213E-02 -0.9121173681056E-02  0.0000000000000E+00  0.1305668579950E-02
 0.1941679195382E-02 -0.9121674974093E-02  0.0000000000000E+00  0.1109975572142E-02
 0.2010994456376E-02 -0.9104119493366E-02  0.0000000000000E+00  0.9345150456128E-03
 0.2054862147783E-02 -0.9075272416793E-02  0.0000000000000E+00  0.7796185483609E-03
 0.2079765503459E-02 -0.9039802392527E-02  0.0000000000000E+00  0.6423956190014E-03
 0.2090423644783E-02 -0.9000720322634E-02  0.0000000000000E+00  0.5186678298310E-03
 0.2090154116974E-02 -0.8959838044423E-02  0.0000000000000E+00  0.4039981903023E-03
 0.2081215927058E-02 -0.8918129293314E-02  0.0000000000000E+00  0.2941763104022E-03
 0.2065079277173E-02 -0.8875977327419E-02  0.0000000000000E+00  0.1854182163740E-03
 0.2042619739706E-02 -0.8833326817158E-02  0.0000000000000E+00  0.7443747462754E-04
 0.2014251431089E-02 -0.8789762994127E-02  0.0000000000000E+00 -0.4152227864812E-04
 0.1980019844013E-02 -0.8744540584706E-02  0.0000000000000E+00 -0.1646361445430E-03
 0.1939674709459E-02 -0.8696579532320E-02  0.0000000000000E+00 -0.2964018776747E-03
 0.1892751118352E-02 -0.8644452090335E-02  0.0000000000000E+00 -0.4374773913266E-03
 0.1838686252198E-02 -0.8586384909468E-02  0.0000000000000E+00 -0.5874604937449E-03
 0.1776988642534E-02 -0.8520292757864E-02  0.0000000000000E+00 -0.7446647675230E-03
 0.1707454545478E-02 -0.8443846359975E-02  0.0000000000000E+00 -0.9059532169800E-03
 0.1630404196272E-02 -0.8354594351848E-02  0.0000000000000E+00 -0.1066693749086E-02
 0.1546942320440E-02 -0.8250292546674E-02  0.0000000000000E+00 -0.1220873270857E-02
 0.1459073938015E-02 -0.8129027739967E-02  0.0000000000000E+00 -0.1361176977894E-02
 0.1369654020887E-02 -0.7988905169484E-02  0.0000000000000E+00 -0.1478687883978E-02
 0.1282471850173E-02 -0.7827822112710E-02  0.0000000000000E+00 -0.1562189804877E-02
 0.1202682997388E-02 -0.7643575276852E-02  0.0000000000000E+00 -0.1597194876536E-02
 0.1137731335401E-02 -0.7434405968925E-02  0.0000000000000E+00 -0.1564911456372E-02
 0.1098888609243E-02 -0.7200081885178E-02  0.0000000000000E+00 -0.1441460196605E-02
 0.1103567097552E-02 -0.6943677291176E-02  0.0000000000000E+00 -0.1197843798238E-02
 0.1178557535047E-02 -0.6674292933519E-02  0.0000000000000E+00 -0.8017110835398E-03
 0.1364122723239E-02 -0.6410600695585E-02  0.0000000000000E+00 -0.2226571999029E-03
 0.1718073179535E-02 -0.6184961765986E-02  0.0000000000000E+00  0.5554680986956E-03
 0.2316377185280E-02 -0.6046353907604E-02  0.0000000000000E+00  0.1510123549932E-02
 0.3243313457784E-02 -0.6055845803804E-02  0.0000000000000E+00  0.2543771808403E-02
 0.4562966228384E-02 -0.6266627286607E-02  0.0000000000000E+00  0.3449940297581E-02
 0.6270524223423E-02 -0.6686367557252E-02  0.0000000000000E+00  0.3914780219309E-02
 0.8243808611557E-02 -0.7237660661434E-02  0.0000000000000E+00  0.3593342137149E-02
 0.1024586591128E-01 -0.7758734303859E-02  0.0000000000000E+00  0.2260942862087E-02
 0.1951008056971E-03 -0.8535907637494E-02  0.0000000000000E+00  0.1918291831734E-02
 0.5902006508019E-03 -0.8769312267150E-02  0.0000000000000E+00  0.2083680007930E-02
 0.9720359206700E-03 -0.8978022976877E-02  0.0000000000000E+00  0.2084007527686E-02
 0.1305819528641E-02 -0.9139863709194E-02  0.0000000000000E+00  0.1953870348519E-02
 0.1573734314358E-02 -0.9246975742328E-02  0.0000000000000E+00  0.1747202309461E-02
 0.1774897555641E-02 -0.9304342975371E-02  0.0000000000000E+00  0.1513121355287E-02
 0.1918466840511E-02 -0.9323315371559E-02  0.0000000000000E+00  0.1284214616218E-02
 0.2016769652044E-02 -0.9315916922143E-02  0.0000000000000E+00  0.1076586995027E-02
 0.2081278281493E-02 -0.9291989090936E-02  0.0000000000000E+00  0.8949181354405E-03
 0.2121135161903E-02 -0.9258554344909E-02  0.0000000000000E+00  0.7376068182687E-03
 0.2143070078077E-02 -0.9220215551269E-02  0.0000000000000E+00  0.6002811041352E-03
 0.2151824495855E-02 -0.9179803857220E-02  0.0000000000000E+00  0.4777401406116E-03
 0.2150644951523E-02 -0.9138944232174E-02  0.0000000000000E+00  0.3648741616544E-03
 0.2141692342986E-02 -0.9098460757935E-02  0.0000000000000E+00  0.2570317199470E-03
 0.2126340453192E-02 -0.9058636889261E-02  0.0000000000000E+00  0.1501245741946E-03
 0.2105378789072E-02 -0.9019365378227E-02  0.0000000000000E+00  0.4062868574153E-04
 0.2079143364474E-02 -0.8980218625074E-02  0.0000000000000E+00 -0.7443418754663E-04
 0.2047600130986E-02 -0.8940464413418E-02  0.0000000000000E+00 -0.1974817541745E-03
 0.2010403684286E-02 -0.8899044698200E-02  0.0000000000000E+00 -0.3302979005663E-03
 0.1966962092373E-02 -0.8854542504729E-02  0.0000000000000E+00 -0.4738765063031E-03
 0.1916540704066E-02 -0.8805163817590E-02  0.0000000000000E+00 -0.6281879277177E-03
 0.1858429549440E-02 -0.8748757575216E-02  0.0000000000000E+00 -0.7919274582110E-03
 0.1792172129564E-02 -0.8682880048465E-02  0.0000000000000E+00 -0.9623274684796E-03
 0.1717820157078E-02 -0.8604921385414E-02  0.0000000000000E+00 -0.1135122321694E-02
 0.1636202537733E-02 -0.8512445618986E-02  0.0000000000000E+00 -0.1304702747260E-02
 0.1549011284159E-02 -0.8403296038390E-02  0.0000000000000E+00 -0.1464247078403E-02
 0.1458676393886E-02 -0.8275212622273E-02  0.0000000000000E+00 -0.1605441726943E-02
 0.1368361679709E-02 -0.8125512967419E-02  0.0000000000000E+00 -0.1717718872438E-02
 0.1282322897246E-02 -0.7951103297290E-02  0.0000000000000E+00 -0.1787117849771E-02
 0.1206784658266E-02 -0.7748925486665E-02  0.0000000000000E+00 -0.1794976832887E-02
 0.1151478531471E-02 -0.7516938605915E-02  0.0000000000000E+00 -0.1716709345359E-02
 0.1132054819856E-02 -0.7255829350321E-02  0.0000000000000E+00 -0.1521052172763E-02
 0.1173683921018E-02 -0.6971820956490E-02  0.0000000000000E+00 -0.1170692604484E-02
 0.1316096026032E-02 -0.6680721420964E-02  0.0000000000000E+00 -0.6260564439536E-03
 0.1619655590248E-02 -0.6413456492329E-02  0.0000000000000E+00  0.1435338453236E-03
 0.2169181596166E-02 -0.6221772916630E-02  0.0000000000000E+00  0.1133827449231E-02
 0.3067119980118E-02 -0.6176945706454E-02  0.0000000000000E+00  0.2261179346541E-02
 0.4403728160873E-02 -0.6350000930833E-02  0.0000000000000E+00  0.3311876586468E-02
 0.6197265865026E-02 -0.6766321283249E-02  0.0000000000000E+00  0.3925687745088E-02
 0.8325112391011E-02 -0.7350537032302E-02  0.0000000000000E+00  0.3676711974216E-02
 0.1051010189373E-01 -0.7914765576313E-02  0.0000000000000E+00  0.2275649463465E-02
 0.2094948226344E-03 -0.8735376336695E-02  0.0000000000000E+00  0.2064974784846E-02
 0.6336017216909E-03 -0.8984288059941E-02  0.0000000000000E+00  0.2216747657930E-02
 0.1040494657471E-02 -0.9203092223053E-02  0.0000000000000E+00  0.2184108508788E-02
 0.1389643871542E-02 -0.9366573704386E-02  0.0000000000000E+00  0.2012075805532E-02
 0.1662808759841E-02 -0.9468039701209E-02  0.0000000000000E+00  0.1766394961091E-02
 0.1862149442964E-02 -0.9515892417968E-02  0.0000000000000E+00  0.1502812514503E-02
 0.2000426135741E-02 -0.9524692768854E-02  0.0000000000000E+00  0.1254956769741E-02
 0.2092576382937E-02 -0.9508399341544E-02  0.0000000000000E+00  0.1036962624451E-02
 0.2151488291929E-02 -0.9477617883271E-02  0.0000000000000E+00  0.8508454237539E-03
 0.2186884250921E-02 -0.9439447796048E-02  0.0000000000000E+00  0.6927571708281E-03
 0.2205625507725E-02 -0.9398281675501E-02  0.0000000000000E+00  0.5567479090268E-03
 0.2212389798532E-02 -0.9356676427098E-02  0.0000000000000E+00  0.4366036232915E-03
 0.2210296987150E-02 -0.9316015863093E-02  0.0000000000000E+00  0.3265909958455E-03
 0.2201377705082E-02 -0.9276947698609E-02  0.0000000000000E+00  0.2216757461471E-03
 0.2186893834108E-02 -0.9239647080433E-02  0.0000000000000E+00  0.1175200842277E-03
 0.2167545170597E-02 -0.9203958865813E-02  0.0000000000000E+00  0.1040910609640E-04
 0.2143594767787E-02 -0.9169456237696E-02  0.0000000000000E+00 -0.1028204944010E-03
 0.2114940847802E-02 -0.9135441848547E-02  0.0000000000000E+00 -0.2248043482095E-03
 0.2081159091152E-02 -0.9100908531505E-02  0.0000000000000E+00 -0.3576032060511E-03
 0.2041547864032E-02 -0.9064483851103E-02  0.0000000000000E+00 -0.5025562741511E-03
 0.1995215033945E-02 -0.9024388256417E-02  0.0000000000000E+00 -0.6600343380572E-03
 0.1941241122161E-02 -0.8978438075376E-02  0.0000000000000E+00 -0.8291545244044E-03
 0.1878923243525E-02 -0.8924106555885E-02  0.0000000000000E+00 -0.1007561512091E-02
 0.1808056307607E-02 -0.8858659766159E-02  0.0000000000000E+00 -0.1191399363383E-02
 0.1729217576051E-02 -0.8779513340909E-02  0.0000000000000E+00 -0.1375517272859E-02
 0.1643821446813E-02 -0.8684322006289E-02  0.0000000000000E+00 -0.1553675326981E-02
 0.1553908542572E-02 -0.8570524546215E-02  0.0000000000000E+00 -0.1718310515871E-02
 0.1462037211393E-02 -0.8434926249971E-02  0.0000000000000E+00 -0.1859727454760E-02
 0.1371550595603E-02 -0.8273605052053E-02  0.0000000000000E+00 -0.1964812628654E-02
 0.1287384018136E-02 -0.8082242679183E-02  0.0000000000000E+00 -0.2015480590782E-02
 0.1217554046848E-02 -0.7856962841485E-02  0.0000000000000E+00 -0.1987050351409E-02
 0.1175577826318E-02 -0.7595878733137E-02  0.0000000000000E+00 -0.1846779047333E-02
 0.1184295605315E-02 -0.7301825496131E-02  0.0000000000000E+00 -0.1553213325279E-02
 0.1281719498015E-02 -0.6986690746848E-02  0.0000000000000E+00 -0.1057958617994E-02
 0.1529207288557E-02 -0.6678256464521E-02  0.0000000000000E+00 -0.3145506067893E-03
 0.2019317886038E-02 -0.6429158060083E-02  0.0000000000000E+00  0.6955297255015E-03
 0.2873958329358E-02 -0.6320404343089E-02  0.0000000000000E+00  0.1910723300361E-02
 0.4215557850066E-02 -0.6444055108236E-02  0.0000000000000E+00  0.3118156516559E-02
 0.6095384569771E-02 -0.6850210030024E-02  0.0000000000000E+00  0.3909764655630E-02
 0.8396113149520E-02 -0.7470287411367E-02  0.0000000000000E+00  0.3759972251710E-02
 0.1079154713163E-01 -0.8084378622658E-02  0.0000000000000E+00  0.2286581087642E-02
 0.2258271260889E-03 -0.8940937368351E-02  0.0000000000000E+00  0.2222027926997E-02
 0.6826655694867E-03 -0.9206951013940E-02  0.0000000000000E+00  0.2357008485933E-02
 0.1116897771402E-02 -0.9435817478652E-02  0.0000000000000E+00  0.2284701285168E-02
 0.1481199723542E-02 -0.9598981613859E-02  0.0000000000000E+00  0.2064262179583E-02
 0.1757694198160E-02 -0.9691952924690E-02  0.0000000000000E+00  0.1775959387305E-02
 0.1952888513296E-02 -0.9727720771891E-02  0.0000000000000E+00  0.1482355179368E-02
 0.2083959025431E-02 -0.9724601877824E-02  0.0000000000000E+00  0.1216935608337E-02
 0.2168671560330E-02 -0.9698474510681E-02  0.0000000000000E+00  0.9906655869780E-03
 0.2221234777041E-02 -0.9660470078599E-02  0.0000000000000E+00  0.8021907614027E-03
 0.2251780885992E-02 -0.9617527009345E-02  0.0000000000000E+00  0.6451416392273E-03
 0.2267159986338E-02 -0.9573661411683E-02  0.0000000000000E+00  0.5119488734661E-03
 0.2271890443846E-02 -0.9531057419947E-02  0.0000000000000E+00  0.3954372326165E-03
 0.2268908197601E-02 -0.9490805796836E-02  0.0000000000000E+00  0.2893269168305E-03
 0.2260082735135E-02 -0.9453355023540E-02  0.0000000000000E+00  0.1882763479949E-03
 0.2246550558761E-02 -0.9418766932546E-02  0.0000000000000E+00  0.8776400470936E-04
 0.2228920145198E-02 -0.9386845274098E-02  0.0000000000000E+00 -0.1606111619690E-04
 0.2207388821360E-02 -0.9357179928282E-02  0.0000000000000E+00 -0.1265035930750E-03
 0.2181801426587E-02 -0.9329132701241E-02  0.0000000000000E+00 -0.2463853996409E-03
 0.2151674352638E-02 -0.9301779588604E-02  0.0000000000000E+00 -0.3780283280684E-03
 0.2116217841096E-02 -0.9273831274031E-02  0.0000000000000E+00 -0.5231215321674E-03
 0.2074400800992E-02 -0.9243563533864E-02  0.0000000000000E+00 -0.6824628354338E-03
 0.2025105839159E-02 -0.9208798528890E-02  0.0000000000000E+00 -0.8556330672940E-03
 0.1967390710900E-02 -0.9166961494663E-02  0.0000000000000E+00 -0.1040733131171E-02
 0.1900806086944E-02 -0.9115231415912E-02  0.0000000000000E+00 -0.1234355853161E-02
 0.1825706041888E-02 -0.9050922547399E-02  0.0000000000000E+00 -0.1431853738611E-02
 0.1743272067805E-02 -0.8971562635236E-02  0.0000000000000E+00 -0.1627645257351E-02
 0.1655204969465E-02 -0.8874364680484E-02  0.0000000000000E+00 -0.1815053977499E-02
 0.1563496362055E-02 -0.8755707902792E-02  0.0000000000000E+00 -0.1985471446377E-02
 0.1470590395636E-02 -0.8610935842965E-02  0.0000000000000E+00 -0.2126946075111E-02
 0.1380102544963E-02 -0.8434561861662E-02  0.0000000000000E+00 -0.2222426928163E-02
 0.1298216002168E-02 -0.8220929530957E-02  0.0000000000000E+00 -0.2247811383407E-02
 0.1236009074672E-02 -0.7965505881923E-02  0.0000000000000E+00 -0.2169836260005E-02
 0.1213313182258E-02 -0.7667345554372E-02  0.0000000000000E+00 -0.1944114559353E-02
 0.1265116226346E-02 -0.7333381858766E-02  0.0000000000000E+00 -0.1514467571175E-02
 0.1451731136423E-02 -0.6986251281929E-02  0.0000000000000E+00 -0.8182387514333E-03
 0.1871381097225E-02 -0.6676743779403E-02  0.0000000000000E+00  0.1900665722243E-03
 0.2665708162457E-02 -0.6493910693211E-02  0.0000000000000E+00  0.1480912519702E-02
 0.3995655323973E-02 -0.6553615163215E-02  0.0000000000000E+00  0.2854776753880E-02
 0.5958573105922E-02 -0.6939435901993E-02  0.0000000000000E+00  0.3858031896443E-02
 0.8452571766732E-02 -0.7597430447945E-02  0.0000000000000E+00  0.3842375100454E-02
 0.1109351022733E-01 -0.8270013789899E-02  0.0000000000000E+00  0.2293201857492E-02
 0.2445605062706E-03 -0.9153896499044E-02  0.0000000000000E+00  0.2390697034051E-02
 0.7386451761103E-03 -0.9438830872516E-02  0.0000000000000E+00  0.2504640361133E-02
 0.1202674365660E-02 -0.9677349683448E-02  0.0000000000000E+00  0.2384144226650E-02
 0.1581367157719E-02 -0.9837394380598E-02  0.0000000000000E+00  0.2107716515264E-02
 0.1858540023404E-02 -0.9918260173043E-02  0.0000000000000E+00  0.1773331926990E-02
 0.2046776681067E-02 -0.9938998714194E-02  0.0000000000000E+00  0.1449999633509E-02
 0.2168545490866E-02 -0.9922177262311E-02  0.0000000000000E+00  0.1169242183893E-02
 0.2244541944163E-02 -0.9885404462718E-02  0.0000000000000E+00  0.9373754277250E-03
 0.2290083160925E-02 -0.9839969347915E-02  0.0000000000000E+00  0.7489637621000E-03
 0.2315477238041E-02 -0.9792354189912E-02  0.0000000000000E+00  0.5949233709753E-03
 0.2327396508881E-02 -0.9746017771662E-02  0.0000000000000E+00  0.4660996347068E-03
 0.2330099026028E-02 -0.9702674796384E-02  0.0000000000000E+00  0.3544575344134E-03
 0.2326280912141E-02 -0.9663077124573E-02  0.0000000000000E+00  0.2532769272525E-03
 0.2317622628606E-02 -0.9627456962624E-02  0.0000000000000E+00  0.1570011401423E-03
 0.2305124682835E-02 -0.9595762239693E-02  0.0000000000000E+00  0.6100077866913E-04
 0.2289304956685E-02 -0.9567765395125E-02  0.0000000000000E+00 -0.3864934705983E-04
 0.2270304327856E-02 -0.9543091027187E-02  0.0000000000000E+00 -0.1453447048930E-03
 0.2247930955494E-02 -0.9521186436473E-02  0.0000000000000E+00 -0.2620547689117E-03
 0.2221664964043E-02 -0.9501246163970E-02  0.0000000000000E+00 -0.3913387728465E-03
 0.2190654756157E-02 -0.9482107599139E-02  0.0000000000000E+00 -0.5352340625474E-03
 0.2153753851864E-02 -0.9462149335295E-02  0.0000000000000E+00 -0.6949899161859E-03
 0.2109661795389E-02 -0.9439244179015E-02  0.0000000000000E+00 -0.8706952755440E-03
 0.2057204338088E-02 -0.9410808436904E-02  0.0000000000000E+00 -0.1060954092624E-02
 0.1995700100200E-02 -0.9373972918123E-02  0.0000000000000E+00 -0.1262843943913E-02
 0.1925311477233E-02 -0.9325999490789E-02  0.0000000000000E+00 -0.1472254752130E-02
 0.1847040300937E-02 -0.9264354836329E-02  0.0000000000000E+00 -0.1684325192807E-02
 0.1762310445695E-02 -0.9186110230614E-02  0.0000000000000E+00 -0.1893385179933E-02
 0.1672603697142E-02 -0.9087321365581E-02  0.0000000000000E+00 -0.2092109043626E-02
 0.1579505788833E-02 -0.8962721701543E-02  0.0000000000000E+00 -0.2270000996542E-02
 0.1485325653731E-02 -0.8805802878326E-02  0.0000000000000E+00 -0.2411488839901E-02
 0.1394365222608E-02 -0.8609276978276E-02  0.0000000000000E+00 -0.2493744178418E-02
 0.1315057865660E-02 -0.8366037636531E-02  0.0000000000000E+00 -0.2484072404485E-02
 0.1263646385223E-02 -0.8071157439511E-02  0.0000000000000E+00 -0.2336729642675E-02
 0.1270766574971E-02 -0.7725733252166E-02  0.0000000000000E+00 -0.1989588265056E-02
 0.1393221782434E-02 -0.7345096007845E-02  0.0000000000000E+00 -0.1364665455542E-02
 0.1731646140192E-02 -0.6974533128161E-02  0.0000000000000E+00 -0.3863054126154E-03
 0.2445999152446E-02 -0.6707666411273E-02  0.0000000000000E+00  0.9592332221696E-03
 0.3741722871869E-02 -0.6685659163530E-02  0.0000000000000E+00  0.2503906356915E-02
 0.5779145487674E-02 -0.7036206442548E-02  0.0000000000000E+00  0.3757349675046E-02
 0.8488783695131E-02 -0.7732644867483E-02  0.0000000000000E+00  0.3922078891554E-02
 0.1141996923317E-01 -0.8474723075547E-02  0.0000000000000E+00  0.2295455640743E-02
 0.2663185239459E-03 -0.9375963731989E-02  0.0000000000000E+00  0.2572475223861E-02
 0.8031751115004E-03 -0.9681871983794E-02  0.0000000000000E+00  0.2659603546982E-02
 0.1299556483575E-02 -0.9929002609482E-02  0.0000000000000E+00  0.2479998667349E-02
 0.1691040081720E-02 -0.1008194970517E-01  0.0000000000000E+00  0.2138884322289E-02
 0.1965306826026E-02 -0.1014618233221E-01  0.0000000000000E+00  0.1755491440773E-02
 0.2143257623462E-02 -0.1014861103188E-01  0.0000000000000E+00  0.1403927186137E-02
 0.2253509037036E-02 -0.1011637614830E-01  0.0000000000000E+00  0.1111096191350E-02
 0.2319587677427E-02 -0.1006836588417E-01  0.0000000000000E+00  0.8769432230465E-03
 0.2357560007389E-02 -0.1001550934751E-01  0.0000000000000E+00  0.6913208494940E-03
 0.2377613248475E-02 -0.9963489608273E-02  0.0000000000000E+00  0.5423721186826E-03
 0.2386059067548E-02 -0.9915024355796E-02  0.0000000000000E+00  0.4194854444376E-03
 0.2386794855953E-02 -0.9871271503225E-02  0.0000000000000E+00  0.3139209101873E-03
 0.2382225842044E-02 -0.9832608226042E-02  0.0000000000000E+00  0.2186525777770E-03
 0.2373820399439E-02 -0.9799041249035E-02  0.0000000000000E+00  0.1280157730437E-03
 0.2362436117509E-02 -0.9770409263214E-02  0.0000000000000E+00  0.3735738622523E-04
 0.2348503553078E-02 -0.9746466328580E-02  0.0000000000000E+00 -0.5725423133712E-04
 0.2332118266359E-02 -0.9726891533144E-02  0.0000000000000E+00 -0.1592491731367E-03
 0.2313070410733E-02 -0.9711245403212E-02  0.0000000000000E+00 -0.2716980944958E-03
 0.2290830024403E-02 -0.9698878869301E-02  0.0000000000000E+00 -0.3973648714298E-03
 0.2264515044110E-02 -0.9688804599501E-02  0.0000000000000E+00 -0.5386245963164E-03
 0.2232893348554E-02 -0.9679559176084E-02  0.0000000000000E+00 -0.6971984946827E-03
 0.2194500658961E-02 -0.9669118961415E-02  0.0000000000000E+00 -0.8737312101174E-03
 0.2147938336054E-02 -0.9654935603549E-02  0.0000000000000E+00 -0.1067382303291E-02
 0.2092303348042E-02 -0.9634132077424E-02  0.0000000000000E+00 -0.1275749463424E-02
 0.2027599299267E-02 -0.9603966787345E-02  0.0000000000000E+00 -0.1495283607072E-02
 0.1954708809240E-02 -0.9561912353490E-02  0.0000000000000E+00 -0.1721888658254E-02
 0.1874853582494E-02 -0.9504986941194E-02  0.0000000000000E+00 -0.1950999761281E-02
 0.1789078827442E-02 -0.9429037306580E-02  0.0000000000000E+00 -0.2176741820303E-02
 0.1698178026533E-02 -0.9328338091555E-02  0.0000000000000E+00 -0.2390330783895E-02
 0.1603212226075E-02 -0.9195559637380E-02  0.0000000000000E+00 -0.2578074469263E-02
 0.1506634824293E-02 -0.9022030636213E-02  0.0000000000000E+00 -0.2719090339193E-02
 0.1414158990721E-02 -0.8798315081515E-02  0.0000000000000E+00 -0.2782402429051E-02
 0.1338033364290E-02 -0.8515565337696E-02  0.0000000000000E+00 -0.2722785760585E-02
 0.1303335157818E-02 -0.8168474982175E-02  0.0000000000000E+00 -0.2474827609575E-02
 0.1360624994929E-02 -0.7763001977873E-02  0.0000000000000E+00 -0.1947763891757E-02
 0.1608402130028E-02 -0.7334444725153E-02  0.0000000000000E+00 -0.1034673759994E-02
 0.2220998082974E-02 -0.6975137531023E-02  0.0000000000000E+00  0.3329038225629E-03
 0.3452703653841E-02 -0.6850419904636E-02  0.0000000000000E+00  0.2043114154014E-02
 0.5547897364541E-02 -0.7144223335355E-02  0.0000000000000E+00  0.3588612503090E-02
 0.8496829160747E-02 -0.7876829364439E-02  0.0000000000000E+00  0.3995401354002E-02
 0.1177582366574E-01 -0.8702364437998E-02  0.0000000000000E+00  0.2293766579968E-02
 0.2919599190193E-03 -0.9609421986975E-02  0.0000000000000E+00  0.2769166897619E-02
 0.8784161012070E-03 -0.9938570337929E-02  0.0000000000000E+00  0.2821453863430E-02
 0.1409630262611E-02 -0.1019223129910E-01  0.0000000000000E+00  0.2568652043080E-02
 0.1811044334704E-02 -0.1033246930441E-01  0.0000000000000E+00  0.2153137442000E-02
 0.2077657224835E-02 -0.1037448093294E-01  0.0000000000000E+00  0.1718966745630E-02
 0.2241494597065E-02 -0.1035509597266E-01  0.0000000000000E+00  0.1342366063857E-02
 0.2338001014356E-02 -0.1030597246906E-01  0.0000000000000E+00  0.1041951096856E-02
 0.2393127897682E-02 -0.1024646386052E-01  0.0000000000000E+00  0.8094539573353E-03
 0.2423163400608E-02 -0.1018646932816E-01  0.0000000000000E+00  0.6295959590738E-03
 0.2437826054936E-02 -0.1013050429997E-01  0.0000000000000E+00  0.4878777544929E-03
 0.2442880061234E-02 -0.1008037485959E-01  0.0000000000000E+00  0.3724660999950E-03
 0.2441769586217E-02 -0.1003661249675E-01  0.0000000000000E+00  0.2741243517748E-03
 0.2436566422722E-02 -0.9999198116865E-02  0.0000000000000E+00  0.1856808220879E-03
 0.2428510420206E-02 -0.9967913467262E-02  0.0000000000000E+00  0.1014818103213E-03
 0.2418313751309E-02 -0.9942498597962E-02  0.0000000000000E+00  0.1694051086124E-04
 0.2406325560421E-02 -0.9922705240899E-02  0.0000000000000E+00 -0.7180942874935E-04
 0.2392608735948E-02 -0.9908287972005E-02  0.0000000000000E+00 -0.1681716704313E-03
 0.2376955441141E-02 -0.9898948720000E-02  0.0000000000000E+00 -0.2752643120071E-03
 0.2358854402264E-02 -0.9894234038020E-02  0.0000000000000E+00 -0.3960123354815E-03
 0.2337429723759E-02 -0.9893385006258E-02  0.0000000000000E+00 -0.5331062887893E-03
 0.2311400954177E-02 -0.9895160175308E-02  0.0000000000000E+00 -0.6887528693159E-03
 0.2279165443321E-02 -0.9897702979716E-02  0.0000000000000E+00 -0.8642032187560E-03
 0.2239108492445E-02 -0.9898552015631E-02  0.0000000000000E+00 -0.1059234607096E-02
 0.2190112534717E-02 -0.9894864254494E-02  0.0000000000000E+00 -0.1272003951065E-02
 0.2132054509658E-02 -0.9883941113890E-02  0.0000000000000E+00 -0.1499538259684E-02
 0.2065763462957E-02 -0.9863324812237E-02  0.0000000000000E+00 -0.1738534462754E-02
 0.1992343070113E-02 -0.9830067706472E-02  0.0000000000000E+00 -0.1985607013155E-02
 0.1912488306846E-02 -0.9779928080542E-02  0.0000000000000E+00 -0.2236461460315E-02
 0.1826288765270E-02 -0.9706894327849E-02  0.0000000000000E+00 -0.2484225734248E-02
 0.1733659602352E-02 -0.9603064851795E-02  0.0000000000000E+00 -0.2717415306819E-02
 0.1635323324128E-02 -0.9458731340868E-02  0.0000000000000E+00 -0.2917686793473E-02
 0.1534351975912E-02 -0.9262556837742E-02  0.0000000000000E+00 -0.3056903549238E-02
 0.1438840717524E-02 -0.9002158181622E-02  0.0000000000000E+00 -0.3092402935967E-02
 0.1367399972244E-02 -0.8665751899069E-02  0.0000000000000E+00 -0.2958876060011E-02
 0.1361644154204E-02 -0.8248328874047E-02  0.0000000000000E+00 -0.2557274422372E-02
 0.1512209691504E-02 -0.7770270061243E-02  0.0000000000000E+00 -0.1751711488994E-02
 0.2000426420839E-02 -0.7313910595609E-02  0.0000000000000E+00 -0.4095712880273E-03
 0.3130010459522E-02 -0.7063006520085E-02  0.0000000000000E+00  0.1444852362227E-02
 0.5254128253888E-02 -0.7269859108568E-02  0.0000000000000E+00  0.3324106595814E-02
 0.8465492849719E-02 -0.8031275908660E-02  0.0000000000000E+00  0.4055301932451E-02
 0.1216722978606E-01 -0.8957906971008E-02  0.0000000000000E+00  0.2289137230038E-02
 0.3226968227143E-03 -0.9857387491225E-02  0.0000000000000E+00  0.2982968065588E-02
 0.9672633749357E-03 -0.1021215998006E-01  0.0000000000000E+00  0.2989009931365E-02
 0.1535373237780E-02 -0.1046855419934E-01  0.0000000000000E+00  0.2644754131667E-02
 0.1941988566511E-02 -0.1058822133356E-01  0.0000000000000E+00  0.2144513599147E-02
 0.2194805484023E-02 -0.1060128300784E-01  0.0000000000000E+00  0.1659926887716E-02
 0.2340306464232E-02 -0.1055659221974E-01  0.0000000000000E+00  0.1263779550470E-02
 0.2420996931149E-02 -0.1048956864138E-01  0.0000000000000E+00  0.9616260866198E-03
 0.2464415754031E-02 -0.1041875691079E-01  0.0000000000000E+00  0.7352913860057E-03
 0.2486378219612E-02 -0.1035223516184E-01  0.0000000000000E+00  0.5643279255633E-03
 0.2495761767474E-02 -0.1029299528891E-01  0.0000000000000E+00  0.4319603555748E-03
 0.2497608816489E-02 -0.1024179372598E-01  0.0000000000000E+00  0.3254782500256E-03
 0.2494833339774E-02 -0.1019849225686E-01  0.0000000000000E+00  0.2354044884591E-03
 0.2489143386487E-02 -0.1016267200784E-01  0.0000000000000E+00  0.1546018036233E-03
 0.2481542096435E-02 -0.1013390152287E-01  0.0000000000000E+00  0.7755406095875E-04
 0.2472598713435E-02 -0.1011183918048E-01  0.0000000000000E+00 -0.1664436635462E-06
 0.2462589489686E-02 -0.1009625337930E-01  0.0000000000000E+00 -0.8228720441447E-04
 0.2451558312133E-02 -0.1008699573167E-01  0.0000000000000E+00 -0.1721211107375E-03
 0.2439319811106E-02 -0.1008393696548E-01  0.0000000000000E+00 -0.2727730370340E-03
 0.2425411745403E-02 -0.1008685824962E-01  0.0000000000000E+00 -0.3872733550498E-03
 0.2409006028581E-02 -0.1009528564969E-01  0.0000000000000E+00 -0.5185898471213E-03
 0.2388820301523E-02 -0.1010827342944E-01  0.0000000000000E+00 -0.6694161987155E-03
 0.2363147990505E-02 -0.1012420970461E-01  0.0000000000000E+00 -0.8416626222618E-03
 0.2330168815224E-02 -0.1014078277049E-01  0.0000000000000E+00 -0.1035800422277E-02
 0.2288553184580E-02 -0.1015522809562E-01  0.0000000000000E+00 -0.1250595676431E-02
 0.2238080126472E-02 -0.1016493158264E-01  0.0000000000000E+00 -0.1483663081069E-02
 0.2179593057470E-02 -0.1016755935098E-01  0.0000000000000E+00 -0.1732504955858E-02
 0.2114167277309E-02 -0.1016027565262E-01  0.0000000000000E+00 -0.1994961478742E-02
 0.2042242079657E-02 -0.1013886823002E-01  0.0000000000000E+00 -0.2268400998408E-02
 0.1963308436302E-02 -0.1009722562266E-01  0.0000000000000E+00 -0.2547989805902E-02
 0.1876275335560E-02 -0.1002716434422E-01  0.0000000000000E+00 -0.2824675170195E-02
 0.1780333809784E-02 -0.9918374195029E-02  0.0000000000000E+00 -0.3083111630356E-02
 0.1676159307402E-02 -0.9758228781945E-02  0.0000000000000E+00 -0.3298986966196E-02
 0.1567835099382E-02 -0.9531549566997E-02  0.0000000000000E+00 -0.3434226642827E-02
 0.1467075927836E-02 -0.9220649447769E-02  0.0000000000000E+00 -0.3427467306640E-02
 0.1404319694953E-02 -0.8808913096539E-02  0.0000000000000E+00 -0.3177775536253E-02
 0.1455938810528E-02 -0.8297262474110E-02  0.0000000000000E+00 -0.2527334347043E-02
 0.1798770467428E-02 -0.7746510992103E-02  0.0000000000000E+00 -0.1275563780500E-02
 0.2779512292855E-02 -0.7345735654004E-02  0.0000000000000E+00  0.6767103311430E-03
 0.4886106550062E-02 -0.7424242774577E-02  0.0000000000000E+00  0.2923757400223E-02
 0.8378685793613E-02 -0.8198122302785E-02  0.0000000000000E+00  0.4088491310604E-02
 0.1260204689744E-01 -0.9247944239617E-02  0.0000000000000E+00  0.2283314844432E-02
 0.3602883356695E-03 -0.1012422524201E-01  0.0000000000000E+00  0.3216562103809E-02
 0.1073648823415E-02 -0.1050686267215E-01  0.0000000000000E+00  0.3159750670493E-02
 0.1679645064685E-02 -0.1075935752029E-01  0.0000000000000E+00  0.2700375213545E-02
 0.2084005034408E-02 -0.1084754267343E-01  0.0000000000000E+00  0.2105472870922E-02
 0.2315321083272E-02 -0.1082387050165E-01  0.0000000000000E+00  0.1574424394579E-02
 0.2438115682326E-02 -0.1075081363229E-01  0.0000000000000E+00  0.1167146626516E-02
 0.2501313494683E-02 -0.1066563435392E-01  0.0000000000000E+00  0.8704567890031E-03
 0.2532664825163E-02 -0.1058429458584E-01  0.0000000000000E+00  0.6551975377513E-03
 0.2546696280105E-02 -0.1051222548944E-01  0.0000000000000E+00  0.4962812335630E-03
 0.2551089371774E-02 -0.1045060298915E-01  0.0000000000000E+00  0.3752753725529E-03
 0.2550020991672E-02 -0.1039904761901E-01  0.0000000000000E+00  0.2790343525403E-03
 0.2545821154057E-02 -0.1035674254295E-01  0.0000000000000E+00  0.1981345430582E-03
 0.2539819427509E-02 -0.1032288689164E-01  0.0000000000000E+00  0.1256654620868E-03
 0.2532783568575E-02 -0.1029686008650E-01  0.0000000000000E+00  0.5637735284911E-04
 0.2525147690563E-02 -0.1027826231104E-01  0.0000000000000E+00 -0.1390642876040E-04
 0.2517126103122E-02 -0.1026690022314E-01  0.0000000000000E+00 -0.8870173639544E-04
 0.2508757775620E-02 -0.1026274378151E-01  0.0000000000000E+00 -0.1711650070503E-03
 0.2499899553110E-02 -0.1026585767698E-01  0.0000000000000E+00 -0.2643214248711E-03
 0.2490168540417E-02 -0.1027629417409E-01  0.0000000000000E+00 -0.3712379026007E-03
 0.2478830091399E-02 -0.1029392211230E-01  0.0000000000000E+00 -0.4951004213206E-03
 0.2464656914067E-02 -0.1031817526839E-01  0.0000000000000E+00 -0.6390712736791E-03
 0.2445885978668E-02 -0.1034778270339E-01  0.0000000000000E+00 -0.8057697256950E-03
 0.2420507133172E-02 -0.1038066270085E-01  0.0000000000000E+00 -0.9964567130300E-03
 0.2386975994654E-02 -0.1041417974538E-01  0.0000000000000E+00 -0.1210578997399E-02
 0.2344996052158E-02 -0.1044583827289E-01  0.0000000000000E+00 -0.1446356686203E-02
 0.2295491262963E-02 -0.1047346501171E-01  0.0000000000000E+00 -0.1702100379447E-02
 0.2239597869536E-02 -0.1049439243928E-01  0.0000000000000E+00 -0.1976893288488E-02
 0.2177595416698E-02 -0.1050454204316E-01  0.0000000000000E+00 -0.2269789085519E-02
 0.2108491734370E-02 -0.1049789410201E-01  0.0000000000000E+00 -0.2578025794719E-02
 0.2030358523099E-02 -0.1046630365597E-01  0.0000000000000E+00 -0.2895076834484E-02
 0.1941124933047E-02 -0.1039936430616E-01  0.0000000000000E+00 -0.3208867782952E-02
 0.1839474740791E-02 -0.1028393265898E-01  0.0000000000000E+00 -0.3499648027050E-02
 0.1725946960965E-02 -0.1010312572858E-01  0.0000000000000E+00 -0.3735719358474E-02
 0.1605548320247E-02 -0.9834655586662E-02  0.0000000000000E+00 -0.3863528452014E-02
 0.1496311675508E-02 -0.9451093078345E-02  0.0000000000000E+00 -0.3787983219211E-02
 0.1454354086970E-02 -0.8931099495530E-02  0.0000000000000E+00 -0.3341873194850E-02
 0.1636507887506E-02 -0.8300841181376E-02  0.0000000000000E+00 -0.2263560531557E-02
 0.2414631621252E-02 -0.7731340014094E-02  0.0000000000000E+00 -0.2964832904758E-03
 0.4432543104090E-02 -0.7626988888810E-02  0.0000000000000E+00  0.2330123425809E-02
 0.8213160548125E-02 -0.8381472421804E-02  0.0000000000000E+00  0.4070001015847E-02
 0.1309042675632E-01 -0.9581613855671E-02  0.0000000000000E+00  0.2278893725519E-02
 0.4073680185436E-03 -0.1041623771555E-01  0.0000000000000E+00  0.3473217789416E-02
 0.1202979096353E-02 -0.1082820770164E-01  0.0000000000000E+00  0.3328700767267E-02
 0.1845559079179E-02 -0.1106545770327E-01  0.0000000000000E+00  0.2723763124574E-02
 0.2236315651777E-02 -0.1110725363852E-01  0.0000000000000E+00  0.2026790790594E-02
 0.2436894727911E-02 -0.1103846256593E-01  0.0000000000000E+00  0.1458899844351E-02
 0.2532934251561E-02 -0.1093508551700E-01  0.0000000000000E+00  0.1052342145922E-02
 0.2577655913572E-02 -0.1083258023136E-01  0.0000000000000E+00  0.7694434049829E-03
 0.2597087174856E-02 -0.1074216666983E-01  0.0000000000000E+00  0.5703170242175E-03
 0.2603640728960E-02 -0.1066592223342E-01  0.0000000000000E+00  0.4264570826683E-03
 0.2603516364843E-02 -0.1060303025511E-01  0.0000000000000E+00  0.3186123606989E-03
 0.2599928527727E-02 -0.1055195730168E-01  0.0000000000000E+00  0.2337176312663E-03
 0.2594599516630E-02 -0.1051124014296E-01  0.0000000000000E+00  0.1627189823265E-03
 0.2588483814623E-02 -0.1047973700147E-01  0.0000000000000E+00  0.9912687627830E-04
 0.2582125338996E-02 -0.1045667490878E-01  0.0000000000000E+00  0.3808274683156E-04
 0.2575836216471E-02 -0.1044162561239E-01  0.0000000000000E+00 -0.2425186260929E-04
 0.2569781868004E-02 -0.1043445770294E-01  0.0000000000000E+00 -0.9111200910630E-04
 0.2564010160627E-02 -0.1043527971725E-01  0.0000000000000E+00 -0.1654329960763E-03
 0.2558437872307E-02 -0.1044437168640E-01  0.0000000000000E+00 -0.2500899948180E-03
 0.2552789492910E-02 -0.1046208804044E-01  0.0000000000000E+00 -0.3481046420107E-03
 0.2546471183660E-02 -0.1048869556579E-01  0.0000000000000E+00 -0.4627961774104E-03
 0.2538378982021E-02 -0.1052410007662E-01  0.0000000000000E+00 -0.5977456094916E-03
 0.2526759334846E-02 -0.1056749192153E-01  0.0000000000000E+00 -0.7563188656416E-03
 0.2509438960920E-02 -0.1061712752002E-01  0.0000000000000E+00 -0.9406853485712E-03
 0.2484651563671E-02 -0.1067056429644E-01  0.0000000000000E+00 -0.1151081377257E-02
 0.2452037924602E-02 -0.1072545025545E-01  0.0000000000000E+00 -0.1386373516475E-02
 0.2412661089631E-02 -0.1077978028179E-01  0.0000000000000E+00 -0.1645686510448E-02
 0.2367798309812E-02 -0.1083107294027E-01  0.0000000000000E+00 -0.1929335091695E-02
 0.2317657378896E-02 -0.1087545948316E-01  0.0000000000000E+00 -0.2238005811192E-02
 0.2260881387071E-02 -0.1090720004029E-01  0.0000000000000E+00 -0.2570926758025E-02
 0.2194893150929E-02 -0.1091852920808E-01  0.0000000000000E+00 -0.2924041394817E-02
 0.2116679805037E-02 -0.1089949575653E-01  0.0000000000000E+00 -0.3288597708798E-02
 0.2023473865131E-02 -0.1083732740399E-01  0.0000000000000E+00 -0.3649790661810E-02
 0.1913054158791E-02 -0.1071483124377E-01  0.0000000000000E+00 -0.3983616085809E-02
 0.1784568067890E-02 -0.1050712762879E-01  0.0000000000000E+00 -0.4247712159684E-02
 0.1643862984701E-02 -0.1017847212842E-01  0.0000000000000E+00 -0.4360696113486E-02
 0.1522916198859E-02 -0.9685914666148E-02  0.0000000000000E+00 -0.4163222817575E-02
 0.1540880149067E-02 -0.9009531522705E-02  0.0000000000000E+00 -0.3355822075337E-02
 0.2060914825969E-02 -0.8267001229858E-02  0.0000000000000E+00 -0.1506626596137E-02
 0.3886191874339E-02 -0.7912834961420E-02  0.0000000000000E+00  0.1462569203372E-02
 0.7935339708462E-02 -0.8590105427187E-02  0.0000000000000E+00  0.3953035225907E-02
 0.1364557179486E-01 -0.9972390929732E-02  0.0000000000000E+00  0.2278874304263E-02
 0.4680174757513E-03 -0.1074285909879E-01  0.0000000000000E+00  0.3756836966729E-02
 0.1362762112175E-02 -0.1118339298754E-01  0.0000000000000E+00  0.3486314187719E-02
 0.2036077136815E-02 -0.1138616939645E-01  0.0000000000000E+00  0.2697565172120E-02
 0.2396534778757E-02 -0.1136179148804E-01  0.0000000000000E+00  0.1897869211157E-02
 0.2556110331377E-02 -0.1124007427472E-01  0.0000000000000E+00  0.1311093107587E-02
 0.2622429540254E-02 -0.1110648881072E-01  0.0000000000000E+00  0.9205815401934E-03
 0.2648700956054E-02 -0.1098886584791E-01  0.0000000000000E+00  0.6603587575976E-03
 0.2656940338612E-02 -0.1089156048541E-01  0.0000000000000E+00  0.4822183278816E-03
 0.2656793775011E-02 -0.1081290456888E-01  0.0000000000000E+00  0.3560922236134E-03
 0.2652805495300E-02 -0.1075006216689E-01  0.0000000000000E+00  0.2628857116039E-03
 0.2647189660611E-02 -0.1070040936055E-01  0.0000000000000E+00  0.1901726319943E-03
 0.2641072727130E-02 -0.1066191430672E-01  0.0000000000000E+00  0.1295857336725E-03
 0.2635056777712E-02 -0.1063315893275E-01  0.0000000000000E+00  0.7524032169476E-04
 0.2629483700207E-02 -0.1061326686015E-01  0.0000000000000E+00  0.2278322932603E-04
 0.2624561832427E-02 -0.1060181680114E-01  0.0000000000000E+00 -0.3120770689796E-04
 0.2620422393809E-02 -0.1059876435895E-01  0.0000000000000E+00 -0.8962416342126E-04
 0.2617135008814E-02 -0.1060437497847E-01  0.0000000000000E+00 -0.1551192520460E-03
 0.2614690753201E-02 -0.1061916017186E-01  0.0000000000000E+00 -0.2303467880242E-03
 0.2612944473779E-02 -0.1064379892353E-01  0.0000000000000E+00 -0.3181904435482E-03
 0.2611488201080E-02 -0.1067900263075E-01  0.0000000000000E+00 -0.4219880189241E-03
 0.2609419718188E-02 -0.1072524579439E-01  0.0000000000000E+00 -0.5456420695360E-03
 0.2605086025143E-02 -0.1078232972355E-01  0.0000000000000E+00 -0.6932712278527E-03
 0.2596198584040E-02 -0.1084900106374E-01  0.0000000000000E+00 -0.8680948989170E-03
 0.2580762060344E-02 -0.1092310235860E-01  0.0000000000000E+00 -0.1071307372355E-02
 0.2558355114460E-02 -0.1100244187357E-01  0.0000000000000E+00 -0.1302515852697E-02
 0.2530222158890E-02 -0.1108514415666E-01  0.0000000000000E+00 -0.1561691671568E-02
 0.2497838315785E-02 -0.1116886770011E-01  0.0000000000000E+00 -0.1850342957269E-02
 0.2461406895207E-02 -0.1124998183138E-01  0.0000000000000E+00 -0.2170638793465E-02
 0.2419320897443E-02 -0.1132320398529E-01  0.0000000000000E+00 -0.2523571792691E-02
 0.2368554680392E-02 -0.1138150466802E-01  0.0000000000000E+00 -0.2907334143435E-02
 0.2305498391790E-02 -0.1141595851867E-01  0.0000000000000E+00 -0.3316315971972E-02
 0.2226559744240E-02 -0.1141509809752E-01  0.0000000000000E+00 -0.3740614462354E-02
 0.2127812193667E-02 -0.1136301970887E-01  0.0000000000000E+00 -0.4164529511219E-02
 0.2003997050951E-02 -0.1123485276834E-01  0.0000000000000E+00 -0.4559320142727E-02
 0.1850545782273E-02 -0.1099061068944E-01  0.0000000000000E+00 -0.4863812857624E-02
 0.1675437973667E-02 -0.1057120051187E-01  0.0000000000000E+00 -0.4945083038609E-02
 0.1545191928225E-02 -0.9906922592986E-02  0.0000000000000E+00 -0.4508290859050E-02
 0.1762153393519E-02 -0.9018396758325E-02  0.0000000000000E+00 -0.2968663415086E-02
 0.3251716997667E-02 -0.8343240284691E-02  0.0000000000000E+00  0.2128662281548E-03
 0.7497374223218E-02 -0.8843975148110E-02  0.0000000000000E+00  0.3650220108203E-02
 0.1428468609673E-01 -0.1044192905100E-01  0.0000000000000E+00  0.2284115000148E-02
 0.5488081512518E-03 -0.1111884192886E-01  0.0000000000000E+00  0.4071772449235E-02
 0.1563463287771E-02 -0.1158152569575E-01  0.0000000000000E+00  0.3614327634229E-02
 0.2252988481807E-02 -0.1171736159489E-01  0.0000000000000E+00  0.2596485864717E-02
 0.2559617017579E-02 -0.1160204898836E-01  0.0000000000000E+00  0.1708079841825E-02
 0.2668345772960E-02 -0.1142264531405E-01  0.0000000000000E+00  0.1131489565071E-02
 0.2704122339149E-02 -0.1126214997487E-01  0.0000000000000E+00  0.7748009070503E-03
 0.2713207291860E-02 -0.1113312353589E-01  0.0000000000000E+00  0.5457746995712E-03
 0.2711578439214E-02 -0.1103182344725E-01  0.0000000000000E+00  0.3928920389767E-03
 0.2705827109136E-02 -0.1095288512372E-01  0.0000000000000E+00  0.2866418416047E-03
 0.2698791481278E-02 -0.1089158505597E-01  0.0000000000000E+00  0.2091162730990E-03
 0.2691718437216E-02 -0.1084436722496E-01  0.0000000000000E+00  0.1490913774417E-03
 0.2685188796257E-02 -0.1080875347584E-01  0.0000000000000E+00  0.9917589376260E-04
 0.2679493462806E-02 -0.1078313617919E-01  0.0000000000000E+00  0.5425210707835E-04
 0.2674803827401E-02 -0.1076659551353E-01  0.0000000000000E+00  0.1056894279400E-04
 0.2671246997008E-02 -0.1075875710327E-01  0.0000000000000E+00 -0.3481444056669E-04
 0.2668935721951E-02 -0.1075968925684E-01  0.0000000000000E+00 -0.8439320278328E-04
 0.2667972652570E-02 -0.1076982999801E-01  0.0000000000000E+00 -0.1404835816785E-03
 0.2668433074838E-02 -0.1078993210604E-01  0.0000000000000E+00 -0.2054492208424E-03
 0.2670317152278E-02 -0.1082100978742E-01  0.0000000000000E+00 -0.2819370328522E-03
 0.2673439303647E-02 -0.1086424923484E-01  0.0000000000000E+00 -0.3731590445015E-03
 0.2677182595217E-02 -0.1092078398550E-01  0.0000000000000E+00 -0.4831762108328E-03
 0.2680117497897E-02 -0.1099120745228E-01  0.0000000000000E+00 -0.6167998257224E-03
 0.2679925823453E-02 -0.1107497656829E-01  0.0000000000000E+00 -0.7784508216047E-03
 0.2674387454874E-02 -0.1117036822250E-01  0.0000000000000E+00 -0.9705390471076E-03
 0.2663006457695E-02 -0.1127536523217E-01  0.0000000000000E+00 -0.1193611388005E-02
 0.2647221155879E-02 -0.1138811121109E-01  0.0000000000000E+00 -0.1448587639928E-02
 0.2628715754690E-02 -0.1150625502849E-01  0.0000000000000E+00 -0.1738108143170E-02
 0.2607717703943E-02 -0.1162635860922E-01  0.0000000000000E+00 -0.2065538960576E-02
 0.2582476479841E-02 -0.1174375980307E-01  0.0000000000000E+00 -0.2433225316200E-02
 0.2549729292575E-02 -0.1185254128092E-01  0.0000000000000E+00 -0.2841211308266E-02
 0.2505616352904E-02 -0.1194537371026E-01  0.0000000000000E+00 -0.3286640350580E-02
 0.2446359157528E-02 -0.1201298817254E-01  0.0000000000000E+00 -0.3764037853003E-02
 0.2367550201886E-02 -0.1204239744650E-01  0.0000000000000E+00 -0.4265693150014E-02
 0.2261490783463E-02 -0.1201176065324E-01  0.0000000000000E+00 -0.4777510248779E-02
 0.2116108516867E-02 -0.1188201442866E-01  0.0000000000000E+00 -0.5262603640825E-02
 0.1920472752909E-02 -0.1158788480010E-01  0.0000000000000E+00 -0.5628279840144E-02
 0.1684759944735E-02 -0.1102177160599E-01  0.0000000000000E+00 -0.5639445827531E-02
 0.1586972452562E-02 -0.1007089209752E-01  0.0000000000000E+00 -0.4653427104823E-02
 0.2561693090342E-02 -0.9025795702776E-02  0.0000000000000E+00 -0.1550540362560E-02
 0.6833707650133E-02 -0.9189782586274E-02  0.0000000000000E+00  0.2999925920701E-02
 0.1503022200075E-01 -0.1102910597285E-01  0.0000000000000E+00  0.2283842212726E-02
 0.6607640773248E-03 -0.1156854372926E-01  0.0000000000000E+00  0.4421811617704E-02
 0.1819523693734E-02 -0.1203310981244E-01  0.0000000000000E+00  0.3677336415314E-02
 0.2494545185336E-02 -0.1204745231660E-01  0.0000000000000E+00  0.2384915819047E-02
 0.2716462300412E-02 -0.1181421398706E-01  0.0000000000000E+00  0.1450387647997E-02
 0.2768079277688E-02 -0.1157979891701E-01  0.0000000000000E+00  0.9251803060319E-03
 0.2775740496841E-02 -0.1139962995988E-01  0.0000000000000E+00  0.6196984448432E-03
 0.2770119808042E-02 -0.1126426581329E-01  0.0000000000000E+00  0.4290124931726E-03
 0.2760507152957E-02 -0.1116253543720E-01  0.0000000000000E+00  0.3047290051412E-03
 0.2750533680034E-02 -0.1108574394472E-01  0.0000000000000E+00  0.2197391284989E-03
 0.2741395886610E-02 -0.1102760357491E-01  0.0000000000000E+00  0.1584052739460E-03
 0.2733493408358E-02 -0.1098388101572E-01  0.0000000000000E+00  0.1111949264470E-03
 0.2726944525196E-02 -0.1095181090803E-01  0.0000000000000E+00  0.7193102742245E-04
 0.2721787285475E-02 -0.1092970294686E-01  0.0000000000000E+00  0.3639234137731E-04
 0.2718062427059E-02 -0.1091666216263E-01  0.0000000000000E+00  0.1502014880611E-05
 0.2715841648783E-02 -0.1091240424162E-01  0.0000000000000E+00 -0.3515086104991E-04
 0.2715235363325E-02 -0.1091713557002E-01  0.0000000000000E+00 -0.7562398126867E-04
 0.2716388358752E-02 -0.1093147913609E-01  0.0000000000000E+00 -0.1218510785694E-03
 0.2719464916259E-02 -0.1095643175133E-01  0.0000000000000E+00 -0.1758431561706E-03
 0.2724615181442E-02 -0.1099333991106E-01  0.0000000000000E+00 -0.2399128426628E-03
 0.2731895828999E-02 -0.1104386954818E-01  0.0000000000000E+00 -0.3169806286675E-03
 0.2741051847158E-02 -0.1110987787971E-01  0.0000000000000E+00 -0.4110206691550E-03
 0.2751034945882E-02 -0.1119295490919E-01  0.0000000000000E+00 -0.5273534933776E-03
 0.2759646351231E-02 -0.1129358929084E-01  0.0000000000000E+00 -0.6717214876391E-03
 0.2764482465586E-02 -0.1141075400167E-01  0.0000000000000E+00 -0.8481324426892E-03
 0.2764951625144E-02 -0.1154263607977E-01  0.0000000000000E+00 -0.1058468560913E-02
 0.2762646301527E-02 -0.1168717212013E-01  0.0000000000000E+00 -0.1304846619234E-02
 0.2759388349173E-02 -0.1184168579590E-01  0.0000000000000E+00 -0.1590955934285E-02
 0.2755394123244E-02 -0.1200277857951E-01  0.0000000000000E+00 -0.1920876427241E-02
 0.2748868041918E-02 -0.1216655873576E-01  0.0000000000000E+00 -0.2297641285288E-02
 0.2736544064609E-02 -0.1232863950603E-01  0.0000000000000E+00 -0.2722563020594E-02
 0.2714647141301E-02 -0.1248385324014E-01  0.0000000000000E+00 -0.3195003309219E-02
 0.2679785999177E-02 -0.1262590160423E-01  0.0000000000000E+00 -0.3713098144868E-02
 0.2628263357592E-02 -0.1274611505354E-01  0.0000000000000E+00 -0.4275837569814E-02
 0.2552316775362E-02 -0.1282877651685E-01  0.0000000000000E+00 -0.4882699775631E-02
 0.2435920411569E-02 -0.1284173795715E-01  0.0000000000000E+00 -0.5522638986990E-02
 0.2257225131009E-02 -0.1272505909969E-01  0.0000000000000E+00 -0.6147443097515E-02
 0.1986788308105E-02 -0.1236403457583E-01  0.0000000000000E+00 -0.6624640636066E-02
 0.1631364395993E-02 -0.1152020912200E-01  0.0000000000000E+00 -0.6440460589766E-02
 0.1906986905761E-02 -0.1014345763198E-01  0.0000000000000E+00 -0.3949660135926E-02
 0.5863086090721E-02 -0.9738388723848E-02  0.0000000000000E+00  0.1709675148155E-02
 0.1591233453618E-01 -0.1181337051828E-01  0.0000000000000E+00  0.2224678508687E-02
 0.8231802231919E-03 -0.1213512173202E-01  0.0000000000000E+00  0.4806164050135E-02
 0.2149973026970E-02 -0.1254640076250E-01  0.0000000000000E+00  0.3604971848985E-02
 0.2750218130355E-02 -0.1234937053524E-01  0.0000000000000E+00  0.2017332645983E-02
 0.2852698451073E-02 -0.1198004025234E-01  0.0000000000000E+00  0.1129401136318E-02
 0.2850091134097E-02 -0.1170660652543E-01  0.0000000000000E+00  0.7030451765913E-03
 0.2835595972514E-02 -0.1151713383471E-01  0.0000000000000E+00  0.4611586824707E-03
 0.2818630315074E-02 -0.1138160375752E-01  0.0000000000000E+00  0.3141530125311E-03
 0.2803456290058E-02 -0.1128358963411E-01  0.0000000000000E+00  0.2204371565508E-03
 0.2790852420676E-02 -0.1121155111020E-01  0.0000000000000E+00  0.1571344008358E-03
 0.2780639813911E-02 -0.1115825729098E-01  0.0000000000000E+00  0.1119034390786E-03
 0.2772565060663E-02 -0.1111909459694E-01  0.0000000000000E+00  0.7720910509967E-04
 0.2766389271618E-02 -0.1109120912785E-01  0.0000000000000E+00  0.4827904980292E-04
 0.2761972590980E-02 -0.1107294695960E-01  0.0000000000000E+00  0.2186558521503E-04
 0.2759269785892E-02 -0.1106351215101E-01  0.0000000000000E+00 -0.4388813348716E-05
 0.2758325325199E-02 -0.1106275486146E-01  0.0000000000000E+00 -0.3233667286931E-04
 0.2759262945682E-02 -0.1107104366383E-01  0.0000000000000E+00 -0.6357142006272E-04
 0.2762276148929E-02 -0.1108919517478E-01  0.0000000000000E+00 -0.9961027383917E-04
 0.2767617581293E-02 -0.1111844573239E-01  0.0000000000000E+00 -0.1420591395607E-03
 0.2775581161308E-02 -0.1116045751060E-01  0.0000000000000E+00 -0.1928082529446E-03
 0.2786461318736E-02 -0.1121735012126E-01  0.0000000000000E+00 -0.2543192915557E-03
 0.2800412227780E-02 -0.1129171368088E-01  0.0000000000000E+00 -0.3301538943068E-03
 0.2816949467463E-02 -0.1138632846954E-01  0.0000000000000E+00 -0.4257505040438E-03
 0.2834242410829E-02 -0.1150317644145E-01  0.0000000000000E+00 -0.5481546746256E-03
 0.2849837433754E-02 -0.1164240951058E-01  0.0000000000000E+00 -0.7035100674553E-03
 0.2863034777094E-02 -0.1180250869910E-01  0.0000000000000E+00 -0.8957963927958E-03
 0.2875447585200E-02 -0.1198078242486E-01  0.0000000000000E+00 -0.1128863026274E-02
 0.2888818347352E-02 -0.1217364505831E-01  0.0000000000000E+00 -0.1407328016712E-02
 0.2903220857908E-02 -0.1237743787011E-01  0.0000000000000E+00 -0.1735196281324E-02
 0.2916908390947E-02 -0.1258918642285E-01  0.0000000000000E+00 -0.2115180270903E-02
 0.2926904252021E-02 -0.1280653275800E-01  0.0000000000000E+00 -0.2549047131581E-02
 0.2929841014561E-02 -0.1302708099012E-01  0.0000000000000E+00 -0.3037831928462E-02
 0.2923162847648E-02 -0.1324805476845E-01  0.0000000000000E+00 -0.3582260816620E-02
 0.2904795653410E-02 -0.1346607395618E-01  0.0000000000000E+00 -0.4186052813144E-02
 0.2869209580761E-02 -0.1367390149547E-01  0.0000000000000E+00 -0.4858475436902E-02
 0.2801144150723E-02 -0.1385322966326E-01  0.0000000000000E+00 -0.5611978092810E-02
 0.2673754349232E-02 -0.1396011985823E-01  0.0000000000000E+00 -0.6442262866286E-02
 0.2452449888504E-02 -0.1390840601065E-01  0.0000000000000E+00 -0.7311568588642E-02
 0.2004122551071E-02 -0.1343592289991E-01  0.0000000000000E+00 -0.8053181285010E-02
 0.1488534553840E-02 -0.1198615155221E-01  0.0000000000000E+00 -0.6986114103173E-02
 0.4512141948029E-02 -0.1075427255882E-01  0.0000000000000E+00 -0.7219378748616E-03
 0.1697691625955E-01 -0.1298197545713E-01  0.0000000000000E+00  0.1912838575413E-02
 0.1071116959680E-02 -0.1290290367520E-01  0.0000000000000E+00  0.5203768171607E-02
 0.2575998472992E-02 -0.1311096959206E-01  0.0000000000000E+00  0.3252720407899E-02
 0.2989560186533E-02 -0.1256626019108E-01  0.0000000000000E+00  0.1452902945547E-02
 0.2950023292910E-02 -0.1208335863806E-01  0.0000000000000E+00  0.7754182520459E-03
 0.2911925983511E-02 -0.1180136170928E-01  0.0000000000000E+00  0.4786809222996E-03
 0.2882475860254E-02 -0.1161322045676E-01  0.0000000000000E+00  0.3058243993137E-03
 0.2858305436907E-02 -0.1148517879767E-01  0.0000000000000E+00  0.2061446495483E-03
 0.2840457374527E-02 -0.1139518718056E-01  0.0000000000000E+00  0.1427875743808E-03
 0.2826872228351E-02 -0.1133060284925E-01  0.0000000000000E+00  0.1006730763512E-03
 0.2816660327164E-02 -0.1128382789883E-01  0.0000000000000E+00  0.7075456136160E-04
 0.2809058428874E-02 -0.1125025122937E-01  0.0000000000000E+00  0.4784230132626E-04
 0.2803628207627E-02 -0.1122714246550E-01  0.0000000000000E+00  0.2861698734546E-04
 0.2800126127957E-02 -0.1121301124835E-01  0.0000000000000E+00  0.1084124926165E-04
 0.2798471234958E-02 -0.1120723642751E-01  0.0000000000000E+00 -0.7113787238638E-05
 0.2798708734685E-02 -0.1120984636061E-01  0.0000000000000E+00 -0.2653475618208E-04
 0.2800990360446E-02 -0.1122139361930E-01  0.0000000000000E+00 -0.4854000628521E-04
 0.2805562134323E-02 -0.1124289318340E-01  0.0000000000000E+00 -0.7420970249139E-04
 0.2812759000326E-02 -0.1127580950120E-01  0.0000000000000E+00 -0.1047060885639E-03
 0.2823002764067E-02 -0.1132209095372E-01  0.0000000000000E+00 -0.1414241374404E-03
 0.2836795022479E-02 -0.1138425653439E-01  0.0000000000000E+00 -0.1862253142192E-03
 0.2854684379451E-02 -0.1146555248727E-01  0.0000000000000E+00 -0.2419016896035E-03
 0.2876913974015E-02 -0.1157004217655E-01  0.0000000000000E+00 -0.3133171988989E-03
 0.2902409460298E-02 -0.1170181891202E-01  0.0000000000000E+00 -0.4084148398980E-03
 0.2929010584180E-02 -0.1186313825537E-01  0.0000000000000E+00 -0.5361492633491E-03
 0.2955955723550E-02 -0.1205303439380E-01  0.0000000000000E+00 -0.7040639548246E-03
 0.2984566719470E-02 -0.1226740625679E-01  0.0000000000000E+00 -0.9188247551505E-03
 0.3016035240083E-02 -0.1250073631451E-01  0.0000000000000E+00 -0.1185745671020E-02
 0.3050029299983E-02 -0.1274862911563E-01  0.0000000000000E+00 -0.1507476040905E-02
 0.3084956989228E-02 -0.1300919657849E-01  0.0000000000000E+00 -0.1884940775911E-02
 0.3118518089486E-02 -0.1328273097054E-01  0.0000000000000E+00 -0.2319250577558E-02
 0.3148174253236E-02 -0.1357037301730E-01  0.0000000000000E+00 -0.2812605535256E-02
 0.3172340236250E-02 -0.1387323434019E-01  0.0000000000000E+00 -0.3367741646618E-02
 0.3191286970824E-02 -0.1419325981830E-01  0.0000000000000E+00 -0.3990120540914E-02
 0.3202564944433E-02 -0.1453318671883E-01  0.0000000000000E+00 -0.4694390202832E-02
 0.3198198710268E-02 -0.1489328452801E-01  0.0000000000000E+00 -0.5503447865253E-02
 0.3151528599523E-02 -0.1526253801210E-01  0.0000000000000E+00 -0.6462475385920E-02
 0.3039121559027E-02 -0.1559106984965E-01  0.0000000000000E+00 -0.7576490873021E-02
 0.2764618825229E-02 -0.1577653620560E-01  0.0000000000000E+00 -0.9027982779619E-02
 0.1685762963116E-02 -0.1493008652146E-01  0.0000000000000E+00 -0.1024345223081E-01
 0.2805133879890E-02 -0.1286609256255E-01  0.0000000000000E+00 -0.5038882495568E-02
 0.1833367287948E-01 -0.1504605628554E-01  0.0000000000000E+00  0.7108156103665E-03
 0.1468572491538E-02 -0.1406301510924E-01  0.0000000000000E+00  0.5504163727503E-02
 0.3103885819321E-02 -0.1362241515406E-01  0.0000000000000E+00  0.2315604278093E-02
 0.3141242605091E-02 -0.1260313559484E-01  0.0000000000000E+00  0.7288425261040E-03
 0.2998306484633E-02 -0.1213179258246E-01  0.0000000000000E+00  0.4504377332165E-03
 0.2955166973030E-02 -0.1186025725842E-01  0.0000000000000E+00  0.2569719566370E-03
 0.2914693465609E-02 -0.1168856249974E-01  0.0000000000000E+00  0.1649035585296E-03
 0.2889743176953E-02 -0.1157552777813E-01  0.0000000000000E+00  0.1091619210782E-03
 0.2871674512575E-02 -0.1149793523788E-01  0.0000000000000E+00  0.7484903213203E-04
 0.2858907647041E-02 -0.1144342216398E-01  0.0000000000000E+00  0.5211523824161E-04
 0.2849697753745E-02 -0.1140474632448E-01  0.0000000000000E+00  0.3607239479930E-04
 0.2843180191547E-02 -0.1137769499519E-01  0.0000000000000E+00  0.2375108431016E-04
 0.2838821965737E-02 -0.1135987784192E-01  0.0000000000000E+00  0.1329522568730E-04
 0.2836367990468E-02 -0.1135009461145E-01  0.0000000000000E+00  0.3443074692466E-05
 0.2835747703316E-02 -0.1134797216510E-01  0.0000000000000E+00 -0.6727530635464E-05
 0.2837034733749E-02 -0.1135375793913E-01  0.0000000000000E+00 -0.1795310943886E-04
 0.2840421293371E-02 -0.1136820699224E-01  0.0000000000000E+00 -0.3088259261511E-04
 0.2846207011648E-02 -0.1139253340638E-01  0.0000000000000E+00 -0.4615322552093E-04
 0.2854798506078E-02 -0.1142841258530E-01  0.0000000000000E+00 -0.6446185520648E-04
 0.2866720194296E-02 -0.1147803829607E-01  0.0000000000000E+00 -0.8665759723475E-04
 0.2882634526854E-02 -0.1154425351957E-01  0.0000000000000E+00 -0.1138961101521E-03
 0.2903383763329E-02 -0.1163080598406E-01  0.0000000000000E+00 -0.1479364380087E-03
 0.2929966667355E-02 -0.1174285898461E-01  0.0000000000000E+00 -0.1920889445958E-03
 0.2962592283889E-02 -0.1188725743662E-01  0.0000000000000E+00 -0.2538515985182E-03
 0.3000206009091E-02 -0.1207020534623E-01  0.0000000000000E+00 -0.3455627595728E-03
 0.3042222563929E-02 -0.1229200121578E-01  0.0000000000000E+00 -0.4812495383109E-03
 0.3088986131866E-02 -0.1254558785665E-01  0.0000000000000E+00 -0.6725168419419E-03
 0.3140221821909E-02 -0.1282179515794E-01  0.0000000000000E+00 -0.9247570402526E-03
 0.3194785294618E-02 -0.1311485304876E-01  0.0000000000000E+00 -0.1237183344000E-02
 0.3251386208321E-02 -0.1342420802491E-01  0.0000000000000E+00 -0.1606915131239E-02
 0.3308933781161E-02 -0.1375356603717E-01  0.0000000000000E+00 -0.2032884224038E-02
 0.3366326893768E-02 -0.1410867636903E-01  0.0000000000000E+00 -0.2517934883686E-02
 0.3423121541908E-02 -0.1449505037281E-01  0.0000000000000E+00 -0.3067185751320E-02
 0.3481035417484E-02 -0.1491850685383E-01  0.0000000000000E+00 -0.3685918012302E-02
 0.3542939675878E-02 -0.1539113862799E-01  0.0000000000000E+00 -0.4384424853913E-02
 0.3605033288164E-02 -0.1593559428994E-01  0.0000000000000E+00 -0.5189035746364E-02
 0.3672414537122E-02 -0.1658437655536E-01  0.0000000000000E+00 -0.6146529140107E-02
 0.3678076107735E-02 -0.1735536930385E-01  0.0000000000000E+00 -0.7395753405939E-02
 0.3778374753085E-02 -0.1828190961827E-01  0.0000000000000E+00 -0.8900187475015E-02
 0.3041153920965E-02 -0.1917426161614E-01  0.0000000000000E+00 -0.1231176397410E-01
 0.1168722324705E-02 -0.1743005856216E-01  0.0000000000000E+00 -0.1171328759320E-01
 0.2035372347717E-01 -0.1976587154743E-01  0.0000000000000E+00 -0.3550260773305E-02
 0.2110223698318E-02 -0.1616889339613E-01  0.0000000000000E+00  0.5127731429481E-02
 0.3638714164339E-02 -0.1346835261939E-01  0.0000000000000E+00  0.1828940627368E-03
 0.3075549950322E-02 -0.1251591687249E-01  0.0000000000000E+00  0.2602080749356E-03
 0.3038223393887E-02 -0.1211937106861E-01  0.0000000000000E+00  0.1146956192078E-03
 0.2968165407676E-02 -0.1188509643748E-01  0.0000000000000E+00  0.7055675219564E-04
 0.2936122195659E-02 -0.1174493568145E-01  0.0000000000000E+00  0.4366124344289E-04
 0.2912908351650E-02 -0.1165388774089E-01  0.0000000000000E+00  0.2863089011294E-04
 0.2897882246948E-02 -0.1159283848270E-01  0.0000000000000E+00  0.1927615996958E-04
 0.2887380671670E-02 -0.1155076127790E-01  0.0000000000000E+00  0.1317067286910E-04
 0.2880126731017E-02 -0.1152159166121E-01  0.0000000000000E+00  0.8862067458260E-05
 0.2875210001429E-02 -0.1150186893872E-01  0.0000000000000E+00  0.5517134659766E-05
 0.2872187772972E-02 -0.1148975340956E-01  0.0000000000000E+00  0.2598611493293E-05
 0.2870860579371E-02 -0.1148445068749E-01  0.0000000000000E+00 -0.2606496584123E-06
 0.2871215643619E-02 -0.1148590239886E-01  0.0000000000000E+00 -0.3334419604317E-05
 0.2873378575641E-02 -0.1149461073964E-01  0.0000000000000E+00 -0.6846278617773E-05
 0.2877592059825E-02 -0.1151154784416E-01  0.0000000000000E+00 -0.1099870979013E-04
 0.2884207697491E-02 -0.1153812288750E-01  0.0000000000000E+00 -0.1599432414018E-04
 0.2893689851295E-02 -0.1157620218143E-01  0.0000000000000E+00 -0.2206171459446E-04
 0.2906633669410E-02 -0.1162817477878E-01  0.0000000000000E+00 -0.2948191438357E-04
 0.2923802739600E-02 -0.1169711705977E-01  0.0000000000000E+00 -0.3864147551813E-04
 0.2946202678927E-02 -0.1178709213455E-01  0.0000000000000E+00 -0.5014292907574E-04
 0.2975259922499E-02 -0.1190385187864E-01  0.0000000000000E+00 -0.6505676599161E-04
 0.3012892793262E-02 -0.1205678211457E-01  0.0000000000000E+00 -0.8709545745300E-04
 0.3061037335525E-02 -0.1225993281534E-01  0.0000000000000E+00 -0.1312376218414E-03
 0.3120086767634E-02 -0.1251689410740E-01  0.0000000000000E+00 -0.2243689136739E-03
 0.3187815446031E-02 -0.1281406261731E-01  0.0000000000000E+00 -0.3870640822841E-03
 0.3260832162649E-02 -0.1313604163732E-01  0.0000000000000E+00 -0.6228633924134E-03
 0.3336693619323E-02 -0.1347495913395E-01  0.0000000000000E+00 -0.9243567249643E-03
 0.3414684049853E-02 -0.1383201277810E-01  0.0000000000000E+00 -0.1282126931144E-02
 0.3495550548703E-02 -0.1421529571351E-01  0.0000000000000E+00 -0.1691118326595E-02
 0.3580680775440E-02 -0.1463642172364E-01  0.0000000000000E+00 -0.2153607270198E-02
 0.3671169551392E-02 -0.1510704440105E-01  0.0000000000000E+00 -0.2679191922903E-02
 0.3768565558811E-02 -0.1563372788974E-01  0.0000000000000E+00 -0.3274521525980E-02
 0.3877065206212E-02 -0.1623169267333E-01  0.0000000000000E+00 -0.3933464303385E-02
 0.4009515330871E-02 -0.1695192389500E-01  0.0000000000000E+00 -0.4662451106905E-02
 0.4167125388753E-02 -0.1787055835647E-01  0.0000000000000E+00 -0.5509291922457E-02
 0.4422050071306E-02 -0.1910894323423E-01  0.0000000000000E+00 -0.6577135305339E-02
 0.4520583388401E-02 -0.2078150508160E-01  0.0000000000000E+00 -0.8106713648474E-02
 0.5889142765201E-02 -0.2362688363023E-01  0.0000000000000E+00 -0.1021928207507E-01
 0.6985351071310E-03 -0.2666051678946E-01  0.0000000000000E+00 -0.1826968876526E-01
 0.2647959350240E-01 -0.3402201749432E-01  0.0000000000000E+00 -0.1726230534042E-01
 0.3496659994820E-01 -0.6688019924970E-01  0.0000000000000E+00 -0.2650153091311E+00
 0.5064532574220E-01 -0.8178074704879E-01  0.0000000000000E+00 -0.2128939374238E+00
 0.6658961538302E-01 -0.9682044678596E-01  0.0000000000000E+00 -0.1684172833799E+00
 0.8210655392088E-01 -0.1114546485383E+00  0.0000000000000E+00 -0.1304806959810E+00
 0.9683500193749E-01 -0.1253232600427E+00  0.0000000000000E+00 -0.9820887939246E-01
 0.1104682520808E+00 -0.1381351860179E+00  0.0000000000000E+00 -0.7107653267611E-01
 0.1228300784822E+00 -0.1497125223515E+00  0.0000000000000E+00 -0.4884325673983E-01
 0.1338582577802E+00 -0.1600070034935E+00  0.0000000000000E+00 -0.3127767699929E-01
 0.1435505529722E+00 -0.1690245225395E+00  0.0000000000000E+00 -0.1809451887725E-01
 0.1519328333775E+00 -0.1767954514797E+00  0.0000000000000E+00 -0.8987450701350E-02
 0.1590530154812E+00 -0.1833725878998E+00  0.0000000000000E+00 -0.3645266066752E-02
 0.1649727392422E+00 -0.1888199303292E+00  0.0000000000000E+00 -0.1762547458165E-02
 0.1697456099888E+00 -0.1931911052206E+00  0.0000000000000E+00 -0.3036087622722E-02
 0.1734011826240E+00 -0.1965121496123E+00  0.0000000000000E+00 -0.7189216363741E-02
 0.1759458950945E+00 -0.1987839312933E+00  0.0000000000000E+00 -0.1399097954629E-01
 0.1773712058573E+00 -0.1999892436228E+00  0.0000000000000E+00 -0.2323951459602E-01
 0.1775956352538E+00 -0.2000669134381E+00  0.0000000000000E+00 -0.3466313510398E-01
 0.1765920563438E+00 -0.1990154505984E+00  0.0000000000000E+00 -0.4833907738470E-01
 0.1746760223693E+00 -0.1970595386664E+00  0.0000000000000E+00 -0.6395555212922E-01
 0.1718835757307E+00 -0.1949131379937E+00  0.0000000000000E+00 -0.7818859878599E-01
 0.3418580083472E-01 -0.6773694383911E-01  0.0000000000000E+00 -0.2552750864509E+00
 0.5142955184994E-01 -0.8397569713396E-01  0.0000000000000E+00 -0.2027906516660E+00
 0.6852620090936E-01 -0.1001141705085E+00  0.0000000000000E+00 -0.1586456657513E+00
 0.8506373108559E-01 -0.1157003053926E+00  0.0000000000000E+00 -0.1212002656247E+00
 0.1006852842862E+00 -0.1304084867609E+00  0.0000000000000E+00 -0.8959839176005E-01
 0.1151487342673E+00 -0.1440014711614E+00  0.0000000000000E+00 -0.6328419126558E-01
 0.1283094145677E+00 -0.1563421355826E+00  0.0000000000000E+00 -0.4192029741463E-01
 0.1401035882514E+00 -0.1673721738166E+00  0.0000000000000E+00 -0.2520540150706E-01
 0.1505189372868E+00 -0.1770860828894E+00  0.0000000000000E+00 -0.1285098782744E-01
 0.1595794455640E+00 -0.1855130228799E+00  0.0000000000000E+00 -0.4561681950880E-02
 0.1673340010376E+00 -0.1927059440164E+00  0.0000000000000E+00 -0.3946494272999E-04
 0.1738465872228E+00 -0.1987315722245E+00  0.0000000000000E+00  0.1006057823925E-02
 0.1791775143647E+00 -0.2036504558431E+00  0.0000000000000E+00 -0.1139855069147E-02
 0.1833693167621E+00 -0.2075030325584E+00  0.0000000000000E+00 -0.6212096506561E-02
 0.1864466165142E+00 -0.2103102088269E+00  0.0000000000000E+00 -0.1396615226430E-01
 0.1884045006983E+00 -0.2120689602848E+00  0.0000000000000E+00 -0.2412882152075E-01
 0.1891533101576E+00 -0.2127033598199E+00  0.0000000000000E+00 -0.3639543883258E-01
 0.1886576903149E+00 -0.2121795604273E+00  0.0000000000000E+00 -0.5062340914268E-01
 0.1866451647973E+00 -0.2103609502755E+00  0.0000000000000E+00 -0.6610424077575E-01
 0.1828570364911E+00 -0.2068043212862E+00  0.0000000000000E+00 -0.8333135328075E-01
 0.3336098497683E-01 -0.6845079304978E-01  0.0000000000000E+00 -0.2450221713280E+00
 0.5221634510102E-01 -0.8620361355833E-01  0.0000000000000E+00 -0.1925223552293E+00
 0.7054099890997E-01 -0.1034694922822E+00  0.0000000000000E+00 -0.1486061961916E+00
 0.8810090657721E-01 -0.1200152151807E+00  0.0000000000000E+00 -0.1116848107312E+00
 0.1046325596665E+00 -0.1355764529532E+00  0.0000000000000E+00 -0.8076612352276E-01
 0.1199336540255E+00 -0.1499605049385E+00  0.0000000000000E+00 -0.5524455698462E-01
 0.1338861431815E+00 -0.1630539764790E+00  0.0000000000000E+00 -0.3471618727677E-01
 0.1464341771519E+00 -0.1748060710920E+00  0.0000000000000E+00 -0.1883979834917E-01
 0.1575657806072E+00 -0.1852094980827E+00  0.0000000000000E+00 -0.7309491736619E-02
 0.1673042779800E+00 -0.1942921799447E+00  0.0000000000000E+00  0.1677526905646E-03
 0.1757000308000E+00 -0.2021084429184E+00  0.0000000000000E+00  0.3880889151366E-02
 0.1828197044074E+00 -0.2087276864907E+00  0.0000000000000E+00  0.4110801558965E-02
 0.1887289147672E+00 -0.2142164325292E+00  0.0000000000000E+00  0.1133289589818E-02
 0.1934781185279E+00 -0.2186243004389E+00  0.0000000000000E+00 -0.4786358668928E-02
 0.1970949359214E+00 -0.2219784841236E+00  0.0000000000000E+00 -0.1338180362623E-01
 0.1995638383638E+00 -0.2242671418695E+00  0.0000000000000E+00 -0.2435681394497E-01
 0.2007908159619E+00 -0.2254043716957E+00  0.0000000000000E+00 -0.3739568849544E-01
 0.2006188324335E+00 -0.2252647077993E+00  0.0000000000000E+00 -0.5229465402746E-01
 0.1987874022816E+00 -0.2235701594050E+00  0.0000000000000E+00 -0.6908220135217E-01
 0.1953347446942E+00 -0.2202972124268E+00  0.0000000000000E+00 -0.8860571793947E-01
 0.3253626178209E-01 -0.6914342038835E-01  0.0000000000000E+00 -0.2340995641012E+00
 0.5299426265370E-01 -0.8839941585279E-01  0.0000000000000E+00 -0.1818639282590E+00
 0.7259047205008E-01 -0.1068533002945E+00  0.0000000000000E+00 -0.1383107268385E+00
 0.9120239242492E-01 -0.1243797688575E+00  0.0000000000000E+00 -0.1019313590848E+00
 0.1086550019104E+00 -0.1408056814742E+00  0.0000000000000E+00 -0.7170473066579E-01
 0.1247980935673E+00 -0.1559839145418E+00  0.0000000000000E+00 -0.4696169224700E-01
 0.1395387502767E+00 -0.1698259270186E+00  0.0000000000000E+00 -0.2724786041138E-01
 0.1528335897391E+00 -0.1822919028033E+00  0.0000000000000E+00 -0.1219127988743E-01
 0.1646759763247E+00 -0.1933789986062E+00  0.0000000000000E+00 -0.1470718409915E-02
 0.1750916995636E+00 -0.2031168329046E+00  0.0000000000000E+00  0.5210112997652E-02
 0.1841331965953E+00 -0.2115615429363E+00  0.0000000000000E+00  0.8136045315521E-02
 0.1918694530609E+00 -0.2187849919027E+00  0.0000000000000E+00  0.7582974266747E-02
 0.1983691915448E+00 -0.2248574093921E+00  0.0000000000000E+00  0.3822990764491E-02
 0.2036851077097E+00 -0.2298320018470E+00  0.0000000000000E+00 -0.2875247493365E-02
 0.2078409860611E+00 -0.2337336592626E+00  0.0000000000000E+00 -0.1223724765411E-01
 0.2108115322671E+00 -0.2365404210857E+00  0.0000000000000E+00 -0.2397137615544E-01
 0.2124857945452E+00 -0.2381519040499E+00  0.0000000000000E+00 -0.3780289931050E-01
 0.2127087039005E+00 -0.2384152446436E+00  0.0000000000000E+00 -0.5369878283722E-01
 0.2113392006603E+00 -0.2371771247444E+00  0.0000000000000E+00 -0.7190756545002E-01
 0.2085129659669E+00 -0.2345344901902E+00  0.0000000000000E+00 -0.9310206612797E-01
 0.3173480943183E-01 -0.6983622802553E-01  0.0000000000000E+00 -0.2225322693723E+00
 0.5377937209249E-01 -0.9058434836670E-01  0.0000000000000E+00 -0.1707691355298E+00
 0.7466276081683E-01 -0.1102433782071E+00  0.0000000000000E+00 -0.1277137412582E+00
 0.9434725528612E-01 -0.1287733890402E+00  0.0000000000000E+00 -0.9193471420833E-01
 0.1127325820114E+00 -0.1460740521403E+00  0.0000000000000E+00 -0.6241114211144E-01
 0.1297203530038E+00 -0.1620488278542E+00  0.0000000000000E+00 -0.3843906491815E-01
 0.1452465943253E+00 -0.1766360699961E+00  0.0000000000000E+00 -0.1952274876399E-01
 0.1592831142987E+00 -0.1898102841629E+00  0.0000000000000E+00 -0.5266210419477E-02
 0.1718318113447E+00 -0.2015762694709E+00  0.0000000000000E+00  0.4665438299841E-02
 0.1829231330935E+00 -0.2119677388847E+00  0.0000000000000E+00  0.1057348710155E-01
 0.1926123675809E+00 -0.2210433951921E+00  0.0000000000000E+00  0.1274225419820E-01
 0.2009702747157E+00 -0.2288769810139E+00  0.0000000000000E+00  0.1144582486073E-01
 0.2080666464851E+00 -0.2355403350620E+00  0.0000000000000E+00  0.6954718471447E-02
 0.2139533866101E+00 -0.2410867172635E+00  0.0000000000000E+00 -0.4627358036209E-03
 0.2186500379637E+00 -0.2455372508341E+00  0.0000000000000E+00 -0.1053737593283E-01
 0.2221248200467E+00 -0.2488636525257E+00  0.0000000000000E+00 -0.2300534226629E-01
 0.2242785314356E+00 -0.2509703581467E+00  0.0000000000000E+00 -0.3767626369782E-01
 0.2250000413315E+00 -0.2517448445431E+00  0.0000000000000E+00 -0.5460341528104E-01
 0.2242364584439E+00 -0.2511228724827E+00  0.0000000000000E+00 -0.7406410889004E-01
 0.2221530856129E+00 -0.2492477619299E+00  0.0000000000000E+00 -0.9654174508185E-01
 0.3097053134596E-01 -0.7054373927419E-01  0.0000000000000E+00 -0.2103356326567E+00
 0.5458098218155E-01 -0.9276542332905E-01  0.0000000000000E+00 -0.1592243928207E+00
 0.7675365095847E-01 -0.1136339349803E+00  0.0000000000000E+00 -0.1167926604566E+00
 0.9752057812815E-01 -0.1331780753159E+00  0.0000000000000E+00 -0.8168032936771E-01
 0.1168461201836E+00 -0.1513612073731E+00  0.0000000000000E+00 -0.5288233617541E-01
 0.1346803221770E+00 -0.1681337609343E+00  0.0000000000000E+00 -0.2967820865005E-01
 0.1509894818533E+00 -0.1834632074832E+00  0.0000000000000E+00 -0.1154499407046E-01
 0.1657630993136E+00 -0.1973407099698E+00  0.0000000000000E+00  0.1932152344514E-02
 0.1790136623434E+00 -0.2097809696213E+00  0.0000000000000E+00  0.1109958912869E-01
 0.1907778233857E+00 -0.2208233973252E+00  0.0000000000000E+00  0.1626412194651E-01
 0.2011143034551E+00 -0.2305298790003E+00  0.0000000000000E+00  0.1771137400116E-01
 0.2100953106115E+00 -0.2389756551942E+00  0.0000000000000E+00  0.1571506742946E-01
 0.2177907014144E+00 -0.2462329743938E+00  0.0000000000000E+00  0.1054363586241E-01
 0.2242512204465E+00 -0.2523543418677E+00  0.0000000000000E+00  0.2460120729301E-02
 0.2294945487680E+00 -0.2573591980727E+00  0.0000000000000E+00 -0.8281746097284E-02
 0.2334931394239E+00 -0.2612219193532E+00  0.0000000000000E+00 -0.2145832729495E-01
 0.2361737622401E+00 -0.2638705490307E+00  0.0000000000000E+00 -0.3694151561719E-01
 0.2374721223117E+00 -0.2652380054068E+00  0.0000000000000E+00 -0.5481278094370E-01
 0.2373944761738E+00 -0.2653225871027E+00  0.0000000000000E+00 -0.7531364091799E-01
 0.2361109985743E+00 -0.2642807268917E+00  0.0000000000000E+00 -0.9877722650470E-01
 0.3025389488223E-01 -0.7127506285643E-01  0.0000000000000E+00 -0.1975277547541E+00
 0.5540533460387E-01 -0.9494750058255E-01  0.0000000000000E+00 -0.1472282615905E+00
 0.7885994963555E-01 -0.1170197317722E+00  0.0000000000000E+00 -0.1055362375931E+00
 0.1007106288352E+00 -0.1375803552762E+00  0.0000000000000E+00 -0.7115811079432E-01
 0.1209787063148E+00 -0.1566485906379E+00  0.0000000000000E+00 -0.4311368893783E-01
 0.1396588884945E+00 -0.1742184439924E+00  0.0000000000000E+00 -0.2067948621901E-01
 0.1567475854858E+00 -0.1902864825457E+00  0.0000000000000E+00 -0.3316895961551E-02
 0.1722533522037E+00 -0.2048621228141E+00  0.0000000000000E+00  0.9401845503596E-02
 0.1862007020521E+00 -0.2179714612480E+00  0.0000000000000E+00  0.1783220618481E-01
 0.1986335412878E+00 -0.2296607343910E+00  0.0000000000000E+00  0.2228609947446E-01
 0.2096145203116E+00 -0.2399955156327E+00  0.0000000000000E+00  0.2305102985873E-01
 0.2192173527480E+00 -0.2490525327319E+00  0.0000000000000E+00  0.2040043892501E-01
 0.2275120574824E+00 -0.2569043543593E+00  0.0000000000000E+00  0.1459925272955E-01
 0.2345494068528E+00 -0.2636036925539E+00  0.0000000000000E+00  0.5901463388786E-02
 0.2403495773328E+00 -0.2691722302371E+00  0.0000000000000E+00 -0.5459316429674E-02
 0.2448965243824E+00 -0.2735950682871E+00  0.0000000000000E+00 -0.1929440203745E-01
 0.2481463441121E+00 -0.2768285094573E+00  0.0000000000000E+00 -0.3551297168087E-01
 0.2500752418782E+00 -0.2788463545032E+00  0.0000000000000E+00 -0.5419240393698E-01
 0.2507287349499E+00 -0.2796885627895E+00  0.0000000000000E+00 -0.7552062626903E-01
 0.2502770211772E+00 -0.2795161645737E+00  0.0000000000000E+00 -0.9971927259705E-01
 0.2959333026062E-01 -0.7203706194746E-01  0.0000000000000E+00 -0.1841266251019E+00
 0.5625642189155E-01 -0.9713294573002E-01  0.0000000000000E+00 -0.1347853317264E+00
 0.8097841558247E-01 -0.1203959068890E+00  0.0000000000000E+00 -0.9394028417148E-01
 0.1039071648323E+00 -0.1419683695322E+00  0.0000000000000E+00 -0.6036202488296E-01
 0.1251151176616E+00 -0.1619196004996E+00  0.0000000000000E+00 -0.3310163357487E-01
 0.1446380309227E+00 -0.1802836715487E+00  0.0000000000000E+00 -0.1144257629904E-01
 0.1625014531737E+00 -0.1970854577174E+00  0.0000000000000E+00  0.5159969848205E-02
 0.1787334625176E+00 -0.2123532182719E+00  0.0000000000000E+00  0.1714118923206E-01
 0.1933714179438E+00 -0.2261253703923E+00  0.0000000000000E+00  0.2486291405186E-01
 0.2064672084685E+00 -0.2384557517925E+00  0.0000000000000E+00  0.2864117915371E-01
 0.2180879014130E+00 -0.2494141171542E+00  0.0000000000000E+00  0.2876511783150E-01
 0.2283091565298E+00 -0.2590790584114E+00  0.0000000000000E+00  0.2550735859695E-01
 0.2372019679826E+00 -0.2675241632760E+00  0.0000000000000E+00  0.1912811846427E-01
 0.2448191214073E+00 -0.2748041803588E+00  0.0000000000000E+00  0.9870745341414E-02
 0.2511868893778E+00 -0.2809467545166E+00  0.0000000000000E+00 -0.2049985429176E-02
 0.2563042138364E+00 -0.2859516559806E+00  0.0000000000000E+00 -0.1647072758986E-01
 0.2601550988280E+00 -0.2898029402532E+00  0.0000000000000E+00 -0.3331843904978E-01
 0.2627486424324E+00 -0.2925080234318E+00  0.0000000000000E+00 -0.5265083048745E-01
 0.2641575820045E+00 -0.2941358961102E+00  0.0000000000000E+00 -0.7460022826737E-01
 0.2645520265464E+00 -0.2948506632181E+00  0.0000000000000E+00 -0.9930068417486E-01
 0.2899603568451E-01 -0.7283522992081E-01  0.0000000000000E+00 -0.1701507739277E+00
 0.5713675638877E-01 -0.9932268963597E-01  0.0000000000000E+00 -0.1219036894044E+00
 0.8310547457781E-01 -0.1237573724457E+00  0.0000000000000E+00 -0.8200515153767E-01
 0.1071007221115E+00 -0.1463312505842E+00  0.0000000000000E+00 -0.4928943821766E-01
 0.1292413107080E+00 -0.1671589277646E+00  0.0000000000000E+00 -0.2284413921313E-01
 0.1496006969653E+00 -0.1863112937793E+00  0.0000000000000E+00 -0.1967454674797E-02
 0.1682321411754E+00 -0.2038402177902E+00  0.0000000000000E+00  0.1388405867904E-01
 0.1851830740183E+00 -0.2197927447982E+00  0.0000000000000E+00  0.2514809717631E-01
 0.2005040326869E+00 -0.2342200271215E+00  0.0000000000000E+00  0.3219007331572E-01
 0.2142553645237E+00 -0.2471840282647E+00  0.0000000000000E+00  0.3532879240336E-01
 0.2265090568934E+00 -0.2587591920756E+00  0.0000000000000E+00  0.3485436488029E-01
 0.2373433969982E+00 -0.2690266206439E+00  0.0000000000000E+00  0.3103801291102E-01
 0.2468315050645E+00 -0.2780620089899E+00  0.0000000000000E+00  0.2413478308633E-01
 0.2550300672633E+00 -0.2859240304229E+00  0.0000000000000E+00  0.1437798026561E-01
 0.2619737664413E+00 -0.2926487528391E+00  0.0000000000000E+00  0.1967444900464E-02
 0.2676775429297E+00 -0.2982519965427E+00  0.0000000000000E+00 -0.1294929668422E-01
 0.2721502048312E+00 -0.3027428760763E+00  0.0000000000000E+00 -0.3030372667101E-01
 0.2754271305738E+00 -0.3061559233336E+00  0.0000000000000E+00 -0.5012692867954E-01
 0.2776004012489E+00 -0.3085809870840E+00  0.0000000000000E+00 -0.7249782945219E-01
 0.2788403685821E+00 -0.3101847616510E+00  0.0000000000000E+00 -0.9747728868275E-01
 0.2846837380587E-01 -0.7367421357538E-01  0.0000000000000E+00 -0.1556195387406E+00
 0.5804783052351E-01 -0.1015166874674E+00  0.0000000000000E+00 -0.1085938441996E+00
 0.8523723400147E-01 -0.1270988361295E+00  0.0000000000000E+00 -0.6973437404005E-01
 0.1102822955706E+00 -0.1506587148831E+00  0.0000000000000E+00 -0.3794045244063E-01
 0.1333441104267E+00 -0.1723522477295E+00  0.0000000000000E+00 -0.1234089030780E-01
 0.1545306844807E+00 -0.1922840782614E+00  0.0000000000000E+00  0.7745036102206E-02
 0.1739212935235E+00 -0.2105314702532E+00  0.0000000000000E+00  0.2285320100543E-01
 0.1915821080886E+00 -0.2271597317895E+00  0.0000000000000E+00  0.3341955412061E-01
 0.2075768079565E+00 -0.2422327886646E+00  0.0000000000000E+00  0.3981045170629E-01
 0.2219744715948E+00 -0.2558210480524E+00  0.0000000000000E+00  0.4234602231772E-01
 0.2348524866782E+00 -0.2680041386814E+00  0.0000000000000E+00  0.4131661462877E-01
 0.2462925317549E+00 -0.2788664268910E+00  0.0000000000000E+00  0.3699169255303E-01
 0.2563709933471E+00 -0.2884868507691E+00  0.0000000000000E+00  0.2962148615527E-01
 0.2651499075515E+00 -0.2969295041900E+00  0.0000000000000E+00  0.1943113587706E-01
 0.2726735765446E+00 -0.3042402321609E+00  0.0000000000000E+00  0.6610191365506E-02
 0.2789725949976E+00 -0.3104507850959E+00  0.0000000000000E+00 -0.8701756029195E-02
 0.2840771723622E+00 -0.3155921576181E+00  0.0000000000000E+00 -0.2643209777378E-01
 0.2880435193943E+00 -0.3197206094313E+00  0.0000000000000E+00 -0.4658268232492E-01
 0.2909774113412E+00 -0.3229410263929E+00  0.0000000000000E+00 -0.6918269804930E-01
 0.2930488025852E+00 -0.3254216343776E+00  0.0000000000000E+00 -0.9422926291918E-01
 0.2801609570697E-01 -0.7455809260970E-01  0.0000000000000E+00 -0.1405533009751E+00
 0.5899043246949E-01 -0.1037142677271E+00  0.0000000000000E+00 -0.9486814885372E-01
 0.8736957616379E-01 -0.1304148826593E+00  0.0000000000000E+00 -0.5713384216106E-01
 0.1134432327403E+00 -0.1549409446597E+00  0.0000000000000E+00 -0.2631737748858E-01
 0.1374110632999E+00 -0.1774860549713E+00  0.0000000000000E+00 -0.1593237782006E-02
 0.1594125900829E+00 -0.1981856636842E+00  0.0000000000000E+00  0.1769288330295E-01
 0.1795512258548E+00 -0.2171406362228E+00  0.0000000000000E+00  0.3206419314798E-01
 0.1979109567151E+00 -0.2344336991777E+00  0.0000000000000E+00  0.4195125819922E-01
 0.2145682929413E+00 -0.2501413057875E+00  0.0000000000000E+00  0.4771901965311E-01
 0.2296011423511E+00 -0.2643424512557E+00  0.0000000000000E+00  0.4968757811107E-01
 0.2430927009462E+00 -0.2771223830087E+00  0.0000000000000E+00  0.4814689603558E-01
 0.2551287461917E+00 -0.2885694540547E+00  0.0000000000000E+00  0.4336466381178E-01
 0.2657898805796E+00 -0.2987668196871E+00  0.0000000000000E+00  0.3558722575734E-01
 0.2751444515264E+00 -0.3077850174329E+00  0.0000000000000E+00  0.2503398570019E-01
 0.2832468098217E+00 -0.3156802086994E+00  0.0000000000000E+00  0.1188863356587E-01
 0.2901422048438E+00 -0.3224992160684E+00  0.0000000000000E+00 -0.3711067338163E-02
 0.2958790552767E+00 -0.3282918548099E+00  0.0000000000000E+00 -0.2168295165083E-01
 0.3005300198193E+00 -0.3331317726075E+00  0.0000000000000E+00 -0.4199936701152E-01
 0.3042101750644E+00 -0.3371344741091E+00  0.0000000000000E+00 -0.6464429699109E-01
 0.3070874384842E+00 -0.3404677112085E+00  0.0000000000000E+00 -0.8955836387644E-01
 0.2764447996532E-01 -0.7549054848271E-01  0.0000000000000E+00 -0.1249736550258E+00
 0.5996487089196E-01 -0.1059143700520E+00  0.0000000000000E+00 -0.8074048383744E-01
 0.8949827647189E-01 -0.1337000904911E+00  0.0000000000000E+00 -0.4421130019367E-01
 0.1165752289491E+00 -0.1591685702737E+00  0.0000000000000E+00 -0.1442437038035E-01
 0.1414303902186E+00 -0.1825476072996E+00  0.0000000000000E+00  0.9395869909130E-02
 0.1642318060269E+00 -0.2040005526658E+00  0.0000000000000E+00  0.2787272031222E-01
 0.1851050058014E+00 -0.2236499353894E+00  0.0000000000000E+00  0.4151249819233E-01
 0.2041506371912E+00 -0.2415948205672E+00  0.0000000000000E+00  0.5073733398910E-01
 0.2214575144966E+00 -0.2579237251205E+00  0.0000000000000E+00  0.5590874445164E-01
 0.2371123142937E+00 -0.2727242198137E+00  0.0000000000000E+00  0.5734566679578E-01
 0.2512043350809E+00 -0.2860875005010E+00  0.0000000000000E+00  0.5533726232277E-01
 0.2638240229863E+00 -0.2981065068700E+00  0.0000000000000E+00  0.5014973115904E-01
 0.2750568936666E+00 -0.3088693467340E+00  0.0000000000000E+00  0.4202677838532E-01
 0.2849781463050E+00 -0.3184535998173E+00  0.0000000000000E+00  0.3118457792377E-01
 0.2936521062240E+00 -0.3269257497049E+00  0.0000000000000E+00  0.1780481122585E-01
 0.3011374042806E+00 -0.3343465078835E+00  0.0000000000000E+00  0.2027990179330E-02
 0.3074978568239E+00 -0.3407817804529E+00  0.0000000000000E+00 -0.1605078287389E-01
 0.3128190846999E+00 -0.3463191601470E+00  0.0000000000000E+00 -0.3637530090938E-01
 0.3172221418362E+00 -0.3510814586960E+00  0.0000000000000E+00 -0.5888935827086E-01
 0.3208701454043E+00 -0.3552332990087E+00  0.0000000000000E+00 -0.8348474109817E-01
 0.2735841333632E-01 -0.7647497153601E-01  0.0000000000000E+00 -0.1089035224960E+00
 0.6097114216658E-01 -0.1081157266426E+00  0.0000000000000E+00 -0.6622607545583E-01
 0.9161912409081E-01 -0.1369491565871E+00  0.0000000000000E+00 -0.3097602718370E-01
 0.1196703770986E+00 -0.1633327185767E+00  0.0000000000000E+00 -0.2267179144385E-02
 0.1453910043480E+00 -0.1875249413253E+00  0.0000000000000E+00  0.2062196693960E-01
 0.1689745595269E+00 -0.2097141526019E+00  0.0000000000000E+00  0.3827973255833E-01
 0.1905665438794E+00 -0.2300424825598E+00  0.0000000000000E+00  0.5119205695059E-01
 0.2102829333156E+00 -0.2486240739057E+00  0.0000000000000E+00  0.5977013062514E-01
 0.2282241461760E+00 -0.2655588690899E+00  0.0000000000000E+00  0.6437041983956E-01
 0.2444854191879E+00 -0.2809428566592E+00  0.0000000000000E+00  0.6530983600275E-01
 0.2591623115632E+00 -0.2948733814600E+00  0.0000000000000E+00  0.6287655437129E-01
 0.2723503376633E+00 -0.3074484082528E+00  0.0000000000000E+00  0.5733578402578E-01
 0.2841403749806E+00 -0.3187614878365E+00  0.0000000000000E+00  0.4892994667315E-01
 0.2946146883446E+00 -0.3288975055039E+00  0.0000000000000E+00  0.3787431666877E-01
 0.3038471944214E+00 -0.3379329398067E+00  0.0000000000000E+00  0.2435174326163E-01
 0.3119085565690E+00 -0.3459410983940E+00  0.0000000000000E+00  0.8508838290123E-02
 0.3188755676961E+00 -0.3530016068755E+00  0.0000000000000E+00 -0.9544343806051E-02
 0.3248440537181E+00 -0.3592132717682E+00  0.0000000000000E+00 -0.2972451027145E-01
 0.3299385724527E+00 -0.3647037732225E+00  0.0000000000000E+00 -0.5193996432686E-01
 0.3343149455766E+00 -0.3696323310218E+00  0.0000000000000E+00 -0.7604219208624E-01
 0.2716244524141E-01 -0.7751453548109E-01  0.0000000000000E+00 -0.9236718232322E-01
 0.6200906580688E-01 -0.1103170099094E+00  0.0000000000000E+00 -0.5134133969419E-01
 0.9372804604397E-01 -0.1401570260523E+00  0.0000000000000E+00 -0.1743859204616E-01
 0.1227212533046E+00 -0.1674250998478E+00  0.0000000000000E+00  0.1014706210038E-01
 0.1492825753354E+00 -0.1924069371175E+00  0.0000000000000E+00  0.3207915591962E-01
 0.1736279870801E+00 -0.2153128519825E+00  0.0000000000000E+00  0.4890761557067E-01
 0.1959206990312E+00 -0.2363023979383E+00  0.0000000000000E+00  0.6109516334139E-01
 0.2162905348261E+00 -0.2555033878550E+00  0.0000000000000E+00  0.6904006617700E-01
 0.2348486718282E+00 -0.2730264072481E+00  0.0000000000000E+00  0.7309250557250E-01
 0.2516985621720E+00 -0.2889755709363E+00  0.0000000000000E+00  0.7356679227239E-01
 0.2669420446894E+00 -0.3034544381523E+00  0.0000000000000E+00  0.7075014192758E-01
 0.2806799320217E+00 -0.3165662712010E+00  0.0000000000000E+00  0.6490740277443E-01
 0.2930086969633E+00 -0.3284103380461E+00  0.0000000000000E+00  0.5628103959713E-01
 0.3040176449613E+00 -0.3390788444719E+00  0.0000000000000E+00  0.4508745801492E-01
 0.3137897200809E+00 -0.3486577377435E+00  0.0000000000000E+00  0.3151319292511E-01
 0.3224062880492E+00 -0.3572316242329E+00  0.0000000000000E+00  0.1571334124613E-01
 0.3299550389072E+00 -0.3648917942149E+00  0.0000000000000E+00 -0.2186000965537E-02
 0.3365397845062E+00 -0.3717460543123E+00  0.0000000000000E+00 -0.2207612903302E-01
 0.3422867511346E+00 -0.3779251226193E+00  0.0000000000000E+00 -0.4383420399589E-01
 0.3473433483862E+00 -0.3835816780675E+00  0.0000000000000E+00 -0.6727981716553E-01
 0.2706082263266E-01 -0.7861224816511E-01  0.0000000000000E+00 -0.7539029527310E-01
 0.6307839495507E-01 -0.1125169529577E+00  0.0000000000000E+00 -0.3610379126639E-01
 0.9582122426994E-01 -0.1433190142585E+00  0.0000000000000E+00 -0.3610701967730E-02
 0.1257210141995E+00 -0.1714381071360E+00  0.0000000000000E+00  0.2280996273600E-01
 0.1530956121817E+00 -0.1971834021400E+00  0.0000000000000E+00  0.4376015920437E-01
 0.1781802213679E+00 -0.2207841091267E+00  0.0000000000000E+00  0.5974853643385E-01
 0.2011533844471E+00 -0.2424149163397E+00  0.0000000000000E+00  0.7121236100112E-01
 0.2221571673944E+00 -0.2622157765757E+00  0.0000000000000E+00  0.7853549081565E-01
 0.2413125392610E+00 -0.2803070150827E+00  0.0000000000000E+00  0.8206097356416E-01
 0.2587307021308E+00 -0.2968004625723E+00  0.0000000000000E+00  0.8210022233704E-01
 0.2745196648325E+00 -0.3118058315648E+00  0.0000000000000E+00  0.7893969648270E-01
 0.2887856181684E+00 -0.3254318048628E+00  0.0000000000000E+00  0.7284457390404E-01
 0.3016306915959E+00 -0.3377834664205E+00  0.0000000000000E+00  0.6405857381187E-01
 0.3131510396683E+00 -0.3489601820352E+00  0.0000000000000E+00  0.5280091446038E-01
 0.3234379725758E+00 -0.3590567297654E+00  0.0000000000000E+00  0.3926372932234E-01
 0.3325822914391E+00 -0.3681677621673E+00  0.0000000000000E+00  0.2361220912639E-01
 0.3406807903531E+00 -0.3763944438613E+00  0.0000000000000E+00  0.5988901648929E-02
 0.3478434567150E+00 -0.3838517505047E+00  0.0000000000000E+00 -0.1347392353891E-01
 0.3541969152507E+00 -0.3906721013173E+00  0.0000000000000E+00 -0.3462645679569E-01
 0.3598802126730E+00 -0.3970015321429E+00  0.0000000000000E+00 -0.5726373805789E-01
 0.2705751382130E-01 -0.7977099327565E-01  0.0000000000000E+00 -0.5799986092058E-01
 0.6417891472754E-01 -0.1147144597132E+00  0.0000000000000E+00 -0.2053193958133E-01
 0.9789521360721E-01 -0.1464309326715E+00  0.0000000000000E+00  0.1049493390806E-01
 0.1286635097915E+00 -0.1753649342365E+00  0.0000000000000E+00  0.3571199069437E-01
 0.1568215690938E+00 -0.2018451810268E+00  0.0000000000000E+00  0.5565637440536E-01
 0.1826204999526E+00 -0.2261165648118E+00  0.0000000000000E+00  0.7079312000644E-01
 0.2062516893769E+00 -0.2483665136075E+00  0.0000000000000E+00  0.8153237528849E-01
 0.2278677338838E+00 -0.2687454862472E+00  0.0000000000000E+00  0.8824258547053E-01
 0.2475983256332E+00 -0.2873825448221E+00  0.0000000000000E+00  0.9125918684857E-01
 0.2655618498815E+00 -0.3043967254664E+00  0.0000000000000E+00  0.9089065492123E-01
 0.2818722673197E+00 -0.3199037249891E+00  0.0000000000000E+00  0.8742303582620E-01
 0.2966411052007E+00 -0.3340176470412E+00  0.0000000000000E+00  0.8112253434354E-01
 0.3099760827719E+00 -0.3468493581136E+00  0.0000000000000E+00  0.7223517061836E-01
 0.3219799034641E+00 -0.3585051068491E+00  0.0000000000000E+00  0.6098429492090E-01
 0.3327515408287E+00 -0.3690878109359E+00  0.0000000000000E+00  0.4756900620834E-01
 0.3423900506856E+00 -0.3787009875165E+00  0.0000000000000E+00  0.3216555582819E-01
 0.3509997875023E+00 -0.3874541145843E+00  0.0000000000000E+00  0.1493281247781E-01
 0.3586954589502E+00 -0.3954678305216E+00  0.0000000000000E+00 -0.3975410045501E-02
 0.3656032843660E+00 -0.4028753409646E+00  0.0000000000000E+00 -0.2438627972712E-01
 0.3718546390998E+00 -0.4098165200304E+00  0.0000000000000E+00 -0.4607634660494E-01
 0.2715622776108E-01 -0.8099356371623E-01  0.0000000000000E+00 -0.4022415465439E-01
 0.6531053118409E-01 -0.1169087040244E+00  0.0000000000000E+00 -0.4645193068112E-02
 0.9994705702736E-01 -0.1494892106158E+00  0.0000000000000E+00  0.2486471284373E-01
 0.1315434012127E+00 -0.1791996977667E+00  0.0000000000000E+00  0.4884255881973E-01
 0.1604529601667E+00 -0.2063842734652E+00  0.0000000000000E+00  0.6775791340533E-01
 0.1869392815734E+00 -0.2313001615591E+00  0.0000000000000E+00  0.8203043403868E-01
 0.2112040044026E+00 -0.2541450351958E+00  0.0000000000000E+00  0.9204205513656E-01
 0.2334084553776E+00 -0.2750781398459E+00  0.0000000000000E+00  0.9814527652211E-01
 0.2536899015500E+00 -0.2942361935688E+00  0.0000000000000E+00  0.1006678013034E+00
 0.2721732660662E+00 -0.3117448496436E+00  0.0000000000000E+00  0.9991536065726E-01
 0.2889781603028E+00 -0.3277255368267E+00  0.0000000000000E+00  0.9617403671643E-01
 0.3042213169135E+00 -0.3422976887809E+00  0.0000000000000E+00  0.8971172629680E-01
 0.3180158909272E+00 -0.3555778297456E+00  0.0000000000000E+00  0.8077760498208E-01
 0.3304707718207E+00 -0.3676787443883E+00  0.0000000000000E+00  0.6960011779250E-01
 0.3416918916164E+00 -0.3787107867549E+00  0.0000000000000E+00  0.5638620496480E-01
 0.3517854810587E+00 -0.3887852446610E+00  0.0000000000000E+00  0.4132360400374E-01
 0.3608621407567E+00 -0.3980185597360E+00  0.0000000000000E+00  0.2458693798444E-01
 0.3690401596216E+00 -0.4065358208216E+00  0.0000000000000E+00  0.6349430443961E-02
 0.3764449043019E+00 -0.4144704389073E+00  0.0000000000000E+00 -0.1319672909817E-01
 0.3832010198372E+00 -0.4219568424651E+00  0.0000000000000E+00 -0.3381455280559E-01
 0.2736042771054E-01 -0.8228269171684E-01  0.0000000000000E+00 -0.2209263753533E-01
 0.6647335394660E-01 -0.1190992236006E+00  0.0000000000000E+00  0.1153623131687E-01
 0.1019743984779E+00 -0.1524910162456E+00  0.0000000000000E+00  0.3948422573499E-01
 0.1343562816408E+00 -0.1829375639251E+00  0.0000000000000E+00  0.6219008839966E-01
 0.1639834802518E+00 -0.2107939595984E+00  0.0000000000000E+00  0.8005362656098E-01
 0.1911283681805E+00 -0.2363262696338E+00  0.0000000000000E+00  0.9344797117251E-01
 0.2160001497207E+00 -0.2597398283452E+00  0.0000000000000E+00  0.1027263222625E+00
 0.2387670121148E+00 -0.2812008821416E+00  0.0000000000000E+00  0.1082251669472E+00
 0.2595725925995E+00 -0.3008526691692E+00  0.0000000000000E+00  0.1102646948289E+00
 0.2785476538995E+00 -0.3188268188214E+00  0.0000000000000E+00  0.1091482967933E+00
 0.2958171022547E+00 -0.3352501839715E+00  0.0000000000000E+00  0.1051626181748E+00
 0.3115026883598E+00 -0.3502473789304E+00  0.0000000000000E+00  0.9857785366421E-01
 0.3257227991786E+00 -0.3639404070243E+00  0.0000000000000E+00  0.8964698318401E-01
 0.3385921220317E+00 -0.3764482105599E+00  0.0000000000000E+00  0.7860416597212E-01
 0.3502228689739E+00 -0.3878878945973E+00  0.0000000000000E+00  0.6566461821710E-01
 0.3607274759396E+00 -0.3983775225383E+00  0.0000000000000E+00  0.5102753244278E-01
 0.3702216867353E+00 -0.4080393470988E+00  0.0000000000000E+00  0.3488238459762E-01
 0.3788265085373E+00 -0.4170019567132E+00  0.0000000000000E+00  0.1741963806681E-01
 0.3866662778940E+00 -0.4253986473636E+00  0.0000000000000E+00 -0.1152515368419E-02
 0.3938599066338E+00 -0.4333591787296E+00  0.0000000000000E+00 -0.2058769868650E-01
 0.2767334694885E-01 -0.8364107943700E-01  0.0000000000000E+00 -0.3635821322663E-02
 0.6766777787916E-01 -0.1212860127397E+00  0.0000000000000E+00  0.2799142394472E-01
 0.1039755979896E+00 -0.1554343794993E+00  0.0000000000000E+00  0.5433835239179E-01
 0.1370988032857E+00 -0.1865748811875E+00  0.0000000000000E+00  0.7574207286365E-01
 0.1674081341217E+00 -0.2150689335545E+00  0.0000000000000E+00  0.9253112769271E-01
 0.1951810350161E+00 -0.2411878208101E+00  0.0000000000000E+00  0.1050316369082E+00
 0.2206315093801E+00 -0.2651418797952E+00  0.0000000000000E+00  0.1135681327441E+00
 0.2439326874150E+00 -0.2871025272098E+00  0.0000000000000E+00  0.1184614871077E+00
 0.2652333404173E+00 -0.3072183552345E+00  0.0000000000000E+00  0.1200249259955E+00
 0.2846693468137E+00 -0.3256263027240E+00  0.0000000000000E+00  0.1185600957399E+00
 0.3023705270425E+00 -0.3424583128376E+00  0.0000000000000E+00  0.1143547877524E+00
 0.3184634385827E+00 -0.3578440049626E+00  0.0000000000000E+00  0.1076820222278E+00
 0.3330714801230E+00 -0.3719106627798E+00  0.0000000000000E+00  0.9879902096708E-01
 0.3463147534563E+00 -0.3847830073404E+00  0.0000000000000E+00  0.8794595001454E-01
 0.3583111188154E+00 -0.3965842488590E+00  0.0000000000000E+00  0.7534634048211E-01
 0.3691783597456E+00 -0.4074383344663E+00  0.0000000000000E+00  0.6121042800154E-01
 0.3790364497105E+00 -0.4174723549610E+00  0.0000000000000E+00  0.4574139736471E-01
 0.3880084859539E+00 -0.4268176737091E+00  0.0000000000000E+00  0.2914481749626E-01
 0.3962178130442E+00 -0.4356073625667E+00  0.0000000000000E+00  0.1164184672211E-01
 0.4037786299746E+00 -0.4439673243804E+00  0.0000000000000E+00 -0.6515364148306E-02
 0.2809800383124E-01 -0.8507142892187E-01  0.0000000000000E+00  0.1511487347335E-01
 0.6889456224475E-01 -0.1234696122454E+00  0.0000000000000E+00  0.4469888857849E-01
 0.1059498448393E+00 -0.1583183130174E+00  0.0000000000000E+00  0.6941133656894E-01
 0.1397688038825E+00 -0.1901093124142E+00  0.0000000000000E+00  0.8948511844700E-01
 0.1707233655878E+00 -0.2192054368174E+00  0.0000000000000E+00  0.1051767994446E+00
 0.1990921594876E+00 -0.2458794407356E+00  0.0000000000000E+00  0.1167657252055E+00
 0.2250911617339E+00 -0.2703439494428E+00  0.0000000000000E+00  0.1245484350761E+00
 0.2488965042449E+00 -0.2927736982892E+00  0.0000000000000E+00  0.1288310520669E+00
 0.2706608518643E+00 -0.3133214640267E+00  0.0000000000000E+00  0.1299207112103E+00
 0.2905244782016E+00 -0.3321288313403E+00  0.0000000000000E+00  0.1281180867949E+00
 0.3086217427196E+00 -0.3493325039953E+00  0.0000000000000E+00  0.1237127378165E+00
 0.3250838057464E+00 -0.3650669359529E+00  0.0000000000000E+00  0.1169809464924E+00
 0.3400388710988E+00 -0.3794645028563E+00  0.0000000000000E+00  0.1081844011607E+00
 0.3536121008624E+00 -0.3926553503682E+00  0.0000000000000E+00  0.9756925657998E-01
 0.3659264308262E+00 -0.4047682015838E+00  0.0000000000000E+00  0.8536704173010E-01
 0.3771042409517E+00 -0.4159320953269E+00  0.0000000000000E+00  0.7179830810771E-01
 0.3872689841567E+00 -0.4262781439119E+00  0.0000000000000E+00  0.5707864500778E-01
 0.3965454177382E+00 -0.4359399559533E+00  0.0000000000000E+00  0.4142668444157E-01
 0.4050561156852E+00 -0.4450504519526E+00  0.0000000000000E+00  0.2507382903315E-01
 0.4129116812923E+00 -0.4537325841946E+00  0.0000000000000E+00  0.8274772259498E-02
 0.2863721994066E-01 -0.8657647551677E-01  0.0000000000000E+00  0.3412729728986E-01
 0.7015491158248E-01 -0.1256512015247E+00  0.0000000000000E+00  0.6163666942801E-01
 0.1078972733744E+00 -0.1611429361280E+00  0.0000000000000E+00  0.8468686822870E-01
 0.1423654370771E+00 -0.1935399712096E+00  0.0000000000000E+00  0.1034049842251E+00
 0.1739271907684E+00 -0.2232013960039E+00  0.0000000000000E+00  0.1179757961822E+00
 0.2028583529767E+00 -0.2503975843813E+00  0.0000000000000E+00  0.1286328940966E+00
 0.2293740102102E+00 -0.2753407043634E+00  0.0000000000000E+00  0.1356461331807E+00
 0.2536513582130E+00 -0.2982069640465E+00  0.0000000000000E+00  0.1393082306272E+00
 0.2758457393876E+00 -0.3191521804831E+00  0.0000000000000E+00  0.1399214222202E+00
 0.2961011353733E+00 -0.3383219533259E+00  0.0000000000000E+00  0.1377863486076E+00
 0.3145561053678E+00 -0.3558574516922E+00  0.0000000000000E+00  0.1331949839737E+00
 0.3313462458190E+00 -0.3718978287020E+00  0.0000000000000E+00  0.1264272092697E+00
 0.3466043996587E+00 -0.3865804013806E+00  0.0000000000000E+00  0.1177491914102E+00
 0.3604604838667E+00 -0.4000404311744E+00  0.0000000000000E+00  0.1074127585336E+00
 0.3730420024884E+00 -0.4124116230003E+00  0.0000000000000E+00  0.9565679533498E-01
 0.3844752741262E+00 -0.4238274041463E+00  0.0000000000000E+00  0.8271117834874E-01
 0.3948866116387E+00 -0.4344222186711E+00  0.0000000000000E+00  0.6880250513583E-01
 0.4044021712621E+00 -0.4443315560583E+00  0.0000000000000E+00  0.5416059019176E-01
 0.4131441554125E+00 -0.4536884461659E+00  0.0000000000000E+00  0.3902466316398E-01
 0.4212208335344E+00 -0.4626139340484E+00  0.0000000000000E+00  0.2364910949975E-01
 0.2929364212607E-01 -0.8815902481656E-01  0.0000000000000E+00  0.5336877391852E-01
 0.7145055876059E-01 -0.1278326926280E+00  0.0000000000000E+00  0.7878248751087E-01
 0.1098190809371E+00 -0.1639096007016E+00  0.0000000000000E+00  0.1001481636209E+00
 0.1448893048477E+00 -0.1968675600623E+00  0.0000000000000E+00  0.1174866131425E+00
 0.1770193325021E+00 -0.2270565614995E+00  0.0000000000000E+00  0.1309120361461E+00
 0.2064780917777E+00 -0.2547406702851E+00  0.0000000000000E+00  0.1406141328062E+00
 0.2334769100220E+00 -0.2801288484014E+00  0.0000000000000E+00  0.1468380455871E+00
 0.2581921421198E+00 -0.3033969660066E+00  0.0000000000000E+00  0.1498649168382E+00
 0.2807806472041E+00 -0.3247027916627E+00  0.0000000000000E+00  0.1499935936657E+00
 0.3013894919647E+00 -0.3441953724220E+00  0.0000000000000E+00  0.1475257801076E+00
 0.3201611621232E+00 -0.3620201120030E+00  0.0000000000000E+00  0.1427565304286E+00
 0.3372355893371E+00 -0.3783207911195E+00  0.0000000000000E+00  0.1359695554745E+00
 0.3527501548320E+00 -0.3932395805418E+00  0.0000000000000E+00  0.1274353006045E+00
 0.3668392898587E+00 -0.4069166109757E+00  0.0000000000000E+00  0.1174106633563E+00
 0.3796346259251E+00 -0.4194901019745E+00  0.0000000000000E+00  0.1061409363013E+00
 0.3912658360879E+00 -0.4310972372007E+00  0.0000000000000E+00  0.9386410059829E-01
 0.4018615648998E+00 -0.4418751914827E+00  0.0000000000000E+00  0.8081632839502E-01
 0.4115492278355E+00 -0.4519610931366E+00  0.0000000000000E+00  0.6723698506796E-01
 0.4204512377270E+00 -0.4614885210154E+00  0.0000000000000E+00  0.5337120621432E-01
 0.4286748296739E+00 -0.4705777823092E+00  0.0000000000000E+00  0.3947079127758E-01
 0.3006976929753E-01 -0.8982199427273E-01  0.0000000000000E+00  0.7280632568266E-01
 0.7278385152468E-01 -0.1300168276665E+00  0.0000000000000E+00  0.9611388722132E-01
 0.1117176488876E+00 -0.1666210199526E+00  0.0000000000000E+00  0.1157780440390E+00
 0.1473425923170E+00 -0.2000945106765E+00  0.0000000000000E+00  0.1317141541408E+00
 0.1800013555750E+00 -0.2307726466579E+00  0.0000000000000E+00  0.1439681818526E+00
 0.2099518462860E+00 -0.2589092127469E+00  0.0000000000000E+00  0.1526887181661E+00
 0.2373987895535E+00 -0.2847072460923E+00  0.0000000000000E+00  0.1580988573553E+00
 0.2625158604988E+00 -0.3083405355997E+00  0.0000000000000E+00  0.1604704991596E+00
 0.2854603615070E+00 -0.3299677998128E+00  0.0000000000000E+00  0.1601009340192E+00
 0.3063819168783E+00 -0.3497410599402E+00  0.0000000000000E+00  0.1572941806948E+00
 0.3254267615346E+00 -0.3678098176923E+00  0.0000000000000E+00  0.1523490498756E+00
 0.3427391547423E+00 -0.3843225012578E+00  0.0000000000000E+00  0.1455532043712E+00
 0.3584610033680E+00 -0.3994261339335E+00  0.0000000000000E+00  0.1371809554770E+00
 0.3727310909788E+00 -0.4132655463393E+00  0.0000000000000E+00  0.1274933800731E+00
 0.3856848003294E+00 -0.4259830690056E+00  0.0000000000000E+00  0.1167409308681E+00
 0.3974546239942E+00 -0.4377190585329E+00  0.0000000000000E+00  0.1051682563421E+00
 0.4081710509496E+00 -0.4486128610735E+00  0.0000000000000E+00  0.9301966212100E-01
 0.4179626773894E+00 -0.4588030624367E+00  0.0000000000000E+00  0.8054274864891E-01
 0.4269528101888E+00 -0.4684243424304E+00  0.0000000000000E+00  0.6798726087557E-01
 0.4352491793232E+00 -0.4775976361685E+00  0.0000000000000E+00  0.5560060050579E-01
 0.3096798528609E-01 -0.9156846105319E-01  0.0000000000000E+00  0.9240692679153E-01
 0.7415784430725E-01 -0.1322072815653E+00  0.0000000000000E+00  0.1136083981456E+00
 0.1135966683819E+00 -0.1692814019756E+00  0.0000000000000E+00  0.1315590172949E+00
 0.1497292061259E+00 -0.2032251277744E+00  0.0000000000000E+00  0.1460709778553E+00
 0.1828768033152E+00 -0.2343534681993E+00  0.0000000000000E+00  0.1571256095385E+00
 0.2132822084648E+00 -0.2629059520606E+00  0.0000000000000E+00  0.1648341595801E+00
 0.2411407660815E+00 -0.2890770406137E+00  0.0000000000000E+00  0.1694010624879E+00
 0.2666217335901E+00 -0.3130368002845E+00  0.0000000000000E+00  0.1710918233691E+00
 0.2898819040728E+00 -0.3349440184341E+00  0.0000000000000E+00  0.1702043339568E+00
 0.3110730592252E+00 -0.3549533427687E+00  0.0000000000000E+00  0.1670463310760E+00
 0.3303451309504E+00 -0.3732183594627E+00  0.0000000000000E+00  0.1619210660715E+00
 0.3478468183056E+00 -0.3898922819754E+00  0.0000000000000E+00  0.1551201650159E+00
 0.3637246514184E+00 -0.4051270938383E+00  0.0000000000000E+00  0.1469211794371E+00
 0.3781216962529E+00 -0.4190722477419E+00  0.0000000000000E+00  0.1375881859328E+00
 0.3911767727194E+00 -0.4318738441382E+00  0.0000000000000E+00  0.1273752409504E+00
 0.4030246802522E+00 -0.4436748531071E+00  0.0000000000000E+00  0.1165319944528E+00
 0.4137972510537E+00 -0.4546162210370E+00  0.0000000000000E+00  0.1053094335294E+00
 0.4236241684593E+00 -0.4648377981959E+00  0.0000000000000E+00  0.9396241863698E-01
 0.4326303827929E+00 -0.4744759764128E+00  0.0000000000000E+00  0.8274462349799E-01
 0.4409260060333E+00 -0.4836540133767E+00  0.0000000000000E+00  0.7189781678217E-01
 0.3199059927473E-01 -0.9340171750979E-01  0.0000000000000E+00  0.1121377862652E+00
 0.7557639697115E-01 -0.1344087716344E+00  0.0000000000000E+00  0.1312437138717E+00
 0.1154612725018E+00 -0.1718965894728E+00  0.0000000000000E+00  0.1474733629319E+00
 0.1520549174444E+00 -0.2062657372696E+00  0.0000000000000E+00  0.1605396854062E+00
 0.1856513359161E+00 -0.2378050880033E+00  0.0000000000000E+00  0.1703643657965E+00
 0.2164740173474E+00 -0.2667359823695E+00  0.0000000000000E+00  0.1770261294999E+00
 0.2447062551954E+00 -0.2932417649576E+00  0.0000000000000E+00  0.1807148926728E+00
 0.2705112899709E+00 -0.3174872778026E+00  0.0000000000000E+00  0.1816931438150E+00
 0.2940446086335E+00 -0.3396306505543E+00  0.0000000000000E+00  0.1802618651425E+00
 0.3154599090252E+00 -0.3598289665300E+00  0.0000000000000E+00  0.1767340654543E+00
 0.3349109212096E+00 -0.3782400337751E+00  0.0000000000000E+00  0.1714181267850E+00
 0.3525510413841E+00 -0.3950221319221E+00  0.0000000000000E+00  0.1646095392616E+00
 0.3685316526652E+00 -0.4103324434396E+00  0.0000000000000E+00  0.1565882552728E+00
 0.3830001400631E+00 -0.4243250721135E+00  0.0000000000000E+00  0.1476198737701E+00
 0.3960985083362E+00 -0.4371496111410E+00  0.0000000000000E+00  0.1379601673318E+00
 0.4079633480189E+00 -0.4489510854340E+00  0.0000000000000E+00  0.1278618549853E+00
 0.4187272613582E+00 -0.4598714038426E+00  0.0000000000000E+00  0.1175811035795E+00
 0.4285208370662E+00 -0.4700514024951E+00  0.0000000000000E+00  0.1073793888550E+00
 0.4374714460120E+00 -0.4796298178309E+00  0.0000000000000E+00  0.9751433228195E-01
 0.4456938885259E+00 -0.4887343214657E+00  0.0000000000000E+00  0.8822174172442E-01
 0.3313989439673E-01 -0.9532533364833E-01  0.0000000000000E+00  0.1319666463195E+00
 0.7704428117568E-01 -0.1366271739737E+00  0.0000000000000E+00  0.1489978767232E+00
 0.1173181753609E+00 -0.1744742054740E+00  0.0000000000000E+00  0.1635032103371E+00
 0.1543275095018E+00 -0.2092248379987E+00  0.0000000000000E+00  0.1751020995085E+00
 0.1883328694826E+00 -0.2411359546416E+00  0.0000000000000E+00  0.1836631005164E+00
 0.2195344807813E+00 -0.2704068747565E+00  0.0000000000000E+00  0.1892383686444E+00
 0.2481010716471E+00 -0.2972074434971E+00  0.0000000000000E+00  0.1920082217293E+00
 0.2741884454892E+00 -0.3216959557044E+00  0.0000000000000E+00  0.1922360523844E+00
 0.2979501780392E+00 -0.3440293467928E+00  0.0000000000000E+00  0.1902287583590E+00
 0.3195418324730E+00 -0.3643671323489E+00  0.0000000000000E+00  0.1863063226934E+00
 0.3391212184092E+00 -0.3828716567724E+00  0.0000000000000E+00  0.1807829523410E+00
 0.3568468555736E+00 -0.3997067132783E+00  0.0000000000000E+00  0.1739577943417E+00
 0.3728753637485E+00 -0.4150350747689E+00  0.0000000000000E+00  0.1661121507377E+00
 0.3873586073525E+00 -0.4290156498089E+00  0.0000000000000E+00  0.1575113579377E+00
 0.4004415903673E+00 -0.4418013174573E+00  0.0000000000000E+00  0.1484106524026E+00
 0.4122621555231E+00 -0.4535385822851E+00  0.0000000000000E+00  0.1390635601998E+00
 0.4229529734983E+00 -0.4643695578914E+00  0.0000000000000E+00  0.1297297996551E+00
 0.4326451851691E+00 -0.4744356223710E+00  0.0000000000000E+00  0.1206771235648E+00
 0.4414693063727E+00 -0.4838784343604E+00  0.0000000000000E+00  0.1121679508298E+00
 0.4495475548539E+00 -0.4928325729049E+00  0.0000000000000E+00  0.1044331453255E+00
 0.3441818554480E-01 -0.9734323129617E-01  0.0000000000000E+00  0.1518621294005E+00
 0.7856729780021E-01 -0.1388696521023E+00  0.0000000000000E+00  0.1668494949049E+00
 0.1191758220401E+00 -0.1770238110305E+00  0.0000000000000E+00  0.1796306314679E+00
 0.1565569337222E+00 -0.2121132629268E+00  0.0000000000000E+00  0.1897392543601E+00
 0.1909317195062E+00 -0.2443570500114E+00  0.0000000000000E+00  0.1969989885590E+00
 0.2224732966662E+00 -0.2739288002697E+00  0.0000000000000E+00  0.2014425755732E+00
 0.2513335245583E+00 -0.3009826881283E+00  0.0000000000000E+00  0.2032464534087E+00
 0.2776595714300E+00 -0.3256693601493E+00  0.0000000000000E+00  0.2026793914461E+00
 0.3016027256236E+00 -0.3481442475780E+00  0.0000000000000E+00  0.2000573659347E+00
 0.3233205861483E+00 -0.3685695124830E+00  0.0000000000000E+00  0.1957091794019E+00
 0.3429755282536E+00 -0.3871125506737E+00  0.0000000000000E+00  0.1899555593655E+00
 0.3607318120206E+00 -0.4039433033922E+00  0.0000000000000E+00  0.1830990000226E+00
 0.3767518530799E+00 -0.4192306993745E+00  0.0000000000000E+00  0.1754208970916E+00
 0.3911923002106E+00 -0.4331387515115E+00  0.0000000000000E+00  0.1671842253446E+00
 0.4042010505218E+00 -0.4458235024018E+00  0.0000000000000E+00  0.1586410294155E+00
 0.4159166267651E+00 -0.4574323372243E+00  0.0000000000000E+00  0.1500429673094E+00
 0.4264708853034E+00 -0.4681066491906E+00  0.0000000000000E+00  0.1416514408297E+00
 0.4359948942527E+00 -0.4779876555678E+00  0.0000000000000E+00  0.1337403895713E+00
 0.4446228479996E+00 -0.4872203284202E+00  0.0000000000000E+00  0.1265788312078E+00
 0.4524874494217E+00 -0.4959489680151E+00  0.0000000000000E+00  0.1203955930138E+00
 0.3582788994481E-01 -0.9945976763325E-01  0.0000000000000E+00  0.1717941032065E+00
 0.8015240665843E-01 -0.1411447958700E+00  0.0000000000000E+00  0.1847779697241E+00
 0.1210445511919E+00 -0.1795570732762E+00  0.0000000000000E+00  0.1958377272835E+00
 0.1587554752449E+00 -0.2149443475772E+00  0.0000000000000E+00  0.2044313633683E+00
 0.1934607481437E+00 -0.2474820376548E+00  0.0000000000000E+00  0.2103476188903E+00
 0.2253027716224E+00 -0.2773146482565E+00  0.0000000000000E+00  0.2136082595623E+00
 0.2544145038520E+00 -0.3045787834808E+00  0.0000000000000E+00  0.2143923722258E+00
 0.2809335483627E+00 -0.3294166082479E+00  0.0000000000000E+00  0.2129791316727E+00
 0.3050087977588E+00 -0.3519820045418E+00  0.0000000000000E+00  0.2096970906464E+00
 0.3268003086719E+00 -0.3724402416400E+00  0.0000000000000E+00  0.2048858473401E+00
 0.3464757335536E+00 -0.3909645018666E+00  0.0000000000000E+00  0.1988733401892E+00
 0.3642058972278E+00 -0.4077317116687E+00  0.0000000000000E+00  0.1919650063688E+00
 0.3801597659204E+00 -0.4229177139219E+00  0.0000000000000E+00  0.1844408907876E+00
 0.3944992473886E+00 -0.4366920962059E+00  0.0000000000000E+00  0.1765591967271E+00
 0.4073751286590E+00 -0.4492140514972E+00  0.0000000000000E+00  0.1685656809646E+00
 0.4189260100352E+00 -0.4606312285821E+00  0.0000000000000E+00  0.1607069478730E+00
 0.4292818253183E+00 -0.4710831690214E+00  0.0000000000000E+00  0.1532438294176E+00
 0.4385725617914E+00 -0.4807098683356E+00  0.0000000000000E+00  0.1464564921082E+00
 0.4469362270276E+00 -0.4896596209290E+00  0.0000000000000E+00  0.1406233549963E+00
 0.4545191658797E+00 -0.4980893431834E+00  0.0000000000000E+00  0.1359766436528E+00
 0.3737160682641E-01 -0.1016798303433E+00  0.0000000000000E+00  0.1917340778315E+00
 0.8180786955647E-01 -0.1434627745178E+00  0.0000000000000E+00  0.2027637433046E+00
 0.1229367718776E+00 -0.1820879486012E+00  0.0000000000000E+00  0.2121067142456E+00
 0.1609379297994E+00 -0.2177341105109E+00  0.0000000000000E+00  0.2191577671402E+00
 0.1959355165840E+00 -0.2505274167128E+00  0.0000000000000E+00  0.2236828510950E+00
 0.2280379374145E+00 -0.2805801427281E+00  0.0000000000000E+00  0.2257025562113E+00
 0.2573575574006E+00 -0.3080097627924E+00  0.0000000000000E+00  0.2254059578703E+00
 0.2840218049204E+00 -0.3329494450237E+00  0.0000000000000E+00  0.2230882178948E+00
 0.3081773777449E+00 -0.3555517828536E+00  0.0000000000000E+00  0.2190942876447E+00
 0.3299874922244E+00 -0.3759858879177E+00  0.0000000000000E+00  0.2137766441366E+00
 0.3496260304606E+00 -0.3944316978424E+00  0.0000000000000E+00  0.2074711063119E+00
 0.3672714238079E+00 -0.4110741718610E+00  0.0000000000000E+00  0.2004855658046E+00
 0.3831001552778E+00 -0.4260970321102E+00  0.0000000000000E+00  0.1930971141224E+00
 0.3972800647181E+00 -0.4396761100250E+00  0.0000000000000E+00  0.1855564858735E+00
 0.4099649653862E+00 -0.4519738825796E+00  0.0000000000000E+00  0.1780995891905E+00
 0.4212929223150E+00 -0.4631376505220E+00  0.0000000000000E+00  0.1709641707666E+00
 0.4313905770258E+00 -0.4733037360031E+00  0.0000000000000E+00  0.1644076776605E+00
 0.4403853382090E+00 -0.4826093972870E+00  0.0000000000000E+00  0.1587165206146E+00
 0.4484184915894E+00 -0.4912056448346E+00  0.0000000000000E+00  0.1541822224164E+00
 0.4556527179741E+00 -0.4992644584728E+00  0.0000000000000E+00  0.1510489838253E+00
 0.3905221334486E-01 -0.1040089478304E+00  0.0000000000000E+00  0.2116556626692E+00
 0.8354341268960E-01 -0.1458355085131E+00  0.0000000000000E+00  0.2207885949055E+00
 0.1248671630105E+00 -0.1846328876364E+00  0.0000000000000E+00  0.2284200339490E+00
 0.1631218004179E+00 -0.2205014529023E+00  0.0000000000000E+00  0.2338968762142E+00
 0.1983744497717E+00 -0.2535126874160E+00  0.0000000000000E+00  0.2369766459551E+00
 0.2306966704099E+00 -0.2837439606708E+00  0.0000000000000E+00  0.2376900069496E+00
 0.2601789620561E+00 -0.3112924761999E+00  0.0000000000000E+00  0.2362441613369E+00
 0.2869383431346E+00 -0.3362822651442E+00  0.0000000000000E+00  0.2329563809777E+00
 0.3111198726185E+00 -0.3588652445987E+00  0.0000000000000E+00  0.2281921396347E+00
 0.3328909376028E+00 -0.3792154056937E+00  0.0000000000000E+00  0.2223189398517E+00
 0.3524328509854E+00 -0.3975206495171E+00  0.0000000000000E+00  0.2156810973740E+00
 0.3699329077743E+00 -0.4139752208661E+00  0.0000000000000E+00  0.2085883936558E+00
 0.3855762919914E+00 -0.4287718962990E+00  0.0000000000000E+00  0.2013132557711E+00
 0.3995376776139E+00 -0.4420936473998E+00  0.0000000000000E+00  0.1940960229751E+00
 0.4119742332973E+00 -0.4541065695526E+00  0.0000000000000E+00  0.1871587332809E+00
 0.4230229106101E+00 -0.4649570578170E+00  0.0000000000000E+00  0.1807257392375E+00
 0.4328054002846E+00 -0.4747765912638E+00  0.0000000000000E+00  0.1750474950909E+00
 0.4414444217332E+00 -0.4836976027693E+00  0.0000000000000E+00  0.1704164840700E+00
 0.4490830583942E+00 -0.4918723433604E+00  0.0000000000000E+00  0.1671418423417E+00
 0.4559015862223E+00 -0.4994890614720E+00  0.0000000000000E+00  0.1654916470352E+00
 0.4087297078584E-01 -0.1064534077864E+00  0.0000000000000E+00  0.2315350286949E+00
 0.8537040504978E-01 -0.1482768554906E+00  0.0000000000000E+00  0.2388359428483E+00
 0.1268528940934E+00 -0.1872110597503E+00  0.0000000000000E+00  0.2447604441847E+00
 0.1653275129615E+00 -0.2232683754480E+00  0.0000000000000E+00  0.2486260657682E+00
 0.2007990106034E+00 -0.2564605246334E+00  0.0000000000000E+00  0.2501988263030E+00
 0.2332998083005E+00 -0.2868278459556E+00  0.0000000000000E+00  0.2495322604153E+00
 0.2628977797612E+00 -0.3144466420052E+00  0.0000000000000E+00  0.2468606052436E+00
 0.2896997392732E+00 -0.3394321076329E+00  0.0000000000000E+00  0.2425298860566E+00
 0.3138500717188E+00 -0.3619365012322E+00  0.0000000000000E+00  0.2369304866767E+00
 0.3355216849107E+00 -0.3821400618028E+00  0.0000000000000E+00  0.2304470722857E+00
 0.3549047706166E+00 -0.4002400973495E+00  0.0000000000000E+00  0.2234329554294E+00
 0.3721969393823E+00 -0.4164415713487E+00  0.0000000000000E+00  0.2161991636104E+00
 0.3875934667654E+00 -0.4309476827668E+00  0.0000000000000E+00  0.2090117121999E+00
 0.4012770177881E+00 -0.4439496883464E+00  0.0000000000000E+00  0.2020975013999E+00
 0.4134087126186E+00 -0.4556179106526E+00  0.0000000000000E+00  0.1956602792295E+00
 0.4241239298680E+00 -0.4660974249096E+00  0.0000000000000E+00  0.1899056276985E+00
 0.4335374610275E+00 -0.4755129947419E+00  0.0000000000000E+00  0.1850722918940E+00
 0.4417644442246E+00 -0.4839894157058E+00  0.0000000000000E+00  0.1814581484045E+00
 0.4489469046290E+00 -0.4916773873861E+00  0.0000000000000E+00  0.1793953040778E+00
 0.4552815067258E+00 -0.4987804439053E+00  0.0000000000000E+00  0.1791912095041E+00
 0.4283764518720E-01 -0.1090203927870E+00  0.0000000000000E+00  0.2513514642231E+00
 0.8730206116047E-01 -0.1508028217037E+00  0.0000000000000E+00  0.2568912366010E+00
 0.1289138806225E+00 -0.1898446139760E+00  0.0000000000000E+00  0.2611111632112E+00
 0.1675786665047E+00 -0.2260602320185E+00  0.0000000000000E+00  0.2633215741721E+00
 0.2032338985727E+00 -0.2593969775531E+00  0.0000000000000E+00  0.2633168026584E+00
 0.2358712758172E+00 -0.2898567332171E+00  0.0000000000000E+00  0.2611877186355E+00
 0.2655359062202E+00 -0.3174948904885E+00  0.0000000000000E+00  0.2572052254397E+00
 0.2923251235580E+00 -0.3424186285072E+00  0.0000000000000E+00  0.2517512348695E+00
 0.3163840782102E+00 -0.3647820372960E+00  0.0000000000000E+00  0.2452456359573E+00
 0.3378929230285E+00 -0.3847733386843E+00  0.0000000000000E+00  0.2380922687030E+00
 0.3570524117252E+00 -0.4026009123819E+00  0.0000000000000E+00  0.2306537125950E+00
 0.3740720699084E+00 -0.4184820017633E+00  0.0000000000000E+00  0.2232414838613E+00
 0.3891588164355E+00 -0.4326317353306E+00  0.0000000000000E+00  0.2161134926229E+00
 0.4025047268453E+00 -0.4452510478401E+00  0.0000000000000E+00  0.2094802321606E+00
 0.4142758310768E+00 -0.4565154643362E+00  0.0000000000000E+00  0.2035225140229E+00
 0.4246057433916E+00 -0.4665686246249E+00  0.0000000000000E+00  0.1984208746409E+00
 0.4336001765155E+00 -0.4755265318332E+00  0.0000000000000E+00  0.1943960886328E+00
 0.4413628838230E+00 -0.4835026827670E+00  0.0000000000000E+00  0.1917496076847E+00
 0.4480299425305E+00 -0.4906415133722E+00  0.0000000000000E+00  0.1908418228806E+00
 0.4538097754390E+00 -0.4971574113926E+00  0.0000000000000E+00  0.1920380770214E+00
 0.4495064010969E-01 -0.1117181192716E+00  0.0000000000000E+00  0.2710879572403E+00
 0.8935366500473E-01 -0.1534317897298E+00  0.0000000000000E+00  0.2749424025651E+00
 0.1310730797099E+00 -0.1925589759569E+00  0.0000000000000E+00  0.2774560340074E+00
 0.1699023268448E+00 -0.2289060234523E+00  0.0000000000000E+00  0.2779583638888E+00
 0.2057072785279E+00 -0.2623516968233E+00  0.0000000000000E+00  0.2762952122073E+00
 0.2384382194023E+00 -0.2928588774843E+00  0.0000000000000E+00  0.2726110729023E+00
 0.2681181056155E+00 -0.3204627898638E+00  0.0000000000000E+00  0.2672238009544E+00
 0.2948361261579E+00 -0.3452640349942E+00  0.0000000000000E+00  0.2605587774956E+00
 0.3187401968264E+00 -0.3674205850543E+00  0.0000000000000E+00  0.2530701229814E+00
 0.3400198619082E+00 -0.3871307946510E+00  0.0000000000000E+00  0.2451825701905E+00
 0.3588883362540E+00 -0.4046159819787E+00  0.0000000000000E+00  0.2372678159303E+00
 0.3755687272244E+00 -0.4201072738696E+00  0.0000000000000E+00  0.2296368922251E+00
 0.3902812092881E+00 -0.4338332624369E+00  0.0000000000000E+00  0.2225380443148E+00
 0.4032289096727E+00 -0.4460061432504E+00  0.0000000000000E+00  0.2161627628100E+00
 0.4145841948595E+00 -0.4568080824057E+00  0.0000000000000E+00  0.2106644196728E+00
 0.4244792365382E+00 -0.4663817199103E+00  0.0000000000000E+00  0.2061914180415E+00
 0.4330084588912E+00 -0.4748323012515E+00  0.0000000000000E+00  0.2029382203941E+00
 0.4402595104418E+00 -0.4822575365046E+00  0.0000000000000E+00  0.2012058551226E+00
 0.4463552742194E+00 -0.4887885743378E+00  0.0000000000000E+00  0.2013863335412E+00
 0.4515066578688E+00 -0.4946417626253E+00  0.0000000000000E+00  0.2039208856560E+00
 0.4721712333557E-01 -0.1145559737347E+00  0.0000000000000E+00  0.2907318434269E+00
 0.9154281065094E-01 -0.1561847638820E+00  0.0000000000000E+00  0.2929804027620E+00
 0.1333568340105E+00 -0.1953831969107E+00  0.0000000000000E+00  0.2937797539303E+00
 0.1723293783961E+00 -0.2318387548492E+00  0.0000000000000E+00  0.2925099565207E+00
 0.2082510511107E+00 -0.2653582074073E+00  0.0000000000000E+00  0.2890954549640E+00
 0.2410311541718E+00 -0.2958659988529E+00  0.0000000000000E+00  0.2837527012604E+00
 0.2706720258237E+00 -0.3233788535188E+00  0.0000000000000E+00  0.2768573423577E+00
 0.2972567753420E+00 -0.3479929714548E+00  0.0000000000000E+00  0.2688862089680E+00
 0.3209387561258E+00 -0.3698729314927E+00  0.0000000000000E+00  0.2603324134320E+00
 0.3419195416462E+00 -0.3892298573824E+00  0.0000000000000E+00  0.2516427746658E+00
 0.3604269080967E+00 -0.4063000604210E+00  0.0000000000000E+00  0.2431972488233E+00
 0.3766991660671E+00 -0.4213300838922E+00  0.0000000000000E+00  0.2353049682206E+00
 0.3909712369385E+00 -0.4345633475663E+00  0.0000000000000E+00  0.2282030869239E+00
 0.4034590152055E+00 -0.4462249077548E+00  0.0000000000000E+00  0.2220622486573E+00
 0.4143431676720E+00 -0.4565055093536E+00  0.0000000000000E+00  0.2170047314155E+00
 0.4237556395361E+00 -0.4655481669215E+00  0.0000000000000E+00  0.2131393662137E+00
 0.4317777684962E+00 -0.4734459077818E+00  0.0000000000000E+00  0.2106233352155E+00
 0.4384757656062E+00 -0.4802756588076E+00  0.0000000000000E+00  0.2097496330096E+00
 0.4439495760165E+00 -0.4861458269581E+00  0.0000000000000E+00  0.2109409696049E+00
 0.4483984794149E+00 -0.4912609020906E+00  0.0000000000000E+00  0.2147291731297E+00
 0.4964315324030E-01 -0.1175446317642E+00  0.0000000000000E+00  0.3102755739946E+00
 0.9388966496023E-01 -0.1590856288079E+00  0.0000000000000E+00  0.3110000219644E+00
 0.1357952989235E+00 -0.1983503844871E+00  0.0000000000000E+00  0.3100682669216E+00
 0.1748949791954E+00 -0.2348958945461E+00  0.0000000000000E+00  0.3069482814359E+00
 0.2109012017132E+00 -0.2684542596062E+00  0.0000000000000E+00  0.3016751197649E+00
 0.2436841459816E+00 -0.2989134577368E+00  0.0000000000000E+00  0.2945579012748E+00
 0.2732282053647E+00 -0.3262745346753E+00  0.0000000000000E+00  0.2860413101382E+00
 0.2996133486717E+00 -0.3506323525199E+00  0.0000000000000E+00  0.2766619214136E+00
 0.3230018540824E+00 -0.3721616420431E+00  0.0000000000000E+00  0.2669565252409E+00
 0.3436105556077E+00 -0.3910895223815E+00  0.0000000000000E+00  0.2573944048416E+00
 0.3616840958229E+00 -0.4076695493872E+00  0.0000000000000E+00  0.2483618107966E+00
 0.3774774458364E+00 -0.4221650271662E+00  0.0000000000000E+00  0.2401637262983E+00
 0.3912413728862E+00 -0.4348351292015E+00  0.0000000000000E+00  0.2330246764429E+00
 0.4032059853483E+00 -0.4459189924232E+00  0.0000000000000E+00  0.2270936968308E+00
 0.4135626410221E+00 -0.4556182168085E+00  0.0000000000000E+00  0.2224603015360E+00
 0.4224456578096E+00 -0.4640789386179E+00  0.0000000000000E+00  0.2191873210231E+00
 0.4299228310951E+00 -0.4713820805437E+00  0.0000000000000E+00  0.2173809248400E+00
 0.4360337723978E+00 -0.4775791916910E+00  0.0000000000000E+00  0.2173126788873E+00
 0.4408433413290E+00 -0.4827440251692E+00  0.0000000000000E+00  0.2194274256500E+00
 0.4445196946483E+00 -0.4870499707544E+00  0.0000000000000E+00  0.2243558881652E+00
 0.5223574555383E-01 -0.1206960963708E+00  0.0000000000000E+00  0.3297175593853E+00
 0.9641722219432E-01 -0.1621614012479E+00  0.0000000000000E+00  0.3290009477922E+00
 0.1384229713343E+00 -0.2014982361155E+00  0.0000000000000E+00  0.3263093534543E+00
 0.1776391539555E+00 -0.2381199889050E+00  0.0000000000000E+00  0.3212434728802E+00
 0.2136982394157E+00 -0.2716822688553E+00  0.0000000000000E+00  0.3139871746276E+00
 0.2464350174823E+00 -0.3020404579468E+00  0.0000000000000E+00  0.3049658529540E+00
 0.2758200513197E+00 -0.3291841894724E+00  0.0000000000000E+00  0.2947045719674E+00
 0.3019341489075E+00 -0.3532111215294E+00  0.0000000000000E+00  0.2838081319958E+00
 0.3249529870151E+00 -0.3743106649163E+00  0.0000000000000E+00  0.2728614927740E+00
 0.3451126295798E+00 -0.3927299019084E+00  0.0000000000000E+00  0.2623556475785E+00
 0.3626771439794E+00 -0.4087421362370E+00  0.0000000000000E+00  0.2526795594555E+00
 0.3779193529879E+00 -0.4226284965113E+00  0.0000000000000E+00  0.2441304020974E+00
 0.3911063005003E+00 -0.4346641167002E+00  0.0000000000000E+00  0.2369178864986E+00
 0.4024828752776E+00 -0.4451024885187E+00  0.0000000000000E+00  0.2311694440777E+00
 0.4122533238209E+00 -0.4541578236982E+00  0.0000000000000E+00  0.2269436055920E+00
 0.4205586414782E+00 -0.4619837870072E+00  0.0000000000000E+00  0.2242548076905E+00
 0.4274556336554E+00 -0.4686525069980E+00  0.0000000000000E+00  0.2231435527688E+00
 0.4329545935130E+00 -0.4741887213240E+00  0.0000000000000E+00  0.2238379837018E+00
 0.4370709505410E+00 -0.4786175552762E+00  0.0000000000000E+00  0.2267812730699E+00
 0.4399164403799E+00 -0.4820551014213E+00  0.0000000000000E+00  0.2327001168134E+00
 0.5500282917837E-01 -0.1240236008315E+00  0.0000000000000E+00  0.3490632316390E+00
 0.9915154033647E-01 -0.1654424067645E+00  0.0000000000000E+00  0.3469896378639E+00
 0.1412794492959E+00 -0.2048698706006E+00  0.0000000000000E+00  0.3424937391275E+00
 0.1806076474062E+00 -0.2415595176086E+00  0.0000000000000E+00  0.3353636170048E+00
 0.2166877830317E+00 -0.2750899244615E+00  0.0000000000000E+00  0.3259788803927E+00
 0.2493256004608E+00 -0.3052902715883E+00  0.0000000000000E+00  0.3149082814000E+00
 0.2784838086459E+00 -0.3321450382978E+00  0.0000000000000E+00  0.3027681206106E+00
 0.3042492211001E+00 -0.3557599453450E+00  0.0000000000000E+00  0.2902397489961E+00
 0.3268165532282E+00 -0.3763448044140E+00  0.0000000000000E+00  0.2779606367936E+00
 0.3464460226005E+00 -0.3941715890252E+00  0.0000000000000E+00  0.2664412291669E+00
 0.3634240364278E+00 -0.4095362102409E+00  0.0000000000000E+00  0.2560674165260E+00
 0.3780421642595E+00 -0.4227383949873E+00  0.0000000000000E+00  0.2471227511068E+00
 0.3905832242684E+00 -0.4340684810392E+00  0.0000000000000E+00  0.2397984382724E+00
 0.4013060909188E+00 -0.4437931091002E+00  0.0000000000000E+00  0.2342002317429E+00
 0.4104283082684E+00 -0.4521390994945E+00  0.0000000000000E+00  0.2303599245668E+00
 0.4181024053642E+00 -0.4592712765661E+00  0.0000000000000E+00  0.2282511879797E+00
 0.4243821901252E+00 -0.4652625400341E+00  0.0000000000000E+00  0.2278410586481E+00
 0.4292540032015E+00 -0.4701183321258E+00  0.0000000000000E+00  0.2292829984540E+00
 0.4326706754197E+00 -0.4738039428402E+00  0.0000000000000E+00  0.2329633132830E+00
 0.4346537658610E+00 -0.4763417845482E+00  0.0000000000000E+00  0.2396710602612E+00
 0.5795294317902E-01 -0.1275408550823E+00  0.0000000000000E+00  0.3683271795699E+00
 0.1021219996429E+00 -0.1689627218190E+00  0.0000000000000E+00  0.3649828946066E+00
 0.1444106689331E+00 -0.2085149911422E+00  0.0000000000000E+00  0.3586169338111E+00
 0.1838532235224E+00 -0.2452704228128E+00  0.0000000000000E+00  0.3492741226305E+00
 0.2199212359526E+00 -0.2787307222939E+00  0.0000000000000E+00  0.3375899009113E+00
 0.2524019632399E+00 -0.3087104816054E+00  0.0000000000000E+00  0.3243079633820E+00
 0.2812585599671E+00 -0.3351971649520E+00  0.0000000000000E+00  0.3101434182094E+00
 0.3065899857127E+00 -0.3583108262909E+00  0.0000000000000E+00  0.2958627709273E+00
 0.3286171773809E+00 -0.3782889983837E+00  0.0000000000000E+00  0.2821605142788E+00
 0.3476307079605E+00 -0.3954348038678E+00  0.0000000000000E+00  0.2695621224024E+00
 0.3639426612514E+00 -0.4100699869021E+00  0.0000000000000E+00  0.2584417028941E+00
 0.3778640468765E+00 -0.4225134415277E+00  0.0000000000000E+00  0.2490607709879E+00
 0.3896919951426E+00 -0.4330691098038E+00  0.0000000000000E+00  0.2415854394911E+00
 0.3996965439786E+00 -0.4420133868186E+00  0.0000000000000E+00  0.2360982045447E+00
 0.4081068354796E+00 -0.4495832641691E+00  0.0000000000000E+00  0.2326094469976E+00
 0.4150866850789E+00 -0.4559544272633E+00  0.0000000000000E+00  0.2310634217989E+00
 0.4206979312888E+00 -0.4612062096520E+00  0.0000000000000E+00  0.2313810488319E+00
 0.4249317605476E+00 -0.4653634294638E+00  0.0000000000000E+00  0.2336203171309E+00
 0.4276801529996E+00 -0.4683378102538E+00  0.0000000000000E+00  0.2379873110731E+00
 0.4288323296576E+00 -0.4700113406311E+00  0.0000000000000E+00  0.2452179279565E+00
 0.6109374757444E-01 -0.1312607642777E+00  0.0000000000000E+00  0.3875342898044E+00
 0.1053612533413E+00 -0.1727586608980E+00  0.0000000000000E+00  0.3830172928210E+00
 0.1478721937674E+00 -0.2124951299680E+00  0.0000000000000E+00  0.3746830035547E+00
 0.1874375548170E+00 -0.2493172309021E+00  0.0000000000000E+00  0.3629327853276E+00
 0.2234558462457E+00 -0.2826639420864E+00  0.0000000000000E+00  0.3487508298600E+00
 0.2557148845922E+00 -0.3123535238178E+00  0.0000000000000E+00  0.3330776613385E+00
 0.2841864351868E+00 -0.3383838301806E+00  0.0000000000000E+00  0.3167298875516E+00
 0.3089886842838E+00 -0.3608964206179E+00  0.0000000000000E+00  0.3005718439264E+00
 0.3303787736042E+00 -0.3801673278623E+00  0.0000000000000E+00  0.2853597445252E+00
 0.3486853733792E+00 -0.3965383809943E+00  0.0000000000000E+00  0.2716251083933E+00
 0.3642496950660E+00 -0.4103603523061E+00  0.0000000000000E+00  0.2597183663907E+00
 0.3774028327032E+00 -0.4219718887922E+00  0.0000000000000E+00  0.2498682652694E+00
 0.3884545568937E+00 -0.4316887617454E+00  0.0000000000000E+00  0.2422057086016E+00
 0.3976808712686E+00 -0.4397919326234E+00  0.0000000000000E+00  0.2367821208365E+00
 0.4053165651367E+00 -0.4465206493454E+00  0.0000000000000E+00  0.2335929374957E+00
 0.4115357399370E+00 -0.4520597783954E+00  0.0000000000000E+00  0.2325654292865E+00
 0.4163942283649E+00 -0.4564853929835E+00  0.0000000000000E+00  0.2335927736369E+00
 0.4199410114925E+00 -0.4598619971669E+00  0.0000000000000E+00  0.2367889702643E+00
 0.4221106636255E+00 -0.4622152316283E+00  0.0000000000000E+00  0.2419997672935E+00
 0.4226217482977E+00 -0.4632412002560E+00  0.0000000000000E+00  0.2494156730596E+00
 0.6442762233177E-01 -0.1351711736256E+00  0.0000000000000E+00  0.4067737252869E+00
 0.1089158830630E+00 -0.1768933207562E+00  0.0000000000000E+00  0.4012015992493E+00
 0.1517406558812E+00 -0.2168924703739E+00  0.0000000000000E+00  0.3906827708008E+00
 0.1914282968072E+00 -0.2537685699048E+00  0.0000000000000E+00  0.3762819322549E+00
 0.2273542143405E+00 -0.2869539789057E+00  0.0000000000000E+00  0.3593889833308E+00
 0.2593221744665E+00 -0.3162802046031E+00  0.0000000000000E+00  0.3411190356288E+00
 0.2873129667906E+00 -0.3417513493308E+00  0.0000000000000E+00  0.3224086858089E+00
 0.3114770888254E+00 -0.3635485717555E+00  0.0000000000000E+00  0.3042476881376E+00
 0.3321234013966E+00 -0.3820018932627E+00  0.0000000000000E+00  0.2874481381118E+00
 0.3496263591810E+00 -0.3974986640517E+00  0.0000000000000E+00  0.2725322306128E+00
 0.3643593206264E+00 -0.4104216107891E+00  0.0000000000000E+00  0.2598126675240E+00
 0.3766742604317E+00 -0.4211296893988E+00  0.0000000000000E+00  0.2494733818894E+00
 0.3868925621633E+00 -0.4299496434126E+00  0.0000000000000E+00  0.2415974626516E+00
 0.3952917226037E+00 -0.4371624609842E+00  0.0000000000000E+00  0.2361893284694E+00
 0.4020979978640E+00 -0.4429966598516E+00  0.0000000000000E+00  0.2332172955415E+00
 0.4074868301363E+00 -0.4476276854180E+00  0.0000000000000E+00  0.2326307808561E+00
 0.4115116373574E+00 -0.4511387461028E+00  0.0000000000000E+00  0.2342894159360E+00
 0.4141960169015E+00 -0.4535818619206E+00  0.0000000000000E+00  0.2383965313499E+00
 0.4157946638348E+00 -0.4551630830622E+00  0.0000000000000E+00  0.2451584849230E+00
 0.4165159323524E+00 -0.4564594303730E+00  0.0000000000000E+00  0.2526148939034E+00
 0.7165108591726E-01 -0.1128571205711E+00  0.0000000000000E+00 -0.1938625736107E+00
 0.3649335265813E-01 -0.3620492257631E-01  0.0000000000000E+00 -0.2558161996430E-01
-0.1801179818855E-01  0.2271258602966E-01  0.0000000000000E+00 -0.4708649967033E-01
-0.3889705085122E-01  0.4638078790184E-01  0.0000000000000E+00 -0.7463263751390E-01
-0.4490912362300E-01  0.5355082565364E-01  0.0000000000000E+00 -0.9508323783757E-01
-0.4424350070000E-01  0.5278320359795E-01  0.0000000000000E+00 -0.1040828964938E+00
-0.4398574303794E-01  0.5232720390305E-01  0.0000000000000E+00 -0.9890786794592E-01
-0.4612393251984E-01  0.5429597369872E-01  0.0000000000000E+00 -0.8861478886518E-01
-0.4847985268140E-01  0.5642909490262E-01  0.0000000000000E+00 -0.7793519982519E-01
-0.4983394718855E-01  0.5751499953653E-01  0.0000000000000E+00 -0.6698013403570E-01
-0.5005316664418E-01  0.5739462714870E-01  0.0000000000000E+00 -0.5534145127231E-01
-0.4912405422935E-01  0.5606807176221E-01  0.0000000000000E+00 -0.4306808217579E-01
-0.4692432918410E-01  0.5337647822843E-01  0.0000000000000E+00 -0.3060537471665E-01
-0.4329509998017E-01  0.4913914045946E-01  0.0000000000000E+00 -0.1818451823702E-01
-0.3825998120486E-01  0.4340152212613E-01  0.0000000000000E+00 -0.6254219558552E-02
-0.3176383565548E-01  0.3615234714571E-01  0.0000000000000E+00  0.4072672968480E-02
-0.2375806536465E-01  0.2709634518956E-01  0.0000000000000E+00  0.1269618919127E-01
-0.1514514971484E-01  0.1746299301980E-01  0.0000000000000E+00  0.2105289301858E-01
-0.6944017512653E-02  0.8551861165238E-02  0.0000000000000E+00  0.2772856672756E-01
 0.1627783173667E-02 -0.1848577231102E-03  0.0000000000000E+00  0.3007672045764E-01
 0.6794168788296E-01 -0.8871759503349E-01  0.0000000000000E+00 -0.2645285274764E+00
 0.5053614097526E-01 -0.6024496967851E-01  0.0000000000000E+00 -0.1234103815413E+00
 0.7879431004708E-02 -0.6241356551504E-02  0.0000000000000E+00 -0.6862014622976E-01
-0.1827319598485E-01  0.2295248066741E-01  0.0000000000000E+00 -0.6929112570565E-01
-0.2983454191237E-01  0.3616124627947E-01  0.0000000000000E+00 -0.7806131077259E-01
-0.3453333002865E-01  0.4152488189835E-01  0.0000000000000E+00 -0.8460467647516E-01
-0.3701610315700E-01  0.4410389164767E-01  0.0000000000000E+00 -0.8365360014522E-01
-0.3969153705160E-01  0.4662697813473E-01  0.0000000000000E+00 -0.7714500978384E-01
-0.4220253120465E-01  0.4893818213410E-01  0.0000000000000E+00 -0.6838610061129E-01
-0.4390862856767E-01  0.5042027331287E-01  0.0000000000000E+00 -0.5851182846659E-01
-0.4465340900112E-01  0.5089583344715E-01  0.0000000000000E+00 -0.4766787658200E-01
-0.4436800613480E-01  0.5027628331440E-01  0.0000000000000E+00 -0.3591394719204E-01
-0.4295357144674E-01  0.4845504363801E-01  0.0000000000000E+00 -0.2351593399050E-01
-0.4026179876316E-01  0.4527941656151E-01  0.0000000000000E+00 -0.1078262948762E-01
-0.3618226035390E-01  0.4064187503020E-01  0.0000000000000E+00  0.1827011634704E-02
-0.3067661852982E-01  0.3447870914467E-01  0.0000000000000E+00  0.1368008848265E-01
-0.2387215033543E-01  0.2695604467675E-01  0.0000000000000E+00  0.2411429240881E-01
-0.1607133428689E-01  0.1842068544405E-01  0.0000000000000E+00  0.3321234501436E-01
-0.7665772805588E-02  0.9452547912995E-02  0.0000000000000E+00  0.4016197631153E-01
 0.1573812254843E-02  0.5632950677736E-04  0.0000000000000E+00  0.4290254298323E-01
 0.6072051225958E-01 -0.7615890337596E-01  0.0000000000000E+00 -0.2856334119819E+00
 0.5204905132957E-01 -0.6187051481066E-01  0.0000000000000E+00 -0.1784214484444E+00
 0.2477246435097E-01 -0.2763767138305E-01  0.0000000000000E+00 -0.1038784112332E+00
 0.6386201205288E-03  0.1279483034490E-02  0.0000000000000E+00 -0.7374906552393E-01
-0.1446153292728E-01  0.1846868819321E-01  0.0000000000000E+00 -0.6840284659419E-01
-0.2297881700185E-01  0.2814551513277E-01  0.0000000000000E+00 -0.6963547862395E-01
-0.2823581033019E-01  0.3384642048539E-01  0.0000000000000E+00 -0.6932728625135E-01
-0.3209819525497E-01  0.3771850177587E-01  0.0000000000000E+00 -0.6529639604309E-01
-0.3511396541128E-01  0.4059089044345E-01  0.0000000000000E+00 -0.5862544080053E-01
-0.3727150638827E-01  0.4256960239063E-01  0.0000000000000E+00 -0.5023465429941E-01
-0.3856951045503E-01  0.4365332851978E-01  0.0000000000000E+00 -0.4049510973554E-01
-0.3896530248916E-01  0.4378240446096E-01  0.0000000000000E+00 -0.2956123393148E-01
-0.3836899251850E-01  0.4286058699708E-01  0.0000000000000E+00 -0.1765516637160E-01
-0.3663715149295E-01  0.4074800823874E-01  0.0000000000000E+00 -0.5046397169536E-02
-0.3362513017059E-01  0.3729513172394E-01  0.0000000000000E+00  0.7896180615981E-02
-0.2925319467162E-01  0.3242730482152E-01  0.0000000000000E+00  0.2057558095756E-01
-0.2358825631234E-01  0.2623956817863E-01  0.0000000000000E+00  0.3213231523242E-01
-0.1656331069845E-01  0.1871820967251E-01  0.0000000000000E+00  0.4230421938740E-01
-0.8235394077356E-02  0.9996137607584E-02  0.0000000000000E+00  0.5011979976825E-01
 0.1297853408250E-02  0.3530227326478E-03  0.0000000000000E+00  0.5358330706993E-01
 0.5555315489772E-01 -0.6883031180576E-01  0.0000000000000E+00 -0.2962812372192E+00
 0.5081380950127E-01 -0.6082620438166E-01  0.0000000000000E+00 -0.2100766308417E+00
 0.3461486887581E-01 -0.3986640712052E-01  0.0000000000000E+00 -0.1333983706906E+00
 0.1598007130948E-01 -0.1704010361556E-01  0.0000000000000E+00 -0.8617064959675E-01
 0.4887354522533E-03  0.1162712725737E-02  0.0000000000000E+00 -0.6570734125925E-01
-0.1045078325980E-01  0.1364731603242E-01  0.0000000000000E+00 -0.5949335769901E-01
-0.1796534849843E-01  0.2191812032779E-01  0.0000000000000E+00 -0.5732556552897E-01
-0.2321856853455E-01  0.2739370522074E-01  0.0000000000000E+00 -0.5412703894335E-01
-0.2702597649143E-01  0.3117197222028E-01  0.0000000000000E+00 -0.4901753605776E-01
-0.2978792500999E-01  0.3381742525308E-01  0.0000000000000E+00 -0.4217337799397E-01
-0.3169807378721E-01  0.3556855526533E-01  0.0000000000000E+00 -0.3377623057653E-01
-0.3279763036283E-01  0.3646386518943E-01  0.0000000000000E+00 -0.2395929750539E-01
-0.3303456684941E-01  0.3645048884421E-01  0.0000000000000E+00 -0.1290772432274E-01
-0.3228843007703E-01  0.3541278666631E-01  0.0000000000000E+00 -0.8395391933760E-03
-0.3039707120966E-01  0.3319114561093E-01  0.0000000000000E+00  0.1194645092952E-01
-0.2722925492476E-01  0.2966308931381E-01  0.0000000000000E+00  0.2491259653978E-01
-0.2278138365984E-01  0.2485942352202E-01  0.0000000000000E+00  0.3718351171717E-01
-0.1669062074282E-01  0.1845718203588E-01  0.0000000000000E+00  0.4832704002829E-01
-0.8755352409352E-02  0.1028414969678E-01  0.0000000000000E+00  0.5716432394256E-01
 0.6936192139775E-03  0.7853623754316E-03  0.0000000000000E+00  0.6152473063118E-01
 0.5190286701503E-01 -0.6448913391651E-01  0.0000000000000E+00 -0.3024738919843E+00
 0.4923628815994E-01 -0.5966896432124E-01  0.0000000000000E+00 -0.2291978704433E+00
 0.4052164416569E-01 -0.4751196263892E-01  0.0000000000000E+00 -0.1554764515718E+00
 0.2762978239510E-01 -0.3112070497906E-01  0.0000000000000E+00 -0.1004070403088E+00
 0.1403389327713E-01 -0.1477698227784E-01  0.0000000000000E+00 -0.6869378029383E-01
 0.2346645460406E-02 -0.1210628844201E-02  0.0000000000000E+00 -0.5419096744987E-01
-0.6678045392829E-02  0.8840034310584E-02  0.0000000000000E+00 -0.4837462166433E-01
-0.1317929149929E-01  0.1578176623339E-01  0.0000000000000E+00 -0.4452318493887E-01
-0.1787817112412E-01  0.2059815649186E-01  0.0000000000000E+00 -0.4014069110589E-01
-0.2135323762246E-01  0.2404548311837E-01  0.0000000000000E+00 -0.3455853507979E-01
-0.2393507158910E-01  0.2653199596733E-01  0.0000000000000E+00 -0.2754675547134E-01
-0.2575709733840E-01  0.2821099698086E-01  0.0000000000000E+00 -0.1905446083094E-01
-0.2682794950697E-01  0.2909982331049E-01  0.0000000000000E+00 -0.9167704092420E-02
-0.2706775414266E-01  0.2912785625226E-01  0.0000000000000E+00  0.1964625499625E-02
-0.2631521803201E-01  0.2814037940282E-01  0.0000000000000E+00  0.1412333900168E-01
-0.2440243008482E-01  0.2598310437360E-01  0.0000000000000E+00  0.2686302906943E-01
-0.2126797501108E-01  0.2262896741085E-01  0.0000000000000E+00  0.3939596176088E-01
-0.1632102989601E-01  0.1752170903152E-01  0.0000000000000E+00  0.5122349823234E-01
-0.9132534195968E-02  0.1022646105744E-01  0.0000000000000E+00  0.6093295232820E-01
-0.1740258819719E-03  0.1276367839520E-02  0.0000000000000E+00  0.6610462305195E-01
 0.4932125272917E-01 -0.6198081687037E-01  0.0000000000000E+00 -0.3064407039863E+00
 0.4795625157837E-01 -0.5906098795020E-01  0.0000000000000E+00 -0.2409011229612E+00
 0.4430003329912E-01 -0.5276486074047E-01  0.0000000000000E+00 -0.1713888854738E+00
 0.3639890102824E-01 -0.4195428575350E-01  0.0000000000000E+00 -0.1136639831004E+00
 0.2572283453403E-01 -0.2869717595930E-01  0.0000000000000E+00 -0.7485317641766E-01
 0.1472420753696E-01 -0.1569054798909E-01  0.0000000000000E+00 -0.5312639740634E-01
 0.5121307659257E-02 -0.4841383238309E-02  0.0000000000000E+00 -0.4274788379919E-01
-0.2252711556065E-02  0.3173511090463E-02  0.0000000000000E+00 -0.3706911769347E-01
-0.7750572917771E-02  0.8945855045805E-02  0.0000000000000E+00 -0.3254012371029E-01
-0.1194308953044E-01  0.1321818809213E-01  0.0000000000000E+00 -0.2772996614865E-01
-0.1521255661309E-01  0.1646821955357E-01  0.0000000000000E+00 -0.2194120335497E-01
-0.1775531853409E-01  0.1893164650126E-01  0.0000000000000E+00 -0.1484058990384E-01
-0.1964040970104E-01  0.2069880535967E-01  0.0000000000000E+00 -0.6341387666061E-02
-0.2083932098593E-01  0.2175645818270E-01  0.0000000000000E+00  0.3516345118026E-02
-0.2121082626546E-01  0.2197431556627E-01  0.0000000000000E+00  0.1461222855549E-01
-0.2057224964223E-01  0.2118643799212E-01  0.0000000000000E+00  0.2661994968509E-01
-0.1882799645476E-01  0.1933283178991E-01  0.0000000000000E+00  0.3889990222387E-01
-0.1522093602811E-01  0.1568448531758E-01  0.0000000000000E+00  0.5094721528641E-01
-0.9114079204144E-02  0.9574037169737E-02  0.0000000000000E+00  0.6113930588623E-01
-0.1022985233436E-02  0.1532581965491E-02  0.0000000000000E+00  0.6679441929707E-01
 0.4745842025753E-01 -0.6064674381946E-01  0.0000000000000E+00 -0.3090456630689E+00
 0.4711244783817E-01 -0.5908472399771E-01  0.0000000000000E+00 -0.2479655725153E+00
 0.4694100757966E-01 -0.5678759161987E-01  0.0000000000000E+00 -0.1825686154105E+00
 0.4310752800231E-01 -0.5049801391576E-01  0.0000000000000E+00 -0.1249355297818E+00
 0.3560112491380E-01 -0.4063735455590E-01  0.0000000000000E+00 -0.8226262906003E-01
 0.2622077838995E-01 -0.2925148298827E-01  0.0000000000000E+00 -0.5511419191096E-01
 0.1693645230129E-01 -0.1858871882597E-01  0.0000000000000E+00 -0.4023913154188E-01
 0.9218170586634E-02 -0.1006271616004E-01  0.0000000000000E+00 -0.3202602853611E-01
 0.3171865033563E-02 -0.3592123965634E-02  0.0000000000000E+00 -0.2660619291571E-01
-0.1624211767861E-02  0.1399210348902E-02  0.0000000000000E+00 -0.2201689360941E-01
-0.5523925083244E-02  0.5364829984118E-02  0.0000000000000E+00 -0.1714740341163E-01
-0.8742436990018E-02  0.8572022938554E-02  0.0000000000000E+00 -0.1136206086381E-01
-0.1139050312099E-01  0.1116427285945E-01  0.0000000000000E+00 -0.4357685920012E-02
-0.1348987587913E-01  0.1318545926595E-01  0.0000000000000E+00  0.3972186536885E-02
-0.1493323509211E-01  0.1454355758358E-01  0.0000000000000E+00  0.1362835844186E-01
-0.1554501776816E-01  0.1508271163359E-01  0.0000000000000E+00  0.2442282401540E-01
-0.1522007104026E-01  0.1473505752317E-01  0.0000000000000E+00  0.3589539290093E-01
-0.1309432781467E-01  0.1265682716880E-01  0.0000000000000E+00  0.4757339845072E-01
-0.8337207248965E-02  0.7968227431763E-02  0.0000000000000E+00  0.5768090451806E-01
-0.1410287335092E-02  0.1108248561071E-02  0.0000000000000E+00  0.6332356778806E-01
 0.4607001320045E-01 -0.6008021768269E-01  0.0000000000000E+00 -0.3106694278408E+00
 0.4668103060870E-01 -0.5967022104577E-01  0.0000000000000E+00 -0.2519939625392E+00
 0.4898860936702E-01 -0.6019395481217E-01  0.0000000000000E+00 -0.1901872822275E+00
 0.4839515514811E-01 -0.5748637734813E-01  0.0000000000000E+00 -0.1340046532443E+00
 0.4392232070495E-01 -0.5088307031236E-01  0.0000000000000E+00 -0.8971331414091E-01
 0.3664505002484E-01 -0.4167344804387E-01  0.0000000000000E+00 -0.5895590341608E-01
 0.2837944516288E-01 -0.3197181548851E-01  0.0000000000000E+00 -0.4025480052285E-01
 0.2088031626200E-01 -0.2354579640722E-01  0.0000000000000E+00 -0.2932144477039E-01
 0.1464287607132E-01 -0.1675449708571E-01  0.0000000000000E+00 -0.2251629400681E-01
 0.9460857450569E-02 -0.1126480342905E-01  0.0000000000000E+00 -0.1765381206459E-01
 0.5069698023554E-02 -0.6718490737770E-02  0.0000000000000E+00 -0.1334163459618E-01
 0.1278465492480E-02 -0.2867285350343E-02  0.0000000000000E+00 -0.8686158882422E-02
-0.2038048051527E-02  0.4547979114710E-03  0.0000000000000E+00 -0.3166826036252E-02
-0.4940426030083E-02  0.3336421917387E-02  0.0000000000000E+00  0.3486553648707E-02
-0.7360773762283E-02  0.5729062963899E-02  0.0000000000000E+00  0.1140999839786E-01
-0.9147449456933E-02  0.7503526739914E-02  0.0000000000000E+00  0.2056419396172E-01
-0.1020649379074E-01  0.8605307451173E-02  0.0000000000000E+00  0.3068097094137E-01
-0.9623257435673E-02  0.8129683059607E-02  0.0000000000000E+00  0.4134507112534E-01
-0.6387518787227E-02  0.5003017523613E-02  0.0000000000000E+00  0.5070918625379E-01
-0.8150916567905E-03 -0.5104348629028E-03  0.0000000000000E+00  0.5576436792629E-01
 0.4498560893797E-01 -0.6001746001710E-01  0.0000000000000E+00 -0.3114836852981E+00
 0.4658876746099E-01 -0.6070966229282E-01  0.0000000000000E+00 -0.2539553202135E+00
 0.5074000157288E-01 -0.6331117413400E-01  0.0000000000000E+00 -0.1951286788852E+00
 0.5272032745962E-01 -0.6343579034696E-01  0.0000000000000E+00 -0.1409817388597E+00
 0.5098674472612E-01 -0.5977189992329E-01  0.0000000000000E+00 -0.9652124977250E-01
 0.4598945529494E-01 -0.5294655644829E-01  0.0000000000000E+00 -0.6367842891307E-01
 0.3921264418516E-01 -0.4472868740772E-01  0.0000000000000E+00 -0.4206384239720E-01
 0.3243275287725E-01 -0.3694823031926E-01  0.0000000000000E+00 -0.2861808573314E-01
 0.2640050507594E-01 -0.3026097580189E-01  0.0000000000000E+00 -0.2022312709590E-01
 0.2112106038010E-01 -0.2457335198286E-01  0.0000000000000E+00 -0.1473253412489E-01
 0.1644837874420E-01 -0.1965871176625E-01  0.0000000000000E+00 -0.1063457979530E-01
 0.1224770324591E-01 -0.1532631895965E-01  0.0000000000000E+00 -0.6865165294234E-02
 0.8406476938671E-02 -0.1141905747803E-01  0.0000000000000E+00 -0.2724200221707E-02
 0.4842524758270E-02 -0.7822740969486E-02  0.0000000000000E+00  0.2212220030824E-02
 0.1586572412908E-02 -0.4545646765950E-02  0.0000000000000E+00  0.8212981244973E-02
-0.1243620750718E-02 -0.1680855934064E-02  0.0000000000000E+00  0.1538595232694E-01
-0.3579924723745E-02  0.7450971321670E-03  0.0000000000000E+00  0.2365415944415E-01
-0.4509366856330E-02  0.1816085604875E-02  0.0000000000000E+00  0.3267783399537E-01
-0.2859127885115E-02  0.2860208277653E-03  0.0000000000000E+00  0.4063592227898E-01
 0.1277223409566E-02 -0.3821280043376E-02  0.0000000000000E+00  0.4453659030542E-01
 0.4408605079206E-01 -0.6028142926423E-01  0.0000000000000E+00 -0.3115642234045E+00
 0.4675298633354E-01 -0.6209528098487E-01  0.0000000000000E+00 -0.2544524558105E+00
 0.5235317475577E-01 -0.6630969605628E-01  0.0000000000000E+00 -0.1980430280798E+00
 0.5639880362382E-01 -0.6869692561949E-01  0.0000000000000E+00 -0.1460948388299E+00
 0.5707133692481E-01 -0.6761154729460E-01  0.0000000000000E+00 -0.1023407794392E+00
 0.5434440720846E-01 -0.6317049034783E-01  0.0000000000000E+00 -0.6857296027626E-01
 0.4932756348644E-01 -0.5674074065743E-01  0.0000000000000E+00 -0.4496583038231E-01
 0.4365793617647E-01 -0.5003371759586E-01  0.0000000000000E+00 -0.2944134392566E-01
 0.3820740623358E-01 -0.4385633152468E-01  0.0000000000000E+00 -0.1949632459433E-01
 0.3314806172782E-01 -0.3830580898214E-01  0.0000000000000E+00 -0.1319217544078E-01
 0.2845172539071E-01 -0.3328866018312E-01  0.0000000000000E+00 -0.9039033745197E-02
 0.2405531590015E-01 -0.2869183144161E-01  0.0000000000000E+00 -0.5903483919521E-02
 0.1987975650330E-01 -0.2439191456081E-01  0.0000000000000E+00 -0.2968970726861E-02
 0.1583958424128E-01 -0.2027000300304E-01  0.0000000000000E+00  0.3078128622355E-03
 0.1193599409536E-01 -0.1630327202277E-01  0.0000000000000E+00  0.4307561165976E-02
 0.8249189962844E-02 -0.1254596231451E-01  0.0000000000000E+00  0.9269429346484E-02
 0.4812684639326E-02 -0.8988414213861E-02  0.0000000000000E+00  0.1529491142072E-01
 0.2490327977206E-02 -0.6513066220445E-02  0.0000000000000E+00  0.2213339140400E-01
 0.2594190547784E-02 -0.6510629935868E-02  0.0000000000000E+00  0.2809367954072E-01
 0.5306847362283E-02 -0.9240073823707E-02  0.0000000000000E+00  0.3034899986754E-01
 0.4328773506857E-01 -0.6075051681710E-01  0.0000000000000E+00 -0.3109406123721E+00
 0.4709594860263E-01 -0.6373088977920E-01  0.0000000000000E+00 -0.2538660069659E+00
 0.5390605254193E-01 -0.6927195409675E-01  0.0000000000000E+00 -0.1994037731972E+00
 0.5964166208275E-01 -0.7350185943722E-01  0.0000000000000E+00 -0.1495964156515E+00
 0.6240546802545E-01 -0.7465439562626E-01  0.0000000000000E+00 -0.1070307929029E+00
 0.6183955186378E-01 -0.7248724800667E-01  0.0000000000000E+00 -0.7315949266487E-01
 0.5870539902258E-01 -0.6798782754419E-01  0.0000000000000E+00 -0.4836783124421E-01
 0.5442123184469E-01 -0.6265664658619E-01  0.0000000000000E+00 -0.3128491081088E-01
 0.4987357743330E-01 -0.5733623486461E-01  0.0000000000000E+00 -0.1999363647605E-01
 0.4534339159439E-01 -0.5225110087680E-01  0.0000000000000E+00 -0.1284368892044E-01
 0.4090061178906E-01 -0.4742026508895E-01  0.0000000000000E+00 -0.8463583440569E-02
 0.3655423080608E-01 -0.4281095356401E-01  0.0000000000000E+00 -0.5738877158285E-02
 0.3227051606276E-01 -0.3834836235792E-01  0.0000000000000E+00 -0.3806632640304E-02
 0.2797664851272E-01 -0.3392715246632E-01  0.0000000000000E+00 -0.2053356836628E-02
 0.2365473494089E-01 -0.2950551599811E-01  0.0000000000000E+00 -0.2330604861367E-04
 0.1934848469177E-01 -0.2510115924384E-01  0.0000000000000E+00  0.2623191293437E-02
 0.1505213427090E-01 -0.2066463236393E-01  0.0000000000000E+00  0.6140687196655E-02
 0.1153744268483E-01 -0.1700332222988E-01  0.0000000000000E+00  0.1037675132303E-01
 0.1022292005061E-01 -0.1561535771013E-01  0.0000000000000E+00  0.1387073393689E-01
 0.1159459382086E-01 -0.1705856643769E-01  0.0000000000000E+00  0.1410911356162E-01
 0.4253207158691E-01 -0.6133995741743E-01  0.0000000000000E+00 -0.3096198472335E+00
 0.4754950144462E-01 -0.6553446224934E-01  0.0000000000000E+00 -0.2524366702969E+00
 0.5542993578345E-01 -0.7223005553736E-01  0.0000000000000E+00 -0.1995532163733E+00
 0.6258527543209E-01 -0.7799961641192E-01  0.0000000000000E+00 -0.1517232890695E+00
 0.6716728194670E-01 -0.8109506182870E-01  0.0000000000000E+00 -0.1105677379750E+00
 0.6860924837243E-01 -0.8104298331536E-01  0.0000000000000E+00 -0.7713359040247E-01
 0.6738023764621E-01 -0.7850701022265E-01  0.0000000000000E+00 -0.5180450128655E-01
 0.6465472407244E-01 -0.7474395458263E-01  0.0000000000000E+00 -0.3367593666512E-01
 0.6126157581846E-01 -0.7055320487381E-01  0.0000000000000E+00 -0.2132746126916E-01
 0.5753551626303E-01 -0.6622668023956E-01  0.0000000000000E+00 -0.1341261347493E-01
 0.5361662923183E-01 -0.6186563863831E-01  0.0000000000000E+00 -0.8728477259657E-02
 0.4957625832377E-01 -0.5750817176056E-01  0.0000000000000E+00 -0.6240963091564E-02
 0.4542962025855E-01 -0.5313345004975E-01  0.0000000000000E+00 -0.5101660755013E-02
 0.4112866975792E-01 -0.4866362522797E-01  0.0000000000000E+00 -0.4678791327820E-02
 0.3664805279864E-01 -0.4405103737868E-01  0.0000000000000E+00 -0.4487094038858E-02
 0.3199963780388E-01 -0.3928280258497E-01  0.0000000000000E+00 -0.4130058661909E-02
 0.2713612623625E-01 -0.3426882546630E-01  0.0000000000000E+00 -0.3240080612189E-02
 0.2269729756338E-01 -0.2970224677232E-01  0.0000000000000E+00 -0.1870273758160E-02
 0.2016204073187E-01 -0.2713881021501E-01  0.0000000000000E+00 -0.1160638636381E-02
 0.2031955404450E-01 -0.2742496500587E-01  0.0000000000000E+00 -0.3173851430961E-02
 0.4177834620239E-01 -0.6199025894948E-01  0.0000000000000E+00 -0.3075980641195E+00
 0.4805596317907E-01 -0.6743759499598E-01  0.0000000000000E+00 -0.2503145521670E+00
 0.5692896891688E-01 -0.7518720957034E-01  0.0000000000000E+00 -0.1987366811279E+00
 0.6531325260933E-01 -0.8228138985377E-01  0.0000000000000E+00 -0.1526812575651E+00
 0.7148817502092E-01 -0.8707648309040E-01  0.0000000000000E+00 -0.1129912669998E+00
 0.7477444980546E-01 -0.8896859404627E-01  0.0000000000000E+00 -0.8031692378714E-01
 0.7541125207845E-01 -0.8836203064233E-01  0.0000000000000E+00 -0.5493004383776E-01
 0.7433695684073E-01 -0.8627267484195E-01  0.0000000000000E+00 -0.3620635789464E-01
 0.7228078664678E-01 -0.8341031067885E-01  0.0000000000000E+00 -0.2311279880152E-01
 0.6958660279298E-01 -0.8008606282885E-01  0.0000000000000E+00 -0.1458221367916E-01
 0.6643586290820E-01 -0.7645210867740E-01  0.0000000000000E+00 -0.9593292700812E-02
 0.6294739654933E-01 -0.7260172965845E-01  0.0000000000000E+00 -0.7223969135296E-02
 0.5918300979805E-01 -0.6856634727764E-01  0.0000000000000E+00 -0.6682047021731E-02
 0.5512799297492E-01 -0.6430524472281E-01  0.0000000000000E+00 -0.7360556663544E-02
 0.5076209237905E-01 -0.5977852726512E-01  0.0000000000000E+00 -0.8789772400199E-02
 0.4607390896375E-01 -0.5495242889564E-01  0.0000000000000E+00 -0.1056845615480E-01
 0.4097473717690E-01 -0.4969778255326E-01  0.0000000000000E+00 -0.1227259761964E-01
 0.3593394808741E-01 -0.4455495672172E-01  0.0000000000000E+00 -0.1387028514861E-01
 0.3242601195203E-01 -0.4107008985292E-01  0.0000000000000E+00 -0.1610936189542E-01
 0.3151529497587E-01 -0.4034235896142E-01  0.0000000000000E+00 -0.2047745228297E-01
 0.4099883171436E-01 -0.6265973675547E-01  0.0000000000000E+00 -0.3048664834512E+00
 0.4856760249197E-01 -0.6938403425948E-01  0.0000000000000E+00 -0.2475900364036E+00
 0.5839176378720E-01 -0.7813027480224E-01  0.0000000000000E+00 -0.1971276817918E+00
 0.6787210575504E-01 -0.8639813807492E-01  0.0000000000000E+00 -0.1526411719515E+00
 0.7545981695353E-01 -0.9269829471038E-01  0.0000000000000E+00 -0.1143710861047E+00
 0.8043449924146E-01 -0.9637128500195E-01  0.0000000000000E+00 -0.8261758450194E-01
 0.8286383108669E-01 -0.9762297179909E-01  0.0000000000000E+00 -0.5749921124184E-01
 0.8347435424549E-01 -0.9724963609878E-01  0.0000000000000E+00 -0.3854216267718E-01
 0.8287676485877E-01 -0.9584946471264E-01  0.0000000000000E+00 -0.2499565668930E-01
 0.8139179834225E-01 -0.9371804724430E-01  0.0000000000000E+00 -0.1602727149859E-01
 0.7921651773556E-01 -0.9103048251422E-01  0.0000000000000E+00 -0.1078552700061E-01
 0.7650047321232E-01 -0.8791715694279E-01  0.0000000000000E+00 -0.8466552924160E-02
 0.7334562806618E-01 -0.8445512873533E-01  0.0000000000000E+00 -0.8353113087914E-02
 0.6977622294048E-01 -0.8064673876194E-01  0.0000000000000E+00 -0.9888293395341E-02
 0.6579109683836E-01 -0.7647445999322E-01  0.0000000000000E+00 -0.1265212285012E-01
 0.6137027482631E-01 -0.7189893671944E-01  0.0000000000000E+00 -0.1629097945033E-01
 0.5638969320723E-01 -0.6675947409668E-01  0.0000000000000E+00 -0.2039865915499E-01
 0.5111210868183E-01 -0.6140637245034E-01  0.0000000000000E+00 -0.2490104160245E-01
 0.4691583253176E-01 -0.5728458445391E-01  0.0000000000000E+00 -0.3011560542239E-01
 0.4508042036045E-01 -0.5568062493143E-01  0.0000000000000E+00 -0.3683801474460E-01
 0.4017540954917E-01 -0.6331957749442E-01  0.0000000000000E+00 -0.3014143930509E+00
 0.4904569818998E-01 -0.7132810415272E-01  0.0000000000000E+00 -0.2443138382821E+00
 0.5979849123161E-01 -0.8103728465701E-01  0.0000000000000E+00 -0.1948465860813E+00
 0.7028235604929E-01 -0.9037283271058E-01  0.0000000000000E+00 -0.1517402504800E+00
 0.7914133768458E-01 -0.9802502465379E-01  0.0000000000000E+00 -0.1147872010051E+00
 0.8566453825326E-01 -0.1033321579064E+00  0.0000000000000E+00 -0.8400037557159E-01
 0.8979772759167E-01 -0.1063537177106E+00  0.0000000000000E+00 -0.5934619369172E-01
 0.9208627130899E-01 -0.1076953612408E+00  0.0000000000000E+00 -0.4042048062323E-01
 0.9301939607092E-01 -0.1078385384496E+00  0.0000000000000E+00 -0.2666626320920E-01
 0.9287398477124E-01 -0.1070409481019E+00  0.0000000000000E+00 -0.1743575061693E-01
 0.9184138535800E-01 -0.1054775699691E+00  0.0000000000000E+00 -0.1202275014655E-01
 0.9008457585329E-01 -0.1032971948169E+00  0.0000000000000E+00 -0.9730446095164E-02
 0.8773563332256E-01 -0.1006117042988E+00  0.0000000000000E+00 -0.9914182222670E-02
 0.8485953689674E-01 -0.9746799889696E-01  0.0000000000000E+00 -0.1206917851721E-01
 0.8148941462915E-01 -0.9388581222427E-01  0.0000000000000E+00 -0.1583618167894E-01
 0.7762031161234E-01 -0.8984445099486E-01  0.0000000000000E+00 -0.2094876475684E-01
 0.7311363479410E-01 -0.8517267602696E-01  0.0000000000000E+00 -0.2710303128833E-01
 0.6800029160343E-01 -0.8000483892931E-01  0.0000000000000E+00 -0.3427469759994E-01
 0.6343471531982E-01 -0.7555926618187E-01  0.0000000000000E+00 -0.4237788407199E-01
 0.6080092958479E-01 -0.7319926698996E-01  0.0000000000000E+00 -0.5140061365863E-01
 0.3929725612296E-01 -0.6395058536937E-01  0.0000000000000E+00 -0.2972305782438E+00
 0.4945961459964E-01 -0.7323334307335E-01  0.0000000000000E+00 -0.2405106050671E+00
 0.6112527484339E-01 -0.8388206010017E-01  0.0000000000000E+00 -0.1919747994347E+00
 0.7254636600776E-01 -0.9420894044172E-01  0.0000000000000E+00 -0.1500857104052E+00
 0.8256576126200E-01 -0.1030932504615E+00  0.0000000000000E+00 -0.1143184882720E+00
 0.9051592531006E-01 -0.1099069200454E+00  0.0000000000000E+00 -0.8446542154550E-01
 0.9626022162983E-01 -0.1146048786525E+00  0.0000000000000E+00 -0.6036537070685E-01
 0.1001938407132E+00 -0.1176322373864E+00  0.0000000000000E+00 -0.4164130031141E-01
 0.1026916862094E+00 -0.1193593217449E+00  0.0000000000000E+00 -0.2786264951151E-01
 0.1039759524798E+00 -0.1199940778370E+00  0.0000000000000E+00 -0.1851991474029E-01
 0.1042159703790E+00 -0.1196939184484E+00  0.0000000000000E+00 -0.1302512756249E-01
 0.1035709484164E+00 -0.1186076347329E+00  0.0000000000000E+00 -0.1077062931414E-01
 0.1021884545923E+00 -0.1168663041100E+00  0.0000000000000E+00 -0.1116872118166E-01
 0.1001691496070E+00 -0.1145552563720E+00  0.0000000000000E+00 -0.1374626230019E-01
 0.9759135369654E-01 -0.1117417721998E+00  0.0000000000000E+00 -0.1818212177970E-01
 0.9449877207166E-01 -0.1084555155612E+00  0.0000000000000E+00 -0.2429518554211E-01
 0.9078563831879E-01 -0.1045649153922E+00  0.0000000000000E+00 -0.3196016968333E-01
 0.8626497171807E-01 -0.9999532297933E-01  0.0000000000000E+00 -0.4135080370086E-01
 0.8170555556330E-01 -0.9558967318084E-01  0.0000000000000E+00 -0.5214927856723E-01
 0.7838392002469E-01 -0.9257897380501E-01  0.0000000000000E+00 -0.6343939945454E-01
 0.3835938309186E-01 -0.6454107886207E-01  0.0000000000000E+00 -0.2923035532536E+00
 0.4978617653605E-01 -0.7507172893661E-01  0.0000000000000E+00 -0.2361888974615E+00
 0.6234685334877E-01 -0.8663681378647E-01  0.0000000000000E+00 -0.1885661528265E+00
 0.7465375903192E-01 -0.9789632097645E-01  0.0000000000000E+00 -0.1477592666565E+00
 0.8574537513481E-01 -0.1079173679581E+00  0.0000000000000E+00 -0.1130363837613E+00
 0.9501817244718E-01 -0.1161281645198E+00  0.0000000000000E+00 -0.8403295199491E-01
 0.1022827883233E+00 -0.1224104275820E+00  0.0000000000000E+00 -0.6049528764136E-01
 0.1078122402986E+00 -0.1270764822198E+00  0.0000000000000E+00 -0.4205793198264E-01
 0.1118800025224E+00 -0.1303972334234E+00  0.0000000000000E+00 -0.2836979367990E-01
 0.1146510159532E+00 -0.1325277377766E+00  0.0000000000000E+00 -0.1902117391861E-01
 0.1162622114327E+00 -0.1335968679708E+00  0.0000000000000E+00 -0.1351964045368E-01
 0.1168534736974E+00 -0.1337371584725E+00  0.0000000000000E+00 -0.1133293410746E-01
 0.1165686597173E+00 -0.1330788436882E+00  0.0000000000000E+00 -0.1191603243579E-01
 0.1155269313007E+00 -0.1317273224560E+00  0.0000000000000E+00 -0.1479747192460E-01
 0.1138489406991E+00 -0.1297920718012E+00  0.0000000000000E+00 -0.1963815036486E-01
 0.1116506337702E+00 -0.1273765202796E+00  0.0000000000000E+00 -0.2627318446626E-01
 0.1089468016746E+00 -0.1244660676603E+00  0.0000000000000E+00 -0.3472790039582E-01
 0.1054373297577E+00 -0.1208933297255E+00  0.0000000000000E+00 -0.4558280301965E-01
 0.1013704565775E+00 -0.1169800974058E+00  0.0000000000000E+00 -0.5868549139356E-01
 0.9750609333238E-01 -0.1134680619098E+00  0.0000000000000E+00 -0.7231676849335E-01
 0.3736198998654E-01 -0.6508668827548E-01  0.0000000000000E+00 -0.2866228947056E+00
 0.5000931331569E-01 -0.7682245650337E-01  0.0000000000000E+00 -0.2313499924509E+00
 0.6343802990112E-01 -0.8927423866587E-01  0.0000000000000E+00 -0.1846568846782E+00
 0.7658471744279E-01 -0.1014141253110E+00  0.0000000000000E+00 -0.1448221991217E+00
 0.8867595608809E-01 -0.1124944938134E+00  0.0000000000000E+00 -0.1110008126019E+00
 0.9918163813246E-01 -0.1220081328391E+00  0.0000000000000E+00 -0.8273271806318E-01
 0.1078801789272E+00 -0.1297869226183E+00  0.0000000000000E+00 -0.5970545229297E-01
 0.1149461304403E+00 -0.1360335131377E+00  0.0000000000000E+00 -0.4156816995544E-01
 0.1205664903056E+00 -0.1409335610321E+00  0.0000000000000E+00 -0.2801831693531E-01
 0.1248531014133E+00 -0.1445929723596E+00  0.0000000000000E+00 -0.1871458740546E-01
 0.1279074005722E+00 -0.1471088760343E+00  0.0000000000000E+00 -0.1324286422752E-01
 0.1298398881077E+00 -0.1485874486509E+00  0.0000000000000E+00 -0.1114315442720E-01
 0.1307712372571E+00 -0.1491385747036E+00  0.0000000000000E+00 -0.1191671438451E-01
 0.1308102654312E+00 -0.1488583907231E+00  0.0000000000000E+00 -0.1508479692878E-01
 0.1300872527014E+00 -0.1478642534905E+00  0.0000000000000E+00 -0.2023422457103E-01
 0.1287821127555E+00 -0.1463180905265E+00  0.0000000000000E+00 -0.2708657204906E-01
 0.1270650736620E+00 -0.1443644189338E+00  0.0000000000000E+00 -0.3561311774869E-01
 0.1248329009352E+00 -0.1419809548659E+00  0.0000000000000E+00 -0.4666798149403E-01
 0.1219169487110E+00 -0.1391910473021E+00  0.0000000000000E+00 -0.6121306089039E-01
 0.1178695024612E+00 -0.1355013372770E+00  0.0000000000000E+00 -0.7736553302328E-01
 0.3631198952637E-01 -0.6558866602082E-01  0.0000000000000E+00 -0.2801698444912E+00
 0.5012208362186E-01 -0.7847873298386E-01  0.0000000000000E+00 -0.2260010033554E+00
 0.6437174878964E-01 -0.9176056981720E-01  0.0000000000000E+00 -0.1802789067166E+00
 0.7831133358495E-01 -0.1047350450689E+00  0.0000000000000E+00 -0.1413138991668E+00
 0.9134080726023E-01 -0.1168076829740E+00  0.0000000000000E+00 -0.1082604766236E+00
 0.1029997908368E+00 -0.1275414105581E+00  0.0000000000000E+00 -0.8059558929566E-01
 0.1130512450083E+00 -0.1367342105720E+00  0.0000000000000E+00 -0.5798464090770E-01
 0.1215883101669E+00 -0.1444968102471E+00  0.0000000000000E+00 -0.4010564610144E-01
 0.1287249959327E+00 -0.1509415259705E+00  0.0000000000000E+00 -0.2668480253432E-01
 0.1345285460446E+00 -0.1561334735572E+00  0.0000000000000E+00 -0.1741857578188E-01
 0.1390700666576E+00 -0.1601433961415E+00  0.0000000000000E+00 -0.1195419290413E-01
 0.1424307597151E+00 -0.1630514727187E+00  0.0000000000000E+00 -0.9906901304513E-02
 0.1446983819955E+00 -0.1649384319989E+00  0.0000000000000E+00 -0.1084923691863E-01
 0.1459454981235E+00 -0.1658666428350E+00  0.0000000000000E+00 -0.1433497705446E-01
 0.1462583954760E+00 -0.1659093530063E+00  0.0000000000000E+00 -0.1990292197235E-01
 0.1457968929244E+00 -0.1652019222016E+00  0.0000000000000E+00 -0.2707725034162E-01
 0.1448390697963E+00 -0.1639784173212E+00  0.0000000000000E+00 -0.3549418418569E-01
 0.1434699733806E+00 -0.1624060768145E+00  0.0000000000000E+00 -0.4557661223052E-01
 0.1422832876022E+00 -0.1609675063026E+00  0.0000000000000E+00 -0.5889912227792E-01
 0.1392361032400E+00 -0.1583710594159E+00  0.0000000000000E+00 -0.7725444717872E-01
 0.3522968734860E-01 -0.6610614864455E-01  0.0000000000000E+00 -0.2730164951442E+00
 0.5010781882021E-01 -0.7999039675166E-01  0.0000000000000E+00 -0.2202361486172E+00
 0.6510779944811E-01 -0.9406252128281E-01  0.0000000000000E+00 -0.1754196082301E+00
 0.7980677356267E-01 -0.1078293888684E+00  0.0000000000000E+00 -0.1372645324426E+00
 0.9371152433589E-01 -0.1208291774983E+00  0.0000000000000E+00 -0.1048572480736E+00
 0.1064493278812E+00 -0.1327028821873E+00  0.0000000000000E+00 -0.7764689884791E-01
 0.1177807325163E+00 -0.1432380006177E+00  0.0000000000000E+00 -0.5532429566554E-01
 0.1277227071861E+00 -0.1524512141106E+00  0.0000000000000E+00 -0.3763031073476E-01
 0.1363221077033E+00 -0.1603874828046E+00  0.0000000000000E+00 -0.2429273377378E-01
 0.1436136463508E+00 -0.1670837593179E+00  0.0000000000000E+00 -0.1501104651320E-01
 0.1496496842015E+00 -0.1725954113319E+00  0.0000000000000E+00 -0.9469474839205E-02
 0.1544933439530E+00 -0.1769883909112E+00  0.0000000000000E+00 -0.7352260880564E-02
 0.1582067772425E+00 -0.1803221279222E+00  0.0000000000000E+00 -0.8325391966529E-02
 0.1608265220717E+00 -0.1826276795513E+00  0.0000000000000E+00 -0.1203786891555E-01
 0.1623746564103E+00 -0.1839189866434E+00  0.0000000000000E+00 -0.1811317428216E-01
 0.1628944036200E+00 -0.1842233952481E+00  0.0000000000000E+00 -0.2608033618984E-01
 0.1625407638082E+00 -0.1836378987205E+00  0.0000000000000E+00 -0.3522954272282E-01
 0.1614221846012E+00 -0.1822776160210E+00  0.0000000000000E+00 -0.4519210117101E-01
 0.1601985641473E+00 -0.1808194631699E+00  0.0000000000000E+00 -0.5589524856556E-01
 0.1605932811486E+00 -0.1798425639124E+00  0.0000000000000E+00 -0.7073842829061E-01
 0.6919146457470E-01 -0.1403087823918E+00  0.0000000000000E+00  0.4242932282234E+00
 0.1149280561903E+00 -0.1832967802646E+00  0.0000000000000E+00  0.4166560473575E+00
 0.1589828931019E+00 -0.2244127250613E+00  0.0000000000000E+00  0.4032772196087E+00
 0.1994818015739E+00 -0.2619791735178E+00  0.0000000000000E+00  0.3857740515819E+00
 0.2357379642453E+00 -0.2953734387061E+00  0.0000000000000E+00  0.3658487091235E+00
 0.2675327176715E+00 -0.3244221137776E+00  0.0000000000000E+00  0.3448786777588E+00
 0.2948810196883E+00 -0.3491572649884E+00  0.0000000000000E+00  0.3238873815378E+00
 0.3180455266980E+00 -0.3698685424177E+00  0.0000000000000E+00  0.3039506548511E+00
 0.3374462474329E+00 -0.3870001629247E+00  0.0000000000000E+00  0.2859250389226E+00
 0.3535460498995E+00 -0.4010274535901E+00  0.0000000000000E+00  0.2703093703976E+00
 0.3667833163780E+00 -0.4123961267042E+00  0.0000000000000E+00  0.2573628769828E+00
 0.3775533872537E+00 -0.4215082018861E+00  0.0000000000000E+00  0.2472110780236E+00
 0.3862100045220E+00 -0.4287233328538E+00  0.0000000000000E+00  0.2398733792749E+00
 0.3930524533437E+00 -0.4343443520243E+00  0.0000000000000E+00  0.2352701839425E+00
 0.3983240796212E+00 -0.4386162502708E+00  0.0000000000000E+00  0.2332430909667E+00
 0.4022360082248E+00 -0.4417483723222E+00  0.0000000000000E+00  0.2335226880277E+00
 0.4050344007750E+00 -0.4439560494333E+00  0.0000000000000E+00  0.2355812192663E+00
 0.4068076482318E+00 -0.4453398871200E+00  0.0000000000000E+00  0.2392169967063E+00
 0.4080098450361E+00 -0.4463824671427E+00  0.0000000000000E+00  0.2445580939602E+00
 0.4100273348700E+00 -0.4477578951712E+00  0.0000000000000E+00  0.2536412357365E+00
 0.7464888293195E-01 -0.1465619087973E+00  0.0000000000000E+00  0.4438444918800E+00
 0.1231397797289E+00 -0.1920077858356E+00  0.0000000000000E+00  0.4348988246216E+00
 0.1692630744539E+00 -0.2350133677482E+00  0.0000000000000E+00  0.4179040568836E+00
 0.2111615372332E+00 -0.2737768107507E+00  0.0000000000000E+00  0.3959915309933E+00
 0.2480015207540E+00 -0.3075591802274E+00  0.0000000000000E+00  0.3715840498370E+00
 0.2795839233165E+00 -0.3362009427124E+00  0.0000000000000E+00  0.3463715706619E+00
 0.3060189517147E+00 -0.3598271871108E+00  0.0000000000000E+00  0.3215227339060E+00
 0.3277112607508E+00 -0.3788864118411E+00  0.0000000000000E+00  0.2983920467615E+00
 0.3452566869175E+00 -0.3940034318233E+00  0.0000000000000E+00  0.2780382763029E+00
 0.3592686096760E+00 -0.4058044884054E+00  0.0000000000000E+00  0.2609938242390E+00
 0.3702926474918E+00 -0.4148440963663E+00  0.0000000000000E+00  0.2474670253482E+00
 0.3787994223114E+00 -0.4216003350596E+00  0.0000000000000E+00  0.2374958728059E+00
 0.3852011047674E+00 -0.4264895121532E+00  0.0000000000000E+00  0.2309697211854E+00
 0.3898468104786E+00 -0.4298610262619E+00  0.0000000000000E+00  0.2276512266557E+00
 0.3930366962227E+00 -0.4320131921839E+00  0.0000000000000E+00  0.2272222300325E+00
 0.3950757892453E+00 -0.4332412228268E+00  0.0000000000000E+00  0.2292834536696E+00
 0.3963409731910E+00 -0.4338948350254E+00  0.0000000000000E+00  0.2333717471899E+00
 0.3968654068344E+00 -0.4340898051483E+00  0.0000000000000E+00  0.2398610223512E+00
 0.3971082645196E+00 -0.4342456898907E+00  0.0000000000000E+00  0.2499489717550E+00
 0.3963036965841E+00 -0.4340017473746E+00  0.0000000000000E+00  0.2645894689587E+00
 0.8049128488791E-01 -0.1531828758545E+00  0.0000000000000E+00  0.4634578332310E+00
 0.1320765775526E+00 -0.2015126350089E+00  0.0000000000000E+00  0.4523539300401E+00
 0.1803899326747E+00 -0.2464626606782E+00  0.0000000000000E+00  0.4310321561964E+00
 0.2235000946294E+00 -0.2862075562328E+00  0.0000000000000E+00  0.4038006211997E+00
 0.2605771425162E+00 -0.3199975527226E+00  0.0000000000000E+00  0.3740390880496E+00
 0.2915032845654E+00 -0.3477594173021E+00  0.0000000000000E+00  0.3438554431278E+00
 0.3165343137890E+00 -0.3697653311030E+00  0.0000000000000E+00  0.3146934229539E+00
 0.3362479772908E+00 -0.3866480959305E+00  0.0000000000000E+00  0.2882567084405E+00
 0.3514584800514E+00 -0.3992566245382E+00  0.0000000000000E+00  0.2657346707749E+00
 0.3629622357265E+00 -0.4084012331016E+00  0.0000000000000E+00  0.2475943092752E+00
 0.3714253013687E+00 -0.4147574446817E+00  0.0000000000000E+00  0.2339131034489E+00
 0.3773993595319E+00 -0.4188844371457E+00  0.0000000000000E+00  0.2245813397558E+00
 0.3813603692202E+00 -0.4212600617505E+00  0.0000000000000E+00  0.2193233888947E+00
 0.3837079532519E+00 -0.4222821521686E+00  0.0000000000000E+00  0.2177553775423E+00
 0.3847883118981E+00 -0.4222946142408E+00  0.0000000000000E+00  0.2194779850700E+00
 0.3849421072057E+00 -0.4216314305039E+00  0.0000000000000E+00  0.2241147290476E+00
 0.3845153709221E+00 -0.4206188610141E+00  0.0000000000000E+00  0.2313225148769E+00
 0.3833263634166E+00 -0.4191908105537E+00  0.0000000000000E+00  0.2418974466285E+00
 0.3814338257457E+00 -0.4175578395285E+00  0.0000000000000E+00  0.2566420698170E+00
 0.3791608392704E+00 -0.4159697397464E+00  0.0000000000000E+00  0.2737392368652E+00
 0.8683709530135E-01 -0.1603745298240E+00  0.0000000000000E+00  0.4833712249008E+00
 0.1418633954745E+00 -0.2118988145177E+00  0.0000000000000E+00  0.4691145299820E+00
 0.1924245218370E+00 -0.2588312219328E+00  0.0000000000000E+00  0.4423212847048E+00
 0.2365233807590E+00 -0.2992933041086E+00  0.0000000000000E+00  0.4087125233583E+00
 0.2734092302243E+00 -0.3326293919162E+00  0.0000000000000E+00  0.3726879094510E+00
 0.3031415401846E+00 -0.3589429984300E+00  0.0000000000000E+00  0.3368696714438E+00
 0.3261889778779E+00 -0.3787241737128E+00  0.0000000000000E+00  0.3030675025513E+00
 0.3433651457133E+00 -0.3928538983743E+00  0.0000000000000E+00  0.2733726149582E+00
 0.3557537608186E+00 -0.4024543736302E+00  0.0000000000000E+00  0.2490112294044E+00
 0.3643561398074E+00 -0.4085413212934E+00  0.0000000000000E+00  0.2302613925796E+00
 0.3699609026472E+00 -0.4119131070824E+00  0.0000000000000E+00  0.2169803037283E+00
 0.3731946883297E+00 -0.4132034356147E+00  0.0000000000000E+00  0.2088573665639E+00
 0.3745845756583E+00 -0.4129386685485E+00  0.0000000000000E+00  0.2054292409801E+00
 0.3745552144885E+00 -0.4115399864215E+00  0.0000000000000E+00  0.2061739336337E+00
 0.3734539423225E+00 -0.4093532831406E+00  0.0000000000000E+00  0.2106321364486E+00
 0.3715877613879E+00 -0.4066816115106E+00  0.0000000000000E+00  0.2184159257731E+00
 0.3692059561745E+00 -0.4037490398187E+00  0.0000000000000E+00  0.2291417632356E+00
 0.3658791654907E+00 -0.4003094846691E+00  0.0000000000000E+00  0.2435737278573E+00
 0.3620510986664E+00 -0.3968978990082E+00  0.0000000000000E+00  0.2616544817021E+00
 0.3591222651190E+00 -0.3948316773542E+00  0.0000000000000E+00  0.2809198192619E+00
 0.9380004059012E-01 -0.1682670613835E+00  0.0000000000000E+00  0.5036875883500E+00
 0.1526702514547E+00 -0.2233499903768E+00  0.0000000000000E+00  0.4850512162561E+00
 0.2054682058654E+00 -0.2722149630312E+00  0.0000000000000E+00  0.4514074311187E+00
 0.2502339307516E+00 -0.3130348438073E+00  0.0000000000000E+00  0.4101905359992E+00
 0.2863923225257E+00 -0.3453426824868E+00  0.0000000000000E+00  0.3669759046768E+00
 0.3142857499104E+00 -0.3695295191471E+00  0.0000000000000E+00  0.3249486360823E+00
 0.3346899909763E+00 -0.3864005515586E+00  0.0000000000000E+00  0.2863583043277E+00
 0.3487361507071E+00 -0.3971675569309E+00  0.0000000000000E+00  0.2536713508339E+00
 0.3578297069163E+00 -0.4032761958268E+00  0.0000000000000E+00  0.2280042954348E+00
 0.3631845051191E+00 -0.4059543299661E+00  0.0000000000000E+00  0.2092989798785E+00
 0.3656972514951E+00 -0.4061081301199E+00  0.0000000000000E+00  0.1970966650184E+00
 0.3660479448218E+00 -0.4044233278165E+00  0.0000000000000E+00  0.1908312420810E+00
 0.3647869416195E+00 -0.4014456753354E+00  0.0000000000000E+00  0.1898216821051E+00
 0.3623270884572E+00 -0.3975817401396E+00  0.0000000000000E+00  0.1933898699154E+00
 0.3589763659458E+00 -0.3931373636687E+00  0.0000000000000E+00  0.2009815632135E+00
 0.3549801170773E+00 -0.3883519638726E+00  0.0000000000000E+00  0.2121166949461E+00
 0.3504819386234E+00 -0.3833418896271E+00  0.0000000000000E+00  0.2262282131194E+00
 0.3450037720311E+00 -0.3778375793680E+00  0.0000000000000E+00  0.2439186568480E+00
 0.3395591725581E+00 -0.3729502707568E+00  0.0000000000000E+00  0.2647859749337E+00
 0.3363587469272E+00 -0.3707687882051E+00  0.0000000000000E+00  0.2862120931011E+00
 0.1015080239966E+00 -0.1770092606744E+00  0.0000000000000E+00  0.5245381727729E+00
 0.1646834525321E+00 -0.2360607956091E+00  0.0000000000000E+00  0.4999462814583E+00
 0.2196286426462E+00 -0.2867233355602E+00  0.0000000000000E+00  0.4578185930759E+00
 0.2646088057762E+00 -0.3274039639865E+00  0.0000000000000E+00  0.4076316622552E+00
 0.2993647210766E+00 -0.3579670366652E+00  0.0000000000000E+00  0.3563136435154E+00
 0.3246574040729E+00 -0.3792285379352E+00  0.0000000000000E+00  0.3076498841678E+00
 0.3416876978019E+00 -0.3924326569482E+00  0.0000000000000E+00  0.2643680204212E+00
 0.3520011738587E+00 -0.3992187909631E+00  0.0000000000000E+00  0.2292235316545E+00
 0.3573676630073E+00 -0.4013958966512E+00  0.0000000000000E+00  0.2030119924319E+00
 0.3591991072540E+00 -0.4003884899244E+00  0.0000000000000E+00  0.1851680389062E+00
 0.3584665812406E+00 -0.3971756100442E+00  0.0000000000000E+00  0.1748174430537E+00
 0.3558680111100E+00 -0.3924577113803E+00  0.0000000000000E+00  0.1710819967252E+00
 0.3519409518069E+00 -0.3867615808847E+00  0.0000000000000E+00  0.1730272567600E+00
 0.3470507357536E+00 -0.3804413594088E+00  0.0000000000000E+00  0.1797897019443E+00
 0.3414414678873E+00 -0.3737357202673E+00  0.0000000000000E+00  0.1906808806390E+00
 0.3352913758606E+00 -0.3668138461598E+00  0.0000000000000E+00  0.2050780523948E+00
 0.3286722989275E+00 -0.3597110223200E+00  0.0000000000000E+00  0.2221954576887E+00
 0.3211609317296E+00 -0.3522429440229E+00  0.0000000000000E+00  0.2425767647399E+00
 0.3143600562047E+00 -0.3461120721949E+00  0.0000000000000E+00  0.2657722246416E+00
 0.3111112463350E+00 -0.3440397915155E+00  0.0000000000000E+00  0.2892654776412E+00
 0.1101121359737E+00 -0.1867751113813E+00  0.0000000000000E+00  0.5460722281000E+00
 0.1781111327524E+00 -0.2502497014094E+00  0.0000000000000E+00  0.5134949788615E+00
 0.2350066627634E+00 -0.3024583509407E+00  0.0000000000000E+00  0.4609668748032E+00
 0.2795845262118E+00 -0.3423310609865E+00  0.0000000000000E+00  0.4003422769125E+00
 0.3120986895740E+00 -0.3702627976233E+00  0.0000000000000E+00  0.3400843415956E+00
 0.3339060714638E+00 -0.3876747242305E+00  0.0000000000000E+00  0.2845843565755E+00
 0.3467774086084E+00 -0.3964015327987E+00  0.0000000000000E+00  0.2370299605142E+00
 0.3527769769301E+00 -0.3986130005852E+00  0.0000000000000E+00  0.2002752314439E+00
 0.3540590036836E+00 -0.3964977204846E+00  0.0000000000000E+00  0.1745134257359E+00
 0.3521889483723E+00 -0.3916307602871E+00  0.0000000000000E+00  0.1584855028144E+00
 0.3481581883445E+00 -0.3850077189688E+00  0.0000000000000E+00  0.1508068977100E+00
 0.3426364124510E+00 -0.3772946597974E+00  0.0000000000000E+00  0.1502376048159E+00
 0.3361091777582E+00 -0.3689573117207E+00  0.0000000000000E+00  0.1555617289040E+00
 0.3288638192480E+00 -0.3602645192895E+00  0.0000000000000E+00  0.1657120147580E+00
 0.3210662735854E+00 -0.3513717452360E+00  0.0000000000000E+00  0.1798489754715E+00
 0.3128334395842E+00 -0.3423814512959E+00  0.0000000000000E+00  0.1972022685451E+00
 0.3041830690650E+00 -0.3332661276956E+00  0.0000000000000E+00  0.2168113649806E+00
 0.2948053309094E+00 -0.3239789980212E+00  0.0000000000000E+00  0.2392570342245E+00
 0.2868585555674E+00 -0.3167928368739E+00  0.0000000000000E+00  0.2642660658773E+00
 0.2837004200899E+00 -0.3149614715692E+00  0.0000000000000E+00  0.2895994717132E+00
 0.1197934292025E+00 -0.1977733088086E+00  0.0000000000000E+00  0.5684582285522E+00
 0.1931860824735E+00 -0.2661614232276E+00  0.0000000000000E+00  0.5252863524430E+00
 0.2516872430885E+00 -0.3195059588223E+00  0.0000000000000E+00  0.4601270982035E+00
 0.2950407744130E+00 -0.3576871159051E+00  0.0000000000000E+00  0.3875292973603E+00
 0.3242856496604E+00 -0.3819057478971E+00  0.0000000000000E+00  0.3176581313263E+00
 0.3416032798297E+00 -0.3944210078816E+00  0.0000000000000E+00  0.2554565982789E+00
 0.3495053314508E+00 -0.3978368530449E+00  0.0000000000000E+00  0.2044564137937E+00
 0.3506736923570E+00 -0.3949483899455E+00  0.0000000000000E+00  0.1672839013583E+00
 0.3476277144800E+00 -0.3882996812856E+00  0.0000000000000E+00  0.1431829789860E+00
 0.3420041887960E+00 -0.3795316949223E+00  0.0000000000000E+00  0.1300174523100E+00
 0.3347408806476E+00 -0.3695790757645E+00  0.0000000000000E+00  0.1258185405469E+00
 0.3264258376998E+00 -0.3590162135598E+00  0.0000000000000E+00  0.1289560843916E+00
 0.3174537611756E+00 -0.3482058727170E+00  0.0000000000000E+00  0.1379269050261E+00
 0.3080090737415E+00 -0.3373046998405E+00  0.0000000000000E+00  0.1514652092743E+00
 0.2981719823424E+00 -0.3263758361959E+00  0.0000000000000E+00  0.1685909523129E+00
 0.2880027319935E+00 -0.3154590460540E+00  0.0000000000000E+00  0.1884160981703E+00
 0.2774705666149E+00 -0.3044688114825E+00  0.0000000000000E+00  0.2098718452209E+00
 0.2664172776632E+00 -0.2935301993147E+00  0.0000000000000E+00  0.2336543645417E+00
 0.2575082219356E+00 -0.2854464509671E+00  0.0000000000000E+00  0.2598394415835E+00
 0.2545211598367E+00 -0.2839227238502E+00  0.0000000000000E+00  0.2866607166756E+00
 0.1307705695734E+00 -0.2102569226697E+00  0.0000000000000E+00  0.5918803828962E+00
 0.2101685820343E+00 -0.2840707095180E+00  0.0000000000000E+00  0.5347712102865E+00
 0.2697279099246E+00 -0.3379238038656E+00  0.0000000000000E+00  0.4544070827988E+00
 0.3107803259498E+00 -0.3732623727233E+00  0.0000000000000E+00  0.3682936353025E+00
 0.3355188893924E+00 -0.3924682583150E+00  0.0000000000000E+00  0.2884195039302E+00
 0.3472383791112E+00 -0.3989336979184E+00  0.0000000000000E+00  0.2201186655326E+00
 0.3493815039091E+00 -0.3962299557054E+00  0.0000000000000E+00  0.1669940297795E+00
 0.3453198813629E+00 -0.3878419405090E+00  0.0000000000000E+00  0.1309517786308E+00
 0.3378589533135E+00 -0.3765835009807E+00  0.0000000000000E+00  0.1098949039367E+00
 0.3285815782420E+00 -0.3640322154908E+00  0.0000000000000E+00  0.1006603749335E+00
 0.3182813990111E+00 -0.3509661603690E+00  0.0000000000000E+00  0.1006649935735E+00
 0.3074092046405E+00 -0.3378080477801E+00  0.0000000000000E+00  0.1078971864408E+00
 0.2962341271319E+00 -0.3247803728884E+00  0.0000000000000E+00  0.1205926291750E+00
 0.2848198521979E+00 -0.3119083745742E+00  0.0000000000000E+00  0.1373182943181E+00
 0.2731582231435E+00 -0.2991594298048E+00  0.0000000000000E+00  0.1569859319453E+00
 0.2612565125658E+00 -0.2865137806639E+00  0.0000000000000E+00  0.1786363216422E+00
 0.2490342303691E+00 -0.2738268550588E+00  0.0000000000000E+00  0.2011650133282E+00
 0.2365178859630E+00 -0.2614231164167E+00  0.0000000000000E+00  0.2254364443499E+00
 0.2268221340565E+00 -0.2525870194448E+00  0.0000000000000E+00  0.2520270491002E+00
 0.2240376064476E+00 -0.2513806307453E+00  0.0000000000000E+00  0.2798683384774E+00
 0.1433093912770E+00 -0.2245360762137E+00  0.0000000000000E+00  0.6165321022256E+00
 0.2293486974209E+00 -0.3042857715365E+00  0.0000000000000E+00  0.5412149893775E+00
 0.2891419300880E+00 -0.3577236266075E+00  0.0000000000000E+00  0.4427075015818E+00
 0.3265025624457E+00 -0.3887376322163E+00  0.0000000000000E+00  0.3416279479066E+00
 0.3452741775316E+00 -0.4013977928551E+00  0.0000000000000E+00  0.2518119552457E+00
 0.3502197074139E+00 -0.4005928772633E+00  0.0000000000000E+00  0.1786428128865E+00
 0.3459031915276E+00 -0.3910580381860E+00  0.0000000000000E+00  0.1252856649581E+00
 0.3363973875817E+00 -0.3769660826362E+00  0.0000000000000E+00  0.9225061871774E-01
 0.3246322798624E+00 -0.3612298602886E+00  0.0000000000000E+00  0.7570989404960E-01
 0.3119682251040E+00 -0.3451888193023E+00  0.0000000000000E+00  0.7140280256191E-01
 0.2989559002154E+00 -0.3293593829149E+00  0.0000000000000E+00  0.7617181720911E-01
 0.2858590379083E+00 -0.3139587604597E+00  0.0000000000000E+00  0.8768221761077E-01
 0.2727960453639E+00 -0.2990425226433E+00  0.0000000000000E+00  0.1039686133049E+00
 0.2597015746483E+00 -0.2844957452476E+00  0.0000000000000E+00  0.1234828561412E+00
 0.2464822550995E+00 -0.2701929300144E+00  0.0000000000000E+00  0.1450723887453E+00
 0.2330965623055E+00 -0.2560589869183E+00  0.0000000000000E+00  0.1677581593748E+00
 0.2194114563028E+00 -0.2418878178661E+00  0.0000000000000E+00  0.1904681903028E+00
 0.2056717825107E+00 -0.2282300909562E+00  0.0000000000000E+00  0.2142662555114E+00
 0.1953729241055E+00 -0.2187897334760E+00  0.0000000000000E+00  0.2403675979876E+00
 0.1927839897937E+00 -0.2178634830131E+00  0.0000000000000E+00  0.2686469630552E+00
 0.1577355019962E+00 -0.2409954477120E+00  0.0000000000000E+00  0.6426032666434E+00
 0.2510474358649E+00 -0.3271511584290E+00  0.0000000000000E+00  0.5436283807513E+00
 0.3098725783677E+00 -0.3788438963941E+00  0.0000000000000E+00  0.4236680510791E+00
 0.3417676140140E+00 -0.4036447680143E+00  0.0000000000000E+00  0.3064234699846E+00
 0.3528895187376E+00 -0.4079937262090E+00  0.0000000000000E+00  0.2074092901737E+00
 0.3498860413686E+00 -0.3987036052229E+00  0.0000000000000E+00  0.1314173908260E+00
 0.3385934344497E+00 -0.3818248319404E+00  0.0000000000000E+00  0.8033315043500E-01
 0.3236867345463E+00 -0.3620971574188E+00  0.0000000000000E+00  0.5242576115924E-01
 0.3079564159939E+00 -0.3422555985083E+00  0.0000000000000E+00  0.4183223090075E-01
 0.2923390468276E+00 -0.3231920177366E+00  0.0000000000000E+00  0.4326138391075E-01
 0.2770510821056E+00 -0.3050639474145E+00  0.0000000000000E+00  0.5311605690910E-01
 0.2621366218515E+00 -0.2878481433789E+00  0.0000000000000E+00  0.6884832471712E-01
 0.2475535728447E+00 -0.2714235732214E+00  0.0000000000000E+00  0.8837690962542E-01
 0.2331108023999E+00 -0.2555388114291E+00  0.0000000000000E+00  0.1100997419612E+00
 0.2186392065161E+00 -0.2399852236045E+00  0.0000000000000E+00  0.1328449865826E+00
 0.2040546013244E+00 -0.2246389094386E+00  0.0000000000000E+00  0.1556612566895E+00
 0.1891701294120E+00 -0.2092315748207E+00  0.0000000000000E+00  0.1775680115121E+00
 0.1744838445005E+00 -0.1945664519201E+00  0.0000000000000E+00  0.1998391097026E+00
 0.1637905769800E+00 -0.1846902497618E+00  0.0000000000000E+00  0.2244500385957E+00
 0.1613694248660E+00 -0.1839770288453E+00  0.0000000000000E+00  0.2524651248268E+00
 0.1744514460791E+00 -0.2601195543664E+00  0.0000000000000E+00  0.6702558228055E+00
 0.2756150721108E+00 -0.3530486241059E+00  0.0000000000000E+00  0.5406621722707E+00
 0.3317523579822E+00 -0.4011056728340E+00  0.0000000000000E+00  0.3955951913745E+00
 0.3559473102324E+00 -0.4173115706312E+00  0.0000000000000E+00  0.2614965745434E+00
 0.3575476475171E+00 -0.4113861018296E+00  0.0000000000000E+00  0.1550288155633E+00
 0.3455366469866E+00 -0.3925272856797E+00  0.0000000000000E+00  0.7926860696710E-01
 0.3270600223632E+00 -0.3681240825312E+00  0.0000000000000E+00  0.3354666232007E-01
 0.3071210443915E+00 -0.3431737502733E+00  0.0000000000000E+00  0.1295996436418E-01
 0.2879986828522E+00 -0.3198452631385E+00  0.0000000000000E+00  0.9525421500186E-02
 0.2700010613206E+00 -0.2983703290341E+00  0.0000000000000E+00  0.1719176458501E-01
 0.2529514847572E+00 -0.2784857343934E+00  0.0000000000000E+00  0.3215904088642E-01
 0.2366711398392E+00 -0.2599248864815E+00  0.0000000000000E+00  0.5180951596496E-01
 0.2209659160713E+00 -0.2424000872848E+00  0.0000000000000E+00  0.7403546445657E-01
 0.2055329571150E+00 -0.2255382917688E+00  0.0000000000000E+00  0.9723755334987E-01
 0.1901426799055E+00 -0.2090636245422E+00  0.0000000000000E+00  0.1202638708078E+00
 0.1746773978964E+00 -0.1928134245219E+00  0.0000000000000E+00  0.1422303941948E+00
 0.1588987951614E+00 -0.1764604923309E+00  0.0000000000000E+00  0.1622952760868E+00
 0.1435929830163E+00 -0.1610852020923E+00  0.0000000000000E+00  0.1819313152164E+00
 0.1327597627235E+00 -0.1509837057210E+00  0.0000000000000E+00  0.2039691723534E+00
 0.1304853178934E+00 -0.1504137376277E+00  0.0000000000000E+00  0.2308867137749E+00
 0.1939606544677E+00 -0.2825308440959E+00  0.0000000000000E+00  0.6995765351249E+00
 0.3034227193799E+00 -0.3823924206509E+00  0.0000000000000E+00  0.5304413783330E+00
 0.3544362286660E+00 -0.4241387494026E+00  0.0000000000000E+00  0.3563658875624E+00
 0.3681584651973E+00 -0.4287847195626E+00  0.0000000000000E+00  0.2056572784745E+00
 0.3582701948345E+00 -0.4105259020535E+00  0.0000000000000E+00  0.9490990261468E-01
 0.3364932147945E+00 -0.3813487829859E+00  0.0000000000000E+00  0.2360283173376E-01
 0.3110784211403E+00 -0.3497306238271E+00  0.0000000000000E+00 -0.1324969473142E-01
 0.2868397238696E+00 -0.3203553973494E+00  0.0000000000000E+00 -0.2453045171259E-01
 0.2650967173778E+00 -0.2943629087070E+00  0.0000000000000E+00 -0.2001950892957E-01
 0.2453767357562E+00 -0.2711711604152E+00  0.0000000000000E+00 -0.6011845184609E-02
 0.2271120750793E+00 -0.2501015173442E+00  0.0000000000000E+00  0.1379300384935E-01
 0.2099321415884E+00 -0.2306777274785E+00  0.0000000000000E+00  0.3683824682980E-01
 0.1935128971089E+00 -0.2124687115168E+00  0.0000000000000E+00  0.6105813968709E-01
 0.1774606045470E+00 -0.1950013483108E+00  0.0000000000000E+00  0.8490236318824E-01
 0.1615056053011E+00 -0.1779541583862E+00  0.0000000000000E+00  0.1072732938298E+00
 0.1455106295008E+00 -0.1611414619926E+00  0.0000000000000E+00  0.1273863775859E+00
 0.1291941301949E+00 -0.1441869556728E+00  0.0000000000000E+00  0.1445715210305E+00
 0.1136633537857E+00 -0.1284692871949E+00  0.0000000000000E+00  0.1604612631869E+00
 0.1030156425134E+00 -0.1184227346499E+00  0.0000000000000E+00  0.1787966541840E+00
 0.1009132995890E+00 -0.1179632166249E+00  0.0000000000000E+00  0.2036439634894E+00
 0.2169013933370E+00 -0.3090498061512E+00  0.0000000000000E+00  0.7304828606292E+00
 0.3348378227666E+00 -0.4156099328594E+00  0.0000000000000E+00  0.5102908560258E+00
 0.3772884633760E+00 -0.4472532196746E+00  0.0000000000000E+00  0.3033038482815E+00
 0.3771751467118E+00 -0.4367246625879E+00  0.0000000000000E+00  0.1378667733397E+00
 0.3539439168558E+00 -0.4042101261050E+00  0.0000000000000E+00  0.2799092228172E-01
 0.3222125937364E+00 -0.3646025632998E+00  0.0000000000000E+00 -0.3345892051927E-01
 0.2906933980246E+00 -0.3267145315966E+00  0.0000000000000E+00 -0.5791312393105E-01
 0.2632202737935E+00 -0.2940567628545E+00  0.0000000000000E+00 -0.5849483461813E-01
 0.2397353534433E+00 -0.2663245300106E+00  0.0000000000000E+00 -0.4584639546632E-01
 0.2189629109634E+00 -0.2421149911304E+00  0.0000000000000E+00 -0.2579316567964E-01
 0.2000222360499E+00 -0.2204211118156E+00  0.0000000000000E+00 -0.1673560279539E-02
 0.1824028061194E+00 -0.2006084113303E+00  0.0000000000000E+00  0.2407357041447E-01
 0.1656733670285E+00 -0.1821244647631E+00  0.0000000000000E+00  0.4946652385237E-01
 0.1493733227626E+00 -0.1644209599477E+00  0.0000000000000E+00  0.7305200931169E-01
 0.1332204543265E+00 -0.1471610709228E+00  0.0000000000000E+00  0.9382448291730E-01
 0.1170800093878E+00 -0.1301615539727E+00  0.0000000000000E+00  0.1111240194333E+00
 0.1006442176160E+00 -0.1130165990496E+00  0.0000000000000E+00  0.1244665426399E+00
 0.8537118783179E-01 -0.9741960098979E-01  0.0000000000000E+00  0.1355656887356E+00
 0.7533504311531E-01 -0.8781154509348E-01  0.0000000000000E+00  0.1490738866907E+00
 0.7353000798707E-01 -0.8752055494067E-01  0.0000000000000E+00  0.1707424918871E+00
 0.2440950614360E+00 -0.3407951704072E+00  0.0000000000000E+00  0.7625271538186E+00
 0.3701603451213E+00 -0.4530841600318E+00  0.0000000000000E+00  0.4762542312431E+00
 0.3991840133018E+00 -0.4692058287313E+00  0.0000000000000E+00  0.2330392924408E+00
 0.3813249499687E+00 -0.4392744498767E+00  0.0000000000000E+00  0.5758553606294E-01
 0.3434232380221E+00 -0.3911943898377E+00  0.0000000000000E+00 -0.4367985686880E-01
 0.3024695278485E+00 -0.3420853979521E+00  0.0000000000000E+00 -0.8904178481599E-01
 0.2663084814160E+00 -0.2995427795432E+00  0.0000000000000E+00 -0.9826743886731E-01
 0.2368491007209E+00 -0.2649115219288E+00  0.0000000000000E+00 -0.8773926612995E-01
 0.2124763928495E+00 -0.2363164338579E+00  0.0000000000000E+00 -0.6736123109688E-01
 0.1912770488073E+00 -0.2117383474456E+00  0.0000000000000E+00 -0.4183292865374E-01
 0.1721764351076E+00 -0.1899586863903E+00  0.0000000000000E+00 -0.1408252076663E-01
 0.1545620236429E+00 -0.1702148158086E+00  0.0000000000000E+00  0.1354249441503E-01
 0.1379079603745E+00 -0.1518433856284E+00  0.0000000000000E+00  0.3919901729934E-01
 0.1217175136956E+00 -0.1342548684884E+00  0.0000000000000E+00  0.6160730791225E-01
 0.1057367640439E+00 -0.1171433771720E+00  0.0000000000000E+00  0.7990019523867E-01
 0.8986780314155E-01 -0.1003677099822E+00  0.0000000000000E+00  0.9355598706179E-01
 0.7380509354142E-01 -0.8352459747449E-01  0.0000000000000E+00  0.1022663133451E+00
 0.5938329596426E-01 -0.6863458994833E-01  0.0000000000000E+00  0.1076931664961E+00
 0.5051694906020E-01 -0.5999003376348E-01  0.0000000000000E+00  0.1153332913669E+00
 0.4930134194358E-01 -0.6008587252867E-01  0.0000000000000E+00  0.1326122854666E+00
 0.2766103420221E+00 -0.3793636715766E+00  0.0000000000000E+00  0.7944534697787E+00
 0.4094582618374E+00 -0.4949887570913E+00  0.0000000000000E+00  0.4221924270351E+00
 0.4181468756130E+00 -0.4877581474679E+00  0.0000000000000E+00  0.1414213302976E+00
 0.3784092312588E+00 -0.4339386477297E+00  0.0000000000000E+00 -0.3446164052072E-01
 0.3257980921371E+00 -0.3705140494948E+00  0.0000000000000E+00 -0.1164104556094E+00
 0.2776006662363E+00 -0.3142480456327E+00  0.0000000000000E+00 -0.1397900921695E+00
 0.2386774242925E+00 -0.2690689606189E+00  0.0000000000000E+00 -0.1326651402002E+00
 0.2083864666321E+00 -0.2336055370761E+00  0.0000000000000E+00 -0.1116935853433E+00
 0.1838647118870E+00 -0.2048941989265E+00  0.0000000000000E+00 -0.8429307241130E-01
 0.1628242483183E+00 -0.1805632351156E+00  0.0000000000000E+00 -0.5395171202404E-01
 0.1440666808309E+00 -0.1592292357381E+00  0.0000000000000E+00 -0.2337737370304E-01
 0.1268759333612E+00 -0.1399834559348E+00  0.0000000000000E+00  0.5162414167426E-02
 0.1106413878188E+00 -0.1220636368806E+00  0.0000000000000E+00  0.3010407316027E-01
 0.9488233405999E-01 -0.1048999247878E+00  0.0000000000000E+00  0.5046068140129E-01
 0.7943446190946E-01 -0.8828737722315E-01  0.0000000000000E+00  0.6554352085066E-01
 0.6428370423140E-01 -0.7217968405148E-01  0.0000000000000E+00  0.7496101774713E-01
 0.4916749247020E-01 -0.5622211566925E-01  0.0000000000000E+00  0.7854671410614E-01
 0.3632034943626E-01 -0.4277378497709E-01  0.0000000000000E+00  0.7771125857795E-01
 0.2934096108030E-01 -0.3579638296496E-01  0.0000000000000E+00  0.7865151121995E-01
 0.2925107673292E-01 -0.3674055695160E-01  0.0000000000000E+00  0.9031989566765E-01
 0.3158398656784E+00 -0.4271820280389E+00  0.0000000000000E+00  0.8231261631714E+00
 0.4521166120451E+00 -0.5408185467826E+00  0.0000000000000E+00  0.3379153682611E+00
 0.4306781601413E+00 -0.4987722653169E+00  0.0000000000000E+00  0.2381961144370E-01
 0.3658108334439E+00 -0.4177019316067E+00  0.0000000000000E+00 -0.1346218174258E+00
 0.3009782799877E+00 -0.3422017168892E+00  0.0000000000000E+00 -0.1844638658641E+00
 0.2486725604281E+00 -0.2824379908260E+00  0.0000000000000E+00 -0.1829112862331E+00
 0.2086312881596E+00 -0.2361566339501E+00  0.0000000000000E+00 -0.1606902458302E+00
 0.1783752345234E+00 -0.2006708515945E+00  0.0000000000000E+00 -0.1302901374802E+00
 0.1543895562881E+00 -0.1725479867018E+00  0.0000000000000E+00 -0.9644805508847E-01
 0.1341145692769E+00 -0.1491256335326E+00  0.0000000000000E+00 -0.6199106817488E-01
 0.1161950118140E+00 -0.1287652924590E+00  0.0000000000000E+00 -0.2961069987344E-01
 0.9978572483787E-01 -0.1103753135618E+00  0.0000000000000E+00 -0.1301264566809E-02
 0.8423551602891E-01 -0.9315532715847E-01  0.0000000000000E+00  0.2192595773048E-01
 0.6917019053275E-01 -0.7666155803174E-01  0.0000000000000E+00  0.3949513767415E-01
 0.5459452712370E-01 -0.6087655581993E-01  0.0000000000000E+00  0.5089466234290E-01
 0.4063126791792E-01 -0.4591012242669E-01  0.0000000000000E+00  0.5583054544993E-01
 0.2711066956511E-01 -0.3150884387811E-01  0.0000000000000E+00  0.5423825015091E-01
 0.1669516062733E-01 -0.2039561348154E-01  0.0000000000000E+00  0.4701073833352E-01
 0.1248386421661E-01 -0.1598568089820E-01  0.0000000000000E+00  0.4082091611103E-01
 0.1437304189354E-01 -0.1857070257144E-01  0.0000000000000E+00  0.4585237518774E-01
 0.3633612961185E+00 -0.4883199090645E+00  0.0000000000000E+00  0.8400283595180E+00
 0.4955056119488E+00 -0.5876636991748E+00  0.0000000000000E+00  0.2051132777956E+00
 0.4305203944551E+00 -0.4945886519558E+00  0.0000000000000E+00 -0.1229152104190E+00
 0.3414013503219E+00 -0.3879683910450E+00  0.0000000000000E+00 -0.2327330483863E+00
 0.2706718116803E+00 -0.3089055873209E+00  0.0000000000000E+00 -0.2411594073860E+00
 0.2170225644479E+00 -0.2480319036688E+00  0.0000000000000E+00 -0.2183828720771E+00
 0.1766277877233E+00 -0.2012205210116E+00  0.0000000000000E+00 -0.1828770033791E+00
 0.1471925190836E+00 -0.1664345389094E+00  0.0000000000000E+00 -0.1433980463577E+00
 0.1245554728089E+00 -0.1397992645374E+00  0.0000000000000E+00 -0.1034153248501E+00
 0.1057265174388E+00 -0.1180541021737E+00  0.0000000000000E+00 -0.6582801046977E-01
 0.8907280376023E-01 -0.9911297164993E-01  0.0000000000000E+00 -0.3306867309813E-01
 0.7367061433153E-01 -0.8178070462996E-01  0.0000000000000E+00 -0.6295441616778E-02
 0.5895157000337E-01 -0.6538115885754E-01  0.0000000000000E+00  0.1432044456872E-01
 0.4476770880225E-01 -0.4972341602630E-01  0.0000000000000E+00  0.2862720934555E-01
 0.3137222539693E-01 -0.3506784484816E-01  0.0000000000000E+00  0.3622833647696E-01
 0.1907154520807E-01 -0.2172504845230E-01  0.0000000000000E+00  0.3689986677711E-01
 0.7845381168774E-02 -0.9620402462356E-02  0.0000000000000E+00  0.3066056149088E-01
 0.8167159554144E-03 -0.1854942581906E-02  0.0000000000000E+00  0.1754947447659E-01
 0.3644290484850E-03 -0.1074159662841E-02  0.0000000000000E+00  0.4487223306552E-02
 0.5428387294288E-02 -0.6473036490655E-02  0.0000000000000E+00  0.2428938499672E-02
 0.4207019347319E+00 -0.5704991046958E+00  0.0000000000000E+00  0.8218185507793E+00
 0.5299528296924E+00 -0.6250145947272E+00  0.0000000000000E+00 -0.1516143319838E-01
 0.4071914319165E+00 -0.4590204594864E+00  0.0000000000000E+00 -0.2885682879611E+00
 0.3074176346358E+00 -0.3506766616194E+00  0.0000000000000E+00 -0.3069131220355E+00
 0.2380463034281E+00 -0.2737016304771E+00  0.0000000000000E+00 -0.2870553627871E+00
 0.1830418950895E+00 -0.2113851645185E+00  0.0000000000000E+00 -0.2484084723470E+00
 0.1426862424629E+00 -0.1641145638146E+00  0.0000000000000E+00 -0.1995557860163E+00
 0.1152037381789E+00 -0.1312125980244E+00  0.0000000000000E+00 -0.1501181264803E+00
 0.9507660930329E-01 -0.1074470216469E+00  0.0000000000000E+00 -0.1045199520452E+00
 0.7834031255455E-01 -0.8810135407213E-01  0.0000000000000E+00 -0.6569231192753E-01
 0.6315296965483E-01 -0.7074332803962E-01  0.0000000000000E+00 -0.3445430551817E-01
 0.4878199309252E-01 -0.5444756888409E-01  0.0000000000000E+00 -0.1045772722794E-01
 0.3492181464835E-01 -0.3886583482449E-01  0.0000000000000E+00  0.6947709637883E-02
 0.2173153079500E-01 -0.2414681268505E-01  0.0000000000000E+00  0.1784233492691E-01
 0.9767493961698E-02 -0.1084568054330E-01  0.0000000000000E+00  0.2196632986882E-01
-0.4113055695019E-03  0.3743014940119E-03  0.0000000000000E+00  0.1917924747750E-01
-0.8642107801203E-02  0.9441189888067E-02  0.0000000000000E+00  0.9498393109542E-02
-0.1131081955835E-01  0.1277993841359E-01  0.0000000000000E+00 -0.8237694865660E-02
-0.7097633212462E-02  0.8936432699567E-02  0.0000000000000E+00 -0.2700316261559E-01
 0.2511470704178E-02 -0.7296933358052E-03  0.0000000000000E+00 -0.3533196862601E-01
 0.4626592612270E+00 -0.6964409328937E+00  0.0000000000000E+00  0.6085058975073E+00
 0.5163518481150E+00 -0.5715577887301E+00  0.0000000000000E+00 -0.3902521819060E+00
 0.3573141395374E+00 -0.4054532974606E+00  0.0000000000000E+00 -0.3895980933043E+00
 0.2732605990633E+00 -0.3138023704739E+00  0.0000000000000E+00 -0.3580684333002E+00
 0.2038896220052E+00 -0.2375992473465E+00  0.0000000000000E+00 -0.3280821341920E+00
 0.1462619613739E+00 -0.1717683369327E+00  0.0000000000000E+00 -0.2754608364464E+00
 0.1064509810813E+00 -0.1241375444682E+00  0.0000000000000E+00 -0.2093796953305E+00
 0.8331006661222E-01 -0.9603582734472E-01  0.0000000000000E+00 -0.1482528037929E+00
 0.6702731275801E-01 -0.7674019677630E-01  0.0000000000000E+00 -0.9957827701514E-01
 0.5259181653241E-01 -0.5993821064163E-01  0.0000000000000E+00 -0.6268551599293E-01
 0.3869363423680E-01 -0.4390442661791E-01  0.0000000000000E+00 -0.3486621475848E-01
 0.2519180313001E-01 -0.2842396049989E-01  0.0000000000000E+00 -0.1442903416855E-01
 0.1215099651348E-01 -0.1361347626439E-01  0.0000000000000E+00 -0.3899785033390E-03
 0.2859434442826E-04  0.1027217413885E-03  0.0000000000000E+00  0.7243383903718E-02
-0.1041499835629E-01  0.1194656388478E-01  0.0000000000000E+00  0.8419987378725E-02
-0.1814532457244E-01  0.2085917956960E-01  0.0000000000000E+00  0.4021200928835E-02
-0.2248370135699E-01  0.2562195265323E-01  0.0000000000000E+00 -0.6865997693994E-02
-0.1988565872635E-01  0.2366128051066E-01  0.0000000000000E+00 -0.2830840953816E-01
-0.1084035935780E-01  0.1498406129121E-01  0.0000000000000E+00 -0.5066277287820E-01
 0.4152632967767E-02 -0.4440895795876E-04  0.0000000000000E+00 -0.6205290526749E-01
 0.1621478711224E+00 -0.1853593627970E+00  0.0000000000000E+00 -0.9271070910989E-01
 0.1414287843800E+00 -0.1613618262074E+00  0.0000000000000E+00 -0.9213548074172E-01
 0.1212290705527E+00 -0.1393738313538E+00  0.0000000000000E+00 -0.9027720311949E-01
 0.1016384263233E+00 -0.1179870123237E+00  0.0000000000000E+00 -0.8498028444872E-01
 0.8279135575124E-01 -0.9735775621417E-01  0.0000000000000E+00 -0.7601847141450E-01
 0.6523193916943E-01 -0.7799711674092E-01  0.0000000000000E+00 -0.6366603528631E-01
 0.4943367892826E-01 -0.6039411986013E-01  0.0000000000000E+00 -0.4841483175221E-01
 0.3579794448346E-01 -0.4496875867583E-01  0.0000000000000E+00 -0.3096814891381E-01
 0.2461767554783E-01 -0.3203854085011E-01  0.0000000000000E+00 -0.1222263928798E-01
 0.1605232753466E-01 -0.2179125217265E-01  0.0000000000000E+00  0.6765417802518E-02
 0.1010327645411E-01 -0.1425990095093E-01  0.0000000000000E+00  0.2483830351600E-01
 0.6597212707347E-02 -0.9304736482345E-02  0.0000000000000E+00  0.4081975655731E-01
 0.5183328411472E-02 -0.6608150702452E-02  0.0000000000000E+00  0.5362215945373E-01
 0.5352086281081E-02 -0.5690010888008E-02  0.0000000000000E+00  0.6237224885621E-01
 0.6483788243591E-02 -0.5951917861247E-02  0.0000000000000E+00  0.6653920548904E-01
 0.7932005545091E-02 -0.6756543513672E-02  0.0000000000000E+00  0.6603287758147E-01
 0.9137220700046E-02 -0.7538562765395E-02  0.0000000000000E+00  0.6122681712363E-01
 0.9745319396177E-02 -0.7925430977924E-02  0.0000000000000E+00  0.5286371662871E-01
 0.9701197544501E-02 -0.7828574082263E-02  0.0000000000000E+00  0.4186493686520E-01
 0.9194868373613E-02 -0.7457449315265E-02  0.0000000000000E+00  0.2887662109046E-01
 0.1743904096132E+00 -0.1978692203825E+00  0.0000000000000E+00 -0.1032231365635E+00
 0.1556363538720E+00 -0.1773083658919E+00  0.0000000000000E+00 -0.1034522173560E+00
 0.1348948743372E+00 -0.1544629024258E+00  0.0000000000000E+00 -0.1018061726388E+00
 0.1144029639520E+00 -0.1321541693575E+00  0.0000000000000E+00 -0.9820486776818E-01
 0.9468176865370E-01 -0.1106130514532E+00  0.0000000000000E+00 -0.9093218255296E-01
 0.7610006833973E-01 -0.9019589595466E-01  0.0000000000000E+00 -0.7984246004140E-01
 0.5912463631477E-01 -0.7136134063229E-01  0.0000000000000E+00 -0.6522826672659E-01
 0.4420909284026E-01 -0.5457800221053E-01  0.0000000000000E+00 -0.4771444411298E-01
 0.3174255895923E-01 -0.4025699623437E-01  0.0000000000000E+00 -0.2818622176780E-01
 0.2199949551485E-01 -0.2870118182779E-01  0.0000000000000E+00 -0.7755757911931E-02
 0.1509803560835E-01 -0.2006220549011E-01  0.0000000000000E+00  0.1229156882949E-01
 0.1096512313587E-01 -0.1430482761980E-01  0.0000000000000E+00  0.3058064843312E-01
 0.9314169907264E-02 -0.1118281718040E-01  0.0000000000000E+00  0.4576646183644E-01
 0.9644129468128E-02 -0.1023475161785E-01  0.0000000000000E+00  0.5668969061702E-01
 0.1127271197597E-01 -0.1081202158584E-01  0.0000000000000E+00  0.6255612497009E-01
 0.1341755076677E-01 -0.1215313619826E-01  0.0000000000000E+00  0.6310586915955E-01
 0.1533010152838E-01 -0.1351155188743E-01  0.0000000000000E+00  0.5870746042516E-01
 0.1646447617348E-01 -0.1432028528311E-01  0.0000000000000E+00  0.5030241274089E-01
 0.1661625474996E-01 -0.1434088251556E-01  0.0000000000000E+00  0.3915732589904E-01
 0.1608577392537E-01 -0.1378715387418E-01  0.0000000000000E+00  0.2652120402789E-01
 0.1865960570879E+00 -0.2110298206206E+00  0.0000000000000E+00 -0.1097231045960E+00
 0.1691102127378E+00 -0.1919329164350E+00  0.0000000000000E+00 -0.1143422725678E+00
 0.1492865467742E+00 -0.1703487874771E+00  0.0000000000000E+00 -0.1147183731803E+00
 0.1286770643021E+00 -0.1479153455364E+00  0.0000000000000E+00 -0.1126556680882E+00
 0.1083468490111E+00 -0.1257736119463E+00  0.0000000000000E+00 -0.1072640077970E+00
 0.8886742307874E-01 -0.1044426284191E+00  0.0000000000000E+00 -0.9792817927429E-01
 0.7073934544181E-01 -0.8441929039801E-01  0.0000000000000E+00 -0.8463243715092E-01
 0.5447016441708E-01 -0.6621751269562E-01  0.0000000000000E+00 -0.6778184981579E-01
 0.4053685806976E-01 -0.5033280521842E-01  0.0000000000000E+00 -0.4813514097941E-01
 0.2933511946053E-01 -0.3718714902686E-01  0.0000000000000E+00 -0.2676174969667E-01
 0.2112373154661E-01 -0.2707282678566E-01  0.0000000000000E+00 -0.4996812689379E-02
 0.1597106158778E-01 -0.2009845751930E-01  0.0000000000000E+00  0.1563329068231E-01
 0.1370879969482E-01 -0.1614203289615E-01  0.0000000000000E+00  0.3352951555554E-01
 0.1390283025276E-01 -0.1481968240222E-01  0.0000000000000E+00  0.4719250901601E-01
 0.1585738723584E-01 -0.1548507263682E-01  0.0000000000000E+00  0.5544877198728E-01
 0.1867528791194E-01 -0.1728132725613E-01  0.0000000000000E+00  0.5770718747429E-01
 0.2139680711669E-01 -0.1926846483823E-01  0.0000000000000E+00  0.5417521417923E-01
 0.2321129079074E-01 -0.2062684335222E-01  0.0000000000000E+00  0.4590551579010E-01
 0.2369095601062E-01 -0.2088420734433E-01  0.0000000000000E+00  0.3456437989014E-01
 0.2292080352770E-01 -0.2006094691610E-01  0.0000000000000E+00  0.2208046547355E-01
 0.1996460352820E+00 -0.2251280314689E+00  0.0000000000000E+00 -0.1146059546798E+00
 0.1829827671699E+00 -0.2070479667984E+00  0.0000000000000E+00 -0.1232955779790E+00
 0.1641671377099E+00 -0.1866439696667E+00  0.0000000000000E+00 -0.1270199558985E+00
 0.1440771706856E+00 -0.1648715036770E+00  0.0000000000000E+00 -0.1274486848636E+00
 0.1236453442868E+00 -0.1426783743059E+00  0.0000000000000E+00 -0.1244093664651E+00
 0.1035830346489E+00 -0.1207874101007E+00  0.0000000000000E+00 -0.1173953235251E+00
 0.8447858874298E-01 -0.9977873540391E-01  0.0000000000000E+00 -0.1061479323682E+00
 0.6689904738314E-01 -0.8022445285737E-01  0.0000000000000E+00 -0.9080688615124E-01
 0.5140294719478E-01 -0.6269675458813E-01  0.0000000000000E+00 -0.7190151531016E-01
 0.3850413789058E-01 -0.4773239026580E-01  0.0000000000000E+00 -0.5034129112062E-01
 0.2861593864072E-01 -0.3577613149466E-01  0.0000000000000E+00 -0.2739484905928E-01
 0.2198472316143E-01 -0.2711468040970E-01  0.0000000000000E+00 -0.4642059298372E-02
 0.1862028988356E-01 -0.2180744989860E-01  0.0000000000000E+00  0.1612174225155E-01
 0.1823264632629E-01 -0.1962312872136E-01  0.0000000000000E+00  0.3304913415079E-01
 0.2019253429286E-01 -0.1999775520582E-01  0.0000000000000E+00  0.4448885764540E-01
 0.2354577655084E-01 -0.2204174511042E-01  0.0000000000000E+00  0.4932155393695E-01
 0.2712424792188E-01 -0.2463667819966E-01  0.0000000000000E+00  0.4733541340144E-01
 0.2978758376779E-01 -0.2665737507996E-01  0.0000000000000E+00  0.3948406814460E-01
 0.3074509377609E-01 -0.2728577988626E-01  0.0000000000000E+00  0.2777241686332E-01
 0.2977506474127E-01 -0.2624132299310E-01  0.0000000000000E+00  0.1468768843787E-01
 0.2134043510421E+00 -0.2399858967868E+00  0.0000000000000E+00 -0.1181295900025E+00
 0.1975345539198E+00 -0.2228686662036E+00  0.0000000000000E+00 -0.1303724633708E+00
 0.1797587349174E+00 -0.2036814471037E+00  0.0000000000000E+00 -0.1376872054169E+00
 0.1605042119186E+00 -0.1828894290910E+00  0.0000000000000E+00 -0.1413214444680E+00
 0.1404532446400E+00 -0.1611892933078E+00  0.0000000000000E+00 -0.1413174730591E+00
 0.1202581215159E+00 -0.1392348381218E+00  0.0000000000000E+00 -0.1373021895740E+00
 0.1005267380980E+00 -0.1176345146900E+00  0.0000000000000E+00 -0.1289232897746E+00
 0.8185814124267E-01 -0.9698831491013E-01  0.0000000000000E+00 -0.1160769074991E+00
 0.6486285745340E-01 -0.7791561400194E-01  0.0000000000000E+00 -0.9900697325072E-01
 0.5014699011377E-01 -0.6103982916322E-01  0.0000000000000E+00 -0.7835078862755E-01
 0.3826708216980E-01 -0.4694432107990E-01  0.0000000000000E+00 -0.5516505916997E-01
 0.2966337385975E-01 -0.3610656210487E-01  0.0000000000000E+00 -0.3092558208114E-01
 0.2457609574881E-01 -0.2881588560880E-01  0.0000000000000E+00 -0.7482744666870E-02
 0.2295136304324E-01 -0.2508108484308E-01  0.0000000000000E+00  0.1305350780560E-01
 0.2435015972680E-01 -0.2454033252098E-01  0.0000000000000E+00  0.2853281066727E-01
 0.2788942390437E-01 -0.2639965097969E-01  0.0000000000000E+00  0.3712462347219E-01
 0.3227328873335E-01 -0.2945184557685E-01  0.0000000000000E+00  0.3783442612270E-01
 0.3600051097395E-01 -0.3225714596262E-01  0.0000000000000E+00  0.3107390766532E-01
 0.3778533107184E-01 -0.3353079842443E-01  0.0000000000000E+00  0.1890722934757E-01
 0.3698765746474E-01 -0.3257840972999E-01  0.0000000000000E+00  0.4436144518142E-02
 0.2277460941936E+00 -0.2554452203078E+00  0.0000000000000E+00 -0.1202986148215E+00
 0.2127441097023E+00 -0.2393606825736E+00  0.0000000000000E+00 -0.1354536424470E+00
 0.1960808662204E+00 -0.2214602861296E+00  0.0000000000000E+00 -0.1461862474639E+00
 0.1778907615714E+00 -0.2018983594312E+00  0.0000000000000E+00 -0.1532738291334E+00
 0.1586118501473E+00 -0.1811157146592E+00  0.0000000000000E+00 -0.1567739352317E+00
 0.1387597016585E+00 -0.1596249743272E+00  0.0000000000000E+00 -0.1563654928363E+00
 0.1188739766777E+00 -0.1379602488797E+00  0.0000000000000E+00 -0.1516415523001E+00
 0.9952288129034E-01 -0.1166863122414E+00  0.0000000000000E+00 -0.1423091297224E+00
 0.8131413617822E-01 -0.9641200528157E-01  0.0000000000000E+00 -0.1283212108641E+00
 0.6489090340442E-01 -0.7778917804561E-01  0.0000000000000E+00 -0.1099708795756E+00
 0.5090418793283E-01 -0.6148675957512E-01  0.0000000000000E+00 -0.8796547765676E-01
 0.3995966002456E-01 -0.4813941725654E-01  0.0000000000000E+00 -0.6348400546090E-01
 0.3253784085119E-01 -0.3827001999110E-01  0.0000000000000E+00 -0.3820481127274E-01
 0.2888710380847E-01 -0.3218585088484E-01  0.0000000000000E+00 -0.1427828076484E-01
 0.2889299077595E-01 -0.2985213745957E-01  0.0000000000000E+00  0.5796486096019E-02
 0.3193948593278E-01 -0.3075740073441E-01  0.0000000000000E+00  0.1945377481632E-01
 0.3680906649834E-01 -0.3381231884818E-01  0.0000000000000E+00  0.2458951711604E-01
 0.4174210430605E-01 -0.3738633622302E-01  0.0000000000000E+00  0.2040036472034E-01
 0.4484488877331E-01 -0.3965858477550E-01  0.0000000000000E+00  0.8293394831212E-02
 0.4484846661318E-01 -0.3931312836953E-01  0.0000000000000E+00 -0.8089650553308E-02
 0.2425364071285E+00 -0.2713627666415E+00  0.0000000000000E+00 -0.1210810547885E+00
 0.2285236831000E+00 -0.2564261213745E+00  0.0000000000000E+00 -0.1384849338956E+00
 0.2130689361081E+00 -0.2399094212463E+00  0.0000000000000E+00 -0.1522070862319E+00
 0.1961325133317E+00 -0.2217787585134E+00  0.0000000000000E+00 -0.1626368053559E+00
 0.1779533907187E+00 -0.2022688729168E+00  0.0000000000000E+00 -0.1697675518167E+00
 0.1588919920965E+00 -0.1817304067477E+00  0.0000000000000E+00 -0.1732953524966E+00
 0.1393735402305E+00 -0.1605768520166E+00  0.0000000000000E+00 -0.1727836910177E+00
 0.1198791848095E+00 -0.1392779741023E+00  0.0000000000000E+00 -0.1678089933643E+00
 0.1009526868839E+00 -0.1183691596928E+00  0.0000000000000E+00 -0.1580801354989E+00
 0.8320427256370E-01 -0.9845752774219E-01  0.0000000000000E+00 -0.1435433949291E+00
 0.6730131845340E-01 -0.8021501813978E-01  0.0000000000000E+00 -0.1244830440260E+00
 0.5393864753306E-01 -0.6435109928047E-01  0.0000000000000E+00 -0.1016214327781E+00
 0.4378176148273E-01 -0.5155898427966E-01  0.0000000000000E+00 -0.7621377564872E-01
 0.3737524015703E-01 -0.4242816874509E-01  0.0000000000000E+00 -0.5012116410039E-01
 0.3500749727245E-01 -0.3731544640870E-01  0.0000000000000E+00 -0.2582864222320E-01
 0.3652559430030E-01 -0.3616912701223E-01  0.0000000000000E+00 -0.6345563817041E-02
 0.4110844578124E-01 -0.3831498666194E-01  0.0000000000000E+00  0.5128607278477E-02
 0.4706750037485E-01 -0.4226353982387E-01  0.0000000000000E+00  0.5992121327089E-02
 0.5195992898986E-01 -0.4577203627674E-01  0.0000000000000E+00 -0.4263068704790E-02
 0.5347069595116E-01 -0.4658914618642E-01  0.0000000000000E+00 -0.2246966800227E-01
 0.2576353840184E+00 -0.2875901530634E+00  0.0000000000000E+00 -0.1204268788367E+00
 0.2447421663281E+00 -0.2739259753333E+00  0.0000000000000E+00 -0.1394311146710E+00
 0.2305997915408E+00 -0.2588946457049E+00  0.0000000000000E+00 -0.1555708828362E+00
 0.2150774812419E+00 -0.2423625891828E+00  0.0000000000000E+00 -0.1689580051438E+00
 0.1982703896598E+00 -0.2244157309168E+00  0.0000000000000E+00 -0.1795149763297E+00
 0.1803999471783E+00 -0.2052614142348E+00  0.0000000000000E+00 -0.1869523585254E+00
 0.1617666825853E+00 -0.1851830803218E+00  0.0000000000000E+00 -0.1908416332920E+00
 0.1427376312709E+00 -0.1645294320946E+00  0.0000000000000E+00 -0.1907027441940E+00
 0.1237504523361E+00 -0.1437201695567E+00  0.0000000000000E+00 -0.1860899265040E+00
 0.1053221126559E+00 -0.1232565347898E+00  0.0000000000000E+00 -0.1766783325653E+00
 0.8805375987009E-01 -0.1037282152581E+00  0.0000000000000E+00 -0.1623583197091E+00
 0.7262488693180E-01 -0.8580994756689E-01  0.0000000000000E+00 -0.1433437999632E+00
 0.5976923755036E-01 -0.7024051206641E-01  0.0000000000000E+00 -0.1202979672404E+00
 0.5022223610478E-01 -0.5777450836426E-01  0.0000000000000E+00 -0.9447428921960E-01
 0.4462483593595E-01 -0.4909290367322E-01  0.0000000000000E+00 -0.6786066594908E-01
 0.4336089591276E-01 -0.4465185257470E-01  0.0000000000000E+00 -0.4329443598638E-01
 0.4629668401832E-01 -0.4444218781142E-01  0.0000000000000E+00 -0.2446773596121E-01
 0.5238500808675E-01 -0.4763199246416E-01  0.0000000000000E+00 -0.1562657458767E-01
 0.5920085980940E-01 -0.5214403528501E-01  0.0000000000000E+00 -0.2038273722783E-01
 0.6318287153297E-01 -0.5475518038977E-01  0.0000000000000E+00 -0.3867261259081E-01
 0.2729025089743E+00 -0.3039801098676E+00  0.0000000000000E+00 -0.1182958788782E+00
 0.2612497616649E+00 -0.2917027226222E+00  0.0000000000000E+00 -0.1382955645820E+00
 0.2485165469442E+00 -0.2782486159607E+00  0.0000000000000E+00 -0.1562180908466E+00
 0.2345364133201E+00 -0.2634438789994E+00  0.0000000000000E+00 -0.1719989449637E+00
 0.2193128200928E+00 -0.2472804347017E+00  0.0000000000000E+00 -0.1855087906126E+00
 0.2029606935307E+00 -0.2298572881451E+00  0.0000000000000E+00 -0.1964837272037E+00
 0.1856716588613E+00 -0.2113465601174E+00  0.0000000000000E+00 -0.2045402282569E+00
 0.1677015942550E+00 -0.1919818186544E+00  0.0000000000000E+00 -0.2092163283790E+00
 0.1493723390113E+00 -0.1720605862856E+00  0.0000000000000E+00 -0.2100210213912E+00
 0.1310806720159E+00 -0.1519541888146E+00  0.0000000000000E+00 -0.2064899705483E+00
 0.1133094415547E+00 -0.1321199679295E+00  0.0000000000000E+00 -0.1982517835269E+00
 0.9663647400711E-01 -0.1131115862021E+00  0.0000000000000E+00 -0.1851117609769E+00
 0.8173638346227E-01 -0.9558279025590E-01  0.0000000000000E+00 -0.1671613977981E+00
 0.6936823939696E-01 -0.8027800387477E-01  0.0000000000000E+00 -0.1449226763134E+00
 0.6033723562548E-01 -0.6799880754704E-01  0.0000000000000E+00 -0.1195363083383E+00
 0.5540910771200E-01 -0.5952691060579E-01  0.0000000000000E+00 -0.9300091211562E-01
 0.5513523974195E-01 -0.5546713701151E-01  0.0000000000000E+00 -0.6846017233173E-01
 0.5950872042554E-01 -0.5594049360078E-01  0.0000000000000E+00 -0.5049056958538E-01
 0.6723014114254E-01 -0.5997010114026E-01  0.0000000000000E+00 -0.4517752065204E-01
 0.7447175985535E-01 -0.6444424621223E-01  0.0000000000000E+00 -0.5835888751872E-01
 0.2882021307265E+00 -0.3203916529036E+00  0.0000000000000E+00 -0.1146700875637E+00
 0.2778941357871E+00 -0.3095985122669E+00  0.0000000000000E+00 -0.1351275296634E+00
 0.2666517378819E+00 -0.2977963742839E+00  0.0000000000000E+00 -0.1542028870801E+00
 0.2543073389788E+00 -0.2848085472033E+00  0.0000000000000E+00 -0.1717298344753E+00
 0.2408151049831E+00 -0.2705772300009E+00  0.0000000000000E+00 -0.1875487170779E+00
 0.2262189801954E+00 -0.2551308274124E+00  0.0000000000000E+00 -0.2014277696503E+00
 0.2106296839715E+00 -0.2385609378232E+00  0.0000000000000E+00 -0.2130480527702E+00
 0.1942144944639E+00 -0.2210122578214E+00  0.0000000000000E+00 -0.2220149133705E+00
 0.1771972154899E+00 -0.2026826120138E+00  0.0000000000000E+00 -0.2278802690575E+00
 0.1598650508182E+00 -0.1838298362276E+00  0.0000000000000E+00 -0.2301714389582E+00
 0.1425797300410E+00 -0.1647828618990E+00  0.0000000000000E+00 -0.2284278438438E+00
 0.1257907506687E+00 -0.1459548948386E+00  0.0000000000000E+00 -0.2222502035219E+00
 0.1100486126002E+00 -0.1278565974663E+00  0.0000000000000E+00 -0.2113696651905E+00
 0.9601511610902E-01 -0.1111064404429E+00  0.0000000000000E+00 -0.1957477481712E+00
 0.8446560334845E-01 -0.9643328948576E-01  0.0000000000000E+00 -0.1757232949386E+00
 0.7627270804082E-01 -0.8466145194552E-01  0.0000000000000E+00 -0.1522318675566E+00
 0.7234972456183E-01 -0.7665734066987E-01  0.0000000000000E+00 -0.1271408684868E+00
 0.7349429252585E-01 -0.7318715745289E-01  0.0000000000000E+00 -0.1037813684518E+00
 0.7999755848321E-01 -0.7455329864585E-01  0.0000000000000E+00 -0.8785578490688E-01
 0.9006652942898E-01 -0.7939007215472E-01  0.0000000000000E+00 -0.8916374357696E-01
 0.3034077465784E+00 -0.3366938357135E+00  0.0000000000000E+00 -0.1095485460176E+00
 0.2945303335773E+00 -0.3274636510767E+00  0.0000000000000E+00 -0.1300105050272E+00
 0.2848413814204E+00 -0.3173685375604E+00  0.0000000000000E+00 -0.1496623763091E+00
 0.2741930630653E+00 -0.3062512682484E+00  0.0000000000000E+00 -0.1682849166430E+00
 0.2625202797799E+00 -0.2940355318697E+00  0.0000000000000E+00 -0.1857033773554E+00
 0.2498259197468E+00 -0.2807103482196E+00  0.0000000000000E+00 -0.2017147608546E+00
 0.2361677629269E+00 -0.2663166002172E+00  0.0000000000000E+00 -0.2160611836115E+00
 0.2216517715970E+00 -0.2509400847768E+00  0.0000000000000E+00 -0.2284259125866E+00
 0.2064319921365E+00 -0.2347111291195E+00  0.0000000000000E+00 -0.2384401079738E+00
 0.1907160034174E+00 -0.2178096192873E+00  0.0000000000000E+00 -0.2456954808144E+00
 0.1747748725546E+00 -0.2004743406748E+00  0.0000000000000E+00 -0.2497621912316E+00
 0.1589569371208E+00 -0.1830158652548E+00  0.0000000000000E+00 -0.2502139748578E+00
 0.1437051000593E+00 -0.1658325464899E+00  0.0000000000000E+00 -0.2466648465255E+00
 0.1295776088518E+00 -0.1494293773582E+00  0.0000000000000E+00 -0.2388247337534E+00
 0.1172724277813E+00 -0.1344394606555E+00  0.0000000000000E+00 -0.2265862572500E+00
 0.1076554273725E+00 -0.1216475115916E+00  0.0000000000000E+00 -0.2101640082411E+00
 0.1017919913372E+00 -0.1120138071106E+00  0.0000000000000E+00 -0.1903265729921E+00
 0.1009845024783E+00 -0.1066948722933E+00  0.0000000000000E+00 -0.1688096773684E+00
 0.1068047525620E+00 -0.1070495390237E+00  0.0000000000000E+00 -0.1491226661589E+00
 0.1212836816854E+00 -0.1146151396539E+00  0.0000000000000E+00 -0.1387568728128E+00
 0.3183971625369E+00 -0.3527607442942E+00  0.0000000000000E+00 -0.1029464251530E+00
 0.3110110457017E+00 -0.3451489106914E+00  0.0000000000000E+00 -0.1230467440042E+00
 0.3029160240484E+00 -0.3367953164081E+00  0.0000000000000E+00 -0.1427768523714E+00
 0.2939941845919E+00 -0.3275729250056E+00  0.0000000000000E+00 -0.1618971630929E+00
 0.2841792932735E+00 -0.3174055917182E+00  0.0000000000000E+00 -0.1802265676165E+00
 0.2734539045356E+00 -0.3062641679237E+00  0.0000000000000E+00 -0.1975812645977E+00
 0.2618437464777E+00 -0.2941603830970E+00  0.0000000000000E+00 -0.2137460422710E+00
 0.2494146028005E+00 -0.2811433632157E+00  0.0000000000000E+00 -0.2284632677662E+00
 0.2362731995015E+00 -0.2673001416460E+00  0.0000000000000E+00 -0.2414311854422E+00
 0.2225723099497E+00 -0.2527602814102E+00  0.0000000000000E+00 -0.2523073328344E+00
 0.2085200739565E+00 -0.2377045233822E+00  0.0000000000000E+00 -0.2607155579841E+00
 0.1943937887144E+00 -0.2223776195178E+00  0.0000000000000E+00 -0.2662569028063E+00
 0.1805589591617E+00 -0.2071059857424E+00  0.0000000000000E+00 -0.2685260662312E+00
 0.1674952169086E+00 -0.1923215293057E+00  0.0000000000000E+00 -0.2671367564461E+00
 0.1558320965392E+00 -0.1785941632002E+00  0.0000000000000E+00 -0.2617615096915E+00
 0.1464001797968E+00 -0.1666776447266E+00  0.0000000000000E+00 -0.2521951667033E+00
 0.1403090107678E+00 -0.1575779098385E+00  0.0000000000000E+00 -0.2384577077067E+00
 0.1390767843026E+00 -0.1526647489431E+00  0.0000000000000E+00 -0.2209607401902E+00
 0.1448882197936E+00 -0.1538821402205E+00  0.0000000000000E+00 -0.2007893806075E+00
 0.1612951174882E+00 -0.1643099347906E+00  0.0000000000000E+00 -0.1798944899043E+00
 0.3330519521393E+00 -0.3684684195924E+00  0.0000000000000E+00 -0.9488254277089E-01
 0.3271828218924E+00 -0.3624968430207E+00  0.0000000000000E+00 -0.1143178737850E+00
 0.3206927077494E+00 -0.3558907077555E+00  0.0000000000000E+00 -0.1336958678169E+00
 0.3134947655262E+00 -0.3485550510055E+00  0.0000000000000E+00 -0.1527790569634E+00
 0.3055307522202E+00 -0.3404233224635E+00  0.0000000000000E+00 -0.1713856753361E+00
 0.2967751688908E+00 -0.3314606380831E+00  0.0000000000000E+00 -0.1893422640775E+00
 0.2872346506105E+00 -0.3216626523080E+00  0.0000000000000E+00 -0.2064570202191E+00
 0.2769475303788E+00 -0.3110547477090E+00  0.0000000000000E+00 -0.2225057355607E+00
 0.2659855274831E+00 -0.2996933650682E+00  0.0000000000000E+00 -0.2372247569334E+00
 0.2544583355643E+00 -0.2876701718251E+00  0.0000000000000E+00 -0.2503075950311E+00
 0.2425215721388E+00 -0.2751194644663E+00  0.0000000000000E+00 -0.2614032940447E+00
 0.2303886786976E+00 -0.2622293179964E+00  0.0000000000000E+00 -0.2701155973601E+00
 0.2183477841586E+00 -0.2492573886026E+00  0.0000000000000E+00 -0.2760024631758E+00
 0.2067852893517E+00 -0.2365529574723E+00  0.0000000000000E+00 -0.2785756801231E+00
 0.1962191690034E+00 -0.2245879370571E+00  0.0000000000000E+00 -0.2773001043588E+00
 0.1873471715495E+00 -0.2140015212559E+00  0.0000000000000E+00 -0.2715909229803E+00
 0.1811190034370E+00 -0.2056668195975E+00  0.0000000000000E+00 -0.2608031415773E+00
 0.1788492195886E+00 -0.2007947325285E+00  0.0000000000000E+00 -0.2441952043636E+00
 0.1824043186732E+00 -0.2011075167350E+00  0.0000000000000E+00 -0.2207875358368E+00
 0.1944073047093E+00 -0.2090886083749E+00  0.0000000000000E+00 -0.1888689124360E+00
 0.3472619446655E+00 -0.3836997286663E+00  0.0000000000000E+00 -0.8538908766246E-01
 0.3428977404305E+00 -0.3793524060200E+00  0.0000000000000E+00 -0.1038961764948E+00
 0.3379896821402E+00 -0.3744653994449E+00  0.0000000000000E+00 -0.1225456382097E+00
 0.3324777382719E+00 -0.3689721393011E+00  0.0000000000000E+00 -0.1411156834327E+00
 0.3263147159368E+00 -0.3628189963721E+00  0.0000000000000E+00 -0.1594287463180E+00
 0.3194733530322E+00 -0.3559717195664E+00  0.0000000000000E+00 -0.1773170706470E+00
 0.3119484974409E+00 -0.3484171863557E+00  0.0000000000000E+00 -0.1945999648254E+00
 0.3037582493147E+00 -0.3401642272420E+00  0.0000000000000E+00 -0.2110690586113E+00
 0.2949459008293E+00 -0.3312452825174E+00  0.0000000000000E+00 -0.2264781887715E+00
 0.2855835580417E+00 -0.3217197239732E+00  0.0000000000000E+00 -0.2405353702742E+00
 0.2757779760442E+00 -0.3116793327509E+00  0.0000000000000E+00 -0.2528949650697E+00
 0.2656791108385E+00 -0.3012563986473E+00  0.0000000000000E+00 -0.2631484794806E+00
 0.2554920672537E+00 -0.2906350772547E+00  0.0000000000000E+00 -0.2708123586974E+00
 0.2454934644047E+00 -0.2800669757236E+00  0.0000000000000E+00 -0.2753106046325E+00
 0.2360537535064E+00 -0.2698924463553E+00  0.0000000000000E+00 -0.2759487740737E+00
 0.2276676733115E+00 -0.2605697600632E+00  0.0000000000000E+00 -0.2718732777271E+00
 0.2209954279190E+00 -0.2527149681194E+00  0.0000000000000E+00 -0.2620047814242E+00
 0.2169160388109E+00 -0.2471548940170E+00  0.0000000000000E+00 -0.2449230369097E+00
 0.2165765547871E+00 -0.2449854634726E+00  0.0000000000000E+00 -0.2186639680434E+00
 0.2214078232150E+00 -0.2475938684235E+00  0.0000000000000E+00 -0.1804513253989E+00
 0.3609262568640E+00 -0.3983466888679E+00  0.0000000000000E+00 -0.7452266667787E-01
 0.3580198506987E+00 -0.3955716118075E+00  0.0000000000000E+00 -0.9186838234164E-01
 0.3546374087383E+00 -0.3923408076299E+00  0.0000000000000E+00 -0.1094609540395E+00
 0.3507392679257E+00 -0.3886099495990E+00  0.0000000000000E+00 -0.1271001209924E+00
 0.3462884719331E+00 -0.3843376716041E+00  0.0000000000000E+00 -0.1446162103544E+00
 0.3412581296276E+00 -0.3794925034598E+00  0.0000000000000E+00 -0.1618459526253E+00
 0.3356346375446E+00 -0.3740557910711E+00  0.0000000000000E+00 -0.1786140291175E+00
 0.3294194003093E+00 -0.3680231920326E+00  0.0000000000000E+00 -0.1947191315541E+00
 0.3226304749748E+00 -0.3614061369067E+00  0.0000000000000E+00 -0.2099226685051E+00
 0.3153048818153E+00 -0.3542339738240E+00  0.0000000000000E+00 -0.2239383483592E+00
 0.3075019810210E+00 -0.3465571807172E+00  0.0000000000000E+00 -0.2364210472354E+00
 0.2993081637096E+00 -0.3384518881534E+00  0.0000000000000E+00 -0.2469533968703E+00
 0.2908430472955E+00 -0.3300259100814E+00  0.0000000000000E+00 -0.2550282970570E+00
 0.2822673239056E+00 -0.3214264609319E+00  0.0000000000000E+00 -0.2600249775372E+00
 0.2737922954977E+00 -0.3128496682836E+00  0.0000000000000E+00 -0.2611751704736E+00
 0.2656907393662E+00 -0.3045517111083E+00  0.0000000000000E+00 -0.2575142955569E+00
 0.2583077376532E+00 -0.2968605750215E+00  0.0000000000000E+00 -0.2478103558337E+00
 0.2520666055418E+00 -0.2901848231783E+00  0.0000000000000E+00 -0.2304628158249E+00
 0.2474626339486E+00 -0.2850105061132E+00  0.0000000000000E+00 -0.2033770762362E+00
 0.2450376817335E+00 -0.2818813207083E+00  0.0000000000000E+00 -0.1638257743202E+00
 0.3739533815945E+00 -0.4123109954798E+00  0.0000000000000E+00 -0.6236484231616E-01
 0.3724271193363E+00 -0.4110244373414E+00  0.0000000000000E+00 -0.7834298497430E-01
 0.3704829116302E+00 -0.4093547714835E+00  0.0000000000000E+00 -0.9459562988412E-01
 0.3680949355691E+00 -0.4072734268896E+00  0.0000000000000E+00 -0.1109447916963E+00
 0.3652336319174E+00 -0.4047484675012E+00  0.0000000000000E+00 -0.1272310712700E+00
 0.3618720244300E+00 -0.4017506616483E+00  0.0000000000000E+00 -0.1432966056360E+00
 0.3579888552090E+00 -0.3982564341118E+00  0.0000000000000E+00 -0.1589705000872E+00
 0.3535701511260E+00 -0.3942493038099E+00  0.0000000000000E+00 -0.1740565356868E+00
 0.3486101920714E+00 -0.3897207665607E+00  0.0000000000000E+00 -0.1883221893586E+00
 0.3431123970560E+00 -0.3846711325290E+00  0.0000000000000E+00 -0.2014878399235E+00
 0.3370903484408E+00 -0.3791105402100E+00  0.0000000000000E+00 -0.2132150279743E+00
 0.3305689684787E+00 -0.3730601740636E+00  0.0000000000000E+00 -0.2230926089796E+00
 0.3235856766866E+00 -0.3665535443826E+00  0.0000000000000E+00 -0.2306195126139E+00
 0.3161911221595E+00 -0.3596374804360E+00  0.0000000000000E+00 -0.2351825684079E+00
 0.3084487156625E+00 -0.3523721636921E+00  0.0000000000000E+00 -0.2360274981141E+00
 0.3004316038932E+00 -0.3448289937683E+00  0.0000000000000E+00 -0.2322208327495E+00
 0.2922147743476E+00 -0.3370842386098E+00  0.0000000000000E+00 -0.2226006912833E+00
 0.2838598213711E+00 -0.3292056385963E+00  0.0000000000000E+00 -0.2057165258410E+00
 0.2753910662789E+00 -0.3212307873724E+00  0.0000000000000E+00 -0.1797610331805E+00
 0.2667622491386E+00 -0.3131361009186E+00  0.0000000000000E+00 -0.1425060021129E+00
 0.3862612370466E+00 -0.4255041997812E+00  0.0000000000000E+00 -0.4901876532516E-01
 0.3860117923372E+00 -0.4255955478679E+00  0.0000000000000E+00 -0.6344978352980E-01
 0.3853913302132E+00 -0.4253636245589E+00  0.0000000000000E+00 -0.7812289451638E-01
 0.3843822671928E+00 -0.4247898828891E+00  0.0000000000000E+00 -0.9288077923183E-01
 0.3829589560343E+00 -0.4238482003504E+00  0.0000000000000E+00 -0.1075758158714E+00
 0.3810926118018E+00 -0.4225096668067E+00  0.0000000000000E+00 -0.1220577243009E+00
 0.3787538104622E+00 -0.4207449900154E+00  0.0000000000000E+00 -0.1361622550161E+00
 0.3759135050059E+00 -0.4185254614092E+00  0.0000000000000E+00 -0.1497009754978E+00
 0.3725431698452E+00 -0.4158230917029E+00  0.0000000000000E+00 -0.1624516738349E+00
 0.3686143917262E+00 -0.4126102369190E+00  0.0000000000000E+00 -0.1741487381181E+00
 0.3640979956491E+00 -0.4088588114501E+00  0.0000000000000E+00 -0.1844728555220E+00
 0.3589626004856E+00 -0.4045389995630E+00  0.0000000000000E+00 -0.1930394093190E+00
 0.3531723035053E+00 -0.3996171936571E+00  0.0000000000000E+00 -0.1993850082413E+00
 0.3466829551892E+00 -0.3940526673649E+00  0.0000000000000E+00 -0.2029516828230E+00
 0.3394361728373E+00 -0.3877921975325E+00  0.0000000000000E+00 -0.2030684959171E+00
 0.3313498244180E+00 -0.3807614605223E+00  0.0000000000000E+00 -0.1989307534322E+00
 0.3223033891244E+00 -0.3728516207977E+00  0.0000000000000E+00 -0.1895777556725E+00
 0.3121163324492E+00 -0.3638994357670E+00  0.0000000000000E+00 -0.1738701499425E+00
 0.3005191933127E+00 -0.3536597003209E+00  0.0000000000000E+00 -0.1504649463191E+00
 0.2871222917179E+00 -0.3417741158438E+00  0.0000000000000E+00 -0.1177875368709E+00
 0.3977772916613E+00 -0.4378479038164E+00  0.0000000000000E+00 -0.3460509187191E-01
 0.3986802788625E+00 -0.4391843539379E+00  0.0000000000000E+00 -0.4733671057976E-01
 0.3992462869003E+00 -0.4402428243202E+00  0.0000000000000E+00 -0.6023234338027E-01
 0.3994615894216E+00 -0.4410101770915E+00  0.0000000000000E+00 -0.7315337726762E-01
 0.3993011695959E+00 -0.4414625871008E+00  0.0000000000000E+00 -0.8596521389118E-01
 0.3987324083878E+00 -0.4415691556681E+00  0.0000000000000E+00 -0.9852807057391E-01
 0.3977168283776E+00 -0.4412936199117E+00  0.0000000000000E+00 -0.1106884002162E+00
 0.3962104685920E+00 -0.4405947294204E+00  0.0000000000000E+00 -0.1222709556463E+00
 0.3941632764313E+00 -0.4394256774293E+00  0.0000000000000E+00 -0.1330712536469E+00
 0.3915177155945E+00 -0.4377327894193E+00  0.0000000000000E+00 -0.1428481277508E+00
 0.3882066270901E+00 -0.4354535130354E+00  0.0000000000000E+00 -0.1513160990516E+00
 0.3841502401105E+00 -0.4325136170369E+00  0.0000000000000E+00 -0.1581374020027E+00
 0.3792520981755E+00 -0.4288233804008E+00  0.0000000000000E+00 -0.1629136833169E+00
 0.3733935326371E+00 -0.4242724235135E+00  0.0000000000000E+00 -0.1651776816146E+00
 0.3664261739331E+00 -0.4187226962350E+00  0.0000000000000E+00 -0.1643856494807E+00
 0.3581618628252E+00 -0.4119989993869E+00  0.0000000000000E+00 -0.1599119526180E+00
 0.3483591266069E+00 -0.4038762755453E+00  0.0000000000000E+00 -0.1510480480019E+00
 0.3367051025151E+00 -0.3940625680459E+00  0.0000000000000E+00 -0.1370086552161E+00
 0.3227893156969E+00 -0.3821752912414E+00  0.0000000000000E+00 -0.1169470361001E+00
 0.3060683875826E+00 -0.3677067076105E+00  0.0000000000000E+00 -0.8995975053460E-01
 0.4084386704383E+00 -0.4492739309807E+00  0.0000000000000E+00 -0.1925809168449E-01
 0.4103528240304E+00 -0.4517048025845E+00  0.0000000000000E+00 -0.3016583033308E-01
 0.4119495903996E+00 -0.4538868370606E+00  0.0000000000000E+00 -0.4112578103216E-01
 0.4132158572152E+00 -0.4558087781704E+00  0.0000000000000E+00 -0.5201684781975E-01
 0.4141245541228E+00 -0.4574461111855E+00  0.0000000000000E+00 -0.6271894169252E-01
 0.4146374751014E+00 -0.4587638472005E+00  0.0000000000000E+00 -0.7310611804404E-01
 0.4147064195084E+00 -0.4597176606231E+00  0.0000000000000E+00 -0.8304040575285E-01
 0.4142730525307E+00 -0.4602537768833E+00  0.0000000000000E+00 -0.9236623269928E-01
 0.4132677714117E+00 -0.4603078986065E+00  0.0000000000000E+00 -0.1009053001287E+00
 0.4116077370417E+00 -0.4598033303647E+00  0.0000000000000E+00 -0.1084517979258E+00
 0.4091941236324E+00 -0.4586483567888E+00  0.0000000000000E+00 -0.1147679352486E+00
 0.4059085613671E+00 -0.4567328508672E+00  0.0000000000000E+00 -0.1195798947447E+00
 0.4016086978710E+00 -0.4539240384599E+00  0.0000000000000E+00 -0.1225745163137E+00
 0.3961227891256E+00 -0.4500613254708E+00  0.0000000000000E+00 -0.1233973009568E+00
 0.3892432632807E+00 -0.4449501166271E+00  0.0000000000000E+00 -0.1216527275998E+00
 0.3807192821942E+00 -0.4383546315872E+00  0.0000000000000E+00 -0.1169084222560E+00
 0.3702484600512E+00 -0.4299898325807E+00  0.0000000000000E+00 -0.1087055461302E+00
 0.3574677551843E+00 -0.4195125933702E+00  0.0000000000000E+00 -0.9657919658866E-01
 0.3419434269100E+00 -0.4065117409493E+00  0.0000000000000E+00 -0.8009688352378E-01
 0.3231431054527E+00 -0.3904888669980E+00  0.0000000000000E+00 -0.5893457165186E-01
 0.4181921476516E+00 -0.4597243912774E+00  0.0000000000000E+00 -0.3122335044917E-02
 0.4209630102600E+00 -0.4630849783144E+00  0.0000000000000E+00 -0.1210948629179E-01
 0.4234204927419E+00 -0.4662085523377E+00  0.0000000000000E+00 -0.2101307063245E-01
 0.4255497530674E+00 -0.4690830717972E+00  0.0000000000000E+00 -0.2972961863979E-01
 0.4273196309110E+00 -0.4716809540703E+00  0.0000000000000E+00 -0.3815550657863E-01
 0.4286850847016E+00 -0.4739614897293E+00  0.0000000000000E+00 -0.4618212845147E-01
 0.4295880085322E+00 -0.4758716583576E+00  0.0000000000000E+00 -0.5369201584904E-01
 0.4299568210460E+00 -0.4773457504501E+00  0.0000000000000E+00 -0.6055563205410E-01
 0.4297051113610E+00 -0.4783040723006E+00  0.0000000000000E+00 -0.6662875323399E-01
 0.4287295137103E+00 -0.4786509033600E+00  0.0000000000000E+00 -0.7175043360066E-01
 0.4269069135952E+00 -0.4782718056792E+00  0.0000000000000E+00 -0.7574163935473E-01
 0.4240910557648E+00 -0.4770303505101E+00  0.0000000000000E+00 -0.7840474042255E-01
 0.4201086329183E+00 -0.4747643308416E+00  0.0000000000000E+00 -0.7952417466388E-01
 0.4147549933693E+00 -0.4712815791645E+00  0.0000000000000E+00 -0.7886874767830E-01
 0.4077897315379E+00 -0.4663556223442E+00  0.0000000000000E+00 -0.7619619965195E-01
 0.3989326481420E+00 -0.4597216027805E+00  0.0000000000000E+00 -0.7126087747563E-01
 0.3878609297068E+00 -0.4510732269382E+00  0.0000000000000E+00 -0.6382565131979E-01
 0.3742091922433E+00 -0.4400621201101E+00  0.0000000000000E+00 -0.5368012710001E-01
 0.3575754407102E+00 -0.4263023583908E+00  0.0000000000000E+00 -0.4066923545202E-01
 0.3375483207571E+00 -0.4093895235459E+00  0.0000000000000E+00 -0.2476236396969E-01
 0.4269936730733E+00 -0.4691512829358E+00  0.0000000000000E+00  0.1365042328240E-01
 0.4304566847533E+00 -0.4732661602959E+00  0.0000000000000E+00  0.6653859731257E-02
 0.4335942482320E+00 -0.4771380110182E+00  0.0000000000000E+00 -0.1075753750914E-03
 0.4363879057541E+00 -0.4807517692919E+00  0.0000000000000E+00 -0.6549547979587E-02
 0.4388008788452E+00 -0.4840749173945E+00  0.0000000000000E+00 -0.1258725949926E-01
 0.4407805538179E+00 -0.4870598954685E+00  0.0000000000000E+00 -0.1813288240904E-01
 0.4422592512354E+00 -0.4896448671697E+00  0.0000000000000E+00 -0.2309392248556E-01
 0.4431538268025E+00 -0.4917533433730E+00  0.0000000000000E+00 -0.2737231768474E-01
 0.4433644120662E+00 -0.4932929672209E+00  0.0000000000000E+00 -0.3086422858977E-01
 0.4427725053888E+00 -0.4941536645090E+00  0.0000000000000E+00 -0.3346055644972E-01
 0.4412385684300E+00 -0.4942053088766E+00  0.0000000000000E+00 -0.3504828697099E-01
 0.4385992684443E+00 -0.4932950338035E+00  0.0000000000000E+00 -0.3551280350632E-01
 0.4346645297047E+00 -0.4912443418386E+00  0.0000000000000E+00 -0.3474133397355E-01
 0.4292146229870E+00 -0.4878462198464E+00  0.0000000000000E+00 -0.3262767309297E-01
 0.4219976408175E+00 -0.4828625760029E+00  0.0000000000000E+00 -0.2907822641308E-01
 0.4127278995973E+00 -0.4760224889233E+00  0.0000000000000E+00 -0.2401920005303E-01
 0.4010861443991E+00 -0.4670220496728E+00  0.0000000000000E+00 -0.1740432917599E-01
 0.3867231044202E+00 -0.4555271459434E+00  0.0000000000000E+00 -0.9221383837839E-02
 0.3692697433822E+00 -0.4411819303358E+00  0.0000000000000E+00  0.5065173832355E-03
 0.3483672285208E+00 -0.4236319266944E+00  0.0000000000000E+00  0.1175582356398E-01
 0.4348074422623E+00 -0.4775155966303E+00  0.0000000000000E+00  0.3090594127910E-01
 0.4387906595024E+00 -0.4822015383585E+00  0.0000000000000E+00  0.2594617266346E-01
 0.4424204459182E+00 -0.4866206049089E+00  0.0000000000000E+00  0.2138085607843E-01
 0.4456728966421E+00 -0.4907526395481E+00  0.0000000000000E+00  0.1727297481413E-01
 0.4485044921190E+00 -0.4945587196481E+00  0.0000000000000E+00  0.1368577626112E-01
 0.4508547283739E+00 -0.4979837298363E+00  0.0000000000000E+00  0.1068299090687E-01
 0.4526471144930E+00 -0.5009573371046E+00  0.0000000000000E+00  0.8328292004264E-02
 0.4537890482576E+00 -0.5033938721137E+00  0.0000000000000E+00  0.6684031260868E-02
 0.4541709250455E+00 -0.5051914592227E+00  0.0000000000000E+00  0.5809283042485E-02
 0.4536647311232E+00 -0.5062306403956E+00  0.0000000000000E+00  0.5757165853954E-02
 0.4521223167960E+00 -0.5063726821173E+00  0.0000000000000E+00  0.6571377343632E-02
 0.4493735191489E+00 -0.5054577279016E+00  0.0000000000000E+00  0.8281885500826E-02
 0.4452243024484E+00 -0.5033029555060E+00  0.0000000000000E+00  0.1089977834532E-01
 0.4394551005589E+00 -0.4997009119780E+00  0.0000000000000E+00  0.1441141095812E-01
 0.4318195737522E+00 -0.4944182251726E+00  0.0000000000000E+00  0.1877224311894E-01
 0.4220440197474E+00 -0.4871949174488E+00  0.0000000000000E+00  0.2390120080156E-01
 0.4098276822626E+00 -0.4777445520627E+00  0.0000000000000E+00  0.2967720604058E-01
 0.3948439688034E+00 -0.4657553040772E+00  0.0000000000000E+00  0.3594105567538E-01
 0.3767419860780E+00 -0.4508913946393E+00  0.0000000000000E+00  0.4251061845033E-01
 0.3551328420844E+00 -0.4327867151886E+00  0.0000000000000E+00  0.4922713136021E-01
 0.4416067013119E+00 -0.4847880868659E+00  0.0000000000000E+00  0.4848857524508E-01
 0.4459341450555E+00 -0.4898572486086E+00  0.0000000000000E+00  0.4559028591341E-01
 0.4498644023076E+00 -0.4946180074503E+00  0.0000000000000E+00  0.4324629097696E-01
 0.4533666427743E+00 -0.4990433280823E+00  0.0000000000000E+00  0.4149561828325E-01
 0.4563897124090E+00 -0.5030866601953E+00  0.0000000000000E+00  0.4037703285682E-01
 0.4588651786493E+00 -0.5066849173498E+00  0.0000000000000E+00  0.3992715737291E-01
 0.4607087884237E+00 -0.5097598966480E+00  0.0000000000000E+00  0.4017781477033E-01
 0.4618208338858E+00 -0.5122186249959E+00  0.0000000000000E+00  0.4115276154219E-01
 0.4620858222349E+00 -0.5139530220939E+00  0.0000000000000E+00  0.4286387395554E-01
 0.4613717481686E+00 -0.5148391724690E+00  0.0000000000000E+00  0.4530677965838E-01
 0.4595291927710E+00 -0.5147364255646E+00  0.0000000000000E+00  0.4845590212504E-01
 0.4563904186060E+00 -0.5134864897222E+00  0.0000000000000E+00  0.5225891214181E-01
 0.4517685849863E+00 -0.5109126420254E+00  0.0000000000000E+00  0.5663066090708E-01
 0.4454571541930E+00 -0.5068191265835E+00  0.0000000000000E+00  0.6144681391295E-01
 0.4372294760692E+00 -0.5009907386020E+00  0.0000000000000E+00  0.6653763222634E-01
 0.4268383920328E+00 -0.4931924593712E+00  0.0000000000000E+00  0.7168268496645E-01
 0.4140153888783E+00 -0.4831687492702E+00  0.0000000000000E+00  0.7660771169285E-01
 0.3984682406160E+00 -0.4706415586584E+00  0.0000000000000E+00  0.8098526430030E-01
 0.3798734698190E+00 -0.4553044805152E+00  0.0000000000000E+00  0.8443972967101E-01
 0.3578615392331E+00 -0.4368085275141E+00  0.0000000000000E+00  0.8653862433028E-01
 0.4473730170389E+00 -0.4909486387522E+00  0.0000000000000E+00  0.6624238053086E-01
 0.4518675657895E+00 -0.4962116358934E+00  0.0000000000000E+00  0.6540912896399E-01
 0.4559057475310E+00 -0.5011073656507E+00  0.0000000000000E+00  0.6528422997604E-01
 0.4594485036513E+00 -0.5056002943037E+00  0.0000000000000E+00  0.6587941491795E-01
 0.4624362221030E+00 -0.5096350919428E+00  0.0000000000000E+00  0.6720605173699E-01
 0.4647926118823E+00 -0.5131404164231E+00  0.0000000000000E+00  0.6927115438250E-01
 0.4664268467856E+00 -0.5160309898021E+00  0.0000000000000E+00  0.7207258620427E-01
 0.4672345553096E+00 -0.5182085379199E+00  0.0000000000000E+00  0.7559390835954E-01
 0.4670981421348E+00 -0.5195620728453E+00  0.0000000000000E+00  0.7979901511476E-01
 0.4658868029957E+00 -0.5199678750718E+00  0.0000000000000E+00  0.8462655455803E-01
 0.4634564867767E+00 -0.5192894254374E+00  0.0000000000000E+00  0.8998409117131E-01
 0.4596499694376E+00 -0.5173774501146E+00  0.0000000000000E+00  0.9574198184149E-01
 0.4542971201115E+00 -0.5140701623155E+00  0.0000000000000E+00  0.1017269826351E+00
 0.4472153388472E+00 -0.5091936915836E+00  0.0000000000000E+00  0.1077156612040E+00
 0.4382100022811E+00 -0.5025625609806E+00  0.0000000000000E+00  0.1134277405618E+00
 0.4270745326331E+00 -0.4939798748022E+00  0.0000000000000E+00  0.1185195064246E+00
 0.4135894117040E+00 -0.4832365955803E+00  0.0000000000000E+00  0.1225772502405E+00
 0.3975190195865E+00 -0.4701089450690E+00  0.0000000000000E+00  0.1251099385567E+00
 0.3786061028070E+00 -0.4543531626107E+00  0.0000000000000E+00  0.1255366325784E+00
 0.3565677332222E+00 -0.4357007343201E+00  0.0000000000000E+00  0.1231642183609E+00
 0.4520958104417E+00 -0.4959858130184E+00  0.0000000000000E+00  0.8401343631250E-01
 0.4565816795050E+00 -0.5012544292089E+00  0.0000000000000E+00  0.8522824090102E-01
 0.4605372558764E+00 -0.5060802515227E+00  0.0000000000000E+00  0.8729371062985E-01
 0.4639137261125E+00 -0.5104174135855E+00  0.0000000000000E+00  0.9019016782096E-01
 0.4666420575859E+00 -0.5142005375726E+00  0.0000000000000E+00  0.9389888622131E-01
 0.4686381705470E+00 -0.5173497710052E+00  0.0000000000000E+00  0.9839547503215E-01
 0.4698059292933E+00 -0.5197736672575E+00  0.0000000000000E+00  0.1036426551751E+00
 0.4700387783502E+00 -0.5213707322731E+00  0.0000000000000E+00  0.1095832392754E+00
 0.4692206852378E+00 -0.5220302929848E+00  0.0000000000000E+00  0.1161334936851E+00
 0.4672268489484E+00 -0.5216331400668E+00  0.0000000000000E+00  0.1231768202354E+00
 0.4639244698021E+00 -0.5200522358501E+00  0.0000000000000E+00  0.1305576343545E+00
 0.4591737542628E+00 -0.5171536591998E+00  0.0000000000000E+00  0.1380753180215E+00
 0.4528292294844E+00 -0.5127978654300E+00  0.0000000000000E+00  0.1454781234290E+00
 0.4447413455666E+00 -0.5068412502056E+00  0.0000000000000E+00  0.1524568468083E+00
 0.4347582272303E+00 -0.4991379025058E+00  0.0000000000000E+00  0.1586379307535E+00
 0.4227272928563E+00 -0.4895412994163E+00  0.0000000000000E+00  0.1635753266676E+00
 0.4084962893590E+00 -0.4779055466219E+00  0.0000000000000E+00  0.1667399188461E+00
 0.3919134425826E+00 -0.4640857638285E+00  0.0000000000000E+00  0.1675046039925E+00
 0.3728271978711E+00 -0.4479379561868E+00  0.0000000000000E+00  0.1651240881679E+00
 0.3510861488051E+00 -0.4293190333362E+00  0.0000000000000E+00  0.1587140308111E+00
 0.4557719642651E+00 -0.4998964193595E+00  0.0000000000000E+00  0.1016518916713E+00
 0.4600770152249E+00 -0.5049861296196E+00  0.0000000000000E+00  0.1048784962914E+00
 0.4637640490657E+00 -0.5095418057331E+00  0.0000000000000E+00  0.1090800576008E+00
 0.4667723126792E+00 -0.5135047789754E+00  0.0000000000000E+00  0.1142009225578E+00
 0.4690220741653E+00 -0.5167980798545E+00  0.0000000000000E+00  0.1201902187916E+00
 0.4704215292378E+00 -0.5193331291838E+00  0.0000000000000E+00  0.1269912953840E+00
 0.4708706392724E+00 -0.5210134031614E+00  0.0000000000000E+00  0.1345314219144E+00
 0.4702632694296E+00 -0.5217364359183E+00  0.0000000000000E+00  0.1427128043696E+00
 0.4684885833191E+00 -0.5213951035343E+00  0.0000000000000E+00  0.1514049421371E+00
 0.4654322853083E+00 -0.5198787690627E+00  0.0000000000000E+00  0.1604380590883E+00
 0.4609780543860E+00 -0.5170746232122E+00  0.0000000000000E+00  0.1695973191505E+00
 0.4550093628616E+00 -0.5128694076437E+00  0.0000000000000E+00  0.1786175747805E+00
 0.4474117884665E+00 -0.5071516258630E+00  0.0000000000000E+00  0.1871783955792E+00
 0.4380758885457E+00 -0.4998143098083E+00  0.0000000000000E+00  0.1948990212235E+00
 0.4269007029500E+00 -0.4907584104265E+00  0.0000000000000E+00  0.2013326177487E+00
 0.4137979816535E+00 -0.4798969182231E+00  0.0000000000000E+00  0.2059587274458E+00
 0.3986972971864E+00 -0.4671598824391E+00  0.0000000000000E+00  0.2081720835930E+00
 0.3815520803634E+00 -0.4525004766011E+00  0.0000000000000E+00  0.2072655712421E+00
 0.3623458386092E+00 -0.4359015167844E+00  0.0000000000000E+00  0.2024066388594E+00
 0.3410959608104E+00 -0.4173802565836E+00  0.0000000000000E+00  0.1926091712148E+00
 0.4584053820347E+00 -0.5026850394694E+00  0.0000000000000E+00  0.1190139929821E+00
 0.4623634556564E+00 -0.5074175469490E+00  0.0000000000000E+00  0.1241988102475E+00
 0.4656030422137E+00 -0.5115101211531E+00  0.0000000000000E+00  0.1304575495969E+00
 0.4680481385264E+00 -0.5148877451995E+00  0.0000000000000E+00  0.1376943763188E+00
 0.4696066660950E+00 -0.5174600077924E+00  0.0000000000000E+00  0.1458255862004E+00
 0.4701793085622E+00 -0.5191295873559E+00  0.0000000000000E+00  0.1547626355695E+00
 0.4696638915331E+00 -0.5197963778045E+00  0.0000000000000E+00  0.1643977623853E+00
 0.4679576498943E+00 -0.5193595714292E+00  0.0000000000000E+00  0.1745929177649E+00
 0.4649587545061E+00 -0.5177190432314E+00  0.0000000000000E+00  0.1851714516954E+00
 0.4605678266281E+00 -0.5147767428196E+00  0.0000000000000E+00  0.1959118413965E+00
 0.4546898064604E+00 -0.5104384439811E+00  0.0000000000000E+00  0.2065429058980E+00
 0.4472363661878E+00 -0.5046160287439E+00  0.0000000000000E+00  0.2167401270297E+00
 0.4381290030040E+00 -0.4972304266172E+00  0.0000000000000E+00  0.2261228021849E+00
 0.4273029897652E+00 -0.4882153654252E+00  0.0000000000000E+00  0.2342517528743E+00
 0.4147125050150E+00 -0.4775222233010E+00  0.0000000000000E+00  0.2406271723951E+00
 0.4003375380600E+00 -0.4651265246882E+00  0.0000000000000E+00  0.2446858599460E+00
 0.3841935371829E+00 -0.4510370081669E+00  0.0000000000000E+00  0.2457964269176E+00
 0.3663449739287E+00 -0.4353084991108E+00  0.0000000000000E+00  0.2432496098261E+00
 0.3469226474618E+00 -0.4180591612259E+00  0.0000000000000E+00  0.2362375539757E+00
 0.3261412684731E+00 -0.3994890858355E+00  0.0000000000000E+00  0.2238145701667E+00
 0.4600065221569E+00 -0.5043635118621E+00  0.0000000000000E+00  0.1359642909352E+00
 0.4634599749855E+00 -0.5085694635386E+00  0.0000000000000E+00  0.1430388331622E+00
 0.4660825936197E+00 -0.5120157813064E+00  0.0000000000000E+00  0.1512517449749E+00
 0.4677782450697E+00 -0.5146060844664E+00  0.0000000000000E+00  0.1604647991564E+00
 0.4684406539996E+00 -0.5162345462109E+00  0.0000000000000E+00  0.1705631590363E+00
 0.4679637167142E+00 -0.5167956530364E+00  0.0000000000000E+00  0.1814282310554E+00
 0.4662456246999E+00 -0.5161879797546E+00  0.0000000000000E+00  0.1929180657859E+00
 0.4631906081333E+00 -0.5143157086337E+00  0.0000000000000E+00  0.2048542769994E+00
 0.4587101370003E+00 -0.5110896690688E+00  0.0000000000000E+00  0.2170135879301E+00
 0.4527243759644E+00 -0.5064286576806E+00  0.0000000000000E+00  0.2291225190664E+00
 0.4451641987600E+00 -0.5002613216860E+00  0.0000000000000E+00  0.2408542829832E+00
 0.4359738690042E+00 -0.4925286927730E+00  0.0000000000000E+00  0.2518273970936E+00
 0.4251144618933E+00 -0.4831874214994E+00  0.0000000000000E+00  0.2616058553743E+00
 0.4125681928185E+00 -0.4722138392292E+00  0.0000000000000E+00  0.2697009650465E+00
 0.3983440525218E+00 -0.4596091762382E+00  0.0000000000000E+00  0.2755752139558E+00
 0.3824855816151E+00 -0.4454066513963E+00  0.0000000000000E+00  0.2786488068451E+00
 0.3650824150522E+00 -0.4296818374110E+00  0.0000000000000E+00  0.2783096724935E+00
 0.3462887487765E+00 -0.4125691060735E+00  0.0000000000000E+00  0.2739267567499E+00
 0.3263549370642E+00 -0.3942898617653E+00  0.0000000000000E+00  0.2648600266577E+00
 0.3056767228015E+00 -0.3752005973510E+00  0.0000000000000E+00  0.2504392394034E+00
 0.4605920168723E+00 -0.5049504594640E+00  0.0000000000000E+00  0.1523784314436E+00
 0.4633946662579E+00 -0.5084724679099E+00  0.0000000000000E+00  0.1612616962605E+00
 0.4652423828149E+00 -0.5111014329400E+00  0.0000000000000E+00  0.1713011253984E+00
 0.4660122137390E+00 -0.5127129272940E+00  0.0000000000000E+00  0.1823187525987E+00
 0.4655821591892E+00 -0.5131841515026E+00  0.0000000000000E+00  0.1941739743325E+00
 0.4638411939721E+00 -0.5124031300943E+00  0.0000000000000E+00  0.2067215533202E+00
 0.4606916359926E+00 -0.5102706558603E+00  0.0000000000000E+00  0.2197860875587E+00
 0.4560494232531E+00 -0.5067003267890E+00  0.0000000000000E+00  0.2331475432594E+00
 0.4498444471375E+00 -0.5016187192766E+00  0.0000000000000E+00  0.2465335898307E+00
 0.4420216193948E+00 -0.4949663279056E+00  0.0000000000000E+00  0.2596161011558E+00
 0.4325427595651E+00 -0.4866993325809E+00  0.0000000000000E+00  0.2720104022317E+00
 0.4213891833882E+00 -0.4767920551561E+00  0.0000000000000E+00  0.2832766657095E+00
 0.4085648351570E+00 -0.4652399250965E+00  0.0000000000000E+00  0.2929234783445E+00
 0.3940998595328E+00 -0.4520628096064E+00  0.0000000000000E+00  0.3004142004914E+00
 0.3780546371946E+00 -0.4373086601859E+00  0.0000000000000E+00  0.3051775362425E+00
 0.3605245931762E+00 -0.4210576221633E+00  0.0000000000000E+00  0.3066249928840E+00
 0.3416467094087E+00 -0.4034272398944E+00  0.0000000000000E+00  0.3041799172832E+00
 0.3216105918848E+00 -0.3845806718139E+00  0.0000000000000E+00  0.2973265315205E+00
 0.3006838062552E+00 -0.3647449913012E+00  0.0000000000000E+00  0.2856931866780E+00
 0.2792867934941E+00 -0.3442671463846E+00  0.0000000000000E+00  0.2691728780008E+00
 0.4601846568725E+00 -0.5044710290528E+00  0.0000000000000E+00  0.1681470631343E+00
 0.4622052631105E+00 -0.5071669136791E+00  0.0000000000000E+00  0.1787459211599E+00
 0.4631332255436E+00 -0.5088205767683E+00  0.0000000000000E+00  0.1904558832702E+00
 0.4628108286291E+00 -0.5092718535532E+00  0.0000000000000E+00  0.2030712424141E+00
 0.4611002899787E+00 -0.5083809506466E+00  0.0000000000000E+00  0.2164359348025E+00
 0.4578896258079E+00 -0.5060332687522E+00  0.0000000000000E+00  0.2303828223586E+00
 0.4530909585481E+00 -0.5021372680287E+00  0.0000000000000E+00  0.2447029071358E+00
 0.4466381564174E+00 -0.4966218880947E+00  0.0000000000000E+00  0.2591312112924E+00
 0.4384857970358E+00 -0.4894353813877E+00  0.0000000000000E+00  0.2733415159710E+00
 0.4286096572401E+00 -0.4805457068354E+00  0.0000000000000E+00  0.2869458558310E+00
 0.4170083605840E+00 -0.4699421000626E+00  0.0000000000000E+00  0.2994968112758E+00
 0.4037056565003E+00 -0.4576372858490E+00  0.0000000000000E+00  0.3104918721106E+00
 0.3887527474511E+00 -0.4436697460842E+00  0.0000000000000E+00  0.3193799777671E+00
 0.3722299848267E+00 -0.4281053611259E+00  0.0000000000000E+00  0.3255711222776E+00
 0.3542470391674E+00 -0.4110375154725E+00  0.0000000000000E+00  0.3284509920477E+00
 0.3349401829699E+00 -0.3925842907575E+00  0.0000000000000E+00  0.3274044469580E+00
 0.3144646219754E+00 -0.3728804795559E+00  0.0000000000000E+00  0.3218554230223E+00
 0.2929782040847E+00 -0.3520606672648E+00  0.0000000000000E+00  0.3113385515089E+00
 0.2706100598293E+00 -0.3302250378877E+00  0.0000000000000E+00  0.2956426367406E+00
 0.2474205360335E+00 -0.3073796850436E+00  0.0000000000000E+00  0.2751529152806E+00
 0.4588141520755E+00 -0.5029572770046E+00  0.0000000000000E+00  0.1831800339188E+00
 0.4599395983849E+00 -0.5047018010669E+00  0.0000000000000E+00  0.1953814409461E+00
 0.4598147741082E+00 -0.5052323254341E+00  0.0000000000000E+00  0.2085664220381E+00
 0.4582408290063E+00 -0.5043469885142E+00  0.0000000000000E+00  0.2225275539318E+00
 0.4550676782708E+00 -0.5018925468967E+00  0.0000000000000E+00  0.2371093744579E+00
 0.4501897820413E+00 -0.4977590577638E+00  0.0000000000000E+00  0.2521282515248E+00
 0.4435373463211E+00 -0.4918706937100E+00  0.0000000000000E+00  0.2673398785745E+00
 0.4350701752436E+00 -0.4841794579301E+00  0.0000000000000E+00  0.2824291319157E+00
 0.4247750560363E+00 -0.4746624962011E+00  0.0000000000000E+00  0.2970098942291E+00
 0.4126658371475E+00 -0.4633221454873E+00  0.0000000000000E+00  0.3106292756089E+00
 0.3987850851977E+00 -0.4501875988031E+00  0.0000000000000E+00  0.3227738642073E+00
 0.3832062349360E+00 -0.4353171200685E+00  0.0000000000000E+00  0.3328771784234E+00
 0.3660351211685E+00 -0.4187997307448E+00  0.0000000000000E+00  0.3403282994330E+00
 0.3474095329972E+00 -0.4007550823397E+00  0.0000000000000E+00  0.3444821932320E+00
 0.3274947336742E+00 -0.3813296102358E+00  0.0000000000000E+00  0.3446727672603E+00
 0.3064714477456E+00 -0.3606857103462E+00  0.0000000000000E+00  0.3402306583671E+00
 0.2845095308147E+00 -0.3389778783293E+00  0.0000000000000E+00  0.3305095954850E+00
 0.2617144496230E+00 -0.3163035545807E+00  0.0000000000000E+00  0.3149305892458E+00
 0.2380130223414E+00 -0.2926021830221E+00  0.0000000000000E+00  0.2930573494886E+00
 0.2128544818079E+00 -0.2673996041076E+00  0.0000000000000E+00  0.2647843771931E+00
 0.4565158323926E+00 -0.5004466127377E+00  0.0000000000000E+00  0.1973970779342E+00
 0.4566497384940E+00 -0.5011283076710E+00  0.0000000000000E+00  0.2110464938065E+00
 0.4553453545309E+00 -0.5003903272111E+00  0.0000000000000E+00  0.2254527358136E+00
 0.4523617801891E+00 -0.4979886816756E+00  0.0000000000000E+00  0.2404495655317E+00
 0.4475464236394E+00 -0.4937666578510E+00  0.0000000000000E+00  0.2559033001793E+00
 0.4408123000813E+00 -0.4876310050726E+00  0.0000000000000E+00  0.2716184207643E+00
 0.4321187641876E+00 -0.4795325312216E+00  0.0000000000000E+00  0.2873117226550E+00
 0.4214609556552E+00 -0.4694555262191E+00  0.0000000000000E+00  0.3026123064360E+00
 0.4088660252566E+00 -0.4574140225848E+00  0.0000000000000E+00  0.3170703554441E+00
 0.3943934907678E+00 -0.4434522187721E+00  0.0000000000000E+00  0.3301682892989E+00
 0.3781375598621E+00 -0.4276469454125E+00  0.0000000000000E+00  0.3413319958733E+00
 0.3602297175895E+00 -0.4101104844235E+00  0.0000000000000E+00  0.3499414260463E+00
 0.3408400793784E+00 -0.3909923279723E+00  0.0000000000000E+00  0.3553402242657E+00
 0.3201757816895E+00 -0.3704783074922E+00  0.0000000000000E+00  0.3568436636706E+00
 0.2984738366562E+00 -0.3487848219726E+00  0.0000000000000E+00  0.3537430321329E+00
 0.2759838309389E+00 -0.3261442400023E+00  0.0000000000000E+00  0.3453023173613E+00
 0.2529321543419E+00 -0.3027741855012E+00  0.0000000000000E+00  0.3307386582416E+00
 0.2294493889741E+00 -0.2788165239077E+00  0.0000000000000E+00  0.3091665612769E+00
 0.2054348650250E+00 -0.2542198659724E+00  0.0000000000000E+00  0.2794615860198E+00
 0.1802779902020E+00 -0.2285398161959E+00  0.0000000000000E+00  0.2397443429688E+00
 0.4533307134537E+00 -0.4969822281854E+00  0.0000000000000E+00  0.2107108866528E+00
 0.4523879969982E+00 -0.4964984911647E+00  0.0000000000000E+00  0.2255855650376E+00
 0.4497770252384E+00 -0.4943430228991E+00  0.0000000000000E+00  0.2408846107891E+00
 0.4452224088452E+00 -0.4902385217637E+00  0.0000000000000E+00  0.2565455878361E+00
 0.4385875682341E+00 -0.4840436397876E+00  0.0000000000000E+00  0.2724791082317E+00
 0.4298210157745E+00 -0.4756989161712E+00  0.0000000000000E+00  0.2884784162686E+00
 0.4189239230835E+00 -0.4651944994550E+00  0.0000000000000E+00  0.3042149971077E+00
 0.4059357639674E+00 -0.4525559867758E+00  0.0000000000000E+00  0.3192573227638E+00
 0.3909307625074E+00 -0.4378409976759E+00  0.0000000000000E+00  0.3330929085302E+00
 0.3740197374101E+00 -0.4211412591400E+00  0.0000000000000E+00  0.3451480120785E+00
 0.3553538476331E+00 -0.4025865967902E+00  0.0000000000000E+00  0.3548038418497E+00
 0.3351281010284E+00 -0.3823487725684E+00  0.0000000000000E+00  0.3614092587432E+00
 0.3135831987602E+00 -0.3606437910714E+00  0.0000000000000E+00  0.3642892383618E+00
 0.2910044672674E+00 -0.3377316124208E+00  0.0000000000000E+00  0.3627463782493E+00
 0.2677162447448E+00 -0.3139119871605E+00  0.0000000000000E+00  0.3560490192107E+00
 0.2440693614392E+00 -0.2895145810876E+00  0.0000000000000E+00  0.3433928232311E+00
 0.2204173539582E+00 -0.2648807038225E+00  0.0000000000000E+00  0.3238091564608E+00
 0.1970789738693E+00 -0.2403342988081E+00  0.0000000000000E+00  0.2959662877457E+00
 0.1742746058525E+00 -0.2161429467673E+00  0.0000000000000E+00  0.2577473265645E+00
 0.1522538241660E+00 -0.1925761390738E+00  0.0000000000000E+00  0.2054452697722E+00
 0.4493138900713E+00 -0.4926221813619E+00  0.0000000000000E+00  0.2230247168304E+00
 0.4472177783126E+00 -0.4908759647243E+00  0.0000000000000E+00  0.2388059322829E+00
 0.4431663513507E+00 -0.4871441091596E+00  0.0000000000000E+00  0.2545816448186E+00
 0.4368727246371E+00 -0.4811407370537E+00  0.0000000000000E+00  0.2704762340391E+00
 0.4282453643601E+00 -0.4727696799671E+00  0.0000000000000E+00  0.2864604839135E+00
 0.4172884848902E+00 -0.4620258272417E+00  0.0000000000000E+00  0.3023073724063E+00
 0.4040562903544E+00 -0.4489502038108E+00  0.0000000000000E+00  0.3176313999343E+00
 0.3886378454546E+00 -0.4336150153326E+00  0.0000000000000E+00  0.3319362167686E+00
 0.3711566179200E+00 -0.4161237185087E+00  0.0000000000000E+00  0.3446526026259E+00
 0.3517753542987E+00 -0.3966162055985E+00  0.0000000000000E+00  0.3551656092176E+00
 0.3307017005154E+00 -0.3752747697035E+00  0.0000000000000E+00  0.3628331915872E+00
 0.3081926196636E+00 -0.3523286770145E+00  0.0000000000000E+00  0.3669980558794E+00
 0.2845572561356E+00 -0.3280571523729E+00  0.0000000000000E+00  0.3669919810050E+00
 0.2601587333159E+00 -0.3027913184306E+00  0.0000000000000E+00  0.3621278019374E+00
 0.2354163443877E+00 -0.2769165797352E+00  0.0000000000000E+00  0.3516687163761E+00
 0.2108114950828E+00 -0.2508789702997E+00  0.0000000000000E+00  0.3347551756784E+00
 0.1869068703874E+00 -0.2252041102976E+00  0.0000000000000E+00  0.3102522509568E+00
 0.1643966560973E+00 -0.2005485180649E+00  0.0000000000000E+00  0.2764487313847E+00
 0.1442569632667E+00 -0.1778348755628E+00  0.0000000000000E+00  0.2304852358952E+00
 0.1279051713380E+00 -0.1584703465500E+00  0.0000000000000E+00  0.1676028215766E+00
 0.4445360959918E+00 -0.4874410335675E+00  0.0000000000000E+00  0.2342268359001E+00
 0.4412114427114E+00 -0.4843345992173E+00  0.0000000000000E+00  0.2504717201478E+00
 0.4355713293868E+00 -0.4788505499514E+00  0.0000000000000E+00  0.2662194307951E+00
 0.4273644304483E+00 -0.4707446715661E+00  0.0000000000000E+00  0.2818761603676E+00
 0.4165843655419E+00 -0.4600069094507E+00  0.0000000000000E+00  0.2974669852678E+00
 0.4033102621210E+00 -0.4467067994003E+00  0.0000000000000E+00  0.3127166905126E+00
 0.3876539645094E+00 -0.4309407631460E+00  0.0000000000000E+00  0.3271633867135E+00
 0.3697518863020E+00 -0.4128255027345E+00  0.0000000000000E+00  0.3402423524357E+00
 0.3497720822000E+00 -0.3925054713687E+00  0.0000000000000E+00  0.3513369853314E+00
 0.3279235848269E+00 -0.3701631582050E+00  0.0000000000000E+00  0.3598068710194E+00
 0.3044632091885E+00 -0.3460258915427E+00  0.0000000000000E+00  0.3650027268531E+00
 0.2797000809916E+00 -0.3203701201825E+00  0.0000000000000E+00  0.3662736352296E+00
 0.2539998751942E+00 -0.2935250359429E+00  0.0000000000000E+00  0.3629651475185E+00
 0.2277918358355E+00 -0.2658784935385E+00  0.0000000000000E+00  0.3544025462415E+00
 0.2015841330628E+00 -0.2378903890260E+00  0.0000000000000E+00  0.3398487127811E+00
 0.1759990908527E+00 -0.2101238187059E+00  0.0000000000000E+00  0.3184192838106E+00
 0.1518508944303E+00 -0.1833151642304E+00  0.0000000000000E+00  0.2889279050119E+00
 0.1303189642332E+00 -0.1585277663766E+00  0.0000000000000E+00  0.2496190844540E+00
 0.1132922763421E+00 -0.1374711093880E+00  0.0000000000000E+00  0.1977490995600E+00
 0.1039924328562E+00 -0.1230764016980E+00  0.0000000000000E+00  0.1286782951955E+00
 0.4390857369019E+00 -0.4815324162212E+00  0.0000000000000E+00  0.2441785642838E+00
 0.4344466805305E+00 -0.4769539834129E+00  0.0000000000000E+00  0.2602944646375E+00
 0.4270458125813E+00 -0.4695160425131E+00  0.0000000000000E+00  0.2754368428408E+00
 0.4167513784093E+00 -0.4591029629736E+00  0.0000000000000E+00  0.2903797139014E+00
 0.4036898043993E+00 -0.4458421154086E+00  0.0000000000000E+00  0.3051453386638E+00
 0.3880238560075E+00 -0.4298855606085E+00  0.0000000000000E+00  0.3193551197676E+00
 0.3699143264147E+00 -0.4113771199886E+00  0.0000000000000E+00  0.3324447030776E+00
 0.3495326795860E+00 -0.3904643329404E+00  0.0000000000000E+00  0.3437824731424E+00
 0.3270817374154E+00 -0.3673232345395E+00  0.0000000000000E+00  0.3527163018788E+00
 0.3028073637535E+00 -0.3421698211277E+00  0.0000000000000E+00  0.3585873217538E+00
 0.2770035347234E+00 -0.3152648590647E+00  0.0000000000000E+00  0.3607350997423E+00
 0.2500156209329E+00 -0.2869162469238E+00  0.0000000000000E+00  0.3584966875027E+00
 0.2222457536389E+00 -0.2574829676985E+00  0.0000000000000E+00  0.3511970673237E+00
 0.1941654113255E+00 -0.2273853244450E+00  0.0000000000000E+00  0.3381257634954E+00
 0.1663439746820E+00 -0.1971293187759E+00  0.0000000000000E+00  0.3184936971268E+00
 0.1395092901611E+00 -0.1673597588119E+00  0.0000000000000E+00  0.2913659939234E+00
 0.1146730176749E+00 -0.1389703566158E+00  0.0000000000000E+00  0.2555740596685E+00
 0.9337672440323E-01 -0.1133241051856E+00  0.0000000000000E+00  0.2096372851948E+00
 0.7818809440518E-01 -0.9268502830703E-01  0.0000000000000E+00  0.1517643649269E+00
 0.7382310391228E-01 -0.8118688148389E-01  0.0000000000000E+00  0.7985456928280E-01
 0.4330692192448E+00 -0.4750085504673E+00  0.0000000000000E+00  0.2526880234246E+00
 0.4269915571541E+00 -0.4688057537187E+00  0.0000000000000E+00  0.2679139138185E+00
 0.4176259181262E+00 -0.4591743335946E+00  0.0000000000000E+00  0.2818555040444E+00
 0.4050926938151E+00 -0.4462755814909E+00  0.0000000000000E+00  0.2956643808380E+00
 0.3896914572066E+00 -0.4304099889456E+00  0.0000000000000E+00  0.3092183530290E+00
 0.3716495017491E+00 -0.4117990565811E+00  0.0000000000000E+00  0.3219446257685E+00
 0.3511459482736E+00 -0.3905955440463E+00  0.0000000000000E+00  0.3331686713964E+00
 0.3283736946491E+00 -0.3669659839101E+00  0.0000000000000E+00  0.3422168436945E+00
 0.3035656284287E+00 -0.3411143207846E+00  0.0000000000000E+00  0.3484144945217E+00
 0.2770009083080E+00 -0.3132884782851E+00  0.0000000000000E+00  0.3510814193135E+00
 0.2490071599603E+00 -0.2837814608443E+00  0.0000000000000E+00  0.3495268550422E+00
 0.2199641302535E+00 -0.2529340013474E+00  0.0000000000000E+00  0.3430430397641E+00
 0.1903138258913E+00 -0.2211432354541E+00  0.0000000000000E+00  0.3308934612932E+00
 0.1605834144727E+00 -0.1888833414277E+00  0.0000000000000E+00  0.3122949234028E+00
 0.1314311388384E+00 -0.1567477875541E+00  0.0000000000000E+00  0.2863981825939E+00
 0.1037330330003E+00 -0.1255295414490E+00  0.0000000000000E+00  0.2522847972423E+00
 0.7873818675716E-01 -0.9636639870330E-01  0.0000000000000E+00  0.2090300461051E+00
 0.5834694840288E-01 -0.7099741552934E-01  0.0000000000000E+00  0.1559492709861E+00
 0.4558245752478E-01 -0.5221096356796E-01  0.0000000000000E+00  0.9329783254587E-01
 0.4561453301278E-01 -0.4473293187447E-01  0.0000000000000E+00  0.2435974874786E-01
 0.4266145931302E+00 -0.4680200356808E+00  0.0000000000000E+00  0.2594965194165E+00
 0.4189014444400E+00 -0.4599567524053E+00  0.0000000000000E+00  0.2729554040303E+00
 0.4073369772734E+00 -0.4478703432433E+00  0.0000000000000E+00  0.2852216043542E+00
 0.3925041603198E+00 -0.4323919929384E+00  0.0000000000000E+00  0.2976834453653E+00
 0.3748547013977E+00 -0.4140200886985E+00  0.0000000000000E+00  0.3097093171904E+00
 0.3545810670482E+00 -0.3929011586848E+00  0.0000000000000E+00  0.3204983312945E+00
 0.3318573723157E+00 -0.3691829906562E+00  0.0000000000000E+00  0.3293507149345E+00
 0.3069053136829E+00 -0.3430590895150E+00  0.0000000000000E+00  0.3355893992489E+00
 0.2799979559099E+00 -0.3147749665943E+00  0.0000000000000E+00  0.3385317164297E+00
 0.2514602319650E+00 -0.2846262283238E+00  0.0000000000000E+00  0.3374759323914E+00
 0.2216713806561E+00 -0.2529605670124E+00  0.0000000000000E+00  0.3316982457547E+00
 0.1910745494448E+00 -0.2201868739769E+00  0.0000000000000E+00  0.3204522933623E+00
 0.1601974318219E+00 -0.1867954734772E+00  0.0000000000000E+00  0.3029717674506E+00
 0.1296901367929E+00 -0.1533954754360E+00  0.0000000000000E+00  0.2784832062984E+00
 0.1003892899715E+00 -0.1207781637629E+00  0.0000000000000E+00  0.2462471724435E+00
 0.7341975856254E-01 -0.9001850766237E-01  0.0000000000000E+00  0.2056683153455E+00
 0.5034825374157E-01 -0.6262902073116E-01  0.0000000000000E+00  0.1565585267151E+00
 0.3338733671696E-01 -0.4077510417254E-01  0.0000000000000E+00  0.9973912451974E-01
 0.2566635396913E-01 -0.2755270743344E-01  0.0000000000000E+00  0.3837364807130E-01
 0.3114004380764E-01 -0.2712446577092E-01  0.0000000000000E+00 -0.1876597715964E-01
 0.4199060653334E+00 -0.4607855086635E+00  0.0000000000000E+00  0.2641768097284E+00
 0.4100786850264E+00 -0.4503679681483E+00  0.0000000000000E+00  0.2748944393642E+00
 0.3961100488230E+00 -0.4354752120216E+00  0.0000000000000E+00  0.2856664031552E+00
 0.3791988643006E+00 -0.4177052723712E+00  0.0000000000000E+00  0.2967672231925E+00
 0.3595502178462E+00 -0.3970870769459E+00  0.0000000000000E+00  0.3068540478818E+00
 0.3372798022744E+00 -0.3737123502915E+00  0.0000000000000E+00  0.3152367543637E+00
 0.3126029078357E+00 -0.3477654475006E+00  0.0000000000000E+00  0.3212671102106E+00
 0.2857960919906E+00 -0.3195000591854E+00  0.0000000000000E+00  0.3242967117738E+00
 0.2571939843598E+00 -0.2892274225204E+00  0.0000000000000E+00  0.3236476680250E+00
 0.2271886643651E+00 -0.2573159724808E+00  0.0000000000000E+00  0.3186162810449E+00
 0.1962379146441E+00 -0.2241994633175E+00  0.0000000000000E+00  0.3084827441727E+00
 0.1648818695041E+00 -0.1903942124897E+00  0.0000000000000E+00  0.2925288407199E+00
 0.1337710787106E+00 -0.1565280618223E+00  0.0000000000000E+00  0.2700696085997E+00
 0.1037093205806E+00 -0.1233846334721E+00  0.0000000000000E+00  0.2405129327439E+00
 0.7571383249116E-01 -0.9196622073158E-01  0.0000000000000E+00  0.2034730195974E+00
 0.5109176676129E-01 -0.6357529721553E-01  0.0000000000000E+00  0.1589842498426E+00
 0.3151603923946E-01 -0.3990327107883E-01  0.0000000000000E+00  0.1079023886503E+00
 0.1905247088569E-01 -0.2308096171155E-01  0.0000000000000E+00  0.5263898285374E-01
 0.1593605966232E-01 -0.1554893325408E-01  0.0000000000000E+00 -0.1419759570254E-02
 0.2376324308045E-01 -0.1930018917648E-01  0.0000000000000E+00 -0.4368023821406E-01
 0.4124623664020E+00 -0.4532743465011E+00  0.0000000000000E+00  0.2649027713143E+00
 0.3997992858320E+00 -0.4388841755028E+00  0.0000000000000E+00  0.2741054299218E+00
 0.3841194165080E+00 -0.4222506846509E+00  0.0000000000000E+00  0.2841050817698E+00
 0.3656026475112E+00 -0.4026607730068E+00  0.0000000000000E+00  0.2932488547282E+00
 0.3442259817126E+00 -0.3800962218440E+00  0.0000000000000E+00  0.3008718804937E+00
 0.3202542849601E+00 -0.3547815837266E+00  0.0000000000000E+00  0.3064358033126E+00
 0.2939864296325E+00 -0.3269995905022E+00  0.0000000000000E+00  0.3093594482716E+00
 0.2657756267152E+00 -0.2970857934345E+00  0.0000000000000E+00  0.3090221348029E+00
 0.2360287255039E+00 -0.2654304848649E+00  0.0000000000000E+00  0.3047736376275E+00
 0.2052152452124E+00 -0.2324872968888E+00  0.0000000000000E+00  0.2959518091077E+00
 0.1738790267451E+00 -0.1987858916047E+00  0.0000000000000E+00  0.2819070642956E+00
 0.1426556274816E+00 -0.1649505925416E+00  0.0000000000000E+00  0.2620400927554E+00
 0.1122961941499E+00 -0.1317260745638E+00  0.0000000000000E+00  0.2358618447168E+00
 0.8369733359487E-01 -0.1000100079881E+00  0.0000000000000E+00  0.2030903089650E+00
 0.5793270805127E-01 -0.7088920602815E-01  0.0000000000000E+00  0.1638066030650E+00
 0.3627261865489E-01 -0.4566764727138E-01  0.0000000000000E+00  0.1187051611125E+00
 0.2015820371322E-01 -0.2585500284264E-01  0.0000000000000E+00  0.6948328407681E-01
 0.1103674107951E-01 -0.1303567936433E-01  0.0000000000000E+00  0.1943253911961E-01
 0.9862259914685E-02 -0.8406141130243E-02  0.0000000000000E+00 -0.2581766610446E-01
 0.1572108011686E-01 -0.1157126828237E-01  0.0000000000000E+00 -0.5744105160710E-01
</DataArray>
<DataArray type="Float64" Name="S_Centroid" NumberOfComponents="4" ComponentName0="S11" ComponentName1="S22" ComponentName2="S33" ComponentName3="S12" format="ascii">
 0.1564533228783E+00  0.1381903447020E+01  0.3076713585644E+00  0.1028224780633E+00
-0.2553077647070E-01  0.1271592220450E+01  0.2492122925094E+00 -0.1881032277443E-01
 0.4124943129298E-02  0.1287779893231E+01  0.2583809711223E+00 -0.3965869161193E-02
-0.9994994648503E-03  0.1300252118208E+01  0.2598505276207E+00 -0.2615901985866E-02
 0.1179231926181E-03  0.1303280744747E+01  0.2606797374723E+00  0.1512582547136E-04
-0.7056202914496E-04  0.1296680863821E+01  0.2593220642225E+00  0.2022779260274E-02
 0.3872564873886E-05  0.1281431862433E+01  0.2562871508185E+00  0.3736635815157E-02
 0.6260411705761E-05  0.1258575459334E+01  0.2517163477001E+00  0.5194497958865E-02
 0.1777941993791E-04  0.1229023566410E+01  0.2458082728288E+00  0.6463435580028E-02
 0.2168061091157E-04  0.1193498759740E+01  0.2387040916271E+00  0.7591350524800E-02
 0.2320863323035E-04  0.1152547502115E+01  0.2305141455846E+00  0.8619116586552E-02
 0.2180652652634E-04  0.1106553435441E+01  0.2213150516914E+00  0.9581267202387E-02
 0.1796637406581E-04  0.1055753221721E+01  0.2111542407654E+00  0.1050803163510E-01
 0.1171909222053E-04  0.1000250288474E+01  0.2000524044942E+00  0.1142627263243E-01
 0.3078201003148E-05  0.9400271096922E+00  0.1880060403802E+00  0.1236008066080E-01
-0.7943943840905E-05  0.8749562058208E+00  0.1749896549829E+00  0.1333107010161E-01
-0.2181225496076E-04  0.8048095407148E+00  0.1609575480904E+00  0.1435910606652E-01
-0.3816966132800E-04  0.7292722558683E+00  0.1458468194147E+00  0.1546123912739E-01
-0.5774962775693E-04  0.6479446355827E+00  0.1295773791218E+00  0.1665368582364E-01
-0.8071658484271E-04  0.5603555989751E+00  0.1120549781478E+00  0.1795109896843E-01
-0.1076105969247E-03  0.4659619376263E+00  0.9317086679423E-01  0.1936828051735E-01
-0.1390636773452E-03  0.3641414907435E+00  0.7280048649805E-01  0.2092304020872E-01
-0.1737845543980E-03  0.2541603167825E+00  0.5079730720256E-01  0.2263865619526E-01
-0.2515841891792E-03  0.1350216778533E+00  0.2695401913448E-01  0.2458327422752E-01
-0.4900561061728E-03  0.5385352157779E-02  0.9790592249104E-03  0.2700141414943E-01
-0.9984124651149E-03 -0.1356970539853E+00 -0.2733909369747E-01  0.3049215572796E-01
-0.1818404545333E-02 -0.2880280447737E+00 -0.5796929072762E-01  0.3588336580220E-01
-0.2971665286150E-02 -0.4503504013374E+00 -0.9066441467572E-01  0.4394290602731E-01
-0.4505626603003E-02 -0.6207747882155E+00 -0.1250560848272E+00  0.5523190774509E-01
-0.6513448493160E-02 -0.7971260988122E+00 -0.1607279118561E+00  0.7012131818134E-01
-0.9140606267799E-02 -0.9770474923956E+00 -0.1972376226718E+00  0.8888730491095E-01
-0.1257808992052E-01 -0.1157829246780E+01 -0.2340814708281E+00  0.1117831318860E+00
-0.1682965644156E-01 -0.1335811413181E+01 -0.2705282179557E+00  0.1387058907393E+00
-0.2175356821450E-01 -0.1507474989940E+01 -0.3058457161884E+00  0.1687757623011E+00
-0.2716413197525E-01 -0.1672444901503E+01 -0.3399218117610E+00  0.2012093246104E+00
-0.3462430962115E-01 -0.1833585018129E+01 -0.3736418711176E+00  0.2365126192929E+00
-0.3983209510565E-01 -0.1996725484200E+01 -0.4073115219305E+00  0.2771163141366E+00
-0.7016032855571E-01 -0.2175022481767E+01 -0.4490365687556E+00  0.3305552638184E+00
-0.3872114721182E-02 -0.2401019081110E+01 -0.4809782463334E+00  0.3997540652373E+00
-0.5721521224838E+00 -0.2773713754456E+01 -0.6691731853595E+00  0.6727372595240E+00
 0.1622995209229E+01 -0.2827982835392E+01 -0.2409975288238E+00  0.7417187591888E+00
 0.1622861956016E+00  0.1216411253103E+01  0.2757394938498E+00  0.8328937448085E-01
 0.8382709914315E-02  0.1217980222267E+01  0.2452725900912E+00  0.1029808185717E-01
-0.4862242848337E-02  0.1195995507611E+01  0.2382266565024E+00 -0.1104712090297E-01
-0.9737750848678E-03  0.1198909512444E+01  0.2395871510420E+00 -0.3625031599390E-02
-0.1800384327712E-02  0.1196613977340E+01  0.2389627221633E+00  0.1346876232497E-02
-0.1331790672702E-02  0.1187748365222E+01  0.2372833184457E+00  0.6626029566679E-02
-0.1178457361949E-02  0.1171768714696E+01  0.2341180549554E+00  0.1122668729314E-01
-0.1005344918706E-02  0.1149124216810E+01  0.2296237778000E+00  0.1530012418544E-01
-0.8848311939804E-03  0.1120362264646E+01  0.2238954900268E+00  0.1891479126288E-01
-0.7945804739068E-03  0.1086006393728E+01  0.2170423658851E+00  0.2217425613442E-01
-0.7341920236545E-03  0.1046481588703E+01  0.2091494824524E+00  0.2517244929212E-01
-0.6993621732959E-03  0.1002100523550E+01  0.2002802352598E+00  0.2799650865222E-01
-0.6876997181721E-03  0.9530606570457E+00  0.1904745943038E+00  0.3072575577895E-01
-0.6970611554772E-03  0.8994486138010E+00  0.1797503132076E+00  0.3343255144860E-01
-0.7256448057502E-03  0.8412467766598E+00  0.1681042288758E+00  0.3618279437618E-01
-0.7719503129597E-03  0.7783409157836E+00  0.1555137954115E+00  0.3903641435892E-01
-0.8346110371626E-03  0.7105282986786E+00  0.1419387396433E+00  0.4204745471751E-01
-0.9122564360733E-03  0.6375272475896E+00  0.1273230001280E+00  0.4526445133667E-01
-0.1004222128139E-02  0.5589836030732E+00  0.1115958778519E+00  0.4873145843780E-01
-0.1110386844043E-02  0.4744777851213E+00  0.9467348106619E-01  0.5248907058658E-01
-0.1232354627406E-02  0.3835288521256E+00  0.7645930063898E-01  0.5657875543147E-01
-0.1373824353976E-02  0.2855871063837E+00  0.5684265725297E-01  0.6105002924298E-01
-0.1553624459181E-02  0.1800012475789E+00  0.3568952515575E-01  0.6599011657898E-01
-0.1885940074042E-02  0.6598390382419E-01  0.1281959294106E-01  0.7158963453676E-01
-0.2611638510242E-02 -0.5720192950727E-01 -0.1196271378176E-01  0.7812377724618E-01
-0.3959015330530E-02 -0.1898381314787E+00 -0.3875942993941E-01  0.8591855608771E-01
-0.6010552868696E-02 -0.3314699082622E+00 -0.6749609323196E-01  0.9534962531457E-01
-0.8731360502430E-02 -0.4809092097245E+00 -0.9792811550463E-01  0.1067818438088E+00
-0.1207064867300E-01 -0.6364251494721E+00 -0.1296991615617E+00  0.1204948290779E+00
-0.1602786946637E-01 -0.7959123283525E+00 -0.1623880419836E+00  0.1366574028206E+00
-0.2067874093237E-01 -0.9569259413907E+00 -0.1955209393781E+00  0.1553317295255E+00
-0.2605201907037E-01 -0.1116564805657E+01 -0.2285233683507E+00  0.1763992483523E+00
-0.3191556662136E-01 -0.1271508279134E+01 -0.2606847730355E+00  0.1994661927374E+00
-0.3795952769782E-01 -0.1418691292065E+01 -0.2913301682937E+00  0.2241072710481E+00
-0.4475371877212E-01 -0.1556131314951E+01 -0.3201770115156E+00  0.2503662373406E+00
-0.5232477089720E-01 -0.1682707324121E+01 -0.3470064241745E+00  0.2788611676915E+00
-0.6725851832949E-01 -0.1797804819462E+01 -0.3730126731166E+00  0.3134405914617E+00
-0.7553770125453E-01 -0.1896869247452E+01 -0.3944813956195E+00  0.3515218127065E+00
-0.1580820365761E+00 -0.1981537148363E+01 -0.4279238433644E+00  0.4511177091027E+00
-0.3091191551210E+00 -0.1809929777194E+01 -0.4238097927782E+00  0.4172619934135E+00
 0.1355688889540E+01 -0.1410176989094E+01 -0.1089762007311E-01  0.7506632430032E-01
 0.1633622589214E+00  0.1090787234999E+01  0.2508299025218E+00  0.5511278295794E-01
 0.3004379296897E-01  0.1119379646593E+01  0.2298846913380E+00  0.1895131723045E-01
-0.3323391040181E-02  0.1106664382408E+01  0.2206682015618E+00 -0.6101940009001E-02
-0.4231527418576E-02  0.1098407186468E+01  0.2188351350708E+00 -0.3381157679337E-02
-0.4120681330604E-02  0.1092133190762E+01  0.2176025051288E+00  0.4252102751401E-02
-0.3804208582136E-02  0.1080915873755E+01  0.2154223362447E+00  0.1175146152469E-01
-0.3318798816839E-02  0.1064101923305E+01  0.2121566280590E+00  0.1884742731890E-01
-0.2932919754127E-02  0.1041504924076E+01  0.2077144039595E+00  0.2524259767514E-01
-0.2615009191187E-02  0.1013390632208E+01  0.2021551276157E+00  0.3101914426248E-01
-0.2377581990774E-02  0.9800893495720E+00  0.1955423564301E+00  0.3628232304666E-01
-0.2211731588023E-02  0.9419112237953E+00  0.1879399012420E+00  0.4115944765600E-01
-0.2112123951974E-02  0.8990979758169E+00  0.1793971730462E+00  0.4577507751390E-01
-0.2072895081302E-02  0.8518070537680E+00  0.1699468342697E+00  0.5024783871341E-01
-0.2088961332648E-02  0.8001067683129E+00  0.1596035637743E+00  0.5468833053465E-01
-0.2155566218238E-02  0.7439777271974E+00  0.1483644344066E+00  0.5919866901946E-01
-0.2268296574139E-02  0.6833173456392E+00  0.1362098118427E+00  0.6387225206318E-01
-0.2422920756144E-02  0.6179457677093E+00  0.1231045712250E+00  0.6879360501312E-01
-0.2615557385809E-02  0.5476142832115E+00  0.1089997467894E+00  0.7403870120147E-01
-0.2843348838531E-02  0.4720117269152E+00  0.9383367701357E-01  0.7967594493722E-01
-0.3105390706406E-02  0.3907712897302E+00  0.7753318096010E-01  0.8576838390498E-01
-0.3404963377341E-02  0.3034767158246E+00  0.6001435138374E-01  0.9237941139012E-01
-0.3755034958505E-02  0.2096591025350E+00  0.4118081412895E-01  0.9958640042489E-01
-0.4209558078761E-02  0.1087899426508E+00  0.2091607722608E-01  0.1075191303504E+00
-0.4940997083782E-02  0.3336001218670E-03 -0.9214794061141E-03  0.1163951896646E+00
-0.6244228356892E-02 -0.1160209158281E+00 -0.2445302920138E-01  0.1264259051898E+00
-0.8383874954758E-02 -0.2401313762909E+00 -0.4970305098977E-01  0.1377222906235E+00
-0.1145043462742E-01 -0.3713330286312E+00 -0.7655669379250E-01  0.1503401632795E+00
-0.1537479432697E-01 -0.5084400319226E+00 -0.1047629668110E+00  0.1643216059704E+00
-0.2003726019117E-01 -0.6498021938480E+00 -0.1339678928041E+00  0.1796753282572E+00
-0.2535515078796E-01 -0.7933562261036E+00 -0.1637422778183E+00  0.1963353798706E+00
-0.3129097643306E-01 -0.9366157103651E+00 -0.1935813402442E+00  0.2141042456748E+00
-0.3771690197668E-01 -0.1076655184330E+01 -0.2228744205824E+00  0.2325768856141E+00
-0.4427687912059E-01 -0.1210258048920E+01 -0.2509069893469E+00  0.2512034706570E+00
-0.5080177985008E-01 -0.1334142957411E+01 -0.2769889515796E+00  0.2696386104682E+00
-0.5760936744060E-01 -0.1444808204110E+01 -0.3004835187876E+00  0.2878175613799E+00
-0.6660549162062E-01 -0.1538074262431E+01 -0.3209359555927E+00  0.3063675233743E+00
-0.7866031953205E-01 -0.1605931460248E+01 -0.3369183609765E+00  0.3243496032226E+00
-0.9970517284647E-01 -0.1637077268274E+01 -0.3473564934001E+00  0.3468384577258E+00
-0.1721237374536E+00 -0.1558757205570E+01 -0.3461761937632E+00  0.3549564327382E+00
-0.2738409636370E-01 -0.1263002716187E+01 -0.2580773663559E+00  0.1255573671412E+00
 0.1384528340515E+01 -0.9407362623052E+00  0.8875841696450E-01 -0.2050271738490E+00
 0.1579675876356E+00  0.9784824417765E+00  0.2272900092693E+00  0.2957121281242E-01
 0.4291419722411E-01  0.1012802523339E+01  0.2111433472588E+00  0.1795102209720E-01
 0.3659365963669E-03  0.1009840720503E+01  0.2020413344306E+00 -0.5510378355094E-03
-0.6951060137184E-02  0.9990127507015E+00  0.1984123410694E+00 -0.2630862043781E-03
-0.7447850595901E-02  0.9888935919969E+00  0.1962891512051E+00  0.8073532287891E-02
-0.7037426725345E-02  0.9758268227047E+00  0.1937578820831E+00  0.1748884288652E-01
-0.6341179481418E-02  0.9581602429062E+00  0.1903638155216E+00  0.2661053789601E-01
-0.5670940221060E-02  0.9355482594608E+00  0.1859754666192E+00  0.3506918972114E-01
-0.5112809626326E-02  0.9079895235774E+00  0.1805753454810E+00  0.4281493610920E-01
-0.4680339511010E-02  0.8756623070952E+00  0.1741963961126E+00  0.4994622385124E-01
-0.4374245814966E-02  0.8387711434964E+00  0.1668793820230E+00  0.5659964274447E-01
-0.4187407018652E-02  0.7974921838639E+00  0.1586609577333E+00  0.6292500522833E-01
-0.4111782485461E-02  0.7519442102163E+00  0.1495664877749E+00  0.6907072331464E-01
-0.4138902419583E-02  0.7021772095441E+00  0.1396076635052E+00  0.7517873999107E-01
-0.4260360022405E-02  0.6481692123047E+00  0.1287817723755E+00  0.8138185982748E-01
-0.4467831127310E-02  0.5898279735979E+00  0.1170720302386E+00  0.8780236736469E-01
-0.4753131639963E-02  0.5269951020968E+00  0.1044483956478E+00  0.9455124553277E-01
-0.5108648582822E-02  0.4594535793587E+00  0.9086898750923E-01  0.1017280224949E+00
-0.5528362672403E-02  0.3869340513409E+00  0.7628113887037E-01  0.1094216644893E+00
-0.6009885957972E-02  0.3091225793406E+00  0.6062253957988E-01  0.1177132718399E+00
-0.6558705160915E-02  0.2256696129898E+00  0.4382218221878E-01  0.1266827357415E+00
-0.7200702295126E-02  0.1361958787552E+00  0.2579903567646E-01  0.1364251966786E+00
-0.8021673729781E-02  0.4031411756450E-01  0.6458488863183E-02  0.1470816581849E+00
-0.9227814787345E-02 -0.6227927998660E-01 -0.1430141916790E-01  0.1588404837981E+00
-0.1112361888682E-01 -0.1715871115137E+00 -0.3654214662462E-01  0.1718129000789E+00
-0.1396386929402E-01 -0.2871835937197E+00 -0.6022949350023E-01  0.1859291664439E+00
-0.1782238452212E-01 -0.4082457270405E+00 -0.8521362358230E-01  0.2010018096416E+00
-0.2259803573378E-01 -0.5335628208618E+00 -0.1112321729766E+00  0.2168081097666E+00
-0.2811407903645E-01 -0.6615245439179E+00 -0.1379277266462E+00  0.2331022516137E+00
-0.3420265018228E-01 -0.7900997348808E+00 -0.1648604794692E+00  0.2495695385440E+00
-0.4070227729944E-01 -0.9168079614188E+00 -0.1915020505973E+00  0.2657502434161E+00
-0.4734402878387E-01 -0.1038735631114E+01 -0.2172159352162E+00  0.2809915072834E+00
-0.5373300917497E-01 -0.1152624467579E+01 -0.2412714989460E+00  0.2945609377181E+00
-0.5965263522423E-01 -0.1254765196207E+01 -0.2628835702036E+00  0.3058580536670E+00
-0.6557412128504E-01 -0.1340488590442E+01 -0.2812125465359E+00  0.3144187513869E+00
-0.7256942005336E-01 -0.1402811587740E+01 -0.2950762059556E+00  0.3191009220727E+00
-0.8145720482642E-01 -0.1430736322116E+01 -0.3024387098952E+00  0.3173245271276E+00
-0.9830441714410E-01 -0.1398781453723E+01 -0.2994171786351E+00  0.3020172850851E+00
-0.9825758681620E-01 -0.1243771805735E+01 -0.2684058825098E+00  0.2123934013463E+00
 0.2287876688818E+00 -0.9768268445158E+00 -0.1496078373561E+00 -0.8687121671341E-01
 0.1416951567047E+01 -0.7675361118946E+00  0.1298830929660E+00 -0.3317639840393E+00
 0.1479312724179E+00  0.8720741107965E+00  0.2040010796827E+00  0.7912664057045E-02
 0.4897006765988E-01  0.9055687547646E+00  0.1909077673296E+00  0.1286730800096E-01
 0.3323394837004E-02  0.9087134565827E+00  0.1824073730020E+00  0.3326810594519E-02
-0.9231051328134E-02  0.8988599086157E+00  0.1779257741088E+00  0.4155279804328E-02
-0.1128112508898E-01  0.8866519139284E+00  0.1750741603767E+00  0.1283876327837E-01
-0.1097107728735E-01  0.8720655464178E+00  0.1722188963924E+00  0.2367978637836E-01
-0.1009024352996E-01  0.8537171587862E+00  0.1687253855655E+00  0.3453031605413E-01
-0.9141380250811E-02  0.8310847006804E+00  0.1643886665355E+00  0.4479405256288E-01
-0.8311694524136E-02  0.8040402869123E+00  0.1591457208491E+00  0.5432734667564E-01
-0.7654829624685E-02  0.7726360218620E+00  0.1529962407273E+00  0.6318655590495E-01
-0.7182841622204E-02  0.7369912239238E+00  0.1459616786353E+00  0.7150677221094E-01
-0.6892505344770E-02  0.6972239771824E+00  0.1380662964249E+00  0.7945109028028E-01
-0.6774665881873E-02  0.6534181137442E+00  0.1293286914996E+00  0.8718967847073E-01
-0.6817960952359E-02  0.6056064944418E+00  0.1197577084824E+00  0.9488935951434E-01
-0.7009968568516E-02  0.5537645364475E+00  0.1093509152052E+00  0.1027084309924E+00
-0.7337729370710E-02  0.4978095491925E+00  0.9809436542608E-01  0.1107936405039E+00
-0.7788112281144E-02  0.4376034608767E+00  0.8596307100005E-01  0.1192784260826E+00
-0.8348609555685E-02  0.3729596450275E+00  0.7292220818100E-01  0.1282820046147E+00
-0.9008901309181E-02  0.3036494087439E+00  0.5892810236504E-01  0.1379098644419E+00
-0.9764084838608E-02  0.2294111680165E+00  0.4392941729019E-01  0.1482563152112E+00
-0.1062150220591E-01  0.1499631992894E+00  0.2786833983197E-01  0.1594110160113E+00
-0.1161846197886E-01  0.6502018155869E-01  0.1068034407511E-01  0.1714732809826E+00
-0.1286147225488E-01 -0.2566524266269E-01 -0.7705343098333E-02  0.1845685212940E+00
-0.1456660552105E-01 -0.1222000140324E+00 -0.2735332431829E-01  0.1988246807133E+00
-0.1701853046209E-01 -0.2243620156835E+00 -0.4827610994848E-01  0.2142406528554E+00
-0.2043463017188E-01 -0.3315318807625E+00 -0.7039330323582E-01  0.2305895799482E+00
-0.2485308555660E-01 -0.4427724290809E+00 -0.9352510432113E-01  0.2474875555920E+00
-0.3013436361338E-01 -0.5568445104372E+00 -0.1173957765594E+00  0.2644881209858E+00
-0.3604403808583E-01 -0.6721612148668E+00 -0.1416410527011E+00  0.2811090345884E+00
-0.4232437932488E-01 -0.7867275612933E+00 -0.1658103905944E+00  0.2967891416186E+00
-0.4868737391068E-01 -0.8980983683342E+00 -0.1893571512706E+00  0.3108142843780E+00
-0.5474253085160E-01 -0.1003380593683E+01 -0.2116246280603E+00  0.3222890954910E+00
-0.6001711406303E-01 -0.1099222588080E+01 -0.2318479438834E+00  0.3302150144431E+00
-0.6422322306570E-01 -0.1181548560451E+01 -0.2491543604160E+00  0.3335824625186E+00
-0.6750010679844E-01 -0.1244770132531E+01 -0.2624540517767E+00  0.3310444817288E+00
-0.6994695529592E-01 -0.1280593774838E+01 -0.2701081500517E+00  0.3198327050833E+00
-0.7107473132384E-01 -0.1275496798158E+01 -0.2693143099094E+00  0.2939524859398E+00
-0.6443371558390E-01 -0.1202782069856E+01 -0.2534431608646E+00  0.2336637444509E+00
 0.1821081644397E-01 -0.1033928768247E+01 -0.2031435933876E+00  0.7648509538326E-01
 0.4385810790805E+00 -0.8314696554156E+00 -0.7857771643792E-01 -0.2241009188283E+00
 0.1444455006020E+01 -0.6991482111504E+00  0.1490613611951E+00 -0.3974268680693E+00
 0.1347324715249E+00  0.7688460344326E+00  0.1807157038844E+00 -0.1020525312880E-01
 0.4977764387415E-01  0.7993759287765E+00  0.1698307170608E+00  0.6311005035045E-02
 0.4465523940147E-02  0.8057744482727E+00  0.1620479968573E+00  0.5530228936290E-02
-0.1162758922769E-01  0.7977965525101E+00  0.1572337949994E+00  0.8798438117632E-02
-0.1544258028000E-01  0.7849515457211E+00  0.1539017953815E+00  0.1823232317713E-01
-0.1547778647032E-01  0.7693848681919E+00  0.1507814185911E+00  0.3022948595795E-01
-0.1447142744770E-01  0.7505510878272E+00  0.1472159342696E+00  0.4256228441609E-01
-0.1326063331734E-01  0.7279610166211E+00  0.1429400787907E+00  0.5441899771963E-01
-0.1215045098135E-01  0.7014256500450E+00  0.1378550418669E+00  0.6556645514611E-01
-0.1125111059647E-01  0.6709202736554E+00  0.1319338345778E+00  0.7601570825370E-01
-0.1059664543983E-01  0.6364980117435E+00  0.1251802751261E+00  0.8588910615516E-01
-0.1019177706155E-01  0.5982299338236E+00  0.1176076331049E+00  0.9535522339561E-01
-0.1002870772369E-01  0.5561699721359E+00  0.1092282545101E+00  0.1045989338116E+00
-0.1009395804635E-01  0.5103361645362E+00  0.1000484427888E+00  0.1138063074352E+00
-0.1037110443207E-01  0.4607019245869E+00  0.9006616537307E-01  0.1231563477425E+00
-0.1084200773837E-01  0.4071937505943E+00  0.7927034975241E-01  0.1328160886658E+00
-0.1148767983787E-01  0.3496929316466E+00  0.6764105136968E-01  0.1429375513196E+00
-0.1228953389835E-01  0.2880419344178E+00  0.5515048092569E-01  0.1536558156840E+00
-0.1323159141428E-01  0.2220513428255E+00  0.4176395090459E-01  0.1650887420765E+00
-0.1430493134343E-01  0.1515107392721E+00  0.2744116199464E-01  0.1773387239154E+00
-0.1551679356641E-01  0.7620565024543E-01  0.1213777151667E-01  0.1904975671708E+00
-0.1691058419328E-01 -0.4056945651258E-02 -0.4193506031395E-02  0.2046553102112E+00
-0.1859976995056E-01 -0.8939681446219E-01 -0.2159931720440E-01  0.2199022778711E+00
-0.2078981717402E-01 -0.1797611708760E+00 -0.4011019820768E-01  0.2362898586539E+00
-0.2372533003792E-01 -0.2747643809799E+00 -0.5969794309314E-01  0.2537031453036E+00
-0.2756860447567E-01 -0.3736555843591E+00 -0.8024483896270E-01  0.2717759806422E+00
-0.3230724764706E-01 -0.4754201263066E+00 -0.1015454763039E+00  0.2899587577431E+00
-0.3775315015328E-01 -0.5787990717349E+00 -0.1233104462151E+00  0.3076111011352E+00
-0.4360761952390E-01 -0.6822286253969E+00 -0.1451672511473E+00  0.3240332209654E+00
-0.4951725376963E-01 -0.7837605170839E+00 -0.1666555566541E+00  0.3384283354127E+00
-0.5506810848134E-01 -0.8810062549163E+00 -0.1872148754693E+00  0.3498371938947E+00
-0.5974105945136E-01 -0.9711072979670E+00 -0.2061696745558E+00  0.3571089438123E+00
-0.6294410931952E-01 -0.1050654052273E+01 -0.2227196356373E+00  0.3589232767751E+00
-0.6417208339393E-01 -0.1115333844884E+01 -0.2359011891709E+00  0.3537300197055E+00
-0.6295034666722E-01 -0.1159157933447E+01 -0.2444216596649E+00  0.3392050702866E+00
-0.5809329519506E-01 -0.1173422321054E+01 -0.2463031269200E+00  0.3109360131436E+00
-0.4539814484953E-01 -0.1144663346463E+01 -0.2380123018092E+00  0.2591975578903E+00
-0.4662783842936E-02 -0.1054275764963E+01 -0.2117877129170E+00  0.1590874425659E+00
 0.1480922700973E+00 -0.9028171133076E+00 -0.1509449708913E+00 -0.3442438279275E-01
 0.6069840820910E+00 -0.7605573558953E+00 -0.3071465521855E-01 -0.3095956826034E+00
 0.1466800014481E+01 -0.6778476986170E+00  0.1577904655241E+00 -0.4341898664024E+00
 0.1193498483836E+00  0.6676155755417E+00  0.1573930871304E+00 -0.2532705767209E-01
 0.4654180116116E-01  0.6945837883756E+00  0.1482251201161E+00 -0.4852448887810E-03
 0.3474216894712E-02  0.7023974636753E+00  0.1411743382177E+00  0.6511131533613E-02
-0.1459881220140E-01  0.6962014661314E+00  0.1363205328173E+00  0.1317655578430E-01
-0.1995655335662E-01  0.6835683360131E+00  0.1327223585090E+00  0.2390385932022E-01
-0.2046725075081E-01  0.6675720590598E+00  0.1294209635903E+00  0.3701323528072E-01
-0.1940666071583E-01  0.6484867649509E+00  0.1258160227218E+00  0.5065188205539E-01
-0.1795792858799E-01  0.6260348204222E+00  0.1216153801791E+00  0.6392726651576E-01
-0.1656992803423E-01  0.6000346405999E+00  0.1166929442520E+00  0.7653253062960E-01
-0.1542003325115E-01  0.5704252671541E+00  0.1110010484346E+00  0.8843838005227E-01
-0.1457338511163E-01  0.5372163097683E+00  0.1045285864889E+00  0.9975030591955E-01
-0.1404751545959E-01  0.5004434904145E+00  0.9727919644056E-01  0.1106367211602E+00
-0.1383853646604E-01  0.4601371644290E+00  0.8925972692266E-01  0.1212918999289E+00
-0.1393201791059E-01  0.4163035754168E+00  0.8047431270041E-01  0.1319163455906E+00
-0.1430774867425E-01  0.3689152771597E+00  0.7092150675391E-01  0.1427055208509E+00
-0.1494200887727E-01  0.3179079057609E+00  0.6059318027964E-01  0.1538428871161E+00
-0.1580908480782E-01  0.2631812837154E+00  0.4947444051874E-01  0.1654953822746E+00
-0.1688305816183E-01  0.2046056118133E+00  0.3754451128974E-01  0.1778102365441E+00
-0.1814067926333E-01  0.1420290304895E+00  0.2477767061444E-01  0.1909135585933E+00
-0.1956688043713E-01  0.7529028110157E-01  0.1114468029896E-01  0.2049106200226E+00
-0.2116528264439E-01  0.4239415665783E-02 -0.3385173446164E-02  0.2198877701173E+00
-0.2297786523310E-01 -0.7123072864466E-01 -0.1884171905632E-01  0.2359143869564E+00
-0.2511124373937E-01 -0.1511296241837E+00 -0.3524817410986E-01  0.2530328809130E+00
-0.2774347899722E-01 -0.2352788654856E+00 -0.5260446968042E-01  0.2712109872173E+00
-0.3106468065812E-01 -0.3231761753661E+00 -0.7084817226056E-01  0.2902235729679E+00
-0.3516987402628E-01 -0.4139847620681E+00 -0.8983092855746E-01  0.3095795332413E+00
-0.3998391973246E-01 -0.5066435262512E+00 -0.1093254908258E+00  0.3285853256874E+00
-0.4525887228442E-01 -0.5998886666874E+00 -0.1290295097170E+00  0.3464296356358E+00
-0.5062263266006E-01 -0.6921886072683E+00 -0.1485622501994E+00  0.3622139965761E+00
-0.5561997279894E-01 -0.7816562444114E+00 -0.1674552459373E+00  0.3749209027428E+00
-0.5970670175367E-01 -0.8659807785493E+00 -0.1851374988194E+00  0.3833548014477E+00
-0.6221803638598E-01 -0.9423704744229E+00 -0.2009177051557E+00  0.3861008581294E+00
-0.6238081801945E-01 -0.1007432391084E+01 -0.2139626450089E+00  0.3814831102881E+00
-0.5933109999411E-01 -0.1056826043995E+01 -0.2232314321243E+00  0.3673771274207E+00
-0.5178806850724E-01 -0.1084634667567E+01 -0.2272845506017E+00  0.3405410825319E+00
-0.3680486302839E-01 -0.1082660458753E+01 -0.2238930676926E+00  0.2950821727141E+00
-0.5525728560175E-02 -0.1040093636494E+01 -0.2091238761271E+00  0.2190453716640E+00
 0.7166934296840E-01 -0.9487636008354E+00 -0.1754188541873E+00  0.8925093535140E-01
 0.2766823458535E+00 -0.8258488692781E+00 -0.1098333063216E+00 -0.1183515150596E+00
 0.7427955982934E+00 -0.7312051071055E+00  0.2318098272140E-02 -0.3614639496517E+00
 0.1486075376490E+01 -0.6810093384587E+00  0.1610132100056E+00 -0.4552638863619E+00
 0.1024231260883E+00  0.5678028413048E+00  0.1340451954760E+00 -0.3794351619725E-01
 0.4016823604894E-01  0.5911934065000E+00  0.1262723303914E+00 -0.6937930467683E-02
 0.3679103978469E-03  0.5992961209907E+00  0.1199328080649E+00  0.6716228212851E-02
-0.1843390679115E-01  0.5944894750190E+00  0.1152111153623E+00  0.1713195601029E-01
-0.2491630356956E-01  0.5824674509466E+00  0.1115102311370E+00  0.2959584534570E-01
-0.2590098897892E-01  0.5664770564842E+00  0.1081152151121E+00  0.4389462525980E-01
-0.2483494019835E-01  0.5473815454757E+00  0.1045093226128E+00  0.5873714502540E-01
-0.2317339860869E-01  0.5251813914625E+00  0.1004016000669E+00  0.7329208974653E-01
-0.2151556386886E-01  0.4997630561139E+00  0.9564949987430E-01  0.8721729976810E-01
-0.2011366311649E-01  0.4710635107630E+00  0.9018997087324E-01  0.1004533891122E+00
-0.1907036893411E-01  0.4390702909893E+00  0.8399998566273E-01  0.1130901009927E+00
-0.1842056568440E-01  0.4037959578107E+00  0.7707507957377E-01  0.1252928085629E+00
-0.1816683806894E-01  0.3652540789412E+00  0.6941744920885E-01  0.1372614182064E+00
-0.1829507739177E-01  0.3234426501797E+00  0.6102951546700E-01  0.1492070196258E+00
-0.1878163067179E-01  0.2783348665238E+00  0.5191064794393E-01  0.1613378713716E+00
-0.1959687034137E-01  0.2298756744948E+00  0.4205576145737E-01  0.1738503910171E+00
-0.2070749502012E-01  0.1779826717381E+00  0.3145503581231E-01  0.1869230348716E+00
-0.2207890390064E-01  0.1225523206511E+00  0.2009468364953E-01  0.2007116671142E+00
-0.2367868357935E-01  0.6346820801148E-01  0.7957905005009E-02  0.2153466805556E+00
-0.2548285554651E-01  0.6153136910871E-03 -0.4973508445196E-02  0.2309312305678E+00
-0.2748675020145E-01 -0.6609651291362E-01 -0.1871665290191E-01  0.2475393759693E+00
-0.2972247804746E-01 -0.1366981154582E+00 -0.3328411919710E-01  0.2652111555227E+00
-0.3227708223578E-01 -0.2111075737612E+00 -0.4867693192474E-01  0.2839334947974E+00
-0.3528767348300E-01 -0.2890510021506E+00 -0.6486773609333E-01  0.3035888490066E+00
-0.3887921825088E-01 -0.3699463588568E+00 -0.8176511663994E-01  0.3238478644232E+00
-0.4307052001002E-01 -0.4529060641954E+00 -0.9919531831921E-01  0.3441067271005E+00
-0.4771355653484E-01 -0.5368493294742E+00 -0.1169125789439E+00  0.3635447253592E+00
-0.5248955292390E-01 -0.6205251984435E+00 -0.1346029522792E+00  0.3811985555562E+00
-0.5694331105116E-01 -0.7024485409347E+00 -0.1518783726603E+00  0.3959896386642E+00
-0.6051061229109E-01 -0.7808106271140E+00 -0.1682642503883E+00  0.4066964116950E+00
-0.6250899211224E-01 -0.8534032458472E+00 -0.1831824503215E+00  0.4118984622242E+00
-0.6210439393520E-01 -0.9175462866747E+00 -0.1959301390416E+00  0.4099185086326E+00
-0.5827934491865E-01 -0.9699631748594E+00 -0.2056485070200E+00  0.3987248889668E+00
-0.4970497012819E-01 -0.1006504621046E+01 -0.2112419213827E+00  0.3756632113620E+00
-0.3414770216447E-01 -0.1021737696893E+01 -0.2111770829582E+00  0.3367322308488E+00
-0.6653968130328E-02 -0.1008805200423E+01 -0.2030918367371E+00  0.2750682001854E+00
 0.4570520209267E-01 -0.9608627787109E+00 -0.1830315180510E+00  0.1785049623987E+00
 0.1567437326384E+00 -0.8784789740756E+00 -0.1443470504384E+00  0.2935539296304E-01
 0.3975379424113E+00 -0.7854120828393E+00 -0.7757482924155E-01 -0.1788042929963E+00
 0.8540831875672E+00 -0.7265027534134E+00  0.2551608721100E-01 -0.3915124762026E+00
 0.1503937799340E+01 -0.6984426735752E+00  0.1610990275536E+00 -0.4667161770044E+00
 0.8437979221160E-01  0.4690963754565E+00  0.1106952351831E+00 -0.4845613688981E-01
 0.3133511732041E-01  0.4891115459678E+00  0.1040893342087E+00 -0.1277990976317E-01
-0.4695248384804E-02  0.4968304826540E+00  0.9842704832053E-01  0.6492907642048E-02
-0.2328248276040E-01  0.4929851769949E+00  0.9394054024673E-01  0.2066403339193E-01
-0.3041722596906E-01  0.4817029908761E+00  0.9025715432634E-01  0.3515261119127E-01
-0.3177490024884E-01  0.4660135790181E+00  0.8684773704798E-01  0.5075352050974E-01
-0.3071362957430E-01  0.4471230126783E+00  0.8328187786179E-01  0.6675358007498E-01
-0.2885684489102E-01  0.4252932738634E+00  0.7928728697595E-01  0.8248157344206E-01
-0.2693794228484E-01  0.4005149945195E+00  0.7471541156028E-01  0.9760666739049E-01
-0.2528598607537E-01  0.3727507686823E+00  0.6949295755691E-01  0.1120550210214E+00
-0.2404506722594E-01  0.3419845528414E+00  0.6358789807063E-01  0.1259051727547E+00
-0.2327090629338E-01  0.3082173929641E+00  0.5698929818336E-01  0.1393190945391E+00
-0.2297486007011E-01  0.2714529107655E+00  0.4969561087961E-01  0.1525000440941E+00
-0.2314435832369E-01  0.2316846101957E+00  0.4170805099590E-01  0.1656668047458E+00
-0.2375267677232E-01  0.1888880364444E+00  0.3302707242655E-01  0.1790373921660E+00
-0.2476397307345E-01  0.1430177462711E+00  0.2365075499194E-01  0.1928181389359E+00
-0.2613646874328E-01  0.9400836713371E-01  0.1357437988036E-01  0.2071959460660E+00
-0.2782541492021E-01  0.4178100040906E-01  0.2791117139361E-02  0.2223320717669E+00
-0.2978706834182E-01 -0.1374784079595E-01 -0.8706981957298E-02  0.2383575245000E+00
-0.3198524930997E-01 -0.7265073202870E-01 -0.2092719657957E-01  0.2553688421238E+00
-0.3440164505570E-01 -0.1349643003984E+00 -0.3387318959556E-01  0.2734221675372E+00
-0.3704998068473E-01 -0.2006542752059E+00 -0.4754085188654E-01  0.2925222012201E+00
-0.3998651360586E-01 -0.2695660638600E+00 -0.6191051641570E-01  0.3125967365769E+00
-0.4329653809696E-01 -0.3413564977951E+00 -0.7693060832476E-01  0.3334446807850E+00
-0.4703178054561E-01 -0.4153935294472E+00 -0.9248506337669E-01  0.3546396653986E+00
-0.5112791413534E-01 -0.4907669765501E+00 -0.1083789797521E+00  0.3754761391359E+00
-0.5535551946211E-01 -0.5663997601884E+00 -0.1243510577831E+00  0.3950202316417E+00
-0.5931497546803E-01 -0.6410722896642E+00 -0.1400774551138E+00  0.4121733039669E+00
-0.6245862971917E-01 -0.7133625699120E+00 -0.1551642422384E+00  0.4256948578018E+00
-0.6410556113404E-01 -0.7815595557257E+00 -0.1691330258922E+00  0.4341773745235E+00
-0.6342499668087E-01 -0.8435859006686E+00 -0.1814021821730E+00  0.4359913951262E+00
-0.5938925243597E-01 -0.8969249606177E+00 -0.1912628454608E+00  0.4292121816855E+00
-0.5068648290247E-01 -0.9385211791871E+00 -0.1978415353660E+00  0.4114853102202E+00
-0.3545602485745E-01 -0.9646110330925E+00 -0.2000134145704E+00  0.3797238447951E+00
-0.1045014886066E-01 -0.9705794523795E+00 -0.1962059231717E+00  0.3294159944287E+00
 0.3116880511036E-01 -0.9514331176601E+00 -0.1840528652525E+00  0.2534192916127E+00
 0.1050533180503E+00 -0.9043541437014E+00 -0.1598601675123E+00  0.1409749361336E+00
 0.2450513749956E+00 -0.8357280264818E+00 -0.1181353320576E+00 -0.1898663747806E-01
 0.5085056065643E+00 -0.7697559704111E+00 -0.5225007354793E-01 -0.2203945803857E+00
 0.9471965989162E+00 -0.7372949259890E+00  0.4198033521099E-01 -0.4071300212549E+00
 0.1521556913273E+01 -0.7249479113243E+00  0.1593218027638E+00 -0.4716894681295E+00
 0.6551376657685E-01  0.3713150116138E+00  0.8736575693998E-01 -0.5718664637645E-01
 0.2055336982625E-01  0.3882283403916E+00  0.8175634326183E-01 -0.1790259867385E-01
-0.1150929410164E-01  0.3951722830173E+00  0.7673259892654E-01  0.6089888947704E-02
-0.2919697597194E-01  0.3919133139083E+00  0.7254326866825E-01  0.2383598815090E-01
-0.3653114298367E-01  0.3813545674979E+00  0.6896468593050E-01  0.4049553110563E-01
-0.3810034057318E-01  0.3661410004951E+00  0.6560813296202E-01  0.5749844526987E-01
-0.3701506050037E-01  0.3476266501381E+00  0.6212231885324E-01  0.7464110080608E-01
-0.3496687576035E-01  0.3262789756652E+00  0.5826242084915E-01  0.9146216121209E-01
-0.3279261893742E-01  0.3022032626818E+00  0.5388212955178E-01  0.1076832281929E+00
-0.3089329862793E-01  0.2754067878800E+00  0.4890269857912E-01  0.1232344303498E+00
-0.2945555544701E-01  0.2458848727642E+00  0.4328586410845E-01  0.1381900044094E+00
-0.2855810750126E-01  0.2136373457106E+00  0.3701584819344E-01  0.1527100834576E+00
-0.2822285531131E-01  0.1786643601053E+00  0.3008830140715E-01  0.1670003410188E+00
-0.2843979229674E-01  0.1409586430399E+00  0.2250377048396E-01  0.1812852628970E+00
-0.2917942774593E-01  0.1004998549168E+00  0.1426408564674E-01  0.1957902103840E+00
-0.3039936614974E-01  0.5725250304428E-01  0.5370627458937E-02  0.2107288476735E+00
-0.3204841023155E-01  0.1116746337136E-01 -0.4176189434270E-02  0.2262938163868E+00
-0.3407008112930E-01 -0.3781131533767E-01 -0.1437627950762E-01  0.2426488771800E+00
-0.3640690832110E-01 -0.8973730249450E-01 -0.2522884253906E-01  0.2599224062904E+00
-0.3900686396200E-01 -0.1446451473892E+00 -0.3673040281756E-01  0.2782005242848E+00
-0.4183237314915E-01 -0.2025252417330E+00 -0.4887152370468E-01  0.2975172144764E+00
-0.4487068691776E-01 -0.2632900361551E+00 -0.6163214553296E-01  0.3178382143963E+00
-0.4813763992679E-01 -0.3267299230315E+00 -0.7497351370885E-01  0.3390313967147E+00
-0.5165799652872E-01 -0.3924550913843E+00 -0.8882261890617E-01  0.3608159495382E+00
-0.5540394925271E-01 -0.4598079922701E+00 -0.1030423898400E+00  0.3826763127981E+00
-0.5922254911574E-01 -0.5278790954711E+00 -0.1174203306671E+00  0.4038154403526E+00
-0.6279586320095E-01 -0.5956156399413E+00 -0.1316823025907E+00  0.4231988385862E+00
-0.6563470110454E-01 -0.6618475616667E+00 -0.1454964547223E+00  0.4396079123414E+00
-0.6709049078836E-01 -0.7252335265245E+00 -0.1584648058239E+00  0.4516582538036E+00
-0.6635814413607E-01 -0.7841805081533E+00 -0.1701077329927E+00  0.4577760306856E+00
-0.6244875353608E-01 -0.8367717226418E+00 -0.1798440979155E+00  0.4561437488425E+00
-0.5412152224494E-01 -0.8807062145761E+00 -0.1869655501502E+00  0.4446177509796E+00
-0.3973977218075E-01 -0.9132435585373E+00 -0.1905966689837E+00  0.4205791681729E+00
-0.1688874094944E-01 -0.9311594438884E+00 -0.1896096397930E+00  0.3806415989183E+00
 0.1864157092640E-01 -0.9308752929826E+00 -0.1824467471299E+00  0.3200833374405E+00
 0.7516676074971E-01 -0.9094114933079E+00 -0.1668489489979E+00  0.2321397708591E+00
 0.1695789703251E+00 -0.8673019173705E+00 -0.1395445914885E+00  0.1083956479380E+00
 0.3330772999379E+00 -0.8140378285883E+00 -0.9619210716346E-01 -0.5604414362964E-01
 0.6094958156574E+00 -0.7711708434066E+00 -0.3233500603168E-01 -0.2473210034126E+00
 0.1026892380493E+01 -0.7583335343928E+00  0.5371177002039E-01 -0.4129480016482E+00
 0.1539725611050E+01 -0.7575912795047E+00  0.1564268686400E+00 -0.4719944616032E+00
 0.4603279846339E-01  0.2743448139028E+00  0.6407552342804E-01 -0.6439303368260E-01
 0.8212032165053E-02  0.2884398505819E+00  0.5933037743348E-01 -0.2227799460668E-01
-0.1986263917695E-01  0.2943917091718E+00  0.5490581481712E-01  0.5678142799744E-02
-0.3616763997803E-01  0.2914178177764E+00  0.5105003632038E-01  0.2672961440786E-01
-0.4330050385807E-01  0.2814968908917E+00  0.4763927811661E-01  0.4559638637790E-01
-0.4489114598061E-01  0.2668449814053E+00  0.4439076774640E-01  0.6406729531391E-01
-0.4372128332752E-01  0.2488306283715E+00  0.4102186962008E-01  0.8234896512518E-01
-0.4146946553959E-01  0.2280613447457E+00  0.3731837639731E-01  0.1002016094248E+00
-0.3903967902242E-01  0.2047490855478E+00  0.3314188179893E-01  0.1174283073431E+00
-0.3689429544517E-01  0.1789556729159E+00  0.2841227591752E-01  0.1339809692488E+00
-0.3526081045650E-01  0.1506987599235E+00  0.2308759023744E-01  0.1499376952302E+00
-0.3424168721633E-01  0.1199854680808E+00  0.1714875642843E-01  0.1654596786512E+00
-0.3387045779480E-01  0.8681824789427E-01  0.1058955817769E-01  0.1807551759946E+00
-0.3414039906023E-01  0.5119251319623E-01  0.3410422878020E-02  0.1960531986630E+00
-0.3501942122150E-01  0.1309372766182E-01 -0.4385138777280E-02  0.2115846439532E+00
-0.3645816368580E-01 -0.2750334729020E-01 -0.1279230238582E-01  0.2275683920215E+00
-0.3839500039646E-01 -0.7063244214998E-01 -0.2180548883422E-01  0.2442005234252E+00
-0.4076003683328E-01 -0.1163287223064E+00 -0.3141775229609E-01  0.2616448173334E+00
-0.4347951395129E-01 -0.1646188785585E+00 -0.4161967912215E-01  0.2800242880033E+00
-0.4648173246865E-01 -0.2155046721287E+00 -0.5239728170024E-01  0.2994116596898E+00
-0.4970428648973E-01 -0.2689380795392E+00 -0.6372847415541E-01  0.3198158930230E+00
-0.5310056162327E-01 -0.3247900507949E+00 -0.7557812360984E-01  0.3411621260375E+00
-0.5663782276186E-01 -0.3828121655327E+00 -0.8788999896856E-01  0.3632595864279E+00
-0.6027332026706E-01 -0.4425875065453E+00 -0.1005721668611E+00  0.3857529057335E+00
-0.6389476440973E-01 -0.5034535037967E+00 -0.1134696553321E+00  0.4080454902491E+00
-0.6725618180244E-01 -0.5645208228008E+00 -0.1263554028035E+00  0.4292586477124E+00
-0.6994527832431E-01 -0.6247791762736E+00 -0.1389448929900E+00  0.4482690407513E+00
-0.7137600645740E-01 -0.6831251306048E+00 -0.1509002296610E+00  0.4637528292395E+00
-0.7079170590188E-01 -0.7383152436967E+00 -0.1618213923310E+00  0.4741997348738E+00
-0.6725679623626E-01 -0.7888945896054E+00 -0.1712302797199E+00  0.4778908636252E+00
-0.5961682166099E-01 -0.8331355386480E+00 -0.1785504747224E+00  0.4728467596290E+00
-0.4640691755453E-01 -0.8689994166154E+00 -0.1830812695621E+00  0.4567443843865E+00
-0.2565737383840E-01 -0.8941351546334E+00 -0.1839585084356E+00  0.4267753051193E+00
 0.5575529757206E-02 -0.9059591061359E+00 -0.1800767179591E+00  0.3794045164085E+00
 0.5231025055829E-01 -0.9020156355501E+00 -0.1699410795307E+00  0.3099972804191E+00
 0.1237996077771E+00 -0.8811931940357E+00 -0.1514787195089E+00  0.2126560360526E+00
 0.2369054034518E+00 -0.8464378295869E+00 -0.1219064870436E+00  0.8163639689025E-01
 0.4187613749807E+00 -0.8083253579907E+00 -0.7791279776298E-01 -0.8292309525579E-01
 0.7013199797477E+00 -0.7845707720440E+00 -0.1665015870736E-01 -0.2629894606073E+00
 0.1096678352486E+01 -0.7864398710170E+00  0.6204769721836E-01 -0.4119225468047E+00
 0.1558971610589E+01 -0.7945753397285E+00  0.1528792564503E+00 -0.4687694411563E+00
 0.2608740000995E-01  0.1781081220786E+00  0.4083910502625E-01 -0.7028375798407E-01
-0.5388977744201E-02  0.1896532872961E+00  0.3685286245952E-01 -0.2591878675990E-01
-0.2955638008354E-01  0.1945035138593E+00  0.3298942724673E-01  0.5371969885569E-02
-0.4414748821975E-01  0.1915833188326E+00  0.2948716656197E-01  0.2942503238189E-01
-0.5074090369283E-01  0.1821880942116E+00  0.2628943849550E-01  0.5045703081118E-01
-0.5215646235647E-01  0.1681230928841E+00  0.2319332645114E-01  0.7042280722310E-01
-0.5081917800720E-01  0.1506894448000E+00  0.1997405365620E-01  0.8983786480539E-01
-0.4833605994351E-01  0.1305753807180E+00  0.1644786439999E-01  0.1086712455540E+00
-0.4564308436410E-01  0.1080814218283E+00  0.1248766767892E-01  0.1268236030028E+00
-0.4324995941766E-01  0.8332592770467E-01  0.8015193776838E-02  0.1442833440599E+00
-0.4142086749740E-01  0.5635580283353E-01  0.2986987111736E-02  0.1611407174317E+00
-0.4028137771386E-01  0.2719197863413E-01 -0.2617879854955E-02  0.1775616612792E+00
-0.3987699516698E-01 -0.4155973414846E-02 -0.8806593847594E-02  0.1937580076659E+00
-0.4020461983084E-01 -0.3768690789792E-01 -0.1557830577789E-01  0.2099628114499E+00
-0.4122953936267E-01 -0.7340805536352E-01 -0.2292751928688E-01  0.2264112524893E+00
-0.4289491217399E-01 -0.1113341971473E+00 -0.3084582232389E-01  0.2433257727364E+00
-0.4512759848425E-01 -0.1514846242115E+00 -0.3932244512509E-01  0.2609040118873E+00
-0.4784252336458E-01 -0.1938757317609E+00 -0.4834365174546E-01  0.2793077338624E+00
-0.5094699285511E-01 -0.2385109165674E+00 -0.5789158274715E-01  0.2986524413392E+00
-0.5434579920677E-01 -0.2853643950631E+00 -0.6794203986639E-01  0.3189953454293E+00
-0.5794640749896E-01 -0.3343576918937E+00 -0.7846082104769E-01  0.3403188020957E+00
-0.6166176596939E-01 -0.3853315439638E+00 -0.8939866331877E-01  0.3625073259982E+00
-0.6540376992079E-01 -0.4380133300060E+00 -0.1006834214857E+00  0.3853142626318E+00
-0.6905657760940E-01 -0.4919758731033E+00 -0.1122064918145E+00  0.4083157118254E+00
-0.7241953277920E-01 -0.5465688619454E+00 -0.1237976807897E+00  0.4308423965352E+00
-0.7515015390759E-01 -0.6009397420259E+00 -0.1352179812016E+00  0.4519436297239E+00
-0.7673712713641E-01 -0.6541366093324E+00 -0.1461747494719E+00  0.4704186437369E+00
-0.7649176094273E-01 -0.7051382635051E+00 -0.1563260072190E+00  0.4848527370120E+00
-0.7354375276505E-01 -0.7528152326890E+00 -0.1652717995536E+00  0.4936279461960E+00
-0.6682267255700E-01 -0.7958692416253E+00 -0.1725383854075E+00  0.4949030197112E+00
-0.5500517428838E-01 -0.8327868623139E+00 -0.1775584099663E+00  0.4865666639351E+00
-0.3640168757985E-01 -0.8618283894406E+00 -0.1796460180810E+00  0.4661632359651E+00
-0.8723690052193E-02 -0.8810814626646E+00 -0.1779610331952E+00  0.4307773761371E+00
 0.3143354926039E-01 -0.8886485462497E+00 -0.1714430019526E+00  0.3768750128081E+00
 0.8967704241712E-01 -0.8831654041101E+00 -0.1586976747034E+00  0.3001566165699E+00
 0.1756474305326E+00 -0.8650700588449E+00 -0.1378845277171E+00  0.1958767739052E+00
 0.3052447135029E+00 -0.8388060078226E+00 -0.1067122604541E+00  0.6086920997320E-01
 0.5010207625059E+00 -0.8147206194089E+00 -0.6273997231550E-01 -0.1009998126111E+00
 0.7851084694283E+00 -0.8065483334928E+00 -0.4287972876792E-02 -0.2700339669941E+00
 0.1159138574810E+01 -0.8195893289353E+00  0.6790985018698E-01 -0.4059877518943E+00
 0.1579634439130E+01 -0.8347253104367E+00  0.1489818279586E+00 -0.4627787762411E+00
 0.5788960148125E-02  0.8254750754631E-01  0.1766729380215E-01 -0.7502885647747E-01
-0.2001547745334E-01  0.9178682871284E-01  0.1435427046580E-01 -0.2885740100617E-01
-0.4041112392512E-01  0.9549200559238E-01  0.1101617649761E-01  0.5245749291003E-02
-0.5306894380439E-01  0.9245266781136E-01  0.7876744918766E-02  0.3199272359577E-01
-0.5884631793570E-01  0.8346715757624E-01  0.4924168001484E-02  0.5509569321161E-01
-0.5989762286062E-01  0.6997577997188E-01  0.2015631452287E-02  0.7654669345333E-01
-0.5829677817387E-01  0.5316808895282E-01 -0.1025737859496E-02  0.9707988586898E-01
-0.5554163148157E-01  0.3376571756686E-01 -0.4355182847840E-02  0.1168473353501E+00
-0.5256987500034E-01  0.1213602967262E-01 -0.8086769186048E-02  0.1358524399069E+00
-0.4992332039838E-01 -0.1154972686954E-01 -0.1229460963679E-01  0.1541305702166E+00
-0.4789686541986E-01 -0.3721214375778E-01 -0.1702180208917E-01  0.1717915838248E+00
-0.4663731188066E-01 -0.6481198207472E-01 -0.2228985912322E-01  0.1890101273451E+00
-0.4620174222845E-01 -0.9432878561444E-01 -0.2810610598739E-01  0.2060031525977E+00
-0.4659060551148E-01 -0.1257531668925E+00 -0.3446875499441E-01  0.2230078335951E+00
-0.4776631965185E-01 -0.1590838160532E+00 -0.4137002775747E-01  0.2402628742562E+00
-0.4966392398479E-01 -0.1943250022866E+00 -0.4879778598143E-01  0.2579930657147E+00
-0.5219760756806E-01 -0.2314826433430E+00 -0.5673605102765E-01  0.2763961546438E+00
-0.5526530372269E-01 -0.2705566047748E+00 -0.6516438267053E-01  0.2956303295193E+00
-0.5875273081145E-01 -0.3115306238155E+00 -0.7405667202892E-01  0.3158020385342E+00
-0.6253745461713E-01 -0.3543568229633E+00 -0.8337885675852E-01  0.3369517087179E+00
-0.6649192609879E-01 -0.3989340889806E+00 -0.9308520440296E-01  0.3590346449588E+00
-0.7048293781032E-01 -0.4450834851706E+00 -0.1031132861327E+00  0.3818959973893E+00
-0.7436141037891E-01 -0.4925212049529E+00 -0.1133765247558E+00  0.4052370626865E+00
-0.7793399630282E-01 -0.5408243166368E+00 -0.1237516644320E+00  0.4285719966585E+00
-0.8090867711485E-01 -0.5893694077459E+00 -0.1340556189697E+00  0.4511672998888E+00
-0.8284380572971E-01 -0.6373548046916E+00 -0.1440397242306E+00  0.4720098450239E+00
-0.8312552459970E-01 -0.6839007780477E+00 -0.1534052628154E+00  0.4898326721516E+00
-0.8095823725217E-01 -0.7280821634593E+00 -0.1618080825534E+00  0.5031444288784E+00
-0.7535429482357E-01 -0.7688977168793E+00 -0.1688504048566E+00  0.5102377762101E+00
-0.6510664772961E-01 -0.8052217094734E+00 -0.1740656740344E+00  0.5091728297243E+00
-0.4872471806719E-01 -0.8357745310924E+00 -0.1768998524679E+00  0.4977390692654E+00
-0.2430419736773E-01 -0.8591397942377E+00 -0.1766888009539E+00  0.4733981943721E+00
 0.1072795545205E-01 -0.8738668307001E+00 -0.1726277776220E+00  0.4332099719797E+00
 0.6013801255208E-01 -0.8787378634176E+00 -0.1637199726127E+00  0.3737730639268E+00
 0.1298758745012E+00 -0.8733633681103E+00 -0.1486975009376E+00  0.2912995481620E+00
 0.2294898471546E+00 -0.8593472828812E+00 -0.1259714890224E+00  0.1822992836430E+00
 0.3733232665156E+00 -0.8418738619366E+00 -0.9371012048059E-01  0.4585468197125E-01
 0.5793943300008E+00 -0.8303128863872E+00 -0.5018371202507E-01 -0.1116415890254E+00
 0.8620331025136E+00 -0.8347738756580E+00  0.5451845452363E-02 -0.2704500768980E+00
 0.1216186728040E+01 -0.8564341063501E+00  0.7195052541004E-01 -0.3964422800217E+00
 0.1601917858159E+01 -0.8772342604938E+00  0.1449367216928E+00 -0.4545619662348E+00
-0.1477859075586E-01 -0.1238289186604E-01 -0.5432296605328E-02 -0.7876832868158E-01
-0.3548231562978E-01 -0.5232015790926E-02 -0.8142866405480E-02 -0.3113479652180E-01
-0.5226839998999E-01 -0.2675143641367E-02 -0.1098870889002E-01  0.5346236242459E-02
-0.6285452199028E-01 -0.5960149035473E-02 -0.1376293441023E-01  0.3449138608924E-01
-0.6759458313174E-01 -0.1464475990719E-01 -0.1644786885288E-01  0.5953836921950E-01
-0.6810744928460E-01 -0.2759866322662E-01 -0.1914122278747E-01  0.8243421872897E-01
-0.6614088347071E-01 -0.4376254829288E-01 -0.2198068668026E-01  0.1040572833319E+00
-0.6306298215977E-01 -0.6241585767741E-01 -0.2509576834139E-01  0.1247116412933E+00
-0.5978932828583E-01 -0.8314560506562E-01 -0.2858698709627E-01  0.1445006308301E+00
-0.5687913230077E-01 -0.1057346816074E+00 -0.3252276326627E-01  0.1635127205976E+00
-0.5465100983082E-01 -0.1300708954974E+00 -0.3694438161615E-01  0.1818834088256E+00
-0.5327014152513E-01 -0.1560940865553E+00 -0.4187284624003E-01  0.1997998702509E+00
-0.5280412114377E-01 -0.1837702361945E+00 -0.4731487217270E-01  0.2174860211368E+00
-0.5325646173308E-01 -0.2130798024982E+00 -0.5326725364001E-01  0.2351836485374E+00
-0.5458622822519E-01 -0.2440120233077E+00 -0.5971965119647E-01  0.2531346458465E+00
-0.5671957452424E-01 -0.2765607804062E+00 -0.6665607197934E-01  0.2715653512788E+00
-0.5955679897229E-01 -0.3107197985369E+00 -0.7405532060535E-01  0.2906725865522E+00
-0.6297702153108E-01 -0.3464747407685E+00 -0.8189035368019E-01  0.3106098823108E+00
-0.6684178527232E-01 -0.3837933732102E+00 -0.9012703303949E-01  0.3314736919214E+00
-0.7099793130444E-01 -0.4226111154136E+00 -0.9872181081468E-01  0.3532871789051E+00
-0.7527850743467E-01 -0.4628116722605E+00 -0.1076180375427E+00  0.3759791262485E+00
-0.7949927073839E-01 -0.5042060828011E+00 -0.1167410724475E+00  0.3993575846041E+00
-0.8344561483465E-01 -0.5465108299309E+00 -0.1259912908305E+00  0.4230764039514E+00
-0.8684325768168E-01 -0.5893196725330E+00 -0.1352325880580E+00  0.4465947479551E+00
-0.8930659786982E-01 -0.6320484875253E+00 -0.1442710192288E+00  0.4691234085201E+00
-0.9029293666423E-01 -0.6739584127211E+00 -0.1528502721547E+00  0.4895963102754E+00
-0.8908343706484E-01 -0.7142536519398E+00 -0.1606674201951E+00  0.5066914293579E+00
-0.8477285512258E-01 -0.7521168757901E+00 -0.1673779486767E+00  0.5188548213549E+00
-0.7625447675337E-01 -0.7866870045292E+00 -0.1725882988283E+00  0.5243080439083E+00
-0.6218578169577E-01 -0.8170232512584E+00 -0.1758418092111E+00  0.5210366780343E+00
-0.4091584636926E-01 -0.8420928556873E+00 -0.1766017430429E+00  0.5067642935980E+00
-0.1034526990314E-01 -0.8608139610903E+00 -0.1742318487949E+00  0.4789191899664E+00
 0.3233359004765E-01 -0.8721957882709E+00 -0.1679724421476E+00  0.4346106736464E+00
 0.9113165866672E-01 -0.8756526183061E+00 -0.1569041942659E+00  0.3706735185817E+00
 0.1721032177927E+00 -0.8716044498174E+00 -0.1399002484896E+00  0.2839323452274E+00
 0.2843283180831E+00 -0.8624453334234E+00 -0.1156234047910E+00  0.1721195665869E+00
 0.4402778278251E+00 -0.8535367934028E+00 -0.8265179434716E-01  0.3613721367159E-01
 0.6537978230884E+00 -0.8529168423320E+00 -0.3982380444213E-01 -0.1160855113443E+00
 0.9331844561978E+00 -0.8676175425501E+00  0.1311338292495E-01 -0.2657376236381E+00
 0.1269251855514E+01 -0.8960414507837E+00  0.7464208205831E-01 -0.3841788618427E+00
 0.1625926335594E+01 -0.9215266198924E+00  0.1408799452395E+00 -0.4445155063489E+00
-0.3555105747753E-01 -0.1067221997149E+00 -0.2845465186248E-01 -0.8161842153095E-01
-0.5164135591160E-01 -0.1014681937487E+00 -0.3062191038836E-01 -0.3279443234121E-01
-0.6498964240276E-01 -0.1000391460437E+00 -0.3300575818112E-01  0.5701305337288E-02
-0.7342346658965E-01 -0.1036608703385E+00 -0.3541686791337E-01  0.3696837643120E-01
-0.7695217759698E-01 -0.1121416242724E+00 -0.3781876093743E-01  0.6381369830056E-01
-0.7677083758022E-01 -0.1246065045527E+00 -0.4027546902673E-01  0.8808981530364E-01
-0.7433572844962E-01 -0.1401289472107E+00 -0.4289293577121E-01  0.1107607814051E+00
-0.7087742616293E-01 -0.1580125942195E+00 -0.4577800475864E-01  0.1322513864880E+00
-0.6727217153416E-01 -0.1778173710142E+00 -0.4901790924009E-01  0.1527569790930E+00
-0.6408351483945E-01 -0.1992888628339E+00 -0.5267447631957E-01  0.1724214748434E+00
-0.6164648178615E-01 -0.2222839753521E+00 -0.5678609227382E-01  0.1914103592317E+00
-0.6014110273898E-01 -0.2467206417589E+00 -0.6137234981410E-01  0.2099267035515E+00
-0.5964385611949E-01 -0.2725496406394E+00 -0.6643870034178E-01  0.2282033197964E+00
-0.6016045477619E-01 -0.2997399790830E+00 -0.7198008784443E-01  0.2464873882979E+00
-0.6164589746805E-01 -0.3282708816302E+00 -0.7798335698169E-01  0.2650240062205E+00
-0.6401656303004E-01 -0.3581261625633E+00 -0.8442854637675E-01  0.2840406278158E+00
-0.6715759402912E-01 -0.3892886392867E+00 -0.9128924802347E-01  0.3037325188847E+00
-0.7092750201887E-01 -0.4217321432913E+00 -0.9853193053027E-01  0.3242479346032E+00
-0.7516119297388E-01 -0.4554121232037E+00 -0.1061146648167E+00  0.3456729676999E+00
-0.7967157657536E-01 -0.4902524926473E+00 -0.1139848155430E+00  0.3680137535797E+00
-0.8424844590607E-01 -0.5261287305385E+00 -0.1220754371080E+00  0.3911739009978E+00
-0.8865244062843E-01 -0.5628505425103E+00 -0.1303005985694E+00  0.4149274056790E+00
-0.9259980309503E-01 -0.6001447158606E+00 -0.1385489058557E+00  0.4388858197825E+00
-0.9573273763553E-01 -0.6376323119714E+00 -0.1466730121070E+00  0.4624604916855E+00
-0.9757053532422E-01 -0.6747789177533E+00 -0.1544698929173E+00  0.4848150200447E+00
-0.9746829014425E-01 -0.7109184589146E+00 -0.1616773522210E+00  0.5048398015997E+00
-0.9460078786323E-01 -0.7453488655616E+00 -0.1679899331882E+00  0.5211687530772E+00
-0.8795186891858E-01 -0.7773703122812E+00 -0.1730644388188E+00  0.5321991710483E+00
-0.7629603892807E-01 -0.8062711667134E+00 -0.1765134437585E+00  0.5360994760986E+00
-0.5815940677655E-01 -0.8313039720066E+00 -0.1778926784074E+00  0.5308044280415E+00
-0.3174245152113E-01 -0.8516888463580E+00 -0.1766862622086E+00  0.5140039643214E+00
 0.5221843797837E-02 -0.8666771161671E+00 -0.1722910570412E+00  0.4831382641036E+00
 0.5571579556364E-01 -0.8757152372444E+00 -0.1639998907799E+00  0.4354279077487E+00
 0.1238740615744E+00 -0.8787737129572E+00 -0.1509799325263E+00  0.3680143448572E+00
 0.2156455238513E+00 -0.8768995458567E+00 -0.1322508063718E+00  0.2783691524226E+00
 0.3393760285567E+00 -0.8729489755668E+00 -0.1067145909922E+00  0.1653271691745E+00
 0.5055551441121E+00 -0.8720760481212E+00 -0.7330418189414E-01  0.3116884615919E-01
 0.7243625915163E+00 -0.8808846064667E+00 -0.3130440345656E-01 -0.1153993043924E+00
 0.9995254450995E+00 -0.9039092318327E+00  0.1912324293833E-01 -0.2570219308775E+00
 0.1319412071620E+01 -0.9377414701967E+00  0.7633412142215E-01 -0.3698218886848E+00
 0.1651691368419E+01 -0.9671797704573E+00  0.1369023216323E+00 -0.4329416705937E+00
-0.5647873069532E-01 -0.2005055515713E+00 -0.5139685721919E-01 -0.8367636060884E-01
-0.6837274580847E-01 -0.1969806588154E+00 -0.5307068171559E-01 -0.3387903846570E-01
-0.7845420901588E-01 -0.1966456903225E+00 -0.5501998068755E-01  0.6326083147627E-02
-0.8469572827848E-01 -0.2006685975540E+00 -0.5707286601695E-01  0.3946116023984E-01
-0.8687804928261E-01 -0.2090296131992E+00 -0.5918153337823E-01  0.6795009243252E-01
-0.8586591675253E-01 -0.2210594101969E+00 -0.6138506630459E-01  0.9352379120510E-01
-0.8286241036203E-01 -0.2359571018132E+00 -0.6376390338519E-01  0.1171878261108E+00
-0.7896186504929E-01 -0.2530645430816E+00 -0.6640528261570E-01  0.1394588476786E+00
-0.7498990958327E-01 -0.2719295548115E+00 -0.6938389391286E-01  0.1606134844538E+00
-0.7150359823350E-01 -0.2922691848903E+00 -0.7275455770888E-01  0.1808504842952E+00
-0.6884731437751E-01 -0.3139127050598E+00 -0.7655200502817E-01  0.2003679950795E+00
-0.6721204089921E-01 -0.3367564642591E+00 -0.8079370223558E-01  0.2193877190279E+00
-0.6668108871743E-01 -0.3607353303645E+00 -0.8548328509019E-01  0.2381532147988E+00
-0.6726118076775E-01 -0.3858061584218E+00 -0.9061346918816E-01  0.2569180057769E+00
-0.6890232787612E-01 -0.4119379538380E+00 -0.9616805777583E-01  0.2759306819103E+00
-0.7151013529311E-01 -0.4391049795541E+00 -0.1021230244912E+00  0.2954197083738E+00
-0.7495330030604E-01 -0.4672805202972E+00 -0.1084467657366E+00  0.3155785358474E+00
-0.7906799258473E-01 -0.4964289466091E+00 -0.1150993895539E+00  0.3365499637671E+00
-0.8366019377321E-01 -0.5264969310681E+00 -0.1220314267867E+00  0.3584098878555E+00
-0.8850601430590E-01 -0.5574017818057E+00 -0.1291815611473E+00  0.3811482779804E+00
-0.9334869164696E-01 -0.5890171158764E+00 -0.1364731635383E+00  0.4046455891276E+00
-0.9789041186962E-01 -0.6211590155917E+00 -0.1438098876352E+00  0.4286454017631E+00
-0.1017754631132E+00 -0.6535732162663E+00 -0.1510697381270E+00  0.4527224991616E+00
-0.1045607022691E+00 -0.6859170428295E+00 -0.1580955513755E+00  0.4762477124342E+00
-0.1056694238747E+00 -0.7177144511897E+00 -0.1646767774668E+00  0.4983459135531E+00
-0.1043540496927E+00 -0.7483803385240E+00 -0.1705468801847E+00  0.5178732798489E+00
-0.9968256605372E-01 -0.7773142543611E+00 -0.1753993666966E+00  0.5334304853221E+00
-0.9052801788647E-01 -0.8039413630707E+00 -0.1788938788572E+00  0.5433795383958E+00
-0.7554831830962E-01 -0.8277059464300E+00 -0.1806508556398E+00  0.5458530524737E+00
-0.5314502215671E-01 -0.8480580933167E+00 -0.1802406257805E+00  0.5387575283565E+00
-0.2138580418583E-01 -0.8644700466538E+00 -0.1771711728080E+00  0.5197789861632E+00
 0.2213106532080E-01 -0.8765140286557E+00 -0.1708765952132E+00  0.4864083221262E+00
 0.8049837213072E-01 -0.8840354860793E+00 -0.1607074251844E+00  0.4360236982774E+00
 0.1578601589211E+00 -0.8874701061029E+00 -0.1459219916108E+00  0.3661117073756E+00
 0.2598897641050E+00 -0.8883143108482E+00 -0.1256849112215E+00  0.2747734508977E+00
 0.3940322134538E+00 -0.8896223415645E+00 -0.9911802709910E-01  0.1617793348784E+00
 0.5688273216892E+00 -0.8961014532627E+00 -0.6545482729007E-01  0.3038316066497E-01
 0.7913326598169E+00 -0.9129642312633E+00 -0.2432631465177E-01 -0.1104822252391E+00
 0.1061880395085E+01 -0.9427830008619E+00  0.2381947919951E-01 -0.2451496867247E+00
 0.1367490533229E+01 -0.9810307420328E+00  0.7729195939091E-01 -0.3538104617648E+00
 0.1679191956142E+01 -0.1013874667276E+01  0.1330634597560E+00 -0.4200786314624E+00
-0.7752273278969E-01 -0.2937656846426E+00 -0.7425768459298E-01 -0.8502394371315E-01
-0.8557850041658E-01 -0.2918236117726E+00 -0.7548042356259E-01 -0.3442893430723E-01
-0.9255714314418E-01 -0.2925424220478E+00 -0.7701991418608E-01  0.7227227786003E-02
-0.9659423335637E-01 -0.2970113997093E+00 -0.7872112778618E-01  0.4199902494010E-01
-0.9732653041486E-01 -0.3053244650432E+00 -0.8053020029162E-01  0.7197426477250E-01
-0.9536537497044E-01 -0.3169744126254E+00 -0.8246795874804E-01  0.9874997973183E-01
-0.9169881403278E-01 -0.3312738148901E+00 -0.8459452704514E-01  0.1233410069949E+00
-0.8729220743249E-01 -0.3476098994860E+00 -0.8698042267981E-01  0.1463307595138E+00
-0.8291429595280E-01 -0.3655297403659E+00 -0.8968880860021E-01  0.1680653293186E+00
-0.7910720127232E-01 -0.3847300062931E+00 -0.9276744289542E-01  0.1887955788271E+00
-0.7621825819601E-01 -0.4050163443259E+00 -0.9624692193856E-01  0.2087535094589E+00
-0.7444540921180E-01 -0.4262648150740E+00 -0.1001420463494E+00  0.2281814827369E+00
-0.7387646280902E-01 -0.4483944607594E+00 -0.1044541862702E+00  0.2473354580827E+00
-0.7451770410250E-01 -0.4713498296651E+00 -0.1091735083803E+00  0.2664763239385E+00
-0.7631305833822E-01 -0.4950898417437E+00 -0.1142805817193E+00  0.2858566571380E+00
-0.7915627149550E-01 -0.5195799097782E+00 -0.1197472380391E+00  0.3057061063852E+00
-0.8289830543744E-01 -0.5447852270354E+00 -0.1255367083652E+00  0.3262163828747E+00
-0.8735134784512E-01 -0.5706630308744E+00 -0.1316028777049E+00  0.3475250490651E+00
-0.9229038078456E-01 -0.5971545822989E+00 -0.1378889946714E+00  0.3696984406077E+00
-0.9745221510095E-01 -0.6241751125031E+00 -0.1443254676714E+00  0.3927117606418E+00
-0.1025307774152E+00 -0.6516020941427E+00 -0.1508265765591E+00  0.4164248725765E+00
-0.1071671541986E+00 -0.6792647216139E+00 -0.1572863775063E+00  0.4405550262774E+00
-0.1109316068898E+00 -0.7069350383712E+00 -0.1635733314896E+00  0.4646460167471E+00
-0.1132944726176E+00 -0.7343140930561E+00 -0.1695217156608E+00  0.4880354948371E+00
-0.1135827433339E+00 -0.7609912711298E+00 -0.1749148054992E+00  0.5098179717252E+00
-0.1109463485535E+00 -0.7864689631803E+00 -0.1794830650213E+00  0.5288245447887E+00
-0.1043469487979E+00 -0.8102544076843E+00 -0.1829202740222E+00  0.5436331814259E+00
-0.9254817119314E-01 -0.8319030794474E+00 -0.1848902528832E+00  0.5525835416467E+00
-0.7409521746448E-01 -0.8510188236658E+00 -0.1850228109831E+00  0.5537887806568E+00
-0.4727417736197E-01 -0.8672494579094E+00 -0.1829047297798E+00  0.5451478632498E+00
-0.1003865315734E-01 -0.8803125384950E+00 -0.1780702409839E+00  0.5243688586206E+00
 0.4011205719288E-01 -0.8900802278350E+00 -0.1699936366615E+00  0.4890242499492E+00
 0.1063177580509E+00 -0.8967487331078E+00 -0.1580861973671E+00  0.4366799806838E+00
 0.1926312756716E+00 -0.9011234049775E+00 -0.1416984279727E+00  0.3651782255487E+00
 0.3043227394903E+00 -0.9049911765698E+00 -0.1201336892060E+00  0.2731959106972E+00
 0.4478511899625E+00 -0.9114044085263E+00 -0.9271064509425E-01  0.1612553456235E+00
 0.6299255584552E+00 -0.9244938255122E+00 -0.5891365428928E-01  0.3323685398656E-01
 0.8550018840659E+00 -0.9481981789825E+00 -0.1863925926106E-01 -0.1020831323256E+00
 0.1120938474061E+01 -0.9835760059890E+00  0.2747249402383E-01 -0.2307658941326E+00
 0.1414124433582E+01 -0.1025499126453E+01  0.7772506258401E-01 -0.3364485754839E+00
 0.1708370447937E+01 -0.1061359603400E+01  0.1294021708356E+00 -0.4061176006005E+00
-0.9865241841392E-01 -0.3865338585942E+00 -0.9703725684760E-01 -0.8573029646221E-01
-0.1031777312304E+00 -0.3860474634634E+00 -0.9784504039676E-01 -0.3448120707217E-01
-0.1072070027761E+00 -0.3877775038103E+00 -0.9899690279244E-01  0.8405912139559E-02
-0.1090460717879E+00 -0.3927232784082E+00 -0.1003538715346E+00  0.4460472406892E-01
-0.1082494800340E+00 -0.4010492386160E+00 -0.1018597452478E+00  0.7591060137802E-01
-0.1052377387596E+00 -0.4123734366866E+00 -0.1035222366318E+00  0.1037841284060E+00
-0.1008198330380E+00 -0.4261073896040E+00 -0.1053854460988E+00  0.1292267331189E+00
-0.9584306121163E-01 -0.4416859609283E+00 -0.1075058060299E+00  0.1528676568778E+00
-0.9101694893338E-01 -0.4586635492433E+00 -0.1099361012735E+00  0.1751107178569E+00
-0.8686256032327E-01 -0.4767235511425E+00 -0.1127172239728E+00  0.1962548458044E+00
-0.8372465065808E-01 -0.4956522480517E+00 -0.1158753814686E+00  0.2165658784087E+00
-0.8180425108728E-01 -0.5153073718752E+00 -0.1194223263720E+00  0.2363081722857E+00
-0.8119118560190E-01 -0.5355928623217E+00 -0.1233568114229E+00  0.2557514760455E+00
-0.8188966877282E-01 -0.5564412838076E+00 -0.1276661924185E+00  0.2751650615126E+00
-0.8383630674618E-01 -0.5778019130429E+00 -0.1323276459297E+00  0.2948061289804E+00
-0.8691184008960E-01 -0.5996321778727E+00 -0.1373088056385E+00  0.3149059119549E+00
-0.9094822949775E-01 -0.6218906614657E+00 -0.1425677803171E+00  0.3356547503257E+00
-0.9573216182523E-01 -0.6445297133969E+00 -0.1480523772506E+00  0.3571855414092E+00
-0.1010057837074E+00 -0.6674883183636E+00 -0.1536988227045E+00  0.3795561086419E+00
-0.1064644878910E+00 -0.6906837345143E+00 -0.1594296468567E+00  0.4027287339697E+00
-0.1117506643842E+00 -0.7140023325549E+00 -0.1651506018488E+00  0.4265456772051E+00
-0.1164422893644E+00 -0.7372922027181E+00 -0.1707469009608E+00  0.4507022642762E+00
-0.1200341778360E+00 -0.7603578569519E+00 -0.1760784095814E+00  0.4747172327181E+00
-0.1219095660026E+00 -0.7829501533714E+00 -0.1809719465715E+00  0.4979023609415E+00
-0.1212993696505E+00 -0.8047295041684E+00 -0.1852057775236E+00  0.5193300123808E+00
-0.1172517957606E+00 -0.8252907711336E+00 -0.1885085161878E+00  0.5378151087938E+00
-0.1086234494787E+00 -0.8442532216792E+00 -0.1905753370714E+00  0.5519230619714E+00
-0.9407100349172E-01 -0.8613058824129E+00 -0.1910753800282E+00  0.5599834163071E+00
-0.7203222461949E-01 -0.8762131350531E+00 -0.1896490747605E+00  0.5601049204698E+00
-0.4068851379917E-01 -0.8888170619992E+00 -0.1859011179298E+00  0.5501973356314E+00
 0.2100173841137E-02 -0.8990687248888E+00 -0.1793937128827E+00  0.5280122137005E+00
 0.5889735702380E-01 -0.9071131632424E+00 -0.1696431637716E+00  0.4912258855070E+00
 0.1328311510383E+00 -0.9134442265636E+00 -0.1561226174315E+00  0.4376071401989E+00
 0.2277800014564E+00 -0.9191450097462E+00 -0.1382730037184E+00  0.3653416275228E+00
 0.3485239129518E+00 -0.9261587962135E+00 -0.1155269783738E+00  0.2736066077887E+00
 0.5005115522629E+00 -0.9373955633845E+00 -0.8737680352633E-01  0.1634940918397E+00
 0.6887901070066E+00 -0.9563513448198E+00 -0.5351224836003E-01  0.3923131270085E-01
 0.9156791594384E+00 -0.9858535376586E+00 -0.1403487585317E-01 -0.9082137155352E-01
 0.1177263787552E+01 -0.1025771629420E+01  0.3029843207780E-01 -0.2143805218768E+00
 0.1459805983380E+01 -0.1070760479436E+01  0.7780910194832E-01 -0.3179446014025E+00
 0.1739164623832E+01 -0.1109392146589E+01  0.1259544973255E+00 -0.3911966262553E+00
-0.1198434867926E+00 -0.4788403734837E+00 -0.1197367738395E+00 -0.8585400423817E-01
-0.1211030558226E+00 -0.4796995843928E+00 -0.1201605298336E+00 -0.3406936698389E-01
-0.1223238892120E+00 -0.4823987933150E+00 -0.1209445383076E+00  0.9859898049802E-02
-0.1219830151525E+00 -0.4878420611079E+00 -0.1219650170695E+00  0.4729592452396E-01
-0.1195978125396E+00 -0.4962324886523E+00 -0.1231660620737E+00  0.7978102029574E-01
-0.1154485047570E+00 -0.5072826283522E+00 -0.1245462284777E+00  0.1086428358556E+00
-0.1101977452133E+00 -0.5204879066427E+00 -0.1261371322508E+00  0.1348541734356E+00
-0.1045876244608E+00 -0.5353297570982E+00 -0.1279834782189E+00  0.1590732313437E+00
-0.9926909702825E-01 -0.5513752061535E+00 -0.1301288625754E+00  0.1817506257547E+00
-0.9473811556355E-01 -0.5683002618492E+00 -0.1326076774586E+00  0.2032286095139E+00
-0.9133229844974E-01 -0.5858760086230E+00 -0.1354416634328E+00  0.2238059318560E+00
-0.8925217350611E-01 -0.6039442094193E+00 -0.1386392786510E+00  0.2437696581178E+00
-0.8858706930022E-01 -0.6223949089057E+00 -0.1421963977601E+00  0.2634044203291E+00
-0.8933738506801E-01 -0.6411494087511E+00 -0.1460973609408E+00  0.2829888334445E+00
-0.9143108197347E-01 -0.6601480515945E+00 -0.1503158289535E+00  0.3027854460247E+00
-0.9473471807571E-01 -0.6793412815767E+00 -0.1548152022374E+00  0.3230276582349E+00
-0.9906003656588E-01 -0.6986825647107E+00 -0.1595485226328E+00  0.3439050538881E+00
-0.1041668496983E+00 -0.7181214903390E+00 -0.1644576704581E+00  0.3655467394295E+00
-0.1097628912708E+00 -0.7375976321497E+00 -0.1694721072094E+00  0.3880034198877E+00
-0.1155004033976E+00 -0.7570339196717E+00 -0.1745068672142E+00  0.4112266630255E+00
-0.1209685205381E+00 -0.7763299794043E+00 -0.1794597026626E+00  0.4350444371321E+00
-0.1256806812218E+00 -0.7953576625184E+00 -0.1842076714929E+00  0.4591347712316E+00
-0.1290554198464E+00 -0.8139589887583E+00 -0.1886028845313E+00  0.4829973442468E+00
-0.1303888200292E+00 -0.8319394469132E+00 -0.1924656562564E+00  0.5059252826211E+00
-0.1288164287654E+00 -0.8490347279333E+00 -0.1955702342540E+00  0.5269768116505E+00
-0.1232860245603E+00 -0.8649357116629E+00 -0.1976443501898E+00  0.5449592793582E+00
-0.1125511074110E+00 -0.8793764197747E+00 -0.1983855083933E+00  0.5584352046749E+00
-0.9516473855693E-01 -0.8921807386954E+00 -0.1974690983930E+00  0.5657353811800E+00
-0.6946356444196E-01 -0.9032721405299E+00 -0.1945471438933E+00  0.5649776473905E+00
-0.3353609881398E-01 -0.9126804201271E+00 -0.1892433066082E+00  0.5540981247965E+00
 0.1483045261435E-01 -0.9205745838350E+00 -0.1811488289435E+00  0.5309083582924E+00
 0.7822796928801E-01 -0.9273418692879E+00 -0.1698227825305E+00  0.4932023205145E+00
 0.1597214583872E+00 -0.9337200585968E+00 -0.1547997223486E+00  0.4389534670107E+00
 0.2629510349605E+00 -0.9409866070394E+00 -0.1356071164365E+00  0.3666625025377E+00
 0.3921536223387E+00 -0.9511343714059E+00 -0.1117961514793E+00  0.2759199211613E+00
 0.5517916716528E+00 -0.9668364158739E+00 -0.8300895008114E-01  0.1682220888522E+00
 0.7454263465265E+00 -0.9909555898819E+00 -0.4910584940281E-01  0.4791424045279E-01
 0.9736817023694E+00 -0.1025340211004E+01 -0.1033170188092E-01 -0.7719033033037E-01
 0.1231302528221E+01 -0.1069041403558E+01  0.3245222541604E-01 -0.1964353902609E+00
 0.1504919075740E+01 -0.1116330888636E+01  0.7771763857893E-01 -0.2984677896117E+00
 0.1771474203828E+01 -0.1157653632794E+01  0.1227641160362E+00 -0.3753758526754E+00
-0.1410765700417E+00 -0.5707147976377E+00 -0.1423582756572E+00 -0.8544474740448E-01
-0.1392978699330E+00 -0.5728249752462E+00 -0.1424245711581E+00 -0.3322326183007E-01
-0.1378377066136E+00 -0.5764533279784E+00 -0.1428582090472E+00  0.1158495629702E-01
-0.1353416409826E+00 -0.5824079584832E+00 -0.1435499220322E+00  0.5008643931345E-01
-0.1313225507474E+00 -0.5909068115406E+00 -0.1444458746100E+00  0.8360509213348E-01
-0.1259610933975E+00 -0.6017316392587E+00 -0.1455385486999E+00  0.1133428839025E+00
-0.1198026496970E+00 -0.6144472436603E+00 -0.1468499808597E+00  0.1402344383431E+00
-0.1134977133840E+00 -0.6285784341137E+00 -0.1484152317111E+00  0.1649537455906E+00
-0.1076414331071E+00 -0.6437079553295E+00 -0.1502698799265E+00  0.1879885071492E+00
-0.1027023557621E+00 -0.6595090885058E+00 -0.1524422911252E+00  0.2097193409226E+00
-0.9900738081259E-01 -0.6757415866905E+00 -0.1549497958095E+00  0.2304763619190E+00
-0.9675331937364E-01 -0.6922337950360E+00 -0.1577974252333E+00  0.2505695378607E+00
-0.9602656016041E-01 -0.7088634138573E+00 -0.1609779972023E+00  0.2702991864891E+00
-0.9682189717717E-01 -0.7255415189963E+00 -0.1644726856855E+00  0.2899541310077E+00
-0.9905727200662E-01 -0.7422004474557E+00 -0.1682515463996E+00  0.3098030358309E+00
-0.1025838823940E+00 -0.7587847644639E+00 -0.1722737319386E+00  0.3300821844439E+00
-0.1071921110551E+00 -0.7752442942560E+00 -0.1764872836921E+00  0.3509812200530E+00
-0.1126136867282E+00 -0.7915278446107E+00 -0.1808283089623E+00  0.3726265820657E+00
-0.1185206237343E+00 -0.8075781428090E+00 -0.1852197560687E+00  0.3950635319401E+00
-0.1245206640499E+00 -0.8233269539723E+00 -0.1895695264292E+00  0.4182354122029E+00
-0.1301484486530E+00 -0.8386908367082E+00 -0.1937678599596E+00  0.4419594469023E+00
-0.1348519861422E+00 -0.8535693882372E+00 -0.1976842778216E+00  0.4659011308099E+00
-0.1379732228165E+00 -0.8678461283090E+00 -0.2011638732227E+00  0.4895470833340E+00
-0.1387215114632E+00 -0.8813848309931E+00 -0.2040212715314E+00  0.5121788620490E+00
-0.1361381648377E+00 -0.8939994816340E+00 -0.2060275323644E+00  0.5328483134589E+00
-0.1290722767132E+00 -0.9054792079169E+00 -0.2069103000092E+00  0.5503634486742E+00
-0.1161767403543E+00 -0.9156740315700E+00 -0.2063701574600E+00  0.5632929771169E+00
-0.9590499952666E-01 -0.9245422684890E+00 -0.2040894566443E+00  0.5699793077605E+00
-0.6649954260069E-01 -0.9321629555770E+00 -0.1997325026118E+00  0.5685611310418E+00
-0.2596815714517E-01 -0.9387446203656E+00 -0.1929425583772E+00  0.5570135264276E+00
 0.2795445992088E-01 -0.9446561732662E+00 -0.1833403454010E+00  0.5332195955938E+00
 0.9785734009914E-01 -0.9504950033435E+00 -0.1705275351899E+00  0.4950969482679E+00
 0.1866999970504E+00 -0.9571916435071E+00 -0.1540983315876E+00  0.4408148358760E+00
 0.2978380918888E+00 -0.9661461471095E+00 -0.1336616130358E+00  0.3691494513090E+00
 0.4349434478723E+00 -0.9793191583221E+00 -0.1088751437123E+00  0.2800155309314E+00
 0.6015381747898E+00 -0.9990928011488E+00 -0.7951092645661E-01  0.1751649558072E+00
 0.7999052571888E+00 -0.1027718630566E+01 -0.4556267535442E-01  0.5890016708660E-01
 0.1029242937135E+01 -0.1066240482736E+01 -0.7399509230555E-02 -0.6163985393761E-01
 0.1283616446055E+01 -0.1112975176296E+01  0.3412825446035E-01 -0.1771292016426E+00
 0.1549344764691E+01 -0.1162479178992E+01  0.7737311829283E-01 -0.2786473660920E+00
 0.1806103590650E+01 -0.1203817644022E+01  0.1204571911206E+00 -0.3581604512474E+00
-0.1623362875840E+00 -0.6621840946269E+00 -0.1649040788994E+00 -0.8454266881041E-01
-0.1577121498188E+00 -0.6654553517172E+00 -0.1646335027604E+00 -0.3196864555247E-01
-0.1536841015735E+00 -0.6699688010454E+00 -0.1647305829785E+00  0.1357664363543E-01
-0.1490597344176E+00 -0.6764366850833E+00 -0.1650992863603E+00  0.5298743746927E-01
-0.1433716368267E+00 -0.6850743965103E+00 -0.1656892091364E+00  0.8740000526015E-01
-0.1367333214188E+00 -0.6957122662091E+00 -0.1664891200065E+00  0.1178999293475E+00
-0.1295982731371E+00 -0.7079710672843E+00 -0.1675138705804E+00  0.1453784119198E+00
-0.1225389091640E+00 -0.7214145891454E+00 -0.1687907021771E+00  0.1705153395099E+00
-0.1160987438576E+00 -0.7356427415199E+00 -0.1703482996139E+00  0.1938272083043E+00
-0.1107180334200E+00 -0.7503296719976E+00 -0.1722095436496E+00  0.2157281846985E+00
-0.1067102692496E+00 -0.7652273075223E+00 -0.1743875179529E+00  0.2365778338677E+00
-0.1042657407861E+00 -0.7801532239001E+00 -0.1768837955730E+00  0.2567088110456E+00
-0.1034655701248E+00 -0.7949746123343E+00 -0.1796880391694E+00  0.2764376496668E+00
-0.1042971531210E+00 -0.8095936603655E+00 -0.1827781654209E+00  0.2960641282522E+00
-0.1066670207136E+00 -0.8239358615968E+00 -0.1861205792355E+00  0.3158637991369E+00
-0.1104098623499E+00 -0.8379411398330E+00 -0.1896702032629E+00  0.3360766388340E+00
-0.1152936665261E+00 -0.8515571677650E+00 -0.1933701697397E+00  0.3568933229196E+00
-0.1210210813398E+00 -0.8647338316018E+00 -0.1971509855261E+00  0.3784389505805E+00
-0.1272274241708E+00 -0.8774193028039E+00 -0.2009293483890E+00  0.4007552435039E+00
-0.1334750390062E+00 -0.8895568923606E+00 -0.2046063893222E+00  0.4237800308048E+00
-0.1392433969943E+00 -0.9010831166804E+00 -0.2080653058353E+00  0.4473235154021E+00
-0.1439148177953E+00 -0.9119284583401E+00 -0.2111686583737E+00  0.4710435050230E+00
-0.1467550083940E+00 -0.9220209105705E+00 -0.2137551869781E+00  0.4944195225406E+00
-0.1468876560963E+00 -0.9312850265303E+00 -0.2156345397385E+00  0.5167284735617E+00
-0.1432616061385E+00 -0.9396148268203E+00 -0.2165752898190E+00  0.5370232958017E+00
-0.1346296771846E+00 -0.9468985162759E+00 -0.2163056419153E+00  0.5541204677155E+00
-0.1195473888605E+00 -0.9531017705259E+00 -0.2145298350740E+00  0.5666032866487E+00
-0.9637331906363E-01 -0.9583150623416E+00 -0.2109376794243E+00  0.5728349973396E+00
-0.6326336258268E-01 -0.9627673706196E+00 -0.2052061496983E+00  0.5709849865695E+00
-0.1815678192096E-01 -0.9668347613445E+00 -0.1969983115886E+00  0.5590767542795E+00
 0.4124533838420E-01 -0.9710661952317E+00 -0.1859641741406E+00  0.5350716039830E+00
 0.1175023506003E+00 -0.9762370703654E+00 -0.1717469465123E+00  0.4970096796567E+00
 0.2134354656582E+00 -0.9834237594911E+00 -0.1539976610613E+00  0.4432384670241E+00
 0.3320878809400E+00 -0.9940893085117E+00 -0.1324002874873E+00  0.3727632832216E+00
 0.4765656242613E+00 -0.1010103842072E+01 -0.1067076451522E+00  0.2857356468796E+00
 0.6495280905475E+00 -0.1033531419745E+01 -0.7680066698397E-01  0.1840388777311E+00
 0.8521362504549E+00 -0.1066064341730E+01 -0.4278561889260E-01  0.7180129975358E-01
 0.1082565480124E+01 -0.1108058582524E+01 -0.5098620555950E-02 -0.4452010631982E-01
 0.1334018446802E+01 -0.1157349877871E+01  0.3533371431279E-01 -0.1569654178361E+00
 0.1594603840275E+01 -0.1208380448615E+01  0.7724467948287E-01 -0.2578894195683E+00
 0.1839179821233E+01 -0.1250642303263E+01  0.1177075053481E+00 -0.3438182032183E+00
-0.1836085717134E+00 -0.7532770366903E+00 -0.1873771244729E+00 -0.8318805646197E-01
-0.1763042538416E+00 -0.7576316807880E+00 -0.1867871897093E+00 -0.3033098451210E-01
-0.1698075627022E+00 -0.7629901952338E+00 -0.1865595543671E+00  0.1582687104290E-01
-0.1630819782257E+00 -0.7699705976982E+00 -0.1866105179655E+00  0.5600506341327E-01
-0.1556972113280E+00 -0.7787729163671E+00 -0.1868940283240E+00  0.9117880270326E-01
-0.1477256316490E+00 -0.7892593295373E+00 -0.1873969950297E+00  0.1223275764877E+00
-0.1395507429703E+00 -0.8010945179134E+00 -0.1881290549801E+00  0.1502970360128E+00
-0.1316798388989E+00 -0.8138762391648E+00 -0.1891112184307E+00  0.1757658017286E+00
-0.1246098331528E+00 -0.8272217793445E+00 -0.1903663253361E+00  0.1992723127413E+00
-0.1187529062720E+00 -0.8408087774317E+00 -0.1919123396005E+00  0.2212598376012E+00
-0.1144072551870E+00 -0.8543843780084E+00 -0.1937583295263E+00  0.2421153158184E+00
-0.1117542784483E+00 -0.8677579624551E+00 -0.1959024510999E+00  0.2621935855764E+00
-0.1108676862991E+00 -0.8807881656365E+00 -0.1983311733425E+00  0.2818276947759E+00
-0.1117257414801E+00 -0.8933697833255E+00 -0.2010191079565E+00  0.3013290009179E+00
-0.1142222016559E+00 -0.9054227431621E+00 -0.2039289920024E+00  0.3209806915359E+00
-0.1181741554271E+00 -0.9168835940375E+00 -0.2070115529776E+00  0.3410272964286E+00
-0.1233262790373E+00 -0.9276992679407E+00 -0.2102051125279E+00  0.3616616002262E+00
-0.1293513361107E+00 -0.9378223845965E+00 -0.2134347473219E+00  0.3830088257946E+00
-0.1358472500415E+00 -0.9472085034970E+00 -0.2166111539355E+00  0.4051092044968E+00
-0.1423304327448E+00 -0.9558146891874E+00 -0.2196290276592E+00  0.4278978886497E+00
-0.1482249327199E+00 -0.9635997791800E+00 -0.2223649456935E+00  0.4511818480877E+00
-0.1528475658645E+00 -0.9705274725984E+00 -0.2246750110405E+00  0.4746160211333E+00
-0.1553885649129E+00 -0.9765722856551E+00 -0.2263921734871E+00  0.4976786509606E+00
-0.1548873743781E+00 -0.9817210414137E+00 -0.2273216865457E+00  0.5196486411552E+00
-0.1502024339270E+00 -0.9859484892462E+00 -0.2272301880206E+00  0.5395871087867E+00
-0.1399929531404E+00 -0.9892416552065E+00 -0.2258469250348E+00  0.5563262824665E+00
-0.1227205400121E+00 -0.9916803636065E+00 -0.2228801840449E+00  0.5684716759816E+00
-0.9665378820050E-01 -0.9934837312723E+00 -0.2180275071434E+00  0.5744153815485E+00
-0.5986938659006E-01 -0.9950238125879E+00 -0.2109786429794E+00  0.5723654150439E+00
-0.1024937378957E-01 -0.9968320253382E+00 -0.2014162828269E+00  0.5604002238901E+00
 0.5452229638205E-01 -0.9996174021317E+00 -0.1890190239665E+00  0.5365617108076E+00
 0.1369535867878E+00 -0.1004303226498E+01 -0.1734699305269E+00  0.4990059602553E+00
 0.2397042366988E+00 -0.1012070946566E+01 -0.1544733442753E+00  0.4462355960523E+00
 0.3654906911894E+00 -0.1024399717061E+01 -0.1317818071380E+00  0.3774363477058E+00
 0.5168721511654E+00 -0.1043029681619E+01 -0.1052315076588E+00  0.2929163697009E+00
 0.6957186954044E+00 -0.1069702390619E+01 -0.7479674015751E-01  0.1945871500357E+00
 0.9022653435151E+00 -0.1105604295457E+01 -0.4066779099442E-01  0.8631577699124E-01
 0.1133774111894E+01 -0.1150535814906E+01 -0.3352340652278E-02 -0.2613839423986E-01
 0.1383396386273E+01 -0.1201954591780E+01  0.3628835943919E-01 -0.1360167319552E+00
 0.1638325069398E+01 -0.1254293714422E+01  0.7680627213952E-01 -0.2369736905769E+00
 0.1883874872222E+01 -0.1297997509628E+01  0.1171754742648E+00 -0.3290656384633E+00
-0.2048851855007E+00 -0.8440248509190E+00 -0.2097820104099E+00 -0.8140888667891E-01
-0.1950416949024E+00 -0.8494043708403E+00 -0.2088892162612E+00 -0.2832871013866E-01
-0.1861630395831E+00 -0.8555797342649E+00 -0.2083485578742E+00  0.1833249798155E-01
-0.1773622212713E+00 -0.8630782039151E+00 -0.2080880881380E+00  0.5914914877512E-01
-0.1682585728207E+00 -0.8720748845062E+00 -0.2080666945658E+00  0.9495871628906E-01
-0.1589042194608E+00 -0.8824502040490E+00 -0.2082708878054E+00  0.1266451195742E+00
-0.1496314988635E+00 -0.8939020452520E+00 -0.2087067119331E+00  0.1550085522409E+00
-0.1408947027375E+00 -0.9060568905598E+00 -0.2093903217796E+00  0.1807214423438E+00
-0.1331496537872E+00 -0.9185487118166E+00 -0.2103396762551E+00  0.2043386816947E+00
-0.1267815175783E+00 -0.9310604211173E+00 -0.2115683908917E+00  0.2263286949326E+00
-0.1220720217107E+00 -0.9433369188580E+00 -0.2130817912889E+00  0.2471037144121E+00
-0.1191917513308E+00 -0.9551817706957E+00 -0.2148747076072E+00  0.2670400691533E+00
-0.1182050920023E+00 -0.9664469877505E+00 -0.2169304191831E+00  0.2864874324845E+00
-0.1190795505982E+00 -0.9770215034656E+00 -0.2192202140794E+00  0.3057692437055E+00
-0.1216948194825E+00 -0.9868209624029E+00 -0.2217031596807E+00  0.3251770270967E+00
-0.1258493744074E+00 -0.9957797378845E+00 -0.2243258258011E+00  0.3449607423126E+00
-0.1312637812388E+00 -0.1003845267206E+01 -0.2270218130718E+00  0.3653164201961E+00
-0.1375802898423E+00 -0.1010974280113E+01 -0.2297109174140E+00  0.3863709562523E+00
-0.1443589640958E+00 -0.1017131264470E+01 -0.2322980491748E+00  0.4081652283901E+00
-0.1510700270463E+00 -0.1022288713010E+01 -0.2346717515081E+00  0.4306346101550E+00
-0.1570821479097E+00 -0.1026429492549E+01 -0.2367023316188E+00  0.4535866313211E+00
-0.1616470965643E+00 -0.1029552096737E+01 -0.2382398422103E+00  0.4766781006142E+00
-0.1638806007345E+00 -0.1031678800308E+01 -0.2391118837716E+00  0.4993916229375E+00
-0.1627393873856E+00 -0.1032859355837E+01 -0.2391197522077E+00  0.5210144730619E+00
-0.1569935454609E+00 -0.1033149136362E+01 -0.2380285399114E+00  0.5406226639410E+00
-0.1452112382789E+00 -0.1032632979303E+01 -0.2355688470266E+00  0.5570709681152E+00
-0.1257634148262E+00 -0.1031502631734E+01 -0.2314532127609E+00  0.5689940368152E+00
-0.9683316126641E-01 -0.1030101691463E+01 -0.2253869739044E+00  0.5748197285705E+00
-0.5642453657391E-01 -0.1028937983285E+01 -0.2170725072065E+00  0.5728009352335E+00
-0.2372042139533E-02 -0.1028686183814E+01 -0.2062116482634E+00  0.5610750946670E+00
 0.6764406149256E-01 -0.1030196680748E+01 -0.1925105267197E+00  0.5377637478283E+00
 0.1560640642772E+00 -0.1034514013242E+01 -0.1756899924109E+00  0.5011284605728E+00
 0.2653713640702E+00 -0.1042891137110E+01 -0.1555039569252E+00  0.4498009260159E+00
 0.3979532104660E+00 -0.1056788207693E+01 -0.1317670014088E+00  0.3830994280877E+00
 0.5558480800628E+00 -0.1077791914847E+01 -0.1043887685124E+00  0.3014177625623E+00
 0.7402235033336E+00 -0.1107328768955E+01 -0.7342105421844E-01  0.2066120117429E+00
 0.9505088167025E+00 -0.1146140811138E+01 -0.3912639947007E-01  0.1022315794063E+00
 0.1183356618565E+01 -0.1193567396383E+01 -0.2042155593901E-02 -0.6672787334836E-02
 0.1431542366619E+01 -0.1246841557755E+01  0.3694016232333E-01 -0.1143072203801E+00
 0.1683656242868E+01 -0.1300336133688E+01  0.7666402297831E-01 -0.2161200164538E+00
 0.1927045198360E+01 -0.1347438145777E+01  0.1159214122439E+00 -0.3113748749161E+00
-0.2261583041436E+00 -0.9344560155419E+00 -0.2321228673960E+00 -0.7923039082033E-01
-0.2138940002002E+00 -0.9408112604704E+00 -0.2309410555754E+00 -0.2597853534861E-01
-0.2027072188196E+00 -0.9477798826309E+00 -0.2300974237188E+00  0.2108906618302E-01
-0.1918539159525E+00 -0.9558016420878E+00 -0.2295311150283E+00  0.6242623304137E-01
-0.1810121521128E+00 -0.9650198739025E+00 -0.2292064086185E+00  0.9875282110735E-01
-0.1702304702704E+00 -0.9753222671878E+00 -0.2291105509057E+00  0.1308676344225E+00
-0.1598060913707E+00 -0.9864305825081E+00 -0.2292473381918E+00  0.1595271170942E+00
-0.1501514093428E+00 -0.9979948801491E+00 -0.2296292613201E+00  0.1853944368318E+00
-0.1416868133649E+00 -0.1009664568238E+01 -0.2302702797519E+00  0.2090367233533E+00
-0.1347720947197E+00 -0.1021128988301E+01 -0.2311802200489E+00  0.2309441925685E+00
-0.1296718991075E+00 -0.1032132924681E+01 -0.2323609682202E+00  0.2515523979375E+00
-0.1265444609776E+00 -0.1042476339094E+01 -0.2338041634984E+00  0.2712583618304E+00
-0.1254431457102E+00 -0.1052006542450E+01 -0.2354899411411E+00  0.2904283422113E+00
-0.1263231978771E+00 -0.1060608185120E+01 -0.2373862801367E+00  0.3093982430536E+00
-0.1290490349098E+00 -0.1068193946011E+01 -0.2394485997522E+00  0.3284685611966E+00
-0.1333996053384E+00 -0.1074697194798E+01 -0.2416193636277E+00  0.3478955481223E+00
-0.1390707104813E+00 -0.1080067002449E+01 -0.2438275462194E+00  0.3678796421796E+00
-0.1456736643217E+00 -0.1084265358926E+01 -0.2459878083151E+00  0.3885510068198E+00
-0.1527304807589E+00 -0.1087266873510E+01 -0.2479994745492E+00  0.4099533517274E+00
-0.1596652719258E+00 -0.1089060667989E+01 -0.2497451917045E+00  0.4320251959653E+00
-0.1657917431371E+00 -0.1089654751144E+01 -0.2510893025978E+00  0.4545784008123E+00
-0.1702974511741E+00 -0.1089083289054E+01 -0.2518761517988E+00  0.4772762945311E+00
-0.1722249288542E+00 -0.1087416772577E+01 -0.2519283440402E+00  0.4996113114948E+00
-0.1704499873810E+00 -0.1084767719806E+01 -0.2510435451782E+00  0.5208852063652E+00
-0.1636566161704E+00 -0.1081271190124E+01 -0.2489855649691E+00  0.5401952452663E+00
-0.1503246044298E+00 -0.1077107998050E+01 -0.2454865241540E+00  0.5564250544194E+00
-0.1287374814054E+00 -0.1072578777568E+01 -0.2402632553748E+00  0.5682446408758E+00
-0.9699705046668E-01 -0.1068146709263E+01 -0.2330287554183E+00  0.5741234816303E+00
-0.5304058927837E-01 -0.1064447590236E+01 -0.2234976392332E+00  0.5723639922838E+00
 0.5336845802514E-02 -0.1062287354804E+01 -0.2113901049502E+00  0.5611643792824E+00
 0.8044830833762E-01 -0.1062640308273E+01 -0.1964384029142E+00  0.5387219670566E+00
 0.1746552791428E+00 -0.1066649004547E+01 -0.1783987477391E+00  0.5033903234441E+00
 0.2902578029626E+00 -0.1075610801293E+01 -0.1570706020067E+00  0.4539023266653E+00
 0.4293202507588E+00 -0.1090941881676E+01 -0.1323243281553E+00  0.3896629990496E+00
 0.5933967024378E+00 -0.1114063669786E+01 -0.1041333950213E+00  0.3110890943409E+00
 0.7830271408340E+00 -0.1146106078503E+01 -0.7261578861586E-01  0.2199172580695E+00
 0.9969815651170E+00 -0.1187421075812E+01 -0.3808790270653E-01  0.1193331098075E+00
 0.1231389884626E+01 -0.1236995662227E+01 -0.1121155536880E-02  0.1373802635487E-01
 0.1479009386065E+01 -0.1291852865035E+01  0.3743130476380E-01 -0.9207161439916E-01
 0.1729390340314E+01 -0.1346930663189E+01  0.7649193656473E-01 -0.1945043765933E+00
 0.1970890831335E+01 -0.1396581536569E+01  0.1148618606648E+00 -0.2924169922414E+00
-0.2474217235562E+00 -0.1024598591276E+01 -0.2544040667573E+00 -0.7667353511342E-01
-0.2328346094952E+00 -0.1031889073056E+01 -0.2529447402793E+00 -0.2329440185526E-01
-0.2194011487114E+00 -0.1039631892866E+01 -0.2518066120677E+00  0.2409299510504E-01
-0.2065138660240E+00 -0.1048182623175E+01 -0.2509393015791E+00  0.6584232535355E-01
-0.1939160915417E+00 -0.1057647832179E+01 -0.2503127884741E+00  0.1025733053188E+00
-0.1816661263482E+00 -0.1067913646189E+01 -0.2499159582316E+00  0.1350096985563E+00
-0.1700396919609E+00 -0.1078717666244E+01 -0.2497514753625E+00  0.1638670508483E+00
-0.1594173167133E+00 -0.1089728666154E+01 -0.2498292002961E+00  0.1897977019442E+00
-0.1501895354155E+00 -0.1100609917617E+01 -0.2501598943342E+00  0.2133779531567E+00
-0.1426927795104E+00 -0.1111057878778E+01 -0.2507501353941E+00  0.2351170563408E+00
-0.1371744387197E+00 -0.1120818992444E+01 -0.2515986899818E+00  0.2554721053260E+00
-0.1337791951230E+00 -0.1129691651806E+01 -0.2526941731512E+00  0.2748599828509E+00
-0.1325479099647E+00 -0.1137520345295E+01 -0.2540136548371E+00  0.2936633761198E+00
-0.1334221883237E+00 -0.1144187029080E+01 -0.2555218472882E+00  0.3122309233864E+00
-0.1362500628144E+00 -0.1149602734435E+01 -0.2571705632821E+00  0.3308726493538E+00
-0.1407901533810E+00 -0.1153700946261E+01 -0.2588982237862E+00  0.3498519162962E+00
-0.1467129972796E+00 -0.1156433362285E+01 -0.2606292757966E+00  0.3693747182223E+00
-0.1535987619470E+00 -0.1157768147053E+01 -0.2622733857082E+00  0.3895760847209E+00
-0.1609314921766E+00 -0.1157690877156E+01 -0.2637244777963E+00  0.4105047434603E+00
-0.1680895889496E+00 -0.1156208042844E+01 -0.2648595303054E+00  0.4321052614466E+00
-0.1743325592675E+00 -0.1153353338528E+01 -0.2655371835159E+00  0.4541975371215E+00
-0.1787849263828E+00 -0.1149196821927E+01 -0.2655963536197E+00  0.4764559404126E+00
-0.1804176462322E+00 -0.1143856935371E+01 -0.2648549202673E+00  0.4983880037001E+00
-0.1780276543904E+00 -0.1137508044847E+01 -0.2631071437682E+00  0.5193157913855E+00
-0.1702152384166E+00 -0.1130363212773E+01 -0.2601156941139E+00  0.5383638163564E+00
-0.1553745201882E+00 -0.1122696684350E+01 -0.2556142447166E+00  0.5544503914909E+00
-0.1317047190081E+00 -0.1114914291849E+01 -0.2493238058867E+00  0.5662864265651E+00
-0.9723015769127E-01 -0.1107593392425E+01 -0.2409647136138E+00  0.5723878851511E+00
-0.4982623274261E-01 -0.1101489786572E+01 -0.2302632072941E+00  0.5711099398844E+00
 0.1274518624779E-01 -0.1097529177820E+01 -0.2169568015474E+00  0.5607114472047E+00
 0.9278325643575E-01 -0.1096794093528E+01 -0.2008021704107E+00  0.5394594346842E+00
 0.1925644895884E+00 -0.1100505525784E+01 -0.1815882099450E+00  0.5057840114051E+00
 0.3142051430039E+00 -0.1109984346980E+01 -0.1591558431668E+00  0.4584909499097E+00
 0.4594607483167E+00 -0.1126586291000E+01 -0.1334251105249E+00  0.3970291553970E+00
 0.6294399861547E+00 -0.1151565327201E+01 -0.1044250697653E+00  0.3217850366667E+00
 0.8241333942471E+00 -0.1185777119917E+01 -0.7232874621177E-01  0.2343235909946E+00
 0.1041754842953E+01 -0.1229242435890E+01 -0.3749751914613E-01  0.1374494875030E+00
 0.1278050435659E+01 -0.1280657012402E+01 -0.5213153562901E-03  0.3493271670758E-01
 0.1525848272611E+01 -0.1336990357818E+01  0.3777158352158E-01 -0.6926243818489E-01
 0.1775387688856E+01 -0.1393626217822E+01  0.7635229534450E-01 -0.1721747122272E+00
 0.2015616363302E+01 -0.1445372453579E+01  0.1140487836440E+00 -0.2725435031632E+00
-0.2686705731581E+00 -0.1114480274573E+01 -0.2766301736684E+00 -0.7375546471473E-01
-0.2518402134284E+00 -0.1122673441579E+01 -0.2749027350979E+00 -0.2028764684584E-01
-0.2362096188037E+00 -0.1131175888148E+01 -0.2734771054655E+00  0.2734170895295E-01
-0.2213018720365E+00 -0.1140262276063E+01 -0.2723128336777E+00  0.6940322104416E-01
-0.2069302305104E+00 -0.1149998792108E+01 -0.2713858085677E+00  0.1064317022968E+00
-0.1931734598885E+00 -0.1160262911829E+01 -0.2706872783770E+00  0.1390854453297E+00
-0.1802973082822E+00 -0.1170801216909E+01 -0.2702197090648E+00  0.1680427298515E+00
-0.1686594001426E+00 -0.1181296722576E+01 -0.2699912285669E+00  0.1939447053901E+00
-0.1586257606668E+00 -0.1191424849199E+01 -0.2700101259967E+00  0.2173747924664E+00
-0.1505116800170E+00 -0.1200889528281E+01 -0.2702802456872E+00  0.2388591286559E+00
-0.1445474406248E+00 -0.1209440347056E+01 -0.2707975615714E+00  0.2588748100091E+00
-0.1408632493733E+00 -0.1216875997119E+01 -0.2715478533449E+00  0.2778577644291E+00
-0.1394861744493E+00 -0.1223039955006E+01 -0.2725052299517E+00  0.2962068698244E+00
-0.1403429373509E+00 -0.1227813051404E+01 -0.2736312018284E+00  0.3142836619178E+00
-0.1432641867715E+00 -0.1231105961028E+01 -0.2748740336559E+00  0.3324081556095E+00
-0.1479875368682E+00 -0.1232853328403E+01 -0.2761681771695E+00  0.3508515742320E+00
-0.1541579236989E+00 -0.1233010321655E+01 -0.2774336532049E+00  0.3698265679960E+00
-0.1613243711360E+00 -0.1231551952366E+01 -0.2785752688516E+00  0.3894745934605E+00
-0.1689333022188E+00 -0.1228475266638E+01 -0.2794817179360E+00  0.4098515401188E+00
-0.1763181157223E+00 -0.1223804415877E+01 -0.2800245104926E+00  0.4309108603182E+00
-0.1826852163450E+00 -0.1217598782222E+01 -0.2800568038865E+00  0.4524840904626E+00
-0.1870975949596E+00 -0.1209963915733E+01 -0.2794123063021E+00  0.4742610064104E+00
-0.1884565278127E+00 -0.1201065275874E+01 -0.2779043648785E+00  0.4957692877540E+00
-0.1854823195512E+00 -0.1191137470765E+01 -0.2753239621659E+00  0.5163568514710E+00
-0.1766940555374E+00 -0.1180469217595E+01 -0.2714326586712E+00  0.5351810917798E+00
-0.1604028660237E+00 -0.1169425038788E+01 -0.2659655849255E+00  0.5512003860820E+00
-0.1347265415952E+00 -0.1158511768264E+01 -0.2586476658260E+00  0.5631714751836E+00
-0.9761516649205E-01 -0.1148415227822E+01 -0.2492060825763E+00  0.5696608060009E+00
-0.4688604203272E-01 -0.1140003352097E+01 -0.2373778823631E+00  0.5690783458751E+00
 0.1972786253597E-01 -0.1134310961569E+01 -0.2229166231284E+00  0.5597419787912E+00
 0.1045077748337E+00 -0.1132515141187E+01 -0.2056014763345E+00  0.5399807633497E+00
 0.2096436323164E+00 -0.1135899481658E+01 -0.1852511726288E+00  0.5082848250409E+00
 0.3370732190446E+00 -0.1145793151110E+01 -0.1617439888233E+00  0.4635050812253E+00
 0.4882623913487E+00 -0.1163482217083E+01 -0.1350439671592E+00  0.4050953432430E+00
 0.6639164907332E+00 -0.1190057430252E+01 -0.1052281894718E+00  0.3333660446875E+00
 0.8635462387806E+00 -0.1226126985786E+01 -0.7251615048165E-01  0.2496724199770E+00
 0.1084903010693E+01 -0.1271428400505E+01 -0.3730507851813E-01  0.1564266149287E+00
 0.1323448518381E+01 -0.1324437256611E+01 -0.1977476489745E-03  0.5680981351454E-01
 0.1572100332312E+01 -0.1382127632165E+01  0.3799454059566E-01 -0.4589933853260E-01
 0.1821592105269E+01 -0.1440192973865E+01  0.7627982741740E-01 -0.1492177195557E+00
 0.2061350901538E+01 -0.1493713656988E+01  0.1135274506017E+00 -0.2519527807250E+00
-0.2899010763111E+00 -0.1204128397807E+01 -0.2988058992761E+00 -0.7048989018626E-01
-0.2708902160021E+00 -0.1213198976810E+01 -0.2968178429853E+00 -0.1696716206736E-01
-0.2531006219792E+00 -0.1222450892504E+01 -0.2951103072941E+00  0.3083373247818E-01
-0.2361804029653E+00 -0.1232081032138E+01 -0.2936522913964E+00  0.7311473963197E-01
-0.2200160391710E+00 -0.1242112618829E+01 -0.2924257359575E+00  0.1103390927014E+00
-0.2047153818004E+00 -0.1252408787600E+01 -0.2914248382226E+00  0.1431086277095E+00
-0.1905439494272E+00 -0.1262719291251E+01 -0.2906526524666E+00  0.1720685137553E+00
-0.1778443967539E+00 -0.1272737367718E+01 -0.2901163572175E+00  0.1978493103759E+00
-0.1669632443325E+00 -0.1282148864728E+01 -0.2898224261307E+00  0.2210403891196E+00
-0.1581969272165E+00 -0.1290665333394E+01 -0.2897724564400E+00  0.2421832023622E+00
-0.1517589867388E+00 -0.1298040770364E+01 -0.2899599557413E+00  0.2617735809949E+00
-0.1477644507491E+00 -0.1304075883918E+01 -0.2903680712602E+00  0.2802657385076E+00
-0.1462254760994E+00 -0.1308614873328E+01 -0.2909680742212E+00  0.2980744464637E+00
-0.1470527859551E+00 -0.1311538972152E+01 -0.2917183559683E+00  0.3155742003401E+00
-0.1500587619945E+00 -0.1312759741545E+01 -0.2925637050674E+00  0.3330953633956E+00
-0.1549594666324E+00 -0.1312213938621E+01 -0.2934346854232E+00  0.3509176781426E+00
-0.1613740648834E+00 -0.1309860885490E+01 -0.2942469944594E+00  0.3692614721500E+00
-0.1688206540551E+00 -0.1305682868467E+01 -0.2949007088988E+00  0.3882761153790E+00
-0.1767086436928E+00 -0.1299688567925E+01 -0.2952794467237E+00  0.4080267211513E+00
-0.1843274365473E+00 -0.1291919659093E+01 -0.2952494235276E+00  0.4284783608581E+00
-0.1908317439028E+00 -0.1282460700123E+01 -0.2946584931958E+00  0.4494776706365E+00
-0.1952248255119E+00 -0.1271451754340E+01 -0.2933353203415E+00  0.4707340125211E+00
-0.1963404300342E+00 -0.1259103743605E+01 -0.2910888390654E+00  0.4918000277648E+00
-0.1928246520516E+00 -0.1245709284818E+01 -0.2877067916611E+00  0.5120547392312E+00
-0.1831179391321E+00 -0.1231629811073E+01 -0.2829495542573E+00  0.5306937108888E+00
-0.1654510203795E+00 -0.1217316456665E+01 -0.2765534995299E+00  0.5467203416154E+00
-0.1378628314447E+00 -0.1203372480472E+01 -0.2682470663805E+00  0.5589415837538E+00
-0.9823179595847E-01 -0.1190586322805E+01 -0.2577636275936E+00  0.5659776279160E+00
-0.4431968316197E-01 -0.1179930497860E+01 -0.2448500398529E+00  0.5662943180865E+00
 0.2616718559672E-01 -0.1172539354482E+01 -0.2292744371936E+00  0.5582658323201E+00
 0.1154911419308E+00 -0.1169673055520E+01 -0.2108363858595E+00  0.5402745841369E+00
 0.2257580878104E+00 -0.1172665574254E+01 -0.1893815001107E+00  0.5108538583903E+00
 0.3587373176579E+00 -0.1182844252697E+01 -0.1648213894638E+00  0.4688732767457E+00
 0.5156281375336E+00 -0.1201422056058E+01 -0.1371587857486E+00  0.4137565095577E+00
 0.6967747756328E+00 -0.1229335818612E+01 -0.1065122101830E+00  0.3456999738258E+00
 0.9012716126246E+00 -0.1266973160937E+01 -0.7314031075243E-01  0.2658201955816E+00
 0.1126486107066E+01 -0.1313832868245E+01 -0.3746935279405E-01  0.1761345283392E+00
 0.1367662364433E+01 -0.1368223977471E+01 -0.1123226092413E-03  0.7928445638294E-01
 0.1617798091037E+01 -0.1427137843768E+01  0.3813205002199E-01 -0.2202780185243E-01
 0.1867997607554E+01 -0.1486479237877E+01  0.7630367507242E-01 -0.1257220392033E+00
 0.2108123839433E+01 -0.1541540164140E+01  0.1133167367472E+00 -0.2307551457034E+00
-0.3111103512382E+00 -0.1293569917957E+01 -0.3209360586214E+00 -0.6688742393973E-01
-0.2899662915331E+00 -0.1303499335995E+01 -0.3186931302545E+00 -0.1333954819031E-01
-0.2700448909883E+00 -0.1313494867381E+01 -0.3167079563932E+00  0.3456874737427E-01
-0.2511142896788E+00 -0.1323678549961E+01 -0.3149585726212E+00  0.7698290139244E-01
-0.2331365214589E+00 -0.1334028821477E+01 -0.3134330732578E+00  0.1143062664197E+00
-0.2162555001923E+00 -0.1344389913596E+01 -0.3121290874087E+00  0.1470926767766E+00
-0.2007447503076E+00 -0.1354509865721E+01 -0.3110509278407E+00  0.1759586890725E+00
-0.1869389288598E+00 -0.1364088599781E+01 -0.3102055103506E+00  0.2015256409908E+00
-0.1751696496467E+00 -0.1372820764178E+01 -0.3095980873783E+00  0.2243884515728E+00
-0.1657167376286E+00 -0.1380425567152E+01 -0.3092284655639E+00  0.2451028580329E+00
-0.1587774828771E+00 -0.1386662525098E+01 -0.3090880062008E+00  0.2641824396756E+00
-0.1544511891708E+00 -0.1391335960246E+01 -0.3091574344901E+00  0.2820990158368E+00
-0.1527341245756E+00 -0.1394292454281E+01 -0.3094053203817E+00  0.2992829135666E+00
-0.1535200185495E+00 -0.1395415119696E+01 -0.3097870322653E+00  0.3161215526451E+00
-0.1566022187697E+00 -0.1394617583987E+01 -0.3102439651743E+00  0.3329558879065E+00
-0.1616748245175E+00 -0.1391839565833E+01 -0.3107028827000E+00  0.3500747253581E+00
-0.1683312295205E+00 -0.1387045057767E+01 -0.3110752620929E+00  0.3677069824328E+00
-0.1760590343314E+00 -0.1380223803891E+01 -0.3112565722826E+00  0.3860113205665E+00
-0.1842314981200E+00 -0.1371395954847E+01 -0.3111254952296E+00  0.4050640212335E+00
-0.1920953199210E+00 -0.1360620160432E+01 -0.3105431006981E+00  0.4248443702396E+00
-0.1987552240797E+00 -0.1348005157118E+01 -0.3093520808492E+00  0.4452173961521E+00
-0.2031568226624E+00 -0.1333723999699E+01 -0.3073761690526E+00  0.4659160212220E+00
-0.2040687241340E+00 -0.1318030943149E+01 -0.3044199379929E+00  0.4865224166291E+00
-0.2000653876316E+00 -0.1301273807376E+01 -0.3002678434758E+00  0.5064516772437E+00
-0.1895112232762E+00 -0.1283883278362E+01 -0.2946789047187E+00  0.5249424988928E+00
-0.1705590233930E+00 -0.1266393008185E+01 -0.2873904105981E+00  0.5410478823877E+00
-0.1411710777770E+00 -0.1249497832010E+01 -0.2781337861018E+00  0.5536289087741E+00
-0.9915599435573E-01 -0.1234082966125E+01 -0.2666477960695E+00  0.5613621861823E+00
-0.4222129197798E-01 -0.1221218423186E+01 -0.2526879467981E+00  0.5627698096475E+00
 0.3195312925401E-01 -0.1212129698327E+01 -0.2360353173318E+00  0.5562787867702E+00
 0.1256126400471E+00 -0.1208150774015E+01 -0.2165076300198E+00  0.5403157223961E+00
 0.2407853112938E+00 -0.1210657206871E+01 -0.1939743820059E+00  0.5134404746577E+00
 0.3790857731777E+00 -0.1220968819938E+01 -0.1683766118611E+00  0.4745166800824E+00
 0.5414725378652E+00 -0.1240226741668E+01 -0.1397508428429E+00  0.4229068189589E+00
 0.7279701296321E+00 -0.1269226402454E+01 -0.1082512561774E+00  0.3586616189625E+00
 0.9373135445282E+00 -0.1308161408291E+01 -0.7416957385779E-01  0.2826373754427E+00
 0.1166549780585E+01 -0.1356330485795E+01 -0.3795614160757E-01  0.1964608439011E+00
 0.1410748898676E+01 -0.1411912188768E+01 -0.2326580218653E-03  0.1022794179735E+00
 0.1662971260554E+01 -0.1471910773339E+01  0.3821209801241E-01  0.2297163194114E-02
 0.1914609078179E+01 -0.1532379501522E+01  0.7644591647055E-01 -0.1017617926187E+00
 0.2155927606384E+01 -0.1588795148233E+01  0.1134264933203E+00 -0.2090249729459E+00
-0.3322962520254E+00 -0.1382831406775E+01 -0.3430255368715E+00 -0.6295585764725E-01
-0.3090520203873E+00 -0.1393607292833E+01 -0.3405318677184E+00 -0.9409252753301E-02
-0.2870155031298E+00 -0.1404344766936E+01 -0.3382720590538E+00  0.3854762683326E-01
-0.2660704450062E+00 -0.1415093687700E+01 -0.3362328315514E+00  0.8101406537687E-01
-0.2462561034383E+00 -0.1425786435702E+01 -0.3344085128112E+00  0.1183438583782E+00
-0.2277581450412E+00 -0.1436244682802E+01 -0.3328005705278E+00  0.1510507597827E+00
-0.2108650660364E+00 -0.1446210679329E+01 -0.3314151540116E+00  0.1797274313975E+00
-0.1959096118769E+00 -0.1455387977113E+01 -0.3302595227192E+00  0.2049879724431E+00
-0.1832126404179E+00 -0.1463478567524E+01 -0.3293382464959E+00  0.2274331043560E+00
-0.1730394842976E+00 -0.1470209330237E+01 -0.3286497678042E+00  0.2476323153607E+00
-0.1655717130259E+00 -0.1475346319931E+01 -0.3281836114816E+00  0.2661162245307E+00
-0.1608924613667E+00 -0.1478698981309E+01 -0.3279182934215E+00  0.2833736696640E+00
-0.1589812386758E+00 -0.1480117871598E+01 -0.3278198269397E+00  0.2998501642960E+00
-0.1597138899272E+00 -0.1479489401043E+01 -0.3278406630793E+00  0.3159459195357E+00
-0.1628640736640E+00 -0.1476730370729E+01 -0.3279188937650E+00  0.3320125990956E+00
-0.1681036491758E+00 -0.1471784197507E+01 -0.3279775742237E+00  0.3483484827055E+00
-0.1750004082353E+00 -0.1464619889816E+01 -0.3279240644968E+00  0.3651918545487E+00
-0.1830120946871E+00 -0.1455234590793E+01 -0.3276493419783E+00  0.3827119062111E+00
-0.1914769289400E+00 -0.1443659439296E+01 -0.3270272785203E+00  0.4009978814967E+00
-0.1996004745175E+00 -0.1429969117772E+01 -0.3259139233143E+00  0.4200457066390E+00
-0.2064394597656E+00 -0.1414295084975E+01 -0.3241469137783E+00  0.4397418997736E+00
-0.2108842001448E+00 -0.1396841357998E+01 -0.3215451164200E+00  0.4598466923525E+00
-0.2116407716532E+00 -0.1377902863416E+01 -0.3179087317510E+00  0.4799760994472E+00
-0.2072147103489E+00 -0.1357879295373E+01 -0.3130188058087E+00  0.4995859731448E+00
-0.1958970056667E+00 -0.1337266663324E+01 -0.3066327383673E+00  0.5179628022593E+00
-0.1757648247416E+00 -0.1316676683973E+01 -0.2984883061907E+00  0.5342134456299E+00
-0.1447056207819E+00 -0.1296890734602E+01 -0.2883192753730E+00  0.5472566607373E+00
-0.1004592616490E+00 -0.1278885071617E+01 -0.2758688707640E+00  0.5558277184719E+00
-0.4067900298829E-01 -0.1263820704319E+01 -0.2608999453491E+00  0.5585048793764E+00
 0.3698341693157E-01 -0.1253007166662E+01 -0.2432047535701E+00  0.5537641394356E+00
 0.1347610330800E+00 -0.1247845177513E+01 -0.2226168322039E+00  0.5400670936733E+00
 0.2546135051968E+00 -0.1249746211864E+01 -0.1990265442992E+00  0.5159843156775E+00
 0.3980177169680E+00 -0.1260020696093E+01 -0.1724005983940E+00  0.4803508054769E+00
 0.5657188389446E+00 -0.1279742863968E+01 -0.1428048071327E+00  0.4324405833525E+00
 0.7574616118231E+00 -0.1309581350129E+01 -0.1104239493066E+00  0.3721323459754E+00
 0.9716719552175E+00 -0.1349561130094E+01 -0.7557783610143E-01  0.3000063330965E+00
 0.1205126690883E+01 -0.1398812873666E+01 -0.3873723713392E-01  0.2173059086984E+00
 0.1452749895371E+01 -0.1455408120537E+01 -0.5316450412183E-03  0.1257228958002E+00
 0.1707645001849E+01 -0.1516355052725E+01  0.3825799039476E-01  0.2702032616567E-01
 0.1961431179798E+01 -0.1577814398250E+01  0.7672335745300E-01 -0.7739759975033E-01
 0.2204734295982E+01 -0.1635428159639E+01  0.1138612289653E+00 -0.1868188331221E+00
-0.3534572356496E+00 -0.1471939041054E+01 -0.3650792607809E+00 -0.5870040017228E-01
-0.3281325808811E+00 -0.1483554788417E+01 -0.3623374792589E+00 -0.5178697353405E-02
-0.3039875331556E+00 -0.1495036575287E+01 -0.3598048270499E+00  0.4277244702462E-01
-0.2810175986568E+00 -0.1506364467285E+01 -0.3574764185151E+00  0.8521502838614E-01
-0.2593405022841E+00 -0.1517423902923E+01 -0.3553528863365E+00  0.1224624514672E+00
-0.2391883553750E+00 -0.1528011064375E+01 -0.3534398892166E+00  0.1549958231408E+00
-0.2208705289765E+00 -0.1537859041724E+01 -0.3517459193816E+00  0.1833887679676E+00
-0.2047231353269E+00 -0.1546672439096E+01 -0.3502791201041E+00  0.2082506281648E+00
-0.1910599586316E+00 -0.1554159356738E+01 -0.3490438682752E+00  0.2301887492868E+00
-0.1801337614779E+00 -0.1560054408660E+01 -0.3480376392137E+00  0.2497862858142E+00
-0.1721108915919E+00 -0.1564131173030E+01 -0.3472484180987E+00  0.2675904529240E+00
-0.1670579136192E+00 -0.1566205671557E+01 -0.3466527222007E+00  0.2841066145979E+00
-0.1649367804932E+00 -0.1566133977434E+01 -0.3462141567444E+00  0.2997950746199E+00
-0.1656046481230E+00 -0.1563807160991E+01 -0.3458823669769E+00  0.3150686018921E+00
-0.1688149348047E+00 -0.1559146226814E+01 -0.3455922374735E+00  0.3302895487775E+00
-0.1742171146086E+00 -0.1552098909650E+01 -0.3452632099966E+00  0.3457659256214E+00
-0.1813537142172E+00 -0.1542639407686E+01 -0.3447986295184E+00  0.3617459997239E+00
-0.1896534673617E+00 -0.1530771967858E+01 -0.3440850921711E+00  0.3784105637698E+00
-0.1984209093079E+00 -0.1516537929732E+01 -0.3429917729189E+00  0.3958634385389E+00
-0.2068223029390E+00 -0.1500026694000E+01 -0.3413698044746E+00  0.4141194194901E+00
-0.2138686450927E+00 -0.1481390554704E+01 -0.3390518450116E+00  0.4330893923953E+00
-0.2183975623020E+00 -0.1460861988222E+01 -0.3358519151094E+00  0.4525644056105E+00
-0.2190554161349E+00 -0.1438773437656E+01 -0.3315657756990E+00  0.4721983720687E+00
-0.2142816606507E+00 -0.1415572662913E+01 -0.3259708695701E+00  0.4914923143741E+00
-0.2022964883850E+00 -0.1391816649280E+01 -0.3188226322839E+00  0.5097849034322E+00
-0.1811035885146E+00 -0.1368190420846E+01 -0.3098588064893E+00  0.5262408447674E+00
-0.1485169742928E+00 -0.1345556741017E+01 -0.2988147475147E+00  0.5398398494919E+00
-0.1022080748293E+00 -0.1324977345651E+01 -0.2854370883494E+00  0.5493778277591E+00
-0.3977460080693E-01 -0.1307698374616E+01 -0.2694945991003E+00  0.5534888990998E+00
 0.4116348097301E-01 -0.1295107574027E+01 -0.2507888223478E+00  0.5506941540315E+00
 0.1428339551305E+00 -0.1288667380521E+01 -0.2291666884930E+00  0.5394813194038E+00
 0.2671402873612E+00 -0.1289822346839E+01 -0.2045364149433E+00  0.5184169013125E+00
 0.4154410117671E+00 -0.1299874862737E+01 -0.1768867728298E+00  0.4862867871119E+00
 0.5882964461179E+00 -0.1319840069461E+01 -0.1463087268487E+00  0.4422527186134E+00
 0.7852095810932E+00 -0.1350275694326E+01 -0.1130132243306E+00  0.3859993889256E+00
 0.1004341294009E+01 -0.1391061697499E+01 -0.7734408185054E-01  0.3178191289017E+00
 0.1242237814402E+01 -0.1441186635609E+01 -0.3978976483434E-01  0.2385796151372E+00
 0.1493694739537E+01 -0.1498630363394E+01 -0.9871247862210E-03  0.1495481839480E+00
 0.1751838297191E+01 -0.1560395435798E+01  0.3828857284910E-01  0.5208979790719E-01
 0.2008463847635E+01 -0.1622720792597E+01  0.7714861215728E-01 -0.5267970271697E-01
 0.2254506548492E+01 -0.1681392697058E+01  0.1146227719948E+00 -0.1641850487711E+00
-0.3745922517388E+00 -0.1560918600210E+01 -0.3871021761580E+00 -0.5412388074145E-01
-0.3471944908228E+00 -0.1573372990468E+01 -0.3841135019819E+00 -0.6483919155823E-03
-0.3209377523338E+00 -0.1585605365919E+01 -0.3813086293324E+00  0.4724648434122E-01
-0.2959260543210E+00 -0.1597528083235E+01 -0.3786908331541E+00  0.8959309565264E-01
-0.2723565906537E+00 -0.1608979013310E+01 -0.3762671263996E+00  0.1266726543543E+00
-0.2505118463924E+00 -0.1619726498768E+01 -0.3740476746058E+00  0.1589406236298E+00
-0.2307270844725E+00 -0.1629491711218E+01 -0.3720437646820E+00  0.1869565415430E+00
-0.2133463303728E+00 -0.1637978191281E+01 -0.3702649098481E+00  0.2113278852843E+00
-0.1986794988466E+00 -0.1644899178236E+01 -0.3687157409108E+00  0.2326699359449E+00
-0.1869684544633E+00 -0.1649997192478E+01 -0.3673931348629E+00  0.2515798320520E+00
-0.1783647258579E+00 -0.1653054341346E+01 -0.3662838188989E+00  0.2686211866299E+00
-0.1729178969695E+00 -0.1653894659692E+01 -0.3653625167766E+00  0.2843154873716E+00
-0.1705716026130E+00 -0.1652381241988E+01 -0.3645905743531E+00  0.2991374023331E+00
-0.1711635702957E+00 -0.1648411129703E+01 -0.3639149454225E+00  0.3135119177477E+00
-0.1744265203524E+00 -0.1641910482850E+01 -0.3632674060535E+00  0.3278119043329E+00
-0.1799875227650E+00 -0.1632831855789E+01 -0.3625638811134E+00  0.3423551881391E+00
-0.1873643397759E+00 -0.1621154640731E+01 -0.3617038014913E+00  0.3574004523986E+00
-0.1959577435076E+00 -0.1606889664298E+01 -0.3605694869340E+00  0.3731409683147E+00
-0.2050401731264E+00 -0.1590087387997E+01 -0.3590255175745E+00  0.3896965422006E+00
-0.2137406840781E+00 -0.1570850264886E+01 -0.3569181951113E+00  0.4071028452754E+00
-0.2210270708197E+00 -0.1549349133412E+01 -0.3540752461225E+00  0.4252977689290E+00
-0.2256871274002E+00 -0.1525841984221E+01 -0.3503058275443E+00  0.4441064306424E+00
-0.2263105240205E+00 -0.1500695163382E+01 -0.3454011426274E+00  0.4632244311423E+00
-0.2212736004558E+00 -0.1474400245502E+01 -0.3391347742450E+00  0.4822021155218E+00
-0.2087283839711E+00 -0.1447570464287E+01 -0.3312597745878E+00  0.5004344847014E+00
-0.1866070720288E+00 -0.1420959129901E+01 -0.3215132451769E+00  0.5171478711898E+00
-0.1526512303724E+00 -0.1395505155136E+01 -0.3096312817155E+00  0.5313860465024E+00
-0.1044633993598E+00 -0.1372350405549E+01 -0.2953627653830E+00  0.5420074246355E+00
-0.3958325182265E-01 -0.1352820934012E+01 -0.2784808413167E+00  0.5477016821794E+00
 0.4440636999405E-01 -0.1338378108577E+01 -0.2587943515729E+00  0.5470313484147E+00
 0.1497373121762E+00 -0.1330542976670E+01 -0.2361611364178E+00  0.5385020850241E+00
 0.2782714902640E+00 -0.1330792834575E+01 -0.2105042719990E+00  0.5206628775509E+00
 0.4312704877979E+00 -0.1340426122855E+01 -0.1818311297210E+00  0.4922322339072E+00
 0.6091388549915E+00 -0.1360408916226E+01 -0.1502540144859E+00  0.4522388781140E+00
 0.8111738551107E+00 -0.1391204623327E+01 -0.1160061553718E+00  0.4001549834812E+00
 0.1035309800234E+01 -0.1432569854297E+01 -0.7945201199658E-01  0.3359755911480E+00
 0.1277893446888E+01 -0.1483372071262E+01 -0.4109572548719E-01  0.2601993796353E+00
 0.1533601910760E+01 -0.1541509533087E+01 -0.1581524488992E-02  0.1736935263850E+00
 0.1795563039694E+01 -0.1603969836029E+01  0.3831864130392E-01  0.7745805297367E-01
 0.2055701540086E+01 -0.1667046409289E+01  0.7773102731772E-01 -0.2765117461057E-01
 0.2305203500572E+01 -0.1726645577444E+01  0.1157115863498E+00 -0.1411683124562E+00
-0.3957006526094E+00 -0.1649795469527E+01 -0.4090992305233E+00 -0.4922691676258E-01
-0.3662253863771E+00 -0.1663092345776E+01 -0.4058635524785E+00  0.4182965590528E-02
-0.3378443620451E+00 -0.1676085354850E+01 -0.4027859493811E+00  0.5197420501306E-01
-0.3107674613077E+00 -0.1688620912301E+01 -0.3998776806804E+00  0.9415613025637E-01
-0.2852722531033E+00 -0.1700488854622E+01 -0.3971522274630E+00  0.1309851579712E+00
-0.2616949544996E+00 -0.1711427795570E+01 -0.3946245558944E+00  0.1628977470746E+00
-0.2404010018519E+00 -0.1721144764385E+01 -0.3923091590932E+00  0.1904443718612E+00
-0.2217462180721E+00 -0.1729340567415E+01 -0.3902173629121E+00  0.2142338841207E+00
-0.2060393716111E+00 -0.1735732908635E+01 -0.3883544618362E+00  0.2348912381590E+00
-0.1935128057581E+00 -0.1740072547862E+01 -0.3867170764866E+00  0.2530282325797E+00
-0.1843034795251E+00 -0.1742151197150E+01 -0.3852909410762E+00  0.2692249012043E+00
-0.1784435257335E+00 -0.1741802357681E+01 -0.3840491824056E+00  0.2840185308968E+00
-0.1758574991210E+00 -0.1738897635400E+01 -0.3829510326105E+00  0.2978976902901E+00
-0.1763630021105E+00 -0.1733341311203E+01 -0.3819408683541E+00  0.3112991259587E+00
-0.1796716800860E+00 -0.1725065577128E+01 -0.3809474571194E+00  0.3246058930017E+00
-0.1853882993161E+00 -0.1714028192632E+01 -0.3798833040503E+00  0.3381455285880E+00
-0.1930065169241E+00 -0.1700213583241E+01 -0.3786440256752E+00  0.3521873598245E+00
-0.2019003884531E+00 -0.1683638411882E+01 -0.3771077656864E+00  0.3669377968643E+00
-0.2113120748533E+00 -0.1664360907729E+01 -0.3751346021063E+00  0.3825338100443E+00
-0.2203357681987E+00 -0.1642494580636E+01 -0.3725660753185E+00  0.3990337080156E+00
-0.2278988472874E+00 -0.1618226145552E+01 -0.3692250040698E+00  0.4164047666672E+00
-0.2327423741500E+00 -0.1591835750615E+01 -0.3649156303906E+00  0.4345091565154E+00
-0.2334025551137E+00 -0.1563719604452E+01 -0.3594244372690E+00  0.4530876886638E+00
-0.2281957149426E+00 -0.1534408433748E+01 -0.3525208349910E+00  0.4717439321637E+00
-0.2152083662109E+00 -0.1504566642071E+01 -0.3439550067817E+00  0.4899331554441E+00
-0.1923030580656E+00 -0.1475010565370E+01 -0.3334627296561E+00  0.5069469483827E+00
-0.1571495257145E+00 -0.1446749967368E+01 -0.3207799033965E+00  0.5218961768927E+00
-0.1072802677864E+00 -0.1421001709630E+01 -0.3056564000379E+00  0.5337036610657E+00
-0.4017329971048E-01 -0.1399167163312E+01 -0.2878680968940E+00  0.5411145458712E+00
 0.4663261335813E-01 -0.1382777879962E+01 -0.2672290573028E+00  0.5427296395063E+00
 0.1553846901691E+00 -0.1373412141805E+01 -0.2436054939573E+00  0.5370652680101E+00
 0.2879200523807E+00 -0.1372581851617E+01 -0.2169323630798E+00  0.5226409577901E+00
 0.4454263821855E+00 -0.1381587881109E+01 -0.1872323025747E+00  0.4980917507835E+00
 0.6281818920392E+00 -0.1401359005701E+01 -0.1546354250367E+00  0.4622953090687E+00
 0.8353122351993E+00 -0.1432281247391E+01 -0.1193938042175E+00  0.4144953968842E+00
 0.1064558937570E+01 -0.1474007707374E+01 -0.8188975518094E-01  0.3543816759252E+00
 0.1312093768446E+01 -0.1525301962253E+01 -0.4264163939680E-01  0.2820886488280E+00
 0.1572479729030E+01 -0.1583987235872E+01 -0.2301501402596E-02  0.1981017152501E+00
 0.1838823703924E+01 -0.1647026793850E+01  0.3835938258650E-01  0.1030816795508E+00
 0.2103133741407E+01 -0.1710746892283E+01  0.7847737099431E-01 -0.2350492854447E-02
 0.2356784242071E+01 -0.1771146787303E+01  0.1171274926990E+00 -0.1178121638047E+00
-0.4167821148572E+00 -0.1738594650349E+01 -0.4310753594648E+00 -0.4400806176233E-01
-0.3852138294478E+00 -0.1752742634358E+01 -0.4275912991327E+00  0.9318398188493E-02
-0.3546867537503E+00 -0.1766509958663E+01 -0.4242393488044E+00  0.5696124414508E-01
-0.3255145976306E+00 -0.1779678536889E+01 -0.4210386331779E+00  0.9891257957244E-01
-0.2980562360697E+00 -0.1791989782416E+01 -0.4180092099260E+00  0.1354107670640E+00
-0.2727045641735E+00 -0.1803151054143E+01 -0.4151711298499E+00  0.1668796078852E+00
-0.2498588646397E+00 -0.1812853483359E+01 -0.4125424757472E+00  0.1938656059178E+00
-0.2298900412254E+00 -0.1820793900659E+01 -0.4101367944884E+00  0.2169825325103E+00
-0.2131079578160E+00 -0.1826694121482E+01 -0.4079604219387E+00  0.2368671281593E+00
-0.1997364791898E+00 -0.1830313684458E+01 -0.4060100387797E+00  0.2541468445967E+00
-0.1898980392713E+00 -0.1831455097238E+01 -0.4042706333260E+00  0.2694183532513E+00
-0.1836067419936E+00 -0.1829962832169E+01 -0.4027139208334E+00  0.2832344762729E+00
-0.1807672640052E+00 -0.1825718503007E+01 -0.4012971593823E+00  0.2960971686223E+00
-0.1811764051711E+00 -0.1818634866414E+01 -0.3999622602768E+00  0.3084543510245E+00
-0.1845244256258E+00 -0.1808650952854E+01 -0.3986350816361E+00  0.3206987506019E+00
-0.1903939990897E+00 -0.1795730000290E+01 -0.3972248057950E+00  0.3331673040050E+00
-0.1982554893985E+00 -0.1779861148582E+01 -0.3956233334914E+00  0.3461399855583E+00
-0.2074576710930E+00 -0.1761065945811E+01 -0.3937047292475E+00  0.3598367665498E+00
-0.2172144670428E+00 -0.1739408776180E+01 -0.3913246544756E+00  0.3744127081558E+00
-0.2265877941380E+00 -0.1715011903687E+01 -0.3883199453514E+00  0.3899502528033E+00
-0.2344676544288E+00 -0.1688074901644E+01 -0.3845085169442E+00  0.4064481632145E+00
-0.2395517204545E+00 -0.1658896336070E+01 -0.3796896169627E+00  0.4238083664710E+00
-0.2403261703888E+00 -0.1627897839400E+01 -0.3736448075256E+00  0.4418201358285E+00
-0.2350505564732E+00 -0.1595644241429E+01 -0.3661389650364E+00  0.4601439250276E+00
-0.2217485671866E+00 -0.1562845705097E+01 -0.3569188597753E+00  0.4782990258502E+00
-0.1982148361795E+00 -0.1530376103577E+01 -0.3457181931028E+00  0.4956458212508E+00
-0.1620475571931E+00 -0.1499310689588E+01 -0.3322716543073E+00  0.5113653247638E+00
-0.1107074020306E+00 -0.1470936380259E+01 -0.3163287611716E+00  0.5244468416504E+00
-0.4160608880509E-01 -0.1446725834325E+01 -0.2976663890616E+00  0.5336912996994E+00
 0.4777009061118E-01 -0.1428278383825E+01 -0.2761016627570E+00  0.5377353491419E+00
 0.1596968246972E+00 -0.1417229703490E+01 -0.2515065795063E+00  0.5350998577446E+00
 0.2960050528093E+00 -0.1415130072334E+01 -0.2238250072402E+00  0.5242646035698E+00
 0.4578330156995E+00 -0.1423291106717E+01 -0.1930916210809E+00  0.5037671935230E+00
 0.6453622710024E+00 -0.1442617444440E+01 -0.1594510370635E+00  0.4723185108496E+00
 0.8575793464378E+00 -0.1473434828777E+01 -0.1231710983032E+00  0.4289199344583E+00
 0.1092062945347E+01 -0.1515311157721E+01 -0.8464964373612E-01  0.3729480576386E+00
 0.1344829160546E+01 -0.1566920451039E+01 -0.4441825876044E-01  0.3041756756450E+00
 0.1610326825744E+01 -0.1626014914643E+01 -0.3137617826430E-02  0.2227194776645E+00
 0.1881617473729E+01 -0.1689523618609E+01  0.3841877159653E-01  0.1289206573896E+00
 0.2150745909104E+01 -0.1753784239871E+01  0.7939233502966E-01  0.2318658261924E-01
 0.2409210027631E+01 -0.1814859637993E+01  0.1188700796989E+00 -0.9416034957687E-01
-0.4378365759472E+00 -0.1827340780428E+01 -0.4530354780258E+00 -0.3846392546247E-01
-0.4041491409849E+00 -0.1842353033327E+01 -0.4493004415574E+00  0.1476257300076E-01
-0.3714452939582E+00 -0.1856911868050E+01 -0.4456714390426E+00  0.6221438382312E-01
-0.3401411663260E+00 -0.1870735794400E+01 -0.4421753987342E+00  0.1038714894803E+00
-0.3106779966773E+00 -0.1883517425795E+01 -0.4388390910337E+00  0.1399604163677E+00
-0.2835080237598E+00 -0.1894931624548E+01 -0.4356879361537E+00  0.1708984367150E+00
-0.2590675471031E+00 -0.1904652282820E+01 -0.4327439724331E+00  0.1972332624830E+00
-0.2377452858959E+00 -0.1912371430747E+01 -0.4300233497365E+00  0.2195874096991E+00
-0.2198539588719E+00 -0.1917814985970E+01 -0.4275337953391E+00  0.2386118534377E+00
-0.2056096260376E+00 -0.1920752052572E+01 -0.4252723420589E+00  0.2549509707683E+00
-0.1951199880490E+00 -0.1920997282147E+01 -0.4232234603457E+00  0.2692184518510E+00
-0.1883803897952E+00 -0.1918407707956E+01 -0.4213576258289E+00  0.2819824291002E+00
-0.1852747609102E+00 -0.1912876475671E+01 -0.4196302535692E+00  0.2937576618487E+00
-0.1855784168206E+00 -0.1904326034191E+01 -0.4179808964308E+00  0.3050025140859E+00
-0.1889599740714E+00 -0.1892702995487E+01 -0.4163326001156E+00  0.3161186784597E+00
-0.1949803264967E+00 -0.1877976243325E+01 -0.4145913201423E+00  0.3274519555302E+00
-0.2030875020955E+00 -0.1860139163146E+01 -0.4126453391972E+00  0.3392927274066E+00
-0.2126066140961E+00 -0.1839217042372E+01 -0.4103647374086E+00  0.3518746913164E+00
-0.2227256030501E+00 -0.1815278567779E+01 -0.4076008402395E+00  0.3653716550309E+00
-0.2324769367750E+00 -0.1788452171264E+01 -0.4041858276307E+00  0.3798914072162E+00
-0.2407165275735E+00 -0.1758946943066E+01 -0.3999327000874E+00  0.3954660069848E+00
-0.2461022434907E+00 -0.1727075772603E+01 -0.3946356090993E+00  0.4120395493037E+00
-0.2470738862007E+00 -0.1693280904852E+01 -0.3880709639932E+00  0.4294527461529E+00
-0.2418376389716E+00 -0.1658155857455E+01 -0.3799987049477E+00  0.4474263634594E+00
-0.2283571271356E+00 -0.1622450820806E+01 -0.3701615951041E+00  0.4655473156342E+00
-0.2043607364796E+00 -0.1587091485854E+01 -0.3582904498056E+00  0.4832482694921E+00
-0.1673751452215E+00 -0.1553213148057E+01 -0.3441176637833E+00  0.4997835423637E+00
-0.1147868718422E+00 -0.1522167985160E+01 -0.3273909762789E+00  0.5142113069056E+00
-0.4393580114503E-01 -0.1495496389563E+01 -0.3078864427295E+00  0.5253891616863E+00
 0.4775392513152E-01 -0.1474863964978E+01 -0.2854220122224E+00  0.5319880845638E+00
 0.1626011513376E+00 -0.1461965263772E+01 -0.2598728263592E+00  0.5325286977098E+00
 0.3024508989783E+00 -0.1458394350874E+01 -0.2311886938241E+00  0.5254424945493E+00
 0.4684176974596E+00 -0.1465483543758E+01 -0.1994131722311E+00  0.5091577225370E+00
 0.6606164257087E+00 -0.1484127669439E+01 -0.1647022512002E+00  0.4822047674051E+00
 0.8779257219565E+00 -0.1514609451712E+01 -0.1273367478486E+00  0.4433299708442E+00
 0.1117788469120E+01 -0.1556428713337E+01 -0.8772805015062E-01  0.3915889055156E+00
 0.1376080391995E+01 -0.1608182103326E+01 -0.4642034295785E-01  0.3263924653454E+00
 0.1647132531183E+01 -0.1667552873175E+01 -0.4084068459266E-02  0.2474967840900E+00
 0.1923934660606E+01 -0.1731425178561E+01  0.3850189698269E-01  0.1549375722469E+00
 0.2198520561531E+01 -0.1796126083185E+01  0.8047889686831E-01  0.4892573952518E-01
 0.2462445767109E+01 -0.1857751140440E+01  0.1209389271359E+00 -0.7025754346376E-01
-0.4588641787743E+00 -0.1916058161779E+01 -0.4749844751885E+00 -0.3258927640222E-01
-0.4230212502157E+00 -0.1931952178366E+01 -0.4709946927348E+00  0.2052173323810E-01
-0.3881011227586E+00 -0.1947323115246E+01 -0.4670848545609E+00  0.6774152615331E-01
-0.3546215949613E+00 -0.1961826819851E+01 -0.4632896898660E+00  0.1090425024681E+00
-0.3231075426401E+00 -0.1975106685209E+01 -0.4596428524190E+00  0.1446451659969E+00
-0.2940730440947E+00 -0.1986804055577E+01 -0.4561754267320E+00  0.1749662485959E+00
-0.2679941715250E+00 -0.1996574614874E+01 -0.4529137640287E+00  0.2005599615125E+00
-0.2452796867448E+00 -0.2004105177352E+01 -0.4498769795230E+00  0.2220616599619E+00
-0.2262464364173E+00 -0.2009126120101E+01 -0.4470745179655E+00  0.2401393071388E+00
-0.2111029466000E+00 -0.2011417184756E+01 -0.4445040328947E+00  0.2554557221283E+00
-0.1999416784929E+00 -0.2010806712107E+01 -0.4421496847086E+00  0.2686421280103E+00
-0.1927382924985E+00 -0.2007166002646E+01 -0.4399808655851E+00  0.2802817556088E+00
-0.1893549977561E+00 -0.2000401307011E+01 -0.4379512674795E+00  0.2909014979504E+00
-0.1895449157777E+00 -0.1990445975505E+01 -0.4359981847534E+00  0.3009692686429E+00
-0.1929547983019E+00 -0.1977254889189E+01 -0.4340419439660E+00  0.3108948085558E+00
-0.1991241637781E+00 -0.1960802646109E+01 -0.4319853684144E+00  0.3210320063074E+00
-0.2074798001144E+00 -0.1941086268722E+01 -0.4297132201705E+00  0.3316811529673E+00
-0.2173249562653E+00 -0.1918133457953E+01 -0.4270916892078E+00  0.3430895620603E+00
-0.2278240551573E+00 -0.1892015130771E+01 -0.4239678435033E+00  0.3554501553648E+00
-0.2379831737303E+00 -0.1862863041688E+01 -0.4201692493446E+00  0.3688969794883E+00
-0.2466276665309E+00 -0.1830892160530E+01 -0.4155039716036E+00  0.3834968913341E+00
-0.2523794269457E+00 -0.1796425278201E+01 -0.4097609471353E+00  0.3992382607037E+00
-0.2536357588707E+00 -0.1759920092220E+01 -0.4027111762191E+00  0.4160159334604E+00
-0.2485530646755E+00 -0.1721993042104E+01 -0.3941092272285E+00  0.4336141859103E+00
-0.2350377767675E+00 -0.1683428295119E+01 -0.3836932200947E+00  0.4516910173480E+00
-0.2107536930897E+00 -0.1645197394954E+01 -0.3711902231399E+00  0.4697548662308E+00
-0.1731558197731E+00 -0.1608490111073E+01 -0.3563291914790E+00  0.4871366856496E+00
-0.1195537627266E+00 -0.1574719162342E+01 -0.3388545900629E+00  0.5029663124031E+00
-0.4720928121842E-01 -0.1545489485945E+01 -0.3185397581793E+00  0.5161596279172E+00
 0.4652642256916E-01 -0.1522532181145E+01 -0.2952011561139E+00  0.5254215211661E+00
 0.1640314439405E+00 -0.1507603279314E+01 -0.2687143710788E+00  0.5292690796065E+00
 0.3071866506085E+00 -0.1502347437705E+01 -0.2390321609811E+00  0.5260788165261E+00
 0.4771098051693E+00 -0.1508129045928E+01 -0.2062038512243E+00  0.5141596764441E+00
 0.6738795221984E+00 -0.1525848480192E+01 -0.1703937941378E+00  0.4918495531641E+00
 0.8962969979415E+00 -0.1555762932461E+01 -0.1318931888692E+00  0.4576279554580E+00
 0.1141694149224E+01 -0.1597320480068E+01 -0.9112526752669E-01  0.4102207202052E+00
 0.1405818613779E+01 -0.1649051037730E+01 -0.4864648551510E-01  0.3486737501560E+00
 0.1682877093670E+01 -0.1708569408286E+01 -0.5138462999636E-02  0.2723860673646E+00
 0.1965759110775E+01 -0.1772703043151E+01  0.3861121410006E-01  0.1810968268661E+00
 0.2246438164682E+01 -0.1837745314064E+01  0.8173857134160E-01  0.7483321414317E-01
 0.2516460976040E+01 -0.1899792339098E+01  0.1233337292261E+00 -0.4614980894275E-01
-0.4798652244006E+00 -0.2004770800273E+01 -0.4969272123394E+00 -0.2637712703020E-01
-0.4418205591345E+00 -0.2021568239719E+01 -0.4926777671122E+00  0.2660364052015E-01
-0.4046359659831E+00 -0.2037775161344E+01 -0.4884822327443E+00  0.7355166506996E-01
-0.3689308411279E+00 -0.2052985116479E+01 -0.4843831987393E+00  0.1144358445003E+00
-0.3353152688777E+00 -0.2066791765686E+01 -0.4804214140715E+00  0.1494761804506E+00
-0.3043675876151E+00 -0.2078802082550E+01 -0.4766339411354E+00  0.1790947946376E+00
-0.2766060546957E+00 -0.2088652914469E+01 -0.4730518008819E+00  0.2038578402986E+00
-0.2524612245971E+00 -0.2096025852520E+01 -0.4696974224225E+00  0.2244178771302E+00
-0.2322548494972E+00 -0.2100656481160E+01 -0.4665822730840E+00  0.2414628930330E+00
-0.2161877546869E+00 -0.2102336574112E+01 -0.4637048726695E+00  0.2556758782118E+00
-0.2043363136949E+00 -0.2100909940796E+01 -0.4610492577683E+00  0.2677062030669E+00
-0.1966553405922E+00 -0.2096264001580E+01 -0.4585838752678E+00  0.2781519688865E+00
-0.1929842138674E+00 -0.2088319754079E+01 -0.4562608003880E+00  0.2875514184659E+00
-0.1930531018437E+00 -0.2077022663988E+01 -0.4540151599317E+00  0.2963809382689E+00
-0.1964866930098E+00 -0.2062336521656E+01 -0.4517646496649E+00  0.3050571718939E+00
-0.2028036172035E+00 -0.2044241617082E+01 -0.4494090535538E+00  0.3139410642257E+00
-0.2114106488029E+00 -0.2022737872463E+01 -0.4468297109114E+00  0.3233420421084E+00
-0.2215911398629E+00 -0.1997853912321E+01 -0.4438890170512E+00  0.3335206363173E+00
-0.2324886624380E+00 -0.1969660612809E+01 -0.4404298616123E+00  0.3446889464907E+00
-0.2430861871032E+00 -0.1938289972494E+01 -0.4362752384204E+00  0.3570078728093E+00
-0.2521822850833E+00 -0.1903958935767E+01 -0.4312282505959E+00  0.3705802484612E+00
-0.2583669534902E+00 -0.1866995473157E+01 -0.4250724916636E+00  0.3854405077846E+00
-0.2599991180187E+00 -0.1827867248473E+01 -0.4175732795207E+00  0.4015400355973E+00
-0.2551892008825E+00 -0.1787207518613E+01 -0.4084793499859E+00  0.4187295868092E+00
-0.2417894674156E+00 -0.1745828054796E+01 -0.3975235103658E+00  0.4367415833668E+00
-0.2174008485034E+00 -0.1704740017734E+01 -0.3844281789759E+00  0.4551637523672E+00
-0.1794064339389E+00 -0.1665181906454E+01 -0.3689176735760E+00  0.4734072503539E+00
-0.1250358497832E+00 -0.1628622247369E+01 -0.3507316246567E+00  0.4906768844773E+00
-0.5146583507902E-01 -0.1596727565579E+01 -0.3296386850436E+00  0.5059492863025E+00
 0.4403707693893E-01 -0.1571294233986E+01 -0.3054514359611E+00  0.5179640923407E+00
 0.1639275708355E+00 -0.1554143266078E+01 -0.2780431431917E+00  0.5252332112887E+00
 0.3101455127990E+00 -0.1546977892447E+01 -0.2473664796157E+00  0.5260734071205E+00
 0.4838400721585E+00 -0.1551207184119E+01 -0.2134734255731E+00  0.5186663195029E+00
 0.6850846796089E+00 -0.1567753404866E+01 -0.1765337476819E+00  0.5011468709145E+00
 0.9126332615746E+00 -0.1596866079241E+01 -0.1368465655724E+00  0.4717164380529E+00
 0.1163730256136E+01 -0.1637957456026E+01 -0.9484544139124E-01  0.4287612600695E+00
 0.1434005314708E+01 -0.1689500302763E+01 -0.5109899837246E-01  0.3709560522900E+00
 0.1717531883832E+01 -0.1749040231625E+01 -0.6301669652453E-02  0.2973415017886E+00
 0.2007068672265E+01 -0.1813335032043E+01  0.3874672862182E-01  0.2073640134510E+00
 0.2294477961892E+01 -0.1878620056891E+01  0.8317158223950E-01  0.1008752429653E+00
 0.2571230584385E+01 -0.1940958759291E+01  0.1260543668971E+00 -0.2188481570474E-01
-0.5008401325529E+00 -0.2093502456361E+01 -0.5188685255145E+00 -0.1981879980339E-01
-0.4605378169170E+00 -0.2111229004281E+01 -0.5143533719041E+00  0.3301752803020E-01
-0.4210319545996E+00 -0.2128298988178E+01 -0.5098661961530E+00  0.7965485859761E-01
-0.3830441977249E+00 -0.2144243630697E+01 -0.5054575732162E+00  0.1200623023000E+00
-0.3472717860972E+00 -0.2158606213389E+01 -0.5011756073653E+00  0.1544646919105E+00
-0.3143597445639E+00 -0.2170958614772E+01 -0.4970636792740E+00  0.1832954965759E+00
-0.2848706410375E+00 -0.2180918538026E+01 -0.4931578431613E+00  0.2071384545927E+00
-0.2592581138577E+00 -0.2188162758245E+01 -0.4894841817144E+00  0.2266679779985E+00
-0.2378490866717E+00 -0.2192433233317E+01 -0.4860564712405E+00  0.2425953835900E+00
-0.2208360421981E+00 -0.2193535523055E+01 -0.4828743202461E+00  0.2556257440218E+00
-0.2082780322035E+00 -0.2191330954705E+01 -0.4799218045330E+00  0.2664272569505E+00
-0.2001075865607E+00 -0.2185725095083E+01 -0.4771665434390E+00  0.2756126173924E+00
-0.1961399759402E+00 -0.2176655417898E+01 -0.4745590858391E+00  0.2837304929585E+00
-0.1960815857344E+00 -0.2164080734005E+01 -0.4720324709816E+00  0.2912644607208E+00
-0.1995348522010E+00 -0.2147974343478E+01 -0.4695018461320E+00  0.2986366754784E+00
-0.2059980765701E+00 -0.2128322123445E+01 -0.4668640469599E+00  0.3062138358793E+00
-0.2148593696876E+00 -0.2105126041764E+01 -0.4639970892043E+00  0.3143134438251E+00
-0.2253843172304E+00 -0.2078414009779E+01 -0.4607596722678E+00  0.3232085461205E+00
-0.2366985020396E+00 -0.2048254415932E+01 -0.4569905904040E+00  0.3331301674187E+00
-0.2477652931878E+00 -0.2014776218256E+01 -0.4525083090316E+00  0.3442663272103E+00
-0.2573604930001E+00 -0.1978194192454E+01 -0.4471109437533E+00  0.3567566762381E+00
-0.2640465336786E+00 -0.1938836495056E+01 -0.4405766123121E+00  0.3706831718626E+00
-0.2661483387812E+00 -0.1897174965781E+01 -0.4326646673596E+00  0.3860558410524E+00
-0.2617343955928E+00 -0.1853853245882E+01 -0.4231175345999E+00  0.4027946492721E+00
-0.2486060364759E+00 -0.1809704006706E+01 -0.4116620147706E+00  0.4207096584337E+00
-0.2243031846709E+00 -0.1765771485987E+01 -0.3980149400625E+00  0.4394714510865E+00
-0.1861367893245E+00 -0.1723336926042E+01 -0.3818947487639E+00  0.4585752356428E+00
-0.1312532609895E+00 -0.1683919806669E+01 -0.3630346189414E+00  0.4773046822410E+00
-0.5673698857575E-01 -0.1649245364160E+01 -0.3411964756315E+00  0.4947006066911E+00
 0.4024265456233E-01 -0.1621175383325E+01 -0.3161865504640E+00  0.5095396200793E+00
 0.1622353680917E+00 -0.1601600045914E+01 -0.2878729398541E+00  0.5203285913779E+00
 0.3112644787617E+00 -0.1592290105324E+01 -0.2562051291303E+00  0.5253217866058E+00
 0.4885400360745E+00 -0.1594713026160E+01 -0.2212346013137E+00  0.5225674772348E+00
 0.6941623270336E+00 -0.1609830281031E+01 -0.1831335935283E+00  0.5099885114524E+00
 0.9268684611574E+00 -0.1637902168311E+01 -0.1422067435497E+00  0.4854970687352E+00
 0.1183838282471E+01 -0.1678321002416E+01 -0.9889654546269E-01  0.4471284814617E+00
 0.1460592150191E+01 -0.1729511392133E+01 -0.5378384918988E-01  0.3931767635296E+00
 0.1751059460112E+01 -0.1788948049063E+01 -0.7577717903080E-02  0.3223183020118E+00
 0.2047835531475E+01 -0.1853304959385E+01  0.3890611499765E-01  0.2337053846122E+00
 0.2342618602745E+01 -0.1918733756253E+01  0.8477697056161E-01  0.1270177096962E+00
 0.2626735511073E+01 -0.1981230831881E+01  0.1291009377621E+00  0.2488035024773E-02
-0.5217894056764E+00 -0.2182276708358E+01 -0.5408132308656E+00 -0.1290398121109E-01
-0.4791640003488E+00 -0.2200961969664E+01 -0.5360252019899E+00  0.3977406165694E-01
-0.4372714465963E+00 -0.2218925202995E+01 -0.5312393378344E+00  0.8606219901864E-01
-0.3969370945749E+00 -0.2235634841448E+01 -0.5265143950503E+00  0.1259331887064E+00
-0.3589477397099E+00 -0.2250582967086E+01 -0.5219061491361E+00  0.1596219447920E+00
-0.3240175964816E+00 -0.2263305736090E+01 -0.5174646742252E+00  0.1875793600663E+00
-0.2927554238118E+00 -0.2273401711026E+01 -0.5132314346154E+00  0.2104126597373E+00
-0.2656387818486E+00 -0.2280543687748E+01 -0.5092365015075E+00  0.2288230593207E+00
-0.2429994952728E+00 -0.2284481614011E+01 -0.5054962293893E+00  0.2435487660364E+00
-0.2250205459169E+00 -0.2285036987274E+01 -0.5020115141187E+00  0.2553189991296E+00
-0.2117419992439E+00 -0.2282091005762E+01 -0.4987666084333E+00  0.2648214919631E+00
-0.2030723487278E+00 -0.2275569608325E+01 -0.4957283987974E+00  0.2726831715156E+00
-0.1988012848259E+00 -0.2265428576573E+01 -0.4928459796238E+00  0.2794620333610E+00
-0.1986104911995E+00 -0.2251641321011E+01 -0.4900503697444E+00  0.2856473333465E+00
-0.2020799606355E+00 -0.2234191218649E+01 -0.4872542431175E+00  0.2916650819111E+00
-0.2086882908948E+00 -0.2213069554450E+01 -0.4843515762864E+00  0.2978861446530E+00
-0.2178063956773E+00 -0.2188279383531E+01 -0.4812171630123E+00  0.3046347391370E+00
-0.2286843806218E+00 -0.2159846138754E+01 -0.4777061109936E+00  0.3121954143810E+00
-0.2404328883343E+00 -0.2127833122334E+01 -0.4736532091917E+00  0.3208175395296E+00
-0.2519994050874E+00 -0.2092362790135E+01 -0.4688724460311E+00  0.3307161768938E+00
-0.2621412158319E+00 -0.2053643398867E+01 -0.4631569298413E+00  0.3420682848385E+00
-0.2693977766165E+00 -0.2011998055284E+01 -0.4562791731792E+00  0.3550044557111E+00
-0.2720646579163E+00 -0.1967896703284E+01 -0.4479922789156E+00  0.3695951445662E+00
-0.2681727360738E+00 -0.1921986616127E+01 -0.4380318769673E+00  0.3858320103263E+00
-0.2554759102798E+00 -0.1875114318884E+01 -0.4261180521825E+00  0.4036058459842E+00
-0.2314551799687E+00 -0.1828350242042E+01 -0.4119610905409E+00  0.4226737134862E+00
-0.1933492682904E+00 -0.1783012066526E+01 -0.3952722728532E+00  0.4426190304489E+00
-0.1382181198940E+00 -0.1740665129676E+01 -0.3757766555134E+00  0.4628088665643E+00
-0.6304618953476E-01 -0.1703090413477E+01 -0.3532273258659E+00  0.4823527148052E+00
 0.3510737492873E-01 -0.1672215403758E+01 -0.3274216106448E+00  0.5000679011693E+00
 0.1589066500374E+00 -0.1650004094169E+01 -0.2982194932701E+00  0.5144583119261E+00
 0.3104841396681E+00 -0.1638304481701E+01 -0.2655640723638E+00  0.5237150988639E+00
 0.4911416607825E+00 -0.1638657133374E+01 -0.2295030979382E+00  0.5257490833392E+00
 0.7010397031280E+00 -0.1652081083367E+01 -0.1902082788821E+00  0.5182632488543E+00
 0.9389298889397E+00 -0.1678866661817E+01 -0.1479873567806E+00  0.4988695725304E+00
 0.1201950517225E+01 -0.1718402522056E+01 -0.1032904025053E+00  0.4652394870011E+00
 0.1485520683679E+01 -0.1769073937093E+01 -0.5671065152774E-01  0.4152732501224E+00
 0.1783413526487E+01 -0.1828282317974E+01 -0.8973758431164E-02  0.3472720721075E+00
 0.2088026441785E+01 -0.1892602554651E+01  0.3908477800909E-01  0.2600874371899E+00
 0.2390838628178E+01 -0.1958075372404E+01  0.8655265244462E-01  0.1532259496088E+00
 0.2682963188038E+01 -0.2020594332995E+01  0.1324737729828E+00  0.2691757488370E-01
-0.5427135992435E+00 -0.2271117031076E+01 -0.5627661344497E+00 -0.5620757992501E-02
-0.4976901993516E+00 -0.2290794455162E+01 -0.5576969392130E+00  0.4688531239458E-01
-0.4533368500930E+00 -0.2309684162352E+01 -0.5526042107235E+00  0.9278578539984E-01
-0.4105848955371E+00 -0.2327190871041E+01 -0.5475551614748E+00  0.1320603004857E+00
-0.3703136196129E+00 -0.2342754431838E+01 -0.5426136183758E+00  0.1649591253187E+00
-0.3333090689898E+00 -0.2355874726193E+01 -0.5378367670510E+00  0.1919568696510E+00
-0.3002278574982E+00 -0.2366131493082E+01 -0.5332718780625E+00  0.2136904741205E+00
-0.2715718436389E+00 -0.2373194840346E+01 -0.5289533446790E+00  0.2308932405444E+00
-0.2476769113254E+00 -0.2376824810685E+01 -0.5249003522238E+00  0.2443340787771E+00
-0.2287148196332E+00 -0.2376861428303E+01 -0.5211152573525E+00  0.2547685416747E+00
-0.2147045067305E+00 -0.2373208452432E+01 -0.5175825995451E+00  0.2629045951172E+00
-0.2055283261352E+00 -0.2365814640651E+01 -0.5142686010204E+00  0.2693829111997E+00
-0.2009486947948E+00 -0.2354656029204E+01 -0.5111209524160E+00  0.2747695108355E+00
-0.2006215708724E+00 -0.2339721913594E+01 -0.5080687044641E+00  0.2795575617023E+00
-0.2041043006198E+00 -0.2321006286448E+01 -0.5050221249389E+00  0.2841749925125E+00
-0.2108564618508E+00 -0.2298505594169E+01 -0.5018724186825E+00  0.2889949526320E+00
-0.2202333473910E+00 -0.2272222929138E+01 -0.4984912627339E+00  0.2943467083989E+00
-0.2314720175459E+00 -0.2242179371314E+01 -0.4947302851441E+00  0.3005249767835E+00
-0.2436714027897E+00 -0.2208430412474E+01 -0.4904203703607E+00  0.3077965545588E+00
-0.2557670317286E+00 -0.2171088398613E+01 -0.4853710933008E+00  0.3164031173940E+00
-0.2665021566837E+00 -0.2130350543511E+01 -0.4793705471821E+00  0.3265590565246E+00
-0.2743981072774E+00 -0.2086529458033E+01 -0.4721855200983E+00  0.3384443479982E+00
-0.2777260392227E+00 -0.2040086861779E+01 -0.4635625871080E+00  0.3521913243542E+00
-0.2744838559981E+00 -0.1991666598346E+01 -0.4532300976225E+00  0.3678655519620E+00
-0.2623818497609E+00 -0.1942121644807E+01 -0.4409007054836E+00  0.3854415032705E+00
-0.2388444964198E+00 -0.1892541351918E+01 -0.4262771760196E+00  0.4047663932727E+00
-0.2010384756414E+00 -0.1844273131699E+01 -0.4090623275635E+00  0.4255163247061E+00
-0.1459341680212E+00 -0.1798922708167E+01 -0.3889713810337E+00  0.4471469837802E+00
-0.7040845194400E-01 -0.1758323570151E+01 -0.3657464098690E+00  0.4688421640998E+00
 0.2860319156957E-01 -0.1724469119052E+01 -0.3391731905506E+00  0.4894652692608E+00
 0.1538993589001E+00 -0.1699402024969E+01 -0.3091005378197E+00  0.5075213138726E+00
 0.3077486590424E+00 -0.1685057824181E+01 -0.2754618371324E+00  0.5211399880124E+00
 0.4915771220190E+00 -0.1683065802396E+01 -0.2382977396264E+00  0.5280926588077E+00
 0.7056404829754E+00 -0.1694522019046E+01 -0.1977763101612E+00  0.5258559820539E+00
 0.9487377207632E+00 -0.1719767183802E+01 -0.1542058949056E+00  0.5117306974946E+00
 0.1217989592747E+01 -0.1758203363614E+01 -0.1080427557834E+00  0.4830094767543E+00
 0.1508722036430E+01 -0.1808185593390E+01 -0.5989271228462E-01  0.4371819871445E+00
 0.1814538774916E+01 -0.1867039184343E+01 -0.1050008204168E-01  0.3721582192542E+00
 0.2127602835354E+01 -0.1931223542500E+01  0.3927585915599E-01  0.2864766108663E+00
 0.2439116856548E+01 -0.1996639677038E+01  0.8849543722071E-01  0.1794646895807E+00
 0.2739908046600E+01 -0.2059040868743E+01  0.1361734376005E+00  0.5135092200029E-01
-0.5636132944652E+00 -0.2360046889753E+01 -0.5847320455567E+00  0.2044359554147E-02
-0.5161075021631E+00 -0.2380753725528E+01 -0.5793722541715E+00  0.5436473737720E-01
-0.4692104404885E+00 -0.2400606106923E+01 -0.5739633180351E+00  0.9983869519176E-01
-0.4239626838936E+00 -0.2418943603958E+01 -0.5685812660429E+00  0.1384558646519E+00
-0.3813395547669E+00 -0.2435152555788E+01 -0.5632984305048E+00  0.1704872711678E+00
-0.3422017694908E+00 -0.2448696077970E+01 -0.5581795778097E+00  0.1964378595798E+00
-0.3072552585668E+00 -0.2459135730692E+01 -0.5532782060963E+00  0.2169809187835E+00
-0.2770260707131E+00 -0.2466140715694E+01 -0.5486333654566E+00  0.2328874864344E+00
-0.2518526890466E+00 -0.2469483809910E+01 -0.5442673079015E+00  0.2449612331925E+00
-0.2318933106327E+00 -0.2469026633446E+01 -0.5401839968652E+00  0.2539863234188E+00
-0.2171430809632E+00 -0.2464698564970E+01 -0.5363683371791E+00  0.2606915963663E+00
-0.2074557230880E+00 -0.2456473867100E+01 -0.5327859259767E+00  0.2657308130133E+00
-0.2025644436507E+00 -0.2444350900386E+01 -0.5293830766958E+00  0.2696764743935E+00
-0.2020983340038E+00 -0.2428336164043E+01 -0.5260869074486E+00  0.2730236113358E+00
-0.2055918721250E+00 -0.2408434778700E+01 -0.5228053379554E+00  0.2761998345532E+00
-0.2124863527750E+00 -0.2384648044905E+01 -0.5194268872760E+00  0.2795783875430E+00
-0.2221231282766E+00 -0.2356977963556E+01 -0.5158202260529E+00  0.2834916049099E+00
-0.2337287890761E+00 -0.2325439298628E+01 -0.5118336251676E+00  0.2882427118791E+00
-0.2463939517491E+00 -0.2290076909251E+01 -0.5072941797592E+00  0.2941146735062E+00
-0.2590463101133E+00 -0.2250989311134E+01 -0.5020071317299E+00  0.3013749873653E+00
-0.2704197963524E+00 -0.2208358013730E+01 -0.4957555694039E+00  0.3102752248159E+00
-0.2790227262615E+00 -0.2162479510437E+01 -0.4883004546159E+00  0.3210451128905E+00
-0.2831070832687E+00 -0.2113800739003E+01 -0.4793815715977E+00  0.3338799511067E+00
-0.2806427850511E+00 -0.2062954754906E+01 -0.4687195149759E+00  0.3489211308962E+00
-0.2693007312720E+00 -0.2010793218594E+01 -0.4560187967685E+00  0.3662295815029E+00
-0.2464516874419E+00 -0.1958416695125E+01 -0.4409736830845E+00  0.3857463706913E+00
-0.2091908774517E+00 -0.1907195127740E+01 -0.4232772073457E+00  0.4072450700397E+00
-0.1543963518341E+00 -0.1858768638068E+01 -0.4026330039801E+00  0.4302758930408E+00
-0.7882992458645E-01 -0.1815019510285E+01 -0.3787698926185E+00  0.4541037379354E+00
 0.2071019133587E-01 -0.1778006958279E+01 -0.3514593586257E+00  0.4776451663526E+00
 0.1471778698384E+00 -0.1749857161035E+01 -0.3205358630158E+00  0.4994126258873E+00
 0.3030059217403E+00 -0.1732603859264E+01 -0.2859195917652E+00  0.5174784324227E+00
 0.4897787564633E+00 -0.1727981496037E+01 -0.2476405516049E+00  0.5294747292033E+00
 0.7078845191594E+00 -0.1737183829388E+01 -0.2058598651132E+00  0.5326468074279E+00
 0.9562045871932E+00 -0.1760623688503E+01 -0.1608838226594E+00  0.5239730994376E+00
 0.1231867967841E+01 -0.1797734882856E+01 -0.1131733846894E+00  0.5003506509818E+00
 0.1530116395540E+01 -0.1846852048325E+01 -0.6334713150093E-01  0.4588376669923E+00
 0.1844370544020E+01 -0.1905221512181E+01 -0.1217019381343E-01  0.3969313747803E+00
 0.2166520741327E+01 -0.1969169782848E+01  0.3947019228387E-01  0.3128390318053E+00
 0.2487432590992E+01 -0.2034427561517E+01  0.9060100724504E-01  0.2056980474725E+00
 0.2797571934669E+01 -0.2096568328081E+01  0.1402007234068E+00  0.7573355359410E-01
-0.5844890742963E+00 -0.2449089852908E+01 -0.6067157944817E+00  0.1010642953059E-01
-0.5344068792257E+00 -0.2470867136432E+01 -0.6010548120879E+00  0.6222717131535E-01
-0.4848741699931E+00 -0.2491721319879E+01 -0.5953191068453E+00  0.1072349568972E+00
-0.4370450347984E+00 -0.2510924829413E+01 -0.5895939816280E+00  0.1451324747604E+00
-0.3919950927326E+00 -0.2527808928294E+01 -0.5839608129070E+00  0.1762171618848E+00
-0.3506628117178E+00 -0.2541799531638E+01 -0.5784924772913E+00  0.2010313605370E+00
-0.3138046981057E+00 -0.2552441021291E+01 -0.5732491524214E+00  0.2202918329979E+00
-0.2819703578383E+00 -0.2559404014530E+01 -0.5682748829416E+00  0.2348134095796E+00
-0.2554987344775E+00 -0.2562477250068E+01 -0.5635952053073E+00  0.2454388211989E+00
-0.2345314447560E+00 -0.2561547538536E+01 -0.5592158049913E+00  0.2529831765602E+00
-0.2190366015747E+00 -0.2556573334660E+01 -0.5551219955189E+00  0.2581967234201E+00
-0.2088363862680E+00 -0.2547557346054E+01 -0.5512787546790E+00  0.2617454368969E+00
-0.2036325960736E+00 -0.2534522452992E+01 -0.5476310179735E+00  0.2642064705724E+00
-0.2030261881731E+00 -0.2517493708432E+01 -0.5441039874288E+00  0.2660743606839E+00
-0.2065285283225E+00 -0.2496487846214E+01 -0.5406032829630E+00  0.2677738488706E+00
-0.2135634155892E+00 -0.2471510657509E+01 -0.5370148226219E+00  0.2696757690911E+00
-0.2234600413529E+00 -0.2442561856963E+01 -0.5332043876085E+00  0.2721132271190E+00
-0.2354372346639E+00 -0.2409647862321E+01 -0.5290170272799E+00  0.2753959695170E+00
-0.2485808565433E+00 -0.2372800009510E+01 -0.5242761810229E+00  0.2798215244537E+00
-0.2618150762786E+00 -0.2332099186800E+01 -0.5187828603462E+00  0.2856820509104E+00
-0.2738694384851E+00 -0.2287706439934E+01 -0.5123151833179E+00  0.2932656571169E+00
-0.2832446199215E+00 -0.2239896386569E+01 -0.5046282088176E+00  0.3028517875110E+00
-0.2881789905906E+00 -0.2189094427998E+01 -0.4954546911007E+00  0.3146994107895E+00
-0.2866198511769E+00 -0.2135915193259E+01 -0.4845070161068E+00  0.3290273294518E+00
-0.2762033732385E+00 -0.2081200882656E+01 -0.4714808582045E+00  0.3459854951983E+00
-0.2542499365172E+00 -0.2026055092424E+01 -0.4560610125841E+00  0.3656125133777E+00
-0.2177844460134E+00 -0.1971862513292E+01 -0.4379293983868E+00  0.3877844829444E+00
-0.1635903805733E+00 -0.1920291006779E+01 -0.4167762836810E+00  0.4121527373355E+00
-0.8830738661032E-01 -0.1873267255322E+01 -0.3923149342323E+00  0.4380712899772E+00
 0.1141711407741E-01 -0.1832915601785E+01 -0.3642997029701E+00  0.4645187391236E+00
 0.1387134576271E+00 -0.1801450258676E+01 -0.3325473651652E+00  0.4900236073493E+00
 0.2962078669046E+00 -0.1781013980441E+01 -0.2969612271323E+00  0.5126075582342E+00
 0.4856791853058E+00 -0.1773463534333E+01 -0.2575568736432E+00  0.5297661988483E+00
 0.7076877091983E+00 -0.1780112366479E+01 -0.2144849346522E+00  0.5385100345771E+00
 0.9612351903677E+00 -0.1801468886708E+01 -0.1680467417721E+00  0.5354841701168E+00
 0.1243487365347E+01 -0.1837018723575E+01 -0.1187062734145E+00  0.5171710724290E+00
 0.1549612404219E+01 -0.1885087205587E+01 -0.6709496127354E-01  0.4801722981812E+00
 0.1872834326967E+01 -0.1942839055626E+01 -0.1400094594042E-01  0.4215448462385E+00
 0.2204730559568E+01 -0.2006449519449E+01  0.3965620861473E-01  0.3391403253074E+00
 0.2535765734014E+01 -0.2071446413644E+01  0.9286386545781E-01  0.2318896109152E+00
 0.2855964550235E+01 -0.2133181380838E+01  0.1445566360335E+00  0.1000094444434E+00
-0.6053415016486E+00 -0.2538269726074E+01 -0.6287222549132E+00  0.1858208571266E-01
-0.5525790621655E+00 -0.2561162301924E+01 -0.6227482820976E+00  0.7048882836056E-01
-0.5003094642942E+00 -0.2583060307209E+01 -0.6166739634899E+00  0.1149895230318E+00
-0.4498057693155E+00 -0.2603166402985E+01 -0.6105944435587E+00  0.1521030152544E+00
-0.4022489598888E+00 -0.2620754891086E+01 -0.6046007792042E+00  0.1821591870076E+00
-0.3586586247850E+00 -0.2635214113559E+01 -0.5987745565912E+00  0.2057454185856E+00
-0.3198428858454E+00 -0.2646072673278E+01 -0.5931831206638E+00  0.2236296622225E+00
-0.2863736889743E+00 -0.2653005528208E+01 -0.5878758521964E+00  0.2366770499424E+00
-0.2585875446203E+00 -0.2655821258296E+01 -0.5828817692688E+00  0.2457739068224E+00
-0.2366057212714E+00 -0.2654436033248E+01 -0.5782083595199E+00  0.2517686316466E+00
-0.2203654324529E+00 -0.2648841266023E+01 -0.5738413482461E+00  0.2554332533397E+00
-0.2096539544836E+00 -0.2639071311275E+01 -0.5697450616415E+00  0.2574448132907E+00
-0.2041391996660E+00 -0.2625175886610E+01 -0.5658630256873E+00  0.2583829650606E+00
-0.2033925940127E+00 -0.2607199972553E+01 -0.5621185216894E+00  0.2587390559240E+00
-0.2069021252994E+00 -0.2585172369532E+01 -0.5584149072873E+00  0.2589320785150E+00
-0.2140749342834E+00 -0.2559102942385E+01 -0.5546355835983E+00  0.2593276350959E+00
-0.2242299262265E+00 -0.2528987871201E+01 -0.5506435676907E+00  0.2602569896084E+00
-0.2365810021869E+00 -0.2494823152705E+01 -0.5462808391187E+00  0.2620340976468E+00
-0.2502129748130E+00 -0.2456623672434E+01 -0.5413673375163E+00  0.2649690992825E+00
-0.2640509740644E+00 -0.2414448856291E+01 -0.5356999740537E+00  0.2693772805761E+00
-0.2768252991523E+00 -0.2368434472230E+01 -0.5290519621599E+00  0.2755822413235E+00
-0.2870346206111E+00 -0.2318827410715E+01 -0.5211724140313E+00  0.2839126885431E+00
-0.2929095785091E+00 -0.2266024622611E+01 -0.5117868478502E+00  0.2946915438703E+00
-0.2923806359252E+00 -0.2210614415584E+01 -0.5005990177614E+00  0.3082162323023E+00
-0.2830544091702E+00 -0.2153421009638E+01 -0.4872950910229E+00  0.3247280286219E+00
-0.2622048268587E+00 -0.2095542333033E+01 -0.4715494390050E+00  0.3443666862912E+00
-0.2267883097738E+00 -0.2038369366369E+01 -0.4530315419792E+00  0.3671161079258E+00
-0.1734922516967E+00 -0.1983590229941E+01 -0.4314165027561E+00  0.3927359815299E+00
-0.9882766380476E-01 -0.1933170696341E+01 -0.4063996780850E+00  0.4206786515590E+00
 0.7220021876556E-03 -0.1889298688917E+01 -0.3777153429743E+00  0.4499954920136E+00
 0.1284849369166E+00 -0.1854280365171E+01 -0.3451590907941E+00  0.4792422262083E+00
 0.2873110170648E+00 -0.1830378189725E+01 -0.3086134391307E+00  0.5063994557690E+00
 0.4792116211659E+00 -0.1819589030659E+01 -0.2680754858932E+00  0.5288316913553E+00
 0.7049619907096E+00 -0.1823369429744E+01 -0.2236814911401E+00  0.5433131364450E+00
 0.9637259568467E+00 -0.1842348912237E+01 -0.1757245936965E+00  0.5461447826500E+00
 0.1252738141425E+01 -0.1876087294613E+01 -0.1246698324954E+00  0.5333734511730E+00
 0.1567106399138E+01 -0.1922913516691E+01 -0.7116142457105E-01  0.5011142548322E+00
 0.1899845084831E+01 -0.1979908735509E+01 -0.1601273037425E-01  0.4459500614766E+00
 0.2242176646490E+01 -0.2043077696279E+01  0.3981979063553E-01  0.3653454565624E+00
 0.2584096769084E+01 -0.2107710528939E+01  0.9527724944869E-01  0.2580025591343E+00
 0.2915103855416E+01 -0.2168891984991E+01  0.1492423763090E+00  0.1241212394292E+00
-0.6261710990932E+00 -0.2627610709448E+01 -0.6507563714052E+00  0.2748956079362E-01
-0.5706144147740E+00 -0.2651667287738E+01 -0.6444563501056E+00  0.7916731487515E-01
-0.5154970016100E+00 -0.2674654003710E+01 -0.6380302105715E+00  0.1231182428559E+00
-0.4622176852106E+00 -0.2695700429873E+01 -0.6315836324281E+00  0.1593805718965E+00
-0.4120687989183E+00 -0.2714021662979E+01 -0.6252181016960E+00  0.1883231886914E+00
-0.3661547455671E+00 -0.2728968178205E+01 -0.6190245939786E+00  0.2105868825998E+00
-0.3253360465694E+00 -0.2740054659001E+01 -0.6130781502497E+00  0.2269992150811E+00
-0.2902051046509E+00 -0.2746964013467E+01 -0.6074338326751E+00  0.2384826291084E+00
-0.2610922550068E+00 -0.2749529268562E+01 -0.6021243136861E+00  0.2459718006765E+00
-0.2380938202146E+00 -0.2747700746874E+01 -0.5971589223160E+00  0.2503507265310E+00
-0.2211115665708E+00 -0.2741507151141E+01 -0.5925237523716E+00  0.2524133614759E+00
-0.2098940221589E+00 -0.2731017948636E+01 -0.5881824029235E+00  0.2528463313417E+00
-0.2040724540856E+00 -0.2716312122816E+01 -0.5840769240838E+00  0.2522292666757E+00
-0.2031872328398E+00 -0.2697455965385E+01 -0.5801286482895E+00  0.2510472675837E+00
-0.2067026856197E+00 -0.2674490755861E+01 -0.5762386968827E+00  0.2497103574525E+00
-0.2140101846233E+00 -0.2647429962979E+01 -0.5722880380483E+00  0.2485757655891E+00
-0.2244203162166E+00 -0.2616264942649E+01 -0.5681370602391E+00  0.2479699901380E+00
-0.2371450033890E+00 -0.2580979174983E+01 -0.5636248440730E+00  0.2482085639293E+00
-0.2512718536467E+00 -0.2541568165354E+01 -0.5585680121234E+00  0.2496119449674E+00
-0.2657316028666E+00 -0.2498066046804E+01 -0.5527595381710E+00  0.2525166360671E+00
-0.2792606427350E+00 -0.2450578488303E+01 -0.5459678343431E+00  0.2572802710686E+00
-0.2903615198358E+00 -0.2399318757534E+01 -0.5379360634899E+00  0.2642799226562E+00
-0.2972633553414E+00 -0.2344648326261E+01 -0.5283823441940E+00  0.2739022963021E+00
-0.2978859876848E+00 -0.2287121060829E+01 -0.5170014174066E+00  0.2865242260177E+00
-0.2898122125956E+00 -0.2227534311402E+01 -0.5034693123018E+00  0.3024802791303E+00
-0.2702741478409E+00 -0.2166971092569E+01 -0.4874490553455E+00  0.3220148149365E+00
-0.2361624132172E+00 -0.2106819458689E+01 -0.4685963813639E+00  0.3452249507722E+00
-0.1840677466098E+00 -0.2048779328843E+01 -0.4465694217450E+00  0.3719865346813E+00
-0.1103669642744E+00 -0.1994849110572E+01 -0.4210432212434E+00  0.4018606304261E+00
-0.1136701314109E-01 -0.1947277585933E+01 -0.3917289256521E+00  0.4339840268741E+00
 0.1164794890954E+00 -0.1908465813548E+01 -0.3583972702311E+00  0.4669534028335E+00
 0.2762772215478E+00 -0.1880806249878E+01 -0.3209058104479E+00  0.4987210249849E+00
 0.4703103784398E+00 -0.1866454091294E+01 -0.2792287467316E+00  0.5265288708322E+00
 0.6996154811829E+00 -0.1867033883644E+01 -0.2334836839714E+00  0.5469156317548E+00
 0.9635647346196E+00 -0.1883324247776E+01 -0.1839519053724E+00  0.5558279366710E+00
 0.1259498582731E+01 -0.1914984455843E+01 -0.1310971765760E+00  0.5488538260513E+00
 0.1582481480733E+01 -0.1960362463873E+01 -0.7557619775427E-01  0.5215872512696E+00
 0.1925306348088E+01 -0.2016455019864E+01 -0.1822973462688E-01  0.4700959835227E+00
 0.2278796700554E+01 -0.2079076341470E+01  0.3994407241207E-01  0.3914185813747E+00
 0.2632406605508E+01 -0.2143241558561E+01  0.9783301084725E-01  0.2839998135330E+00
 0.2975016474068E+01 -0.2203719911018E+01  0.1542593149088E+00  0.1480104556854E+00
-0.6469783295024E+00 -0.2717137583393E+01 -0.6728231926049E+00  0.3684872683717E-01
-0.5885027928330E+00 -0.2742410835793E+01 -0.6661827356521E+00  0.8828165393744E-01
-0.5304164690887E+00 -0.2766534010388E+01 -0.6593901057209E+00  0.1316378343078E+00
-0.4742522593594E+00 -0.2788559474647E+01 -0.6525623565253E+00  0.1669783258713E+00
-0.4214208800803E+00 -0.2807640481240E+01 -0.6458122818875E+00  0.1947182749761E+00
-0.3731155935167E+00 -0.2823089454493E+01 -0.6392410191274E+00  0.2155611559197E+00
-0.3302497904708E+00 -0.2834409560800E+01 -0.6329318796856E+00  0.2304033857807E+00
-0.2934336739191E+00 -0.2841296052622E+01 -0.6269459546504E+00  0.2402322770316E+00
-0.2629866992313E+00 -0.2843611822203E+01 -0.6213197135453E+00  0.2460358166246E+00
-0.2389747252499E+00 -0.2841346817714E+01 -0.6160643177728E+00  0.2487358067647E+00
-0.2212587868104E+00 -0.2834571831347E+01 -0.6111661327386E+00  0.2491479686627E+00
-0.2095443175796E+00 -0.2823395164695E+01 -0.6065879054937E+00  0.2479666290017E+00
-0.2034228933915E+00 -0.2807927585975E+01 -0.6022701048478E+00  0.2457684539187E+00
-0.2024021867262E+00 -0.2788258069914E+01 -0.5981320602409E+00  0.2430288482155E+00
-0.2059225749703E+00 -0.2764440732766E+01 -0.5940726703996E+00  0.2401452975288E+00
-0.2133606092961E+00 -0.2736492122794E+01 -0.5899705552092E+00  0.2374632018992E+00
-0.2240206150024E+00 -0.2704397452707E+01 -0.5856836222693E+00  0.2353010685813E+00
-0.2371155944957E+00 -0.2668125594680E+01 -0.5810482464935E+00  0.2339730668134E+00
-0.2517399148595E+00 -0.2627649778069E+01 -0.5758779471669E+00  0.2338073429801E+00
-0.2668347054328E+00 -0.2582975062710E+01 -0.5699619621216E+00  0.2351593311929E+00
-0.2811479661464E+00 -0.2534172242562E+01 -0.5630640501321E+00  0.2384188213102E+00
-0.2931922375633E+00 -0.2481415078094E+01 -0.5549214714004E+00  0.2440098920132E+00
-0.3012016567863E+00 -0.2425022471462E+01 -0.5452448337745E+00  0.2523823737222E+00
-0.3030920992917E+00 -0.2365505544626E+01 -0.5337195367367E+00  0.2639928140615E+00
-0.2964288820883E+00 -0.2303625538215E+01 -0.5200108918094E+00  0.2792706326711E+00
-0.2784077476062E+00 -0.2240440742556E+01 -0.5037697055391E+00  0.2985680015024E+00
-0.2458571963100E+00 -0.2177326236474E+01 -0.4846366937785E+00  0.3221006878586E+00
-0.1952719047733E+00 -0.2115984147092E+01 -0.4622512172611E+00  0.3498689703966E+00
-0.1228901377264E+00 -0.2058437670477E+01 -0.4362655681416E+00  0.3815541230044E+00
-0.2483078675460E-01 -0.2006992219268E+01 -0.4063646072597E+00  0.4163928982726E+00
 0.1026936862180E+00 -0.1964145367722E+01 -0.3722903418484E+00  0.4530394517572E+00
 0.2630746328751E+00 -0.1932429070090E+01 -0.3338708924180E+00  0.4894338779927E+00
 0.4589116108165E+00 -0.1914175310457E+01 -0.2910527442651E+00  0.5227077601607E+00
 0.6915527847194E+00 -0.1911203093922E+01 -0.2439300654754E+00  0.5491678989944E+00
 0.9606305473487E+00 -0.1924470946130E+01 -0.1927680826288E+00  0.5643972856835E+00
 0.1263634130176E+01 -0.1953766441200E+01 -0.1380264642614E+00  0.5635001160839E+00
 0.1595606403214E+01 -0.1997475212637E+01 -0.8037376308228E-01  0.5415092170206E+00
 0.1949109091479E+01 -0.2052510421273E+01 -0.2068026626685E-01  0.4939284794937E+00
 0.2314520941096E+01 -0.2114475032670E+01  0.4000918228140E-01  0.4173228956226E+00
 0.2680676289724E+01 -0.2178069009048E+01  0.1005214576331E+00  0.3098442095911E+00
 0.3035738084056E+01 -0.2237693298018E+01  0.1596089595861E+00  0.1716177181667E+00
-0.6677635771200E+00 -0.2806875926298E+01 -0.6949279110389E+00  0.4668115476946E-01
-0.6062333890415E+00 -0.2833422625307E+01 -0.6879312131207E+00  0.9785232261449E-01
-0.5450462905434E+00 -0.2858732868353E+01 -0.6807558419233E+00  0.1405658542101E+00
-0.4858793156154E+00 -0.2881776800743E+01 -0.6735312333080E+00  0.1749094282465E+00
-0.4302697820933E+00 -0.2901642759923E+01 -0.6663825183332E+00  0.2013525986925E+00
-0.3795042268223E+00 -0.2917605093861E+01 -0.6594218739629E+00  0.2206719069693E+00
-0.3345489792048E+00 -0.2929158505531E+01 -0.6527415066738E+00  0.2338428378566E+00
-0.2960284743483E+00 -0.2936015894082E+01 -0.6464088833183E+00  0.2419257290813E+00
-0.2642454842872E+00 -0.2938076346692E+01 -0.6404643757395E+00  0.2459670103561E+00
-0.2392288652132E+00 -0.2935375643532E+01 -0.6349209112100E+00  0.2469283185335E+00
-0.2207928447311E+00 -0.2928031945568E+01 -0.6297649674442E+00  0.2456465883788E+00
-0.2085948965714E+00 -0.2916196348051E+01 -0.6249582582371E+00  0.2428214866261E+00
-0.2021835812259E+00 -0.2900013981719E+01 -0.6204395218343E+00  0.2390233050897E+00
-0.2010321299209E+00 -0.2879597834218E+01 -0.6161260020088E+00  0.2347138911955E+00
-0.2045566904475E+00 -0.2855015141866E+01 -0.6119143755810E+00  0.2302742726904E+00
-0.2121200069858E+00 -0.2826284949205E+01 -0.6076810002933E+00  0.2260342586243E+00
-0.2230222914324E+00 -0.2793384989081E+01 -0.6032814650922E+00  0.2223008545828E+00
-0.2364807809763E+00 -0.2756267465194E+01 -0.5985496581531E+00  0.2193836318791E+00
-0.2516006718754E+00 -0.2714880508110E+01 -0.5932962448379E+00  0.2176154716339E+00
-0.2673383958577E+00 -0.2669196423733E+01 -0.5873069726697E+00  0.2173680829925E+00
-0.2824592325093E+00 -0.2619246457445E+01 -0.5803411466387E+00  0.2190611074740E+00
-0.2954920501340E+00 -0.2565159051323E+01 -0.5721302288168E+00  0.2231637876595E+00
-0.3046828486521E+00 -0.2507203447760E+01 -0.5623772676626E+00  0.2301878918319E+00
-0.3079506562852E+00 -0.2445839592302E+01 -0.5507580579244E+00  0.2406694413384E+00
-0.3028502949288E+00 -0.2381783060325E+01 -0.5369266790517E+00  0.2551337680917E+00
-0.2865474423869E+00 -0.2316057040419E+01 -0.5205209043177E+00  0.2740436949929E+00
-0.2558133050635E+00 -0.2250012693755E+01 -0.5011652072316E+00  0.2977389591012E+00
-0.2070484868399E+00 -0.2185343491090E+01 -0.4784784027158E+00  0.3263528612800E+00
-0.1363498652163E+00 -0.2124087931262E+01 -0.4520875660322E+00  0.3596993655131E+00
-0.3963809503981E-01 -0.2068601965155E+01 -0.4216480183220E+00  0.3971316177579E+00
 0.8713472268912E-01 -0.2021479518670E+01 -0.3868689649610E+00  0.4373806582433E+00
 0.2476789378690E+00 -0.1985400339003E+01 -0.3475442854056E+00  0.4783943315673E+00
 0.4449543053943E+00 -0.1962891588427E+01 -0.3035874611304E+00  0.5172100758984E+00
 0.6806754945281E+00 -0.1955994719284E+01 -0.2550638487518E+00  0.5499099205884E+00
 0.9547934225581E+00 -0.1965882183896E+01 -0.2022177552808E+00  0.5717055235324E+00
 0.1264996525399E+01 -0.1992503046173E+01 -0.1455013063230E+00  0.5771905058297E+00
 0.1606334261979E+01 -0.2034303448475E+01 -0.8559383857469E-01  0.5607910376985E+00
 0.1971130355032E+01 -0.2088116119343E+01 -0.2339715321072E-01  0.5173896196299E+00
 0.2349271061886E+01 -0.2149311453822E+01  0.3999192220875E-01  0.4430204670861E+00
 0.2728886569621E+01 -0.2212230805424E+01  0.1033311543792E+00  0.3354986747715E+00
 0.3097313794587E+01 -0.2270849243795E+01  0.1652929126216E+00  0.1948830237653E+00
-0.6885271284961E+00 -0.2896852369805E+01 -0.7170759103454E+00  0.5701019532199E-01
-0.6237945581302E+00 -0.2924733573951E+01 -0.7097056369917E+00  0.1079013029440E+00
-0.5593633178594E+00 -0.2951284370273E+01 -0.7021295480890E+00  0.1499206650509E+00
-0.4970666502672E+00 -0.2975386636280E+01 -0.6944906676582E+00  0.1831868499116E+00
-0.4385780373033E+00 -0.2996060256043E+01 -0.6869276689052E+00  0.2082330951390E+00
-0.3852820784258E+00 -0.3012541705318E+01 -0.6795647668751E+00  0.2259207319963E+00
-0.3381975896492E+00 -0.3024321068488E+01 -0.6725037416484E+00  0.2373156442554E+00
-0.2979585841372E+00 -0.3031135251706E+01 -0.6658187770900E+00  0.2435599911680E+00
-0.2648440861988E+00 -0.3032926890304E+01 -0.6595542051288E+00  0.2457639003363E+00
-0.2388382780400E+00 -0.3029784590848E+01 -0.6537245835188E+00  0.2449305965467E+00
-0.2197016596234E+00 -0.3021879643437E+01 -0.6483162702727E+00  0.2419171773150E+00
-0.2070383525621E+00 -0.3009410101634E+01 -0.6432897004251E+00  0.2374257277586E+00
-0.2003503186866E+00 -0.2992558050773E+01 -0.6385816834076E+00  0.2320162353996E+00
-0.1990745307779E+00 -0.2971461739463E+01 -0.6341072634970E+00  0.2261326935930E+00
-0.2026026593005E+00 -0.2946201707779E+01 -0.6297608828001E+00  0.2201354028913E+00
-0.2102847341294E+00 -0.2916798847654E+01 -0.6254167256762E+00  0.2143345304815E+00
-0.2214190913773E+00 -0.2883222069518E+01 -0.6209282414317E+00  0.2090218056059E+00
-0.2352304455801E+00 -0.2845404907095E+01 -0.6161270797160E+00  0.2044986949340E+00
-0.2508389776927E+00 -0.2803267684517E+01 -0.6108213415438E+00  0.2010995527940E+00
-0.2672214277333E+00 -0.2756746425995E+01 -0.6047935797578E+00  0.1992093445315E+00
-0.2831661549246E+00 -0.2705828319752E+01 -0.5977989038433E+00  0.1992748298901E+00
-0.2972248783967E+00 -0.2650590820938E+01 -0.5895631486522E+00  0.2018080730646E+00
-0.3076625989284E+00 -0.2591246494793E+01 -0.5797818273836E+00  0.2073810262943E+00
-0.3124090605685E+00 -0.2528195617686E+01 -0.5681209441166E+00  0.2166083335884E+00
-0.3090162361041E+00 -0.2462098280124E+01 -0.5542229115042E+00  0.2301116988927E+00
-0.2946269909209E+00 -0.2393931643399E+01 -0.5377117348764E+00  0.2484669291934E+00
-0.2659613421780E+00 -0.2325011077361E+01 -0.5181944916294E+00  0.2721427658077E+00
-0.2193294341020E+00 -0.2257009131035E+01 -0.4952677204074E+00  0.3014142581527E+00
-0.1506857813754E+00 -0.2191968234493E+01 -0.4685308101554E+00  0.3362413650188E+00
-0.5574442432155E-01 -0.2132286539727E+01 -0.4376061993306E+00  0.3761118572185E+00
 0.6982187648756E-01 -0.2080651888726E+01 -0.4021660084403E+00  0.4198560437899E+00
 0.2300748808965E+00 -0.2039898380974E+01 -0.3619647054092E+00  0.4654535384504E+00
 0.4283815825699E+00 -0.2012766269652E+01 -0.3168769421382E+00  0.5098686110641E+00
 0.6668829407205E+00 -0.2001548871949E+01 -0.2669331902232E+00  0.5489699599122E+00
 0.9459143265019E+00 -0.2007670165653E+01 -0.2123511709944E+00  0.5775926005802E+00
 0.1263422880775E+01 -0.2031279087996E+01 -0.1535712437324E+00  0.5897916127004E+00
 0.1614500946072E+01 -0.2070910389716E+01 -0.9128189008896E-01  0.5793351068627E+00
 0.1991231562809E+01 -0.2123322692309E+01 -0.2641822629364E-01  0.5404168636892E+00
 0.2382958909941E+01 -0.2183632032259E+01  0.3986537613044E-01  0.4684720138266E+00
 0.2777017259217E+01 -0.2245773905277E+01  0.1062486723713E+00  0.3609263763847E+00
 0.3159798430342E+01 -0.2303234416792E+01  0.1713128052626E+00  0.2177459981121E+00
-0.7092691514377E+00 -0.2987094898915E+01 -0.7392728210865E+00  0.6786108209299E-01
-0.6411736174708E+00 -0.3016376192612E+01 -0.7315099729170E+00  0.1184521474721E+00
-0.5733424782726E+00 -0.3044223925990E+01 -0.7235132916337E+00  0.1597213957779E+00
-0.5077796077309E+00 -0.3069424483942E+01 -0.7154408289955E+00  0.1918232008903E+00
-0.4463057370225E+00 -0.3090925260932E+01 -0.7074462101327E+00  0.2153651702391E+00
-0.3904086722734E+00 -0.3107925394723E+01 -0.6996668238252E+00  0.2313067618843E+00
-0.3411585794348E+00 -0.3119915165674E+01 -0.6922147593366E+00  0.2408168779146E+00
-0.2991930921369E+00 -0.3126663085872E+01 -0.6851712458116E+00  0.2451289700133E+00
-0.2647589714690E+00 -0.3128163841319E+01 -0.6785845726694E+00  0.2454221705466E+00
-0.2377868009773E+00 -0.3124566698264E+01 -0.6724707098689E+00  0.2427426473836E+00
-0.2179755396252E+00 -0.3116102304880E+01 -0.6668155788375E+00  0.2379659895676E+00
-0.2048700428287E+00 -0.3103019993556E+01 -0.6615780171353E+00  0.2317931259409E+00
-0.1979218631981E+00 -0.3085541350907E+01 -0.6566926526066E+00  0.2247692378237E+00
-0.1965298615822E+00 -0.3063831002023E+01 -0.6520721824377E+00  0.2173157173964E+00
-0.2000610451197E+00 -0.3037982843394E+01 -0.6476087873528E+00  0.2097675293362E+00
-0.2078539163486E+00 -0.3008018890743E+01 -0.6431745710023E+00  0.2024108829713E+00
-0.2192072639337E+00 -0.2973897895755E+01 -0.6386210414540E+00  0.1955182215451E+00
-0.2333565975379E+00 -0.2935532809943E+01 -0.6337778909402E+00  0.1893791551861E+00
-0.2494413026828E+00 -0.2892813603593E+01 -0.6284509906198E+00  0.1843259633259E+00
-0.2664635024304E+00 -0.2845636701765E+01 -0.6224200501140E+00  0.1807534986758E+00
-0.2832405320485E+00 -0.2793940959698E+01 -0.6154363075200E+00  0.1791324777019E+00
-0.2983536402364E+00 -0.2737747396528E+01 -0.6072202164011E+00  0.1800149289900E+00
-0.3100942267352E+00 -0.2677205039014E+01 -0.5974598620526E+00  0.1840306307606E+00
-0.3164107413923E+00 -0.2612646024667E+01 -0.5858113619411E+00  0.1918713186776E+00
-0.3148606198529E+00 -0.2544664948510E+01 -0.5719051221946E+00  0.2042548196570E+00
-0.3025721568754E+00 -0.2474181515111E+01 -0.5553507426726E+00  0.2218715985230E+00
-0.2762216858164E+00 -0.2402462486494E+01 -0.5357368424452E+00  0.2453239497819E+00
-0.2320343552754E+00 -0.2331145719873E+01 -0.5126360226686E+00  0.2750373006682E+00
-0.1658235588894E+00 -0.2262264082374E+01 -0.4856175354890E+00  0.3111315108018E+00
-0.7309063444066E-01 -0.2198246946304E+01 -0.4542675229181E+00  0.3532488669443E+00
 0.5078819222110E-01 -0.2141870810177E+01 -0.4182165298231E+00  0.4003443490630E+00
 0.2102580914317E+00 -0.2096128318697E+01 -0.3771740510734E+00  0.4504577913195E+00
 0.4091423335381E+00 -0.2063989704944E+01 -0.3309694792130E+00  0.5005066929911E+00
 0.6500732257616E+00 -0.2048030768376E+01 -0.2795915126891E+00  0.5461631789488E+00
 0.9338452413141E+00 -0.2049968503215E+01 -0.2232246557064E+00  0.5818837524860E+00
 0.1258734685608E+01 -0.2070196247129E+01 -0.1622923147226E+00  0.6011564043216E+00
 0.1619923347348E+01 -0.2107372059260E+01 -0.9748974383509E-01  0.5970336672561E+00
 0.2009256538507E+01 -0.2158191027463E+01 -0.2978689823506E-01  0.5629421433128E+00
 0.2415484929933E+01 -0.2217492733969E+01  0.3959843978274E-01  0.4936366571884E+00
 0.2825046464987E+01 -0.2278755047407E+01  0.1092582851441E+00  0.3860908548521E+00
 0.3223256824286E+01 -0.2334905750858E+01  0.1776702173332E+00  0.2401461800731E+00
-0.7299896739013E+00 -0.3077633204819E+01 -0.7615245870916E+00  0.7926106443744E-01
-0.6583566170020E+00 -0.3108384997107E+01 -0.7533483340476E+00  0.1295300623679E+00
-0.5869563677274E+00 -0.3137588980362E+01 -0.7449090807179E+00  0.1699878954738E+00
-0.5179805966415E+00 -0.3163927464277E+01 -0.7363816231566E+00  0.2008305128923E+00
-0.4534100914036E+00 -0.3186270795798E+01 -0.7279361882874E+00  0.2227523305339E+00
-0.3948413199056E+00 -0.3203781777521E+01 -0.7197246302100E+00  0.2368262053766E+00
-0.3433937590569E+00 -0.3215956896308E+01 -0.7118701416807E+00  0.2443381489188E+00
-0.2997011328503E+00 -0.3222605323792E+01 -0.7044613018258E+00  0.2466230693719E+00
-0.2639677512461E+00 -0.3223783587176E+01 -0.6975502780788E+00  0.2449343599460E+00
-0.2360602922900E+00 -0.3219710328237E+01 -0.6911541344043E+00  0.2403619359457E+00
-0.2156074279078E+00 -0.3210682219559E+01 -0.6852579397045E+00  0.2337974434096E+00
-0.2020883319488E+00 -0.3197004278214E+01 -0.6798185321627E+00  0.2259363268071E+00
-0.1949001579697E+00 -0.3178940016204E+01 -0.6747680448895E+00  0.2173038367924E+00
-0.1934018150069E+00 -0.3156681355742E+01 -0.6700166441338E+00  0.2082935579442E+00
-0.1969355598176E+00 -0.3130335433806E+01 -0.6654542086408E+00  0.1992101898275E+00
-0.2048296678226E+00 -0.3099924580641E+01 -0.6609508595416E+00  0.1903114358065E+00
-0.2163858003371E+00 -0.3065396071990E+01 -0.6563563842460E+00  0.1818462452983E+00
-0.2308536414525E+00 -0.3026640486805E+01 -0.6514988353596E+00  0.1740884085802E+00
-0.2473960409559E+00 -0.2983515102713E+01 -0.6461822383626E+00  0.1673643222316E+00
-0.2650456165269E+00 -0.2935873699794E+01 -0.6401838728036E+00  0.1620750247763E+00
-0.2826546349621E+00 -0.2883602830198E+01 -0.6332515024682E+00  0.1587116052494E+00
-0.2988406678213E+00 -0.2826661931627E+01 -0.6251005292044E+00  0.1578626738635E+00
-0.3119291298863E+00 -0.2765129881642E+01 -0.6154118114759E+00  0.1602128386855E+00
-0.3198955575110E+00 -0.2699262332922E+01 -0.6038315870844E+00  0.1665286475754E+00
-0.3203118103664E+00 -0.2629578279873E+01 -0.5899780268392E+00  0.1776229783023E+00
-0.3103008688896E+00 -0.2556928111406E+01 -0.5734458046041E+00  0.1943017982275E+00
-0.2865043883928E+00 -0.2482516245771E+01 -0.5538041350851E+00  0.2173047881231E+00
-0.2450700523942E+00 -0.2407930503053E+01 -0.5306001189961E+00  0.2472160047953E+00
-0.1816739622524E+00 -0.2335178353850E+01 -0.5033704707213E+00  0.2843294249849E+00
-0.9160149286547E-01 -0.2266706357337E+01 -0.4716615770687E+00  0.3284631808824E+00
 0.3008241017955E-01 -0.2205370972941E+01 -0.4350577190352E+00  0.3787253156368E+00
 0.1882372650918E+00 -0.2154324466150E+01 -0.3932174460710E+00  0.4332490783295E+00
 0.3871932674032E+00 -0.2116782198964E+01 -0.3459177914668E+00  0.4889377746920E+00
 0.6301446273215E+00 -0.2095633866472E+01 -0.2930978521977E+00  0.5412902141488E+00
 0.9184294426854E+00 -0.2092935084154E+01 -0.2349011317940E+00  0.5843873054385E+00
 0.1250736752231E+01 -0.2109375293149E+01 -0.1717277107425E+00  0.6111217846468E+00
 0.1622397263604E+01 -0.2143778786026E+01 -0.1042763060381E+00  0.6137668500489E+00
 0.2025029119537E+01 -0.2192793360960E+01 -0.3355284878453E-01  0.5848907761845E+00
 0.2446736280058E+01 -0.2250959981926E+01  0.3915526020986E-01  0.5184716045847E+00
 0.2872949576362E+01 -0.2311241610373E+01  0.1123415948719E+00  0.4109560767969E+00
 0.3287763910259E+01 -0.2365931181253E+01  0.1843665485485E+00  0.2620232620335E+00
-0.7506885574225E+00 -0.3168499100004E+01 -0.7838375431653E+00  0.9123956792738E-01
-0.6753280689838E+00 -0.3200796990179E+01 -0.7752250233844E+00  0.1411620067179E+00
-0.6001747758829E+00 -0.3231419496484E+01 -0.7663188658925E+00  0.1807406721975E+00
-0.5276285331312E+00 -0.3258934702007E+01 -0.7573126583125E+00  0.2102199715283E+00
-0.4598449363548E+00 -0.3282130815505E+01 -0.7483951615239E+00  0.2303957385863E+00
-0.3985347971180E+00 -0.3300135964524E+01 -0.7397341633513E+00  0.2424718138039E+00
-0.3448636757484E+00 -0.3312460334024E+01 -0.7314648128541E+00  0.2478670778957E+00
-0.2994519537660E+00 -0.3318964520071E+01 -0.7236833055511E+00  0.2480287471049E+00
-0.2624493748157E+00 -0.3319778119624E+01 -0.7164455095639E+00  0.2442895374935E+00
-0.2336468886668E+00 -0.3315198779182E+01 -0.7097691441460E+00  0.2377831756895E+00
-0.2125931753798E+00 -0.3305596243469E+01 -0.7036378942548E+00  0.2294140012075E+00
-0.1986948516185E+00 -0.3291335609331E+01 -0.6980061025910E+00  0.2198667846339E+00
-0.1912905696851E+00 -0.3272724518593E+01 -0.6928030279792E+00  0.2096410518636E+00
-0.1896975240763E+00 -0.3249982841634E+01 -0.6879360833930E+00  0.1990969145185E+00
-0.1932332780576E+00 -0.3223230628052E+01 -0.6832927914037E+00  0.1885035870574E+00
-0.2012173154020E+00 -0.3192489615417E+01 -0.6787413962778E+00  0.1780855299612E+00
-0.2129566827336E+00 -0.3157694319834E+01 -0.6741302105589E+00  0.1680638382854E+00
-0.2277186635072E+00 -0.3118711314664E+01 -0.6692860056075E+00  0.1586923484508E+00
-0.2446938435146E+00 -0.3075363106494E+01 -0.6640113998964E+00  0.1502875387694E+00
-0.2629504473873E+00 -0.3027458121504E+01 -0.6580817235845E+00  0.1432526215962E+00
-0.2813816454840E+00 -0.2974827022226E+01 -0.6512417432463E+00  0.1380950621596E+00
-0.2986481914896E+00 -0.2917362914436E+01 -0.6432022307696E+00  0.1354361387400E+00
-0.3131172957053E+00 -0.2855068272100E+01 -0.6336371230030E+00  0.1360116260411E+00
-0.3228002990894E+00 -0.2788114159042E+01 -0.6221829008975E+00  0.1406597908557E+00
-0.3252930554385E+00 -0.2716933891661E+01 -0.6084453984865E+00  0.1502865502401E+00
-0.3177234981632E+00 -0.2642296363932E+01 -0.5920039812406E+00  0.1658132079054E+00
-0.2967091813043E+00 -0.2565329060767E+01 -0.5724076569438E+00  0.1881196896244E+00
-0.2583301155961E+00 -0.2487552818432E+01 -0.5491765949890E+00  0.2179562251665E+00
-0.1981318992007E+00 -0.2410931354994E+01 -0.5218126586145E+00  0.2558050679670E+00
-0.1111840975243E+00 -0.2337910923628E+01 -0.4898190115293E+00  0.3016826458792E+00
 0.7771144915301E-02 -0.2271415145949E+01 -0.4527288069529E+00  0.3548813234592E+00
 0.1640367340093E+00 -0.2214752982957E+01 -0.4101432559012E+00  0.4136659581197E+00
 0.3625014395138E+00 -0.2171397412378E+01 -0.3617791999637E+00  0.4749652201057E+00
 0.6069974643876E+00 -0.2144583598220E+01 -0.3075172313488E+00  0.5341357387427E+00
 0.8995020674558E+00 -0.2136755560261E+01 -0.2474507022484E+00  0.5848922341121E+00
 0.1239216144147E+01 -0.2148958809934E+01 -0.1819485358686E+00  0.6195057774130E+00
 0.1621694972716E+01 -0.2180237000730E+01 -0.1117084072674E+00  0.6294003362846E+00
 0.2038350325800E+01 -0.2227214473935E+01 -0.3777283018989E-01  0.6061801886354E+00
 0.2476584635510E+01 -0.2284111746099E+01  0.3849457845584E-01  0.5429317823674E+00
 0.2920698058564E+01 -0.2343312659528E+01  0.1154770815281E+00  0.4354863903955E+00
 0.3353404638114E+01 -0.2396390472069E+01  0.1914028360611E+00  0.2833172454178E+00
-0.7713654683805E+00 -0.3259727010424E+01 -0.8062185077745E+00  0.1038283935111E+00
-0.6920706308479E+00 -0.3293652232760E+01 -0.7971445845999E+00  0.1533768132322E+00
-0.6129641313931E+00 -0.3325758523498E+01 -0.7877445427165E+00  0.1920008157498E+00
-0.5366782013983E+00 -0.3354487770156E+01 -0.7782332059074E+00  0.2200015898634E+00
-0.4655601847234E+00 -0.3378540428842E+01 -0.7688201341695E+00  0.2382936827034E+00
-0.4014410062410E+00 -0.3397012524245E+01 -0.7596907174175E+00  0.2482322589429E+00
-0.3455275201733E+00 -0.3409437269957E+01 -0.7509929692168E+00  0.2513867034777E+00
-0.2984150272780E+00 -0.3415739464918E+01 -0.7428309095082E+00  0.2493280373954E+00
-0.2601843723498E+00 -0.3416134600335E+01 -0.7352638054932E+00  0.2434729714072E+00
-0.2305373042402E+00 -0.3411009880131E+01 -0.7283094477268E+00  0.2349981328586E+00
-0.2089318417264E+00 -0.3400815461799E+01 -0.7219494714631E+00  0.2248160718766E+00
-0.1946947753927E+00 -0.3385980779445E+01 -0.7161351216389E+00  0.2135947204783E+00
-0.1871021308139E+00 -0.3366859470184E+01 -0.7107923307912E+00  0.2018013756608E+00
-0.1854277808136E+00 -0.3343699646594E+01 -0.7058254959991E+00  0.1897565644805E+00
-0.1889648488033E+00 -0.3316633682572E+01 -0.7011197167225E+00  0.1776885484659E+00
-0.1970256220848E+00 -0.3285681705329E+01 -0.6965414758620E+00  0.1657836743732E+00
-0.2089251376880E+00 -0.3250764237706E+01 -0.6919378853895E+00  0.1542307244423E+00
-0.2239517303529E+00 -0.3211722410544E+01 -0.6871348384185E+00  0.1432593245001E+00
-0.2413279742832E+00 -0.3168342196918E+01 -0.6819340444019E+00  0.1331718098935E+00
-0.2601627740581E+00 -0.3120384366153E+01 -0.6761094381170E+00  0.1243692718828E+00
-0.2793961447522E+00 -0.3067620570447E+01 -0.6694033530147E+00  0.1173711592533E+00
-0.2977388917191E+00 -0.3009873325705E+01 -0.6615224533423E+00  0.1128269752980E+00
-0.3136079005721E+00 -0.2947062920476E+01 -0.6521341739272E+00  0.1115193095545E+00
-0.3250593007353E+00 -0.2879268103544E+01 -0.6408654904055E+00  0.1143541818632E+00
-0.3297230524920E+00 -0.2806826613379E+01 -0.6273099425218E+00  0.1223274833482E+00
-0.3247432830601E+00 -0.2730413497506E+01 -0.6110313652183E+00  0.1364744876466E+00
-0.3067256261780E+00 -0.2651063980559E+01 -0.5915579301623E+00  0.1578169668059E+00
-0.2716946373600E+00 -0.2570213397876E+01 -0.5683816155168E+00  0.1872777773496E+00
-0.2150755255652E+00 -0.2489760704242E+01 -0.5409672540226E+00  0.2255411021873E+00
-0.1317262395598E+00 -0.2412130507968E+01 -0.5087713570868E+00  0.2728448034239E+00
-0.1605871912403E-01 -0.2340295979970E+01 -0.4712709468412E+00  0.3286994393552E+00
 0.1376994278655E+00 -0.2277714827304E+01 -0.4280030862654E+00  0.3915448289280E+00
 0.3350473046009E+00 -0.2228126302918E+01 -0.3786158053053E+00  0.4583823574915E+00
 0.5805365040449E+00 -0.2195141835872E+01 -0.3229210711773E+00  0.5244670552681E+00
 0.8768910481831E+00 -0.2181647631493E+01 -0.2609513205505E+00  0.5831654558282E+00
 0.1223941107889E+01 -0.2189114584773E+01 -0.1930346982533E+00  0.6261042256378E+00
 0.1617562408708E+01 -0.2216871420361E+01 -0.1198618041166E+00  0.6437825464430E+00
 0.2048994979095E+01 -0.2261553069426E+01 -0.4251161869958E-01  0.6267184308687E+00
 0.2504883672193E+01 -0.2317038854778E+01  0.3756896404281E-01  0.5669694892837E+00
 0.2968258127707E+01 -0.2375060293186E+01  0.1186395686720E+00  0.4596463883330E+00
 0.3420273632268E+01 -0.2426376206731E+01  0.1987794880693E+00  0.3039684866699E+00
-0.7920198425162E+00 -0.3351354558110E+01 -0.8286748924735E+00  0.1170619579794E+00
-0.7085647256059E+00 -0.3386994511077E+01 -0.8191118595423E+00  0.1662053291242E+00
-0.6252868449780E+00 -0.3420652845119E+01 -0.8091879500772E+00  0.2037898926264E+00
-0.5450795116549E+00 -0.3450631171114E+01 -0.7991421484619E+00  0.2301838019210E+00
-0.4705012120869E+00 -0.3475536095047E+01 -0.7892074731870E+00  0.2464409364278E+00
-0.4035086259996E+00 -0.3494435365136E+01 -0.7795888098440E+00  0.2540914039739E+00
-0.3453430657346E+00 -0.3506896840866E+01 -0.7704479928007E+00  0.2548748129009E+00
-0.2965602193425E+00 -0.3512924668853E+01 -0.7618969889922E+00  0.2504980365301E+00
-0.2571551572658E+00 -0.3512834814798E+01 -0.7539980056482E+00  0.2424657978055E+00
-0.2267251779800E+00 -0.3507115495296E+01 -0.7467681457829E+00  0.2319954532773E+00
-0.2046260280681E+00 -0.3496304783734E+01 -0.7401861733901E+00  0.2200019453528E+00
-0.1900971092079E+00 -0.3480900408074E+01 -0.7341995143969E+00  0.2071291110624E+00
-0.1823477861678E+00 -0.3461303383603E+01 -0.7287302448132E+00  0.1938047747150E+00
-0.1806072528689E+00 -0.3437789902262E+01 -0.7236794418098E+00  0.1803033494291E+00
-0.1841447034857E+00 -0.3410503760980E+01 -0.7189297036060E+00  0.1668064865861E+00
-0.1922670097853E+00 -0.3379462336782E+01 -0.7143458799581E+00  0.1534574822534E+00
-0.2042998947916E+00 -0.3344570995501E+01 -0.7097741886349E+00  0.1404083142036E+00
-0.2195562013258E+00 -0.3305644227307E+01 -0.7050400962324E+00  0.1278600736079E+00
-0.2372946897115E+00 -0.3262430084562E+01 -0.6999449652846E+00  0.1160965828479E+00
-0.2566699339651E+00 -0.3214639855412E+01 -0.6942619682207E+00  0.1055122669362E+00
-0.2766746521816E+00 -0.3161983612867E+01 -0.6877316632576E+00  0.9663379117037E-01
-0.2960765189797E+00 -0.3104209620533E+01 -0.6800572380361E+00  0.9013392023426E-01
-0.3133499981306E+00 -0.3041150798066E+01 -0.6709001692366E+00  0.8683700620238E-01
-0.3266051665770E+00 -0.2972786383976E+01 -0.6598783199436E+00  0.8771193482128E-01
-0.3335166500244E+00 -0.2899348994472E+01 -0.6465731385340E+00  0.9384034538196E-01
-0.3312569069905E+00 -0.2821407497735E+01 -0.6305328903408E+00  0.1063687236989E+00
-0.3164334223929E+00 -0.2739888968611E+01 -0.6112644873094E+00  0.1264607293779E+00
-0.2850300576470E+00 -0.2656123256229E+01 -0.5882306715405E+00  0.1552167802551E+00
-0.2323654109957E+00 -0.2571920825811E+01 -0.5608572557188E+00  0.1935355957892E+00
-0.1530946982396E+00 -0.2489659114122E+01 -0.5285507703483E+00  0.2418997329030E+00
-0.4129737525162E-01 -0.2412337679089E+01 -0.4907270181806E+00  0.3000740136869E+00
 0.1092903152121E+00 -0.2343548836893E+01 -0.4468517109948E+00  0.3667217461139E+00
 0.3048284444276E+00 -0.2287301503826E+01 -0.3964946177879E+00  0.4389729451684E+00
 0.5506741073202E+00 -0.2247612074597E+01 -0.3393875985127E+00  0.5120328094697E+00
 0.8504186143256E+00 -0.2227866180836E+01 -0.2754895174072E+00  0.5789488504339E+00
 0.1204660122091E+01 -0.2230039730728E+01 -0.2050759247833E+00  0.6306868700458E+00
 0.1609715882379E+01 -0.2253827606033E+01 -0.1288223466503E+00  0.6567411483181E+00
 0.2056707582205E+01 -0.2295923193051E+01 -0.4784312288223E-01  0.6464023510507E+00
 0.2531466112663E+01 -0.2349846408844E+01  0.3632394130497E-01  0.5905340757769E+00
 0.3015589268718E+01 -0.2406591294444E+01  0.1217995966698E+00  0.4834006069192E+00
 0.3488474241455E+01 -0.2455994905180E+01  0.2064958703320E+00  0.3239174111946E+00
-0.8126508398222E+00 -0.3443423257164E+01 -0.8512148320813E+00  0.1309775817929E+00
-0.7247880865970E+00 -0.3480872136858E+01 -0.8411320572248E+00  0.1796805797853E+00
-0.6371005296711E+00 -0.3516153750863E+01 -0.8306508684844E+00  0.2161298038608E+00
-0.5527766396006E+00 -0.3547412894606E+01 -0.8200379190608E+00  0.2407729562925E+00
-0.4746081738583E+00 -0.3573155832084E+01 -0.8095528132518E+00  0.2548279853175E+00
-0.4046827583829E+00 -0.3592427573385E+01 -0.7994220782658E+00  0.2600274513378E+00
-0.3442666565486E+00 -0.3604845086133E+01 -0.7898223603056E+00  0.2583031900332E+00
-0.2938580303109E+00 -0.3610509782853E+01 -0.7808735742688E+00  0.2515103556142E+00
-0.2533463982304E+00 -0.3609854591734E+01 -0.7726402095062E+00  0.2412446965543E+00
-0.2222074726173E+00 -0.3603481033624E+01 -0.7651377126498E+00  0.2287605191211E+00
-0.1996822383806E+00 -0.3592022579817E+01 -0.7583409749396E+00  0.2149677627023E+00
-0.1849149906139E+00 -0.3576048702094E+01 -0.7521927497501E+00  0.2004777065978E+00
-0.1770446341434E+00 -0.3556008524833E+01 -0.7466106429207E+00  0.1856707055722E+00
-0.1752546873459E+00 -0.3532205588345E+01 -0.7414920661873E+00  0.1707681600980E+00
-0.1787912495655E+00 -0.3504793843768E+01 -0.7367170296446E+00  0.1558993411919E+00
-0.1869577701684E+00 -0.3473786646925E+01 -0.7321488943285E+00  0.1411595730200E+00
-0.1990934394209E+00 -0.3439073136897E+01 -0.7276333261061E+00  0.1266595790748E+00
-0.2145390435703E+00 -0.3400440251078E+01 -0.7229958697031E+00  0.1125675873291E+00
-0.2325936323582E+00 -0.3357597172569E+01 -0.7180381716851E+00  0.9914444150542E-01
-0.2524623071385E+00 -0.3310204438615E+01 -0.7125333597682E+00  0.8677314277834E-01
-0.2731962086870E+00 -0.3257908614982E+01 -0.7062209752572E+00  0.7598245940879E-01
-0.2936265789332E+00 -0.3200380752923E+01 -0.6988014767842E+00  0.6746295079331E-01
-0.3122932994020E+00 -0.3137361951477E+01 -0.6899310604566E+00  0.6207497878662E-01
-0.3273696195071E+00 -0.3068725443204E+01 -0.6792190226634E+00  0.6084445232533E-01
-0.3365857094135E+00 -0.2994589739445E+01 -0.6662350996993E+00  0.6493327850949E-01
-0.3371552717282E+00 -0.2915405450589E+01 -0.6505121541567E+00  0.7559482108096E-01
-0.3257029342635E+00 -0.2831975290117E+01 -0.6315356542867E+00  0.9413279467063E-01
-0.2981892264707E+00 -0.2745502355682E+01 -0.6087383255015E+00  0.1218281215546E+00
-0.2498438723231E+00 -0.2657682215849E+01 -0.5815052262996E+00  0.1598049896690E+00
-0.1751335840970E+00 -0.2570815156119E+01 -0.5491897562267E+00  0.2088133159370E+00
-0.6780928996472E-01 -0.2487897681197E+01 -0.5111414018490E+00  0.2689098333262E+00
 0.7890026048123E-01 -0.2412635100583E+01 -0.4667469749755E+00  0.3390348459453E+00
 0.2718639712224E+00 -0.2349302356802E+01 -0.4154876833072E+00  0.4165121386695E+00
 0.5173341893350E+00 -0.2302345627826E+01 -0.3570022930179E+00  0.4965619054660E+00
 0.8199034805040E+00 -0.2275709635471E+01 -0.2911612353320E+00  0.5719560201205E+00
 0.1181101145101E+01 -0.2271965942216E+01 -0.2181729626740E+00  0.6329927055831E+00
 0.1597838275733E+01 -0.2291275180352E+01 -0.1386873829905E+00  0.6680787025098E+00
 0.2061197263647E+01 -0.2330455758624E+01 -0.5385169979791E-01  0.6651153736376E+00
 0.2556140375196E+01 -0.2382655323266E+01  0.3469701090312E-01  0.6135718882155E+00
 0.3062643004936E+01 -0.2438029339636E+01  0.1249227349214E+00  0.5067132191708E+00
 0.3558117025415E+01 -0.2485368472939E+01  0.2145497136921E+00  0.3431037846679E+00
-0.8332572924222E+00 -0.3535979347983E+01 -0.8738473411024E+00  0.1456158407420E+00
-0.7407152069372E+00 -0.3575338895200E+01 -0.8632108332903E+00  0.1938379586529E+00
-0.6483570701680E+00 -0.3612317928024E+01 -0.8521350123363E+00  0.2290425929284E+00
-0.5597070256408E+00 -0.3644885023230E+01 -0.8409184223048E+00  0.2517726825128E+00
-0.4778152497286E+00 -0.3671439377715E+01 -0.8298509378545E+00  0.2634400916165E+00
-0.4049045858200E+00 -0.3691011124699E+01 -0.8191831543106E+00  0.2660119484814E+00
-0.3422532664179E+00 -0.3703284340744E+01 -0.8091075334891E+00  0.2616367777458E+00
-0.2902799301465E+00 -0.3708478858599E+01 -0.7997517696663E+00  0.2523305510932E+00
-0.2487454773771E+00 -0.3707163093846E+01 -0.7911817260342E+00  0.2397815934647E+00
-0.2169849347697E+00 -0.3700064869475E+01 -0.7834099725227E+00  0.2252753576236E+00
-0.1941112738631E+00 -0.3687920265278E+01 -0.7764063193976E+00  0.2097075433611E+00
-0.1791659976445E+00 -0.3671373185932E+01 -0.7701078481909E+00  0.1936470975380E+00
-0.1712141622382E+00 -0.3650920748111E+01 -0.7644269934608E+00  0.1774181650528E+00
-0.1693931012867E+00 -0.3626892420715E+01 -0.7592571157143E+00  0.1611819387344E+00
-0.1729270494146E+00 -0.3599450618513E+01 -0.7544755448282E+00  0.1450095228678E+00
-0.1811182641376E+00 -0.3568603269461E+01 -0.7499443178947E+00  0.1289434612031E+00
-0.1933222608549E+00 -0.3534222339912E+01 -0.7455089312624E+00  0.1130489005496E+00
-0.2089111516937E+00 -0.3496066640859E+01 -0.7409955695523E+00  0.9745694280369E-01
-0.2272282401786E+00 -0.3453806043895E+01 -0.7362068677850E+00  0.8240094657860E-01
-0.2475338293787E+00 -0.3407049699233E+01 -0.7309167166138E+00  0.6824756170772E-01
-0.2689430049131E+00 -0.3355379469111E+01 -0.7248645056061E+00  0.5552223319096E-01
-0.2903570829621E+00 -0.3298387043801E+01 -0.7177488360479E+00  0.4492737212238E-01
-0.3103890444281E+00 -0.3235718120452E+01 -0.7092214435442E+00  0.3735291095962E-01
-0.3272844749638E+00 -0.3167134311300E+01 -0.6988837676669E+00  0.3387496768888E-01
-0.3388401300401E+00 -0.3092631834566E+01 -0.6862944031478E+00  0.3572890842713E-01
-0.3423244741067E+00 -0.3012531500800E+01 -0.6709712049795E+00  0.4426889367588E-01
-0.3343959531371E+00 -0.2927495440993E+01 -0.6523782885472E+00  0.6093467194327E-01
-0.3110117071652E+00 -0.2838577745325E+01 -0.6299178998846E+00  0.8718811615742E-01
-0.2673345021069E+00 -0.2747330155636E+01 -0.6029329405330E+00  0.1243874219080E+00
-0.1976627501119E+00 -0.2655941225291E+01 -0.5707208035850E+00  0.1735710531188E+00
-0.9543023513707E-01 -0.2567368010978E+01 -0.5325596571587E+00  0.2351260098122E+00
 0.4665037026286E-01 -0.2485398329605E+01 -0.4877495991365E+00  0.3083275985616E+00
 0.2361997712389E+00 -0.2414560402701E+01 -0.4356721327845E+00  0.3907681971536E+00
 0.4804572528891E+00 -0.2359748773360E+01 -0.3758583096948E+00  0.4777628166670E+00
 0.7851640334407E+00 -0.2325527641745E+01 -0.3080727262514E+00  0.5618688598897E+00
 0.1152971303955E+01 -0.2315166080009E+01 -0.2324389586745E+00  0.6327244716540E+00
 0.1581574666796E+01 -0.2329411824706E+01 -0.1495674338108E+00  0.6775670672333E+00
 0.2062131357669E+01 -0.2365299944566E+01 -0.6063371828295E-01  0.6827245458089E+00
 0.2578686497568E+01 -0.2415603572726E+01  0.3261658545455E-01  0.6360266084488E+00
 0.3109362148767E+01 -0.2469517717725E+01  0.1279688881152E+00  0.5295478799681E+00
 0.3629316974911E+01 -0.2514635963047E+01  0.2229362056948E+00  0.3614650725818E+00
-0.8538376322539E+00 -0.3629074801612E+01 -0.8965825001333E+00  0.1610209814570E+00
-0.7563166641971E+00 -0.3670455179787E+01 -0.8853543819895E+00  0.2087154387606E+00
-0.6590015001323E+00 -0.3709208507072E+01 -0.8736420144592E+00  0.2425501765874E+00
-0.5658002038647E+00 -0.3743104399242E+01 -0.8617809334628E+00  0.2631830860617E+00
-0.4800498089203E+00 -0.3770428296416E+01 -0.8500956337346E+00  0.2722561518082E+00
-0.4041110530661E+00 -0.3790206453193E+01 -0.8388635137518E+00  0.2720086208621E+00
-0.3392566521122E+00 -0.3802212452201E+01 -0.8282938332052E+00  0.2648327433854E+00
-0.2857988086105E+00 -0.3806809451999E+01 -0.8185216643188E+00  0.2529175365767E+00
-0.2433430465918E+00 -0.3804722001199E+01 -0.8096130216223E+00  0.2380433985922E+00
-0.2110626189535E+00 -0.3796817711153E+01 -0.8015760779658E+00  0.2215186105223E+00
-0.1879286562977E+00 -0.3783941876920E+01 -0.7943741184806E+00  0.2042132734635E+00
-0.1728724597908E+00 -0.3766814455941E+01 -0.7879373948876E+00  0.1866428283712E+00
-0.1648824680266E+00 -0.3745979371564E+01 -0.7821723795734E+00  0.1690657674888E+00
-0.1630499500157E+00 -0.3721789786196E+01 -0.7769679588201E+00  0.1515756875152E+00
-0.1665789762706E+00 -0.3694414415567E+01 -0.7721986898742E+00  0.1341798431180E+00
-0.1747731023968E+00 -0.3663854220021E+01 -0.7677254759235E+00  0.1168634144873E+00
-0.1870070887887E+00 -0.3629963207689E+01 -0.7633940706710E+00  0.9964187276601E-01
-0.2026876655064E+00 -0.3592471886324E+01 -0.7590319216765E+00  0.8260507366801E-01
-0.2212061654555E+00 -0.3551010952103E+01 -0.7544434347539E+00  0.6595440330221E-01
-0.2418825285996E+00 -0.3505138247440E+01 -0.7494041663749E+00  0.5003510945213E-01
-0.2639010490993E+00 -0.3454370558490E+01 -0.7436543325993E+00  0.3536361428665E-01
-0.2862393596043E+00 -0.3398218986574E+01 -0.7368916802162E+00  0.2264779743047E-01
-0.3075909633509E+00 -0.3336231257055E+01 -0.7287644549406E+00  0.1280006620464E-01
-0.3262827419344E+00 -0.3268052819919E+01 -0.7188671230826E+00  0.6938968911747E-02
-0.3401890488687E+00 -0.3193550462244E+01 -0.7067479127539E+00  0.6365146474515E-02
-0.3466470105487E+00 -0.3112904515987E+01 -0.6919103156175E+00  0.1252558285295E-01
-0.3423667376502E+00 -0.3026620687483E+01 -0.6737974950671E+00  0.2698954832994E-01
-0.3233243868549E+00 -0.2935581216874E+01 -0.6517811304581E+00  0.5139729137655E-01
-0.2846419820133E+00 -0.2841162876770E+01 -0.6251609810722E+00  0.8734636517048E-01
-0.2204763733907E+00 -0.2745403324115E+01 -0.5931759483401E+00  0.1361824332672E+00
-0.1239642458732E+00 -0.2651176255512E+01 -0.5550281085476E+00  0.1986606707609E+00
 0.1269679672831E-01 -0.2562311199490E+01 -0.5099228881508E+00  0.2744530372595E+00
 0.1979146610605E+00 -0.2483565380748E+01 -0.4571301507492E+00  0.3615051360284E+00
 0.4400066989233E+00 -0.2420291035837E+01 -0.3960568732845E+00  0.4553235001737E+00
 0.7460228338953E+00 -0.2377730403531E+01 -0.3263415187901E+00  0.5483340603516E+00
 0.1119957359601E+01 -0.2359962601138E+01 -0.2480010520029E+00  0.6295421907635E+00
 0.1560527466222E+01 -0.2368468575861E+01 -0.1615882243356E+00  0.6849401371883E+00
 0.2059127135681E+01 -0.2400624457800E+01 -0.6829946544154E-01  0.6990763348259E+00
 0.2598850938870E+01 -0.2448846550734E+01  0.3000087807408E-01  0.6578402410461E+00
 0.3155681385221E+01 -0.2501222512886E+01  0.1308917764174E+00  0.5518683381140E+00
 0.3702189152709E+01 -0.2543955758084E+01  0.2316466823768E+00  0.3789333265556E+00
-0.8743898035406E+00 -0.3722768541523E+01 -0.9194316827132E+00  0.1772414266702E+00
-0.7715582929187E+00 -0.3766289368878E+01 -0.9075695458831E+00  0.2243538123890E+00
-0.6689706492196E+00 -0.3806896302984E+01 -0.8951734037798E+00  0.2566739784609E+00
-0.5709764378417E+00 -0.3842133368050E+01 -0.8826219743304E+00  0.2749997313467E+00
-0.4812315035619E+00 -0.3870166020118E+01 -0.8702795177042E+00  0.2812473085937E+00
-0.4022346050433E+00 -0.3890031853777E+01 -0.8584533045559E+00  0.2779720149227E+00
-0.3352296390736E+00 -0.3901621806004E+01 -0.8473703016424E+00  0.2678394553681E+00
-0.2803895707968E+00 -0.3905471575095E+01 -0.8371722416532E+00  0.2532230012061E+00
-0.2371336983400E+00 -0.3902484614691E+01 -0.8279236749432E+00  0.2359918114444E+00
-0.2044504789937E+00 -0.3893681962472E+01 -0.8196265005066E+00  0.2174655918940E+00
-0.1811550750745E+00 -0.3880023700069E+01 -0.8122357671320E+00  0.1984750758136E+00
-0.1660617610530E+00 -0.3862306021939E+01 -0.8056735686038E+00  0.1794695715588E+00
-0.1580804536887E+00 -0.3841117160345E+01 -0.7998395347252E+00  0.1606318559059E+00
-0.1562572609981E+00 -0.3816830793688E+01 -0.7946176227780E+00  0.1419804853515E+00
-0.1597783350191E+00 -0.3789619261849E+01 -0.7898795311438E+00  0.1234534298473E+00
-0.1679512950667E+00 -0.3759474897080E+01 -0.7854852501340E+00  0.1049742767451E+00
-0.1801731064608E+00 -0.3726233169324E+01 -0.7812812667990E+00  0.8650505190250E-01
-0.1958882743085E+00 -0.3689596567704E+01 -0.7770969799821E+00  0.6809047099611E-01
-0.2145396921004E+00 -0.3649157404005E+01 -0.7727394307359E+00  0.4989554333671E-01
-0.2355110733920E+00 -0.3604423091655E+01 -0.7679868444533E+00  0.3223899083357E-01
-0.2580608641957E+00 -0.3554845883875E+01 -0.7625813609776E+00  0.1562228388119E-01
-0.2812489178796E+00 -0.3499856092817E+01 -0.7562210134078E+00  0.7519926674474E-03
-0.3038563210473E+00 -0.3438902052850E+01 -0.7485516859337E+00 -0.1144470596056E-01
-0.3242998515900E+00 -0.3371509777743E+01 -0.7391619368809E+00 -0.1981554319931E-01
-0.3405422260242E+00 -0.3297410809359E+01 -0.7275906179185E+00 -0.2300417538788E-01
-0.3500032387656E+00 -0.3216635553469E+01 -0.7133277690764E+00 -0.1948076876831E-01
-0.3494633875693E+00 -0.3129518293625E+01 -0.6957963466070E+00 -0.7555807716689E-02
-0.3349424841089E+00 -0.3036746520885E+01 -0.6743378110471E+00  0.1458321223434E-01
-0.3015523103207E+00 -0.2939489176791E+01 -0.6482083070814E+00  0.4877450547807E-01
-0.2433418697655E+00 -0.2839589514336E+01 -0.6165862860081E+00  0.9668582638617E-01
-0.1531806732855E+00 -0.2739786073364E+01 -0.5785933579515E+00  0.1594765021606E+00
-0.2276412674955E-01 -0.2643897582099E+01 -0.5333323497170E+00  0.2372791124897E+00
 0.1571274421245E+00 -0.2556871739534E+01 -0.4799488666336E+00  0.3284865651791E+00
 0.3959765544367E+00 -0.2484514773258E+01 -0.4177076499885E+00  0.4289121800261E+00
 0.7023127201137E+00 -0.2432800055561E+01 -0.3460974722467E+00  0.5309597364111E+00
 0.1081727328815E+01 -0.2406738447355E+01 -0.2650022276568E+00  0.6230557611628E+00
 0.1534251263027E+01 -0.2408717268798E+01 -0.1748932037601E+00  0.6898844523046E+00
 0.2051740982942E+01 -0.2436618957673E+01 -0.7697559609324E-01  0.7139902155623E+00
 0.2616339163139E+01 -0.2482555391107E+01  0.2675675480517E-01  0.6789548126879E+00
 0.3201530567445E+01 -0.2533335567665E+01  0.1336390019474E+00  0.5736411953968E+00
 0.3776842037442E+01 -0.2573507987240E+01  0.2406668136264E+00  0.3954298017984E+00
-0.8949111462408E+00 -0.3817127934482E+01 -0.9424078301876E+00  0.1943303807648E+00
-0.7864001542145E+00 -0.3862919480707E+01 -0.9298639408403E+00  0.2407969499953E+00
-0.6781914944104E+00 -0.3905461256777E+01 -0.9167305638979E+00  0.2714344168719E+00
-0.5751451221679E+00 -0.3942040546841E+01 -0.9034371472641E+00  0.2872123376432E+00
-0.4812712922376E+00 -0.3970697717576E+01 -0.8903938152307E+00  0.2903752484737E+00
-0.3992030152292E+00 -0.3990502583095E+01 -0.8779411327471E+00  0.2838459135317E+00
-0.3301245832666E+00 -0.4001498021715E+01 -0.8663245339055E+00  0.2705953681705E+00
-0.2740299128763E+00 -0.4004426369642E+01 -0.8556912692544E+00  0.2531908544833E+00
-0.2301167709266E+00 -0.4000394764523E+01 -0.8461023196979E+00  0.2335832206734E+00
-0.1971640343304E+00 -0.3990590966433E+01 -0.8375510126333E+00  0.2130884597251E+00
-0.1738168585881E+00 -0.3976093830557E+01 -0.8299821501966E+00  0.1924814811824E+00
-0.1587666338322E+00 -0.3957774110859E+01 -0.8233081612065E+00  0.1721313764465E+00
-0.1508439937530E+00 -0.3936260279358E+01 -0.8174208668027E+00  0.1521346594879E+00
-0.1490517348923E+00 -0.3911942290020E+01 -0.8121988170851E+00  0.1324275252358E+00
-0.1525609516408E+00 -0.3884992887495E+01 -0.8075107798601E+00  0.1128736418464E+00
-0.1606863760929E+00 -0.3855394019788E+01 -0.8032160911451E+00  0.9333127224256E-01
-0.1728501476726E+00 -0.3822962298770E+01 -0.7991625011970E+00  0.7370567178733E-01
-0.1885375161221E+00 -0.3787373012336E+01 -0.7951821175407E+00  0.5399283771086E-01
-0.2072461602249E+00 -0.3748181615027E+01 -0.7910855668385E+00  0.3431714903142E-01
-0.2284273422739E+00 -0.3704846856338E+01 -0.7866548514444E+00  0.1496565746910E-01
-0.2514182210582E+00 -0.3656758006612E+01 -0.7816352571812E+00 -0.3581229230172E-02
-0.2753663665314E+00 -0.3603265519212E+01 -0.7757263887078E+00 -0.2062536947964E-01
-0.2991470458579E+00 -0.3543718202593E+01 -0.7685730611428E+00 -0.3523306721903E-01
-0.3212750108617E+00 -0.3477520822268E+01 -0.7597591779473E+00 -0.4622791047797E-01
-0.3398116120313E+00 -0.3404265469327E+01 -0.7488154274299E+00 -0.5220878336016E-01
-0.3522730939921E+00 -0.3323824809130E+01 -0.7352195915801E+00 -0.5157503522874E-01
-0.3555295556302E+00 -0.3236348087040E+01 -0.7183755392387E+00 -0.4252917157097E-01
-0.3456709718555E+00 -0.3142305752840E+01 -0.6975953553341E+00 -0.2309659225759E-01
-0.3178334796283E+00 -0.3042625040276E+01 -0.6720917139957E+00  0.8797945915298E-02
-0.2659991894028E+00 -0.2938907473784E+01 -0.6409813421886E+00  0.5515403522480E-01
-0.1828113639697E+00 -0.2833696686389E+01 -0.6033016190616E+00  0.1175673660974E+00
-0.5949037304570E-01 -0.2730735126760E+01 -0.5580451082766E+00  0.1966955159314E+00
 0.1140050576709E+00 -0.2635105229084E+01 -0.5042200417961E+00  0.2914811695213E+00
 0.3484010464290E+00 -0.2553045865313E+01 -0.4409289703472E+00  0.3981794832064E+00
 0.6538851284005E+00 -0.2491304164037E+01 -0.3674838126032E+00  0.5093125407258E+00
 0.1037934013089E+01 -0.2455950769346E+01 -0.2836033554773E+00  0.6128167573228E+00
 0.1502248142997E+01 -0.2450481093255E+01 -0.1896465928776E+00  0.6920272981326E+00
 0.2039454492140E+01 -0.2473496598424E+01 -0.8680842255029E-01  0.7272483159059E+00
 0.2630803562666E+01 -0.2516911324146E+01  0.2277844804338E-01  0.6993137054274E+00
 0.3246842488150E+01 -0.2566074536946E+01  0.1361535922697E+00  0.5948432922195E+00
 0.3853367443817E+01 -0.2603495629782E+01  0.2499743665320E+00  0.4108561883783E+00
-0.9153982397919E+00 -0.3912230630360E+01 -0.9655257884178E+00  0.2123465567717E+00
-0.8007952473397E+00 -0.3960435208321E+01 -0.9522461053217E+00  0.2580920750762E+00
-0.6865791450658E+00 -0.4004994161897E+01 -0.9383146753745E+00  0.2868501951100E+00
-0.5782029141832E+00 -0.4042901662853E+01 -0.9242209291792E+00  0.2998031066382E+00
-0.4800704118032E+00 -0.4072070002568E+01 -0.9104280964406E+00  0.2995901173407E+00
-0.3949393565921E+00 -0.4091629670302E+01 -0.8973138187499E+00  0.2895614991232E+00
-0.3238940621232E+00 -0.4101818366188E+01 -0.8851424988519E+00  0.2730278315565E+00
-0.2667013105891E+00 -0.4103624598643E+01 -0.8740651948710E+00  0.2527567334972E+00
-0.2222972959618E+00 -0.4098385665605E+01 -0.8641366051899E+00  0.2307687335308E+00
-0.1892251003153E+00 -0.4087468306531E+01 -0.8553386941149E+00  0.2083565239985E+00
-0.1659464489018E+00 -0.4072071869535E+01 -0.8476036763177E+00  0.1862198083103E+00
-0.1510254186728E+00 -0.4053137646090E+01 -0.8408326254819E+00  0.1646319871055E+00
-0.1432140503930E+00 -0.4031328442618E+01 -0.8349085110434E+00  0.1435924810521E+00
-0.1414747884463E+00 -0.4007045081384E+01 -0.8297039863296E+00  0.1229481480995E+00
-0.1449672061550E+00 -0.3980456941508E+01 -0.8250848418273E+00  0.1024839517108E+00
-0.1530164770506E+00 -0.3951533775767E+01 -0.8209100627961E+00  0.8198975406746E-01
-0.1650728518124E+00 -0.3920073343168E+01 -0.8170292511707E+00  0.6131128187019E-01
-0.1806650454480E+00 -0.3885725158629E+01 -0.8132780529342E+00  0.4039264486408E-01
-0.1993483711427E+00 -0.3848010168465E+01 -0.8094717199836E+00  0.1931355968566E-01
-0.2206449865569E+00 -0.3806341198578E+01 -0.8053972490283E+00 -0.1675702868029E-02
-0.2439748808123E+00 -0.3760047183323E+01 -0.8008044247600E+00 -0.2212204131828E-01
-0.2685783634779E+00 -0.3708400874569E+01 -0.7953958594617E+00 -0.4134314300327E-01
-0.2934309203028E+00 -0.3650652827269E+01 -0.7888167612686E+00 -0.5840750613944E-01
-0.3171526668470E+00 -0.3586086393296E+01 -0.7806478236612E+00 -0.7212492428085E-01
-0.3379130976257E+00 -0.3514151901333E+01 -0.7704130112718E+00 -0.8106171996593E-01
-0.3533380860282E+00 -0.3434558520826E+01 -0.7575793326597E+00 -0.8356051445011E-01
-0.3604065634788E+00 -0.3347258829027E+01 -0.7415330895508E+00 -0.7773124735460E-01
-0.3553065398632E+00 -0.3252485344865E+01 -0.7215583876978E+00 -0.6145186111991E-01
-0.3332368062668E+00 -0.3150889640408E+01 -0.6968252997185E+00 -0.3241953302297E-01
-0.2881607810927E+00 -0.3043781246244E+01 -0.6663884153974E+00  0.1170026878593E-01
-0.2125483220147E+00 -0.2933441539071E+01 -0.6291979815930E+00  0.7296585151714E-01
-0.9718868880437E-01 -0.2823457311119E+01 -0.5841292086889E+00  0.1526219975766E+00
 0.6877161046114E-01 -0.2718969738282E+01 -0.5300396334624E+00  0.2502700544595E+00
 0.2973660198774E+00 -0.2626605858651E+01 -0.4658479746965E+00  0.3627622946128E+00
 0.6006209011507E+00 -0.2553912013818E+01 -0.3906582283548E+00  0.4829156016745E+00
 0.9882208149852E+00 -0.2508148378211E+01 -0.3039855171749E+00  0.5983096319957E+00
 0.1463964492995E+01 -0.2494149633302E+01 -0.2060370311315E+00  0.6909225413257E+00
 0.2021657815331E+01 -0.2511500992665E+01 -0.9796863692668E-01  0.7385791968641E+00
 0.2641822313497E+01 -0.2552095128537E+01  0.1794543725934E-01  0.7188590581407E+00
 0.3291567555846E+01 -0.2599673516245E+01  0.1383788099822E+00  0.6154777142083E+00
 0.3931827341375E+01 -0.2634137830887E+01  0.2595379059649E+00  0.4250829986457E+00
-0.9358467036600E+00 -0.4008166851892E+01 -0.9888027258446E+00  0.2313550626125E+00
-0.8146878858820E+00 -0.4058940407793E+01 -0.9747256732596E+00  0.2762900444888E+00
-0.6940343706003E+00 -0.4105598690019E+01 -0.9599266264278E+00  0.3029373181896E+00
-0.5800315563901E+00 -0.4144800379114E+01 -0.9449664011818E+00  0.3127445670949E+00
-0.4775193336605E+00 -0.4174330314562E+01 -0.9303699435082E+00  0.3088279660417E+00
-0.3893621946157E+00 -0.4193418241828E+01 -0.9165561009464E+00  0.2950352402829E+00
-0.3164918725008E+00 -0.4202549703351E+01 -0.9038083286381E+00  0.2750518553985E+00
-0.2583902718856E+00 -0.4203004805640E+01 -0.8922790288011E+00  0.2518476305293E+00
-0.2136871108831E+00 -0.4196378591429E+01 -0.8820131536054E+00  0.2274943939665E+00
-0.1806625867300E+00 -0.4184227041727E+01 -0.8729779386999E+00  0.2032367389096E+00
-0.1575828763116E+00 -0.4167868617883E+01 -0.8650903117297E+00  0.1796766881803E+00
-0.1428822860310E+00 -0.4148308252570E+01 -0.8582381205090E+00  0.1569752569621E+00
-0.1352367350870E+00 -0.4126235090409E+01 -0.8522943777994E+00  0.1350239395785E+00
-0.1335725412436E+00 -0.4102054172885E+01 -0.8471253554489E+00  0.1135738989572E+00
-0.1370420137975E+00 -0.4075927211156E+01 -0.8425938575463E+00  0.9232782574587E-01
-0.1449843572118E+00 -0.4047809956464E+01 -0.8385588752306E+00  0.7100492911765E-01
-0.1568807854585E+00 -0.4017481721002E+01 -0.8348725137326E+00  0.4938934425325E-01
-0.1723058795513E+00 -0.3984568370034E+01 -0.8313748623055E+00  0.2737063145954E-01
-0.1908749837720E+00 -0.3948559602552E+01 -0.8278869296013E+00  0.4980107380411E-02
-0.2121839977720E+00 -0.3908826128263E+01 -0.8242020374886E+00 -0.1757376063215E-01
-0.2357393556834E+00 -0.3864640377983E+01 -0.8200759589533E+00 -0.3987150478666E-01
-0.2608786012182E+00 -0.3815200874549E+01 -0.8152159073011E+00 -0.6125425904661E-01
-0.2866828344380E+00 -0.3759662707015E+01 -0.8092691203497E+00 -0.8080179537285E-01
-0.3118840771395E+00 -0.3697189462134E+01 -0.8018147198026E+00 -0.9732110294087E-01
-0.3347684368740E+00 -0.3627089563041E+01 -0.7923716117903E+00 -0.1093593006752E+00
-0.3530835673099E+00 -0.3548905420510E+01 -0.7803978091927E+00 -0.1152183484904E+00
-0.3639359193239E+00 -0.3462383950913E+01 -0.7652639854508E+00 -0.1129342450651E+00
-0.3636401151754E+00 -0.3367501174707E+01 -0.7462282690961E+00 -0.1002569324977E+00
-0.3474989669682E+00 -0.3264600155411E+01 -0.7224198352407E+00 -0.7467209261329E-01
-0.3095123303293E+00 -0.3154646513898E+01 -0.6928317791695E+00 -0.3351535921200E-01
-0.2420419889192E+00 -0.3039585338103E+01 -0.6563254751845E+00  0.2575196763525E-01
-0.1355091456966E+00 -0.2922754113965E+01 -0.6116526610467E+00  0.1050185657219E+00
 0.2171832681585E-01 -0.2809253583935E+01 -0.5575070597313E+00  0.2046565907715E+00
 0.2430226019145E+00 -0.2706025112418E+01 -0.4926005094409E+00  0.3222901058161E+00
 0.5424444023380E+00 -0.2621413634003E+01 -0.4157938525287E+00  0.4512480144606E+00
 0.9322306944725E+00 -0.2563993431382E+01 -0.3263525522449E+00  0.5789426055660E+00
 0.1418790179340E+01 -0.2540198751173E+01 -0.2242817177085E+00  0.6860347252284E+00
 0.1997634184449E+01 -0.2550921318873E+01 -0.1106574285337E+00  0.7476359337544E+00
 0.2648860741944E+01 -0.2588278708753E+01  0.1211640681876E-01  0.7375147548789E+00
 0.3335697080396E+01 -0.2634346441241E+01  0.1402701299211E+00  0.6356012529009E+00
 0.4012232065595E+01 -0.2665632790276E+01  0.2693198590770E+00  0.4379392926006E+00
-0.9562509201844E+00 -0.4105042276429E+01 -0.1012258654407E+01  0.2514284597521E+00
-0.8280116236053E+00 -0.4158556155887E+01 -0.9973135707596E+00  0.2954456024262E+00
-0.7004405410870E+00 -0.4207393789676E+01 -0.9815668807790E+00  0.3197077194243E+00
-0.5804953349171E+00 -0.4247829068339E+01 -0.9656648950408E+00  0.3259967700736E+00
-0.4734967517286E+00 -0.4277525850981E+01 -0.9502045347010E+00  0.3180076079954E+00
-0.3823860965849E+00 -0.4295865241809E+01 -0.9356502816210E+00  0.3001664717471E+00
-0.3078744163935E+00 -0.4303645915983E+01 -0.9223040802188E+00  0.2765688655624E+00
-0.2490898944993E+00 -0.4302491144590E+01 -0.9103162213827E+00  0.2503816995569E+00
-0.2043061402510E+00 -0.4294281417142E+01 -0.8997175248854E+00  0.2237016374722E+00
-0.1715133474995E+00 -0.4280768948900E+01 -0.8904564725487E+00  0.1976944048347E+00
-0.1487722103772E+00 -0.4263385849811E+01 -0.8824316251869E+00  0.1728387376311E+00
-0.1343873981732E+00 -0.4243190365859E+01 -0.8755155658526E+00  0.1491656516258E+00
-0.1269632987582E+00 -0.4220887670214E+01 -0.8695702067521E+00  0.1264482517201E+00
-0.1253957320573E+00 -0.4196879101879E+01 -0.8644549796687E+00  0.1043365855393E+00
-0.1288347425653E+00 -0.4171313923052E+01 -0.8600297459389E+00  0.8244857890638E-01
-0.1366373792428E+00 -0.4144132162217E+01 -0.8561539210497E+00  0.6043153571455E-01
-0.1483185205215E+00 -0.4115095577721E+01 -0.8526828323545E+00  0.3800676337439E-01
-0.1635006136154E+00 -0.4083809292695E+01 -0.8494619939200E+00  0.1500721839973E-01
-0.1818608930273E+00 -0.4049736025308E+01 -0.8463193962781E+00 -0.8587550279589E-02
-0.2030712699986E+00 -0.4012209338566E+01 -0.8430561342753E+00 -0.3261575850048E-01
-0.2267276773585E+00 -0.3970450266191E+01 -0.8394356012185E+00 -0.5669793692962E-01
-0.2522688148170E+00 -0.3923587969085E+01 -0.8351713692254E+00 -0.8020643742879E-01
-0.2788860856115E+00 -0.3870686461424E+01 -0.8299145217738E+00 -0.1022416419333E+00
-0.3054289681425E+00 -0.3810793167751E+01 -0.8232444394460E+00 -0.1216192035193E+00
-0.3303073274765E+00 -0.3743076880728E+01 -0.8146768537806E+00 -0.1368813510596E+00
-0.3514012647045E+00 -0.3666912906090E+01 -0.8036628461344E+00 -0.1463072647758E+00
-0.3659622516395E+00 -0.3581836821302E+01 -0.7895598263537E+00 -0.1478807912840E+00
-0.3704599973189E+00 -0.3487552924317E+01 -0.7716025958249E+00 -0.1392483517986E+00
-0.3603448727331E+00 -0.3384065458503E+01 -0.7488820774065E+00 -0.1177075391479E+00
-0.3297144999469E+00 -0.3271944321672E+01 -0.7203317750575E+00 -0.8027899610383E-01
-0.2709004838348E+00 -0.3152719232866E+01 -0.6847239535434E+00 -0.2393711482982E-01
-0.1740401286838E+00 -0.3029370895208E+01 -0.6406822143252E+00  0.5389771815780E-01
-0.2678582763203E-01 -0.2906834867423E+01 -0.5867241477539E+00  0.1544791924627E+00
 0.1856033937532E+00 -0.2792256634896E+01 -0.5213306559971E+00  0.2763947605366E+00
 0.4793413354435E+00 -0.2694742310571E+01 -0.4430802016279E+00  0.4137464770762E+00
 0.8696198385121E+00 -0.2624287431211E+01 -0.3509335237691E+00  0.5540391656799E+00
 0.1366059111487E+01 -0.2589217801018E+01 -0.2446317415514E+00  0.6767205756046E+00
 0.1966551934576E+01 -0.2592113411333E+01 -0.1251122972158E+00  0.7539737121889E+00
 0.2651217482499E+01 -0.2625641864950E+01  0.5115123585976E-02  0.7551465738834E+00
 0.3379268469165E+01 -0.2670230653832E+01  0.1418075651798E+00  0.6553292742137E+00
 0.4094540713055E+01 -0.2697931313563E+01  0.2793218840606E+00  0.4492497212062E+00
-0.9766036898987E+00 -0.4202981758104E+01 -0.1035917105037E+01  0.2726480198110E+00
-0.8406865882015E+00 -0.4259424460611E+01 -0.1020022224962E+01  0.3156175830864E+00
-0.7056598500422E+00 -0.4310516625281E+01 -0.1003235310014E+01  0.3371673730886E+00
-0.5794381300935E+00 -0.4352089443699E+01 -0.9863055294557E+00  0.3395036240651E+00
-0.4678687102646E+00 -0.4381701911428E+01 -0.9699141387913E+00  0.3270267861434E+00
-0.3739225967400E+00 -0.4398956413062E+01 -0.9545758161846E+00  0.3048346737862E+00
-0.2980025844387E+00 -0.4405044755482E+01 -0.9406094820003E+00  0.2774655399796E+00
-0.2388017744469E+00 -0.4401990926600E+01 -0.9281585540400E+00  0.2482683459351E+00
-0.1941838430067E+00 -0.4391987136867E+01 -0.9172342096426E+00  0.2193280637525E+00
-0.1618230539955E+00 -0.4376983902155E+01 -0.9077614047567E+00  0.1916941277322E+00
-0.1395679537579E+00 -0.4358516299643E+01 -0.8996168640855E+00  0.1656934037302E+00
-0.1255969800367E+00 -0.4337681577406E+01 -0.8926557247902E+00  0.1412088457543E+00
-0.1184500235181E+00 -0.4315188153091E+01 -0.8867276485351E+00  0.1178855506202E+00
-0.1169995409909E+00 -0.4291424499793E+01 -0.8816848212949E+00  0.9526833456822E-01
-0.1203990444786E+00 -0.4266522267144E+01 -0.8773842753985E+00  0.7288919829014E-01
-0.1280274075983E+00 -0.4240404227582E+01 -0.8736863400549E+00  0.5032346556894E-01
-0.1394356450314E+00 -0.4212816060267E+01 -0.8704503540305E+00  0.2722933733423E-01
-0.1542955799163E+00 -0.4183345929769E+01 -0.8675283148642E+00  0.3381821788472E-02
-0.1723475646537E+00 -0.4151434941791E+01 -0.8647565141747E+00 -0.2129421966053E-01
-0.1933411307398E+00 -0.4116385743406E+01 -0.8619453876731E+00 -0.4668836870597E-01
-0.2169641449656E+00 -0.4077374441800E+01 -0.8588677301513E+00 -0.7246751515205E-01
-0.2427597819447E+00 -0.4033467168789E+01 -0.8552454028908E+00 -0.9804309474331E-01
-0.2700336913400E+00 -0.3983642923152E+01 -0.8507353355753E+00 -0.1225455767974E+00
-0.2977572471067E+00 -0.3926838627951E+01 -0.8449191876019E+00 -0.1448110311499E+00
-0.3244696175970E+00 -0.3862088347503E+01 -0.8373116054969E+00 -0.1633918135671E+00
-0.3481920566671E+00 -0.3788603241853E+01 -0.8273590720327E+00 -0.1765637646642E+00
-0.3663366685722E+00 -0.3705705857921E+01 -0.8144085174342E+00 -0.1822833504864E+00
-0.3755556738852E+00 -0.3612817978517E+01 -0.7976747423668E+00 -0.1781229964353E+00
-0.3714915420727E+00 -0.3509578897646E+01 -0.7762140995102E+00 -0.1612234123182E+00
-0.3484059905329E+00 -0.3396113322469E+01 -0.7489038737600E+00 -0.1283162118138E+00
-0.2986902846983E+00 -0.3273453970517E+01 -0.7144288616889E+00 -0.7589653174133E-01
-0.2123044488810E+00 -0.3144105086265E+01 -0.6712819170322E+00 -0.6613505433338E-03
-0.7628328181736E-01 -0.3012685273650E+01 -0.6177937202992E+00  0.9962751923193E-01
 0.1254404582913E+00 -0.2886390578709E+01 -0.5521900323118E+00  0.2247241428972E+00
 0.4113823302503E+00 -0.2774999857113E+01 -0.4727235124167E+00  0.3698112302346E+00
 0.8000732600926E+00 -0.2690006309315E+01 -0.3779866154769E+00  0.5228277564644E+00
 0.1305059740147E+01 -0.2641934887216E+01 -0.2673750333980E+00  0.6622151544047E+00
 0.1927446895131E+01 -0.2635552842832E+01 -0.1416211916504E+00  0.7570119076780E+00
 0.2647997417237E+01 -0.2664350945414E+01 -0.3270705684102E-02  0.7715547117018E+00
 0.3422363171772E+01 -0.2707596909620E+01  0.1429532545605E+00  0.6746814713536E+00
 0.4178321002215E+01 -0.2729687152384E+01  0.2897267742835E+00  0.4589218638756E+00
-0.9968935677266E+00 -0.4302135374427E+01 -0.1059805804223E+01  0.2951038107426E+00
-0.8526165547875E+00 -0.4361725218125E+01 -0.1042868370122E+01  0.3368706458968E+00
-0.7095277308053E+00 -0.4415145976300E+01 -0.1024934756694E+01  0.3553155443269E+00
-0.5766782384457E+00 -0.4457721821415E+01 -0.1006880026976E+01  0.3531905283614E+00
-0.4604844616345E+00 -0.4486936592946E+01 -0.9894842256606E+00  0.3357591692089E+00
-0.3638768298750E+00 -0.4502707315839E+01 -0.9733168436463E+00  0.3088968468715E+00
-0.2868381681311E+00 -0.4506716175977E+01 -0.9587108831076E+00  0.2776115497005E+00
-0.2275314975767E+00 -0.4501450752103E+01 -0.9457964640293E+00  0.2454057113242E+00
-0.1833535822545E+00 -0.4489437740348E+01 -0.9345582784466E+00  0.2143039895686E+00
-0.1516395819537E+00 -0.4472821219665E+01 -0.9248921741057E+00  0.1851950323841E+00
-0.1300236716143E+00 -0.4453222269577E+01 -0.9166492018974E+00  0.1582227190456E+00
-0.1165653470953E+00 -0.4431758491268E+01 -0.9096647812277E+00  0.1331040761428E+00
-0.1097496864852E+00 -0.4409126338819E+01 -0.9037752185281E+00  0.1093479454109E+00
-0.1084344212119E+00 -0.4385691223194E+01 -0.8988251422748E+00  0.8639143892015E-01
-0.1117829161309E+00 -0.4361561871970E+01 -0.8946689709518E+00  0.6368099000743E-01
-0.1191999241254E+00 -0.4336642674415E+01 -0.8911685329876E+00  0.4072113345564E-01
-0.1302747580626E+00 -0.4310665484480E+01 -0.8881880617435E+00  0.1710767333042E-01
-0.1447295750894E+00 -0.4283206358156E+01 -0.8855871998454E+00 -0.7442973810718E-02
-0.1623684099304E+00 -0.4253691451943E+01 -0.8832119855355E+00 -0.3306315562365E-01
-0.1830193826887E+00 -0.4221400176030E+01 -0.8808839248698E+00 -0.5969840081022E-01
-0.2064642159996E+00 -0.4185471696732E+01 -0.8783871956354E+00 -0.8706844752842E-01
-0.2323534777271E+00 -0.4144916995831E+01 -0.8754541077570E+00 -0.1146319055286E+00
-0.2601105251105E+00 -0.4098637783771E+01 -0.8717496747664E+00 -0.1415590172902E+00
-0.2888321912007E+00 -0.4045468149983E+01 -0.8668600811541E+00 -0.1667182769112E+00
-0.3171910136822E+00 -0.3984314914673E+01 -0.8603011984906E+00 -0.1886877698072E+00
-0.3433561106756E+00 -0.3914231386791E+01 -0.8515175121820E+00 -0.2057608303083E+00
-0.3649137517568E+00 -0.3834329538844E+01 -0.8398486706349E+00 -0.2158941350167E+00
-0.3787246875235E+00 -0.3743742661592E+01 -0.8244934821091E+00 -0.2166205800722E+00
-0.3806684612334E+00 -0.3641723904952E+01 -0.8044784852248E+00 -0.2049630970874E+00
-0.3652414664130E+00 -0.3527906894784E+01 -0.7786296838419E+00 -0.1774020105568E+00
-0.3249958852469E+00 -0.3402744682287E+01 -0.7455481246164E+00 -0.1299768677735E+00
-0.2498443317492E+00 -0.3268133984575E+01 -0.7035956737492E+00 -0.5864700955558E-01
-0.1263410133477E+00 -0.3128195472585E+01 -0.6509073068859E+00  0.3990017498802E-01
 0.6282360754976E-01 -0.2989970252597E+01 -0.5854293377330E+00  0.1667963483310E+00
 0.3385498444496E+00 -0.2863754713164E+01 -0.5050409812685E+00  0.3186614509439E+00
 0.7231170412907E+00 -0.2762564377549E+01 -0.4078894733296E+00  0.4843152017901E+00
 0.1234810022107E+01 -0.2699452929080E+01 -0.2929285857595E+00  0.6415145113246E+00
 0.1879105974645E+01 -0.2681961906401E+01 -0.1605711887440E+00  0.7560646811409E+00
 0.2638077568234E+01 -0.2704978992757E+01 -0.1338028510389E-01  0.7862094758008E+00
 0.3464261753408E+01 -0.2746179284342E+01  0.1436164959534E+00  0.6946613853235E+00
 0.4271246783180E+01 -0.2762929337168E+01  0.3016634936974E+00  0.4611075127373E+00
-0.1017114442652E+01 -0.4402682677218E+01 -0.1083959440126E+01  0.3189047786130E+00
-0.8636865721663E+00 -0.4465660169423E+01 -0.1065869364201E+01  0.3592752891887E+00
-0.7118517467072E+00 -0.4521467451410E+01 -0.1046663855220E+01  0.3741403923472E+00
-0.5720106236438E+00 -0.4564848549886E+01 -0.1027371850015E+01  0.3669568124947E+00
-0.4511847784098E+00 -0.4593263449752E+01 -0.1008889660666E+01  0.3440482841285E+00
-0.3521606169031E+00 -0.4607068346783E+01 -0.9918458075168E+00  0.3121860408983E+00
-0.2743594447914E+00 -0.4608552957631E+01 -0.9765824950368E+00  0.2768635935650E+00
-0.2153048378728E+00 -0.4600734717750E+01 -0.9632079254775E+00  0.2416895967742E+00
-0.1718685063780E+00 -0.4586490624324E+01 -0.9516718403215E+00  0.2085652009585E+00
-0.1410283862714E+00 -0.4568144025299E+01 -0.9418344963486E+00  0.1781664579464E+00
-0.1202080703337E+00 -0.4547377271939E+01 -0.9335170823650E+00  0.1504213817162E+00
-0.1073600639336E+00 -0.4525304800823E+01 -0.9265329867578E+00  0.1248643188659E+00
-0.1009272349685E+00 -0.4502593415454E+01 -0.9207041438041E+00  0.1008616988652E+00
-0.9976275174376E-01 -0.4479574334339E+01 -0.9158674308641E+00  0.7774258610707E-01
-0.1030467982344E+00 -0.4456328008087E+01 -0.9118749748523E+00  0.5487004820622E-01
-0.1102140319893E+00 -0.4432739777802E+01 -0.9085907754973E+00  0.3168053227505E-01
-0.1208937919090E+00 -0.4408530723935E+01 -0.9058849166676E+00  0.7709361073097E-02
-0.1348588183270E+00 -0.4383270721244E+01 -0.9036259213792E+00 -0.1738536846284E-01
-0.1519765302032E+00 -0.4356378971008E+01 -0.9016711136782E+00 -0.4379512601733E-01
-0.1721537339370E+00 -0.4327120850851E+01 -0.8998549303665E+00 -0.7152568191349E-01
-0.1952671834959E+00 -0.4294608195307E+01 -0.8979750891414E+00 -0.1003560854443E+00
-0.2210771472987E+00 -0.4257806378554E+01 -0.8957767185187E+00 -0.1298002807271E+00
-0.2491274485699E+00 -0.4215549347259E+01 -0.8929353724715E+00 -0.1590779606857E+00
-0.2786427429275E+00 -0.4166578235269E+01 -0.8890442088871E+00 -0.1871019681942E+00
-0.3084309721910E+00 -0.4109683052706E+01 -0.8836228181464E+00 -0.2124918564168E+00
-0.3368129495808E+00 -0.4043769528253E+01 -0.8761165086219E+00 -0.2335801920698E+00
-0.3615593063941E+00 -0.3967746767923E+01 -0.8658612277657E+00 -0.2483538474749E+00
-0.3797622396666E+00 -0.3880460266374E+01 -0.8520445139046E+00 -0.2543453769855E+00
-0.3875815437265E+00 -0.3780763777253E+01 -0.8336690766185E+00 -0.2485072387430E+00
-0.3798203820050E+00 -0.3667762104600E+01 -0.8095165093837E+00 -0.2271195042810E+00
-0.3493018661761E+00 -0.3541251155174E+01 -0.7781106158648E+00 -0.1858097946310E+00
-0.2860437375054E+00 -0.3402384498286E+01 -0.7376856581507E+00 -0.1198119133328E+00
-0.1763009893147E+00 -0.3254578796808E+01 -0.6861759674494E+00 -0.2467511416438E-01
-0.1674963994744E-02 -0.3104458175708E+01 -0.6212266371975E+00  0.1023126052820E+00
 0.2611280462023E+00 -0.2962593984477E+01 -0.5402931957060E+00  0.2596055994801E+00
 0.6385105902659E+00 -0.2843464206831E+01 -0.4409907298844E+00  0.4374659118756E+00
 0.1154441125829E+01 -0.2762965774682E+01 -0.3217049345646E+00  0.6134722049302E+00
 0.1820097120208E+01 -0.2732128306818E+01 -0.1824062400401E+00  0.7501688355463E+00
 0.2620473937996E+01 -0.2748046143261E+01 -0.2551444143325E-01  0.7989089512771E+00
 0.3502943164685E+01 -0.2786282599645E+01  0.1433321151437E+00  0.7135092727815E+00
 0.4382155788912E+01 -0.2800181734997E+01  0.3163948154977E+00  0.4637063421328E+00
-0.1037246685071E+01 -0.4504835660320E+01 -0.1108416485595E+01  0.3441669856863E+00
-0.8737473973702E+00 -0.4571457651285E+01 -0.1089041025959E+01  0.3828990843664E+00
-0.7123928727370E+00 -0.4629674780703E+01 -0.1068413546609E+01  0.3936033509223E+00
-0.5651937383390E+00 -0.4673570163116E+01 -0.1047752795904E+01  0.3806572771436E+00
-0.4397957067482E+00 -0.4700663862107E+01 -0.1028091929091E+01  0.3516907905132E+00
-0.3386914501174E+00 -0.4711916689062E+01 -0.1010121642888E+01  0.3144989560062E+00
-0.2605625046495E+00 -0.4710364895419E+01 -0.9941854948283E+00  0.2750570484940E+00
-0.2021694982072E+00 -0.4699621722252E+01 -0.9803582587003E+00  0.2370074786022E+00
-0.1598029792619E+00 -0.4682918571204E+01 -0.9685443245257E+00  0.2020476826543E+00
-0.1300736203409E+00 -0.4662730998375E+01 -0.9585609380269E+00  0.1705823471793E+00
-0.1102060389960E+00 -0.4640768737168E+01 -0.9501949693918E+00  0.1422902927490E+00
-0.9806313374369E-01 -0.4618114395549E+01 -0.9432355199138E+00  0.1165087695102E+00
-0.9206128487140E-01 -0.4595385126541E+01 -0.9374892962522E+00  0.9245856673272E-01
-0.9106075776705E-01 -0.4572866130987E+01 -0.9327853916504E+00  0.6936299690394E-01
-0.9426601397891E-01 -0.4550604352932E+01 -0.9289740872249E+00  0.4650611958643E-01
-0.1011455164912E+00 -0.4528465958783E+01 -0.9259223088522E+00  0.2326073113205E-01
-0.1113698196080E+00 -0.4506165110618E+01 -0.9235069998065E+00 -0.8949950071717E-03
-0.1247616506325E+00 -0.4483272487212E+01 -0.9216068413019E+00 -0.2635986210344E-01
-0.1412504595723E+00 -0.4459209660847E+01 -0.9200920377943E+00 -0.5338551637539E-01
-0.1608207182906E+00 -0.4433238754163E+01 -0.9188119081820E+00 -0.8204173119777E-01
-0.1834443768103E+00 -0.4404455584704E+01 -0.9175800059759E+00 -0.1121730822160E+00
-0.2089928569686E+00 -0.4371791199597E+01 -0.9161568249650E+00 -0.1433568530166E+00
-0.2371322643023E+00 -0.4334023152002E+01 -0.9142310968840E+00 -0.1748715413142E+00
-0.2672158834160E+00 -0.4289811772010E+01 -0.9114055446662E+00 -0.2056856967395E+00
-0.2981864422895E+00 -0.4237843820060E+01 -0.9072060659883E+00 -0.2344755471829E+00
-0.3285164260415E+00 -0.4176892138072E+01 -0.9010817262499E+00 -0.2596347190679E+00
-0.3561662566589E+00 -0.4105676849251E+01 -0.8923686344793E+00 -0.2792117204584E+00
-0.3784773474997E+00 -0.4022764754026E+01 -0.8802484334219E+00 -0.2907816858954E+00
-0.3919281926666E+00 -0.3926607961871E+01 -0.8637072437777E+00 -0.2912813401983E+00
-0.3916982464224E+00 -0.3815757936573E+01 -0.8414912491383E+00 -0.2768550352215E+00
-0.3709953147109E+00 -0.3689288794879E+01 -0.8120568340186E+00 -0.2427848713277E+00
-0.3201132253323E+00 -0.3547480553505E+01 -0.7735187672937E+00 -0.1836254564719E+00
-0.2252350398256E+00 -0.3392823473172E+01 -0.7236117133822E+00 -0.9376621997180E-01
-0.6711004013807E-01 -0.3231205854034E+01 -0.6596631886642E+00  0.3125621564885E-01
 0.1798427515992E+00 -0.3073124279030E+01 -0.5786563141087E+00  0.1921459229842E+00
 0.5464459987571E+00 -0.2934329436121E+01 -0.4775766945892E+00  0.3812868996950E+00
 0.1063334560860E+01 -0.2833814933018E+01 -0.3540960797080E+00  0.5768076720357E+00
 0.1749175274355E+01 -0.2786940825425E+01 -0.2075531133069E+00  0.7381940143175E+00
 0.2593285362781E+01 -0.2794028686861E+01 -0.4014866541438E-01  0.8089814666378E+00
 0.3540395694062E+01 -0.2829098281520E+01  0.1422594846284E+00  0.7311973680026E+00
 0.4495764446529E+01 -0.2841856975382E+01  0.3307814991583E+00  0.4674258517294E+00
-0.1057269149358E+01 -0.4608857539871E+01 -0.1133225354732E+01  0.3710272250542E+00
-0.8826179811765E+00 -0.4679408684467E+01 -0.1112405349705E+01  0.4078158601497E+00
-0.7108666495854E+00 -0.4740017411526E+01 -0.1090176828467E+01  0.4136449200707E+00
-0.5559521704429E+00 -0.4784021648023E+01 -0.1067994779607E+01  0.3941059612793E+00
-0.4261328852966E+00 -0.4809133731553E+01 -0.1047053338972E+01  0.3584418461843E+00
-0.3233952666518E+00 -0.4817137199926E+01 -0.1028106508636E+01  0.3156037417434E+00
-0.2454597734280E+00 -0.4811976242616E+01 -0.1011487218281E+01  0.2720142868139E+00
-0.1881886621552E+00 -0.4797919554655E+01 -0.9972216582218E+00  0.2312449102887E+00
-0.1472419224153E+00 -0.4778539389972E+01 -0.9851562771575E+00  0.1946906340192E+00
-0.1188644441515E+00 -0.4756420501207E+01 -0.9750570036013E+00  0.1624205305051E+00
-0.1001028541325E+00 -0.4733256132620E+01 -0.9666718117551E+00  0.1338324202929E+00
-0.8875359910212E-01 -0.4710063574049E+01 -0.9597634489318E+00  0.1080557976131E+00
-0.8322524245144E-01 -0.4687388631599E+01 -0.9541227890276E+00  0.8416628943728E-01
-0.8239802130638E-01 -0.4665458518413E+01 -0.9495713220935E+00  0.6128673118159E-01
-0.8550838699278E-01 -0.4644281960918E+01 -0.9459580836780E+00  0.3862879498198E-01
-0.9206222574126E-01 -0.4623706613180E+01 -0.9431537818384E+00  0.1550780717556E-01
-0.1017718661422E+00 -0.4603444532135E+01 -0.9410432936781E+00 -0.8650474696875E-02
-0.1145085242509E+00 -0.4583075358452E+01 -0.9395167905406E+00 -0.3429919669462E-01
-0.1302612305505E+00 -0.4562033820286E+01 -0.9384590241514E+00 -0.6175039102887E-01
-0.1490899697140E+00 -0.4539591295763E+01 -0.9377362670688E+00 -0.9114112296670E-01
-0.1710611201663E+00 -0.4514840760073E+01 -0.9371803900129E+00 -0.1223876025596E+00
-0.1961581044015E+00 -0.4486692010578E+01 -0.9365700369520E+00 -0.1551384928487E+00
-0.2241706029660E+00 -0.4453879303067E+01 -0.9356099951482E+00 -0.1887402530688E+00
-0.2545802401675E+00 -0.4414996291551E+01 -0.9339153202602E+00 -0.2222278638409E+00
-0.2864615869819E+00 -0.4368642771474E+01 -0.9310208855646E+00 -0.2543485974635E+00
-0.3184350205366E+00 -0.4313477376441E+01 -0.9263824931997E+00 -0.2835785363569E+00
-0.3486512839020E+00 -0.4248050936872E+01 -0.9193404578541E+00 -0.3080599750637E+00
-0.3747131760933E+00 -0.4170668984534E+01 -0.9090764456717E+00 -0.3254562085411E+00
-0.3934504778092E+00 -0.4079391416255E+01 -0.8945683921429E+00 -0.3327489317852E+00
-0.4004834411858E+00 -0.3972207309118E+01 -0.8745381630923E+00 -0.3260232192678E+00
-0.3895177212173E+00 -0.3847422085305E+01 -0.8473879739315E+00 -0.3003042068803E+00
-0.3513068110732E+00 -0.3704325298049E+01 -0.8111264339112E+00 -0.2495507906797E+00
-0.2722309617987E+00 -0.3544251982242E+01 -0.7632966001820E+00 -0.1670231419893E+00
-0.1325152674429E+00 -0.3371983350574E+01 -0.7008997340476E+00 -0.4638691653123E-01
 0.9546261659880E-01 -0.3197468602524E+01 -0.6204012064296E+00  0.1157225202742E+00
 0.4471048240120E+00 -0.3037366456036E+01 -0.5180523341244E+00  0.3146090721212E+00
 0.9607511028199E+00 -0.2913898579886E+01 -0.3906295012340E+00  0.5299524587678E+00
 0.1664616327063E+01 -0.2847714292977E+01 -0.2366195967087E+00  0.7187375602111E+00
 0.2554962400059E+01 -0.2843742495147E+01 -0.5775601987828E-01  0.8155792103306E+00
 0.3574663020259E+01 -0.2875949160801E+01  0.1397427739740E+00  0.7486129433802E+00
 0.4614545738959E+01 -0.2887370998716E+01  0.3454349531958E+00  0.4710297617649E+00
-0.1077153417026E+01 -0.4715073592655E+01 -0.1158445419198E+01  0.3996441306186E+00
-0.8900708126607E+00 -0.4789867852122E+01 -0.1135987749884E+01  0.4341000005740E+00
-0.7069277056093E+00 -0.4852785569291E+01 -0.1111942671549E+01  0.4341682338564E+00
-0.5439702471477E+00 -0.4896338252103E+01 -0.1088061716064E+01  0.4070563215971E+00
-0.4100053705735E+00 -0.4918634549662E+01 -0.1065727999928E+01  0.3640004802337E+00
-0.3062156853235E+00 -0.4922565895113E+01 -0.1045756331670E+01  0.3152336149020E+00
-0.2290900262944E+00 -0.4913165936357E+01 -0.1028451207855E+01  0.2675447110477E+00
-0.1734497905755E+00 -0.4895402518093E+01 -0.1013770476840E+01  0.2242889567403E+00
-0.1342883530057E+00 -0.4873149746415E+01 -0.1001487634808E+01  0.1864412777537E+00
-0.1075019267549E+00 -0.4849039209484E+01 -0.9913082420194E+00  0.1536680867577E+00
-0.8999102959901E-01 -0.4824693363401E+01 -0.9829368932470E+00  0.1250585630509E+00
-0.7951472873897E-01 -0.4801026530794E+01 -0.9761082664518E+00  0.9952919571357E-01
-0.7449508309782E-01 -0.4778490564622E+01 -0.9705971440071E+00  0.7601545015587E-01
-0.7384604964506E-01 -0.4757243163397E+01 -0.9662178570063E+00  0.5354827485597E-01
-0.7684378434516E-01 -0.4737250998793E+01 -0.9628189709747E+00  0.3127595287954E-01
-0.8303477668937E-01 -0.4718344834886E+01 -0.9602759366243E+00  0.8464309508465E-02
-0.9217296346102E-01 -0.4700240447662E+01 -0.9584826965071E+00 -0.1550712236704E-01
-0.1041755637218E+00 -0.4682535779186E+01 -0.9573422828471E+00 -0.4114203201750E-01
-0.1190875180568E+00 -0.4664690999470E+01 -0.9567557177622E+00 -0.6881206244709E-01
-0.1370408755335E+00 -0.4646001113128E+01 -0.9566084119869E+00 -0.9872427190130E-01
-0.1581946068857E+00 -0.4625571479814E+01 -0.9567532315968E+00 -0.1308724846162E+00
-0.1826443812936E+00 -0.4602305672257E+01 -0.9569900249704E+00 -0.1649848867175E+00
-0.2103044024417E+00 -0.4574909465781E+01 -0.9570427879056E+00 -0.2004848887687E+00
-0.2407834616445E+00 -0.4541925760334E+01 -0.9565418586493E+00 -0.2364838164322E+00
-0.2732827269362E+00 -0.4501886115067E+01 -0.9550337826318E+00 -0.2718130716708E+00
-0.3065626481252E+00 -0.4453357355555E+01 -0.9519840149218E+00 -0.3050514739096E+00
-0.3389593347163E+00 -0.4394746414710E+01 -0.9467411639928E+00 -0.3344670256158E+00
-0.3683425569183E+00 -0.4324123650064E+01 -0.9384932553811E+00 -0.3578580975358E+00
-0.3919183148499E+00 -0.4239179219685E+01 -0.9262195207088E+00 -0.3723162177777E+00
-0.4058037512253E+00 -0.4137349635679E+01 -0.9086306909205E+00 -0.3739535059227E+00
-0.4043089765122E+00 -0.4016149441453E+01 -0.8840916967671E+00 -0.3576477793949E+00
-0.3788347522514E+00 -0.3873786481145E+01 -0.8505242593531E+00 -0.3168858685386E+00
-0.3162618626059E+00 -0.3710222219805E+01 -0.8052968284820E+00 -0.2438942919951E+00
-0.1967135342429E+00 -0.3528720795550E+01 -0.7450868770611E+00 -0.1304284254998E+00
 0.9050798534174E-02 -0.3338079227560E+01 -0.6658056957265E+00  0.2990288436816E-01
 0.3409657446236E+00 -0.3155265293692E+01 -0.5628599182009E+00  0.2362140513364E+00
 0.8460464057857E+00 -0.3005647620720E+01 -0.4319202494230E+00  0.4710790293594E+00
 0.1564571060604E+01 -0.2916149383146E+01 -0.2703156685365E+00  0.6899742871340E+00
 0.2503158627495E+01 -0.2898336004205E+01 -0.7903547651977E-01  0.8178516115289E+00
 0.3604154512708E+01 -0.2927366064118E+01  0.1353576917351E+00  0.7659816593926E+00
 0.4739672496989E+01 -0.2937355596464E+01  0.3604633854762E+00  0.4740936370445E+00
-0.1096860727540E+01 -0.4823890368004E+01 -0.1184150236754E+01  0.4302030791078E+00
-0.8958168561876E+00 -0.4903270921915E+01 -0.1159817572903E+01  0.4618224275885E+00
-0.7001546921344E+00 -0.4968315881753E+01 -0.1133694131671E+01  0.4550226048674E+00
-0.5288886676208E+00 -0.5010645979794E+01 -0.1107906945992E+01  0.4191824584447E+00
-0.3912228956519E+00 -0.5029076409571E+01 -0.1084059877198E+01  0.3679989493134E+00
-0.2871242820919E+00 -0.5027975045706E+01 -0.1063019881400E+01  0.3130859397439E+00
-0.2115261679129E+00 -0.5013659032901E+01 -0.1045037055735E+01  0.2614493263800E+00
-0.1580686098813E+00 -0.4991808483077E+01 -0.1029975433939E+01  0.2160338795574E+00
-0.1210645687969E+00 -0.4966525463097E+01 -0.1017518021541E+01  0.1772594628418E+00
-0.9609874593977E-01 -0.4940403753479E+01 -0.1007300514894E+01  0.1443244102307E+00
-0.7996941969485E-01 -0.4914930734031E+01 -0.9989800456312E+00  0.1159891474259E+00
-0.7043297349166E-01 -0.4890877222199E+01 -0.9922620539241E+00  0.9095908795983E-01
-0.6594834580366E-01 -0.4868578688144E+01 -0.9869054214956E+00  0.6803979063217E-01
-0.6547736844912E-01 -0.4848112941443E+01 -0.9827180766220E+00  0.4618244699929E-01
-0.6834332193537E-01 -0.4829402024504E+01 -0.9795490838842E+00  0.2448335081996E-01
-0.7413588289582E-01 -0.4812262552966E+01 -0.9772797017350E+00  0.2168563764697E-02
-0.8264963049421E-01 -0.4796420871072E+01 -0.9758141148540E+00 -0.2142093628034E-01
-0.9384425416880E-01 -0.4781503699339E+01 -0.9750696052313E+00 -0.4683423909400E-01
-0.1078156026813E+00 -0.4767010433884E+01 -0.9749652218411E+00 -0.7450066774229E-01
-0.1247628565500E+00 -0.4752276059697E+01 -0.9754077977841E+00 -0.1046992235215E+00
-0.1449344850859E+00 -0.4736435844667E+01 -0.9762740804982E+00 -0.1375071534204E+00
-0.1685380220123E+00 -0.4718404343020E+01 -0.9773884875706E+00 -0.1727405254886E+00
-0.1956130212857E+00 -0.4696875426528E+01 -0.9784977041434E+00 -0.2099086478310E+00
-0.2258937092771E+00 -0.4670358728975E+01 -0.9792505022424E+00 -0.2482082000883E+00
-0.2587004454411E+00 -0.4637338316633E+01 -0.9792077670062E+00 -0.2865660978006E+00
-0.2929217206459E+00 -0.4596314815417E+01 -0.9778473217837E+00 -0.3236823589839E+00
-0.3270681311583E+00 -0.4545581907676E+01 -0.9745300222885E+00 -0.3579813565840E+00
-0.3592746626596E+00 -0.4483009427987E+01 -0.9684568325604E+00 -0.3874432187795E+00
-0.3871392825183E+00 -0.4405954125728E+01 -0.9586186959337E+00 -0.4093359632862E+00
-0.4073203844594E+00 -0.4311331498647E+01 -0.9437303906839E+00 -0.4198917887033E+00
-0.4148259460510E+00 -0.4195874640133E+01 -0.9221401309777E+00 -0.4139688221820E+00
-0.4018843861288E+00 -0.4056657943492E+01 -0.8917084792116E+00 -0.3847456339055E+00
-0.3562004472824E+00 -0.3892084230770E+01 -0.8496569482714E+00 -0.3235861086295E+00
-0.2583073460907E+00 -0.3703478272894E+01 -0.7923571356041E+00 -0.2204080448680E+00
-0.7797603288582E-01 -0.3497752588175E+01 -0.7151457348687E+00 -0.6553137625169E-01
 0.2289046347858E+00 -0.3291293667355E+01 -0.6124778156405E+00  0.1449020257863E+00
 0.7188095660967E+00 -0.3112174871242E+01 -0.4786730681618E+00  0.3980673532533E+00
 0.1446968918168E+01 -0.2994536470094E+01 -0.3095135149973E+00  0.6496159393363E+00
 0.2434906692608E+01 -0.2959091043911E+01 -0.1048368718228E+00  0.8145343012333E+00
 0.3626967381229E+01 -0.2984032836055E+01  0.1285869109509E+00  0.7833275504941E+00
 0.4872473594995E+01 -0.2992495449758E+01  0.3759956346501E+00  0.4763710587423E+00
-0.1116337369511E+01 -0.4935822566041E+01 -0.1210432005147E+01  0.4629224836415E+00
-0.8994845738350E+00 -0.5020158140029E+01 -0.1183928560415E+01  0.4910434333499E+00
-0.6900314704594E+00 -0.5086996147062E+01 -0.1155405540721E+01  0.4759794332279E+00
-0.5103031822465E+00 -0.5127045394698E+01 -0.1127469732189E+01  0.4300546196783E+00
-0.3696078225679E+00 -0.5140294111907E+01 -0.1101980403316E+01  0.3699915381031E+00
-0.2661342926445E+00 -0.5133054816052E+01 -0.1079837837830E+01  0.3088239949348E+00
-0.1928841614453E+00 -0.5113117858915E+01 -0.1061200419885E+01  0.2535282511073E+00
-0.1421928408086E+00 -0.5086837024783E+01 -0.1045805988702E+01  0.2063886634412E+00
-0.1077126601757E+00 -0.5058423004397E+01 -0.1033227148311E+01  0.1671230748772E+00
-0.8477828427626E-01 -0.5030323228384E+01 -0.1023020317776E+01  0.1344045078386E+00
-0.7014189535216E-01 -0.5003817465608E+01 -0.1014791887314E+01  0.1066560150406E+00
-0.6159664218667E-01 -0.4979491573220E+01 -0.1008217658105E+01  0.8238275659049E-01
-0.5766294232766E-01 -0.4957543761174E+01 -0.1003041355647E+01  0.6027644085666E-01
-0.5736448064206E-01 -0.4937963534635E+01 -0.9990656179427E+00  0.3922423906820E-01
-0.6007845479893E-01 -0.4920627397439E+01 -0.9961411852912E+00  0.1828416760237E-01
-0.6543956526475E-01 -0.4905341811284E+01 -0.9941562901239E+00 -0.3346065866044E-02
-0.7328122487471E-01 -0.4891851525259E+01 -0.9930265648239E+00 -0.2635491515849E-01
-0.8360099595892E-01 -0.4879823537309E+01 -0.9926849214458E+00 -0.5133029146438E-01
-0.9653921581951E-01 -0.4868811679485E+01 -0.9930701938588E+00 -0.7875590148533E-01
-0.1123555674167E+00 -0.4858209353600E+01 -0.9941129990167E+00 -0.1089836522642E+00
-0.1313834035551E+00 -0.4847201864700E+01 -0.9957170684883E+00 -0.1421797570289E+00
-0.1539410205428E+00 -0.4834734495605E+01 -0.9977351180970E+00 -0.1782568885769E+00
-0.1801942814783E+00 -0.4819507688941E+01 -0.9999404089841E+00 -0.2168194017889E+00
-0.2100010060488E+00 -0.4800016620839E+01 -0.1002003540309E+01 -0.2571574687699E+00
-0.2427914659650E+00 -0.4774720033579E+01 -0.1003502314862E+01 -0.2983028614697E+00
-0.2775659081345E+00 -0.4742080356647E+01 -0.1003929267916E+01 -0.3390927611061E+00
-0.3129923578218E+00 -0.4700313034404E+01 -0.1002661093386E+01 -0.3781362443731E+00
-0.3474614759693E+00 -0.4647129908977E+01 -0.9989182918744E+00 -0.4136398836346E+00
-0.3789686709690E+00 -0.4579604593287E+01 -0.9917146676290E+00 -0.4431137645476E+00
-0.4047433124683E+00 -0.4494186805073E+01 -0.9797860381081E+00 -0.4630056088840E+00
-0.4205646787075E+00 -0.4386875307659E+01 -0.9614880116006E+00 -0.4682940370468E+00
-0.4196485753970E+00 -0.4253613131124E+01 -0.9346523552315E+00 -0.4520492197116E+00
-0.3908462470333E+00 -0.4091120711440E+01 -0.8963934050519E+00 -0.4050238655259E+00
-0.3156829303395E+00 -0.3898390456905E+01 -0.8428146900079E+00 -0.3155140765446E+00
-0.1637953987168E+00 -0.3679621397631E+01 -0.7686833707239E+00 -0.1704664061253E+00
 0.1123306233539E+00 -0.3449388066396E+01 -0.6674114985536E+00  0.3959720244838E-01
 0.5790169237765E+00 -0.3237490923274E+01 -0.5316948078223E+00  0.3085234408384E+00
 0.1309584173018E+01 -0.3085945185727E+01 -0.3552722078357E+00  0.5947451555812E+00
 0.2346507841025E+01 -0.3027662565593E+01 -0.1362309469437E+00  0.8037566430962E+00
 0.3640674524322E+01 -0.3046826381851E+01  0.1187696302641E+00  0.8004948106066E+00
 0.5014448208316E+01 -0.3053686778825E+01  0.3921522917416E+00  0.4777503857910E+00
-0.1135507593739E+01 -0.5051531336228E+01 -0.1237407804432E+01  0.4980618808569E+00
-0.9005903288948E+00 -0.5141205338624E+01 -0.1208359151510E+01  0.5218000739402E+00
-0.6759239471100E+00 -0.5209267289646E+01 -0.1177038264891E+01  0.4966967126519E+00
-0.4877674925058E+00 -0.5245584788322E+01 -0.1146670473252E+01  0.4391076062562E+00
-0.3450139268642E+00 -0.5252013996531E+01 -0.1119405601359E+01  0.3694441505388E+00
-0.2433183585529E+00 -0.5237391427509E+01 -0.1096141973546E+01  0.3020832562307E+00
-0.1733327067099E+00 -0.5211133841355E+01 -0.1076893325660E+01  0.2435921210395E+00
-0.1260051213300E+00 -0.5180149444978E+01 -0.1061230929075E+01  0.1952865469577E+00
-0.9439401250434E-01 -0.5148582545302E+01 -0.1048595327187E+01  0.1560341167166E+00
-0.7367297529474E-01 -0.5118602724412E+01 -0.1038455155416E+01  0.1239423686454E+00
-0.6061554434675E-01 -0.5091204815413E+01 -0.1030364087306E+01  0.9710409032276E-01
-0.5309428811440E-01 -0.5066750035001E+01 -0.1023968879881E+01  0.7384531948606E-01
-0.4971578574038E-01 -0.5045281621965E+01 -0.1018999496725E+01  0.5276602637990E-01
-0.4957869845226E-01 -0.5026695182437E+01 -0.1015254791306E+01  0.3270857078174E-01
-0.5211995673416E-01 -0.5010822828806E+01 -0.1012588572197E+01  0.1270849552451E-01
-0.5702024279585E-01 -0.4997466210447E+01 -0.1010897305712E+01 -0.8051947284133E-02
-0.6414915211633E-01 -0.4986397204493E+01 -0.1010109286374E+01 -0.3028014677751E-01
-0.7353649914074E-01 -0.4977335400282E+01 -0.1010174394937E+01 -0.5459474338768E-01
-0.8535923431408E-01 -0.4969905525522E+01 -0.1011052967033E+01 -0.8152891080721E-01
-0.9992899358441E-01 -0.4963579962879E+01 -0.1012701806383E+01 -0.1115070960871E+00
-0.1176575148944E+00 -0.4957617164191E+01 -0.1015054950943E+01 -0.1447895655125E+00
-0.1389718301399E+00 -0.4951015974191E+01 -0.1017997576035E+01 -0.1813948486212E+00
-0.1641654533673E+00 -0.4942504097747E+01 -0.1021333925442E+01 -0.2210321020811E+00
-0.1932184301542E+00 -0.4930582176023E+01 -0.1024760136506E+01 -0.2630924876619E+00
-0.2256602446696E+00 -0.4913706469702E+01 -0.1027873358191E+01 -0.3067197392654E+00
-0.2605824739075E+00 -0.4890330436270E+01 -0.1030182597386E+01 -0.3509010809633E+00
-0.2967873092913E+00 -0.4858629246424E+01 -0.1031083326507E+01 -0.3944552448397E+00
-0.3329037160011E+00 -0.4816205814335E+01 -0.1029821921413E+01 -0.4358560496729E+00
-0.3673192670844E+00 -0.4759914043832E+01 -0.1025446677464E+01 -0.4729168731050E+00
-0.3978472830685E+00 -0.4685817494110E+01 -0.1016732970586E+01 -0.5023935070650E+00
-0.4210855915972E+00 -0.4589269831613E+01 -0.1002071099574E+01 -0.5195300358802E+00
-0.4313619918460E+00 -0.4465151774407E+01 -0.9793027678434E+00 -0.5175150829825E+00
-0.4189683416937E+00 -0.4308469925673E+01 -0.9454876675622E+00 -0.4868186743482E+00
-0.3670370980598E+00 -0.4115578683390E+01 -0.8965231696493E+00 -0.4144975541906E+00
-0.2461401418783E+00 -0.3887105878786E+01 -0.8266492164508E+00 -0.2843053025318E+00
-0.6659541316732E-02 -0.3634234227455E+01 -0.7281787646050E+00 -0.8048029409499E-01
 0.4272680673652E+00 -0.3386759241379E+01 -0.5918982436227E+00  0.1998402541224E+00
 0.1150171143092E+01 -0.3194571360867E+01 -0.4088800496477E+00  0.5216471563952E+00
 0.2233385477360E+01 -0.3106344480304E+01 -0.1745918031905E+00  0.7827811803573E+00
 0.3642012481486E+01 -0.3116916069484E+01  0.1050192839651E+00  0.8170997670444E+00
 0.5167382477481E+01 -0.3122072630562E+01  0.4090619754791E+00  0.4782199239671E+00
-0.1154262478029E+01 -0.5171880074690E+01 -0.1265228529397E+01  0.5359323369735E+00
-0.8984960753098E+00 -0.5267265687499E+01 -0.1233152370937E+01  0.5540840709117E+00
-0.6570523441318E+00 -0.5335618621286E+01 -0.1198534210943E+01  0.5166663877479E+00
-0.4608041081167E+00 -0.5366216507138E+01 -0.1165404140417E+01  0.4456008993702E+00
-0.3173548924457E+00 -0.5363808695846E+01 -0.1136232734590E+01  0.3657273825861E+00
-0.2188306573517E+00 -0.5340442584357E+01 -0.1111854664910E+01  0.2924848297187E+00
-0.1531028045409E+00 -0.5307221618963E+01 -0.1092064900974E+01  0.2314783726229E+00
-0.1097243562419E+00 -0.5271371660755E+01 -0.1076219219436E+01  0.1826965043476E+00
-0.8128743148494E-01 -0.5236732983224E+01 -0.1063604098791E+01  0.1440251766202E+00
-0.6292177800624E-01 -0.5205047955547E+01 -0.1053593962410E+01  0.1129941911116E+00
-0.5149837106499E-01 -0.5176949784729E+01 -0.1045689646741E+01  0.8739280070746E-01
-0.4501281451220E-01 -0.5152540451485E+01 -0.1039510668689E+01  0.6540018945993E-01
-0.4218125585356E-01 -0.5131695438249E+01 -0.1034775354240E+01  0.4555262025708E-01
-0.4218886596284E-01 -0.5114214540231E+01 -0.1031280696606E+01  0.2666995265120E-01
-0.4453680227219E-01 -0.5099889031685E+01 -0.1028885182123E+01  0.7782788777595E-02
-0.4895170821136E-01 -0.5088522479720E+01 -0.1027494852897E+01 -0.1192796483228E-01
-0.5533592366225E-01 -0.5079923327643E+01 -0.1027051865565E+01 -0.3317691098775E-01
-0.6374499206623E-01 -0.5073876568767E+01 -0.1027524327478E+01 -0.5660376954604E-01
-0.7438318810261E-01 -0.5070095214739E+01 -0.1028895695900E+01 -0.8278434800895E-01
-0.8760341748330E-01 -0.5068153256619E+01 -0.1031151350186E+01 -0.1122134572872E+00
-0.1038869395764E+00 -0.5067408812515E+01 -0.1034259165830E+01 -0.1452496860315E+00
-0.1237661818046E+00 -0.5066941011352E+01 -0.1038141454101E+01 -0.1820273349891E+00
-0.1476642282124E+00 -0.5065528357500E+01 -0.1042638532679E+01 -0.2223713126333E+00
-0.1756831763080E+00 -0.5061697924784E+01 -0.1047476235827E+01 -0.2657811375533E+00
-0.2074402464901E+00 -0.5053926103875E+01 -0.1052273285753E+01 -0.3115174173662E+00
-0.2420940696009E+00 -0.5040686208821E+01 -0.1056556071428E+01 -0.3587268029121E+00
-0.2785517771854E+00 -0.5020151983613E+01 -0.1059740767951E+01 -0.4064582825908E+00
-0.3156558584593E+00 -0.4989870902693E+01 -0.1061105368042E+01 -0.4534878781035E+00
-0.3521703011974E+00 -0.4946552005657E+01 -0.1059744477162E+01 -0.4979855787413E+00
-0.3864876270452E+00 -0.4885975892310E+01 -0.1054492719584E+01 -0.5370988464292E+00
-0.4160404886459E+00 -0.4802984419628E+01 -0.1043804997209E+01 -0.5664771525917E+00
-0.4363443464191E+00 -0.4691541865950E+01 -0.1025577257756E+01 -0.5796671712794E+00
-0.4393655626299E+00 -0.4545031678261E+01 -0.9968794630328E+00 -0.5672470320465E+00
-0.4104353491751E+00 -0.4357022897704E+01 -0.9534916635839E+00 -0.5155890840477E+00
-0.3222919654720E+00 -0.4123803194699E+01 -0.8892190452845E+00 -0.4057841431083E+00
-0.1251161590292E+00 -0.3851302339434E+01 -0.7952837115433E+00 -0.2155570327967E+00
 0.2651187052863E+00 -0.3566604457696E+01 -0.6602971603212E+00  0.6935496286169E-01
 0.9667214734802E+00 -0.3326246665223E+01 -0.4719050453805E+00  0.4256487810292E+00
 0.2089911950805E+01 -0.3198471661018E+01 -0.2217119453464E+00  0.7476276029537E+00
 0.3626456559597E+01 -0.3195901142287E+01  0.8611108474529E-01  0.8323752800165E+00
 0.5333462528601E+01 -0.3199115826766E+01  0.4268693467278E+00  0.4778680363066E+00
-0.1172442016852E+01 -0.5298017800770E+01 -0.1294091982808E+01  0.5769097689045E+00
-0.8923480752994E+00 -0.5399425747079E+01 -0.1258354783227E+01  0.5878028867548E+00
-0.6324597854812E+00 -0.5466568757523E+01 -0.1219805726777E+01  0.5351358409793E+00
-0.4289294679932E+00 -0.5488726805056E+01 -0.1183531272246E+01  0.4485702993026E+00
-0.2866461436847E+00 -0.5475037029873E+01 -0.1152336651883E+01  0.3581180711168E+00
-0.1929330253407E+00 -0.5441512416357E+01 -0.1126889105132E+01  0.2796595959423E+00
-0.1324956398830E+00 -0.5400817911557E+01 -0.1106662726779E+01  0.2170731446393E+00
-0.9360450877182E-01 -0.5360101061608E+01 -0.1090741130329E+01  0.1686362406927E+00
-0.6858554407018E-01 -0.5322599168009E+01 -0.1078236958483E+01  0.1311658244813E+00
-0.5266670421315E-01 -0.5289471005751E+01 -0.1068427557914E+01  0.1016411986002E+00
-0.4289650049547E-01 -0.5260919371213E+01 -0.1060763190148E+01  0.7759710397290E-01
-0.3743532497682E-01 -0.5236761179967E+01 -0.1054839316707E+01  0.5710923981125E-01
-0.3512952960695E-01 -0.5216698074900E+01 -0.1050365536553E+01  0.3868350450558E-01
-0.3525999625695E-01 -0.5200436603207E+01 -0.1047139335496E+01  0.2114204376443E-01
-0.3739496929470E-01 -0.5187733435367E+01 -0.1045025696504E+01  0.3529273087326E-02
-0.4130599793709E-01 -0.5178402152396E+01 -0.1043941645623E+01 -0.1496029761896E-01
-0.4692405750390E-01 -0.5172297673089E+01 -0.1043844361673E+01 -0.3503576458617E-01
-0.5432321406624E-01 -0.5169283268505E+01 -0.1044721312082E+01 -0.5734673152572E-01
-0.6372452985678E-01 -0.5169178033962E+01 -0.1046580528359E+01 -0.8250256968709E-01
-0.7550920798987E-01 -0.5171681999507E+01 -0.1049438257137E+01 -0.1110638098886E+00
-0.9021618685150E-01 -0.5176283311506E+01 -0.1053299915367E+01 -0.1434901807511E+00
-0.1084779713475E+00 -0.5182173135012E+01 -0.1058130237039E+01 -0.1800423367937E+00
-0.1308497546855E+00 -0.5188208287157E+01 -0.1063811624221E+01 -0.2206738759303E+00
-0.1575575422443E+00 -0.5192964525243E+01 -0.1070104429443E+01 -0.2650008224803E+00
-0.1882948978350E+00 -0.5194959728546E+01 -0.1076650941319E+01 -0.3124038033250E+00
-0.2222598819570E+00 -0.5192713317610E+01 -0.1082994656051E+01 -0.3621946788408E+00
-0.2584299466737E+00 -0.5184434424684E+01 -0.1088572890493E+01 -0.4136681267132E+00
-0.2958298671190E+00 -0.5167670016431E+01 -0.1092699992993E+01 -0.4659294697419E+00
-0.3335749245168E+00 -0.5139067868049E+01 -0.1094528574823E+01 -0.5175470266830E+00
-0.3706148098885E+00 -0.5094249987385E+01 -0.1092972975741E+01 -0.5661281875147E+00
-0.4051997543619E+00 -0.5027722519964E+01 -0.1086584471057E+01 -0.6078514137972E+00
-0.4340484886482E+00 -0.4932760483165E+01 -0.1073361810357E+01 -0.6368549045095E+00
-0.4509438182360E+00 -0.4801360015409E+01 -0.1050460782382E+01 -0.6442506100597E+00
-0.4439100254736E+00 -0.4624389961472E+01 -0.1013660012494E+01 -0.6164325109714E+00
-0.3891322807367E+00 -0.4393287699230E+01 -0.9564840102461E+00 -0.5327655033377E+00
-0.2390877008848E+00 -0.4106787588258E+01 -0.8691750707802E+00 -0.3649398926340E+00
 0.9552707695535E-01 -0.3785446670259E+01 -0.7379839296576E+00 -0.8532735146043E-01
 0.7579215564965E+00 -0.3489168841125E+01 -0.5462494650656E+00  0.3010109080498E+00
 0.1909257475387E+01 -0.3309070579344E+01 -0.2799626249632E+00  0.6925222057413E+00
 0.3587596588451E+01 -0.3286057043802E+01  0.6030790982850E-01  0.8448545671625E+00
 0.5515418354766E+01 -0.3286721938819E+01  0.4457392898315E+00  0.4769035884069E+00
-0.1189805613318E+01 -0.5431507400258E+01 -0.1324262622448E+01  0.6214516787875E+00
-0.8809870408555E+00 -0.5539080093867E+01 -0.1284013446078E+01  0.6227104008212E+00
-0.6009807582409E+00 -0.5602617177954E+01 -0.1240719605727E+01  0.5509904427288E+00
-0.3917037882289E+00 -0.5612624566961E+01 -0.1200865688932E+01  0.4467736653794E+00
-0.2530640661107E+00 -0.5584767591143E+01 -0.1167566348849E+01  0.3458181007487E+00
-0.1660231338747E+00 -0.5539730905517E+01 -0.1141150824883E+01  0.2632874056941E+00
-0.1118862659963E+00 -0.5491288574525E+01 -0.1120634984803E+01  0.2003387675482E+00
-0.7792973483580E-01 -0.5445918331844E+01 -0.1104769629798E+01  0.1531857050374E+00
-0.5648923301784E-01 -0.5405911462003E+01 -0.1092480155283E+01  0.1175683175337E+00
-0.4304839054009E-01 -0.5371697150798E+01 -0.1082949124405E+01  0.8999174052125E-01
-0.3491092385087E-01 -0.5342995303363E+01 -0.1075581261470E+01  0.6780796858694E-01
-0.3043876229724E-01 -0.5319324414426E+01 -0.1069952651288E+01  0.4904260164051E-01
-0.2862481277125E-01 -0.5300214547315E+01 -0.1065767887898E+01  0.3220870900820E-01
-0.2885185092477E-01 -0.5285286679246E+01 -0.1062827721871E+01  0.1615709599295E-01
-0.3075618276543E-01 -0.5274271958873E+01 -0.1061005644138E+01 -0.3467576315268E-04
-0.3415216799066E-01 -0.5267003350407E+01 -0.1060231119478E+01 -0.1714316754377E-01
-0.3899481556445E-01 -0.5263392320839E+01 -0.1060477443083E+01 -0.3585856464792E-01
-0.4536915418043E-01 -0.5263392798130E+01 -0.1061752406284E+01 -0.5682771590762E-01
-0.5350159129584E-01 -0.5266947409609E+01 -0.1064089816037E+01 -0.8068194876834E-01
-0.6378635070998E-01 -0.5273907870382E+01 -0.1067538860126E+01 -0.1080395512153E+00
-0.7680450190087E-01 -0.5283926876869E+01 -0.1072146291730E+01 -0.1394617077194E+00
-0.9328026856513E-01 -0.5296345961941E+01 -0.1077925262164E+01 -0.1753463792024E+00
-0.1139038474356E+00 -0.5310133661911E+01 -0.1084807518034E+01 -0.2157917541051E+00
-0.1390299375249E+00 -0.5323938791396E+01 -0.1092593762065E+01 -0.2605407652760E+00
-0.1684182320283E+00 -0.5336339764657E+01 -0.1100951615742E+01 -0.3090964744550E+00
-0.2012760160952E+00 -0.5345922840173E+01 -0.1109439787786E+01 -0.3609385315741E+00
-0.2366120470814E+00 -0.5350963255185E+01 -0.1117515077106E+01 -0.4156169737057E+00
-0.2735972371637E+00 -0.5349059853590E+01 -0.1124531434908E+01 -0.4725835401614E+00
-0.3116655658182E+00 -0.5336888077907E+01 -0.1129710745579E+01 -0.5308312082446E+00
-0.3502865552987E+00 -0.5310053076224E+01 -0.1132067943174E+01 -0.5884739923292E+00
-0.3884776598692E+00 -0.5262939316435E+01 -0.1130283412103E+01 -0.6423149213957E+00
-0.4241099646490E+00 -0.5188438323378E+01 -0.1122509674332E+01 -0.6872889495839E+00
-0.4528068554377E+00 -0.5077550454944E+01 -0.1106071478558E+01 -0.7154638821455E+00
-0.4656036000919E+00 -0.4918822495535E+01 -0.1076885235172E+01 -0.7140556871099E+00
-0.4432825684299E+00 -0.4698796220983E+01 -0.1028415773207E+01 -0.6620365684085E+00
-0.3435426938557E+00 -0.4407376552362E+01 -0.9501838634024E+00 -0.5265279876596E+00
-0.7658739843564E-01 -0.4053787996696E+01 -0.8260750913357E+00 -0.2657424536109E+00
 0.5239324159226E+00 -0.3694920884791E+01 -0.6341977032239E+00  0.1409813186380E+00
 0.1683358796185E+01 -0.3445953409675E+01 -0.3525189279509E+00  0.6091161235338E+00
 0.3516197335178E+01 -0.3390806021168E+01  0.2507826317560E-01  0.8517690209272E+00
 0.5716700462668E+01 -0.3387462488494E+01  0.4658476017765E+00  0.4756905914085E+00
-0.1205982238925E+01 -0.5574529552109E+01 -0.1356102378414E+01  0.6701171032959E+00
-0.8628149440750E+00 -0.5688028055245E+01 -0.1310168619387E+01  0.6582813880512E+00
-0.5612190940299E+00 -0.5744136824899E+01 -0.1261071202577E+01  0.5625781680913E+00
-0.3488226037786E+00 -0.5736967468664E+01 -0.1217158032626E+01  0.4386401803528E+00
-0.2170258855544E+00 -0.5691689032342E+01 -0.1181743001189E+01  0.3280050813894E+00
-0.1386598759663E+00 -0.5634047076742E+01 -0.1154541407746E+01  0.2431555465869E+00
-0.9171952448715E-01 -0.5577947781112E+01 -0.1133933478017E+01  0.1813451639253E+00
-0.6300492833732E-01 -0.5528404669350E+01 -0.1118281936201E+01  0.1364994866925E+00
-0.4520007861654E-01 -0.5486417469081E+01 -0.1106323526025E+01  0.1033919234022E+00
-0.3420079133793E-01 -0.5451572594937E+01 -0.1097154693604E+01  0.7818236908769E-01
-0.2763386760515E-01 -0.5423079108654E+01 -0.1090142611496E+01  0.5813215663487E-01
-0.2409140559408E-01 -0.5400159599329E+01 -0.1084850217150E+01  0.4127802970128E-01
-0.2272352423512E-01 -0.5382184477237E+01 -0.1080981616402E+01  0.2618030453640E-01
-0.2301750064096E-01 -0.5368702343648E+01 -0.1078343984926E+01  0.1174528181439E-01
-0.2467663067957E-01 -0.5359430784764E+01 -0.1076821499135E+01 -0.2897172651221E-02
-0.2755500036467E-01 -0.5354232623077E+01 -0.1076357540727E+01 -0.1847952836982E-01
-0.3162678764371E-01 -0.5353085756564E+01 -0.1076942524889E+01 -0.3565937638024E-01
-0.3698050788119E-01 -0.5356046007207E+01 -0.1078605319090E+01 -0.5506696337806E-01
-0.4383613958503E-01 -0.5363195590754E+01 -0.1081406362182E+01 -0.7734122951640E-01
-0.5258360275810E-01 -0.5374563674417E+01 -0.1085429471609E+01 -0.1031459208523E+00
-0.6382608417067E-01 -0.5390006146968E+01 -0.1090766462482E+01 -0.1331398483525E+00
-0.7836652549535E-01 -0.5409061796448E+01 -0.1097485680742E+01 -0.1678686924362E+00
-0.9703255057227E-01 -0.5430853301502E+01 -0.1105577186889E+01 -0.2075951480323E+00
-0.1203161061064E+00 -0.5454130984539E+01 -0.1114889434742E+01 -0.2522039571651E+00
-0.1480353142779E+00 -0.5477549603146E+01 -0.1125117000250E+01 -0.3013243088773E+00
-0.1793750221885E+00 -0.5499773456757E+01 -0.1135829712714E+01 -0.3546042448375E+00
-0.2133334947683E+00 -0.5519162776932E+01 -0.1146499271424E+01 -0.4118527674122E+00
-0.2491889692655E+00 -0.5533412897748E+01 -0.1156520390636E+01 -0.4728727249753E+00
-0.2866565788557E+00 -0.5539317330970E+01 -0.1165194799328E+01 -0.5370887058992E+00
-0.3256763565645E+00 -0.5532618918246E+01 -0.1171659072421E+01 -0.6031410056862E+00
-0.3659534413180E+00 -0.5507823944884E+01 -0.1174755494746E+01 -0.6685141197881E+00
-0.4063935969816E+00 -0.5457813334339E+01 -0.1172841403741E+01 -0.7290933371580E+00
-0.4443525117814E+00 -0.5373132786851E+01 -0.1163497077064E+01 -0.7782748644158E+00
-0.4739531252180E+00 -0.5240704741258E+01 -0.1142931590326E+01 -0.8049017588372E+00
-0.4813675785092E+00 -0.5042786214619E+01 -0.1104830775089E+01 -0.7891631687090E+00
-0.4324560174453E+00 -0.4759728332740E+01 -0.1038436885511E+01 -0.6962235805313E+00
-0.2437235822921E+00 -0.4384285684043E+01 -0.9256018670596E+00 -0.4715751095699E+00
 0.2676647686231E+00 -0.3959823402272E+01 -0.7384317377333E+00 -0.6176735202905E-01
 0.1403219919878E+01 -0.3621585064684E+01 -0.4436730355725E+00  0.4854423791713E+00
 0.3398773570242E+01 -0.3515656816723E+01 -0.2337664964462E-01  0.8479168761957E+00
 0.5941679604237E+01 -0.3505003960632E+01  0.4873351359830E+00  0.4747695249707E+00
-0.1220384148351E+01 -0.5730219859690E+01 -0.1390120822323E+01  0.7235870376646E+00
-0.8355960472683E+00 -0.5848590533981E+01 -0.1336837336170E+01  0.6934793247916E+00
-0.5115585564423E+00 -0.5891148869103E+01 -0.1280541504191E+01  0.5674506495436E+00
-0.3002765619939E+00 -0.5860097085811E+01 -0.1232074747920E+01  0.4222480803251E+00
-0.1792894256536E+00 -0.5794021617478E+01 -0.1194662226428E+01  0.3039374668183E+00
-0.1115762107544E+00 -0.5723251100385E+01 -0.1166965479617E+01  0.2192379465227E+00
-0.7249399733196E-01 -0.5660092377177E+01 -0.1146517291986E+01  0.1603007089733E+00
-0.4914141275111E-01 -0.5607163834232E+01 -0.1131261066254E+01  0.1188160464169E+00
-0.3491104405407E-01 -0.5563895597983E+01 -0.1119761345093E+01  0.8884522533524E-01
-0.2624513804652E-01 -0.5528972882693E+01 -0.1111043620704E+01  0.6637757498076E-01
-0.2114491498451E-01 -0.5501097330297E+01 -0.1104448465514E+01  0.4869117305956E-01
-0.1845031565605E-01 -0.5479216826924E+01 -0.1099533444900E+01  0.3389978790049E-01
-0.1747249147901E-01 -0.5462564484661E+01 -0.1096007411560E+01  0.2065143250669E-01
-0.1780190945060E-01 -0.5450635332532E+01 -0.1093687464694E+01  0.7933905570205E-02
-0.1920568632028E-01 -0.5443148101540E+01 -0.1092470773851E+01 -0.5052471364388E-02
-0.2157367025847E-01 -0.5440006811363E+01 -0.1092316112601E+01 -0.1898166851667E-01
-0.2489434302521E-01 -0.5441265112023E+01 -0.1093231907300E+01 -0.3446520743029E-01
-0.2925283229158E-01 -0.5447090134964E+01 -0.1095268609772E+01 -0.5210208212436E-01
-0.3485142563988E-01 -0.5457717051069E+01 -0.1098513711711E+01 -0.7252180023879E-01
-0.4205708717222E-01 -0.5473376552620E+01 -0.1103086744396E+01 -0.9641587005437E-01
-0.5147004804741E-01 -0.5494169642296E+01 -0.1109127954596E+01 -0.1245303350015E+00
-0.6395205287444E-01 -0.5519890062815E+01 -0.1116768439779E+01 -0.1575664299507E+00
-0.8046831614690E-01 -0.5549871002955E+01 -0.1126067880600E+01 -0.1959761137990E+00
-0.1016608671166E+00 -0.5583000795217E+01 -0.1136932349408E+01 -0.2398086196664E+00
-0.1274026055886E+00 -0.5618022666975E+01 -0.1149085071635E+01 -0.2888278152150E+00
-0.1568244622592E+00 -0.5653675020035E+01 -0.1162099913775E+01 -0.3428513554919E+00
-0.1888722094211E+00 -0.5688401883296E+01 -0.1175454836059E+01 -0.4019448097715E+00
-0.2228930800166E+00 -0.5720025092219E+01 -0.1188583652158E+01 -0.4662512095071E+00
-0.2588437086264E+00 -0.5745544289734E+01 -0.1200877617567E+01 -0.5356097399250E+00
-0.2970773355150E+00 -0.5761003304866E+01 -0.1211616146131E+01 -0.6091752890739E+00
-0.3378856595090E+00 -0.5761292130027E+01 -0.1219835576084E+01 -0.6851245209647E+00
-0.3810322438255E+00 -0.5739699425984E+01 -0.1224146352203E+01 -0.7603730526552E+00
-0.4253631693886E+00 -0.5686982074056E+01 -0.1222469066905E+01 -0.8299200158158E+00
-0.4678966063181E+00 -0.5589436467215E+01 -0.1211466632759E+01 -0.8849400310698E+00
-0.5004194989757E+00 -0.5426392450541E+01 -0.1185362407567E+01 -0.9084783547200E+00
-0.4992013978495E+00 -0.5169547580003E+01 -0.1133749812465E+01 -0.8673380848407E+00
-0.3952793201187E+00 -0.4791284172440E+01 -0.1037312713969E+01 -0.6991295972923E+00
-0.3241955563216E-02 -0.4306540301470E+01 -0.8619564642508E+00 -0.3138805400824E+00
 0.1059990613469E+01 -0.3856270555887E+01 -0.5592559968172E+00  0.3047019166124E+00
 0.3215451851792E+01 -0.3670150270961E+01 -0.9093968518894E-01  0.8235490033520E+00
 0.6195818920851E+01 -0.3644998856621E+01  0.5101640204481E+00  0.4747654788758E+00
-0.1232054087351E+01 -0.5903252648475E+01 -0.1427061368430E+01  0.7826743661248E+00
-0.7961589956249E+00 -0.6023723607522E+01 -0.1363976540954E+01  0.7263154539709E+00
-0.4502584824098E+00 -0.6042861190715E+01 -0.1298623953976E+01  0.5619927427958E+00
-0.2466184154519E+00 -0.5979254345712E+01 -0.1245174570787E+01  0.3953894180092E+00
-0.1410601614389E+00 -0.5889470399704E+01 -0.1206106130201E+01  0.2731443967356E+00
-0.8566261928787E-01 -0.5806045251319E+01 -0.1178341591680E+01  0.1917878203973E+00
-0.5473086525614E-01 -0.5737050352795E+01 -0.1158356260871E+01  0.1375747408245E+00
-0.3663879650267E-01 -0.5681847459160E+01 -0.1143697268175E+01  0.1004621513925E+00
-0.2579578762985E-01 -0.5638170083646E+01 -0.1132793191135E+01  0.7418587973522E-01
-0.1928338700600E-01 -0.5603811565716E+01 -0.1124619007303E+01  0.5476785644812E-01
-0.1550707192032E-01 -0.5577006650257E+01 -0.1118502761102E+01  0.3961929823374E-01
-0.1355883293881E-01 -0.5556470083277E+01 -0.1114005799843E+01  0.2699702778139E-01
-0.1290722504191E-01 -0.5541330424003E+01 -0.1110847546362E+01  0.1567506698081E-01
-0.1324059130017E-01 -0.5531053311078E+01 -0.1108858796999E+01  0.4746506097801E-02
-0.1438467629026E-01 -0.5525375759923E+01 -0.1107952103752E+01 -0.6501605587595E-02
-0.1626041410622E-01 -0.5524254880742E+01 -0.1108103075482E+01 -0.1867170066639E-01
-0.1886599183904E-01 -0.5527828472859E+01 -0.1109338909470E+01 -0.3231651076265E-01
-0.2227741075718E-01 -0.5536381949171E+01 -0.1111731888552E+01 -0.4798891405252E-01
-0.2666961491392E-01 -0.5550312683406E+01 -0.1115396476285E+01 -0.6628967557459E-01
-0.3236805919594E-01 -0.5570072558706E+01 -0.1120488140277E+01 -0.8791417039086E-01
-0.3993987812173E-01 -0.5596050494562E+01 -0.1127198091333E+01 -0.1136754308710E+00
-0.5027580905109E-01 -0.5628365690488E+01 -0.1135728316832E+01 -0.1444315054440E+00
-0.6447318491475E-01 -0.5666639690909E+01 -0.1146222592245E+01 -0.1808531034919E+00
-0.8334087818304E-01 -0.5709951038769E+01 -0.1158658400656E+01 -0.2231890353531E+00
-0.1068085588237E+00 -0.5757140623137E+01 -0.1172789853868E+01 -0.2713574686380E+00
-0.1339244071072E+00 -0.5806993691165E+01 -0.1188183637360E+01 -0.3253524307686E+00
-0.1635437013055E+00 -0.5858004527121E+01 -0.1204309663631E+01 -0.3854881151404E+00
-0.1950492312966E+00 -0.5908127853187E+01 -0.1220635435086E+01 -0.4522164141821E+00
-0.2286000850780E+00 -0.5954652105330E+01 -0.1236650456509E+01 -0.5257441221716E+00
-0.2649008563273E+00 -0.5994092237271E+01 -0.1251798637373E+01 -0.6056946117114E+00
-0.3047173850447E+00 -0.6021991083538E+01 -0.1265341712572E+01 -0.6908991591117E+00
-0.3484526864627E+00 -0.6032476773081E+01 -0.1276185910925E+01 -0.7792946777218E+00
-0.3960793272896E+00 -0.6017259272721E+01 -0.1282667739115E+01 -0.8676103126826E+00
-0.4470645535820E+00 -0.5963251964587E+01 -0.1282063322738E+01 -0.9498583607092E+00
-0.4983927470045E+00 -0.5848874596930E+01 -0.1269453487703E+01 -0.1013294342822E+01
-0.5374234484056E+00 -0.5640189471372E+01 -0.1235522602366E+01 -0.1030225630485E+01
-0.5175215386803E+00 -0.5289235910667E+01 -0.1161351507175E+01 -0.9392272599696E+00
-0.2735810221623E+00 -0.4765476907608E+01 -0.1007811600972E+01 -0.6184715432735E+00
 0.6477260511035E+00 -0.4183506137881E+01 -0.7071560278929E+00  0.4434713075544E-01
 0.2936878008167E+01 -0.3872017546310E+01 -0.1870279104154E+00  0.7604625206537E+00
 0.6485668793803E+01 -0.3817087492166E+01  0.5337162682804E+00  0.4758572905157E+00
-0.1239390217250E+01 -0.6100911071891E+01 -0.1468060279704E+01  0.8482859248172E+00
-0.7399545528106E+00 -0.6217033282342E+01 -0.1391397587764E+01  0.7529849219277E+00
-0.3757510966659E+00 -0.6196730280834E+01 -0.1314496295088E+01  0.5409345538059E+00
-0.1893862693371E+00 -0.6090080423823E+01 -0.1255893357346E+01  0.3558499661631E+00
-0.1040642274667E+00 -0.5975310499138E+01 -0.1215874963439E+01  0.2357269921376E+00
-0.6189733746025E-01 -0.5881177453850E+01 -0.1188614975974E+01  0.1614168552346E+00
-0.3892980234208E-01 -0.5808234299575E+01 -0.1169432837809E+01  0.1137030621283E+00
-0.2576526341232E-01 -0.5752182701884E+01 -0.1155589610279E+01  0.8185250791687E-01
-0.1799679050970E-01 -0.5709126873398E+01 -0.1145424749850E+01  0.5971705018601E-01
-0.1339157417826E-01 -0.5676048450633E+01 -0.1137888021918E+01  0.4356589012076E-01
-0.1076301088552E-01 -0.5650798689451E+01 -0.1132312356940E+01  0.3106070355654E-01
-0.9444235054899E-02 -0.5631920167799E+01 -0.1128272897383E+01  0.2066164448256E-01
-0.9050351258737E-02 -0.5618479354827E+01 -0.1125505957988E+01  0.1130252227992E-01
-0.9358389544998E-02 -0.5609941434358E+01 -0.1123859981527E+01  0.2201863076615E-02
-0.1024573832095E-01 -0.5606080766205E+01 -0.1123265317643E+01 -0.7253008433380E-02
-0.1165924580004E-01 -0.5606919639732E+01 -0.1123715793851E+01 -0.1758191720285E-01
-0.1360272065191E-01 -0.5612687144487E+01 -0.1125257989795E+01 -0.2926741277700E-01
-0.1613889001353E-01 -0.5623791034785E+01 -0.1127986001768E+01 -0.4280192090253E-01
-0.1940852505389E-01 -0.5640794735968E+01 -0.1132040669073E+01 -0.5873688169833E-01
-0.2367947545086E-01 -0.5664383019143E+01 -0.1137612515871E+01 -0.7774146741141E-01
-0.2945191789442E-01 -0.5695271312456E+01 -0.1144944663131E+01 -0.1006617103402E+00
-0.3760245366979E-01 -0.5733987835428E+01 -0.1154318075020E+01 -0.1284999633730E+00
-0.4934353917838E-01 -0.5780552854837E+01 -0.1165979296177E+01 -0.1621772540982E+00
-0.6566925178140E-01 -0.5834317436359E+01 -0.1179997355212E+01 -0.2021956343119E+00
-0.8657494635223E-01 -0.5894229802708E+01 -0.1196160967636E+01 -0.2486690385500E+00
-0.1110037225926E+00 -0.5959058860970E+01 -0.1214012534803E+01 -0.3017890909021E+00
-0.1376933649649E+00 -0.6027264509998E+01 -0.1232991593366E+01 -0.3621058622612E+00
-0.1660400020084E+00 -0.6096905117764E+01 -0.1252589042619E+01 -0.4303206157180E+00
-0.1963686260717E+00 -0.6165633729126E+01 -0.1272400490000E+01 -0.5069219396161E+00
-0.2296700468826E+00 -0.6230616104270E+01 -0.1292057249484E+01 -0.5919190210854E+00
-0.2670706289315E+00 -0.6288316473630E+01 -0.1311077440049E+01 -0.6847167380036E+00
-0.3093821909001E+00 -0.6334110230131E+01 -0.1328698504005E+01 -0.7841745507615E+00
-0.3572495656730E+00 -0.6361394404256E+01 -0.1343728814009E+01 -0.8886860707126E+00
-0.4119163547462E+00 -0.6359104438603E+01 -0.1354204178849E+01 -0.9953146326905E+00
-0.4746639715616E+00 -0.6307215184380E+01 -0.1356375851400E+01 -0.1096375755782E+01
-0.5424991692854E+00 -0.6170981469061E+01 -0.1342696147677E+01 -0.1172558297118E+01
-0.5948238955973E+00 -0.5889212028585E+01 -0.1296807204160E+01 -0.1174884544484E+01
-0.5170836789896E+00 -0.5374527229461E+01 -0.1178322199248E+01 -0.9694639777637E+00
 0.1695800687529E+00 -0.4658540249722E+01 -0.8977920495719E+00 -0.3230292413978E+00
 0.2520145543150E+01 -0.4156308705438E+01 -0.3272326373337E+00  0.6249845652605E+00
 0.6818303056611E+01 -0.4039750238758E+01  0.5557105718514E+00  0.4758004598030E+00
-0.1239651065096E+01 -0.6335195971852E+01 -0.1514969429964E+01  0.9212107514005E+00
-0.6604187887997E+00 -0.6432349402039E+01 -0.1418553659306E+01  0.7661117512877E+00
-0.2873988621344E+00 -0.6346564472893E+01 -0.1326792686776E+01  0.4968574610676E+00
-0.1317173623616E+00 -0.6186165800439E+01 -0.1263576651389E+01  0.3021640925823E+00
-0.7048361442164E-01 -0.6048766180697E+01 -0.1223849977260E+01  0.1927458966113E+00
-0.4120391471674E-01 -0.5947608257017E+01 -0.1197762452195E+01  0.1291038423550E+00
-0.2552594328028E-01 -0.5873186604311E+01 -0.1179742527098E+01  0.8937760252232E-01
-0.1673708801925E-01 -0.5818004819510E+01 -0.1166948398895E+01  0.6348520924674E-01
-0.1161242102577E-01 -0.5776728083690E+01 -0.1157668118194E+01  0.4577898499025E-01
-0.8613921403223E-02 -0.5745697016121E+01 -0.1150862204654E+01  0.3300109865679E-01
-0.6931609313969E-02 -0.5722504271817E+01 -0.1145887193301E+01  0.2316560961893E-01
-0.6115696028012E-02 -0.5705597112384E+01 -0.1142342578705E+01  0.1498563067579E-01
-0.5910278986635E-02 -0.5694031195002E+01 -0.1139988311785E+01  0.7581737768110E-02
-0.6168424708367E-02 -0.5687303656304E+01 -0.1138694433170E+01  0.3129197660168E-03
-0.6810812490439E-02 -0.5685246586057E+01 -0.1138411496673E+01 -0.7323096033877E-02
-0.7804766704273E-02 -0.5687959308156E+01 -0.1139152831947E+01 -0.1575499605851E-01
-0.9156375686193E-02 -0.5695767817747E+01 -0.1140984855689E+01 -0.2538564130557E-01
-0.1091281814799E-01 -0.5709203082157E+01 -0.1144023197108E+01 -0.3663399077790E-01
-0.1317769311339E-01 -0.5728992300795E+01 -0.1148434015895E+01 -0.4998184209728E-01
-0.1615089421148E-01 -0.5756053120447E+01 -0.1154440820134E+01 -0.6603763080840E-01
-0.2023204146687E-01 -0.5791452746664E+01 -0.1162336974946E+01 -0.8562930586129E-01
-0.2622435206300E-01 -0.5836220110582E+01 -0.1172488910001E+01 -0.1098653108475E+00
-0.3541723572575E-01 -0.5890932072045E+01 -0.1185269879216E+01 -0.1399419762439E+00
-0.4900338238676E-01 -0.5955351895742E+01 -0.1200871073520E+01 -0.1766942584548E+00
-0.6705969388850E-01 -0.6028554556132E+01 -0.1219122868170E+01 -0.2205142829759E+00
-0.8841487973369E-01 -0.6109172540472E+01 -0.1239517502511E+01 -0.2718430449987E+00
-0.1116850864966E+00 -0.6195465965168E+01 -0.1261430229130E+01 -0.3314491521528E+00
-0.1362780991331E+00 -0.6285516710010E+01 -0.1284358980967E+01 -0.4001825880146E+00
-0.1626509443156E+00 -0.6377412086248E+01 -0.1308012625604E+01 -0.4786752665794E+00
-0.1920088169979E+00 -0.6469168622509E+01 -0.1332235507753E+01 -0.5672006278818E+00
-0.2257312379896E+00 -0.6558439714531E+01 -0.1356834210723E+01 -0.6656256877675E+00
-0.2648274791396E+00 -0.6642197298056E+01 -0.1381404976024E+01 -0.7735621115931E+00
-0.3101474817920E+00 -0.6716138470520E+01 -0.1405257211402E+01 -0.8907994914989E+00
-0.3638207866832E+00 -0.6772609642523E+01 -0.1427286107109E+01 -0.1017229117397E+01
-0.4302856335570E+00 -0.6795976604713E+01 -0.1445252469190E+01 -0.1150549786099E+01
-0.5133553925619E+00 -0.6755973806516E+01 -0.1453865861480E+01 -0.1280717308802E+01
-0.6134557764109E+00 -0.6592965296532E+01 -0.1441284236065E+01 -0.1380133462419E+01
-0.6937155237802E+00 -0.6173537809335E+01 -0.1373450687089E+01 -0.1341762619536E+01
-0.3493764176733E+00 -0.5370394962597E+01 -0.1143954293100E+01 -0.8228458596076E+00
 0.1904716042880E+01 -0.4595898447047E+01 -0.5382364888538E+00  0.3561823216477E+00
 0.7199439944377E+01 -0.4352937132961E+01  0.5693005707664E+00  0.4634746881588E+00
-0.1228111263643E+01 -0.6627403731571E+01 -0.1571103022454E+01  0.1001284174625E+01
-0.5481262365309E+00 -0.6671615300270E+01 -0.1443948328877E+01  0.7510358000067E+00
-0.1872914234545E+00 -0.6478786685162E+01 -0.1333215641590E+01  0.4202776335360E+00
-0.7906203796079E-01 -0.6259369815702E+01 -0.1267686389623E+01  0.2352919028153E+00
-0.4253364003307E-01 -0.6107824316441E+01 -0.1230071609624E+01  0.1464677447594E+00
-0.2427085553162E-01 -0.6004574927022E+01 -0.1205769174478E+01  0.9607472527613E-01
-0.1487259855895E-01 -0.5931636780779E+01 -0.1189301893590E+01  0.6544854411477E-01
-0.9689539487351E-02 -0.5879291993312E+01 -0.1177796324110E+01  0.4592440750069E-01
-0.6686338404340E-02 -0.5841021128448E+01 -0.1169541510798E+01  0.3273633342615E-01
-0.4958089348146E-02 -0.5812831868628E+01 -0.1163558008934E+01  0.2331321641682E-01
-0.4004800208161E-02 -0.5792196309833E+01 -0.1159240239282E+01  0.1608523018915E-01
-0.3562812231059E-02 -0.5777562131003E+01 -0.1156225005876E+01  0.1005813535063E-01
-0.3480111392717E-02 -0.5768029909819E+01 -0.1154302021443E+01  0.4555330241817E-02
-0.3671279668270E-02 -0.5763163739072E+01 -0.1153367020935E+01 -0.9143361120450E-03
-0.4090800948684E-02 -0.5762874197753E+01 -0.1153393016927E+01 -0.6736806831042E-02
-0.4721123256126E-02 -0.5767348862908E+01 -0.1154414014435E+01 -0.1324404581351E-01
-0.5568164689834E-02 -0.5777014535235E+01 -0.1156516557218E+01 -0.2075214033162E-01
-0.6663279790952E-02 -0.5792522979457E+01 -0.1159837269133E+01 -0.2959565400165E-01
-0.8074037981480E-02 -0.5814756803524E+01 -0.1164566185655E+01 -0.4016838593037E-01
-0.9931257712157E-02 -0.5844852676554E+01 -0.1170956804302E+01 -0.5298318560919E-01
-0.1250902505862E-01 -0.5884228139084E+01 -0.1179347450402E+01 -0.6878206114309E-01
-0.1646261280821E-01 -0.5934495071863E+01 -0.1190191554669E+01 -0.8869802145550E-01
-0.2308430736298E-01 -0.5997008814308E+01 -0.1204018642276E+01 -0.1141988902634E+00
-0.3375833240626E-01 -0.6072194544216E+01 -0.1221190593522E+01 -0.1465645970225E+00
-0.4866247387093E-01 -0.6159305573777E+01 -0.1241593628031E+01 -0.1866242480356E+00
-0.6652670958413E-01 -0.6256622531737E+01 -0.1264629867109E+01 -0.2351797965562E+00
-0.8588498582769E-01 -0.6361911389268E+01 -0.1289559294235E+01 -0.2931933360868E+00
-0.1061881488718E+00 -0.6473129269736E+01 -0.1315863503329E+01 -0.3614992243780E+00
-0.1279934856923E+00 -0.6588866308728E+01 -0.1343371978902E+01 -0.4406625553437E+00
-0.1526272211881E+00 -0.6708225959083E+01 -0.1372170656501E+01 -0.5310514844271E+00
-0.1816273860273E+00 -0.6830344871465E+01 -0.1402394472396E+01 -0.6328816501911E+00
-0.2160282820017E+00 -0.6954035605307E+01 -0.1434012798830E+01 -0.7463043349424E+00
-0.2565127222564E+00 -0.7077708375979E+01 -0.1466844241505E+01 -0.8720943339058E+00
-0.3051476993482E+00 -0.7198110630660E+01 -0.1500651688363E+01 -0.1012182380174E+01
-0.3678685178151E+00 -0.7307190923072E+01 -0.1535011911051E+01 -0.1169162099765E+01
-0.4534864907628E+00 -0.7384267393325E+01 -0.1567550800176E+01 -0.1342138093810E+01
-0.5692509348569E+00 -0.7386274209242E+01 -0.1591105052529E+01 -0.1523243452184E+01
-0.7526990230665E+00 -0.7186051278330E+01 -0.1587750083939E+01 -0.1677746096877E+01
-0.8377796642465E+00 -0.6452232194489E+01 -0.1458002393473E+01 -0.1455440434546E+01
 0.1013096536133E+01 -0.5347909492588E+01 -0.8669626042097E+00 -0.1504037235560E+00
 0.7628567992204E+01 -0.4854303525412E+01  0.5548529016264E+00  0.3985080355546E+00
-0.1197005015129E+01 -0.7019513598536E+01 -0.1643303747220E+01  0.1084118366392E+01
-0.3898577714943E+00 -0.6926094449033E+01 -0.1463190465909E+01  0.6776500832961E+00
-0.8444717795589E-01 -0.6566038985866E+01 -0.1330097252584E+01  0.3026881129038E+00
-0.3934245729762E-01 -0.6303251579644E+01 -0.1268518826291E+01  0.1615454687750E+00
-0.2134138828156E-01 -0.6151877911719E+01 -0.1234643878398E+01  0.9972519189807E-01
-0.1157183782834E-01 -0.6051445288249E+01 -0.1212603443285E+01  0.6371341636546E-01
-0.7216286688913E-02 -0.5983668036252E+01 -0.1198176882442E+01  0.4294680188256E-01
-0.4633040947630E-02 -0.5936151590834E+01 -0.1188156944061E+01  0.2974741125546E-01
-0.3210298191502E-02 -0.5902158232540E+01 -0.1181073723746E+01  0.2097355752107E-01
-0.2387055613704E-02 -0.5877590468520E+01 -0.1175995522351E+01  0.1474053358039E-01
-0.1946906038776E-02 -0.5859992582425E+01 -0.1172387915163E+01  0.9967146084884E-02
-0.1754145022871E-02 -0.5847908577641E+01 -0.1169932561966E+01  0.5961872348832E-02
-0.1737075754700E-02 -0.5840544301384E+01 -0.1168456292839E+01  0.2258593590568E-02
-0.1854402288777E-02 -0.5837565913824E+01 -0.1167884080625E+01 -0.1482039004369E-02
-0.2084948711475E-02 -0.5838982890586E+01 -0.1168213585267E+01 -0.5528074190872E-02
-0.2421164805072E-02 -0.5845081141856E+01 -0.1169500478759E+01 -0.1011250128430E-01
-0.2867341054760E-02 -0.5856390375567E+01 -0.1171851560786E+01 -0.1546035464731E-01
-0.3440793058356E-02 -0.5873677654117E+01 -0.1175423706950E+01 -0.2181376839664E-01
-0.4177792841085E-02 -0.5897966827282E+01 -0.1180428941614E+01 -0.2946336189359E-01
-0.5149535647296E-02 -0.5930587669628E+01 -0.1187147458745E+01 -0.3879694036599E-01
-0.6502108777990E-02 -0.5973267455092E+01 -0.1195953930595E+01 -0.5039618520891E-01
-0.8664791143407E-02 -0.6028229838929E+01 -0.1207378944006E+01 -0.6527441627516E-01
-0.1280295682432E-01 -0.6097898096843E+01 -0.1222140228945E+01 -0.8508642476744E-01
-0.2043001946696E-01 -0.6183825353971E+01 -0.1240851093178E+01 -0.1116977629203E+00
-0.3183496179980E-01 -0.6285580828498E+01 -0.1263483176887E+01 -0.1466799902242E+00
-0.4571383453251E-01 -0.6400702558857E+01 -0.1289283297890E+01 -0.1914218235143E+00
-0.6063827620145E-01 -0.6525959741227E+01 -0.1317319623115E+01 -0.2470303475157E+00
-0.7618224377836E-01 -0.6658956567269E+01 -0.1347027782282E+01 -0.3140575077420E+00
-0.9296789810858E-01 -0.6798865201336E+01 -0.1378366640428E+01 -0.3926959940062E+00
-0.1123137309752E+00 -0.6946167489016E+01 -0.1411696265034E+01 -0.4831772024579E+00
-0.1357883695511E+00 -0.7101849714974E+01 -0.1447527638475E+01 -0.5859594850563E+00
-0.1644268969459E+00 -0.7266749619492E+01 -0.1486235325434E+01 -0.7016128413029E+00
-0.1983489173184E+00 -0.7441910061464E+01 -0.1528051818526E+01 -0.8312751106258E+00
-0.2392954469744E+00 -0.7629191954979E+01 -0.1573697503841E+01 -0.9779979564945E+00
-0.2917347183579E+00 -0.7829852715587E+01 -0.1624317510993E+01 -0.1146551635747E+01
-0.3689477650269E+00 -0.8041475500815E+01 -0.1682084678233E+01 -0.1346349035390E+01
-0.4770255439928E+00 -0.8239605278331E+01 -0.1743326190442E+01 -0.1578435594626E+01
-0.6552862800168E+00 -0.8380767523676E+01 -0.1807210787668E+01 -0.1880829741083E+01
-0.1137088191332E+01 -0.8060358792711E+01 -0.1839489424219E+01 -0.2134052542785E+01
-0.2285496234396E+00 -0.6758227291572E+01 -0.1397355403824E+01 -0.1049767183970E+01
 0.8095643773509E+01 -0.5812576677374E+01  0.4566134260311E+00  0.1480865851252E+00
-0.1137322977157E+01 -0.7608817794741E+01 -0.1749228180445E+01  0.1146700773715E+01
-0.1676211298623E+00 -0.7136913184797E+01 -0.1460906884701E+01  0.4824175567380E+00
-0.5300751301197E-02 -0.6565458318314E+01 -0.1314151833505E+01  0.1518421925612E+00
-0.1924539866857E-01 -0.6323453327632E+01 -0.1268539764163E+01  0.9384119418704E-01
-0.5498553800450E-02 -0.6178591968241E+01 -0.1236818122838E+01  0.5353582416641E-01
-0.4137340990096E-02 -0.6088827311440E+01 -0.1218592948644E+01  0.3435490794168E-01
-0.2299345277029E-02 -0.6029495561595E+01 -0.1206358999351E+01  0.2274206683481E-01
-0.1560750247946E-02 -0.5988898131400E+01 -0.1198091794183E+01  0.1559354832211E-01
-0.1082192915544E-02 -0.5960386266040E+01 -0.1192293709558E+01  0.1085734127337E-01
-0.8271558260702E-03 -0.5940178840335E+01 -0.1188201216938E+01  0.7515082231191E-02
-0.6908945766788E-03 -0.5926055541003E+01 -0.1185349304779E+01  0.4948142552328E-02
-0.6375264699683E-03 -0.5916762431634E+01 -0.1183480009256E+01  0.2769838677975E-02
-0.6420640290736E-03 -0.5911668133482E+01 -0.1182462057122E+01  0.7173072258157E-03
-0.6918837816210E-03 -0.5910575147611E+01 -0.1182253423896E+01 -0.1401568878908E-02
-0.7804466165968E-03 -0.5913610712300E+01 -0.1182878249409E+01 -0.3740231123807E-02
-0.9058375732858E-03 -0.5921167608542E+01 -0.1184414706872E+01 -0.6433873445502E-02
-0.1070218336579E-02 -0.5933878711115E+01 -0.1186989803578E+01 -0.9615255292980E-02
-0.1280385263468E-02 -0.5952618325225E+01 -0.1190779759842E+01 -0.1342955313466E-01
-0.1549685100436E-02 -0.5978532374575E+01 -0.1196016429757E+01 -0.1805366604574E-01
-0.1904948226635E-02 -0.6013108285973E+01 -0.1203002664766E+01 -0.2372835622275E-01
-0.2398770478850E-02 -0.6058311150183E+01 -0.1212142002195E+01 -0.3082009117527E-01
-0.3193407500920E-02 -0.6116870747304E+01 -0.1224012849200E+01 -0.4001853002473E-01
-0.5123405918558E-02 -0.6192560774096E+01 -0.1239536854473E+01 -0.5288574955994E-01
-0.9636324299013E-02 -0.6288974373423E+01 -0.1259722158316E+01 -0.7199224139888E-01
-0.1709877631684E-01 -0.6406358668663E+01 -0.1284691508139E+01 -0.1002603202324E+00
-0.2633938382991E-01 -0.6540745196200E+01 -0.1313416935577E+01 -0.1401076750566E+00
-0.3623723751351E-01 -0.6687077629265E+01 -0.1344662993393E+01 -0.1926577162408E+00
-0.4662668275363E-01 -0.6842309308951E+01 -0.1377787218872E+01 -0.2577465293599E+00
-0.5814770044918E-01 -0.7006311947041E+01 -0.1412891950552E+01 -0.3347739848434E+00
-0.7192099592197E-01 -0.7181295902571E+01 -0.1450643401315E+01 -0.4235175456227E+00
-0.8935681377061E-01 -0.7370608155187E+01 -0.1491993016024E+01 -0.5245697661317E+00
-0.1114672886331E+00 -0.7577372234557E+01 -0.1537767927553E+01 -0.6389970299381E+00
-0.1381063146489E+00 -0.7804582241988E+01 -0.1588537734998E+01 -0.7678995839891E+00
-0.1693583632919E+00 -0.8058557636977E+01 -0.1645583224575E+01 -0.9134218422967E+00
-0.2104807555204E+00 -0.8352408892841E+01 -0.1712577955192E+01 -0.1081049111141E+01
-0.2631553781728E+00 -0.8703484979080E+01 -0.1793328098173E+01 -0.1280526901009E+01
-0.3670923897258E+00 -0.9131027956121E+01 -0.1899624097476E+01 -0.1540781955744E+01
-0.4400570775370E+00 -0.9631842209442E+01 -0.2014379887412E+01 -0.1854205719356E+01
-0.9735619882702E+00 -0.1022998510574E+02 -0.2240709452192E+01 -0.2564950821568E+01
-0.1771551338266E+01 -0.9521043355213E+01 -0.2258518972350E+01 -0.2440268242523E+01
 0.8562364197600E+01 -0.8154133687800E+01  0.8164610317673E-01 -0.7396376592682E+00
-0.1073333185114E+01 -0.8689631955551E+01 -0.1952593057229E+01  0.1068277378489E+01
 0.1509033043253E+00 -0.6977041171193E+01 -0.1365227593717E+01  0.3810292964220E-01
-0.2968295904522E-01 -0.6526127452416E+01 -0.1311162101830E+01  0.5421001547695E-01
 0.4655872405826E-02 -0.6311008471283E+01 -0.1261270538570E+01  0.2389492060896E-01
-0.1727087250367E-02 -0.6190586174030E+01 -0.1238462670711E+01  0.1469932333759E-01
-0.6209966480930E-04 -0.6117169533270E+01 -0.1223446344818E+01  0.9096092361345E-02
-0.3131321348377E-03 -0.6069811488953E+01 -0.1214024942308E+01  0.5964768758716E-02
-0.1819042835798E-03 -0.6037982193307E+01 -0.1207632837513E+01  0.4015866650355E-02
-0.1720564414764E-03 -0.6016064520490E+01 -0.1203247333316E+01  0.2743890174248E-02
-0.1506877433546E-03 -0.6000866669602E+01 -0.1200203489354E+01  0.1846264049219E-02
-0.1429371181687E-03 -0.5990592480637E+01 -0.1198147101405E+01  0.1149403051263E-02
-0.1392405125886E-03 -0.5984281385040E+01 -0.1196884142946E+01  0.5413773930915E-03
-0.1400811006749E-03 -0.5981519760771E+01 -0.1196331986201E+01 -0.5430201203437E-04
-0.1444497679024E-03 -0.5982276952609E+01 -0.1196484298304E+01 -0.6946707491742E-03
-0.1523126652287E-03 -0.5986814512499E+01 -0.1197393382875E+01 -0.1426308041827E-02
-0.1638637890458E-03 -0.5995638808892E+01 -0.1199160552405E+01 -0.2291397867253E-02
-0.1794878405439E-03 -0.6009483883327E+01 -0.1201932692144E+01 -0.3332150854262E-02
-0.2004155392781E-03 -0.6029322080870E+01 -0.1205904517251E+01 -0.4596190529097E-02
-0.2278219086094E-03 -0.6056397993615E+01 -0.1211325181155E+01 -0.6142065481322E-02
-0.2647665622577E-03 -0.6092314667835E+01 -0.1218515905037E+01 -0.8050307379617E-02
-0.3168942218141E-03 -0.6139189717923E+01 -0.1227901340726E+01 -0.1044644353150E-01
-0.3906125533724E-03 -0.6200020514300E+01 -0.1240082243849E+01 -0.1355349288126E-01
-0.7237730719849E-03 -0.6279754969074E+01 -0.1256095767147E+01 -0.1814488692431E-01
-0.2192180785660E-02 -0.6385929727791E+01 -0.1277624400753E+01 -0.2734117114906E-01
-0.5076009742058E-02 -0.6520484691491E+01 -0.1305112159694E+01 -0.4674352356598E-01
-0.8722371124764E-02 -0.6676171547624E+01 -0.1336978803672E+01 -0.8063835027559E-01
-0.1287683774284E-01 -0.6844907570762E+01 -0.1371556902139E+01 -0.1297632064305E+00
-0.1780345946262E-01 -0.7022658755931E+01 -0.1408092464061E+01 -0.1925743172226E+00
-0.2406622735698E-01 -0.7210189887822E+01 -0.1446851244596E+01 -0.2671097766582E+00
-0.3237413671538E-01 -0.7411893394311E+01 -0.1488853528391E+01 -0.3523163171657E+00
-0.4356929106526E-01 -0.7634028646830E+01 -0.1535519610460E+01 -0.4486681801771E+00
-0.5866201089597E-01 -0.7882917804983E+01 -0.1588315986844E+01 -0.5581649825520E+00
-0.7770360385844E-01 -0.8161992520678E+01 -0.1647939249463E+01 -0.6821919828849E+00
-0.1004766879882E+00 -0.8479125783655E+01 -0.1715920519898E+01 -0.8194717278367E+00
-0.1269254014823E+00 -0.8860858390569E+01 -0.1797556785196E+01 -0.9713439781928E+00
-0.1669523803896E+00 -0.9349320584763E+01 -0.1903254621391E+01 -0.1147769147661E+01
-0.1973254597546E+00 -0.1000190597938E+02 -0.2039846318223E+01 -0.1370236518543E+01
-0.3748849896030E+00 -0.1091742182592E+02 -0.2258461396759E+01 -0.1688898672571E+01
-0.9765695801130E-02 -0.1230810999669E+02 -0.2463575175208E+01 -0.2129017093685E+01
-0.3314774575894E+01 -0.1471437950450E+02 -0.3605830869809E+01 -0.3806185149976E+01
 0.9985605020749E+01 -0.1522339949861E+02 -0.1047558911182E+01 -0.3596313603655E+01
-0.8776459218509E+00 -0.1293347143404E+01 -0.1020366738082E+01 -0.5408475700940E+00
-0.7887706027458E+00 -0.1329285186005E+01 -0.9954862181878E+00 -0.4344774236663E+00
-0.6947696084388E+00 -0.1361749454567E+01 -0.9665639571613E+00 -0.3437087418704E+00
-0.6032116094568E+00 -0.1393257334420E+01 -0.9383404012423E+00 -0.2662871348711E+00
-0.5156041247179E+00 -0.1422372541699E+01 -0.9108490309057E+00 -0.2004262846370E+00
-0.4336981823862E+00 -0.1448406093816E+01 -0.8845890075714E+00 -0.1450541484362E+00
-0.3581594135933E+00 -0.1470578193409E+01 -0.8595066731108E+00 -0.9968011587641E-01
-0.2896880613858E+00 -0.1489138108374E+01 -0.8360482976664E+00 -0.6383199392787E-01
-0.2285531982944E+00 -0.1504369834071E+01 -0.8144738231457E+00 -0.3692758957535E-01
-0.1747931981958E+00 -0.1516541300742E+01 -0.7949272124845E+00 -0.1834173614008E-01
-0.1283685460021E+00 -0.1526024071140E+01 -0.7775645280845E+00 -0.7439318509609E-02
-0.8910306010842E-01 -0.1533154773816E+01 -0.7624611800106E+00 -0.3597035631824E-02
-0.5677861867197E-01 -0.1538152967667E+01 -0.7496178436779E+00 -0.6196097194253E-02
-0.3116211348704E-01 -0.1541012450370E+01 -0.7389220431386E+00 -0.1467187014198E-01
-0.1204917375052E-01 -0.1541558670451E+01 -0.7301956849229E+00 -0.2855301950538E-01
 0.8023844265619E-03 -0.1539444349394E+01 -0.7231617217007E+00 -0.4742758084667E-01
 0.6410735724439E-02 -0.1535069056105E+01 -0.7184694087565E+00 -0.7074109210631E-01
 0.3845477997632E-02 -0.1529246388316E+01 -0.7169384260311E+00 -0.9865117841612E-01
-0.2700059374471E-02 -0.1519988064832E+01 -0.7156634165620E+00 -0.1305215350634E+00
-0.3475369133699E-01 -0.1531883136324E+01 -0.7363193071332E+00 -0.1595685690804E+00
-0.9331896943197E+00 -0.1349200897407E+01 -0.1072723575391E+01 -0.5209695646079E+00
-0.8306744582149E+00 -0.1383348944312E+01 -0.1040590996548E+01 -0.4138584731233E+00
-0.7302566692616E+00 -0.1418584716423E+01 -0.1009955448710E+01 -0.3237666650612E+00
-0.6323377862601E+00 -0.1451782833775E+01 -0.9795366889319E+00 -0.2473474810674E+00
-0.5393733008026E+00 -0.1482613183393E+01 -0.9503336451613E+00 -0.1828538608831E+00
-0.4525075997516E+00 -0.1510263541134E+01 -0.9225024338766E+00 -0.1291514108508E+00
-0.3725723435636E+00 -0.1534415406344E+01 -0.8962842401831E+00 -0.8555162744617E-01
-0.3000013185281E+00 -0.1555004430027E+01 -0.8718526996098E+00 -0.5143959495409E-01
-0.2350626987055E+00 -0.1572226047448E+01 -0.8494257085377E+00 -0.2622650579155E-01
-0.1778240878564E+00 -0.1586364776525E+01 -0.8291687641561E+00 -0.9309555009346E-02
-0.1282158255225E+00 -0.1597766622853E+01 -0.8112117486790E+00 -0.8054069951428E-04
-0.8606443700946E-01 -0.1606791619660E+01 -0.7956423446168E+00  0.2053179234165E-02
-0.5113137056940E-01 -0.1613694515542E+01 -0.7824681644876E+00 -0.2326234836881E-02
-0.2317598226819E-01 -0.1618573327727E+01 -0.7716221737407E+00 -0.1267774798285E-01
-0.1978974284656E-02 -0.1621394589235E+01 -0.7629855729191E+00 -0.2850235158291E-01
 0.1237921813341E-01 -0.1622206338225E+01 -0.7566187445239E+00 -0.4924249293943E-01
 0.1909358750139E-01 -0.1621137719859E+01 -0.7529607402985E+00 -0.7427640584100E-01
 0.1797162813961E-01 -0.1618098784380E+01 -0.7520597615254E+00 -0.1033130799668E+00
 0.3557223422249E-02 -0.1616875900638E+01 -0.7582597763682E+00 -0.1349066139375E+00
-0.1930620331300E-01 -0.1609760726143E+01 -0.7656614549022E+00 -0.1700639864252E+00
-0.9857517013780E+00 -0.1401309979375E+01 -0.1121918987108E+01 -0.5000452480136E+00
-0.8735397825863E+00 -0.1438519206144E+01 -0.1086667721947E+01 -0.3929027660928E+00
-0.7648932860696E+00 -0.1475140189471E+01 -0.1052815730834E+01 -0.3032779516573E+00
-0.6607938791026E+00 -0.1510247437987E+01 -0.1020389416444E+01 -0.2279281853505E+00
-0.5622908609991E+00 -0.1542735811262E+01 -0.9893625334534E+00 -0.1648288236495E+00
-0.4705170133729E+00 -0.1572125826364E+01 -0.9600421322414E+00 -0.1127439939376E+00
-0.3861028900711E+00 -0.1598103379464E+01 -0.9325769443161E+00 -0.7084936184677E-01
-0.3094380246743E+00 -0.1620622712448E+01 -0.9071285441465E+00 -0.3844856809070E-01
-0.2407210769196E+00 -0.1639803848217E+01 -0.8838467125724E+00 -0.1491733008683E-01
-0.1800038578609E+00 -0.1655907768954E+01 -0.8628784624146E+00  0.3423524300012E-03
-0.1272075730944E+00 -0.1669282977277E+01 -0.8443505565331E+00  0.7920181947985E-02
-0.8214753747656E-01 -0.1680300154683E+01 -0.8283504132141E+00  0.8389390943466E-02
-0.4458489498061E-01 -0.1689259783238E+01 -0.8149069966960E+00  0.2312835899463E-02
-0.1428693109292E-01 -0.1696337622118E+01 -0.8039935379697E+00 -0.9768078924101E-02
 0.8872720731394E-02 -0.1701631035941E+01 -0.7955964061308E+00 -0.2730980334098E-01
 0.2471279899666E-01 -0.1705209570706E+01 -0.7898334806999E+00 -0.4970778360146E-01
 0.3259035729542E-01 -0.1706981838636E+01 -0.7869639942342E+00 -0.7631773168524E-01
 0.3085503497473E-01 -0.1707445130650E+01 -0.7879973429689E+00 -0.1067237838161E+00
 0.1900331846922E-01 -0.1704905097976E+01 -0.7923738343584E+00 -0.1409840845065E+00
-0.8350106631072E-03 -0.1697291979880E+01 -0.7981196835308E+00 -0.1808279959415E+00
-0.1037631845107E+01 -0.1452650956343E+01 -0.1170432913713E+01 -0.4777542128388E+00
-0.9156983368590E+00 -0.1492815392456E+01 -0.1132001449907E+01 -0.3711508742989E+00
-0.7991904952834E+00 -0.1531614056467E+01 -0.1095478136544E+01 -0.2822667896953E+00
-0.6885185528481E+00 -0.1568445742470E+01 -0.1060773216109E+01 -0.2080231819743E+00
-0.5844570509215E+00 -0.1602663922705E+01 -0.1027946854997E+01 -0.1463361851509E+00
-0.4877176619164E+00 -0.1633766675536E+01 -0.9970976360736E+00 -0.9584018833690E-01
-0.3988195547697E+00 -0.1661532524346E+01 -0.9683654747283E+00 -0.5560787843566E-01
-0.3180538213822E+00 -0.1685912975726E+01 -0.9418643922519E+00 -0.2488016305576E-01
-0.2455687976484E+00 -0.1707017676102E+01 -0.9177156403352E+00 -0.3001466145118E-02
-0.1813816422983E+00 -0.1725089939339E+01 -0.8960416410967E+00  0.1063288367730E-01
-0.1253966286457E+00 -0.1740477199472E+01 -0.8769606969910E+00  0.1660417412677E-01
-0.7742418627049E-01 -0.1753564779318E+01 -0.8605648116439E+00  0.1547545769979E-01
-0.3723199794045E-01 -0.1764687513370E+01 -0.8469021681677E+00  0.7802021974676E-02
-0.4621310372358E-02 -0.1774078901835E+01 -0.8359890976170E+00 -0.5867852032034E-02
 0.2046961045326E-01 -0.1781875882125E+01 -0.8278609455861E+00 -0.2497397482455E-01
 0.3783093217250E-01 -0.1788095409524E+01 -0.8226243022687E+00 -0.4892117586710E-01
 0.4667188544394E-01 -0.1792665661334E+01 -0.8206170725869E+00 -0.7714877416563E-01
 0.4628902013974E-01 -0.1795033220309E+01 -0.8219097719948E+00 -0.1095893528179E+00
 0.3649851931311E-01 -0.1794180361374E+01 -0.8261104636735E+00 -0.1467501336905E+00
 0.1909265920320E-01 -0.1789264306170E+01 -0.8319806719642E+00 -0.1900042167418E+00
-0.1088678736674E+01 -0.1503254400101E+01 -0.1218208571194E+01 -0.4541474888832E+00
-0.9572500546594E+00 -0.1546489730481E+01 -0.1176757696031E+01 -0.3485084401394E+00
-0.8328655664910E+00 -0.1587584501894E+01 -0.1137611529256E+01 -0.2606402884935E+00
-0.7156086307352E+00 -0.1626305138928E+01 -0.1100699468950E+01 -0.1876218658834E+00
-0.6058867608626E+00 -0.1662240370502E+01 -0.1066019749037E+01 -0.1273696778817E+00
-0.5041606369483E+00 -0.1695055253661E+01 -0.1033631465965E+01 -0.7844707132514E-01
-0.4107658018378E+00 -0.1724572596052E+01 -0.1003609044463E+01 -0.3984234444861E-01
-0.3259035629655E+00 -0.1750774578250E+01 -0.9760387238957E+00 -0.1074736821173E-01
-0.2496589150087E+00 -0.1773773531818E+01 -0.9510132475965E+00  0.9521302660458E-02
-0.1820119837636E+00 -0.1793811462533E+01 -0.9286370174039E+00  0.2157854512270E-01
-0.1228462829258E+00 -0.1811237152756E+01 -0.9090192124649E+00  0.2600460042559E-01
-0.7196836215147E-01 -0.1826446958389E+01 -0.8922551983908E+00  0.2335882626533E-01
-0.2915879568209E-01 -0.1839799538159E+01 -0.8784104146773E+00  0.1419330301446E-01
 0.5750906711257E-02 -0.1851555641218E+01 -0.8675282230178E+00 -0.9443587836656E-03
 0.3278998390005E-01 -0.1861852012730E+01 -0.8596591513694E+00 -0.2150484885996E-01
 0.5171690268791E-01 -0.1870685027738E+01 -0.8549150166052E+00 -0.4694967813254E-01
 0.6201046687042E-01 -0.1877780920753E+01 -0.8534121111601E+00 -0.7689033413954E-01
 0.6326159881474E-01 -0.1882635896129E+01 -0.8551059175688E+00 -0.1114355414802E+00
 0.5561724103756E-01 -0.1884624927583E+01 -0.8596336104960E+00 -0.1511512427553E+00
 0.4045495282905E-01 -0.1883630140743E+01 -0.8662923361223E+00 -0.1970239697146E+00
-0.1138855447132E+01 -0.1553199409182E+01 -0.1265265779258E+01 -0.4292563935251E+00
-0.9980835143994E+00 -0.1599497414930E+01 -0.1220863033688E+01 -0.3249477407139E+00
-0.8658852864162E+00 -0.1642977474552E+01 -0.1179165494664E+01 -0.2383523684720E+00
-0.7420264143489E+00 -0.1683653572027E+01 -0.1140069590705E+01 -0.1666945498652E+00
-0.6266206183520E+00 -0.1721344405186E+01 -0.1103543558264E+01 -0.1079231351394E+00
-0.5198840970666E+00 -0.1755859947503E+01 -0.1069599698235E+01 -0.6056777280432E-01
-0.4219919384150E+00 -0.1787104957222E+01 -0.1038275538316E+01 -0.2356121240780E-01
-0.3330401650468E+00 -0.1815096530670E+01 -0.1009624244426E+01  0.3943168053226E-02
-0.2530485763100E+00 -0.1839965442759E+01 -0.9837165864673E+00  0.2265222272999E-01
-0.1819557655554E+00 -0.1861960749411E+01 -0.9606407595977E+00  0.3319208563204E-01
-0.1196232459809E+00 -0.1881436237023E+01 -0.9404979546265E+00  0.3614566125617E-01
-0.6585324790415E-01 -0.1898795966965E+01 -0.9233851286465E+00  0.3207156620858E-01
-0.2043711908709E-01 -0.1914411307595E+01 -0.9093787582343E+00  0.2151762422645E-01
 0.1677596717078E-01 -0.1928552860179E+01 -0.8985351374349E+00  0.5020654553666E-02
 0.4580192564828E-01 -0.1941356226333E+01 -0.8909105190623E+00 -0.1690152266122E-01
 0.6646682655762E-01 -0.1952778312945E+01 -0.8865663963536E+00 -0.4379250471909E-01
 0.7843105401719E-01 -0.1962566136498E+01 -0.8855434865201E+00 -0.7539084825948E-01
 0.8152128140459E-01 -0.1970356792580E+01 -0.8877526880008E+00 -0.1118628183432E+00
 0.7601748228872E-01 -0.1975888900096E+01 -0.8929395641045E+00 -0.1537013081205E+00
 0.6305361671680E-01 -0.1979361590923E+01 -0.9006647455925E+00 -0.2015861767037E+00
-0.1188075813203E+01 -0.1602479722677E+01 -0.1311561098537E+01 -0.4031178671721E+00
-0.1038129058537E+01 -0.1651814100612E+01 -0.1264273281593E+01 -0.3004658402242E+00
-0.8981972706555E+00 -0.1697706175009E+01 -0.1220074616368E+01 -0.2153800768953E+00
-0.7677641478755E+00 -0.1740380410344E+01 -0.1178827939373E+01 -0.1452206343919E+00
-0.6466750035373E+00 -0.1779847645080E+01 -0.1140465641957E+01 -0.8798712035265E-01
-0.5349290540182E+00 -0.1816061024392E+01 -0.1104965334050E+01 -0.4220303313425E-01
-0.4325459746786E+00 -0.1849011559629E+01 -0.1072332038405E+01 -0.6769175437227E-02
-0.3395183952939E+00 -0.1878765233349E+01 -0.1042593302818E+01  0.1918743981882E-01
-0.2557968755629E+00 -0.1905479176085E+01 -0.1015799741698E+01  0.3639225754953E-01
-0.1812767120386E+00 -0.1929416614186E+01 -0.9920258608094E+00  0.4548183569905E-01
-0.1157956448970E+00 -0.1950938650239E+01 -0.9713651162504E+00  0.4704291811718E-01
-0.5914917248356E-01 -0.1970454829053E+01 -0.9539138783029E+00  0.4163354886031E-01
-0.1113302716733E-01 -0.1988342873023E+01 -0.9397536707057E+00  0.2979439334977E-01
 0.2839800743214E-01 -0.2004879950979E+01 -0.9289465111108E+00  0.1204380284402E-01
 0.5947811893549E-01 -0.2020202729975E+01 -0.9215405648513E+00 -0.1114146211041E-01
 0.8200519720426E-01 -0.2034287019489E+01 -0.9175724541467E+00 -0.3937633072061E-01
 0.9579343574559E-01 -0.2046961070357E+01 -0.9170487859414E+00 -0.7247545246872E-01
 0.1008225953565E+00 -0.2058041065094E+01 -0.9198926784434E+00 -0.1105967428182E+00
 0.9745616251309E-01 -0.2067512401444E+01 -0.9259264299492E+00 -0.1541237272046E+00
 0.8668193579737E-01 -0.2075739232287E+01 -0.9348569269788E+00 -0.2035087197508E+00
-0.1236255323037E+01 -0.1651073250753E+01 -0.1357044426239E+01 -0.3757686229616E+00
-0.1077318373557E+01 -0.1703397425581E+01 -0.1306936422280E+01 -0.2750721057871E+00
-0.9297629392556E+00 -0.1751698950010E+01 -0.1260287084758E+01 -0.1917148658116E+00
-0.7928119436910E+00 -0.1796385554156E+01 -0.1216922820901E+01 -0.1231878059835E+00
-0.6660679694473E+00 -0.1837638248607E+01 -0.1176741919501E+01 -0.6755435428921E-01
-0.5493311930051E+00 -0.1875542224576E+01 -0.1139690503372E+01 -0.2335219654760E-01
-0.4424758002207E+00 -0.1910177478518E+01 -0.1105747038202E+01  0.1053055071916E-01
-0.3453929788852E+00 -0.1941665146668E+01 -0.1074917316283E+01  0.3498201886931E-01
-0.2579640766316E+00 -0.1970195867147E+01 -0.1047235170920E+01  0.5074064096332E-01
-0.1800396068561E+00 -0.1996051691027E+01 -0.1022762907411E+01  0.5845138607538E-01
-0.1114317477919E+00 -0.2019603253695E+01 -0.1001586448158E+01  0.5870432215271E-01
-0.5192543413690E-01 -0.2041265088571E+01 -0.9837995431775E+00  0.5205583391353E-01
-0.1313816769104E-02 -0.2061420476638E+01 -0.9694851154425E+00  0.3903697648935E-01
 0.4055579411098E-01 -0.2080355643389E+01 -0.9587059267290E+00  0.2014437826412E-01
 0.7374675779491E-01 -0.2098227300678E+01 -0.9515058527419E+00 -0.4183643736405E-02
 0.9822827296816E-01 -0.2115060993386E+01 -0.9479113761922E+00 -0.3361372980249E-01
 0.1139334047781E+00 -0.2130793287170E+01 -0.9479241423197E+00 -0.6799681444246E-01
 0.1209530659122E+00 -0.2145400674147E+01 -0.9514903734569E+00 -0.1074506745513E+00
 0.1197039379332E+00 -0.2159044954179E+01 -0.9584902752043E+00 -0.1522453639344E+00
 0.1110723102310E+00 -0.2172203976373E+01 -0.9687318806298E+00 -0.2026544576641E+00
-0.1283310088046E+01 -0.1698947907181E+01 -0.1401661254201E+01 -0.3472464776850E+00
-0.1115590640680E+01 -0.1754200624972E+01 -0.1348801891436E+01 -0.2487830398025E+00
-0.9605484848307E+00 -0.1804886636632E+01 -0.1299754503791E+01 -0.1673574522534E+00
-0.8171635568552E+00 -0.1851579772778E+01 -0.1254309361746E+01 -0.1005906903217E+00
-0.6848163693154E+00 -0.1894613262022E+01 -0.1212331923653E+01 -0.4662069230949E-01
-0.5631250314293E+00 -0.1934194382519E+01 -0.1173740121579E+01 -0.4015213625291E-02
-0.4518276759439E+00 -0.1970490366831E+01 -0.1138489477217E+01  0.2833481365366E-01
-0.3507183770062E+00 -0.2003680904128E+01 -0.1106567659326E+01  0.5132264734021E-01
-0.2596105276370E+00 -0.2033994446661E+01 -0.1077994335186E+01  0.6569402722822E-01
-0.1783094853584E+00 -0.2061735579899E+01 -0.1052821178001E+01  0.7209957639186E-01
-0.1065999647993E+00 -0.2087286696891E+01 -0.1031126728379E+01  0.7113135695624E-01
-0.4425242616556E-01 -0.2111068826381E+01 -0.1013000986127E+01  0.6334288354324E-01
 0.8949257109251E-02 -0.2133473250973E+01 -0.9985262745831E+00  0.4925465939980E-01
 0.5317292280644E-01 -0.2154802987907E+01 -0.9877661280920E+00  0.2934281689239E-01
 0.8851584966221E-01 -0.2175249536992E+01 -0.9807648305573E+00  0.4015193677672E-02
 0.1150108834369E+00 -0.2194905606079E+01 -0.9775505171624E+00 -0.2642713611167E-01
 0.1326841778298E+00 -0.2213818195124E+01 -0.9781329856475E+00 -0.6184434019506E-01
 0.1417072006485E+00 -0.2232101184572E+01 -0.9824851699522E+00 -0.1022998545310E+00
 0.1425271666441E+00 -0.2250049930532E+01 -0.9905356965151E+00 -0.1479547541040E+00
 0.1359563263210E+00 -0.2268227880662E+01 -0.1002167627998E+01 -0.1989332423710E+00
-0.1329159277619E+01 -0.1746067797881E+01 -0.1445356721819E+01 -0.3175908956465E+00
-0.1152890617843E+01 -0.1804174365273E+01 -0.1389820538539E+01 -0.2216200903830E+00
-0.9905250435509E+00 -0.1857202881523E+01 -0.1338432121390E+01 -0.1423150491767E+00
-0.8408148673777E+00 -0.1905880217032E+01 -0.1290946686398E+01 -0.7742949483960E-01
-0.7029372204149E+00 -0.1950677458799E+01 -0.1247198896067E+01 -0.2518549044450E-01
-0.5763437595121E+00 -0.1991914220832E+01 -0.1207081247700E+01  0.1580619613977E-01
-0.4606465802491E+00 -0.2029841535712E+01 -0.1170529411533E+01  0.4663918576320E-01
-0.3555480239088E+00 -0.2064698392144E+01 -0.1137515812660E+01  0.6820317173003E-01
-0.2607960387721E+00 -0.2096753577490E+01 -0.1108048316833E+01  0.8124581987463E-01
-0.1761511543538E+00 -0.2126336950413E+01 -0.1082169406496E+01  0.8642045377971E-01
-0.1013691553312E+00 -0.2153845178872E+01 -0.1059950734387E+01  0.8431962175974E-01
-0.3620259604910E-01 -0.2179708551444E+01 -0.1041478236680E+01  0.7549325016944E-01
 0.1957872454313E-01 -0.2204330845082E+01 -0.1026833494049E+01  0.6045201261080E-01
 0.6616222212222E-01 -0.2228039460316E+01 -0.1016082299374E+01  0.3965537937310E-01
 0.1036793932932E+00 -0.2251070848231E+01 -0.1009273981261E+01  0.1349018647116E-01
 0.1322181619481E+00 -0.2273591554670E+01 -0.1006445492027E+01 -0.1775868578827E-01
 0.1518767278527E+00 -0.2295753192419E+01 -0.1007621935790E+01 -0.5394305672492E-01
 0.1628829576575E+00 -0.2317786957928E+01 -0.1012804877558E+01 -0.9506669869938E-01
 0.1656970233495E+00 -0.2340092520454E+01 -0.1021965881047E+01 -0.1411891798069E+00
 0.1610678814803E+00 -0.2363301251027E+01 -0.1035049681062E+01 -0.1923046183584E+00
-0.1373725979152E+01 -0.1792396135886E+01 -0.1488077390294E+01 -0.2868434716104E+00
-0.1189168418267E+01 -0.1853269235934E+01 -0.1429945693848E+01 -0.1936084672054E+00
-0.1019667934692E+01 -0.1908584093874E+01 -0.1376278449935E+01 -0.1165996779743E+00
-0.8637639335715E+00 -0.1959209556500E+01 -0.1326797536969E+01 -0.5370893369371E-01
-0.7204477210811E+00 -0.2005742082414E+01 -0.1281309204393E+01 -0.3251505680201E-02
-0.5890196206989E+00 -0.2048604331136E+01 -0.1239683254218E+01  0.3610792513735E-01
-0.4689760939047E+00 -0.2088126552677E+01 -0.1201838240845E+01  0.6543712892650E-01
-0.3599340702837E+00 -0.2124606136583E+01 -0.1167733894266E+01  0.8561481272089E-01
-0.2615794392913E+00 -0.2158353313192E+01 -0.1137368390782E+01  0.9738575447307E-01
-0.1736289765923E+00 -0.2189725278663E+01 -0.1110776497153E+01  0.1014032207171E+00
-0.9580869643649E-01 -0.2219135571444E+01 -0.1088023803144E+01  0.9825897158087E-01
-0.2785083401356E-01 -0.2247027163350E+01 -0.1069192656049E+01  0.8849931397336E-01
 0.3049198025869E-01 -0.2273821083923E+01 -0.1054364676048E+01  0.7262699140041E-01
 0.7942869149730E-01 -0.2299875265368E+01 -0.1043609887072E+01  0.5108976677650E-01
 0.1191232491567E+00 -0.2325476828422E+01 -0.1036986179625E+01  0.2426251750104E-01
 0.1497100448808E+00 -0.2350867185360E+01 -0.1034543853401E+01 -0.7573606818719E-02
 0.1713420532014E+00 -0.2376294316565E+01 -0.1036327561152E+01 -0.4425092177227E-01
 0.1842842196363E+00 -0.2402090445428E+01 -0.1042368923478E+01 -0.8571299397057E-01
 0.1889925584529E+00 -0.2428740705603E+01 -0.1052681626490E+01 -0.1319271368235E+00
 0.1861577410948E+00 -0.2456924504692E+01 -0.1067260376184E+01 -0.1827721713246E+00
-0.1416937583097E+01 -0.1837896883227E+01 -0.1529772195292E+01 -0.2550482757696E+00
-0.1224379010432E+01 -0.1901437137283E+01 -0.1469133585699E+01 -0.1647764977611E+00
-0.1047956131633E+01 -0.1958969875078E+01 -0.1413255219570E+01 -0.9022714332557E-01
-0.8860106020388E+00 -0.2011495497738E+01 -0.1361827863441E+01 -0.2943749059601E-01
-0.7373651569264E+00 -0.2059724331543E+01 -0.1314632056246E+01  0.1917524472806E-01
-0.6011837942674E+00 -0.2104173014640E+01 -0.1271517696961E+01  0.5688310272414E-01
-0.4768582175584E+00 -0.2145245733976E+01 -0.1232388854095E+01  0.8471938413468E-01
-0.3639270214717E+00 -0.2183296238288E+01 -0.1197194929050E+01  0.1035455796536E+00
-0.2620181906122E+00 -0.2218676313085E+01 -0.1165926413780E+01  0.1140994785653E+00
-0.1708065327367E+00 -0.2251771979761E+01 -0.1138611897986E+01  0.1170319731475E+00
-0.8998822793087E-01 -0.2283016130043E+01 -0.1115312045419E+01  0.1129331885054E+00
-0.1927383437280E-01 -0.2312867835646E+01 -0.1096106582129E+01  0.1023463902035E+00
 0.4160281296677E-01 -0.2341769598765E+01 -0.1081078386583E+01  0.8576893554981E-01
 0.9287253699081E-01 -0.2370114183873E+01 -0.1070303571320E+01  0.6364199581440E-01
 0.1347288843626E+00 -0.2398241958217E+01 -0.1063851142013E+01  0.3633634946997E-01
 0.1673446411764E+00 -0.2426467247311E+01 -0.1061787622190E+01  0.4138755471376E-02
 0.1909134671695E+00 -0.2455125870800E+01 -0.1064179827007E+01 -0.3275669976919E-01
 0.2057217884281E+00 -0.2484638396802E+01 -0.1071090803219E+01 -0.7423530803852E-01
 0.2122075007684E+00 -0.2515562299534E+01 -0.1082576752674E+01 -0.1201823639155E+00
 0.2109882459460E+00 -0.2548617651855E+01 -0.1098685817991E+01 -0.1703770227875E+00
-0.1458726298994E+01 -0.1882536033510E+01 -0.1570393292294E+01 -0.2222520869067E+00
-0.1258481989937E+01 -0.1948632475432E+01 -0.1507343794900E+01 -0.1351552561419E+00
-0.1075371900680E+01 -0.2008303659306E+01 -0.1449327509517E+01 -0.6321638205881E-01
-0.9075562593297E+00 -0.2062670936492E+01 -0.1396006778495E+01 -0.4626896216783E-02
-0.7537067544448E+00 -0.2112547350132E+01 -0.1347139425734E+01  0.4208564684964E-01
-0.6128662837764E+00 -0.2158534497801E+01 -0.1302558364037E+01  0.7812190324361E-01
-0.4843331815304E+00 -0.2201104719409E+01 -0.1262155810240E+01  0.1044735856982E+00
-0.3675754640139E+00 -0.2240665290926E+01 -0.1225873151712E+01  0.1219798585176E+00
-0.2621680449205E+00 -0.2277608925191E+01 -0.1193695172925E+01  0.1313682038607E+00
-0.1677462406728E+00 -0.2312351449951E+01 -0.1165645911637E+01  0.1332853797055E+00
-0.8397710538940E-01 -0.2345347282828E+01 -0.1141782459566E+01  0.1283194988210E+00
-0.1054913061720E-01 -0.2377074626071E+01 -0.1122183162797E+01  0.1170118042291E+00
 0.5282313911701E-01 -0.2408000792744E+01 -0.1106933494397E+01  0.9985703410782E-01
 0.1063916951169E+00 -0.2438556036940E+01 -0.1096117237877E+01  0.7729452387650E-01
 0.1503763274302E+00 -0.2469134426645E+01 -0.1089816303867E+01  0.4969743526813E-01
 0.1849809125675E+00 -0.2500119722112E+01 -0.1088115237726E+01  0.1736497611637E-01
 0.2104283216289E+00 -0.2531927495173E+01 -0.1091104608798E+01 -0.1947825268121E-01
 0.2270143826593E+00 -0.2565056335876E+01 -0.1098879715224E+01 -0.6066226590929E-01
 0.2351476652297E+00 -0.2600127217377E+01 -0.1111540386690E+01 -0.1059999272836E+00
 0.2353555292408E+00 -0.2637898663287E+01 -0.1129195270138E+01 -0.1551881472406E+00
-0.1499029572492E+01 -0.1926282555379E+01 -0.1609896696016E+01 -0.1885044538737E+00
-0.1291441417372E+01 -0.1994813155560E+01 -0.1544539645361E+01 -0.1047782443588E+00
-0.1101900471561E+01 -0.2056533419666E+01 -0.1484463925112E+01 -0.3558896338836E-01
-0.9284035238015E+00 -0.2112674353955E+01 -0.1429306598920E+01  0.2070829001758E-01
-0.7694894333216E+00 -0.2164140505689E+01 -0.1378806067838E+01  0.6546766519518E-01
-0.6240956774521E+00 -0.2211609307566E+01 -0.1332781339578E+01  0.9981146042925E-01
-0.4914391665309E+00 -0.2255615073959E+01 -0.1291115489756E+01  0.1246840069203E+00
-0.3709257183262E+00 -0.2296615200219E+01 -0.1253744228536E+01  0.1408980943530E+00
-0.2620826246436E+00 -0.2335042132759E+01 -0.1220648632883E+01  0.1491683788404E+00
-0.1645088197457E+00 -0.2371342017896E+01 -0.1191849890669E+01  0.1501363108817E+00
-0.7784364093140E-01 -0.2405992552378E+01 -0.1167403007894E+01  0.1443880448673E+00
-0.1753930612431E-02 -0.2439493537580E+01 -0.1147386307140E+01  0.1324640874022E+00
 0.6406470836909E-01 -0.2472339518216E+01 -0.1131889157757E+01  0.1148592645771E+00
 0.1198840561717E+00 -0.2504999576296E+01 -0.1121004291615E+01  0.9201522051323E-01
 0.1659466393299E+00 -0.2537920537656E+01 -0.1114827729386E+01  0.6431263867482E-01
 0.2024809504046E+00 -0.2571551346874E+01 -0.1113463083516E+01  0.3206804338546E-01
 0.2297297984146E+00 -0.2606379726833E+01 -0.1117025463523E+01 -0.4461226463897E-02
 0.2479891812214E+00 -0.2642973428545E+01 -0.1125642593387E+01 -0.4505332459372E-01
 0.2576306926117E+00 -0.2682009610808E+01 -0.1139458088662E+01 -0.8945755924784E-01
 0.2590875289838E+00 -0.2724279928349E+01 -0.1158640424763E+01 -0.1373057494288E+00
-0.1537790451455E+01 -0.1969109108122E+01 -0.1648242788821E+01 -0.1538577455801E+00
-0.1323225686901E+01 -0.2039941393248E+01 -0.1580688523661E+01 -0.7368120672586E-01
-0.1127529721646E+01 -0.2103612328676E+01 -0.1518636759799E+01 -0.7368779531955E-02
-0.9485559136835E+00 -0.2161450287465E+01 -0.1461702910832E+01  0.4655094439694E-01
-0.7847295022392E+00 -0.2214439765936E+01 -0.1409609552467E+01  0.8930644742828E-01
-0.6348988520865E+00 -0.2263324692161E+01 -0.1362165062341E+01  0.1219357887394E+00
-0.4982119801907E+00 -0.2308694842013E+01 -0.1319246203090E+01  0.1453313490997E+00
-0.3740214612348E+00 -0.2351053887206E+01 -0.1280785410519E+01  0.1602765119987E+00
-0.2618129597887E+00 -0.2390872367000E+01 -0.1246762100428E+01  0.1674713747566E+00
-0.1611526887859E+00 -0.2428626832270E+01 -0.1217196371809E+01  0.1675514742931E+00
-0.7165426763921E-01 -0.2464819560997E+01 -0.1192142696435E+01  0.1611014215239E+00
 0.7036059314474E-02 -0.2499973832642E+01 -0.1171680750492E+01  0.1486623958431E+00
 0.7524068349724E-01 -0.2534613024808E+01 -0.1155904997484E+01  0.1307317833955E+00
 0.1332494000480E+00 -0.2569245384607E+01 -0.1144918109839E+01  0.1077569683739E+00
 0.1813240262087E+00 -0.2604368638668E+01 -0.1138830964967E+01  0.8013005990649E-01
 0.2197120376710E+00 -0.2640492265083E+01 -0.1137766703998E+01  0.4818818192967E-01
 0.2486687744823E+00 -0.2678168918562E+01 -0.1141865064821E+01  0.1222224827303E-01
 0.2684836762163E+00 -0.2718027376082E+01 -0.1151285536017E+01 -0.2749780316292E-01
 0.2794883123637E+00 -0.2760793390379E+01 -0.1166213383709E+01 -0.7066623841586E-01
 0.2820267585327E+00 -0.2807286488119E+01 -0.1186872069895E+01 -0.1168647716415E+00
-0.1574958060253E+01 -0.2010992783451E+01 -0.1685396892266E+01 -0.1183670631992E+00
-0.1353807501477E+01 -0.2083984540603E+01 -0.1615762255679E+01 -0.4190191754689E-01
-0.1152249945114E+01 -0.2149499522570E+01 -0.1551822245876E+01  0.2141823248279E-01
-0.9680175500248E+00 -0.2208949975635E+01 -0.1493174733273E+01  0.7288161372109E-01
-0.7994423522363E+00 -0.2263388272283E+01 -0.1439530389873E+01  0.1135844376541E+00
-0.6453006551154E+00 -0.2313615206527E+01 -0.1390690451445E+01  0.1444757552323E+00
-0.5046847071455E+00 -0.2360269210628E+01 -0.1346528337938E+01  0.1663926027645E+00
-0.3769033176947E+00 -0.2403896054567E+01 -0.1306975701648E+01  0.1800869092696E+00
-0.2614069859509E+00 -0.2445002377335E+01 -0.1272012397518E+01  0.1862432386175E+00
-0.1577333171658E+00 -0.2484094851085E+01 -0.1241659235928E+01  0.1854911326427E+00
-0.6547267419027E-01 -0.2521701216218E+01 -0.1215971725408E+01  0.1784143589737E+00
 0.1574778161885E-01 -0.2558369576558E+01 -0.1195032240590E+01  0.1655561926721E+00
 0.8626709451377E-01 -0.2594653074540E+01 -0.1178941407622E+01  0.1474187156672E+00
 0.1463911118591E+00 -0.2631098728406E+01 -0.1167812576815E+01  0.1244577448375E+00
 0.1963977022887E+00 -0.2668252715400E+01 -0.1161771853216E+01  0.9707960458555E-01
 0.2365485343427E+00 -0.2706680195400E+01 -0.1160961877752E+01  0.6564399153934E-01
 0.2671057312276E+00 -0.2746991830754E+01 -0.1165546463821E+01  0.3047512753045E-01
 0.2883478661554E+00 -0.2789869644389E+01 -0.1175715232788E+01 -0.8113081732092E-02
 0.3005667486204E+00 -0.2836080704253E+01 -0.1191691556125E+01 -0.4976791785080E-01
 0.3040268752705E+00 -0.2886467654379E+01 -0.1213747163102E+01 -0.9403336049451E-01
-0.1610487971619E+01 -0.2051915692293E+01 -0.1721329717673E+01 -0.8209011160613E-01
-0.1383163833689E+01 -0.2126915814735E+01 -0.1649737430575E+01 -0.9479985860978E-02
-0.1176053591470E+01 -0.2194160807165E+01 -0.1584000763341E+01  0.5074431196714E-01
-0.9867928144563E+00 -0.2255131994993E+01 -0.1523704656576E+01  0.9967869154967E-01
-0.8136420909808E+00 -0.2310936923346E+01 -0.1468552133009E+01  0.1382814560414E+00
-0.6553235255289E+00 -0.2362423294801E+01 -0.1418341001958E+01  0.1674090491943E+00
-0.5108873035090E+00 -0.2410271140145E+01 -0.1372944465035E+01  0.1878409290025E+00
-0.3796084050378E+00 -0.2455063897429E+01 -0.1332295978780E+01  0.2002964828606E+00
-0.2609090036288E+00 -0.2497342046744E+01 -0.1296377990387E+01  0.2054444926224E+00
-0.1543025532664E+00 -0.2537641802994E+01 -0.1265213844233E+01  0.2039088994659E+00
-0.5935895094888E-01 -0.2576516900457E+01 -0.1238861647019E+01  0.1962735444784E+00
 0.2431190434946E-01 -0.2614541182257E+01 -0.1217407757529E+01  0.1830851558562E+00
 0.9706414683196E-01 -0.2652297980592E+01 -0.1200959898821E+01  0.1648522551992E+00
 0.1592176832406E+00 -0.2690372181148E+01 -0.1189642610999E+01  0.1420410568346E+00
 0.2110635047562E+00 -0.2729355593022E+01 -0.1183597278483E+01  0.1150738877766E+00
 0.2528735175884E+00 -0.2769864140862E+01 -0.1182985589938E+01  0.8433388579031E-01
 0.2849123990983E+00 -0.2812559850323E+01 -0.1187994299062E+01  0.5017742449874E-01
 0.3074455484319E+00 -0.2858170700842E+01 -0.1198840818592E+01  0.1295802132471E-01
 0.3207274661824E+00 -0.2907498427085E+01 -0.1215782348541E+01 -0.2693210022220E-01
 0.3249541040140E+00 -0.2961404520293E+01 -0.1239131692508E+01 -0.6900929149595E-01
-0.1644342676784E+01 -0.2091865613585E+01 -0.1756017892020E+01 -0.4508701541479E-01
-0.1411275950464E+01 -0.2168715043108E+01 -0.1682595762711E+01  0.2354332923720E-01
-0.1198935064815E+01 -0.2237569411468E+01 -0.1615157099756E+01  0.8058005258572E-01
-0.1004886042309E+01 -0.2299962964037E+01 -0.1553279029043E+01  0.1269185478573E+00
-0.8273411943946E+00 -0.2357045031758E+01 -0.1496661522496E+01  0.1633747482161E+00
-0.6649871225956E+00 -0.2409699931416E+01 -0.1445102911720E+01  0.1907101454047E+00
-0.5168461977821E+00 -0.2458642028197E+01 -0.1398479462663E+01  0.2096455558078E+00
-0.3821698875637E+00 -0.2504487825025E+01 -0.1356729121476E+01  0.2208676878265E+00
-0.2603591574647E+00 -0.2547809207355E+01 -0.1319839128118E+01  0.2250299896291E+00
-0.1509079918930E+00 -0.2589171147833E+01 -0.1287837192405E+01  0.2227516262895E+00
-0.5336880876146E-01 -0.2629153652590E+01 -0.1260785553637E+01  0.2146175882860E+00
 0.3266377575397E-01 -0.2668356909254E+01 -0.1238775769603E+01  0.2011792933554E+00
 0.1075573485594E+00 -0.2707394515776E+01 -0.1221923465493E+01  0.1829530270545E+00
 0.1716439774035E+00 -0.2746887994725E+01 -0.1210364685071E+01  0.1604166653793E+00
 0.2252252276522E+00 -0.2787471768959E+01 -0.1204255871360E+01  0.1340094250415E+00
 0.2685800956621E+00 -0.2829807655740E+01 -0.1203776950184E+01  0.1041378213962E+00
 0.3019728971590E+00 -0.2874602753719E+01 -0.1209136029517E+01  0.7118854005288E-01
 0.3256551450286E+00 -0.2922624307608E+01 -0.1220575503316E+01  0.3555028179782E-01
 0.3398478773148E+00 -0.2974702840710E+01 -0.1238381829655E+01 -0.2352072182355E-02
 0.3446896123749E+00 -0.3031714820418E+01 -0.1262901844577E+01 -0.4201571163917E-01
-0.1676491997313E+01 -0.2130836595175E+01 -0.1789444433931E+01 -0.7420043521656E-02
-0.1438129432896E+01 -0.2209369395231E+01 -0.1714324444872E+01  0.5712535503554E-01
-0.1220890504920E+01 -0.2279706740428E+01 -0.1645280701140E+01  0.1108945968079E+00
-0.1022301186795E+01 -0.2343418267348E+01 -0.1581888139435E+01  0.1545756590308E+00
-0.8405501189929E+00 -0.2401681008733E+01 -0.1523848626166E+01  0.1888390362607E+00
-0.6743079126627E+00 -0.2455405284826E+01 -0.1470965199089E+01  0.2143502795783E+00
-0.5225838540265E+00 -0.2505332382880E+01 -0.1423120627737E+01  0.2317716996658E+00
-0.3846165037801E+00 -0.2552107177476E+01 -0.1380260126689E+01  0.2417581371505E+00
-0.2597929053021E+00 -0.2596330440469E+01 -0.1342377969108E+01  0.2449488287609E+00
-0.1475923576223E+00 -0.2638595010817E+01 -0.1309508059845E+01  0.2419593792572E+00
-0.4755285069687E-01 -0.2679507301322E+01 -0.1281718268198E+01  0.2333771180513E+00
 0.4074427886603E-01 -0.2719694268455E+01 -0.1259106491913E+01  0.2197592292146E+00
 0.1176784851519E+00 -0.2759799651479E+01 -0.1241796945024E+01  0.2016306551984E+00
 0.1835922890016E+00 -0.2800480206466E+01 -0.1229937318089E+01  0.1794815307875E+00
 0.2387956987546E+00 -0.2842409886089E+01 -0.1223698664943E+01  0.1537680419249E+00
 0.2835723965695E+00 -0.2886291664009E+01 -0.1223278052594E+01  0.1249192409208E+00
 0.3181845090038E+00 -0.2932871839231E+01 -0.1228903042090E+01  0.9334979061592E-01
 0.3428701828209E+00 -0.2982950879725E+01 -0.1240837924398E+01  0.5947921942837E-01
 0.3578218567306E+00 -0.3037382944434E+01 -0.1259393708026E+01  0.2375887088071E-01
 0.3631314442575E+00 -0.3097056127344E+01 -0.1284944597792E+01 -0.1329666153794E-01
-0.1706913500075E+01 -0.2168829552503E+01 -0.1821599230092E+01  0.3084668058287E-01
-0.1463714197196E+01 -0.2248874093711E+01 -0.1744916492301E+01  0.9122222166273E-01
-0.1241917573312E+01 -0.2320563116459E+01 -0.1674365919946E+01  0.1416557890311E+00
-0.1039041482257E+01 -0.2385482774356E+01 -0.1609526396526E+01  0.1826226908563E+00
-0.8532769108543E+00 -0.2444823044411E+01 -0.1550106975043E+01  0.2146465296529E+00
-0.6832987548232E+00 -0.2499509369452E+01 -0.1495919814615E+01  0.2382973985717E+00
-0.5281183419273E+00 -0.2550302470819E+01 -0.1446857778321E+01  0.2541804799533E+00
-0.3869721142163E+00 -0.2597870901863E+01 -0.1402876213999E+01  0.2629205146355E+00
-0.2592405278874E+00 -0.2642841819171E+01 -0.1363978699658E+01  0.2651443088074E+00
-0.1443929563414E+00 -0.2685835038165E+01 -0.1330207154044E+01  0.2614654834670E+00
-0.4195594748480E-01 -0.2727483487275E+01 -0.1301636531035E+01  0.2524749753404E+00
 0.4850054031982E-01 -0.2768441264819E+01 -0.1278372137272E+01  0.2387366256884E+00
 0.1273664030427E+00 -0.2809382064462E+01 -0.1260547357670E+01  0.2207844923438E+00
 0.1949931674885E+00 -0.2850996431841E+01 -0.1248321531080E+01  0.1991209319573E+00
 0.2516975760698E+00 -0.2893994803665E+01 -0.1241879693820E+01  0.1742184526517E+00
 0.2977662364452E+00 -0.2939116771398E+01 -0.1241434748279E+01  0.1465271595223E+00
 0.3334581458152E+00 -0.2987142379606E+01 -0.1247231586718E+01  0.1164870307226E+00
 0.3589995163363E+00 -0.3038899970874E+01 -0.1259553210438E+01  0.8454425403095E-01
 0.3745598431655E+00 -0.3095262884700E+01 -0.1278730426278E+01  0.5117107970100E-01
 0.3801957366663E+00 -0.3157127798802E+01 -0.1305158065893E+01  0.1688729033920E-01
-0.1735592911148E+01 -0.2205852892988E+01 -0.1852479523245E+01  0.6964754554599E-01
-0.1488024523335E+01 -0.2287233148910E+01 -0.1774371101455E+01  0.1257891213837E+00
-0.1262015241418E+01 -0.2360138546400E+01 -0.1702412275956E+01  0.1728303434640E+00
-0.1055109102957E+01 -0.2426151586872E+01 -0.1636192520070E+01  0.2110305802223E+00
-0.8655268058458E+00 -0.2486459814394E+01 -0.1575433707517E+01  0.2407669311793E+00
-0.6919684792726E+00 -0.2541992714887E+01 -0.1519961757400E+01  0.2625161106141E+00
-0.5334629069726E+00 -0.2593522968127E+01 -0.1469683357569E+01  0.2768288434504E+00
-0.3892552631530E+00 -0.2641738212978E+01 -0.1424566930168E+01  0.2843025117147E+00
-0.2587266730816E+00 -0.2687289613299E+01 -0.1384627651087E+01  0.2855539231300E+00
-0.1413411889900E+00 -0.2730823185780E+01 -0.1349917252718E+01  0.2811966300394E+00
-0.3661670953995E-01 -0.2772998577310E+01 -0.1320519181470E+01  0.2718264981260E+00
 0.5588650343394E-01 -0.2814497476530E+01 -0.1296547154067E+01  0.2580147130044E+00
 0.1365676167423E+00 -0.2856023410335E+01 -0.1278144219747E+01  0.2403044724607E+00
 0.2057860262743E+00 -0.2898299343758E+01 -0.1265481256007E+01  0.2192097114708E+00
 0.2638638975557E+00 -0.2942069270304E+01 -0.1258756521999E+01  0.1952179498215E+00
 0.3110895322231E+00 -0.2988105075646E+01 -0.1258197302218E+01  0.1687983232976E+00
 0.3477185158320E+00 -0.3037215488177E+01 -0.1264063573796E+01  0.1404132759013E+00
 0.3739673618581E+00 -0.3090251936137E+01 -0.1276653746673E+01  0.1105318168075E+00
 0.3899886721662E+00 -0.3148103582044E+01 -0.1296314004355E+01  0.7964216978700E-01
 0.3958158909942E+00 -0.3211672959208E+01 -0.1323452818704E+01  0.4826348881413E-01
-0.1762524502614E+01 -0.2241923143585E+01 -0.1882090388940E+01  0.1089158652282E+00
-0.1511059067338E+01 -0.2324460094074E+01 -0.1802694001292E+01  0.1607805868873E+00
-0.1281183562835E+01 -0.2398443488797E+01 -0.1729424709881E+01  0.2043840075554E+00
-0.1070504805445E+01 -0.2465430785800E+01 -0.1661889723670E+01  0.2397685984444E+00
-0.8773018159865E+00 -0.2526591180596E+01 -0.1599829704336E+01  0.2671674209230E+00
-0.7003214585873E+00 -0.2582847019554E+01 -0.1543089180812E+01  0.2869676182046E+00
-0.5386255453435E+00 -0.2634975581425E+01 -0.1491592525798E+01  0.2996694810331E+00
-0.3914787623219E+00 -0.2683679205513E+01 -0.1445324241216E+01  0.3058467693056E+00
-0.2582699451501E+00 -0.2729630922121E+01 -0.1404313404056E+01  0.3061093750761E+00
-0.1384621393347E+00 -0.2773502404275E+01 -0.1368623332025E+01  0.3010730208719E+00
-0.3156706699560E-01 -0.2815980433034E+01 -0.1338347321619E+01  0.2913398582537E+00
 0.6286335642964E-01 -0.2857774933517E+01 -0.1313608437899E+01  0.2774888889484E+00
 0.1452367355433E+00 -0.2899619329676E+01 -0.1294559815959E+01  0.2600720422608E+00
 0.2159195418637E+00 -0.2942267811042E+01 -0.1281383683264E+01  0.2396135988806E+00
 0.2752384086681E+00 -0.2986495177241E+01 -0.1274290677997E+01  0.2166141558925E+00
 0.3234824787405E+00 -0.3033101496588E+01 -0.1273520935158E+01  0.1915593891314E+00
 0.3609040951927E+00 -0.3082919403039E+01 -0.1279347191443E+01  0.1649312825726E+00
 0.3877127745654E+00 -0.3136819150628E+01 -0.1292079993472E+01  0.1372183369847E+00
 0.4040511522601E+00 -0.3195702967975E+01 -0.1312076350058E+01  0.1089208290972E+00
 0.4099389713776E+00 -0.3260479856020E+01 -0.1339754212384E+01  0.8055263532569E-01
-0.1787711456778E+01 -0.2277065594196E+01 -0.1910445209112E+01  0.1485843382484E+00
-0.1532820855532E+01 -0.2360578730453E+01 -0.1829897800771E+01  0.1961507904067E+00
-0.1299423428023E+01 -0.2435499628291E+01 -0.1755413832015E+01  0.2362817227202E+00
-0.1085227554747E+01 -0.2503338180361E+01 -0.1686625891223E+01  0.2688043964237E+00
-0.8886003045136E+00 -0.2565228886416E+01 -0.1623299715620E+01  0.2938126162640E+00
-0.7083571765444E+00 -0.2622075786394E+01 -0.1565303488611E+01  0.3116096291632E+00
-0.5436085895612E+00 -0.2674653634742E+01 -0.1512583241586E+01  0.3226507295583E+00
-0.3936493035204E+00 -0.2723675411934E+01 -0.1465142612548E+01  0.3274908148769E+00
-0.2578825463981E+00 -0.2769834227292E+01 -0.1423026880025E+01  0.3267366003042E+00
-0.1357742426215E+00 -0.2813827211399E+01 -0.1386312679874E+01  0.3210085322905E+00
-0.2683196328570E-01 -0.2856369023649E+01 -0.1355104460422E+01  0.3109164285697E+00
 0.6939981287771E-01 -0.2898198785448E+01 -0.1329535513736E+01  0.2970473561006E+00
 0.1533367110204E+00 -0.2940080178433E+01 -0.1309769426362E+01  0.2799611338535E+00
 0.2253518535624E+00 -0.2982797689113E+01 -0.1295999539422E+01  0.2601905717888E+00
 0.2857756834010E+00 -0.3027154398204E+01 -0.1288447992689E+01  0.2382467978831E+00
 0.3348975517324E+00 -0.3073974624612E+01 -0.1287366220988E+01  0.2146290947499E+00
 0.3729668780062E+00 -0.3124110316760E+01 -0.1293037412935E+01  0.1898360452988E+00
 0.4001891487971E+00 -0.3178446526864E+01 -0.1305780964380E+01  0.1643729565596E+00
 0.4167040331097E+00 -0.3237896592789E+01 -0.1325960499686E+01  0.1387495121035E+00
 0.4225290400350E+00 -0.3303376332341E+01 -0.1353998223949E+01  0.1134706133691E+00
-0.1811166211629E+01 -0.2311314972603E+01 -0.1937566151675E+01  0.1885855650336E+00
-0.1553317259729E+01 -0.2395623896627E+01 -0.1856002338780E+01  0.2318538739546E+00
-0.1316736299009E+01 -0.2471340668752E+01 -0.1780396170332E+01  0.2684877906155E+00
-0.1099274133163E+01 -0.2539904068618E+01 -0.1710413750499E+01  0.2981040366812E+00
-0.8994165499691E+00 -0.2602397251409E+01 -0.1645852482473E+01  0.3206645095222E+00
-0.7160697962409E+00 -0.2659694942819E+01 -0.1586609423334E+01  0.3363962443139E+00
-0.5484083074419E+00 -0.2712562622239E+01 -0.1532656333062E+01  0.3457164543373E+00
-0.3957671029590E+00 -0.2761720304366E+01 -0.1484019077679E+01  0.3491669867507E+00
-0.2575699736894E+00 -0.2807879863541E+01 -0.1440761419844E+01  0.3473557838670E+00
-0.1332890368481E+00 -0.2851764149232E+01 -0.1402974993899E+01  0.3409108800235E+00
-0.2242916273395E-01 -0.2894116881035E+01 -0.1370776637095E+01  0.3304511555159E+00
 0.7547224556494E-01 -0.2935707758024E+01 -0.1344310687446E+01  0.3165717655953E+00
 0.1608389096787E+00 -0.2977331481669E+01 -0.1323751505478E+01  0.2998391419515E+00
 0.2340505708653E+00 -0.3019802264405E+01 -0.1309303292643E+01  0.2807922164171E+00
 0.2954410617953E+00 -0.3063949213817E+01 -0.1301198828150E+01  0.2599494715381E+00
 0.3452993459232E+00 -0.3110617119570E+01 -0.1299699350318E+01  0.2378203970353E+00
 0.3838721079364E+00 -0.3160672678982E+01 -0.1305096265081E+01  0.2149172114587E+00
 0.4113636023890E+00 -0.3215011774655E+01 -0.1317714637623E+01  0.1917600381902E+00
 0.4279180137895E+00 -0.3274556924746E+01 -0.1337920284756E+01  0.1688665787043E+00
 0.4335644737888E+00 -0.3340231526863E+01 -0.1366133511480E+01  0.1467302384499E+00
-0.1832910776580E+01 -0.2344716151625E+01 -0.1963484651276E+01  0.2288526252165E+00
-0.1572559940362E+01 -0.2429642261897E+01 -0.1881035030291E+01  0.2678443142410E+00
-0.1333123912986E+01 -0.2506013146486E+01 -0.1804394413376E+01  0.3009660470438E+00
-0.1112638721591E+01 -0.2575172007324E+01 -0.1733271038194E+01  0.3276320112988E+00
-0.9097402925623E+00 -0.2638133860982E+01 -0.1667500847936E+01  0.3476823794586E+00
-0.7234477231000E+00 -0.2695733437830E+01 -0.1607015141561E+01  0.3612778155989E+00
-0.5530145114839E+00 -0.2748720717971E+01 -0.1551815553908E+01  0.3688059037129E+00
-0.3978255751059E+00 -0.2797819731230E+01 -0.1501953290168E+01  0.3708023346171E+00
-0.2573307674918E+00 -0.2843760398927E+01 -0.1457512844520E+01  0.3678813577319E+00
-0.1310109935897E+00 -0.2887292120540E+01 -0.1418602460043E+01  0.3606817665257E+00
-0.1836916820005E-01 -0.2929189394988E+01 -0.1385352521185E+01  0.3498329120899E+00
 0.8106467856957E-01 -0.2970254398624E+01 -0.1357919164982E+01  0.3359378355003E+00
 0.1677230155426E+00 -0.3011314113994E+01 -0.1336487812882E+01  0.3195678681628E+00
 0.2419925961932E+00 -0.3053212354139E+01 -0.1321273282883E+01  0.3012650487546E+00
 0.3042104082427E+00 -0.3096802327075E+01 -0.1312518198522E+01  0.2815513621300E+00
 0.3546642935119E+00 -0.3142945641785E+01 -0.1310492230365E+01  0.2609425614062E+00
 0.3935979276147E+00 -0.3192519076113E+01 -0.1315492936458E+01  0.2399614360711E+00
 0.4212166872509E+00 -0.3246425109851E+01 -0.1327847955254E+01  0.2191416100859E+00
 0.4376770645336E+00 -0.3305593403167E+01 -0.1347920675739E+01  0.1990088415531E+00
 0.4430361013792E+00 -0.3370956595557E+01 -0.1376122628773E+01  0.1800443710122E+00
-0.1852976977621E+01 -0.2377324847618E+01 -0.1988241852819E+01  0.2693196865847E+00
-0.1590564733313E+01 -0.2462693122385E+01 -0.1905031187346E+01  0.3040772996818E+00
-0.1348587925984E+01 -0.2539577236480E+01 -0.1827437621723E+01  0.3336800213668E+00
-0.1125312431711E+01 -0.2609199565569E+01 -0.1755220634270E+01  0.3573512237766E+00
-0.9195562460992E+00 -0.2672490223538E+01 -0.1688261836447E+01  0.3748226544190E+00
-0.7304731509844E+00 -0.2730233787454E+01 -0.1626532256941E+01  0.3862007526486E+00
-0.5574101701807E+00 -0.2783159213391E+01 -0.1570067606296E+01  0.3918535140510E+00
-0.3998110294329E+00 -0.2831992260767E+01 -0.1518947542541E+01  0.3923184745721E+00
-0.2571563074421E+00 -0.2877480900718E+01 -0.1473279484099E+01  0.3882219561494E+00
-0.1289374220571E+00 -0.2920402586859E+01 -0.1433189800556E+01  0.3802169853969E+00
-0.1465524197807E-01 -0.2961564938987E+01 -0.1398823481505E+01  0.3689448009951E+00
 0.8616864393333E-01 -0.3001805108987E+01 -0.1370349135099E+01  0.3550159071078E+00
 0.1739767676866E+00 -0.3041984208462E+01 -0.1347963493745E+01  0.3390043895355E+00
 0.2491637630800E+00 -0.3082976064771E+01 -0.1331891778417E+01  0.3214517511539E+00
 0.3120696949120E+00 -0.3125656462262E+01 -0.1322385777300E+01  0.3028788826999E+00
 0.3629802433771E+00 -0.3170900321971E+01 -0.1319722433592E+01  0.2838031843114E+00
 0.4021350049534E+00 -0.3219589615901E+01 -0.1324203663787E+01  0.2647546933883E+00
 0.4297419360984E+00 -0.3272628709925E+01 -0.1336156780310E+01  0.2462798442096E+00
 0.4459774881689E+00 -0.3330952068907E+01 -0.1355938049508E+01  0.2289141855526E+00
 0.4509452838517E+00 -0.3395504220324E+01 -0.1383942696632E+01  0.2131288681840E+00
-0.1871406744392E+01 -0.2409208446220E+01 -0.2011889134484E+01  0.3099227133135E+00
-0.1607351528912E+01 -0.2494849284336E+01 -0.1928034377336E+01  0.3405091735514E+00
-0.1363129548979E+01 -0.2572107644126E+01 -0.1849561476068E+01  0.3665931257419E+00
-0.1137282830788E+01 -0.2642059144862E+01 -0.1776290724050E+01  0.3872229683958E+00
-0.9288436133793E+00 -0.2705532469994E+01 -0.1708156754853E+01  0.4020387524872E+00
-0.7371216244984E+00 -0.2763252634043E+01 -0.1645175897342E+01  0.4111072974216E+00
-0.5615710492976E+00 -0.2815922939643E+01 -0.1587422170776E+01  0.4147886807622E+00
-0.4017024124622E+00 -0.2864269482130E+01 -0.1535006786565E+01  0.4136314114499E+00
-0.2570306707144E+00 -0.2909059134913E+01 -0.1488062204870E+01  0.4082803389733E+00
-0.1270584565222E+00 -0.2951099677716E+01 -0.1446734319422E+01  0.3994064888992E+00
-0.1128353506428E-01 -0.2991234880041E+01 -0.1411183651520E+01  0.3876644071827E+00
 0.9078290042012E-01 -0.3030340022163E+01 -0.1381591843715E+01  0.3736714289206E+00
 0.1795955287397E+00 -0.3069312851260E+01 -0.1358167138140E+01  0.3580018310895E+00
 0.2555582814738E+00 -0.3109058258896E+01 -0.1341144985987E+01  0.3411922968984E+00
 0.3190143862892E+00 -0.3150473587641E+01 -0.1330785821260E+01  0.3237572031513E+00
 0.3702458856695E+00 -0.3194443766157E+01 -0.1327373000463E+01  0.3062101376144E+00
 0.4094860492070E+00 -0.3241850829240E+01 -0.1331211443239E+01  0.2890845733564E+00
 0.4369453521477E+00 -0.3293595670553E+01 -0.1342625646245E+01  0.2729395707751E+00
 0.4528269342873E+00 -0.3350614605205E+01 -0.1361960201877E+01  0.2583241455316E+00
 0.4573016391396E+00 -0.3413867414762E+01 -0.1389585911018E+01  0.2457052920642E+00
-0.1888252236404E+01 -0.2440446757578E+01 -0.2034488522011E+01  0.3506002109099E+00
-0.1622944036563E+01 -0.2526197925167E+01 -0.1950096717067E+01  0.3770978977019E+00
-0.1376749058637E+01 -0.2603694465625E+01 -0.1870808451658E+01  0.3996688315148E+00
-0.1148533359101E+01 -0.2673838759612E+01 -0.1796514891238E+01  0.4172068643553E+00
-0.9375755183296E+00 -0.2737341992436E+01 -0.1727211225679E+01  0.4292808552262E+00
-0.7433615439565E+00 -0.2794861218595E+01 -0.1662964694181E+01  0.4359352239501E+00
-0.5654653200330E+00 -0.2847070576303E+01 -0.1603891867210E+01  0.4375354538769E+00
-0.4034710398529E+00 -0.2894696170896E+01 -0.1550138585120E+01  0.4346512894804E+00
-0.2569305028754E+00 -0.2938525616481E+01 -0.1501864372288E+01  0.4279532465642E+00
-0.1253570795540E+00 -0.2979400144366E+01 -0.1459235891541E+01  0.4181343826659E+00
-0.8243279597623E-02 -0.3018203426611E+01 -0.1422429948310E+01  0.4058639598990E+00
 0.9491305526251E-01 -0.3055852697891E+01 -0.1391641628506E+01  0.3917653194377E+00
 0.1845817174314E+00 -0.3093285549889E+01 -0.1367090797788E+01  0.3764099815045E+00
 0.2611780095640E+00 -0.3131439722144E+01 -0.1349023001491E+01  0.3603248915719E+00
 0.3250486272606E+00 -0.3171233743559E+01 -0.1337707001268E+01  0.3440115940842E+00
 0.3764699808269E+00 -0.3213559567461E+01 -0.1333432102336E+01  0.3279733632720E+00
 0.4156652254515E+00 -0.3259293938099E+01 -0.1336505491554E+01  0.3127425092692E+00
 0.4428449302164E+00 -0.3309328257018E+01 -0.1347247160180E+01  0.2988908004632E+00
 0.4582434926746E+00 -0.3364596706167E+01 -0.1365986006877E+01  0.2869864390007E+00
 0.4621202374982E+00 -0.3426077761831E+01 -0.1393060032903E+01  0.2775033546186E+00
-0.1903576012813E+01 -0.2471132899680E+01 -0.2056113183656E+01  0.3912940367081E+00
-0.1637369520612E+01 -0.2556841537987E+01 -0.1971279192542E+01  0.4138035581001E+00
-0.1389445278147E+01 -0.2634444138253E+01 -0.1891228020911E+01  0.4328708457501E+00
-0.1159042723252E+01 -0.2704642889037E+01 -0.1815932233170E+01  0.4472607496283E+00
-0.9457184348366E+00 -0.2768016123240E+01 -0.1745455237869E+01  0.4564956148498E+00
-0.7491536882695E+00 -0.2825145853800E+01 -0.1679920780512E+01  0.4606174620293E+00
-0.5690532034380E+00 -0.2876674920382E+01 -0.1619492214088E+01  0.4600121592920E+00
-0.4050803800043E+00 -0.2923330381819E+01 -0.1564353054089E+01  0.4552820777054E+00
-0.2568249522595E+00 -0.2965923569144E+01 -0.1514691801218E+01  0.4471311996375E+00
-0.1238092197259E+00 -0.3005333222643E+01 -0.1470696944183E+01  0.4362788659388E+00
-0.5517071542570E-02 -0.3042487393609E+01 -0.1432562094988E+01  0.4234104213880E+00
 0.9857106904473E-01 -0.3078349732180E+01 -0.1400495968122E+01  0.4091542162595E+00
 0.1889440858500E+00 -0.3113901579637E+01 -0.1374730018593E+01  0.3940757434264E+00
 0.2660315261463E+00 -0.3150116128637E+01 -0.1355519759732E+01  0.3786867061713E+00
 0.3301841959751E+00 -0.3187933553677E+01 -0.1343142194713E+01  0.3634685496632E+00
 0.3816703345284E+00 -0.3228250373856E+01 -0.1337892615091E+01  0.3489064712352E+00
 0.4206973292477E+00 -0.3271932522844E+01 -0.1340080537591E+01  0.3355258730487E+00
 0.4474702972902E+00 -0.3319855156769E+01 -0.1350020880531E+01  0.3239112668231E+00
 0.4622549881470E+00 -0.3372945571796E+01 -0.1368024570845E+01  0.3146575970232E+00
 0.4654180895320E+00 -0.3432203041983E+01 -0.1394388924115E+01  0.3082632325465E+00
-0.1917451097946E+01 -0.2501374205257E+01 -0.2076847887238E+01  0.4319503323282E+00
-0.1650658439301E+01 -0.2586898934766E+01 -0.1991651960760E+01  0.4505889695603E+00
-0.1401214940328E+01 -0.2664480454197E+01 -0.1910876830580E+01  0.4661633349679E+00
-0.1168784184796E+01 -0.2734593383291E+01 -0.1834587452348E+01  0.4773405640896E+00
-0.9532315389395E+00 -0.2797668835079E+01 -0.1762923171317E+01  0.4836258084638E+00
-0.7544506906863E+00 -0.2854208370270E+01 -0.1696069754347E+01  0.4850816472293E+00
-0.5722865928926E+00 -0.2904823077462E+01 -0.1634241540922E+01  0.4821309418948E+00
-0.4064858354338E+00 -0.2950243422308E+01 -0.1577662747137E+01  0.4754211860544E+00
-0.2566756141515E+00 -0.2991308747868E+01 -0.1526552646277E+01  0.4656982445302E+00
-0.1223838658244E+00 -0.3028940371432E+01 -0.1481122387754E+01  0.4537121225143E+00
-0.3081180613924E-02 -0.3064115879025E+01 -0.1441582614374E+01  0.4401655052019E+00
 0.1017747067756E+00 -0.3097850310678E+01 -0.1408155530263E+01  0.4256905996428E+00
 0.1926968949254E+00 -0.3131173264057E+01 -0.1381083889989E+01  0.4108433794579E+00
 0.2701330412382E+00 -0.3165096859563E+01 -0.1360632991161E+01  0.3961143329235E+00
 0.3344392380199E+00 -0.3200584449949E+01 -0.1347088246190E+01  0.3819565988423E+00
 0.3858725365357E+00 -0.3238535500800E+01 -0.1340751589804E+01  0.3688280395593E+00
 0.4246166731849E+00 -0.3279799621853E+01 -0.1341935982471E+01  0.3572397861896E+00
 0.4508619769984E+00 -0.3325227921992E+01 -0.1350951990721E+01  0.3477887432820E+00
 0.4648993486542E+00 -0.3375734947336E+01 -0.1368092727911E+01  0.3411058009740E+00
 0.4672097059570E+00 -0.3432343961264E+01 -0.1393613096460E+01  0.3377380554477E+00
-0.1929960943071E+01 -0.2531293100996E+01 -0.2096789395393E+01  0.4725204671074E+00
-0.1662843957428E+01 -0.2616506246122E+01 -0.2011294590567E+01  0.4874202919225E+00
-0.1412051906854E+01 -0.2693945597052E+01 -0.1929818821941E+01  0.4995111109860E+00
-0.1177724724748E+01 -0.2763830393012E+01 -0.1852530900649E+01  0.5074001346323E+00
-0.9600659771062E+00 -0.2826431428566E+01 -0.1779653776152E+01  0.5106098500120E+00
-0.7591964724780E+00 -0.2882166491571E+01 -0.1711440588762E+01  0.5092495114647E+00
-0.5751086701817E+00 -0.2931616516037E+01 -0.1648160833342E+01  0.5037971539668E+00
-0.4076345434988E+00 -0.2975519634994E+01 -0.1590082459859E+01  0.4949589515374E+00
-0.2564365044790E+00 -0.3014749049373E+01 -0.1537457206411E+01  0.4835316058547E+00
-0.1210432054313E+00 -0.3050274827046E+01 -0.1490519471484E+01  0.4703001479033E+00
-0.9058793719436E-03 -0.3083129832753E+01 -0.1449496781022E+01  0.4559856236950E+00
 0.1045469536743E+00 -0.3114385745797E+01 -0.1414624228710E+01  0.4412227832362E+00
 0.1958590033291E+00 -0.3145125283185E+01 -0.1386155148017E+01  0.4265545150395E+00
 0.2735011398631E+00 -0.3176403785933E+01 -0.1364364240192E+01  0.4124438807424E+00
 0.3378367703274E+00 -0.3209210674472E+01 -0.1349545731525E+01  0.3993066926290E+00
 0.3891084327268E+00 -0.3244448120332E+01 -0.1342009649771E+01  0.3875625058213E+00
 0.4274658268680E+00 -0.3282944199690E+01 -0.1342074831822E+01  0.3776985551919E+00
 0.4530701293643E+00 -0.3325517057089E+01 -0.1350050052606E+01  0.3703227521462E+00
 0.4662236895550E+00 -0.3373059138110E+01 -0.1366212657356E+01  0.3661128657618E+00
 0.4675095781640E+00 -0.3426620835733E+01 -0.1390782287530E+01  0.3656963462234E+00
-0.1941199412848E+01 -0.2561028139776E+01 -0.2116046944367E+01  0.5129621722998E+00
-0.1673961397552E+01 -0.2645818063092E+01 -0.2030296341354E+01  0.5242678302232E+00
-0.1421946302392E+01 -0.2723001383441E+01 -0.1948125407400E+01  0.5328799253529E+00
-0.1185824126080E+01 -0.2792513509110E+01 -0.1869818683797E+01  0.5373909681339E+00
-0.9661640885799E+00 -0.2854453380421E+01 -0.1795690205876E+01  0.5373812303509E+00
-0.7633256711174E+00 -0.2909154281161E+01 -0.1726065573193E+01  0.5330361609128E+00
-0.5774535515269E+00 -0.2957171091043E+01 -0.1661273577794E+01  0.5249086237721E+00
-0.4084652328030E+00 -0.2999256059660E+01 -0.1601629003395E+01  0.5137780307626E+00
-0.2560540897390E+00 -0.3036323951202E+01 -0.1547417675318E+01  0.5005012982778E+00
-0.1197427922800E+00 -0.3069401005744E+01 -0.1498897581270E+01  0.4859025895839E+00
 0.1044238083136E-02 -0.3099581577113E+01 -0.1456312545650E+01  0.4707218628206E+00
 0.1069154494110E+00 -0.3127999131464E+01 -0.1419909326964E+01  0.4555948653924E+00
 0.1984529232320E+00 -0.3155794229554E+01 -0.1389950410446E+01  0.4410479444861E+00
 0.2761573874660E+00 -0.3184070267117E+01 -0.1366719049969E+01  0.4275106782254E+00
 0.3404029303373E+00 -0.3213847257904E+01 -0.1350518830531E+01  0.4153520697713E+00
 0.3914143715827E+00 -0.3246032031434E+01 -0.1341670296727E+01  0.4049405608199E+00
 0.4292941788934E+00 -0.3281427082682E+01 -0.1340502461381E+01  0.3967267118173E+00
 0.4541543107757E+00 -0.3320807188571E+01 -0.1347326849147E+01  0.3913257302862E+00
 0.4662829325421E+00 -0.3365029135474E+01 -0.1362410711922E+01  0.3894731082355E+00
 0.4663400336688E+00 -0.3415158691241E+01 -0.1385944765544E+01  0.3919144432187E+00
-0.1951270441921E+01 -0.2590734766445E+01 -0.2134742442518E+01  0.5532407295106E+00
-0.1684047446764E+01 -0.2675008487300E+01 -0.2048756283814E+01  0.5611069444655E+00
-0.1430883350268E+01 -0.2751830517326E+01 -0.1965875512783E+01  0.5662368045559E+00
-0.1193033784814E+01 -0.2820822971020E+01 -0.1886512670457E+01  0.5672619675800E+00
-0.9714584199535E+00 -0.2881903218855E+01 -0.1811079965646E+01  0.5638677804722E+00
-0.7667629294083E+00 -0.2935322510296E+01 -0.1739980152248E+01  0.5563491288233E+00
-0.5792458657613E+00 -0.2981616869666E+01 -0.1673605481406E+01  0.5453546962676E+00
-0.4089080671121E+00 -0.3021561788219E+01 -0.1612320827916E+01  0.5317526075650E+00
-0.2554673260801E+00 -0.3056123580926E+01 -0.1556447722345E+01  0.5164696391564E+00
-0.1184316829963E+00 -0.3086393548910E+01 -0.1506267855176E+01  0.5003725926313E+00
 0.2810040355413E-02 -0.3113534118224E+01 -0.1462040312890E+01  0.4842200329036E+00
 0.1089120813893E+00 -0.3138745068567E+01 -0.1424021500361E+01  0.4686467192068E+00
 0.2005039758511E+00 -0.3163228564530E+01 -0.1392480553147E+01  0.4541592744801E+00
 0.2781248742905E+00 -0.3188140650656E+01 -0.1367707411423E+01  0.4411484958884E+00
 0.3421649923694E+00 -0.3214538183026E+01 -0.1350015396184E+01  0.4299273874360E+00
 0.3928291050779E+00 -0.3243338067048E+01 -0.1339739208728E+01  0.4207988126709E+00
 0.4301566299458E+00 -0.3275315863438E+01 -0.1337224836349E+01  0.4141596337932E+00
 0.4541836201918E+00 -0.3311192084684E+01 -0.1342793974906E+01  0.4106241944607E+00
 0.4651473636804E+00 -0.3351766306995E+01 -0.1356710899917E+01  0.4109925177643E+00
 0.4637347686479E+00 -0.3398095522215E+01 -0.1379149550678E+01  0.4161650731049E+00
-0.1960287821289E+01 -0.2620586177213E+01 -0.2153010773835E+01  0.5933302931892E+00
-0.1693139327577E+01 -0.2704272285675E+01 -0.2066783452986E+01  0.5979191897950E+00
-0.1438842129746E+01 -0.2780638175410E+01 -0.1983155738393E+01  0.5995505187114E+00
-0.1199295446337E+01 -0.2848961297656E+01 -0.1902680664851E+01  0.5969590954242E+00
-0.9758706986229E+00 -0.2908969714550E+01 -0.1825874989560E+01  0.5899907248948E+00
-0.7694222224146E+00 -0.2960839175313E+01 -0.1753222852485E+01  0.5790871458991E+00
-0.5804004372114E+00 -0.3005097905882E+01 -0.1685184216979E+01  0.5650149848617E+00
-0.4088846700246E+00 -0.3042557108066E+01 -0.1622177631588E+01  0.5487473656858E+00
-0.2546078969894E+00 -0.3074247440576E+01 -0.1564562004687E+01  0.5312906400880E+00
-0.1170527182774E+00 -0.3101335982039E+01 -0.1512642685312E+01  0.5135566834078E+00
 0.4437673800169E-02 -0.3125060159422E+01 -0.1466692564522E+01  0.4963209163683E+00
 0.1105727533536E+00 -0.3146689494020E+01 -0.1426974864494E+01  0.4802142212478E+00
 0.2020396659714E+00 -0.3167489253107E+01 -0.1393761302419E+01  0.4657205859366E+00
 0.2794266848392E+00 -0.3188670962709E+01 -0.1367344807131E+01  0.4531882629333E+00
 0.3431490008008E+00 -0.3211335398105E+01 -0.1348047603314E+01  0.4428667991662E+00
 0.3933912473489E+00 -0.3236420210524E+01 -0.1336223609303E+01  0.4349782987481E+00
 0.4301116652052E+00 -0.3264678853211E+01 -0.1332246574984E+01  0.4298435416047E+00
 0.4532378889546E+00 -0.3296767928020E+01 -0.1336459114971E+01  0.4280604758769E+00
 0.4629073103617E+00 -0.3333400459960E+01 -0.1349131776889E+01  0.4304917750531E+00
 0.4597667322706E+00 -0.3375577685148E+01 -0.1370431144376E+01  0.4382228026608E+00
-0.1968374448040E+01 -0.2650773571060E+01 -0.2170999563470E+01  0.6332154576453E+00
-0.1701273594267E+01 -0.2733825814566E+01 -0.2084496716865E+01  0.6346939228911E+00
-0.1445793949244E+01 -0.2809653882638E+01 -0.2000060475911E+01  0.6327923819858E+00
-0.1204539475193E+01 -0.2877155287740E+01 -0.1918396533713E+01  0.6264250646628E+00
-0.9793104744981E+00 -0.2935863379429E+01 -0.1840131706678E+01  0.6156635102235E+00
-0.7712058964563E+00 -0.2985889995062E+01 -0.1765835064535E+01  0.6011385745178E+00
-0.5808218644266E+00 -0.3027771825758E+01 -0.1696039030085E+01  0.5837577762656E+00
-0.4083081550691E+00 -0.3062372243718E+01 -0.1631219783292E+01  0.5646161666080E+00
-0.2534005525800E+00 -0.3090802579883E+01 -0.1571775468271E+01  0.5448092356273E+00
-0.1155428643046E+00 -0.3114318695264E+01 -0.1518034929147E+01  0.5252947041844E+00
 0.5978468563100E-02 -0.3134240494024E+01 -0.1470283148238E+01  0.5068608387715E+00
 0.1119377152632E+00 -0.3151909115966E+01 -0.1428786554706E+01  0.4901300540675E+00
 0.2030896444608E+00 -0.3168651183121E+01 -0.1393813919635E+01  0.4755605645548E+00
 0.2800848059649E+00 -0.3185731432648E+01 -0.1365653911077E+01  0.4634565245203E+00
 0.3433767810468E+00 -0.3204300192567E+01 -0.1344634000004E+01  0.4540006157478E+00
 0.3931359401707E+00 -0.3225331803284E+01 -0.1331132052287E+01  0.4473210636752E+00
 0.4292192825629E+00 -0.3249576278130E+01 -0.1325567784554E+01  0.4436345408496E+00
 0.4514068099903E+00 -0.3277625699519E+01 -0.1328322874709E+01  0.4434952633949E+00
 0.4596789056326E+00 -0.3310065450479E+01 -0.1339681672680E+01  0.4478110731183E+00
 0.4545546094872E+00 -0.3347770558505E+01 -0.1359811492590E+01  0.4578691598921E+00
-0.1975661143817E+01 -0.2681505397143E+01 -0.2188868268699E+01  0.6728929788831E+00
-0.1708485002562E+01 -0.2763907956244E+01 -0.2102024685307E+01  0.6714305062429E+00
-0.1451700335460E+01 -0.2839133836380E+01 -0.2016692055650E+01  0.6659374565692E+00
-0.1208683129369E+01 -0.2905659224054E+01 -0.1933740901204E+01  0.6555989247769E+00
-0.9816733558708E+00 -0.2962818289196E+01 -0.1853911068479E+01  0.6407901528209E+00
-0.7720037329135E+00 -0.3010679144643E+01 -0.1777860947942E+01  0.6223792922475E+00
-0.5804041360042E+00 -0.3049809202464E+01 -0.1706200264753E+01  0.6014379024620E+00
-0.4070834818992E+00 -0.3081145812382E+01 -0.1639467764154E+01  0.5792002698489E+00
-0.2517638377562E+00 -0.3105901194893E+01 -0.1578102561343E+01  0.5568601897863E+00
-0.1138339642819E+00 -0.3125436136063E+01 -0.1522456943301E+01  0.5354196893699E+00
 0.7488652585815E-02 -0.3141161473300E+01 -0.1472826222000E+01  0.5156725707355E+00
 0.1130520144856E+00 -0.3154490231018E+01 -0.1429475958145E+01  0.4982253108069E+00
 0.2036874342821E+00 -0.3166804067229E+01 -0.1392664813953E+01  0.4835058912056E+00
 0.2801193975126E+00 -0.3179412702421E+01 -0.1362667849851E+01  0.4717743760514E+00
 0.3428629471847E+00 -0.3193509086373E+01 -0.1339803682020E+01  0.4631502158694E+00
 0.3920884978098E+00 -0.3210125498929E+01 -0.1324477387167E+01  0.4576628732089E+00
 0.4275379844821E+00 -0.3230046266049E+01 -0.1317178888995E+01  0.4553950060199E+00
 0.4487915894027E+00 -0.3253834188445E+01 -0.1318370018206E+01  0.4568122120067E+00
 0.4556022882863E+00 -0.3281901820121E+01 -0.1328360776593E+01  0.4628189250078E+00
 0.4482868418963E+00 -0.3314862311364E+01 -0.1347290467233E+01  0.4748981979636E+00
-0.1982285141400E+01 -0.2713005264481E+01 -0.2206786485167E+01  0.7123739426981E+00
-0.1714803639751E+01 -0.2794778934917E+01 -0.2119503804718E+01  0.7081421186639E+00
-0.1456512231931E+01 -0.2869366600001E+01 -0.2033163045851E+01  0.6989668151127E+00
-0.1211627139741E+01 -0.2934758426913E+01 -0.1948801211385E+01  0.6844155454629E+00
-0.9828393429562E+00 -0.2990095293536E+01 -0.1867279274415E+01  0.6652630217492E+00
-0.7716910407884E+00 -0.3035429295886E+01 -0.1789346553698E+01  0.6426699625621E+00
-0.5790305005715E+00 -0.3071393143179E+01 -0.1715699108211E+01  0.6178941241961E+00
-0.4051078986739E+00 -0.3099022865940E+01 -0.1646941455191E+01  0.5923260188397E+00
-0.2496111484722E+00 -0.3119657508523E+01 -0.1583556264771E+01  0.5672666061613E+00
-0.1118540079387E+00 -0.3134783037434E+01 -0.1525919407455E+01  0.5437576109857E+00
 0.9028667331807E-02 -0.3145911117548E+01 -0.1474334747862E+01  0.5225865647625E+00
 0.1139661430561E+00 -0.3154525938153E+01 -0.1429063100071E+01  0.5043321455249E+00
 0.2038723564764E+00 -0.3162052974039E+01 -0.1390344886728E+01  0.4893845682997E+00
 0.2795556297500E+00 -0.3169828862921E+01 -0.1358428416145E+01  0.4779596570057E+00
 0.3416073097026E+00 -0.3179075990144E+01 -0.1333610276425E+01  0.4701222954156E+00
 0.3902568489501E+00 -0.3190860223057E+01 -0.1316283582492E+01  0.4658187513567E+00
 0.4251134535802E+00 -0.3206089529606E+01 -0.1307058752417E+01  0.4649817527202E+00
 0.4455106404672E+00 -0.3225396853642E+01 -0.1306546516878E+01  0.4679244870203E+00
 0.4508575279020E+00 -0.3249038876159E+01 -0.1315145230345E+01  0.4754353336162E+00
 0.4412148300832E+00 -0.3277134358276E+01 -0.1332882174870E+01  0.4891246131746E+00
-0.1988376914621E+01 -0.2745494459159E+01 -0.2224919540033E+01  0.7516881221809E+00
-0.1720259737189E+01 -0.2826727988951E+01 -0.2137084225866E+01  0.7448630508217E+00
-0.1460162588169E+01 -0.2900675487603E+01 -0.2049593890414E+01  0.7318712940856E+00
-0.1213257758460E+01 -0.2964782846962E+01 -0.1963679079568E+01  0.7128043324769E+00
-0.9826655283343E+00 -0.3017979645277E+01 -0.1880303226828E+01  0.6889589820103E+00
-0.7701282127784E+00 -0.3060383091555E+01 -0.1800340308470E+01  0.6618529870307E+00
-0.5765734476224E+00 -0.3092719265659E+01 -0.1724567570868E+01  0.6329457519611E+00
-0.4022717623262E+00 -0.3116152629848E+01 -0.1653659460128E+01  0.6038015738107E+00
-0.2468519894253E+00 -0.3132183321417E+01 -0.1588146592068E+01  0.5758377847094E+00
-0.1095293639672E+00 -0.3142449822868E+01 -0.1528430213936E+01  0.5501267808592E+00
 0.1066105685818E-01 -0.3148574244289E+01 -0.1474819194352E+01  0.5274320471503E+00
 0.1147366132677E+00 -0.3152110280827E+01 -0.1427565620132E+01  0.5082872881427E+00
 0.2036922912935E+00 -0.3154516303048E+01 -0.1386887282007E+01  0.4930315095654E+00
 0.2784270304754E+00 -0.3157123710258E+01 -0.1352987436066E+01  0.4818330708902E+00
 0.3396251342073E+00 -0.3161150785565E+01 -0.1326117052775E+01  0.4747131575230E+00
 0.3875757207245E+00 -0.3167694128453E+01 -0.1306655648318E+01  0.4715580040536E+00
 0.4219718269721E+00 -0.3177636914481E+01 -0.1295162587844E+01  0.4722062224889E+00
 0.4417021803279E+00 -0.3192155741033E+01 -0.1292713170253E+01  0.4767761577965E+00
 0.4456946315401E+00 -0.3211521547970E+01 -0.1299938647425E+01  0.4856883903389E+00
 0.4337282615802E+00 -0.3235021416042E+01 -0.1316607779258E+01  0.5004447513375E+00
-0.1994072899709E+01 -0.2779193356885E+01 -0.2243435134909E+01  0.7908863063646E+00
-0.1724837077052E+01 -0.2860020401399E+01 -0.2154883009407E+01  0.7816679451665E+00
-0.1462615450461E+01 -0.2933502487308E+01 -0.2066175425511E+01  0.7646591915480E+00
-0.1213414507209E+01 -0.2996087103426E+01 -0.1978465751980E+01  0.7406791543304E+00
-0.9809832044707E+00 -0.3046778260563E+01 -0.1893047883764E+01  0.7117363880465E+00
-0.7671609690037E+00 -0.3085807535823E+01 -0.1810895192675E+01  0.6797503298134E+00
-0.5728971745505E+00 -0.3114000300560E+01 -0.1732841808907E+01  0.6463875261398E+00
-0.3984567342468E+00 -0.3132681654430E+01 -0.1659635038469E+01  0.6134119268778E+00
-0.2433940883516E+00 -0.3143582259954E+01 -0.1591878879666E+01  0.5823668260338E+00
-0.1067884508082E+00 -0.3148518062963E+01 -0.1529994057592E+01  0.5543369563543E+00
 0.1244719166038E-01 -0.3149226473647E+01 -0.1474286258794E+01  0.5300374828599E+00
 0.1154227542327E+00 -0.3147331213700E+01 -0.1424996972336E+01  0.5099352356572E+00
 0.2032107479396E+00 -0.3144313004323E+01 -0.1382318056994E+01  0.4942973648939E+00
 0.2767792026755E+00 -0.3141477142513E+01 -0.1346408028309E+01  0.4832288184256E+00
 0.3369438879445E+00 -0.3139942704598E+01 -0.1317409440486E+01  0.4767202809900E+00
 0.3840712333699E+00 -0.3140808436151E+01 -0.1295666482021E+01  0.4746233254595E+00
 0.4177419818155E+00 -0.3145031985761E+01 -0.1281826298603E+01  0.4767199465843E+00
 0.4376597429252E+00 -0.3153372948393E+01 -0.1276385203332E+01  0.4832427968496E+00
 0.4406458270935E+00 -0.3168847625849E+01 -0.1282254842163E+01  0.4938770765096E+00
 0.4262696115365E+00 -0.3189497528350E+01 -0.1298717117608E+01  0.5090115780853E+00
-0.1998898665745E+01 -0.2813587629497E+01 -0.2261868553027E+01  0.8301504604424E+00
-0.1728873564764E+01 -0.2895441744564E+01 -0.2173428189871E+01  0.8187787746422E+00
-0.1463735522563E+01 -0.2968360528907E+01 -0.2083085138908E+01  0.7973117777910E+00
-0.1211852334918E+01 -0.3028982404604E+01 -0.1993192322520E+01  0.7679223113470E+00
-0.9775942389611E+00 -0.3076811355954E+01 -0.1905570624777E+01  0.7334469053515E+00
-0.7626491546690E+00 -0.3112046622165E+01 -0.1821107010493E+01  0.6961612977663E+00
-0.5678408647372E+00 -0.3135450320376E+01 -0.1740546852589E+01  0.6579769103477E+00
-0.3935354161757E+00 -0.3148742196291E+01 -0.1664870473637E+01  0.6209136497639E+00
-0.2391487146355E+00 -0.3153945838058E+01 -0.1594754435721E+01  0.5866288537651E+00
-0.1035646794874E+00 -0.3153054572706E+01 -0.1530611044649E+01  0.5561882261915E+00
 0.1444107323171E-01 -0.3147930077968E+01 -0.1472739828490E+01  0.5302299341524E+00
 0.1160819657151E+00 -0.3140260689295E+01 -0.1421363996478E+01  0.5091293512076E+00
 0.2024983945915E+00 -0.3131551426789E+01 -0.1376654921641E+01  0.4930560466275E+00
 0.2747113709212E+00 -0.3123060809744E+01 -0.1338724232851E+01  0.4820190380836E+00
 0.3335720785169E+00 -0.3115793874140E+01 -0.1307644240626E+01  0.4759536647564E+00
 0.3797965052940E+00 -0.3110466826330E+01 -0.1283415047632E+01  0.4747566960098E+00
 0.4126501988648E+00 -0.3108371777297E+01 -0.1266989138650E+01  0.4781416655632E+00
 0.4313207239974E+00 -0.3110629804679E+01 -0.1259275264727E+01  0.4865235337616E+00
 0.4384029646687E+00 -0.3116526617386E+01 -0.1258718113584E+01  0.5003234390241E+00
 0.4229600455874E+00 -0.3140204703120E+01 -0.1277104985801E+01  0.5155406002210E+00
-0.1025018389510E+01 -0.1778113110482E+01 -0.1317471801655E+01 -0.3956379056489E+00
 0.1581743737479E+00 -0.1385532805108E+00  0.9221913798045E-02 -0.5220738772459E-01
 0.7677974840337E-01  0.2430017249390E+00  0.1502972920897E+00 -0.9609489736431E-01
 0.8051246360466E-01  0.4285852751239E+00  0.2392759365956E+00 -0.1523115052539E+00
 0.9299675962110E-01  0.4948741039333E+00  0.2762993051698E+00 -0.1940474243157E+00
 0.9245239125635E-01  0.4884797560589E+00  0.2730381085457E+00 -0.2124140746493E+00
 0.8716611290038E-01  0.4802801823661E+00  0.2666997580988E+00 -0.2018527918901E+00
 0.7302198921029E-01  0.4828991577817E+00  0.2612829384235E+00 -0.1808465080348E+00
 0.5628248475000E-01  0.4844822711545E+00  0.2541594346305E+00 -0.1590514283437E+00
 0.4218079048509E-01  0.4803397570653E+00  0.2455846567258E+00 -0.1366941512041E+00
 0.3042831925007E-01  0.4689907432501E+00  0.2347269587797E+00 -0.1129417373820E+00
 0.2151325503220E-01  0.4508688716724E+00  0.2220195989881E+00 -0.8789404532799E-01
 0.1476531780748E-01  0.4241563688029E+00  0.2062931921836E+00 -0.6245994845197E-01
 0.1013557214061E-01  0.3874181864859E+00  0.1868502660805E+00 -0.3711126173830E-01
 0.8226208071293E-02  0.3415384668355E+00  0.1643893967892E+00 -0.1276371339515E-01
 0.1066463768800E-01  0.2878735473054E+00  0.1403129465910E+00  0.8311577493435E-02
 0.9762416981021E-02  0.2173314398196E+00  0.1067341124256E+00  0.2591059020727E-01
 0.1229097445802E-01  0.1453854347074E+00  0.7410791211976E-01  0.4296508782785E-01
 0.2306431525755E-01  0.8631279970840E-01  0.5140724390361E-01  0.5658891173478E-01
 0.5277836218656E-01  0.4537982790800E-01  0.4613434922743E-01  0.6138106220823E-01
-0.3869506584766E+00 -0.1026376303552E+01 -0.6642636704686E+00 -0.5398541381447E+00
-0.1041483564868E+00 -0.5563161554403E+00 -0.3104183198184E+00 -0.2518579217172E+00
 0.8453474977895E-01  0.2689888215583E-01  0.5237380687651E-01 -0.1400411148682E+00
 0.7502530269654E-01  0.2432933708014E+00  0.1496097761646E+00 -0.1414104607385E+00
 0.8050873558206E-01  0.3498792998488E+00  0.2022823761395E+00 -0.1593087976243E+00
 0.8258703667448E-01  0.3930287182609E+00  0.2235394042527E+00 -0.1726626051914E+00
 0.7553022185550E-01  0.4066322417349E+00  0.2266163573127E+00 -0.1707216330879E+00
 0.5973911216959E-01  0.4120595826036E+00  0.2217453859810E+00 -0.1574387956049E+00
 0.4310230824857E-01  0.4151052201370E+00  0.2153575377950E+00 -0.1395634707485E+00
 0.2897654334376E-01  0.4139924696990E+00  0.2081954356020E+00 -0.1194118949266E+00
 0.1732889971055E-01  0.4073258079789E+00  0.1995877121078E+00 -0.9728138085848E-01
 0.7810189729792E-02  0.3941134122847E+00  0.1889040924677E+00 -0.7329376983911E-01
 0.5767029795063E-03  0.3736730913831E+00  0.1758974029043E+00 -0.4799170206035E-01
-0.3906643558061E-02  0.3452411743768E+00  0.1604272290779E+00 -0.2200536631911E-01
-0.5096381771342E-02  0.3084715180099E+00  0.1425863136705E+00  0.3728595175889E-02
-0.3647251591679E-02  0.2622928615811E+00  0.1215634363867E+00  0.2791854794642E-01
 0.1163350954929E-02  0.2086253715810E+00  0.9860069934181E-01  0.4921284169054E-01
 0.9518023135205E-02  0.1503017772532E+00  0.7511530599203E-01  0.6778029600264E-01
 0.2583931271794E-01  0.9571000958514E-01  0.5712818133755E-01  0.8196321702877E-01
 0.5854390010624E-01  0.5235009296626E-01  0.5212017661188E-01  0.8755621024086E-01
-0.2457695772327E+00 -0.8044610700758E+00 -0.4936084029830E+00 -0.5829253310481E+00
-0.1015744600279E+00 -0.5665522813855E+00 -0.3140195676679E+00 -0.3641254052838E+00
 0.9503443062505E-02 -0.2044154784743E+00 -0.9160865641120E-01 -0.2119967577907E+00
 0.6393371787370E-01  0.6654948487158E-01  0.6132710513474E-01 -0.1505082971097E+00
 0.6909325990198E-01  0.2035023258089E+00  0.1281199249592E+00 -0.1395976462238E+00
 0.7140265303522E-01  0.2800733966111E+00  0.1651937429148E+00 -0.1421132217968E+00
 0.6413864234171E-01  0.3175355030190E+00  0.1793868478645E+00 -0.1414842577706E+00
 0.4868382574440E-01  0.3336499363054E+00  0.1796968677076E+00 -0.1332579512164E+00
 0.3179025387793E-01  0.3407896657805E+00  0.1751125617953E+00 -0.1196437568328E+00
 0.1726630154785E-01  0.3431483784607E+00  0.1693948991744E+00 -0.1025197027350E+00
 0.5117262733619E-02  0.3407206873927E+00  0.1625438361471E+00 -0.8264308115996E-01
-0.5025871997887E-02  0.3327198709295E+00  0.1540161791072E+00 -0.6032904888869E-01
-0.1299933575326E-01  0.3185499686609E+00  0.1436087971023E+00 -0.3603095180800E-01
-0.1810384360184E-01  0.2977539514776E+00  0.1314355503682E+00 -0.1029876974210E-01
-0.1990524852478E-01  0.2695652084224E+00  0.1173401808543E+00  0.1611465433140E-01
-0.1791564442984E-01  0.2338414965626E+00  0.1014851502450E+00  0.4199098158009E-01
-0.1150876560546E-01  0.1918701100328E+00  0.8476983166585E-01  0.6557615358872E-01
 0.1292777761886E-02  0.1452989834744E+00  0.6889812760631E-01  0.8633514167695E-01
 0.2268202584036E-01  0.9709644094127E-01  0.5629587924458E-01  0.1022853057324E+00
 0.5808047337478E-01  0.5422402163450E-01  0.5278311252049E-01  0.1093536879865E+00
-0.1977601490800E+00 -0.7054477686896E+00 -0.4245077202750E+00 -0.6046555866520E+00
-0.1127208725254E+00 -0.5683943989477E+00 -0.3201241767804E+00 -0.4287278183919E+00
-0.2662113866935E-01 -0.3306263470642E+00 -0.1679063178689E+00 -0.2722415730588E+00
 0.3133259293512E-01 -0.1034436313580E+00 -0.3389218797280E-01 -0.1758584687074E+00
 0.5479624072329E-01  0.5754716837240E-01  0.5280140214105E-01 -0.1340966149235E+00
 0.5954580576512E-01  0.1579053947927E+00  0.1022020640030E+00 -0.1214150158107E+00
 0.5305318176811E-01  0.2158428505786E+00  0.1263811348824E+00 -0.1169909501540E+00
 0.3872109169676E-01  0.2453018010695E+00  0.1334907592616E+00 -0.1104633448719E+00
 0.2224893339898E-01  0.2597915813945E+00  0.1325590416167E+00 -0.1000357879541E+00
 0.7250988686002E-02  0.2668646634397E+00  0.1288343561723E+00 -0.8606811842483E-01
-0.5629810168778E-02  0.2689278596561E+00  0.1237500829451E+00 -0.6893108286514E-01
-0.1664813104140E-01  0.2660518510338E+00  0.1172197480991E+00 -0.4889652556086E-01
-0.2561841779460E-01  0.2579940546542E+00  0.1092165490470E+00 -0.2634229455757E-01
-0.3189512041600E-01  0.2444363767197E+00  0.9989439020935E-01 -0.1713345293994E-02
-0.3473533060615E-01  0.2248084117292E+00  0.8933434790124E-01  0.2438051212084E-01
-0.3332334567251E-01  0.1988903044691E+00  0.7781647043704E-01  0.5084203379589E-01
-0.2654451197069E-01  0.1679077623987E+00  0.6644072753263E-01  0.7588471785167E-01
-0.1164309333796E-01  0.1318173262833E+00  0.5648188934103E-01  0.9862661238262E-01
 0.1314377893288E-01  0.9085603249033E-01  0.4887991124493E-01  0.1166618856917E+00
 0.5011826333834E-01  0.5049272522213E-01  0.4728716450349E-01  0.1255606748593E+00
-0.1905696037415E+00 -0.6656389956840E+00 -0.4024180407093E+00 -0.6172936576115E+00
-0.1325972993547E+00 -0.5771085343323E+00 -0.3335617409869E+00 -0.4677507563860E+00
-0.5810550301246E-01 -0.4174263474043E+00 -0.2234999691290E+00 -0.3172988810162E+00
 0.1160095143889E-02 -0.2386378127002E+00 -0.1116145269684E+00 -0.2049123273270E+00
 0.3352257016730E-01 -0.8407284035653E-01 -0.2375862692868E-01 -0.1401913884684E+00
 0.4589976293995E-01  0.3138027597059E-01  0.3632161819583E-01 -0.1105938112119E+00
 0.4186748471561E-01  0.1052065855972E+00  0.6912481287171E-01 -0.9872371776236E-01
 0.2941534583111E-01  0.1476237448359E+00  0.8320837240243E-01 -0.9086364280607E-01
 0.1399338785814E-01  0.1710396231528E+00  0.8696551495456E-01 -0.8191977783356E-01
-0.1077478079649E-02  0.1842234230536E+00  0.8607859391943E-01 -0.7052762266900E-01
-0.1466325777877E-01  0.1913247732308E+00  0.8303091205187E-01 -0.5621786835445E-01
-0.2667299710341E-01  0.1936049390722E+00  0.7845801252635E-01 -0.3888665478855E-01
-0.3686369580552E-01  0.1914129281243E+00  0.7263813900559E-01 -0.1870960020379E-01
-0.4461342166711E-01  0.1847564168655E+00  0.6586720757619E-01  0.4009439798404E-02
-0.4905355608771E-01  0.1732141887245E+00  0.5835549719128E-01  0.2882314084313E-01
-0.4906319192859E-01  0.1565920509256E+00  0.5053856360041E-01  0.5482250834941E-01
-0.4329334015838E-01  0.1358778535458E+00  0.4351472118173E-01  0.8039992202619E-01
-0.2822738940552E-01  0.1099062389821E+00  0.3838905920363E-01  0.1045377515793E+00
-0.2299758410066E-02  0.7671654881078E-01  0.3497589139962E-01  0.1243529640359E+00
 0.3453463575779E-01  0.4045461013603E-01  0.3524494548070E-01  0.1349073940930E+00
-0.2034503220079E+00 -0.6577444840071E+00 -0.4047615578004E+00 -0.6253891923160E+00
-0.1593095769611E+00 -0.5961146366157E+00 -0.3550493794806E+00 -0.4916349452174E+00
-0.8982766886921E-01 -0.4860109101684E+00 -0.2706441314612E+00 -0.3497732359445E+00
-0.2905419381962E-01 -0.3488631197187E+00 -0.1776211369125E+00 -0.2319673126379E+00
 0.9893174243256E-02 -0.2122293177464E+00 -0.9509798720527E-01 -0.1527615846497E+00
 0.2920220811324E-01 -0.9493965127741E-01 -0.3089659820880E-01 -0.1084212192845E+00
 0.2985326069357E-01 -0.1081078381926E-01  0.8949964108224E-02 -0.8724057925277E-01
 0.2024578705782E-01  0.4239363461262E-01  0.2944052811043E-01 -0.7565126066026E-01
 0.6581510302029E-02  0.7473019592291E-01  0.3821650182879E-01 -0.6640841578914E-01
-0.7978848521155E-02  0.9472024389916E-01  0.4076845572426E-01 -0.5659176769619E-01
-0.2194502312712E-01  0.1073642674539E+00  0.4014704473176E-01 -0.4477796606686E-01
-0.3486020348735E-01  0.1148825110641E+00  0.3761048446568E-01 -0.3028691819566E-01
-0.4632507782926E-01  0.1183247796949E+00  0.3383985979103E-01 -0.1294160749225E-01
-0.5573502010599E-01  0.1181253031723E+00  0.2932343296678E-01  0.7176214532402E-02
-0.6216391975895E-01  0.1141019654115E+00  0.2441088139477E-01  0.2982087462722E-01
-0.6433105218076E-01  0.1061125709548E+00  0.1963731377400E-01  0.5432642797282E-01
-0.6070797214444E-01  0.9505051061318E-01  0.1614099303937E-01  0.7938755562330E-01
-0.4730530649052E-01  0.7883927053295E-01  0.1482096306235E-01  0.1039739088321E+00
-0.2249418488619E-01  0.5378384119151E-01  0.1470613842620E-01  0.1247740937466E+00
 0.1211777823671E-01  0.2254866477140E-01  0.1629322817249E-01  0.1363151415331E+00
-0.2279596326083E+00 -0.6692052006273E+00 -0.4216674705512E+00 -0.6307054353459E+00
-0.1904913393944E+00 -0.6239491839741E+00 -0.3827870450123E+00 -0.5060521892171E+00
-0.1232267925138E+00 -0.5466088304062E+00 -0.3148227419739E+00 -0.3725890113439E+00
-0.6034534374589E-01 -0.4424087804560E+00 -0.2362944377756E+00 -0.2549704691492E+00
-0.1571158755704E-01 -0.3268890550326E+00 -0.1610223016087E+00 -0.1678829165852E+00
 0.1012351037583E-01 -0.2162938831883E+00 -0.9690007497608E-01 -0.1124779427666E+00
 0.1630080982989E-01 -0.1286998887663E+00 -0.5282756696613E-01 -0.8212067668267E-01
 0.1062270970106E-01 -0.6807478728794E-01 -0.2700247639735E-01 -0.6535924196343E-01
-0.4904617493618E-03 -0.2809858013582E-01 -0.1343684965196E-01 -0.5429835293324E-01
-0.1382335841339E-01 -0.1482859967613E-02 -0.7193922620824E-02 -0.4493243597400E-01
-0.2763334685391E-01  0.1681055141627E-01 -0.5086713842790E-02 -0.3499470086843E-01
-0.4113202861862E-01  0.2953923645327E-01 -0.5448612303893E-02 -0.2318787933270E-01
-0.5372506165476E-01  0.3833524854415E-01 -0.7233212143639E-02 -0.8893236578665E-02
-0.6479376569169E-01  0.4408515335612E-01 -0.9733047773030E-02  0.8106503143075E-02
-0.7341105630389E-01  0.4690238328629E-01 -0.1245907628667E-01  0.2781297643451E-01
-0.7823026810102E-01  0.4678087241565E-01 -0.1478121593464E-01  0.4984249803104E-01
-0.7762997324722E-01  0.4463585772309E-01 -0.1550723425701E-01  0.7325590393885E-01
-0.6743435133022E-01  0.3767240378958E-01 -0.1398811530862E-01  0.9708856834551E-01
-0.4582673076453E-01  0.2072606390466E-01 -0.1179731339421E-01  0.1177161317650E+00
-0.1541329646790E-01 -0.5133558107879E-02 -0.9657021626123E-02  0.1292317711008E+00
-0.2599044244466E+00 -0.6931706733006E+00 -0.4479452948050E+00 -0.6340192410057E+00
-0.2247658104428E+00 -0.6588525522416E+00 -0.4153006294083E+00 -0.5142733933542E+00
-0.1583126242488E+00 -0.6039557437090E+00 -0.3582661320315E+00 -0.3881373109831E+00
-0.9314047249028E-01 -0.5253099932336E+00 -0.2906717181530E+00 -0.2734788843939E+00
-0.4327979152416E-01 -0.4302405715005E+00 -0.2225545700571E+00 -0.1830883963544E+00
-0.1120026991020E-01 -0.3308676092254E+00 -0.1607719027859E+00 -0.1203181703345E+00
 0.9763760623385E-03 -0.2453553002655E+00 -0.1148580940842E+00 -0.8215265419490E-01
 0.2949688665099E-05 -0.1813281225776E+00 -0.8522283104166E-01 -0.5983968325340E-01
-0.7747569430016E-02 -0.1359001130320E+00 -0.6751441058591E-01 -0.4595162045933E-01
-0.1906143722701E-01 -0.1036559714981E+00 -0.5767718195453E-01 -0.3602818791614E-01
-0.3202385455043E-01 -0.8013891075812E-01 -0.5271649956131E-01 -0.2722782572857E-01
-0.4558077364783E-01 -0.6250220567307E-01 -0.5079900015198E-01 -0.1772685487646E-01
-0.5893948422886E-01 -0.4876460273899E-01 -0.5062092074650E-01 -0.6462910283306E-02
-0.7144948733028E-01 -0.3766643445607E-01 -0.5128448310951E-01  0.7115415615376E-02
-0.8221431765569E-01 -0.2878641260754E-01 -0.5217034309140E-01  0.2328571103493E-01
-0.8989732060033E-01 -0.2193415239482E-01 -0.5256079217440E-01  0.4196774281306E-01
-0.9285354941048E-01 -0.1607068713633E-01 -0.5119439104715E-01  0.6261422646174E-01
-0.8703233838466E-01 -0.1457135671251E-01 -0.4775373657455E-01  0.8437769624260E-01
-0.7033787037164E-01 -0.2384588539173E-01 -0.4426636509651E-01  0.1034881352957E+00
-0.4570768284846E-01 -0.4446418572954E-01 -0.4238077812417E-01  0.1138048325949E+00
-0.2969954541358E+00 -0.7255794094020E+00 -0.4806101846438E+00 -0.6356809909198E+00
-0.2613261391740E+00 -0.6992789140346E+00 -0.4514843738629E+00 -0.5182761641213E+00
-0.1948333851638E+00 -0.6603483884265E+00 -0.4019354325680E+00 -0.3982217939663E+00
-0.1274182107546E+00 -0.6015248144312E+00 -0.3426032209683E+00 -0.2877178346409E+00
-0.7277674050510E-01 -0.5248528414815E+00 -0.2808859028213E+00 -0.1969821425526E+00
-0.3472585622883E-01 -0.4385463126511E+00 -0.2224379188094E+00 -0.1299559774790E+00
-0.1631167034655E-01 -0.3589293505954E+00 -0.1763632793954E+00 -0.8584457639044E-01
-0.1199381874403E-01 -0.2951815054901E+00 -0.1443724020238E+00 -0.5840425664561E-01
-0.1567284762741E-01 -0.2469441983367E+00 -0.1234300112901E+00 -0.4127168798428E-01
-0.2417097701988E-01 -0.2106787827342E+00 -0.1103793868045E+00 -0.3006639619762E-01
-0.3550705662265E-01 -0.1828829363767E+00 -0.1026432964493E+00 -0.2170322408964E-01
-0.4844130136842E-01 -0.1609883308701E+00 -0.9843192690245E-01 -0.1401054142817E-01
-0.6200844748733E-01 -0.1429289961925E+00 -0.9632059828524E-01 -0.5559592293707E-02
-0.7552041329688E-01 -0.1272153754929E+00 -0.9528582048952E-01  0.4514734760446E-02
-0.8813405057240E-01 -0.1131635166289E+00 -0.9460985634462E-01  0.1676118622782E-01
-0.9857967550759E-01 -0.1003643089104E+00 -0.9350367243931E-01  0.3139990273350E-01
-0.1052492786665E+00 -0.8759612821994E-01 -0.9063734100676E-01  0.4827379482312E-01
-0.1045172889319E+00 -0.7869911559991E-01 -0.8611170991153E-01  0.6668945718750E-01
-0.9393931565022E-01 -0.8110197395458E-01 -0.8226940590559E-01  0.8293045369783E-01
-0.7612742610060E-01 -0.9693764429275E-01 -0.8134058287856E-01  0.9089100069701E-01
-0.3378683344660E+00 -0.7638580493269E+00 -0.5178113990693E+00 -0.6358453544024E+00
-0.2997074152965E+00 -0.7439860577727E+00 -0.4905359310983E+00 -0.5192907265650E+00
-0.2325424660798E+00 -0.7168807146850E+00 -0.4462288938277E+00 -0.4041694453886E+00
-0.1630060461317E+00 -0.6736008597838E+00 -0.3932052447830E+00 -0.2981527325478E+00
-0.1040556768801E+00 -0.6129654088006E+00 -0.3369999094151E+00 -0.2088587337188E+00
-0.6038057607862E-01 -0.5400332195545E+00 -0.2821944832318E+00 -0.1399448170038E+00
-0.3568294655224E-01 -0.4686148005518E+00 -0.2370199405377E+00 -0.9176700085463E-01
-0.2565584831007E-01 -0.4080707619766E+00 -0.2038515063177E+00 -0.6008437540722E-01
-0.2466329257558E-01 -0.3596173245136E+00 -0.1806118895738E+00 -0.3978841757173E-01
-0.2960934719316E-01 -0.3212577993071E+00 -0.1649075584368E+00 -0.2692280704382E-01
-0.3852079818712E-01 -0.2905223721622E+00 -0.1546502896719E+00 -0.1844700765822E-01
-0.5005736455466E-01 -0.2653518436752E+00 -0.1482423274920E+00 -0.1204792637614E-01
-0.6312440870316E-01 -0.2438251070706E+00 -0.1442662720477E+00 -0.6059123937283E-02
-0.7700147458783E-01 -0.2243875450923E+00 -0.1416528388904E+00  0.6281895152757E-03
-0.9091570710719E-01 -0.2061780178869E+00 -0.1396340503931E+00  0.8790941162183E-02
-0.1037096274407E+00 -0.1885878000701E+00 -0.1373797905816E+00  0.1891720276327E-01
-0.1138661047663E+00 -0.1701971205393E+00 -0.1335097155550E+00  0.3121410496555E-01
-0.1184535521889E+00 -0.1552020999642E+00 -0.1286181561858E+00  0.4517018657541E-01
-0.1146309525909E+00 -0.1517934852074E+00 -0.1252194854476E+00  0.5733403992551E-01
-0.1040956134848E+00 -0.1634708020472E+00 -0.1257562149811E+00  0.6193673447377E-01
-0.3816491819925E+00 -0.8062951084008E+00 -0.5583338150687E+00 -0.6345726788250E+00
-0.3396370823382E+00 -0.7919915250799E+00 -0.5318654441375E+00 -0.5180938921874E+00
-0.2712660051828E+00 -0.7740333796260E+00 -0.4912907096141E+00 -0.4069464762428E+00
-0.1997137931046E+00 -0.7431567385248E+00 -0.4431491487418E+00 -0.3052988076996E+00
-0.1369161666071E+00 -0.6963441819658E+00 -0.3916323628359E+00 -0.2184301897750E+00
-0.8803019488636E-01 -0.6363028478634E+00 -0.3404365292289E+00 -0.1493050871922E+00
-0.5717124354151E-01 -0.5742864544375E+00 -0.2967851172974E+00 -0.9870985976211E-01
-0.4118169079524E-01 -0.5190505827374E+00 -0.2633091678925E+00 -0.6384675680867E-01
-0.3503634005896E-01 -0.4726274110175E+00 -0.2386019624008E+00 -0.4080333978012E-01
-0.3578365511931E-01 -0.4341285226717E+00 -0.2208587230016E+00 -0.2621161006298E-01
-0.4151021867806E-01 -0.4020035939827E+00 -0.2084514914218E+00 -0.1727261928047E-01
-0.5084392681352E-01 -0.3747834551174E+00 -0.2000448690001E+00 -0.1171199421008E-01
-0.6260929761582E-01 -0.3508496179340E+00 -0.1943256898155E+00 -0.7768638047736E-02
-0.7606379796687E-01 -0.3287323735964E+00 -0.1902542001522E+00 -0.4190524159783E-02
-0.9051584253585E-01 -0.3074964587894E+00 -0.1870657811484E+00 -0.4756336455626E-04
-0.1049556357091E+00 -0.2863827539608E+00 -0.1839290426783E+00  0.5353451623601E-02
-0.1180099277121E+00 -0.2637926487888E+00 -0.1794472105003E+00  0.1253201469721E-01
-0.1276678039464E+00 -0.2441607220601E+00 -0.1747594067798E+00  0.2117704353356E-01
-0.1306850606364E+00 -0.2361474189290E+00 -0.1724112649584E+00  0.2830762030232E-01
-0.1273735641918E+00 -0.2443252388114E+00 -0.1746984369684E+00  0.2879410933277E-01
-0.4277402501055E+00 -0.8517077157731E+00 -0.6013405424377E+00 -0.6318772397645E+00
-0.3809497373301E+00 -0.8425169364553E+00 -0.5750293352206E+00 -0.5151768785747E+00
-0.3109020277042E+00 -0.8319632171913E+00 -0.5371466637385E+00 -0.4072514623166E+00
-0.2373893490592E+00 -0.8112052346021E+00 -0.4928394530708E+00 -0.3096393656991E+00
-0.1711577791196E+00 -0.7763102031834E+00 -0.4453099505530E+00 -0.2256484450298E+00
-0.1175034200814E+00 -0.7283288560372E+00 -0.3975411687674E+00 -0.1574154907449E+00
-0.8073256000339E-01 -0.6761907150530E+00 -0.3557539383742E+00 -0.1057234720991E+00
-0.5868399290399E-01 -0.6276581919575E+00 -0.3225808260667E+00 -0.6872640141312E-01
-0.4703203556892E-01 -0.5850515490349E+00 -0.2970792840103E+00 -0.4352543119684E-01
-0.4304189938913E-01 -0.5481937222583E+00 -0.2778807414695E+00 -0.2737268058328E-01
-0.4490044243392E-01 -0.5162566382045E+00 -0.2637438272311E+00 -0.1781321891171E-01
-0.5125331012800E-01 -0.4883326169491E+00 -0.2536053850830E+00 -0.1273665938087E-01
-0.6088589347022E-01 -0.4631841399528E+00 -0.2463129150841E+00 -0.1041155256969E-01
-0.7304141065406E-01 -0.4395405741590E+00 -0.2409135322511E+00 -0.9548553737988E-02
-0.8711016589474E-01 -0.4164942077020E+00 -0.2366940549901E+00 -0.9157334780606E-02
-0.1022523153330E+00 -0.3932010518499E+00 -0.2328630819853E+00 -0.8428691153589E-02
-0.1172925798390E+00 -0.3679250359711E+00 -0.2280522788523E+00 -0.6612409417993E-02
-0.1313257235908E+00 -0.3452014149304E+00 -0.2239677545369E+00 -0.3816885223830E-02
-0.1407727262740E+00 -0.3338374241729E+00 -0.2230667701442E+00 -0.2368650280250E-02
-0.1442428414778E+00 -0.3391184295965E+00 -0.2271797968287E+00 -0.6477247823541E-02
-0.4757073349035E+00 -0.8992526623975E+00 -0.6462311970924E+00 -0.6277511517733E+00
-0.4235380124609E+00 -0.8949402911086E+00 -0.6196848011059E+00 -0.5108460252449E+00
-0.3514037152071E+00 -0.8906534237555E+00 -0.5837668538318E+00 -0.4055850638552E+00
-0.2759339465640E+00 -0.8783610591469E+00 -0.5425186513081E+00 -0.3115944034468E+00
-0.2066131962005E+00 -0.8538158828940E+00 -0.4984016659103E+00 -0.2305944226356E+00
-0.1486245254837E+00 -0.8169634805225E+00 -0.4538263616719E+00 -0.1639120894944E+00
-0.1062714655968E+00 -0.7747338445910E+00 -0.4140724947380E+00 -0.1121021303720E+00
-0.7820202815780E-01 -0.7337515457616E+00 -0.3816181787742E+00 -0.7389052637551E-01
-0.6081829087551E-01 -0.6962921580261E+00 -0.3558419100812E+00 -0.4716897718420E-01
-0.5167005723089E-01 -0.6625788969991E+00 -0.3356970076366E+00 -0.2975961977752E-01
-0.4908051283085E-01 -0.6322967238573E+00 -0.3202473004311E+00 -0.1957814838488E-01
-0.5174779436256E-01 -0.6050095344348E+00 -0.3086759437519E+00 -0.1474279416562E-01
-0.5844815250264E-01 -0.5798741001732E+00 -0.3000114579967E+00 -0.1363683066765E-01
-0.6841010622398E-01 -0.5558927094672E+00 -0.2934223226306E+00 -0.1502154422350E-01
-0.8108834527459E-01 -0.5322745482697E+00 -0.2882805592346E+00 -0.1793831103536E-01
-0.9581426223865E-01 -0.5081666619991E+00 -0.2838710336718E+00 -0.2156827788442E-01
-0.1116562533532E+00 -0.4817481709193E+00 -0.2789000787007E+00 -0.2504611761141E-01
-0.1289685036146E+00 -0.4574946459591E+00 -0.2756376796006E+00 -0.2830670440787E-01
-0.1440241990661E+00 -0.4440082883092E+00 -0.2763752683654E+00 -0.3287624879282E-01
-0.1535919864701E+00 -0.4468885333908E+00 -0.2822258436188E+00 -0.4179071897873E-01
-0.5252173498202E+00 -0.9483135479993E+00 -0.6925595202186E+00 -0.6221764973438E+00
-0.4673242430745E+00 -0.9487594955116E+00 -0.6655593554474E+00 -0.5052857889886E+00
-0.3927614940375E+00 -0.9499943050585E+00 -0.6310952239744E+00 -0.4023013917381E+00
-0.3152998966476E+00 -0.9449743617704E+00 -0.5923288999541E+00 -0.3115125960719E+00
-0.2431629380212E+00 -0.9295225780223E+00 -0.5511621911425E+00 -0.2334103799948E+00
-0.1812393903717E+00 -0.9028956531749E+00 -0.5095434691745E+00 -0.1686073154468E+00
-0.1336711549647E+00 -0.8703519836673E+00 -0.4718908739602E+00 -0.1173453291601E+00
-0.9972251318452E-01 -0.8373714539634E+00 -0.4404341634424E+00 -0.7865747491518E-01
-0.7650086958895E-01 -0.8059956847577E+00 -0.4147733794909E+00 -0.5101154430524E-01
-0.6189311831772E-01 -0.7766271825159E+00 -0.3941045403922E+00 -0.3270871737060E-01
-0.5439266311327E-01 -0.7492783789820E+00 -0.3777253888267E+00 -0.2201127961094E-01
-0.5277637648844E-01 -0.7238687450127E+00 -0.3650232061797E+00 -0.1727867945107E-01
-0.5583179663067E-01 -0.6999165187918E+00 -0.3552017073477E+00 -0.1704716958100E-01
-0.6275978533516E-01 -0.6767310580878E+00 -0.3475606955273E+00 -0.2018019061910E-01
-0.7304181367983E-01 -0.6537175563205E+00 -0.3415769030338E+00 -0.2582065889873E-01
-0.8613975456024E-01 -0.6300957204942E+00 -0.3366306724218E+00 -0.3324689686438E-01
-0.1013887905295E+00 -0.6040384534021E+00 -0.3315508038069E+00 -0.4162991667659E-01
-0.1205154589931E+00 -0.5797745660274E+00 -0.3291363109248E+00 -0.5081845229111E-01
-0.1400247106918E+00 -0.5653325354680E+00 -0.3315179048543E+00 -0.6146041927921E-01
-0.1549163753725E+00 -0.5661859483259E+00 -0.3389180912786E+00 -0.7517962198872E-01
-0.5760023066906E+00 -0.9984308255784E+00 -0.7399835702896E+00 -0.6151314148885E+00
-0.5122441139104E+00 -0.1003565756524E+01 -0.7124306372972E+00 -0.4985996703679E+00
-0.4349879604932E+00 -0.1009827862546E+01 -0.6790634351059E+00 -0.3976460943660E+00
-0.3554817872739E+00 -0.1011217252132E+01 -0.6423485468913E+00 -0.3096739808225E+00
-0.2807382477969E+00 -0.1003866257928E+01 -0.6037641161592E+00 -0.2342595940780E+00
-0.2152318770967E+00 -0.9866469640882E+00 -0.5648830539241E+00 -0.1714293380402E+00
-0.1628198213187E+00 -0.9634379660587E+00 -0.5293411587248E+00 -0.1211146811017E+00
-0.1232037878070E+00 -0.9386390233654E+00 -0.4990661199852E+00 -0.8249077684900E-01
-0.9413828982567E-01 -0.9139665946561E+00 -0.4738092945047E+00 -0.5442094536902E-01
-0.7387982302987E-01 -0.8898591415411E+00 -0.4529573121995E+00 -0.3558316455320E-01
-0.6112403915295E-01 -0.8665075309371E+00 -0.4359868368365E+00 -0.2453622480878E-01
-0.5475211563578E-01 -0.8440654659501E+00 -0.4224442622739E+00 -0.1985805327154E-01
-0.5357925879429E-01 -0.8223439027700E+00 -0.4116838848911E+00 -0.2023302496063E-01
-0.5676222288899E-01 -0.8009562471403E+00 -0.4031276798913E+00 -0.2463097658571E-01
-0.6373753377035E-01 -0.7795547868138E+00 -0.3963473896692E+00 -0.3231873814650E-01
-0.7402221571810E-01 -0.7575518595671E+00 -0.3908398143927E+00 -0.4275258117108E-01
-0.8713816688732E-01 -0.7332047421911E+00 -0.3855611662889E+00 -0.5531230879655E-01
-0.1062666333141E+00 -0.7103692074070E+00 -0.3838188441654E+00 -0.6994836250559E-01
-0.1287384861644E+00 -0.6960608601008E+00 -0.3876556917614E+00 -0.8648547776807E-01
-0.1482423510732E+00 -0.6951819293729E+00 -0.3964094108042E+00 -0.1048992116333E+00
-0.6278387004153E+00 -0.1049258461950E+01 -0.7882356643125E+00 -0.6065930173160E+00
-0.5582363973454E+00 -0.1059023980090E+01 -0.7601123754669E+00 -0.4908379699227E+00
-0.4781069478670E+00 -0.1069973621586E+01 -0.7275978657975E+00 -0.3917853052866E+00
-0.3965052787637E+00 -0.1077139183191E+01 -0.6926128953620E+00 -0.3062973684222E+00
-0.3193179485712E+00 -0.1077109833771E+01 -0.6563210560364E+00 -0.2333030374790E+00
-0.2505314030441E+00 -0.1068583833730E+01 -0.6199841597113E+00 -0.1723784114571E+00
-0.1936309619517E+00 -0.1054304841353E+01 -0.5865298260656E+00 -0.1231946341955E+00
-0.1485997040067E+00 -0.1037685737787E+01 -0.5575541562289E+00 -0.8498224560241E-01
-0.1137610339689E+00 -0.1020091679415E+01 -0.5329107739390E+00 -0.5686255006961E-01
-0.8775247971815E-01 -0.1001915869508E+01 -0.5121441228371E+00 -0.3779574439858E-01
-0.6950184103138E-01 -0.9834197553538E+00 -0.4948731490458E+00 -0.2658189300623E-01
-0.5802621535291E-01 -0.9648775758816E+00 -0.4807647806608E+00 -0.2198087616913E-01
-0.5219603447595E-01 -0.9462970911288E+00 -0.4692917678439E+00 -0.2279330855248E-01
-0.5111026652777E-01 -0.9275364140916E+00 -0.4599639387245E+00 -0.2805359655375E-01
-0.5409627171756E-01 -0.9085171944364E+00 -0.4524283279448E+00 -0.3710637100907E-01
-0.6052672375490E-01 -0.8889115719077E+00 -0.4462359978296E+00 -0.4958201135063E-01
-0.7000827567539E-01 -0.8673574751423E+00 -0.4405619017669E+00 -0.6522483614131E-01
-0.8689568149317E-01 -0.8471417829154E+00 -0.4389976071586E+00 -0.8438939537631E-01
-0.1104218824429E+00 -0.8340758779038E+00 -0.4439139462370E+00 -0.1064270992031E+00
-0.1339210744786E+00 -0.8317288049616E+00 -0.4538554421858E+00 -0.1294681622571E+00
-0.6805328921369E+00 -0.1100534778004E+01 -0.8371018028429E+00 -0.5965378642666E+00
-0.6052407170706E+00 -0.1114864821454E+01 -0.8084496010560E+00 -0.4820181584755E+00
-0.5221407978517E+00 -0.1130237398897E+01 -0.7766177505020E+00 -0.3848288836314E+00
-0.4384202799624E+00 -0.1142706321384E+01 -0.7431295007480E+00 -0.3015495240334E+00
-0.3589192981359E+00 -0.1149379474666E+01 -0.7089004214189E+00 -0.2306864976591E+00
-0.2871160211784E+00 -0.1148937805416E+01 -0.6749452967875E+00 -0.1714958205369E+00
-0.2260559697280E+00 -0.1143171137432E+01 -0.6435367387331E+00 -0.1234597707968E+00
-0.1758815581229E+00 -0.1134611038567E+01 -0.6159315188821E+00 -0.8583251431990E-01
-0.1353944221653E+00 -0.1124281100297E+01 -0.5920474940556E+00 -0.5789753816920E-01
-0.1036053024372E+00 -0.1112498175622E+01 -0.5715686332380E+00 -0.3881872231436E-01
-0.7969765602128E-01 -0.1099530634005E+01 -0.5542372949068E+00 -0.2759110298906E-01
-0.6286551617150E-01 -0.1085684423817E+01 -0.5398184704254E+00 -0.2312843697276E-01
-0.5208616026460E-01 -0.1071055562746E+01 -0.5278766084762E+00 -0.2431843356215E-01
-0.4643317303393E-01 -0.1055634209594E+01 -0.5179716685214E+00 -0.3019892231960E-01
-0.4505679318240E-01 -0.1039509906235E+01 -0.5097463474333E+00 -0.4007785791996E-01
-0.4708355927386E-01 -0.1022704597003E+01 -0.5028004321747E+00 -0.5361874385217E-01
-0.5151337449547E-01 -0.1004218964390E+01 -0.4961941980178E+00 -0.7087326617139E-01
-0.6381495871212E-01 -0.9876135695968E+00 -0.4941714070518E+00 -0.9302612868696E-01
-0.8532676772178E-01 -0.9765535193967E+00 -0.4990837336798E+00 -0.1197663090636E+00
-0.1123645792966E+00 -0.9734835809835E+00 -0.5103486340373E+00 -0.1475852419429E+00
-0.7339379764980E+00 -0.1152095847294E+01 -0.8864358949341E+00 -0.5849446835470E+00
-0.6531712907704E+00 -0.1170851984329E+01 -0.8572909371224E+00 -0.4721428421193E+00
-0.5671248856331E+00 -0.1190440268045E+01 -0.8260556201333E+00 -0.3768507853631E+00
-0.4812747050286E+00 -0.1207800594409E+01 -0.7938653887220E+00 -0.2955555086514E+00
-0.3996023739565E+00 -0.1220706251771E+01 -0.7615450521606E+00 -0.2265322707999E+00
-0.3250036581302E+00 -0.1227819050583E+01 -0.7298266712441E+00 -0.1688422818985E+00
-0.2600924059200E+00 -0.1230162208933E+01 -0.7004196672045E+00 -0.1218478619212E+00
-0.2050545323025E+00 -0.1229461241615E+01 -0.6742224120311E+00 -0.8483299997785E-01
-0.1590839061463E+00 -0.1226431055329E+01 -0.6511920302418E+00 -0.5718023868987E-01
-0.1215342087922E+00 -0.1221314102635E+01 -0.6311387047699E+00 -0.3819303555232E-01
-0.9185367703546E-01 -0.1214369092666E+01 -0.6139247002026E+00 -0.2702625354748E-01
-0.6945304742733E-01 -0.1205891157568E+01 -0.5994117748272E+00 -0.2274113150251E-01
-0.5349482994098E-01 -0.1195983859278E+01 -0.5872549824436E+00 -0.2431982529423E-01
-0.4312942879337E-01 -0.1184634148716E+01 -0.5770488799658E+00 -0.3078529987962E-01
-0.3741189497077E-01 -0.1171907839531E+01 -0.5683802737743E+00 -0.4129433589274E-01
-0.3503281898051E-01 -0.1157890792471E+01 -0.5606740959600E+00 -0.5527871851230E-01
-0.3447534113829E-01 -0.1142350822019E+01 -0.5531082952812E+00 -0.7267983219912E-01
-0.3874904429073E-01 -0.1127785191301E+01 -0.5482710893373E+00 -0.9524077863649E-01
-0.5468088929364E-01 -0.1120427812660E+01 -0.5523010885175E+00 -0.1249246141633E+00
-0.8263890247958E-01 -0.1116805596127E+01 -0.5637389129153E+00 -0.1578888430327E+00
-0.7878447624846E+00 -0.1203765805872E+01 -0.9360569647533E+00 -0.5717751933028E+00
-0.7020611991703E+00 -0.1226962491864E+01 -0.9066411324866E+00 -0.4612265378340E+00
-0.6129551305250E+00 -0.1250229900866E+01 -0.8756969625325E+00 -0.3679161364546E+00
-0.5252016233765E+00 -0.1272329700121E+01 -0.8448397199008E+00 -0.2883957128191E+00
-0.4414273910990E+00 -0.1291013066214E+01 -0.8142470128717E+00 -0.2209397483905E+00
-0.3642566894937E+00 -0.1305241185746E+01 -0.7846639993726E+00 -0.1644807946143E+00
-0.2957767787364E+00 -0.1315309251320E+01 -0.7572104322059E+00 -0.1183360019484E+00
-0.2361697942440E+00 -0.1322231511100E+01 -0.7324486116540E+00 -0.8184825741626E-01
-0.1849162532363E+00 -0.1326412261930E+01 -0.7103244003267E+00 -0.5445878072645E-01
-0.1416736558287E+00 -0.1328049247002E+01 -0.6907697625785E+00 -0.3554811386939E-01
-0.1061401660251E+00 -0.1327419607012E+01 -0.6737730916185E+00 -0.2439631206904E-01
-0.7795164081652E-01 -0.1324817896659E+01 -0.6593016809414E+00 -0.2021816594397E-01
-0.5652518234361E-01 -0.1320348913958E+01 -0.6471308236204E+00 -0.2214129985189E-01
-0.4123862120147E-01 -0.1313941238391E+01 -0.6369345323928E+00 -0.2925505523691E-01
-0.3132285174402E-01 -0.1305476928215E+01 -0.6282958949871E+00 -0.4061820813978E-01
-0.2534352377970E-01 -0.1294726443691E+01 -0.6204328831375E+00 -0.5525969461955E-01
-0.2075841965383E-01 -0.1281237959931E+01 -0.6119382968527E+00 -0.7243711064178E-01
-0.1984828810188E-01 -0.1268321963380E+01 -0.6054400166609E+00 -0.9301349442343E-01
-0.1663844639722E-01 -0.1254396789869E+01 -0.5973865595301E+00 -0.1202022904606E+00
-0.4348726725186E-01 -0.1258210381118E+01 -0.6117978931821E+00 -0.1576621372273E+00
-0.8434119023654E+00 -0.1257027559816E+01 -0.9872065447212E+00 -0.5571765211544E+00
-0.7509076131844E+00 -0.1281920738398E+01 -0.9554293228205E+00 -0.4494615281546E+00
-0.6600170563272E+00 -0.1309691835348E+01 -0.9257631767391E+00 -0.3579992007600E+00
-0.5702191993168E+00 -0.1336081087412E+01 -0.8959611324898E+00 -0.2801316990897E+00
-0.4845309519173E+00 -0.1360207286645E+01 -0.8670269699250E+00 -0.2139943839972E+00
-0.4049122676317E+00 -0.1381043738091E+01 -0.8393993205604E+00 -0.1584630590018E+00
-0.3332021465882E+00 -0.1398584731672E+01 -0.8139398307181E+00 -0.1129067259396E+00
-0.2693221316494E+00 -0.1412889158278E+01 -0.7906393042604E+00 -0.7679655258219E-01
-0.2130203646122E+00 -0.1424079918688E+01 -0.7694371311993E+00 -0.4957700774179E-01
-0.1642267924610E+00 -0.1432379469688E+01 -0.7504049413068E+00 -0.3063478882729E-01
-0.1228238261746E+00 -0.1438109931459E+01 -0.7336388642272E+00 -0.1932545887119E-01
-0.8864428484888E-01 -0.1441630958861E+01 -0.7192293627194E+00 -0.1500461405414E-01
-0.6134746573170E-01 -0.1443098100178E+01 -0.7070894141839E+00 -0.1699059586384E-01
-0.4060899717616E-01 -0.1442462882488E+01 -0.6970437816744E+00 -0.2456707943941E-01
-0.2607859844928E-01 -0.1439522040631E+01 -0.6888322986206E+00 -0.3696566183031E-01
-0.1707220574316E-01 -0.1433879549211E+01 -0.6819473230987E+00 -0.5322517594079E-01
-0.1110252797518E-01 -0.1424076661891E+01 -0.6745342175264E+00 -0.7189702602325E-01
-0.7940222924618E-02 -0.1410796553132E+01 -0.6668062830555E+00 -0.9222877797482E-01
-0.5435937561064E-02 -0.1397346254270E+01 -0.6593076284886E+00 -0.1140719359406E+00
 0.4002954781618E-01 -0.1349504514784E+01 -0.6154532329139E+00 -0.1443641394857E+00
-0.1991404769410E+01 -0.2846507818947E+01 -0.2273818910761E+01  0.8659045480970E+00
-0.1716844599022E+01 -0.2934088830437E+01 -0.2185938706301E+01  0.8503184646844E+00
-0.1443064364083E+01 -0.3007944439488E+01 -0.2091974132372E+01  0.8230147345628E+00
-0.1184003774941E+01 -0.3067517960516E+01 -0.1998215210597E+01  0.7872939834586E+00
-0.9445165964816E+00 -0.3112318242939E+01 -0.1906712369692E+01  0.7466300192248E+00
-0.7269423121045E+00 -0.3143084483244E+01 -0.1818912589200E+01  0.7038340368133E+00
-0.5317668733159E+00 -0.3160494568006E+01 -0.1735362873020E+01  0.6609946567356E+00
-0.3587812762627E+00 -0.3166593805543E+01 -0.1656926284246E+01  0.6203074593828E+00
-0.2070452008908E+00 -0.3163969327198E+01 -0.1584376824183E+01  0.5835204880704E+00
-0.7506774137106E-01 -0.3154959594847E+01 -0.1518112844172E+01  0.5516517767690E+00
 0.3870605687531E-01 -0.3141618203182E+01 -0.1458368705065E+01  0.5252303616152E+00
 0.1356762743499E+00 -0.3125799602335E+01 -0.1405357960589E+01  0.5045124045388E+00
 0.2170977416751E+00 -0.3109160780924E+01 -0.1359269624999E+01  0.4895375091213E+00
 0.2840786152751E+00 -0.3093051205292E+01 -0.1320217113959E+01  0.4801432329250E+00
 0.3375595494251E+00 -0.3078523432496E+01 -0.1288253021776E+01  0.4760063084814E+00
 0.3784591943711E+00 -0.3066375014737E+01 -0.1263320432368E+01  0.4765769147287E+00
 0.4087680241692E+00 -0.3056499122349E+01 -0.1244433612988E+01  0.4807779988926E+00
 0.4284562848386E+00 -0.3049696923499E+01 -0.1231983097046E+01  0.4881979528577E+00
 0.4384666040589E+00 -0.3048848958683E+01 -0.1226879703561E+01  0.4990981513439E+00
 0.4672297623011E+00 -0.3033934444788E+01 -0.1206351197709E+01  0.5176351753922E+00
-0.1994570596994E+01 -0.2897471788458E+01 -0.2299259915331E+01  0.9058050862039E+00
-0.1699290798530E+01 -0.2985607393714E+01 -0.2201902144770E+01  0.8875486223964E+00
-0.1411350482418E+01 -0.3061458411112E+01 -0.2102220174627E+01  0.8528654229031E+00
-0.1140101026448E+01 -0.3119441223906E+01 -0.2001984852589E+01  0.8081459822744E+00
-0.8919733016722E+00 -0.3159568001394E+01 -0.1904224407611E+01  0.7583347962008E+00
-0.6690450748403E+00 -0.3182452693323E+01 -0.1810203946445E+01  0.7068807570262E+00
-0.4713423448859E+00 -0.3189081689235E+01 -0.1720399291673E+01  0.6561688452382E+00
-0.2986152621900E+00 -0.3182687397557E+01 -0.1636212245931E+01  0.6089633612315E+00
-0.1493583621734E+00 -0.3166746604379E+01 -0.1558569330326E+01  0.5674250541394E+00
-0.2147928557507E-01 -0.3144226627215E+01 -0.1487881775238E+01  0.5326404580626E+00
 0.8696454181471E-01 -0.3117675231634E+01 -0.1424434020602E+01  0.5050347460181E+00
 0.1776555918039E+00 -0.3089282196033E+01 -0.1368464500517E+01  0.4846854550991E+00
 0.2521439209532E+00 -0.3060879007940E+01 -0.1320105487535E+01  0.4713667783115E+00
 0.3118454428071E+00 -0.3033900832316E+01 -0.1279366029824E+01  0.4645943404905E+00
 0.3580441802904E+00 -0.3009506387366E+01 -0.1246187234165E+01  0.4637188371770E+00
 0.3922989343117E+00 -0.2988586831989E+01 -0.1220255308813E+01  0.4679254160317E+00
 0.4170166041083E+00 -0.2971700983196E+01 -0.1200701655126E+01  0.4762688722024E+00
 0.4296910168184E+00 -0.2961962912392E+01 -0.1190167787901E+01  0.4895122909097E+00
 0.4334630401229E+00 -0.2959818409202E+01 -0.1187387020455E+01  0.5100999427708E+00
 0.4122543317987E+00 -0.2976747483026E+01 -0.1205311778020E+01  0.5399785085169E+00
-0.1995616955139E+01 -0.2949389040575E+01 -0.2324152812091E+01  0.9458323134833E+00
-0.1680976257944E+01 -0.3042564881748E+01 -0.2220064330024E+01  0.9231712865448E+00
-0.1376243871076E+01 -0.3118499355561E+01 -0.2112529311161E+01  0.8796574623388E+00
-0.1092687077754E+01 -0.3173126470716E+01 -0.2004932362696E+01  0.8240829010758E+00
-0.8362559915257E+00 -0.3205948627075E+01 -0.1899836165924E+01  0.7633450782713E+00
-0.6088560681547E+00 -0.3218091588097E+01 -0.1798665393876E+01  0.7017458028707E+00
-0.4099672284021E+00 -0.3211190271049E+01 -0.1701944020425E+01  0.6422314759370E+00
-0.2389915731095E+00 -0.3189587792732E+01 -0.1611432297858E+01  0.5882789972944E+00
-0.9371552089706E-01 -0.3157858807421E+01 -0.1528239930433E+01  0.5423156550825E+00
 0.2866709390890E-01 -0.3119755230392E+01 -0.1452811420462E+01  0.5052945091346E+00
 0.1305722168361E+00 -0.3078336953319E+01 -0.1385449422633E+01  0.4773736808952E+00
 0.2140119673610E+00 -0.3036125980898E+01 -0.1326393582998E+01  0.4583292651794E+00
 0.2808685346985E+00 -0.2995133227022E+01 -0.1275704402157E+01  0.4475987532094E+00
 0.3328302363687E+00 -0.2956925298628E+01 -0.1233324676134E+01  0.4443987300386E+00
 0.3713834940426E+00 -0.2922832533686E+01 -0.1199181045591E+01  0.4479142556081E+00
 0.3981323276121E+00 -0.2894004563668E+01 -0.1173059947971E+01  0.4573769984273E+00
 0.4151212676412E+00 -0.2871140906192E+01 -0.1154329227191E+01  0.4720867654378E+00
 0.4179110454501E+00 -0.2857669259126E+01 -0.1146686357519E+01  0.4936682588259E+00
 0.4018873326062E+00 -0.2859303140545E+01 -0.1154985426802E+01  0.5237593265818E+00
 0.3707120998812E+00 -0.2874718837513E+01 -0.1176883163702E+01  0.5586515042596E+00
-0.1996759664646E+01 -0.3005786706792E+01 -0.2351196788612E+01  0.9864718883526E+00
-0.1660193323141E+01 -0.3104120712035E+01 -0.2239227590853E+01  0.9573765925764E+00
-0.1337801117781E+01 -0.3179661297927E+01 -0.2123207329998E+01  0.9026965001297E+00
-0.1041527883949E+01 -0.3228534762733E+01 -0.2006929438850E+01  0.8341071912035E+00
-0.7774776200257E+00 -0.3251104651177E+01 -0.1893433662663E+01  0.7605875709251E+00
-0.5468157729305E+00 -0.3249201647018E+01 -0.1784128182851E+01  0.6874891259531E+00
-0.3483130836814E+00 -0.3225509623119E+01 -0.1679696667936E+01  0.6185051077492E+00
-0.1808029950182E+00 -0.3185778687609E+01 -0.1582293386821E+01  0.5579032962855E+00
-0.4109261530468E-01 -0.3135819697197E+01 -0.1493148783089E+01  0.5081861828700E+00
 0.7444448767344E-01 -0.3080239029582E+01 -0.1412723431114E+01  0.4699212097271E+00
 0.1687155720962E+00 -0.3022606919184E+01 -0.1341328929729E+01  0.4428169467434E+00
 0.2440524403820E+00 -0.2965735823218E+01 -0.1279191186689E+01  0.4262395239454E+00
 0.3026293637215E+00 -0.2911751227484E+01 -0.1226287272858E+01  0.4192433492789E+00
 0.3462905305930E+00 -0.2862261312458E+01 -0.1182506264477E+01  0.4207631302058E+00
 0.3764998008564E+00 -0.2818631734237E+01 -0.1147802005778E+01  0.4298615033049E+00
 0.3946365188816E+00 -0.2781973168994E+01 -0.1122048222707E+01  0.4457467876534E+00
 0.4025244046807E+00 -0.2752393948870E+01 -0.1104438682968E+01  0.4676362518804E+00
 0.3925510615212E+00 -0.2734749553912E+01 -0.1100833288632E+01  0.4970892409281E+00
 0.3636102351033E+00 -0.2734140778326E+01 -0.1114149352489E+01  0.5339887386006E+00
 0.3240757054382E+00 -0.2753287327560E+01 -0.1141729459502E+01  0.5733057540607E+00
-0.1998060944338E+01 -0.3067722585913E+01 -0.2380918253179E+01  0.1027933854609E+01
-0.1636684409615E+01 -0.3171460908131E+01 -0.2259828293609E+01  0.9899004421417E+00
-0.1295434163627E+01 -0.3245161385193E+01 -0.2134079902533E+01  0.9212396560914E+00
-0.9865572826614E+00 -0.3285613507215E+01 -0.2007920266149E+01  0.8371235435344E+00
-0.7158590930278E+00 -0.3294369319660E+01 -0.1884807349183E+01  0.7489304183152E+00
-0.4834983302564E+00 -0.3274581063367E+01 -0.1766297310523E+01  0.6631604823384E+00
-0.2872491830718E+00 -0.3230475889683E+01 -0.1653330780001E+01  0.5844047031836E+00
-0.1250742123817E+00 -0.3169579143986E+01 -0.1548487073565E+01  0.5176966347748E+00
 0.7478471436499E-02 -0.3099076236157E+01 -0.1453050945733E+01  0.4653148890198E+00
 0.1149152027354E+00 -0.3024426983832E+01 -0.1367470533647E+01  0.4271407756087E+00
 0.2005933973704E+00 -0.2949632652593E+01 -0.1292048446677E+01  0.4022380922005E+00
 0.2671052685329E+00 -0.2877675438663E+01 -0.1226967976849E+01  0.3894515147668E+00
 0.3168443797843E+00 -0.2810635691956E+01 -0.1172081913748E+01  0.3873911882838E+00
 0.3516965796836E+00 -0.2749972110982E+01 -0.1127189496851E+01  0.3946732042290E+00
 0.3729873272206E+00 -0.2696864632879E+01 -0.1092222330889E+01  0.4101664558704E+00
 0.3819074624776E+00 -0.2652101033656E+01 -0.1066990975747E+01  0.4328912145268E+00
 0.3799142859226E+00 -0.2615285015488E+01 -0.1050624240231E+01  0.4616902312302E+00
 0.3583903081744E+00 -0.2591982557072E+01 -0.1049788354319E+01  0.4977931776445E+00
 0.3183493107005E+00 -0.2589852501107E+01 -0.1067606496783E+01  0.5403795411192E+00
 0.2727078980880E+00 -0.2613526941527E+01 -0.1100184947626E+01  0.5841063129250E+00
-0.1999666552556E+01 -0.3136471797033E+01 -0.2413985018184E+01  0.1070486067752E+01
-0.1609955285397E+01 -0.3245646095463E+01 -0.2282132643216E+01  0.1020298534416E+01
-0.1248760938274E+01 -0.3315503708140E+01 -0.2145204378374E+01  0.9343236600963E+00
-0.9277003248763E+00 -0.3344078978929E+01 -0.2007736267696E+01  0.8319013522158E+00
-0.6517825786052E+00 -0.3334769347074E+01 -0.1873679400317E+01  0.7271707016415E+00
-0.4196590198414E+00 -0.3292662867102E+01 -0.1744791282438E+01  0.6278569069741E+00
-0.2278141445695E+00 -0.3224223758224E+01 -0.1622457810198E+01  0.5395265727258E+00
-0.7293936532818E-01 -0.3139143305863E+01 -0.1509678851631E+01  0.4678031262049E+00
 0.5093815259543E-01 -0.3046055970971E+01 -0.1407705371066E+01  0.4143101889726E+00
 0.1491794149851E+00 -0.2951178127033E+01 -0.1316939391322E+01  0.3778939572578E+00
 0.2254933407132E+00 -0.2858760503767E+01 -0.1237635563496E+01  0.3567702922356E+00
 0.2826477734626E+00 -0.2771742933056E+01 -0.1169874722042E+01  0.3491469323755E+00
 0.3231810977925E+00 -0.2691931282986E+01 -0.1113312584217E+01  0.3531168508169E+00
 0.3489422921667E+00 -0.2620413200700E+01 -0.1067591324303E+01  0.3669177593676E+00
 0.3611013673853E+00 -0.2557989198878E+01 -0.1032537278183E+01  0.3891446546810E+00
 0.3606749756174E+00 -0.2505060626790E+01 -0.1007861253495E+01  0.4185266378798E+00
 0.3491250722463E+00 -0.2460602771859E+01 -0.9923945163007E+00  0.4534601180998E+00
 0.3170823637590E+00 -0.2431504886439E+01 -0.9937785831391E+00  0.4950546223197E+00
 0.2679018021035E+00 -0.2427902805795E+01 -0.1015200469160E+01  0.5423922956267E+00
 0.2170244355171E+00 -0.2457061435429E+01 -0.1052817387288E+01  0.5903377099505E+00
-0.2001691754002E+01 -0.3213476438066E+01 -0.2451129044055E+01  0.1114433119475E+01
-0.1579486931240E+01 -0.3327898500665E+01 -0.2306471147145E+01  0.1047948937302E+01
-0.1197407642968E+01 -0.3391142394560E+01 -0.2156618512168E+01  0.9407487248510E+00
-0.8650203085076E+00 -0.3403451278722E+01 -0.2006181640910E+01  0.8170250555860E+00
-0.5857964802815E+00 -0.3370945409876E+01 -0.1859668683657E+01  0.6940496772885E+00
-0.3562517992193E+00 -0.3301479539135E+01 -0.1719133724666E+01  0.5807844016455E+00
-0.1712035965318E+00 -0.3204587033306E+01 -0.1586621592000E+01  0.4837346136865E+00
-0.2559942800636E-01 -0.3092497297903E+01 -0.1465505457460E+01  0.4087249624620E+00
 0.8825470535913E-01 -0.2975242130465E+01 -0.1356884086358E+01  0.3561498487294E+00
 0.1764412304867E+00 -0.2859557582830E+01 -0.1261064682403E+01  0.3234398019244E+00
 0.2428716083189E+00 -0.2749642301509E+01 -0.1178182222811E+01  0.3077691792496E+00
 0.2903951827411E+00 -0.2648098992084E+01 -0.1108120787581E+01  0.3066073570158E+00
 0.3216277795642E+00 -0.2556194628806E+01 -0.1050246416480E+01  0.3174729163880E+00
 0.3383333852596E+00 -0.2474435345746E+01 -0.1003967918882E+01  0.3381877854946E+00
 0.3415241731669E+00 -0.2403120803840E+01 -0.9689504139588E+00  0.3670387257497E+00
 0.3321388749352E+00 -0.2342207620622E+01 -0.9447323080764E+00  0.4024536096020E+00
 0.3116970863326E+00 -0.2290136371943E+01 -0.9298664618785E+00  0.4424721737885E+00
 0.2705235982889E+00 -0.2255126725925E+01 -0.9327634676232E+00  0.4882796620787E+00
 0.2137688243066E+00 -0.2250114412146E+01 -0.9570824238570E+00  0.5393185022278E+00
 0.1584579342246E+00 -0.2285059992896E+01 -0.9995029650405E+00  0.5910193305062E+00
-0.2004281369884E+01 -0.3300472138328E+01 -0.2493234142536E+01  0.1160118834721E+01
-0.1544710460853E+01 -0.3419598240745E+01 -0.2333225083833E+01  0.1072012965039E+01
-0.1141058535765E+01 -0.3472459361781E+01 -0.2168353406347E+01  0.9390348950544E+00
-0.7987301225432E+00 -0.3462925595390E+01 -0.2002978182348E+01  0.7908761177032E+00
-0.5186602757140E+00 -0.3401074145633E+01 -0.1842275173360E+01  0.6482819011916E+00
-0.2944309080746E+00 -0.3298611676679E+01 -0.1688730010551E+01  0.5213399969104E+00
-0.1187411090714E+00 -0.3169117374793E+01 -0.1545293483497E+01  0.4172579876725E+00
 0.1573568399140E-01 -0.3027619756446E+01 -0.1415585510463E+01  0.3413957173347E+00
 0.1184924680035E+00 -0.2885292823272E+01 -0.1300396163678E+01  0.2922101614328E+00
 0.1960764759438E+00 -0.2748967949784E+01 -0.1199858989662E+01  0.2653417396233E+00
 0.2524150904135E+00 -0.2622360244212E+01 -0.1113874219460E+01  0.2567725319365E+00
 0.2903451876686E+00 -0.2507377472803E+01 -0.1042005171370E+01  0.2631756826453E+00
 0.3124989020929E+00 -0.2404479197631E+01 -0.9832307364093E+00  0.2814834798735E+00
 0.3205170574057E+00 -0.2313416714453E+01 -0.9366628364364E+00  0.3091126722391E+00
 0.3152726662262E+00 -0.2233902105385E+01 -0.9017558341174E+00  0.3440631682645E+00
 0.2976664530774E+00 -0.2165442847073E+01 -0.8778549029516E+00  0.3845226496390E+00
 0.2693237720214E+00 -0.2105938997649E+01 -0.8632091538556E+00  0.4283098885532E+00
 0.2205417704024E+00 -0.2064958137483E+01 -0.8668756903292E+00  0.4768456423084E+00
 0.1577908998857E+00 -0.2058350623963E+01 -0.8932630680509E+00  0.5302845750903E+00
 0.9881191082968E-01 -0.2098918228450E+01 -0.9400499668974E+00  0.5850218712409E+00
-0.2007642872488E+01 -0.3399591821548E+01 -0.2541400299751E+01  0.1207919149747E+01
-0.1505026091491E+01 -0.3522329323953E+01 -0.2362857039266E+01  0.1091369817796E+01
-0.1079482599641E+01 -0.3559693678347E+01 -0.2180412845124E+01  0.9273613942190E+00
-0.7292340948195E+00 -0.3521245112076E+01 -0.1997725222174E+01  0.7516196644922E+00
-0.4513652315632E+00 -0.3422741347064E+01 -0.1820830087337E+01  0.5886112329880E+00
-0.2355439502339E+00 -0.3281144267110E+01 -0.1652843457959E+01  0.4492217667574E+00
-0.7182865168776E-01 -0.3115140734215E+01 -0.1497875607575E+01  0.3408041426834E+00
 0.4992013119298E-01 -0.2942577103364E+01 -0.1359548773472E+01  0.2672485280346E+00
 0.1408843922666E+00 -0.2775207260279E+01 -0.1238131744825E+01  0.2242753143385E+00
 0.2076935982597E+00 -0.2619301480493E+01 -0.1133455701775E+01  0.2054293367655E+00
 0.2540848132577E+00 -0.2477537880305E+01 -0.1045022938861E+01  0.2054387625615E+00
 0.2827956877644E+00 -0.2350744120170E+01 -0.9719357607653E+00  0.2201983398536E+00
 0.2964158294586E+00 -0.2238337233904E+01 -0.9127030577744E+00  0.2461074066793E+00
 0.2964344324313E+00 -0.2139190984940E+01 -0.8660955774824E+00  0.2802414172030E+00
 0.2836004610742E+00 -0.2052389961018E+01 -0.8313310628648E+00  0.3203794532094E+00
 0.2588078403230E+00 -0.1976989276713E+01 -0.8075452730552E+00  0.3645639220144E+00
 0.2237769192680E+00 -0.1910349961760E+01 -0.7926893279609E+00  0.4105408438600E+00
 0.1690894790058E+00 -0.1863322777254E+01 -0.7962896481568E+00  0.4600743765973E+00
 0.1020294166010E+00 -0.1854742640093E+01 -0.8237752129520E+00  0.5143409169480E+00
 0.4020649732563E-01 -0.1900276105035E+01 -0.8742327134062E+00  0.5711598749068E+00
-0.2012107268963E+01 -0.3513517341571E+01 -0.2597043560364E+01  0.1258228781073E+01
-0.1459830035211E+01 -0.3637929910273E+01 -0.2395947168301E+01  0.1104520387380E+01
-0.1012576884923E+01 -0.3652844465413E+01 -0.2192748029096E+01  0.9034846978384E+00
-0.6571651576047E+00 -0.3576512893287E+01 -0.1989828678872E+01  0.6971998942523E+00
-0.3851460843303E+00 -0.3432786782257E+01 -0.1794428442745E+01  0.5139019498977E+00
-0.1811024752174E+00 -0.3245643639650E+01 -0.1610570669903E+01  0.3645771694519E+00
-0.3187656741646E-01 -0.3039881589095E+01 -0.1443726329899E+01  0.2556850307341E+00
 0.7595628477621E-01 -0.2835731351127E+01 -0.1297094277895E+01  0.1882665689644E+00
 0.1549030422041E+00 -0.2644534266805E+01 -0.1170126672594E+01  0.1545099879816E+00
 0.2111846867732E+00 -0.2471088966040E+01 -0.1062155008561E+01  0.1457200053466E+00
 0.2481440647063E+00 -0.2316408113415E+01 -0.9720841004276E+00  0.1554526883079E+00
 0.2683451181519E+00 -0.2179890795539E+01 -0.8984264660933E+00  0.1789433013916E+00
 0.2742801989973E+00 -0.2059754774353E+01 -0.8391730482889E+00  0.2121808436515E+00
 0.2672676729944E+00 -0.1953945879402E+01 -0.7927387550010E+00  0.2520058290640E+00
 0.2479536442201E+00 -0.1860924664077E+01 -0.7580963774102E+00  0.2960660997203E+00
 0.2172418115066E+00 -0.1779311452251E+01 -0.7341727292875E+00  0.3423635908384E+00
 0.1769250266739E+00 -0.1705929155134E+01 -0.7186319385536E+00  0.3887105927700E+00
 0.1182246551608E+00 -0.1652803401242E+01 -0.7212520088290E+00  0.4372780728269E+00
 0.4873983047745E-01 -0.1641719997756E+01 -0.7487006767221E+00  0.4905461187399E+00
-0.1498788621958E-01 -0.1691100021484E+01 -0.8018613145869E+00  0.5482591087204E+00
-0.2018234199758E+01 -0.3645707465193E+01 -0.2662052575775E+01  0.1311435239111E+01
-0.1408564759048E+01 -0.3768559023385E+01 -0.2433248171572E+01  0.1109445675902E+01
-0.9404192796733E+00 -0.3751506934042E+01 -0.2205205314853E+01  0.8646286763728E+00
-0.5834152596529E+00 -0.3625914780603E+01 -0.1978385113902E+01  0.6253540208839E+00
-0.3214697480480E+00 -0.3427115648308E+01 -0.1761835131818E+01  0.4232842660038E+00
-0.1327273170804E+00 -0.3188195264830E+01 -0.1560833609539E+01  0.2681987570052E+00
-0.2142785516046E-03 -0.2940697000895E+01 -0.1382228297834E+01  0.1639452051023E+00
 0.9308204673188E-01 -0.2706035881926E+01 -0.1228088299426E+01  0.1069913493913E+00
 0.1603244803579E+00 -0.2493602111599E+01 -0.1096640483902E+01  0.8537189986669E-01
 0.2067651086989E+00 -0.2305606585437E+01 -0.9864554915650E+00  0.8828853866496E-01
 0.2351713462926E+00 -0.2140808367961E+01 -0.8956493979126E+00  0.1084001162289E+00
 0.2478763746263E+00 -0.1996959403645E+01 -0.8220690215535E+00  0.1405067852509E+00
 0.2472322905324E+00 -0.1871041776761E+01 -0.7631904565919E+00  0.1803610401981E+00
 0.2343866903847E+00 -0.1760101530943E+01 -0.7170859732435E+00  0.2246933511234E+00
 0.2099132507498E+00 -0.1662023200240E+01 -0.6824916745292E+00  0.2711122177353E+00
 0.1747382093114E+00 -0.1575031223793E+01 -0.6581377151373E+00  0.3176760343179E+00
 0.1307026410035E+00 -0.1495426765347E+01 -0.6414203368145E+00  0.3623836972574E+00
 0.7008201242693E-01 -0.1436245729287E+01 -0.6420969452955E+00  0.4078349180911E+00
 0.3121650754299E-03 -0.1422058557473E+01 -0.6682208027321E+00  0.4580613036280E+00
-0.6417741019689E-01 -0.1473754773427E+01 -0.7228281244699E+00  0.5152349490439E+00
-0.2027001527374E+01 -0.3800760714304E+01 -0.2739048246642E+01  0.1367869027243E+01
-0.1350807046849E+01 -0.3916781319202E+01 -0.2475766525765E+01  0.1103392189202E+01
-0.8633275601210E+00 -0.3854584831184E+01 -0.2217418818289E+01  0.8073371259088E+00
-0.5091403102278E+00 -0.3665299010190E+01 -0.1961986475620E+01  0.5336664790929E+00
-0.2619873203611E+00 -0.3400492422280E+01 -0.1721365474675E+01  0.3163853381409E+00
-0.9206805673542E-01 -0.3104573906796E+01 -0.1502421719049E+01  0.1617726674110E+00
 0.2200638632320E-01 -0.2815479758404E+01 -0.1312932481548E+01  0.6846257621894E-01
 0.1008497698310E+00 -0.2553414700341E+01 -0.1152705514416E+01  0.2644890688713E-01
 0.1572808755921E+00 -0.2323714824341E+01 -0.1018223953329E+01  0.1943963573043E-01
 0.1950005727796E+00 -0.2124882655040E+01 -0.9070445763616E+00  0.3508523387541E-01
 0.2160538956672E+00 -0.1953077612829E+01 -0.8164011449954E+00  0.6563069573980E-01
 0.2225175464719E+00 -0.1804405011583E+01 -0.7434871067163E+00  0.1057337061367E+00
 0.2165914913192E+00 -0.1674698319831E+01 -0.6853102076625E+00  0.1510927847278E+00
 0.1992837101672E+00 -0.1560190776499E+01 -0.6396263195537E+00  0.1984439865892E+00
 0.1711372240164E+00 -0.1458276264846E+01 -0.6049553476558E+00  0.2454364712354E+00
 0.1331096409307E+00 -0.1366852900768E+01 -0.5798593306530E+00  0.2902661108370E+00
 0.8707009455815E-01 -0.1281743324888E+01 -0.5614964168307E+00  0.3312148494254E+00
 0.2681880021075E-01 -0.1216765629812E+01 -0.5592750084942E+00  0.3712883987020E+00
-0.4079367917105E-01 -0.1198930286006E+01 -0.5826702621555E+00  0.4162636173853E+00
-0.1045740004645E+00 -0.1251100758623E+01 -0.6371671351551E+00  0.4711973754329E+00
-0.2040159736175E+01 -0.3985022997195E+01 -0.2831835877501E+01  0.1427707215698E+01
-0.1286421420471E+01 -0.4085666892255E+01 -0.2524881500577E+01  0.1082533426047E+01
-0.7819054184143E+00 -0.3959762474332E+01 -0.2228583903938E+01  0.7272773221457E+00
-0.4357027510550E+00 -0.3688532079244E+01 -0.1938390365324E+01  0.4197087319211E+00
-0.2084333106875E+00 -0.3346376565836E+01 -0.1670760637728E+01  0.1936936789625E+00
-0.6071586883272E-01 -0.2990683209088E+01 -0.1434157562985E+01  0.4816904439367E-01
 0.3388916829641E-01 -0.2663290609268E+01 -0.1235818674122E+01 -0.2704019335136E-01
 0.9918486828322E-01 -0.2379162567273E+01 -0.1071589515807E+01 -0.5006214639282E-01
 0.1463056939555E+00 -0.2137202985793E+01 -0.9357217247903E+00 -0.4085614070572E-01
 0.1768180319886E+00 -0.1931540729605E+01 -0.8247196657878E+00 -0.1226907181527E-01
 0.1919515033564E+00 -0.1755859079543E+01 -0.7350365589436E+00  0.2814898747047E-01
 0.1935716694841E+00 -0.1604835960819E+01 -0.6632942152450E+00  0.7518009563199E-01
 0.1837783288176E+00 -0.1473289462835E+01 -0.6060702314510E+00  0.1246084484421E+00
 0.1635025207000E+00 -0.1356750349340E+01 -0.5608264780383E+00  0.1732701290961E+00
 0.1333004555420E+00 -0.1252249601448E+01 -0.5259060972421E+00  0.2189250896262E+00
 0.9415964697978E-01 -0.1157481543804E+01 -0.4997612902399E+00  0.2599721993658E+00
 0.4796055343958E-01 -0.1067880614272E+01 -0.4793624273756E+00  0.2950439207097E+00
-0.9454910278559E-02 -0.9977514048783E+00 -0.4733869669230E+00  0.3274719659530E+00
-0.7213567674177E-01 -0.9759657883457E+00 -0.4926076873417E+00  0.3648911312837E+00
-0.1332423601606E+00 -0.1026615896452E+01 -0.5451333792254E+00  0.4155999258256E+00
-0.2060929837836E+01 -0.4207669429325E+01 -0.2946241648093E+01  0.1490781349432E+01
-0.1215824543354E+01 -0.4278876609618E+01 -0.2582509535347E+01  0.1041409911101E+01
-0.6970153929248E+00 -0.4062491653003E+01 -0.2236968305912E+01  0.6189874459744E+00
-0.3644736381133E+00 -0.3686513678765E+01 -0.1903964034104E+01  0.2813607621459E+00
-0.1624817917695E+00 -0.3256988092078E+01 -0.1607150841332E+01  0.5712433123351E-01
-0.4017205638513E-01 -0.2843499230235E+01 -0.1355325501274E+01 -0.6828351131919E-01
 0.3480760671559E-01 -0.2485224761129E+01 -0.1151696059653E+01 -0.1181900489347E+00
 0.8843994439753E-01 -0.2186160207031E+01 -0.9859285209369E+00 -0.1193772136032E+00
 0.1283815476047E+00 -0.1937168998780E+01 -0.8501300998963E+00 -0.9356407245613E-01
 0.1534896218465E+00 -0.1728461000471E+01 -0.7402365460759E+00 -0.5263911367461E-01
 0.1642083646487E+00 -0.1551886934153E+01 -0.6522089260129E+00 -0.3415429144685E-02
 0.1624172980726E+00 -0.1400893794826E+01 -0.5820839519979E+00  0.4912973557957E-01
 0.1502303683740E+00 -0.1269352619682E+01 -0.5259874567807E+00  0.1009520895765E+00
 0.1285721217163E+00 -0.1152220869977E+01 -0.4811149104621E+00  0.1490857334101E+00
 0.9803658077979E-01 -0.1046377808921E+01 -0.4457203760957E+00  0.1914785367212E+00
 0.5962414074608E-01 -0.9495250982786E+00 -0.4182534489795E+00  0.2267837133131E+00
 0.1521319926496E-01 -0.8568717674243E+00 -0.3955795260316E+00  0.2540133525323E+00
-0.3676752893943E-01 -0.7828523818775E+00 -0.3852213571069E+00  0.2766646711133E+00
-0.9141857796084E-01 -0.7573230201694E+00 -0.3989085501094E+00  0.3042324220645E+00
-0.1471943069899E+00 -0.8045435439627E+00 -0.4473167888132E+00  0.3484540653584E+00
-0.2095465689390E+01 -0.4482772760074E+01 -0.3091772063406E+01  0.1556177866198E+01
-0.1140446984129E+01 -0.4500628640540E+01 -0.2651305536870E+01  0.9719474114884E+00
-0.6094701408023E+00 -0.4153918478506E+01 -0.2238792645396E+01  0.4755903931219E+00
-0.2963786946133E+00 -0.3645764002821E+01 -0.1852807063095E+01  0.1175215022646E+00
-0.1256493962150E+00 -0.3124088696033E+01 -0.1527376899483E+01 -0.8914256511065E-01
-0.3206030551443E-01 -0.2662896739487E+01 -0.1266629807938E+01 -0.1817179283433E+00
 0.2438023304596E-01 -0.2285216752334E+01 -0.1062593161370E+01 -0.2005457937694E+00
 0.6949718597937E-01 -0.1978505357109E+01 -0.8972338381551E+00 -0.1790597269410E+00
 0.1050180116963E+00 -0.1726789445738E+01 -0.7622325720663E+00 -0.1374719003092E+00
 0.1265178895554E+00 -0.1518442912811E+01 -0.6542047592708E+00 -0.8537332385237E-01
 0.1342128135034E+00 -0.1343889724422E+01 -0.5685481466895E+00 -0.2873983832254E-01
 0.1304020009002E+00 -0.1195217753038E+01 -0.5004634022354E+00  0.2763774372655E-01
 0.1173352402324E+00 -0.1065323315841E+01 -0.4455543944059E+00  0.7999799455333E-01
 0.9595199451295E-01 -0.9488332397384E+00 -0.4008541842392E+00  0.1257291999229E+00
 0.6687740815258E-01 -0.8428374546911E+00 -0.3647012209481E+00  0.1630616230683E+00
 0.3109606682846E-01 -0.7453754159389E+00 -0.3357112932304E+00  0.1909305859952E+00
-0.9514356670886E-02 -0.6516763613382E+00 -0.3107596366761E+00  0.2087067620980E+00
-0.5340885928473E-01 -0.5759308430252E+00 -0.2957896593354E+00  0.2197819726192E+00
-0.9668929795036E-01 -0.5477382078005E+00 -0.3028809269347E+00  0.2353740642050E+00
-0.1435815405318E+00 -0.5900599673112E+00 -0.3448115078117E+00  0.2706373174982E+00
-0.2156288595474E+01 -0.4833733551110E+01 -0.3285310400562E+01  0.1621333613108E+01
-0.1063390161389E+01 -0.4755010649806E+01 -0.2734648374326E+01  0.8616171987296E+00
-0.5189444801480E+00 -0.4216516005926E+01 -0.2225666422810E+01  0.2886149600250E+00
-0.2309027731479E+00 -0.3546608404362E+01 -0.1775430248926E+01 -0.7032987867075E-01
-0.9990568317509E-01 -0.2941996059488E+01 -0.1429693815425E+01 -0.2375723585791E+00
-0.3865493976211E-01 -0.2454363969758E+01 -0.1171718884502E+01 -0.2852859026181E+00
 0.2491427753572E-02 -0.2069942798055E+01 -0.9717021415771E+00 -0.2707451843017E+00
 0.4423301978382E-01 -0.1759815976406E+01 -0.8063239875675E+00 -0.2279460927221E+00
 0.7809688594764E-01 -0.1508674179884E+01 -0.6723713264447E+00 -0.1720266785299E+00
 0.9742390870595E-01 -0.1304157657467E+01 -0.5671648604790E+00 -0.1101055348322E+00
 0.1032381187693E+00 -0.1134704398843E+01 -0.4847891504049E+00 -0.4770892596326E-01
 0.9877691521757E-01 -0.9904450827924E+00 -0.4190840376972E+00  0.1053553912574E-01
 0.8639635632901E-01 -0.8634200717855E+00 -0.3652011453383E+00  0.6143688405037E-01
 0.6698453070414E-01 -0.7484532611726E+00 -0.3202903025078E+00  0.1029809825351E+00
 0.4116991112326E-01 -0.6434090246670E+00 -0.2830523826476E+00  0.1337622875588E+00
 0.9925979281889E-02 -0.5470674427326E+00 -0.2524564871815E+00  0.1529816689958E+00
-0.2487232758309E-01 -0.4550339938072E+00 -0.2255559704814E+00  0.1602994166731E+00
-0.5808800071327E-01 -0.3809212026622E+00 -0.2063343250631E+00  0.1585944053897E+00
-0.8663880909824E-01 -0.3525055197027E+00 -0.2063978340129E+00  0.1605132883341E+00
-0.1200674116623E+00 -0.3894210187563E+00 -0.2394595616894E+00  0.1843263178386E+00
-0.2270777019293E+01 -0.5303519445088E+01 -0.3559919329230E+01  0.1679849313957E+01
-0.9906742077108E+00 -0.5043470777641E+01 -0.2836048135922E+01  0.6896232010921E+00
-0.4192883317108E+00 -0.4212963540739E+01 -0.2177158374529E+01  0.4861145196534E-01
-0.1659976259089E+00 -0.3364008914423E+01 -0.1659103069748E+01 -0.2747384031325E+00
-0.8954542356728E-01 -0.2714769902745E+01 -0.1318028200024E+01 -0.3764568694156E+00
-0.6458489736356E-01 -0.2232383067506E+01 -0.1079574940750E+01 -0.3732883395540E+00
-0.2850576091225E-01 -0.1843966668954E+01 -0.8800620398052E+00 -0.3279392774705E+00
 0.1520914905599E-01 -0.1531917734313E+01 -0.7128530332625E+00 -0.2658982399711E+00
 0.4958581253226E-01 -0.1284853139529E+01 -0.5805756422158E+00 -0.1968327656463E+00
 0.6746083370705E-01 -0.1088621627677E+01 -0.4799455719487E+00 -0.1265123841330E+00
 0.7235843920396E-01 -0.9274795382311E+00 -0.4019069155234E+00 -0.6042999979071E-01
 0.6871000008438E-01 -0.7890901573446E+00 -0.3385786730536E+00 -0.2655641975233E-02
 0.5862720467767E-01 -0.6654170538171E+00 -0.2851912283722E+00  0.4474685254747E-01
 0.4280740522370E-01 -0.5524242220528E+00 -0.2395199033022E+00  0.8060232184934E-01
 0.2198083437216E-01 -0.4493297086371E+00 -0.2008539703951E+00  0.1038666579269E+00
-0.2937784979821E-02 -0.3561679499382E+00 -0.1687796949834E+00  0.1139398887657E+00
-0.2996609973990E-01 -0.2692294201103E+00 -0.1406218939729E+00  0.1106903065202E+00
-0.5017028101479E-01 -0.2015611958677E+00 -0.1183137938347E+00  0.9594028239112E-01
-0.6100829377588E-01 -0.1772105188285E+00 -0.1119628416401E+00  0.8330799213088E-01
-0.7554543690486E-01 -0.2100097001363E+00 -0.1342109140689E+00  0.9357627596924E-01
-0.2512167881957E+01 -0.5988417701849E+01 -0.3995275214256E+01  0.1714343592243E+01
-0.9240790788626E+00 -0.5345178311524E+01 -0.2946550966008E+01  0.4185985264529E+00
-0.2912146999029E+00 -0.4067169994438E+01 -0.2048440801145E+01 -0.2508473684054E+00
-0.9540321064531E-01 -0.3072422565578E+01 -0.1488878111048E+01 -0.4749654052552E+00
-0.1176574892531E+00 -0.2483279527911E+01 -0.1222440394966E+01 -0.4921620562889E+00
-0.1056486362000E+00 -0.2003830140256E+01 -0.9914550224198E+00 -0.4456793311311E+00
-0.6536849620727E-01 -0.1607606492294E+01 -0.7862982426015E+00 -0.3732183745457E+00
-0.1443522387854E-01 -0.1294545665704E+01 -0.6152210165435E+00 -0.2926490744367E+00
 0.2100316729587E-01 -0.1057995761523E+01 -0.4873865180507E+00 -0.2110516835386E+00
 0.3738955552856E-01 -0.8760007293447E+00 -0.3941472506939E+00 -0.1343428786187E+00
 0.4255030730893E-01 -0.7255548990697E+00 -0.3210121573134E+00 -0.6748708801010E-01
 0.4139418920103E-01 -0.5931009907482E+00 -0.2593021960695E+00 -0.1284784004466E-01
 0.3504677325863E-01 -0.4724337531158E+00 -0.2055718800115E+00  0.2922539710271E-01
 0.2427756677445E-01 -0.3614004940630E+00 -0.1584477754237E+00  0.5842287626280E-01
 0.9890643216456E-02 -0.2612933171875E+00 -0.1181592564667E+00  0.7393538062517E-01
-0.6996854399188E-02 -0.1735135633521E+00 -0.8483989612791E-01  0.7530585062659E-01
-0.2473041516225E-01 -0.9601932800019E-01 -0.5675237914240E-01  0.6257257452193E-01
-0.2986146509215E-01 -0.4076619382475E-01 -0.3319499960675E-01  0.3581525406291E-01
-0.2120460081565E-01 -0.2707639147888E-01 -0.2269206632087E-01  0.9157598592226E-02
-0.1124366421864E-01 -0.5982090419657E-01 -0.3340034707044E-01  0.4957017350289E-02
-0.3072282371397E+01 -0.7118000902954E+01 -0.4789433126797E+01  0.1677180717236E+01
-0.8763168643923E+00 -0.5590469620948E+01 -0.3039389640401E+01 -0.3094170042995E-01
 0.4887346052195E-02 -0.3530671397235E+01 -0.1657118499853E+01 -0.5889148738676E+00
-0.1283458330761E+00 -0.2814445003643E+01 -0.1383111689750E+01 -0.6263533107845E+00
-0.1683826395180E+00 -0.2257149718376E+01 -0.1140000205319E+01 -0.5858272714691E+00
-0.1591035622459E+00 -0.1769009929298E+01 -0.9062133387273E+00 -0.5069560664254E+00
-0.1027303444198E+00 -0.1354978534323E+01 -0.6851231712714E+00 -0.4072567064861E+00
-0.4162853871338E-01 -0.1047409503624E+01 -0.5118478786004E+00 -0.3063635236776E+00
-0.7448775346411E-02 -0.8340758411194E+00 -0.3955165687358E+00 -0.2133060247549E+00
 0.7668668982041E-02 -0.6716850729023E+00 -0.3120877090509E+00 -0.1340659428180E+00
 0.1508230540306E-01 -0.5314331958338E+00 -0.2426849178869E+00 -0.7031490927777E-01
 0.1796592355734E-01 -0.4033792277093E+00 -0.1811442524920E+00 -0.2134230048249E-01
 0.1643669895731E-01 -0.2847373807679E+00 -0.1261013201311E+00  0.1417899927248E-01
 0.1147683044224E-01 -0.1757817145262E+00 -0.7722329532357E-01  0.3641292845179E-01
 0.5394691553457E-02 -0.7874071465762E-01 -0.3447263077152E-01  0.4482924466660E-01
-0.2861921697233E-02  0.3446377482802E-03 -0.1183123453007E-02  0.3914132141440E-01
-0.9725027431160E-02  0.6408435095225E-01  0.2554888199011E-01  0.1938447574948E-01
 0.8052149170093E-03  0.9913483937201E-01  0.4697182539670E-01 -0.1681162218845E-01
 0.2982161428663E-01  0.9526678132758E-01  0.5879154578956E-01 -0.5510849517855E-01
 0.6721929052969E-01  0.5399004953944E-01  0.5696838968800E-01 -0.7210605847890E-01
-0.5586246627996E+01 -0.1031726783233E+02 -0.7474651777392E+01  0.1241848771430E+01
 0.3424707414090E+00 -0.4097976759519E+01 -0.1765087824035E+01 -0.7964330249439E+00
-0.8071802015145E-01 -0.3194054500219E+01 -0.1539143080670E+01 -0.7950981502455E+00
-0.1808840691062E+00 -0.2577059456916E+01 -0.1296233453943E+01 -0.7307519052870E+00
-0.2455881580457E+00 -0.2047583544616E+01 -0.1077790697517E+01 -0.6695553764450E+00
-0.2185223351079E+00 -0.1516605186392E+01 -0.8155099330363E+00 -0.5621649727954E+00
-0.1309949372206E+00 -0.1072172593288E+01 -0.5654887379047E+00 -0.4273055010210E+00
-0.6683695887765E-01 -0.7988610164384E+00 -0.4068780473666E+00 -0.3025567426799E+00
-0.3696711092373E-01 -0.6237732727641E+00 -0.3105479795456E+00 -0.2032209736651E+00
-0.2022422405916E-01 -0.4795304577951E+00 -0.2348846998757E+00 -0.1279296245791E+00
-0.8670357924560E-02 -0.3458053004621E+00 -0.1666035590192E+00 -0.7115554038113E-01
-0.5173953629440E-03 -0.2193572470910E+00 -0.1033410816913E+00 -0.2944700853113E-01
 0.2836349453969E-02 -0.1023247640104E+00 -0.4675955472290E-01 -0.7958744972556E-03
 0.4315252955237E-02  0.4617813759402E-02  0.4198541345231E-02  0.1478241614203E-01
 0.6458222221573E-02  0.9772990491221E-01  0.4896841962868E-01  0.1718364772562E-01
 0.1270696058180E-01  0.1719090184335E+00  0.8676950991712E-01  0.8206532514482E-02
 0.8568433031449E-02  0.2049180413956E+00  0.1003386427262E+00 -0.1401224020319E-01
 0.3955120003411E-01  0.2172938093089E+00  0.1207171540850E+00 -0.5777226441044E-01
 0.8823933782044E-01  0.1936451364733E+00  0.1324857025820E+00 -0.1033934141210E+00
 0.1483008967905E+00  0.1311701134063E+00  0.1313513744594E+00 -0.1266385822812E+00
-0.8030805166544E-01 -0.1498704925956E+01 -0.7421360975998E+00 -0.1892055289491E+00
-0.6005457148165E-01 -0.1295934615698E+01 -0.6373149163579E+00 -0.1880315935029E+00
-0.8532605332302E-01 -0.1149011368090E+01 -0.5801385865926E+00 -0.1842391901892E+00
-0.1078591508348E+00 -0.1004289513386E+01 -0.5227098708582E+00 -0.1734291520768E+00
-0.1278045295658E+00 -0.8631070279801E+00 -0.4657284308653E+00 -0.1551397377064E+00
-0.1418855004425E+00 -0.7264938923874E+00 -0.4081383135949E+00 -0.1299306843631E+00
-0.1486657337616E+00 -0.5969424638736E+00 -0.3504358519997E+00 -0.9880577916626E-01
-0.1471024367995E+00 -0.4767624499619E+00 -0.2932164960341E+00 -0.6320030395700E-01
-0.1367854430880E+00 -0.3680353061242E+00 -0.2372657515279E+00 -0.2494416183243E-01
-0.1179697153171E+00 -0.2724333060844E+00 -0.1834894195933E+00  0.1380697511838E-01
-0.9166100984794E-01 -0.1911025503573E+00 -0.1328988729594E+00  0.5069041537989E-01
-0.5963968426705E-01 -0.1245455993796E+00 -0.8656708309438E-01  0.8330562569471E-01
-0.2439909823498E-01 -0.7252758445329E-01 -0.4555554074794E-01  0.1094329785657E+00
 0.1104085839829E-01 -0.3402892600189E-01 -0.1080439174629E-01  0.1272903038914E+00
 0.4346982069851E-01 -0.7288163444030E-02  0.1700537886647E-01  0.1357942970265E+00
 0.6995833094912E-01  0.1000506943616E-01  0.3758279808576E-01  0.1347609747654E+00
 0.8840832929119E-01  0.2034390692807E-01  0.5111355089341E-01  0.1249526881087E+00
 0.9796372009247E-01  0.2583820830296E-01  0.5818690619827E-01  0.1078851360645E+00
 0.9946971727224E-01  0.2791962894170E-01  0.5987299256869E-01  0.8543864673295E-01
 0.9308020587963E-01  0.2511156219644E-01  0.5555013085486E-01  0.5893187982424E-01
-0.3888544345240E-01 -0.1558312505892E+01 -0.7506830342877E+00 -0.2106594625454E+00
-0.5766421681199E-01 -0.1416622257766E+01 -0.6929146412944E+00 -0.2111269743670E+00
-0.7505308527198E-01 -0.1256105236283E+01 -0.6256444095439E+00 -0.2077676994314E+00
-0.1006046497944E+00 -0.1106960296772E+01 -0.5675555234466E+00 -0.2004180976486E+00
-0.1229113252713E+00 -0.9608493672035E+00 -0.5093675241712E+00 -0.1855758829116E+00
-0.1400703809689E+00 -0.8188294194556E+00 -0.4506829050564E+00 -0.1629437961350E+00
-0.1499165040147E+00 -0.6825123287203E+00 -0.3912415503931E+00 -0.1331189117949E+00
-0.1510776618641E+00 -0.5542902950514E+00 -0.3315229389094E+00 -0.9737641663606E-01
-0.1426688309045E+00 -0.4365445666270E+00 -0.2722302961493E+00 -0.5752290161359E-01
-0.1244777350014E+00 -0.3314192753433E+00 -0.2142715943185E+00 -0.1582807738412E-01
-0.9709371499723E-01 -0.2406049032706E+00 -0.1587183501833E+00  0.2508483436624E-01
-0.6202405807352E-01 -0.1651667143027E+00 -0.1067796627460E+00  0.6240948664882E-01
-0.2172884265799E-01 -0.1053900145122E+00 -0.5974586271847E-01  0.9340094259909E-01
 0.2047995712237E-01 -0.6065833309026E-01 -0.1888383665701E-01  0.1156932462510E+00
 0.6074062540734E-01 -0.2940114430578E-01  0.1472955608038E-01  0.1276655612670E+00
 0.9519237205582E-01 -0.9177778906502E-02  0.4042685867764E-01  0.1287874881851E+00
 0.1207159447791E+00  0.2994910333437E-02  0.5814410175544E-01  0.1198111438220E+00
 0.1357577039386E+00  0.1010561625875E-01  0.6855576031885E-01  0.1026579852687E+00
 0.1405714416080E+00  0.1421577919725E-01  0.7274999359393E-01  0.7991291006284E-01
 0.1391495112632E+00  0.1721919361520E-01  0.7349329110646E-01  0.5412490622326E-01
-0.1959897617979E-01 -0.1642561743653E+01 -0.7812155363400E+00 -0.2239247034387E+00
-0.3945969526781E-01 -0.1513105121658E+01 -0.7297054621045E+00 -0.2333515768583E+00
-0.6408570790620E-01 -0.1368719726317E+01 -0.6734185523766E+00 -0.2341191291292E+00
-0.8988897556649E-01 -0.1218837588068E+01 -0.6151014833479E+00 -0.2299095268971E+00
-0.1149501560576E+00 -0.1070543875026E+01 -0.5571821931960E+00 -0.2189061385386E+00
-0.1352585590062E+00 -0.9242791780044E+00 -0.4979827351319E+00 -0.1998534272525E+00
-0.1486539546180E+00 -0.7819545095798E+00 -0.4373859770636E+00 -0.1727192596317E+00
-0.1532682717222E+00 -0.6458710358470E+00 -0.3755954736049E+00 -0.1383303058587E+00
-0.1477471757018E+00 -0.5186437608522E+00 -0.3132037393860E+00 -0.9823498167030E-01
-0.1313160934762E+00 -0.4028355569102E+00 -0.2510512750449E+00 -0.5461581575177E-01
-0.1039898471155E+00 -0.3007104935292E+00 -0.1902091596205E+00 -0.1019757692537E-01
-0.6677634771022E-01 -0.2139988747972E+00 -0.1319643542438E+00  0.3190467488773E-01
-0.2184296427567E-01 -0.1436830973988E+00 -0.7779724878969E-01  0.6842758282191E-01
 0.2743192676619E-01 -0.8980281885943E-01 -0.2931431920947E-01  0.9631124296791E-01
 0.7662796525201E-01 -0.5130044249524E-01  0.1190393566549E-01  0.1131607592495E+00
 0.1207944732443E+00 -0.2596722143822E-01  0.4456880823582E-01  0.1177697704512E+00
 0.1553829426832E+00 -0.1059775930826E-01  0.6804903601360E-01  0.1105616616799E+00
 0.1773719519942E+00 -0.1559207918114E-02  0.8263198950616E-01  0.9368472617821E-01
 0.1864373592006E+00  0.4497916787905E-02  0.8973957948697E-01  0.7053955085341E-01
 0.1849918887416E+00  0.9556172502194E-02  0.9143758855267E-01  0.4506217447236E-01
 0.1513207732735E-03 -0.1733620381657E+01 -0.8147304565489E+00 -0.2338897036178E+00
-0.2256308281262E-01 -0.1614525263566E+01 -0.7694315208465E+00 -0.2516236287325E+00
-0.4857702796649E-01 -0.1480459100053E+01 -0.7186469783463E+00 -0.2592244000032E+00
-0.7678271105891E-01 -0.1337797709480E+01 -0.6648527959670E+00 -0.2600993570755E+00
-0.1038641547521E+00 -0.1190899741726E+01 -0.6085390298012E+00 -0.2538966664612E+00
-0.1272839485093E+00 -0.1043081682924E+01 -0.5500718453785E+00 -0.2395822931026E+00
-0.1443777757682E+00 -0.8964484871817E+00 -0.4891883423457E+00 -0.2166284335801E+00
-0.1529930249640E+00 -0.7534971080653E+00 -0.4260503614432E+00 -0.1853201759691E+00
-0.1512865592246E+00 -0.6169996281040E+00 -0.3610945071286E+00 -0.1467377864663E+00
-0.1378932082460E+00 -0.4898790377412E+00 -0.2950529548656E+00 -0.1027373289009E+00
-0.1121315770056E+00 -0.3749563532816E+00 -0.2289313266543E+00 -0.5590785526835E-01
-0.7428547047378E-01 -0.2746911994980E+00 -0.1640190344707E+00 -0.9473590412524E-02
-0.2590120755379E-01 -0.1909123904719E+00 -0.1019023908136E+00  0.3290151482576E-01
 0.2996136611416E-01 -0.1245520015526E+00 -0.4445759854330E-01  0.6744721260733E-01
 0.8864613780032E-01 -0.7539586028649E-01  0.6227630415702E-02  0.9079358710507E-01
 0.1441932885635E+00 -0.4187822857211E-01  0.4808807807399E-01  0.1006562326060E+00
 0.1902457549388E+00 -0.2102333144291E-01  0.7953453884132E-01  0.9660288457107E-01
 0.2216634727756E+00 -0.8724114544935E-02  0.1000814981146E+00  0.8057973097269E-01
 0.2360940876783E+00 -0.7666213396975E-03  0.1106039088986E+00  0.5667840180784E-01
 0.2345144516124E+00  0.5876134143922E-02  0.1129835750189E+00  0.2997487438731E-01
 0.2115204699762E-01 -0.1829420394621E+01 -0.8498861212274E+00 -0.2410807961190E+00
-0.3738709859804E-02 -0.1719670221959E+01 -0.8100021959004E+00 -0.2660662519928E+00
-0.3116667738726E-01 -0.1596228646090E+01 -0.7648758000941E+00 -0.2809942969970E+00
-0.6059856543446E-01 -0.1462205264569E+01 -0.7157177982865E+00 -0.2884111113930E+00
-0.8971073364117E-01 -0.1320904767079E+01 -0.6629892836571E+00 -0.2884030064770E+00
-0.1158890570205E+00 -0.1175043995176E+01 -0.6067385329935E+00 -0.2802085503782E+00
-0.1366700934761E+00 -0.1027124187210E+01 -0.5469833105352E+00 -0.2631087548555E+00
-0.1496389694097E+00 -0.8796245053192E+00 -0.4837538318956E+00 -0.2368916481495E+00
-0.1525866580333E+00 -0.7353559297522E+00 -0.4173330152007E+00 -0.2020550476143E+00
-0.1435928388917E+00 -0.5974165914107E+00 -0.3482744313587E+00 -0.1598995687573E+00
-0.1212433460273E+00 -0.4690449922265E+00 -0.2774355182756E+00 -0.1125817534994E+00
-0.8493169500806E-01 -0.3533804134487E+00 -0.2060066904522E+00 -0.6311343286984E-01
-0.3524730649298E-01 -0.2531737611906E+00 -0.1355579014674E+00 -0.1527090749579E-01
 0.2558588974742E-01 -0.1704649181109E+00 -0.6809314315810E-01  0.2663981186976E-01
 0.9330805273692E-01 -0.1062449770077E+00 -0.6080354391847E-02  0.5823022589879E-01
 0.1614665769514E+00 -0.6012148397953E-01  0.4763219357597E-01  0.7576453775978E-01
 0.2219371125268E+00 -0.3000221139256E-01  0.9020940330430E-01  0.7721311459874E-01
 0.2666266763649E+00 -0.1197600523482E-01  0.1196858151276E+00  0.6341613814391E-01
 0.2902551107156E+00 -0.8311323623960E-03  0.1360292694810E+00  0.3858618237328E-01
 0.2919459727277E+00  0.8002841090365E-02  0.1409759421369E+00  0.9053356166816E-02
 0.4395761420433E-01 -0.1928251834340E+01 -0.8856182812174E+00 -0.2455073773859E+00
 0.1733726950086E-01 -0.1827988414754E+01 -0.8510060361107E+00 -0.2764360052181E+00
-0.1112074013749E-01 -0.1715370342948E+01 -0.8114508069921E+00 -0.2983392807804E+00
-0.4150509002385E-01 -0.1591664768843E+01 -0.7675898317204E+00 -0.3128037331790E+00
-0.7211597724339E-01 -0.1458759100027E+01 -0.7195112844923E+00 -0.3199468068547E+00
-0.1007548055397E+00 -0.1318651443204E+01 -0.6671209352173E+00 -0.3191132509451E+00
-0.1250414256185E+00 -0.1173344387927E+01 -0.6102413308187E+00 -0.3094725559654E+00
-0.1425468932153E+00 -0.1025033398142E+01 -0.5487627355461E+00 -0.2904267955874E+00
-0.1508265312730E+00 -0.8762393541462E+00 -0.4827209649227E+00 -0.2618800223841E+00
-0.1475329675231E+00 -0.7299006473833E+00 -0.4123937979600E+00 -0.2244303666628E+00
-0.1305821215787E+00 -0.5893206832076E+00 -0.3383543173913E+00 -0.1795213831186E+00
-0.9842898885827E-01 -0.4580170596850E+00 -0.2615296421520E+00 -0.1295591949232E+00
-0.5046623342834E-01 -0.3394779105700E+00 -0.1832737472144E+00 -0.7796900266066E-01
 0.1243640600692E-01 -0.2368409602904E+00 -0.1054701402457E+00 -0.2913934852331E-01
 0.8726398131662E-01 -0.1525120524922E+00 -0.3066659337475E-01  0.1182956347086E-01
 0.1681598080080E+00 -0.8774585206560E-01  0.3779455919706E-01  0.3970158129000E-01
 0.2460554645487E+00 -0.4219508811987E-01  0.9581437667851E-01  0.5018268803261E-01
 0.3096419846624E+00 -0.1333124224883E-01  0.1392660485811E+00  0.4163339742221E-01
 0.3488609596249E+00  0.3948822411294E-02  0.1658205971364E+00  0.1692529558763E-01
 0.3600351609268E+00  0.1651844643306E-01  0.1769801950102E+00 -0.1650949093851E-01
 0.6828544422550E-01 -0.2029262205516E+01 -0.9216590754689E+00 -0.2471041936464E+00
 0.4063098992179E-01 -0.1938755968722E+01 -0.8921187377736E+00 -0.2826223143019E+00
 0.1150399217185E-01 -0.1837387263835E+01 -0.8581651355052E+00 -0.3106267068476E+00
-0.1944108341364E-01 -0.1725201378042E+01 -0.8199819548044E+00 -0.3319118479343E+00
-0.5109338145978E-01 -0.1603020989394E+01 -0.7774337523294E+00 -0.3464643917436E+00
-0.8166904132637E-01 -0.1471964547941E+01 -0.7302077851034E+00 -0.3536639849738E+00
-0.1090573949428E+00 -0.1333344711230E+01 -0.6779289881818E+00 -0.3526197778731E+00
-0.1309305779031E+00 -0.1188714900850E+01 -0.6202333734408E+00 -0.3424673336743E+00
-0.1448014056346E+00 -0.1039992616878E+01 -0.5568531891685E+00 -0.3226125216880E+00
-0.1480798148828E+00 -0.8895565514266E+00 -0.4876890909285E+00 -0.2929457041745E+00
-0.1381877204401E+00 -0.7402952172271E+00 -0.4128869796563E+00 -0.2540470288304E+00
-0.1127573648822E+00 -0.5955726583901E+00 -0.3329151100936E+00 -0.2073906793071E+00
-0.6995842666022E-01 -0.4591043280468E+00 -0.2486594940816E+00 -0.1555383177766E+00
-0.9004212699527E-02 -0.3347324125642E+00 -0.1615562134642E+00 -0.1022880900838E+00
 0.6909617612151E-01 -0.2260995126124E+00 -0.7379156796354E-01 -0.5271151478396E-01
 0.1604813114451E+00 -0.1362318370100E+00  0.1139725295556E-01 -0.1295013024936E-01
 0.2571042503749E+00 -0.6707302516631E-01  0.8931467562148E-01  0.1046654547477E-01
 0.3457082578319E+00 -0.1890823307081E-01  0.1535960112481E+00  0.1222881904479E-01
 0.4099255235717E+00  0.1101954256814E-01  0.1978441805839E+00 -0.8700140220913E-02
 0.4382700690477E+00  0.2986254978764E-01  0.2200223302946E+00 -0.4585646534795E-01
 0.9383552287279E-01 -0.2131574834368E+01 -0.9577374739734E+00 -0.2457691406824E+00
 0.6585988625016E-01 -0.2051152938574E+01 -0.9330877322257E+00 -0.2845532954776E+00
 0.3655827196700E-01 -0.1961378208207E+01 -0.9046653677384E+00 -0.3174915978823E+00
 0.5486305064139E-02 -0.1861616024714E+01 -0.8723809660229E+00 -0.3448122556751E+00
-0.2667255048094E-01 -0.1751922023621E+01 -0.8359394477078E+00 -0.3663570948475E+00
-0.5856409473537E-01 -0.1632692101780E+01 -0.7948904103459E+00 -0.3815354258714E+00
-0.8841534128043E-01 -0.1504536823682E+01 -0.7486875156336E+00 -0.3894727213199E+00
-0.1141420462079E+00 -0.1368293326268E+01 -0.6967446232965E+00 -0.3891892741808E+00
-0.1333836434234E+00 -0.1225100468361E+01 -0.6384875309192E+00 -0.3797753605202E+00
-0.1435272985700E+00 -0.1076501370534E+01 -0.5734134730244E+00 -0.3605680259360E+00
-0.1417529340440E+00 -0.9245365066307E+00 -0.5011560358460E+00 -0.3313435098790E+00
-0.1251350355178E+00 -0.7718078299144E+00 -0.4215631456839E+00 -0.2925383675091E+00
-0.9083976616063E-01 -0.6214918058431E+00 -0.3347958379926E+00 -0.2455060557917E+00
-0.3647847932356E-01 -0.4772815183302E+00 -0.2414671982848E+00 -0.1928046720331E+00
 0.3928560604635E-01 -0.3432357804238E+00 -0.1428565815950E+00 -0.1384911551104E+00
 0.1357077653688E+00 -0.2235279430346E+00 -0.4127548339825E-01 -0.8835599188060E-01
 0.2482594710514E+00 -0.1221032714111E+00  0.5929341368052E-01 -0.4993415506338E-01
 0.3657835195748E+00 -0.4244913606606E-01  0.1519671598637E+00 -0.3189096857213E-01
 0.4672625156729E+00  0.1279355573534E-01  0.2256263529896E+00 -0.4159742294767E-01
 0.5273460522536E+00  0.4596624809690E-01  0.2694567804813E+00 -0.7892369922892E-01
 0.1202502542492E+00 -0.2234372681709E+01 -0.9936375383858E+00 -0.2414201611718E+00
 0.9265950041718E-01 -0.2164289416871E+01 -0.9736660582635E+00 -0.2822358463145E+00
 0.6373612043336E-01 -0.2086325770718E+01 -0.9506171332225E+00 -0.3188124305577E+00
 0.3303921800579E-01 -0.1999533405355E+01 -0.9242522657097E+00 -0.3510182553127E+00
 0.9517615670394E-03 -0.1903510504445E+01 -0.8942026068844E+00 -0.3785893689041E+00
-0.3154811720355E-01 -0.1798152125476E+01 -0.8599591118782E+00 -0.4009871987000E+00
-0.6305466321780E-01 -0.1683537190976E+01 -0.8208981693889E+00 -0.4174290375975E+00
-0.9181015858046E-01 -0.1559905722666E+01 -0.7763064622170E+00 -0.4269720990789E+00
-0.1157234985636E+00 -0.1427694623288E+01 -0.7254065154306E+00 -0.4286143297174E+00
-0.1323613715185E+00 -0.1287605702376E+01 -0.6673845230376E+00 -0.4214081035015E+00
-0.1389374510752E+00 -0.1140690143660E+01 -0.6014249680001E+00 -0.4045954769136E+00
-0.1323206779219E+00 -0.9884352100822E+00 -0.5267552660259E+00 -0.3777791043408E+00
-0.1090903341133E+00 -0.8328420641622E+00 -0.4427082260666E+00 -0.3411457100687E+00
-0.6567991325048E-01 -0.6764809066916E+00 -0.3488155844881E+00 -0.2957605641447E+00
 0.1312618138134E-02 -0.5225079666643E+00 -0.2449618131860E+00 -0.2439516498678E+00
 0.9450198541356E-01 -0.3746246203456E+00 -0.1316576380841E+00 -0.1897977799817E+00
 0.2144301140800E+00 -0.2370081587492E+00 -0.1061168096758E-01 -0.1397146375250E+00
 0.3569788956826E+00 -0.1142423864396E+00  0.1140861590548E+00 -0.1030419788292E+00
 0.5065324579196E+00 -0.1265220488017E-01  0.2321237183398E+00 -0.9219902181363E-01
 0.6245739327759E+00  0.5756982591780E-01  0.3206075657729E+00 -0.1190997705430E+00
 0.1471464667793E+00 -0.2336909794950E+01 -0.1029188761630E+01 -0.2340205870545E+00
 0.1205844784385E+00 -0.2277344699237E+01 -0.1013677301204E+01 -0.2757704689244E+00
 0.9259359073944E-01 -0.2211276256703E+01 -0.9957808504773E+00 -0.3146997698063E+00
 0.6278048163112E-01 -0.2137692524978E+01 -0.9752086578996E+00 -0.3504690502337E+00
 0.3134068927064E-01 -0.2055974965418E+01 -0.9515781073757E+00 -0.3827524841428E+00
-0.1049578627617E-02 -0.1965742672498E+01 -0.9243923556843E+00 -0.4110770812523E+00
-0.3332705560842E-01 -0.1866758166461E+01 -0.8930400521078E+00 -0.4347919447816E+00
-0.6408697813109E-01 -0.1758890050057E+01 -0.8567992010754E+00 -0.4530916603072E+00
-0.9158523343870E-01 -0.1642115142875E+01 -0.8148391748005E+00 -0.4650617739639E+00
-0.1137105862962E+00 -0.1516546861090E+01 -0.7662209983280E+00 -0.4697376309080E+00
-0.1279379408974E+00 -0.1382479133507E+01 -0.7098960231694E+00 -0.4661792735286E+00
-0.1312722667130E+00 -0.1240438167642E+01 -0.6447039025117E+00 -0.4535718442901E+00
-0.1201929101154E+00 -0.1091234584643E+01 -0.5693709210925E+00 -0.4313666640038E+00
-0.9061327698287E-01 -0.9360073860438E+00 -0.4825117103987E+00 -0.3994852006734E+00
-0.3788272423859E-01 -0.7762455527321E+00 -0.3826402892057E+00 -0.3586189695534E+00
 0.4310564723961E-01 -0.6137684756863E+00 -0.2682115286897E+00 -0.3106772809798E+00
 0.1575785027480E+00 -0.4506136007317E+00 -0.1377264957030E+00 -0.2594711603876E+00
 0.3097966689407E+00 -0.2889031273764E+00  0.9819964510309E-02 -0.2117987112979E+00
 0.5005888115882E+00 -0.1302310139399E+00  0.1740681644532E+00 -0.1792975203635E+00
 0.7089745905422E+00  0.1731499168044E-01  0.3413561027788E+00 -0.1819668237740E+00
 0.1741499023555E+00 -0.2438509619322E+01 -0.1064249064275E+01 -0.2235684614418E+00
 0.1491946561921E+00 -0.2389556303638E+01 -0.1052969971629E+01 -0.2653275614951E+00
 0.1226340236155E+00 -0.2335365647687E+01 -0.1039983860676E+01 -0.3054334212868E+00
 0.9416516910812E-01 -0.2274995368787E+01 -0.1024990191250E+01 -0.3434386056723E+00
 0.6388087969422E-01 -0.2207775496228E+01 -0.1007630467215E+01 -0.3789864847061E+00
 0.3223635486891E-01 -0.2133217801852E+01 -0.9874612775775E+00 -0.4116627775882E+00
 0.7676744855800E-05 -0.2050948909180E+01 -0.9639423767997E+00 -0.4409411914014E+00
-0.3172791272967E-01 -0.1960674266840E+01 -0.9364290220227E+00 -0.4661753321874E+00
-0.6158328521802E-01 -0.1862167455070E+01 -0.9041628456422E+00 -0.4866124656472E+00
-0.8782576302928E-01 -0.1755277285625E+01 -0.8662584306705E+00 -0.5014193490075E+00
-0.1083168131899E+00 -0.1639946256185E+01 -0.8216836405220E+00 -0.5097187580288E+00
-0.1204271781750E+00 -0.1516234535942E+01 -0.7692310036840E+00 -0.5106407654300E+00
-0.1209247197710E+00 -0.1384343686303E+01 -0.7074761490602E+00 -0.5033976463787E+00
-0.1058281818882E+00 -0.1244632208159E+01 -0.6347163817122E+00 -0.4873974162186E+00
-0.7021492814702E-01 -0.1097610391987E+01 -0.5488778990710E+00 -0.4624209335382E+00
-0.7956031478569E-02 -0.9438863953565E+00 -0.4473659394778E+00 -0.4289061396154E+00
 0.8865756945014E-01 -0.7840191596159E+00 -0.3268199465490E+00 -0.3884215778499E+00
 0.2296052008077E+00 -0.6180657173147E+00 -0.1825764422952E+00 -0.3445095459292E+00
 0.4281112603194E+00 -0.4447633999217E+00 -0.7826505593262E-02 -0.3043319719996E+00
 0.7082473150961E+00 -0.2546050176820E+00  0.2132118792439E+00 -0.2831772916842E+00
 0.2008807490749E+00 -0.2538539281029E+01 -0.1098699507232E+01 -0.2100947453806E+00
 0.1779501277091E+00 -0.2500253778108E+01 -0.1091482712919E+01 -0.2511158042939E+00
 0.1531765108023E+00 -0.2457890187056E+01 -0.1083215425092E+01 -0.2913813316066E+00
 0.1263703231128E+00 -0.2410638289547E+01 -0.1073605941501E+01 -0.3304023739269E+00
 0.9757809446765E-01 -0.2357870417694E+01 -0.1062337389222E+01 -0.3678093219646E+00
 0.6710279812229E-01 -0.2299093417916E+01 -0.1049035588642E+01 -0.4032270709346E+00
 0.3549702177355E-01 -0.2233907590576E+01 -0.1033252964716E+01 -0.4362164131517E+00
 0.3561864171953E-02 -0.2161980856018E+01 -0.1014456923595E+01 -0.4662515672479E+00
-0.2763743005026E-01 -0.2083038824156E+01 -0.9920178369608E+00 -0.4927167053837E+00
-0.5673519662092E-01 -0.1996868224153E+01 -0.9651936053156E+00 -0.5149129245693E+00
-0.8200586488693E-01 -0.1903330753461E+01 -0.9331082082566E+00 -0.5320725677459E+00
-0.1012770476168E+00 -0.1802384837699E+01 -0.8947210838291E+00 -0.5433814347393E+00
-0.1118071032070E+00 -0.1694113002058E+01 -0.8487824473216E+00 -0.5480123805080E+00
-0.1101124707618E+00 -0.1578752252419E+01 -0.7937664178818E+00 -0.5451770544138E+00
-0.9171735286823E-01 -0.1456722495769E+01 -0.7277667270135E+00 -0.5342071630689E+00
-0.5077532836139E-01 -0.1328644000922E+01 -0.6483270831187E+00 -0.5146840140976E+00
 0.2055499497875E-01 -0.1195309988074E+01 -0.5521348453543E+00 -0.4866483834695E+00
 0.1332152346038E+00 -0.1057566534712E+01 -0.4344451099488E+00 -0.4509402864682E+00
 0.3038197802214E+00 -0.9156510779680E+00 -0.2875607092116E+00 -0.4097742464701E+00
 0.5619553050159E+00 -0.7670449094447E+00 -0.9639211383706E-01 -0.3671316123473E+00
 0.2270325259723E+00 -0.2636315932398E+01 -0.1132363198148E+01 -0.1936378425466E+00
 0.2063523868917E+00 -0.2608666655852E+01 -0.1129087703548E+01 -0.2333017834240E+00
 0.1835716437845E+00 -0.2577993319699E+01 -0.1125378184826E+01 -0.2728487100517E+00
 0.1585954050863E+00 -0.2543648746214E+01 -0.1120975067487E+01 -0.3117939940558E+00
 0.1314515519516E+00 -0.2505095693793E+01 -0.1115612743836E+01 -0.3497666846431E+00
 0.1023360750622E+00 -0.2461891710584E+01 -0.1108991145883E+01 -0.3864127841450E+00
 0.7162713766326E-01 -0.2413667978305E+01 -0.1100759192310E+01 -0.4213408579316E+00
 0.3989526229128E-01 -0.2360114037972E+01 -0.1090502821804E+01 -0.4540933382473E+00
 0.7921677129010E-02 -0.2300971763728E+01 -0.1077733537968E+01 -0.4841321573996E+00
-0.2326954075767E-01 -0.2236038960468E+01 -0.1061874992883E+01 -0.5108318270082E+00
-0.5236152507177E-01 -0.2165182084357E+01 -0.1042245493788E+01 -0.5334761107279E+00
-0.7767204877028E-01 -0.2088357751193E+01 -0.1018034003400E+01 -0.5512563215902E+00
-0.9705077729464E-01 -0.2005643320725E+01 -0.9882662235626E+00 -0.5632703334687E+00
-0.1077337459464E+00 -0.1917277612002E+01 -0.9517553358215E+00 -0.5685217966307E+00
-0.1061340328337E+00 -0.1823714058964E+01 -0.9070286008442E+00 -0.5659185807831E+00
-0.8753153336844E-01 -0.1725689464515E+01 -0.8522138668435E+00 -0.5542671902052E+00
-0.4560087769003E-01 -0.1624318524009E+01 -0.7848621168079E+00 -0.5322513097731E+00
 0.2833758707010E-01 -0.1521229565685E+01 -0.7016592281694E+00 -0.4983575603299E+00
 0.1465140411367E+00 -0.1418840390370E+01 -0.5979933826230E+00 -0.4505868081956E+00
 0.3240969969575E+00 -0.1322825098599E+01 -0.4694022065809E+00 -0.3854467603861E+00
 0.2523781582661E+00 -0.2731138878161E+01 -0.1165017535396E+01 -0.1742634443504E+00
 0.2340253282896E+00 -0.2713934455532E+01 -0.1165557286848E+01 -0.2120330134267E+00
 0.2133193552679E+00 -0.2694660571928E+01 -0.1166230368872E+01 -0.2500931394062E+00
 0.1902242544162E+00 -0.2672836472693E+01 -0.1166827739631E+01 -0.2879911909126E+00
 0.1647531890399E+00 -0.2648037475726E+01 -0.1167143611782E+01 -0.3253647886679E+00
 0.1370183426958E+00 -0.2619900323208E+01 -0.1166954527881E+01 -0.3618715730425E+00
 0.1072535226080E+00 -0.2588116617523E+01 -0.1166005651652E+01 -0.3971427856800E+00
 0.7582898348911E-01 -0.2552426024996E+01 -0.1164000606556E+01 -0.4307531811888E+00
 0.4326839306785E-01 -0.2512613990012E+01 -0.1160592427620E+01 -0.4622003856227E+00
 0.1027321175598E-01 -0.2468515696438E+01 -0.1155373964870E+01 -0.4908885111617E+00
-0.2224206642525E-01 -0.2420027002227E+01 -0.1147866459355E+01 -0.5161121740302E+00
-0.5310053834142E-01 -0.2367123027915E+01 -0.1137505073255E+01 -0.5370377136612E+00
-0.8079523591967E-01 -0.2309885623476E+01 -0.1123620001066E+01 -0.5526782835042E+00
-0.1033973993159E+00 -0.2248542054640E+01 -0.1105411540556E+01 -0.5618583772566E+00
-0.1184326365781E+00 -0.2183519168301E+01 -0.1081917345549E+01 -0.5631607638724E+00
-0.1227156273715E+00 -0.2115521479497E+01 -0.1051971437560E+01 -0.5548434243828E+00
-0.1121399721203E+00 -0.2045651794253E+01 -0.1014162127623E+01 -0.5347036359933E+00
-0.8144891281611E-01 -0.1975615987119E+01 -0.9668205005174E+00 -0.4998429328742E+00
-0.2432607012075E-01 -0.1908252676790E+01 -0.9083120087443E+00 -0.4462529963688E+00
 0.6646453510103E-01 -0.1847828085384E+01 -0.8372408665095E+00 -0.3682680113167E+00
 0.2767328650892E+00 -0.2822340385309E+01 -0.1196435531469E+01 -0.1520870749761E+00
 0.2606710251693E+00 -0.2815212497759E+01 -0.1200634489072E+01 -0.1874864947268E+00
 0.2420168569552E+00 -0.2806873824571E+01 -0.1205482771722E+01 -0.2233897023026E+00
 0.2207575812343E+00 -0.2796994329477E+01 -0.1210831268603E+01 -0.2593880022356E+00
 0.1968833489066E+00 -0.2785264178153E+01 -0.1216538986660E+01 -0.2951351234116E+00
 0.1704308053219E+00 -0.2771408515788E+01 -0.1222459520818E+01 -0.3302978627685E+00
 0.1415059088639E+00 -0.2755189720488E+01 -0.1228431388348E+01 -0.3645184270660E+00
 0.1102981412877E+00 -0.2736406319559E+01 -0.1234270840657E+01 -0.3973859830858E+00
 0.7709307223179E-01 -0.2714893100977E+01 -0.1239766010366E+01 -0.4284136095416E+00
 0.4228710467652E-01 -0.2690524553210E+01 -0.1244671597654E+01 -0.4570170378384E+00
 0.6406515649918E-02 -0.2663222718100E+01 -0.1248703611984E+01 -0.4824919335248E+00
-0.2986801963584E-01 -0.2632970274249E+01 -0.1251533994952E+01 -0.5039865246339E+00
-0.6567087713977E-01 -0.2599829888896E+01 -0.1252785356859E+01 -0.5204659127833E+00
-0.9991525110162E-01 -0.2563971517743E+01 -0.1252026778181E+01 -0.5306632198939E+00
-0.1312535173550E+00 -0.2525710514322E+01 -0.1248773091721E+01 -0.5330105524191E+00
-0.1580416045292E+00 -0.2485561812435E+01 -0.1242493602822E+01 -0.5255393791137E+00
-0.1783243904811E+00 -0.2444317505276E+01 -0.1232641687880E+01 -0.5057354204788E+00
-0.1899023946643E+00 -0.2403173534092E+01 -0.1218745683424E+01 -0.4703322775750E+00
-0.1904585807293E+00 -0.2363818337846E+01 -0.1200510148685E+01 -0.4150552579616E+00
-0.1778400465490E+00 -0.2328529854178E+01 -0.1177993850354E+01 -0.3343383152103E+00
 0.2999404853918E+00 -0.2909301872616E+01 -0.1226399848885E+01 -0.1272751885035E+00
 0.2860468345626E+00 -0.2911714623858E+01 -0.1234063857839E+01 -0.1598836429344E+00
 0.2693334246446E+00 -0.2913677529421E+01 -0.1242841726093E+01 -0.1930523060425E+00
 0.2497827207404E+00 -0.2914986108188E+01 -0.1252645588923E+01 -0.2264179424210E+00
 0.2273500665594E+00 -0.2915434015249E+01 -0.1263399452680E+01 -0.2596552477004E+00
 0.2019974672062E+00 -0.2914829825437E+01 -0.1275031205134E+01 -0.2924420525555E+00
 0.1737122469637E+00 -0.2913003222155E+01 -0.1287466755074E+01 -0.3244295922777E+00
 0.1425175589171E+00 -0.2909806749419E+01 -0.1300625916237E+01 -0.3552174200570E+00
 0.1084790702308E+00 -0.2905116681731E+01 -0.1314419674071E+01 -0.3843309990026E+00
 0.7171013453134E-01 -0.2898834886592E+01 -0.1328748630098E+01 -0.4111996736468E+00
 0.3237630000999E-01 -0.2890892635629E+01 -0.1343502674333E+01 -0.4351327105046E+00
-0.9301202183387E-02 -0.2881256888358E+01 -0.1358562299109E+01 -0.4552910391031E+00
-0.5304465053330E-01 -0.2869939432692E+01 -0.1373802515631E+01 -0.4706520669407E+00
-0.9852518356244E-01 -0.2857009278026E+01 -0.1389101193423E+01 -0.4799644257115E+00
-0.1453807321897E+00 -0.2842608813376E+01 -0.1404355082854E+01 -0.4816887720521E+00
-0.1932568794497E+00 -0.2826973606735E+01 -0.1419508324906E+01 -0.4739200672201E+00
-0.2418884934557E+00 -0.2810455895365E+01 -0.1434601859107E+01 -0.4542871254363E+00
-0.2912206745658E+00 -0.2793528676462E+01 -0.1449832191306E+01 -0.4198296449140E+00
-0.3415785054807E+00 -0.2776769746849E+01 -0.1465623674877E+01 -0.3668592516862E+00
-0.3938758143973E+00 -0.2760807857367E+01 -0.1482701321968E+01 -0.2908285759765E+00
 0.3218695592571E+00 -0.2991458757013E+01 -0.1254706919763E+01 -0.1000382966631E+00
 0.3099553218326E+00 -0.3002727702099E+01 -0.1265603015515E+01 -0.1294893542474E+00
 0.2950001542860E+00 -0.3014203745427E+01 -0.1278025684595E+01 -0.1594344787341E+00
 0.2769630925446E+00 -0.3025780379856E+01 -0.1291944121759E+01 -0.1895526108309E+00
 0.2557546495884E+00 -0.3037335787305E+01 -0.1307343131411E+01 -0.2195424815483E+00
 0.2312613388720E+00 -0.3048747964231E+01 -0.1324218710560E+01 -0.2490973967344E+00
 0.2033588486011E+00 -0.3059901564158E+01 -0.1342575072906E+01 -0.2778821533195E+00
 0.1719177986039E+00 -0.3070690230210E+01 -0.1362423039399E+01 -0.3055121951411E+00
 0.1368046108275E+00 -0.3081016867489E+01 -0.1383779757121E+01 -0.3315340285033E+00
 0.9787871688700E-01 -0.3090793239353E+01 -0.1406669821991E+01 -0.3554055882843E+00
 0.5498620424544E-01 -0.3099939541575E+01 -0.1431128064915E+01 -0.3764752156562E+00
 0.7948936621601E-02 -0.3108384127328E+01 -0.1457204535936E+01 -0.3939579785215E+00
-0.4345300943999E-01 -0.3116063204431E+01 -0.1484972616753E+01 -0.4069081804142E+00
-0.9950928375751E-01 -0.3122919990512E+01 -0.1514541755065E+01 -0.4141871081379E+00
-0.1606231481414E+00 -0.3128902213283E+01 -0.1546076915948E+01 -0.4144255022076E+00
-0.2273794914915E+00 -0.3133956167074E+01 -0.1579827755519E+01 -0.4059811297826E+00
-0.3006438461423E+00 -0.3138011235881E+01 -0.1616167884452E+01 -0.3868933792372E+00
-0.3817059583751E+00 -0.3140953994148E+01 -0.1655650173486E+01 -0.3548370409867E+00
-0.4724412003344E+00 -0.3142559135698E+01 -0.1699050153626E+01 -0.3070713192677E+00
-0.5754434528657E+00 -0.3142367567444E+01 -0.1747371175114E+01 -0.2403827285028E+00
 0.3424116045583E+00 -0.3068303481790E+01 -0.1281169179049E+01 -0.7062263653055E-01
 0.3322382486416E+00 -0.3087617398215E+01 -0.1295028197015E+01 -0.9660553187378E-01
 0.3188030914978E+00 -0.3107683079528E+01 -0.1310773591050E+01 -0.1229231498553E+00
 0.3020312918045E+00 -0.3128465717153E+01 -0.1328424176545E+01 -0.1492926067897E+00
 0.2817826387400E+00 -0.3149906166887E+01 -0.1348018054810E+01 -0.1754392121651E+00
 0.2578689888212E+00 -0.3171933316229E+01 -0.1369610230408E+01 -0.2010776952119E+00
 0.2300624864079E+00 -0.3194469958366E+01 -0.1393271508287E+01 -0.2258946945019E+00
 0.1980970347197E+00 -0.3217434388509E+01 -0.1419088552682E+01 -0.2495325627458E+00
 0.1616645590478E+00 -0.3240739337020E+01 -0.1447165141976E+01 -0.2715739872546E+00
 0.1204067454194E+00 -0.3264289196157E+01 -0.1477624748099E+01 -0.2915267915646E+00
 0.7390218848320E-01 -0.3287975937204E+01 -0.1510614658067E+01 -0.3088083656618E+00
 0.2164817771253E-01 -0.3311673690898E+01 -0.1546311987275E+01 -0.3227293921040E+00
-0.3696433815793E-01 -0.3335231600328E+01 -0.1584932087068E+01 -0.3324769049979E+00
-0.1026847444924E+00 -0.3358464159992E+01 -0.1626739980982E+01 -0.3370973096909E+00
-0.1764485720395E+00 -0.3381137840630E+01 -0.1672065609714E+01 -0.3354809175795E+00
-0.2594381869341E+00 -0.3402951912798E+01 -0.1721323342508E+01 -0.3263509239749E+00
-0.3531640344089E+00 -0.3423512617112E+01 -0.1775038021713E+01 -0.3082613227029E+00
-0.4595715315971E+00 -0.3442296719979E+01 -0.1833878073590E+01 -0.2796095006678E+00
-0.5812277817093E+00 -0.3458634342974E+01 -0.1898735193785E+01 -0.2386674208061E+00
-0.7214902001456E+00 -0.3471592631735E+01 -0.1970748925985E+01 -0.1835913277705E+00
 0.3614794957167E+00 -0.3139388268016E+01 -0.1305617119669E+01 -0.3930222795940E-01
 0.3527714521886E+00 -0.3165831108277E+01 -0.1322138035008E+01 -0.6156291909704E-01
 0.3405762129678E+00 -0.3193450024430E+01 -0.1340850687986E+01 -0.8393016543983E-01
 0.3247809138833E+00 -0.3222258417098E+01 -0.1361814423057E+01 -0.1061568323713E+00
 0.3051933532158E+00 -0.3252237936642E+01 -0.1385110950697E+01 -0.1279978402926E+00
 0.2815547278625E+00 -0.3283348631363E+01 -0.1410843131067E+01 -0.1491961593945E+00
 0.2535444043493E+00 -0.3315533476633E+01 -0.1439134860323E+01 -0.1694702159596E+00
 0.2207784777071E+00 -0.3348718788102E+01 -0.1470131942157E+01 -0.1885025158657E+00
 0.1828032272060E+00 -0.3382811755351E+01 -0.1504004004414E+01 -0.2059291841031E+00
 0.1390841033939E+00 -0.3417695766455E+01 -0.1540947477730E+01 -0.2213302000281E+00
 0.8899039578476E-01 -0.3453223812889E+01 -0.1581189702028E+01 -0.2342202762075E+00
 0.3177541681537E-01 -0.3489209942098E+01 -0.1624994222761E+01 -0.2440406017177E+00
-0.3344810649971E-01 -0.3525418461703E+01 -0.1672667282813E+01 -0.2501520743125E+00
-0.1077376642406E+00 -0.3561550379680E+01 -0.1724565376268E+01 -0.2518312266466E+00
-0.1923553858134E+00 -0.3597226326974E+01 -0.1781103400492E+01 -0.2482708728540E+00
-0.2888065402317E+00 -0.3631965374703E+01 -0.1842762795346E+01 -0.2385886170425E+00
-0.3988800206518E+00 -0.3665158768737E+01 -0.1910098226168E+01 -0.2218480535069E+00
-0.5246943816231E+00 -0.3696042745642E+01 -0.1983746444783E+01 -0.1971004013612E+00
-0.6687415448299E+00 -0.3723660599794E+01 -0.2064429002737E+01 -0.1634630277321E+00
-0.8342802905474E+00 -0.3747063853933E+01 -0.2153231742444E+01 -0.1202746361217E+00
 0.3790051146024E+00 -0.3204327700259E+01 -0.1327901611890E+01 -0.6372112341734E-02
 0.3714596239017E+00 -0.3236899516063E+01 -0.1346756745900E+01 -0.2471323735023E-01
 0.3601933611479E+00 -0.3270945601305E+01 -0.1368053549404E+01 -0.4288381765202E-01
 0.3450562074887E+00 -0.3306506345941E+01 -0.1391881561542E+01 -0.6067269115082E-01
 0.3258065887762E+00 -0.3343583556980E+01 -0.1418355171459E+01 -0.7786838083586E-01
 0.3021221511731E+00 -0.3382149584186E+01 -0.1447612889844E+01 -0.9424924181413E-01
 0.2736031303966E+00 -0.3422150615008E+01 -0.1479817314014E+01 -0.1095755426379E+00
 0.2397696181797E+00 -0.3463506186848E+01 -0.1515156183431E+01 -0.1235829226596E+00
 0.2000541502020E+00 -0.3506105786116E+01 -0.1553844264939E+01 -0.1359770475266E+00
 0.1537903864595E+00 -0.3549803155606E+01 -0.1596125997451E+01 -0.1464294564466E+00
 0.1001984053039E+00 -0.3594408615139E+01 -0.1642278794457E+01 -0.1545747743187E+00
 0.3836706584099E-01 -0.3639679493365E+01 -0.1692616836643E+01 -0.1600096744615E+00
-0.3276591587244E-01 -0.3685308628058E+01 -0.1747495031215E+01 -0.1622942341395E+00
-0.1144350067918E+00 -0.3730910815985E+01 -0.1807312532121E+01 -0.1609566280454E+00
-0.2080669133064E+00 -0.3776007136127E+01 -0.1872514798484E+01 -0.1555024483954E+00
-0.3152958222846E+00 -0.3820007053382E+01 -0.1943592346634E+01 -0.1454303623131E+00
-0.4379675282770E+00 -0.3862188578584E+01 -0.2021073365099E+01 -0.1302564313705E+00
-0.5781172286621E+00 -0.3901673608310E+01 -0.2105501688037E+01 -0.1095512798848E+00
-0.7378995585452E+00 -0.3937400781960E+01 -0.2197391154464E+01 -0.8299843976531E-01
-0.9192152822379E+00 -0.3967941179824E+01 -0.2296963531343E+01 -0.5053543671381E-01
 0.3949350062099E+00 -0.3262799511079E+01 -0.1347896313870E+01  0.2785800672137E-01
 0.3882277847184E+00 -0.3300436891943E+01 -0.1368738276924E+01  0.1357930558501E-01
 0.3775569560574E+00 -0.3339717574509E+01 -0.1392215487141E+01 -0.2195415819973E-03
 0.3627387325308E+00 -0.3380688515590E+01 -0.1418436394440E+01 -0.1336642445898E-01
 0.3434867698060E+00 -0.3423353217900E+01 -0.1447537226933E+01 -0.2568828471320E-01
 0.3194247331016E+00 -0.3467679144608E+01 -0.1479679569655E+01 -0.3700588249744E-01
 0.2900895598589E+00 -0.3513600722430E+01 -0.1515050242566E+01 -0.4713045409039E-01
 0.2549291012696E+00 -0.3561018535194E+01 -0.1553862030003E+01 -0.5586187287129E-01
 0.2132955643383E+00 -0.3609795782791E+01 -0.1596355098624E+01 -0.6298822166286E-01
 0.1644358203852E+00 -0.3659752631279E+01 -0.1642798896953E+01 -0.6828684995276E-01
 0.1074793979260E+00 -0.3710658879891E+01 -0.1693494352228E+01 -0.7152711632533E-01
 0.4142499829993E-01 -0.3762225218041E+01 -0.1748776098843E+01 -0.7247510925534E-01
-0.3487338754623E-01 -0.3814093274461E+01 -0.1809014326555E+01 -0.7090068163616E-01
-0.1227191823963E+00 -0.3865824666385E+01 -0.1874615604172E+01 -0.6658708799884E-01
-0.2235823048626E+00 -0.3916889315288E+01 -0.1946021656535E+01 -0.5934331925850E-01
-0.3391007995836E+00 -0.3966653408732E+01 -0.2023704472775E+01 -0.4901877565819E-01
-0.4710684020587E+00 -0.4014367156246E+01 -0.2108154707056E+01 -0.3551903916347E-01
-0.6213953667413E+00 -0.4059151493462E+01 -0.2199857018716E+01 -0.1881915070473E-01
-0.7920096493833E+00 -0.4099975667241E+01 -0.2299233092982E+01  0.1033708946217E-02
-0.9845151664443E+00 -0.4135532129062E+01 -0.2406422222784E+01  0.2399147668064E-01
 0.4092254990593E+00 -0.3314542009645E+01 -0.1365498756512E+01  0.6307334960033E-01
 0.4030154676931E+00 -0.3356136363359E+01 -0.1387966817443E+01  0.5295137282552E-01
 0.3925954362132E+00 -0.3399408855952E+01 -0.1413202303693E+01  0.4363440019545E-01
 0.3777479954320E+00 -0.3444397053342E+01 -0.1441325053562E+01  0.3525096903702E-01
 0.3581485379402E+00 -0.3491089064231E+01 -0.1472482043622E+01  0.2793015565759E-01
 0.3333778200973E+00 -0.3539432216554E+01 -0.1506845562513E+01  0.2180202227660E-01
 0.3029267486787E+00 -0.3589336322223E+01 -0.1544612495648E+01  0.1699651430820E-01
 0.2661956919604E+00 -0.3640673373948E+01 -0.1586004506511E+01  0.1364088013528E-01
 0.2224901670614E+00 -0.3693274669862E+01 -0.1631268712179E+01  0.1185567968815E-01
 0.1710141194428E+00 -0.3746926175648E+01 -0.1680678662154E+01  0.1174931807882E-01
 0.1108617949598E+00 -0.3801362693573E+01 -0.1734535417949E+01  0.1341097418155E-01
 0.4100912584466E-01 -0.3856261273440E+01 -0.1793168504822E+01  0.1690180715825E-01
-0.3969439705537E-01 -0.3911234228580E+01 -0.1856936449339E+01  0.2224444562074E-01
-0.1325322542889E+00 -0.3965822104487E+01 -0.1926226543739E+01  0.2941104279553E-01
-0.2389245239196E+00 -0.4019486971576E+01 -0.2001453397807E+01  0.3831070027381E-01
-0.3604271731101E+00 -0.4071606511614E+01 -0.2083055826537E+01  0.4877796085907E-01
-0.4987256140718E+00 -0.4121469430582E+01 -0.2171491665480E+01  0.6056572666255E-01
-0.6556250373753E+00 -0.4168275133614E+01 -0.2267233074615E+01  0.7334909327454E-01
-0.8330409112817E+00 -0.4211136345520E+01 -0.2370763304684E+01  0.8675636425471E-01
-0.1033289000230E+01 -0.4249287195789E+01 -0.2482810805831E+01  0.1004635334697E+00
 0.4218470565500E+00 -0.3359356163569E+01 -0.1380629276797E+01  0.9895627609062E-01
 0.4157953000682E+00 -0.3403761411862E+01 -0.1404344068981E+01  0.9304139989874E-01
 0.4052837153307E+00 -0.3449746531705E+01 -0.1430897520067E+01  0.8825773675924E-01
 0.3900651281539E+00 -0.3497322511148E+01 -0.1460410966303E+01  0.8468493534061E-01
 0.3697835521905E+00 -0.3546446543248E+01 -0.1493031602010E+01  0.8240210793788E-01
 0.3439887404030E+00 -0.3597032062790E+01 -0.1528930357644E+01  0.8148399470467E-01
 0.3121433617874E+00 -0.3648953315187E+01 -0.1568300674120E+01  0.8199554041411E-01
 0.2736251167336E+00 -0.3702046147232E+01 -0.1611357880247E+01  0.8398522770523E-01
 0.2277256077297E+00 -0.3756106413170E+01 -0.1658338974351E+01  0.8747729385775E-01
 0.1736473832154E+00 -0.3810886989965E+01 -0.1709502610837E+01  0.9246281570434E-01
 0.1105002211858E+00 -0.3866094142593E+01 -0.1765129138584E+01  0.9888959625375E-01
 0.3729747119662E-01 -0.3921383790496E+01 -0.1825520565440E+01  0.1066508411922E+00
-0.4704697514870E-01 -0.3976358108995E+01 -0.1891000384751E+01  0.1155727774551E+00
-0.1437208540509E+00 -0.4030562819556E+01 -0.1961913321619E+01  0.1254016611485E+00
-0.2540152083308E+00 -0.4083485475400E+01 -0.2038625316183E+01  0.1357910862863E+00
-0.3793269941022E+00 -0.4134554962062E+01 -0.2121524514016E+01  0.1462911939277E+00
-0.5211669852910E+00 -0.4183143062336E+01 -0.2211025716777E+01  0.1563422688877E+00
-0.6811811984437E+00 -0.4228568137134E+01 -0.2307582181869E+01  0.1652760497265E+00
-0.8612357380708E+00 -0.4270125334036E+01 -0.2411739697773E+01  0.1723259790602E+00
-0.1063495957974E+01 -0.4307047253450E+01 -0.2524155302967E+01  0.1766094375519E+00
 0.4327782100701E+00 -0.3397106102387E+01 -0.1393234105855E+01  0.1351885318053E+00
 0.4265538697053E+00 -0.3443157160710E+01 -0.1417803543176E+01  0.1334880184021E+00
 0.4156180434431E+00 -0.3490557931895E+01 -0.1445221743907E+01  0.1332331225081E+00
 0.3996986077682E+00 -0.3539276080957E+01 -0.1475601408656E+01  0.1344477856559E+00
 0.3784153363067E+00 -0.3589222683424E+01 -0.1509079449318E+01  0.1371552077377E+00
 0.3512986084005E+00 -0.3640264775675E+01 -0.1545814094698E+01  0.1413697029361E+00
 0.3178003114786E+00 -0.3692231677845E+01 -0.1585982738170E+01  0.1470869107402E+00
 0.2772994903275E+00 -0.3744917219994E+01 -0.1629780328809E+01  0.1542732824915E+00
 0.2291049074337E+00 -0.3798079646771E+01 -0.1677418123234E+01  0.1628551330193E+00
 0.1724561483340E+00 -0.3851440500102E+01 -0.1729122640945E+01  0.1727072543401E+00
 0.1065244317420E+00 -0.3904683376466E+01 -0.1785134699493E+01  0.1836410025394E+00
 0.3041383642079E-01 -0.3957453185393E+01 -0.1845708489336E+01  0.1953917998350E+00
-0.5683683280925E-01 -0.4009356356125E+01 -0.1911110793952E+01  0.2076060871788E+00
-0.1562519881468E+00 -0.4059962319601E+01 -0.1981620719616E+01  0.2198278801864E+00
-0.2689184473838E+00 -0.4108806463811E+01 -0.2057530703043E+01  0.2314851850077E+00
-0.3959889480891E+00 -0.4155394695771E+01 -0.2139150307189E+01  0.2418765439197E+00
-0.5386945811054E+00 -0.4199208899520E+01 -0.2226814630246E+01  0.2501576537549E+00
-0.6983756712717E+00 -0.4239714305391E+01 -0.2320902283145E+01  0.2553264054249E+00
-0.8765136356999E+00 -0.4276347374856E+01 -0.2421844668818E+01  0.2561972095514E+00
-0.1074724147163E+01 -0.4308472996897E+01 -0.2530102651291E+01  0.2513555478791E+00
 0.4420032852193E+00 -0.3427717630001E+01 -0.1403285738488E+01  0.1714559926135E+00
 0.4352863470909E+00 -0.3474248793687E+01 -0.1428312346278E+01  0.1739351856533E+00
 0.4236073679436E+00 -0.3521770216477E+01 -0.1456136535117E+01  0.1781504300013E+00
 0.4066728832140E+00 -0.3570188914696E+01 -0.1486852531026E+01  0.1840615671308E+00
 0.3840842728484E+00 -0.3619354894311E+01 -0.1520577188230E+01  0.1916303801989E+00
 0.3553631965641E+00 -0.3669077384464E+01 -0.1557445664362E+01  0.2008070920652E+00
 0.3199673408838E+00 -0.3719133056476E+01 -0.1597607882276E+01  0.2115156229778E+00
 0.2772999578509E+00 -0.3769269476546E+01 -0.1641225669624E+01  0.2236392640087E+00
 0.2267160901443E+00 -0.3819206273229E+01 -0.1688470381767E+01  0.2370071301618E+00
 0.1675275642316E+00 -0.3868635659512E+01 -0.1739520800370E+01  0.2513812659903E+00
 0.9900811305405E-01 -0.3917223341845E+01 -0.1794561152980E+01  0.2664441519599E+00
 0.2039939371429E-01 -0.3964610460385E+01 -0.1853779196633E+01  0.2817863635376E+00
-0.6908190032276E-01 -0.4010416984802E+01 -0.1917364471146E+01  0.2968941296878E+00
-0.1702362730998E+00 -0.4054246871238E+01 -0.1985507072803E+01  0.3111364223102E+00
-0.2838743176826E+00 -0.4095695258472E+01 -0.2058397695572E+01  0.3237508793514E+00
-0.4108125298782E+00 -0.4134357807480E+01 -0.2136230053140E+01  0.3338271975515E+00
-0.5518756584739E+00 -0.4169842338881E+01 -0.2219207453128E+01  0.3402855489414E+00
-0.7079036057918E+00 -0.4201777920507E+01 -0.2307550311508E+01  0.3418461308741E+00
-0.8797566703591E+00 -0.4229818526373E+01 -0.2401500336373E+01  0.3369879353099E+00
-0.1068318725152E+01 -0.4253646001781E+01 -0.2501323415314E+01  0.3239061855915E+00
 0.4495118941196E+00 -0.3451175389144E+01 -0.1410781839083E+01  0.2074528403138E+00
 0.4419957854102E+00 -0.3497037462047E+01 -0.1435869584378E+01  0.2140377477070E+00
 0.4292719880889E+00 -0.3543404973496E+01 -0.1463642499429E+01  0.2226123626312E+00
 0.4110258867297E+00 -0.3590105102860E+01 -0.1494167227792E+01  0.2330631074499E+00
 0.3868437231183E+00 -0.3636912010838E+01 -0.1527532091354E+01  0.2452861609982E+00
 0.3562476704553E+00 -0.3683567265154E+01 -0.1563840205542E+01  0.2591659091570E+00
 0.3187170291511E+00 -0.3729789269780E+01 -0.1603203949029E+01  0.2745539224969E+00
 0.2737012885748E+00 -0.3775277103884E+01 -0.1645740629021E+01  0.2912506213986E+00
 0.2206293572656E+00 -0.3819712225004E+01 -0.1691568943547E+01  0.3089896780814E+00
 0.1589177440562E+00 -0.3862760032148E+01 -0.1740805870988E+01  0.3274246106497E+00
 0.8797938982871E-01 -0.3904072358707E+01 -0.1793563690824E+01  0.3461169781388E+00
 0.7234141073482E-02 -0.3943291456030E+01 -0.1849946933337E+01  0.3645256631130E+00
-0.8387857703820E-01 -0.3980055781543E+01 -0.1910049143688E+01  0.3819967259817E+00
-0.1858845888614E+00 -0.4014007850554E+01 -0.1973949441518E+01  0.3977531048602E+00
-0.2992570797139E+00 -0.4044804484288E+01 -0.2041708929903E+01  0.4108828936979E+00
-0.4243959170265E+00 -0.4072130205195E+01 -0.2113367272084E+01  0.4203239339038E+00
-0.5616038016345E+00 -0.4095714741747E+01 -0.2188939709838E+01  0.4248409872689E+00
-0.7110625856286E+00 -0.4115358739265E+01 -0.2268418016946E+01  0.4229909620616E+00
-0.8728174812793E+00 -0.4130969954916E+01 -0.2351780089047E+01  0.4130747735174E+00
-0.1046793187867E+01 -0.4142614485863E+01 -0.2439021600467E+01  0.3930799415734E+00
 0.4552982865976E+00 -0.3467519763539E+01 -0.1415744090572E+01  0.2428857001605E+00
 0.4466928797509E+00 -0.3511596930012E+01 -0.1440504899969E+01  0.2534669598943E+00
 0.4326432890170E+00 -0.3555573707551E+01 -0.1467777292988E+01  0.2662398973524E+00
 0.4128077626354E+00 -0.3599175439499E+01 -0.1497592804328E+01  0.2810089314908E+00
 0.3867571648515E+00 -0.3642086405303E+01 -0.1530004739132E+01  0.2976032373850E+00
 0.3540223440452E+00 -0.3683973152773E+01 -0.1565076876132E+01  0.3158421136633E+00
 0.3141201322616E+00 -0.3724493215249E+01 -0.1602875344938E+01  0.3355056377931E+00
 0.2665684963738E+00 -0.3763297716378E+01 -0.1643462729233E+01  0.3563120773601E+00
 0.2108973211034E+00 -0.3800032468833E+01 -0.1686893515154E+01  0.3779009221337E+00
 0.1466585079204E+00 -0.3834339737952E+01 -0.1733210173719E+01  0.3998200848068E+00
 0.7343740553733E-01 -0.3865861579051E+01 -0.1782439357030E+01  0.4215161348276E+00
-0.9133217017272E-02 -0.3894245036216E+01 -0.1834587774366E+01  0.4423267902152E+00
-0.1013556289082E+00 -0.3919149222295E+01 -0.1889637275273E+01  0.4614751068740E+00
-0.2034446235740E+00 -0.3940254239626E+01 -0.1947538460764E+01  0.4780648021720E+00
-0.3154976904328E+00 -0.3957272094676E+01 -0.2008201793908E+01  0.4910758624291E+00
-0.4374537516755E+00 -0.3969960133104E+01 -0.2071484520592E+01  0.4993588982538E+00
-0.5690352251852E+00 -0.3978139494684E+01 -0.2137172112918E+01  0.5016253614632E+00
-0.7096705468098E+00 -0.3981725541461E+01 -0.2204956155895E+01  0.4964277755578E+00
-0.8584218515877E+00 -0.3980796583457E+01 -0.2274432658702E+01  0.4821174574843E+00
-0.1013945347398E+01 -0.3975701897998E+01 -0.2345134199388E+01  0.4567644292821E+00
 0.4593610241349E+00 -0.3476843199543E+01 -0.1418216618845E+01  0.2774781449907E+00
 0.4493972639987E+00 -0.3518069835235E+01 -0.1442276104823E+01  0.2919159862820E+00
 0.4337658722594E+00 -0.3558472395983E+01 -0.1468612062425E+01  0.3086770308113E+00
 0.4120823893235E+00 -0.3597649571218E+01 -0.1497216571693E+01  0.3274791822173E+00
 0.3838986976086E+00 -0.3635183755489E+01 -0.1528103973328E+01  0.3480880799481E+00
 0.3487628507323E+00 -0.3670663151509E+01 -0.1561293137405E+01  0.3702616963317E+00
 0.3062470477700E+00 -0.3703686034888E+01 -0.1596796319895E+01  0.3937103386579E+00
 0.2559619232401E+00 -0.3733859781085E+01 -0.1634611989041E+01  0.4180699533991E+00
 0.1975666116242E+00 -0.3760799946970E+01 -0.1674719663365E+01  0.4428848736859E+00
 0.1307789945447E+00 -0.3784131350038E+01 -0.1717075602727E+01  0.4675969780657E+00
 0.5538811195452E-01 -0.3803491566464E+01 -0.1761608619152E+01  0.4915393534255E+00
-0.2873019780769E-01 -0.3818536575482E+01 -0.1808215378860E+01  0.5139334638730E+00
-0.1215933434646E+00 -0.3828947972564E+01 -0.1856754413824E+01  0.5338895011967E+00
-0.2230857864978E+00 -0.3834441022275E+01 -0.1907037595286E+01  0.5504101331943E+00
-0.3329227062666E+00 -0.3834772622412E+01 -0.1958816799511E+01  0.5623983962842E+00
-0.4505963711239E+00 -0.3829748345339E+01 -0.2011762011635E+01  0.5686710348390E+00
-0.5752913148903E+00 -0.3819227041861E+01 -0.2065423622434E+01  0.5679789239167E+00
-0.7057443329614E+00 -0.3803123334861E+01 -0.2119167798501E+01  0.5590341979022E+00
-0.8400079623099E+00 -0.3781415306856E+01 -0.2172068930999E+01  0.5405306670866E+00
-0.9752119932306E+00 -0.3754303098148E+01 -0.2222872087310E+01  0.5111004889928E+00
 0.4617043456534E+00 -0.3479285356874E+01 -0.1418263071677E+01  0.3109763909533E+00
 0.4501438163256E+00 -0.3516660816148E+01 -0.1441262986261E+01  0.3291055028394E+00
 0.4327068249246E+00 -0.3552369977307E+01 -0.1466241677901E+01  0.3495941337497E+00
 0.4089386657309E+00 -0.3585857831521E+01 -0.1493152004134E+01  0.3720790872378E+00
 0.3783669465542E+00 -0.3616597590122E+01 -0.1521968398616E+01  0.3962734173264E+00
 0.3405688863805E+00 -0.3644101827326E+01 -0.1552660478306E+01  0.4218807214037E+00
 0.2951945449168E+00 -0.3667916853615E+01 -0.1585179481068E+01  0.4485430361977E+00
 0.2419756287441E+00 -0.3687615190941E+01 -0.1619450590125E+01  0.4758113131602E+00
 0.1807319696380E+00 -0.3702791161732E+01 -0.1655367816086E+01  0.5031297755728E+00
 0.1113799467260E+00 -0.3713060657602E+01 -0.1692789929818E+01  0.5298287782987E+00
 0.3394403625128E-01 -0.3718064506163E+01 -0.1731536616467E+01  0.5551232703108E+00
-0.5142841003066E-01 -0.3717474284613E+01 -0.1771384261990E+01  0.5781156447739E+00
-0.1444490501927E+00 -0.3710999094936E+01 -0.1812060623614E+01  0.5978030175143E+00
-0.2446662458430E+00 -0.3698391428804E+01 -0.1853237102383E+01  0.6130902055817E+00
-0.3514361497391E+00 -0.3679449611134E+01 -0.1894516302805E+01  0.6228112989592E+00
-0.4638807371594E+00 -0.3654012230928E+01 -0.1935409690092E+01  0.6257652921074E+00
-0.5808194247081E+00 -0.3621937587595E+01 -0.1975295790772E+01  0.6207753418978E+00
-0.7006327082215E+00 -0.3583046031778E+01 -0.2013329002693E+01  0.6067888403299E+00
-0.8209338321979E+00 -0.3536969742794E+01 -0.2048214675051E+01  0.5830473202239E+00
-0.9376569366697E+00 -0.3482775060687E+01 -0.2077603033488E+01  0.5493324045287E+00
 0.4623459437423E+00 -0.3475024206085E+01 -0.1415958779710E+01  0.3431572719810E+00
 0.4490027835377E+00 -0.3507618349424E+01 -0.1437549312321E+01  0.3647875944997E+00
 0.4295877122350E+00 -0.3537570667765E+01 -0.1460751985394E+01  0.3886854763768E+00
 0.4035353014530E+00 -0.3564149118835E+01 -0.1485488490402E+01  0.4144311073036E+00
 0.3703474713340E+00 -0.3586718820141E+01 -0.1511694530105E+01  0.4417059897511E+00
 0.3296507704141E+00 -0.3604728394246E+01 -0.1539286479297E+01  0.4701690256030E+00
 0.2812036078089E+00 -0.3617687116074E+01 -0.1568147244907E+01  0.4993936884372E+00
 0.2248936389450E+00 -0.3625147362186E+01 -0.1598119245870E+01  0.5288392071480E+00
 0.1607377000642E+00 -0.3626695684328E+01 -0.1629000248472E+01  0.5578398289646E+00
 0.8888688146678E-01 -0.3621951342259E+01 -0.1660540292361E+01  0.5856037878850E+00
 0.9635723259953E-02 -0.3610570241499E+01 -0.1692439219280E+01  0.6112179826912E+00
-0.7656634919910E-01 -0.3592251831027E+01 -0.1724344540333E+01  0.6336568823721E+00
-0.1691036341086E+00 -0.3566746467620E+01 -0.1755849543359E+01  0.6517958735226E+00
-0.2671854873500E+00 -0.3533860371438E+01 -0.1786491549099E+01  0.6644308623298E+00
-0.3698435639069E+00 -0.3493453993541E+01 -0.1815749847395E+01  0.6703081475796E+00
-0.4759400368949E+00 -0.3445427687170E+01 -0.1843042825636E+01  0.6681723412724E+00
-0.5841887476625E+00 -0.3389678960269E+01 -0.1867717817991E+01  0.6568478026189E+00
-0.6932016519733E+00 -0.3326013373902E+01 -0.1889031057370E+01  0.6353847995130E+00
-0.8015261852237E+00 -0.3253914341159E+01 -0.1906057042566E+01  0.6033523203681E+00
-0.9071814076387E+00 -0.3171672107749E+01 -0.1917061147370E+01  0.5615365622524E+00
 0.4613320605703E+00 -0.3464265612328E+01 -0.1411378765746E+01  0.3738368042190E+00
 0.4461320773589E+00 -0.3491179760331E+01 -0.1431172407367E+01  0.3987376349072E+00
 0.4246692673985E+00 -0.3514298489030E+01 -0.1452125730484E+01  0.4256457596067E+00
 0.3962282783962E+00 -0.3532701592221E+01 -0.1474142453758E+01  0.4541378655351E+00
 0.3602975086178E+00 -0.3545662597274E+01 -0.1497121587871E+01  0.4838966829595E+00
 0.3165869579453E+00 -0.3552591983172E+01 -0.1520922357999E+01  0.5145474525087E+00
 0.2650046578186E+00 -0.3552987345404E+01 -0.1545351859246E+01  0.5455915893699E+00
 0.2056359612333E+00 -0.3546403360886E+01 -0.1570160673854E+01  0.5763859839689E+00
 0.1387352025532E+00 -0.3532438483026E+01 -0.1595040537776E+01  0.6061426417754E+00
 0.6472696029770E-01 -0.3510734196213E+01 -0.1619623396772E+01  0.6339372976752E+00
-0.1578743276268E-01 -0.3480982064147E+01 -0.1643481659379E+01  0.6587221723859E+00
-0.1020231892493E+00 -0.3442934845038E+01 -0.1666130271889E+01  0.6793411810067E+00
-0.1930107608671E+00 -0.3396418322295E+01 -0.1687031664807E+01  0.6945475504266E+00
-0.2876078336520E+00 -0.3341340959952E+01 -0.1705605928668E+01  0.7030248847171E+00
-0.3845378842493E+00 -0.3277698473983E+01 -0.1721251084004E+01  0.7034138113057E+00
-0.4824772439541E+00 -0.3205567687353E+01 -0.1733381113318E+01  0.6943482829450E+00
-0.5802415243350E+00 -0.3125088094333E+01 -0.1741504916357E+01  0.6745093790877E+00
-0.6771436242305E+00 -0.3036400786159E+01 -0.1745365868456E+01  0.6427154887780E+00
-0.7738859254467E+00 -0.2939662275625E+01 -0.1745367650077E+01  0.5980762239310E+00
-0.8751658162650E+00 -0.2835386576693E+01 -0.1743959620267E+01  0.5403762804242E+00
 0.4587404122210E+00 -0.3447228754744E+01 -0.1404589517423E+01  0.4028511797842E+00
 0.4417726316595E+00 -0.3467525519123E+01 -0.1422103853501E+01  0.4307071305667E+00
 0.4183391164682E+00 -0.3482622852989E+01 -0.1440213352512E+01  0.4601076244826E+00
 0.3875553757700E+00 -0.3491426104374E+01 -0.1458819238744E+01  0.4907133994422E+00
 0.3489303579163E+00 -0.3493163855364E+01 -0.1477789740052E+01  0.5222516334424E+00
 0.3023093600525E+00 -0.3487255153853E+01 -0.1496924519289E+01  0.5543233081317E+00
 0.2477997476350E+00 -0.3473225950930E+01 -0.1515950311704E+01  0.5863504548735E+00
 0.1857285802746E+00 -0.3450665226243E+01 -0.1534520219713E+01  0.6175761360844E+00
 0.1166261045627E+00 -0.3419210828270E+01 -0.1552214816205E+01  0.6470823585740E+00
 0.4122505164912E-01 -0.3378553357410E+01 -0.1568544299729E+01  0.6738128358503E+00
-0.3953446488313E-01 -0.3328450815610E+01 -0.1582953077817E+01  0.6965959105105E+00
-0.1245017936760E+00 -0.3268747518728E+01 -0.1594827172785E+01  0.7141661761838E+00
-0.2123232028928E+00 -0.3199394255727E+01 -0.1603507201484E+01  0.7251841317425E+00
-0.3014720564663E+00 -0.3120468341127E+01 -0.1608311982790E+01  0.7282523754285E+00
-0.3903218982571E+00 -0.3032193976435E+01 -0.1608582457025E+01  0.7219245559586E+00
-0.4773034974524E+00 -0.2934969095124E+01 -0.1603768114443E+01  0.7046986074314E+00
-0.5612125442711E+00 -0.2829401688327E+01 -0.1593588685279E+01  0.6749768541016E+00
-0.6418768100083E+00 -0.2716431558147E+01 -0.1578404929030E+01  0.6309521663828E+00
-0.7212828287815E+00 -0.2597424589476E+01 -0.1559792482625E+01  0.5703297678498E+00
-0.8072365888271E+00 -0.2475880697927E+01 -0.1543065120861E+01  0.4892741697208E+00
 0.4546688269408E+00 -0.3424159509425E+01 -0.1395660617228E+01  0.4300222180075E+00
 0.4361461525996E+00 -0.3436859924676E+01 -0.1410335469299E+01  0.4603787045317E+00
 0.4109254084434E+00 -0.3442625811570E+01 -0.1424899185855E+01  0.4916012469070E+00
 0.3779436978155E+00 -0.3440264185317E+01 -0.1439290625475E+01  0.5235624245799E+00
 0.3367960116343E+00 -0.3429045656814E+01 -0.1453357329548E+01  0.5560798131687E+00
 0.2875271207450E+00 -0.3408472604480E+01 -0.1466844373635E+01  0.5887314622501E+00
 0.2304942457464E+00 -0.3378152379786E+01 -0.1479399319246E+01  0.6208469333763E+00
 0.1663021800211E+00 -0.3337745785038E+01 -0.1490578490577E+01  0.6515455571893E+00
 0.9578477240904E-01 -0.3286957108633E+01 -0.1499850994221E+01  0.6797814465313E+00
 0.2000475973033E-01 -0.3225550330861E+01 -0.1506606414610E+01  0.7043836986905E+00
-0.5973879647374E-01 -0.3153373266016E+01 -0.1510162665540E+01  0.7240894737499E+00
-0.1419067092237E+00 -0.3070383746688E+01 -0.1509776510449E+01  0.7375699164006E+00
-0.2247269066887E+00 -0.2976673806192E+01 -0.1504658331238E+01  0.7434474258310E+00
-0.3062237592730E+00 -0.2872493474368E+01 -0.1493997096022E+01  0.7402987317213E+00
-0.3842873018688E+00 -0.2758280087081E+01 -0.1477006669060E+01  0.7266306520397E+00
-0.4568088878170E+00 -0.2634702532550E+01 -0.1453010363887E+01  0.7008016806317E+00
-0.5219545796983E+00 -0.2502762980409E+01 -0.1421617249645E+01  0.6608350137213E+00
-0.5785893494233E+00 -0.2363949647514E+01 -0.1382993325053E+01  0.6040128326239E+00
-0.6273226567643E+00 -0.2220863689158E+01 -0.1338647579188E+01  0.5260149525990E+00
-0.6677726369736E+00 -0.2075241875829E+01 -0.1289216817747E+01  0.4192760610997E+00
 0.4492474396930E+00 -0.3395389589683E+01 -0.1384686806983E+01  0.4551524836964E+00
 0.4295047590312E+00 -0.3399449297286E+01 -0.1395873929439E+01  0.4873590458705E+00
 0.4027507339732E+00 -0.3394434822209E+01 -0.1406091517905E+01  0.5195543776022E+00
 0.3677822126751E+00 -0.3379211511551E+01 -0.1415371766882E+01  0.5519923148132E+00
 0.3243737697132E+00 -0.3353238659095E+01 -0.1423566494399E+01  0.5846132329506E+00
 0.2728407537628E+00 -0.3316197257849E+01 -0.1430377553293E+01  0.6169538217377E+00
 0.2138257817188E+00 -0.3267833380962E+01 -0.1435383568004E+01  0.6482273473303E+00
 0.1482314136048E+00 -0.3207902714779E+01 -0.1438045507904E+01  0.6774208510975E+00
 0.7720140767795E-01 -0.3136187723208E+01 -0.1437723564653E+01  0.7033726589906E+00
 0.2130750881635E-02 -0.3052528679747E+01 -0.1433687022930E+01  0.7248277745013E+00
-0.7532242195985E-01 -0.2956859037435E+01 -0.1425125282301E+01  0.7404759017988E+00
-0.1532237346935E+00 -0.2849229029443E+01 -0.1411152795565E+01  0.7489756248510E+00
-0.2293547620321E+00 -0.2729821737564E+01 -0.1390812951282E+01  0.7489632271483E+00
-0.3012102150692E+00 -0.2598965530183E+01 -0.1363082596811E+01  0.7390363310837E+00
-0.3659951789046E+00 -0.2457149972939E+01 -0.1326878218001E+01  0.7176912584924E+00
-0.4206137997212E+00 -0.2305064680362E+01 -0.1281068882390E+01  0.6831738284691E+00
-0.4615843387154E+00 -0.2143669975529E+01 -0.1224469524589E+01  0.6331678596089E+00
-0.4848690507784E+00 -0.1974441191424E+01 -0.1155875810903E+01  0.5641810849161E+00
-0.4847755320965E+00 -0.1799436099813E+01 -0.1073579464275E+01  0.4703780328205E+00
-0.4551919365635E+00 -0.1624071602360E+01 -0.9772538608156E+00  0.3420465749235E+00
 0.4426425820872E+00 -0.3361345704913E+01 -0.1371790464249E+01  0.4780139512042E+00
 0.4220955011380E+00 -0.3355643448574E+01 -0.1378767531798E+01  0.5111667762265E+00
 0.3940848273757E+00 -0.3338249377031E+01 -0.1383757334828E+01  0.5433049612469E+00
 0.3573573719529E+00 -0.3308394067813E+01 -0.1386987243536E+01  0.5752574706045E+00
 0.3120045688330E+00 -0.3265919005467E+01 -0.1388339781697E+01  0.6070754806307E+00
 0.2586560592710E+00 -0.3210801337507E+01 -0.1387508277252E+01  0.6381973280943E+00
 0.1982614539991E+00 -0.3142941518733E+01 -0.1383999626914E+01  0.6676803815893E+00
 0.1320077763436E+00 -0.3062185650885E+01 -0.1377183597542E+01  0.6943721483911E+00
 0.6133556955778E-01 -0.2968368733180E+01 -0.1366305583437E+01  0.7170142563599E+00
-0.1205330333184E-01 -0.2861386950671E+01 -0.1350516915956E+01  0.7342997373697E+00
-0.8616784560641E-01 -0.2741225401765E+01 -0.1328874822894E+01  0.7449035247940E+00
-0.1587015478955E+00 -0.2607967677123E+01 -0.1300334532460E+01  0.7474972153605E+00
-0.2269953916793E+00 -0.2461790949153E+01 -0.1263729576986E+01  0.7407451996180E+00
-0.2879740283692E+00 -0.2302954966224E+01 -0.1217736624370E+01  0.7232705031201E+00
-0.3380198368450E+00 -0.2131793397845E+01 -0.1160812217360E+01  0.6935688021565E+00
-0.3726990453244E+00 -0.1948710922352E+01 -0.1091062682040E+01  0.6498352736099E+00
-0.3862008516795E+00 -0.1754225582016E+01 -0.1006000421285E+01  0.5896487862168E+00
-0.3699999045844E+00 -0.1548966152927E+01 -0.9019140447430E+00  0.5094267033805E+00
-0.3106472431530E+00 -0.1334171267371E+01 -0.7730646979857E+00  0.4035695912660E+00
-0.1857087760091E+00 -0.1112520346370E+01 -0.6101676859704E+00  0.2626087659181E+00
 0.4350480124203E+00 -0.3322577105415E+01 -0.1357138670265E+01  0.4983236009833E+00
 0.4141747841217E+00 -0.3305827928868E+01 -0.1359076974584E+01  0.5312131935686E+00
 0.3851524853961E+00 -0.3274283660814E+01 -0.1357891649002E+01  0.5621160062534E+00
 0.3469278098577E+00 -0.3227987872155E+01 -0.1354098225845E+01  0.5926116615038E+00
 0.2999865939234E+00 -0.3167490632594E+01 -0.1347726894757E+01  0.6227455896148E+00
 0.2453354443981E+00 -0.3093070340415E+01 -0.1338435397733E+01  0.6517451429114E+00
 0.1841732946355E+00 -0.3004771387148E+01 -0.1325681100118E+01  0.6784585782595E+00
 0.1179649328747E+00 -0.2902431039070E+01 -0.1308699066593E+01  0.7015968845331E+00
 0.4839465283869E-01 -0.2785911357439E+01 -0.1286632847899E+01  0.7198291880916E+00
-0.2257907203305E-01 -0.2655139012459E+01 -0.1258527496519E+01  0.7318108613155E+00
-0.9269453047405E-01 -0.2510116547896E+01 -0.1223321203731E+01  0.7361940817038E+00
-0.1593439611228E+00 -0.2350902607213E+01 -0.1179815884126E+01  0.7316258934559E+00
-0.2195064416443E+00 -0.2177582856854E+01 -0.1126631967437E+01  0.7167287094051E+00
-0.2696213489656E+00 -0.1990236598404E+01 -0.1062133232570E+01  0.6900525791216E+00
-0.3053382745026E+00 -0.1788902738799E+01 -0.9842932737552E+00  0.6499871375205E+00
-0.3210314494346E+00 -0.1573558180953E+01 -0.8904571240235E+00  0.5946244778770E+00
-0.3088005280732E+00 -0.1344079607650E+01 -0.7768536618196E+00  0.5215797140322E+00
-0.2566438850517E+00 -0.1100320741201E+01 -0.6377733727210E+00  0.4278311946220E+00
-0.1443723117857E+00 -0.8418136295439E+00 -0.4635073912493E+00  0.3097231939796E+00
 0.6587829409341E-01 -0.5668155243632E+00 -0.2354404976297E+00  0.1629685088726E+00
 0.4267121305088E+00 -0.3279727748873E+01 -0.1340917337230E+01  0.5156898441419E+00
 0.4059062503049E+00 -0.3250409307243E+01 -0.1336916433370E+01  0.5467630898689E+00
 0.3761769147890E+00 -0.3202599625749E+01 -0.1328418670782E+01  0.5752153148428E+00
 0.3367078396949E+00 -0.3138264715392E+01 -0.1316731728238E+01  0.6033966960770E+00
 0.2886924032313E+00 -0.3058660440921E+01 -0.1301884974412E+01  0.6310578638362E+00
 0.2332435465596E+00 -0.2964505673708E+01 -0.1283693196504E+01  0.6570298490399E+00
 0.1719352155837E+00 -0.2855581082055E+01 -0.1261313554042E+01  0.6799360646256E+00
 0.1063977207034E+00 -0.2731723418575E+01 -0.1233903074870E+01  0.6984017223920E+00
 0.3850700985738E-01 -0.2592839723760E+01 -0.1200536372489E+01  0.7110499893964E+00
-0.2959882109706E-01 -0.2438943258125E+01 -0.1160214774291E+01  0.7164926930576E+00
-0.9547558694435E-01 -0.2270123020563E+01 -0.1111831342709E+01  0.7133201129095E+00
-0.1563259146746E+00 -0.2086522371754E+01 -0.1054138691948E+01  0.7000878368209E+00
-0.2089110429270E+00 -0.1888327621209E+01 -0.9857021696439E+00  0.6752927786970E+00
-0.2493850504198E+00 -0.1675779973619E+01 -0.9048275590033E+00  0.6373365788898E+00
-0.2729902085920E+00 -0.1449230725434E+01 -0.8094438369390E+00  0.5844860874003E+00
-0.2734950041571E+00 -0.1209260614913E+01 -0.6968951391954E+00  0.5148669335651E+00
-0.2422427252998E+00 -0.9569553195955E+00 -0.5636230796712E+00  0.4265919311726E+00
-0.1663198908777E+00 -0.6942560706210E+00 -0.4044707008785E+00  0.3182638185970E+00
-0.2588096989228E-01 -0.4250377910027E+00 -0.2119318170831E+00  0.1904037400439E+00
 0.2143690136609E+00 -0.1543961494432E+00  0.2818724611084E-01  0.4971377299512E-01
 0.4174366269837E+00 -0.3234133289492E+01 -0.1323847428021E+01  0.5295847339325E+00
 0.3971491662018E+00 -0.3190027150361E+01 -0.1312652649226E+01  0.5570518454115E+00
 0.3666352000188E+00 -0.3124006927370E+01 -0.1295964708568E+01  0.5820849073173E+00
 0.3267325908072E+00 -0.3040190486446E+01 -0.1275325207716E+01  0.6075172359320E+00
 0.2777925737388E+00 -0.2942104531306E+01 -0.1252226616880E+01  0.6320598315133E+00
 0.2220695046049E+00 -0.2828878358004E+01 -0.1225200157990E+01  0.6540782276620E+00
 0.1611158137716E+00 -0.2700273425169E+01 -0.1193404074330E+01  0.6721443167380E+00
 0.9673774825364E-01 -0.2556178185318E+01 -0.1155937002488E+01  0.6848763255532E+00
 0.3093081797826E-01 -0.2396713765640E+01 -0.1111917982581E+01  0.6908810544985E+00
-0.3404106885674E-01 -0.2222149071810E+01 -0.1060409363424E+01  0.6887263931941E+00
-0.9562136922398E-01 -0.2032894626585E+01 -0.1000402515493E+01  0.6769351959667E+00
-0.1509060535226E+00 -0.1829524109667E+01 -0.9308021743381E+00  0.6539842726984E+00
-0.1965464722828E+00 -0.1612844046081E+01 -0.8504135414740E+00  0.6183097299923E+00
-0.2285782643828E+00 -0.1384029743805E+01 -0.7579257619261E+00  0.5683330745392E+00
-0.2421369307098E+00 -0.1144861232399E+01 -0.6518891350075E+00  0.5025452502922E+00
-0.2310357983766E+00 -0.8981307631008E+00 -0.5307082825483E+00  0.4197312561475E+00
-0.1871472801936E+00 -0.6482790131093E+00 -0.3926503568565E+00  0.3195071976369E+00
-0.9993267724578E-01 -0.4026365178566E+00 -0.2362075210990E+00  0.2035492338788E+00
 0.4444864951898E-01 -0.1727720094432E+00 -0.6031197901139E-01  0.7831356755595E-01
 0.2554914441485E+00  0.1767711914523E-01  0.1283892244224E+00 -0.3829791260175E-01
 0.4068725423060E+00 -0.3187786946311E+01 -0.1307029766567E+01  0.5391363468218E+00
 0.3856298530169E+00 -0.3126397305647E+01 -0.1288160699469E+01  0.5610090603819E+00
 0.3581617015264E+00 -0.3036063855694E+01 -0.1258614009266E+01  0.5829926599732E+00
 0.3165932539929E+00 -0.2936076694244E+01 -0.1231157213795E+01  0.6056473947617E+00
 0.2673938804686E+00 -0.2820921610983E+01 -0.1200158030298E+01  0.6262327512871E+00
 0.2118021288979E+00 -0.2690206659439E+01 -0.1164850126400E+01  0.6433403155497E+00
 0.1516858182373E+00 -0.2543695226137E+01 -0.1124244418862E+01  0.6556471642268E+00
 0.8890487133388E-01 -0.2381691666082E+01 -0.1077609790798E+01  0.6618300245649E+00
 0.2557304509292E-01 -0.2204718413369E+01 -0.1024198320492E+01  0.6605054454846E+00
-0.3595335743574E-01 -0.2013523305349E+01 -0.9632540290659E+00  0.6502373087822E+00
-0.9303758118419E-01 -0.1809108513031E+01 -0.8940086620138E+00  0.6295566212711E+00
-0.1427135052925E+00 -0.1592819963586E+01 -0.8157007283038E+00  0.5969976346063E+00
-0.1815997884286E+00 -0.1366494240544E+01 -0.7276041917717E+00  0.5511624669769E+00
-0.2057712541288E+00 -0.1132685353055E+01 -0.6290746037809E+00  0.4908427202836E+00
-0.2105981090565E+00 -0.8950064901125E+00 -0.5196341602914E+00  0.4152510607397E+00
-0.1905954463990E+00 -0.6586242793370E+00 -0.3991332700836E+00  0.3244576530031E+00
-0.1395262887863E+00 -0.4310336780769E+00 -0.2681631837455E+00  0.2202089566078E+00
-0.5103689493761E-01 -0.2230100893515E+00 -0.1288020822892E+00  0.1074264957070E+00
 0.7742265203003E-01 -0.5108752324315E-01  0.1237751049844E-01 -0.2897468513072E-02
 0.2396891043454E+00  0.6391999295010E-01  0.1426962753669E+00 -0.8914334336630E-01
 0.3786470852341E+00 -0.3154972153971E+01 -0.1304872778997E+01  0.5406179010799E+00
 0.3821809378053E+00 -0.3041016866337E+01 -0.1249652883240E+01  0.5593988370287E+00
 0.3486714098701E+00 -0.2942635128142E+01 -0.1219162944495E+01  0.5798062897963E+00
 0.3074041229697E+00 -0.2828364942912E+01 -0.1184851582368E+01  0.5984670509510E+00
 0.2581324324310E+00 -0.2698284727340E+01 -0.1146871575698E+01  0.6140242464035E+00
 0.2032263514125E+00 -0.2552022094441E+01 -0.1103933996423E+01  0.6253791909410E+00
 0.1444218249537E+00 -0.2390214993978E+01 -0.1055522786764E+01  0.6313458133111E+00
 0.8372516108367E-01 -0.2213668392411E+01 -0.1001073316185E+01  0.6306574184764E+00
 0.2332634115651E-01 -0.2023445947723E+01 -0.9400562127018E+00  0.6219870160708E+00
-0.3435027440416E-01 -0.1820891264021E+01 -0.8719635208483E+00  0.6039832843830E+00
-0.8663159084889E-01 -0.1607712891469E+01 -0.7963419046696E+00  0.5753205398454E+00
-0.1305643189030E+00 -0.1386099911853E+01 -0.7128321866471E+00  0.5347756999344E+00
-0.1628756300328E+00 -0.1158884890896E+01 -0.6212274432611E+00  0.4813507038940E+00
-0.1799399066099E+00 -0.9297657912301E+00 -0.5215616766619E+00  0.4144700186319E+00
-0.1777953272624E+00 -0.7035990586252E+00 -0.4142553603165E+00  0.3342991901997E+00
-0.1523337514021E+00 -0.4867838166785E+00 -0.3003852562360E+00  0.2422554310383E+00
-0.9986416707724E-01 -0.2876731735800E+00 -0.1821425496469E+00  0.1418026206799E+00
-0.1886370677577E-01 -0.1171184841773E+00 -0.6391162958582E-01  0.3965824313341E-01
 0.8681029902542E-01  0.1224539674075E-01  0.4655617689202E-01 -0.5268911454163E-01
 0.1968487271508E+00  0.8545138665540E-01  0.1326810531524E+00 -0.1172266360279E+00
</DataArray>
<DataArray type="Float64" Name="S_Mises" NumberOfComponents="1" ComponentName0="S_Mises" format="ascii">
 0.1157274703980E+01
 0.1183907205010E+01
 0.1177301639244E+01
 0.1192420642815E+01
 0.1194391614780E+01
 0.1188478454601E+01
 0.1174448911550E+01
 0.1153498952579E+01
 0.1126405900339E+01
 0.1093844067953E+01
 0.1056310520074E+01
 0.1014157271386E+01
 0.9676008718412E+00
 0.9167360920733E+00
 0.8615468595086E+00
 0.8019163283333E+00
 0.7376358348083E+00
 0.6684165492883E+00
 0.5938926546166E+00
 0.5136325167207E+00
 0.4271386663705E+00
 0.3338413403578E+00
 0.2330669442061E+00
 0.1239306643588E+00
 0.5295948429431E-02
 0.1236507239625E+00
 0.2626746185797E+00
 0.4106164638487E+00
 0.5657106704940E+00
 0.7258970711870E+00
 0.8889115987298E+00
 0.1052134476580E+01
 0.1212209577745E+01
 0.1366014165932E+01
 0.1513338025945E+01
 0.1655691174444E+01
 0.1801486831603E+01
 0.1943324376078E+01
 0.2197783047357E+01
 0.2154689967604E+01
 0.3871573805161E+01
 0.1002226183652E+01
 0.1110270934258E+01
 0.1099652836576E+01
 0.1099520089848E+01
 0.1098011790064E+01
 0.1089548666326E+01
 0.1074792602519E+01
 0.1053913862313E+01
 0.1027466281864E+01
 0.9959135942469E+00
 0.9596450136307E+00
 0.9189440092045E+00
 0.8739898322560E+00
 0.8248603320970E+00
 0.7715380659414E+00
 0.7139172621196E+00
 0.6518111327784E+00
 0.5849605351879E+00
 0.5130404095040E+00
 0.4356661382549E+00
 0.3523981334871E+00
 0.2627353778126E+00
 0.1660949983936E+00
 0.6184259197231E-01
 0.5056742587543E-01
 0.1711532774091E+00
 0.2994882624650E+00
 0.4345011512809E+00
 0.5746417303574E+00
 0.7179812291177E+00
 0.8622256641428E+00
 0.1004696565974E+01
 0.1142516871472E+01
 0.1273098580244E+01
 0.1394220798259E+01
 0.1504839101159E+01
 0.1599735722521E+01
 0.1684657671262E+01
 0.1704628617451E+01
 0.1446878549998E+01
 0.2395365890571E+01
 0.8869317886153E+00
 0.1004437718845E+01
 0.1016669642321E+01
 0.1009756867487E+01
 0.1003926701409E+01
 0.9934175855239E+00
 0.9776572619518E+00
 0.9566685256784E+00
 0.9306721539279E+00
 0.8999798770214E+00
 0.8648695143149E+00
 0.8255587545205E+00
 0.7821876735372E+00
 0.7348152204334E+00
 0.6834202062715E+00
 0.6279054518224E+00
 0.5681031027065E+00
 0.5037824754647E+00
 0.4346564319805E+00
 0.3603883540142E+00
 0.2805996234974E+00
 0.1948714425969E+00
 0.1027667284175E+00
 0.4772479579028E-02
 0.1018998513287E+00
 0.2140994228866E+00
 0.3321501121709E+00
 0.4550048059100E+00
 0.5812353597489E+00
 0.7090100043332E+00
 0.8360774818269E+00
 0.9598483353586E+00
 0.1077627613390E+01
 0.1186528509291E+01
 0.1283118749626E+01
 0.1362227951987E+01
 0.1415918182551E+01
 0.1429724416367E+01
 0.1308319407225E+01
 0.1137947212574E+01
 0.2018134591962E+01
 0.7881434814370E+00
 0.8976752883553E+00
 0.9252708126746E+00
 0.9206243346706E+00
 0.9117090642561E+00
 0.8994366894708E+00
 0.8827420922193E+00
 0.8615338933765E+00
 0.8358730012224E+00
 0.8059325301325E+00
 0.7719004118734E+00
 0.7339329301168E+00
 0.6921331502479E+00
 0.6465408027979E+00
 0.5971297466196E+00
 0.5438095362332E+00
 0.4864292737773E+00
 0.4247848700275E+00
 0.3586256913428E+00
 0.2876635366008E+00
 0.2115853416973E+00
 0.1300750266671E+00
 0.4296642540126E-01
 0.5070539690180E-01
 0.1493850336551E+00
 0.2532762221418E+00
 0.3614704035947E+00
 0.4729187023521E+00
 0.5862684885272E+00
 0.6997771064837E+00
 0.8112861411505E+00
 0.9183159544819E+00
 0.1018159456061E+01
 0.1107570766668E+01
 0.1181941743764E+01
 0.1234125433358E+01
 0.1253483638441E+01
 0.1212495087587E+01
 0.1070628776108E+01
 0.1067937451320E+01
 0.1901827135372E+01
 0.6977994871606E+00
 0.7951880118244E+00
 0.8304585366500E+00
 0.8304826594025E+00
 0.8207785737730E+00
 0.8071857217559E+00
 0.7897315958239E+00
 0.7683020715055E+00
 0.7429154491074E+00
 0.7136581946856E+00
 0.6806482965967E+00
 0.6439916098549E+00
 0.6037583757885E+00
 0.5599706047981E+00
 0.5125969993544E+00
 0.4615527747650E+00
 0.4067025335544E+00
 0.3478673557107E+00
 0.2848325588037E+00
 0.2173606146496E+00
 0.1452171976736E+00
 0.6827714248725E-01
 0.1601686918372E-01
 0.1018438642116E+00
 0.1936163775841E+00
 0.2893706317269E+00
 0.3881662773251E+00
 0.4889546618365E+00
 0.5904436613919E+00
 0.6909858989780E+00
 0.7885433204570E+00
 0.8807393700113E+00
 0.9648348627351E+00
 0.1037298023565E+01
 0.1092912767941E+01
 0.1124013216883E+01
 0.1118555909477E+01
 0.1056599713753E+01
 0.9607807989315E+00
 0.1106193554436E+01
 0.1869831399663E+01
 0.6124180573891E+00
 0.6973655794145E+00
 0.7352931293837E+00
 0.7395952455974E+00
 0.7305929310871E+00
 0.7163524753252E+00
 0.6983607804477E+00
 0.6767782851498E+00
 0.6516534087392E+00
 0.6230433803220E+00
 0.5910214443204E+00
 0.5556561272332E+00
 0.5169913282979E+00
 0.4750341438095E+00
 0.4297489440610E+00
 0.3810563534682E+00
 0.3288358658834E+00
 0.2729336692037E+00
 0.2131737700857E+00
 0.1493834544661E+00
 0.8149378735079E-01
 0.1278590531565E-01
 0.6934594231001E-01
 0.1502457363593E+00
 0.2351257181735E+00
 0.3229867248345E+00
 0.4128711720719E+00
 0.5037462794639E+00
 0.5943845840988E+00
 0.6832470577735E+00
 0.7684344695408E+00
 0.8476907831685E+00
 0.9183067429977E+00
 0.9766866771197E+00
 0.1017680048278E+01
 0.1034149838470E+01
 0.1016735047520E+01
 0.9629055675972E+00
 0.9378554052113E+00
 0.1185221420644E+01
 0.1872339573091E+01
 0.5302686032905E+00
 0.6036578952225E+00
 0.6412590836983E+00
 0.6486448735123E+00
 0.6409716885415E+00
 0.6266861934804E+00
 0.6084225343525E+00
 0.5867905678320E+00
 0.5619516805825E+00
 0.5339792218090E+00
 0.5029293254978E+00
 0.4688475657628E+00
 0.4317593604104E+00
 0.3916608958792E+00
 0.3485141322177E+00
 0.3022461731976E+00
 0.2527530209878E+00
 0.1999112334911E+00
 0.1436039729100E+00
 0.8383238980357E-01
 0.2257947451179E-01
 0.5044826487729E-01
 0.1212680915129E+00
 0.1962892513427E+00
 0.2743913926272E+00
 0.3546577632481E+00
 0.4361427880364E+00
 0.5178513658561E+00
 0.5986354001221E+00
 0.6770814805256E+00
 0.7514513767765E+00
 0.8196517923341E+00
 0.8791171036785E+00
 0.9264824496774E+00
 0.9572409141585E+00
 0.9659962099777E+00
 0.9492875498142E+00
 0.9220623805204E+00
 0.9689292327389E+00
 0.1276526791803E+01
 0.1892227243084E+01
 0.4504020037268E+00
 0.5134171113934E+00
 0.5489990673842E+00
 0.5582310498132E+00
 0.5519637340953E+00
 0.5380370197913E+00
 0.5197583335469E+00
 0.4981975648625E+00
 0.4736912592342E+00
 0.4463667557064E+00
 0.4162879316029E+00
 0.3834923358110E+00
 0.3479956310575E+00
 0.3097884106513E+00
 0.2688340918867E+00
 0.2250710080931E+00
 0.1784223361567E+00
 0.1288300624508E+00
 0.7640958117629E-01
 0.2380107864098E-01
 0.4366050571204E-01
 0.1052400278169E+00
 0.1712206371564E+00
 0.2403424056015E+00
 0.3118437751786E+00
 0.3848548154897E+00
 0.4584698373488E+00
 0.5317553639842E+00
 0.6036626449944E+00
 0.6729249666630E+00
 0.7379944846888E+00
 0.7970006356434E+00
 0.8476620751184E+00
 0.8871309148300E+00
 0.9120531531147E+00
 0.9198013244805E+00
 0.9139258879091E+00
 0.9223045574682E+00
 0.1031052007808E+01
 0.1369362569459E+01
 0.1922564387800E+01
 0.3722571216993E+00
 0.4260836409955E+00
 0.4587415195187E+00
 0.4687804154131E+00
 0.4637128774971E+00
 0.4503506610892E+00
 0.4322633478444E+00
 0.4108939197554E+00
 0.3867782218449E+00
 0.3601260934052E+00
 0.3310301472380E+00
 0.2995344292185E+00
 0.2656548603357E+00
 0.2293847545464E+00
 0.1906995712383E+00
 0.1495713372389E+00
 0.1060220717393E+00
 0.6042613709204E-01
 0.1906616269832E-01
 0.4717672166595E-01
 0.1008279217233E+00
 0.1586192673746E+00
 0.2194404909975E+00
 0.2827472734417E+00
 0.3478694125918E+00
 0.4139932184290E+00
 0.4802778651916E+00
 0.5458754322121E+00
 0.6098588537394E+00
 0.6711323480331E+00
 0.7283738495609E+00
 0.7800050409402E+00
 0.8241697010214E+00
 0.8587833493050E+00
 0.8820453077657E+00
 0.8946226460947E+00
 0.9064639703968E+00
 0.9526090420338E+00
 0.1109777974187E+01
 0.1460170899976E+01
 0.1960153227492E+01
 0.2954818862289E+00
 0.3412153080990E+00
 0.3705269013560E+00
 0.3805799386588E+00
 0.3763942580916E+00
 0.3636526596763E+00
 0.3458975200333E+00
 0.3248254458736E+00
 0.3011628611619E+00
 0.2752192277395E+00
 0.2471335912364E+00
 0.2169720426773E+00
 0.1847665501640E+00
 0.1505367618151E+00
 0.1143255507519E+00
 0.7633502351550E-01
 0.3794667379926E-01
 0.2180646188715E-01
 0.5970938579127E-01
 0.1067947126424E+00
 0.1572914694416E+00
 0.2105396203406E+00
 0.2661908281310E+00
 0.3238182726173E+00
 0.3828144107186E+00
 0.4424377571047E+00
 0.5019344566389E+00
 0.5605649562867E+00
 0.6175468823096E+00
 0.6719815089215E+00
 0.7228110512075E+00
 0.7688191916258E+00
 0.8086980880012E+00
 0.8413143107971E+00
 0.8666498931960E+00
 0.8886408369921E+00
 0.9220385233578E+00
 0.1003854526746E+01
 0.1196675733378E+01
 0.1548148837192E+01
 0.2003323423903E+01
 0.2198466406781E+00
 0.2584877812625E+00
 0.2843410019357E+00
 0.2938501536099E+00
 0.2902178273597E+00
 0.2780616392195E+00
 0.2607225567764E+00
 0.2400388111374E+00
 0.2169010970832E+00
 0.1917282862340E+00
 0.1647272113346E+00
 0.1360190839414E+00
 0.1057196051759E+00
 0.7407731872032E-01
 0.4218320239347E-01
 0.2069633506116E-01
 0.4300311567076E-01
 0.8064669036169E-01
 0.1220799076528E+00
 0.1661441673162E+00
 0.2125689488099E+00
 0.2611771467515E+00
 0.3117254278451E+00
 0.3638424292504E+00
 0.4169873842484E+00
 0.4705070543529E+00
 0.5237540223957E+00
 0.5761182335927E+00
 0.6269845444602E+00
 0.6756777300580E+00
 0.7214423141438E+00
 0.7634860845048E+00
 0.8011441111792E+00
 0.8343462683383E+00
 0.8648892143488E+00
 0.8995198451126E+00
 0.9558567360382E+00
 0.1069095316668E+01
 0.1287061481508E+01
 0.1633481862458E+01
 0.2051091071545E+01
 0.1452079470650E+00
 0.1777270773490E+00
 0.2002518592455E+00
 0.2088854211755E+00
 0.2055407289766E+00
 0.1939140406581E+00
 0.1770648471562E+00
 0.1568938342221E+00
 0.1344406448392E+00
 0.1102752868453E+00
 0.8479553438577E-01
 0.5856543584303E-01
 0.3363769837232E-01
 0.2346896359998E-01
 0.4426457586748E-01
 0.7519140501274E-01
 0.1093752054729E+00
 0.1457832901909E+00
 0.1841898430381E+00
 0.2245294300652E+00
 0.2667463662478E+00
 0.3107311784391E+00
 0.3562821952216E+00
 0.4030802826742E+00
 0.4506621639641E+00
 0.4984774786060E+00
 0.5460022877739E+00
 0.5927751785931E+00
 0.6383694321576E+00
 0.6823584351816E+00
 0.7243231235329E+00
 0.7639440313790E+00
 0.8012576676977E+00
 0.8372854203558E+00
 0.8754901246791E+00
 0.9247145446627E+00
 0.1003623897756E+01
 0.1143345189305E+01
 0.1378430231754E+01
 0.1716653581747E+01
 0.2102805224968E+01
 0.7156260037395E-01
 0.9918880055929E-01
 0.1188498917599E+00
 0.1265780453995E+00
 0.1234682173685E+00
 0.1125142960021E+00
 0.9654366765052E-01
 0.7761783997967E-01
 0.5733481663052E-01
 0.3800662708156E-01
 0.2715771261875E-01
 0.3695435043903E-01
 0.5928367251206E-01
 0.8586761391795E-01
 0.1146495388346E+00
 0.1450960861912E+00
 0.1770594434755E+00
 0.2105163900670E+00
 0.2454839623942E+00
 0.2819769192271E+00
 0.3199754164854E+00
 0.3593980569955E+00
 0.4000815426071E+00
 0.4417670792334E+00
 0.4840803436787E+00
 0.5265867245863E+00
 0.5689005354369E+00
 0.6107259647586E+00
 0.6518438377149E+00
 0.6920983727421E+00
 0.7314342470086E+00
 0.7700360054716E+00
 0.8086604572070E+00
 0.8493676742645E+00
 0.8970041032415E+00
 0.9617065852638E+00
 0.1061737545158E+01
 0.1223160757143E+01
 0.1469500703221E+01
 0.1798184033274E+01
 0.2157987810006E+01
 0.8408429163559E-02
 0.2890500973473E-01
 0.4600336585356E-01
 0.5342207925874E-01
 0.5207168790669E-01
 0.4533310812222E-01
 0.3824501510795E-01
 0.3764782306638E-01
 0.4741173143564E-01
 0.6457585616076E-01
 0.8565696534537E-01
 0.1089705321418E+00
 0.1337952194887E+00
 0.1598179450850E+00
 0.1869119609501E+00
 0.2150452003709E+00
 0.2442367034195E+00
 0.2745301156856E+00
 0.3059742074172E+00
 0.3386035486879E+00
 0.3724179890872E+00
 0.4073646783014E+00
 0.4433261839455E+00
 0.4801141296937E+00
 0.5174537201431E+00
 0.5550371619671E+00
 0.5926296399037E+00
 0.6301155672905E+00
 0.6674997386295E+00
 0.7049152217367E+00
 0.7426889267468E+00
 0.7815212096784E+00
 0.8228688911364E+00
 0.8697105609345E+00
 0.9279178025669E+00
 0.1008165210049E+01
 0.1127314362904E+01
 0.1306219800309E+01
 0.1559664319919E+01
 0.1878538545527E+01
 0.2216256647091E+01
 0.7497165966831E-01
 0.6302272100171E-01
 0.5807284926588E-01
 0.5922856572383E-01
 0.6439568879627E-01
 0.7325259897586E-01
 0.8594253535652E-01
 0.1020272550315E+00
 0.1207119724246E+00
 0.1412558505323E+00
 0.1631220049974E+00
 0.1859669724402E+00
 0.2095909858515E+00
 0.2338938009546E+00
 0.2588432341761E+00
 0.2844534150858E+00
 0.3107687116140E+00
 0.3378492846969E+00
 0.3657578446153E+00
 0.3945449605839E+00
 0.4242335035934E+00
 0.4548064769171E+00
 0.4862015273181E+00
 0.5183102807933E+00
 0.5509666663995E+00
 0.5839990181924E+00
 0.6173339307340E+00
 0.6510482041695E+00
 0.6853838359041E+00
 0.7207755870183E+00
 0.7579410555151E+00
 0.7980885368994E+00
 0.8433200715316E+00
 0.8973658854337E+00
 0.9667441055271E+00
 0.1062036696300E+01
 0.1198119842794E+01
 0.1390977658927E+01
 0.1648672344166E+01
 0.1958102934874E+01
 0.2277286671060E+01
 0.1466338182362E+00
 0.1369018443308E+00
 0.1314842784146E+00
 0.1319705706648E+00
 0.1380987845467E+00
 0.1489504763433E+00
 0.1634827744812E+00
 0.1807084527327E+00
 0.1998016466689E+00
 0.2201427726478E+00
 0.2413053147858E+00
 0.2630167230726E+00
 0.2851184911986E+00
 0.3075345150874E+00
 0.3302480037525E+00
 0.3532845570856E+00
 0.3766989004395E+00
 0.4005625160918E+00
 0.4249523923774E+00
 0.4499390504673E+00
 0.4755748814077E+00
 0.5018868497264E+00
 0.5288763709394E+00
 0.5565234503682E+00
 0.5847784417178E+00
 0.6136134194632E+00
 0.6431248987911E+00
 0.6735916730460E+00
 0.7055026333793E+00
 0.7396013294702E+00
 0.7769941643810E+00
 0.8193714510001E+00
 0.8693990119531E+00
 0.9313679627471E+00
 0.1012087948048E+01
 0.1121575509621E+01
 0.1272459032236E+01
 0.1476415389113E+01
 0.1736457046776E+01
 0.2037180831522E+01
 0.2340789208017E+01
 0.2178938237440E+00
 0.2114750484092E+00
 0.2081891791819E+00
 0.2099251429533E+00
 0.2168844381007E+00
 0.2283311036912E+00
 0.2432049783425E+00
 0.2604737243812E+00
 0.2792898163913E+00
 0.2990267877429E+00
 0.3192552936251E+00
 0.3397008034889E+00
 0.3602038592079E+00
 0.3806891437565E+00
 0.4011428795775E+00
 0.4215962364118E+00
 0.4421124755957E+00
 0.4627754309320E+00
 0.4836796334032E+00
 0.5049206839194E+00
 0.5265870840036E+00
 0.5487572117543E+00
 0.5715037996425E+00
 0.5949022194418E+00
 0.6190254628359E+00
 0.6439953279879E+00
 0.6700847794144E+00
 0.6977816055719E+00
 0.7278275584869E+00
 0.7612761701173E+00
 0.7996109974300E+00
 0.8449635461082E+00
 0.9004649296428E+00
 0.9707733895919E+00
 0.1062686379632E+01
 0.1185335892864E+01
 0.1349064141374E+01
 0.1561867327900E+01
 0.1823028814311E+01
 0.2115990312450E+01
 0.2406497348882E+01
 0.2886924096422E+00
 0.2855734228413E+00
 0.2847643300315E+00
 0.2881216600472E+00
 0.2960463479577E+00
 0.3079970321804E+00
 0.3230289494187E+00
 0.3401615107776E+00
 0.3585615637601E+00
 0.3775981077909E+00
 0.3968302429111E+00
 0.4159717806378E+00
 0.4348547949991E+00
 0.4533998260063E+00
 0.4715934439960E+00
 0.4894716025608E+00
 0.5071069258467E+00
 0.5245978949921E+00
 0.5420602661508E+00
 0.5596196663101E+00
 0.5774066363642E+00
 0.5955573795594E+00
 0.6142222083937E+00
 0.6335774555685E+00
 0.6538235333827E+00
 0.6752363849301E+00
 0.6982700231476E+00
 0.7236256403788E+00
 0.7523000960483E+00
 0.7856524546825E+00
 0.8255233303372E+00
 0.8744338439899E+00
 0.9358745818076E+00
 0.1014690315741E+01
 0.1117426324837E+01
 0.1252142460787E+01
 0.1426993626019E+01
 0.1646910182278E+01
 0.1908425863098E+01
 0.2194640527091E+01
 0.2474146713233E+01
 0.3590502550612E+00
 0.3590687193360E+00
 0.3607665572338E+00
 0.3658680453290E+00
 0.3748632886103E+00
 0.3873653964795E+00
 0.4025572095295E+00
 0.4195337541360E+00
 0.4374932805289E+00
 0.4558087527713E+00
 0.4740307040046E+00
 0.4918615946506E+00
 0.5091244346075E+00
 0.5257350731991E+00
 0.5416803947924E+00
 0.5570018431624E+00
 0.5717829782937E+00
 0.5861394498229E+00
 0.6002117394766E+00
 0.6141599067507E+00
 0.6281615984009E+00
 0.6424161343705E+00
 0.6571563955226E+00
 0.6726639371239E+00
 0.6892700173020E+00
 0.7074076547742E+00
 0.7277146506213E+00
 0.7511074988608E+00
 0.7788368777426E+00
 0.8125579146968E+00
 0.8544416036254E+00
 0.9073409068627E+00
 0.9750012344650E+00
 0.1062297173524E+01
 0.1175346046086E+01
 0.1321051491591E+01
 0.1505553813899E+01
 0.1731273124537E+01
 0.1992750921174E+01
 0.2273060404314E+01
 0.2543374180924E+01
 0.4289988107817E+00
 0.4319722416666E+00
 0.4361270433663E+00
 0.4430192119305E+00
 0.4531651368999E+00
 0.4662901590955E+00
 0.4816907891162E+00
 0.4985399095835E+00
 0.5160744301858E+00
 0.5336780564182E+00
 0.5508974439377E+00
 0.5674264767894E+00
 0.5830806668919E+00
 0.5977722090223E+00
 0.6114893019338E+00
 0.6242801710901E+00
 0.6362411092227E+00
 0.6475073711167E+00
 0.6582472941051E+00
 0.6686591292646E+00
 0.6789717928987E+00
 0.6894519123973E+00
 0.7004187125276E+00
 0.7122619800771E+00
 0.7254459670338E+00
 0.7405622863025E+00
 0.7584335030106E+00
 0.7801909555904E+00
 0.8073346687186E+00
 0.8418022446341E+00
 0.8860639729451E+00
 0.9432450181855E+00
 0.1017248852000E+01
 0.1112851888451E+01
 0.1235627403873E+01
 0.1391308417229E+01
 0.1584243576665E+01
 0.1814775816972E+01
 0.2076140460821E+01
 0.2351374422377E+01
 0.2612923024332E+01
 0.4985688707690E+00
 0.5043181478953E+00
 0.5108510412320E+00
 0.5195429003715E+00
 0.5308959063443E+00
 0.5447109356095E+00
 0.5603778470853E+00
 0.5771414336531E+00
 0.5942792211532E+00
 0.6111902882226E+00
 0.6274219300542E+00
 0.6426629267608E+00
 0.6567237575121E+00
 0.6695147859180E+00
 0.6810270892106E+00
 0.6913172819188E+00
 0.7004962555147E+00
 0.7087211276617E+00
 0.7161907870200E+00
 0.7231447398627E+00
 0.7298663918062E+00
 0.7366927203334E+00
 0.7440317796384E+00
 0.7523832095413E+00
 0.7623449089395E+00
 0.7746668891336E+00
 0.7903553239270E+00
 0.8107532034985E+00
 0.8376019993805E+00
 0.8731043353316E+00
 0.9199956486839E+00
 0.9816148522287E+00
 0.1061938501089E+01
 0.1165547760794E+01
 0.1297404812992E+01
 0.1462117729953E+01
 0.1662449699797E+01
 0.1897151503895E+01
 0.2158239133489E+01
 0.2430219302512E+01
 0.2681683136960E+01
 0.5677935683973E+00
 0.5761574881312E+00
 0.5849865590301E+00
 0.5954730771636E+00
 0.6080777884908E+00
 0.6226465981187E+00
 0.6386417921310E+00
 0.6553707435580E+00
 0.6721504044839E+00
 0.6883979847412E+00
 0.7036652297900E+00
 0.7176392942595E+00
 0.7301283970645E+00
 0.7410432413608E+00
 0.7503795999459E+00
 0.7582041826604E+00
 0.7646442637061E+00
 0.7698808041888E+00
 0.7741454575748E+00
 0.7777213628593E+00
 0.7809487691704E+00
 0.7842370515887E+00
 0.7880845184163E+00
 0.7931012007140E+00
 0.8000181886985E+00
 0.8097424826774E+00
 0.8234612454171E+00
 0.8427241191459E+00
 0.8695040643425E+00
 0.9062495017605E+00
 0.9559269348082E+00
 0.1022035674442E+01
 0.1108555529109E+01
 0.1219803676346E+01
 0.1360105162355E+01
 0.1533010583906E+01
 0.1739935795051E+01
 0.1978276817632E+01
 0.2239641190227E+01
 0.2507729207563E+01
 0.2761182101154E+01
 0.6367053759558E+00
 0.6475499705637E+00
 0.6586042453676E+00
 0.6708809654155E+00
 0.6847806084650E+00
 0.7001691260717E+00
 0.7165616413899E+00
 0.7333175067993E+00
 0.7497899765844E+00
 0.7654156224308E+00
 0.7797536023597E+00
 0.7924926145581E+00
 0.8034413763575E+00
 0.8125131817909E+00
 0.8197103644934E+00
 0.8251113825561E+00
 0.8288614869825E+00
 0.8311671181755E+00
 0.8322944030862E+00
 0.8325718362850E+00
 0.8323980922598E+00
 0.8322561571336E+00
 0.8327351854941E+00
 0.8345553540655E+00
 0.8385797674318E+00
 0.8458702840455E+00
 0.8577916224908E+00
 0.8760941755471E+00
 0.9029716844264E+00
 0.9410992678918E+00
 0.9936429936708E+00
 0.1064216991866E+01
 0.1156750365329E+01
 0.1275252980520E+01
 0.1423412451554E+01
 0.1603812960957E+01
 0.1816700089538E+01
 0.2058478859018E+01
 0.2320210255492E+01
 0.2586770566710E+01
 0.2841111730971E+01
 0.7053343444677E+00
 0.7185454102467E+00
 0.7317621230678E+00
 0.7458232290807E+00
 0.7610559276030E+00
 0.7773260547788E+00
 0.7941840471772E+00
 0.8110305185818E+00
 0.8272508296752E+00
 0.8423010524421E+00
 0.8557500014421E+00
 0.8672907634464E+00
 0.8767352466895E+00
 0.8840016262630E+00
 0.8891006908418E+00
 0.8921242460538E+00
 0.8932369350532E+00
 0.8926719858170E+00
 0.8907312213882E+00
 0.8877895761110E+00
 0.8843049651309E+00
 0.8808343462179E+00
 0.8780574182328E+00
 0.8768033521674E+00
 0.8780651734567E+00
 0.8830564889919E+00
 0.8933150393573E+00
 0.9107849036313E+00
 0.9378690067266E+00
 0.9774502889435E+00
 0.1032865813438E+01
 0.1107806839959E+01
 0.1206112731814E+01
 0.1331463329998E+01
 0.1486931121381E+01
 0.1674225373591E+01
 0.1892610689460E+01
 0.2137685251426E+01
 0.2400293876084E+01
 0.2666641703267E+01
 0.2921401618368E+01
 0.7737093260499E+00
 0.7891915884816E+00
 0.8045176383325E+00
 0.8203587111497E+00
 0.8369596704750E+00
 0.8541700426383E+00
 0.8715602603904E+00
 0.8885619360343E+00
 0.9045878115663E+00
 0.9191128252194E+00
 0.9317170846237E+00
 0.9421005707839E+00
 0.9500809426137E+00
 0.9555835116189E+00
 0.9586293821451E+00
 0.9593252062712E+00
 0.9578562249595E+00
 0.9544834192982E+00
 0.9495450470150E+00
 0.9434629487373E+00
 0.9367543687671E+00
 0.9300497993404E+00
 0.9241183527175E+00
 0.9198962101759E+00
 0.9185033936590E+00
 0.9213012886056E+00
 0.9299952158785E+00
 0.9467150457250E+00
 0.9740609541191E+00
 0.1015105875404E+01
 0.1073333173040E+01
 0.1152481960938E+01
 0.1256276476392E+01
 0.1388061234770E+01
 0.1550329088491E+01
 0.1744011457120E+01
 0.1967545456679E+01
 0.2215905788849E+01
 0.2479938270587E+01
 0.2746835200580E+01
 0.3002182326716E+01
 0.8418581227958E+00
 0.8595340487510E+00
 0.8769266476284E+00
 0.8945464149258E+00
 0.9125496173533E+00
 0.9307564686163E+00
 0.9487441919287E+00
 0.9659658869878E+00
 0.9818567935928E+00
 0.9959095767935E+00
 0.1007716794032E+01
 0.1016987511830E+01
 0.1023547538715E+01
 0.1027331497732E+01
 0.1028372592143E+01
 0.1026793684433E+01
 0.1022801586660E+01
 0.1016685646590E+01
 0.1008820817108E+01
 0.9996757162041E+00
 0.9898263170972E+00
 0.9799754624271E+00
 0.9709797783161E+00
 0.9638797088963E+00
 0.9599186018481E+00
 0.9606009102444E+00
 0.9677933762513E+00
 0.9838032480186E+00
 0.1011416168895E+01
 0.1053878929030E+01
 0.1114800965310E+01
 0.1197948326514E+01
 0.1306916989024E+01
 0.1444724247382E+01
 0.1613328441520E+01
 0.1812976136273E+01
 0.2041409940306E+01
 0.2293136366647E+01
 0.2559071162731E+01
 0.2827105110065E+01
 0.3083482137879E+01
 0.9098075943808E+00
 0.9296161640607E+00
 0.9490430236832E+00
 0.9684445215384E+00
 0.9878840412305E+00
 0.1007142034012E+01
 0.1025791222977E+01
 0.1043297575299E+01
 0.1059114041836E+01
 0.1072749589144E+01
 0.1083810030428E+01
 0.1092015442314E+01
 0.1097202018370E+01
 0.1099315763141E+01
 0.1098403655195E+01
 0.1094605971549E+01
 0.1088151820330E+01
 0.1079359173049E+01
 0.1068639468744E+01
 0.1056507401086E+01
 0.1043596419104E+01
 0.1030679831468E+01
 0.1018699164890E+01
 0.1008795679815E+01
 0.1002331713220E+01
 0.1000949448885E+01
 0.1006670353435E+01
 0.1021970400336E+01
 0.1049809461131E+01
 0.1093594188003E+01
 0.1157044603481E+01
 0.1243940751512E+01
 0.1357747768904E+01
 0.1501174280863E+01
 0.1675694610973E+01
 0.1880957318585E+01
 0.2114125450083E+01
 0.2369347079946E+01
 0.2637612131252E+01
 0.2907315986201E+01
 0.3165268873123E+01
 0.9775837480978E+00
 0.9994792960198E+00
 0.1020918566984E+01
 0.1042109921645E+01
 0.1063020948466E+01
 0.1083383914573E+01
 0.1102757441459E+01
 0.1120612681538E+01
 0.1136415781629E+01
 0.1149690477265E+01
 0.1160056415462E+01
 0.1167246400908E+01
 0.1171109098879E+01
 0.1171603850720E+01
 0.1168792961976E+01
 0.1162835151799E+01
 0.1153982290851E+01
 0.1142580874330E+01
 0.1129078159685E+01
 0.1114033664447E+01
 0.1098136441012E+01
 0.1082227721745E+01
 0.1067330656660E+01
 0.1054683235772E+01
 0.1045761858409E+01
 0.1042340582858E+01
 0.1046588526428E+01
 0.1061141730202E+01
 0.1089123898342E+01
 0.1134089972180E+01
 0.1199859835338E+01
 0.1290221946184E+01
 0.1408516971940E+01
 0.1557171284895E+01
 0.1737228177893E+01
 0.1947818229451E+01
 0.2185620079806E+01
 0.2444496232912E+01
 0.2715492477366E+01
 0.2987381236404E+01
 0.3247485013266E+01
 0.1045211814898E+01
 0.1069162983543E+01
 0.1092603069915E+01
 0.1115598027890E+01
 0.1138017667390E+01
 0.1159539247291E+01
 0.1179699150475E+01
 0.1197966963219E+01
 0.1213817903279E+01
 0.1226788980251E+01
 0.1236514138631E+01
 0.1242740488636E+01
 0.1245331131760E+01
 0.1244260589114E+01
 0.1239607911762E+01
 0.1231551102365E+01
 0.1220364996879E+01
 0.1206424159706E+01
 0.1190210552590E+01
 0.1172326737317E+01
 0.1153514909146E+01
 0.1134681062195E+01
 0.1116926073021E+01
 0.1101579987222E+01
 0.1090227816832E+01
 0.1084769214184E+01
 0.1087513633630E+01
 0.1101248704821E+01
 0.1129252614290E+01
 0.1175219560366E+01
 0.1243063158531E+01
 0.1336581324243E+01
 0.1459004097082E+01
 0.1612507798283E+01
 0.1797758385563E+01
 0.2013440909877E+01
 0.2255826285902E+01
 0.2518538846251E+01
 0.2792655641119E+01
 0.3067236380065E+01
 0.3330060902823E+01
 0.1112716314627E+01
 0.1138705121420E+01
 0.1164144431173E+01
 0.1188962709297E+01
 0.1212930597446E+01
 0.1235664767186E+01
 0.1256672481102E+01
 0.1275415903210E+01
 0.1291375666752E+01
 0.1304100715838E+01
 0.1313239745129E+01
 0.1318555675748E+01
 0.1319927922420E+01
 0.1317347927994E+01
 0.1310912773857E+01
 0.1300820397636E+01
 0.1287368538807E+01
 0.1270959027672E+01
 0.1252106983510E+01
 0.1231455726949E+01
 0.1209797576570E+01
 0.1188099541132E+01
 0.1167535746718E+01
 0.1149523079273E+01
 0.1135749249592E+01
 0.1128232879240E+01
 0.1129416314898E+01
 0.1142230604478E+01
 0.1170100220772E+01
 0.1216852114053E+01
 0.1286491793452E+01
 0.1382833523921E+01
 0.1509016733473E+01
 0.1667004129318E+01
 0.1857137580980E+01
 0.2077721434376E+01
 0.2324680051346E+01
 0.2591429978536E+01
 0.2869053460572E+01
 0.3146826689180E+01
 0.3412922282525E+01
 0.1180121116805E+01
 0.1208142139264E+01
 0.1235588816191E+01
 0.1262256331430E+01
 0.1287815106356E+01
 0.1311816602673E+01
 0.1333733148607E+01
 0.1353014475832E+01
 0.1369143500582E+01
 0.1381680013999E+01
 0.1390287996244E+01
 0.1394747680898E+01
 0.1394956625202E+01
 0.1390924852719E+01
 0.1382768631792E+01
 0.1370706297883E+01
 0.1355058170613E+01
 0.1336252202184E+01
 0.1314834704921E+01
 0.1291486988710E+01
 0.1267047943954E+01
 0.1242541292633E+01
 0.1219209387036E+01
 0.1198550235710E+01
 0.1182347917828E+01
 0.1172733117927E+01
 0.1172273578094E+01
 0.1184035980340E+01
 0.1211584067030E+01
 0.1258873440844E+01
 0.1330003563613E+01
 0.1428817030044E+01
 0.1558387761714E+01
 0.1720504408528E+01
 0.1915236913125E+01
 0.2140566721970E+01
 0.2392120477333E+01
 0.2663125686446E+01
 0.2944642855388E+01
 0.3226101978181E+01
 0.3495994976349E+01
 0.1247449495809E+01
 0.1277509164994E+01
 0.1306980822460E+01
 0.1335529835058E+01
 0.1362725489886E+01
 0.1388050136239E+01
 0.1410936257314E+01
 0.1430816935469E+01
 0.1447174797361E+01
 0.1459579726844E+01
 0.1467711692656E+01
 0.1471369805394E+01
 0.1470471589125E+01
 0.1465047246850E+01
 0.1455233272704E+01
 0.1441268679676E+01
 0.1423495788700E+01
 0.1402367199517E+01
 0.1378458051278E+01
 0.1352484410782E+01
 0.1325327682182E+01
 0.1298063472452E+01
 0.1271996819226E+01
 0.1248700664358E+01
 0.1230048744757E+01
 0.1218276664679E+01
 0.1216070060600E+01
 0.1226623878015E+01
 0.1253635243777E+01
 0.1301186512853E+01
 0.1373476607374E+01
 0.1474392802976E+01
 0.1606972833880E+01
 0.1772873217986E+01
 0.1971942856985E+01
 0.2201892096442E+01
 0.2458089114620E+01
 0.2733582757744E+01
 0.3019383383157E+01
 0.3305014551450E+01
 0.3579207782093E+01
 0.1314724186257E+01
 0.1346840180468E+01
 0.1378363652216E+01
 0.1408832848773E+01
 0.1437714987474E+01
 0.1464419928033E+01
 0.1488336160535E+01
 0.1508876643933E+01
 0.1525521730519E+01
 0.1537851045911E+01
 0.1545561496297E+01
 0.1548472761527E+01
 0.1546524196000E+01
 0.1539767746462E+01
 0.1528361067705E+01
 0.1512563955405E+01
 0.1492739906308E+01
 0.1469364375250E+01
 0.1443038577330E+01
 0.1414509662557E+01
 0.1384697008175E+01
 0.1354722775723E+01
 0.1325948653534E+01
 0.1300015878957E+01
 0.1278880779740E+01
 0.1264876525101E+01
 0.1260799158940E+01
 0.1269964914988E+01
 0.1296199441708E+01
 0.1343711875382E+01
 0.1416809076185E+01
 0.1519443066710E+01
 0.1654648243762E+01
 0.1823992842908E+01
 0.2027154491121E+01
 0.2261619397495E+01
 0.2522529198851E+01
 0.2802758114051E+01
 0.3093235770257E+01
 0.3383518706010E+01
 0.3662494521377E+01
 0.1381967439035E+01
 0.1416168174922E+01
 0.1449779295586E+01
 0.1482213834799E+01
 0.1512835851443E+01
 0.1540979702824E+01
 0.1565986382018E+01
 0.1587245950086E+01
 0.1604235112315E+01
 0.1616543351825E+01
 0.1623885779485E+01
 0.1626104526543E+01
 0.1623162724684E+01
 0.1615135621750E+01
 0.1602202880167E+01
 0.1584645019869E+01
 0.1562845652144E+01
 0.1537300990391E+01
 0.1508635208293E+01
 0.1477622445630E+01
 0.1445215052637E+01
 0.1412575934941E+01
 0.1381116922360E+01
 0.1352540476781E+01
 0.1328878105523E+01
 0.1312552983331E+01
 0.1306464078737E+01
 0.1314042275632E+01
 0.1339237743804E+01
 0.1386388041547E+01
 0.1459918923608E+01
 0.1563870348467E+01
 0.1701309240989E+01
 0.1873761135580E+01
 0.2080781433179E+01
 0.2319675543608E+01
 0.2585384959544E+01
 0.2870608302526E+01
 0.3166161249264E+01
 0.3461571071100E+01
 0.3745795642127E+01
 0.1449201079603E+01
 0.1485525289576E+01
 0.1521268707385E+01
 0.1555720238299E+01
 0.1588139428129E+01
 0.1617782349257E+01
 0.1643939540745E+01
 0.1665976057683E+01
 0.1683364223189E+01
 0.1695704020262E+01
 0.1702730418746E+01
 0.1704310133033E+01
 0.1700432145900E+01
 0.1691196584506E+01
 0.1676805895214E+01
 0.1657561112645E+01
 0.1633864678129E+01
 0.1606231178536E+01
 0.1575304281641E+01
 0.1541880626038E+01
 0.1506940098131E+01
 0.1471680077450E+01
 0.1437555566687E+01
 0.1406322756224E+01
 0.1380080577308E+01
 0.1361334434999E+01
 0.1353078708066E+01
 0.1358852536908E+01
 0.1382727275002E+01
 0.1429171802990E+01
 0.1502743709911E+01
 0.1607596668214E+01
 0.1746868635805E+01
 0.1922089764179E+01
 0.2132742132708E+01
 0.2375991253359E+01
 0.2646600842923E+01
 0.2937088939796E+01
 0.3238121186005E+01
 0.3539131065940E+01
 0.3829059313411E+01
 0.1516446572160E+01
 0.1554942967948E+01
 0.1592871998386E+01
 0.1629398666003E+01
 0.1663676282342E+01
 0.1694879970194E+01
 0.1722247327104E+01
 0.1745116939566E+01
 0.1762956680713E+01
 0.1775378261904E+01
 0.1782138619525E+01
 0.1783131489584E+01
 0.1778373948207E+01
 0.1767992627964E+01
 0.1752213482008E+01
 0.1731357712075E+01
 0.1705845095491E+01
 0.1676205935849E+01
 0.1643099604083E+01
 0.1607340372312E+01
 0.1569929812533E+01
 0.1532093067555E+01
 0.1495320896954E+01
 0.1461415300084E+01
 0.1432534521223E+01
 0.1411258177127E+01
 0.1400668452225E+01
 0.1404406472752E+01
 0.1426661869782E+01
 0.1472038629591E+01
 0.1545240602033E+01
 0.1650563053682E+01
 0.1791255852490E+01
 0.1968902979281E+01
 0.2182962646203E+01
 0.2430500104155E+01
 0.2706120932011E+01
 0.3002154397027E+01
 0.3309077105925E+01
 0.3616161598603E+01
 0.3912242494502E+01
 0.1583725089276E+01
 0.1624452106909E+01
 0.1664628629562E+01
 0.1703295074171E+01
 0.1739496336224E+01
 0.1772323947209E+01
 0.1800960486709E+01
 0.1824717248757E+01
 0.1843058293466E+01
 0.1855608936675E+01
 0.1862150707083E+01
 0.1862607162035E+01
 0.1857025920686E+01
 0.1845561820024E+01
 0.1828465005589E+01
 0.1806076373748E+01
 0.1778831348635E+01
 0.1747273040325E+01
 0.1712072427759E+01
 0.1674056201571E+01
 0.1634241378926E+01
 0.1593873733963E+01
 0.1554471929603E+01
 0.1517875427454E+01
 0.1486293298096E+01
 0.1462371065572E+01
 0.1449270946715E+01
 0.1450729761038E+01
 0.1471052687851E+01
 0.1514983090451E+01
 0.1587386494490E+01
 0.1692729286402E+01
 0.1834416302357E+01
 0.2014136726786E+01
 0.2231375694359E+01
 0.2483137735414E+01
 0.2763888391055E+01
 0.3065757503917E+01
 0.3378990772393E+01
 0.3692629686011E+01
 0.3995311781173E+01
 0.1651057590793E+01
 0.1694083215745E+01
 0.1736577618728E+01
 0.1777454975724E+01
 0.1815649032381E+01
 0.1850165029613E+01
 0.1880128823825E+01
 0.1904824240824E+01
 0.1923712917154E+01
 0.1936436362632E+01
 0.1942803906880E+01
 0.1942772141273E+01
 0.1936421920520E+01
 0.1923938079896E+01
 0.1905595619853E+01
 0.1881754546246E+01
 0.1852864060438E+01
 0.1819476934625E+01
 0.1782271380347E+01
 0.1742080968599E+01
 0.1699931557041E+01
 0.1657082017845E+01
 0.1615070635164E+01
 0.1575765551323E+01
 0.1541417772075E+01
 0.1514730083466E+01
 0.1498936697597E+01
 0.1497863649319E+01
 0.1515928841283E+01
 0.1558019364770E+01
 0.1629178320293E+01
 0.1734073940867E+01
 0.1876311123914E+01
 0.2057738139045E+01
 0.2277920030070E+01
 0.2533841243182E+01
 0.2819845000936E+01
 0.3127849315973E+01
 0.3447824321220E+01
 0.3768507038763E+01
 0.4078244222638E+01
 0.1718464912843E+01
 0.1763866588042E+01
 0.1808757765572E+01
 0.1851923672543E+01
 0.1892183526458E+01
 0.1928453452622E+01
 0.1959801229132E+01
 0.1985483713318E+01
 0.2004962320516E+01
 0.2017898129158E+01
 0.2024132126198E+01
 0.2023657611219E+01
 0.2016591640743E+01
 0.2003150954709E+01
 0.1983636059040E+01
 0.1958425382043E+01
 0.1927979867044E+01
 0.1892858590428E+01
 0.1853742366665E+01
 0.1811465814880E+01
 0.1767056692502E+01
 0.1721779057111E+01
 0.1677182112956E+01
 0.1635153457060E+01
 0.1597976700327E+01
 0.1568402839323E+01
 0.1549729671611E+01
 0.1545865606326E+01
 0.1561338064450E+01
 0.1601181876464E+01
 0.1670633584749E+01
 0.1774594743755E+01
 0.1916917306194E+01
 0.2099665408499E+01
 0.2322540117450E+01
 0.2582548773448E+01
 0.2873930797076E+01
 0.3188378940612E+01
 0.3515540429082E+01
 0.3843770643975E+01
 0.4161028145600E+01
 0.1785967869244E+01
 0.1833832485875E+01
 0.1881207891738E+01
 0.1926746504772E+01
 0.1969148895077E+01
 0.2007239064327E+01
 0.2040025705854E+01
 0.2066739931588E+01
 0.2086846026561E+01
 0.2100028876939E+01
 0.2106165696866E+01
 0.2105290674447E+01
 0.2097560333134E+01
 0.2083225348568E+01
 0.2062612377757E+01
 0.2036117491126E+01
 0.2004211187391E+01
 0.1967455297387E+01
 0.1926528382912E+01
 0.1882260017111E+01
 0.1835672612056E+01
 0.1788027144144E+01
 0.1740874629417E+01
 0.1696112439442E+01
 0.1656046983353E+01
 0.1623467937644E+01
 0.1601727783538E+01
 0.1594809911935E+01
 0.1607347384071E+01
 0.1644526012612E+01
 0.1711791082059E+01
 0.1814309208873E+01
 0.1956228141762E+01
 0.2139887977491E+01
 0.2365186042727E+01
 0.2629199223535E+01
 0.2926083702768E+01
 0.3247293287735E+01
 0.3582102364508E+01
 0.3918403201417E+01
 0.4243663891946E+01
 0.1853587368032E+01
 0.1904011344893E+01
 0.1953967108306E+01
 0.2001969131923E+01
 0.2046594375248E+01
 0.2086571478711E+01
 0.2120849413108E+01
 0.2148635562442E+01
 0.2169401154190E+01
 0.2182860074037E+01
 0.2188931112837E+01
 0.2187694073426E+01
 0.2179348528105E+01
 0.2164181249161E+01
 0.2142545687267E+01
 0.2114854687112E+01
 0.2081585978750E+01
 0.2043300428933E+01
 0.2000669296292E+01
 0.1954510787910E+01
 0.1905834457095E+01
 0.1855889608527E+01
 0.1806219570622E+01
 0.1758721348004E+01
 0.1715713825534E+01
 0.1680015272498E+01
 0.1655023333244E+01
 0.1644788240811E+01
 0.1654043847554E+01
 0.1688128986729E+01
 0.1752711858767E+01
 0.1853255615372E+01
 0.1994254079968E+01
 0.2178387116296E+01
 0.2405813729626E+01
 0.2673732124741E+01
 0.2976239230608E+01
 0.3304536818005E+01
 0.3647474006315E+01
 0.3992393536285E+01
 0.4326164610382E+01
 0.1921344545497E+01
 0.1974434002787E+01
 0.2027075112459E+01
 0.2077637844993E+01
 0.2124569630348E+01
 0.2166500245021E+01
 0.2202318712532E+01
 0.2231211598621E+01
 0.2252662241359E+01
 0.2266419768393E+01
 0.2272450742706E+01
 0.2270885887308E+01
 0.2261971731146E+01
 0.2246033430849E+01
 0.2223451866048E+01
 0.2194655702733E+01
 0.2160127453820E+01
 0.2120423159090E+01
 0.2076201562702E+01
 0.2028262999908E+01
 0.1977596425056E+01
 0.1925430592793E+01
 0.1873291275629E+01
 0.1823064506367E+01
 0.1777070771375E+01
 0.1738146210483E+01
 0.1709723360982E+01
 0.1695910211286E+01
 0.1701535284261E+01
 0.1732090824517E+01
 0.1793480405374E+01
 0.1891494315376E+01
 0.2031023970415E+01
 0.2215156878074E+01
 0.2444385438836E+01
 0.2716087670016E+01
 0.3024330197396E+01
 0.3360051219365E+01
 0.3711619757178E+01
 0.4065736924275E+01
 0.4408557039663E+01
 0.1989260920964E+01
 0.2045131956579E+01
 0.2100572519790E+01
 0.2153799915066E+01
 0.2203125045392E+01
 0.2247075032827E+01
 0.2284479214639E+01
 0.2314507268994E+01
 0.2336661044707E+01
 0.2350732312818E+01
 0.2356742514857E+01
 0.2354879203658E+01
 0.2345440096557E+01
 0.2328791135820E+01
 0.2305341246567E+01
 0.2275533876539E+01
 0.2239853760832E+01
 0.2198848131038E+01
 0.2153157882291E+01
 0.2103558831810E+01
 0.2051011415828E+01
 0.1996714716578E+01
 0.1942166744099E+01
 0.1889231497170E+01
 0.1840219607761E+01
 0.1797973653048E+01
 0.1765949911861E+01
 0.1748303892458E+01
 0.1749951095552E+01
 0.1776535471760E+01
 0.1834206082237E+01
 0.1929109387429E+01
 0.2066586724722E+01
 0.2250205464933E+01
 0.2480870580590E+01
 0.2756206900174E+01
 0.3070286448361E+01
 0.3413774998243E+01
 0.3774504341989E+01
 0.4138435327475E+01
 0.4490882292327E+01
 0.2057358576160E+01
 0.2116137655596E+01
 0.2174501240793E+01
 0.2230503986335E+01
 0.2282312056850E+01
 0.2328345834522E+01
 0.2367375823873E+01
 0.2398559932396E+01
 0.2421426314248E+01
 0.2435818063092E+01
 0.2441819578486E+01
 0.2439681770858E+01
 0.2429758086295E+01
 0.2412457742599E+01
 0.2388218288441E+01
 0.2357496821405E+01
 0.2320777637252E+01
 0.2278595087704E+01
 0.2231566802514E+01
 0.2180437345064E+01
 0.2126130590391E+01
 0.2069806634482E+01
 0.2012925221194E+01
 0.1957316813025E+01
 0.1905270130232E+01
 0.1859621974511E+01
 0.1823840205374E+01
 0.1802116266268E+01
 0.1799443072387E+01
 0.1821612026894E+01
 0.1875024789864E+01
 0.1966210659785E+01
 0.2101013438164E+01
 0.2283557058429E+01
 0.2515246889946E+01
 0.2794032079499E+01
 0.3114034600311E+01
 0.3465642986339E+01
 0.3836092498175E+01
 0.4210497556748E+01
 0.4573196660782E+01
 0.2125660363582E+01
 0.2187484837474E+01
 0.2248904910209E+01
 0.2307800520793E+01
 0.2362183520326E+01
 0.2410363183742E+01
 0.2451052777005E+01
 0.2483404947958E+01
 0.2506983536454E+01
 0.2521693044461E+01
 0.2527689938362E+01
 0.2525295631526E+01
 0.2514924116135E+01
 0.2497030425334E+01
 0.2472081241995E+01
 0.2440546078922E+01
 0.2402906040860E+01
 0.2359678467567E+01
 0.2311452271013E+01
 0.2258933992248E+01
 0.2203002841104E+01
 0.2144770484869E+01
 0.2085647654073E+01
 0.2027419364484E+01
 0.1972339760813E+01
 0.1923226820404E+01
 0.1883546692927E+01
 0.1857513627539E+01
 0.1850186225255E+01
 0.1867496087105E+01
 0.1916100881617E+01
 0.2002936119129E+01
 0.2134400010716E+01
 0.2315254171931E+01
 0.2547502019679E+01
 0.2829507290951E+01
 0.3155497803829E+01
 0.3515585749912E+01
 0.3896348551393E+01
 0.4281939358642E+01
 0.4655572438766E+01
 0.2194190148729E+01
 0.2259208913482E+01
 0.2323829375366E+01
 0.2385742297000E+01
 0.2442794111634E+01
 0.2493178377406E+01
 0.2535553656073E+01
 0.2569075499356E+01
 0.2593354622020E+01
 0.2608368563478E+01
 0.2614356041539E+01
 0.2611716716216E+01
 0.2600930168831E+01
 0.2582499783130E+01
 0.2556921780418E+01
 0.2524676736340E+01
 0.2486239733012E+01
 0.2442106938392E+01
 0.2392833108735E+01
 0.2339080025055E+01
 0.2281674138644E+01
 0.2221669191138E+01
 0.2160415977559E+01
 0.2099641798029E+01
 0.2041552965775E+01
 0.1988934710524E+01
 0.1945236945479E+01
 0.1914681864313E+01
 0.1902379571922E+01
 0.1914391160186E+01
 0.1957629284199E+01
 0.2039454694392E+01
 0.2166870291022E+01
 0.2345360576603E+01
 0.2577635603374E+01
 0.2862579270546E+01
 0.3194595498230E+01
 0.3563528849987E+01
 0.3955235825249E+01
 0.4352783370004E+01
 0.4738098678497E+01
 0.2262973094143E+01
 0.2331347418552E+01
 0.2399323263993E+01
 0.2464384984371E+01
 0.2524200780301E+01
 0.2576843717167E+01
 0.2620921390461E+01
 0.2655602389823E+01
 0.2680557560499E+01
 0.2695850794493E+01
 0.2701814352862E+01
 0.2698934441120E+01
 0.2687761423773E+01
 0.2668849493688E+01
 0.2642724658614E+01
 0.2609877067297E+01
 0.2570772877955E+01
 0.2525882934961E+01
 0.2475722471098E+01
 0.2420901870810E+01
 0.2362186824766E+01
 0.2300563683683E+01
 0.2237312294591E+01
 0.2174089685424E+01
 0.2113040528788E+01
 0.2056902495437E+01
 0.2009093413599E+01
 0.1973826655960E+01
 0.1956246918021E+01
 0.1962530178030E+01
 0.1999837869463E+01
 0.2075969480635E+01
 0.2198579845938E+01
 0.2373964941838E+01
 0.2605661940183E+01
 0.2893198602403E+01
 0.3231243235641E+01
 0.3609392018703E+01
 0.4012715988886E+01
 0.4423059065405E+01
 0.4820882024490E+01
 0.2332035991158E+01
 0.2403940533165E+01
 0.2475438636519E+01
 0.2543787790429E+01
 0.2606463240674E+01
 0.2661412742403E+01
 0.2707198210027E+01
 0.2743013764018E+01
 0.2768605996002E+01
 0.2784140295271E+01
 0.2790054874379E+01
 0.2786931264807E+01
 0.2775395857021E+01
 0.2756055942814E+01
 0.2729467347230E+01
 0.2696128141240E+01
 0.2656492599257E+01
 0.2611002137900E+01
 0.2560127230249E+01
 0.2504420406345E+01
 0.2444578775170E+01
 0.2381511961710E+01
 0.2316417864682E+01
 0.2250870490657E+01
 0.2186938577975E+01
 0.2127296557300E+01
 0.2075312944863E+01
 0.2035173471582E+01
 0.2012037515664E+01
 0.2012177005412E+01
 0.2042989988334E+01
 0.2112721347218E+01
 0.2229720353604E+01
 0.2401185244413E+01
 0.2631613373547E+01
 0.2921321298620E+01
 0.3265352509208E+01
 0.3653088131069E+01
 0.4068748232519E+01
 0.4492802590858E+01
 0.4904047404088E+01
 0.2401407651330E+01
 0.2477031695349E+01
 0.2552231744697E+01
 0.2624014199180E+01
 0.2689644510000E+01
 0.2746940454912E+01
 0.2794425544339E+01
 0.2831334752405E+01
 0.2857508724641E+01
 0.2873231459456E+01
 0.2879060623380E+01
 0.2875682224459E+01
 0.2863803836250E+01
 0.2844087857140E+01
 0.2817119671014E+01
 0.2783403431941E+01
 0.2743378524648E+01
 0.2697452925567E+01
 0.2646047310838E+01
 0.2589650161769E+01
 0.2528882464459E+01
 0.2464568025161E+01
 0.2397811927181E+01
 0.2330092335654E+01
 0.2263387380091E+01
 0.2200291758630E+01
 0.2144106052505E+01
 0.2098967355276E+01
 0.2070026583716E+01
 0.2063627930582E+01
 0.2087387165068E+01
 0.2149992958750E+01
 0.2260524708009E+01
 0.2427174108826E+01
 0.2655544566027E+01
 0.2946910923786E+01
 0.3296830640966E+01
 0.3694521967112E+01
 0.4123288329903E+01
 0.4562056584530E+01
 0.4987738636440E+01
 0.2471119368914E+01
 0.2550668324624E+01
 0.2629763922167E+01
 0.2705132821674E+01
 0.2773811503689E+01
 0.2833483535139E+01
 0.2882643863308E+01
 0.2920587036151E+01
 0.2947269119706E+01
 0.2963111921852E+01
 0.2968807094330E+01
 0.2965154484244E+01
 0.2952947748589E+01
 0.2932905981661E+01
 0.2905643495683E+01
 0.2871668471166E+01
 0.2831402366863E+01
 0.2785215847860E+01
 0.2733475029100E+01
 0.2676598504357E+01
 0.2615123982962E+01
 0.2549780724636E+01
 0.2481570403127E+01
 0.2411862601423E+01
 0.2342529927986E+01
 0.2276070151524E+01
 0.2215695932753E+01
 0.2165472481968E+01
 0.2130515664386E+01
 0.2117213109877E+01
 0.2133371930938E+01
 0.2188113215022E+01
 0.2291272905778E+01
 0.2452125244422E+01
 0.2677537901695E+01
 0.2969941456475E+01
 0.3325580777507E+01
 0.3733588708419E+01
 0.4176287628122E+01
 0.4630870149339E+01
 0.5072118949853E+01
 0.2541205469314E+01
 0.2624902674060E+01
 0.2708102618923E+01
 0.2787218354063E+01
 0.2859035658513E+01
 0.2921100497259E+01
 0.2971892391234E+01
 0.3010788258631E+01
 0.3037884410900E+01
 0.3053761845025E+01
 0.3059261634288E+01
 0.3055306824076E+01
 0.3042781585976E+01
 0.3022462721478E+01
 0.2994992376498E+01
 0.2960880454151E+01
 0.2920527440477E+01
 0.2874263015355E+01
 0.2822394322307E+01
 0.2765264683432E+01
 0.2703321880123E+01
 0.2637192397438E+01
 0.2567764336193E+01
 0.2496286215835E+01
 0.2424510161034E+01
 0.2354819273758E+01
 0.2290317043963E+01
 0.2234971287336E+01
 0.2193832618273E+01
 0.2173297778454E+01
 0.2181330632720E+01
 0.2227461991461E+01
 0.2322298687348E+01
 0.2476281087360E+01
 0.2697710236212E+01
 0.2990401078133E+01
 0.3351501962781E+01
 0.3770171901776E+01
 0.4227691765482E+01
 0.4699298948984E+01
 0.5157371064482E+01
 0.2611703966036E+01
 0.2699792853130E+01
 0.2787322632507E+01
 0.2870352691615E+01
 0.2945393619489E+01
 0.3009851809641E+01
 0.3062208723091E+01
 0.3101951326233E+01
 0.3129344880818E+01
 0.3145153171757E+01
 0.3150382834981E+01
 0.3146089186970E+01
 0.3133250618115E+01
 0.3112701887723E+01
 0.3085111317408E+01
 0.3050987954205E+01
 0.3010708280406E+01
 0.2964557577733E+01
 0.2912780050591E+01
 0.2855638925875E+01
 0.2793486030704E+01
 0.2726837490635E+01
 0.2656458275019E+01
 0.2583463826767E+01
 0.2509471007264E+01
 0.2436730203037E+01
 0.2368213394659E+01
 0.2307763291154E+01
 0.2260331351175E+01
 0.2232283301008E+01
 0.2231696279823E+01
 0.2268475254260E+01
 0.2353997069622E+01
 0.2499941923921E+01
 0.2716221430505E+01
 0.3008297354070E+01
 0.3374489521621E+01
 0.3804140798291E+01
 0.4277439181215E+01
 0.4767406001364E+01
 0.5243697052240E+01
 0.2682657347084E+01
 0.2775404047768E+01
 0.2867507554016E+01
 0.2954626188330E+01
 0.3032967940659E+01
 0.3099799897467E+01
 0.3153628242273E+01
 0.3194083495122E+01
 0.3221632880325E+01
 0.3237248750317E+01
 0.3242119850160E+01
 0.3237442190730E+01
 0.3224291052505E+01
 0.3203558438819E+01
 0.3175936522665E+01
 0.3141930618741E+01
 0.3101890224750E+01
 0.3056053144632E+01
 0.3004597215001E+01
 0.2947701417053E+01
 0.2885616349720E+01
 0.2818740988032E+01
 0.2747708403747E+01
 0.2673489655246E+01
 0.2597552026203E+01
 0.2521995128671E+01
 0.2449636276767E+01
 0.2384163328075E+01
 0.2330390972513E+01
 0.2294607763855E+01
 0.2284951152213E+01
 0.2311650319159E+01
 0.2386832643900E+01
 0.2523476568752E+01
 0.2733284987598E+01
 0.3023664231673E+01
 0.3394435879327E+01
 0.3835346523996E+01
 0.4325458776045E+01
 0.4835263333414E+01
 0.5331317333821E+01
 0.2754113527758E+01
 0.2851809993193E+01
 0.2948751487461E+01
 0.3040139096876E+01
 0.3121847799314E+01
 0.3191009002417E+01
 0.3246183312005E+01
 0.3287185231611E+01
 0.3314721673269E+01
 0.3330001363941E+01
 0.3334411684525E+01
 0.3329296659277E+01
 0.3315829741799E+01
 0.3294958280323E+01
 0.3267395206564E+01
 0.3233638914986E+01
 0.3194009033085E+01
 0.3148693223254E+01
 0.3097800169608E+01
 0.3041421248766E+01
 0.2979701441478E+01
 0.2912916729355E+01
 0.2841560509896E+01
 0.2766449114388E+01
 0.2688886728386E+01
 0.2610804498086E+01
 0.2534841473241E+01
 0.2464499179663E+01
 0.2404414344054E+01
 0.2360746042747E+01
 0.2341629096312E+01
 0.2357551197337E+01
 0.2421348659474E+01
 0.2547334820267E+01
 0.2749181328113E+01
 0.3036571646944E+01
 0.3411232419252E+01
 0.3863616705154E+01
 0.4371665881373E+01
 0.4902955206908E+01
 0.5420468623307E+01
 0.2826127009692E+01
 0.2929094766701E+01
 0.3031161108921E+01
 0.3127003221298E+01
 0.3212129709568E+01
 0.3283544856565E+01
 0.3339902199055E+01
 0.3381248828469E+01
 0.3408574123345E+01
 0.3423352703080E+01
 0.3427186509831E+01
 0.3421573238678E+01
 0.3407784008470E+01
 0.3386818196342E+01
 0.3359405536953E+01
 0.3326034003857E+01
 0.3286990621986E+01
 0.3242410758014E+01
 0.3192331916647E+01
 0.3136755427030E+01
 0.3075717279229E+01
 0.3009365721132E+01
 0.2938047889740E+01
 0.2862416290404E+01
 0.2783599656300E+01
 0.2703343800318E+01
 0.2624085966065E+01
 0.2549108584721E+01
 0.2482825941893E+01
 0.2431209223755E+01
 0.2402317360502E+01
 0.2406813879509E+01
 0.2458176804178E+01
 0.2572061814795E+01
 0.2764274201201E+01
 0.3047138658197E+01
 0.3424773394318E+01
 0.3888748257745E+01
 0.4415954606340E+01
 0.4970583547242E+01
 0.5511400024465E+01
 0.2898760301448E+01
 0.3007354969429E+01
 0.3114858115655E+01
 0.3215343766563E+01
 0.3303918139685E+01
 0.3377474023105E+01
 0.3434807571777E+01
 0.3476256635417E+01
 0.3503141102837E+01
 0.3517232173275E+01
 0.3520360902434E+01
 0.3514181984591E+01
 0.3500061461197E+01
 0.3479045772945E+01
 0.3451876558923E+01
 0.3419027574853E+01
 0.3380750737305E+01
 0.3337127578632E+01
 0.3288123278255E+01
 0.3233647721010E+01
 0.3173625685613E+01
 0.3108074199302E+01
 0.3037188941362E+01
 0.2961451024595E+01
 0.2881802950370E+01
 0.2799789687466E+01
 0.2717623812287E+01
 0.2638335251401E+01
 0.2566068607481E+01
 0.2506542919829E+01
 0.2467657513068E+01
 0.2460151141158E+01
 0.2498047369823E+01
 0.2598314245337E+01
 0.2779030683896E+01
 0.3055551110356E+01
 0.3434963526044E+01
 0.3910498815820E+01
 0.4458182796464E+01
 0.5038274834202E+01
 0.5604364970293E+01
 0.2972085679604E+01
 0.3086702425309E+01
 0.3199982193248E+01
 0.3305301454052E+01
 0.3397326032291E+01
 0.3472862877741E+01
 0.3530914576316E+01
 0.3572178967299E+01
 0.3598359746672E+01
 0.3611555706764E+01
 0.3613839198586E+01
 0.3607022134902E+01
 0.3592560029623E+01
 0.3571539552685E+01
 0.3544708351599E+01
 0.3512521910447E+01
 0.3475194848755E+01
 0.3432754060286E+01
 0.3385092267202E+01
 0.3332027695091E+01
 0.3273372976121E+01
 0.3209011826087E+01
 0.3138984846467E+01
 0.3063596010924E+01
 0.2983592818258E+01
 0.2900305839663E+01
 0.2815701556846E+01
 0.2732524172511E+01
 0.2654599392993E+01
 0.2587324579897E+01
 0.2538345446313E+01
 0.2518356807648E+01
 0.2541799730223E+01
 0.2626878545062E+01
 0.2794045379422E+01
 0.3062084964365E+01
 0.3441731526978E+01
 0.3928580119319E+01
 0.4498144993559E+01
 0.5106185032766E+01
 0.5699603828812E+01
 0.3046187384188E+01
 0.3167267516964E+01
 0.3286694580342E+01
 0.3397034860487E+01
 0.3492475053048E+01
 0.3569775995461E+01
 0.3628228268839E+01
 0.3668971514299E+01
 0.3694151417040E+01
 0.3706224461240E+01
 0.3707512848246E+01
 0.3699981933553E+01
 0.3685168064339E+01
 0.3664189247700E+01
 0.3637792227282E+01
 0.3606409972023E+01
 0.3570218041893E+01
 0.3529188753634E+01
 0.3483143396779E+01
 0.3431809646764E+01
 0.3374888472023E+01
 0.3312129713291E+01
 0.3243417020504E+01
 0.3168873576117E+01
 0.3089045558635E+01
 0.3005038200475E+01
 0.2918552768858E+01
 0.2832015766744E+01
 0.2748883935467E+01
 0.2674159130502E+01
 0.2615129745515E+01
 0.2582308762138E+01
 0.2590392481569E+01
 0.2658690679303E+01
 0.2810069113708E+01
 0.3067136419456E+01
 0.3445050820865E+01
 0.3942660177258E+01
 0.4535532221909E+01
 0.5174488871523E+01
 0.5797293242235E+01
 0.3121164398434E+01
 0.3249203341809E+01
 0.3375182391577E+01
 0.3490722988352E+01
 0.3589495426942E+01
 0.3668273766857E+01
 0.3726740284687E+01
 0.3766572225462E+01
 0.3790419421256E+01
 0.3801123485366E+01
 0.3801259857453E+01
 0.3792938593412E+01
 0.3777764585036E+01
 0.3756876091416E+01
 0.3731011053269E+01
 0.3700575590627E+01
 0.3665704995389E+01
 0.3626318077860E+01
 0.3582167028532E+01
 0.3532891555381E+01
 0.3478082996018E+01
 0.3417358396095E+01
 0.3350444467986E+01
 0.3277282291642E+01
 0.3198213296470E+01
 0.3114109735385E+01
 0.3026391826055E+01
 0.2937138904335E+01
 0.2849389302310E+01
 0.2767672737834E+01
 0.2698808057746E+01
 0.2652970244511E+01
 0.2644912772235E+01
 0.2694857222801E+01
 0.2828042674430E+01
 0.3071260043376E+01
 0.3444969105006E+01
 0.3952377986201E+01
 0.4569900688163E+01
 0.5243336327624E+01
 0.5897355659456E+01
 0.3197134031982E+01
 0.3332690861390E+01
 0.3465663949569E+01
 0.3586568023341E+01
 0.3688525162199E+01
 0.3768409019728E+01
 0.3826424622521E+01
 0.3864897672567E+01
 0.3887046580110E+01
 0.3896120489374E+01
 0.3894944466654E+01
 0.3885758542324E+01
 0.3870219817311E+01
 0.3849473469821E+01
 0.3824239842403E+01
 0.3794893917310E+01
 0.3761530208986E+01
 0.3724016253399E+01
 0.3682038945667E+01
 0.3635154241183E+01
 0.3582847563427E+01
 0.3524605986615E+01
 0.3460001291800E+01
 0.3388793686161E+01
 0.3311119714063E+01
 0.3227615000667E+01
 0.3139407211212E+01
 0.3048203009726E+01
 0.2956575360057E+01
 0.2868504523349E+01
 0.2790221053830E+01
 0.2731388815231E+01
 0.2706584172433E+01
 0.2736676950978E+01
 0.2849135917461E+01
 0.3075216702602E+01
 0.3441645842098E+01
 0.3957379463556E+01
 0.4600631251691E+01
 0.5313030032057E+01
 0.5998274843406E+01
 0.3274239025489E+01
 0.3417956271069E+01
 0.3558413992699E+01
 0.3684825773494E+01
 0.3789744752455E+01
 0.3870266917612E+01
 0.3927284361010E+01
 0.3963897562535E+01
 0.3983957659214E+01
 0.3991135855223E+01
 0.3988494384186E+01
 0.3978381749295E+01
 0.3962486758381E+01
 0.3941946112538E+01
 0.3917453135358E+01
 0.3889347692370E+01
 0.3857683949636E+01
 0.3822281782461E+01
 0.3782768267292E+01
 0.3738621616018E+01
 0.3689226810572E+01
 0.3633945464646E+01
 0.3572198261079E+01
 0.3503568125755E+01
 0.3427989795563E+01
 0.3345862708277E+01
 0.3258015097489E+01
 0.3165759905295E+01
 0.3071160946223E+01
 0.2977571797013E+01
 0.2890509936830E+01
 0.2818937694985E+01
 0.2776981873066E+01
 0.2785821175603E+01
 0.2874885252491E+01
 0.3080068553970E+01
 0.3435387142525E+01
 0.3957337128514E+01
 0.4627266242882E+01
 0.5382712255965E+01
 0.6108557702241E+01
 0.3352645556050E+01
 0.3505258135716E+01
 0.3653733090800E+01
 0.3785752894330E+01
 0.3893301036085E+01
 0.3973869080713E+01
 0.4029240626979E+01
 0.4063431765409E+01
 0.4080985743447E+01
 0.4085998293381E+01
 0.4081744979692E+01
 0.4070653420854E+01
 0.4054419200024E+01
 0.4034153147824E+01
 0.4010511664125E+01
 0.3983795956009E+01
 0.3954021318733E+01
 0.3920965090944E+01
 0.3884201863461E+01
 0.3843140152508E+01
 0.3797072002851E+01
 0.3745240034553E+01
 0.3686919781249E+01
 0.3621523273178E+01
 0.3548790475379E+01
 0.3468890388707E+01
 0.3382351426140E+01
 0.3290078964900E+01
 0.3193590998502E+01
 0.3095542554677E+01
 0.3000613507878E+01
 0.2916863047043E+01
 0.2857661618115E+01
 0.2844076898443E+01
 0.2907077643386E+01
 0.3087179165133E+01
 0.3426721356142E+01
 0.3951826075631E+01
 0.4649432289774E+01
 0.5450871008198E+01
 0.6238166156627E+01
 0.3432557476010E+01
 0.3594901808170E+01
 0.3751961476625E+01
 0.3889612556032E+01
 0.3999304594911E+01
 0.4079166830260E+01
 0.4132126168572E+01
 0.4163266443901E+01
 0.4177871064669E+01
 0.4180445549113E+01
 0.4174440950633E+01
 0.4162325943645E+01
 0.4145773513509E+01
 0.4125849461117E+01
 0.4103163093288E+01
 0.4077973994866E+01
 0.4050261200732E+01
 0.4019766233485E+01
 0.3986020535424E+01
 0.3948373245588E+01
 0.3906033284593E+01
 0.3858132958451E+01
 0.3803810949235E+01
 0.3742317907364E+01
 0.3673210653170E+01
 0.3596439940980E+01
 0.3512242329129E+01
 0.3421111935417E+01
 0.3323995889948E+01
 0.3222790780907E+01
 0.3121223369205E+01
 0.3026246887466E+01
 0.2950142980469E+01
 0.2913370319163E+01
 0.2947836983540E+01
 0.3098391045169E+01
 0.3416569140960E+01
 0.3940709087410E+01
 0.4665939488616E+01
 0.5520269476089E+01
 0.6373907983855E+01
 0.3514225983566E+01
 0.3687270987434E+01
 0.3853522307967E+01
 0.3996724585684E+01
 0.4107887991920E+01
 0.4186113237658E+01
 0.4235775462281E+01
 0.4263182953495E+01
 0.4274387215700E+01
 0.4274266123104E+01
 0.4266392416695E+01
 0.4253229071629E+01
 0.4236393330529E+01
 0.4216885741249E+01
 0.4195258614186E+01
 0.4171727869562E+01
 0.4146240233771E+01
 0.4118509877916E+01
 0.4088036586424E+01
 0.4054122872096E+01
 0.4015906748120E+01
 0.3972420990878E+01
 0.3922677696389E+01
 0.3865778226977E+01
 0.3801111951975E+01
 0.3728429649535E+01
 0.3647692232081E+01
 0.3558989357463E+01
 0.3462685190765E+01
 0.3359873018907E+01
 0.3253225509314E+01
 0.3148393775165E+01
 0.3056221511640E+01
 0.2995989156354E+01
 0.2999761106405E+01
 0.3116088259841E+01
 0.3406319608021E+01
 0.3923878258514E+01
 0.4676218168980E+01
 0.5590325234467E+01
 0.6517480186500E+01
 0.3597963004123E+01
 0.3782838345114E+01
 0.3958919052852E+01
 0.4107439162791E+01
 0.4219158572640E+01
 0.4294604872292E+01
 0.4339962785074E+01
 0.4362914376902E+01
 0.4370275129026E+01
 0.4367228962612E+01
 0.4357398953567E+01
 0.4343187389333E+01
 0.4326119779695E+01
 0.4307110913442E+01
 0.4286646974525E+01
 0.4264899367651E+01
 0.4241787922613E+01
 0.4217009740227E+01
 0.4190046722673E+01
 0.4160170181270E+01
 0.4126462125134E+01
 0.4087868837859E+01
 0.4043287948819E+01
 0.3991685914430E+01
 0.3932304196280E+01
 0.3864717994679E+01
 0.3788637472708E+01
 0.3703766261878E+01
 0.3609888932883E+01
 0.3507270708351E+01
 0.3397452627991E+01
 0.3284607513853E+01
 0.3177791185182E+01
 0.3094479237664E+01
 0.3065922090364E+01
 0.3143334052637E+01
 0.3398000752458E+01
 0.3901544633166E+01
 0.4679333612412E+01
 0.5660105530613E+01
 0.6670451365075E+01
 0.3684160530050E+01
 0.3882191870810E+01
 0.4068751672958E+01
 0.4222131140660E+01
 0.4333178033514E+01
 0.4404460772833E+01
 0.4444388644728E+01
 0.4462139833129E+01
 0.4465242425926E+01
 0.4459085150296E+01
 0.4447252029945E+01
 0.4432022779654E+01
 0.4414793737507E+01
 0.4396374131132E+01
 0.4377176234418E+01
 0.4357327539237E+01
 0.4336727919197E+01
 0.4315069507322E+01
 0.4291832465701E+01
 0.4266275256544E+01
 0.4237441843297E+01
 0.4204207549907E+01
 0.4165369404616E+01
 0.4119775219006E+01
 0.4066541498963E+01
 0.4005098139229E+01
 0.3934938179391E+01
 0.3855409918343E+01
 0.3765739172425E+01
 0.3665363262818E+01
 0.3554647278260E+01
 0.3436146279570E+01
 0.3316800960111E+01
 0.3211622500276E+01
 0.3149901412529E+01
 0.3184004937314E+01
 0.3394535179175E+01
 0.3874374073407E+01
 0.4673985228556E+01
 0.5728542200124E+01
 0.6834573297161E+01
 0.3773317890012E+01
 0.3986070521713E+01
 0.4183734939527E+01
 0.4341186974016E+01
 0.4449932295964E+01
 0.4515395703211E+01
 0.4548665062142E+01
 0.4560479945232E+01
 0.4558964337434E+01
 0.4549570832781E+01
 0.4535738269793E+01
 0.4519557412476E+01
 0.4502258414318E+01
 0.4484527007164E+01
 0.4466695729986E+01
 0.4448850451914E+01
 0.4430879557278E+01
 0.4412484043522E+01
 0.4393160839615E+01
 0.4372177087305E+01
 0.4348560197253E+01
 0.4321132968230E+01
 0.4288607397066E+01
 0.4249730268980E+01
 0.4203518800931E+01
 0.4149293105674E+01
 0.4086370979298E+01
 0.4013788274184E+01
 0.3930251514021E+01
 0.3834399233671E+01
 0.3725419183488E+01
 0.3604165211233E+01
 0.3475190038192E+01
 0.3350388364072E+01
 0.3255801138723E+01
 0.3242933195859E+01
 0.3400054802183E+01
 0.3843761180449E+01
 0.4658651964570E+01
 0.5794285139894E+01
 0.7011926575890E+01
 0.3866080956244E+01
 0.4095413070767E+01
 0.4304717663732E+01
 0.4464979122050E+01
 0.4569287925764E+01
 0.4626987193428E+01
 0.4652300866559E+01
 0.4657494599911E+01
 0.4651086811849E+01
 0.4638411636185E+01
 0.4622643619715E+01
 0.4605617270759E+01
 0.4588362272557E+01
 0.4571426080725E+01
 0.4555058249106E+01
 0.4539307185168E+01
 0.4524059685311E+01
 0.4509040954183E+01
 0.4493785427543E+01
 0.4477593838569E+01
 0.4459502683617E+01
 0.4438304227206E+01
 0.4412642831120E+01
 0.4381182641391E+01
 0.4342868997453E+01
 0.4296951936146E+01
 0.4242623025285E+01
 0.4178659813537E+01
 0.4103307633573E+01
 0.4014466917646E+01
 0.3910198125565E+01
 0.3789646579858E+01
 0.3654797863129E+01
 0.3513846746623E+01
 0.3388216143122E+01
 0.3326037165024E+01
 0.3420288897014E+01
 0.3812315840057E+01
 0.4631751524218E+01
 0.5855523181503E+01
 0.7205053490225E+01
 0.3963299819210E+01
 0.4211425709392E+01
 0.4432699653716E+01
 0.4593819573644E+01
 0.4690930367123E+01
 0.4738636744962E+01
 0.4754689092303E+01
 0.4752684463683E+01
 0.4741232411405E+01
 0.4725328732471E+01
 0.4707758427011E+01
 0.4690036169294E+01
 0.4672962220675E+01
 0.4656935465587E+01
 0.4642122372337E+01
 0.4628540030770E+01
 0.4616084788006E+01
 0.4604522531371E+01
 0.4593447851652E+01
 0.4582223466504E+01
 0.4569925488183E+01
 0.4555342215825E+01
 0.4537070042574E+01
 0.4513709064010E+01
 0.4484160640903E+01
 0.4447647008402E+01
 0.4403287734978E+01
 0.4349665497331E+01
 0.4284639846261E+01
 0.4205466011978E+01
 0.4109184545730E+01
 0.3993319287419E+01
 0.3857246436554E+01
 0.3705029574811E+01
 0.3552142209949E+01
 0.3440409703327E+01
 0.3463027507026E+01
 0.3784606173927E+01
 0.4591933398248E+01
 0.5909746819964E+01
 0.7417119337090E+01
 0.4066115850466E+01
 0.4335676347317E+01
 0.4568839078346E+01
 0.4727879099071E+01
 0.4814278689573E+01
 0.4849527497631E+01
 0.4855099886839E+01
 0.4845497993287E+01
 0.4829009510490E+01
 0.4810046631429E+01
 0.4790883385273E+01
 0.4772660196325E+01
 0.4755927015812E+01
 0.4740929622560E+01
 0.4727754932690E+01
 0.4716396867537E+01
 0.4706773392502E+01
 0.4698708124763E+01
 0.4691879771988E+01
 0.4685744785265E+01
 0.4679455157892E+01
 0.4671827900504E+01
 0.4661434382742E+01
 0.4646829062668E+01
 0.4626896176381E+01
 0.4600872698983E+01
 0.4567862691228E+01
 0.4526323515276E+01
 0.4473818893445E+01
 0.4407082273669E+01
 0.4322300948060E+01
 0.4215571684160E+01
 0.4083796440523E+01
 0.3926728810820E+01
 0.3752783513410E+01
 0.3594318247304E+01
 0.3538624519504E+01
 0.3768249816098E+01
 0.4538674219078E+01
 0.5953445980330E+01
 0.7652143045996E+01
 0.4176097005667E+01
 0.4470226691732E+01
 0.4714434382754E+01
 0.4867051117320E+01
 0.4938372389710E+01
 0.4958584271470E+01
 0.4952683917637E+01
 0.4935345671824E+01
 0.4914025081986E+01
 0.4892302667476E+01
 0.4871836262467E+01
 0.4853352498431E+01
 0.4837140818659E+01
 0.4823296220055E+01
 0.4811833573901E+01
 0.4802733706698E+01
 0.4795948786273E+01
 0.4791377027869E+01
 0.4788805582414E+01
 0.4787819211309E+01
 0.4787688607451E+01
 0.4787300469644E+01
 0.4785229317627E+01
 0.4780002329899E+01
 0.4770510677648E+01
 0.4756045680703E+01
 0.4735750305106E+01
 0.4708027726123E+01
 0.4670246263196E+01
 0.4618767468303E+01
 0.4549148109206E+01
 0.4456364137018E+01
 0.4335184730139E+01
 0.4181226236445E+01
 0.3995214008399E+01
 0.3797034397180E+01
 0.3660463563542E+01
 0.3775447982690E+01
 0.4473476204561E+01
 0.5981758653753E+01
 0.7915340721025E+01
 0.4295455127433E+01
 0.4617816590076E+01
 0.4870847285270E+01
 0.5010727933149E+01
 0.5061730380409E+01
 0.5064447986288E+01
 0.5046492521288E+01
 0.5021622567151E+01
 0.4995900950326E+01
 0.4971857978473E+01
 0.4950459214477E+01
 0.4931998253441E+01
 0.4916506785637E+01
 0.4903938992047E+01
 0.4894249329677E+01
 0.4887417338696E+01
 0.4883441997517E+01
 0.4882311894677E+01
 0.4883945942344E+01
 0.4888093425950E+01
 0.4894193624419E+01
 0.4901255172192E+01
 0.4907892600401E+01
 0.4912625290560E+01
 0.4914370800981E+01
 0.4912507001458E+01
 0.4906261757723E+01
 0.4894050513295E+01
 0.4873152075580E+01
 0.4839726664445E+01
 0.4788970412868E+01
 0.4715149417010E+01
 0.4611457292159E+01
 0.4469966328302E+01
 0.4283849867530E+01
 0.4058356104286E+01
 0.3845237720841E+01
 0.3825000043890E+01
 0.4402204197135E+01
 0.5988175033724E+01
 0.8213661650430E+01
 0.4427408290181E+01
 0.4782116344856E+01
 0.5039296924144E+01
 0.5157443304408E+01
 0.5182195785500E+01
 0.5165485467686E+01
 0.5135520506315E+01
 0.5103738912336E+01
 0.5074293036028E+01
 0.5048509648581E+01
 0.5026626418229E+01
 0.5008509666043E+01
 0.4993950593503E+01
 0.4982780521656E+01
 0.4974909169090E+01
 0.4970328032160E+01
 0.4969094998481E+01
 0.4971302709713E+01
 0.4977022342934E+01
 0.4986203369154E+01
 0.4998510264238E+01
 0.5013140828867E+01
 0.5028800963699E+01
 0.5044026123755E+01
 0.5057773569021E+01
 0.5069526196949E+01
 0.5078624959779E+01
 0.5083550932439E+01
 0.5081599468348E+01
 0.5068914664637E+01
 0.5040634931789E+01
 0.4990810301495E+01
 0.4911816756600E+01
 0.4793208049020E+01
 0.4621725442569E+01
 0.4387621723219E+01
 0.4112746482064E+01
 0.3944675213053E+01
 0.4339463588565E+01
 0.5964666378180E+01
 0.8556685827785E+01
 0.4576811784019E+01
 0.4968052498753E+01
 0.5220379104277E+01
 0.5304325613102E+01
 0.5296812440696E+01
 0.5259865300318E+01
 0.5218773005206E+01
 0.5181156553347E+01
 0.5148912964574E+01
 0.5122103463796E+01
 0.5100251659467E+01
 0.5082830784400E+01
 0.5069423761388E+01
 0.5059764855384E+01
 0.5053738428153E+01
 0.5051362202851E+01
 0.5052764036800E+01
 0.5058151247180E+01
 0.5067762854108E+01
 0.5081780098129E+01
 0.5100153792101E+01
 0.5122357096260E+01
 0.5147262480534E+01
 0.5173456984991E+01
 0.5199944256147E+01
 0.5226307680352E+01
 0.5251997418486E+01
 0.5275589046309E+01
 0.5294496050063E+01
 0.5305042398386E+01
 0.5302628163488E+01
 0.5281624821892E+01
 0.5234503796016E+01
 0.5149712302566E+01
 0.5009655097303E+01
 0.4792006559930E+01
 0.4484596120319E+01
 0.4173504028107E+01
 0.4316336409449E+01
 0.5903346316987E+01
 0.8958292787022E+01
 0.4751314632827E+01
 0.5182158300074E+01
 0.5413005168188E+01
 0.5446328739034E+01
 0.5401846097110E+01
 0.5345729899589E+01
 0.5295346565461E+01
 0.5253428774820E+01
 0.5219551345486E+01
 0.5192546352138E+01
 0.5171295491858E+01
 0.5154941897163E+01
 0.5142906610690E+01
 0.5134859834592E+01
 0.5130683024175E+01
 0.5130434940904E+01
 0.5134322946651E+01
 0.5142675834212E+01
 0.5155909059318E+01
 0.5174458158864E+01
 0.5198620302158E+01
 0.5228251873756E+01
 0.5262505333108E+01
 0.5300081339815E+01
 0.5340032155720E+01
 0.5381999720308E+01
 0.5425485198611E+01
 0.5469147468977E+01
 0.5510612578254E+01
 0.5546592815148E+01
 0.5573071870224E+01
 0.5585270818899E+01
 0.5576731324245E+01
 0.5536514203824E+01
 0.5445497203662E+01
 0.5274109751788E+01
 0.4980637927998E+01
 0.4562900989626E+01
 0.4392792737745E+01
 0.5802776377370E+01
 0.9440223674709E+01
 0.4963615719106E+01
 0.5432683463804E+01
 0.5612126878733E+01
 0.5575362556365E+01
 0.5493174527509E+01
 0.5421451607962E+01
 0.5364502233891E+01
 0.5320245256557E+01
 0.5286100511235E+01
 0.5259817512089E+01
 0.5239771682335E+01
 0.5224863246222E+01
 0.5214410758746E+01
 0.5208059069572E+01
 0.5205711395814E+01
 0.5207482329183E+01
 0.5213666331507E+01
 0.5224716185912E+01
 0.5241223986302E+01
 0.5263887217855E+01
 0.5293397063094E+01
 0.5330120161032E+01
 0.5373661311114E+01
 0.5422953062122E+01
 0.5477102505489E+01
 0.5535706831392E+01
 0.5598169893689E+01
 0.5663161830439E+01
 0.5728608920314E+01
 0.5791844868248E+01
 0.5849755994955E+01
 0.5898878154756E+01
 0.5934704947005E+01
 0.5948782093199E+01
 0.5923783756695E+01
 0.5829545148002E+01
 0.5611579626478E+01
 0.5173554317616E+01
 0.4674654102785E+01
 0.5687294013233E+01
 0.1004103053134E+02
 0.5236228574168E+01
 0.5728355675876E+01
 0.5804005354333E+01
 0.5680049977913E+01
 0.5567336386792E+01
 0.5485823170492E+01
 0.5425731413335E+01
 0.5381485294681E+01
 0.5348570669459E+01
 0.5323978729867E+01
 0.5305752153250E+01
 0.5292657890413E+01
 0.5283981002765E+01
 0.5279383461635E+01
 0.5278816086555E+01
 0.5282463446446E+01
 0.5290712474478E+01
 0.5304137988616E+01
 0.5323500333888E+01
 0.5349747232746E+01
 0.5383980848759E+01
 0.5427207554472E+01
 0.5479741540769E+01
 0.5540981257344E+01
 0.5610121862060E+01
 0.5686507198061E+01
 0.5769146168775E+01
 0.5856562297333E+01
 0.5947067902817E+01
 0.6038900860054E+01
 0.6130186049994E+01
 0.6219118939053E+01
 0.6303784929246E+01
 0.6379780801852E+01
 0.6435622335536E+01
 0.6446357697563E+01
 0.6367887315124E+01
 0.6059138048341E+01
 0.5331467188005E+01
 0.5660207817964E+01
 0.1084247434307E+02
 0.5612683009378E+01
 0.6071151163763E+01
 0.5957254497967E+01
 0.5748737510828E+01
 0.5622933911055E+01
 0.5537911998893E+01
 0.5478927278158E+01
 0.5437237088020E+01
 0.5407105876557E+01
 0.5385181845308E+01
 0.5369370019798E+01
 0.5358433636198E+01
 0.5351696455759E+01
 0.5348882242110E+01
 0.5350014929155E+01
 0.5355361998484E+01
 0.5365405852717E+01
 0.5380837058835E+01
 0.5402567891762E+01
 0.5431765882476E+01
 0.5469908995849E+01
 0.5518726408144E+01
 0.5579600984264E+01
 0.5652869368268E+01
 0.5737933404689E+01
 0.5833478960187E+01
 0.5937573643071E+01
 0.6048328429968E+01
 0.6164540259297E+01
 0.6285710933744E+01
 0.6411631177891E+01
 0.6542343275946E+01
 0.6678735178610E+01
 0.6821297981182E+01
 0.6968058087259E+01
 0.7107526364482E+01
 0.7213279540088E+01
 0.7218782400065E+01
 0.6600161324230E+01
 0.6030826842101E+01
 0.1206433017852E+02
 0.6188273733432E+01
 0.6421085083900E+01
 0.6013525515736E+01
 0.5781692016936E+01
 0.5658814315897E+01
 0.5577523518911E+01
 0.5524468308291E+01
 0.5487791942829E+01
 0.5462004967982E+01
 0.5443668199227E+01
 0.5430822099837E+01
 0.5422343253732E+01
 0.5417670984958E+01
 0.5416633372683E+01
 0.5419351741749E+01
 0.5426187461375E+01
 0.5437719015136E+01
 0.5454742824393E+01
 0.5478299537120E+01
 0.5509733086983E+01
 0.5550806646257E+01
 0.5603905296108E+01
 0.5671886974166E+01
 0.5757003507500E+01
 0.5859219564451E+01
 0.5975743152812E+01
 0.6102747332832E+01
 0.6237559314423E+01
 0.6379602873139E+01
 0.6530102033069E+01
 0.6691118193813E+01
 0.6864797533771E+01
 0.7053999353646E+01
 0.7264466457872E+01
 0.7504486813604E+01
 0.7788801590865E+01
 0.8107046990552E+01
 0.8514491718486E+01
 0.8692397744392E+01
 0.7517846247731E+01
 0.1447742984295E+02
 0.7216952196072E+01
 0.6503794929671E+01
 0.5959943097742E+01
 0.5787488184404E+01
 0.5672522317785E+01
 0.5606433760009E+01
 0.5562848624947E+01
 0.5533771091457E+01
 0.5513690304051E+01
 0.5499776631454E+01
 0.5490365763044E+01
 0.5484584210359E+01
 0.5482052534594E+01
 0.5482743366452E+01
 0.5486896446627E+01
 0.5494975729775E+01
 0.5507653699059E+01
 0.5525820637212E+01
 0.5550616385604E+01
 0.5583507957201E+01
 0.5626432112932E+01
 0.5682131374142E+01
 0.5754969304044E+01
 0.5851222766697E+01
 0.5972468289025E+01
 0.6112533142196E+01
 0.6264192804984E+01
 0.6423560379049E+01
 0.6590931754512E+01
 0.6769824146345E+01
 0.6965371542629E+01
 0.7182646868195E+01
 0.7424764551606E+01
 0.7699102703630E+01
 0.8030031888062E+01
 0.8449098462075E+01
 0.9025493790578E+01
 0.9738340175321E+01
 0.1127353802840E+02
 0.1125689919702E+02
 0.2188811402983E+02
 0.3658517723588E+00
 0.4723923746730E+00
 0.5809069893275E+00
 0.6868161947382E+00
 0.7874337432433E+00
 0.8805749225636E+00
 0.9649437857280E+00
 0.1040124084871E+01
 0.1106112013460E+01
 0.1163095236586E+01
 0.1211422320599E+01
 0.1251532086091E+01
 0.1283799788778E+01
 0.1308419118474E+01
 0.1325413823357E+01
 0.1334691229514E+01
 0.1335748134292E+01
 0.1328484913812E+01
 0.1314803745814E+01
 0.1297403694814E+01
 0.3667251931969E+00
 0.4832168516325E+00
 0.5995851841758E+00
 0.7124091820124E+00
 0.8191188520488E+00
 0.9179340648543E+00
 0.1007810706040E+01
 0.1088288357626E+01
 0.1159285999872E+01
 0.1220979639496E+01
 0.1273721230700E+01
 0.1317967206994E+01
 0.1354140748750E+01
 0.1382532214573E+01
 0.1403300398419E+01
 0.1416416197661E+01
 0.1421294813640E+01
 0.1417691490575E+01
 0.1404170627021E+01
 0.1378240786378E+01
 0.3669397352933E+00
 0.4941784771270E+00
 0.6187519480182E+00
 0.7385259577183E+00
 0.8514354052135E+00
 0.9559872560538E+00
 0.1051309781685E+01
 0.1136994540602E+01
 0.1212953909905E+01
 0.1279356393144E+01
 0.1336563524430E+01
 0.1385050338730E+01
 0.1425279696023E+01
 0.1457602314871E+01
 0.1482209908900E+01
 0.1499004742007E+01
 0.1507350920322E+01
 0.1506252123143E+01
 0.1493804943676E+01
 0.1470057807794E+01
 0.3670994484471E+00
 0.5049939770493E+00
 0.6381399454621E+00
 0.7650414326611E+00
 0.8842307809561E+00
 0.9945460686918E+00
 0.1095286984574E+01
 0.1186125328332E+01
 0.1267006690222E+01
 0.1338113466985E+01
 0.1399820443690E+01
 0.1452619266883E+01
 0.1496996707112E+01
 0.1533324011165E+01
 0.1561771190999E+01
 0.1582170135403E+01
 0.1593774012618E+01
 0.1595494591262E+01
 0.1586291074891E+01
 0.1566983197989E+01
 0.3673568315102E+00
 0.5157949095722E+00
 0.6576269646933E+00
 0.7918094480445E+00
 0.9173560772305E+00
 0.1033453137260E+01
 0.1139591998386E+01
 0.1235546191305E+01
 0.1321317098638E+01
 0.1397117268006E+01
 0.1463340154621E+01
 0.1520490033313E+01
 0.1569062977932E+01
 0.1609427539713E+01
 0.1641725355502E+01
 0.1665742977578E+01
 0.1680791566782E+01
 0.1686080338065E+01
 0.1681194663659E+01
 0.1667223785524E+01
 0.3678085549560E+00
 0.5266371562210E+00
 0.6771773439904E+00
 0.8187135088265E+00
 0.9506717484314E+00
 0.1072561577429E+01
 0.1184078656222E+01
 0.1285115304411E+01
 0.1375743977997E+01
 0.1456218525800E+01
 0.1526955329075E+01
 0.1588468797515E+01
 0.1641256514050E+01
 0.1685680155590E+01
 0.1721868739043E+01
 0.1749632977007E+01
 0.1768458966878E+01
 0.1777881788185E+01
 0.1777916874343E+01
 0.1769717469877E+01
 0.3685192408492E+00
 0.5375585674574E+00
 0.6967608698949E+00
 0.8456645352477E+00
 0.9840525331626E+00
 0.1111732334442E+01
 0.1228603280025E+01
 0.1334686976685E+01
 0.1430137326476E+01
 0.1515257193388E+01
 0.1590489433926E+01
 0.1656358761888E+01
 0.1713364291295E+01
 0.1761868404616E+01
 0.1802016737483E+01
 0.1833698400497E+01
 0.1856602812926E+01
 0.1870552555345E+01
 0.1875849053601E+01
 0.1873662108133E+01
 0.3695381375801E+00
 0.5485803290411E+00
 0.7163486015360E+00
 0.8725844048055E+00
 0.1017386052612E+01
 0.1150833952227E+01
 0.1273024996792E+01
 0.1384113867059E+01
 0.1484342112100E+01
 0.1574066947030E+01
 0.1653761183315E+01
 0.1723962730963E+01
 0.1785177574731E+01
 0.1837782277548E+01
 0.1881964971147E+01
 0.1917719449114E+01
 0.1944931719330E+01
 0.1963659340596E+01
 0.1974402544031E+01
 0.1978341827997E+01
 0.3709050749616E+00
 0.5597134680665E+00
 0.7359096783961E+00
 0.8994012748471E+00
 0.1050568657051E+01
 0.1189742122646E+01
 0.1317206566629E+01
 0.1433249006218E+01
 0.1538201313497E+01
 0.1632478610047E+01
 0.1716587246013E+01
 0.1791083022423E+01
 0.1856486707374E+01
 0.1913202388947E+01
 0.1961477582437E+01
 0.2001419248325E+01
 0.2033089532445E+01
 0.2056734659583E+01
 0.2072996951698E+01
 0.2083067017630E+01
 0.3726538015179E+00
 0.5709620831175E+00
 0.7554114478918E+00
 0.9260470022161E+00
 0.1083503244640E+01
 0.1228338777716E+01
 0.1361015019969E+01
 0.1481947391034E+01
 0.1591558135775E+01
 0.1690322391164E+01
 0.1778783506584E+01
 0.1857520544154E+01
 0.1927077102346E+01
 0.1987895209005E+01
 0.2040290833767E+01
 0.2084482484159E+01
 0.2120685209066E+01
 0.2149295622530E+01
 0.2171057605158E+01
 0.2187165857188E+01
 0.3748138499901E+00
 0.5823256879736E+00
 0.7748200746647E+00
 0.9524563488994E+00
 0.1116098157309E+01
 0.1266511744835E+01
 0.1404322275379E+01
 0.1530067407881E+01
 0.1644257830763E+01
 0.1747429576212E+01
 0.1840165980081E+01
 0.1923074426224E+01
 0.1996728147896E+01
 0.2061614133248E+01
 0.2118120240054E+01
 0.2166569972820E+01
 0.2207309207565E+01
 0.2240854129439E+01
 0.2268019048918E+01
 0.2289989860761E+01
 0.3774117150998E+00
 0.5938008378070E+00
 0.7941013630606E+00
 0.9785668990289E+00
 0.1148266815346E+01
 0.1304154710093E+01
 0.1447005724043E+01
 0.1577471956165E+01
 0.1696149084638E+01
 0.1803633802130E+01
 0.1900551648785E+01
 0.1987542472172E+01
 0.2065214209386E+01
 0.2134102841313E+01
 0.2194667881407E+01
 0.2247329160685E+01
 0.2292543811131E+01
 0.2330923113252E+01
 0.2363328365242E+01
 0.2390917521348E+01
 0.3804716148136E+00
 0.6053823544523E+00
 0.8132216179078E+00
 0.1004319403035E+01
 0.1179927834779E+01
 0.1341167501655E+01
 0.1488948892513E+01
 0.1624029480366E+01
 0.1747085251845E+01
 0.1858772289520E+01
 0.1959759619255E+01
 0.2050722522275E+01
 0.2132306965171E+01
 0.2205099614764E+01
 0.2269629136805E+01
 0.2326402360962E+01
 0.2375970747383E+01
 0.2419021283396E+01
 0.2456444902864E+01
 0.2489354782615E+01
 0.3840160429393E+00
 0.6170643196133E+00
 0.8321485348789E+00
 0.1029658384718E+01
 0.1211005481827E+01
 0.1377456621970E+01
 0.1530042205661E+01
 0.1669614980500E+01
 0.1796925539220E+01
 0.1912687130538E+01
 0.2017612577740E+01
 0.2112414380334E+01
 0.2197778334978E+01
 0.2274341764521E+01
 0.2342698639955E+01
 0.2403433509638E+01
 0.2457177557320E+01
 0.2504677816267E+01
 0.2546841904666E+01
 0.2584730255896E+01
 0.3880661652868E+00
 0.6288408837942E+00
 0.8508520397879E+00
 0.1054532833471E+01
 0.1241430261393E+01
 0.1412935868257E+01
 0.1570183746762E+01
 0.1714110948167E+01
 0.1845536110613E+01
 0.1965226578840E+01
 0.2073938384088E+01
 0.2172421969620E+01
 0.2261403534441E+01
 0.2341569818526E+01
 0.2413575511239E+01
 0.2478073979880E+01
 0.2535763471885E+01
 0.2587438199737E+01
 0.2634013252030E+01
 0.2676496122815E+01
 0.3926421397454E+00
 0.6407069961437E+00
 0.8693051450296E+00
 0.1078897017705E+01
 0.1271139678233E+01
 0.1447527114507E+01
 0.1609280134910E+01
 0.1757408383867E+01
 0.1892791275328E+01
 0.2016246468276E+01
 0.2128571847589E+01
 0.2230555662553E+01
 0.2322964165733E+01
 0.2406531478034E+01
 0.2481968084524E+01
 0.2549987825952E+01
 0.2611345043624E+01
 0.2666870662818E+01
 0.2717481164808E+01
 0.2764135237033E+01
 0.3977633793241E+00
 0.6526590619060E+00
 0.8874847820579E+00
 0.1102711329967E+01
 0.1300079057821E+01
 0.1481161143705E+01
 0.1647247422142E+01
 0.1799407807198E+01
 0.1938574662418E+01
 0.2065611626847E+01
 0.2181356496525E+01
 0.2286634550806E+01
 0.2382251115900E+01
 0.2468985189437E+01
 0.2547598078372E+01
 0.2618856416822E+01
 0.2683561226035E+01
 0.2742571832722E+01
 0.2796802470600E+01
 0.2847168863956E+01
 0.4034487729204E+00
 0.6646955597700E+00
 0.9053726233398E+00
 0.1125943160170E+01
 0.1328202415799E+01
 0.1513778524109E+01
 0.1684012013930E+01
 0.1840020267504E+01
 0.1982780377962E+01
 0.2113197256309E+01
 0.2232146277883E+01
 0.2340488570062E+01
 0.2439067185902E+01
 0.2528703293845E+01
 0.2610204205061E+01
 0.2684382404195E+01
 0.2752077620949E+01
 0.2814171170388E+01
 0.2871573272942E+01
 0.2925162946722E+01
 0.4097168987868E+00
 0.6768176515944E+00
 0.9229559194641E+00
 0.1148567811193E+01
 0.1355473385332E+01
 0.1545330541268E+01
 0.1719511630151E+01
 0.1879168373887E+01
 0.2025314157613E+01
 0.2158890275180E+01
 0.2280807169517E+01
 0.2391960456698E+01
 0.2493229440790E+01
 0.2585474769995E+01
 0.2669545245672E+01
 0.2746293020641E+01
 0.2816589864692E+01
 0.2881334296647E+01
 0.2941432265881E+01
 0.2997732548659E+01
 0.4165862173442E+00
 0.6890297736263E+00
 0.9402283225472E+00
 0.1170569410751E+01
 0.1381866143731E+01
 0.1575780120779E+01
 0.1753696238311E+01
 0.1916787272130E+01
 0.2066094434244E+01
 0.2202590534683E+01
 0.2327218606208E+01
 0.2440907437916E+01
 0.2544571193495E+01
 0.2639107500260E+01
 0.2725402534052E+01
 0.2804342661789E+01
 0.2876826154565E+01
 0.2943765339528E+01
 0.3006062927681E+01
 0.3064544593083E+01
 0.4240752698822E+00
 0.7013402418639E+00
 0.9571907301595E+00
 0.1191941852098E+01
 0.1407366369261E+01
 0.1605102772262E+01
 0.1786528989121E+01
 0.1952825596258E+01
 0.2105053343108E+01
 0.2244211922868E+01
 0.2371274728814E+01
 0.2487202662817E+01
 0.2592943633762E+01
 0.2689430079779E+01
 0.2777581882450E+01
 0.2858314812430E+01
 0.2932549013010E+01
 0.3001208405072E+01
 0.3065194786321E+01
 0.3125318863691E+01
 0.4322028860692E+00
 0.7137618722565E+00
 0.9738521434509E+00
 0.1212689748185E+01
 0.1431972204956E+01
 0.1633287525903E+01
 0.1817987121999E+01
 0.1987246359004E+01
 0.2142137625351E+01
 0.2283683314900E+01
 0.2412885413649E+01
 0.2530736334298E+01
 0.2638217069367E+01
 0.2736293148581E+01
 0.2825914951223E+01
 0.2908023352691E+01
 0.2983556375597E+01
 0.3053448181417E+01
 0.3118603258359E+01
 0.3179826064735E+01
 0.4409884083112E+00
 0.7263126255318E+00
 0.9902305468040E+00
 0.1232829401990E+01
 0.1455695227224E+01
 0.1660337855499E+01
 0.1848062831657E+01
 0.2020027770145E+01
 0.2177309417145E+01
 0.2320949355796E+01
 0.2451977068757E+01
 0.2571416530713E+01
 0.2680281773389E+01
 0.2779570249778E+01
 0.2870260081643E+01
 0.2953313296184E+01
 0.3029682094108E+01
 0.3100309955076E+01
 0.3166108418295E+01
 0.3227885915971E+01
 0.4504519447693E+00
 0.7390162898525E+00
 0.1006353821178E+01
 0.1252389801671E+01
 0.1478561423443E+01
 0.1686272588415E+01
 0.1876764093517E+01
 0.2051163978868E+01
 0.2210546920066E+01
 0.2355971071850E+01
 0.2488493194873E+01
 0.2609169717279E+01
 0.2719048440500E+01
 0.2819158221349E+01
 0.2910502609878E+01
 0.2994060995880E+01
 0.3070795966793E+01
 0.3141659303736E+01
 0.3207574398393E+01
 0.3269366304581E+01
 0.4606146629980E+00
 0.7519032123760E+00
 0.1022260701888E+01
 0.1271413647502E+01
 0.1500612180520E+01
 0.1711126800112E+01
 0.1904115442838E+01
 0.2080665734046E+01
 0.2241844947637E+01
 0.2388726308529E+01
 0.2522394712662E+01
 0.2643940952300E+01
 0.2754448259291E+01
 0.2854977129498E+01
 0.2946554671573E+01
 0.3030173841013E+01
 0.3106803331000E+01
 0.3177401593571E+01
 0.3242908847943E+01
 0.3304182299209E+01
 0.4714991262315E+00
 0.7650110821188E+00
 0.1038001782207E+01
 0.1289958407234E+01
 0.1521905274951E+01
 0.1734952678461E+01
 0.1930158689522E+01
 0.2108560943996E+01
 0.2271215332522E+01
 0.2419209985188E+01
 0.2553660053783E+01
 0.2675693791720E+01
 0.2786432606521E+01
 0.2886969746600E+01
 0.2978354494146E+01
 0.3061589433909E+01
 0.3137644206723E+01
 0.3207481115403E+01
 0.3272061801132E+01
 0.3332294063607E+01
 0.4831296968169E+00
 0.7783857957184E+00
 0.1053640597929E+01
 0.1308097435500E+01
 0.1542515896652E+01
 0.1757820386078E+01
 0.1954953593829E+01
 0.2134895160282E+01
 0.2298687221893E+01
 0.2447434200684E+01
 0.2582285057777E+01
 0.2704409939430E+01
 0.2814972409528E+01
 0.2915100609634E+01
 0.3005865191022E+01
 0.3088274230092E+01
 0.3163291926415E+01
 0.3231879739109E+01
 0.3295023993069E+01
 0.3353703853444E+01
 0.4955330107410E+00
 0.7920824027880E+00
 0.1069254793075E+01
 0.1325921151660E+01
 0.1562537691959E+01
 0.1779818896816E+01
 0.1978578472295E+01
 0.2159731952625E+01
 0.2324307232606E+01
 0.2473428173248E+01
 0.2608282673965E+01
 0.2730088656302E+01
 0.2840057194745E+01
 0.2939354668594E+01
 0.3029073043970E+01
 0.3110221581874E+01
 0.3183751127637E+01
 0.3250614984097E+01
 0.3311824661741E+01
 0.3368452063174E+01
 0.5087385246900E+00
 0.8061661491741E+00
 0.1084937389825E+01
 0.1343538300639E+01
 0.1582083844740E+01
 0.1801056817515E+01
 0.2001130737935E+01
 0.2183153176234E+01
 0.2348139473068E+01
 0.2497238037197E+01
 0.2631682513450E+01
 0.2752745993798E+01
 0.2861693896425E+01
 0.2959735587793E+01
 0.3047985307404E+01
 0.3127449177417E+01
 0.3199055017801E+01
 0.3263737327588E+01
 0.3322528767302E+01
 0.3376612132880E+01
 0.5227791724905E+00
 0.8207136550244E+00
 0.1100798215486E+01
 0.1361077351385E+01
 0.1601288241949E+01
 0.1821663227343E+01
 0.2022727391974E+01
 0.2205259137736E+01
 0.2370265437656E+01
 0.2518926517573E+01
 0.2652530300930E+01
 0.2772413932298E+01
 0.2879905520149E+01
 0.2976263779989E+01
 0.3062627575465E+01
 0.3139995881175E+01
 0.3209261897773E+01
 0.3271326485718E+01
 0.3327233011791E+01
 0.3378283872370E+01
 0.5376920897884E+00
 0.8358141996371E+00
 0.1116965473900E+01
 0.1378688023215E+01
 0.1620306701267E+01
 0.1841788491993E+01
 0.2043505402719E+01
 0.2226168579002E+01
 0.2390783691949E+01
 0.2538572424174E+01
 0.2670887216530E+01
 0.2789139474828E+01
 0.2894729755453E+01
 0.2988974265157E+01
 0.3073040756583E+01
 0.3147917976544E+01
 0.3214451011531E+01
 0.3273486933078E+01
 0.3326059860676E+01
 0.3373584068383E+01
 0.5535194550652E+00
 0.8515711833020E+00
 0.1133587568897E+01
 0.1396543065786E+01
 0.1639318377974E+01
 0.1861605145251E+01
 0.2063622032019E+01
 0.2246018508426E+01
 0.2409809360830E+01
 0.2556269989119E+01
 0.2686829204724E+01
 0.2802983858636E+01
 0.2906217774522E+01
 0.2997914596573E+01
 0.3079277807396E+01
 0.3151284850578E+01
 0.3214717780351E+01
 0.3270343509572E+01
 0.3319152991215E+01
 0.3362640367710E+01
 0.5703093883247E+00
 0.8681037213532E+00
 0.1150835196993E+01
 0.1414840333271E+01
 0.1658527375302E+01
 0.1881308822554E+01
 0.2083255049265E+01
 0.2264963777136E+01
 0.2427473288224E+01
 0.2572127921229E+01
 0.2700446191018E+01
 0.2814021965539E+01
 0.2914433464042E+01
 0.3003143168468E+01
 0.3081400425774E+01
 0.3150174064957E+01
 0.3210168256953E+01
 0.3262037231143E+01
 0.3306678361993E+01
 0.3345601488957E+01
 0.5881168307059E+00
 0.8855483620913E+00
 0.1168903796313E+01
 0.1433805290591E+01
 0.1678164664640E+01
 0.1901119291935E+01
 0.2102602810895E+01
 0.2283176315867E+01
 0.2443920726555E+01
 0.2586268000954E+01
 0.2711841067067E+01
 0.2822341973638E+01
 0.2919453434316E+01
 0.3004728490620E+01
 0.3079476148799E+01
 0.3144665792683E+01
 0.3200912217765E+01
 0.3248720489341E+01
 0.3288826580054E+01
 0.3322657349011E+01
 0.6070043652484E+00
 0.9040609289366E+00
 0.1188016579160E+01
 0.1453694243093E+01
 0.1698490559620E+01
 0.1921281716994E+01
 0.2121884266272E+01
 0.2300844019276E+01
 0.2459309460873E+01
 0.2598823035362E+01
 0.2721128216644E+01
 0.2828045153009E+01
 0.2921368216544E+01
 0.3002750431615E+01
 0.3073576959653E+01
 0.3134836647811E+01
 0.3187053742224E+01
 0.3230549698611E+01
 0.3265814081744E+01
 0.3294053906911E+01
 0.6270425537294E+00
 0.9238183147669E+00
 0.1208428286257E+01
 0.1474798607390E+01
 0.1719797822172E+01
 0.1942068104139E+01
 0.2141338749855E+01
 0.2318169100950E+01
 0.2473807099166E+01
 0.2609933776030E+01
 0.2728431074252E+01
 0.2831245230823E+01
 0.2920284536840E+01
 0.2997304968626E+01
 0.3063781802846E+01
 0.3120754149013E+01
 0.3168676468222E+01
 0.3207672002595E+01
 0.3237883860329E+01
 0.3260117205298E+01
 0.6483094184727E+00
 0.9450199371327E+00
 0.1230430821002E+01
 0.1497450946707E+01
 0.1742415888399E+01
 0.1963778988446E+01
 0.2161225738129E+01
 0.2335366015895E+01
 0.2487587457075E+01
 0.2619744553515E+01
 0.2733878163657E+01
 0.2832066536619E+01
 0.2916327441816E+01
 0.2988512731399E+01
 0.3050189220294E+01
 0.3102476213359E+01
 0.3145820524843E+01
 0.3180192818667E+01
 0.3205303712306E+01
 0.3221308540192E+01
 0.6708865911264E+00
 0.9678902743805E+00
 0.1254361701938E+01
 0.1522034994328E+01
 0.1766715119293E+01
 0.1986745100293E+01
 0.2181824849133E+01
 0.2352658794299E+01
 0.2500825616474E+01
 0.2628397366275E+01
 0.2737597051425E+01
 0.2830639423818E+01
 0.2909640931295E+01
 0.2976527318004E+01
 0.3032942290452E+01
 0.3080083428810E+01
 0.3118448595098E+01
 0.3148094827087E+01
 0.3168328811373E+01
 0.3178341653655E+01
 0.6948498143609E+00
 0.9926730139867E+00
 0.1280634520614E+01
 0.1548996159994E+01
 0.1793106937042E+01
 0.2011330966574E+01
 0.2203437704004E+01
 0.2370276667605E+01
 0.2513691115025E+01
 0.2636024771185E+01
 0.2739706320204E+01
 0.2827091405335E+01
 0.2900382996920E+01
 0.2961544052772E+01
 0.3012246073239E+01
 0.3053755418170E+01
 0.3086537389738E+01
 0.3110992515501E+01
 0.3126984332741E+01
 0.3132443278596E+01
 0.7201615126542E+00
 0.1019758232618E+01
 0.1309809694787E+01
 0.1578815214097E+01
 0.1822039726142E+01
 0.2037955663626E+01
 0.2226388705401E+01
 0.2388444317837E+01
 0.2526339938614E+01
 0.2642742225313E+01
 0.2740306616451E+01
 0.2821534459659E+01
 0.2888708634615E+01
 0.2943797484446E+01
 0.2988404388528E+01
 0.3023766607718E+01
 0.3050366706042E+01
 0.3068472093509E+01
 0.3079707512444E+01
 0.3086867724252E+01
 0.6575983091629E+00
 0.2569743607639E+00
 0.1442717688652E+00
 0.3018265628876E+00
 0.3484825431285E+00
 0.3434122729640E+00
 0.3408721160496E+00
 0.3553556155440E+00
 0.3711865793609E+00
 0.3797804431060E+00
 0.3801016012679E+00
 0.3721028279355E+00
 0.3547874878183E+00
 0.3269539301165E+00
 0.2888475344981E+00
 0.2402369605784E+00
 0.1798891016519E+00
 0.1153602062177E+00
 0.5487299069490E-01
 0.7051614002963E-02
 0.5553796995025E+00
 0.3920897612453E+00
 0.5002594963900E-01
 0.1460369856070E+00
 0.2336387942064E+00
 0.2692287458233E+00
 0.2871073723713E+00
 0.3054465911393E+00
 0.3224571034731E+00
 0.3336982874788E+00
 0.3379874107356E+00
 0.3347656242096E+00
 0.3233059586639E+00
 0.3025442239088E+00
 0.2717102384204E+00
 0.2304415666648E+00
 0.1797775783632E+00
 0.1220165447848E+00
 0.6061957213281E-01
 0.6311906682982E-02
 0.4848657795531E+00
 0.4031811439119E+00
 0.1853514779486E+00
 0.4522715836418E-02
 0.1166885824398E+00
 0.1810215216468E+00
 0.2197466368324E+00
 0.2470542942993E+00
 0.2678346722213E+00
 0.2824292033705E+00
 0.2908262152725E+00
 0.2926615539802E+00
 0.2872764017808E+00
 0.2736694973951E+00
 0.2508006303309E+00
 0.2181242882169E+00
 0.1762143651561E+00
 0.1247905472956E+00
 0.6454487644367E-01
 0.4743968334663E-02
 0.4405045351361E+00
 0.3951535122665E+00
 0.2634942850366E+00
 0.1167396803922E+00
 0.4127304266854E-02
 0.8543133553212E-01
 0.1412105937150E+00
 0.1791069351609E+00
 0.2058918997558E+00
 0.2249823783019E+00
 0.2379050836495E+00
 0.2449396699137E+00
 0.2457145182793E+00
 0.2393950263523E+00
 0.2248437916426E+00
 0.2011642504574E+00
 0.1684540010469E+00
 0.1242926653552E+00
 0.6737306680124E-01
 0.3035701058740E-02
 0.4122232153483E+00
 0.3855463560784E+00
 0.3115078159753E+00
 0.2077932471438E+00
 0.1018519034148E+00
 0.1278618828227E-01
 0.5503043685870E-01
 0.1025091593681E+00
 0.1361192620876E+00
 0.1605693188826E+00
 0.1784695773895E+00
 0.1908320112619E+00
 0.1977477172940E+00
 0.1986845947122E+00
 0.1925255491239E+00
 0.1781318764170E+00
 0.1551916627708E+00
 0.1196523245079E+00
 0.6846653692377E-01
 0.5598716029700E-02
 0.3942776688040E+00
 0.3789625236272E+00
 0.3435393741635E+00
 0.2771946088402E+00
 0.1924594684919E+00
 0.1075280903314E+00
 0.3522072886051E-01
 0.1927243345290E-01
 0.5906888308217E-01
 0.8897808354426E-01
 0.1120144467291E+00
 0.1297032136615E+00
 0.1426073183563E+00
 0.1505790898524E+00
 0.1526586863264E+00
 0.1476138293880E+00
 0.1348947374150E+00
 0.1092485042744E+00
 0.6606537735558E-01
 0.9093081521376E-02
 0.3830765625747E+00
 0.3761798231533E+00
 0.3672098505284E+00
 0.3312202255443E+00
 0.2696835180115E+00
 0.1961807398413E+00
 0.1256195531898E+00
 0.6817582189885E-01
 0.2392471004366E-01
 0.1069704532679E-01
 0.3849091437868E-01
 0.6120409899429E-01
 0.7972790413130E-01
 0.9429395644344E-01
 0.1041975299531E+00
 0.1082669344632E+00
 0.1058899420045E+00
 0.9102949892806E-01
 0.5764132977199E-01
 0.8923828858890E-02
 0.3763073860419E+00
 0.3768636064676E+00
 0.3866151707337E+00
 0.3747293742191E+00
 0.3354188177886E+00
 0.2770301703200E+00
 0.2134554286705E+00
 0.1571315030978E+00
 0.1110669933699E+00
 0.7335345955476E-01
 0.4180450231292E-01
 0.1500882688791E-01
 0.9385430951432E-02
 0.2943954233555E-01
 0.4638959824319E-01
 0.5895336992751E-01
 0.6657615185247E-01
 0.6282703541612E-01
 0.4036225988505E-01
 0.2911629043972E-02
 0.3724301928213E+00
 0.3803714772212E+00
 0.4039633226280E+00
 0.4111703125421E+00
 0.3919196930962E+00
 0.3500068694699E+00
 0.2969290847421E+00
 0.2454208028306E+00
 0.2004417600967E+00
 0.1616740862567E+00
 0.1277993044719E+00
 0.9767087633554E-01
 0.7034842446928E-01
 0.4518039907224E-01
 0.2250165039962E-01
 0.6165186790386E-02
 0.1634612214072E-01
 0.2302487749916E-01
 0.1229526397884E-01
 0.1875513942303E-01
 0.3703955303248E+00
 0.3860284972090E+00
 0.4204151737265E+00
 0.4428997830772E+00
 0.4412533782113E+00
 0.4157817226312E+00
 0.3752350959995E+00
 0.3314365422741E+00
 0.2903076937968E+00
 0.2527942082073E+00
 0.2184628971687E+00
 0.1866904369102E+00
 0.1567620904565E+00
 0.1279599239904E+00
 0.1002172062787E+00
 0.7402784716114E-01
 0.4952282538040E-01
 0.3286701237430E-01
 0.3316133533017E-01
 0.5204317799466E-01
 0.3694769447282E+00
 0.3932186814831E+00
 0.4365371237421E+00
 0.4714846557570E+00
 0.4851233542650E+00
 0.4753150208657E+00
 0.4482353968345E+00
 0.4141877383714E+00
 0.3792708917003E+00
 0.3452646967968E+00
 0.3124798222202E+00
 0.2808302980675E+00
 0.2499314208987E+00
 0.2191541256540E+00
 0.1882897057634E+00
 0.1575584989789E+00
 0.1267700564822E+00
 0.1015006443100E+00
 0.9199370213969E-01
 0.1018951159637E+00
 0.3691674382488E+00
 0.4014105046208E+00
 0.4525528691290E+00
 0.4979338294347E+00
 0.5248476144050E+00
 0.5295985970284E+00
 0.5161816060382E+00
 0.4931761231653E+00
 0.4663242695521E+00
 0.4378337318439E+00
 0.4085534298391E+00
 0.3788677579772E+00
 0.3487550627902E+00
 0.3177698757249E+00
 0.2856547582217E+00
 0.2524070167672E+00
 0.2175416364473E+00
 0.1857726536068E+00
 0.1678040896779E+00
 0.1693890358220E+00
 0.3691130544446E+00
 0.4101580523327E+00
 0.4684881232009E+00
 0.5228651612420E+00
 0.5613960697908E+00
 0.5795229446373E+00
 0.5795084274404E+00
 0.5682448585915E+00
 0.5508050213307E+00
 0.5294963119120E+00
 0.5054935302069E+00
 0.4795436497043E+00
 0.4519739748876E+00
 0.4225875589527E+00
 0.3911717461577E+00
 0.3575670424947E+00
 0.3210030164043E+00
 0.2850554591665E+00
 0.2603920973447E+00
 0.2546402708170E+00
 0.3690690434278E+00
 0.4190938924627E+00
 0.4842561287275E+00
 0.5466231894277E+00
 0.5954450762689E+00
 0.6258183723971E+00
 0.6386949497391E+00
 0.6394410062937E+00
 0.6323155337534E+00
 0.6194888147575E+00
 0.6022714645943E+00
 0.5816498820098E+00
 0.5582543210729E+00
 0.5321773246767E+00
 0.5033523615420E+00
 0.4715694685020E+00
 0.4358214973608E+00
 0.3982845227821E+00
 0.3689347304846E+00
 0.3568262686102E+00
 0.3688703648625E+00
 0.4279201200536E+00
 0.4997093438983E+00
 0.5693617739853E+00
 0.6274318905326E+00
 0.6690373598731E+00
 0.6941784146019E+00
 0.7069057410740E+00
 0.7106359722360E+00
 0.7072500263398E+00
 0.6980375183235E+00
 0.6840970395613E+00
 0.6662880950998E+00
 0.6450043970606E+00
 0.6204319322947E+00
 0.5924794886434E+00
 0.5600510522098E+00
 0.5237414865692E+00
 0.4919382802656E+00
 0.4743389134880E+00
 0.3684119313528E+00
 0.4364001953211E+00
 0.5146712716583E+00
 0.5911018095452E+00
 0.6576027794893E+00
 0.7095585903538E+00
 0.7463050679959E+00
 0.7707931159090E+00
 0.7856420871024E+00
 0.7923633427340E+00
 0.7921062082626E+00
 0.7859556231708E+00
 0.7748934212985E+00
 0.7595749262328E+00
 0.7405135361138E+00
 0.7179675357012E+00
 0.6910970254432E+00
 0.6589884555094E+00
 0.6273429662801E+00
 0.6050131844256E+00
 0.3676359206698E+00
 0.4443539499040E+00
 0.5289550318145E+00
 0.6117712697417E+00
 0.6860524300971E+00
 0.7476019104585E+00
 0.7953065307433E+00
 0.8312143612744E+00
 0.8572343617314E+00
 0.8744882155755E+00
 0.8839094969291E+00
 0.8864570710081E+00
 0.8830964189049E+00
 0.8746188578442E+00
 0.8618360644938E+00
 0.8455219151834E+00
 0.8256749175896E+00
 0.8006546427384E+00
 0.7724821506198E+00
 0.7464620626586E+00
 0.3665288735723E+00
 0.4516517800451E+00
 0.5423759594843E+00
 0.6312270423463E+00
 0.7127563004619E+00
 0.7832476347477E+00
 0.8412938488619E+00
 0.8882054276265E+00
 0.9252838155541E+00
 0.9532889272056E+00
 0.9729163581727E+00
 0.9849276807500E+00
 0.9901343161532E+00
 0.9892580211320E+00
 0.9831719051472E+00
 0.9730818473506E+00
 0.9600976454448E+00
 0.9437820294582E+00
 0.9236369259687E+00
 0.8963371927936E+00
 0.3651199767518E+00
 0.4582467072773E+00
 0.5547194448980E+00
 0.6492751955055E+00
 0.7375961494469E+00
 0.8164541430356E+00
 0.8842629052218E+00
 0.9417182662320E+00
 0.9896037368838E+00
 0.1028377051243E+01
 0.1058533036395E+01
 0.1080637580898E+01
 0.1095282622262E+01
 0.1102942348987E+01
 0.1104178331772E+01
 0.1100030942471E+01
 0.1092305899842E+01
 0.1081900334066E+01
 0.1072608160167E+01
 0.1052705636792E+01
 0.3637019325251E+00
 0.4638969246005E+00
 0.5657294114284E+00
 0.6657168367195E+00
 0.7603746023484E+00
 0.8470508608769E+00
 0.9241099593000E+00
 0.9916430859123E+00
 0.1049957627923E+01
 0.1099296432338E+01
 0.1140033340309E+01
 0.1172619833236E+01
 0.1197481996867E+01
 0.1214856077468E+01
 0.1224867323447E+01
 0.1227763015172E+01
 0.1224428721021E+01
 0.1215654533650E+01
 0.1206164070743E+01
 0.1204012846978E+01
 0.7546295641308E+00
 0.1063358220131E+01
 0.1361788372196E+01
 0.1636150103169E+01
 0.1881312069538E+01
 0.2095658999240E+01
 0.2279238137118E+01
 0.2433935874894E+01
 0.2562767563088E+01
 0.2669024192755E+01
 0.2755814227671E+01
 0.2825945049900E+01
 0.2881930680244E+01
 0.2925893993910E+01
 0.2959557196571E+01
 0.2984403533205E+01
 0.3002060414120E+01
 0.3013195333567E+01
 0.3021119008335E+01
 0.3033074723751E+01
 0.7955889602697E+00
 0.1122813979615E+01
 0.1435321410396E+01
 0.1718915368602E+01
 0.1967552484959E+01
 0.2179739439727E+01
 0.2356191671431E+01
 0.2499862312959E+01
 0.2615027868087E+01
 0.2706045591826E+01
 0.2776788386858E+01
 0.2830599176029E+01
 0.2870399064521E+01
 0.2898651795343E+01
 0.2917468910965E+01
 0.2928968771399E+01
 0.2935716085795E+01
 0.2938240705416E+01
 0.2939645126628E+01
 0.2935969846361E+01
 0.8392071680073E+00
 0.1187654555736E+01
 0.1514850842944E+01
 0.1806252612690E+01
 0.2055793731813E+01
 0.2262578943479E+01
 0.2428361465146E+01
 0.2557360588595E+01
 0.2655418238822E+01
 0.2728190186384E+01
 0.2780403555709E+01
 0.2815975036707E+01
 0.2838269044182E+01
 0.2850099278609E+01
 0.2853901422869E+01
 0.2852057226642E+01
 0.2846940135659E+01
 0.2837679849340E+01
 0.2825235827373E+01
 0.2811629335859E+01
 0.8866366808367E+00
 0.1258619700039E+01
 0.1600844593918E+01
 0.1898330690026E+01
 0.2145630337615E+01
 0.2343103888821E+01
 0.2494030860614E+01
 0.2604344384026E+01
 0.2681806346276E+01
 0.2733523804894E+01
 0.2765092161092E+01
 0.2780957088447E+01
 0.2784835489672E+01
 0.2779712358445E+01
 0.2768034817859E+01
 0.2751956807599E+01
 0.2733148744902E+01
 0.2709233131212E+01
 0.2683673504705E+01
 0.2666070777430E+01
 0.9387374334326E+00
 0.1336959465432E+01
 0.1693998963255E+01
 0.1995161883904E+01
 0.2236293804828E+01
 0.2419776428302E+01
 0.2551092812205E+01
 0.2638470575231E+01
 0.2691953527311E+01
 0.2720150870227E+01
 0.2729422030409E+01
 0.2724585811037E+01
 0.2709510250099E+01
 0.2687087280565E+01
 0.2659483720244E+01
 0.2628410939577E+01
 0.2594785412284E+01
 0.2555976344617E+01
 0.2519498380251E+01
 0.2500538972474E+01
 0.9964871048945E+00
 0.1424019838197E+01
 0.1795081758492E+01
 0.2096565677412E+01
 0.2326610590022E+01
 0.2490585579975E+01
 0.2597032506452E+01
 0.2657158384822E+01
 0.2683580278167E+01
 0.2686303918756E+01
 0.2672210137647E+01
 0.2646233734336E+01
 0.2612130716798E+01
 0.2572440019653E+01
 0.2528865553052E+01
 0.2482633472413E+01
 0.2434120051074E+01
 0.2381191426288E+01
 0.2335534394354E+01
 0.2316801118663E+01
 0.1061034765542E+01
 0.1521309124536E+01
 0.1904810603200E+01
 0.2202072139812E+01
 0.2414928807829E+01
 0.2553001357153E+01
 0.2628938506855E+01
 0.2657658214190E+01
 0.2654479398051E+01
 0.2630483947563E+01
 0.2592683963620E+01
 0.2545793373889E+01
 0.2493168730963E+01
 0.2436771960883E+01
 0.2377736781114E+01
 0.2316836900332E+01
 0.2254035449708E+01
 0.2188087510830E+01
 0.2134659805559E+01
 0.2117110079360E+01
 0.1133758903809E+01
 0.1630516196470E+01
 0.2023790614870E+01
 0.2310800440965E+01
 0.2499011839781E+01
 0.2603928863905E+01
 0.2643544123842E+01
 0.2637171506440E+01
 0.2602678278888E+01
 0.2551632914820E+01
 0.2490643470041E+01
 0.2423811620769E+01
 0.2353808879136E+01
 0.2281836939907E+01
 0.2208400334509E+01
 0.2133851048787E+01
 0.2057775682361E+01
 0.1980074255303E+01
 0.1920081601155E+01
 0.1904235727757E+01
 0.1216328811636E+01
 0.1753533895540E+01
 0.2152430024095E+01
 0.2421312465956E+01
 0.2575910489032E+01
 0.2639676373141E+01
 0.2637319173128E+01
 0.2593031139930E+01
 0.2526645718399E+01
 0.2449318302958E+01
 0.2366594869117E+01
 0.2281555984396E+01
 0.2195933462632E+01
 0.2110037809399E+01
 0.2023722855029E+01
 0.1936943079785E+01
 0.1848900547410E+01
 0.1760854357570E+01
 0.1695429876136E+01
 0.1681433442289E+01
 0.1310783518123E+01
 0.1892479258006E+01
 0.2290818459576E+01
 0.2531417592874E+01
 0.2641818373588E+01
 0.2655960794564E+01
 0.2606638215569E+01
 0.2522954298025E+01
 0.2425534038726E+01
 0.2323906283053E+01
 0.2221833893565E+01
 0.2121009882878E+01
 0.2022043167284E+01
 0.1924292760796E+01
 0.1826983113647E+01
 0.1729700770898E+01
 0.1631244607928E+01
 0.1534446063350E+01
 0.1464760953387E+01
 0.1452457772208E+01
 0.1419638734411E+01
 0.2049707795587E+01
 0.2438539133665E+01
 0.2637906199233E+01
 0.2691918283972E+01
 0.2647987718947E+01
 0.2548060643737E+01
 0.2425374333863E+01
 0.2299433524385E+01
 0.2176688601851E+01
 0.2058452819324E+01
 0.1944792820860E+01
 0.1835125840328E+01
 0.1727883813838E+01
 0.1621729730422E+01
 0.1515926957470E+01
 0.1408864386491E+01
 0.1305161757100E+01
 0.1232547395008E+01
 0.1221601395394E+01
 0.1546037765973E+01
 0.2227810744934E+01
 0.2594368492612E+01
 0.2736181034769E+01
 0.2720245042109E+01
 0.2610668552512E+01
 0.2458763685438E+01
 0.2299837706428E+01
 0.2149588062886E+01
 0.2009911849726E+01
 0.1879245633847E+01
 0.1756007808524E+01
 0.1638489038854E+01
 0.1524296465027E+01
 0.1411641701213E+01
 0.1299532850748E+01
 0.1185968866690E+01
 0.1077567191483E+01
 0.1003665045789E+01
 0.9937538800724E+00
 0.1693972365453E+01
 0.2429568852718E+01
 0.2755778778396E+01
 0.2819748634471E+01
 0.2719630289439E+01
 0.2539076878432E+01
 0.2337157769945E+01
 0.2147401447645E+01
 0.1978478259414E+01
 0.1826650937503E+01
 0.1687505785630E+01
 0.1558042041763E+01
 0.1435584133650E+01
 0.1317064177667E+01
 0.1200391004165E+01
 0.1084422353625E+01
 0.9668310850311E+00
 0.8564230783359E+00
 0.7833711240996E+00
 0.7744662359740E+00
 0.1868618195661E+01
 0.2657797685928E+01
 0.2918083354031E+01
 0.2879536763676E+01
 0.2681883746489E+01
 0.2429293402907E+01
 0.2183649798268E+01
 0.1970866503405E+01
 0.1789642097132E+01
 0.1630501790912E+01
 0.1486765076499E+01
 0.1354376838854E+01
 0.1229853278332E+01
 0.1109624299858E+01
 0.9915001954392E+00
 0.8743565470491E+00
 0.7556696977685E+00
 0.6465961297473E+00
 0.5772519993353E+00
 0.5699967008848E+00
 0.2076865953639E+01
 0.2914919404739E+01
 0.3072906832241E+01
 0.2903062675586E+01
 0.2598554096931E+01
 0.2279805204702E+01
 0.2001319294893E+01
 0.1774546616353E+01
 0.1587137690734E+01
 0.1425189721010E+01
 0.1280588661896E+01
 0.1148464735389E+01
 0.1024607123978E+01
 0.9051722516244E+00
 0.7881800247384E+00
 0.6727853656178E+00
 0.5564822423573E+00
 0.4529110058965E+00
 0.3910979384587E+00
 0.3872875496306E+00
 0.2328198443000E+01
 0.3201798679570E+01
 0.3205340624676E+01
 0.2873720673151E+01
 0.2463013627774E+01
 0.2093401828986E+01
 0.1795852063836E+01
 0.1563199759498E+01
 0.1374854067864E+01
 0.1214344988373E+01
 0.1072536147726E+01
 0.9436731349771E+00
 0.8228953910731E+00
 0.7064857068734E+00
 0.5931379791218E+00
 0.4826395373389E+00
 0.3728090307417E+00
 0.2798917887270E+00
 0.2306239229501E+00
 0.2337672878616E+00
 0.2636243148925E+01
 0.3514489983720E+01
 0.3288356835397E+01
 0.2771582941849E+01
 0.2275067128927E+01
 0.1878632517519E+01
 0.1573238465530E+01
 0.1340623571155E+01
 0.1156252041955E+01
 0.1001665356117E+01
 0.8662650257155E+00
 0.7431910154293E+00
 0.6273049025392E+00
 0.5157123771748E+00
 0.4083681982368E+00
 0.3060959381020E+00
 0.2074024313397E+00
 0.1313256969992E+00
 0.1008875176464E+00
 0.1167641474652E+00
 0.3021302462951E+01
 0.3833400846636E+01
 0.3272686168354E+01
 0.2579925345544E+01
 0.2050174165492E+01
 0.1645091084929E+01
 0.1336559945686E+01
 0.1109303450571E+01
 0.9349581994121E+00
 0.7914191691239E+00
 0.6655141259417E+00
 0.5497381580455E+00
 0.4396868660010E+00
 0.3341600838639E+00
 0.2349732713817E+00
 0.1443093426724E+00
 0.6184419351629E-01
 0.9678546971998E-02
 0.5287380557197E-02
 0.4212310932092E-01
 0.3517006755859E+01
 0.4087182961014E+01
 0.3063710129757E+01
 0.2327904762297E+01
 0.1810388306195E+01
 0.1395419199648E+01
 0.1085360111045E+01
 0.8716443744954E+00
 0.7163250496556E+00
 0.5886747455063E+00
 0.4735497347228E+00
 0.3650787469246E+00
 0.2609485705253E+00
 0.1622455499702E+00
 0.7289661589749E-01
 0.2777988598842E-02
 0.6394159597373E-01
 0.8520871726423E-01
 0.5680127475619E-01
 0.1202007269705E-01
 0.4124869796723E+01
 0.3847190396937E+01
 0.2698017744736E+01
 0.2076797533378E+01
 0.1562089403044E+01
 0.1125377233454E+01
 0.8158825811411E+00
 0.6344831797419E+00
 0.5085754848405E+00
 0.3980533149557E+00
 0.2921610254842E+00
 0.1896356266747E+00
 0.9112108970852E-01
 0.3748026129920E-03
 0.7910537084114E-01
 0.1379842243676E+00
 0.1701643187014E+00
 0.1541223500714E+00
 0.9167496806152E-01
 0.1704087588976E-01
 0.1229280774970E+01
 0.1071076303962E+01
 0.9219224841221E+00
 0.7770480895370E+00
 0.6374841475239E+00
 0.5069555241795E+00
 0.3888629045508E+00
 0.2861067631038E+00
 0.2008400706381E+00
 0.1342811369205E+00
 0.8653568453396E-01
 0.5648110446619E-01
 0.4178179859169E-01
 0.3903767033999E-01
 0.4397110320249E-01
 0.5197643606337E-01
 0.5903573950209E-01
 0.6257284806526E-01
 0.6208193454796E-01
 0.5896926961338E-01
 0.1316734554076E+01
 0.1177722966792E+01
 0.1023600469867E+01
 0.8722821550663E+00
 0.7264036103893E+00
 0.5885260523170E+00
 0.4619170687530E+00
 0.3498329748125E+00
 0.2550963551341E+00
 0.1797377498741E+00
 0.1246965604938E+00
 0.8958381403218E-01
 0.7255299471171E-01
 0.7027815788560E-01
 0.7807072391171E-01
 0.9042402871286E-01
 0.1020169368410E+00
 0.1089058485693E+00
 0.1095256967314E+00
 0.1056989017338E+00
 0.1406411251762E+01
 0.1277064032840E+01
 0.1130663557347E+01
 0.9784861859374E+00
 0.8283322844048E+00
 0.6840508103775E+00
 0.5491644777755E+00
 0.4272796200766E+00
 0.3218274023157E+00
 0.2356881424151E+00
 0.1707971419109E+00
 0.1277763891338E+00
 0.1056334346736E+00
 0.1015455085273E+00
 0.1107918564998E+00
 0.1271311891596E+00
 0.1438091149791E+00
 0.1550486668816E+00
 0.1576682630821E+00
 0.1520438487916E+00
 0.1502390648537E+01
 0.1379554182094E+01
 0.1240894378169E+01
 0.1092895262052E+01
 0.9422014369674E+00
 0.7938809092096E+00
 0.6520603911301E+00
 0.5207623424845E+00
 0.4039773932228E+00
 0.3054098988995E+00
 0.2280815127799E+00
 0.1738719310947E+00
 0.1430518269441E+00
 0.1338425875456E+00
 0.1420650937603E+00
 0.1611718916312E+00
 0.1830348129543E+00
 0.1996237439535E+00
 0.2052488434221E+00
 0.1981378788511E+00
 0.1603560607669E+01
 0.1486939420550E+01
 0.1356262437209E+01
 0.1214686396900E+01
 0.1067084773392E+01
 0.9180722981958E+00
 0.7719458175920E+00
 0.6329396551205E+00
 0.5053955044680E+00
 0.3936510946007E+00
 0.3017251814800E+00
 0.2328549797450E+00
 0.1889280889381E+00
 0.1698406028825E+00
 0.1728184289589E+00
 0.1919249731175E+00
 0.2182618205528E+00
 0.2413979140722E+00
 0.2522375671926E+00
 0.2460665537436E+00
 0.1708918690338E+01
 0.1599021817480E+01
 0.1476831989780E+01
 0.1343371427408E+01
 0.1201746056075E+01
 0.1055588654665E+01
 0.9086922200935E+00
 0.7650579997582E+00
 0.6289810813265E+00
 0.5050316690447E+00
 0.3978658505383E+00
 0.3118595108655E+00
 0.2505646881465E+00
 0.2159854756188E+00
 0.2076613622507E+00
 0.2216339322117E+00
 0.2497072065160E+00
 0.2798442406640E+00
 0.2988901371322E+00
 0.2977086045445E+00
 0.1817481910323E+01
 0.1715144932619E+01
 0.1602123472892E+01
 0.1478158664302E+01
 0.1344924518445E+01
 0.1204933025754E+01
 0.1061146571506E+01
 0.9169231556129E+00
 0.7760727039422E+00
 0.6428917743365E+00
 0.5221059637325E+00
 0.4186699344943E+00
 0.3373837816242E+00
 0.2822773184823E+00
 0.2556903518515E+00
 0.2569621539895E+00
 0.2808036327497E+00
 0.3159193053880E+00
 0.3456934502515E+00
 0.3539699982919E+00
 0.1928231206892E+01
 0.1834354034882E+01
 0.1731227042586E+01
 0.1617916570292E+01
 0.1495062328951E+01
 0.1364178708929E+01
 0.1227327905171E+01
 0.1087036994902E+01
 0.9463324736554E+00
 0.8088078185095E+00
 0.6786647678120E+00
 0.5606811332394E+00
 0.4600547414083E+00
 0.3820576446279E+00
 0.3313987107315E+00
 0.3111184047752E+00
 0.3207658719416E+00
 0.3536728947310E+00
 0.3938450648733E+00
 0.4172417826696E+00
 0.2040149367203E+01
 0.1955562910571E+01
 0.1862996614096E+01
 0.1761247850716E+01
 0.1650300017890E+01
 0.1530908329866E+01
 0.1404356878464E+01
 0.1272373289557E+01
 0.1137143394565E+01
 0.1001377438317E+01
 0.8683922184392E+00
 0.7421789229063E+00
 0.6274240496695E+00
 0.5294375436681E+00
 0.4539113172732E+00
 0.4063624625879E+00
 0.3909575992644E+00
 0.4081545680983E+00
 0.4498711610186E+00
 0.4914662053748E+00
 0.2152258625493E+01
 0.2077675313753E+01
 0.1996221966717E+01
 0.1906681888493E+01
 0.1808688533601E+01
 0.1702496889773E+01
 0.1588820795561E+01
 0.1468761046058E+01
 0.1343805192560E+01
 0.1215875888406E+01
 0.1087409043044E+01
 0.9614469187306E+00
 0.8417316979152E+00
 0.7327802909391E+00
 0.6399072388162E+00
 0.5691272269958E+00
 0.5267831704499E+00
 0.5184896117269E+00
 0.5464189671193E+00
 0.5993909387557E+00
 0.2263649028661E+01
 0.2199649887066E+01
 0.2129724947396E+01
 0.2052796058893E+01
 0.1968363196604E+01
 0.1876397210000E+01
 0.1777245878391E+01
 0.1671585543088E+01
 0.1560419254568E+01
 0.1445113580783E+01
 0.1327466513547E+01
 0.1209801401305E+01
 0.1095084409342E+01
 0.9870650063479E+00
 0.8904400675047E+00
 0.8110423159067E+00
 0.7560480673156E+00
 0.7341970447361E+00
 0.7559317951592E+00
 0.8339656307471E+00
 0.2373443649860E+01
 0.2320438731373E+01
 0.2262306900157E+01
 0.2198182344127E+01
 0.2127561650463E+01
 0.2050279737954E+01
 0.1966468326566E+01
 0.1876532533784E+01
 0.1781155699907E+01
 0.1681333602234E+01
 0.1578437730138E+01
 0.1474309099573E+01
 0.1371387684453E+01
 0.1272888111364E+01
 0.1183041495320E+01
 0.1107440190840E+01
 0.1053559579342E+01
 0.1031620036377E+01
 0.1056252235164E+01
 0.1150964392630E+01
 0.2480785657374E+01
 0.2438943041798E+01
 0.2392663937061E+01
 0.2341305666040E+01
 0.2284427018433E+01
 0.2221814316145E+01
 0.2153475214683E+01
 0.2079634235881E+01
 0.2000743352389E+01
 0.1917512817788E+01
 0.1830965260962E+01
 0.1742516933164E+01
 0.1654092897381E+01
 0.1568288033678E+01
 0.1488594216762E+01
 0.1419728864649E+01
 0.1368127122393E+01
 0.1342711668470E+01
 0.1356173958310E+01
 0.1426591042918E+01
 0.2584871420335E+01
 0.2554091838612E+01
 0.2519484429795E+01
 0.2480601655418E+01
 0.2437087098167E+01
 0.2388723221908E+01
 0.2335445216270E+01
 0.2277347903214E+01
 0.2214698392208E+01
 0.2147960544207E+01
 0.2077834848967E+01
 0.2005317131031E+01
 0.1931780729484E+01
 0.1859089199547E+01
 0.1789750226123E+01
 0.1727126257217E+01
 0.1675721168290E+01
 0.1641557200872E+01
 0.1632558105951E+01
 0.1658687164099E+01
 0.2684962451292E+01
 0.2664895438728E+01
 0.2641537702463E+01
 0.2614592366437E+01
 0.2583782624202E+01
 0.2548902218691E+01
 0.2509837123417E+01
 0.2466576882199E+01
 0.2419225554621E+01
 0.2368017422664E+01
 0.2313340223545E+01
 0.2255767640625E+01
 0.2196102417479E+01
 0.2135431251020E+01
 0.2075191977945E+01
 0.2017251227359E+01
 0.1963984221724E+01
 0.1918327003262E+01
 0.1883743977662E+01
 0.1864069121036E+01
 0.2780387612362E+01
 0.2770462682914E+01
 0.2757709620491E+01
 0.2741936229038E+01
 0.2722925275315E+01
 0.2700478252664E+01
 0.2674436881766E+01
 0.2644693718280E+01
 0.2611198686711E+01
 0.2573965163593E+01
 0.2533077171587E+01
 0.2488697830509E+01
 0.2441077961328E+01
 0.2390562180898E+01
 0.2337587381354E+01
 0.2282664553391E+01
 0.2226328592082E+01
 0.2169037370275E+01
 0.2111011362703E+01
 0.2052006895432E+01
 0.2870543926661E+01
 0.2870004796875E+01
 0.2867015434086E+01
 0.2861448275041E+01
 0.2853120562470E+01
 0.2841828668251E+01
 0.2827365424622E+01
 0.2809527133780E+01
 0.2788114568590E+01
 0.2762930223083E+01
 0.2733772469252E+01
 0.2700425939241E+01
 0.2662646117478E+01
 0.2620134514184E+01
 0.2572498656284E+01
 0.2519188301568E+01
 0.2459396713221E+01
 0.2391914612377E+01
 0.2314931693848E+01
 0.2225817707135E+01
 0.2954897712035E+01
 0.2962835194097E+01
 0.2968603320950E+01
 0.2972107359321E+01
 0.2973174997188E+01
 0.2971582151517E+01
 0.2967065181304E+01
 0.2959323560579E+01
 0.2948015745548E+01
 0.2932749658696E+01
 0.2913068080697E+01
 0.2888428266667E+01
 0.2858174196098E+01
 0.2821498945457E+01
 0.2777393699324E+01
 0.2724578995111E+01
 0.2661412646205E+01
 0.2585766671882E+01
 0.2494852666524E+01
 0.2384978257491E+01
 0.3032985562831E+01
 0.3048367589156E+01
 0.3061752943271E+01
 0.3073055783831E+01
 0.3082094190930E+01
 0.3088609988503E+01
 0.3092276813357E+01
 0.3092699251170E+01
 0.3089405072621E+01
 0.3081831703336E+01
 0.3069307313669E+01
 0.3051026367022E+01
 0.3026019117627E+01
 0.2993114433702E+01
 0.2950895530529E+01
 0.2897648780071E+01
 0.2831306662388E+01
 0.2749385566896E+01
 0.2648917081112E+01
 0.2526285991253E+01
 0.3104414558344E+01
 0.3126112831299E+01
 0.3145870762577E+01
 0.3163593681253E+01
 0.3179074442669E+01
 0.3192010585468E+01
 0.3202010122852E+01
 0.3208588785828E+01
 0.3211160706915E+01
 0.3209023754494E+01
 0.3201340239961E+01
 0.3187113486492E+01
 0.3165160796820E+01
 0.3134083753821E+01
 0.3092237642514E+01
 0.3037703288365E+01
 0.2968267097253E+01
 0.2881420124055E+01
 0.2774396988624E+01
 0.2644341708087E+01
 0.3168859184620E+01
 0.3195671789928E+01
 0.3220480462338E+01
 0.3243167108081E+01
 0.3263487343322E+01
 0.3281087806107E+01
 0.3295511605991E+01
 0.3306195620130E+01
 0.3312461800467E+01
 0.3313503961353E+01
 0.3308371131610E+01
 0.3295948444081E+01
 0.3274936687362E+01
 0.3243832090779E+01
 0.3200908724235E+01
 0.3144207216104E+01
 0.3071535734196E+01
 0.2980493609906E+01
 0.2868539306248E+01
 0.2733180257828E+01
 0.3226054885210E+01
 0.3256726223990E+01
 0.3285210685594E+01
 0.3311352968784E+01
 0.3334862272101E+01
 0.3355330697866E+01
 0.3372240249404E+01
 0.3384962010731E+01
 0.3392749976786E+01
 0.3394731292778E+01
 0.3389894268952E+01
 0.3377075355830E+01
 0.3354946252138E+01
 0.3322002433101E+01
 0.3276554589564E+01
 0.3216724684152E+01
 0.3140448400085E+01
 0.3045484532418E+01
 0.2929427576459E+01
 0.2789641257853E+01
 0.3275803627856E+01
 0.3309047484506E+01
 0.3339803217750E+01
 0.3367866763685E+01
 0.3392893409764E+01
 0.3414419100071E+01
 0.3431870631980E+01
 0.3444568211528E+01
 0.3451723149812E+01
 0.3452432792974E+01
 0.3445674257481E+01
 0.3430298166883E+01
 0.3405023274621E+01
 0.3368432503350E+01
 0.3318970385087E+01
 0.3254940926845E+01
 0.3174502964709E+01
 0.3075656132600E+01
 0.2956195864587E+01
 0.2813614617853E+01
 0.3317969092924E+01
 0.3352489746548E+01
 0.3384105168755E+01
 0.3412552190305E+01
 0.3437425191606E+01
 0.3458203183186E+01
 0.3474264746059E+01
 0.3484894888644E+01
 0.3489287233627E+01
 0.3486544078628E+01
 0.3475676117209E+01
 0.3455602988351E+01
 0.3425155247893E+01
 0.3383077678975E+01
 0.3328032904473E+01
 0.3258602809032E+01
 0.3173283278333E+01
 0.3070465070999E+01
 0.2948397678615E+01
 0.2805161252011E+01
 0.3352473417201E+01
 0.3386983986805E+01
 0.3418061141225E+01
 0.3445370716017E+01
 0.3468438287328E+01
 0.3486685263255E+01
 0.3499449658246E+01
 0.3505997376985E+01
 0.3505528664253E+01
 0.3497182946104E+01
 0.3480044139995E+01
 0.3453147661903E+01
 0.3415489681926E+01
 0.3366038528919E+01
 0.3303747377080E+01
 0.3227566388674E+01
 0.3136451392220E+01
 0.3029366727951E+01
 0.2905285324031E+01
 0.2763190795829E+01
 0.3379294297242E+01
 0.3412533830716E+01
 0.3441707384910E+01
 0.3466393340031E+01
 0.3486038483028E+01
 0.3500006069479E+01
 0.3507602359539E+01
 0.3508091282692E+01
 0.3500703948455E+01
 0.3484647142196E+01
 0.3459113207496E+01
 0.3423292664030E+01
 0.3376390323123E+01
 0.3317645395178E+01
 0.3246356081065E+01
 0.3161909383855E+01
 0.3063817334427E+01
 0.2951760345360E+01
 0.2825633072026E+01
 0.2685576118931E+01
 0.3398461743482E+01
 0.3429212436899E+01
 0.3455167656488E+01
 0.3475794090055E+01
 0.3490447369172E+01
 0.3498433283655E+01
 0.3499037854748E+01
 0.3491542735539E+01
 0.3475235537020E+01
 0.3449420149789E+01
 0.3413429595218E+01
 0.3366642706385E+01
 0.3308505547187E+01
 0.3238558753124E+01
 0.3156472954950E+01
 0.3062096303180E+01
 0.2955520776420E+01
 0.2837175742728E+01
 0.2707950185638E+01
 0.2569320595453E+01
 0.3410054610609E+01
 0.3437160378061E+01
 0.3458650344467E+01
 0.3473844534764E+01
 0.3481993910597E+01
 0.3482351297738E+01
 0.3474199307592E+01
 0.3456861889236E+01
 0.3429712280743E+01
 0.3392182857783E+01
 0.3343778959792E+01
 0.3284097380060E+01
 0.3212849959081E+01
 0.3129893313171E+01
 0.3035267260649E+01
 0.2929247388963E+01
 0.2812422419258E+01
 0.2685817270663E+01
 0.2551103618862E+01
 0.2410942141647E+01
 0.3414197576718E+01
 0.3436585139159E+01
 0.3452446510639E+01
 0.3460907803656E+01
 0.3461104413573E+01
 0.3452248907623E+01
 0.3433646268748E+01
 0.3404695022650E+01
 0.3364889053990E+01
 0.3313824730806E+01
 0.3251213857470E+01
 0.3176901545798E+01
 0.3090887809298E+01
 0.2993351994691E+01
 0.2884679953928E+01
 0.2765495534278E+01
 0.2636701843515E+01
 0.2499548927381E+01
 0.2355786597573E+01
 0.2208122708873E+01
 0.3411060154922E+01
 0.3427762784862E+01
 0.3436924906358E+01
 0.3437423493941E+01
 0.3428278105300E+01
 0.3408688615780E+01
 0.3378021694478E+01
 0.3335793359377E+01
 0.3281661211953E+01
 0.3215427581664E+01
 0.3137050920506E+01
 0.3046661699380E+01
 0.2944578668921E+01
 0.2831320673191E+01
 0.2707607643174E+01
 0.2574341098669E+01
 0.2432548861382E+01
 0.2283267801635E+01
 0.2127312315995E+01
 0.1964920339544E+01
 0.3400860724385E+01
 0.3411035541434E+01
 0.3412505160168E+01
 0.3403853869548E+01
 0.3384010218367E+01
 0.3352213271141E+01
 0.3307949054991E+01
 0.3250906636768E+01
 0.3180959395033E+01
 0.3098165478379E+01
 0.3002779551204E+01
 0.2895268221505E+01
 0.2776321416084E+01
 0.2646850363801E+01
 0.2507958218767E+01
 0.2360859521667E+01
 0.2206703326329E+01
 0.2046211655462E+01
 0.1878923041652E+01
 0.1701246734707E+01
 0.3383856425281E+01
 0.3386768177322E+01
 0.3379582676511E+01
 0.3360586794790E+01
 0.3328687961098E+01
 0.3283249746250E+01
 0.3223955214415E+01
 0.3150732259014E+01
 0.3063727055685E+01
 0.2963306811704E+01
 0.2850076676992E+01
 0.2724898826059E+01
 0.2588903424475E+01
 0.2443479844200E+01
 0.2290231060909E+01
 0.2130861184389E+01
 0.1966941314356E+01
 0.1799439764110E+01
 0.1627833949606E+01
 0.1448440832793E+01
 0.3360344928025E+01
 0.3355329478819E+01
 0.3338512369485E+01
 0.3307940991897E+01
 0.3262633661880E+01
 0.3202198736491E+01
 0.3126605959861E+01
 0.3036085696399E+01
 0.2931104262703E+01
 0.2812377793870E+01
 0.2680899542002E+01
 0.2537965769850E+01
 0.2385190322358E+01
 0.2224499720748E+01
 0.2058098507288E+01
 0.1888390119940E+01
 0.1717828706707E+01
 0.1548685322553E+01
 0.1382689667256E+01
 0.1221678746658E+01
 0.3330726226301E+01
 0.3317168278544E+01
 0.3289683688140E+01
 0.3246249114512E+01
 0.3186201736129E+01
 0.3109538744604E+01
 0.3016596950316E+01
 0.2907946465475E+01
 0.2784389329475E+01
 0.2646995015727E+01
 0.2497141298037E+01
 0.2336545882917E+01
 0.2167286869664E+01
 0.1991815637583E+01
 0.1812972535292E+01
 0.1634029599656E+01
 0.1458824075310E+01
 0.1292115419865E+01
 0.1140589832984E+01
 0.1014199565333E+01
 0.3295513937380E+01
 0.3272801370836E+01
 0.3233502784144E+01
 0.3175868065593E+01
 0.3099839653550E+01
 0.3005943215904E+01
 0.2894914852976E+01
 0.2767649017970E+01
 0.2625249869966E+01
 0.2469100578953E+01
 0.2300911277684E+01
 0.2122749971646E+01
 0.1937069953069E+01
 0.1746754921896E+01
 0.1555219492939E+01
 0.1366641916377E+01
 0.1186483050963E+01
 0.1022636420713E+01
 0.8877702160171E+00
 0.8035867248188E+00
 0.3255351584249E+01
 0.3222784608255E+01
 0.3170349673584E+01
 0.3097174043720E+01
 0.3004155298811E+01
 0.2892406182276E+01
 0.2763003136881E+01
 0.2617073135663E+01
 0.2455954502509E+01
 0.2281278597013E+01
 0.2095004551590E+01
 0.1899438911611E+01
 0.1697268060636E+01
 0.1491637988911E+01
 0.1286339730004E+01
 0.1086208052361E+01
 0.8979481561433E+00
 0.7317787889996E+00
 0.6047260539258E+00
 0.5481349699214E+00
 0.3211012015470E+01
 0.3167611824503E+01
 0.3100471084321E+01
 0.3010587906598E+01
 0.2900083403736E+01
 0.2770543966598E+01
 0.2623141810785E+01
 0.2459146559871E+01
 0.2280101177340E+01
 0.2087867283285E+01
 0.1884636582183E+01
 0.1672952809897E+01
 0.1455777662242E+01
 0.1236643639977E+01
 0.1019963605114E+01
 0.8116166993512E+00
 0.6200039014332E+00
 0.4579344815052E+00
 0.3459445343546E+00
 0.3193650672971E+00
 0.3163481080049E+01
 0.3107715494673E+01
 0.3024116339632E+01
 0.2916977001111E+01
 0.2789657994845E+01
 0.2643355453379E+01
 0.2479206298847E+01
 0.2298677049069E+01
 0.2103599511490E+01
 0.1896165559586E+01
 0.1678942607089E+01
 0.1454939458314E+01
 0.1227750226242E+01
 0.1001819118050E+01
 0.7828887285536E+00
 0.5787134735538E+00
 0.4001374760738E+00
 0.2625824243447E+00
 0.1881579953320E+00
 0.2061162265458E+00
 0.3114184125306E+01
 0.3042615930172E+01
 0.2940583172507E+01
 0.2817990750297E+01
 0.2675656533452E+01
 0.2514312927271E+01
 0.2335371227299E+01
 0.2140704702324E+01
 0.1932595094605E+01
 0.1713729119085E+01
 0.1487256173762E+01
 0.1256907882179E+01
 0.1027199144651E+01
 0.8037348006026E+00
 0.5936423582503E+00
 0.4061247322263E+00
 0.2530324155909E+00
 0.1491599017086E+00
 0.1112958806368E+00
 0.1524927737064E+00
 0.3061337269742E+01
 0.2965649148646E+01
 0.2851417161491E+01
 0.2716708568373E+01
 0.2561378676859E+01
 0.2387155348208E+01
 0.2196093595805E+01
 0.1990626998562E+01
 0.1773572110960E+01
 0.1548190640710E+01
 0.1318275375417E+01
 0.1088277291129E+01
 0.8634802729112E+00
 0.6502210740088E+00
 0.4561264555460E+00
 0.2902761767541E+00
 0.1630623619195E+00
 0.8518886666469E-01
 0.6464343986841E-01
 0.9684394470803E-01
</DataArray>
<DataArray type="Float64" Name="S_Hyd" NumberOfComponents="1" ComponentName0="S_Hyd" format="ascii">
-0.6153427094877E+00
-0.4984245788296E+00
-0.5167619358277E+00
-0.5197010487879E+00
-0.5213594684706E+00
-0.5186441220047E+00
-0.5125742952721E+00
-0.5034326891488E+00
-0.4916165395529E+00
-0.4774081773260E+00
-0.4610282854442E+00
-0.4426300978864E+00
-0.4223084762866E+00
-0.4001048040200E+00
-0.3760120760911E+00
-0.3499793056199E+00
-0.3219150921834E+00
-0.2916936352072E+00
-0.2591547550256E+00
-0.2241099535127E+00
-0.1863417312745E+00
-0.1456009711881E+00
-0.1015946131435E+00
-0.5390803759955E-01
-0.1958118425506E-02
 0.5467818671597E-01
 0.1159385800156E+00
 0.1813288270998E+00
 0.2501121665485E+00
 0.3214558197205E+00
 0.3944752404451E+00
 0.4681629358427E+00
 0.5410564291928E+00
 0.6116914247811E+00
 0.6798436150799E+00
 0.7472837329558E+00
 0.8146230337453E+00
 0.8980731263593E+00
 0.9619564807216E+00
 0.1338346354100E+01
 0.4819950516623E+00
-0.5514789808516E+00
-0.4905451740910E+00
-0.4764533070883E+00
-0.4791742961338E+00
-0.4779254383918E+00
-0.4745666309984E+00
-0.4682361040965E+00
-0.4592475498972E+00
-0.4477909744931E+00
-0.4340847263798E+00
-0.4182989597106E+00
-0.4005604655456E+00
-0.3809491838771E+00
-0.3595006219510E+00
-0.3362084535766E+00
-0.3110275869607E+00
-0.2838774757616E+00
-0.2546459970938E+00
-0.2231917529323E+00
-0.1893469597811E+00
-0.1529185993791E+00
-0.1136853130942E+00
-0.7137904942515E-01
-0.2563918556374E-01
 0.2392542726642E-01
 0.7751885891621E-01
 0.1349921847876E+00
 0.1958562285772E+00
 0.2593983199023E+00
 0.3247760799342E+00
 0.3910418739004E+00
 0.4570467310260E+00
 0.5213695395969E+00
 0.5826603293522E+00
 0.6403540150794E+00
 0.6940128397310E+00
 0.7460253369693E+00
 0.7889627814420E+00
 0.8558476761013E+00
 0.8476195750311E+00
 0.2179523987558E-01
-0.5016597988142E+00
-0.4597693769668E+00
-0.4413363976432E+00
-0.4376702647068E+00
-0.4352050048534E+00
-0.4308446671394E+00
-0.4243132508491E+00
-0.4154288027604E+00
-0.4043102502108E+00
-0.3910847080038E+00
-0.3758797978164E+00
-0.3587943416370E+00
-0.3398936643188E+00
-0.3192071235849E+00
-0.2967288651286E+00
-0.2724196203026E+00
-0.2462091393927E+00
-0.2179994908717E+00
-0.1876673516968E+00
-0.1550663599946E+00
-0.1200287012770E+00
-0.8236162723516E-01
-0.4183215393270E-01
 0.1842958789343E-02
 0.4890605779547E-01
 0.9940610074514E-01
 0.1531133856837E+00
 0.2095259310202E+00
 0.2679357822811E+00
 0.3274845515699E+00
 0.3871626756808E+00
 0.4457488356298E+00
 0.5018139724625E+00
 0.5539778962802E+00
 0.6009670301126E+00
 0.6418719032149E+00
 0.6738367135856E+00
 0.6947129781736E+00
 0.6923523789290E+00
 0.5161547263024E+00
-0.1775168317247E+00
-0.4545800128938E+00
-0.4222866892738E+00
-0.4040826638434E+00
-0.3968246772113E+00
-0.3925782975354E+00
-0.3875157593542E+00
-0.3807276263155E+00
-0.3719509286197E+00
-0.3611506864774E+00
-0.3483927878989E+00
-0.3337587599015E+00
-0.3173219115262E+00
-0.2991329718353E+00
-0.2792153235433E+00
-0.2575635415526E+00
-0.2341440575698E+00
-0.2088967887015E+00
-0.1817379727617E+00
-0.1525622758463E+00
-0.1212450776542E+00
-0.8764436334922E-01
-0.5159807071219E-01
-0.1291697756597E-01
 0.2860283798061E-01
 0.7308429234170E-01
 0.1204589855047E+00
 0.1704272450483E+00
 0.2224643431907E+00
 0.2758554498669E+00
 0.3297209548441E+00
 0.3830040964385E+00
 0.4344318650379E+00
 0.4825429919000E+00
 0.5257671338784E+00
 0.5624250860878E+00
 0.5901524045830E+00
 0.6048774122793E+00
 0.5988343498342E+00
 0.5368117583536E+00
 0.2992156709967E+00
-0.2597661827063E+00
-0.4080021542991E+00
-0.3818155299180E+00
-0.3648147414739E+00
-0.3558515437988E+00
-0.3501483164054E+00
-0.3444377885076E+00
-0.3374507669406E+00
-0.3287773289884E+00
-0.3182914377457E+00
-0.3059924776549E+00
-0.2919233536456E+00
-0.2761325894208E+00
-0.2586573797873E+00
-0.2395154139906E+00
-0.2187018276947E+00
-0.1961887284160E+00
-0.1719261398652E+00
-0.1458444145509E+00
-0.1178562032666E+00
-0.8785883348937E-01
-0.5573667897182E-01
-0.2136068788498E-01
 0.1541068600530E-01
 0.5470664795725E-01
 0.9655221869801E-01
 0.1407866047234E+00
 0.1870502063195E+00
 0.2347915502033E+00
 0.2832821018846E+00
 0.3316207770709E+00
 0.3787142978385E+00
 0.4232492508649E+00
 0.4636958820087E+00
 0.4983087146441E+00
 0.5249080970353E+00
 0.5402162933952E+00
 0.5386286131304E+00
 0.5068863154349E+00
 0.4062871817301E+00
 0.1571554309243E+00
-0.2981227186882E+00
-0.3614314032806E+00
-0.3396614299038E+00
-0.3240959896900E+00
-0.3144675860939E+00
-0.3078035869409E+00
-0.3015628334376E+00
-0.2944318648830E+00
-0.2858801540315E+00
-0.2757100803102E+00
-0.2638676658789E+00
-0.2503605471432E+00
-0.2352152632890E+00
-0.2184565063074E+00
-0.2000968830929E+00
-0.1801323285093E+00
-0.1585406975361E+00
-0.1352821010595E+00
-0.1103009604817E+00
-0.8352790077195E-01
-0.5488232330777E-01
-0.2427554273190E-01
 0.8387011958644E-02
 0.4319863387238E-01
 0.8022039541922E-01
 0.1193958847037E+00
 0.1604896759325E+00
 0.2030909500858E+00
 0.2466208893678E+00
 0.2903344986894E+00
 0.3333111091692E+00
 0.3744297462890E+00
 0.4123393439914E+00
 0.4454392657434E+00
 0.4718023724831E+00
 0.4888433132596E+00
 0.4926062477230E+00
 0.4760245977074E+00
 0.4235754205743E+00
 0.3018899380339E+00
 0.6142930967429E-01
-0.3155809271293E+00
-0.3147861703519E+00
-0.2964502365510E+00
-0.2823486729292E+00
-0.2726410622491E+00
-0.2654447137218E+00
-0.2588419239664E+00
-0.2516320423189E+00
-0.2432307573378E+00
-0.2333858856059E+00
-0.2220020941125E+00
-0.2090571703818E+00
-0.1945583904652E+00
-0.1785194516285E+00
-0.1609486234022E+00
-0.1418430117465E+00
-0.1211863590544E+00
-0.9894887980878E-01
-0.7508902164706E-01
-0.4955534061352E-01
-0.2228936032113E-01
 0.6770346808256E-02
 0.3768343764469E-01
 0.7049634734433E-01
 0.1052089380544E+00
 0.1416963427616E+00
 0.1796618548839E+00
 0.2186509789365E+00
 0.2580590162296E+00
 0.2971244967093E+00
 0.3349104877159E+00
 0.3702749930408E+00
 0.4018354053215E+00
 0.4279252847040E+00
 0.4464628587046E+00
 0.4545690955587E+00
 0.4477861298247E+00
 0.4182477470605E+00
 0.3508377040181E+00
 0.2196666099154E+00
-0.4636196486710E-02
-0.3220264160124E+00
-0.2680903876230E+00
-0.2525446576468E+00
-0.2398656131511E+00
-0.2304222278634E+00
-0.2230204595047E+00
-0.2162304275391E+00
-0.2090186426301E+00
-0.2008031976402E+00
-0.1912989973731E+00
-0.1803799395066E+00
-0.1679999692393E+00
-0.1541501572334E+00
-0.1388348966937E+00
-0.1220590294183E+00
-0.1038212945986E+00
-0.8411152187026E-01
-0.6291007084343E-01
-0.4018936679999E-01
-0.1591580981238E-01
 0.9947016766875E-02
 0.3743330533899E-01
 0.6656823756759E-01
 0.9735386264058E-01
 0.1297354705756E+00
 0.1635302312492E+00
 0.1983906341749E+00
 0.2338251549843E+00
 0.2692059012155E+00
 0.3037567415487E+00
 0.3365284965978E+00
 0.3663648960936E+00
 0.3918602732171E+00
 0.4112970089327E+00
 0.4224838375191E+00
 0.4223541606717E+00
 0.4061836684303E+00
 0.3660630315564E+00
 0.2886940972918E+00
 0.1551496565565E+00
-0.5103217378829E-01
-0.3221980511062E+00
-0.2213904676171E+00
-0.2081786658323E+00
-0.1968540941966E+00
-0.1878810781604E+00
-0.1805143064111E+00
-0.1736954719391E+00
-0.1665637536553E+00
-0.1585745719828E+00
-0.1494308212650E+00
-0.1389859133879E+00
-0.1271757945620E+00
-0.1139785949514E+00
-0.9939122052501E-01
-0.8341610095597E-01
-0.6605414403287E-01
-0.4730150939652E-01
-0.2714875942360E-01
-0.5582234209404E-02
 0.1741396369836E-01
 0.4185439263942E-01
 0.6774637834987E-01
 0.9508170259239E-01
 0.1238210312938E+00
 0.1538612147389E+00
 0.1849701244565E+00
 0.2167579568125E+00
 0.2487021124779E+00
 0.2801549067487E+00
 0.3103284806232E+00
 0.3382660475840E+00
 0.3628043598408E+00
 0.3825256861715E+00
 0.3956830658185E+00
 0.4000268241735E+00
 0.3924118414706E+00
 0.3681057259341E+00
 0.3197203310545E+00
 0.2362706611813E+00
 0.1045001457982E+00
-0.8396066937939E-01
-0.3186436015709E+00
-0.1747315117102E+00
-0.1635126844932E+00
-0.1534651959474E+00
-0.1450865355349E+00
-0.1379293701482E+00
-0.1312162642946E+00
-0.1242446361637E+00
-0.1165248402513E+00
-0.1077642577654E+00
-0.9780539594374E-01
-0.8657172714188E-01
-0.7403169546758E-01
-0.6017660206706E-01
-0.4500754040904E-01
-0.2852817093922E-01
-0.1074125478449E-01
 0.8352378764823E-02
 0.2875255865820E-01
 0.5045768445155E-01
 0.7346080472291E-01
 0.9774304619562E-01
 0.1232642895353E+00
 0.1499470255557E+00
 0.1776452356064E+00
 0.2060847771209E+00
 0.2348406584180E+00
 0.2633646019110E+00
 0.2909929058312E+00
 0.3169296077122E+00
 0.3402154617607E+00
 0.3596881913645E+00
 0.3739310956571E+00
 0.3811933332339E+00
 0.3792192748770E+00
 0.3648934897287E+00
 0.3336978938520E+00
 0.2790891795113E+00
 0.1923842119380E+00
 0.6467001126031E-01
-0.1074235387068E+00
-0.3128537333950E+00
-0.1281510452648E+00
-0.1186607533935E+00
-0.1098116282706E+00
-0.1021000713729E+00
-0.9527855505009E-01
-0.8878153439035E-01
-0.8204373822136E-01
-0.7463675186780E-01
-0.6628376277478E-01
-0.5682455112942E-01
-0.4617517990150E-01
-0.3429751243097E-01
-0.2117911609239E-01
-0.6820845671342E-02
 0.8770277445655E-02
 0.2558460445394E-01
 0.4361097712689E-01
 0.6283550381191E-01
 0.8323935721066E-01
 0.1047945620992E+00
 0.1274569467281E+00
 0.1511562453427E+00
 0.1757799957544E+00
 0.2011443312245E+00
 0.2269393078462E+00
 0.2527108024689E+00
 0.2778897825293E+00
 0.3018004555744E+00
 0.3236427806432E+00
 0.3424605551872E+00
 0.3571009450105E+00
 0.3661625345774E+00
 0.3679170123025E+00
 0.3601534314459E+00
 0.3398821548408E+00
 0.3029574352558E+00
 0.2438129710596E+00
 0.1558255935910E+00
 0.3330031700122E-01
-0.1240953928957E+00
-0.3057585091037E+00
-0.8167820903826E-01
-0.7370572400379E-01
-0.6597885367416E-01
-0.5897433239161E-01
-0.5257887633809E-01
-0.4638665232628E-01
-0.3994810681633E-01
-0.3289572839149E-01
-0.2497533504770E-01
-0.1603038735462E-01
-0.5973974149289E-02
 0.5235759644895E-02
 0.1761318747647E-01
 0.3115661116888E-01
 0.4585503800436E-01
 0.6169164388172E-01
 0.7864488927360E-01
 0.9668730229030E-01
 0.1157831640565E+00
 0.1358840780454E+00
 0.1569216401468E+00
 0.1787973244173E+00
 0.2013668404708E+00
 0.2244129808424E+00
 0.2475953585048E+00
 0.2704359590450E+00
 0.2923494953136E+00
 0.3126520105556E+00
 0.3305435950025E+00
 0.3450767665299E+00
 0.3551168155229E+00
 0.3592920317005E+00
 0.3559220619707E+00
 0.3428859996473E+00
 0.3173953454654E+00
 0.2757690520098E+00
 0.2134245182579E+00
 0.1254799430728E+00
 0.8575945647090E-02
-0.1358196986874E+00
-0.2979636522172E+00
-0.3533458716553E-01
-0.2870854057510E-01
-0.2203235272162E-01
-0.1575348964191E-01
-0.9848335880675E-02
-0.4031262854514E-02
 0.2051475693517E-02
 0.8710365587518E-02
 0.1617353817126E-01
 0.2458921896824E-01
 0.3404360375560E-01
 0.4457971769287E-01
 0.5621221127676E-01
 0.6893750913278E-01
 0.8274005448750E-01
 0.9759557075095E-01
 0.1134721006462E+00
 0.1303287637227E+00
 0.1481133422186E+00
 0.1667577114463E+00
 0.1861704064941E+00
 0.2062265697045E+00
 0.2267530466959E+00
 0.2475033257905E+00
 0.2681112346102E+00
 0.2880794448840E+00
 0.3068105218209E+00
 0.3236161610883E+00
 0.3377008055198E+00
 0.3481313437458E+00
 0.3537997005425E+00
 0.3533775975198E+00
 0.3452555509567E+00
 0.3274399411594E+00
 0.2973949981822E+00
 0.2519429749163E+00
 0.1874202386339E+00
 0.1003674228038E+00
-0.1090369076933E-01
-0.1439010490332E+00
-0.2898734397861E+00
 0.1086459307574E-01
 0.1628573260873E-01
 0.2197741750713E-01
 0.2752586847866E-01
 0.3289573729727E-01
 0.3828244509956E-01
 0.4396137281462E-01
 0.5019153605953E-01
 0.5717397348257E-01
 0.6504552572482E-01
 0.7388876231478E-01
 0.8374569144014E-01
 0.9462974317032E-01
 0.1065345059571E+00
 0.1194393009098E+00
 0.1333121423033E+00
 0.1481106393715E+00
 0.1637807053266E+00
 0.1802540638407E+00
 0.1974436191776E+00
 0.2152360724126E+00
 0.2334821419956E+00
 0.2519825785320E+00
 0.2704651727576E+00
 0.2885420348747E+00
 0.3057005405134E+00
 0.3213348363999E+00
 0.3347558931965E+00
 0.3451765933703E+00
 0.3516836140551E+00
 0.3532034816998E+00
 0.3484636932628E+00
 0.3359448801236E+00
 0.3138083846351E+00
 0.2798004935048E+00
 0.2312468067104E+00
 0.1653035866416E+00
 0.7964760789522E-01
-0.2622676552422E-01
-0.1492841622629E+00
-0.2817598869802E+00
 0.5690930301829E-01
 0.6124382001622E-01
 0.6601151554252E-01
 0.7083373494716E-01
 0.7563752093562E-01
 0.8055093705322E-01
 0.8578587047717E-01
 0.9155600838037E-01
 0.9803581726280E-01
 0.1053489513310E+00
 0.1135721831373E+00
 0.1227446981040E+00
 0.1328773990335E+00
 0.1439601739012E+00
 0.1559667120266E+00
 0.1688570906567E+00
 0.1825784937797E+00
 0.1970638586135E+00
 0.2122293269981E+00
 0.2279696282552E+00
 0.2441508711842E+00
 0.2606011939027E+00
 0.2770978082704E+00
 0.2933460205713E+00
 0.3089397819983E+00
 0.3233547004266E+00
 0.3359798622044E+00
 0.3461288733395E+00
 0.3530268831333E+00
 0.3557853523969E+00
 0.3533725200292E+00
 0.3445821098035E+00
 0.3279997774869E+00
 0.3019598613030E+00
 0.2645016094591E+00
 0.2134291793341E+00
 0.1466083619677E+00
 0.6260880613566E-01
-0.3824648540173E-01
-0.1526682409485E+00
-0.2738046398646E+00
 0.1027937131619E+00
 0.1061413621132E+00
 0.1100399600087E+00
 0.1141457306165E+00
 0.1183630652867E+00
 0.1227701310847E+00
 0.1275278051868E+00
 0.1328105635822E+00
 0.1387677861025E+00
 0.1455091136109E+00
 0.1531040081552E+00
 0.1615874024646E+00
 0.1709665680574E+00
 0.1812269361259E+00
 0.1923361131633E+00
 0.2042460464461E+00
 0.2168935287800E+00
 0.2301987762492E+00
 0.2440628505427E+00
 0.2583631190863E+00
 0.2729463236872E+00
 0.2876197716988E+00
 0.3021394725022E+00
 0.3161910988247E+00
 0.3293535508437E+00
 0.3410937561338E+00
 0.3507987290371E+00
 0.3577877532714E+00
 0.3613017067931E+00
 0.3604812470846E+00
 0.3543423412159E+00
 0.3417531861827E+00
 0.3214148463777E+00
 0.2918439795975E+00
 0.2513698193216E+00
 0.1982360517366E+00
 0.1309096529545E+00
 0.4865262869939E-01
-0.4763895780746E-01
-0.1545839168623E+00
-0.2661269162074E+00
 0.1485153673417E+00
 0.1509608452506E+00
 0.1540398264594E+00
 0.1574422536173E+00
 0.1610603985832E+00
 0.1649359154480E+00
 0.1691890519893E+00
 0.1739608431994E+00
 0.1793776149730E+00
 0.1855348834869E+00
 0.1924938414868E+00
 0.2002840902117E+00
 0.2089083699462E+00
 0.2183470140493E+00
 0.2285611606004E+00
 0.2394944731043E+00
 0.2510734136127E+00
 0.2632057521415E+00
 0.2757779859183E+00
 0.2886509317585E+00
 0.3016531493723E+00
 0.3145727511063E+00
 0.3271466589169E+00
 0.3390434271115E+00
 0.3498296066543E+00
 0.3589661255850E+00
 0.3658405435015E+00
 0.3697805011746E+00
 0.3700456173711E+00
 0.3658094550170E+00
 0.3561404775454E+00
 0.3399872691012E+00
 0.3161723908080E+00
 0.2833968524262E+00
 0.2402673754285E+00
 0.1854212878860E+00
 0.1178273071154E+00
 0.3727851805922E-01
-0.5494498736538E-01
-0.1554501232377E+00
-0.2588043384575E+00
 0.1940745112852E+00
 0.1956900783635E+00
 0.1979938031263E+00
 0.2007077405769E+00
 0.2037194879659E+00
 0.2070444706927E+00
 0.2107708895803E+00
 0.2150116093899E+00
 0.2198721998167E+00
 0.2254344451462E+00
 0.2317507600595E+00
 0.2388446497782E+00
 0.2467136197822E+00
 0.2553323816663E+00
 0.2646552885729E+00
 0.2746176078669E+00
 0.2851355570935E+00
 0.2961047508243E+00
 0.3073976415918E+00
 0.3188592897540E+00
 0.3303011995959E+00
 0.3414937976811E+00
 0.3521568147898E+00
 0.3619438886485E+00
 0.3704115504475E+00
 0.3770170276940E+00
 0.3811506694097E+00
 0.3821507553109E+00
 0.3792981448110E+00
 0.3718022312427E+00
 0.3587874213101E+00
 0.3392863233301E+00
 0.3122452309856E+00
 0.2765460040027E+00
 0.2310539538785E+00
 0.1747536048826E+00
 0.1070244953911E+00
 0.2806975135777E-01
-0.6059686340312E-01
-0.1556182019642E+00
-0.2519089915229E+00
 0.2394735447053E+00
 0.2403210566830E+00
 0.2418890736115E+00
 0.2439300311100E+00
 0.2463321210885E+00
 0.2490924538623E+00
 0.2522742613690E+00
 0.2559669532593E+00
 0.2602577219190E+00
 0.2652153516238E+00
 0.2708833235018E+00
 0.2772785538588E+00
 0.2843927919887E+00
 0.2921947182533E+00
 0.3006316541738E+00
 0.3096304006300E+00
 0.3190970413031E+00
 0.3289153368318E+00
 0.3389442102100E+00
 0.3490137300945E+00
 0.3589194008683E+00
 0.3684153384110E+00
 0.3772057643787E+00
 0.3849313077330E+00
 0.3911404636509E+00
 0.3952886954710E+00
 0.3967710118596E+00
 0.3949381918818E+00
 0.3890942829551E+00
 0.3784866085164E+00
 0.3622976533881E+00
 0.3396455608435E+00
 0.3095994408528E+00
 0.2712142295052E+00
 0.2235923001822E+00
 0.1660178981007E+00
 0.9821169758607E-01
 0.2066340350524E-01
-0.6490445002612E-01
-0.1554352752277E+00
-0.2455282290236E+00
 0.2847165477788E+00
 0.2848491387791E+00
 0.2857164145464E+00
 0.2870998404993E+00
 0.2888917456327E+00
 0.2910770937854E+00
 0.2936999580723E+00
 0.2968304597363E+00
 0.3005397561210E+00
 0.3048845784644E+00
 0.3098995877709E+00
 0.3155948465476E+00
 0.3219559904067E+00
 0.3289453672863E+00
 0.3365030886206E+00
 0.3445474595988E+00
 0.3529745630011E+00
 0.3616566134338E+00
 0.3704395075373E+00
 0.3791390481505E+00
 0.3875357151070E+00
 0.3953685507337E+00
 0.4023277414494E+00
 0.4080425379959E+00
 0.4120550596120E+00
 0.4138205948798E+00
 0.4127403097948E+00
 0.4081789082200E+00
 0.3994650002631E+00
 0.3858851119627E+00
 0.3666806862488E+00
 0.3410550661447E+00
 0.3081966593481E+00
 0.2673232227522E+00
 0.2177502847207E+00
 0.1590218509386E+00
 0.9112534957727E-01
 0.1479901827734E-01
-0.6825650807312E-01
-0.1547462346641E+00
-0.2409143792496E+00
 0.3298081537035E+00
 0.3292670014321E+00
 0.3294611618658E+00
 0.3301985686204E+00
 0.3313784141578E+00
 0.3329782358781E+00
 0.3350277370006E+00
 0.3375814001621E+00
 0.3406965949971E+00
 0.3444190830224E+00
 0.3487750315749E+00
 0.3537675867531E+00
 0.3593760738762E+00
 0.3655563263025E+00
 0.3722411538486E+00
 0.3793404018153E+00
 0.3867403346769E+00
 0.3943019661559E+00
 0.4018586917879E+00
 0.4092127735630E+00
 0.4161306065033E+00
 0.4223373115030E+00
 0.4275103686475E+00
 0.4312690741217E+00
 0.4331505742593E+00
 0.4326112784586E+00
 0.4290596648201E+00
 0.4218753536098E+00
 0.4104122943002E+00
 0.3939966182847E+00
 0.3719283436627E+00
 0.3434938887592E+00
 0.3079953182981E+00
 0.2648005716863E+00
 0.2134152876542E+00
 0.1536013320606E+00
 0.8557123672260E-01
 0.1019724098527E-01
-0.7066742774806E-01
-0.1544893570474E+00
-0.2354150077729E+00
 0.3747542442922E+00
 0.3735743747796E+00
 0.3731191041010E+00
 0.3732210312965E+00
 0.3737880520064E+00
 0.3747939854053E+00
 0.3762581052879E+00
 0.3782224321648E+00
 0.3807326459445E+00
 0.3838246744347E+00
 0.3875166542406E+00
 0.3918048973344E+00
 0.3966623417594E+00
 0.4020382109207E+00
 0.4078579789401E+00
 0.4140231008141E+00
 0.4204102198353E+00
 0.4268694893430E+00
 0.4332223024913E+00
 0.4392580498638E+00
 0.4447298858645E+00
 0.4493500165011E+00
 0.4527843413517E+00
 0.4546433674459E+00
 0.4544603703980E+00
 0.4516938444606E+00
 0.4457603625545E+00
 0.4360550088721E+00
 0.4219572807191E+00
 0.4028325606515E+00
 0.3780380432387E+00
 0.3469398567456E+00
 0.3089466847142E+00
 0.2635636110031E+00
 0.2104630127041E+00
 0.1495934784574E+00
 0.8133558097884E-01
 0.6704681221299E-02
-0.7257671797715E-01
-0.1536125423715E+00
-0.2343509456195E+00
 0.4195640156099E+00
 0.4177784273346E+00
 0.4166971105741E+00
 0.4161761711081E+00
 0.4161333839642E+00
 0.4165417704384E+00
 0.4174134186829E+00
 0.4187806383590E+00
 0.4206793472863E+00
 0.4231367765291E+00
 0.4261635772858E+00
 0.4297494098779E+00
 0.4338608329786E+00
 0.4384404227144E+00
 0.4434063138554E+00
 0.4486516460310E+00
 0.4540436205055E+00
 0.4594218291230E+00
 0.4645960925804E+00
 0.4693434971880E+00
 0.4734046573591E+00
 0.4764796785038E+00
 0.4782237616048E+00
 0.4782394984769E+00
 0.4760570739113E+00
 0.4711376882029E+00
 0.4629064197736E+00
 0.4507739422113E+00
 0.4341450090219E+00
 0.4124232914055E+00
 0.3850210486584E+00
 0.3513799804584E+00
 0.3110079099885E+00
 0.2635339995451E+00
 0.2087775344322E+00
 0.1468421066134E+00
 0.7825279796844E-01
 0.4084311137085E-02
-0.7388032372924E-01
-0.1533280440526E+00
-0.2318428216089E+00
 0.4642457290272E+00
 0.4618821054153E+00
 0.4601948417231E+00
 0.4590622243562E+00
 0.4584128115446E+00
 0.4582210961213E+00
 0.4584946706902E+00
 0.4592585169373E+00
 0.4605405537849E+00
 0.4623604343564E+00
 0.4647219306697E+00
 0.4676083211901E+00
 0.4709798764338E+00
 0.4747725543778E+00
 0.4788971935577E+00
 0.4832387212547E+00
 0.4876550863833E+00
 0.4919756105211E+00
 0.4959989429393E+00
 0.4994903772066E+00
 0.5021785989598E+00
 0.5037522973422E+00
 0.5038566818238E+00
 0.5020870841217E+00
 0.4979711237545E+00
 0.4909730422113E+00
 0.4805265047826E+00
 0.4660575050493E+00
 0.4469952729159E+00
 0.4227802046505E+00
 0.3928768009499E+00
 0.3567974910477E+00
 0.3141412001125E+00
 0.2646486530243E+00
 0.2082667874564E+00
 0.1452315754283E+00
 0.7617580446714E-01
 0.2242311045915E-02
-0.7486260859798E-01
-0.1529838712298E+00
-0.2297237184769E+00
 0.5088081271964E+00
 0.5058894742767E+00
 0.5036132178816E+00
 0.5018785969261E+00
 0.5006255707316E+00
 0.4998319102564E+00
 0.4995029445224E+00
 0.4996583943877E+00
 0.5003197824556E+00
 0.5015002645607E+00
 0.5031973737150E+00
 0.5053883400267E+00
 0.5080273033656E+00
 0.5110436882305E+00
 0.5143411201772E+00
 0.5177964411426E+00
 0.5212585451204E+00
 0.5245467649028E+00
 0.5274489490430E+00
 0.5297190540329E+00
 0.5310743604372E+00
 0.5311927006432E+00
 0.5297098339568E+00
 0.5262142810020E+00
 0.5202313817677E+00
 0.5112284830849E+00
 0.4986476055814E+00
 0.4819294212432E+00
 0.4605264088696E+00
 0.4339135977067E+00
 0.4016043358344E+00
 0.3631764153803E+00
 0.3183116823809E+00
 0.2668502177361E+00
 0.2088501369372E+00
 0.1446574906272E+00
 0.7499503736100E-01
 0.1042630699633E-02
-0.7554316610509E-01
-0.1527045887928E+00
-0.2280975644556E+00
 0.5532603404666E+00
 0.5498054633684E+00
 0.5469542041391E+00
 0.5446256605924E+00
 0.5427716103955E+00
 0.5413745500315E+00
 0.5404394114185E+00
 0.5399824504285E+00
 0.5400202452877E+00
 0.5405604846619E+00
 0.5415951164175E+00
 0.5430956999457E+00
 0.5450104531356E+00
 0.5472623968611E+00
 0.5497480604852E+00
 0.5523363474803E+00
 0.5548672995196E+00
 0.5571505307846E+00
 0.5589634289310E+00
 0.5600490140307E+00
 0.5601136008177E+00
 0.5588246056650E+00
 0.5558087228552E+00
 0.5506479174941E+00
 0.5428653106012E+00
 0.5319311632457E+00
 0.5172953252283E+00
 0.4984121589635E+00
 0.4747557588308E+00
 0.4458332407206E+00
 0.4112029475627E+00
 0.3705023406568E+00
 0.3234879736296E+00
 0.2700879309646E+00
 0.2104563763302E+00
 0.1450322991623E+00
 0.7461015610979E-01
 0.3954952930379E-03
-0.7598908024771E-01
-0.1525596529404E+00
-0.2270548983840E+00
 0.5976117911312E+00
 0.5936356785991E+00
 0.5902206072590E+00
 0.5873045754998E+00
 0.5848514646525E+00
 0.5828496692077E+00
 0.5813052977148E+00
 0.5802327072298E+00
 0.5796448450636E+00
 0.5795449056834E+00
 0.5799199042814E+00
 0.5807361353091E+00
 0.5819361412160E+00
 0.5834367046917E+00
 0.5851274028689E+00
 0.5868693635589E+00
 0.5884939816110E+00
 0.5898014104737E+00
 0.5905588861140E+00
 0.5904988397226E+00
 0.5893169790737E+00
 0.5866706333979E+00
 0.5821776709016E+00
 0.5754135761770E+00
 0.5658991014875E+00
 0.5531069921916E+00
 0.5364941260991E+00
 0.5155272487856E+00
 0.4897000736249E+00
 0.4585488686930E+00
 0.4216727664828E+00
 0.3787629955181E+00
 0.3296427748343E+00
 0.2743175680909E+00
 0.2130244177208E+00
 0.1462806196884E+00
 0.7493870465754E-01
 0.2246452156930E-03
-0.7626409909697E-01
-0.1526073482498E+00
-0.2266334706801E+00
 0.6418721092723E+00
 0.6373862525942E+00
 0.6334159049209E+00
 0.6299171374204E+00
 0.6268661387314E+00
 0.6242581670656E+00
 0.6221018479564E+00
 0.6204110129971E+00
 0.6191961670676E+00
 0.6184569234481E+00
 0.6181760047253E+00
 0.6183148613022E+00
 0.6188106330793E+00
 0.6195740568369E+00
 0.6204879226437E+00
 0.6214057576836E+00
 0.6221505164602E+00
 0.6225131368351E+00
 0.6222509827323E+00
 0.6210861936838E+00
 0.6187041540156E+00
 0.6147523304714E+00
 0.6088398684254E+00
 0.6005356794944E+00
 0.5893578021189E+00
 0.5747808140589E+00
 0.5562675652962E+00
 0.5332955855167E+00
 0.5053758873205E+00
 0.4720706288016E+00
 0.4330152546627E+00
 0.3879487591944E+00
 0.3367532195405E+00
 0.2795016822151E+00
 0.2165025096663E+00
 0.1483391458736E+00
 0.7591228227249E-01
 0.4653160379525E-03
-0.7642419507582E-01
-0.1528918310425E+00
-0.2268529838237E+00
 0.6860510652239E+00
 0.6810637269796E+00
 0.6765441097065E+00
 0.6724656547524E+00
 0.6688170173172E+00
 0.6656011327904E+00
 0.6628302997924E+00
 0.6605190372364E+00
 0.6586764848126E+00
 0.6572995274463E+00
 0.6563672148127E+00
 0.6558365786991E+00
 0.6556396457379E+00
 0.6556813180165E+00
 0.6558377793860E+00
 0.6559551403021E+00
 0.6558481208495E+00
 0.6552986758194E+00
 0.6540545489188E+00
 0.6518278385345E+00
 0.6482938195063E+00
 0.6430902248543E+00
 0.6358174556066E+00
 0.6260376038436E+00
 0.6132654691193E+00
 0.5969766049684E+00
 0.5766385435855E+00
 0.5517377346766E+00
 0.5217998842188E+00
 0.4864095011002E+00
 0.4452336588791E+00
 0.3980530836554E+00
 0.3448011925064E+00
 0.2856096107187E+00
 0.2208478958709E+00
 0.1511556703259E+00
 0.7747447330579E-01
 0.1063290069233E-02
-0.7651597983936E-01
-0.1534467130005E+00
-0.2277224551029E+00
 0.7301585124949E+00
 0.7246749495191E+00
 0.7196096451641E+00
 0.7149528281522E+00
 0.7107057638478E+00
 0.7068797696554E+00
 0.7034918300275E+00
 0.7005582315090E+00
 0.6980877278817E+00
 0.6960752697839E+00
 0.6944968275734E+00
 0.6933054357923E+00
 0.6924283048905E+00
 0.6917647253638E+00
 0.6911844663641E+00
 0.6905264114185E+00
 0.6895972504737E+00
 0.6881701757968E+00
 0.6859835373195E+00
 0.6827396004712E+00
 0.6781036816028E+00
 0.6717038218778E+00
 0.6631315431634E+00
 0.6519417310446E+00
 0.6376452566497E+00
 0.6197176052832E+00
 0.5976294876083E+00
 0.5708741696099E+00
 0.5389891915077E+00
 0.5015776384672E+00
 0.4583333712945E+00
 0.4090728248069E+00
 0.3537735412665E+00
 0.2926174500638E+00
 0.2260264458546E+00
 0.1546881617802E+00
 0.7957952868048E-01
 0.1974249547927E-02
-0.7657714474729E-01
-0.1542972223986E+00
-0.2292455411428E+00
 0.7742043427023E+00
 0.7682269944243E+00
 0.7626172491949E+00
 0.7573816569032E+00
 0.7525342434546E+00
 0.7480953399221E+00
 0.7440875201242E+00
 0.7405298105006E+00
 0.7374314726645E+00
 0.7347862606015E+00
 0.7325676287010E+00
 0.7307250244793E+00
 0.7291811396515E+00
 0.7278298818072E+00
 0.7265348030852E+00
 0.7251277532225E+00
 0.7234075939995E+00
 0.7211389649132E+00
 0.7180510262325E+00
 0.7138363813584E+00
 0.7081504834515E+00
 0.7006116463887E+00
 0.6908022766767E+00
 0.6782695400676E+00
 0.6625195409488E+00
 0.6430264823689E+00
 0.6192625557412E+00
 0.5907255234305E+00
 0.5569616757172E+00
 0.5175886967186E+00
 0.4723222669705E+00
 0.4210085387701E+00
 0.3636622549261E+00
 0.3005080252401E+00
 0.2320123078625E+00
 0.1589040220200E+00
 0.8219144995375E-01
 0.3163048938706E-02
-0.7663728165618E-01
-0.1554620527050E+00
-0.2314231698259E+00
 0.8181984508866E+00
 0.8117270948772E+00
 0.8055718887588E+00
 0.7997553514297E+00
 0.7943044450626E+00
 0.7892491019881E+00
 0.7846183084433E+00
 0.7804347161330E+00
 0.7767089140275E+00
 0.7734341433689E+00
 0.7705818725836E+00
 0.7680983552732E+00
 0.7659020557103E+00
 0.7638817272227E+00
 0.7618949047779E+00
 0.7597665986661E+00
 0.7572880419467E+00
 0.7542155220072E+00
 0.7502691948961E+00
 0.7451321413843E+00
 0.7384499989698E+00
 0.7298312517184E+00
 0.7188488656116E+00
 0.7050416612271E+00
 0.6879100050211E+00
 0.6669254510306E+00
 0.6415597988264E+00
 0.6113127924847E+00
 0.5757361866387E+00
 0.5344581079688E+00
 0.4872109818645E+00
 0.4338647207720E+00
 0.3744646004994E+00
 0.3092708462330E+00
 0.2387876054699E+00
 0.1637795083281E+00
 0.8528327773458E-01
 0.4603002748034E-02
-0.7671876422034E-01
-0.1569547400396E+00
-0.2342549824891E+00
 0.8621507082237E+00
 0.8551825876461E+00
 0.8484786870727E+00
 0.8420772558992E+00
 0.8360184094706E+00
 0.8303422493889E+00
 0.8250849412487E+00
 0.8202735787910E+00
 0.8159208337457E+00
 0.8120200674760E+00
 0.8085412566118E+00
 0.8054278316652E+00
 0.8025943087983E+00
 0.7999245106205E+00
 0.7972701533720E+00
 0.7944496017248E+00
 0.7912466571574E+00
 0.7874094487172E+00
 0.7826492992326E+00
 0.7766398810587E+00
 0.7690170243390E+00
 0.7593792244957E+00
 0.7472896057715E+00
 0.7322779209797E+00
 0.7138377106863E+00
 0.6914363776196E+00
 0.6645433003626E+00
 0.6326575144872E+00
 0.5953327707307E+00
 0.5522033186570E+00
 0.5030131527664E+00
 0.4476500089216E+00
 0.3861832373663E+00
 0.3189020701670E+00
 0.2463421935474E+00
 0.1692992853699E+00
 0.8883651641774E-01
 0.6275235574937E-02
-0.7683754223892E-01
-0.1587846680876E+00
-0.2377401564456E+00
 0.9060709448003E+00
 0.8986008719563E+00
 0.8913428670169E+00
 0.8843507864868E+00
 0.8776781711687E+00
 0.8713758614870E+00
 0.8654879341189E+00
 0.8600466887933E+00
 0.8550675800603E+00
 0.8505446735560E+00
 0.8464469101805E+00
 0.8427152411933E+00
 0.8392604967168E+00
 0.8359617824809E+00
 0.8326651898915E+00
 0.8291826299880E+00
 0.8252906681463E+00
 0.8207294646256E+00
 0.8152016703561E+00
 0.8083716452233E+00
 0.7998653902424E+00
 0.7892712083977E+00
 0.7761419183486E+00
 0.7599974004580E+00
 0.7403231810151E+00
 0.7165808907130E+00
 0.6882353190204E+00
 0.6547819444269E+00
 0.6157728778126E+00
 0.5708440173563E+00
 0.5197456462644E+00
 0.4623773819066E+00
 0.3988263395098E+00
 0.3294044983100E+00
 0.2546734925347E+00
 0.1754560981225E+00
 0.9284068476283E-01
 0.8168136817103E-02
-0.7700379300918E-01
-0.1609577917379E+00
-0.2418778512682E+00
 0.9499689385807E+00
 0.9419893737722E+00
 0.9341696975217E+00
 0.9265793682261E+00
 0.9192856934226E+00
 0.9123508421347E+00
 0.9058275168091E+00
 0.8997539478732E+00
 0.8941490248278E+00
 0.8890080547501E+00
 0.8842993584362E+00
 0.8799617202431E+00
 0.8759025240823E+00
 0.8719963586786E+00
 0.8680838771524E+00
 0.8639707261004E+00
 0.8594264296689E+00
 0.8541833678086E+00
 0.8479356764772E+00
 0.8403384882541E+00
 0.8310079328881E+00
 0.8195218840940E+00
 0.8054223424367E+00
 0.7882184446693E+00
 0.7673864306603E+00
 0.7423804370611E+00
 0.7126583741084E+00
 0.6777091717104E+00
 0.6370795084475E+00
 0.5904023048964E+00
 0.5374287354840E+00
 0.4780643160258E+00
 0.4124076973275E+00
 0.3407875840439E+00
 0.2637863744628E+00
 0.1822505327903E+00
 0.9729296982206E-01
 0.1027692587166E-01
-0.7722242724120E-01
-0.1634771406532E+00
-0.2466674553891E+00
 0.9938544123375E+00
 0.9853555219886E+00
 0.9769644533570E+00
 0.9687663854489E+00
 0.9608428162116E+00
 0.9532678704334E+00
 0.9461035900155E+00
 0.9393948331800E+00
 0.9331645345802E+00
 0.9274097338228E+00
 0.9220985040863E+00
 0.9171677391465E+00
 0.9125215894447E+00
 0.9080303085878E+00
 0.9035292881102E+00
 0.8988180959464E+00
 0.8936594107257E+00
 0.8877780230783E+00
 0.8808597122865E+00
 0.8725504660058E+00
 0.8624564904822E+00
 0.8501449727703E+00
 0.8351465486709E+00
 0.8169586898271E+00
 0.7950470108590E+00
 0.7688563484044E+00
 0.7378353379898E+00
 0.7014632406029E+00
 0.6592773619005E+00
 0.6109028643362E+00
 0.5560862794781E+00
 0.4947329530879E+00
 0.4269468458446E+00
 0.3530674909795E+00
 0.2736931277461E+00
 0.1896908804270E+00
 0.1021979954759E+00
 0.1260333914840E-01
-0.7749345628136E-01
-0.1663431624134E+00
-0.2521087306637E+00
 0.1037737038143E+01
 0.1028706731034E+01
 0.1019732379643E+01
 0.1010915133879E+01
 0.1002351202284E+01
 0.9941273462034E+00
 0.9863156740750E+00
 0.9789683512723E+00
 0.9721129304097E+00
 0.9657486284999E+00
 0.9598435971470E+00
 0.9543330750275E+00
 0.9491181598923E+00
 0.9440649302402E+00
 0.9390036806038E+00
 0.9337280823250E+00
 0.9279941668852E+00
 0.9215193330924E+00
 0.9139811694584E+00
 0.9050166068250E+00
 0.8942218764025E+00
 0.8811532136823E+00
 0.8653293239738E+00
 0.8462350586915E+00
 0.8233240193175E+00
 0.7960298702403E+00
 0.7637894880433E+00
 0.7260692288666E+00
 0.6823929427892E+00
 0.6323730930754E+00
 0.5757458725587E+00
 0.5124102518976E+00
 0.4424691971331E+00
 0.3662671825085E+00
 0.2844134835677E+00
 0.1977930884693E+00
 0.1075676970440E+00
 0.1515543561797E-01
-0.7781222902905E-01
-0.1695539390178E+00
-0.2582018723180E+00
 0.1081626448300E+01
 0.1072050390667E+01
 0.1062478662475E+01
 0.1053028777024E+01
 0.1043812285311E+01
 0.1034929335599E+01
 0.1026462856484E+01
 0.1018472990368E+01
 0.1010992446225E+01
 0.1004023015770E+01
 0.9975332044796E+00
 0.9914567852833E+00
 0.9856919470077E+00
 0.9801007273182E+00
 0.9745084741338E+00
 0.9687031405439E+00
 0.9624343140734E+00
 0.9554122101232E+00
 0.9473064066202E+00
 0.9377448804177E+00
 0.9263138481799E+00
 0.9125583350266E+00
 0.8959845467052E+00
 0.8760637430560E+00
 0.8522360937822E+00
 0.8239221708506E+00
 0.7905445358898E+00
 0.7515533016944E+00
 0.7064546429593E+00
 0.6548432131579E+00
 0.5964389791339E+00
 0.5311281381323E+00
 0.4590061901767E+00
 0.3804165530403E+00
 0.2959747098858E+00
 0.2065808024454E+00
 0.1134213016470E+00
 0.1794751663946E-01
-0.7816955504750E-01
-0.1731053027397E+00
-0.2649475426755E+00
 0.1125532254923E+01
 0.1115393864575E+01
 0.1105208407723E+01
 0.1095110309351E+01
 0.1085227223276E+01
 0.1075673520745E+01
 0.1066543742881E+01
 0.1057906676221E+01
 0.1049800691412E+01
 0.1042230501763E+01
 0.1035165186236E+01
 0.1028537189269E+01
 0.1022241892138E+01
 0.1016137396310E+01
 0.1010044237335E+01
 0.1003744824901E+01
 0.9969825130876E+00
 0.9894605580015E+00
 0.9808407285416E+00
 0.9707421745473E+00
 0.9587410824589E+00
 0.9443710284697E+00
 0.9271251627034E+00
 0.9064601839889E+00
 0.8818014000173E+00
 0.8525543414526E+00
 0.8181246449679E+00
 0.7779427524073E+00
 0.7314928106545E+00
 0.6783463726777E+00
 0.6182010679628E+00
 0.5509236674236E+00
 0.4765954733345E+00
 0.3955526154106E+00
 0.3084117859815E+00
 0.2160855088835E+00
 0.1197854230818E+00
 0.2100016382260E-01
-0.7855171733655E-01
-0.1769908722436E+00
-0.2723468718192E+00
 0.1169464076592E+01
 0.1158744493954E+01
 0.1147926621816E+01
 0.1137162517965E+01
 0.1126596847020E+01
 0.1116359141757E+01
 0.1106556398452E+01
 0.1097266717288E+01
 0.1088534602286E+01
 0.1080367980315E+01
 0.1072736661037E+01
 0.1065571838722E+01
 0.1058766140244E+01
 0.1052173801832E+01
 0.1045610662927E+01
 0.1038853761652E+01
 0.1031640439295E+01
 0.1023667237624E+01
 0.1014588346920E+01
 0.1004014250992E+01
 0.9915111264956E+00
 0.9766008971046E+00
 0.9587631312898E+00
 0.9374390183110E+00
 0.9120375822116E+00
 0.8819473552173E+00
 0.8465544041793E+00
 0.8052659979607E+00
 0.7575397758301E+00
 0.7029187085229E+00
 0.6410717180709E+00
 0.5718391764295E+00
 0.4952810970596E+00
 0.4117197251138E+00
 0.3217676413231E+00
 0.2263467665681E+00
 0.1266942614286E+00
 0.2434038732461E-01
-0.7894038358748E-01
-0.1812020122400E+00
-0.2804014433316E+00
 0.1213431573895E+01
 0.1202109609248E+01
 0.1190638198906E+01
 0.1179187948613E+01
 0.1167921611311E+01
 0.1156984940216E+01
 0.1146498290606E+01
 0.1136549751770E+01
 0.1127190396618E+01
 0.1118431596094E+01
 0.1110243977251E+01
 0.1102557495667E+01
 0.1095262022346E+01
 0.1088207961345E+01
 0.1081206552500E+01
 0.1074029631907E+01
 0.1066408761975E+01
 0.1058034041422E+01
 0.1048552349025E+01
 0.1037565707808E+01
 0.1024630353912E+01
 0.1009256405103E+01
 0.9909093698966E+00
 0.9690140201808E+00
 0.9429617046996E+00
 0.9121220138418E+00
 0.8758587858974E+00
 0.8335525570113E+00
 0.7846298587214E+00
 0.7285993968927E+00
 0.6650947220714E+00
 0.5939224468896E+00
 0.5151137408900E+00
 0.4289698639776E+00
 0.3360934793708E+00
 0.2374125438808E+00
 0.1341899208808E+00
 0.2800189153313E-01
-0.7931241624459E-01
-0.1857277286093E+00
-0.2891132684769E+00
 0.1257444494212E+01
 0.1245496548729E+01
 0.1233347911664E+01
 0.1221188871953E+01
 0.1209201543393E+01
 0.1197549098312E+01
 0.1186366226596E+01
 0.1175751689793E+01
 0.1165763524062E+01
 0.1156416704680E+01
 0.1147682682241E+01
 0.1139490109133E+01
 0.1131726037321E+01
 0.1124237029418E+01
 0.1116829800706E+01
 0.1109271153422E+01
 0.1101287121706E+01
 0.1092561664670E+01
 0.1082734661588E+01
 0.1071399934803E+01
 0.1058103911181E+01
 0.1042344815119E+01
 0.1023573682990E+01
 0.1001198023090E+01
 0.9745901699438E+00
 0.9430988662990E+00
 0.9060630727073E+00
 0.8628329947978E+00
 0.8127993460770E+00
 0.7554306765680E+00
 0.6903181730160E+00
 0.6172268705969E+00
 0.5361509651287E+00
 0.4473629767250E+00
 0.3514491830288E+00
 0.2493396618945E+00
 0.1423228473748E+00
 0.3202546035082E-01
-0.7963958028213E-01
-0.1905544965312E+00
-0.2984847489115E+00
 0.1301512726649E+01
 0.1288912684206E+01
 0.1276060405297E+01
 0.1263167249171E+01
 0.1250436187864E+01
 0.1238049172584E+01
 0.1226156285273E+01
 0.1214867650264E+01
 0.1204248612418E+01
 0.1194317829801E+01
 0.1185047490028E+01
 0.1176364791239E+01
 0.1168153833662E+01
 0.1160257282171E+01
 0.1152477379454E+01
 0.1144576061884E+01
 0.1136274106368E+01
 0.1127249674148E+01
 0.1117136010375E+01
 0.1105519062614E+01
 0.1091935655127E+01
 0.1075872113620E+01
 0.1056764675265E+01
 0.1034002821973E+01
 0.1006938612100E+01
 0.9748980985850E+00
 0.9371927510900E+00
 0.8931388323994E+00
 0.8420864320301E+00
 0.7834578415756E+00
 0.7167945315613E+00
 0.6418116129260E+00
 0.5584574865284E+00
 0.4669673621442E+00
 0.3679038061764E+00
 0.2621943498962E+00
 0.1511523936316E+00
 0.3645946880102E-01
-0.7988814383213E-01
-0.1956660192648E+00
-0.3085186259865E+00
 0.1345646368500E+01
 0.1332365454759E+01
 0.1318780195066E+01
 0.1305124696844E+01
 0.1291624547736E+01
 0.1278482022379E+01
 0.1265863743652E+01
 0.1253891893730E+01
 0.1242639411660E+01
 0.1232128620245E+01
 0.1222332250299E+01
 0.1213175795923E+01
 0.1204540194738E+01
 0.1196264105627E+01
 0.1188145326045E+01
 0.1179941095766E+01
 0.1171367229993E+01
 0.1162096478556E+01
 0.1151755880032E+01
 0.1139923910088E+01
 0.1126128086280E+01
 0.1109842929019E+01
 0.1090489654008E+01
 0.1067439060218E+01
 0.1040021770704E+01
 0.1007539398567E+01
 0.9692733755208E+00
 0.9245024230420E+00
 0.8725311254485E+00
 0.8127292044273E+00
 0.7445806744509E+00
 0.6677417765442E+00
 0.5821054813018E+00
 0.4878601248928E+00
 0.3855361604701E+00
 0.2760529250949E+00
 0.1607475241684E+00
 0.4136053202011E-01
-0.8001836356917E-01
-0.2010429127696E+00
-0.3192179152083E+00
 0.1389855804819E+01
 0.1375862409156E+01
 0.1361511666940E+01
 0.1347062449889E+01
 0.1332765020117E+01
 0.1318843731549E+01
 0.1305482997137E+01
 0.1292817750583E+01
 0.1280928735573E+01
 0.1269841806652E+01
 0.1259529919248E+01
 0.1249916500953E+01
 0.1240879028260E+01
 0.1232251988716E+01
 0.1223828735965E+01
 0.1215361985495E+01
 0.1206562915202E+01
 0.1197099301441E+01
 0.1186592474941E+01
 0.1174613930753E+01
 0.1160682278864E+01
 0.1144260443425E+01
 0.1124754521358E+01
 0.1101516102171E+01
 0.1073853344769E+01
 0.1041041795708E+01
 0.1002330402017E+01
 0.9569567935485E+00
 0.9041751208367E+00
 0.8432960261723E+00
 0.7737379203141E+00
 0.6950885621798E+00
 0.6071749147211E+00
 0.5101276911691E+00
 0.4044355055395E+00
 0.2910026090325E+00
 0.1711876750236E+00
 0.4679430584036E-01
-0.7998384342430E-01
-0.2066623061921E+00
-0.3305858211381E+00
 0.1434151802882E+01
 0.1419411256358E+01
 0.1404259078740E+01
 0.1388981318069E+01
 0.1373855320750E+01
 0.1359129516873E+01
 0.1345007466595E+01
 0.1331637537644E+01
 0.1319108393877E+01
 0.1307449150802E+01
 0.1296632524444E+01
 0.1286579384874E+01
 0.1277163350956E+01
 0.1268214511246E+01
 0.1259521749960E+01
 0.1250833435820E+01
 0.1241856467442E+01
 0.1232254144130E+01
 0.1221642667918E+01
 0.1209587144495E+01
 0.1195597792840E+01
 0.1179126282662E+01
 0.1159563640368E+01
 0.1136241874124E+01
 0.1108445809244E+01
 0.1075423456399E+01
 0.1036388970389E+01
 0.9905354285147E+00
 0.9370616086747E+00
 0.8752123877932E+00
 0.8043320068928E+00
 0.7239294018289E+00
 0.6337538764066E+00
 0.5338663738171E+00
 0.4247023367151E+00
 0.3071424836508E+00
 0.1825637779109E+00
 0.5283645193117E-01
-0.7973075127082E-01
-0.2124973421039E+00
-0.3426256062707E+00
 0.1478545623813E+01
 0.1463019927667E+01
 0.1447026565299E+01
 0.1430881640223E+01
 0.1414892402696E+01
 0.1399333630274E+01
 0.1384429501482E+01
 0.1370342474607E+01
 0.1357169128486E+01
 0.1344941403037E+01
 0.1333631141114E+01
 0.1323156017840E+01
 0.1313385288904E+01
 0.1304144348681E+01
 0.1295217558622E+01
 0.1286349126031E+01
 0.1277242067048E+01
 0.1267555766140E+01
 0.1256901965632E+01
 0.1244840084770E+01
 0.1230872599755E+01
 0.1214440417722E+01
 0.1194919709267E+01
 0.1171622709333E+01
 0.1143810230186E+01
 0.1110701471553E+01
 0.1071473671585E+01
 0.1025272032606E+01
 0.9712350589175E+00
 0.9085350345544E+00
 0.8364330492596E+00
 0.7543480927795E+00
 0.6619389502062E+00
 0.5591830184344E+00
 0.4464493058690E+00
 0.3245846254146E+00
 0.1949794852490E+00
 0.5957379573036E-01
-0.7919687858204E-01
-0.2185165675747E+00
-0.3553404302540E+00
 0.1523049155270E+01
 0.1506696649386E+01
 0.1489818142936E+01
 0.1472763228025E+01
 0.1455872358496E+01
 0.1439449242545E+01
 0.1423740265682E+01
 0.1408922586156E+01
 0.1395100538834E+01
 0.1382308251644E+01
 0.1370515862391E+01
 0.1359637047442E+01
 0.1349536073021E+01
 0.1340033271628E+01
 0.1330908400755E+01
 0.1321901702668E+01
 0.1312712752191E+01
 0.1302997654539E+01
 0.1292364460677E+01
 0.1280367729708E+01
 0.1266502989209E+01
 0.1250201042884E+01
 0.1230823607668E+01
 0.1207663159173E+01
 0.1179956039026E+01
 0.1146891594967E+01
 0.1107608256416E+01
 0.1061200224815E+01
 0.1006740928941E+01
 0.9433231424237E+00
 0.8701154272657E+00
 0.7864348823763E+00
 0.6918355743426E+00
 0.5861956971162E+00
 0.4698022577542E+00
 0.3434554172201E+00
 0.2085526094866E+00
 0.6710569673576E-01
-0.7831051944729E-01
-0.2246831869537E+00
-0.3687330925182E+00
 0.1567675066864E+01
 0.1550450027516E+01
 0.1532637712753E+01
 0.1514625297817E+01
 0.1496790304461E+01
 0.1479468308331E+01
 0.1462929607542E+01
 0.1447366593129E+01
 0.1432891001335E+01
 0.1419538270665E+01
 0.1407275771035E+01
 0.1396012187847E+01
 0.1385606038752E+01
 0.1375872149701E+01
 0.1366585565838E+01
 0.1357482775699E+01
 0.1348260404376E+01
 0.1338571994593E+01
 0.1328022783302E+01
 0.1316163430825E+01
 0.1302483470319E+01
 0.1286404445565E+01
 0.1267274230270E+01
 0.1244365786343E+01
 0.1216890781862E+01
 0.1184007947779E+01
 0.1144815299672E+01
 0.1098353176339E+01
 0.1043625304270E+01
 0.9796380108937E+00
 0.9054576026621E+00
 0.8202865016164E+00
 0.7235583909425E+00
 0.6150344550603E+00
 0.4949013983513E+00
 0.3638970672185E+00
 0.2234168117605E+00
 0.7554565944168E-01
-0.7698915595566E-01
-0.2309541601883E+00
-0.3828056673686E+00
 0.1612436995526E+01
 0.1594289149402E+01
 0.1575489065869E+01
 0.1556466392487E+01
 0.1537640249245E+01
 0.1519381415968E+01
 0.1501985919782E+01
 0.1485661800568E+01
 0.1470527592726E+01
 0.1456618877366E+01
 0.1443898924996E+01
 0.1432270225492E+01
 0.1421584643930E+01
 0.1411650974469E+01
 0.1402239416033E+01
 0.1393082934425E+01
 0.1383875753595E+01
 0.1374269659772E+01
 0.1363868071868E+01
 0.1352218859443E+01
 0.1338806689405E+01
 0.1323044890256E+01
 0.1304268331659E+01
 0.1281730964895E+01
 0.1254619869464E+01
 0.1222062715261E+01
 0.1183115845633E+01
 0.1136763216918E+01
 0.1081934494610E+01
 0.1017542701538E+01
 0.9425418819783E+00
 0.8560061619012E+00
 0.7572316012076E+00
 0.6458421343348E+00
 0.5219026346202E+00
 0.3860693917125E+00
 0.2397236052564E+00
 0.8502323634338E-01
-0.7513792715258E-01
-0.2372791343975E+00
-0.3975589712018E+00
 0.1657349764367E+01
 0.1638223698742E+01
 0.1618375880058E+01
 0.1598284277077E+01
 0.1578414926774E+01
 0.1559177600327E+01
 0.1540895966467E+01
 0.1523793959063E+01
 0.1507995992571E+01
 0.1493536273020E+01
 0.1480372328398E+01
 0.1468399010560E+01
 0.1457460471528E+01
 0.1447358865647E+01
 0.1437859389357E+01
 0.1428691742175E+01
 0.1419548359642E+01
 0.1410080174955E+01
 0.1399889913186E+01
 0.1388523919199E+01
 0.1375463309435E+01
 0.1360114459183E+01
 0.1341800321811E+01
 0.1319756623499E+01
 0.1293146261010E+01
 0.1261065765022E+01
 0.1222528959438E+01
 0.1176461328472E+01
 0.1121714497508E+01
 0.1057101527570E+01
 0.9814540241738E+00
 0.8937034108920E+00
 0.7929892257288E+00
 0.6787751885966E+00
 0.5509790279726E+00
 0.4101518444734E+00
 0.2576446901013E+00
 0.9568624457625E-01
-0.7264788170782E-01
-0.2435991903147E+00
-0.4129917355356E+00
 0.1702429643022E+01
 0.1682264093560E+01
 0.1661301716339E+01
 0.1640075817756E+01
 0.1619105606398E+01
 0.1598844136678E+01
 0.1579644700996E+01
 0.1561747129144E+01
 0.1545280399824E+01
 0.1530275406297E+01
 0.1516681931046E+01
 0.1504385480819E+01
 0.1493221267299E+01
 0.1482984113959E+01
 0.1473434040993E+01
 0.1464297770474E+01
 0.1455266634141E+01
 0.1445991721450E+01
 0.1436076325537E+01
 0.1425066701840E+01
 0.1412441932975E+01
 0.1397602936214E+01
 0.1379862103779E+01
 0.1358438028458E+01
 0.1332470182852E+01
 0.1301024292158E+01
 0.1263071292889E+01
 0.1217476635885E+01
 0.1163010438157E+01
 0.1098379498814E+01
 0.1022282791004E+01
 0.9334939383592E+00
 0.8309753562956E+00
 0.7140045771695E+00
 0.5823224634330E+00
 0.4363459199296E+00
 0.2773747625367E+00
 0.1077033982584E+00
-0.6939402094453E-01
-0.2498454667404E+00
-0.4290994220559E+00
 0.1747694660503E+01
 0.1726421645143E+01
 0.1704270003510E+01
 0.1681836823725E+01
 0.1659701855100E+01
 0.1638366288276E+01
 0.1618215046884E+01
 0.1599503519471E+01
 0.1582363432419E+01
 0.1566819925589E+01
 0.1552812619513E+01
 0.1540215677256E+01
 0.1528853967937E+01
 0.1518514212572E+01
 0.1508951070919E+01
 0.1499888617164E+01
 0.1491017844010E+01
 0.1481991120702E+01
 0.1472413717286E+01
 0.1461833415075E+01
 0.1449728993210E+01
 0.1435497654270E+01
 0.1418442869475E+01
 0.1397767517977E+01
 0.1372588789251E+01
 0.1341942393295E+01
 0.1304756560892E+01
 0.1259835784125E+01
 0.1205865866092E+01
 0.1141441592996E+01
 0.1065119301091E+01
 0.9754991861596E+00
 0.8713442547489E+00
 0.7517166100551E+00
 0.6161454448517E+00
 0.4648779115762E+00
 0.2991348639070E+00
 0.1212674350600E+00
-0.6523317009905E-01
-0.2559377730523E+00
-0.4458724058529E+00
 0.1793164978000E+01
 0.1770708741991E+01
 0.1747284007221E+01
 0.1723561845523E+01
 0.1700191246357E+01
 0.1677727006670E+01
 0.1656587645840E+01
 0.1637043308309E+01
 0.1619226023138E+01
 0.1603152136024E+01
 0.1588748217233E+01
 0.1575874770207E+01
 0.1564344739721E+01
 0.1553935898344E+01
 0.1544397360571E+01
 0.1535450932780E+01
 0.1526788122383E+01
 0.1518063824502E+01
 0.1508886850771E+01
 0.1498808314138E+01
 0.1487308646730E+01
 0.1473783342131E+01
 0.1457528891782E+01
 0.1437734228312E+01
 0.1413495807956E+01
 0.1383820614051E+01
 0.1347594973400E+01
 0.1303562244729E+01
 0.1250321946618E+01
 0.1186351881949E+01
 0.1110056203311E+01
 0.1019845763637E+01
 0.9142602901454E+00
 0.7921137367327E+00
 0.6526830294754E+00
 0.4960020978466E+00
 0.3231764446581E+00
 0.1365989291868E+00
-0.6000175540309E-01
-0.2617835495840E+00
-0.4632933590006E+00
 0.1838863342592E+01
 0.1815139069226E+01
 0.1790346785328E+01
 0.1765243926741E+01
 0.1740559013795E+01
 0.1716906587792E+01
 0.1694740582240E+01
 0.1674344462515E+01
 0.1655847329325E+01
 0.1639252980658E+01
 0.1624471514092E+01
 0.1611347117199E+01
 0.1599679049586E+01
 0.1589235225822E+01
 0.1579759042671E+01
 0.1570970480760E+01
 0.1562562514195E+01
 0.1554193940665E+01
 0.1545478842281E+01
 0.1535973669833E+01
 0.1525162703016E+01
 0.1512442008035E+01
 0.1497103353277E+01
 0.1478323855405E+01
 0.1455181217767E+01
 0.1426655520437E+01
 0.1391592675934E+01
 0.1348675605347E+01
 0.1296416598064E+01
 0.1233172556703E+01
 0.1157186701534E+01
 0.1066664686189E+01
 0.9598977213476E+00
 0.8354152896032E+00
 0.6921949358979E+00
 0.5300044487322E+00
 0.3497864031768E+00
 0.1539511902748E+00
-0.5351350894582E-01
-0.2672780005759E+00
-0.4813336212758E+00
 0.1884815636970E+01
 0.1859727858587E+01
 0.1833461105028E+01
 0.1806874272091E+01
 0.1780787608348E+01
 0.1755882243690E+01
 0.1732649046296E+01
 0.1711382517258E+01
 0.1692204618383E+01
 0.1675102004466E+01
 0.1659964279780E+01
 0.1646616301966E+01
 0.1634841713305E+01
 0.1624397613999E+01
 0.1615021539665E+01
 0.1606432162342E+01
 0.1598324982547E+01
 0.1590364215333E+01
 0.1582171114030E+01
 0.1573309683352E+01
 0.1563270494950E+01
 0.1551452758150E+01
 0.1537146103198E+01
 0.1519518337026E+01
 0.1497630836263E+01
 0.1470439164901E+01
 0.1436751060636E+01
 0.1395190693343E+01
 0.1344183411300E+01
 0.1281962668458E+01
 0.1206603223140E+01
 0.1116090202694E+01
 0.1008440071070E+01
 0.8818579297438E+00
 0.7349676160798E+00
 0.5672067039112E+00
 0.3792931810452E+00
 0.1736168429447E+00
-0.4555689552106E-01
-0.2723071811579E+00
-0.4999487268559E+00
 0.1931051552857E+01
 0.1904492186994E+01
 0.1876629327446E+01
 0.1848441835405E+01
 0.1820856170271E+01
 0.1794627615215E+01
 0.1770284975721E+01
 0.1748130368034E+01
 0.1728273188919E+01
 0.1710677366987E+01
 0.1695207331585E+01
 0.1681665230081E+01
 0.1669817001352E+01
 0.1659407952053E+01
 0.1650169663163E+01
 0.1641820105205E+01
 0.1634058482050E+01
 0.1626556085670E+01
 0.1618943419864E+01
 0.1610794478054E+01
 0.1601608829632E+01
 0.1590791699170E+01
 0.1577633502947E+01
 0.1561295627935E+01
 0.1540826003410E+01
 0.1515158646505E+01
 0.1483066160685E+01
 0.1443116757475E+01
 0.1393650582131E+01
 0.1332776814245E+01
 0.1258395947560E+01
 0.1168258402871E+01
 0.1060079253761E+01
 0.9316959378234E+00
 0.7813164470075E+00
 0.6079710268003E+00
 0.4120740571460E+00
 0.1959372714203E+00
-0.3589087407300E-01
-0.2767576165277E+00
-0.5190758054840E+00
 0.1977605427132E+01
 0.1949451322312E+01
 0.1919853229016E+01
 0.1889932778895E+01
 0.1860739863910E+01
 0.1833112179130E+01
 0.1807616634830E+01
 0.1784558035442E+01
 0.1764026285306E+01
 0.1745955855719E+01
 0.1730180601975E+01
 0.1716476219703E+01
 0.1704588734432E+01
 0.1694250689859E+01
 0.1685187694167E+01
 0.1677117729635E+01
 0.1669745006731E+01
 0.1662749703964E+01
 0.1655773838642E+01
 0.1648404054508E+01
 0.1640151897540E+01
 0.1630431794356E+01
 0.1618538220601E+01
 0.1603629419692E+01
 0.1584743203902E+01
 0.1560795599004E+01
 0.1530527951896E+01
 0.1492456519659E+01
 0.1444839652540E+01
 0.1385663541132E+01
 0.1312650934069E+01
 0.1223305306903E+01
 0.1115014105617E+01
 0.9852010066480E+00
 0.8315876947311E+00
 0.6527050963847E+00
 0.4485634298470E+00
 0.2213148543192E+00
-0.2423281333660E-01
-0.2805402563585E+00
-0.5386397114653E+00
 0.2024517283673E+01
 0.1994627116751E+01
 0.1963133737181E+01
 0.1931329766099E+01
 0.1900409045803E+01
 0.1871300540005E+01
 0.1844608137532E+01
 0.1820632420157E+01
 0.1799435027426E+01
 0.1780912922983E+01
 0.1764863228458E+01
 0.1751031109961E+01
 0.1739140391908E+01
 0.1728909937868E+01
 0.1720059470519E+01
 0.1712307820837E+01
 0.1705365643532E+01
 0.1698923966743E+01
 0.1692638771538E+01
 0.1686112247613E+01
 0.1678871181589E+01
 0.1670342717709E+01
 0.1659829022936E+01
 0.1646488858447E+01
 0.1629353687328E+01
 0.1607325672310E+01
 0.1579119633098E+01
 0.1543205172487E+01
 0.1497764136214E+01
 0.1440663532225E+01
 0.1369447890082E+01
 0.1281364412739E+01
 0.1173448280936E+01
 0.1042661299047E+01
 0.8861603922517E+00
 0.7018670388227E+00
 0.4892634770273E+00
 0.2502245913244E+00
-0.1023024704492E-01
-0.2836151268378E+00
-0.5586437611842E+00
 0.2071834184346E+01
 0.2040044424592E+01
 0.2006470595113E+01
 0.1972611034416E+01
 0.1939828253495E+01
 0.1909151608662E+01
 0.1881218940640E+01
 0.1856317085029E+01
 0.1834468396505E+01
 0.1815522786969E+01
 0.1799233705829E+01
 0.1785311427411E+01
 0.1773455275048E+01
 0.1763369620693E+01
 0.1754768529007E+01
 0.1747372658412E+01
 0.1740900686443E+01
 0.1735056608183E+01
 0.1729513006873E+01
 0.1723890753940E+01
 0.1717735438972E+01
 0.1710490784541E+01
 0.1701470650022E+01
 0.1689838354220E+01
 0.1674623190199E+01
 0.1654718123518E+01
 0.1628817014642E+01
 0.1595349464923E+01
 0.1552428179743E+01
 0.1497807728921E+01
 0.1428857705635E+01
 0.1342563817393E+01
 0.1235587425255E+01
 0.1104380050910E+01
 0.9454470130932E+00
 0.7559732215665E+00
 0.5347500601557E+00
 0.2832423797836E+00
 0.6541411286975E-02
-0.2859065055706E+00
-0.5794535413716E+00
 0.2119611582125E+01
 0.2085736714345E+01
 0.2049869487933E+01
 0.2013760028945E+01
 0.1978968426747E+01
 0.1946633663120E+01
 0.1917421742405E+01
 0.1891592904570E+01
 0.1869116533683E+01
 0.1849784325242E+01
 0.1833298381030E+01
 0.1819329539864E+01
 0.1807550414611E+01
 0.1797650262227E+01
 0.1789337919684E+01
 0.1782337043843E+01
 0.1776376101429E+01
 0.1771174377697E+01
 0.1766423949136E+01
 0.1761767827863E+01
 0.1756774369456E+01
 0.1750908193772E+01
 0.1743499327883E+01
 0.1733720140779E+01
 0.1720602375615E+01
 0.1703035003216E+01
 0.1679697320412E+01
 0.1648986943742E+01
 0.1608956950470E+01
 0.1557259348346E+01
 0.1491096230717E+01
 0.1407191330024E+01
 0.1301814597606E+01
 0.1170858660927E+01
 0.1010081949994E+01
 0.8157789365292E+00
 0.5858571642441E+00
 0.3211423735001E+00
 0.2676056987548E-01
-0.2872329883400E+00
-0.6033269799030E+00
 0.2167918853332E+01
 0.2131738701930E+01
 0.2093327684446E+01
 0.2054743674515E+01
 0.2017779296276E+01
 0.1983691590401E+01
 0.1953164965820E+01
 0.1926415827034E+01
 0.1903343657008E+01
 0.1883668969306E+01
 0.1867034141546E+01
 0.1853065950505E+01
 0.1841408264742E+01
 0.1831734838982E+01
 0.1823749927058E+01
 0.1817181528429E+01
 0.1811769810837E+01
 0.1807251820317E+01
 0.1803342204963E+01
 0.1799709838385E+01
 0.1795950155981E+01
 0.1791553414791E+01
 0.1785870722767E+01
 0.1778088395694E+01
 0.1767245614348E+01
 0.1752232995485E+01
 0.1731722434028E+01
 0.1704089006648E+01
 0.1667338132533E+01
 0.1619032998663E+01
 0.1556221212405E+01
 0.1475371297981E+01
 0.1372351917857E+01
 0.1242453258967E+01
 0.1080586377994E+01
 0.8819814488166E+00
 0.6434098611395E+00
 0.3648124755500E+00
 0.5102888223284E-01
-0.2866642267278E+00
-0.6327896231376E+00
 0.2216832943662E+01
 0.2178082024871E+01
 0.2136827066683E+01
 0.2095505565786E+01
 0.2056183832649E+01
 0.2020243260689E+01
 0.1988370964966E+01
 0.1960716493053E+01
 0.1937088624997E+01
 0.1917121852248E+01
 0.1900389915185E+01
 0.1886471016402E+01
 0.1874978569222E+01
 0.1865570760135E+01
 0.1857948151379E+01
 0.1851844594709E+01
 0.1847013976677E+01
 0.1843213659715E+01
 0.1840184052738E+01
 0.1837623793545E+01
 0.1835159989163E+01
 0.1832313627177E+01
 0.1828462171063E+01
 0.1822811066697E+01
 0.1814412109446E+01
 0.1802163430121E+01
 0.1784737246796E+01
 0.1760496844983E+01
 0.1727414466105E+01
 0.1682982477378E+01
 0.1624113647870E+01
 0.1547037515377E+01
 0.1447223408793E+01
 0.1319326360945E+01
 0.1157312613846E+01
 0.9551533773177E+00
 0.7081921506220E+00
 0.4151062214592E+00
 0.8029732983165E-01
-0.2845189657238E+00
-0.6615629901016E+00
 0.2266450681320E+01
 0.2224810671783E+01
 0.2180353629859E+01
 0.2135989532691E+01
 0.2094106651941E+01
 0.2056212991738E+01
 0.2022974411442E+01
 0.1994443291677E+01
 0.1970312529848E+01
 0.1950113982987E+01
 0.1933343599503E+01
 0.1919526874028E+01
 0.1908245554359E+01
 0.1899142620604E+01
 0.1891916143863E+01
 0.1886307540253E+01
 0.1882086563985E+01
 0.1879033557748E+01
 0.1876918024996E+01
 0.1875472510849E+01
 0.1874360756751E+01
 0.1873140050644E+01
 0.1871219967060E+01
 0.1867830617326E+01
 0.1862041748007E+01
 0.1852764963392E+01
 0.1838680892876E+01
 0.1818152868766E+01
 0.1789136762069E+01
 0.1749076304465E+01
 0.1694775926818E+01
 0.1622252847678E+01
 0.1526593181407E+01
 0.1401799450688E+01
 0.1240802397451E+01
 0.1036104655383E+01
 0.7812589927666E+00
 0.4732391875409E+00
 0.1155120383222E+00
-0.2794855444774E+00
-0.6908698978127E+00
 0.2316890809627E+01
 0.2271975471556E+01
 0.2223885315483E+01
 0.2176123405105E+01
 0.2131455973388E+01
 0.2091512637369E+01
 0.2056902390169E+01
 0.2027540928503E+01
 0.2002975244743E+01
 0.1982616459419E+01
 0.1965873762082E+01
 0.1952216508662E+01
 0.1941194263909E+01
 0.1932435690016E+01
 0.1925637918038E+01
 0.1920551849400E+01
 0.1916965369210E+01
 0.1914684541918E+01
 0.1913511411763E+01
 0.1913216800216E+01
 0.1913506439432E+01
 0.1913980026174E+01
 0.1914085552043E+01
 0.1913083693543E+01
 0.1910067541545E+01
 0.1903968006201E+01
 0.1893482304473E+01
 0.1876986487455E+01
 0.1852439018415E+01
 0.1817261359275E+01
 0.1768183371577E+01
 0.1701048497583E+01
 0.1610593636964E+01
 0.1490173735618E+01
 0.1331611374918E+01
 0.1125719822423E+01
 0.8638404881192E+00
 0.5406313303597E+00
 0.1580709510767E+00
-0.2707153801085E+00
-0.7209267620002E+00
 0.2368300444099E+01
 0.2319635117002E+01
 0.2267388235186E+01
 0.2215813864469E+01
 0.2168119727474E+01
 0.2126039736399E+01
 0.2090074085516E+01
 0.2059950842299E+01
 0.2035036017811E+01
 0.2014601004771E+01
 0.1997960066452E+01
 0.1984524083205E+01
 0.1973810818481E+01
 0.1965436128838E+01
 0.1959098143441E+01
 0.1954559379199E+01
 0.1951628205473E+01
 0.1950139186246E+01
 0.1949930419469E+01
 0.1950815571344E+01
 0.1952548136750E+01
 0.1954776950868E+01
 0.1956995383986E+01
 0.1958500980165E+01
 0.1958415509694E+01
 0.1955694619282E+01
 0.1949060020374E+01
 0.1936913641069E+01
 0.1917237368060E+01
 0.1887460757930E+01
 0.1844280239054E+01
 0.1783416936277E+01
 0.1699313875441E+01
 0.1584714251530E+01
 0.1430291451977E+01
 0.1224955616070E+01
 0.9573461244357E+00
 0.6190270223078E+00
 0.2096737410419E+00
-0.2571738187084E+00
-0.7519912599623E+00
 0.2420863980233E+01
 0.2367857091426E+01
 0.2310811052748E+01
 0.2254939436378E+01
 0.2203960779264E+01
 0.2159675648842E+01
 0.2122400813415E+01
 0.2091611951431E+01
 0.2066454270961E+01
 0.2046040610146E+01
 0.2029583749425E+01
 0.2016435291171E+01
 0.2006082686383E+01
 0.1998131211073E+01
 0.1992282345843E+01
 0.1988312555558E+01
 0.1986053104986E+01
 0.1985369818238E+01
 0.1986140363054E+01
 0.1988225973344E+01
 0.1991434112248E+01
 0.1995470211415E+01
 0.1999880793134E+01
 0.2004007055732E+01
 0.2007004604802E+01
 0.2007858510899E+01
 0.2005322161871E+01
 0.1997836558940E+01
 0.1983429310628E+01
 0.1959572051883E+01
 0.1922975999322E+01
 0.1869304687251E+01
 0.1792786787842E+01
 0.1685629359084E+01
 0.1537366722357E+01
 0.1334822980532E+01
 0.1063389602440E+01
 0.7105444068480E+00
 0.2724618905041E+00
-0.2375392575785E+00
-0.7843045737440E+00
 0.2474815578133E+01
 0.2416718273009E+01
 0.2354076500549E+01
 0.2293340918027E+01
 0.2238811174918E+01
 0.2192283919869E+01
 0.2153786624575E+01
 0.2122461831795E+01
 0.2097190628331E+01
 0.2076910285041E+01
 0.2060728149022E+01
 0.2047937734332E+01
 0.2037998968143E+01
 0.2030509557399E+01
 0.2025177119246E+01
 0.2021794586318E+01
 0.2020218547661E+01
 0.2020348764787E+01
 0.2022105908956E+01
 0.2025403587616E+01
 0.2030109876676E+01
 0.2035995126789E+01
 0.2042667825519E+01
 0.2049520247561E+01
 0.2055746690854E+01
 0.2060365169188E+01
 0.2062166627408E+01
 0.2059643817249E+01
 0.2050893329460E+01
 0.2033465915921E+01
 0.2004142174262E+01
 0.1958605511366E+01
 0.1890975311643E+01
 0.1793046317033E+01
 0.1653298412372E+01
 0.1456357511125E+01
 0.1183796472545E+01
 0.8177600891407E+00
 0.3491836020449E+00
-0.2100385653221E+00
-0.8181239407991E+00
 0.2530457027372E+01
 0.2466304711249E+01
 0.2397068392120E+01
 0.2330808251890E+01
 0.2272465440960E+01
 0.2223709302206E+01
 0.2184129774826E+01
 0.2152438412144E+01
 0.2127208171167E+01
 0.2107187898655E+01
 0.2091379267512E+01
 0.2079021311562E+01
 0.2069550682781E+01
 0.2062561367600E+01
 0.2057770338694E+01
 0.2054989680276E+01
 0.2054103705624E+01
 0.2055048629437E+01
 0.2057791366247E+01
 0.2062302674763E+01
 0.2068518305974E+01
 0.2076282882419E+01
 0.2085277039464E+01
 0.2094952445640E+01
 0.2104546545373E+01
 0.2113112116617E+01
 0.2119481509583E+01
 0.2122210709732E+01
 0.2119488928006E+01
 0.2108985412980E+01
 0.2087609968494E+01
 0.2051154490042E+01
 0.1993758901308E+01
 0.1906983303488E+01
 0.1778438068485E+01
 0.1590567403336E+01
 0.1320594304244E+01
 0.9438100790412E+00
 0.4434238851866E+00
-0.1722221673520E+00
-0.8537386828541E+00
 0.2588183933477E+01
 0.2516709535202E+01
 0.2439611423260E+01
 0.2367062515098E+01
 0.2304673275147E+01
 0.2253778182276E+01
 0.2213325426073E+01
 0.2181482233570E+01
 0.2156473890187E+01
 0.2136855089293E+01
 0.2121526353952E+01
 0.2109678607217E+01
 0.2100731047020E+01
 0.2094278644987E+01
 0.2090051367055E+01
 0.2087883265319E+01
 0.2087688697422E+01
 0.2089442598218E+01
 0.2093161030726E+01
 0.2098876488211E+01
 0.2106599804575E+01
 0.2116260447800E+01
 0.2127623222021E+01
 0.2140208832310E+01
 0.2153301855900E+01
 0.2165989285206E+01
 0.2177145753950E+01
 0.2185399958848E+01
 0.2189057122463E+01
 0.2185945924338E+01
 0.2173168915127E+01
 0.2146723594057E+01
 0.2100921538676E+01
 0.2027319999813E+01
 0.1912967996738E+01
 0.1738350119974E+01
 0.1475967840987E+01
 0.1092498916565E+01
 0.5599252429734E+00
-0.1206158181592E+00
-0.8914785685929E+00
 0.2648525212008E+01
 0.2568026860267E+01
 0.2481439180641E+01
 0.2401731348041E+01
 0.2335132668701E+01
 0.2282301621425E+01
 0.2241269941775E+01
 0.2209539232159E+01
 0.2184960283435E+01
 0.2165898221914E+01
 0.2151162496228E+01
 0.2139905276004E+01
 0.2131535749328E+01
 0.2125655417347E+01
 0.2122011261926E+01
 0.2120462212625E+01
 0.2120954859829E+01
 0.2123504786198E+01
 0.2128179605647E+01
 0.2135077693739E+01
 0.2144292556833E+01
 0.2155850497557E+01
 0.2169615009127E+01
 0.2185187496995E+01
 0.2201903204142E+01
 0.2218879548018E+01
 0.2235030126457E+01
 0.2249062841887E+01
 0.2259421463102E+01
 0.2264135858232E+01
 0.2260566796136E+01
 0.2245019320786E+01
 0.2212142929646E+01
 0.2153770443600E+01
 0.2056831520873E+01
 0.1900367703207E+01
 0.1652150162156E+01
 0.1268395390697E+01
 0.7050378471470E+00
-0.5015652572838E-01
-0.9316951919836E+00
 0.2712204723149E+01
 0.2620337206236E+01
 0.2522142373835E+01
 0.2434316035023E+01
 0.2363485973028E+01
 0.2309082786818E+01
 0.2267866927872E+01
 0.2236563844630E+01
 0.2212647024574E+01
 0.2194309359959E+01
 0.2180285195919E+01
 0.2169700407358E+01
 0.2161963205958E+01
 0.2156687943072E+01
 0.2153642971526E+01
 0.2152715054723E+01
 0.2153885023032E+01
 0.2157210611393E+01
 0.2162812697507E+01
 0.2170858916261E+01
 0.2181532897874E+01
 0.2194971334229E+01
 0.2211154346321E+01
 0.2229778841796E+01
 0.2250233972558E+01
 0.2271659397220E+01
 0.2292998514375E+01
 0.2313040752550E+01
 0.2330389569718E+01
 0.2343318115744E+01
 0.2349510960316E+01
 0.2345682778354E+01
 0.2326994125232E+01
 0.2285863152268E+01
 0.2209661522739E+01
 0.2076873745232E+01
 0.1851203711132E+01
 0.1476863457127E+01
 0.8873460601262E+00
 0.4675329870868E-01
-0.9746702598630E+00
 0.2780241610121E+01
 0.2673674639140E+01
 0.2561082976579E+01
 0.2464149465242E+01
 0.2389324423187E+01
 0.2333930930252E+01
 0.2293034555499E+01
 0.2262522104412E+01
 0.2239522662377E+01
 0.2222087213815E+01
 0.2208896903598E+01
 0.2199066862493E+01
 0.2192014795900E+01
 0.2187374902226E+01
 0.2184941520571E+01
 0.2184632198074E+01
 0.2186463787449E+01
 0.2190537192343E+01
 0.2197027396140E+01
 0.2206173461396E+01
 0.2218255881647E+01
 0.2233536851823E+01
 0.2252135733234E+01
 0.2273864670581E+01
 0.2298170114733E+01
 0.2324199798690E+01
 0.2350909642925E+01
 0.2377167274798E+01
 0.2401755205309E+01
 0.2423232262171E+01
 0.2439671121873E+01
 0.2448292674004E+01
 0.2444938103450E+01
 0.2422933235431E+01
 0.2370724785694E+01
 0.2267499596773E+01
 0.2074625402176E+01
 0.1723912907095E+01
 0.1118511979745E+01
 0.1818793681194E+00
-0.1020328028226E+01
 0.2854122701419E+01
 0.2727953048034E+01
 0.2597247875700E+01
 0.2490349110651E+01
 0.2412212230448E+01
 0.2356683154095E+01
 0.2316712492974E+01
 0.2287394507946E+01
 0.2265586354137E+01
 0.2249237986675E+01
 0.2237005494426E+01
 0.2228011572020E+01
 0.2221695065136E+01
 0.2217717566459E+01
 0.2215904179988E+01
 0.2216206123443E+01
 0.2218677791389E+01
 0.2223463749493E+01
 0.2230792924868E+01
 0.2240976252726E+01
 0.2254396154672E+01
 0.2271456605457E+01
 0.2292445156023E+01
 0.2317316772536E+01
 0.2345579678609E+01
 0.2376367245211E+01
 0.2408619297352E+01
 0.2441270839856E+01
 0.2473300882306E+01
 0.2503597243657E+01
 0.2530683393718E+01
 0.2552371790156E+01
 0.2565335446375E+01
 0.2564126613636E+01
 0.2538906943879E+01
 0.2471045174048E+01
 0.2322702985508E+01
 0.2015623176914E+01
 0.1414312038223E+01
 0.3740558161860E+00
-0.1067432523306E+01
 0.2936120522949E+01
 0.2782795140972E+01
 0.2628992557529E+01
 0.2511786683502E+01
 0.2431749896681E+01
 0.2377229922428E+01
 0.2338865646575E+01
 0.2311179191859E+01
 0.2290849471252E+01
 0.2275776015577E+01
 0.2264624685759E+01
 0.2256545766746E+01
 0.2251011888025E+01
 0.2247719935143E+01
 0.2246530607390E+01
 0.2247431559795E+01
 0.2250515951645E+01
 0.2255971975522E+01
 0.2264081310032E+01
 0.2275225003488E+01
 0.2289889297827E+01
 0.2308636121373E+01
 0.2331958563397E+01
 0.2359994681117E+01
 0.2392321905565E+01
 0.2428025039455E+01
 0.2465983156110E+01
 0.2505178054131E+01
 0.2544800948399E+01
 0.2584114466879E+01
 0.2622154847537E+01
 0.2657396975012E+01
 0.2687457594646E+01
 0.2708408324066E+01
 0.2712751669114E+01
 0.2685392262008E+01
 0.2593614376114E+01
 0.2356644369233E+01
 0.1795584076847E+01
 0.6544652665406E+00
-0.1111421129901E+01
 0.3029938822304E+01
 0.2837107283382E+01
 0.2653585340601E+01
 0.2527153271396E+01
 0.2447699924126E+01
 0.2395524874643E+01
 0.2359485024896E+01
 0.2333896768808E+01
 0.2315336207637E+01
 0.2301724380726E+01
 0.2291774358144E+01
 0.2284685129039E+01
 0.2279976595258E+01
 0.2277388838061E+01
 0.2276822965073E+01
 0.2278305635602E+01
 0.2281969683041E+01
 0.2288046365805E+01
 0.2296868003268E+01
 0.2308881611597E+01
 0.2324673921026E+01
 0.2344977790882E+01
 0.2370539728996E+01
 0.2401742117216E+01
 0.2438245706064E+01
 0.2479034974239E+01
 0.2522860426932E+01
 0.2568717930037E+01
 0.2616025218722E+01
 0.2664470982420E+01
 0.2713668387748E+01
 0.2762809917740E+01
 0.2810514387905E+01
 0.2854572178772E+01
 0.2890504902487E+01
 0.2907731686852E+01
 0.2882568436336E+01
 0.2746901340068E+01
 0.2287908557790E+01
 0.1076472964340E+01
-0.1138601127394E+01
 0.3142206005889E+01
 0.2887896621893E+01
 0.2666431250069E+01
 0.2535372747762E+01
 0.2460143188699E+01
 0.2411538319011E+01
 0.2378603757643E+01
 0.2355592618970E+01
 0.2339082992550E+01
 0.2327115988970E+01
 0.2318480449774E+01
 0.2312449983037E+01
 0.2308604014218E+01
 0.2306734013225E+01
 0.2306786005210E+01
 0.2308828000200E+01
 0.2313033085714E+01
 0.2319674509460E+01
 0.2329132342387E+01
 0.2341913579523E+01
 0.2358694871515E+01
 0.2380383079780E+01
 0.2408037254649E+01
 0.2442381156715E+01
 0.2483187225226E+01
 0.2529259702810E+01
 0.2579118556444E+01
 0.2631726973979E+01
 0.2686743924441E+01
 0.2744341278924E+01
 0.2804788909963E+01
 0.2868025562046E+01
 0.2933688446580E+01
 0.3001303339457E+01
 0.3070023783979E+01
 0.3135101561421E+01
 0.3182210065543E+01
 0.3175500128445E+01
 0.2916004750736E+01
 0.1733925186888E+01
-0.1109705789473E+01
 0.3286607453628E+01
 0.2926380895479E+01
 0.2660194472135E+01
 0.2537037621077E+01
 0.2469287726133E+01
 0.2425206856454E+01
 0.2396353735128E+01
 0.2376313858614E+01
 0.2362147418159E+01
 0.2351991015495E+01
 0.2344775801209E+01
 0.2339865094877E+01
 0.2336912556659E+01
 0.2335768132246E+01
 0.2336427141522E+01
 0.2339000928473E+01
 0.2343703092469E+01
 0.2350847384709E+01
 0.2360857853913E+01
 0.2374294888007E+01
 0.2391907831489E+01
 0.2414757858026E+01
 0.2444280427538E+01
 0.2481702155539E+01
 0.2526966322395E+01
 0.2578566563760E+01
 0.2634639213514E+01
 0.2694055531110E+01
 0.2756733246624E+01
 0.2823392495008E+01
 0.2895055241000E+01
 0.2972470613957E+01
 0.3056103599103E+01
 0.3147394968598E+01
 0.3248634981646E+01
 0.3364169314692E+01
 0.3486652337589E+01
 0.3614421530454E+01
 0.3678978802754E+01
 0.2794710772945E+01
-0.9132268407220E+00
 0.3498456317448E+01
 0.2921813733120E+01
 0.2628303634373E+01
 0.2537079496821E+01
 0.2473636214960E+01
 0.2437185867025E+01
 0.2412717968741E+01
 0.2396183558610E+01
 0.2384587389504E+01
 0.2376402404366E+01
 0.2370698580120E+01
 0.2366959989120E+01
 0.2364924084878E+01
 0.2364506818429E+01
 0.2365756469442E+01
 0.2368829384329E+01
 0.2373979577677E+01
 0.2381559490110E+01
 0.2392032829811E+01
 0.2406005299655E+01
 0.2424283974286E+01
 0.2448025668002E+01
 0.2479073678163E+01
 0.2519444285346E+01
 0.2569382984373E+01
 0.2626833838536E+01
 0.2689325953390E+01
 0.2755574403526E+01
 0.2825783866014E+01
 0.2901286766603E+01
 0.2983985994994E+01
 0.3075535816914E+01
 0.3177075430545E+01
 0.3291166408281E+01
 0.3425155867851E+01
 0.3586656151809E+01
 0.3799248147774E+01
 0.4028759724797E+01
 0.4481418848735E+01
 0.4517037888610E+01
-0.1632922043258E+00
 0.3905186065964E+01
 0.2730455153528E+01
 0.2622324171097E+01
 0.2522541045816E+01
 0.2476925310663E+01
 0.2446892659251E+01
 0.2428049854465E+01
 0.2415265645034E+01
 0.2406494636749E+01
 0.2400406948900E+01
 0.2396294173053E+01
 0.2393768256166E+01
 0.2392663942691E+01
 0.2392968566894E+01
 0.2394786736013E+01
 0.2398321075029E+01
 0.2403865354437E+01
 0.2411809004553E+01
 0.2422650332226E+01
 0.2437031779811E+01
 0.2455802650957E+01
 0.2480164456901E+01
 0.2512191503098E+01
 0.2555248769777E+01
 0.2610224286976E+01
 0.2673957574140E+01
 0.2743113770215E+01
 0.2816184893151E+01
 0.2893702453258E+01
 0.2977707019806E+01
 0.3071039182785E+01
 0.3176631934241E+01
 0.3295878458000E+01
 0.3431840997180E+01
 0.3595113525749E+01
 0.3806509195515E+01
 0.4079692585786E+01
 0.4516922737428E+01
 0.4927150289232E+01
 0.7211661650067E+01
 0.2095117796347E+01
 0.1063786601112E+01
 0.1037847335646E+01
 0.1007694340056E+01
 0.9782697817065E+00
 0.9496085657742E+00
 0.9222310945912E+00
 0.8960814267042E+00
 0.8716248224753E+00
 0.8491322851702E+00
 0.8287539038074E+00
 0.8106523817421E+00
 0.7949063379783E+00
 0.7815164766722E+00
 0.7703655356651E+00
 0.7612678430416E+00
 0.7539345622229E+00
 0.7490425763790E+00
 0.7474464454498E+00
 0.7461171802563E+00
 0.7676520449315E+00
 0.1118371389039E+01
 0.1084871466358E+01
 0.1052932278132E+01
 0.1021219102989E+01
 0.9907733764522E+00
 0.9617578582542E+00
 0.9344239966968E+00
 0.9089528160551E+00
 0.8855714848971E+00
 0.8644525428458E+00
 0.8457313990182E+00
 0.8294994670956E+00
 0.8157646835329E+00
 0.8044571612453E+00
 0.7954530454796E+00
 0.7888152882051E+00
 0.7850016242189E+00
 0.7840623059218E+00
 0.7905261511947E+00
 0.7982427947860E+00
 0.1169660222620E+01
 0.1132908903559E+01
 0.1097616402125E+01
 0.1063810244511E+01
 0.1031463068572E+01
 0.1000894990660E+01
 0.9722610712837E+00
 0.9457297604228E+00
 0.9214572125696E+00
 0.8995966964100E+00
 0.8802803689683E+00
 0.8635993684580E+00
 0.8495838916383E+00
 0.8382060303934E+00
 0.8294515737802E+00
 0.8234434174696E+00
 0.8204518251917E+00
 0.8215291462148E+00
 0.8260918712883E+00
 0.8320822246912E+00
 0.1220238571721E+01
 0.1180171726407E+01
 0.1142094229432E+01
 0.1105912503809E+01
 0.1071689276208E+01
 0.1039527324509E+01
 0.1009572517948E+01
 0.9819437297867E+00
 0.9567673713620E+00
 0.9341710742446E+00
 0.9142781750362E+00
 0.8971845924108E+00
 0.8829405598260E+00
 0.8715631032747E+00
 0.8630890724194E+00
 0.8576295932067E+00
 0.8555369494923E+00
 0.8568846573880E+00
 0.8612641019116E+00
 0.8673841063104E+00
 0.1270047235990E+01
 0.1226832493724E+01
 0.1186020532547E+01
 0.1147537746204E+01
 0.1111382293467E+01
 0.1077615785525E+01
 0.1046315814117E+01
 0.1017572288370E+01
 0.9914818981412E+00
 0.9681534879001E+00
 0.9477008827156E+00
 0.9302235063103E+00
 0.9157895828395E+00
 0.9044443191749E+00
 0.8962403933996E+00
 0.8912943805518E+00
 0.8897275216808E+00
 0.8914934049610E+00
 0.8962137656805E+00
 0.9031558413454E+00
 0.1319106878524E+01
 0.1272814654339E+01
 0.1229342751877E+01
 0.1188583192360E+01
 0.1150502860600E+01
 0.1115114580935E+01
 0.1082457477984E+01
 0.1052586980048E+01
 0.1025576868512E+01
 0.1001519091521E+01
 0.9805191458769E+00
 0.9626781145052E+00
 0.9480757283056E+00
 0.9367706768144E+00
 0.9288216065824E+00
 0.9242926275805E+00
 0.9232261896671E+00
 0.9255293997254E+00
 0.9309369939705E+00
 0.9389909065996E+00
 0.1367372211472E+01
 0.1318072146914E+01
 0.1271992687344E+01
 0.1228990832531E+01
 0.1188996096858E+01
 0.1151985137487E+01
 0.1117963190904E+01
 0.1086958977154E+01
 0.1059025264449E+01
 0.1034239729011E+01
 0.1012699803796E+01
 0.9945059599466E+00
 0.9797431902985E+00
 0.9684761515525E+00
 0.9607550586303E+00
 0.9566180921439E+00
 0.9560721401843E+00
 0.9590370493936E+00
 0.9653275562935E+00
 0.9746380744893E+00
 0.1414791000010E+01
 0.1362550740473E+01
 0.1313916324675E+01
 0.1268706772916E+01
 0.1226816045852E+01
 0.1188187973651E+01
 0.1152800105647E+01
 0.1120658480612E+01
 0.1091798371566E+01
 0.1066284735098E+01
 0.1044207149882E+01
 0.1025663355295E+01
 0.1010739802950E+01
 0.9995019253357E+00
 0.9919954652084E+00
 0.9882480322034E+00
 0.9882613415704E+00
 0.9919793272305E+00
 0.9992770971500E+00
 0.1009954515591E+01
 0.1461306416476E+01
 0.1406197719029E+01
 0.1355063208418E+01
 0.1307684230460E+01
 0.1263920518330E+01
 0.1223686511842E+01
 0.1186935839997E+01
 0.1153655646820E+01
 0.1123866436495E+01
 0.1097622081086E+01
 0.1075004463357E+01
 0.1056107412891E+01
 0.1041016756149E+01
 0.1029798731064E+01
 0.1022499505962E+01
 0.1019148413268E+01
 0.1019755667647E+01
 0.1024293051292E+01
 0.1032686153468E+01
 0.1044813060780E+01
 0.1506861265773E+01
 0.1448961840552E+01
 0.1395386682155E+01
 0.1345880590269E+01
 0.1300271191760E+01
 0.1258446409348E+01
 0.1220339175831E+01
 0.1185920742904E+01
 0.1155199311032E+01
 0.1128219170421E+01
 0.1105055022863E+01
 0.1085796461391E+01
 0.1070528538196E+01
 0.1059319845856E+01
 0.1052221812066E+01
 0.1049272961583E+01
 0.1050499466786E+01
 0.1055902959276E+01
 0.1065453792717E+01
 0.1079094350203E+01
 0.1551399835111E+01
 0.1490794449350E+01
 0.1434843492833E+01
 0.1383257009014E+01
 0.1335833002629E+01
 0.1292435735351E+01
 0.1252980295809E+01
 0.1217424700377E+01
 0.1185767047755E+01
 0.1158043584136E+01
 0.1134322690342E+01
 0.1114690217804E+01
 0.1099231259904E+01
 0.1088018820314E+01
 0.1081113252963E+01
 0.1078566997960E+01
 0.1080426608172E+01
 0.1086725049756E+01
 0.1097476591213E+01
 0.1112675713260E+01
 0.1594868887205E+01
 0.1531649911138E+01
 0.1473393742093E+01
 0.1419777987739E+01
 0.1370573848238E+01
 0.1325624835290E+01
 0.1284830935210E+01
 0.1248139396270E+01
 0.1215540305826E+01
 0.1187063470161E+01
 0.1162772134464E+01
 0.1142749417383E+01
 0.1127081724127E+01
 0.1115848406067E+01
 0.1109121405289E+01
 0.1106970076108E+01
 0.1109464076879E+01
 0.1116669137198E+01
 0.1128643850480E+01
 0.1145438407967E+01
 0.1637218541599E+01
 0.1571486086756E+01
 0.1511001023168E+01
 0.1455411324772E+01
 0.1404464510103E+01
 0.1357986381872E+01
 0.1315864570393E+01
 0.1278037968884E+01
 0.1244490714345E+01
 0.1215247867420E+01
 0.1190368949261E+01
 0.1169935639829E+01
 0.1154037049342E+01
 0.1142760526567E+01
 0.1136191467694E+01
 0.1134418015757E+01
 0.1137534594114E+01
 0.1145640556147E+01
 0.1158839979612E+01
 0.1177246134728E+01
 0.1678402941296E+01
 0.1610264739431E+01
 0.1547632605446E+01
 0.1490128158892E+01
 0.1437478668949E+01
 0.1389495441532E+01
 0.1346056576749E+01
 0.1307095049027E+01
 0.1272591130095E+01
 0.1242566909437E+01
 0.1217079733734E+01
 0.1196211258444E+01
 0.1180054655868E+01
 0.1168706603913E+01
 0.1162267209237E+01
 0.1160844493329E+01
 0.1164558463980E+01
 0.1173542280237E+01
 0.1187945668953E+01
 0.1207944274709E+01
 0.1718380782799E+01
 0.1647951867936E+01
 0.1583259603373E+01
 0.1523903037327E+01
 0.1469592940214E+01
 0.1420129535530E+01
 0.1375384341765E+01
 0.1335286919653E+01
 0.1299815809072E+01
 0.1268991964288E+01
 0.1242872175024E+01
 0.1221539507940E+01
 0.1205092446265E+01
 0.1193638031466E+01
 0.1187291859142E+01
 0.1186182310470E+01
 0.1190455069634E+01
 0.1200276411961E+01
 0.1215839487242E+01
 0.1237377266494E+01
 0.1757115911990E+01
 0.1684518099253E+01
 0.1617857237853E+01
 0.1556714086311E+01
 0.1500787004798E+01
 0.1449868771029E+01
 0.1403827418570E+01
 0.1362591691303E+01
 0.1326140586935E+01
 0.1294495801393E+01
 0.1267715205272E+01
 0.1245884678510E+01
 0.1229109129216E+01
 0.1217506731121E+01
 0.1211208955442E+01
 0.1210364512936E+01
 0.1215144187782E+01
 0.1225745670341E+01
 0.1242401837252E+01
 0.1265395980737E+01
 0.1794577793862E+01
 0.1719939026333E+01
 0.1651405053992E+01
 0.1588543155342E+01
 0.1531043715779E+01
 0.1478695940763E+01
 0.1431367636230E+01
 0.1388989427082E+01
 0.1351543013586E+01
 0.1319052733498E+01
 0.1291579166142E+01
 0.1269212345146E+01
 0.1252064577527E+01
 0.1240265702969E+01
 0.1233963122249E+01
 0.1233325404404E+01
 0.1238547250096E+01
 0.1249855323667E+01
 0.1267517769814E+01
 0.1291860702929E+01
 0.1830742060796E+01
 0.1754195585428E+01
 0.1683887192013E+01
 0.1619376011797E+01
 0.1560349249550E+01
 0.1506596655244E+01
 0.1457989229547E+01
 0.1414462278022E+01
 0.1376002497646E+01
 0.1342638777377E+01
 0.1314436004996E+01
 0.1291489634368E+01
 0.1273920210903E+01
 0.1261869567464E+01
 0.1255500804222E+01
 0.1255001503421E+01
 0.1260588628692E+01
 0.1272514888632E+01
 0.1291078931017E+01
 0.1316642350873E+01
 0.1865591008806E+01
 0.1787274424333E+01
 0.1715292648829E+01
 0.1649202531193E+01
 0.1588693251297E+01
 0.1533559465526E+01
 0.1483678954881E+01
 0.1438994602649E+01
 0.1399500438293E+01
 0.1365231809428E+01
 0.1336259473405E+01
 0.1312685493834E+01
 0.1294639370450E+01
 0.1282275078518E+01
 0.1275770950759E+01
 0.1275332440011E+01
 0.1281196790772E+01
 0.1293639540434E+01
 0.1312984931910E+01
 0.1339623093626E+01
 0.1899114094224E+01
 0.1819168261069E+01
 0.1745615536572E+01
 0.1678016884379E+01
 0.1616068976769E+01
 0.1559575979630E+01
 0.1508426197023E+01
 0.1462573076693E+01
 0.1422020348906E+01
 0.1386811716184E+01
 0.1357025321932E+01
 0.1332770953924E+01
 0.1314187673030E+01
 0.1301441598477E+01
 0.1294725640472E+01
 0.1294261761077E+01
 0.1300305273503E+01
 0.1313151221659E+01
 0.1333144489271E+01
 0.1360696709343E+01
 0.1931308442460E+01
 0.1849876257900E+01
 0.1774855354591E+01
 0.1705817736633E+01
 0.1642473442586E+01
 0.1584640983853E+01
 0.1532223077556E+01
 0.1485186802100E+01
 0.1443547979156E+01
 0.1407360542496E+01
 0.1376711489440E+01
 0.1351719375721E+01
 0.1332533337780E+01
 0.1319331524497E+01
 0.1312320631582E+01
 0.1311737615214E+01
 0.1317853515380E+01
 0.1330979440317E+01
 0.1351476304744E+01
 0.1379769962306E+01
 0.1962179345046E+01
 0.1879404387568E+01
 0.1803017253838E+01
 0.1732608438305E+01
 0.1667907566973E+01
 0.1608752552985E+01
 0.1555064550855E+01
 0.1506827403017E+01
 0.1464071423776E+01
 0.1426862625211E+01
 0.1395298273883E+01
 0.1369506671662E+01
 0.1349647470031E+01
 0.1335910650814E+01
 0.1328515815523E+01
 0.1327713317668E+01
 0.1333787499763E+01
 0.1347062123178E+01
 0.1367909388591E+01
 0.1396765032342E+01
 0.1991740753362E+01
 0.1907765795585E+01
 0.1830112296110E+01
 0.1758397208777E+01
 0.1692376302183E+01
 0.1631912150516E+01
 0.1576948488630E+01
 0.1527489109334E+01
 0.1483581217905E+01
 0.1445304711298E+01
 0.1412768482452E+01
 0.1386111495435E+01
 0.1365504297925E+01
 0.1351148458324E+01
 0.1343275569164E+01
 0.1342147764623E+01
 0.1348060283896E+01
 0.1361346114149E+01
 0.1382384353122E+01
 0.1411615172085E+01
 0.2020015778635E+01
 0.1934981165046E+01
 0.1856157712697E+01
 0.1783197317427E+01
 0.1715888761284E+01
 0.1654124720798E+01
 0.1597875754248E+01
 0.1547168828335E+01
 0.1502070419025E+01
 0.1462676059993E+01
 0.1429107560288E+01
 0.1401515399968E+01
 0.1380081359156E+01
 0.1365018328728E+01
 0.1356568993391E+01
 0.1355005707988E+01
 0.1360632278709E+01
 0.1373787603296E+01
 0.1394853065238E+01
 0.1424266854851E+01
 0.2047037193160E+01
 0.1961079077517E+01
 0.1881177157616E+01
 0.1807027255703E+01
 0.1738458333827E+01
 0.1675398767497E+01
 0.1617850261121E+01
 0.1565866198835E+01
 0.1519534670313E+01
 0.1478968524724E+01
 0.1444303694791E+01
 0.1415702961679E+01
 0.1393359637111E+01
 0.1377497680276E+01
 0.1368370039118E+01
 0.1366257859546E+01
 0.1371471361652E+01
 0.1384352125951E+01
 0.1405279004791E+01
 0.1434681040984E+01
 0.2072847892686E+01
 0.1986096347681E+01
 0.1905200928062E+01
 0.1829910877183E+01
 0.1760102768695E+01
 0.1695746398460E+01
 0.1636878996623E+01
 0.1583583610914E+01
 0.1535972230753E+01
 0.1494176603157E+01
 0.1458347887490E+01
 0.1428661866718E+01
 0.1405323644840E+01
 0.1388568026702E+01
 0.1378657514883E+01
 0.1375880837395E+01
 0.1380552758245E+01
 0.1393014518045E+01
 0.1413637543415E+01
 0.1442833877701E+01
 0.2097501441699E+01
 0.2010078396861E+01
 0.1928266223058E+01
 0.1851877566567E+01
 0.1780844279409E+01
 0.1715183385294E+01
 0.1654972053239E+01
 0.1600326227052E+01
 0.1551384003499E+01
 0.1508297484553E+01
 0.1471234022209E+01
 0.1440382988486E+01
 0.1415961486887E+01
 0.1398214987803E+01
 0.1387415007537E+01
 0.1383856960317E+01
 0.1387858741090E+01
 0.1399758654884E+01
 0.1419915957598E+01
 0.1448717228880E+01
 0.2121062505331E+01
 0.2033079559599E+01
 0.1950417325307E+01
 0.1872962336650E+01
 0.1800709578815E+01
 0.1733729152244E+01
 0.1672142587848E+01
 0.1616101931956E+01
 0.1565773497215E+01
 0.1521331038487E+01
 0.1482958884839E+01
 0.1450860423711E+01
 0.1425264876749E+01
 0.1406428238024E+01
 0.1394630705855E+01
 0.1390173896324E+01
 0.1393378068067E+01
 0.1404576828994E+01
 0.1424113073456E+01
 0.1452339185745E+01
 0.2143607365383E+01
 0.2055163417047E+01
 0.1971705812437E+01
 0.1893205948487E+01
 0.1819729931982E+01
 0.1751406774194E+01
 0.1688406779303E+01
 0.1630921271971E+01
 0.1579146774207E+01
 0.1533279795517E+01
 0.1493522186713E+01
 0.1460091543752E+01
 0.1433229170793E+01
 0.1413201454074E+01
 0.1400297184138E+01
 0.1394824218139E+01
 0.1397105243729E+01
 0.1407468580003E+01
 0.1426238384831E+01
 0.1453724625522E+01
 0.2165224396813E+01
 0.2076403111609E+01
 0.1992190741702E+01
 0.1912655006811E+01
 0.1837941181779E+01
 0.1768242938434E+01
 0.1703783737092E+01
 0.1644797334960E+01
 0.1591512336099E+01
 0.1544148875004E+01
 0.1502926558004E+01
 0.1468077044722E+01
 0.1439853419707E+01
 0.1418532269829E+01
 0.1404411152706E+01
 0.1397804851356E+01
 0.1399039643713E+01
 0.1408439311905E+01
 0.1426309442197E+01
 0.1452915783922E+01
 0.2186014479820E+01
 0.2096881598039E+01
 0.2011938775283E+01
 0.1931362006136E+01
 0.1855383727275E+01
 0.1784267850937E+01
 0.1718295339854E+01
 0.1657745546117E+01
 0.1602880920088E+01
 0.1553945834654E+01
 0.1511177497716E+01
 0.1474821006944E+01
 0.1445140475958E+01
 0.1422422295421E+01
 0.1406973211890E+01
 0.1399116445792E+01
 0.1399184401548E+01
 0.1407498993444E+01
 0.1424349368637E+01
 0.1449964515033E+01
 0.2206091498997E+01
 0.2116691933999E+01
 0.2031024364411E+01
 0.1949385439662E+01
 0.1872102558292E+01
 0.1799515175157E+01
 0.1731966073455E+01
 0.1669783431953E+01
 0.1613265238753E+01
 0.1562680459765E+01
 0.1518283294893E+01
 0.1480331003006E+01
 0.1449097238923E+01
 0.1424877309873E+01
 0.1407987719366E+01
 0.1398762652193E+01
 0.1397545121723E+01
 0.1404659908981E+01
 0.1420385638285E+01
 0.1444921141039E+01
 0.2225582550295E+01
 0.2135937405960E+01
 0.2049529793459E+01
 0.1966789808763E+01
 0.1888147201485E+01
 0.1814021863984E+01
 0.1744822738944E+01
 0.1680930227749E+01
 0.1622679543117E+01
 0.1570364362361E+01
 0.1524254796919E+01
 0.1484618162513E+01
 0.1451735047275E+01
 0.1425907729263E+01
 0.1407462862280E+01
 0.1396749390233E+01
 0.1394128023280E+01
 0.1399934146466E+01
 0.1414443281077E+01
 0.1437836768082E+01
 0.2244628257446E+01
 0.2154731688746E+01
 0.2067545347849E+01
 0.1983645802948E+01
 0.1903571800911E+01
 0.1827828083404E+01
 0.1756894186691E+01
 0.1691206469893E+01
 0.1631139114084E+01
 0.1577010461876E+01
 0.1529105016715E+01
 0.1487697201720E+01
 0.1453070296518E+01
 0.1425529695000E+01
 0.1405411333539E+01
 0.1393084190826E+01
 0.1388937920997E+01
 0.1393329718012E+01
 0.1406541642162E+01
 0.1428747365751E+01
 0.2263382527523E+01
 0.2173198708566E+01
 0.2085169435931E+01
 0.2000030432215E+01
 0.1918435186869E+01
 0.1840976985351E+01
 0.1768210906756E+01
 0.1700633394026E+01
 0.1638659533578E+01
 0.1582632162905E+01
 0.1532848391233E+01
 0.1489585985136E+01
 0.1453125152765E+01
 0.1423766845920E+01
 0.1401852470508E+01
 0.1387775971800E+01
 0.1381974926707E+01
 0.1384847254746E+01
 0.1396689405842E+01
 0.1417675813869E+01
 0.2282011603220E+01
 0.2191472548038E+01
 0.2102508742497E+01
 0.2016027751542E+01
 0.1932800904515E+01
 0.1853514608500E+01
 0.1778804534407E+01
 0.1709232352812E+01
 0.1645255864664E+01
 0.1587242347882E+01
 0.1535499680905E+01
 0.1490304724892E+01
 0.1451927148966E+01
 0.1420653718253E+01
 0.1396816607070E+01
 0.1380838129429E+01
 0.1373229056854E+01
 0.1374470872416E+01
 0.1384886769476E+01
 0.1404621978900E+01
 0.2300692297016E+01
 0.2209695459795E+01
 0.2119680625928E+01
 0.2031728926013E+01
 0.1946737970302E+01
 0.1865488963458E+01
 0.1788707583987E+01
 0.1717024073269E+01
 0.1650941640589E+01
 0.1590852150942E+01
 0.1537072399359E+01
 0.1489874298389E+01
 0.1449508501430E+01
 0.1416233883105E+01
 0.1390359652289E+01
 0.1372295652200E+01
 0.1362678276148E+01
 0.1362144243351E+01
 0.1371108859534E+01
 0.1389600567687E+01
 0.2319596971271E+01
 0.2228023984002E+01
 0.2136810655395E+01
 0.2047239894997E+01
 0.1960316133480E+01
 0.1876950537601E+01
 0.1797953428050E+01
 0.1724027950767E+01
 0.1655727300970E+01
 0.1593469800257E+01
 0.1537577460594E+01
 0.1488313095897E+01
 0.1445903764587E+01
 0.1410561371950E+01
 0.1382547568044E+01
 0.1362258018682E+01
 0.1350275891784E+01
 0.1347722243652E+01
 0.1355255187952E+01
 0.1372633644573E+01
 0.2338900463834E+01
 0.2246580162619E+01
 0.2154097787760E+01
 0.2062655787538E+01
 0.1973603116266E+01
 0.1887954565834E+01
 0.1806579761339E+01
 0.1730257809049E+01
 0.1659618409324E+01
 0.1595100190454E+01
 0.1537021846927E+01
 0.1485635143934E+01
 0.1441140104459E+01
 0.1403701989382E+01
 0.1373469419046E+01
 0.1350801228268E+01
 0.1336372100850E+01
 0.1330699469600E+01
 0.1336818880306E+01
 0.1353981678140E+01
 0.2358118282756E+01
 0.2265914499733E+01
 0.2171727063459E+01
 0.2078009020681E+01
 0.1986658739897E+01
 0.1898600929109E+01
 0.1814612679234E+01
 0.1735716028701E+01
 0.1662616329471E+01
 0.1595743432281E+01
 0.1535409611075E+01
 0.1481847573353E+01
 0.1435235984613E+01
 0.1395691223891E+01
 0.1363288678750E+01
 0.1338028456222E+01
 0.1320903572361E+01
 0.1312861448469E+01
 0.1312280588767E+01
 0.1331449881111E+01
 0.1373534433882E+01
-0.9614335678381E-02
-0.1566929218107E+00
-0.2494578917747E+00
-0.2880567229081E+00
-0.2846567519536E+00
-0.2780486844551E+00
-0.2724013618052E+00
-0.2649747301783E+00
-0.2560350680920E+00
-0.2447153404266E+00
-0.2314672418976E+00
-0.2150716262647E+00
-0.1948013415690E+00
-0.1713846905653E+00
-0.1462837105281E+00
-0.1112759897421E+00
-0.7726144042838E-01
-0.5359478628985E-01
-0.4809751310733E-01
 0.6925302108324E+00
 0.3236276105819E+00
-0.5460247960377E-01
-0.1559761498875E+00
-0.2108901371901E+00
-0.2330517197294E+00
-0.2362596069677E+00
-0.2311813602514E+00
-0.2245216887268E+00
-0.2170548162149E+00
-0.2080808065991E+00
-0.1969425648274E+00
-0.1833823990890E+00
-0.1672539199655E+00
-0.1486538166363E+00
-0.1267363487920E+00
-0.1027964739593E+00
-0.7831170212681E-01
-0.5955916788021E-01
-0.5433805656146E-01
 0.5146130167639E+00
 0.3273821030271E+00
 0.9550689727434E-01
-0.6393676929334E-01
-0.1335718368900E+00
-0.1722232641870E+00
-0.1870203310751E+00
-0.1873435432525E+00
-0.1825641604846E+00
-0.1766031930610E+00
-0.1694605954245E+00
-0.1605700593463E+00
-0.1497198100033E+00
-0.1370285527480E+00
-0.1223333802506E+00
-0.1058036674593E+00
-0.8837705869774E-01
-0.7182996294754E-01
-0.5869144867540E-01
-0.5502920250992E-01
 0.4425718793482E+00
 0.3337464827512E+00
 0.1750512678675E+00
 0.3533440879856E-01
-0.5504827041225E-01
-0.1065510881869E+00
-0.1317590557430E+00
-0.1391712173426E+00
-0.1381998521368E+00
-0.1343166694327E+00
-0.1290160441441E+00
-0.1222078226972E+00
-0.1138640619689E+00
-0.1041452155043E+00
-0.9313580967475E-01
-0.8112780974456E-01
-0.6926799265353E-01
-0.5888537409544E-01
-0.5095990755604E-01
-0.4929938435466E-01
 0.4195422133783E+00
 0.3477558582246E+00
 0.2330106065153E+00
 0.1163640815082E+00
 0.2476963237263E-01
-0.3786721903546E-01
-0.7206629439485E-01
-0.8674915435647E-01
-0.9066617532183E-01
-0.8974151296446E-01
-0.8656414250131E-01
-0.8179665149839E-01
-0.7572912377479E-01
-0.6867006759153E-01
-0.6083870994269E-01
-0.5268914086580E-01
-0.4536641152306E-01
-0.4002263626007E-01
-0.3646422726678E-01
-0.3674473045818E-01
 0.4219854546052E+00
 0.3701578643525E+00
 0.2821609034996E+00
 0.1851794834836E+00
 0.9914471023614E-01
 0.3221134712432E-01
-0.9330813660844E-02
-0.3069331659362E-01
-0.3984273601791E-01
-0.4250328370075E-01
-0.4185542968619E-01
-0.3921093068081E-01
-0.3527985388557E-01
-0.3057123867768E-01
-0.2544964234910E-01
-0.2047294418268E-01
-0.1682784383604E-01
-0.1545164236826E-01
-0.1533193157718E-01
-0.1698655706020E-01
 0.4396107679289E+00
 0.3990758561269E+00
 0.3282194549646E+00
 0.2463495206592E+00
 0.1678743147328E+00
 0.1010234825962E+00
 0.5507554863419E-01
 0.2815151799474E-01
 0.1400863051238E-01
 0.7500047000608E-02
 0.5303169760144E-02
 0.5680468156413E-02
 0.7541008418082E-02
 0.1014722003620E-01
 0.1298924976809E-01
 0.1541020387334E-01
 0.1616711659371E-01
 0.1458335428308E-01
 0.1229932675136E-01
 0.1006795873397E-01
 0.4670067975174E+00
 0.4329729973643E+00
 0.3735114999964E+00
 0.3030407279589E+00
 0.2320249776939E+00
 0.1676132606405E+00
 0.1197456727625E+00
 0.8884933464354E-01
 0.7038736434931E-01
 0.6013153022656E-01
 0.5495975495662E-01
 0.5296065982429E-01
 0.5277500257145E-01
 0.5346680163195E-01
 0.5439035778488E-01
 0.5479742172318E-01
 0.5337287586465E-01
 0.4978581055724E-01
 0.4615004028663E-01
 0.4418421556739E-01
 0.5010616827272E+00
 0.4706964756905E+00
 0.4190390687194E+00
 0.3571820820514E+00
 0.2928384949360E+00
 0.2319033625631E+00
 0.1838681001124E+00
 0.1505159087527E+00
 0.1286823524181E+00
 0.1150763821862E+00
 0.1070110964829E+00
 0.1026205197137E+00
 0.1004193473217E+00
 0.9934053642644E-01
 0.9863580784862E-01
 0.9748255228578E-01
 0.9449424929775E-01
 0.8977603814778E-01
 0.8577023183679E-01
 0.8480188442397E-01
 0.5398459276208E+00
 0.5114098013892E+00
 0.4652173581975E+00
 0.4099373835662E+00
 0.3513403316986E+00
 0.2942027596216E+00
 0.2471058958806E+00
 0.2125260388681E+00
 0.1882975022210E+00
 0.1719249016457E+00
 0.1612311533404E+00
 0.1545505119073E+00
 0.1504052626072E+00
 0.1476806195235E+00
 0.1455759251291E+00
 0.1432257393641E+00
 0.1391909802869E+00
 0.1340912694463E+00
 0.1305479744153E+00
 0.1311075435044E+00
 0.5820927018207E+00
 0.5544980171852E+00
 0.5121966981410E+00
 0.4620065601238E+00
 0.4082975704696E+00
 0.3549231906596E+00
 0.3094142717588E+00
 0.2745138138084E+00
 0.2487552378257E+00
 0.2302569669309E+00
 0.2173217680275E+00
 0.2085574169770E+00
 0.2025948684551E+00
 0.1983501239052E+00
 0.1950260274912E+00
 0.1917558107827E+00
 0.1870832623337E+00
 0.1821959775954E+00
 0.1797479148413E+00
 0.1821324133239E+00
 0.6269295027721E+00
 0.5994986696687E+00
 0.5600039695447E+00
 0.5138113455774E+00
 0.4642593109520E+00
 0.4144578149620E+00
 0.3708924044769E+00
 0.3363076703094E+00
 0.3097209562047E+00
 0.2897054543723E+00
 0.2749669692898E+00
 0.2643971040534E+00
 0.2567943161690E+00
 0.2511651723547E+00
 0.2467661428623E+00
 0.2427721497228E+00
 0.2377566315542E+00
 0.2334982976861E+00
 0.2325589735304E+00
 0.2368470226344E+00
 0.6737303981311E+00
 0.6460543682251E+00
 0.6086079975981E+00
 0.5656045523397E+00
 0.5196102483350E+00
 0.4731381225594E+00
 0.4316926016419E+00
 0.3978572508979E+00
 0.3709841196609E+00
 0.3499819872889E+00
 0.3338748457064E+00
 0.3218110908498E+00
 0.3127779035575E+00
 0.3059083794406E+00
 0.3005478175930E+00
 0.2959506526365E+00
 0.2907681676577E+00
 0.2873669430581E+00
 0.2881359185802E+00
 0.2942354544932E+00
 0.7220301393460E+00
 0.6938810313445E+00
 0.6579503410235E+00
 0.6175343861240E+00
 0.5746159023953E+00
 0.5312261709070E+00
 0.4919713375307E+00
 0.4591760435301E+00
 0.4324233112792E+00
 0.4108749470753E+00
 0.3937988103073E+00
 0.3805561092269E+00
 0.3703166742567E+00
 0.3623505129834E+00
 0.3561120910114E+00
 0.3509553824921E+00
 0.3456593492462E+00
 0.3431421119818E+00
 0.3456250503380E+00
 0.3533401383257E+00
 0.7714722341862E+00
 0.7427468359105E+00
 0.7079597527149E+00
 0.6696825287656E+00
 0.6294562072946E+00
 0.5889206317030E+00
 0.5518663153674E+00
 0.5203029770525E+00
 0.4939713929955E+00
 0.4722320922568E+00
 0.4545394689755E+00
 0.4404206146199E+00
 0.4292023488185E+00
 0.4202820499735E+00
 0.4132132367511E+00
 0.4074712965593E+00
 0.4019680251225E+00
 0.4001515616288E+00
 0.4041516793422E+00
 0.4132778970834E+00
 0.8217776088927E+00
 0.7924575843009E+00
 0.7585594784169E+00
 0.7220857857723E+00
 0.6842496127930E+00
 0.6463664654951E+00
 0.6114885431234E+00
 0.5812798660076E+00
 0.5555878291077E+00
 0.5339374906876E+00
 0.5159315818103E+00
 0.5012228572984E+00
 0.4892616311495E+00
 0.4795368731146E+00
 0.4716805980329E+00
 0.4652247644974E+00
 0.4593092175282E+00
 0.4576783571891E+00
 0.4628039021946E+00
 0.4731684405420E+00
 0.8727231576612E+00
 0.8428517131935E+00
 0.8096653157501E+00
 0.7747520340315E+00
 0.7390663980737E+00
 0.7036663744607E+00
 0.6709212819644E+00
 0.6421413718574E+00
 0.6172410055060E+00
 0.5958907037657E+00
 0.5778218616445E+00
 0.5627894701379E+00
 0.5503394438290E+00
 0.5400130170498E+00
 0.5314376822836E+00
 0.5241961961504E+00
 0.5173088456345E+00
 0.5151999784536E+00
 0.5203213402661E+00
 0.5320655981058E+00
 0.9241565729088E+00
 0.8937714040740E+00
 0.8612069246037E+00
 0.8276468960531E+00
 0.7939512259628E+00
 0.7608831266524E+00
 0.7302247606859E+00
 0.7029127286495E+00
 0.6789023305724E+00
 0.6579956720656E+00
 0.6400491566347E+00
 0.6249186599407E+00
 0.6122445572210E+00
 0.6016041524917E+00
 0.5925666694254E+00
 0.5845325691371E+00
 0.5766448194796E+00
 0.5716017749762E+00
 0.5758032634904E+00
 0.5877278038407E+00
 0.9758891777032E+00
 0.9452216078404E+00
 0.9129606646410E+00
 0.8807903477993E+00
 0.8488958233947E+00
 0.8180539582042E+00
 0.7894321540874E+00
 0.7636166389994E+00
 0.7405509718311E+00
 0.7201642218031E+00
 0.7024442882185E+00
 0.6873570728058E+00
 0.6746683066406E+00
 0.6640381306616E+00
 0.6550318916487E+00
 0.6468342835360E+00
 0.6379782254791E+00
 0.6312034227143E+00
 0.6228072652656E+00
 0.6378318471840E+00
 0.1029215335634E+01
 0.9960858914677E+00
 0.9651573561380E+00
 0.9340871397394E+00
 0.9039217361623E+00
 0.8751184420942E+00
 0.8485755696596E+00
 0.8242835313959E+00
 0.8021791381664E+00
 0.7823370678187E+00
 0.7648575406204E+00
 0.7498348688098E+00
 0.7371783266978E+00
 0.7267052204464E+00
 0.7181443125670E+00
 0.7109663593509E+00
 0.7032378024643E+00
 0.6951810197042E+00
 0.6873632734400E+00
 0.6416427332940E+00
 0.2370577166373E+01
 0.2278957378587E+01
 0.2180994311981E+01
 0.2083245648684E+01
 0.1987849069704E+01
 0.1896313128183E+01
 0.1809208104780E+01
 0.1727433788684E+01
 0.1651797117424E+01
 0.1582713393463E+01
 0.1520426950457E+01
 0.1465160429525E+01
 0.1417110888083E+01
 0.1376396567992E+01
 0.1343072301616E+01
 0.1317078750911E+01
 0.1297388237056E+01
 0.1284407911902E+01
 0.1279087352728E+01
 0.1257685293399E+01
 0.2397100766928E+01
 0.2295600112338E+01
 0.2191676356052E+01
 0.2087175700981E+01
 0.1985255236893E+01
 0.1887233904870E+01
 0.1793607775265E+01
 0.1705838301893E+01
 0.1624891432293E+01
 0.1551195896009E+01
 0.1485048236807E+01
 0.1426697034915E+01
 0.1376280191507E+01
 0.1333807139778E+01
 0.1299216480413E+01
 0.1272181068830E+01
 0.1251795344738E+01
 0.1240813227825E+01
 0.1237914129845E+01
 0.1256601643082E+01
 0.2423052935935E+01
 0.2314535156572E+01
 0.2202424179266E+01
 0.2090248637055E+01
 0.1980680261508E+01
 0.1875204350043E+01
 0.1774367173292E+01
 0.1680003887900E+01
 0.1593271419584E+01
 0.1514633185648E+01
 0.1444404719705E+01
 0.1382835865512E+01
 0.1329989698160E+01
 0.1285806579464E+01
 0.1250210028411E+01
 0.1222977394676E+01
 0.1203449621914E+01
 0.1195481523732E+01
 0.1204133744914E+01
 0.1226963300445E+01
 0.2451247720017E+01
 0.2334513875343E+01
 0.2213556581902E+01
 0.2092330695178E+01
 0.1974005311288E+01
 0.1860048534266E+01
 0.1751173124912E+01
 0.1649625023149E+01
 0.1556687031864E+01
 0.1472839324341E+01
 0.1398406758939E+01
 0.1333624856508E+01
 0.1278469712207E+01
 0.1232825682114E+01
 0.1196644646386E+01
 0.1169794957607E+01
 0.1151436075719E+01
 0.1147677260341E+01
 0.1161559965237E+01
 0.1190313693875E+01
 0.2482233927810E+01
 0.2355991203785E+01
 0.2224891817118E+01
 0.2093363685342E+01
 0.1965011920623E+01
 0.1841458901382E+01
 0.1723685284252E+01
 0.1614380143311E+01
 0.1514882903484E+01
 0.1425660771581E+01
 0.1347029233967E+01
 0.1279179382327E+01
 0.1221957741973E+01
 0.1175155009383E+01
 0.1138699878849E+01
 0.1112394848975E+01
 0.1095331656599E+01
 0.1094460201072E+01
 0.1113036562396E+01
 0.1147001330355E+01
 0.2516707789257E+01
 0.2379244674692E+01
 0.2236489674929E+01
 0.2093171857167E+01
 0.1953410441999E+01
 0.1819037723127E+01
 0.1691498570997E+01
 0.1573920507607E+01
 0.1467607729814E+01
 0.1372979367790E+01
 0.1290300908850E+01
 0.1219656627212E+01
 0.1160687589804E+01
 0.1113020744279E+01
 0.1076475036559E+01
 0.1050748968222E+01
 0.1034624071971E+01
 0.1036067035273E+01
 0.1058400490951E+01
 0.1097618129067E+01
 0.2555432412041E+01
 0.2404618859684E+01
 0.2248389516566E+01
 0.2091551076047E+01
 0.1938803524605E+01
 0.1792288354340E+01
 0.1654137407279E+01
 0.1527867394456E+01
 0.1414623837155E+01
 0.1314727011582E+01
 0.1228317638667E+01
 0.1155274865641E+01
 0.1094937755241E+01
 0.1046689959789E+01
 0.1010182348211E+01
 0.9849336845876E+00
 0.9694352491631E+00
 0.9724555317531E+00
 0.9978093372321E+00
 0.1042035007904E+01
 0.2599329216916E+01
 0.2432511261810E+01
 0.2260623767965E+01
 0.2088211300094E+01
 0.1920669864902E+01
 0.1760590865102E+01
 0.1611050655787E+01
 0.1475823194306E+01
 0.1355732172982E+01
 0.1250916821167E+01
 0.1161273124420E+01
 0.1086345818835E+01
 0.1025070343983E+01
 0.9765208311612E+00
 0.9401284244253E+00
 0.9152104323159E+00
 0.8999414598278E+00
 0.9037640191366E+00
 0.9312742640428E+00
 0.9800520948394E+00
 0.2649544997929E+01
 0.2463404151570E+01
 0.2273196374371E+01
 0.2082734809690E+01
 0.1898312221988E+01
 0.1723177225101E+01
 0.1561614997826E+01
 0.1417401915215E+01
 0.1290818204279E+01
 0.1181687861336E+01
 0.1089492001969E+01
 0.1013294731057E+01
 0.9515414874066E+00
 0.9029507099971E+00
 0.8667068542694E+00
 0.8419089031485E+00
 0.8264207901511E+00
 0.8301743154682E+00
 0.8588294788148E+00
 0.9114341070386E+00
 0.2707556056966E+01
 0.2497902371262E+01
 0.2286056459811E+01
 0.2074502243254E+01
 0.1870787103111E+01
 0.1679105594924E+01
 0.1505161495470E+01
 0.1352289781415E+01
 0.1219919299065E+01
 0.1107353095943E+01
 0.1013449383045E+01
 0.9366573811602E+00
 0.8748825412150E+00
 0.8264723204696E+00
 0.7903557990892E+00
 0.7654141233438E+00
 0.7492120223380E+00
 0.7519435849702E+00
 0.7805602813337E+00
 0.8359830740969E+00
 0.2775331413576E+01
 0.2536790651335E+01
 0.2299043842856E+01
 0.2062571718053E+01
 0.1836806842725E+01
 0.1627252063816E+01
 0.1441046525760E+01
 0.1280347378207E+01
 0.1143306038381E+01
 0.1028432322768E+01
 0.9337621398605E+00
 0.8570506835239E+00
 0.7956666476070E+00
 0.7476002712672E+00
 0.7115338746731E+00
 0.6861435765398E+00
 0.6687148203860E+00
 0.6694202207184E+00
 0.6966557317100E+00
 0.7535867693646E+00
 0.2855603496107E+01
 0.2581118297272E+01
 0.2311777069865E+01
 0.2045475265346E+01
 0.1794615072439E+01
 0.1566354560860E+01
 0.1368801951210E+01
 0.1201756814975E+01
 0.1061552634026E+01
 0.9456422195405E+00
 0.8511416207191E+00
 0.7751248572757E+00
 0.7144723453915E+00
 0.6668444619619E+00
 0.6306981294953E+00
 0.6045341968303E+00
 0.5853898823867E+00
 0.5830739460319E+00
 0.6074647424443E+00
 0.6642806314142E+00
 0.2952339536957E+01
 0.2632323271101E+01
 0.2323417265562E+01
 0.2020875065207E+01
 0.1741856838084E+01
 0.1495185546969E+01
 0.1288406705031E+01
 0.1117189071599E+01
 0.9755396722093E+00
 0.8598141211347E+00
 0.7663147117102E+00
 0.6915195021933E+00
 0.6318604551562E+00
 0.5846914355594E+00
 0.5482850810495E+00
 0.5210277290215E+00
 0.4997608294028E+00
 0.4935310940266E+00
 0.5135697174764E+00
 0.5683305452794E+00
 0.3071613638418E+01
 0.2692403562773E+01
 0.2332158450613E+01
 0.1984983783661E+01
 0.1675540241727E+01
 0.1412998929298E+01
 0.1200704404689E+01
 0.1027882927857E+01
 0.8863058503573E+00
 0.7717359749000E+00
 0.6799624985058E+00
 0.6068534829172E+00
 0.5483699026962E+00
 0.5015878862408E+00
 0.4646872014122E+00
 0.4360514688373E+00
 0.4124126980637E+00
 0.4016137559746E+00
 0.4158833827465E+00
 0.4663515465886E+00
 0.3223336837623E+01
 0.2764127053846E+01
 0.2334060421568E+01
 0.1931649920176E+01
 0.1592371663910E+01
 0.1320528950980E+01
 0.1107809893553E+01
 0.9354140030948E+00
 0.7946680020360E+00
 0.6820432608421E+00
 0.5927416858692E+00
 0.5217597181243E+00
 0.4645141566714E+00
 0.4179118098216E+00
 0.3802204224955E+00
 0.3499968807803E+00
 0.3239834515617E+00
 0.3083764538818E+00
 0.3157694775619E+00
 0.3594843385516E+00
 0.3425110849049E+01
 0.2851016395174E+01
 0.2320375636295E+01
 0.1850980475479E+01
 0.1490531852696E+01
 0.1221579264674E+01
 0.1013051170626E+01
 0.8406356480634E+00
 0.7009828734604E+00
 0.5912995364133E+00
 0.5054184768261E+00
 0.4369174017574E+00
 0.3807416202649E+00
 0.3339196776588E+00
 0.2950971653971E+00
 0.2631993168774E+00
 0.2351540972906E+00
 0.2151145094795E+00
 0.2151807209379E+00
 0.2496493307027E+00
 0.3711405264537E+01
 0.2956731040425E+01
 0.2269803415660E+01
 0.1729703203360E+01
 0.1374114508779E+01
 0.1125514301873E+01
 0.9175114898906E+00
 0.7431872061730E+00
 0.6052809897375E+00
 0.5003687886397E+00
 0.4190093381835E+00
 0.3529862767713E+00
 0.2973270258372E+00
 0.2497122400438E+00
 0.2094009482200E+00
 0.1759618099671E+00
 0.1466058046077E+00
 0.1233484235724E+00
 0.1167272180815E+00
 0.1399220170367E+00
 0.4165286932687E+01
 0.3071936118798E+01
 0.2135608498495E+01
 0.1552234629090E+01
 0.1274459137377E+01
 0.1033644599625E+01
 0.8197577437010E+00
 0.6414006353755E+00
 0.5081263707593E+00
 0.4109194748367E+00
 0.3346722496914E+00
 0.2703363325389E+00
 0.2143196199562E+00
 0.1651902342374E+00
 0.1231873101459E+00
 0.8845010462639E-01
 0.5916737410161E-01
 0.3460755284122E-01
 0.2365768620514E-01
 0.3482163849522E-01
 0.4993238800383E+01
 0.3168725375247E+01
 0.1727634183679E+01
 0.1441967508823E+01
 0.1188510854404E+01
 0.9447756100905E+00
 0.7142773500047E+00
 0.5336286403127E+00
 0.4123470617339E+00
 0.3253680376571E+00
 0.2530119361059E+00
 0.1888525188813E+00
 0.1314673339806E+00
 0.8050939313583E-01
 0.3593955129189E-01
 0.1233469133987E-02
-0.2663606850373E-01
-0.4897062656191E-01
-0.6129331380126E-01
-0.5939257658571E-01
 0.7792722079238E+01
 0.1840197947381E+01
 0.1604638533680E+01
 0.1351392326655E+01
 0.1123654133393E+01
 0.8502124848453E+00
 0.5895520894710E+00
 0.4241920075609E+00
 0.3237627877445E+00
 0.2448797939100E+00
 0.1736930724686E+00
 0.1077385747151E+00
 0.4874932309310E-01
-0.4377202686623E-02
-0.5105218225415E-01
-0.9046182964415E-01
-0.1046083723844E+00
-0.1258540544760E+00
-0.1381233922919E+00
-0.1369407948854E+00
 0.7737163584071E+00
 0.6644347011791E+00
 0.6048253360018E+00
 0.5449528450265E+00
 0.4855466628037E+00
 0.4255059021416E+00
 0.3653480165450E+00
 0.3056937942651E+00
 0.2473621669134E+00
 0.1912974803316E+00
 0.1385541443882E+00
 0.9025078891369E-01
 0.4749407447874E-01
 0.1126415311663E-01
-0.1772901204032E-01
-0.3918206615701E-01
-0.5328859570422E-01
-0.6066294486457E-01
-0.6242077959421E-01
-0.5791396631031E-01
 0.7826269945439E+00
 0.7224003719576E+00
 0.6522675770329E+00
 0.5917068233376E+00
 0.5310427388820E+00
 0.4698609018270E+00
 0.4078901277094E+00
 0.3456302986083E+00
 0.2838145645603E+00
 0.2233895348878E+00
 0.1654723228170E+00
 0.1113234783741E+00
 0.6228823996290E-01
 0.1968740420830E-01
-0.1535634572731E-01
-0.4214715060899E-01
-0.6061831895600E-01
-0.7147302683872E-01
-0.7584573813304E-01
-0.7662066532830E-01
 0.8144587520576E+00
 0.7607567596769E+00
 0.7020746621998E+00
 0.6412760156607E+00
 0.5808920747598E+00
 0.5191734907142E+00
 0.4559981470871E+00
 0.3915782603914E+00
 0.3265315586467E+00
 0.2617343084771E+00
 0.1983031667551E+00
 0.1375798589171E+00
 0.8110777015472E-01
 0.3056173710091E-01
-0.1241048614075E-01
-0.4646535334730E-01
-0.7094473979617E-01
-0.8614824452741E-01
-0.9355828515848E-01
-0.9532854993216E-01
 0.8493998391442E+00
 0.8021732890751E+00
 0.7492277021218E+00
 0.6931444055020E+00
 0.6344343087597E+00
 0.5734791589373E+00
 0.5100048684319E+00
 0.4441801648242E+00
 0.3764602314858E+00
 0.3076084002843E+00
 0.2386730856472E+00
 0.1709985681475E+00
 0.1062386629464E+00
 0.4634941132724E-01
-0.6492635976508E-02
-0.5013437935513E-01
-0.8291898744573E-01
-0.1043402854484E+00
-0.1153104584124E+00
-0.1177913869251E+00
 0.8860514896169E+00
 0.8444703759064E+00
 0.7974237078570E+00
 0.7461738760967E+00
 0.6912015947926E+00
 0.6325571950633E+00
 0.5702591970739E+00
 0.5043391022082E+00
 0.4350918676621E+00
 0.3630946205537E+00
 0.2892412855098E+00
 0.2147729329697E+00
 0.1413263230503E+00
 0.7099072384051E-01
 0.6339092887544E-02
-0.4965909551595E-01
-0.9404810147953E-01
-0.1247788287525E+00
-0.1418177492781E+00
-0.1469749186517E+00
 0.9233041671177E+00
 0.8872190604548E+00
 0.8459806300259E+00
 0.8002532301957E+00
 0.7501287872543E+00
 0.6955090613202E+00
 0.6362090481215E+00
 0.5721143423012E+00
 0.5032622834473E+00
 0.4299424709555E+00
 0.3527523740592E+00
 0.2726585635651E+00
 0.1910726304043E+00
 0.1099582315097E+00
 0.3197155485011E-01
-0.3940283837981E-01
-0.9989158436910E-01
-0.1451922636649E+00
-0.1728767930575E+00
-0.1845112674567E+00
 0.9608786122532E+00
 0.9300812388581E+00
 0.8946828023895E+00
 0.8548748054200E+00
 0.8105160410611E+00
 0.7612804581235E+00
 0.7067770314516E+00
 0.6466262840646E+00
 0.5805490705604E+00
 0.5084418190793E+00
 0.4304566391078E+00
 0.3470817111220E+00
 0.2592407495962E+00
 0.1684309462426E+00
 0.7693163481813E-01
-0.1188224246354E-01
-0.9311530027667E-01
-0.1601320120031E+00
-0.2062630822412E+00
-0.2293849830433E+00
 0.9984922618227E+00
 0.9727935948500E+00
 0.9431617679929E+00
 0.9095035618910E+00
 0.8715113406034E+00
 0.8287155356203E+00
 0.7805465601988E+00
 0.7263933319241E+00
 0.6656572142346E+00
 0.5978140473760E+00
 0.5224818255069E+00
 0.4395020037054E+00
 0.3490424699988E+00
 0.2517423986462E+00
 0.1489355853242E+00
 0.4303188702136E-01
-0.6181653777359E-01
-0.1584338477908E+00
-0.2352274747993E+00
-0.2809230269439E+00
 0.1035919988615E+01
 0.1015098658239E+01
 0.9910689278356E+00
 0.9635821510195E+00
 0.9322537832540E+00
 0.8965531181859E+00
 0.8558300078608E+00
 0.8093407811546E+00
 0.7562748790942E+00
 0.6957838656439E+00
 0.6270175209117E+00
 0.5491703846766E+00
 0.4615468747807E+00
 0.3636588014767E+00
 0.2553857205707E+00
 0.1372600910054E+00
 0.1106324187891E-01
-0.1189408894326E+00
-0.2420013237931E+00
-0.3342504414889E+00
 0.1072984029933E+01
 0.1056812507334E+01
 0.1038154505480E+01
 0.1016706900416E+01
 0.9920707945077E+00
 0.9637282022699E+00
 0.9310417580592E+00
 0.8932587430880E+00
 0.8495131837046E+00
 0.7988261485713E+00
 0.7401043658579E+00
 0.6721381122889E+00
 0.5935994719504E+00
 0.5030441244751E+00
 0.3989228553921E+00
 0.2796247857121E+00
 0.1435871978955E+00
-0.1023783535820E-01
-0.1814753207005E+00
-0.3558818950005E+00
 0.1109536260414E+01
 0.1097777206358E+01
 0.1084238494916E+01
 0.1068606796976E+01
 0.1050508361250E+01
 0.1029480908187E+01
 0.1004961203078E+01
 0.9762770671975E+00
 0.9426378619768E+00
 0.9031204931084E+00
 0.8566489032989E+00
 0.8019642392671E+00
 0.7375815183780E+00
 0.6617255905864E+00
 0.5722344064018E+00
 0.4664027887710E+00
 0.3407271789049E+00
 0.1903456529341E+00
 0.8159548398543E-02
-0.2222847255527E+00
 0.1145452679728E+01
 0.1137928787773E+01
 0.1129309700449E+01
 0.1119291302645E+01
 0.1107543237483E+01
 0.1093675402812E+01
 0.1077221177839E+01
 0.1057625305147E+01
 0.1034231363722E+01
 0.1006265675363E+01
 0.9728149422014E+00
 0.9327943230483E+00
 0.8849008508621E+00
 0.8275437136876E+00
 0.7587355252169E+00
 0.6759154708007E+00
 0.5756299461499E+00
 0.4529321366856E+00
 0.2997973356528E+00
 0.1004939060886E+00
 0.1180548868191E+01
 0.1177133990836E+01
 0.1173266620247E+01
 0.1168676136205E+01
 0.1163085628559E+01
 0.1156182260468E+01
 0.1147600010984E+01
 0.1136907199162E+01
 0.1123594541522E+01
 0.1107061164703E+01
 0.1086596367739E+01
 0.1061354601121E+01
 0.1030320107194E+01
 0.9922555645898E+00
 0.9456255642139E+00
 0.8884782882422E+00
 0.8182605061690E+00
 0.7315170689281E+00
 0.6234399106189E+00
 0.4893767694075E+00
 0.1214592751763E+01
 0.1215155471363E+01
 0.1215857195177E+01
 0.1216479985969E+01
 0.1216809299490E+01
 0.1216612169464E+01
 0.1215622915522E+01
 0.1213532549354E+01
 0.1209979341521E+01
 0.1204538816517E+01
 0.1196711842669E+01
 0.1185909546504E+01
 0.1171433620154E+01
 0.1152450331504E+01
 0.1127956383476E+01
 0.1096736181476E+01
 0.1057317964666E+01
 0.1007961800151E+01
 0.9469635852184E+00
 0.8728681389309E+00
 0.1247347683896E+01
 0.1251725320554E+01
 0.1256779913113E+01
 0.1262356005615E+01
 0.1268306605302E+01
 0.1274479077095E+01
 0.1280705066657E+01
 0.1286793006310E+01
 0.1292522013037E+01
 0.1297636348729E+01
 0.1301839938145E+01
 0.1304790762946E+01
 0.1306095374299E+01
 0.1305304515675E+01
 0.1301912374466E+01
 0.1295365673262E+01
 0.1285094527879E+01
 0.1270607204060E+01
 0.1251595689087E+01
 0.1228121250360E+01
 0.1278587078703E+01
 0.1286577215711E+01
 0.1295728610290E+01
 0.1305949658790E+01
 0.1317161133790E+01
 0.1329287854455E+01
 0.1342252576755E+01
 0.1355971702246E+01
 0.1370352428524E+01
 0.1385291127386E+01
 0.1400673003318E+01
 0.1416373463217E+01
 0.1432262199619E+01
 0.1448211885004E+01
 0.1464114876140E+01
 0.1479912937030E+01
 0.1495648749309E+01
 0.1511527180778E+01
 0.1527990642402E+01
 0.1545794997911E+01
 0.1308098705839E+01
 0.1319458465261E+01
 0.1332409758578E+01
 0.1346920469690E+01
 0.1362974756376E+01
 0.1380568445306E+01
 0.1399705929488E+01
 0.1420398490335E+01
 0.1442664004594E+01
 0.1466528114819E+01
 0.1492027134082E+01
 0.1519213242214E+01
 0.1548162943542E+01
 0.1578990343112E+01
 0.1611867425791E+01
 0.1647054471362E+01
 0.1684940988825E+01
 0.1726103375337E+01
 0.1771350163219E+01
 0.1821727398475E+01
 0.1335687018760E+01
 0.1350135782196E+01
 0.1366551193027E+01
 0.1384952867298E+01
 0.1405380527652E+01
 0.1427891519272E+01
 0.1452559660082E+01
 0.1479475302157E+01
 0.1508746639983E+01
 0.1540502399612E+01
 0.1574896135596E+01
 0.1612112500154E+01
 0.1652376008518E+01
 0.1695962961822E+01
 0.1743217340795E+01
 0.1794571147413E+01
 0.1850571557745E+01
 0.1911915441722E+01
 0.1979532439490E+01
 0.2054610585955E+01
 0.1361175297323E+01
 0.1378399230365E+01
 0.1397908166483E+01
 0.1419763975424E+01
 0.1444051844708E+01
 0.1470879011522E+01
 0.1500374644202E+01
 0.1532690750850E+01
 0.1568004177520E+01
 0.1606519713597E+01
 0.1648474373044E+01
 0.1694142916015E+01
 0.1743844617005E+01
 0.1797951140063E+01
 0.1856895037760E+01
 0.1921178236760E+01
 0.1991379005186E+01
 0.2068161190683E+01
 0.2152277049121E+01
 0.2244858628975E+01
 0.1384408065849E+01
 0.1404065546020E+01
 0.1426268596520E+01
 0.1451110566665E+01
 0.1478710713221E+01
 0.1509213440952E+01
 0.1542788266208E+01
 0.1579630917367E+01
 0.1619965300284E+01
 0.1664046255532E+01
 0.1712163001431E+01
 0.1764643088056E+01
 0.1821856525049E+01
 0.1884219451633E+01
 0.1952196282639E+01
 0.2026298407433E+01
 0.2107076490653E+01
 0.2195097508336E+01
 0.2290897164990E+01
 0.2394706664469E+01
 0.1405253606246E+01
 0.1426982461383E+01
 0.1451458701864E+01
 0.1478795392500E+01
 0.1509134558342E+01
 0.1542644660387E+01
 0.1579520468379E+01
 0.1619983821309E+01
 0.1664285105692E+01
 0.1712705235949E+01
 0.1765557944731E+01
 0.1823192106195E+01
 0.1885993662854E+01
 0.1954386484318E+01
 0.2028831092228E+01
 0.2109819560363E+01
 0.2197863421787E+01
 0.2293467959640E+01
 0.2397072803202E+01
 0.2508823172763E+01
 0.1423605089032E+01
 0.1447029237703E+01
 0.1473338574477E+01
 0.1502658037157E+01
 0.1535140856637E+01
 0.1570966652990E+01
 0.1610340689731E+01
 0.1653494062833E+01
 0.1700684404993E+01
 0.1752196906120E+01
 0.1808345438854E+01
 0.1869473550806E+01
 0.1935955024991E+01
 0.2008193634172E+01
 0.2086621631101E+01
 0.2171696503754E+01
 0.2263895570044E+01
 0.2363711081868E+01
 0.2471646853829E+01
 0.2588462333950E+01
 0.1439379461272E+01
 0.1464103393592E+01
 0.1491786778814E+01
 0.1522556116432E+01
 0.1556564864356E+01
 0.1593991226677E+01
 0.1635036875840E+01
 0.1679926303582E+01
 0.1728906593264E+01
 0.1782247405862E+01
 0.1840241019997E+01
 0.1903202294913E+01
 0.1971468489632E+01
 0.2045398998409E+01
 0.2125375333305E+01
 0.2211802156727E+01
 0.2305111921468E+01
 0.2405777172482E+01
 0.2514366923293E+01
 0.2631566171464E+01
 0.1452520666057E+01
 0.1478135611394E+01
 0.1506720544119E+01
 0.1538392960615E+01
 0.1573295598812E+01
 0.1611593420657E+01
 0.1653471368179E+01
 0.1699132686158E+01
 0.1748797620857E+01
 0.1802702330905E+01
 0.1861097881406E+01
 0.1924249279436E+01
 0.1992434660962E+01
 0.2065945009121E+01
 0.2145085204746E+01
 0.2230177983683E+01
 0.2321572703624E+01
 0.2419664086602E+01
 0.2524901893125E+01
 0.2637766598450E+01
 0.1463000027756E+01
 0.1489091597625E+01
 0.1518099794550E+01
 0.1550122854169E+01
 0.1585282603231E+01
 0.1623719950754E+01
 0.1665591199290E+01
 0.1711065062773E+01
 0.1760320188284E+01
 0.1813542965217E+01
 0.1870925460590E+01
 0.1932663421101E+01
 0.1998954452090E+01
 0.2069996739047E+01
 0.2145989090576E+01
 0.2227133463499E+01
 0.2313641816828E+01
 0.2405743945936E+01
 0.2503691844368E+01
 0.2607762714082E+01
 0.1470815111369E+01
 0.1496970420338E+01
 0.1525925161612E+01
 0.1557748814641E+01
 0.1592533459691E+01
 0.1630386600080E+01
 0.1671425396553E+01
 0.1715772148110E+01
 0.1763550603762E+01
 0.1814882719693E+01
 0.1869885553234E+01
 0.1928668082764E+01
 0.1991327834090E+01
 0.2057947293645E+01
 0.2128590164635E+01
 0.2203297798102E+01
 0.2282086084406E+01
 0.2364946447280E+01
 0.2451855841747E+01
 0.2542809758066E+01
 0.1475988522504E+01
 0.1501802983410E+01
 0.1530235903841E+01
 0.1561320160397E+01
 0.1595111326528E+01
 0.1631675894953E+01
 0.1671082809309E+01
 0.1713397316412E+01
 0.1758676220961E+01
 0.1806963801250E+01
 0.1858287843515E+01
 0.1912655342533E+01
 0.1970047375492E+01
 0.2030412441322E+01
 0.2093657193006E+01
 0.2159632801791E+01
 0.2228115610929E+01
 0.2298784081389E+01
 0.2371217031249E+01
 0.2444927148261E+01
 0.1478566264751E+01
 0.1503649558686E+01
 0.1531106195383E+01
 0.1560927917863E+01
 0.1593129677070E+01
 0.1627731146061E+01
 0.1664745102338E+01
 0.1704169948962E+01
 0.1745984332903E+01
 0.1790142652740E+01
 0.1836570691220E+01
 0.1885160717383E+01
 0.1935765243284E+01
 0.1988188134686E+01
 0.2042170709397E+01
 0.2097368909366E+01
 0.2153313993062E+01
 0.2209345155441E+01
 0.2264497400055E+01
 0.2317462392896E+01
 0.1478614694299E+01
 0.1502593328694E+01
 0.1528634943428E+01
 0.1556690389975E+01
 0.1586733014061E+01
 0.1618731139750E+01
 0.1652633929922E+01
 0.1688363384107E+01
 0.1725809002727E+01
 0.1764823546898E+01
 0.1805219028793E+01
 0.1846762318878E+01
 0.1889169589581E+01
 0.1932098259010E+01
 0.1975134021226E+01
 0.2017767552727E+01
 0.2059350934358E+01
 0.2099002580898E+01
 0.2135372750014E+01
 0.2166011676948E+01
 0.1476212347351E+01
 0.1498721626069E+01
 0.1522911646975E+01
 0.1548700769261E+01
 0.1576021959638E+01
 0.1604788034376E+01
 0.1634876917724E+01
 0.1666124323037E+01
 0.1698319410912E+01
 0.1731201584384E+01
 0.1764457912506E+01
 0.1797720906853E+01
 0.1830566548363E+01
 0.1862512469296E+01
 0.1893015801615E+01
 0.1921470183234E+01
 0.1947195175308E+01
 0.1969415361082E+01
 0.1987165856316E+01
 0.1998638220919E+01
 0.1471437439168E+01
 0.1492073363446E+01
 0.1513918317372E+01
 0.1536871922528E+01
 0.1560828892176E+01
 0.1585642461075E+01
 0.1611111515610E+01
 0.1636976024502E+01
 0.1662914606083E+01
 0.1688543544229E+01
 0.1713417052096E+01
 0.1737029435392E+01
 0.1758820249323E+01
 0.1778184907424E+01
 0.1794495814079E+01
 0.1807142014875E+01
 0.1815611511675E+01
 0.1819636759615E+01
 0.1819638617050E+01
 0.1818170671075E+01
 0.1464359286649E+01
 0.1482618913655E+01
 0.1501499029678E+01
 0.1520896655783E+01
 0.1540674412500E+01
 0.1560623437697E+01
 0.1580458838333E+01
 0.1599818955227E+01
 0.1618266513304E+01
 0.1635290868496E+01
 0.1650312786103E+01
 0.1662692161730E+01
 0.1671741553368E+01
 0.1676750793461E+01
 0.1677032777239E+01
 0.1672013569006E+01
 0.1661400972626E+01
 0.1645571099062E+01
 0.1626166633627E+01
 0.1608727469205E+01
 0.1455050433238E+01
 0.1470349747125E+01
 0.1485533196327E+01
 0.1500537037659E+01
 0.1515202324909E+01
 0.1529263285790E+01
 0.1542352484429E+01
 0.1554007365198E+01
 0.1563674443482E+01
 0.1570717328580E+01
 0.1574424909343E+01
 0.1574022322120E+01
 0.1568686348040E+01
 0.1557571443221E+01
 0.1539858019337E+01
 0.1514840594751E+01
 0.1482111603251E+01
 0.1441844107330E+01
 0.1395611308370E+01
 0.1344077110183E+01
 0.1443609652324E+01
 0.1455272822565E+01
 0.1465925202047E+01
 0.1475600355252E+01
 0.1484143794593E+01
 0.1491244685793E+01
 0.1496463722416E+01
 0.1499238936360E+01
 0.1498903293394E+01
 0.1494694983932E+01
 0.1485768913899E+01
 0.1471201853234E+01
 0.1449996483626E+01
 0.1421086114021E+01
 0.1383341123281E+01
 0.1335582454158E+01
 0.1276574612944E+01
 0.1205062017702E+01
 0.1119263698728E+01
 0.1018839133246E+01
 0.1430164529025E+01
 0.1437438493078E+01
 0.1442640628161E+01
 0.1446007979799E+01
 0.1447418072777E+01
 0.1446551185163E+01
 0.1442893230549E+01
 0.1435787157361E+01
 0.1424446249020E+01
 0.1407985723319E+01
 0.1385422690088E+01
 0.1355667919160E+01
 0.1317505305939E+01
 0.1269555206321E+01
 0.1210208484017E+01
 0.1137490883239E+01
 0.1048808951660E+01
 0.9402933674183E+00
 0.8059610695034E+00
 0.6361322694497E+00
 0.1414889254420E+01
 0.1416910039777E+01
 0.1415674274807E+01
 0.1411719429381E+01
 0.1405076977809E+01
 0.1395390097917E+01
 0.1382093064210E+01
 0.1364388390929E+01
 0.1341383184166E+01
 0.1312081860337E+01
 0.1275377427367E+01
 0.1230020817487E+01
 0.1174573755312E+01
 0.1107330393313E+01
 0.1026178095686E+01
 0.9283489181369E+00
 0.8099112658476E+00
 0.6649126663244E+00
 0.4832311108596E+00
 0.2454592426332E+00
 0.1397977651865E+01
 0.1393806496769E+01
 0.1384947127247E+01
 0.1372762867979E+01
 0.1357284337367E+01
 0.1338318441217E+01
 0.1314986473504E+01
 0.1286409590914E+01
 0.1251623028797E+01
 0.1209585617838E+01
 0.1159143316739E+01
 0.1098995659459E+01
 0.1027646944593E+01
 0.9433308610141E+00
 0.8438882569882E+00
 0.7265502527552E+00
 0.5876070415222E+00
 0.4216822207924E+00
 0.2209501926594E+00
-0.2938670344286E-01
 0.1380181363510E+01
 0.1368510211128E+01
 0.1351112145306E+01
 0.1329594367785E+01
 0.1305512858149E+01
 0.1277336337130E+01
 0.1244187228576E+01
 0.1205125813184E+01
 0.1159233643414E+01
 0.1105533168030E+01
 0.1042972837100E+01
 0.9704107791758E+00
 0.8866013532793E+00
 0.7901779233714E+00
 0.6796290993720E+00
 0.5532916146752E+00
 0.4093588833865E+00
 0.2462589054004E+00
 0.6287844631186E-01
-0.1338525959054E+00
 0.1362648056857E+01
 0.1342976050699E+01
 0.1312172054478E+01
 0.1283546884682E+01
 0.1251228586937E+01
 0.1214418218980E+01
 0.1172084608921E+01
 0.1123465528516E+01
 0.1067781229590E+01
 0.1004243563950E+01
 0.9320515854098E+00
 0.8504113990607E+00
 0.7585660735815E+00
 0.6558437369883E+00
 0.5417462531535E+00
 0.4161176652732E+00
 0.2795743835362E+00
 0.1342830221928E+00
-0.1290421309511E-01
-0.1487684575541E+00
 0.1360399282578E+01
 0.1302829603924E+01
 0.1271042220922E+01
 0.1235270800770E+01
 0.1195674623536E+01
 0.1150909913151E+01
 0.1100438651930E+01
 0.1043672182504E+01
 0.9800586064227E+00
 0.9090683530912E+00
 0.8302287956625E+00
 0.7431654724676E+00
 0.6476626547301E+00
 0.5437557915006E+00
 0.4318832487347E+00
 0.3131676081055E+00
 0.1898932967680E+00
 0.6663127351295E-01
-0.4853729088606E-01
-0.1383270556529E+00
</DataArray>
<DataArray type="Float64" Name="S_Oct" NumberOfComponents="1" ComponentName0="S_Oct" format="ascii">
 0.5455445272534E+00
 0.5580992086388E+00
 0.5549853150742E+00
 0.5621124817075E+00
 0.5630416068020E+00
 0.5602541163617E+00
 0.5536405263427E+00
 0.5437646209734E+00
 0.5309928336655E+00
 0.5156430386734E+00
 0.4979495545219E+00
 0.4780783225243E+00
 0.4561314253073E+00
 0.4321535381757E+00
 0.4061370844457E+00
 0.3780269824725E+00
 0.3477248672261E+00
 0.3150945831061E+00
 0.2799636822509E+00
 0.2421286904074E+00
 0.2013550983317E+00
 0.1573743170716E+00
 0.1098688111457E+00
 0.5842147544335E-01
 0.2496534031510E-02
 0.5828951027502E-01
 0.1238260026955E+00
 0.1935664573695E+00
 0.2666785675306E+00
 0.3421911609865E+00
 0.4190369462248E+00
 0.4959809487398E+00
 0.5714410750954E+00
 0.6439452532849E+00
 0.7133943869154E+00
 0.7805003046665E+00
 0.8492290365631E+00
 0.9160918962467E+00
 0.1036044864242E+01
 0.1015730591632E+01
 0.1825077394329E+01
 0.4724539538285E+00
 0.5233867377119E+00
 0.5183813184626E+00
 0.5183187410548E+00
 0.5176077217181E+00
 0.5136181669280E+00
 0.5066620917403E+00
 0.4968197592185E+00
 0.4843522502311E+00
 0.4694781706452E+00
 0.4523809977801E+00
 0.4331943602928E+00
 0.4120027580509E+00
 0.3888428895717E+00
 0.3637065322471E+00
 0.3365438248340E+00
 0.3072667146937E+00
 0.2757530407719E+00
 0.2418495683886E+00
 0.2053749871289E+00
 0.1661220732441E+00
 0.1238546448726E+00
 0.7829793312351E-01
 0.2915287743318E-01
 0.2383771316244E-01
 0.8068242871887E-01
 0.1411801208498E+00
 0.2048258070027E+00
 0.2708887095257E+00
 0.3384595972492E+00
 0.4064570760190E+00
 0.4736185032235E+00
 0.5385876182921E+00
 0.6001444261398E+00
 0.6572419872801E+00
 0.7093879553495E+00
 0.7541226516673E+00
 0.7941552422181E+00
 0.8035696365360E+00
 0.6820650895047E+00
 0.1129186309764E+01
 0.4181036547865E+00
 0.4734964815166E+00
 0.4792626655412E+00
 0.4760039522332E+00
 0.4732555855873E+00
 0.4683015408493E+00
 0.4608720530683E+00
 0.4509778679033E+00
 0.4387230607359E+00
 0.4242545826489E+00
 0.4077033989424E+00
 0.3891721290596E+00
 0.3687268054124E+00
 0.3463952168584E+00
 0.3221673748363E+00
 0.2959974686184E+00
 0.2678063708912E+00
 0.2374853364293E+00
 0.2048990070265E+00
 0.1698886993227E+00
 0.1322759310489E+00
 0.9186327901324E-01
 0.4844470036292E-01
 0.2249768448937E-02
 0.4803605058430E-01
 0.1009274358475E+00
 0.1565770644586E+00
 0.2144913224876E+00
 0.2739969762292E+00
 0.3342305213287E+00
 0.3941307046648E+00
 0.4524768445618E+00
 0.5079985286815E+00
 0.5593349033274E+00
 0.6048679792856E+00
 0.6421604149146E+00
 0.6674702323249E+00
 0.6739785533608E+00
 0.6167476832046E+00
 0.5364334604288E+00
 0.9513577702157E+00
 0.3715344001814E+00
 0.4231681891331E+00
 0.4361768440508E+00
 0.4339864733140E+00
 0.4297837745365E+00
 0.4239985215818E+00
 0.4161286129647E+00
 0.4061309721524E+00
 0.3940343115834E+00
 0.3799202381570E+00
 0.3638773437576E+00
 0.3459793012145E+00
 0.3262746960162E+00
 0.3047822573148E+00
 0.2814896620553E+00
 0.2563542738296E+00
 0.2293049587037E+00
 0.2002455080946E+00
 0.1690577721708E+00
 0.1356058916203E+00
 0.9974228660920E-01
 0.6131795561288E-01
 0.2025456717639E-01
 0.2390275332801E-01
 0.7042078020351E-01
 0.1193955561265E+00
 0.1703987823867E+00
 0.2229360142554E+00
 0.2763696158890E+00
 0.3298780915425E+00
 0.3824439545934E+00
 0.4328982924573E+00
 0.4799649704735E+00
 0.5221138665034E+00
 0.5571726813222E+00
 0.5817723085080E+00
 0.5908978538988E+00
 0.5715756657253E+00
 0.5046992451463E+00
 0.5034305424741E+00
 0.8965299093775E+00
 0.3289458328532E+00
 0.3748552236529E+00
 0.3914819085063E+00
 0.3914932800809E+00
 0.3869187302450E+00
 0.3805109983537E+00
 0.3722830444829E+00
 0.3621810698408E+00
 0.3502137012747E+00
 0.3364216992744E+00
 0.3208606840844E+00
 0.3035805562371E+00
 0.2846144278122E+00
 0.2639726746119E+00
 0.2416405428396E+00
 0.2175780646079E+00
 0.1917214129347E+00
 0.1639862441177E+00
 0.1342713558885E+00
 0.1024647763877E+00
 0.6845604347996E-01
 0.3218615363518E-01
 0.7550424542123E-02
 0.4800965800417E-01
 0.9127163569234E-01
 0.1364106239802E+00
 0.1829833379497E+00
 0.2304954380516E+00
 0.2783378112526E+00
 0.3257338765811E+00
 0.3717228861030E+00
 0.4151845206620E+00
 0.4548275161101E+00
 0.4889869777160E+00
 0.5152040196377E+00
 0.5298649118673E+00
 0.5272923124850E+00
 0.4980858817296E+00
 0.4529164121055E+00
 0.5214646424312E+00
 0.8814469749184E+00
 0.2886966408673E+00
 0.3287412867800E+00
 0.3466205052980E+00
 0.3486485423302E+00
 0.3444048105724E+00
 0.3376917953481E+00
 0.3292104290462E+00
 0.3190363431928E+00
 0.3071923628686E+00
 0.2937054661327E+00
 0.2786101807371E+00
 0.2619388103830E+00
 0.2437120493694E+00
 0.2239332429219E+00
 0.2025855950355E+00
 0.1796316877011E+00
 0.1550147137757E+00
 0.1286621655387E+00
 0.1004910789325E+00
 0.7042003576672E-01
 0.3841653977355E-01
 0.6027333568205E-02
 0.3268999070345E-01
 0.7082651934936E-01
 0.1108393265012E+00
 0.1522574022425E+00
 0.1946293370190E+00
 0.2374682734709E+00
 0.2801955800327E+00
 0.3220857518516E+00
 0.3622434828732E+00
 0.3996052674185E+00
 0.4328939501220E+00
 0.4604145149906E+00
 0.4797389754770E+00
 0.4875029090298E+00
 0.4792934978478E+00
 0.4539180376602E+00
 0.4421092778649E+00
 0.5587187358299E+00
 0.8826293392111E+00
 0.2499710168247E+00
 0.2845670608191E+00
 0.3022924310537E+00
 0.3057741257616E+00
 0.3021569516775E+00
 0.2954227047240E+00
 0.2868131332449E+00
 0.2766157264335E+00
 0.2649065626927E+00
 0.2517202191692E+00
 0.2370831576781E+00
 0.2210168620624E+00
 0.2035333143913E+00
 0.1846307169345E+00
 0.1642911374870E+00
 0.1424802124371E+00
 0.1191489167372E+00
 0.9423905922462E-01
 0.6769556203332E-01
 0.3951896754212E-01
 0.1064406636195E-01
 0.2378154012922E-01
 0.5716632656690E-01
 0.9253164046565E-01
 0.1293493429506E+00
 0.1671872729288E+00
 0.2055996819908E+00
 0.2441174749624E+00
 0.2821994339231E+00
 0.3191792708636E+00
 0.3542375761671E+00
 0.3863875603808E+00
 0.4144197769788E+00
 0.4367480152115E+00
 0.4512476944205E+00
 0.4553749804505E+00
 0.4474984425130E+00
 0.4346643746286E+00
 0.4567576206397E+00
 0.6017605005668E+00
 0.8920044767537E+00
 0.2123215407301E+00
 0.2420271473623E+00
 0.2588006422750E+00
 0.2631526405279E+00
 0.2601981995652E+00
 0.2536330834825E+00
 0.2450164281528E+00
 0.2348525843232E+00
 0.2233002010622E+00
 0.2104193065708E+00
 0.1962400129084E+00
 0.1807800207900E+00
 0.1640467136960E+00
 0.1460356572697E+00
 0.1267296062582E+00
 0.1060994907141E+00
 0.8410909587438E-01
 0.6073107385308E-01
 0.3601982199825E-01
 0.1121993607106E-01
 0.2058175977268E-01
 0.4961062488106E-01
 0.8071418240823E-01
 0.1132984965383E+00
 0.1470045653997E+00
 0.1814222998700E+00
 0.2161247539726E+00
 0.2506718825370E+00
 0.2845692998830E+00
 0.3172198714381E+00
 0.3478939364011E+00
 0.3757097027156E+00
 0.3995917343139E+00
 0.4181975237844E+00
 0.4299459795800E+00
 0.4335985025897E+00
 0.4308287952283E+00
 0.4347785379367E+00
 0.4860425776513E+00
 0.6455237058451E+00
 0.9063055439207E+00
 0.1754836900657E+00
 0.2008577546004E+00
 0.2162528261756E+00
 0.2209852070840E+00
 0.2185963468012E+00
 0.2122973375787E+00
 0.2037708963461E+00
 0.1936972513382E+00
 0.1823290023212E+00
 0.1697650684860E+00
 0.1560491079261E+00
 0.1412018840661E+00
 0.1252309021324E+00
 0.1081330102937E+00
 0.8989663999465E-01
 0.7050860455518E-01
 0.4997928392154E-01
 0.2848515419913E-01
 0.8987875290128E-02
 0.2223931986943E-01
 0.4753073812233E-01
 0.7477383972496E-01
 0.1034452395008E+00
 0.1332883429418E+00
 0.1639872137407E+00
 0.1951582747442E+00
 0.2264051568872E+00
 0.2573281465335E+00
 0.2874902206972E+00
 0.3163748229119E+00
 0.3433587255090E+00
 0.3676979025390E+00
 0.3885173229605E+00
 0.4048343532424E+00
 0.4158001456233E+00
 0.4217291597711E+00
 0.4273112135792E+00
 0.4490642089611E+00
 0.5231543541063E+00
 0.6883311633761E+00
 0.9240250928830E+00
 0.1392914969802E+00
 0.1608504388010E+00
 0.1746680563739E+00
 0.1794071036061E+00
 0.1774339548642E+00
 0.1714275077691E+00
 0.1630576546741E+00
 0.1531241836528E+00
 0.1419695342461E+00
 0.1297395881650E+00
 0.1164998921481E+00
 0.1022816018033E+00
 0.8709978703825E-01
 0.7096371006487E-01
 0.5389358146636E-01
 0.3598467517990E-01
 0.1788823357795E-01
 0.1027966471606E-01
 0.2814727439566E-01
 0.5034351033620E-01
 0.7414790977664E-01
 0.9924932883420E-01
 0.1254835597741E+00
 0.1526493976265E+00
 0.1804604438367E+00
 0.2085671588678E+00
 0.2366141720003E+00
 0.2642528545906E+00
 0.2911143921212E+00
 0.3167751211936E+00
 0.3407363972169E+00
 0.3624248426033E+00
 0.3812239346388E+00
 0.3965993695159E+00
 0.4085426775957E+00
 0.4189093079176E+00
 0.4346531282544E+00
 0.4732215621244E+00
 0.5641183506352E+00
 0.7298043607097E+00
 0.9443757186345E+00
 0.1036367002964E+00
 0.1218523086564E+00
 0.1340396337587E+00
 0.1385222908469E+00
 0.1368099958315E+00
 0.1310795137866E+00
 0.1229057919366E+00
 0.1131553807355E+00
 0.1022481577296E+00
 0.9038158089422E-01
 0.7765315212042E-01
 0.6412001108384E-01
 0.4983669981615E-01
 0.3492038293284E-01
 0.1988535230973E-01
 0.9756345911636E-02
 0.2027186313530E-01
 0.3801721442334E-01
 0.5754902036528E-01
 0.7832111157592E-01
 0.1002059634488E+00
 0.1231200877060E+00
 0.1469487759317E+00
 0.1715169660042E+00
 0.1965697380475E+00
 0.2217991524860E+00
 0.2469000139398E+00
 0.2715847398257E+00
 0.2955633487246E+00
 0.3185175365472E+00
 0.3400911683773E+00
 0.3599107917966E+00
 0.3776629558150E+00
 0.3933146027998E+00
 0.4077126856274E+00
 0.4240377215273E+00
 0.4505951865970E+00
 0.5039763654339E+00
 0.6067266009186E+00
 0.7700307345928E+00
 0.9668936036802E+00
 0.6845168270122E-01
 0.8378134772931E-01
 0.9439963174513E-01
 0.9846953186947E-01
 0.9689282884628E-01
 0.9141195541107E-01
 0.8346916942259E-01
 0.7396046273655E-01
 0.6337592775525E-01
 0.5198426875038E-01
 0.3997299825234E-01
 0.2760801121850E-01
 0.1585696308172E-01
 0.1106337553931E-01
 0.2086652117483E-01
 0.3544556824764E-01
 0.5155996632236E-01
 0.6872290205178E-01
 0.8682792469194E-01
 0.1058441883834E+00
 0.1257454429538E+00
 0.1464800822669E+00
 0.1679530375048E+00
 0.1900138674943E+00
 0.2124441814422E+00
 0.2349845369274E+00
 0.2573879468189E+00
 0.2794368990015E+00
 0.3009302362539E+00
 0.3216668511445E+00
 0.3414491949469E+00
 0.3601266700234E+00
 0.3777164868712E+00
 0.3947001323481E+00
 0.4127100026817E+00
 0.4359146167952E+00
 0.4731128425760E+00
 0.5389780910629E+00
 0.6497982428437E+00
 0.8092382590676E+00
 0.9912718893930E+00
 0.3373493333584E-01
 0.4675804899549E-01
 0.5602637627113E-01
 0.5966946283422E-01
 0.5820347584150E-01
 0.5303974778903E-01
 0.4551112138420E-01
 0.3658940066045E-01
 0.2702789175835E-01
 0.1791649582626E-01
 0.1280226850282E-01
 0.1742044785985E-01
 0.2794659123128E-01
 0.4047838139046E-01
 0.5404631091325E-01
 0.6839895097964E-01
 0.8346662210309E-01
 0.9923837797818E-01
 0.1157222496543E+00
 0.1329251944824E+00
 0.1508378578732E+00
 0.1694218688312E+00
 0.1886002478700E+00
 0.2082509982873E+00
 0.2281976624362E+00
 0.2482353625585E+00
 0.2681822842854E+00
 0.2878989807517E+00
 0.3072821319486E+00
 0.3262583017427E+00
 0.3448014107012E+00
 0.3629984541512E+00
 0.3812061953123E+00
 0.4003957614621E+00
 0.4228517894362E+00
 0.4533528319679E+00
 0.5005078786811E+00
 0.5766035105713E+00
 0.6927292748041E+00
 0.8476720824996E+00
 0.1017285209449E+01
 0.3963771520453E-02
 0.1362595226246E-01
 0.2168619463497E-01
 0.2518340967263E-01
 0.2454682908444E-01
 0.2137023211032E-01
 0.1802887301961E-01
 0.1774735399143E-01
 0.2235010453729E-01
 0.3044135052813E-01
 0.4037908070105E-01
 0.5136920148464E-01
 0.6307167132720E-01
 0.7533890181659E-01
 0.8811114338180E-01
 0.1013732796292E+00
 0.1151342861350E+00
 0.1294147376275E+00
 0.1442376246219E+00
 0.1596192436074E+00
 0.1755595236796E+00
 0.1920335509619E+00
 0.2089859672969E+00
 0.2263279712332E+00
 0.2439300229756E+00
 0.2616470273583E+00
 0.2793682914054E+00
 0.2970393270415E+00
 0.3146623944168E+00
 0.3323002223011E+00
 0.3501069176099E+00
 0.3684126313365E+00
 0.3879041153000E+00
 0.4099854902042E+00
 0.4374246470525E+00
 0.4752536377213E+00
 0.5314210870254E+00
 0.6157579190122E+00
 0.7352328113263E+00
 0.8855515628418E+00
 0.1044753402672E+01
 0.3534197929885E-01
 0.2970919559276E-01
 0.2737580367915E-01
 0.2792061364218E-01
 0.3035641881801E-01
 0.3453160631691E-01
 0.4051369969531E-01
 0.4809610926577E-01
 0.5690416951455E-01
 0.6658864652910E-01
 0.7689645059626E-01
 0.8766567152612E-01
 0.9880213824743E-01
 0.1102585951550E+00
 0.1220198707668E+00
 0.1340926258259E+00
 0.1464977755752E+00
 0.1592636801522E+00
 0.1724199014665E+00
 0.1859902780746E+00
 0.1999855914650E+00
 0.2143978293038E+00
 0.2291975979932E+00
 0.2443338095384E+00
 0.2597281773459E+00
 0.2752997773134E+00
 0.2910140057857E+00
 0.3069070666984E+00
 0.3230930387223E+00
 0.3397768701962E+00
 0.3572968400630E+00
 0.3762225442859E+00
 0.3975448941938E+00
 0.4230223351971E+00
 0.4557275417935E+00
 0.5006488998820E+00
 0.5647991103426E+00
 0.6557131567377E+00
 0.7771915963428E+00
 0.9230585756737E+00
 0.1073523231875E+01
 0.6912384481738E-01
 0.6453614832219E-01
 0.6198228325760E-01
 0.6221152362276E-01
 0.6510039135104E-01
 0.7021592792219E-01
 0.7706651896188E-01
 0.8518678156337E-01
 0.9418739950121E-01
 0.1037762982456E+00
 0.1137524162809E+00
 0.1239872723001E+00
 0.1344061457122E+00
 0.1449731607115E+00
 0.1556804019512E+00
 0.1665399373358E+00
 0.1775775646442E+00
 0.1888269809451E+00
 0.2003244788877E+00
 0.2121033024707E+00
 0.2241881490702E+00
 0.2365917298866E+00
 0.2493147122004E+00
 0.2623476704298E+00
 0.2756672010869E+00
 0.2892601399530E+00
 0.3031719847234E+00
 0.3175341598411E+00
 0.3325771308050E+00
 0.3486514102953E+00
 0.3662785617175E+00
 0.3862554062086E+00
 0.4098386246059E+00
 0.4390510681589E+00
 0.4771028341478E+00
 0.5287157656440E+00
 0.5998429403172E+00
 0.6959888889931E+00
 0.8185737020097E+00
 0.9603362536481E+00
 0.1103458614878E+01
 0.1027161335654E+00
 0.9969029385458E-01
 0.9814132024612E-01
 0.9895966141591E-01
 0.1022403046099E+00
 0.1076363145172E+00
 0.1146479262695E+00
 0.1227884912206E+00
 0.1316584820578E+00
 0.1409625795796E+00
 0.1504983887014E+00
 0.1601364944810E+00
 0.1698017276370E+00
 0.1794585833829E+00
 0.1891005669160E+00
 0.1987423717930E+00
 0.2084138196939E+00
 0.2181544302524E+00
 0.2280087658008E+00
 0.2380218930405E+00
 0.2482355319895E+00
 0.2586866304377E+00
 0.2694094748007E+00
 0.2804395956735E+00
 0.2918114016656E+00
 0.3035823089818E+00
 0.3158809943292E+00
 0.3289374033914E+00
 0.3431012014270E+00
 0.3588690281638E+00
 0.3769402390627E+00
 0.3983196355390E+00
 0.4244832386474E+00
 0.4576269645172E+00
 0.5009551635414E+00
 0.5587726985522E+00
 0.6359549350808E+00
 0.7362713192480E+00
 0.8593840245987E+00
 0.9974873992388E+00
 0.1134433729535E+01
 0.1360909070234E+00
 0.1346206025452E+00
 0.1342391925369E+00
 0.1358218530841E+00
 0.1395575867909E+00
 0.1451911933601E+00
 0.1522773071023E+00
 0.1603536739797E+00
 0.1690275421384E+00
 0.1780014550548E+00
 0.1870675704949E+00
 0.1960909779142E+00
 0.2049925162502E+00
 0.2137347277052E+00
 0.2223112814751E+00
 0.2307391262460E+00
 0.2390524973686E+00
 0.2472978192967E+00
 0.2555296600047E+00
 0.2638072406222E+00
 0.2721920987168E+00
 0.2807484411148E+00
 0.2895471258070E+00
 0.2986712768263E+00
 0.3082153694362E+00
 0.3183094844587E+00
 0.3291676456447E+00
 0.3411203982349E+00
 0.3546376662687E+00
 0.3703601189079E+00
 0.3891554299394E+00
 0.4122120671895E+00
 0.4411755087575E+00
 0.4783296020432E+00
 0.5267598211792E+00
 0.5902656166895E+00
 0.6726912464452E+00
 0.7763609052625E+00
 0.8996405794588E+00
 0.1034563465982E+01
 0.1166323945718E+01
 0.1692579134270E+00
 0.1692666175696E+00
 0.1700669860302E+00
 0.1724718505811E+00
 0.1767122489295E+00
 0.1826057990984E+00
 0.1897672884492E+00
 0.1977701083241E+00
 0.2062363102570E+00
 0.2148703066725E+00
 0.2234602168615E+00
 0.2318657793218E+00
 0.2400035601191E+00
 0.2478338902445E+00
 0.2553505869290E+00
 0.2625731869557E+00
 0.2695410808790E+00
 0.2763087864605E+00
 0.2829425274211E+00
 0.2895177565309E+00
 0.2961182172735E+00
 0.3028378699713E+00
 0.3097864957161E+00
 0.3170968209333E+00
 0.3249250022019E+00
 0.3334751665028E+00
 0.3430479761487E+00
 0.3540754705630E+00
 0.3671472251266E+00
 0.3830434743926E+00
 0.4027876347009E+00
 0.4277246053937E+00
 0.4596199897036E+00
 0.5007716900226E+00
 0.5540634396187E+00
 0.6227496453336E+00
 0.7097248741663E+00
 0.8161299776305E+00
 0.9393917930519E+00
 0.1071530950625E+01
 0.1198958086951E+01
 0.2022319788165E+00
 0.2036336675779E+00
 0.2055922598821E+00
 0.2088412593013E+00
 0.2136240941995E+00
 0.2198112889980E+00
 0.2270712156128E+00
 0.2350139671724E+00
 0.2432798194542E+00
 0.2515782484425E+00
 0.2596955455645E+00
 0.2674874063750E+00
 0.2748668623587E+00
 0.2817925217364E+00
 0.2882588213469E+00
 0.2942884948921E+00
 0.2999269352007E+00
 0.3052379019899E+00
 0.3103007502396E+00
 0.3152089364035E+00
 0.3200703726621E+00
 0.3250107483721E+00
 0.3301805475322E+00
 0.3357635173959E+00
 0.3419785084494E+00
 0.3491044096903E+00
 0.3575289820386E+00
 0.3677855435456E+00
 0.3805812126253E+00
 0.3968293837326E+00
 0.4176945625564E+00
 0.4446499657862E+00
 0.4795357076022E+00
 0.5246034111866E+00
 0.5824803441989E+00
 0.6558690776964E+00
 0.7468195840741E+00
 0.8554935243431E+00
 0.9787019990280E+00
 0.1108448532781E+01
 0.1231743726149E+01
 0.2350276196062E+00
 0.2377378548348E+00
 0.2408174902876E+00
 0.2449148719800E+00
 0.2502667303201E+00
 0.2567791975706E+00
 0.2641646504672E+00
 0.2720670809599E+00
 0.2801459114638E+00
 0.2881178649317E+00
 0.2957695342710E+00
 0.3029542090198E+00
 0.3095825482021E+00
 0.3156122968182E+00
 0.3210392486351E+00
 0.3258900919975E+00
 0.3302171016468E+00
 0.3340943435599E+00
 0.3376155747501E+00
 0.3408936995575E+00
 0.3440623166709E+00
 0.3472802787990E+00
 0.3507399445337E+00
 0.3546768463450E+00
 0.3593728364761E+00
 0.3651814736447E+00
 0.3725770727305E+00
 0.3821927253750E+00
 0.3948493691316E+00
 0.4115853307976E+00
 0.4336901078977E+00
 0.4627376790162E+00
 0.5006026102156E+00
 0.5494444836363E+00
 0.6116024941404E+00
 0.6892489078284E+00
 0.7836863040718E+00
 0.8943257955617E+00
 0.1017403684475E+01
 0.1145616365718E+01
 0.1264157554092E+01
 0.2676604550186E+00
 0.2716032445927E+00
 0.2757653085288E+00
 0.2807087005842E+00
 0.2866506184872E+00
 0.2935184212083E+00
 0.3010586279767E+00
 0.3089447313074E+00
 0.3168547393252E+00
 0.3245139221104E+00
 0.3317109704465E+00
 0.3382984076112E+00
 0.3441858271341E+00
 0.3493311340791E+00
 0.3537323357239E+00
 0.3574208793888E+00
 0.3604567627080E+00
 0.3629252915648E+00
 0.3649356684506E+00
 0.3666213663676E+00
 0.3681427802931E+00
 0.3696928914907E+00
 0.3715066047469E+00
 0.3738714914614E+00
 0.3771321908675E+00
 0.3817162670107E+00
 0.3881833537858E+00
 0.3972639595450E+00
 0.4098881467773E+00
 0.4272101120945E+00
 0.4506282786145E+00
 0.4817922373419E+00
 0.5225780879698E+00
 0.5750209675070E+00
 0.6411597222853E+00
 0.7226681196738E+00
 0.8202135996732E+00
 0.9325686352076E+00
 0.1055776982023E+01
 0.1182154885365E+01
 0.1301633725211E+01
 0.3001457926375E+00
 0.3052579835618E+00
 0.3104690186785E+00
 0.3162563200095E+00
 0.3228086745804E+00
 0.3300628913485E+00
 0.3377903971766E+00
 0.3456891878804E+00
 0.3534543846057E+00
 0.3608203846980E+00
 0.3675793732555E+00
 0.3735846011962E+00
 0.3787458970055E+00
 0.3830223870985E+00
 0.3864151715615E+00
 0.3889612358931E+00
 0.3907290520731E+00
 0.3918159370408E+00
 0.3923473442439E+00
 0.3924781275080E+00
 0.3923962237891E+00
 0.3923293149290E+00
 0.3925551310637E+00
 0.3934131667568E+00
 0.3953102934112E+00
 0.3987470759019E+00
 0.4043668487389E+00
 0.4129947549916E+00
 0.4256649341849E+00
 0.4436384493973E+00
 0.4684077992687E+00
 0.5016767010683E+00
 0.5452973516426E+00
 0.6011600201693E+00
 0.6710030646129E+00
 0.7560446802984E+00
 0.8564006351295E+00
 0.9703762400939E+00
 0.1093757603624E+01
 0.1219415339396E+01
 0.1339312914052E+01
 0.3324977986512E+00
 0.3387255547840E+00
 0.3449559729578E+00
 0.3515844418996E+00
 0.3587652048469E+00
 0.3664350163514E+00
 0.3743819501795E+00
 0.3823234529590E+00
 0.3899697809370E+00
 0.3970645239883E+00
 0.4034044193468E+00
 0.4088447867290E+00
 0.4132969588263E+00
 0.4167223630070E+00
 0.4191260851012E+00
 0.4205514026970E+00
 0.4210759293216E+00
 0.4208096096976E+00
 0.4198947245721E+00
 0.4185080196899E+00
 0.4168653583207E+00
 0.4152292928751E+00
 0.4139202364691E+00
 0.4133290640564E+00
 0.4139238923166E+00
 0.4162768210246E+00
 0.4211127480437E+00
 0.4293481210400E+00
 0.4421156896807E+00
 0.4607744850565E+00
 0.4868976138254E+00
 0.5222251525201E+00
 0.5685669943609E+00
 0.6276578330285E+00
 0.7009460527238E+00
 0.7892374099336E+00
 0.8921852351090E+00
 0.1007714491550E+01
 0.1131509384413E+01
 0.1257066954250E+01
 0.1377161929945E+01
 0.3647300740781E+00
 0.3720284825805E+00
 0.3792532517660E+00
 0.3867208051062E+00
 0.3945465723817E+00
 0.4026596196240E+00
 0.4108574468899E+00
 0.4188721136494E+00
 0.4264267838248E+00
 0.4332739409254E+00
 0.4392156457898E+00
 0.4441104681073E+00
 0.4478724514655E+00
 0.4504663873705E+00
 0.4519022245063E+00
 0.4522302391450E+00
 0.4515377547137E+00
 0.4499477988773E+00
 0.4476198278576E+00
 0.4447526992336E+00
 0.4415902443076E+00
 0.4384296799699E+00
 0.4356335692170E+00
 0.4336432321355E+00
 0.4329866521328E+00
 0.4343055924593E+00
 0.4384039490791E+00
 0.4462857524557E+00
 0.4591767372978E+00
 0.4785254987469E+00
 0.5059741100861E+00
 0.5432852065161E+00
 0.5922144103346E+00
 0.6543383412054E+00
 0.7308321410286E+00
 0.8221348851977E+00
 0.9275098231402E+00
 0.1044588006510E+01
 0.1169054112037E+01
 0.1294870531421E+01
 0.1415242321053E+01
 0.3968557249506E+00
 0.4051882363550E+00
 0.4133871860941E+00
 0.4216932240534E+00
 0.4301800150665E+00
 0.4387628070612E+00
 0.4472423011494E+00
 0.4553606860560E+00
 0.4628517312691E+00
 0.4694762767995E+00
 0.4750422523840E+00
 0.4794125106649E+00
 0.4825049369948E+00
 0.4842887123821E+00
 0.4847794889937E+00
 0.4840351847613E+00
 0.4821532918236E+00
 0.4792702100259E+00
 0.4755626938529E+00
 0.4712516519436E+00
 0.4666086006775E+00
 0.4619648632524E+00
 0.4577242570949E+00
 0.4543772522725E+00
 0.4525099685026E+00
 0.4528316117652E+00
 0.4562221727565E+00
 0.4637692986849E+00
 0.4767861544183E+00
 0.4968032915113E+00
 0.5255222148294E+00
 0.5647182567930E+00
 0.6160865769245E+00
 0.6810495415124E+00
 0.7605303208531E+00
 0.8546451467255E+00
 0.9623298746481E+00
 0.1080994850028E+01
 0.1206357715137E+01
 0.1332710129636E+01
 0.1453567419575E+01
 0.4288874130411E+00
 0.4382252623386E+00
 0.4473831717895E+00
 0.4565291255885E+00
 0.4656930030534E+00
 0.4747713079122E+00
 0.4835626198993E+00
 0.4918151935263E+00
 0.4992711473545E+00
 0.5056990059991E+00
 0.5109129480226E+00
 0.5147810162803E+00
 0.5172259916807E+00
 0.5182224205217E+00
 0.5177924487123E+00
 0.5160022034732E+00
 0.5129596874107E+00
 0.5088147937324E+00
 0.5037614766616E+00
 0.4980423651213E+00
 0.4919560698472E+00
 0.4858671320421E+00
 0.4802193916554E+00
 0.4755508440194E+00
 0.4725037009440E+00
 0.4718520952874E+00
 0.4745489555555E+00
 0.4817614668332E+00
 0.4948849259462E+00
 0.5155252441356E+00
 0.5454360568376E+00
 0.5863992938589E+00
 0.6400484363551E+00
 0.7076603424940E+00
 0.7899300150780E+00
 0.8866917833961E+00
 0.9966082946883E+00
 0.1116920924810E+01
 0.1243382282765E+01
 0.1370521899263E+01
 0.1492122056309E+01
 0.4608373983051E+00
 0.4711590585808E+00
 0.4812656278356E+00
 0.4912553282249E+00
 0.5011128808024E+00
 0.5107120750820E+00
 0.5198448432399E+00
 0.5282618841330E+00
 0.5357115369580E+00
 0.5419692884930E+00
 0.5468558386214E+00
 0.5502452302650E+00
 0.5520661235510E+00
 0.5522993518057E+00
 0.5509742861442E+00
 0.5481657474927E+00
 0.5439924688201E+00
 0.5386177895286E+00
 0.5322525488021E+00
 0.5251605057337E+00
 0.5176664827385E+00
 0.5101670405561E+00
 0.5031444967282E+00
 0.4971824453453E+00
 0.4929768677250E+00
 0.4913640629632E+00
 0.4933665627662E+00
 0.5002270088170E+00
 0.5134179293799E+00
 0.5346151398692E+00
 0.5656193506940E+00
 0.6082164582550E+00
 0.6639812681836E+00
 0.7340575833456E+00
 0.8189372167044E+00
 0.9182103190426E+00
 0.1030311186352E+01
 0.1152346575251E+01
 0.1280095430005E+01
 0.1408265020167E+01
 0.1530879116455E+01
 0.4927175747269E+00
 0.5040082639048E+00
 0.5150580265880E+00
 0.5258979537329E+00
 0.5364666731476E+00
 0.5466120432074E+00
 0.5561155127071E+00
 0.5647270422197E+00
 0.5721992470229E+00
 0.5783138713468E+00
 0.5828983549726E+00
 0.5858334845132E+00
 0.5870547253934E+00
 0.5865500667505E+00
 0.5843567736130E+00
 0.5805587572400E+00
 0.5752855765440E+00
 0.5687138028770E+00
 0.5610706351840E+00
 0.5526401238156E+00
 0.5437721429713E+00
 0.5348937823745E+00
 0.5265240002116E+00
 0.5192897859896E+00
 0.5139383215468E+00
 0.5113651115815E+00
 0.5126588433151E+00
 0.5191336179681E+00
 0.5323347874913E+00
 0.5540038136788E+00
 0.5859855925601E+00
 0.6300704786529E+00
 0.6877811272172E+00
 0.7601434659216E+00
 0.8474714302442E+00
 0.9491451472616E+00
 0.1063406709294E+01
 0.1187250597910E+01
 0.1316470494236E+01
 0.1445909095897E+01
 0.1569805764100E+01
 0.5245395010733E+00
 0.5367907420854E+00
 0.5487829477088E+00
 0.5604823962144E+00
 0.5717809670419E+00
 0.5824979574337E+00
 0.5924010887451E+00
 0.6012368226617E+00
 0.6087603273465E+00
 0.6147589730128E+00
 0.6190671527363E+00
 0.6215731064623E+00
 0.6222199897469E+00
 0.6210037687113E+00
 0.6179702079590E+00
 0.6132126161829E+00
 0.6068713491177E+00
 0.5991358313846E+00
 0.5902488925404E+00
 0.5805137968380E+00
 0.5703040468370E+00
 0.5600754948392E+00
 0.5503816291882E+00
 0.5418903763228E+00
 0.5353973307428E+00
 0.5318540797787E+00
 0.5324119566983E+00
 0.5384526707367E+00
 0.5515905338504E+00
 0.5736295876989E+00
 0.6064580473937E+00
 0.6518739746779E+00
 0.7113573101085E+00
 0.7858332827378E+00
 0.8754630514049E+00
 0.9794472771094E+00
 0.1095864685597E+01
 0.1221611807195E+01
 0.1352484771705E+01
 0.1483428327425E+01
 0.1608866993091E+01
 0.5563144295430E+00
 0.5695236662073E+00
 0.5824621537912E+00
 0.5950333410333E+00
 0.6070818630793E+00
 0.6183962769489E+00
 0.6287278357824E+00
 0.6378171406027E+00
 0.6454204357861E+00
 0.6513302048856E+00
 0.6553880466307E+00
 0.6574903621382E+00
 0.6575888594275E+00
 0.6556882636521E+00
 0.6518433842349E+00
 0.6461571454989E+00
 0.6387805475616E+00
 0.6299153290265E+00
 0.6198190239929E+00
 0.6088128050205E+00
 0.5972921288391E+00
 0.5857395826168E+00
 0.5747408168396E+00
 0.5650019995087E+00
 0.5573641536122E+00
 0.5528316934719E+00
 0.5526150643175E+00
 0.5581599139116E+00
 0.5711462065164E+00
 0.5934386311174E+00
 0.6269696925554E+00
 0.6735508073458E+00
 0.7346310360174E+00
 0.8110535562209E+00
 0.9028513392332E+00
 0.1009072829791E+01
 0.1127656407292E+01
 0.1255409488025E+01
 0.1388117954145E+01
 0.1520799057047E+01
 0.1648027836514E+01
 0.5880533317827E+00
 0.6022235957303E+00
 0.6161166682950E+00
 0.6295748018976E+00
 0.6423949565293E+00
 0.6543331093078E+00
 0.6651217302458E+00
 0.6744935718046E+00
 0.6822047418509E+00
 0.6880524816891E+00
 0.6918859271361E+00
 0.6936103780182E+00
 0.6931869548082E+00
 0.6906298953377E+00
 0.6860035435584E+00
 0.6794205712739E+00
 0.6710423501203E+00
 0.6610822376613E+00
 0.6498113570930E+00
 0.6375672655419E+00
 0.6247654609100E+00
 0.6119129891874E+00
 0.5996250510150E+00
 0.5886431382933E+00
 0.5798505390716E+00
 0.5743011273038E+00
 0.5732609241654E+00
 0.5782360414066E+00
 0.5909693213393E+00
 0.6133852045511E+00
 0.6474630819167E+00
 0.6950354327445E+00
 0.7575342586796E+00
 0.8357404497478E+00
 0.9295827775245E+00
 0.1037981888557E+01
 0.1158754321139E+01
 0.1288623269957E+01
 0.1423350976821E+01
 0.1557998800834E+01
 0.1687254729329E+01
 0.6197669249949E+00
 0.6349065498554E+00
 0.6497668569487E+00
 0.6641301739505E+00
 0.6777453447044E+00
 0.6903341744110E+00
 0.7016083945328E+00
 0.7112912712660E+00
 0.7191378403316E+00
 0.7249499353459E+00
 0.7285846765152E+00
 0.7299570601058E+00
 0.7290384975069E+00
 0.7258534766506E+00
 0.7204763167170E+00
 0.7130294865634E+00
 0.7036843401990E+00
 0.6926650091820E+00
 0.6802549090293E+00
 0.6668062496319E+00
 0.6527524295797E+00
 0.6386224408943E+00
 0.6250581896128E+00
 0.6128333624405E+00
 0.6028701811223E+00
 0.5962685121752E+00
 0.5943464233338E+00
 0.5986672021715E+00
 0.6110342766679E+00
 0.6334318526958E+00
 0.6678902036114E+00
 0.7162723307319E+00
 0.7800086624282E+00
 0.8598384720373E+00
 0.9556097914563E+00
 0.1066137608288E+01
 0.1189131668166E+01
 0.1321232845647E+01
 0.1458165325972E+01
 0.1595006014194E+01
 0.1726516474749E+01
 0.6514656983470E+00
 0.6675880798587E+00
 0.6834325140886E+00
 0.6987223025032E+00
 0.7131576595850E+00
 0.7264247983583E+00
 0.7382130599803E+00
 0.7482349164780E+00
 0.7562436843569E+00
 0.7620458441052E+00
 0.7655070976977E+00
 0.7665530250911E+00
 0.7651662463954E+00
 0.7613822337835E+00
 0.7552856809350E+00
 0.7470088262152E+00
 0.7367325057194E+00
 0.7246906366867E+00
 0.7111774574138E+00
 0.6965579008923E+00
 0.6812809093283E+00
 0.6658946816917E+00
 0.6510647609415E+00
 0.6375936953076E+00
 0.6264391465236E+00
 0.6187434101200E+00
 0.6158730729676E+00
 0.6194454692434E+00
 0.6313227268434E+00
 0.6535495903558E+00
 0.6882123805771E+00
 0.7372155521984E+00
 0.8020048674660E+00
 0.8832994701948E+00
 0.9808897743786E+00
 0.1093505538025E+01
 0.1218762157914E+01
 0.1353217731231E+01
 0.1492542726456E+01
 0.1631800251956E+01
 0.1765784999658E+01
 0.6831599404602E+00
 0.7002833372555E+00
 0.7171329459993E+00
 0.7333735534203E+00
 0.7486561060666E+00
 0.7626299130955E+00
 0.7749605314143E+00
 0.7853486451215E+00
 0.7935455049490E+00
 0.7993625410749E+00
 0.8026748170854E+00
 0.8034195015419E+00
 0.8015914008757E+00
 0.7972377154823E+00
 0.7904538794930E+00
 0.7813818019884E+00
 0.7702111956307E+00
 0.7571846389975E+00
 0.7426055599871E+00
 0.7268494976347E+00
 0.7103783748204E+00
 0.6937566416680E+00
 0.6776701930245E+00
 0.6629469049754E+00
 0.6505762231991E+00
 0.6417392069668E+00
 0.6378474199684E+00
 0.6405692289866E+00
 0.6518238884568E+00
 0.6737180489165E+00
 0.7084001784423E+00
 0.7578283370047E+00
 0.8234817721467E+00
 0.9060818042003E+00
 0.1005384283040E+01
 0.1120053018193E+01
 0.1247619602083E+01
 0.1384557004185E+01
 0.1526464965952E+01
 0.1668362384156E+01
 0.1805035870719E+01
 0.7148597696541E+00
 0.7330071446631E+00
 0.7508870610804E+00
 0.7681058973248E+00
 0.7842645206286E+00
 0.7989740801478E+00
 0.8118751759169E+00
 0.8226560146204E+00
 0.8310657492468E+00
 0.8369213387758E+00
 0.8401082019206E+00
 0.8405762453548E+00
 0.8383335188415E+00
 0.8334397175475E+00
 0.8260013568095E+00
 0.8161698525785E+00
 0.8041430897836E+00
 0.7901710559360E+00
 0.7745645814747E+00
 0.7577075179576E+00
 0.7400720109525E+00
 0.7222355983182E+00
 0.7049010308572E+00
 0.6889177792127E+00
 0.6753032494937E+00
 0.6652734847011E+00
 0.6602814405083E+00
 0.6620435602835E+00
 0.6725348550555E+00
 0.6939256647683E+00
 0.7284334055082E+00
 0.7780828853564E+00
 0.8444061067569E+00
 0.9281497654318E+00
 0.1029058460138E+01
 0.1145748736882E+01
 0.1275677641157E+01
 0.1415229154871E+01
 0.1559913907379E+01
 0.1704674925493E+01
 0.1844248798339E+01
 0.7465751667747E+00
 0.7657740670053E+00
 0.7847134614137E+00
 0.8029409982053E+00
 0.8200064367956E+00
 0.8354815210207E+00
 0.8489809152006E+00
 0.8601799602294E+00
 0.8688260116212E+00
 0.8747424415687E+00
 0.8778262617129E+00
 0.8780414366412E+00
 0.8754104142373E+00
 0.8700061853586E+00
 0.8619466697431E+00
 0.8513925674786E+00
 0.8385491394715E+00
 0.8236724102657E+00
 0.8070786823674E+00
 0.7891576614789E+00
 0.7703887740896E+00
 0.7513592837602E+00
 0.7327850950575E+00
 0.7155333384996E+00
 0.7006453799437E+00
 0.6893683313847E+00
 0.6831928761328E+00
 0.6838805677996E+00
 0.6934608873746E+00
 0.7141698777604E+00
 0.7483011697452E+00
 0.7979602380854E+00
 0.8647521379439E+00
 0.9494731584984E+00
 0.1051880589904E+01
 0.1170562354221E+01
 0.1302909482505E+01
 0.1445211946995E+01
 0.1592871525817E+01
 0.1740722327593E+01
 0.1883408035614E+01
 0.7783160123862E+00
 0.7985984864986E+00
 0.8186305401731E+00
 0.8379003110588E+00
 0.8559051620341E+00
 0.8721761591692E+00
 0.8863012272207E+00
 0.8979427584370E+00
 0.9068469658506E+00
 0.9128448555689E+00
 0.9158465447136E+00
 0.9158315702628E+00
 0.9128380474921E+00
 0.9069531085849E+00
 0.8983063899985E+00
 0.8870676001194E+00
 0.8734484945019E+00
 0.8577096524573E+00
 0.8401707859722E+00
 0.8212248441814E+00
 0.8013554210246E+00
 0.7811559545337E+00
 0.7613515988133E+00
 0.7428230046006E+00
 0.7266313061837E+00
 0.7140506091243E+00
 0.7066055356269E+00
 0.7060996958177E+00
 0.7146157089781E+00
 0.7344573720326E+00
 0.7680020253610E+00
 0.8174502951108E+00
 0.8845015462237E+00
 0.9700270613501E+00
 0.1073821800175E+01
 0.1194464217003E+01
 0.1329287681371E+01
 0.1474482307903E+01
 0.1625319971916E+01
 0.1776491254706E+01
 0.1922502763441E+01
 0.8100921287347E+00
 0.8314946836751E+00
 0.8526565877066E+00
 0.8730051913966E+00
 0.8919838685387E+00
 0.9090816757009E+00
 0.9238591592645E+00
 0.9359659984152E+00
 0.9451483019071E+00
 0.9512463005809E+00
 0.9541850349683E+00
 0.9539613464619E+00
 0.9506304160359E+00
 0.9442944158765E+00
 0.9350950058354E+00
 0.9232105787270E+00
 0.9088584253186E+00
 0.8923020967460E+00
 0.8738625320278E+00
 0.8539331743930E+00
 0.8329985133393E+00
 0.8116544313254E+00
 0.7906312302374E+00
 0.7708187318452E+00
 0.7532934406529E+00
 0.7393521888782E+00
 0.7305495732014E+00
 0.7287280353577E+00
 0.7360218220648E+00
 0.7548043751740E+00
 0.7875442244360E+00
 0.8365519847783E+00
 0.9036434841223E+00
 0.9897917657150E+00
 0.1094855911084E+01
 0.1217425166967E+01
 0.1354783970182E+01
 0.1503016246600E+01
 0.1657241651293E+01
 0.1811970858453E+01
 0.1961527478975E+01
 0.8419133275493E+00
 0.8644769242149E+00
 0.8868099047131E+00
 0.9082770127677E+00
 0.9282656912499E+00
 0.9462215692321E+00
 0.9616773402693E+00
 0.9742705470498E+00
 0.9837486511157E+00
 0.9899631063807E+00
 0.9928560310375E+00
 0.9924435415137E+00
 0.9887994236715E+00
 0.9820418471414E+00
 0.9723247995143E+00
 0.9598349901787E+00
 0.9447942143562E+00
 0.9274673216424E+00
 0.9081741891370E+00
 0.8873058813703E+00
 0.8653443680155E+00
 0.8428840790464E+00
 0.8206561704376E+00
 0.7995550717230E+00
 0.7806680345951E+00
 0.7653101251645E+00
 0.7550617182363E+00
 0.7518006022884E+00
 0.7577108233328E+00
 0.7752369969035E+00
 0.8069460547325E+00
 0.8552735631756E+00
 0.9221747897254E+00
 0.1008752866575E+01
 0.1114959393053E+01
 0.1239416400035E+01
 0.1379369085698E+01
 0.1530788736172E+01
 0.1688619248565E+01
 0.1847152983430E+01
 0.2000482343381E+01
 0.8737894649713E+00
 0.8975595556199E+00
 0.9211089283322E+00
 0.9437372992724E+00
 0.9647738407173E+00
 0.9836192280181E+00
 0.9997780012559E+00
 0.1012876517668E+01
 0.1022665511494E+01
 0.1029010107155E+01
 0.1031872022292E+01
 0.1031288876321E+01
 0.1027354748528E+01
 0.1020204824666E+01
 0.1010005722979E+01
 0.9969520603209E+00
 0.9812690407981E+00
 0.9632210595334E+00
 0.9431245508799E+00
 0.9213652213555E+00
 0.8984189789540E+00
 0.8748747515485E+00
 0.8514600711325E+00
 0.8290691942610E+00
 0.8087952537404E+00
 0.7919667944536E+00
 0.7801854813061E+00
 0.7753606124622E+00
 0.7797237473234E+00
 0.7957916360222E+00
 0.8262362938667E+00
 0.8736330752675E+00
 0.9401003889029E+00
 0.1026901534655E+01
 0.1134111468327E+01
 0.1260409410987E+01
 0.1403012628264E+01
 0.1557773595128E+01
 0.1719435736045E+01
 0.1882032361782E+01
 0.2039373555020E+01
 0.9057305047443E+00
 0.9307571149175E+00
 0.9555723719963E+00
 0.9794078726964E+00
 0.1001531728481E+01
 0.1021298009798E+01
 0.1038182997310E+01
 0.1051803234431E+01
 0.1061915164392E+01
 0.1068400524831E+01
 0.1071243553387E+01
 0.1070505873478E+01
 0.1066303699964E+01
 0.1058790313150E+01
 0.1048145261416E+01
 0.1034570619848E+01
 0.1018293847215E+01
 0.9995770631851E+00
 0.9787308027313E+00
 0.9561323475098E+00
 0.9322478950714E+00
 0.9076566859121E+00
 0.8830779760897E+00
 0.8594008499951E+00
 0.8377191953918E+00
 0.8193699814177E+00
 0.8059713216688E+00
 0.7994597404559E+00
 0.8021114252861E+00
 0.8165154450978E+00
 0.8454547710436E+00
 0.8916589713186E+00
 0.9574338814884E+00
 0.1044234966585E+01
 0.1152294346423E+01
 0.1280376006511E+01
 0.1425682927417E+01
 0.1583943334898E+01
 0.1749674332991E+01
 0.1916606766450E+01
 0.2078213718662E+01
 0.9377465911754E+00
 0.9640844499454E+00
 0.9902193820786E+00
 0.1015311016842E+01
 0.1038563106266E+01
 0.1059281329031E+01
 0.1076913829434E+01
 0.1091069190007E+01
 0.1101512580031E+01
 0.1108145839432E+01
 0.1110979075844E+01
 0.1110100702521E+01
 0.1105651064762E+01
 0.1097802669404E+01
 0.1086748285598E+01
 0.1072696956614E+01
 0.1055877188767E+01
 0.1036546949504E+01
 0.1015008359689E+01
 0.9916271430650E+00
 0.9668560536154E+00
 0.9412603441247E+00
 0.9155461832983E+00
 0.8905922685866E+00
 0.8674878423470E+00
 0.8475729083099E+00
 0.8324767719417E+00
 0.8241583586213E+00
 0.8249348576064E+00
 0.8374668527332E+00
 0.8646530392288E+00
 0.9093908863346E+00
 0.9741983246405E+00
 0.1060757028878E+01
 0.1169493607188E+01
 0.1299288392977E+01
 0.1447346911881E+01
 0.1609268967135E+01
 0.1779318410559E+01
 0.1950877122373E+01
 0.2117022214943E+01
 0.9698481336900E+00
 0.9975568574639E+00
 0.1025069715376E+01
 0.1051469662801E+01
 0.1075892221455E+01
 0.1097592752359E+01
 0.1115991665785E+01
 0.1130691995520E+01
 0.1141471311299E+01
 0.1148255646766E+01
 0.1151084788255E+01
 0.1150077016074E+01
 0.1145398946308E+01
 0.1137243486079E+01
 0.1125816897807E+01
 0.1111334659361E+01
 0.1094025069951E+01
 0.1074140025396E+01
 0.1051970679152E+01
 0.1027868021765E+01
 0.1002267572103E+01
 0.9757162046582E+00
 0.9489020492850E+00
 0.9226879942803E+00
 0.8981529527196E+00
 0.8766342057466E+00
 0.8597665180135E+00
 0.8495257549098E+00
 0.8482655992294E+00
 0.8587161446053E+00
 0.8838951625373E+00
 0.9268805938500E+00
 0.9904272329932E+00
 0.1076479120828E+01
 0.1185698754826E+01
 0.1317119353511E+01
 0.1467969988486E+01
 0.1633719771208E+01
 0.1808351345812E+01
 0.1984847583030E+01
 0.2155825580359E+01
 0.1002045905059E+01
 0.1031190241547E+01
 0.1060143941502E+01
 0.1087907598586E+01
 0.1113543990420E+01
 0.1136256101564E+01
 0.1155437359778E+01
 0.1170688319422E+01
 0.1181803372633E+01
 0.1188737501206E+01
 0.1191564464102E+01
 0.1190435777035E+01
 0.1185546597793E+01
 0.1177111431055E+01
 0.1165350273239E+01
 0.1150484454803E+01
 0.1132740770697E+01
 0.1112363097224E+01
 0.1089629050148E+01
 0.1064871696114E+01
 0.1038505498612E+01
 0.1011054502626E+01
 0.9831837329072E+00
 0.9557346539572E+00
 0.9297698797833E+00
 0.9066178176449E+00
 0.8879124261668E+00
 0.8756403214526E+00
 0.8721861508906E+00
 0.8803460980210E+00
 0.9032586178860E+00
 0.9441931414132E+00
 0.1006165814228E+01
 0.1091421283429E+01
 0.1200903968801E+01
 0.1333842528566E+01
 0.1487515930071E+01
 0.1657263015737E+01
 0.1836756321704E+01
 0.2018525571417E+01
 0.2194657894505E+01
 0.1034351155586E+01
 0.1065001295227E+01
 0.1095463673094E+01
 0.1124649704248E+01
 0.1151544187586E+01
 0.1175295558247E+01
 0.1195271456181E+01
 0.1211073804650E+01
 0.1222519092835E+01
 0.1229596732713E+01
 0.1232419256939E+01
 0.1231175067050E+01
 0.1226090239849E+01
 0.1217402072709E+01
 0.1205344486598E+01
 0.1190144027047E+01
 0.1172024649912E+01
 0.1151220251013E+01
 0.1127992344956E+01
 0.1102652898303E+01
 0.1075591503929E+01
 0.1047304900404E+01
 0.1018429858610E+01
 0.9897806356327E+00
 0.9623972975005E+00
 0.9375928140991E+00
 0.9169934901084E+00
 0.9025896867138E+00
 0.8967903304647E+00
 0.9024526474740E+00
 0.9228352946042E+00
 0.9614081628848E+00
 0.1021472451156E+01
 0.1105613578695E+01
 0.1215109076383E+01
 0.1349432809258E+01
 0.1505946759965E+01
 0.1679863609853E+01
 0.1864516048817E+01
 0.2051921758644E+01
 0.2233561136997E+01
 0.1066775747008E+01
 0.1099007712640E+01
 0.1131051833485E+01
 0.1161722222602E+01
 0.1189919659218E+01
 0.1214735777644E+01
 0.1235514192101E+01
 0.1251862971986E+01
 0.1263626952260E+01
 0.1270836251902E+01
 0.1273647500277E+01
 0.1272289896863E+01
 0.1267022885975E+01
 0.1258107716635E+01
 0.1245792351276E+01
 0.1230307848232E+01
 0.1211873956595E+01
 0.1190712634529E+01
 0.1167066765100E+01
 0.1141224086292E+01
 0.1113545548148E+01
 0.1084496120856E+01
 0.1054679130092E+01
 0.1024875706314E+01
 0.9960968578855E+00
 0.9696331351752E+00
 0.9470957178623E+00
 0.9304708088774E+00
 0.9221836409389E+00
 0.9251455981122E+00
 0.9427326125141E+00
 0.9786213981955E+00
 0.1036420478695E+01
 0.1119097805782E+01
 0.1228320818256E+01
 0.1363866900719E+01
 0.1523222669057E+01
 0.1701483714923E+01
 0.1891612457811E+01
 0.2085050039158E+01
 0.2272585580545E+01
 0.1099332308879E+01
 0.1133228435047E+01
 0.1166932964196E+01
 0.1199153064341E+01
 0.1228698554930E+01
 0.1254601998459E+01
 0.1276185474884E+01
 0.1293069088950E+01
 0.1305133382804E+01
 0.1312456321707E+01
 0.1315244481037E+01
 0.1313771997364E+01
 0.1308334153985E+01
 0.1299217230995E+01
 0.1286683246836E+01
 0.1270966994413E+01
 0.1252282620738E+01
 0.1230838211601E+01
 0.1206855550139E+01
 0.1180595101512E+01
 0.1152385486045E+01
 0.1122655505068E+01
 0.1091969853452E+01
 0.1061070525011E+01
 0.1030932732350E+01
 0.1002817214175E+01
 0.9783119042647E+00
 0.9593899750978E+00
 0.9484835808854E+00
 0.9485493369830E+00
 0.9630747164316E+00
 0.9959463942503E+00
 0.1051100254789E+01
 0.1131929579473E+01
 0.1240554441264E+01
 0.1377124066853E+01
 0.1539301934817E+01
 0.1722082259834E+01
 0.1918026310770E+01
 0.2117927452352E+01
 0.2311790116461E+01
 0.1132034423099E+01
 0.1167683939330E+01
 0.1203133582557E+01
 0.1236972156113E+01
 0.1267910581335E+01
 0.1294920148789E+01
 0.1317304834616E+01
 0.1334704002156E+01
 0.1347042530996E+01
 0.1354454299267E+01
 0.1357202193493E+01
 0.1355609600968E+01
 0.1350010075067E+01
 0.1340715873382E+01
 0.1328002948525E+01
 0.1312108961002E+01
 0.1293241038760E+01
 0.1271591503733E+01
 0.1247358664556E+01
 0.1220772793525E+01
 0.1192126626295E+01
 0.1161808508858E+01
 0.1130339382480E+01
 0.1098416060888E+01
 0.1066971043276E+01
 0.1037227482077E+01
 0.1010741286206E+01
 0.9894627002697E+00
 0.9758198897213E+00
 0.9728035357069E+00
 0.9840037462543E+00
 0.1013516400423E+01
 0.1065621566715E+01
 0.1144180847647E+01
 0.1251835713587E+01
 0.1389187131841E+01
 0.1554140868434E+01
 0.1741614357458E+01
 0.1943736759241E+01
 0.2150574098052E+01
 0.2351242541742E+01
 0.1164896841921E+01
 0.1202396579266E+01
 0.1239682601523E+01
 0.1275211841477E+01
 0.1307587282661E+01
 0.1335716948051E+01
 0.1358891348994E+01
 0.1376777932205E+01
 0.1389355987017E+01
 0.1396824355571E+01
 0.1399509085624E+01
 0.1397787228716E+01
 0.1392032918345E+01
 0.1382585138810E+01
 0.1369733479672E+01
 0.1353717499521E+01
 0.1334735875918E+01
 0.1312963342060E+01
 0.1288572486187E+01
 0.1261760635296E+01
 0.1232781267997E+01
 0.1201978160619E+01
 0.1169823506695E+01
 0.1136962933838E+01
 0.1104279198141E+01
 0.1072949759066E+01
 0.1044489079398E+01
 0.1020813517648E+01
 0.1004334715808E+01
 0.9980638314739E+00
 0.1005681172773E+01
 0.1031486461564E+01
 0.1080116406150E+01
 0.1155942925766E+01
 0.1262203471449E+01
 0.1400043829067E+01
 0.1567693812772E+01
 0.1760030595923E+01
 0.1968720868020E+01
 0.2183013123595E+01
 0.2391019802951E+01
 0.1197935746494E+01
 0.1237390987188E+01
 0.1276611817326E+01
 0.1313907332537E+01
 0.1347762334526E+01
 0.1377019980093E+01
 0.1400963508532E+01
 0.1419299196263E+01
 0.1432072444939E+01
 0.1439557139164E+01
 0.1442149764686E+01
 0.1440285449273E+01
 0.1434380995409E+01
 0.1424802590827E+01
 0.1411852946016E+01
 0.1395772431609E+01
 0.1376749838535E+01
 0.1354940579381E+01
 0.1330489442990E+01
 0.1303558272953E+01
 0.1274358155443E+01
 0.1243184418348E+01
 0.1210455716408E+01
 0.1176760607333E+01
 0.1142925050615E+01
 0.1110072451295E+01
 0.1079665808569E+01
 0.1053575568688E+01
 0.1034182614112E+01
 0.1024502397788E+01
 0.1028289121604E+01
 0.1050035652665E+01
 0.1094742099843E+01
 0.1167330099331E+01
 0.1271712801135E+01
 0.1409688587210E+01
 0.1579913176695E+01
 0.1777276078656E+01
 0.1992953010759E+01
 0.2215270769100E+01
 0.2431208035194E+01
 0.1231169056557E+01
 0.1272694556165E+01
 0.1313956489867E+01
 0.1353097235092E+01
 0.1388471867736E+01
 0.1418857749976E+01
 0.1443539035671E+01
 0.1462273878460E+01
 0.1475187323932E+01
 0.1482639423747E+01
 0.1485104710633E+01
 0.1483080665549E+01
 0.1477028506151E+01
 0.1467341741747E+01
 0.1454335422170E+01
 0.1438249514491E+01
 0.1419261494167E+01
 0.1397505844289E+01
 0.1373097683919E+01
 0.1346161099404E+01
 0.1316861943640E+01
 0.1285443520548E+01
 0.1252266440137E+01
 0.1217856527238E+01
 0.1182975977618E+01
 0.1148685633659E+01
 0.1116386500440E+01
 0.1087890048365E+01
 0.1065530417430E+01
 0.1052308439782E+01
 0.1052031715341E+01
 0.1069369490161E+01
 0.1109684860549E+01
 0.1178483924651E+01
 0.1280439061809E+01
 0.1418124972593E+01
 0.1590749615854E+01
 0.1793289170040E+01
 0.2016404167434E+01
 0.2247376741489E+01
 0.2471902496085E+01
 0.1264616801149E+01
 0.1308338015140E+01
 0.1351756024366E+01
 0.1392824142426E+01
 0.1429754798641E+01
 0.1461259685214E+01
 0.1486634610302E+01
 0.1505705399385E+01
 0.1518692304114E+01
 0.1526053695824E+01
 0.1528349954312E+01
 0.1526144884510E+01
 0.1519945378497E+01
 0.1510171930678E+01
 0.1497150834530E+01
 0.1481120297686E+01
 0.1462245074945E+01
 0.1440637268157E+01
 0.1416380710308E+01
 0.1389559773941E+01
 0.1360292592527E+01
 0.1328767244697E+01
 0.1295282163342E+01
 0.1260295109771E+01
 0.1224497768142E+01
 0.1188879905068E+01
 0.1154769615162E+01
 0.1123905371159E+01
 0.1098556839653E+01
 0.1081688473324E+01
 0.1077136302940E+01
 0.1089722410940E+01
 0.1125163698706E+01
 0.1189578262620E+01
 0.1288482899764E+01
 0.1425368988165E+01
 0.1600152419050E+01
 0.1807999690212E+01
 0.2039040821523E+01
 0.2279364994587E+01
 0.2513207092935E+01
 0.1298301567757E+01
 0.1344356123228E+01
 0.1390054781878E+01
 0.1433135314101E+01
 0.1471653165818E+01
 0.1504256069624E+01
 0.1530265488595E+01
 0.1549593978859E+01
 0.1562574781943E+01
 0.1569777697202E+01
 0.1571856742263E+01
 0.1569445496238E+01
 0.1563097130457E+01
 0.1553258229162E+01
 0.1540264871585E+01
 0.1524352003130E+01
 0.1505670297644E+01
 0.1484308220026E+01
 0.1460317004460E+01
 0.1433739726298E+01
 0.1404644730120E+01
 0.1373162114906E+01
 0.1339524470466E+01
 0.1304116619061E+01
 0.1267553359656E+01
 0.1230745043299E+01
 0.1194935729975E+01
 0.1161776054779E+01
 0.1133451791642E+01
 0.1112866356991E+01
 0.1103854542017E+01
 0.1111360292421E+01
 0.1141434704487E+01
 0.1200825150242E+01
 0.1295976506547E+01
 0.1431453602075E+01
 0.1608070383905E+01
 0.1821326381413E+01
 0.2060823059867E+01
 0.2311275249772E+01
 0.2555233413833E+01
 0.1332249048699E+01
 0.1380788514848E+01
 0.1428903049991E+01
 0.1474083455048E+01
 0.1514212466458E+01
 0.1547877889605E+01
 0.1574444995634E+01
 0.1593935983660E+01
 0.1606817251196E+01
 0.1613783940494E+01
 0.1615591214328E+01
 0.1612945092930E+01
 0.1606444787472E+01
 0.1596561408853E+01
 0.1583638957290E+01
 0.1567907465723E+01
 0.1549502239002E+01
 0.1528487089589E+01
 0.1504879697373E+01
 0.1478680688918E+01
 0.1449907030104E+01
 0.1418628605655E+01
 0.1385009057524E+01
 0.1349355979683E+01
 0.1312201462052E+01
 0.1274368488722E+01
 0.1237005987347E+01
 0.1201661310825E+01
 0.1170415373345E+01
 0.1146083019067E+01
 0.1132463264115E+01
 0.1134582943503E+01
 0.1158795658393E+01
 0.1212481567248E+01
 0.1303091355152E+01
 0.1436434938951E+01
 0.1614453660766E+01
 0.1833173508919E+01
 0.2081700965036E+01
 0.2343155555140E+01
 0.2598098887420E+01
 0.1366488710792E+01
 0.1417680728212E+01
 0.1468358197342E+01
 0.1515727587455E+01
 0.1557481947371E+01
 0.1592156523346E+01
 0.1619183817383E+01
 0.1638723093365E+01
 0.1651396552846E+01
 0.1658039147154E+01
 0.1659514044223E+01
 0.1656601274418E+01
 0.1649944795855E+01
 0.1640037905405E+01
 0.1627230215089E+01
 0.1611745055495E+01
 0.1593701181233E+01
 0.1573137027024E+01
 0.1550036178288E+01
 0.1524356154330E+01
 0.1496061495496E+01
 0.1465160228505E+01
 0.1431744597454E+01
 0.1396041401095E+01
 0.1358494938833E+01
 0.1319833515936E+01
 0.1281100150921E+01
 0.1243723164873E+01
 0.1209656342226E+01
 0.1181595663964E+01
 0.1163264907424E+01
 0.1159726369771E+01
 0.1177590823285E+01
 0.1224857081688E+01
 0.1310047627806E+01
 0.1440400606930E+01
 0.1619257334929E+01
 0.1843426820326E+01
 0.2101607524766E+01
 0.2375065533831E+01
 0.2641922983159E+01
 0.1401054625544E+01
 0.1455085477627E+01
 0.1508486072348E+01
 0.1558134048017E+01
 0.1601514850223E+01
 0.1637123260655E+01
 0.1664489093802E+01
 0.1683941314260E+01
 0.1696283052014E+01
 0.1702503687257E+01
 0.1703580135625E+01
 0.1700366540986E+01
 0.1693549039178E+01
 0.1683639891320E+01
 0.1670991541829E+01
 0.1655818707962E+01
 0.1638222562333E+01
 0.1618215782782E+01
 0.1595747798054E+01
 0.1570732918867E+01
 0.1543082819179E+01
 0.1512742682089E+01
 0.1479731647319E+01
 0.1444193009427E+01
 0.1406479142726E+01
 0.1367217284494E+01
 0.1327334443096E+01
 0.1288124248092E+01
 0.1251390154746E+01
 0.1219676503717E+01
 0.1196587518721E+01
 0.1187164784090E+01
 0.1198215883773E+01
 0.1238322421711E+01
 0.1317125623155E+01
 0.1443480695248E+01
 0.1622447801167E+01
 0.1851950428537E+01
 0.2120445885137E+01
 0.2407078708441E+01
 0.2686819011620E+01
 0.1435986504083E+01
 0.1493064226051E+01
 0.1549362683633E+01
 0.1601377590518E+01
 0.1646368528757E+01
 0.1682808542472E+01
 0.1710363208393E+01
 0.1729569758494E+01
 0.1741439678479E+01
 0.1747130966095E+01
 0.1747738317554E+01
 0.1744188210322E+01
 0.1737204885404E+01
 0.1727315376399E+01
 0.1714871701639E+01
 0.1700077964638E+01
 0.1683016925158E+01
 0.1663675533188E+01
 0.1641969543805E+01
 0.1617770581979E+01
 0.1590937682877E+01
 0.1561352920292E+01
 0.1528961446276E+01
 0.1493821329597E+01
 0.1456190041270E+01
 0.1416588592853E+01
 0.1375818969407E+01
 0.1335025035395E+01
 0.1295836314309E+01
 0.1260610703433E+01
 0.1232783984491E+01
 0.1217312024550E+01
 0.1221122726435E+01
 0.1253318805609E+01
 0.1324679283937E+01
 0.1445861974014E+01
 0.1624012531311E+01
 0.1858587831502E+01
 0.2138070393601E+01
 0.2439277446819E+01
 0.2732870242741E+01
 0.1471331007554E+01
 0.1531689144298E+01
 0.1591076237884E+01
 0.1645542597538E+01
 0.1692104371619E+01
 0.1729240837195E+01
 0.1756802218015E+01
 0.1775579174969E+01
 0.1786820850874E+01
 0.1791866795086E+01
 0.1791931081505E+01
 0.1788008400017E+01
 0.1780855303870E+01
 0.1771008373545E+01
 0.1758815477632E+01
 0.1744468062951E+01
 0.1728029906713E+01
 0.1709462735729E+01
 0.1688649731478E+01
 0.1665421050671E+01
 0.1639584048009E+01
 0.1610958197082E+01
 0.1579414668868E+01
 0.1544925688188E+01
 0.1507652206410E+01
 0.1468005407500E+01
 0.1426654788487E+01
 0.1384580557695E+01
 0.1343214998602E+01
 0.1304693440685E+01
 0.1272230319169E+01
 0.1250622166787E+01
 0.1246823837930E+01
 0.1270367877715E+01
 0.1333152101716E+01
 0.1447805868973E+01
 0.1623974010085E+01
 0.1863168850570E+01
 0.2154271843966E+01
 0.2471732448870E+01
 0.2780040118580E+01
 0.1507143436251E+01
 0.1571045538458E+01
 0.1633729653369E+01
 0.1690724380327E+01
 0.1738787436512E+01
 0.1776445048089E+01
 0.1803793865522E+01
 0.1821930235243E+01
 0.1832371330389E+01
 0.1836648812238E+01
 0.1836094429811E+01
 0.1831764143554E+01
 0.1824439118335E+01
 0.1814659196339E+01
 0.1802763950298E+01
 0.1788930148543E+01
 0.1773202345608E+01
 0.1755518097351E+01
 0.1735729804716E+01
 0.1713628143066E+01
 0.1688970538705E+01
 0.1661515196097E+01
 0.1631060250897E+01
 0.1597492663684E+01
 0.1560876802090E+01
 0.1521512302688E+01
 0.1479930751969E+01
 0.1436936679074E+01
 0.1393742990790E+01
 0.1352226000216E+01
 0.1315322818782E+01
 0.1287589035538E+01
 0.1275896014786E+01
 0.1290081886636E+01
 0.1343095551839E+01
 0.1449671056018E+01
 0.1622407408927E+01
 0.1865526569606E+01
 0.2168758370539E+01
 0.2504586376210E+01
 0.2827613878129E+01
 0.1543491078766E+01
 0.1611240038048E+01
 0.1677452443004E+01
 0.1737043527952E+01
 0.1786502808951E+01
 0.1824461321630E+01
 0.1851339602212E+01
 0.1868599230931E+01
 0.1878055651194E+01
 0.1881439485243E+01
 0.1880194283855E+01
 0.1875427142050E+01
 0.1867934171475E+01
 0.1858251218165E+01
 0.1846705117995E+01
 0.1833456085111E+01
 0.1818529653641E+01
 0.1801840911989E+01
 0.1783214062306E+01
 0.1762403131318E+01
 0.1739118196727E+01
 0.1713058320342E+01
 0.1683950409434E+01
 0.1651597853380E+01
 0.1615969886854E+01
 0.1577254806628E+01
 0.1535843045762E+01
 0.1492353531095E+01
 0.1447759154126E+01
 0.1403640806092E+01
 0.1362599451613E+01
 0.1328859973244E+01
 0.1309081809118E+01
 0.1313248696294E+01
 0.1355233904780E+01
 0.1451958240688E+01
 0.1619457029653E+01
 0.1865506612676E+01
 0.2181314225798E+01
 0.2537434891579E+01
 0.2879601716349E+01
 0.1580452271732E+01
 0.1652394531716E+01
 0.1722386296767E+01
 0.1784621028985E+01
 0.1835319709211E+01
 0.1873299849680E+01
 0.1899402246913E+01
 0.1915520104140E+01
 0.1923795128745E+01
 0.1926158067444E+01
 0.1924153036143E+01
 0.1918924425164E+01
 0.1911271540073E+01
 0.1901718031448E+01
 0.1890573329154E+01
 0.1877979423572E+01
 0.1863943524955E+01
 0.1848360669735E+01
 0.1831030318101E+01
 0.1811673641926E+01
 0.1789956907913E+01
 0.1765523083736E+01
 0.1738030652675E+01
 0.1707202443126E+01
 0.1672915873434E+01
 0.1635250611365E+01
 0.1594455753186E+01
 0.1550958097813E+01
 0.1505473234251E+01
 0.1459252754576E+01
 0.1414502772760E+01
 0.1375022426904E+01
 0.1347114605670E+01
 0.1340710707403E+01
 0.1370409543383E+01
 0.1455310214935E+01
 0.1615371938776E+01
 0.1862908677432E+01
 0.2191763400511E+01
 0.2569565235513E+01
 0.2940699727680E+01
 0.1618123112066E+01
 0.1694652964171E+01
 0.1768691601915E+01
 0.1833580943039E+01
 0.1885290266061E+01
 0.1922937684846E+01
 0.1947902956344E+01
 0.1962582622913E+01
 0.1969467307167E+01
 0.1970680930773E+01
 0.1967850335904E+01
 0.1962139266840E+01
 0.1954336376444E+01
 0.1944944088074E+01
 0.1934249631719E+01
 0.1922375376848E+01
 0.1909311440409E+01
 0.1894935974988E+01
 0.1879028100365E+01
 0.1861280997740E+01
 0.1841321748718E+01
 0.1818741318426E+01
 0.1793133677704E+01
 0.1764145579769E+01
 0.1731568107722E+01
 0.1695378046931E+01
 0.1655686912065E+01
 0.1612727632488E+01
 0.1566946689612E+01
 0.1519238143683E+01
 0.1471358806642E+01
 0.1426586463781E+01
 0.1390710737973E+01
 0.1373375939192E+01
 0.1389623680596E+01
 0.1460595545871E+01
 0.1610586138644E+01
 0.1857668078927E+01
 0.2199544968671E+01
 0.2602279987013E+01
 0.3004689038695E+01
 0.1656622015734E+01
 0.1738196212858E+01
 0.1816567836944E+01
 0.1884074038048E+01
 0.1936476970294E+01
 0.1973352704775E+01
 0.1996763701975E+01
 0.2009683717237E+01
 0.2014965457092E+01
 0.2014908373495E+01
 0.2011196672699E+01
 0.2004991412326E+01
 0.1997054967861E+01
 0.1987859002084E+01
 0.1977663876615E+01
 0.1966571377222E+01
 0.1954556390485E+01
 0.1941484175372E+01
 0.1927118928000E+01
 0.1911131849748E+01
 0.1893116596139E+01
 0.1872617213585E+01
 0.1849167999684E+01
 0.1822345332573E+01
 0.1791861358194E+01
 0.1757598592242E+01
 0.1719538608658E+01
 0.1677723672555E+01
 0.1632325453003E+01
 0.1583859330396E+01
 0.1533585212243E+01
 0.1484167058843E+01
 0.1440716637126E+01
 0.1412322832546E+01
 0.1414100946852E+01
 0.1468938092873E+01
 0.1605754462480E+01
 0.1849733950097E+01
 0.2204390385062E+01
 0.2635304588220E+01
 0.3072369624082E+01
 0.1696096025783E+01
 0.1783247097309E+01
 0.1866252338960E+01
 0.1936265390214E+01
 0.1988930425077E+01
 0.2024496151810E+01
 0.2045878076949E+01
 0.2056697561096E+01
 0.2060167452923E+01
 0.2058731476305E+01
 0.2054097565602E+01
 0.2047398169974E+01
 0.2039352421632E+01
 0.2030391556145E+01
 0.2020744762826E+01
 0.2010492842630E+01
 0.1999598002957E+01
 0.1987917455763E+01
 0.1975206967394E+01
 0.1961123030711E+01
 0.1945232900661E+01
 0.1927039850567E+01
 0.1906024217933E+01
 0.1881698785640E+01
 0.1853705975252E+01
 0.1821845534274E+01
 0.1785980832273E+01
 0.1745972159803E+01
 0.1701717962514E+01
 0.1653343267554E+01
 0.1601574528008E+01
 0.1548378831055E+01
 0.1498025130825E+01
 0.1458751502129E+01
 0.1445289533791E+01
 0.1481781882769E+01
 0.1601832916360E+01
 0.1839205778143E+01
 0.2205859019181E+01
 0.2668199335285E+01
 0.3144480929213E+01
 0.1736729929185E+01
 0.1830082798478E+01
 0.1918027932609E+01
 0.1990331707080E+01
 0.2042679714391E+01
 0.2076282719960E+01
 0.2095104899277E+01
 0.2103472889739E+01
 0.2104935466010E+01
 0.2102032898442E+01
 0.2096454712013E+01
 0.2089275574578E+01
 0.2081153726221E+01
 0.2072470640504E+01
 0.2063420665204E+01
 0.2054063900563E+01
 0.2044353146550E+01
 0.2034143273279E+01
 0.2023189226809E+01
 0.2011141442874E+01
 0.1997549241519E+01
 0.1981882445370E+01
 0.1963573968101E+01
 0.1942080662882E+01
 0.1916986046596E+01
 0.1888021369044E+01
 0.1854947646798E+01
 0.1817457665009E+01
 0.1775186470001E+01
 0.1727868812434E+01
 0.1675676796789E+01
 0.1619814890289E+01
 0.1563554967161E+01
 0.1513973365704E+01
 0.1484877765912E+01
 0.1500954321671E+01
 0.1600199229447E+01
 0.1826397453439E+01
 0.2203337766852E+01
 0.2700460690681E+01
 0.3221848749960E+01
 0.1778759111733E+01
 0.1879051664127E+01
 0.1972231564284E+01
 0.2046455165150E+01
 0.2097718201531E+01
 0.2128577947654E+01
 0.2144261273858E+01
 0.2149830863159E+01
 0.2149116398791E+01
 0.2144688258232E+01
 0.2138167525506E+01
 0.2130539796216E+01
 0.2122384970279E+01
 0.2114026304786E+01
 0.2105620560113E+01
 0.2097208215356E+01
 0.2088736654381E+01
 0.2080064926034E+01
 0.2070955880357E+01
 0.2061064044655E+01
 0.2049930935917E+01
 0.2037001616163E+01
 0.2021668914875E+01
 0.2003342060940E+01
 0.1981557765989E+01
 0.1955995528102E+01
 0.1926333753270E+01
 0.1892117937949E+01
 0.1852738331555E+01
 0.1807553133270E+01
 0.1756179444938E+01
 0.1699019774253E+01
 0.1638220294612E+01
 0.1579388221229E+01
 0.1534799375591E+01
 0.1528733369151E+01
 0.1602801204686E+01
 0.1811966397305E+01
 0.2196109596890E+01
 0.2731452209698E+01
 0.3305453887329E+01
 0.1822488040518E+01
 0.1930596236066E+01
 0.2029263367412E+01
 0.2104811343372E+01
 0.2153982985001E+01
 0.2181182680624E+01
 0.2193115660576E+01
 0.2195564009958E+01
 0.2192543349697E+01
 0.2186568214588E+01
 0.2179135100340E+01
 0.2171108802469E+01
 0.2162974718311E+01
 0.2154990920916E+01
 0.2147275051095E+01
 0.2139849928347E+01
 0.2132662187984E+01
 0.2125582290234E+01
 0.2118390766009E+01
 0.2110757977767E+01
 0.2102229725537E+01
 0.2092236677351E+01
 0.2080139779226E+01
 0.2065309303563E+01
 0.2047248078602E+01
 0.2025602568321E+01
 0.1999991674131E+01
 0.1969839126949E+01
 0.1934317768662E+01
 0.1892437853544E+01
 0.1843285073580E+01
 0.1786456529945E+01
 0.1722888235256E+01
 0.1656443241725E+01
 0.1597220407285E+01
 0.1567908955911E+01
 0.1612339648464E+01
 0.1797142921686E+01
 0.2183428607697E+01
 0.2760320099357E+01
 0.3396494787833E+01
 0.1868317452026E+01
 0.1985285118383E+01
 0.2089594656071E+01
 0.2165547314714E+01
 0.2211325781778E+01
 0.2233814783962E+01
 0.2241381933067E+01
 0.2240436942074E+01
 0.2235038392857E+01
 0.2227541326711E+01
 0.2219258605285E+01
 0.2210904252878E+01
 0.2202855516312E+01
 0.2195300431510E+01
 0.2188317472385E+01
 0.2181914695167E+01
 0.2176043237421E+01
 0.2170592737373E+01
 0.2165372083286E+01
 0.2160080857385E+01
 0.2154283534808E+01
 0.2147408914290E+01
 0.2138795329215E+01
 0.2127782858310E+01
 0.2113853598075E+01
 0.2096640906643E+01
 0.2075729744613E+01
 0.2050451979371E+01
 0.2019798593489E+01
 0.1982475690079E+01
 0.1937088171622E+01
 0.1882468765051E+01
 0.1818323407996E+01
 0.1746567691231E+01
 0.1674495896263E+01
 0.1621824687522E+01
 0.1632486822436E+01
 0.1784080459803E+01
 0.2164658163106E+01
 0.2785881367661E+01
 0.3496463586751E+01
 0.1916785393970E+01
 0.2043857430812E+01
 0.2153771396299E+01
 0.2228743581055E+01
 0.2269472738613E+01
 0.2286089186084E+01
 0.2288716035548E+01
 0.2284189659520E+01
 0.2276416914188E+01
 0.2267477727271E+01
 0.2258444086400E+01
 0.2249853592747E+01
 0.2241965495806E+01
 0.2234895656827E+01
 0.2228685048462E+01
 0.2223330805202E+01
 0.2218794255565E+01
 0.2214992251891E+01
 0.2211773335523E+01
 0.2208881275047E+01
 0.2205916316269E+01
 0.2202320792655E+01
 0.2197421241395E+01
 0.2190536227485E+01
 0.2181139774777E+01
 0.2168872189885E+01
 0.2153311122997E+01
 0.2133729367664E+01
 0.2108978451570E+01
 0.2077518507305E+01
 0.2037552207135E+01
 0.1987239549632E+01
 0.1925120104053E+01
 0.1851077713341E+01
 0.1769079113771E+01
 0.1694377870941E+01
 0.1668123595876E+01
 0.1776369998779E+01
 0.2139551545271E+01
 0.2806481349413E+01
 0.3607254825622E+01
 0.1968631007733E+01
 0.2107285071443E+01
 0.2222405681003E+01
 0.2294349899625E+01
 0.2327971069859E+01
 0.2337499042294E+01
 0.2334717588823E+01
 0.2326544261364E+01
 0.2316493638929E+01
 0.2306253594526E+01
 0.2296605638680E+01
 0.2287892308753E+01
 0.2280250049619E+01
 0.2273723643248E+01
 0.2268320100031E+01
 0.2264030381493E+01
 0.2260831939331E+01
 0.2258676791752E+01
 0.2257464600739E+01
 0.2256999620941E+01
 0.2256938053692E+01
 0.2256755083775E+01
 0.2255778733351E+01
 0.2253314707706E+01
 0.2248840299925E+01
 0.2242021434972E+01
 0.2232454103165E+01
 0.2219385554104E+01
 0.2201575201678E+01
 0.2177307865040E+01
 0.2144488984428E+01
 0.2100750200481E+01
 0.2043625680252E+01
 0.1971048950310E+01
 0.1883361945087E+01
 0.1789939180430E+01
 0.1725559072045E+01
 0.1779763247051E+01
 0.2108816906481E+01
 0.2819828071660E+01
 0.3731327399493E+01
 0.2024896965927E+01
 0.2176859616746E+01
 0.2296139430359E+01
 0.2362079800140E+01
 0.2386122584350E+01
 0.2387403676047E+01
 0.2378939388673E+01
 0.2367215579861E+01
 0.2355090293408E+01
 0.2343756327783E+01
 0.2333668853696E+01
 0.2324966273206E+01
 0.2317663525249E+01
 0.2311739010534E+01
 0.2307171259888E+01
 0.2303950628454E+01
 0.2302076634650E+01
 0.2301543899063E+01
 0.2302314196520E+01
 0.2304269339042E+01
 0.2307145000178E+01
 0.2310473845722E+01
 0.2313602759386E+01
 0.2315833770922E+01
 0.2316656612426E+01
 0.2315778008905E+01
 0.2312833972775E+01
 0.2307077536947E+01
 0.2297225918931E+01
 0.2281469029012E+01
 0.2257542302561E+01
 0.2222742751384E+01
 0.2173861814958E+01
 0.2107162334945E+01
 0.2019426193944E+01
 0.1913127414541E+01
 0.1812662445121E+01
 0.1803122312716E+01
 0.2075218959975E+01
 0.2822852782185E+01
 0.3871957234261E+01
 0.2087100283379E+01
 0.2254311263914E+01
 0.2375547351650E+01
 0.2431242089421E+01
 0.2442910520909E+01
 0.2435033201548E+01
 0.2420907583292E+01
 0.2405925596212E+01
 0.2392044677002E+01
 0.2379890271598E+01
 0.2369574417881E+01
 0.2361034098998E+01
 0.2354170886385E+01
 0.2348905264018E+01
 0.2345194672834E+01
 0.2343035104175E+01
 0.2342453846524E+01
 0.2343494571579E+01
 0.2346190832537E+01
 0.2350518809803E+01
 0.2356320335782E+01
 0.2363217250090E+01
 0.2370599508446E+01
 0.2377776717726E+01
 0.2384257325574E+01
 0.2389797567510E+01
 0.2394086765442E+01
 0.2396408891223E+01
 0.2395488962228E+01
 0.2389509288414E+01
 0.2376178094503E+01
 0.2352690538535E+01
 0.2315452624358E+01
 0.2259539943400E+01
 0.2178702267482E+01
 0.2068344715846E+01
 0.1938767284512E+01
 0.1859537728486E+01
 0.2045642753458E+01
 0.2811770695684E+01
 0.4033660382207E+01
 0.2157529765796E+01
 0.2341962407439E+01
 0.2460910309999E+01
 0.2500483073764E+01
 0.2496941330326E+01
 0.2479524281322E+01
 0.2460153187636E+01
 0.2442420622174E+01
 0.2427220848660E+01
 0.2414582728793E+01
 0.2404281689445E+01
 0.2396069410182E+01
 0.2389749278924E+01
 0.2385196026968E+01
 0.2382355141927E+01
 0.2381234978577E+01
 0.2381895809438E+01
 0.2384435364765E+01
 0.2388966319724E+01
 0.2395574111924E+01
 0.2404235554326E+01
 0.2414702292283E+01
 0.2426442803022E+01
 0.2438791010843E+01
 0.2451277230209E+01
 0.2463705067563E+01
 0.2475815326257E+01
 0.2486936526266E+01
 0.2495849373310E+01
 0.2500820969587E+01
 0.2499682888342E+01
 0.2489781818162E+01
 0.2467568753540E+01
 0.2427597660203E+01
 0.2361574060473E+01
 0.2258973556011E+01
 0.2114058885040E+01
 0.1967408666389E+01
 0.2034740496669E+01
 0.2782864141623E+01
 0.4222979718372E+01
 0.2239791197615E+01
 0.2442892850110E+01
 0.2551715107349E+01
 0.2567423989295E+01
 0.2546454670795E+01
 0.2520001241594E+01
 0.2496250310113E+01
 0.2476490074104E+01
 0.2460520100763E+01
 0.2447789824815E+01
 0.2437772073208E+01
 0.2430062914738E+01
 0.2424389426286E+01
 0.2420596139655E+01
 0.2418627172342E+01
 0.2418510224766E+01
 0.2420343048252E+01
 0.2424280637211E+01
 0.2430518839350E+01
 0.2439262968732E+01
 0.2450653112313E+01
 0.2464621569123E+01
 0.2480768804714E+01
 0.2498482304149E+01
 0.2517315299376E+01
 0.2537098999049E+01
 0.2557598250110E+01
 0.2578180841749E+01
 0.2597727681717E+01
 0.2614688928048E+01
 0.2627171274317E+01
 0.2632921913871E+01
 0.2628896357486E+01
 0.2609937825107E+01
 0.2567031999761E+01
 0.2486239180141E+01
 0.2347895235681E+01
 0.2150972154432E+01
 0.2070782355471E+01
 0.2735455017431E+01
 0.4450164117536E+01
 0.2339870889456E+01
 0.2560991544864E+01
 0.2645581981888E+01
 0.2628251114119E+01
 0.2589507305762E+01
 0.2555696797243E+01
 0.2528850604850E+01
 0.2507987665658E+01
 0.2491891678352E+01
 0.2479501753734E+01
 0.2470052058966E+01
 0.2463024154784E+01
 0.2458096804934E+01
 0.2455102589943E+01
 0.2453995885920E+01
 0.2454830711916E+01
 0.2457745878568E+01
 0.2462954829889E+01
 0.2470736681621E+01
 0.2481420231431E+01
 0.2495331305884E+01
 0.2512642740270E+01
 0.2533168235259E+01
 0.2556404589522E+01
 0.2581930881923E+01
 0.2609557226092E+01
 0.2639002596041E+01
 0.2669640088840E+01
 0.2700492142880E+01
 0.2730301854613E+01
 0.2757601421546E+01
 0.2780757829748E+01
 0.2797646741579E+01
 0.2804282771935E+01
 0.2792498443094E+01
 0.2748073936924E+01
 0.2645324004701E+01
 0.2438836893882E+01
 0.2203653077187E+01
 0.2681016108906E+01
 0.4733387185873E+01
 0.2468381821758E+01
 0.2700372762307E+01
 0.2736034362728E+01
 0.2677601237907E+01
 0.2624467541498E+01
 0.2586041842830E+01
 0.2557714316844E+01
 0.2536856496483E+01
 0.2521340393353E+01
 0.2509747641855E+01
 0.2501155551239E+01
 0.2494982856541E+01
 0.2490892532478E+01
 0.2488725230804E+01
 0.2488457767627E+01
 0.2490177149568E+01
 0.2494065778675E+01
 0.2500394626733E+01
 0.2509522123827E+01
 0.2521895030606E+01
 0.2538032911957E+01
 0.2558410176449E+01
 0.2583174935085E+01
 0.2612043614330E+01
 0.2644636807964E+01
 0.2680645200677E+01
 0.2719601585065E+01
 0.2760809943257E+01
 0.2803474694839E+01
 0.2846765166038E+01
 0.2889797417257E+01
 0.2931720783207E+01
 0.2971632713741E+01
 0.3007457511649E+01
 0.3033781463075E+01
 0.3038842161267E+01
 0.3001850868237E+01
 0.2856305068085E+01
 0.2513277734875E+01
 0.2668247554005E+01
 0.5111191421883E+01
 0.2645844144388E+01
 0.2861968105004E+01
 0.2808276701844E+01
 0.2709980851445E+01
 0.2650676465781E+01
 0.2610596752021E+01
 0.2582791088009E+01
 0.2563138143905E+01
 0.2548934154605E+01
 0.2538599067160E+01
 0.2531145301133E+01
 0.2525989840462E+01
 0.2522813903146E+01
 0.2521487270110E+01
 0.2522021223903E+01
 0.2524541856558E+01
 0.2529276574849E+01
 0.2536550915175E+01
 0.2546794928057E+01
 0.2560558992878E+01
 0.2578539828959E+01
 0.2601552577808E+01
 0.2630249128192E+01
 0.2664788175643E+01
 0.2704887746968E+01
 0.2749928353771E+01
 0.2798999057874E+01
 0.2851209365116E+01
 0.2905992146831E+01
 0.2963112550553E+01
 0.3022471922903E+01
 0.3084090196848E+01
 0.3148385956363E+01
 0.3215590705992E+01
 0.3284774083468E+01
 0.3350520059858E+01
 0.3400372584927E+01
 0.3402966657997E+01
 0.3111345886192E+01
 0.2842959037474E+01
 0.5687179786470E+01
 0.2917180213832E+01
 0.3026928536934E+01
 0.2834803114010E+01
 0.2725515754605E+01
 0.2667590650831E+01
 0.2629269801633E+01
 0.2604259335495E+01
 0.2586969931010E+01
 0.2574813834490E+01
 0.2566169798802E+01
 0.2560114089475E+01
 0.2556117123090E+01
 0.2553914594467E+01
 0.2553425459350E+01
 0.2554706910817E+01
 0.2557929299952E+01
 0.2563365326527E+01
 0.2571390427171E+01
 0.2582495168046E+01
 0.2597313085556E+01
 0.2616675347082E+01
 0.2641706290670E+01
 0.2673753161038E+01
 0.2713877479646E+01
 0.2762062590989E+01
 0.2816992337322E+01
 0.2876862681943E+01
 0.2940413659521E+01
 0.3007373635249E+01
 0.3078319619615E+01
 0.3154223365710E+01
 0.3236096591735E+01
 0.3325287184966E+01
 0.3424502329376E+01
 0.3537649010150E+01
 0.3671676281478E+01
 0.3821698601611E+01
 0.4013769888332E+01
 0.4097635593220E+01
 0.3543946707792E+01
 0.6824725877402E+01
 0.3402103891561E+01
 0.3065918332145E+01
 0.2809544119933E+01
 0.2728248094153E+01
 0.2674052664892E+01
 0.2642898219984E+01
 0.2622351990276E+01
 0.2608644709536E+01
 0.2599178535571E+01
 0.2592619567408E+01
 0.2588183241495E+01
 0.2585457791422E+01
 0.2584264348022E+01
 0.2584590009283E+01
 0.2586547790052E+01
 0.2590356400653E+01
 0.2596332852688E+01
 0.2604896829462E+01
 0.2616585657351E+01
 0.2632090892897E+01
 0.2652325533960E+01
 0.2678582417499E+01
 0.2712918546940E+01
 0.2758292864376E+01
 0.2815448551727E+01
 0.2881475756716E+01
 0.2952968807376E+01
 0.3028095402258E+01
 0.3106995025302E+01
 0.3191325707547E+01
 0.3283507634185E+01
 0.3385932204912E+01
 0.3500067575436E+01
 0.3629391820526E+01
 0.3785393334128E+01
 0.3982943211631E+01
 0.4254658575250E+01
 0.4590697583647E+01
 0.5314396791898E+01
 0.5306553171563E+01
 0.1031815590525E+02
 0.1724641794294E+00
 0.2226879010081E+00
 0.2738421809281E+00
 0.3237682591521E+00
 0.3711998263883E+00
 0.4151069993917E+00
 0.4548788629014E+00
 0.4903191957918E+00
 0.5214262036462E+00
 0.5482883526369E+00
 0.5710699585175E+00
 0.5899778832985E+00
 0.6051890242203E+00
 0.6167946875382E+00
 0.6248060682495E+00
 0.6291794794529E+00
 0.6296777091436E+00
 0.6262537941739E+00
 0.6198044297298E+00
 0.6116019670262E+00
 0.1728759139610E+00
 0.2277906083820E+00
 0.2826471664198E+00
 0.3358329090537E+00
 0.3861363299210E+00
 0.4327182679604E+00
 0.4750865229287E+00
 0.5130240517094E+00
 0.5464926612295E+00
 0.5755753218520E+00
 0.6004379463793E+00
 0.6212956996312E+00
 0.6383480707481E+00
 0.6517319360891E+00
 0.6615221518424E+00
 0.6677049988992E+00
 0.6700048005268E+00
 0.6683061777440E+00
 0.6619323815397E+00
 0.6497089374373E+00
 0.1729770500751E+00
 0.2329579681953E+00
 0.2916824655440E+00
 0.3481444751899E+00
 0.4013704991792E+00
 0.4506567143224E+00
 0.4955921838380E+00
 0.5359843665546E+00
 0.5717919566403E+00
 0.6030943874310E+00
 0.6300620877409E+00
 0.6529189912006E+00
 0.6718832920969E+00
 0.6871203207457E+00
 0.6987204518167E+00
 0.7066376120692E+00
 0.7105720382581E+00
 0.7100540603009E+00
 0.7041864036287E+00
 0.6929918964185E+00
 0.1730523395779E+00
 0.2380564437533E+00
 0.3008220551882E+00
 0.3606439899489E+00
 0.4168303875653E+00
 0.4688335129162E+00
 0.5163232360917E+00
 0.5591448420004E+00
 0.5972726816432E+00
 0.6307927376680E+00
 0.6598816854512E+00
 0.6847712893967E+00
 0.7056910153421E+00
 0.7228158707005E+00
 0.7362259998781E+00
 0.7458421544896E+00
 0.7513122746675E+00
 0.7521233632186E+00
 0.7477847839942E+00
 0.7386829635354E+00
 0.1731736711174E+00
 0.2431480521733E+00
 0.3100083241505E+00
 0.3732625534132E+00
 0.4324458019816E+00
 0.4871744809300E+00
 0.5372088198963E+00
 0.5824420602275E+00
 0.6228748536963E+00
 0.6586073962134E+00
 0.6898251643432E+00
 0.7167658755216E+00
 0.7396633812029E+00
 0.7586914181061E+00
 0.7739167544809E+00
 0.7852387701064E+00
 0.7923327430885E+00
 0.7948258937805E+00
 0.7925227647786E+00
 0.7859368296665E+00
 0.1733866155919E+00
 0.2482591362591E+00
 0.3192244613343E+00
 0.3859452492935E+00
 0.4481509599989E+00
 0.5056103764269E+00
 0.5581800315152E+00
 0.6058091642371E+00
 0.6485319306786E+00
 0.6864679963216E+00
 0.7198136451718E+00
 0.7488113722840E+00
 0.7736957405007E+00
 0.7946372459529E+00
 0.8116967077936E+00
 0.8247848950862E+00
 0.8336595518197E+00
 0.8381015123823E+00
 0.8381180521561E+00
 0.8342528158230E+00
 0.1737216361348E+00
 0.2534075388894E+00
 0.3284562239787E+00
 0.3986500849884E+00
 0.4638868128287E+00
 0.5240756483655E+00
 0.5791691404626E+00
 0.6291774746500E+00
 0.6741732010529E+00
 0.7142990911243E+00
 0.7497639094231E+00
 0.7808150084060E+00
 0.8076876726783E+00
 0.8305527309750E+00
 0.8494788365907E+00
 0.8644137157613E+00
 0.8752109593266E+00
 0.8817869309669E+00
 0.8842837241892E+00
 0.8832527882086E+00
 0.1742019486599E+00
 0.2586032471270E+00
 0.3376899692264E+00
 0.4113402331971E+00
 0.4796003845910E+00
 0.5425083277595E+00
 0.6001097385678E+00
 0.6524775342211E+00
 0.6997255820447E+00
 0.7420222748577E+00
 0.7795904981235E+00
 0.8126838250513E+00
 0.8415407791428E+00
 0.8663388738657E+00
 0.8871667953692E+00
 0.9040216179213E+00
 0.9168496051218E+00
 0.9256778904504E+00
 0.9307422851175E+00
 0.9325992813877E+00
 0.1748463291212E+00
 0.2638514591942E+00
 0.3469111492898E+00
 0.4239818269681E+00
 0.4952428143352E+00
 0.5608498151910E+00
 0.6209371303244E+00
 0.6756400609506E+00
 0.7251150530694E+00
 0.7695577968710E+00
 0.8092069881028E+00
 0.8443246338824E+00
 0.8751562266444E+00
 0.9018922553378E+00
 0.9246493997913E+00
 0.9434780816584E+00
 0.9584075967675E+00
 0.9695540165948E+00
 0.9772201346163E+00
 0.9819672092214E+00
 0.1756706867255E+00
 0.2691541071819E+00
 0.3561043715935E+00
 0.4365427433097E+00
 0.5107683278150E+00
 0.5790444528783E+00
 0.6415886332780E+00
 0.6985966997077E+00
 0.7502677003062E+00
 0.7968256167888E+00
 0.8385265865120E+00
 0.8756435819763E+00
 0.9084328579590E+00
 0.9371027883836E+00
 0.9618023227662E+00
 0.9826344665422E+00
 0.9997005947284E+00
 0.1013187672977E+01
 0.1023446369969E+01
 0.1031039872798E+01
 0.1766889433404E+00
 0.2745109618835E+00
 0.3652536859966E+00
 0.4489922287273E+00
 0.5261337170018E+00
 0.5970393621499E+00
 0.6620038692613E+00
 0.7212806931901E+00
 0.7751105747679E+00
 0.8237462019903E+00
 0.8674625620160E+00
 0.9065459783396E+00
 0.9412666757087E+00
 0.9718542225399E+00
 0.9984914567405E+00
 0.1021330879798E+01
 0.1040535539230E+01
 0.1056348767051E+01
 0.1069154432900E+01
 0.1079511572929E+01
 0.1779135886976E+00
 0.2799203993917E+00
 0.3743429725131E+00
 0.4613008600987E+00
 0.5412981678284E+00
 0.6147844261488E+00
 0.6821250399246E+00
 0.7436274115575E+00
 0.7995723464339E+00
 0.8502411281754E+00
 0.8959286392343E+00
 0.9369365066463E+00
 0.9735513147063E+00
 0.1006025727228E+01
 0.1034576360930E+01
 0.1059401126052E+01
 0.1080715516679E+01
 0.1098807693203E+01
 0.1114083675489E+01
 0.1127089328402E+01
 0.1793560392558E+00
 0.2853799786959E+00
 0.3833563470867E+00
 0.4734407069091E+00
 0.5562233155218E+00
 0.6322324234183E+00
 0.7018972391576E+00
 0.7655748389426E+00
 0.8235838859268E+00
 0.8762336604007E+00
 0.9238395441807E+00
 0.9667198678885E+00
 0.1005179143096E+01
 0.1039493927194E+01
 0.1069913435609E+01
 0.1096676590136E+01
 0.1120043351583E+01
 0.1140337568883E+01
 0.1157979232284E+01
 0.1173493098378E+01
 0.1810268986979E+00
 0.2908869098845E+00
 0.3922785813115E+00
 0.4853856174262E+00
 0.5708734588358E+00
 0.6493392787903E+00
 0.7212688127496E+00
 0.7870640497881E+00
 0.8470788227132E+00
 0.9016493601946E+00
 0.9511116903514E+00
 0.9958016886732E+00
 0.1036042642805E+01
 0.1072134989619E+01
 0.1104358729726E+01
 0.1132989421864E+01
 0.1158324608907E+01
 0.1180716445713E+01
 0.1200592787600E+01
 0.1218453527655E+01
 0.1829361446823E+00
 0.2964384354788E+00
 0.4010954980803E+00
 0.4971115450209E+00
 0.5852158374675E+00
 0.6660643558843E+00
 0.7401917166963E+00
 0.8080396501033E+00
 0.8699940658262E+00
 0.9264166936437E+00
 0.9776639301014E+00
 0.1024089537545E+01
 0.1066035849468E+01
 0.1103826598201E+01
 0.1137770407269E+01
 0.1168175276970E+01
 0.1195370364303E+01
 0.1219730064623E+01
 0.1241685754830E+01
 0.1261712372175E+01
 0.1850932797290E+00
 0.3020321744846E+00
 0.4097943753139E+00
 0.5085969316143E+00
 0.5992209908760E+00
 0.6823708257463E+00
 0.7586219308156E+00
 0.8284502570310E+00
 0.8922703641034E+00
 0.9504677001743E+00
 0.1003418391782E+01
 0.1051494023203E+01
 0.1095055809362E+01
 0.1134449818171E+01
 0.1170010975504E+01
 0.1202075789116E+01
 0.1230999858909E+01
 0.1257174886818E+01
 0.1281032906255E+01
 0.1303025846815E+01
 0.1875074552185E+00
 0.3076664323177E+00
 0.4183643383953E+00
 0.5198231060739E+00
 0.6128631452424E+00
 0.6982260591627E+00
 0.7765198816591E+00
 0.8482489750596E+00
 0.9138528597546E+00
 0.9737386590940E+00
 0.1028301313919E+01
 0.1077929864647E+01
 0.1123003945695E+01
 0.1163890780067E+01
 0.1200949251303E+01
 0.1234540754193E+01
 0.1265042893773E+01
 0.1292860760539E+01
 0.1318425328400E+01
 0.1342168273924E+01
 0.1901875754623E+00
 0.3133404918253E+00
 0.4267967476428E+00
 0.5307746958579E+00
 0.6261206233330E+00
 0.7136020397415E+00
 0.7938508764330E+00
 0.8673938724483E+00
 0.9346916339070E+00
 0.9961707399472E+00
 0.1052243846461E+01
 0.1103316892787E+01
 0.1149787297947E+01
 0.1192042164458E+01
 0.1230462062453E+01
 0.1265430000869E+01
 0.1297341832083E+01
 0.1326613012001E+01
 0.1353672622648E+01
 0.1378935037135E+01
 0.1931423983326E+00
 0.3190549007128E+00
 0.4350855929262E+00
 0.5414400586313E+00
 0.6389762816575E+00
 0.7284758032701E+00
 0.8105855560058E+00
 0.8858484667779E+00
 0.9547422499209E+00
 0.1017710635612E+01
 0.1075182810763E+01
 0.1127580972841E+01
 0.1175319629758E+01
 0.1218804494967E+01
 0.1258435697266E+01
 0.1294614945347E+01
 0.1327753195430E+01
 0.1358274013349E+01
 0.1386604467737E+01
 0.1413144675560E+01
 0.1963806261553E+00
 0.3248117502471E+00
 0.4432278818245E+00
 0.5518117121277E+00
 0.6514179472830E+00
 0.7428298727079E+00
 0.8267003348338E+00
 0.9035821854766E+00
 0.9739662566839E+00
 0.1038311135501E+01
 0.1097061371835E+01
 0.1150654801066E+01
 0.1199522364088E+01
 0.1244087206476E+01
 0.1284767075527E+01
 0.1321979808615E+01
 0.1356148854792E+01
 0.1387704289201E+01
 0.1417071653891E+01
 0.1444640175345E+01
 0.1999109993782E+00
 0.3306149606273E+00
 0.4512240374564E+00
 0.5618867775990E+00
 0.6634388688789E+00
 0.7566527031785E+00
 0.8421778419959E+00
 0.9205708143927E+00
 0.9923316624476E+00
 0.1057931646053E+01
 0.1117829627201E+01
 0.1172478579375E+01
 0.1222325351112E+01
 0.1267809497959E+01
 0.1309364656254E+01
 0.1347422524423E+01
 0.1382416862174E+01
 0.1414783209987E+01
 0.1444946679377E+01
 0.1473289441257E+01
 0.2037423943920E+00
 0.3364705733500E+00
 0.4590783030048E+00
 0.5716674296112E+00
 0.6750381710636E+00
 0.7699391234623E+00
 0.8570073480503E+00
 0.9367969175599E+00
 0.1009813360747E+01
 0.1076538638699E+01
 0.1137445092145E+01
 0.1193000548918E+01
 0.1243667453327E+01
 0.1289900960450E+01
 0.1332149083378E+01
 0.1370855355025E+01
 0.1406461963491E+01
 0.1439409276721E+01
 0.1470123674544E+01
 0.1498984382245E+01
 0.2078839292943E+00
 0.3423870551833E+00
 0.4667991563888E+00
 0.5811613534622E+00
 0.6862213110075E+00
 0.7826907711229E+00
 0.8711851735489E+00
 0.9522502229696E+00
 0.1026393502403E+01
 0.1094106018849E+01
 0.1155873075088E+01
 0.1212177377415E+01
 0.1263496944969E+01
 0.1310301981602E+01
 0.1353053578332E+01
 0.1392205239133E+01
 0.1428205835722E+01
 0.1461500128676E+01
 0.1492517821699E+01
 0.1521640013387E+01
 0.2123450831633E+00
 0.3483756199747E+00
 0.4743997408187E+00
 0.5903822143005E+00
 0.6970005392784E+00
 0.7949165214647E+00
 0.8847150781421E+00
 0.9669279725219E+00
 0.1042061811540E+01
 0.1110615414123E+01
 0.1173086942021E+01
 0.1229974400236E+01
 0.1281771727101E+01
 0.1328963930369E+01
 0.1372024088071E+01
 0.1411413888982E+01
 0.1447587101173E+01
 0.1480992398566E+01
 0.1512065072176E+01
 0.1541194056101E+01
 0.2171358344799E+00
 0.3544505735114E+00
 0.4818983162971E+00
 0.5993501412280E+00
 0.7073953658510E+00
 0.8066329092195E+00
 0.8976086278621E+00
 0.9808352332843E+00
 0.1056815843228E+01
 0.1126056380773E+01
 0.1189068270768E+01
 0.1246365717619E+01
 0.1298459361715E+01
 0.1345849125600E+01
 0.1389019192937E+01
 0.1428437647436E+01
 0.1464561135442E+01
 0.1497841475578E+01
 0.1528721891434E+01
 0.1557606473365E+01
 0.2222668196545E+00
 0.3606296825661E+00
 0.4893187327217E+00
 0.6080922248024E+00
 0.7174330268276E+00
 0.8178645359851E+00
 0.9098855320847E+00
 0.9939851613630E+00
 0.1070661175441E+01
 0.1140426523761E+01
 0.1203806893917E+01
 0.1261334149669E+01
 0.1313536927593E+01
 0.1360930589934E+01
 0.1404009773059E+01
 0.1443247099951E+01
 0.1479099663683E+01
 0.1512021098153E+01
 0.1542464725361E+01
 0.1570858486189E+01
 0.2277495232079E+00
 0.3669345830212E+00
 0.4966909411528E+00
 0.6166430447297E+00
 0.7271489670736E+00
 0.8286444767357E+00
 0.9215739620675E+00
 0.1006399229972E+01
 0.1083611548285E+01
 0.1153731546541E+01
 0.1217300850207E+01
 0.1274871071520E+01
 0.1326990719753E+01
 0.1374191605942E+01
 0.1416978439936E+01
 0.1455826433508E+01
 0.1491190114694E+01
 0.1523522719669E+01
 0.1553289206447E+01
 0.1580951157908E+01
 0.2335965014645E+00
 0.3733912255133E+00
 0.5040515433330E+00
 0.6250452251048E+00
 0.7365873318960E+00
 0.8390146741483E+00
 0.9327108365799E+00
 0.1018107406164E+01
 0.1095688937158E+01
 0.1165985222721E+01
 0.1229556244008E+01
 0.1286976134741E+01
 0.1338815800908E+01
 0.1385625078983E+01
 0.1427918726734E+01
 0.1466172514357E+01
 0.1500834674642E+01
 0.1532354598854E+01
 0.1561209117612E+01
 0.1587903530648E+01
 0.2398216404394E+00
 0.3800303672294E+00
 0.5114443903387E+00
 0.6333500287770E+00
 0.7458014766810E+00
 0.8490263259782E+00
 0.9433420765564E+00
 0.1029148276856E+01
 0.1106923563052E+01
 0.1177209300226E+01
 0.1240587034127E+01
 0.1297656906066E+01
 0.1349015439895E+01
 0.1395232736432E+01
 0.1436834053215E+01
 0.1474293680778E+01
 0.1508048997651E+01
 0.1538540530900E+01
 0.1566255081365E+01
 0.1591750224398E+01
 0.2464404652874E+00
 0.3868881272534E+00
 0.5189212552588E+00
 0.6416180165894E+00
 0.7548545163441E+00
 0.8587402807284E+00
 0.9535228369046E+00
 0.1039569127045E+01
 0.1117353842786E+01
 0.1187433347924E+01
 0.1250414775394E+01
 0.1306928461189E+01
 0.1357600481649E+01
 0.1403024200953E+01
 0.1443736484574E+01
 0.1480208253651E+01
 0.1512860567012E+01
 0.1542118094351E+01
 0.1568472683484E+01
 0.1592538289951E+01
 0.2534704819198E+00
 0.3940065922503E+00
 0.5265425739639E+00
 0.6499197669041E+00
 0.7638199040452E+00
 0.8682274214663E+00
 0.9633176851026E+00
 0.1049425932185E+01
 0.1127026240618E+01
 0.1196694517111E+01
 0.1259068308395E+01
 0.1314812957551E+01
 0.1364588693189E+01
 0.1409015981123E+01
 0.1448645305229E+01
 0.1483942765222E+01
 0.1515306738697E+01
 0.1543136539003E+01
 0.1567919654744E+01
 0.1590322781104E+01
 0.2609315734635E+00
 0.4014345055839E+00
 0.5343783046907E+00
 0.6583367146908E+00
 0.7727820943929E+00
 0.8775690813992E+00
 0.9728007550975E+00
 0.1058783278652E+01
 0.1135995026940E+01
 0.1205037229233E+01
 0.1266583433700E+01
 0.1321339262665E+01
 0.1370004197313E+01
 0.1413230493770E+01
 0.1451585479178E+01
 0.1485529924863E+01
 0.1515432494725E+01
 0.1541654714952E+01
 0.1564663725256E+01
 0.1585163871133E+01
 0.2688464239058E+00
 0.4092280187614E+00
 0.5425089145481E+00
 0.6669621293013E+00
 0.7818373025730E+00
 0.8868574839558E+00
 0.9820558481842E+00
 0.1067714163970E+01
 0.1144321882168E+01
 0.1212512730120E+01
 0.1273002542599E+01
 0.1326542676161E+01
 0.1373877110494E+01
 0.1415695266199E+01
 0.1452586091077E+01
 0.1485006295499E+01
 0.1513287828828E+01
 0.1537739097750E+01
 0.1558783128645E+01
 0.1577131666660E+01
 0.2772409327480E+00
 0.4174515012689E+00
 0.5510265339516E+00
 0.6759022959186E+00
 0.7910944095429E+00
 0.8961962287813E+00
 0.9911764704837E+00
 0.1076299637063E+01
 0.1152075278953E+01
 0.1219178427627E+01
 0.1278374138682E+01
 0.1330464765591E+01
 0.1376243547175E+01
 0.1416442594228E+01
 0.1451678978212E+01
 0.1482409671048E+01
 0.1508924490110E+01
 0.1531461525462E+01
 0.1550367717935E+01
 0.1566315695363E+01
 0.2861446019180E+00
 0.4261784089713E+00
 0.5600363861907E+00
 0.6852780380418E+00
 0.8006761283257E+00
 0.9057008871043E+00
 0.1000265835716E+01
 0.1084628272322E+01
 0.1159329597880E+01
 0.1225096927606E+01
 0.1282752142978E+01
 0.1333153270130E+01
 0.1377146184174E+01
 0.1415510128271E+01
 0.1448898073780E+01
 0.1477776167719E+01
 0.1502391542088E+01
 0.1522895732565E+01
 0.1539519522197E+01
 0.1552831903447E+01
 0.2955906945564E+00
 0.4354921299707E+00
 0.5696585571931E+00
 0.6952267307799E+00
 0.8107204682183E+00
 0.9154996839751E+00
 0.1009436767227E+01
 0.1092795394146E+01
 0.1166163850112E+01
 0.1230334580986E+01
 0.1286194743069E+01
 0.1334661801278E+01
 0.1376635332663E+01
 0.1412943112400E+01
 0.1444280592579E+01
 0.1471137614122E+01
 0.1493728412044E+01
 0.1512111083238E+01
 0.1526353089556E+01
 0.1536833988886E+01
 0.3056159907394E+00
 0.4454866706020E+00
 0.5800306515410E+00
 0.7059051459406E+00
 0.8213827268894E+00
 0.9257342929880E+00
 0.1018811583404E+01
 0.1100902097595E+01
 0.1172659973128E+01
 0.1234959425845E+01
 0.1288762525640E+01
 0.1335048968543E+01
 0.1374769940179E+01
 0.1408798412023E+01
 0.1437872987715E+01
 0.1462521312624E+01
 0.1482954017008E+01
 0.1499157271707E+01
 0.1510994660489E+01
 0.1518539408709E+01
 0.3162589719951E+00
 0.4562678509726E+00
 0.5913117770008E+00
 0.7174941771284E+00
 0.8328374941846E+00
 0.9365606219374E+00
 0.1028522097456E+01
 0.1109053991511E+01
 0.1178900501316E+01
 0.1239038400897E+01
 0.1290515626146E+01
 0.1334376221117E+01
 0.1371617888891E+01
 0.1403148433965E+01
 0.1429742707017E+01
 0.1451965252755E+01
 0.1470050765584E+01
 0.1484026133367E+01
 0.1493564525034E+01
 0.1498284624151E+01
 0.3275553437605E+00
 0.4679505464606E+00
 0.6036969024983E+00
 0.7302037925090E+00
 0.8452787163834E+00
 0.9481505104498E+00
 0.1038710494949E+01
 0.1117359136635E+01
 0.1184965355495E+01
 0.1242633994054E+01
 0.1291509944984E+01
 0.1332703669165E+01
 0.1367253656774E+01
 0.1396085254999E+01
 0.1419986416660E+01
 0.1439554109515E+01
 0.1455007679113E+01
 0.1466535935954E+01
 0.1474074550897E+01
 0.1476647922652E+01
 0.3394873927649E+00
 0.4807186409702E+00
 0.6174502114986E+00
 0.7442606294189E+00
 0.8589177639640E+00
 0.9607015130052E+00
 0.1049529700764E+01
 0.1125923449086E+01
 0.1190928068118E+01
 0.1245800632298E+01
 0.1291792927348E+01
 0.1330084099851E+01
 0.1361750309606E+01
 0.1387719442461E+01
 0.1408747338704E+01
 0.1425417248695E+01
 0.1437956655299E+01
 0.1446491616801E+01
 0.1451788044080E+01
 0.1455163400296E+01
 0.3099948158039E+00
 0.1211388753915E+00
 0.6801036406559E-01
 0.1422824062400E+00
 0.1642762462475E+00
 0.1618860979704E+00
 0.1606886565174E+00
 0.1675162436559E+00
 0.1749790315677E+00
 0.1790302177882E+00
 0.1791816131976E+00
 0.1754109552879E+00
 0.1672484256776E+00
 0.1541275607473E+00
 0.1361640335817E+00
 0.1132487892777E+00
 0.8480053575973E-01
 0.5438132273039E-01
 0.2586737588290E-01
 0.3324162719870E-02
 0.2618085011010E+00
 0.1848328860069E+00
 0.2358245881669E-01
 0.6884249521781E-01
 0.1101383838211E+00
 0.1269156479080E+00
 0.1353437132883E+00
 0.1439889039233E+00
 0.1520077363384E+00
 0.1573068812977E+00
 0.1593287933912E+00
 0.1578100286578E+00
 0.1524078905128E+00
 0.1426207148898E+00
 0.1280854347366E+00
 0.1086311963040E+00
 0.8474796317728E-01
 0.5751915082287E-01
 0.2857634035183E-01
 0.2975461345169E-02
 0.2285679204582E+00
 0.1900614139378E+00
 0.8737552464026E-01
 0.2132028691541E-02
 0.5500752528681E-01
 0.8533436366479E-01
 0.1035895580314E+00
 0.1164625112135E+00
 0.1262584753097E+00
 0.1331384032723E+00
 0.1370967926440E+00
 0.1379619796080E+00
 0.1354233945161E+00
 0.1290090382746E+00
 0.1182285509552E+00
 0.1028247755598E+00
 0.8306824836289E-01
 0.5882682814715E-01
 0.3042674654945E-01
 0.2236328119450E-02
 0.2076558292921E+00
 0.1862771520889E+00
 0.1242123971689E+00
 0.5503161309260E-01
 0.1945629890075E-02
 0.4027271778705E-01
 0.6656731226082E-01
 0.8443181893989E-01
 0.9705837233912E-01
 0.1060577102298E+00
 0.1121495319515E+00
 0.1154656677184E+00
 0.1158309347408E+00
 0.1128518976774E+00
 0.1059923798521E+00
 0.9482973708717E-01
 0.7940997763884E-01
 0.5859212434959E-01
 0.3175996826966E-01
 0.1431043202860E-02
 0.1943238872902E+00
 0.1817482952299E+00
 0.1468461927125E+00
 0.9795467609342E-01
 0.4801344772091E-01
 0.6027466959949E-02
 0.2594159671629E-01
 0.4832328114861E-01
 0.6416723551482E-01
 0.7569310282161E-01
 0.8413136560506E-01
 0.8995907282051E-01
 0.9321916790851E-01
 0.9366081615887E-01
 0.9075741422478E-01
 0.8397217183998E-01
 0.7315805141923E-01
 0.5640464669618E-01
 0.3227543502877E-01
 0.2639260047026E-02
 0.1858642755211E+00
 0.1786446468482E+00
 0.1619460140504E+00
 0.1306707917462E+00
 0.9072626351610E-01
 0.5068922789427E-01
 0.1660321081040E-01
 0.9085112256340E-02
 0.2784533852301E-01
 0.4194467083409E-01
 0.5280411658199E-01
 0.6114268128117E-01
 0.6722573457106E-01
 0.7098366369302E-01
 0.7196399487230E-01
 0.6958582650478E-01
 0.6358998904834E-01
 0.5150023880461E-01
 0.3114351755319E-01
 0.4286519737098E-02
 0.1805840234068E+00
 0.1773328692648E+00
 0.1731043836181E+00
 0.1561387116990E+00
 0.1271300295735E+00
 0.9248048765332E-01
 0.5921762527340E-01
 0.3213839065176E-01
 0.1127821647320E-01
 0.5042635526156E-02
 0.1814479104749E-01
 0.2885188895685E-01
 0.3758409444069E-01
 0.4445059735071E-01
 0.4911918667517E-01
 0.5103752235816E-01
 0.4991699736722E-01
 0.4291171732003E-01
 0.2717238343892E-01
 0.4206733266846E-02
 0.1773930029872E+00
 0.1776552078104E+00
 0.1822521392903E+00
 0.1766491210801E+00
 0.1581179470639E+00
 0.1305932746844E+00
 0.1006238540626E+00
 0.7407250091900E-01
 0.5235748278524E-01
 0.3457915244977E-01
 0.1970683137973E-01
 0.7075228846733E-02
 0.4424334580077E-02
 0.1387793334700E-01
 0.2186826632952E-01
 0.2779088509969E-01
 0.3138429896012E-01
 0.2961694852306E-01
 0.1902695177915E-01
 0.1372555094195E-02
 0.1755652765750E+00
 0.1793088339420E+00
 0.1904301365206E+00
 0.1938275441474E+00
 0.1847527151126E+00
 0.1649948205760E+00
 0.1399737129018E+00
 0.1156924759505E+00
 0.9448915186489E-01
 0.7621389515615E-01
 0.6024516988200E-01
 0.4604249265419E-01
 0.3316256532534E-01
 0.2129824437380E-01
 0.1060737972364E-01
 0.2906296924509E-02
 0.7705635874540E-02
 0.1085403134377E-01
 0.5796043023943E-02
 0.8841257512081E-02
 0.1746061274759E+00
 0.1819755787385E+00
 0.1981856135038E+00
 0.2087849600000E+00
 0.2080088373031E+00
 0.1960013837106E+00
 0.1768875206136E+00
 0.1562406843834E+00
 0.1368523592762E+00
 0.1191683325787E+00
 0.1029843973504E+00
 0.8800671594793E-01
 0.7389835812987E-01
 0.6032088664915E-01
 0.4724284410083E-01
 0.3489706181619E-01
 0.2334528376666E-01
 0.1549365821814E-01
 0.1563240339011E-01
 0.2453338938302E-01
 0.1741731020729E+00
 0.1853650641106E+00
 0.2057855736251E+00
 0.2222599982074E+00
 0.2286893423419E+00
 0.2240656496360E+00
 0.2113001924464E+00
 0.1952499723245E+00
 0.1787900129520E+00
 0.1627593389395E+00
 0.1473044008506E+00
 0.1323846720841E+00
 0.1178188016994E+00
 0.1033102455833E+00
 0.8876061851526E-01
 0.7427378870771E-01
 0.5975997772664E-01
 0.4784786259094E-01
 0.4336624707295E-01
 0.4803381831182E-01
 0.1740271993193E+00
 0.1892267265713E+00
 0.2133354684044E+00
 0.2347282582503E+00
 0.2474155381569E+00
 0.2496551728438E+00
 0.2433303426356E+00
 0.2324854540063E+00
 0.2198273688215E+00
 0.2063968005460E+00
 0.1925939338108E+00
 0.1785999738924E+00
 0.1644047132481E+00
 0.1497981559879E+00
 0.1346589444112E+00
 0.1189858087834E+00
 0.1025501108815E+00
 0.8757406874957E-01
 0.7910360648138E-01
 0.7985075725893E-01
 0.1740015625482E+00
 0.1933503601085E+00
 0.2208474192138E+00
 0.2464810007736E+00
 0.2646446452537E+00
 0.2731897360042E+00
 0.2731828925319E+00
 0.2678731952563E+00
 0.2596519771297E+00
 0.2496069551775E+00
 0.2382919353701E+00
 0.2260590443872E+00
 0.2130625750419E+00
 0.1992096857203E+00
 0.1844001295444E+00
 0.1685587203179E+00
 0.1513222731206E+00
 0.1343764321273E+00
 0.1227500118666E+00
 0.1200385748386E+00
 0.1739808155559E+00
 0.1975627555428E+00
 0.2282805283029E+00
 0.2576806426654E+00
 0.2806955008359E+00
 0.2950136099421E+00
 0.3010836867134E+00
 0.3014353811460E+00
 0.2980764011778E+00
 0.2920298278562E+00
 0.2839134911532E+00
 0.2741923838970E+00
 0.2631636107049E+00
 0.2508707967151E+00
 0.2372825787817E+00
 0.2222999793189E+00
 0.2054482241138E+00
 0.1877531246006E+00
 0.1739174998272E+00
 0.1682095161598E+00
 0.1738871575820E+00
 0.2017234791307E+00
 0.2355652437952E+00
 0.2683997142223E+00
 0.2957742296855E+00
 0.3153872360223E+00
 0.3272388428789E+00
 0.3332385621154E+00
 0.3349970099488E+00
 0.3334008597462E+00
 0.3290580418195E+00
 0.3224864371090E+00
 0.3140912201793E+00
 0.3040579887045E+00
 0.2924744177269E+00
 0.2792975094224E+00
 0.2640105978855E+00
 0.2468941044945E+00
 0.2319019292674E+00
 0.2236055082054E+00
 0.1736710499531E+00
 0.2057210249484E+00
 0.2426183641810E+00
 0.2786480652674E+00
 0.3099969231360E+00
 0.3344891272589E+00
 0.3518115829425E+00
 0.3633553594341E+00
 0.3703552315838E+00
 0.3735236618739E+00
 0.3734024475216E+00
 0.3705030339039E+00
 0.3652882619314E+00
 0.3580670541057E+00
 0.3490814286310E+00
 0.3384531421107E+00
 0.3257862620992E+00
 0.3106501370762E+00
 0.2957323103909E+00
 0.2852059502764E+00
 0.1733052350089E+00
 0.2094704608161E+00
 0.2493517932925E+00
 0.2883917422463E+00
 0.3234082170475E+00
 0.3524229203421E+00
 0.3749110940070E+00
 0.3918382076512E+00
 0.4041041534976E+00
 0.4122376982008E+00
 0.4166789328225E+00
 0.4178798707604E+00
 0.4162956441661E+00
 0.4122992835568E+00
 0.4062734169831E+00
 0.3985828532454E+00
 0.3892268888555E+00
 0.3774322181792E+00
 0.3641515780326E+00
 0.3518855909362E+00
 0.1727833680024E+00
 0.2129106909366E+00
 0.2556784792693E+00
 0.2975632814076E+00
 0.3359965422600E+00
 0.3692264759189E+00
 0.3965897236672E+00
 0.4187040539743E+00
 0.4361829736670E+00
 0.4493847099048E+00
 0.4586371695942E+00
 0.4642993613578E+00
 0.4667537928250E+00
 0.4663407033904E+00
 0.4634716808011E+00
 0.4587151819407E+00
 0.4525943704635E+00
 0.4449031153280E+00
 0.4354066224712E+00
 0.4225374048360E+00
 0.1721192076719E+00
 0.2160195694481E+00
 0.2614972540956E+00
 0.3060712623988E+00
 0.3477061593673E+00
 0.3848801740456E+00
 0.4168455310894E+00
 0.4439302480132E+00
 0.4665036753587E+00
 0.4847815910338E+00
 0.4989972587635E+00
 0.5094174409718E+00
 0.5163211796781E+00
 0.5199320094842E+00
 0.5205146573568E+00
 0.5185595592907E+00
 0.5149179392721E+00
 0.5100127085242E+00
 0.5056323357400E+00
 0.4962501962458E+00
 0.1714507352127E+00
 0.2186831074377E+00
 0.2666874020918E+00
 0.3138219263963E+00
 0.3584440250417E+00
 0.3993036051573E+00
 0.4356296125221E+00
 0.4674650337102E+00
 0.4949547724419E+00
 0.5182133078938E+00
 0.5374168704743E+00
 0.5527782905565E+00
 0.5644984268889E+00
 0.5726886470290E+00
 0.5774079936422E+00
 0.5787730358121E+00
 0.5772012344756E+00
 0.5730650428825E+00
 0.5685911957641E+00
 0.5675770991559E+00
 0.3557357880538E+00
 0.5012718721903E+00
 0.6419531950139E+00
 0.7712885553266E+00
 0.8868590145989E+00
 0.9879031262782E+00
 0.1074443161797E+01
 0.1147368374740E+01
 0.1208100214976E+01
 0.1258190070565E+01
 0.1299103285384E+01
 0.1332163272030E+01
 0.1358555151273E+01
 0.1379279656084E+01
 0.1395148642003E+01
 0.1406861317418E+01
 0.1415184850904E+01
 0.1420433902270E+01
 0.1424169158377E+01
 0.1429805136673E+01
 0.3750442325626E+00
 0.5292995859977E+00
 0.6766170016490E+00
 0.8103044756163E+00
 0.9275131363032E+00
 0.1027539026034E+01
 0.1110719405763E+01
 0.1178446395684E+01
 0.1232735959011E+01
 0.1275642125453E+01
 0.1308990598845E+01
 0.1334357248128E+01
 0.1353119095490E+01
 0.1366437560524E+01
 0.1375308033896E+01
 0.1380729120093E+01
 0.1383909834603E+01
 0.1385099951705E+01
 0.1385762002214E+01
 0.1384029458481E+01
 0.3956060528789E+00
 0.5598657267118E+00
 0.7141075356877E+00
 0.8514756473126E+00
 0.9691104589906E+00
 0.1066589942602E+01
 0.1144740572784E+01
 0.1205551342757E+01
 0.1251776162372E+01
 0.1286081187439E+01
 0.1310694805785E+01
 0.1327463362738E+01
 0.1337972858649E+01
 0.1343549684640E+01
 0.1345342032632E+01
 0.1344472670194E+01
 0.1342060450371E+01
 0.1337695109536E+01
 0.1331828941324E+01
 0.1325414779713E+01
 0.4179645396456E+00
 0.5933190165549E+00
 0.7546453786566E+00
 0.8948816692348E+00
 0.1011459841098E+01
 0.1104549765873E+01
 0.1175697422686E+01
 0.1227699716327E+01
 0.1264215635521E+01
 0.1288595479317E+01
 0.1303476945143E+01
 0.1310955743620E+01
 0.1312784039491E+01
 0.1310368972269E+01
 0.1304864126846E+01
 0.1297284880124E+01
 0.1288418674341E+01
 0.1277144745930E+01
 0.1265095822445E+01
 0.1256797817229E+01
 0.4425250699559E+00
 0.6302487361190E+00
 0.7985587694936E+00
 0.9405283317822E+00
 0.1054199009413E+01
 0.1140693547605E+01
 0.1202596684631E+01
 0.1243786957138E+01
 0.1268999062534E+01
 0.1282291417459E+01
 0.1286661884282E+01
 0.1284382068606E+01
 0.1277275381026E+01
 0.1266705091818E+01
 0.1253692648693E+01
 0.1239044799413E+01
 0.1223193573834E+01
 0.1204898803888E+01
 0.1187702926576E+01
 0.1178765376039E+01
 0.4697485261573E+00
 0.6712893894223E+00
 0.8462096561426E+00
 0.9883305384675E+00
 0.1096774750257E+01
 0.1174073301817E+01
 0.1224252864183E+01
 0.1252596475063E+01
 0.1265051875034E+01
 0.1266335811520E+01
 0.1259691939391E+01
 0.1247446545436E+01
 0.1231370228796E+01
 0.1212659854728E+01
 0.1192118654181E+01
 0.1170324642363E+01
 0.1147455196224E+01
 0.1122504403221E+01
 0.1100981471962E+01
 0.1092150521112E+01
 0.5001765851931E+00
 0.7171519988271E+00
 0.8979363295992E+00
 0.1038066761815E+01
 0.1138408357399E+01
 0.1203496381348E+01
 0.1239293497013E+01
 0.1252832096886E+01
 0.1251333588588E+01
 0.1240022024749E+01
 0.1222202941433E+01
 0.1200098505451E+01
 0.1175291010871E+01
 0.1148705318497E+01
 0.1120875867868E+01
 0.1092167388752E+01
 0.1062562501015E+01
 0.1031474344492E+01
 0.1006288282691E+01
 0.9980152624226E+00
 0.5344590727427E+00
 0.7686327062390E+00
 0.9540240449843E+00
 0.1089321774517E+01
 0.1178045478783E+01
 0.1227503838263E+01
 0.1246178650890E+01
 0.1243174570237E+01
 0.1226914306832E+01
 0.1202851291445E+01
 0.1174100591456E+01
 0.1142595755576E+01
 0.1109596146703E+01
 0.1075668249180E+01
 0.1041049901404E+01
 0.1005907031093E+01
 0.9700447594389E+00
 0.9334159554518E+00
 0.9051351470720E+00
 0.8976653307163E+00
 0.5733829005736E+00
 0.8266238057179E+00
 0.1014665244045E+01
 0.1141417642699E+01
 0.1214295849683E+01
 0.1244355375724E+01
 0.1243244180981E+01
 0.1222366601915E+01
 0.1191072214091E+01
 0.1154619720871E+01
 0.1115623520182E+01
 0.1075535805482E+01
 0.1035172961641E+01
 0.9946813623906E+00
 0.9539921026889E+00
 0.9130837243254E+00
 0.8715800765422E+00
 0.8300747046130E+00
 0.7992333082946E+00
 0.7926353261042E+00
 0.6179092762217E+00
 0.8921232777273E+00
 0.1079902178156E+01
 0.1193321697291E+01
 0.1245365124418E+01
 0.1252031925601E+01
 0.1228781038886E+01
 0.1189332061838E+01
 0.1143407711188E+01
 0.1095499927726E+01
 0.1047382541873E+01
 0.9998536474311E+00
 0.9532002902922E+00
 0.9071203067646E+00
 0.8612480991821E+00
 0.8153887630171E+00
 0.7689760826932E+00
 0.7233448111730E+00
 0.6904949353049E+00
 0.6846951600770E+00
 0.6692241172912E+00
 0.9662415211404E+00
 0.1149538371736E+01
 0.1243520907741E+01
 0.1268982448664E+01
 0.1248273381711E+01
 0.1201167306707E+01
 0.1143332425593E+01
 0.1083963358654E+01
 0.1026100847267E+01
 0.9703639648643E+00
 0.9167841277556E+00
 0.8650866173509E+00
 0.8145322412450E+00
 0.7644907264219E+00
 0.7146148209404E+00
 0.6641450409734E+00
 0.6152591526605E+00
 0.5810284140960E+00
 0.5758684203934E+00
 0.7288091921934E+00
 0.1050200056629E+01
 0.1222997036015E+01
 0.1289848109493E+01
 0.1282335810510E+01
 0.1230680957941E+01
 0.1159072316872E+01
 0.1084153891896E+01
 0.1013325530683E+01
 0.9474815323524E+00
 0.8858848874724E+00
 0.8277900194828E+00
 0.7723911401822E+00
 0.7185602446396E+00
 0.6654542796890E+00
 0.6126056607589E+00
 0.5590710852750E+00
 0.5079700455210E+00
 0.4731322399447E+00
 0.4684600716198E+00
 0.7985462311698E+00
 0.1145309740744E+01
 0.1299086574436E+01
 0.1329242253784E+01
 0.1282046013322E+01
 0.1196932319129E+01
 0.1101746738554E+01
 0.1012294750373E+01
 0.9326635957744E+00
 0.8610915098462E+00
 0.7954978562069E+00
 0.7344680620696E+00
 0.6767408505784E+00
 0.6208700075240E+00
 0.5658697460805E+00
 0.5112015999458E+00
 0.4557685443250E+00
 0.4037217108373E+00
 0.3692846893577E+00
 0.3650868848382E+00
 0.8808750650669E+00
 0.1252897844495E+01
 0.1375597685135E+01
 0.1357426648181E+01
 0.1264252122331E+01
 0.1145179892458E+01
 0.1029382386728E+01
 0.9290753795806E+00
 0.8436453751859E+00
 0.7686259153937E+00
 0.7008677784158E+00
 0.6384593646906E+00
 0.5797583953156E+00
 0.5230819113328E+00
 0.4673976744952E+00
 0.4121756290622E+00
 0.3562261117529E+00
 0.3048083386888E+00
 0.2721192021223E+00
 0.2686990216331E+00
 0.9790439996226E+00
 0.1374106185135E+01
 0.1448582172688E+01
 0.1368516869411E+01
 0.1224970148813E+01
 0.1074710480019E+01
 0.9434309631591E+00
 0.8365292973032E+00
 0.7481838825297E+00
 0.6718408774691E+00
 0.6036752844914E+00
 0.5413914682313E+00
 0.4830044302779E+00
 0.4267022915104E+00
 0.3715516268588E+00
 0.3171540628743E+00
 0.2623282447872E+00
 0.2135042956956E+00
 0.1843653362615E+00
 0.1825691017420E+00
 0.1097523271329E+01
 0.1509342372212E+01
 0.1511012061148E+01
 0.1354684916814E+01
 0.1161075758902E+01
 0.9868390860162E+00
 0.8465727815643E+00
 0.7368994335268E+00
 0.6481124230189E+00
 0.5724477173190E+00
 0.5055983887496E+00
 0.4448517819773E+00
 0.3879166074900E+00
 0.3330405560944E+00
 0.2796079248109E+00
 0.2275184598141E+00
 0.1757438624834E+00
 0.1319422545382E+00
 0.1087171598812E+00
 0.1101989563110E+00
 0.1242736938308E+01
 0.1656746466600E+01
 0.1550146278180E+01
 0.1306536728535E+01
 0.1072476929679E+01
 0.8855958616635E+00
 0.7416317249332E+00
 0.6319760121213E+00
 0.5450624397514E+00
 0.4721895771934E+00
 0.4083612493255E+00
 0.3503436044847E+00
 0.2957143669714E+00
 0.2431091460281E+00
 0.1925066147961E+00
 0.1442950090171E+00
 0.9777044375656E-01
 0.6190752726147E-01
 0.4755883190991E-01
 0.5504314698140E-01
 0.1424255639712E+01
 0.1807082489109E+01
 0.1542759054892E+01
 0.1216188471193E+01
 0.9664613700220E+00
 0.7755033745484E+00
 0.6300604007046E+00
 0.5229306615282E+00
 0.4407435219535E+00
 0.3730785741657E+00
 0.3137263676192E+00
 0.2591490529540E+00
 0.2072703763653E+00
 0.1575245742014E+00
 0.1107674623944E+00
 0.6802807652814E-01
 0.2915363240825E-01
 0.4562510797288E-02
 0.2492495097805E-02
 0.1985702416366E-01
 0.1657932884365E+01
 0.1926716525122E+01
 0.1444246805561E+01
 0.1097384828918E+01
 0.8534252319276E+00
 0.6578069191125E+00
 0.5116436630326E+00
 0.4108970986592E+00
 0.3376788667635E+00
 0.2775039363072E+00
 0.2232334857677E+00
 0.1720997717450E+00
 0.1230123358396E+00
 0.7648328573418E-01
 0.3436379428444E-01
 0.1309556384200E-02
 0.3014235740861E-01
 0.4016777452917E-01
 0.2677637770676E-01
 0.5666316609628E-02
 0.1944482269850E+01
 0.1813582945460E+01
 0.1271857762043E+01
 0.9790117460021E+00
 0.7363760064749E+00
 0.5305079154456E+00
 0.3846107371846E+00
 0.2990982392962E+00
 0.2397447827173E+00
 0.1876441321860E+00
 0.1377260282122E+00
 0.8939509171747E-01
 0.4295489362800E-01
 0.1766836461687E-03
 0.3729062943336E-01
 0.6504638716475E-01
 0.8021622911318E-01
 0.7265397257857E-01
 0.4321599438757E-01
 0.8033145932672E-02
 0.5794885146425E+00
 0.5049102117998E+00
 0.4345984268341E+00
 0.3663039822798E+00
 0.3005129090754E+00
 0.2389811259382E+00
 0.1833117311732E+00
 0.1348720215560E+00
 0.9467691725477E-01
 0.6330073500127E-01
 0.4079331289905E-01
 0.2662544798463E-01
 0.1969612874291E-01
 0.1840253427942E-01
 0.2072817683382E-01
 0.2450192693488E-01
 0.2782971448953E-01
 0.2949712345673E-01
 0.2926570460536E-01
 0.2779838028349E-01
 0.6207146214731E+00
 0.5551839307853E+00
 0.4825298889791E+00
 0.4111977513036E+00
 0.3424299458564E+00
 0.2774338416655E+00
 0.2177497944407E+00
 0.1649128458484E+00
 0.1202535750475E+00
 0.8472918784746E-01
 0.5878252234387E-01
 0.4223021492447E-01
 0.3420180970403E-01
 0.3312944134014E-01
 0.3680289219341E-01
 0.4262629592338E-01
 0.4809124522411E-01
 0.5133870935616E-01
 0.5163090858198E-01
 0.4982694011998E-01
 0.6629886221721E+00
 0.6020137584204E+00
 0.5329999124271E+00
 0.4612628115824E+00
 0.3904795835856E+00
 0.3224646444627E+00
 0.2588786174812E+00
 0.2014215445460E+00
 0.1517108923661E+00
 0.1111044558313E+00
 0.8051454483498E-01
 0.6023436748803E-01
 0.4979607865182E-01
 0.4786901178580E-01
 0.5222778202084E-01
 0.5993021730336E-01
 0.6779226693209E-01
 0.7309064251061E-01
 0.7432553200218E-01
 0.7167415767882E-01
 0.7082337437147E+00
 0.6503280781152E+00
 0.5849632196930E+00
 0.5151957672823E+00
 0.4441580168822E+00
 0.3742390495711E+00
 0.3073842162075E+00
 0.2454897225049E+00
 0.1904367694626E+00
 0.1439716070355E+00
 0.1075186562333E+00
 0.8196401435669E-01
 0.6743527792887E-01
 0.6309400084338E-01
 0.6697012744520E-01
 0.7597715833937E-01
 0.8628343828880E-01
 0.9410353535693E-01
 0.9675523267631E-01
 0.9340309183035E-01
 0.7559257198176E+00
 0.7009499649896E+00
 0.6393482442793E+00
 0.5726086588422E+00
 0.5030285862442E+00
 0.4327834317825E+00
 0.3638987482186E+00
 0.2983706148117E+00
 0.2382457255937E+00
 0.1855689056091E+00
 0.1422346145861E+00
 0.1097688901405E+00
 0.8906155522983E-01
 0.8006362801268E-01
 0.8146738868722E-01
 0.9047429998030E-01
 0.1028896089247E+00
 0.1137960680032E+00
 0.1189059294879E+00
 0.1159968858502E+00
 0.8055919962896E+00
 0.7537861136035E+00
 0.6961852764311E+00
 0.6332713639817E+00
 0.5665085236767E+00
 0.4976092639049E+00
 0.4283616205597E+00
 0.3606517997534E+00
 0.2965045252294E+00
 0.2380742119303E+00
 0.1875557606121E+00
 0.1470119832737E+00
 0.1181173267429E+00
 0.1018165296319E+00
 0.9789250495863E-01
 0.1044792376053E+00
 0.1177131060257E+00
 0.1319198401663E+00
 0.1408981618640E+00
 0.1403411820607E+00
 0.8567691889820E+00
 0.8085270750483E+00
 0.7552482479869E+00
 0.6968106767985E+00
 0.6340034981175E+00
 0.5680108755910E+00
 0.5002292910296E+00
 0.4322417207739E+00
 0.3658441811009E+00
 0.3030620888016E+00
 0.2461231116355E+00
 0.1973628998399E+00
 0.1590442398992E+00
 0.1330668040493E+00
 0.1205335877855E+00
 0.1211331210629E+00
 0.1323721019328E+00
 0.1489257887651E+00
 0.1629614552564E+00
 0.1668630574192E+00
 0.9089769080593E+00
 0.8647227847747E+00
 0.8161082543908E+00
 0.7626931854986E+00
 0.7047791407318E+00
 0.6430800105560E+00
 0.5785679229906E+00
 0.5124341536637E+00
 0.4461054062525E+00
 0.3812756620965E+00
 0.3199256396482E+00
 0.2643076209313E+00
 0.2168718849112E+00
 0.1801037008804E+00
 0.1562228504232E+00
 0.1466626225123E+00
 0.1512104821487E+00
 0.1667230014574E+00
 0.1856603440725E+00
 0.1966896626134E+00
 0.9617356347885E+00
 0.9218611967345E+00
 0.8782250261031E+00
 0.8302601990611E+00
 0.7779588890950E+00
 0.7216771076154E+00
 0.6620201813120E+00
 0.5998025208310E+00
 0.5360545369857E+00
 0.4720538514406E+00
 0.4093640175920E+00
 0.3498664994938E+00
 0.2957705334672E+00
 0.2495792515616E+00
 0.2139758470008E+00
 0.1915611019437E+00
 0.1842991797308E+00
 0.1924059085831E+00
 0.2120712990777E+00
 0.2316793910297E+00
 0.1014584445969E+01
 0.9794255356390E+00
 0.9410280596127E+00
 0.8988184619462E+00
 0.8526239514426E+00
 0.8025647304715E+00
 0.7489773057543E+00
 0.6923805970734E+00
 0.6334758428353E+00
 0.5731693905156E+00
 0.5126095388398E+00
 0.4532304239902E+00
 0.3967961276904E+00
 0.3454359418952E+00
 0.3016551652648E+00
 0.2682891477111E+00
 0.2483279680267E+00
 0.2444183469512E+00
 0.2575843713460E+00
 0.2825555982506E+00
 0.1067094385595E+01
 0.1036924900920E+01
 0.1003961968244E+01
 0.9676973424240E+00
 0.9278953094377E+00
 0.8845421275938E+00
 0.8378017416307E+00
 0.7879929819007E+00
 0.7355886909327E+00
 0.6812330750374E+00
 0.6257737156849E+00
 0.5703058498344E+00
 0.5162277412114E+00
 0.4653069063070E+00
 0.4197574733152E+00
 0.3823290142713E+00
 0.3564044768679E+00
 0.3461038060400E+00
 0.3563496656477E+00
 0.3931351685185E+00
 0.1118852066387E+01
 0.1093865308188E+01
 0.1066461700151E+01
 0.1036233094545E+01
 0.1002942180290E+01
 0.9665111373579E+00
 0.9270020591354E+00
 0.8846059198371E+00
 0.8396448491690E+00
 0.7925882610509E+00
 0.7440826817744E+00
 0.6949959745822E+00
 0.6464783542085E+00
 0.6000452101582E+00
 0.5576911091772E+00
 0.5220523124675E+00
 0.4966527486246E+00
 0.4863103488869E+00
 0.4979220787522E+00
 0.5425698179551E+00
 0.1169453574000E+01
 0.1149728775855E+01
 0.1127912596664E+01
 0.1103702075525E+01
 0.1076889223907E+01
 0.1047373312989E+01
 0.1015157951613E+01
 0.9803489803862E+00
 0.9431594612589E+00
 0.9039242109801E+00
 0.8631253014289E+00
 0.8214303598486E+00
 0.7797468696339E+00
 0.7392980689781E+00
 0.7017300434052E+00
 0.6692666050929E+00
 0.6449413105127E+00
 0.6329603506358E+00
 0.6393065349266E+00
 0.6725014669517E+00
 0.1218520073209E+01
 0.1204010439237E+01
 0.1187696350268E+01
 0.1169366834646E+01
 0.1148853875637E+01
 0.1126054925726E+01
 0.1100939433009E+01
 0.1073552096989E+01
 0.1044018834275E+01
 0.1012558311020E+01
 0.9795007412600E+00
 0.9453155611879E+00
 0.9106501690556E+00
 0.8763830532202E+00
 0.8436963476811E+00
 0.8141751256291E+00
 0.7899425343171E+00
 0.7738374856282E+00
 0.7695952715994E+00
 0.7819126277345E+00
 0.1265703437693E+01
 0.1256243757252E+01
 0.1245232814781E+01
 0.1232530661564E+01
 0.1218006809790E+01
 0.1201564028945E+01
 0.1183148566428E+01
 0.1162755493147E+01
 0.1140433863262E+01
 0.1116294118356E+01
 0.1090519039507E+01
 0.1063379063645E+01
 0.1035252607720E+01
 0.1006651945569E+01
 0.9782548799127E+00
 0.9509413481482E+00
 0.9258310408827E+00
 0.9043080216931E+00
 0.8880054270826E+00
 0.8787306107233E+00
 0.1310687290019E+01
 0.1306008633408E+01
 0.1299996782128E+01
 0.1292561134089E+01
 0.1283599284560E+01
 0.1273017656604E+01
 0.1260741636635E+01
 0.1246720574905E+01
 0.1230930865599E+01
 0.1213378814476E+01
 0.1194104030199E+01
 0.1173183408185E+01
 0.1150735186573E+01
 0.1126921819307E+01
 0.1101949259314E+01
 0.1076058389918E+01
 0.1049501363074E+01
 0.1022494022112E+01
 0.9951402998196E+00
 0.9673253272010E+00
 0.1353187384157E+01
 0.1352933235939E+01
 0.1351524036806E+01
 0.1348899652864E+01
 0.1344973931510E+01
 0.1339650881527E+01
 0.1332832843095E+01
 0.1324423792149E+01
 0.1314329812117E+01
 0.1302457797792E+01
 0.1288712700819E+01
 0.1272992995819E+01
 0.1255183417046E+01
 0.1235143255067E+01
 0.1212687496301E+01
 0.1187556754083E+01
 0.1159370729031E+01
 0.1127559361621E+01
 0.1091269265802E+01
 0.1049260529600E+01
 0.1392952139928E+01
 0.1396693904856E+01
 0.1399413025931E+01
 0.1401064845460E+01
 0.1401568134777E+01
 0.1400817260127E+01
 0.1398687939948E+01
 0.1395038504940E+01
 0.1389707949814E+01
 0.1382511447457E+01
 0.1373233462613E+01
 0.1361618142888E+01
 0.1347356237249E+01
 0.1330067358296E+01
 0.1309275945878E+01
 0.1284378855547E+01
 0.1254601953111E+01
 0.1218942098836E+01
 0.1176084825707E+01
 0.1124289532570E+01
 0.1429763105813E+01
 0.1437014262561E+01
 0.1443324179003E+01
 0.1448652389141E+01
 0.1452913135108E+01
 0.1455984711541E+01
 0.1457713269354E+01
 0.1457912408449E+01
 0.1456359517788E+01
 0.1452789397270E+01
 0.1446885343360E+01
 0.1438267622467E+01
 0.1426479092049E+01
 0.1410967675292E+01
 0.1391065493474E+01
 0.1365964734590E+01
 0.1334690760395E+01
 0.1296072785632E+01
 0.1248711487237E+01
 0.1190902637088E+01
 0.1463435057213E+01
 0.1473663721177E+01
 0.1482977699303E+01
 0.1491332363288E+01
 0.1498630064205E+01
 0.1504728220403E+01
 0.1509442047531E+01
 0.1512543258999E+01
 0.1513755674226E+01
 0.1512748305194E+01
 0.1509126261708E+01
 0.1502419705806E+01
 0.1492071108652E+01
 0.1477421250089E+01
 0.1457694804041E+01
 0.1431987062957E+01
 0.1399254528561E+01
 0.1358314472778E+01
 0.1307863282906E+01
 0.1246554635708E+01
 0.1493814545380E+01
 0.1506454128736E+01
 0.1518149049065E+01
 0.1528843636430E+01
 0.1538422687186E+01
 0.1546719624911E+01
 0.1553519069384E+01
 0.1558555561949E+01
 0.1561509467688E+01
 0.1562000747041E+01
 0.1559581107895E+01
 0.1553724996834E+01
 0.1543819959727E+01
 0.1529157112280E+01
 0.1508922843244E+01
 0.1482193495975E+01
 0.1447935830871E+01
 0.1405018161899E+01
 0.1352242397032E+01
 0.1288433529677E+01
 0.1520776857208E+01
 0.1535235464968E+01
 0.1548663168940E+01
 0.1560986759419E+01
 0.1572069151284E+01
 0.1581718059723E+01
 0.1589689298762E+01
 0.1595686394564E+01
 0.1599357676971E+01
 0.1600291678286E+01
 0.1598011483388E+01
 0.1591968589790E+01
 0.1581536830269E+01
 0.1566006965043E+01
 0.1544582646139E+01
 0.1516378558250E+01
 0.1480421573111E+01
 0.1435655176581E+01
 0.1380945402872E+01
 0.1315049500337E+01
 0.1544228639395E+01
 0.1559899943708E+01
 0.1574398335400E+01
 0.1587627617823E+01
 0.1599425291925E+01
 0.1609572599648E+01
 0.1617799330685E+01
 0.1623785027087E+01
 0.1627157897340E+01
 0.1627492426335E+01
 0.1624306422150E+01
 0.1617058063530E+01
 0.1605143365055E+01
 0.1587894310059E+01
 0.1564577643902E+01
 0.1534393867822E+01
 0.1496475048828E+01
 0.1449878205306E+01
 0.1393564094910E+01
 0.1326350650620E+01
 0.1564105630249E+01
 0.1580378822429E+01
 0.1595282475383E+01
 0.1608692529945E+01
 0.1620417775204E+01
 0.1630212614368E+01
 0.1637784107717E+01
 0.1642795204988E+01
 0.1644865776270E+01
 0.1643572640602E+01
 0.1638449434458E+01
 0.1628986870768E+01
 0.1614633668268E+01
 0.1594798112056E+01
 0.1568849756510E+01
 0.1536120095640E+01
 0.1495900083157E+01
 0.1447431115400E+01
 0.1389887994789E+01
 0.1322365695746E+01
 0.1580371124700E+01
 0.1596639563227E+01
 0.1611289474314E+01
 0.1624163331332E+01
 0.1635037488731E+01
 0.1643639195674E+01
 0.1649656389178E+01
 0.1652743013392E+01
 0.1652522060091E+01
 0.1648587850827E+01
 0.1640508540146E+01
 0.1627829418780E+01
 0.1610077276775E+01
 0.1586765779689E+01
 0.1557401449107E+01
 0.1521489386774E+01
 0.1478537365534E+01
 0.1428057170690E+01
 0.1369564635936E+01
 0.1302580632962E+01
 0.1593014608803E+01
 0.1608683875152E+01
 0.1622436420487E+01
 0.1634073491331E+01
 0.1643334300551E+01
 0.1649918683948E+01
 0.1653499609424E+01
 0.1653730090008E+01
 0.1650247667253E+01
 0.1642678416193E+01
 0.1630641603942E+01
 0.1613755637815E+01
 0.1591645662275E+01
 0.1563953037668E+01
 0.1530346932712E+01
 0.1490538377881E+01
 0.1444297342327E+01
 0.1391473171094E+01
 0.1332016204250E+01
 0.1265992723393E+01
 0.1602050229613E+01
 0.1616546245507E+01
 0.1628781653359E+01
 0.1638505047391E+01
 0.1645412669411E+01
 0.1649177265601E+01
 0.1649462263147E+01
 0.1645929030068E+01
 0.1638241742965E+01
 0.1626072252718E+01
 0.1609106142588E+01
 0.1587050591678E+01
 0.1559644472006E+01
 0.1526671237070E+01
 0.1487975620718E+01
 0.1443486040417E+01
 0.1393245855296E+01
 0.1337457471401E+01
 0.1276539959586E+01
 0.1211189344058E+01
 0.1607515159585E+01
 0.1620292940902E+01
 0.1630423408217E+01
 0.1637586018213E+01
 0.1641427670822E+01
 0.1641596144736E+01
 0.1637753259728E+01
 0.1629580322336E+01
 0.1616781874155E+01
 0.1599090334509E+01
 0.1576272518172E+01
 0.1548138351678E+01
 0.1514551995334E+01
 0.1475445857422E+01
 0.1430838708479E+01
 0.1380860461672E+01
 0.1325788642812E+01
 0.1266106403409E+01
 0.1202601778938E+01
 0.1136529024938E+01
 0.1609468172539E+01
 0.1620021770683E+01
 0.1627498892905E+01
 0.1631487584685E+01
 0.1631580267488E+01
 0.1627405741949E+01
 0.1618636373885E+01
 0.1604988625592E+01
 0.1586223912011E+01
 0.1562151959211E+01
 0.1532636910470E+01
 0.1497605750797E+01
 0.1457058486561E+01
 0.1411079662616E+01
 0.1359851171317E+01
 0.1303667097086E+01
 0.1242953169011E+01
 0.1178298664306E+01
 0.1110528452115E+01
 0.1040919027424E+01
 0.1607989177720E+01
 0.1615862872983E+01
 0.1620181938476E+01
 0.1620416974917E+01
 0.1616105797367E+01
 0.1606871223448E+01
 0.1592414698107E+01
 0.1572508070035E+01
 0.1546989931019E+01
 0.1515767098273E+01
 0.1478819985878E+01
 0.1436210098409E+01
 0.1388087696354E+01
 0.1334697365152E+01
 0.1276378483521E+01
 0.1213556031971E+01
 0.1146714530300E+01
 0.1076342763867E+01
 0.1002824642894E+01
 0.9262723310553E+00
 0.1603181120056E+01
 0.1607977574811E+01
 0.1608670359726E+01
 0.1604592102217E+01
 0.1595237715341E+01
 0.1580248490671E+01
 0.1559382139069E+01
 0.1532492085242E+01
 0.1499518639271E+01
 0.1460489212667E+01
 0.1415523855377E+01
 0.1364842528520E+01
 0.1308770466711E+01
 0.1247737227353E+01
 0.1182262842282E+01
 0.1112919851466E+01
 0.1040249924076E+01
 0.9645934248801E+00
 0.8857328160530E+00
 0.8019754017217E+00
 0.1595165216585E+01
 0.1596537829661E+01
 0.1593150552094E+01
 0.1584195807575E+01
 0.1569158553164E+01
 0.1547738773268E+01
 0.1519787062903E+01
 0.1485269430702E+01
 0.1444254784520E+01
 0.1396916227528E+01
 0.1343539030135E+01
 0.1284529625303E+01
 0.1220420778189E+01
 0.1151867445018E+01
 0.1079625275769E+01
 0.1004497595499E+01
 0.9272250277180E+00
 0.8482640396928E+00
 0.7673682829413E+00
 0.6828015566770E+00
 0.1584081790488E+01
 0.1581717485059E+01
 0.1573789823692E+01
 0.1559378338090E+01
 0.1538020257895E+01
 0.1509530960853E+01
 0.1473896184211E+01
 0.1431224522792E+01
 0.1381735800348E+01
 0.1325767606202E+01
 0.1263788163887E+01
 0.1196408537520E+01
 0.1124389500907E+01
 0.1048639224859E+01
 0.9701969405688E+00
 0.8901956395567E+00
 0.8097922182863E+00
 0.7300572623341E+00
 0.6518061599956E+00
 0.5759048841289E+00
 0.1570119400595E+01
 0.1563728122730E+01
 0.1550771762562E+01
 0.1530296508195E+01
 0.1501989902564E+01
 0.1465850621781E+01
 0.1422037439783E+01
 0.1370819110043E+01
 0.1312573717557E+01
 0.1247805416925E+01
 0.1177163696949E+01
 0.1101458292243E+01
 0.1021668828211E+01
 0.9389508961390E+00
 0.8546434492065E+00
 0.7702889403840E+00
 0.6876962641397E+00
 0.6091090503083E+00
 0.5376792036370E+00
 0.4780982600824E+00
 0.1553520168411E+01
 0.1542813361863E+01
 0.1524287830436E+01
 0.1497118563557E+01
 0.1461278426411E+01
 0.1417015221218E+01
 0.1364675948998E+01
 0.1304682259034E+01
 0.1237554656908E+01
 0.1163945175206E+01
 0.1084659978239E+01
 0.1000673933143E+01
 0.9131435329653E+00
 0.8234281668957E+00
 0.7331374997938E+00
 0.6442411776826E+00
 0.5593134740660E+00
 0.4820754318498E+00
 0.4184988932541E+00
 0.3788144149272E+00
 0.1534587453579E+01
 0.1519235233867E+01
 0.1494517168616E+01
 0.1460021845886E+01
 0.1416172389018E+01
 0.1363493350289E+01
 0.1302492169685E+01
 0.1233700107392E+01
 0.1157748055340E+01
 0.1075405043816E+01
 0.9875946166971E+00
 0.8954040898998E+00
 0.8000998367783E+00
 0.7031648913563E+00
 0.6063863639968E+00
 0.5120433864024E+00
 0.4232968202419E+00
 0.3449638293534E+00
 0.2850705956607E+00
 0.2583933028246E+00
 0.1513685580407E+01
 0.1493226534182E+01
 0.1461576085731E+01
 0.1419204749409E+01
 0.1367112427192E+01
 0.1306046950904E+01
 0.1236560908280E+01
 0.1159252805611E+01
 0.1074850002859E+01
 0.9842300761520E+00
 0.8884262048895E+00
 0.7886375176556E+00
 0.6862601712477E+00
 0.5829594024924E+00
 0.4808154544933E+00
 0.3825997812237E+00
 0.2922726420437E+00
 0.2158723848076E+00
 0.1630798174377E+00
 0.1505501365066E+00
 0.1491279282572E+01
 0.1464991133521E+01
 0.1425582113900E+01
 0.1375076145367E+01
 0.1315057390231E+01
 0.1246089710781E+01
 0.1168709057250E+01
 0.1083606752770E+01
 0.9916463196501E+00
 0.8938610169572E+00
 0.7914611351303E+00
 0.6858650381263E+00
 0.5787670070527E+00
 0.4722620612636E+00
 0.3690572859165E+00
 0.2728081476760E+00
 0.1886266151591E+00
 0.1237825419164E+00
 0.8869852962251E-01
 0.9716412100209E-01
 0.1468040475245E+01
 0.1434302904514E+01
 0.1386204201282E+01
 0.1328413579237E+01
 0.1261316585953E+01
 0.1185258480599E+01
 0.1100904554274E+01
 0.1009137874354E+01
 0.9110340644552E+00
 0.8078596541481E+00
 0.7010992838860E+00
 0.5925120578768E+00
 0.4842263205413E+00
 0.3788842185211E+00
 0.2798456914122E+00
 0.1914490347765E+00
 0.1192806246162E+00
 0.7031465198616E-01
 0.5246538127760E-01
 0.7188578291317E-01
 0.1443128228622E+01
 0.1398020415752E+01
 0.1344170940588E+01
 0.1280668700803E+01
 0.1207445487729E+01
 0.1125315822976E+01
 0.1035248449143E+01
 0.9383905663309E+00
 0.8360699110555E+00
 0.7298240670770E+00
 0.6214409716189E+00
 0.5130188349124E+00
 0.4070485042642E+00
 0.3065171538013E+00
 0.2150200731968E+00
 0.1368375019998E+00
 0.7686833457972E-01
 0.4015841686680E-01
 0.3047320979345E-01
 0.4565267334660E-01
</DataArray>
<DataArray type="Float64" Name="OI" NumberOfComponents="1" ComponentName0="OI" format="ascii">
 0.5455445272534E+00
 0.5580992086388E+00
 0.5549853150742E+00
 0.5621124817075E+00
 0.5630416068020E+00
 0.5602541163617E+00
 0.5536405263427E+00
 0.5437646209734E+00
 0.5309928336655E+00
 0.5156430386734E+00
 0.4979495545219E+00
 0.4780783225243E+00
 0.4561314253073E+00
 0.4321535381757E+00
 0.4061370844457E+00
 0.3780269824725E+00
 0.3477248672261E+00
 0.3150945831061E+00
 0.2799636822509E+00
 0.2421286904074E+00
 0.2013550983317E+00
 0.1573743170716E+00
 0.1098688111457E+00
 0.5842147544335E-01
 0.2496534031510E-02
 0.5828951027502E-01
 0.1238260026955E+00
 0.1935664573695E+00
 0.2666785675306E+00
 0.3421911609865E+00
 0.4190369462248E+00
 0.4959809487398E+00
 0.5714410750954E+00
 0.6439452532849E+00
 0.7133943869154E+00
 0.7805003046665E+00
 0.8492290365631E+00
 0.9160918962467E+00
 0.1036044864242E+01
 0.1015730591632E+01
 0.1825077394329E+01
 0.4724539538285E+00
 0.5233867377119E+00
 0.5183813184626E+00
 0.5183187410548E+00
 0.5176077217181E+00
 0.5136181669280E+00
 0.5066620917403E+00
 0.4968197592185E+00
 0.4843522502311E+00
 0.4694781706452E+00
 0.4523809977801E+00
 0.4331943602928E+00
 0.4120027580509E+00
 0.3888428895717E+00
 0.3637065322471E+00
 0.3365438248340E+00
 0.3072667146937E+00
 0.2757530407719E+00
 0.2418495683886E+00
 0.2053749871289E+00
 0.1661220732441E+00
 0.1238546448726E+00
 0.7829793312351E-01
 0.2915287743318E-01
 0.2383771316244E-01
 0.8068242871887E-01
 0.1411801208498E+00
 0.2048258070027E+00
 0.2708887095257E+00
 0.3384595972492E+00
 0.4064570760190E+00
 0.4736185032235E+00
 0.5385876182921E+00
 0.6001444261398E+00
 0.6572419872801E+00
 0.7093879553495E+00
 0.7541226516673E+00
 0.7941552422181E+00
 0.8035696365360E+00
 0.6820650895047E+00
 0.1129186309764E+01
 0.4181036547865E+00
 0.4734964815166E+00
 0.4792626655412E+00
 0.4760039522332E+00
 0.4732555855873E+00
 0.4683015408493E+00
 0.4608720530683E+00
 0.4509778679033E+00
 0.4387230607359E+00
 0.4242545826489E+00
 0.4077033989424E+00
 0.3891721290596E+00
 0.3687268054124E+00
 0.3463952168584E+00
 0.3221673748363E+00
 0.2959974686184E+00
 0.2678063708912E+00
 0.2374853364293E+00
 0.2048990070265E+00
 0.1698886993227E+00
 0.1322759310489E+00
 0.9186327901324E-01
 0.4844470036292E-01
 0.2249768448937E-02
 0.4803605058430E-01
 0.1009274358475E+00
 0.1565770644586E+00
 0.2144913224876E+00
 0.2739969762292E+00
 0.3342305213287E+00
 0.3941307046648E+00
 0.4524768445618E+00
 0.5079985286815E+00
 0.5593349033274E+00
 0.6048679792856E+00
 0.6421604149146E+00
 0.6674702323249E+00
 0.6739785533608E+00
 0.6167476832046E+00
 0.5364334604288E+00
 0.9513577702157E+00
 0.3715344001814E+00
 0.4231681891331E+00
 0.4361768440508E+00
 0.4339864733140E+00
 0.4297837745365E+00
 0.4239985215818E+00
 0.4161286129647E+00
 0.4061309721524E+00
 0.3940343115834E+00
 0.3799202381570E+00
 0.3638773437576E+00
 0.3459793012145E+00
 0.3262746960162E+00
 0.3047822573148E+00
 0.2814896620553E+00
 0.2563542738296E+00
 0.2293049587037E+00
 0.2002455080946E+00
 0.1690577721708E+00
 0.1356058916203E+00
 0.9974228660920E-01
 0.6131795561288E-01
 0.2025456717639E-01
 0.2390275332801E-01
 0.7042078020351E-01
 0.1193955561265E+00
 0.1703987823867E+00
 0.2229360142554E+00
 0.2763696158890E+00
 0.3298780915425E+00
 0.3824439545934E+00
 0.4328982924573E+00
 0.4799649704735E+00
 0.5221138665034E+00
 0.5571726813222E+00
 0.5817723085080E+00
 0.5908978538988E+00
 0.5715756657253E+00
 0.5046992451463E+00
 0.5034305424741E+00
 0.8965299093775E+00
 0.3289458328532E+00
 0.3748552236529E+00
 0.3914819085063E+00
 0.3914932800809E+00
 0.3869187302450E+00
 0.3805109983537E+00
 0.3722830444829E+00
 0.3621810698408E+00
 0.3502137012747E+00
 0.3364216992744E+00
 0.3208606840844E+00
 0.3035805562371E+00
 0.2846144278122E+00
 0.2639726746119E+00
 0.2416405428396E+00
 0.2175780646079E+00
 0.1917214129347E+00
 0.1639862441177E+00
 0.1342713558885E+00
 0.1024647763877E+00
 0.6845604347996E-01
 0.3218615363518E-01
 0.7550424542123E-02
 0.4800965800417E-01
 0.9127163569234E-01
 0.1364106239802E+00
 0.1829833379497E+00
 0.2304954380516E+00
 0.2783378112526E+00
 0.3257338765811E+00
 0.3717228861030E+00
 0.4151845206620E+00
 0.4548275161101E+00
 0.4889869777160E+00
 0.5152040196377E+00
 0.5298649118673E+00
 0.5272923124850E+00
 0.4980858817296E+00
 0.4529164121055E+00
 0.5214646424312E+00
 0.8814469749184E+00
 0.2886966408673E+00
 0.3287412867800E+00
 0.3466205052980E+00
 0.3486485423302E+00
 0.3444048105724E+00
 0.3376917953481E+00
 0.3292104290462E+00
 0.3190363431928E+00
 0.3071923628686E+00
 0.2937054661327E+00
 0.2786101807371E+00
 0.2619388103830E+00
 0.2437120493694E+00
 0.2239332429219E+00
 0.2025855950355E+00
 0.1796316877011E+00
 0.1550147137757E+00
 0.1286621655387E+00
 0.1004910789325E+00
 0.7042003576672E-01
 0.3841653977355E-01
 0.6027333568205E-02
 0.3268999070345E-01
 0.7082651934936E-01
 0.1108393265012E+00
 0.1522574022425E+00
 0.1946293370190E+00
 0.2374682734709E+00
 0.2801955800327E+00
 0.3220857518516E+00
 0.3622434828732E+00
 0.3996052674185E+00
 0.4328939501220E+00
 0.4604145149906E+00
 0.4797389754770E+00
 0.4875029090298E+00
 0.4792934978478E+00
 0.4539180376602E+00
 0.4421092778649E+00
 0.5587187358299E+00
 0.8826293392111E+00
 0.2499710168247E+00
 0.2845670608191E+00
 0.3022924310537E+00
 0.3057741257616E+00
 0.3021569516775E+00
 0.2954227047240E+00
 0.2868131332449E+00
 0.2766157264335E+00
 0.2649065626927E+00
 0.2517202191692E+00
 0.2370831576781E+00
 0.2210168620624E+00
 0.2035333143913E+00
 0.1846307169345E+00
 0.1642911374870E+00
 0.1424802124371E+00
 0.1191489167372E+00
 0.9423905922462E-01
 0.6769556203332E-01
 0.3951896754212E-01
 0.1064406636195E-01
 0.2378154012922E-01
 0.5716632656690E-01
 0.9253164046565E-01
 0.1293493429506E+00
 0.1671872729288E+00
 0.2055996819908E+00
 0.2441174749624E+00
 0.2821994339231E+00
 0.3191792708636E+00
 0.3542375761671E+00
 0.3863875603808E+00
 0.4144197769788E+00
 0.4367480152115E+00
 0.4512476944205E+00
 0.4553749804505E+00
 0.4474984425130E+00
 0.4346643746286E+00
 0.4567576206397E+00
 0.6017605005668E+00
 0.8920044767537E+00
 0.2123215407301E+00
 0.2420271473623E+00
 0.2588006422750E+00
 0.2631526405279E+00
 0.2601981995652E+00
 0.2536330834825E+00
 0.2450164281528E+00
 0.2348525843232E+00
 0.2233002010622E+00
 0.2104193065708E+00
 0.1962400129084E+00
 0.1807800207900E+00
 0.1640467136960E+00
 0.1460356572697E+00
 0.1267296062582E+00
 0.1060994907141E+00
 0.8410909587438E-01
 0.6073107385308E-01
 0.3601982199825E-01
 0.1121993607106E-01
 0.2058175977268E-01
 0.4961062488106E-01
 0.8071418240823E-01
 0.1132984965383E+00
 0.1470045653997E+00
 0.1814222998700E+00
 0.2161247539726E+00
 0.2506718825370E+00
 0.2845692998830E+00
 0.3172198714381E+00
 0.3478939364011E+00
 0.3757097027156E+00
 0.3995917343139E+00
 0.4181975237844E+00
 0.4299459795800E+00
 0.4335985025897E+00
 0.4308287952283E+00
 0.4347785379367E+00
 0.4860425776513E+00
 0.6455237058451E+00
 0.9063055439207E+00
 0.1754836900657E+00
 0.2008577546004E+00
 0.2162528261756E+00
 0.2209852070840E+00
 0.2185963468012E+00
 0.2122973375787E+00
 0.2037708963461E+00
 0.1936972513382E+00
 0.1823290023212E+00
 0.1697650684860E+00
 0.1560491079261E+00
 0.1412018840661E+00
 0.1252309021324E+00
 0.1081330102937E+00
 0.8989663999465E-01
 0.7050860455518E-01
 0.4997928392154E-01
 0.2848515419913E-01
 0.8987875290128E-02
 0.2223931986943E-01
 0.4753073812233E-01
 0.7477383972496E-01
 0.1034452395008E+00
 0.1332883429418E+00
 0.1639872137407E+00
 0.1951582747442E+00
 0.2264051568872E+00
 0.2573281465335E+00
 0.2874902206972E+00
 0.3163748229119E+00
 0.3433587255090E+00
 0.3676979025390E+00
 0.3885173229605E+00
 0.4048343532424E+00
 0.4158001456233E+00
 0.4217291597711E+00
 0.4273112135792E+00
 0.4490642089611E+00
 0.5231543541063E+00
 0.6883311633761E+00
 0.9240250928830E+00
 0.1392914969802E+00
 0.1608504388010E+00
 0.1746680563739E+00
 0.1794071036061E+00
 0.1774339548642E+00
 0.1714275077691E+00
 0.1630576546741E+00
 0.1531241836528E+00
 0.1419695342461E+00
 0.1297395881650E+00
 0.1164998921481E+00
 0.1022816018033E+00
 0.8709978703825E-01
 0.7096371006487E-01
 0.5389358146636E-01
 0.3598467517990E-01
 0.1788823357795E-01
 0.1027966471606E-01
 0.2814727439566E-01
 0.5034351033620E-01
 0.7414790977664E-01
 0.9924932883420E-01
 0.1254835597741E+00
 0.1526493976265E+00
 0.1804604438367E+00
 0.2085671588678E+00
 0.2366141720003E+00
 0.2642528545906E+00
 0.2911143921212E+00
 0.3167751211936E+00
 0.3407363972169E+00
 0.3624248426033E+00
 0.3812239346388E+00
 0.3965993695159E+00
 0.4085426775957E+00
 0.4189093079176E+00
 0.4346531282544E+00
 0.4732215621244E+00
 0.5641183506352E+00
 0.7298043607097E+00
 0.9443757186345E+00
 0.1036367002964E+00
 0.1218523086564E+00
 0.1340396337587E+00
 0.1385222908469E+00
 0.1368099958315E+00
 0.1310795137866E+00
 0.1229057919366E+00
 0.1131553807355E+00
 0.1022481577296E+00
 0.9038158089422E-01
 0.7765315212042E-01
 0.6412001108384E-01
 0.4983669981615E-01
 0.3492038293284E-01
 0.1988535230973E-01
 0.9756345911636E-02
 0.2027186313530E-01
 0.3801721442334E-01
 0.5754902036528E-01
 0.7832111157592E-01
 0.1002059634488E+00
 0.1231200877060E+00
 0.1469487759317E+00
 0.1715169660042E+00
 0.1965697380475E+00
 0.2217991524860E+00
 0.2469000139398E+00
 0.2715847398257E+00
 0.2955633487246E+00
 0.3185175365472E+00
 0.3400911683773E+00
 0.3599107917966E+00
 0.3776629558150E+00
 0.3933146027998E+00
 0.4077126856274E+00
 0.4240377215273E+00
 0.4505951865970E+00
 0.5039763654339E+00
 0.6067266009186E+00
 0.7700307345928E+00
 0.9668936036802E+00
 0.6845168270122E-01
 0.8378134772931E-01
 0.9439963174513E-01
 0.9846953186947E-01
 0.9689282884628E-01
 0.9141195541107E-01
 0.8346916942259E-01
 0.7396046273655E-01
 0.6337592775525E-01
 0.5198426875038E-01
 0.3997299825234E-01
 0.2760801121850E-01
 0.1585696308172E-01
 0.1106337553931E-01
 0.2086652117483E-01
 0.3544556824764E-01
 0.5155996632236E-01
 0.6872290205178E-01
 0.8682792469194E-01
 0.1058441883834E+00
 0.1257454429538E+00
 0.1464800822669E+00
 0.1679530375048E+00
 0.1900138674943E+00
 0.2124441814422E+00
 0.2349845369274E+00
 0.2573879468189E+00
 0.2794368990015E+00
 0.3009302362539E+00
 0.3216668511445E+00
 0.3414491949469E+00
 0.3601266700234E+00
 0.3777164868712E+00
 0.3947001323481E+00
 0.4127100026817E+00
 0.4359146167952E+00
 0.4731128425760E+00
 0.5389780910629E+00
 0.6497982428437E+00
 0.8092382590676E+00
 0.9912718893930E+00
 0.3373493333584E-01
 0.4675804899549E-01
 0.5602637627113E-01
 0.5966946283422E-01
 0.5820347584150E-01
 0.5303974778903E-01
 0.4551112138420E-01
 0.3658940066045E-01
 0.2702789175835E-01
 0.1791649582626E-01
 0.1280226850282E-01
 0.1742044785985E-01
 0.2794659123128E-01
 0.4047838139046E-01
 0.5404631091325E-01
 0.6839895097964E-01
 0.8346662210309E-01
 0.9923837797818E-01
 0.1157222496543E+00
 0.1329251944824E+00
 0.1508378578732E+00
 0.1694218688312E+00
 0.1886002478700E+00
 0.2082509982873E+00
 0.2281976624362E+00
 0.2482353625585E+00
 0.2681822842854E+00
 0.2878989807517E+00
 0.3072821319486E+00
 0.3262583017427E+00
 0.3448014107012E+00
 0.3629984541512E+00
 0.3812061953123E+00
 0.4003957614621E+00
 0.4228517894362E+00
 0.4533528319679E+00
 0.5005078786811E+00
 0.5766035105713E+00
 0.6927292748041E+00
 0.8476720824996E+00
 0.1017285209449E+01
 0.3963771520453E-02
 0.1362595226246E-01
 0.2168619463497E-01
 0.2518340967263E-01
 0.2454682908444E-01
 0.2137023211032E-01
 0.1802887301961E-01
 0.1774735399143E-01
 0.2235010453729E-01
 0.3044135052813E-01
 0.4037908070105E-01
 0.5136920148464E-01
 0.6307167132720E-01
 0.7533890181659E-01
 0.8811114338180E-01
 0.1013732796292E+00
 0.1151342861350E+00
 0.1294147376275E+00
 0.1442376246219E+00
 0.1596192436074E+00
 0.1755595236796E+00
 0.1920335509619E+00
 0.2089859672969E+00
 0.2263279712332E+00
 0.2439300229756E+00
 0.2616470273583E+00
 0.2793682914054E+00
 0.2970393270415E+00
 0.3146623944168E+00
 0.3323002223011E+00
 0.3501069176099E+00
 0.3684126313365E+00
 0.3879041153000E+00
 0.4099854902042E+00
 0.4374246470525E+00
 0.4752536377213E+00
 0.5314210870254E+00
 0.6157579190122E+00
 0.7352328113263E+00
 0.8855515628418E+00
 0.1044753402672E+01
 0.3534197929885E-01
 0.2970919559276E-01
 0.2737580367915E-01
 0.2792061364218E-01
 0.3035641881801E-01
 0.3453160631691E-01
 0.4051369969531E-01
 0.4809610926577E-01
 0.5690416951455E-01
 0.6658864652910E-01
 0.7689645059626E-01
 0.8766567152612E-01
 0.9880213824743E-01
 0.1102585951550E+00
 0.1220198707668E+00
 0.1340926258259E+00
 0.1464977755752E+00
 0.1592636801522E+00
 0.1724199014665E+00
 0.1859902780746E+00
 0.1999855914650E+00
 0.2143978293038E+00
 0.2291975979932E+00
 0.2443338095384E+00
 0.2597281773459E+00
 0.2752997773134E+00
 0.2910140057857E+00
 0.3069070666984E+00
 0.3230930387223E+00
 0.3397768701962E+00
 0.3572968400630E+00
 0.3762225442859E+00
 0.3975448941938E+00
 0.4230223351971E+00
 0.4557275417935E+00
 0.5006488998820E+00
 0.5647991103426E+00
 0.6557131567377E+00
 0.7771915963428E+00
 0.9230585756737E+00
 0.1073523231875E+01
 0.6912384481738E-01
 0.6453614832219E-01
 0.6198228325760E-01
 0.6221152362276E-01
 0.6510039135104E-01
 0.7021592792219E-01
 0.7706651896188E-01
 0.8518678156337E-01
 0.9418739950121E-01
 0.1037762982456E+00
 0.1137524162809E+00
 0.1239872723001E+00
 0.1344061457122E+00
 0.1449731607115E+00
 0.1556804019512E+00
 0.1665399373358E+00
 0.1775775646442E+00
 0.1888269809451E+00
 0.2003244788877E+00
 0.2121033024707E+00
 0.2241881490702E+00
 0.2365917298866E+00
 0.2493147122004E+00
 0.2623476704298E+00
 0.2756672010869E+00
 0.2892601399530E+00
 0.3031719847234E+00
 0.3175341598411E+00
 0.3325771308050E+00
 0.3486514102953E+00
 0.3662785617175E+00
 0.3862554062086E+00
 0.4098386246059E+00
 0.4390510681589E+00
 0.4771028341478E+00
 0.5287157656440E+00
 0.5998429403172E+00
 0.6959888889931E+00
 0.8185737020097E+00
 0.9603362536481E+00
 0.1103458614878E+01
 0.1027161335654E+00
 0.9969029385458E-01
 0.9814132024612E-01
 0.9895966141591E-01
 0.1022403046099E+00
 0.1076363145172E+00
 0.1146479262695E+00
 0.1227884912206E+00
 0.1316584820578E+00
 0.1409625795796E+00
 0.1504983887014E+00
 0.1601364944810E+00
 0.1698017276370E+00
 0.1794585833829E+00
 0.1891005669160E+00
 0.1987423717930E+00
 0.2084138196939E+00
 0.2181544302524E+00
 0.2280087658008E+00
 0.2380218930405E+00
 0.2482355319895E+00
 0.2586866304377E+00
 0.2694094748007E+00
 0.2804395956735E+00
 0.2918114016656E+00
 0.3035823089818E+00
 0.3158809943292E+00
 0.3289374033914E+00
 0.3431012014270E+00
 0.3588690281638E+00
 0.3769402390627E+00
 0.3983196355390E+00
 0.4244832386474E+00
 0.4576269645172E+00
 0.5009551635414E+00
 0.5587726985522E+00
 0.6359549350808E+00
 0.7362713192480E+00
 0.8593840245987E+00
 0.9974873992388E+00
 0.1134433729535E+01
 0.1360909070234E+00
 0.1346206025452E+00
 0.1342391925369E+00
 0.1358218530841E+00
 0.1395575867909E+00
 0.1451911933601E+00
 0.1522773071023E+00
 0.1603536739797E+00
 0.1690275421384E+00
 0.1780014550548E+00
 0.1870675704949E+00
 0.1960909779142E+00
 0.2049925162502E+00
 0.2137347277052E+00
 0.2223112814751E+00
 0.2307391262460E+00
 0.2390524973686E+00
 0.2472978192967E+00
 0.2555296600047E+00
 0.2638072406222E+00
 0.2721920987168E+00
 0.2807484411148E+00
 0.2895471258070E+00
 0.2986712768263E+00
 0.3082153694362E+00
 0.3183094844587E+00
 0.3291676456447E+00
 0.3411203982349E+00
 0.3546376662687E+00
 0.3703601189079E+00
 0.3891554299394E+00
 0.4122120671895E+00
 0.4411755087575E+00
 0.4783296020432E+00
 0.5267598211792E+00
 0.5902656166895E+00
 0.6726912464452E+00
 0.7763609052625E+00
 0.8996405794588E+00
 0.1034563465982E+01
 0.1166323945718E+01
 0.1692579134270E+00
 0.1692666175696E+00
 0.1700669860302E+00
 0.1724718505811E+00
 0.1767122489295E+00
 0.1826057990984E+00
 0.1897672884492E+00
 0.1977701083241E+00
 0.2062363102570E+00
 0.2148703066725E+00
 0.2234602168615E+00
 0.2318657793218E+00
 0.2400035601191E+00
 0.2478338902445E+00
 0.2553505869290E+00
 0.2625731869557E+00
 0.2695410808790E+00
 0.2763087864605E+00
 0.2829425274211E+00
 0.2895177565309E+00
 0.2961182172735E+00
 0.3028378699713E+00
 0.3097864957161E+00
 0.3170968209333E+00
 0.3249250022019E+00
 0.3334751665028E+00
 0.3430479761487E+00
 0.3540754705630E+00
 0.3671472251266E+00
 0.3830434743926E+00
 0.4027876347009E+00
 0.4277246053937E+00
 0.4596199897036E+00
 0.5007716900226E+00
 0.5540634396187E+00
 0.6227496453336E+00
 0.7097248741663E+00
 0.8161299776305E+00
 0.9393917930519E+00
 0.1071530950625E+01
 0.1198958086951E+01
 0.2022319788165E+00
 0.2036336675779E+00
 0.2055922598821E+00
 0.2088412593013E+00
 0.2136240941995E+00
 0.2198112889980E+00
 0.2270712156128E+00
 0.2350139671724E+00
 0.2432798194542E+00
 0.2515782484425E+00
 0.2596955455645E+00
 0.2674874063750E+00
 0.2748668623587E+00
 0.2817925217364E+00
 0.2882588213469E+00
 0.2942884948921E+00
 0.2999269352007E+00
 0.3052379019899E+00
 0.3103007502396E+00
 0.3152089364035E+00
 0.3200703726621E+00
 0.3250107483721E+00
 0.3301805475322E+00
 0.3357635173959E+00
 0.3419785084494E+00
 0.3491044096903E+00
 0.3575289820386E+00
 0.3677855435456E+00
 0.3805812126253E+00
 0.3968293837326E+00
 0.4176945625564E+00
 0.4446499657862E+00
 0.4795357076022E+00
 0.5246034111866E+00
 0.5824803441989E+00
 0.6558690776964E+00
 0.7468195840741E+00
 0.8554935243431E+00
 0.9787019990280E+00
 0.1108448532781E+01
 0.1231743726149E+01
 0.2350276196062E+00
 0.2377378548348E+00
 0.2408174902876E+00
 0.2449148719800E+00
 0.2502667303201E+00
 0.2567791975706E+00
 0.2641646504672E+00
 0.2720670809599E+00
 0.2801459114638E+00
 0.2881178649317E+00
 0.2957695342710E+00
 0.3029542090198E+00
 0.3095825482021E+00
 0.3156122968182E+00
 0.3210392486351E+00
 0.3258900919975E+00
 0.3302171016468E+00
 0.3340943435599E+00
 0.3376155747501E+00
 0.3408936995575E+00
 0.3440623166709E+00
 0.3472802787990E+00
 0.3507399445337E+00
 0.3546768463450E+00
 0.3593728364761E+00
 0.3651814736447E+00
 0.3725770727305E+00
 0.3821927253750E+00
 0.3948493691316E+00
 0.4115853307976E+00
 0.4336901078977E+00
 0.4627376790162E+00
 0.5006026102156E+00
 0.5494444836363E+00
 0.6116024941404E+00
 0.6892489078284E+00
 0.7836863040718E+00
 0.8943257955617E+00
 0.1017403684475E+01
 0.1145616365718E+01
 0.1264157554092E+01
 0.2676604550186E+00
 0.2716032445927E+00
 0.2757653085288E+00
 0.2807087005842E+00
 0.2866506184872E+00
 0.2935184212083E+00
 0.3010586279767E+00
 0.3089447313074E+00
 0.3168547393252E+00
 0.3245139221104E+00
 0.3317109704465E+00
 0.3382984076112E+00
 0.3441858271341E+00
 0.3493311340791E+00
 0.3537323357239E+00
 0.3574208793888E+00
 0.3604567627080E+00
 0.3629252915648E+00
 0.3649356684506E+00
 0.3666213663676E+00
 0.3681427802931E+00
 0.3696928914907E+00
 0.3715066047469E+00
 0.3738714914614E+00
 0.3771321908675E+00
 0.3817162670107E+00
 0.3881833537858E+00
 0.3972639595450E+00
 0.4098881467773E+00
 0.4272101120945E+00
 0.4506282786145E+00
 0.4817922373419E+00
 0.5225780879698E+00
 0.5750209675070E+00
 0.6411597222853E+00
 0.7226681196738E+00
 0.8202135996732E+00
 0.9325686352076E+00
 0.1055776982023E+01
 0.1182154885365E+01
 0.1301633725211E+01
 0.3001457926375E+00
 0.3052579835618E+00
 0.3104690186785E+00
 0.3162563200095E+00
 0.3228086745804E+00
 0.3300628913485E+00
 0.3377903971766E+00
 0.3456891878804E+00
 0.3534543846057E+00
 0.3608203846980E+00
 0.3675793732555E+00
 0.3735846011962E+00
 0.3787458970055E+00
 0.3830223870985E+00
 0.3864151715615E+00
 0.3889612358931E+00
 0.3907290520731E+00
 0.3918159370408E+00
 0.3923473442439E+00
 0.3924781275080E+00
 0.3923962237891E+00
 0.3923293149290E+00
 0.3925551310637E+00
 0.3934131667568E+00
 0.3953102934112E+00
 0.3987470759019E+00
 0.4043668487389E+00
 0.4129947549916E+00
 0.4256649341849E+00
 0.4436384493973E+00
 0.4684077992687E+00
 0.5016767010683E+00
 0.5452973516426E+00
 0.6011600201693E+00
 0.6710030646129E+00
 0.7560446802984E+00
 0.8564006351295E+00
 0.9703762400939E+00
 0.1093757603624E+01
 0.1219415339396E+01
 0.1339312914052E+01
 0.3324977986512E+00
 0.3387255547840E+00
 0.3449559729578E+00
 0.3515844418996E+00
 0.3587652048469E+00
 0.3664350163514E+00
 0.3743819501795E+00
 0.3823234529590E+00
 0.3899697809370E+00
 0.3970645239883E+00
 0.4034044193468E+00
 0.4088447867290E+00
 0.4132969588263E+00
 0.4167223630070E+00
 0.4191260851012E+00
 0.4205514026970E+00
 0.4210759293216E+00
 0.4208096096976E+00
 0.4198947245721E+00
 0.4185080196899E+00
 0.4168653583207E+00
 0.4152292928751E+00
 0.4139202364691E+00
 0.4133290640564E+00
 0.4139238923166E+00
 0.4162768210246E+00
 0.4211127480437E+00
 0.4293481210400E+00
 0.4421156896807E+00
 0.4607744850565E+00
 0.4868976138254E+00
 0.5222251525201E+00
 0.5685669943609E+00
 0.6276578330285E+00
 0.7009460527238E+00
 0.7892374099336E+00
 0.8921852351090E+00
 0.1007714491550E+01
 0.1131509384413E+01
 0.1257066954250E+01
 0.1377161929945E+01
 0.3647300740781E+00
 0.3720284825805E+00
 0.3792532517660E+00
 0.3867208051062E+00
 0.3945465723817E+00
 0.4026596196240E+00
 0.4108574468899E+00
 0.4188721136494E+00
 0.4264267838248E+00
 0.4332739409254E+00
 0.4392156457898E+00
 0.4441104681073E+00
 0.4478724514655E+00
 0.4504663873705E+00
 0.4519022245063E+00
 0.4522302391450E+00
 0.4515377547137E+00
 0.4499477988773E+00
 0.4476198278576E+00
 0.4447526992336E+00
 0.4415902443076E+00
 0.4384296799699E+00
 0.4356335692170E+00
 0.4336432321355E+00
 0.4329866521328E+00
 0.4343055924593E+00
 0.4384039490791E+00
 0.4462857524557E+00
 0.4591767372978E+00
 0.4785254987469E+00
 0.5059741100861E+00
 0.5432852065161E+00
 0.5922144103346E+00
 0.6543383412054E+00
 0.7308321410286E+00
 0.8221348851977E+00
 0.9275098231402E+00
 0.1044588006510E+01
 0.1169054112037E+01
 0.1294870531421E+01
 0.1415242321053E+01
 0.3968557249506E+00
 0.4051882363550E+00
 0.4133871860941E+00
 0.4216932240534E+00
 0.4301800150665E+00
 0.4387628070612E+00
 0.4472423011494E+00
 0.4553606860560E+00
 0.4628517312691E+00
 0.4694762767995E+00
 0.4750422523840E+00
 0.4794125106649E+00
 0.4825049369948E+00
 0.4842887123821E+00
 0.4847794889937E+00
 0.4840351847613E+00
 0.4821532918236E+00
 0.4792702100259E+00
 0.4755626938529E+00
 0.4712516519436E+00
 0.4666086006775E+00
 0.4619648632524E+00
 0.4577242570949E+00
 0.4543772522725E+00
 0.4525099685026E+00
 0.4528316117652E+00
 0.4562221727565E+00
 0.4637692986849E+00
 0.4767861544183E+00
 0.4968032915113E+00
 0.5255222148294E+00
 0.5647182567930E+00
 0.6160865769245E+00
 0.6810495415124E+00
 0.7605303208531E+00
 0.8546451467255E+00
 0.9623298746481E+00
 0.1080994850028E+01
 0.1206357715137E+01
 0.1332710129636E+01
 0.1453567419575E+01
 0.4288874130411E+00
 0.4382252623386E+00
 0.4473831717895E+00
 0.4565291255885E+00
 0.4656930030534E+00
 0.4747713079122E+00
 0.4835626198993E+00
 0.4918151935263E+00
 0.4992711473545E+00
 0.5056990059991E+00
 0.5109129480226E+00
 0.5147810162803E+00
 0.5172259916807E+00
 0.5182224205217E+00
 0.5177924487123E+00
 0.5160022034732E+00
 0.5129596874107E+00
 0.5088147937324E+00
 0.5037614766616E+00
 0.4980423651213E+00
 0.4919560698472E+00
 0.4858671320421E+00
 0.4802193916554E+00
 0.4755508440194E+00
 0.4725037009440E+00
 0.4718520952874E+00
 0.4745489555555E+00
 0.4817614668332E+00
 0.4948849259462E+00
 0.5155252441356E+00
 0.5454360568376E+00
 0.5863992938589E+00
 0.6400484363551E+00
 0.7076603424940E+00
 0.7899300150780E+00
 0.8866917833961E+00
 0.9966082946883E+00
 0.1116920924810E+01
 0.1243382282765E+01
 0.1370521899263E+01
 0.1492122056309E+01
 0.4608373983051E+00
 0.4711590585808E+00
 0.4812656278356E+00
 0.4912553282249E+00
 0.5011128808024E+00
 0.5107120750820E+00
 0.5198448432399E+00
 0.5282618841330E+00
 0.5357115369580E+00
 0.5419692884930E+00
 0.5468558386214E+00
 0.5502452302650E+00
 0.5520661235510E+00
 0.5522993518057E+00
 0.5509742861442E+00
 0.5481657474927E+00
 0.5439924688201E+00
 0.5386177895286E+00
 0.5322525488021E+00
 0.5251605057337E+00
 0.5176664827385E+00
 0.5101670405561E+00
 0.5031444967282E+00
 0.4971824453453E+00
 0.4929768677250E+00
 0.4913640629632E+00
 0.4933665627662E+00
 0.5002270088170E+00
 0.5134179293799E+00
 0.5346151398692E+00
 0.5656193506940E+00
 0.6082164582550E+00
 0.6639812681836E+00
 0.7340575833456E+00
 0.8189372167044E+00
 0.9182103190426E+00
 0.1030311186352E+01
 0.1152346575251E+01
 0.1280095430005E+01
 0.1408265020167E+01
 0.1530879116455E+01
 0.4927175747269E+00
 0.5040082639048E+00
 0.5150580265880E+00
 0.5258979537329E+00
 0.5364666731476E+00
 0.5466120432074E+00
 0.5561155127071E+00
 0.5647270422197E+00
 0.5721992470229E+00
 0.5783138713468E+00
 0.5828983549726E+00
 0.5858334845132E+00
 0.5870547253934E+00
 0.5865500667505E+00
 0.5843567736130E+00
 0.5805587572400E+00
 0.5752855765440E+00
 0.5687138028770E+00
 0.5610706351840E+00
 0.5526401238156E+00
 0.5437721429713E+00
 0.5348937823745E+00
 0.5265240002116E+00
 0.5192897859896E+00
 0.5139383215468E+00
 0.5113651115815E+00
 0.5126588433151E+00
 0.5191336179681E+00
 0.5323347874913E+00
 0.5540038136788E+00
 0.5859855925601E+00
 0.6300704786529E+00
 0.6877811272172E+00
 0.7601434659216E+00
 0.8474714302442E+00
 0.9491451472616E+00
 0.1063406709294E+01
 0.1187250597910E+01
 0.1316470494236E+01
 0.1445909095897E+01
 0.1569805764100E+01
 0.5245395010733E+00
 0.5367907420854E+00
 0.5487829477088E+00
 0.5604823962144E+00
 0.5717809670419E+00
 0.5824979574337E+00
 0.5924010887451E+00
 0.6012368226617E+00
 0.6087603273465E+00
 0.6147589730128E+00
 0.6190671527363E+00
 0.6215731064623E+00
 0.6222199897469E+00
 0.6210037687113E+00
 0.6179702079590E+00
 0.6132126161829E+00
 0.6068713491177E+00
 0.5991358313846E+00
 0.5902488925404E+00
 0.5805137968380E+00
 0.5703040468370E+00
 0.5600754948392E+00
 0.5503816291882E+00
 0.5418903763228E+00
 0.5353973307428E+00
 0.5318540797787E+00
 0.5324119566983E+00
 0.5384526707367E+00
 0.5515905338504E+00
 0.5736295876989E+00
 0.6064580473937E+00
 0.6518739746779E+00
 0.7113573101085E+00
 0.7858332827378E+00
 0.8754630514049E+00
 0.9794472771094E+00
 0.1095864685597E+01
 0.1221611807195E+01
 0.1352484771705E+01
 0.1483428327425E+01
 0.1608866993091E+01
 0.5563144295430E+00
 0.5695236662073E+00
 0.5824621537912E+00
 0.5950333410333E+00
 0.6070818630793E+00
 0.6183962769489E+00
 0.6287278357824E+00
 0.6378171406027E+00
 0.6454204357861E+00
 0.6513302048856E+00
 0.6553880466307E+00
 0.6574903621382E+00
 0.6575888594275E+00
 0.6556882636521E+00
 0.6518433842349E+00
 0.6461571454989E+00
 0.6387805475616E+00
 0.6299153290265E+00
 0.6198190239929E+00
 0.6088128050205E+00
 0.5972921288391E+00
 0.5857395826168E+00
 0.5747408168396E+00
 0.5650019995087E+00
 0.5573641536122E+00
 0.5528316934719E+00
 0.5526150643175E+00
 0.5581599139116E+00
 0.5711462065164E+00
 0.5934386311174E+00
 0.6269696925554E+00
 0.6735508073458E+00
 0.7346310360174E+00
 0.8110535562209E+00
 0.9028513392332E+00
 0.1009072829791E+01
 0.1127656407292E+01
 0.1255409488025E+01
 0.1388117954145E+01
 0.1520799057047E+01
 0.1648027836514E+01
 0.5880533317827E+00
 0.6022235957303E+00
 0.6161166682950E+00
 0.6295748018976E+00
 0.6423949565293E+00
 0.6543331093078E+00
 0.6651217302458E+00
 0.6744935718046E+00
 0.6822047418509E+00
 0.6880524816891E+00
 0.6918859271361E+00
 0.6936103780182E+00
 0.6931869548082E+00
 0.6906298953377E+00
 0.6860035435584E+00
 0.6794205712739E+00
 0.6710423501203E+00
 0.6610822376613E+00
 0.6498113570930E+00
 0.6375672655419E+00
 0.6247654609100E+00
 0.6119129891874E+00
 0.5996250510150E+00
 0.5886431382933E+00
 0.5798505390716E+00
 0.5743011273038E+00
 0.5732609241654E+00
 0.5782360414066E+00
 0.5909693213393E+00
 0.6133852045511E+00
 0.6474630819167E+00
 0.6950354327445E+00
 0.7575342586796E+00
 0.8357404497478E+00
 0.9295827775245E+00
 0.1037981888557E+01
 0.1158754321139E+01
 0.1288623269957E+01
 0.1423350976821E+01
 0.1557998800834E+01
 0.1687254729329E+01
 0.6197669249949E+00
 0.6349065498554E+00
 0.6497668569487E+00
 0.6641301739505E+00
 0.6777453447044E+00
 0.6903341744110E+00
 0.7016083945328E+00
 0.7112912712660E+00
 0.7191378403316E+00
 0.7249499353459E+00
 0.7285846765152E+00
 0.7299570601058E+00
 0.7290384975069E+00
 0.7258534766506E+00
 0.7204763167170E+00
 0.7130294865634E+00
 0.7036843401990E+00
 0.6926650091820E+00
 0.6802549090293E+00
 0.6668062496319E+00
 0.6527524295797E+00
 0.6386224408943E+00
 0.6250581896128E+00
 0.6128333624405E+00
 0.6028701811223E+00
 0.5962685121752E+00
 0.5943464233338E+00
 0.5986672021715E+00
 0.6110342766679E+00
 0.6334318526958E+00
 0.6678902036114E+00
 0.7162723307319E+00
 0.7800086624282E+00
 0.8598384720373E+00
 0.9556097914563E+00
 0.1066137608288E+01
 0.1189131668166E+01
 0.1321232845647E+01
 0.1458165325972E+01
 0.1595006014194E+01
 0.1726516474749E+01
 0.6514656983470E+00
 0.6675880798587E+00
 0.6834325140886E+00
 0.6987223025032E+00
 0.7131576595850E+00
 0.7264247983583E+00
 0.7382130599803E+00
 0.7482349164780E+00
 0.7562436843569E+00
 0.7620458441052E+00
 0.7655070976977E+00
 0.7665530250911E+00
 0.7651662463954E+00
 0.7613822337835E+00
 0.7552856809350E+00
 0.7470088262152E+00
 0.7367325057194E+00
 0.7246906366867E+00
 0.7111774574138E+00
 0.6965579008923E+00
 0.6812809093283E+00
 0.6658946816917E+00
 0.6510647609415E+00
 0.6375936953076E+00
 0.6264391465236E+00
 0.6187434101200E+00
 0.6158730729676E+00
 0.6194454692434E+00
 0.6313227268434E+00
 0.6535495903558E+00
 0.6882123805771E+00
 0.7372155521984E+00
 0.8020048674660E+00
 0.8832994701948E+00
 0.9808897743786E+00
 0.1093505538025E+01
 0.1218762157914E+01
 0.1353217731231E+01
 0.1492542726456E+01
 0.1631800251956E+01
 0.1765784999658E+01
 0.6831599404602E+00
 0.7002833372555E+00
 0.7171329459993E+00
 0.7333735534203E+00
 0.7486561060666E+00
 0.7626299130955E+00
 0.7749605314143E+00
 0.7853486451215E+00
 0.7935455049490E+00
 0.7993625410749E+00
 0.8026748170854E+00
 0.8034195015419E+00
 0.8015914008757E+00
 0.7972377154823E+00
 0.7904538794930E+00
 0.7813818019884E+00
 0.7702111956307E+00
 0.7571846389975E+00
 0.7426055599871E+00
 0.7268494976347E+00
 0.7103783748204E+00
 0.6937566416680E+00
 0.6776701930245E+00
 0.6629469049754E+00
 0.6505762231991E+00
 0.6417392069668E+00
 0.6378474199684E+00
 0.6405692289866E+00
 0.6518238884568E+00
 0.6737180489165E+00
 0.7084001784423E+00
 0.7578283370047E+00
 0.8234817721467E+00
 0.9060818042003E+00
 0.1005384283040E+01
 0.1120053018193E+01
 0.1247619602083E+01
 0.1384557004185E+01
 0.1526464965952E+01
 0.1668362384156E+01
 0.1805035870719E+01
 0.7148597696541E+00
 0.7330071446631E+00
 0.7508870610804E+00
 0.7681058973248E+00
 0.7842645206286E+00
 0.7989740801478E+00
 0.8118751759169E+00
 0.8226560146204E+00
 0.8310657492468E+00
 0.8369213387758E+00
 0.8401082019206E+00
 0.8405762453548E+00
 0.8383335188415E+00
 0.8334397175475E+00
 0.8260013568095E+00
 0.8161698525785E+00
 0.8041430897836E+00
 0.7901710559360E+00
 0.7745645814747E+00
 0.7577075179576E+00
 0.7400720109525E+00
 0.7222355983182E+00
 0.7049010308572E+00
 0.6889177792127E+00
 0.6753032494937E+00
 0.6652734847011E+00
 0.6602814405083E+00
 0.6620435602835E+00
 0.6725348550555E+00
 0.6939256647683E+00
 0.7284334055082E+00
 0.7780828853564E+00
 0.8444061067569E+00
 0.9281497654318E+00
 0.1029058460138E+01
 0.1145748736882E+01
 0.1275677641157E+01
 0.1415229154871E+01
 0.1559913907379E+01
 0.1704674925493E+01
 0.1844248798339E+01
 0.7465751667747E+00
 0.7657740670053E+00
 0.7847134614137E+00
 0.8029409982053E+00
 0.8200064367956E+00
 0.8354815210207E+00
 0.8489809152006E+00
 0.8601799602294E+00
 0.8688260116212E+00
 0.8747424415687E+00
 0.8778262617129E+00
 0.8780414366412E+00
 0.8754104142373E+00
 0.8700061853586E+00
 0.8619466697431E+00
 0.8513925674786E+00
 0.8385491394715E+00
 0.8236724102657E+00
 0.8070786823674E+00
 0.7891576614789E+00
 0.7703887740896E+00
 0.7513592837602E+00
 0.7327850950575E+00
 0.7155333384996E+00
 0.7006453799437E+00
 0.6893683313847E+00
 0.6831928761328E+00
 0.6838805677996E+00
 0.6934608873746E+00
 0.7141698777604E+00
 0.7483011697452E+00
 0.7979602380854E+00
 0.8647521379439E+00
 0.9494731584984E+00
 0.1051880589904E+01
 0.1170562354221E+01
 0.1302909482505E+01
 0.1445211946995E+01
 0.1592871525817E+01
 0.1740722327593E+01
 0.1883408035614E+01
 0.7783160123862E+00
 0.7985984864986E+00
 0.8186305401731E+00
 0.8379003110588E+00
 0.8559051620341E+00
 0.8721761591692E+00
 0.8863012272207E+00
 0.8979427584370E+00
 0.9068469658506E+00
 0.9128448555689E+00
 0.9158465447136E+00
 0.9158315702628E+00
 0.9128380474921E+00
 0.9069531085849E+00
 0.8983063899985E+00
 0.8870676001194E+00
 0.8734484945019E+00
 0.8577096524573E+00
 0.8401707859722E+00
 0.8212248441814E+00
 0.8013554210246E+00
 0.7811559545337E+00
 0.7613515988133E+00
 0.7428230046006E+00
 0.7266313061837E+00
 0.7140506091243E+00
 0.7066055356269E+00
 0.7060996958177E+00
 0.7146157089781E+00
 0.7344573720326E+00
 0.7680020253610E+00
 0.8174502951108E+00
 0.8845015462237E+00
 0.9700270613501E+00
 0.1073821800175E+01
 0.1194464217003E+01
 0.1329287681371E+01
 0.1474482307903E+01
 0.1625319971916E+01
 0.1776491254706E+01
 0.1922502763441E+01
 0.8100921287347E+00
 0.8314946836751E+00
 0.8526565877066E+00
 0.8730051913966E+00
 0.8919838685387E+00
 0.9090816757009E+00
 0.9238591592645E+00
 0.9359659984152E+00
 0.9451483019071E+00
 0.9512463005809E+00
 0.9541850349683E+00
 0.9539613464619E+00
 0.9506304160359E+00
 0.9442944158765E+00
 0.9350950058354E+00
 0.9232105787270E+00
 0.9088584253186E+00
 0.8923020967460E+00
 0.8738625320278E+00
 0.8539331743930E+00
 0.8329985133393E+00
 0.8116544313254E+00
 0.7906312302374E+00
 0.7708187318452E+00
 0.7532934406529E+00
 0.7393521888782E+00
 0.7305495732014E+00
 0.7287280353577E+00
 0.7360218220648E+00
 0.7548043751740E+00
 0.7875442244360E+00
 0.8365519847783E+00
 0.9036434841223E+00
 0.9897917657150E+00
 0.1094855911084E+01
 0.1217425166967E+01
 0.1354783970182E+01
 0.1503016246600E+01
 0.1657241651293E+01
 0.1811970858453E+01
 0.1961527478975E+01
 0.8419133275493E+00
 0.8644769242149E+00
 0.8868099047131E+00
 0.9082770127677E+00
 0.9282656912499E+00
 0.9462215692321E+00
 0.9616773402693E+00
 0.9742705470498E+00
 0.9837486511157E+00
 0.9899631063807E+00
 0.9928560310375E+00
 0.9924435415137E+00
 0.9887994236715E+00
 0.9820418471414E+00
 0.9723247995143E+00
 0.9598349901787E+00
 0.9447942143562E+00
 0.9274673216424E+00
 0.9081741891370E+00
 0.8873058813703E+00
 0.8653443680155E+00
 0.8428840790464E+00
 0.8206561704376E+00
 0.7995550717230E+00
 0.7806680345951E+00
 0.7653101251645E+00
 0.7550617182363E+00
 0.7518006022884E+00
 0.7577108233328E+00
 0.7752369969035E+00
 0.8069460547325E+00
 0.8552735631756E+00
 0.9221747897254E+00
 0.1008752866575E+01
 0.1114959393053E+01
 0.1239416400035E+01
 0.1379369085698E+01
 0.1530788736172E+01
 0.1688619248565E+01
 0.1847152983430E+01
 0.2000482343381E+01
 0.8737894649713E+00
 0.8975595556199E+00
 0.9211089283322E+00
 0.9437372992724E+00
 0.9647738407173E+00
 0.9836192280181E+00
 0.9997780012559E+00
 0.1012876517668E+01
 0.1022665511494E+01
 0.1029010107155E+01
 0.1031872022292E+01
 0.1031288876321E+01
 0.1027354748528E+01
 0.1020204824666E+01
 0.1010005722979E+01
 0.9969520603209E+00
 0.9812690407981E+00
 0.9632210595334E+00
 0.9431245508799E+00
 0.9213652213555E+00
 0.8984189789540E+00
 0.8748747515485E+00
 0.8514600711325E+00
 0.8290691942610E+00
 0.8087952537404E+00
 0.7919667944536E+00
 0.7801854813061E+00
 0.7753606124622E+00
 0.7797237473234E+00
 0.7957916360222E+00
 0.8262362938667E+00
 0.8736330752675E+00
 0.9401003889029E+00
 0.1026901534655E+01
 0.1134111468327E+01
 0.1260409410987E+01
 0.1403012628264E+01
 0.1557773595128E+01
 0.1719435736045E+01
 0.1882032361782E+01
 0.2039373555020E+01
 0.9057305047443E+00
 0.9307571149175E+00
 0.9555723719963E+00
 0.9794078726964E+00
 0.1001531728481E+01
 0.1021298009798E+01
 0.1038182997310E+01
 0.1051803234431E+01
 0.1061915164392E+01
 0.1068400524831E+01
 0.1071243553387E+01
 0.1070505873478E+01
 0.1066303699964E+01
 0.1058790313150E+01
 0.1048145261416E+01
 0.1034570619848E+01
 0.1018293847215E+01
 0.9995770631851E+00
 0.9787308027313E+00
 0.9561323475098E+00
 0.9322478950714E+00
 0.9076566859121E+00
 0.8830779760897E+00
 0.8594008499951E+00
 0.8377191953918E+00
 0.8193699814177E+00
 0.8059713216688E+00
 0.7994597404559E+00
 0.8021114252861E+00
 0.8165154450978E+00
 0.8454547710436E+00
 0.8916589713186E+00
 0.9574338814884E+00
 0.1044234966585E+01
 0.1152294346423E+01
 0.1280376006511E+01
 0.1425682927417E+01
 0.1583943334898E+01
 0.1749674332991E+01
 0.1916606766450E+01
 0.2078213718662E+01
 0.9377465911754E+00
 0.9640844499454E+00
 0.9902193820786E+00
 0.1015311016842E+01
 0.1038563106266E+01
 0.1059281329031E+01
 0.1076913829434E+01
 0.1091069190007E+01
 0.1101512580031E+01
 0.1108145839432E+01
 0.1110979075844E+01
 0.1110100702521E+01
 0.1105651064762E+01
 0.1097802669404E+01
 0.1086748285598E+01
 0.1072696956614E+01
 0.1055877188767E+01
 0.1036546949504E+01
 0.1015008359689E+01
 0.9916271430650E+00
 0.9668560536154E+00
 0.9412603441247E+00
 0.9155461832983E+00
 0.8905922685866E+00
 0.8674878423470E+00
 0.8475729083099E+00
 0.8324767719417E+00
 0.8241583586213E+00
 0.8249348576064E+00
 0.8374668527332E+00
 0.8646530392288E+00
 0.9093908863346E+00
 0.9741983246405E+00
 0.1060757028878E+01
 0.1169493607188E+01
 0.1299288392977E+01
 0.1447346911881E+01
 0.1609268967135E+01
 0.1779318410559E+01
 0.1950877122373E+01
 0.2117022214943E+01
 0.9698481336900E+00
 0.9975568574639E+00
 0.1025069715376E+01
 0.1051469662801E+01
 0.1075892221455E+01
 0.1097592752359E+01
 0.1115991665785E+01
 0.1130691995520E+01
 0.1141471311299E+01
 0.1148255646766E+01
 0.1151084788255E+01
 0.1150077016074E+01
 0.1145398946308E+01
 0.1137243486079E+01
 0.1125816897807E+01
 0.1111334659361E+01
 0.1094025069951E+01
 0.1074140025396E+01
 0.1051970679152E+01
 0.1027868021765E+01
 0.1002267572103E+01
 0.9757162046582E+00
 0.9489020492850E+00
 0.9226879942803E+00
 0.8981529527196E+00
 0.8766342057466E+00
 0.8597665180135E+00
 0.8495257549098E+00
 0.8482655992294E+00
 0.8587161446053E+00
 0.8838951625373E+00
 0.9268805938500E+00
 0.9904272329932E+00
 0.1076479120828E+01
 0.1185698754826E+01
 0.1317119353511E+01
 0.1467969988486E+01
 0.1633719771208E+01
 0.1808351345812E+01
 0.1984847583030E+01
 0.2155825580359E+01
 0.1002045905059E+01
 0.1031190241547E+01
 0.1060143941502E+01
 0.1087907598586E+01
 0.1113543990420E+01
 0.1136256101564E+01
 0.1155437359778E+01
 0.1170688319422E+01
 0.1181803372633E+01
 0.1188737501206E+01
 0.1191564464102E+01
 0.1190435777035E+01
 0.1185546597793E+01
 0.1177111431055E+01
 0.1165350273239E+01
 0.1150484454803E+01
 0.1132740770697E+01
 0.1112363097224E+01
 0.1089629050148E+01
 0.1064871696114E+01
 0.1038505498612E+01
 0.1011054502626E+01
 0.9831837329072E+00
 0.9557346539572E+00
 0.9297698797833E+00
 0.9066178176449E+00
 0.8879124261668E+00
 0.8756403214526E+00
 0.8721861508906E+00
 0.8803460980210E+00
 0.9032586178860E+00
 0.9441931414132E+00
 0.1006165814228E+01
 0.1091421283429E+01
 0.1200903968801E+01
 0.1333842528566E+01
 0.1487515930071E+01
 0.1657263015737E+01
 0.1836756321704E+01
 0.2018525571417E+01
 0.2194657894505E+01
 0.1034351155586E+01
 0.1065001295227E+01
 0.1095463673094E+01
 0.1124649704248E+01
 0.1151544187586E+01
 0.1175295558247E+01
 0.1195271456181E+01
 0.1211073804650E+01
 0.1222519092835E+01
 0.1229596732713E+01
 0.1232419256939E+01
 0.1231175067050E+01
 0.1226090239849E+01
 0.1217402072709E+01
 0.1205344486598E+01
 0.1190144027047E+01
 0.1172024649912E+01
 0.1151220251013E+01
 0.1127992344956E+01
 0.1102652898303E+01
 0.1075591503929E+01
 0.1047304900404E+01
 0.1018429858610E+01
 0.9897806356327E+00
 0.9623972975005E+00
 0.9375928140991E+00
 0.9169934901084E+00
 0.9025896867138E+00
 0.8967903304647E+00
 0.9024526474740E+00
 0.9228352946042E+00
 0.9614081628848E+00
 0.1021472451156E+01
 0.1105613578695E+01
 0.1215109076383E+01
 0.1349432809258E+01
 0.1505946759965E+01
 0.1679863609853E+01
 0.1864516048817E+01
 0.2051921758644E+01
 0.2233561136997E+01
 0.1066775747008E+01
 0.1099007712640E+01
 0.1131051833485E+01
 0.1161722222602E+01
 0.1189919659218E+01
 0.1214735777644E+01
 0.1235514192101E+01
 0.1251862971986E+01
 0.1263626952260E+01
 0.1270836251902E+01
 0.1273647500277E+01
 0.1272289896863E+01
 0.1267022885975E+01
 0.1258107716635E+01
 0.1245792351276E+01
 0.1230307848232E+01
 0.1211873956595E+01
 0.1190712634529E+01
 0.1167066765100E+01
 0.1141224086292E+01
 0.1113545548148E+01
 0.1084496120856E+01
 0.1054679130092E+01
 0.1024875706314E+01
 0.9960968578855E+00
 0.9696331351752E+00
 0.9470957178623E+00
 0.9304708088774E+00
 0.9221836409389E+00
 0.9251455981122E+00
 0.9427326125141E+00
 0.9786213981955E+00
 0.1036420478695E+01
 0.1119097805782E+01
 0.1228320818256E+01
 0.1363866900719E+01
 0.1523222669057E+01
 0.1701483714923E+01
 0.1891612457811E+01
 0.2085050039158E+01
 0.2272585580545E+01
 0.1099332308879E+01
 0.1133228435047E+01
 0.1166932964196E+01
 0.1199153064341E+01
 0.1228698554930E+01
 0.1254601998459E+01
 0.1276185474884E+01
 0.1293069088950E+01
 0.1305133382804E+01
 0.1312456321707E+01
 0.1315244481037E+01
 0.1313771997364E+01
 0.1308334153985E+01
 0.1299217230995E+01
 0.1286683246836E+01
 0.1270966994413E+01
 0.1252282620738E+01
 0.1230838211601E+01
 0.1206855550139E+01
 0.1180595101512E+01
 0.1152385486045E+01
 0.1122655505068E+01
 0.1091969853452E+01
 0.1061070525011E+01
 0.1030932732350E+01
 0.1002817214175E+01
 0.9783119042647E+00
 0.9593899750978E+00
 0.9484835808854E+00
 0.9485493369830E+00
 0.9630747164316E+00
 0.9959463942503E+00
 0.1051100254789E+01
 0.1131929579473E+01
 0.1240554441264E+01
 0.1377124066853E+01
 0.1539301934817E+01
 0.1722082259834E+01
 0.1918026310770E+01
 0.2117927452352E+01
 0.2311790116461E+01
 0.1132034423099E+01
 0.1167683939330E+01
 0.1203133582557E+01
 0.1236972156113E+01
 0.1267910581335E+01
 0.1294920148789E+01
 0.1317304834616E+01
 0.1334704002156E+01
 0.1347042530996E+01
 0.1354454299267E+01
 0.1357202193493E+01
 0.1355609600968E+01
 0.1350010075067E+01
 0.1340715873382E+01
 0.1328002948525E+01
 0.1312108961002E+01
 0.1293241038760E+01
 0.1271591503733E+01
 0.1247358664556E+01
 0.1220772793525E+01
 0.1192126626295E+01
 0.1161808508858E+01
 0.1130339382480E+01
 0.1098416060888E+01
 0.1066971043276E+01
 0.1037227482077E+01
 0.1010741286206E+01
 0.9894627002697E+00
 0.9758198897213E+00
 0.9728035357069E+00
 0.9840037462543E+00
 0.1013516400423E+01
 0.1065621566715E+01
 0.1144180847647E+01
 0.1251835713587E+01
 0.1389187131841E+01
 0.1554140868434E+01
 0.1741614357458E+01
 0.1943736759241E+01
 0.2150574098052E+01
 0.2351242541742E+01
 0.1164896841921E+01
 0.1202396579266E+01
 0.1239682601523E+01
 0.1275211841477E+01
 0.1307587282661E+01
 0.1335716948051E+01
 0.1358891348994E+01
 0.1376777932205E+01
 0.1389355987017E+01
 0.1396824355571E+01
 0.1399509085624E+01
 0.1397787228716E+01
 0.1392032918345E+01
 0.1382585138810E+01
 0.1369733479672E+01
 0.1353717499521E+01
 0.1334735875918E+01
 0.1312963342060E+01
 0.1288572486187E+01
 0.1261760635296E+01
 0.1232781267997E+01
 0.1201978160619E+01
 0.1169823506695E+01
 0.1136962933838E+01
 0.1104279198141E+01
 0.1072949759066E+01
 0.1044489079398E+01
 0.1020813517648E+01
 0.1004334715808E+01
 0.9980638314739E+00
 0.1005681172773E+01
 0.1031486461564E+01
 0.1080116406150E+01
 0.1155942925766E+01
 0.1262203471449E+01
 0.1400043829067E+01
 0.1567693812772E+01
 0.1760030595923E+01
 0.1968720868020E+01
 0.2183013123595E+01
 0.2391019802951E+01
 0.1197935746494E+01
 0.1237390987188E+01
 0.1276611817326E+01
 0.1313907332537E+01
 0.1347762334526E+01
 0.1377019980093E+01
 0.1400963508532E+01
 0.1419299196263E+01
 0.1432072444939E+01
 0.1439557139164E+01
 0.1442149764686E+01
 0.1440285449273E+01
 0.1434380995409E+01
 0.1424802590827E+01
 0.1411852946016E+01
 0.1395772431609E+01
 0.1376749838535E+01
 0.1354940579381E+01
 0.1330489442990E+01
 0.1303558272953E+01
 0.1274358155443E+01
 0.1243184418348E+01
 0.1210455716408E+01
 0.1176760607333E+01
 0.1142925050615E+01
 0.1110072451295E+01
 0.1079665808569E+01
 0.1053575568688E+01
 0.1034182614112E+01
 0.1024502397788E+01
 0.1028289121604E+01
 0.1050035652665E+01
 0.1094742099843E+01
 0.1167330099331E+01
 0.1271712801135E+01
 0.1409688587210E+01
 0.1579913176695E+01
 0.1777276078656E+01
 0.1992953010759E+01
 0.2215270769100E+01
 0.2431208035194E+01
 0.1231169056557E+01
 0.1272694556165E+01
 0.1313956489867E+01
 0.1353097235092E+01
 0.1388471867736E+01
 0.1418857749976E+01
 0.1443539035671E+01
 0.1462273878460E+01
 0.1475187323932E+01
 0.1482639423747E+01
 0.1485104710633E+01
 0.1483080665549E+01
 0.1477028506151E+01
 0.1467341741747E+01
 0.1454335422170E+01
 0.1438249514491E+01
 0.1419261494167E+01
 0.1397505844289E+01
 0.1373097683919E+01
 0.1346161099404E+01
 0.1316861943640E+01
 0.1285443520548E+01
 0.1252266440137E+01
 0.1217856527238E+01
 0.1182975977618E+01
 0.1148685633659E+01
 0.1116386500440E+01
 0.1087890048365E+01
 0.1065530417430E+01
 0.1052308439782E+01
 0.1052031715341E+01
 0.1069369490161E+01
 0.1109684860549E+01
 0.1178483924651E+01
 0.1280439061809E+01
 0.1418124972593E+01
 0.1590749615854E+01
 0.1793289170040E+01
 0.2016404167434E+01
 0.2247376741489E+01
 0.2471902496085E+01
 0.1264616801149E+01
 0.1308338015140E+01
 0.1351756024366E+01
 0.1392824142426E+01
 0.1429754798641E+01
 0.1461259685214E+01
 0.1486634610302E+01
 0.1505705399385E+01
 0.1518692304114E+01
 0.1526053695824E+01
 0.1528349954312E+01
 0.1526144884510E+01
 0.1519945378497E+01
 0.1510171930678E+01
 0.1497150834530E+01
 0.1481120297686E+01
 0.1462245074945E+01
 0.1440637268157E+01
 0.1416380710308E+01
 0.1389559773941E+01
 0.1360292592527E+01
 0.1328767244697E+01
 0.1295282163342E+01
 0.1260295109771E+01
 0.1224497768142E+01
 0.1188879905068E+01
 0.1154769615162E+01
 0.1123905371159E+01
 0.1098556839653E+01
 0.1081688473324E+01
 0.1077136302940E+01
 0.1089722410940E+01
 0.1125163698706E+01
 0.1189578262620E+01
 0.1288482899764E+01
 0.1425368988165E+01
 0.1600152419050E+01
 0.1807999690212E+01
 0.2039040821523E+01
 0.2279364994587E+01
 0.2513207092935E+01
 0.1298301567757E+01
 0.1344356123228E+01
 0.1390054781878E+01
 0.1433135314101E+01
 0.1471653165818E+01
 0.1504256069624E+01
 0.1530265488595E+01
 0.1549593978859E+01
 0.1562574781943E+01
 0.1569777697202E+01
 0.1571856742263E+01
 0.1569445496238E+01
 0.1563097130457E+01
 0.1553258229162E+01
 0.1540264871585E+01
 0.1524352003130E+01
 0.1505670297644E+01
 0.1484308220026E+01
 0.1460317004460E+01
 0.1433739726298E+01
 0.1404644730120E+01
 0.1373162114906E+01
 0.1339524470466E+01
 0.1304116619061E+01
 0.1267553359656E+01
 0.1230745043299E+01
 0.1194935729975E+01
 0.1161776054779E+01
 0.1133451791642E+01
 0.1112866356991E+01
 0.1103854542017E+01
 0.1111360292421E+01
 0.1141434704487E+01
 0.1200825150242E+01
 0.1295976506547E+01
 0.1431453602075E+01
 0.1608070383905E+01
 0.1821326381413E+01
 0.2060823059867E+01
 0.2311275249772E+01
 0.2555233413833E+01
 0.1332249048699E+01
 0.1380788514848E+01
 0.1428903049991E+01
 0.1474083455048E+01
 0.1514212466458E+01
 0.1547877889605E+01
 0.1574444995634E+01
 0.1593935983660E+01
 0.1606817251196E+01
 0.1613783940494E+01
 0.1615591214328E+01
 0.1612945092930E+01
 0.1606444787472E+01
 0.1596561408853E+01
 0.1583638957290E+01
 0.1567907465723E+01
 0.1549502239002E+01
 0.1528487089589E+01
 0.1504879697373E+01
 0.1478680688918E+01
 0.1449907030104E+01
 0.1418628605655E+01
 0.1385009057524E+01
 0.1349355979683E+01
 0.1312201462052E+01
 0.1274368488722E+01
 0.1237005987347E+01
 0.1201661310825E+01
 0.1170415373345E+01
 0.1146083019067E+01
 0.1132463264115E+01
 0.1134582943503E+01
 0.1158795658393E+01
 0.1212481567248E+01
 0.1303091355152E+01
 0.1436434938951E+01
 0.1614453660766E+01
 0.1833173508919E+01
 0.2081700965036E+01
 0.2343155555140E+01
 0.2598098887420E+01
 0.1366488710792E+01
 0.1417680728212E+01
 0.1468358197342E+01
 0.1515727587455E+01
 0.1557481947371E+01
 0.1592156523346E+01
 0.1619183817383E+01
 0.1638723093365E+01
 0.1651396552846E+01
 0.1658039147154E+01
 0.1659514044223E+01
 0.1656601274418E+01
 0.1649944795855E+01
 0.1640037905405E+01
 0.1627230215089E+01
 0.1611745055495E+01
 0.1593701181233E+01
 0.1573137027024E+01
 0.1550036178288E+01
 0.1524356154330E+01
 0.1496061495496E+01
 0.1465160228505E+01
 0.1431744597454E+01
 0.1396041401095E+01
 0.1358494938833E+01
 0.1319833515936E+01
 0.1281100150921E+01
 0.1243723164873E+01
 0.1209656342226E+01
 0.1181595663964E+01
 0.1163264907424E+01
 0.1159726369771E+01
 0.1177590823285E+01
 0.1224857081688E+01
 0.1310047627806E+01
 0.1440400606930E+01
 0.1619257334929E+01
 0.1843426820326E+01
 0.2101607524766E+01
 0.2375065533831E+01
 0.2641922983159E+01
 0.1401054625544E+01
 0.1455085477627E+01
 0.1508486072348E+01
 0.1558134048017E+01
 0.1601514850223E+01
 0.1637123260655E+01
 0.1664489093802E+01
 0.1683941314260E+01
 0.1696283052014E+01
 0.1702503687257E+01
 0.1703580135625E+01
 0.1700366540986E+01
 0.1693549039178E+01
 0.1683639891320E+01
 0.1670991541829E+01
 0.1655818707962E+01
 0.1638222562333E+01
 0.1618215782782E+01
 0.1595747798054E+01
 0.1570732918867E+01
 0.1543082819179E+01
 0.1512742682089E+01
 0.1479731647319E+01
 0.1444193009427E+01
 0.1406479142726E+01
 0.1367217284494E+01
 0.1327334443096E+01
 0.1288124248092E+01
 0.1251390154746E+01
 0.1219676503717E+01
 0.1196587518721E+01
 0.1187164784090E+01
 0.1198215883773E+01
 0.1238322421711E+01
 0.1317125623155E+01
 0.1443480695248E+01
 0.1622447801167E+01
 0.1851950428537E+01
 0.2120445885137E+01
 0.2407078708441E+01
 0.2686819011620E+01
 0.1435986504083E+01
 0.1493064226051E+01
 0.1549362683633E+01
 0.1601377590518E+01
 0.1646368528757E+01
 0.1682808542472E+01
 0.1710363208393E+01
 0.1729569758494E+01
 0.1741439678479E+01
 0.1747130966095E+01
 0.1747738317554E+01
 0.1744188210322E+01
 0.1737204885404E+01
 0.1727315376399E+01
 0.1714871701639E+01
 0.1700077964638E+01
 0.1683016925158E+01
 0.1663675533188E+01
 0.1641969543805E+01
 0.1617770581979E+01
 0.1590937682877E+01
 0.1561352920292E+01
 0.1528961446276E+01
 0.1493821329597E+01
 0.1456190041270E+01
 0.1416588592853E+01
 0.1375818969407E+01
 0.1335025035395E+01
 0.1295836314309E+01
 0.1260610703433E+01
 0.1232783984491E+01
 0.1217312024550E+01
 0.1221122726435E+01
 0.1253318805609E+01
 0.1324679283937E+01
 0.1445861974014E+01
 0.1624012531311E+01
 0.1858587831502E+01
 0.2138070393601E+01
 0.2439277446819E+01
 0.2732870242741E+01
 0.1471331007554E+01
 0.1531689144298E+01
 0.1591076237884E+01
 0.1645542597538E+01
 0.1692104371619E+01
 0.1729240837195E+01
 0.1756802218015E+01
 0.1775579174969E+01
 0.1786820850874E+01
 0.1791866795086E+01
 0.1791931081505E+01
 0.1788008400017E+01
 0.1780855303870E+01
 0.1771008373545E+01
 0.1758815477632E+01
 0.1744468062951E+01
 0.1728029906713E+01
 0.1709462735729E+01
 0.1688649731478E+01
 0.1665421050671E+01
 0.1639584048009E+01
 0.1610958197082E+01
 0.1579414668868E+01
 0.1544925688188E+01
 0.1507652206410E+01
 0.1468005407500E+01
 0.1426654788487E+01
 0.1384580557695E+01
 0.1343214998602E+01
 0.1304693440685E+01
 0.1272230319169E+01
 0.1250622166787E+01
 0.1246823837930E+01
 0.1270367877715E+01
 0.1333152101716E+01
 0.1447805868973E+01
 0.1623974010085E+01
 0.1863168850570E+01
 0.2154271843966E+01
 0.2471732448870E+01
 0.2780040118580E+01
 0.1507143436251E+01
 0.1571045538458E+01
 0.1633729653369E+01
 0.1690724380327E+01
 0.1738787436512E+01
 0.1776445048089E+01
 0.1803793865522E+01
 0.1821930235243E+01
 0.1832371330389E+01
 0.1836648812238E+01
 0.1836094429811E+01
 0.1831764143554E+01
 0.1824439118335E+01
 0.1814659196339E+01
 0.1802763950298E+01
 0.1788930148543E+01
 0.1773202345608E+01
 0.1755518097351E+01
 0.1735729804716E+01
 0.1713628143066E+01
 0.1688970538705E+01
 0.1661515196097E+01
 0.1631060250897E+01
 0.1597492663684E+01
 0.1560876802090E+01
 0.1521512302688E+01
 0.1479930751969E+01
 0.1436936679074E+01
 0.1393742990790E+01
 0.1352226000216E+01
 0.1315322818782E+01
 0.1287589035538E+01
 0.1275896014786E+01
 0.1290081886636E+01
 0.1343095551839E+01
 0.1449671056018E+01
 0.1622407408927E+01
 0.1865526569606E+01
 0.2168758370539E+01
 0.2504586376210E+01
 0.2827613878129E+01
 0.1543491078766E+01
 0.1611240038048E+01
 0.1677452443004E+01
 0.1737043527952E+01
 0.1786502808951E+01
 0.1824461321630E+01
 0.1851339602212E+01
 0.1868599230931E+01
 0.1878055651194E+01
 0.1881439485243E+01
 0.1880194283855E+01
 0.1875427142050E+01
 0.1867934171475E+01
 0.1858251218165E+01
 0.1846705117995E+01
 0.1833456085111E+01
 0.1818529653641E+01
 0.1801840911989E+01
 0.1783214062306E+01
 0.1762403131318E+01
 0.1739118196727E+01
 0.1713058320342E+01
 0.1683950409434E+01
 0.1651597853380E+01
 0.1615969886854E+01
 0.1577254806628E+01
 0.1535843045762E+01
 0.1492353531095E+01
 0.1447759154126E+01
 0.1403640806092E+01
 0.1362599451613E+01
 0.1328859973244E+01
 0.1309081809118E+01
 0.1313248696294E+01
 0.1355233904780E+01
 0.1451958240688E+01
 0.1619457029653E+01
 0.1865506612676E+01
 0.2181314225798E+01
 0.2537434891579E+01
 0.2879601716349E+01
 0.1580452271732E+01
 0.1652394531716E+01
 0.1722386296767E+01
 0.1784621028985E+01
 0.1835319709211E+01
 0.1873299849680E+01
 0.1899402246913E+01
 0.1915520104140E+01
 0.1923795128745E+01
 0.1926158067444E+01
 0.1924153036143E+01
 0.1918924425164E+01
 0.1911271540073E+01
 0.1901718031448E+01
 0.1890573329154E+01
 0.1877979423572E+01
 0.1863943524955E+01
 0.1848360669735E+01
 0.1831030318101E+01
 0.1811673641926E+01
 0.1789956907913E+01
 0.1765523083736E+01
 0.1738030652675E+01
 0.1707202443126E+01
 0.1672915873434E+01
 0.1635250611365E+01
 0.1594455753186E+01
 0.1550958097813E+01
 0.1505473234251E+01
 0.1459252754576E+01
 0.1414502772760E+01
 0.1375022426904E+01
 0.1347114605670E+01
 0.1340710707403E+01
 0.1370409543383E+01
 0.1455310214935E+01
 0.1615371938776E+01
 0.1862908677432E+01
 0.2191763400511E+01
 0.2569565235513E+01
 0.2940699727680E+01
 0.1618123112066E+01
 0.1694652964171E+01
 0.1768691601915E+01
 0.1833580943039E+01
 0.1885290266061E+01
 0.1922937684846E+01
 0.1947902956344E+01
 0.1962582622913E+01
 0.1969467307167E+01
 0.1970680930773E+01
 0.1967850335904E+01
 0.1962139266840E+01
 0.1954336376444E+01
 0.1944944088074E+01
 0.1934249631719E+01
 0.1922375376848E+01
 0.1909311440409E+01
 0.1894935974988E+01
 0.1879028100365E+01
 0.1861280997740E+01
 0.1841321748718E+01
 0.1818741318426E+01
 0.1793133677704E+01
 0.1764145579769E+01
 0.1731568107722E+01
 0.1695378046931E+01
 0.1655686912065E+01
 0.1612727632488E+01
 0.1566946689612E+01
 0.1519238143683E+01
 0.1471358806642E+01
 0.1426586463781E+01
 0.1390710737973E+01
 0.1373375939192E+01
 0.1389623680596E+01
 0.1460595545871E+01
 0.1610586138644E+01
 0.1857668078927E+01
 0.2199544968671E+01
 0.2602279987013E+01
 0.3004689038695E+01
 0.1656622015734E+01
 0.1738196212858E+01
 0.1816567836944E+01
 0.1884074038048E+01
 0.1936476970294E+01
 0.1973352704775E+01
 0.1996763701975E+01
 0.2009683717237E+01
 0.2014965457092E+01
 0.2014908373495E+01
 0.2011196672699E+01
 0.2004991412326E+01
 0.1997054967861E+01
 0.1987859002084E+01
 0.1977663876615E+01
 0.1966571377222E+01
 0.1954556390485E+01
 0.1941484175372E+01
 0.1927118928000E+01
 0.1911131849748E+01
 0.1893116596139E+01
 0.1872617213585E+01
 0.1849167999684E+01
 0.1822345332573E+01
 0.1791861358194E+01
 0.1757598592242E+01
 0.1719538608658E+01
 0.1677723672555E+01
 0.1632325453003E+01
 0.1583859330396E+01
 0.1533585212243E+01
 0.1484167058843E+01
 0.1440716637126E+01
 0.1412322832546E+01
 0.1414100946852E+01
 0.1468938092873E+01
 0.1605754462480E+01
 0.1849733950097E+01
 0.2204390385062E+01
 0.2635304588220E+01
 0.3072369624082E+01
 0.1696096025783E+01
 0.1783247097309E+01
 0.1866252338960E+01
 0.1936265390214E+01
 0.1988930425077E+01
 0.2024496151810E+01
 0.2045878076949E+01
 0.2056697561096E+01
 0.2060167452923E+01
 0.2058731476305E+01
 0.2054097565602E+01
 0.2047398169974E+01
 0.2039352421632E+01
 0.2030391556145E+01
 0.2020744762826E+01
 0.2010492842630E+01
 0.1999598002957E+01
 0.1987917455763E+01
 0.1975206967394E+01
 0.1961123030711E+01
 0.1945232900661E+01
 0.1927039850567E+01
 0.1906024217933E+01
 0.1881698785640E+01
 0.1853705975252E+01
 0.1821845534274E+01
 0.1785980832273E+01
 0.1745972159803E+01
 0.1701717962514E+01
 0.1653343267554E+01
 0.1601574528008E+01
 0.1548378831055E+01
 0.1498025130825E+01
 0.1458751502129E+01
 0.1445289533791E+01
 0.1481781882769E+01
 0.1601832916360E+01
 0.1839205778143E+01
 0.2205859019181E+01
 0.2668199335285E+01
 0.3144480929213E+01
 0.1736729929185E+01
 0.1830082798478E+01
 0.1918027932609E+01
 0.1990331707080E+01
 0.2042679714391E+01
 0.2076282719960E+01
 0.2095104899277E+01
 0.2103472889739E+01
 0.2104935466010E+01
 0.2102032898442E+01
 0.2096454712013E+01
 0.2089275574578E+01
 0.2081153726221E+01
 0.2072470640504E+01
 0.2063420665204E+01
 0.2054063900563E+01
 0.2044353146550E+01
 0.2034143273279E+01
 0.2023189226809E+01
 0.2011141442874E+01
 0.1997549241519E+01
 0.1981882445370E+01
 0.1963573968101E+01
 0.1942080662882E+01
 0.1916986046596E+01
 0.1888021369044E+01
 0.1854947646798E+01
 0.1817457665009E+01
 0.1775186470001E+01
 0.1727868812434E+01
 0.1675676796789E+01
 0.1619814890289E+01
 0.1563554967161E+01
 0.1513973365704E+01
 0.1484877765912E+01
 0.1500954321671E+01
 0.1600199229447E+01
 0.1826397453439E+01
 0.2203337766852E+01
 0.2700460690681E+01
 0.3221848749960E+01
 0.1778759111733E+01
 0.1879051664127E+01
 0.1972231564284E+01
 0.2046455165150E+01
 0.2097718201531E+01
 0.2128577947654E+01
 0.2144261273858E+01
 0.2149830863159E+01
 0.2149116398791E+01
 0.2144688258232E+01
 0.2138167525506E+01
 0.2130539796216E+01
 0.2122384970279E+01
 0.2114026304786E+01
 0.2105620560113E+01
 0.2097208215356E+01
 0.2088736654381E+01
 0.2080064926034E+01
 0.2070955880357E+01
 0.2061064044655E+01
 0.2049930935917E+01
 0.2037001616163E+01
 0.2021668914875E+01
 0.2003342060940E+01
 0.1981557765989E+01
 0.1955995528102E+01
 0.1926333753270E+01
 0.1892117937949E+01
 0.1852738331555E+01
 0.1807553133270E+01
 0.1756179444938E+01
 0.1699019774253E+01
 0.1638220294612E+01
 0.1579388221229E+01
 0.1534799375591E+01
 0.1528733369151E+01
 0.1602801204686E+01
 0.1811966397305E+01
 0.2196109596890E+01
 0.2731452209698E+01
 0.3305453887329E+01
 0.1822488040518E+01
 0.1930596236066E+01
 0.2029263367412E+01
 0.2104811343372E+01
 0.2153982985001E+01
 0.2181182680624E+01
 0.2193115660576E+01
 0.2195564009958E+01
 0.2192543349697E+01
 0.2186568214588E+01
 0.2179135100340E+01
 0.2171108802469E+01
 0.2162974718311E+01
 0.2154990920916E+01
 0.2147275051095E+01
 0.2139849928347E+01
 0.2132662187984E+01
 0.2125582290234E+01
 0.2118390766009E+01
 0.2110757977767E+01
 0.2102229725537E+01
 0.2092236677351E+01
 0.2080139779226E+01
 0.2065309303563E+01
 0.2047248078602E+01
 0.2025602568321E+01
 0.1999991674131E+01
 0.1969839126949E+01
 0.1934317768662E+01
 0.1892437853544E+01
 0.1843285073580E+01
 0.1786456529945E+01
 0.1722888235256E+01
 0.1656443241725E+01
 0.1597220407285E+01
 0.1567908955911E+01
 0.1612339648464E+01
 0.1797142921686E+01
 0.2183428607697E+01
 0.2760320099357E+01
 0.3396494787833E+01
 0.1868317452026E+01
 0.1985285118383E+01
 0.2089594656071E+01
 0.2165547314714E+01
 0.2211325781778E+01
 0.2233814783962E+01
 0.2241381933067E+01
 0.2240436942074E+01
 0.2235038392857E+01
 0.2227541326711E+01
 0.2219258605285E+01
 0.2210904252878E+01
 0.2202855516312E+01
 0.2195300431510E+01
 0.2188317472385E+01
 0.2181914695167E+01
 0.2176043237421E+01
 0.2170592737373E+01
 0.2165372083286E+01
 0.2160080857385E+01
 0.2154283534808E+01
 0.2147408914290E+01
 0.2138795329215E+01
 0.2127782858310E+01
 0.2113853598075E+01
 0.2096640906643E+01
 0.2075729744613E+01
 0.2050451979371E+01
 0.2019798593489E+01
 0.1982475690079E+01
 0.1937088171622E+01
 0.1882468765051E+01
 0.1818323407996E+01
 0.1746567691231E+01
 0.1674495896263E+01
 0.1621824687522E+01
 0.1632486822436E+01
 0.1784080459803E+01
 0.2164658163106E+01
 0.2785881367661E+01
 0.3496463586751E+01
 0.1916785393970E+01
 0.2043857430812E+01
 0.2153771396299E+01
 0.2228743581055E+01
 0.2269472738613E+01
 0.2286089186084E+01
 0.2288716035548E+01
 0.2284189659520E+01
 0.2276416914188E+01
 0.2267477727271E+01
 0.2258444086400E+01
 0.2249853592747E+01
 0.2241965495806E+01
 0.2234895656827E+01
 0.2228685048462E+01
 0.2223330805202E+01
 0.2218794255565E+01
 0.2214992251891E+01
 0.2211773335523E+01
 0.2208881275047E+01
 0.2205916316269E+01
 0.2202320792655E+01
 0.2197421241395E+01
 0.2190536227485E+01
 0.2181139774777E+01
 0.2168872189885E+01
 0.2153311122997E+01
 0.2133729367664E+01
 0.2108978451570E+01
 0.2077518507305E+01
 0.2037552207135E+01
 0.1987239549632E+01
 0.1925120104053E+01
 0.1851077713341E+01
 0.1769079113771E+01
 0.1694377870941E+01
 0.1668123595876E+01
 0.1776369998779E+01
 0.2139551545271E+01
 0.2806481349413E+01
 0.3607254825622E+01
 0.1968631007733E+01
 0.2107285071443E+01
 0.2222405681003E+01
 0.2294349899625E+01
 0.2327971069859E+01
 0.2337499042294E+01
 0.2334717588823E+01
 0.2326544261364E+01
 0.2316493638929E+01
 0.2306253594526E+01
 0.2296605638680E+01
 0.2287892308753E+01
 0.2280250049619E+01
 0.2273723643248E+01
 0.2268320100031E+01
 0.2264030381493E+01
 0.2260831939331E+01
 0.2258676791752E+01
 0.2257464600739E+01
 0.2256999620941E+01
 0.2256938053692E+01
 0.2256755083775E+01
 0.2255778733351E+01
 0.2253314707706E+01
 0.2248840299925E+01
 0.2242021434972E+01
 0.2232454103165E+01
 0.2219385554104E+01
 0.2201575201678E+01
 0.2177307865040E+01
 0.2144488984428E+01
 0.2100750200481E+01
 0.2043625680252E+01
 0.1971048950310E+01
 0.1883361945087E+01
 0.1789939180430E+01
 0.1725559072045E+01
 0.1779763247051E+01
 0.2108816906481E+01
 0.2819828071660E+01
 0.3731327399493E+01
 0.2024896965927E+01
 0.2176859616746E+01
 0.2296139430359E+01
 0.2362079800140E+01
 0.2386122584350E+01
 0.2387403676047E+01
 0.2378939388673E+01
 0.2367215579861E+01
 0.2355090293408E+01
 0.2343756327783E+01
 0.2333668853696E+01
 0.2324966273206E+01
 0.2317663525249E+01
 0.2311739010534E+01
 0.2307171259888E+01
 0.2303950628454E+01
 0.2302076634650E+01
 0.2301543899063E+01
 0.2302314196520E+01
 0.2304269339042E+01
 0.2307145000178E+01
 0.2310473845722E+01
 0.2313602759386E+01
 0.2315833770922E+01
 0.2316656612426E+01
 0.2315778008905E+01
 0.2312833972775E+01
 0.2307077536947E+01
 0.2297225918931E+01
 0.2281469029012E+01
 0.2257542302561E+01
 0.2222742751384E+01
 0.2173861814958E+01
 0.2107162334945E+01
 0.2019426193944E+01
 0.1913127414541E+01
 0.1812662445121E+01
 0.1803122312716E+01
 0.2075218959975E+01
 0.2822852782185E+01
 0.3871957234261E+01
 0.2087100283379E+01
 0.2254311263914E+01
 0.2375547351650E+01
 0.2431242089421E+01
 0.2442910520909E+01
 0.2435033201548E+01
 0.2420907583292E+01
 0.2405925596212E+01
 0.2392044677002E+01
 0.2379890271598E+01
 0.2369574417881E+01
 0.2361034098998E+01
 0.2354170886385E+01
 0.2348905264018E+01
 0.2345194672834E+01
 0.2343035104175E+01
 0.2342453846524E+01
 0.2343494571579E+01
 0.2346190832537E+01
 0.2350518809803E+01
 0.2356320335782E+01
 0.2363217250090E+01
 0.2370599508446E+01
 0.2377776717726E+01
 0.2384257325574E+01
 0.2389797567510E+01
 0.2394086765442E+01
 0.2396408891223E+01
 0.2395488962228E+01
 0.2389509288414E+01
 0.2376178094503E+01
 0.2352690538535E+01
 0.2315452624358E+01
 0.2259539943400E+01
 0.2178702267482E+01
 0.2068344715846E+01
 0.1938767284512E+01
 0.1859537728486E+01
 0.2045642753458E+01
 0.2811770695684E+01
 0.4033660382207E+01
 0.2157529765796E+01
 0.2341962407439E+01
 0.2460910309999E+01
 0.2500483073764E+01
 0.2496941330326E+01
 0.2479524281322E+01
 0.2460153187636E+01
 0.2442420622174E+01
 0.2427220848660E+01
 0.2414582728793E+01
 0.2404281689445E+01
 0.2396069410182E+01
 0.2389749278924E+01
 0.2385196026968E+01
 0.2382355141927E+01
 0.2381234978577E+01
 0.2381895809438E+01
 0.2384435364765E+01
 0.2388966319724E+01
 0.2395574111924E+01
 0.2404235554326E+01
 0.2414702292283E+01
 0.2426442803022E+01
 0.2438791010843E+01
 0.2451277230209E+01
 0.2463705067563E+01
 0.2475815326257E+01
 0.2486936526266E+01
 0.2495849373310E+01
 0.2500820969587E+01
 0.2499682888342E+01
 0.2489781818162E+01
 0.2467568753540E+01
 0.2427597660203E+01
 0.2361574060473E+01
 0.2258973556011E+01
 0.2114058885040E+01
 0.1967408666389E+01
 0.2034740496669E+01
 0.2782864141623E+01
 0.4222979718372E+01
 0.2239791197615E+01
 0.2442892850110E+01
 0.2551715107349E+01
 0.2567423989295E+01
 0.2546454670795E+01
 0.2520001241594E+01
 0.2496250310113E+01
 0.2476490074104E+01
 0.2460520100763E+01
 0.2447789824815E+01
 0.2437772073208E+01
 0.2430062914738E+01
 0.2424389426286E+01
 0.2420596139655E+01
 0.2418627172342E+01
 0.2418510224766E+01
 0.2420343048252E+01
 0.2424280637211E+01
 0.2430518839350E+01
 0.2439262968732E+01
 0.2450653112313E+01
 0.2464621569123E+01
 0.2480768804714E+01
 0.2498482304149E+01
 0.2517315299376E+01
 0.2537098999049E+01
 0.2557598250110E+01
 0.2578180841749E+01
 0.2597727681717E+01
 0.2614688928048E+01
 0.2627171274317E+01
 0.2632921913871E+01
 0.2628896357486E+01
 0.2609937825107E+01
 0.2567031999761E+01
 0.2486239180141E+01
 0.2347895235681E+01
 0.2150972154432E+01
 0.2070782355471E+01
 0.2735455017431E+01
 0.4450164117536E+01
 0.2339870889456E+01
 0.2560991544864E+01
 0.2645581981888E+01
 0.2628251114119E+01
 0.2589507305762E+01
 0.2555696797243E+01
 0.2528850604850E+01
 0.2507987665658E+01
 0.2491891678352E+01
 0.2479501753734E+01
 0.2470052058966E+01
 0.2463024154784E+01
 0.2458096804934E+01
 0.2455102589943E+01
 0.2453995885920E+01
 0.2454830711916E+01
 0.2457745878568E+01
 0.2462954829889E+01
 0.2470736681621E+01
 0.2481420231431E+01
 0.2495331305884E+01
 0.2512642740270E+01
 0.2533168235259E+01
 0.2556404589522E+01
 0.2581930881923E+01
 0.2609557226092E+01
 0.2639002596041E+01
 0.2669640088840E+01
 0.2700492142880E+01
 0.2730301854613E+01
 0.2757601421546E+01
 0.2780757829748E+01
 0.2797646741579E+01
 0.2804282771935E+01
 0.2792498443094E+01
 0.2748073936924E+01
 0.2645324004701E+01
 0.2438836893882E+01
 0.2203653077187E+01
 0.2681016108906E+01
 0.4733387185873E+01
 0.2468381821758E+01
 0.2700372762307E+01
 0.2736034362728E+01
 0.2677601237907E+01
 0.2624467541498E+01
 0.2586041842830E+01
 0.2557714316844E+01
 0.2536856496483E+01
 0.2521340393353E+01
 0.2509747641855E+01
 0.2501155551239E+01
 0.2494982856541E+01
 0.2490892532478E+01
 0.2488725230804E+01
 0.2488457767627E+01
 0.2490177149568E+01
 0.2494065778675E+01
 0.2500394626733E+01
 0.2509522123827E+01
 0.2521895030606E+01
 0.2538032911957E+01
 0.2558410176449E+01
 0.2583174935085E+01
 0.2612043614330E+01
 0.2644636807964E+01
 0.2680645200677E+01
 0.2719601585065E+01
 0.2760809943257E+01
 0.2803474694839E+01
 0.2846765166038E+01
 0.2889797417257E+01
 0.2931720783207E+01
 0.2971632713741E+01
 0.3007457511649E+01
 0.3033781463075E+01
 0.3038842161267E+01
 0.3001850868237E+01
 0.2856305068085E+01
 0.2513277734875E+01
 0.2668247554005E+01
 0.5111191421883E+01
 0.2645844144388E+01
 0.2861968105004E+01
 0.2808276701844E+01
 0.2709980851445E+01
 0.2650676465781E+01
 0.2610596752021E+01
 0.2582791088009E+01
 0.2563138143905E+01
 0.2548934154605E+01
 0.2538599067160E+01
 0.2531145301133E+01
 0.2525989840462E+01
 0.2522813903146E+01
 0.2521487270110E+01
 0.2522021223903E+01
 0.2524541856558E+01
 0.2529276574849E+01
 0.2536550915175E+01
 0.2546794928057E+01
 0.2560558992878E+01
 0.2578539828959E+01
 0.2601552577808E+01
 0.2630249128192E+01
 0.2664788175643E+01
 0.2704887746968E+01
 0.2749928353771E+01
 0.2798999057874E+01
 0.2851209365116E+01
 0.2905992146831E+01
 0.2963112550553E+01
 0.3022471922903E+01
 0.3084090196848E+01
 0.3148385956363E+01
 0.3215590705992E+01
 0.3284774083468E+01
 0.3350520059858E+01
 0.3400372584927E+01
 0.3402966657997E+01
 0.3111345886192E+01
 0.2842959037474E+01
 0.5687179786470E+01
 0.2917180213832E+01
 0.3026928536934E+01
 0.2834803114010E+01
 0.2725515754605E+01
 0.2667590650831E+01
 0.2629269801633E+01
 0.2604259335495E+01
 0.2586969931010E+01
 0.2574813834490E+01
 0.2566169798802E+01
 0.2560114089475E+01
 0.2556117123090E+01
 0.2553914594467E+01
 0.2553425459350E+01
 0.2554706910817E+01
 0.2557929299952E+01
 0.2563365326527E+01
 0.2571390427171E+01
 0.2582495168046E+01
 0.2597313085556E+01
 0.2616675347082E+01
 0.2641706290670E+01
 0.2673753161038E+01
 0.2713877479646E+01
 0.2762062590989E+01
 0.2816992337322E+01
 0.2876862681943E+01
 0.2940413659521E+01
 0.3007373635249E+01
 0.3078319619615E+01
 0.3154223365710E+01
 0.3236096591735E+01
 0.3325287184966E+01
 0.3424502329376E+01
 0.3537649010150E+01
 0.3671676281478E+01
 0.3821698601611E+01
 0.4013769888332E+01
 0.4097635593220E+01
 0.3543946707792E+01
 0.6824725877402E+01
 0.3402103891561E+01
 0.3065918332145E+01
 0.2809544119933E+01
 0.2728248094153E+01
 0.2674052664892E+01
 0.2642898219984E+01
 0.2622351990276E+01
 0.2608644709536E+01
 0.2599178535571E+01
 0.2592619567408E+01
 0.2588183241495E+01
 0.2585457791422E+01
 0.2584264348022E+01
 0.2584590009283E+01
 0.2586547790052E+01
 0.2590356400653E+01
 0.2596332852688E+01
 0.2604896829462E+01
 0.2616585657351E+01
 0.2632090892897E+01
 0.2652325533960E+01
 0.2678582417499E+01
 0.2712918546940E+01
 0.2758292864376E+01
 0.2815448551727E+01
 0.2881475756716E+01
 0.2952968807376E+01
 0.3028095402258E+01
 0.3106995025302E+01
 0.3191325707547E+01
 0.3283507634185E+01
 0.3385932204912E+01
 0.3500067575436E+01
 0.3629391820526E+01
 0.3785393334128E+01
 0.3982943211631E+01
 0.4254658575250E+01
 0.4590697583647E+01
 0.5314396791898E+01
 0.5306553171563E+01
 0.1031815590525E+02
 0.1724641794294E+00
 0.2226879010081E+00
 0.2738421809281E+00
 0.3237682591521E+00
 0.3711998263883E+00
 0.4151069993917E+00
 0.4548788629014E+00
 0.4903191957918E+00
 0.5214262036462E+00
 0.5482883526369E+00
 0.5710699585175E+00
 0.5899778832985E+00
 0.6051890242203E+00
 0.6167946875382E+00
 0.6248060682495E+00
 0.6291794794529E+00
 0.6296777091436E+00
 0.6262537941739E+00
 0.6198044297298E+00
 0.6116019670262E+00
 0.1728759139610E+00
 0.2277906083820E+00
 0.2826471664198E+00
 0.3358329090537E+00
 0.3861363299210E+00
 0.4327182679604E+00
 0.4750865229287E+00
 0.5130240517094E+00
 0.5464926612295E+00
 0.5755753218520E+00
 0.6004379463793E+00
 0.6212956996312E+00
 0.6383480707481E+00
 0.6517319360891E+00
 0.6615221518424E+00
 0.6677049988992E+00
 0.6700048005268E+00
 0.6683061777440E+00
 0.6619323815397E+00
 0.6497089374373E+00
 0.1729770500751E+00
 0.2329579681953E+00
 0.2916824655440E+00
 0.3481444751899E+00
 0.4013704991792E+00
 0.4506567143224E+00
 0.4955921838380E+00
 0.5359843665546E+00
 0.5717919566403E+00
 0.6030943874310E+00
 0.6300620877409E+00
 0.6529189912006E+00
 0.6718832920969E+00
 0.6871203207457E+00
 0.6987204518167E+00
 0.7066376120692E+00
 0.7105720382581E+00
 0.7100540603009E+00
 0.7041864036287E+00
 0.6929918964185E+00
 0.1730523395779E+00
 0.2380564437533E+00
 0.3008220551882E+00
 0.3606439899489E+00
 0.4168303875653E+00
 0.4688335129162E+00
 0.5163232360917E+00
 0.5591448420004E+00
 0.5972726816432E+00
 0.6307927376680E+00
 0.6598816854512E+00
 0.6847712893967E+00
 0.7056910153421E+00
 0.7228158707005E+00
 0.7362259998781E+00
 0.7458421544896E+00
 0.7513122746675E+00
 0.7521233632186E+00
 0.7477847839942E+00
 0.7386829635354E+00
 0.1731736711174E+00
 0.2431480521733E+00
 0.3100083241505E+00
 0.3732625534132E+00
 0.4324458019816E+00
 0.4871744809300E+00
 0.5372088198963E+00
 0.5824420602275E+00
 0.6228748536963E+00
 0.6586073962134E+00
 0.6898251643432E+00
 0.7167658755216E+00
 0.7396633812029E+00
 0.7586914181061E+00
 0.7739167544809E+00
 0.7852387701064E+00
 0.7923327430885E+00
 0.7948258937805E+00
 0.7925227647786E+00
 0.7859368296665E+00
 0.1733866155919E+00
 0.2482591362591E+00
 0.3192244613343E+00
 0.3859452492935E+00
 0.4481509599989E+00
 0.5056103764269E+00
 0.5581800315152E+00
 0.6058091642371E+00
 0.6485319306786E+00
 0.6864679963216E+00
 0.7198136451718E+00
 0.7488113722840E+00
 0.7736957405007E+00
 0.7946372459529E+00
 0.8116967077936E+00
 0.8247848950862E+00
 0.8336595518197E+00
 0.8381015123823E+00
 0.8381180521561E+00
 0.8342528158230E+00
 0.1737216361348E+00
 0.2534075388894E+00
 0.3284562239787E+00
 0.3986500849884E+00
 0.4638868128287E+00
 0.5240756483655E+00
 0.5791691404626E+00
 0.6291774746500E+00
 0.6741732010529E+00
 0.7142990911243E+00
 0.7497639094231E+00
 0.7808150084060E+00
 0.8076876726783E+00
 0.8305527309750E+00
 0.8494788365907E+00
 0.8644137157613E+00
 0.8752109593266E+00
 0.8817869309669E+00
 0.8842837241892E+00
 0.8832527882086E+00
 0.1742019486599E+00
 0.2586032471270E+00
 0.3376899692264E+00
 0.4113402331971E+00
 0.4796003845910E+00
 0.5425083277595E+00
 0.6001097385678E+00
 0.6524775342211E+00
 0.6997255820447E+00
 0.7420222748577E+00
 0.7795904981235E+00
 0.8126838250513E+00
 0.8415407791428E+00
 0.8663388738657E+00
 0.8871667953692E+00
 0.9040216179213E+00
 0.9168496051218E+00
 0.9256778904504E+00
 0.9307422851175E+00
 0.9325992813877E+00
 0.1748463291212E+00
 0.2638514591942E+00
 0.3469111492898E+00
 0.4239818269681E+00
 0.4952428143352E+00
 0.5608498151910E+00
 0.6209371303244E+00
 0.6756400609506E+00
 0.7251150530694E+00
 0.7695577968710E+00
 0.8092069881028E+00
 0.8443246338824E+00
 0.8751562266444E+00
 0.9018922553378E+00
 0.9246493997913E+00
 0.9434780816584E+00
 0.9584075967675E+00
 0.9695540165948E+00
 0.9772201346163E+00
 0.9819672092214E+00
 0.1756706867255E+00
 0.2691541071819E+00
 0.3561043715935E+00
 0.4365427433097E+00
 0.5107683278150E+00
 0.5790444528783E+00
 0.6415886332780E+00
 0.6985966997077E+00
 0.7502677003062E+00
 0.7968256167888E+00
 0.8385265865120E+00
 0.8756435819763E+00
 0.9084328579590E+00
 0.9371027883836E+00
 0.9618023227662E+00
 0.9826344665422E+00
 0.9997005947284E+00
 0.1013187672977E+01
 0.1023446369969E+01
 0.1031039872798E+01
 0.1766889433404E+00
 0.2745109618835E+00
 0.3652536859966E+00
 0.4489922287273E+00
 0.5261337170018E+00
 0.5970393621499E+00
 0.6620038692613E+00
 0.7212806931901E+00
 0.7751105747679E+00
 0.8237462019903E+00
 0.8674625620160E+00
 0.9065459783396E+00
 0.9412666757087E+00
 0.9718542225399E+00
 0.9984914567405E+00
 0.1021330879798E+01
 0.1040535539230E+01
 0.1056348767051E+01
 0.1069154432900E+01
 0.1079511572929E+01
 0.1779135886976E+00
 0.2799203993917E+00
 0.3743429725131E+00
 0.4613008600987E+00
 0.5412981678284E+00
 0.6147844261488E+00
 0.6821250399246E+00
 0.7436274115575E+00
 0.7995723464339E+00
 0.8502411281754E+00
 0.8959286392343E+00
 0.9369365066463E+00
 0.9735513147063E+00
 0.1006025727228E+01
 0.1034576360930E+01
 0.1059401126052E+01
 0.1080715516679E+01
 0.1098807693203E+01
 0.1114083675489E+01
 0.1127089328402E+01
 0.1793560392558E+00
 0.2853799786959E+00
 0.3833563470867E+00
 0.4734407069091E+00
 0.5562233155218E+00
 0.6322324234183E+00
 0.7018972391576E+00
 0.7655748389426E+00
 0.8235838859268E+00
 0.8762336604007E+00
 0.9238395441807E+00
 0.9667198678885E+00
 0.1005179143096E+01
 0.1039493927194E+01
 0.1069913435609E+01
 0.1096676590136E+01
 0.1120043351583E+01
 0.1140337568883E+01
 0.1157979232284E+01
 0.1173493098378E+01
 0.1810268986979E+00
 0.2908869098845E+00
 0.3922785813115E+00
 0.4853856174262E+00
 0.5708734588358E+00
 0.6493392787903E+00
 0.7212688127496E+00
 0.7870640497881E+00
 0.8470788227132E+00
 0.9016493601946E+00
 0.9511116903514E+00
 0.9958016886732E+00
 0.1036042642805E+01
 0.1072134989619E+01
 0.1104358729726E+01
 0.1132989421864E+01
 0.1158324608907E+01
 0.1180716445713E+01
 0.1200592787600E+01
 0.1218453527655E+01
 0.1829361446823E+00
 0.2964384354788E+00
 0.4010954980803E+00
 0.4971115450209E+00
 0.5852158374675E+00
 0.6660643558843E+00
 0.7401917166963E+00
 0.8080396501033E+00
 0.8699940658262E+00
 0.9264166936437E+00
 0.9776639301014E+00
 0.1024089537545E+01
 0.1066035849468E+01
 0.1103826598201E+01
 0.1137770407269E+01
 0.1168175276970E+01
 0.1195370364303E+01
 0.1219730064623E+01
 0.1241685754830E+01
 0.1261712372175E+01
 0.1850932797290E+00
 0.3020321744846E+00
 0.4097943753139E+00
 0.5085969316143E+00
 0.5992209908760E+00
 0.6823708257463E+00
 0.7586219308156E+00
 0.8284502570310E+00
 0.8922703641034E+00
 0.9504677001743E+00
 0.1003418391782E+01
 0.1051494023203E+01
 0.1095055809362E+01
 0.1134449818171E+01
 0.1170010975504E+01
 0.1202075789116E+01
 0.1230999858909E+01
 0.1257174886818E+01
 0.1281032906255E+01
 0.1303025846815E+01
 0.1875074552185E+00
 0.3076664323177E+00
 0.4183643383953E+00
 0.5198231060739E+00
 0.6128631452424E+00
 0.6982260591627E+00
 0.7765198816591E+00
 0.8482489750596E+00
 0.9138528597546E+00
 0.9737386590940E+00
 0.1028301313919E+01
 0.1077929864647E+01
 0.1123003945695E+01
 0.1163890780067E+01
 0.1200949251303E+01
 0.1234540754193E+01
 0.1265042893773E+01
 0.1292860760539E+01
 0.1318425328400E+01
 0.1342168273924E+01
 0.1901875754623E+00
 0.3133404918253E+00
 0.4267967476428E+00
 0.5307746958579E+00
 0.6261206233330E+00
 0.7136020397415E+00
 0.7938508764330E+00
 0.8673938724483E+00
 0.9346916339070E+00
 0.9961707399472E+00
 0.1052243846461E+01
 0.1103316892787E+01
 0.1149787297947E+01
 0.1192042164458E+01
 0.1230462062453E+01
 0.1265430000869E+01
 0.1297341832083E+01
 0.1326613012001E+01
 0.1353672622648E+01
 0.1378935037135E+01
 0.1931423983326E+00
 0.3190549007128E+00
 0.4350855929262E+00
 0.5414400586313E+00
 0.6389762816575E+00
 0.7284758032701E+00
 0.8105855560058E+00
 0.8858484667779E+00
 0.9547422499209E+00
 0.1017710635612E+01
 0.1075182810763E+01
 0.1127580972841E+01
 0.1175319629758E+01
 0.1218804494967E+01
 0.1258435697266E+01
 0.1294614945347E+01
 0.1327753195430E+01
 0.1358274013349E+01
 0.1386604467737E+01
 0.1413144675560E+01
 0.1963806261553E+00
 0.3248117502471E+00
 0.4432278818245E+00
 0.5518117121277E+00
 0.6514179472830E+00
 0.7428298727079E+00
 0.8267003348338E+00
 0.9035821854766E+00
 0.9739662566839E+00
 0.1038311135501E+01
 0.1097061371835E+01
 0.1150654801066E+01
 0.1199522364088E+01
 0.1244087206476E+01
 0.1284767075527E+01
 0.1321979808615E+01
 0.1356148854792E+01
 0.1387704289201E+01
 0.1417071653891E+01
 0.1444640175345E+01
 0.1999109993782E+00
 0.3306149606273E+00
 0.4512240374564E+00
 0.5618867775990E+00
 0.6634388688789E+00
 0.7566527031785E+00
 0.8421778419959E+00
 0.9205708143927E+00
 0.9923316624476E+00
 0.1057931646053E+01
 0.1117829627201E+01
 0.1172478579375E+01
 0.1222325351112E+01
 0.1267809497959E+01
 0.1309364656254E+01
 0.1347422524423E+01
 0.1382416862174E+01
 0.1414783209987E+01
 0.1444946679377E+01
 0.1473289441257E+01
 0.2037423943920E+00
 0.3364705733500E+00
 0.4590783030048E+00
 0.5716674296112E+00
 0.6750381710636E+00
 0.7699391234623E+00
 0.8570073480503E+00
 0.9367969175599E+00
 0.1009813360747E+01
 0.1076538638699E+01
 0.1137445092145E+01
 0.1193000548918E+01
 0.1243667453327E+01
 0.1289900960450E+01
 0.1332149083378E+01
 0.1370855355025E+01
 0.1406461963491E+01
 0.1439409276721E+01
 0.1470123674544E+01
 0.1498984382245E+01
 0.2078839292943E+00
 0.3423870551833E+00
 0.4667991563888E+00
 0.5811613534622E+00
 0.6862213110075E+00
 0.7826907711229E+00
 0.8711851735489E+00
 0.9522502229696E+00
 0.1026393502403E+01
 0.1094106018849E+01
 0.1155873075088E+01
 0.1212177377415E+01
 0.1263496944969E+01
 0.1310301981602E+01
 0.1353053578332E+01
 0.1392205239133E+01
 0.1428205835722E+01
 0.1461500128676E+01
 0.1492517821699E+01
 0.1521640013387E+01
 0.2123450831633E+00
 0.3483756199747E+00
 0.4743997408187E+00
 0.5903822143005E+00
 0.6970005392784E+00
 0.7949165214647E+00
 0.8847150781421E+00
 0.9669279725219E+00
 0.1042061811540E+01
 0.1110615414123E+01
 0.1173086942021E+01
 0.1229974400236E+01
 0.1281771727101E+01
 0.1328963930369E+01
 0.1372024088071E+01
 0.1411413888982E+01
 0.1447587101173E+01
 0.1480992398566E+01
 0.1512065072176E+01
 0.1541194056101E+01
 0.2171358344799E+00
 0.3544505735114E+00
 0.4818983162971E+00
 0.5993501412280E+00
 0.7073953658510E+00
 0.8066329092195E+00
 0.8976086278621E+00
 0.9808352332843E+00
 0.1056815843228E+01
 0.1126056380773E+01
 0.1189068270768E+01
 0.1246365717619E+01
 0.1298459361715E+01
 0.1345849125600E+01
 0.1389019192937E+01
 0.1428437647436E+01
 0.1464561135442E+01
 0.1497841475578E+01
 0.1528721891434E+01
 0.1557606473365E+01
 0.2222668196545E+00
 0.3606296825661E+00
 0.4893187327217E+00
 0.6080922248024E+00
 0.7174330268276E+00
 0.8178645359851E+00
 0.9098855320847E+00
 0.9939851613630E+00
 0.1070661175441E+01
 0.1140426523761E+01
 0.1203806893917E+01
 0.1261334149669E+01
 0.1313536927593E+01
 0.1360930589934E+01
 0.1404009773059E+01
 0.1443247099951E+01
 0.1479099663683E+01
 0.1512021098153E+01
 0.1542464725361E+01
 0.1570858486189E+01
 0.2277495232079E+00
 0.3669345830212E+00
 0.4966909411528E+00
 0.6166430447297E+00
 0.7271489670736E+00
 0.8286444767357E+00
 0.9215739620675E+00
 0.1006399229972E+01
 0.1083611548285E+01
 0.1153731546541E+01
 0.1217300850207E+01
 0.1274871071520E+01
 0.1326990719753E+01
 0.1374191605942E+01
 0.1416978439936E+01
 0.1455826433508E+01
 0.1491190114694E+01
 0.1523522719669E+01
 0.1553289206447E+01
 0.1580951157908E+01
 0.2335965014645E+00
 0.3733912255133E+00
 0.5040515433330E+00
 0.6250452251048E+00
 0.7365873318960E+00
 0.8390146741483E+00
 0.9327108365799E+00
 0.1018107406164E+01
 0.1095688937158E+01
 0.1165985222721E+01
 0.1229556244008E+01
 0.1286976134741E+01
 0.1338815800908E+01
 0.1385625078983E+01
 0.1427918726734E+01
 0.1466172514357E+01
 0.1500834674642E+01
 0.1532354598854E+01
 0.1561209117612E+01
 0.1587903530648E+01
 0.2398216404394E+00
 0.3800303672294E+00
 0.5114443903387E+00
 0.6333500287770E+00
 0.7458014766810E+00
 0.8490263259782E+00
 0.9433420765564E+00
 0.1029148276856E+01
 0.1106923563052E+01
 0.1177209300226E+01
 0.1240587034127E+01
 0.1297656906066E+01
 0.1349015439895E+01
 0.1395232736432E+01
 0.1436834053215E+01
 0.1474293680778E+01
 0.1508048997651E+01
 0.1538540530900E+01
 0.1566255081365E+01
 0.1591750224398E+01
 0.2464404652874E+00
 0.3868881272534E+00
 0.5189212552588E+00
 0.6416180165894E+00
 0.7548545163441E+00
 0.8587402807284E+00
 0.9535228369046E+00
 0.1039569127045E+01
 0.1117353842786E+01
 0.1187433347924E+01
 0.1250414775394E+01
 0.1306928461189E+01
 0.1357600481649E+01
 0.1403024200953E+01
 0.1443736484574E+01
 0.1480208253651E+01
 0.1512860567012E+01
 0.1542118094351E+01
 0.1568472683484E+01
 0.1592538289951E+01
 0.2534704819198E+00
 0.3940065922503E+00
 0.5265425739639E+00
 0.6499197669041E+00
 0.7638199040452E+00
 0.8682274214663E+00
 0.9633176851026E+00
 0.1049425932185E+01
 0.1127026240618E+01
 0.1196694517111E+01
 0.1259068308395E+01
 0.1314812957551E+01
 0.1364588693189E+01
 0.1409015981123E+01
 0.1448645305229E+01
 0.1483942765222E+01
 0.1515306738697E+01
 0.1543136539003E+01
 0.1567919654744E+01
 0.1590322781104E+01
 0.2609315734635E+00
 0.4014345055839E+00
 0.5343783046907E+00
 0.6583367146908E+00
 0.7727820943929E+00
 0.8775690813992E+00
 0.9728007550975E+00
 0.1058783278652E+01
 0.1135995026940E+01
 0.1205037229233E+01
 0.1266583433700E+01
 0.1321339262665E+01
 0.1370004197313E+01
 0.1413230493770E+01
 0.1451585479178E+01
 0.1485529924863E+01
 0.1515432494725E+01
 0.1541654714952E+01
 0.1564663725256E+01
 0.1585163871133E+01
 0.2688464239058E+00
 0.4092280187614E+00
 0.5425089145481E+00
 0.6669621293013E+00
 0.7818373025730E+00
 0.8868574839558E+00
 0.9820558481842E+00
 0.1067714163970E+01
 0.1144321882168E+01
 0.1212512730120E+01
 0.1273002542599E+01
 0.1326542676161E+01
 0.1373877110494E+01
 0.1415695266199E+01
 0.1452586091077E+01
 0.1485006295499E+01
 0.1513287828828E+01
 0.1537739097750E+01
 0.1558783128645E+01
 0.1577131666660E+01
 0.2772409327480E+00
 0.4174515012689E+00
 0.5510265339516E+00
 0.6759022959186E+00
 0.7910944095429E+00
 0.8961962287813E+00
 0.9911764704837E+00
 0.1076299637063E+01
 0.1152075278953E+01
 0.1219178427627E+01
 0.1278374138682E+01
 0.1330464765591E+01
 0.1376243547175E+01
 0.1416442594228E+01
 0.1451678978212E+01
 0.1482409671048E+01
 0.1508924490110E+01
 0.1531461525462E+01
 0.1550367717935E+01
 0.1566315695363E+01
 0.2861446019180E+00
 0.4261784089713E+00
 0.5600363861907E+00
 0.6852780380418E+00
 0.8006761283257E+00
 0.9057008871043E+00
 0.1000265835716E+01
 0.1084628272322E+01
 0.1159329597880E+01
 0.1225096927606E+01
 0.1282752142978E+01
 0.1333153270130E+01
 0.1377146184174E+01
 0.1415510128271E+01
 0.1448898073780E+01
 0.1477776167719E+01
 0.1502391542088E+01
 0.1522895732565E+01
 0.1539519522197E+01
 0.1552831903447E+01
 0.2955906945564E+00
 0.4354921299707E+00
 0.5696585571931E+00
 0.6952267307799E+00
 0.8107204682183E+00
 0.9154996839751E+00
 0.1009436767227E+01
 0.1092795394146E+01
 0.1166163850112E+01
 0.1230334580986E+01
 0.1286194743069E+01
 0.1334661801278E+01
 0.1376635332663E+01
 0.1412943112400E+01
 0.1444280592579E+01
 0.1471137614122E+01
 0.1493728412044E+01
 0.1512111083238E+01
 0.1526353089556E+01
 0.1536833988886E+01
 0.3056159907394E+00
 0.4454866706020E+00
 0.5800306515410E+00
 0.7059051459406E+00
 0.8213827268894E+00
 0.9257342929880E+00
 0.1018811583404E+01
 0.1100902097595E+01
 0.1172659973128E+01
 0.1234959425845E+01
 0.1288762525640E+01
 0.1335048968543E+01
 0.1374769940179E+01
 0.1408798412023E+01
 0.1437872987715E+01
 0.1462521312624E+01
 0.1482954017008E+01
 0.1499157271707E+01
 0.1510994660489E+01
 0.1518539408709E+01
 0.3162589719951E+00
 0.4562678509726E+00
 0.5913117770008E+00
 0.7174941771284E+00
 0.8328374941846E+00
 0.9365606219374E+00
 0.1028522097456E+01
 0.1109053991511E+01
 0.1178900501316E+01
 0.1239038400897E+01
 0.1290515626146E+01
 0.1334376221117E+01
 0.1371617888891E+01
 0.1403148433965E+01
 0.1429742707017E+01
 0.1451965252755E+01
 0.1470050765584E+01
 0.1484026133367E+01
 0.1493564525034E+01
 0.1498284624151E+01
 0.3275553437605E+00
 0.4679505464606E+00
 0.6036969024983E+00
 0.7302037925090E+00
 0.8452787163834E+00
 0.9481505104498E+00
 0.1038710494949E+01
 0.1117359136635E+01
 0.1184965355495E+01
 0.1242633994054E+01
 0.1291509944984E+01
 0.1332703669165E+01
 0.1367253656774E+01
 0.1396085254999E+01
 0.1419986416660E+01
 0.1439554109515E+01
 0.1455007679113E+01
 0.1466535935954E+01
 0.1474074550897E+01
 0.1476647922652E+01
 0.3394873927649E+00
 0.4807186409702E+00
 0.6174502114986E+00
 0.7442606294189E+00
 0.8589177639640E+00
 0.9607015130052E+00
 0.1049529700764E+01
 0.1125923449086E+01
 0.1190928068118E+01
 0.1245800632298E+01
 0.1291792927348E+01
 0.1330084099851E+01
 0.1361750309606E+01
 0.1387719442461E+01
 0.1408747338704E+01
 0.1425417248695E+01
 0.1437956655299E+01
 0.1446491616801E+01
 0.1451788044080E+01
 0.1455163400296E+01
 0.3099948158039E+00
 0.1211388753915E+00
 0.6801036406559E-01
 0.1422824062400E+00
 0.1642762462475E+00
 0.1618860979704E+00
 0.1606886565174E+00
 0.1675162436559E+00
 0.1749790315677E+00
 0.1790302177882E+00
 0.1791816131976E+00
 0.1754109552879E+00
 0.1672484256776E+00
 0.1541275607473E+00
 0.1361640335817E+00
 0.1132487892777E+00
 0.8480053575973E-01
 0.5438132273039E-01
 0.2586737588290E-01
 0.3324162719870E-02
 0.2618085011010E+00
 0.1848328860069E+00
 0.2358245881669E-01
 0.6884249521781E-01
 0.1101383838211E+00
 0.1269156479080E+00
 0.1353437132883E+00
 0.1439889039233E+00
 0.1520077363384E+00
 0.1573068812977E+00
 0.1593287933912E+00
 0.1578100286578E+00
 0.1524078905128E+00
 0.1426207148898E+00
 0.1280854347366E+00
 0.1086311963040E+00
 0.8474796317728E-01
 0.5751915082287E-01
 0.2857634035183E-01
 0.2975461345169E-02
 0.2285679204582E+00
 0.1900614139378E+00
 0.8737552464026E-01
 0.2132028691541E-02
 0.5500752528681E-01
 0.8533436366479E-01
 0.1035895580314E+00
 0.1164625112135E+00
 0.1262584753097E+00
 0.1331384032723E+00
 0.1370967926440E+00
 0.1379619796080E+00
 0.1354233945161E+00
 0.1290090382746E+00
 0.1182285509552E+00
 0.1028247755598E+00
 0.8306824836289E-01
 0.5882682814715E-01
 0.3042674654945E-01
 0.2236328119450E-02
 0.2076558292921E+00
 0.1862771520889E+00
 0.1242123971689E+00
 0.5503161309260E-01
 0.1945629890075E-02
 0.4027271778705E-01
 0.6656731226082E-01
 0.8443181893989E-01
 0.9705837233912E-01
 0.1060577102298E+00
 0.1121495319515E+00
 0.1154656677184E+00
 0.1158309347408E+00
 0.1128518976774E+00
 0.1059923798521E+00
 0.9482973708717E-01
 0.7940997763884E-01
 0.5859212434959E-01
 0.3175996826966E-01
 0.1431043202860E-02
 0.1943238872902E+00
 0.1817482952299E+00
 0.1468461927125E+00
 0.9795467609342E-01
 0.4801344772091E-01
 0.6027466959949E-02
 0.2594159671629E-01
 0.4832328114861E-01
 0.6416723551482E-01
 0.7569310282161E-01
 0.8413136560506E-01
 0.8995907282051E-01
 0.9321916790851E-01
 0.9366081615887E-01
 0.9075741422478E-01
 0.8397217183998E-01
 0.7315805141923E-01
 0.5640464669618E-01
 0.3227543502877E-01
 0.2639260047026E-02
 0.1858642755211E+00
 0.1786446468482E+00
 0.1619460140504E+00
 0.1306707917462E+00
 0.9072626351610E-01
 0.5068922789427E-01
 0.1660321081040E-01
 0.9085112256340E-02
 0.2784533852301E-01
 0.4194467083409E-01
 0.5280411658199E-01
 0.6114268128117E-01
 0.6722573457106E-01
 0.7098366369302E-01
 0.7196399487230E-01
 0.6958582650478E-01
 0.6358998904834E-01
 0.5150023880461E-01
 0.3114351755319E-01
 0.4286519737098E-02
 0.1805840234068E+00
 0.1773328692648E+00
 0.1731043836181E+00
 0.1561387116990E+00
 0.1271300295735E+00
 0.9248048765332E-01
 0.5921762527340E-01
 0.3213839065176E-01
 0.1127821647320E-01
 0.5042635526156E-02
 0.1814479104749E-01
 0.2885188895685E-01
 0.3758409444069E-01
 0.4445059735071E-01
 0.4911918667517E-01
 0.5103752235816E-01
 0.4991699736722E-01
 0.4291171732003E-01
 0.2717238343892E-01
 0.4206733266846E-02
 0.1773930029872E+00
 0.1776552078104E+00
 0.1822521392903E+00
 0.1766491210801E+00
 0.1581179470639E+00
 0.1305932746844E+00
 0.1006238540626E+00
 0.7407250091900E-01
 0.5235748278524E-01
 0.3457915244977E-01
 0.1970683137973E-01
 0.7075228846733E-02
 0.4424334580077E-02
 0.1387793334700E-01
 0.2186826632952E-01
 0.2779088509969E-01
 0.3138429896012E-01
 0.2961694852306E-01
 0.1902695177915E-01
 0.1372555094195E-02
 0.1755652765750E+00
 0.1793088339420E+00
 0.1904301365206E+00
 0.1938275441474E+00
 0.1847527151126E+00
 0.1649948205760E+00
 0.1399737129018E+00
 0.1156924759505E+00
 0.9448915186489E-01
 0.7621389515615E-01
 0.6024516988200E-01
 0.4604249265419E-01
 0.3316256532534E-01
 0.2129824437380E-01
 0.1060737972364E-01
 0.2906296924509E-02
 0.7705635874540E-02
 0.1085403134377E-01
 0.5796043023943E-02
 0.8841257512081E-02
 0.1746061274759E+00
 0.1819755787385E+00
 0.1981856135038E+00
 0.2087849600000E+00
 0.2080088373031E+00
 0.1960013837106E+00
 0.1768875206136E+00
 0.1562406843834E+00
 0.1368523592762E+00
 0.1191683325787E+00
 0.1029843973504E+00
 0.8800671594793E-01
 0.7389835812987E-01
 0.6032088664915E-01
 0.4724284410083E-01
 0.3489706181619E-01
 0.2334528376666E-01
 0.1549365821814E-01
 0.1563240339011E-01
 0.2453338938302E-01
 0.1741731020729E+00
 0.1853650641106E+00
 0.2057855736251E+00
 0.2222599982074E+00
 0.2286893423419E+00
 0.2240656496360E+00
 0.2113001924464E+00
 0.1952499723245E+00
 0.1787900129520E+00
 0.1627593389395E+00
 0.1473044008506E+00
 0.1323846720841E+00
 0.1178188016994E+00
 0.1033102455833E+00
 0.8876061851526E-01
 0.7427378870771E-01
 0.5975997772664E-01
 0.4784786259094E-01
 0.4336624707295E-01
 0.4803381831182E-01
 0.1740271993193E+00
 0.1892267265713E+00
 0.2133354684044E+00
 0.2347282582503E+00
 0.2474155381569E+00
 0.2496551728438E+00
 0.2433303426356E+00
 0.2324854540063E+00
 0.2198273688215E+00
 0.2063968005460E+00
 0.1925939338108E+00
 0.1785999738924E+00
 0.1644047132481E+00
 0.1497981559879E+00
 0.1346589444112E+00
 0.1189858087834E+00
 0.1025501108815E+00
 0.8757406874957E-01
 0.7910360648138E-01
 0.7985075725893E-01
 0.1740015625482E+00
 0.1933503601085E+00
 0.2208474192138E+00
 0.2464810007736E+00
 0.2646446452537E+00
 0.2731897360042E+00
 0.2731828925319E+00
 0.2678731952563E+00
 0.2596519771297E+00
 0.2496069551775E+00
 0.2382919353701E+00
 0.2260590443872E+00
 0.2130625750419E+00
 0.1992096857203E+00
 0.1844001295444E+00
 0.1685587203179E+00
 0.1513222731206E+00
 0.1343764321273E+00
 0.1227500118666E+00
 0.1200385748386E+00
 0.1739808155559E+00
 0.1975627555428E+00
 0.2282805283029E+00
 0.2576806426654E+00
 0.2806955008359E+00
 0.2950136099421E+00
 0.3010836867134E+00
 0.3014353811460E+00
 0.2980764011778E+00
 0.2920298278562E+00
 0.2839134911532E+00
 0.2741923838970E+00
 0.2631636107049E+00
 0.2508707967151E+00
 0.2372825787817E+00
 0.2222999793189E+00
 0.2054482241138E+00
 0.1877531246006E+00
 0.1739174998272E+00
 0.1682095161598E+00
 0.1738871575820E+00
 0.2017234791307E+00
 0.2355652437952E+00
 0.2683997142223E+00
 0.2957742296855E+00
 0.3153872360223E+00
 0.3272388428789E+00
 0.3332385621154E+00
 0.3349970099488E+00
 0.3334008597462E+00
 0.3290580418195E+00
 0.3224864371090E+00
 0.3140912201793E+00
 0.3040579887045E+00
 0.2924744177269E+00
 0.2792975094224E+00
 0.2640105978855E+00
 0.2468941044945E+00
 0.2319019292674E+00
 0.2236055082054E+00
 0.1736710499531E+00
 0.2057210249484E+00
 0.2426183641810E+00
 0.2786480652674E+00
 0.3099969231360E+00
 0.3344891272589E+00
 0.3518115829425E+00
 0.3633553594341E+00
 0.3703552315838E+00
 0.3735236618739E+00
 0.3734024475216E+00
 0.3705030339039E+00
 0.3652882619314E+00
 0.3580670541057E+00
 0.3490814286310E+00
 0.3384531421107E+00
 0.3257862620992E+00
 0.3106501370762E+00
 0.2957323103909E+00
 0.2852059502764E+00
 0.1733052350089E+00
 0.2094704608161E+00
 0.2493517932925E+00
 0.2883917422463E+00
 0.3234082170475E+00
 0.3524229203421E+00
 0.3749110940070E+00
 0.3918382076512E+00
 0.4041041534976E+00
 0.4122376982008E+00
 0.4166789328225E+00
 0.4178798707604E+00
 0.4162956441661E+00
 0.4122992835568E+00
 0.4062734169831E+00
 0.3985828532454E+00
 0.3892268888555E+00
 0.3774322181792E+00
 0.3641515780326E+00
 0.3518855909362E+00
 0.1727833680024E+00
 0.2129106909366E+00
 0.2556784792693E+00
 0.2975632814076E+00
 0.3359965422600E+00
 0.3692264759189E+00
 0.3965897236672E+00
 0.4187040539743E+00
 0.4361829736670E+00
 0.4493847099048E+00
 0.4586371695942E+00
 0.4642993613578E+00
 0.4667537928250E+00
 0.4663407033904E+00
 0.4634716808011E+00
 0.4587151819407E+00
 0.4525943704635E+00
 0.4449031153280E+00
 0.4354066224712E+00
 0.4225374048360E+00
 0.1721192076719E+00
 0.2160195694481E+00
 0.2614972540956E+00
 0.3060712623988E+00
 0.3477061593673E+00
 0.3848801740456E+00
 0.4168455310894E+00
 0.4439302480132E+00
 0.4665036753587E+00
 0.4847815910338E+00
 0.4989972587635E+00
 0.5094174409718E+00
 0.5163211796781E+00
 0.5199320094842E+00
 0.5205146573568E+00
 0.5185595592907E+00
 0.5149179392721E+00
 0.5100127085242E+00
 0.5056323357400E+00
 0.4962501962458E+00
 0.1714507352127E+00
 0.2186831074377E+00
 0.2666874020918E+00
 0.3138219263963E+00
 0.3584440250417E+00
 0.3993036051573E+00
 0.4356296125221E+00
 0.4674650337102E+00
 0.4949547724419E+00
 0.5182133078938E+00
 0.5374168704743E+00
 0.5527782905565E+00
 0.5644984268889E+00
 0.5726886470290E+00
 0.5774079936422E+00
 0.5787730358121E+00
 0.5772012344756E+00
 0.5730650428825E+00
 0.5685911957641E+00
 0.5675770991559E+00
 0.3557357880538E+00
 0.5012718721903E+00
 0.6419531950139E+00
 0.7712885553266E+00
 0.8868590145989E+00
 0.9879031262782E+00
 0.1074443161797E+01
 0.1147368374740E+01
 0.1208100214976E+01
 0.1258190070565E+01
 0.1299103285384E+01
 0.1332163272030E+01
 0.1358555151273E+01
 0.1379279656084E+01
 0.1395148642003E+01
 0.1406861317418E+01
 0.1415184850904E+01
 0.1420433902270E+01
 0.1424169158377E+01
 0.1429805136673E+01
 0.3750442325626E+00
 0.5292995859977E+00
 0.6766170016490E+00
 0.8103044756163E+00
 0.9275131363032E+00
 0.1027539026034E+01
 0.1110719405763E+01
 0.1178446395684E+01
 0.1232735959011E+01
 0.1275642125453E+01
 0.1308990598845E+01
 0.1334357248128E+01
 0.1353119095490E+01
 0.1366437560524E+01
 0.1375308033896E+01
 0.1380729120093E+01
 0.1383909834603E+01
 0.1385099951705E+01
 0.1385762002214E+01
 0.1384029458481E+01
 0.3956060528789E+00
 0.5598657267118E+00
 0.7141075356877E+00
 0.8514756473126E+00
 0.9691104589906E+00
 0.1066589942602E+01
 0.1144740572784E+01
 0.1205551342757E+01
 0.1251776162372E+01
 0.1286081187439E+01
 0.1310694805785E+01
 0.1327463362738E+01
 0.1337972858649E+01
 0.1343549684640E+01
 0.1345342032632E+01
 0.1344472670194E+01
 0.1342060450371E+01
 0.1337695109536E+01
 0.1331828941324E+01
 0.1325414779713E+01
 0.4179645396456E+00
 0.5933190165549E+00
 0.7546453786566E+00
 0.8948816692348E+00
 0.1011459841098E+01
 0.1104549765873E+01
 0.1175697422686E+01
 0.1227699716327E+01
 0.1264215635521E+01
 0.1288595479317E+01
 0.1303476945143E+01
 0.1310955743620E+01
 0.1312784039491E+01
 0.1310368972269E+01
 0.1304864126846E+01
 0.1297284880124E+01
 0.1288418674341E+01
 0.1277144745930E+01
 0.1265095822445E+01
 0.1256797817229E+01
 0.4425250699559E+00
 0.6302487361190E+00
 0.7985587694936E+00
 0.9405283317822E+00
 0.1054199009413E+01
 0.1140693547605E+01
 0.1202596684631E+01
 0.1243786957138E+01
 0.1268999062534E+01
 0.1282291417459E+01
 0.1286661884282E+01
 0.1284382068606E+01
 0.1277275381026E+01
 0.1266705091818E+01
 0.1253692648693E+01
 0.1239044799413E+01
 0.1223193573834E+01
 0.1204898803888E+01
 0.1187702926576E+01
 0.1178765376039E+01
 0.4697485261573E+00
 0.6712893894223E+00
 0.8462096561426E+00
 0.9883305384675E+00
 0.1096774750257E+01
 0.1174073301817E+01
 0.1224252864183E+01
 0.1252596475063E+01
 0.1265051875034E+01
 0.1266335811520E+01
 0.1259691939391E+01
 0.1247446545436E+01
 0.1231370228796E+01
 0.1212659854728E+01
 0.1192118654181E+01
 0.1170324642363E+01
 0.1147455196224E+01
 0.1122504403221E+01
 0.1100981471962E+01
 0.1092150521112E+01
 0.5001765851931E+00
 0.7171519988271E+00
 0.8979363295992E+00
 0.1038066761815E+01
 0.1138408357399E+01
 0.1203496381348E+01
 0.1239293497013E+01
 0.1252832096886E+01
 0.1251333588588E+01
 0.1240022024749E+01
 0.1222202941433E+01
 0.1200098505451E+01
 0.1175291010871E+01
 0.1148705318497E+01
 0.1120875867868E+01
 0.1092167388752E+01
 0.1062562501015E+01
 0.1031474344492E+01
 0.1006288282691E+01
 0.9980152624226E+00
 0.5344590727427E+00
 0.7686327062390E+00
 0.9540240449843E+00
 0.1089321774517E+01
 0.1178045478783E+01
 0.1227503838263E+01
 0.1246178650890E+01
 0.1243174570237E+01
 0.1226914306832E+01
 0.1202851291445E+01
 0.1174100591456E+01
 0.1142595755576E+01
 0.1109596146703E+01
 0.1075668249180E+01
 0.1041049901404E+01
 0.1005907031093E+01
 0.9700447594389E+00
 0.9334159554518E+00
 0.9051351470720E+00
 0.8976653307163E+00
 0.5733829005736E+00
 0.8266238057179E+00
 0.1014665244045E+01
 0.1141417642699E+01
 0.1214295849683E+01
 0.1244355375724E+01
 0.1243244180981E+01
 0.1222366601915E+01
 0.1191072214091E+01
 0.1154619720871E+01
 0.1115623520182E+01
 0.1075535805482E+01
 0.1035172961641E+01
 0.9946813623906E+00
 0.9539921026889E+00
 0.9130837243254E+00
 0.8715800765422E+00
 0.8300747046130E+00
 0.7992333082946E+00
 0.7926353261042E+00
 0.6179092762217E+00
 0.8921232777273E+00
 0.1079902178156E+01
 0.1193321697291E+01
 0.1245365124418E+01
 0.1252031925601E+01
 0.1228781038886E+01
 0.1189332061838E+01
 0.1143407711188E+01
 0.1095499927726E+01
 0.1047382541873E+01
 0.9998536474311E+00
 0.9532002902922E+00
 0.9071203067646E+00
 0.8612480991821E+00
 0.8153887630171E+00
 0.7689760826932E+00
 0.7233448111730E+00
 0.6904949353049E+00
 0.6846951600770E+00
 0.6692241172912E+00
 0.9662415211404E+00
 0.1149538371736E+01
 0.1243520907741E+01
 0.1268982448664E+01
 0.1248273381711E+01
 0.1201167306707E+01
 0.1143332425593E+01
 0.1083963358654E+01
 0.1026100847267E+01
 0.9703639648643E+00
 0.9167841277556E+00
 0.8650866173509E+00
 0.8145322412450E+00
 0.7644907264219E+00
 0.7146148209404E+00
 0.6641450409734E+00
 0.6152591526605E+00
 0.5810284140960E+00
 0.5758684203934E+00
 0.7288091921934E+00
 0.1050200056629E+01
 0.1222997036015E+01
 0.1289848109493E+01
 0.1282335810510E+01
 0.1230680957941E+01
 0.1159072316872E+01
 0.1084153891896E+01
 0.1013325530683E+01
 0.9474815323524E+00
 0.8858848874724E+00
 0.8277900194828E+00
 0.7723911401822E+00
 0.7185602446396E+00
 0.6654542796890E+00
 0.6126056607589E+00
 0.5590710852750E+00
 0.5079700455210E+00
 0.4731322399447E+00
 0.4684600716198E+00
 0.7985462311698E+00
 0.1145309740744E+01
 0.1299086574436E+01
 0.1329242253784E+01
 0.1282046013322E+01
 0.1196932319129E+01
 0.1101746738554E+01
 0.1012294750373E+01
 0.9326635957744E+00
 0.8610915098462E+00
 0.7954978562069E+00
 0.7344680620696E+00
 0.6767408505784E+00
 0.6208700075240E+00
 0.5658697460805E+00
 0.5112015999458E+00
 0.4557685443250E+00
 0.4037217108373E+00
 0.3692846893577E+00
 0.3650868848382E+00
 0.8808750650669E+00
 0.1252897844495E+01
 0.1375597685135E+01
 0.1357426648181E+01
 0.1264252122331E+01
 0.1145179892458E+01
 0.1029382386728E+01
 0.9290753795806E+00
 0.8436453751859E+00
 0.7686259153937E+00
 0.7008677784158E+00
 0.6384593646906E+00
 0.5797583953156E+00
 0.5230819113328E+00
 0.4673976744952E+00
 0.4121756290622E+00
 0.3562261117529E+00
 0.3048083386888E+00
 0.2721192021223E+00
 0.2686990216331E+00
 0.9790439996226E+00
 0.1374106185135E+01
 0.1448582172688E+01
 0.1368516869411E+01
 0.1224970148813E+01
 0.1074710480019E+01
 0.9434309631591E+00
 0.8365292973032E+00
 0.7481838825297E+00
 0.6718408774691E+00
 0.6036752844914E+00
 0.5413914682313E+00
 0.4830044302779E+00
 0.4267022915104E+00
 0.3715516268588E+00
 0.3171540628743E+00
 0.2623282447872E+00
 0.2135042956956E+00
 0.1843653362615E+00
 0.1825691017420E+00
 0.1097523271329E+01
 0.1509342372212E+01
 0.1511012061148E+01
 0.1354684916814E+01
 0.1161075758902E+01
 0.9868390860162E+00
 0.8465727815643E+00
 0.7368994335268E+00
 0.6481124230189E+00
 0.5724477173190E+00
 0.5055983887496E+00
 0.4448517819773E+00
 0.3879166074900E+00
 0.3330405560944E+00
 0.2796079248109E+00
 0.2275184598141E+00
 0.1757438624834E+00
 0.1319422545382E+00
 0.1087171598812E+00
 0.1101989563110E+00
 0.1242736938308E+01
 0.1656746466600E+01
 0.1550146278180E+01
 0.1306536728535E+01
 0.1072476929679E+01
 0.8855958616635E+00
 0.7416317249332E+00
 0.6319760121213E+00
 0.5450624397514E+00
 0.4721895771934E+00
 0.4083612493255E+00
 0.3503436044847E+00
 0.2957143669714E+00
 0.2431091460281E+00
 0.1925066147961E+00
 0.1442950090171E+00
 0.9777044375656E-01
 0.6190752726147E-01
 0.4755883190991E-01
 0.5504314698140E-01
 0.1424255639712E+01
 0.1807082489109E+01
 0.1542759054892E+01
 0.1216188471193E+01
 0.9664613700220E+00
 0.7755033745484E+00
 0.6300604007046E+00
 0.5229306615282E+00
 0.4407435219535E+00
 0.3730785741657E+00
 0.3137263676192E+00
 0.2591490529540E+00
 0.2072703763653E+00
 0.1575245742014E+00
 0.1107674623944E+00
 0.6802807652814E-01
 0.2915363240825E-01
 0.4562510797288E-02
 0.2492495097805E-02
 0.1985702416366E-01
 0.1657932884365E+01
 0.1926716525122E+01
 0.1444246805561E+01
 0.1097384828918E+01
 0.8534252319276E+00
 0.6578069191125E+00
 0.5116436630326E+00
 0.4108970986592E+00
 0.3376788667635E+00
 0.2775039363072E+00
 0.2232334857677E+00
 0.1720997717450E+00
 0.1230123358396E+00
 0.7648328573418E-01
 0.3436379428444E-01
 0.1309556384200E-02
 0.3014235740861E-01
 0.4016777452917E-01
 0.2677637770676E-01
 0.5666316609628E-02
 0.1944482269850E+01
 0.1813582945460E+01
 0.1271857762043E+01
 0.9790117460021E+00
 0.7363760064749E+00
 0.5305079154456E+00
 0.3846107371846E+00
 0.2990982392962E+00
 0.2397447827173E+00
 0.1876441321860E+00
 0.1377260282122E+00
 0.8939509171747E-01
 0.4295489362800E-01
 0.1766836461687E-03
 0.3729062943336E-01
 0.6504638716475E-01
 0.8021622911318E-01
 0.7265397257857E-01
 0.4321599438757E-01
 0.8033145932672E-02
 0.5794885146425E+00
 0.5049102117998E+00
 0.4345984268341E+00
 0.3663039822798E+00
 0.3005129090754E+00
 0.2389811259382E+00
 0.1833117311732E+00
 0.1348720215560E+00
 0.9467691725477E-01
 0.6330073500127E-01
 0.4079331289905E-01
 0.2662544798463E-01
 0.1969612874291E-01
 0.1840253427942E-01
 0.2072817683382E-01
 0.2450192693488E-01
 0.2782971448953E-01
 0.2949712345673E-01
 0.2926570460536E-01
 0.2779838028349E-01
 0.6207146214731E+00
 0.5551839307853E+00
 0.4825298889791E+00
 0.4111977513036E+00
 0.3424299458564E+00
 0.2774338416655E+00
 0.2177497944407E+00
 0.1649128458484E+00
 0.1202535750475E+00
 0.8472918784746E-01
 0.5878252234387E-01
 0.4223021492447E-01
 0.3420180970403E-01
 0.3312944134014E-01
 0.3680289219341E-01
 0.4262629592338E-01
 0.4809124522411E-01
 0.5133870935616E-01
 0.5163090858198E-01
 0.4982694011998E-01
 0.6629886221721E+00
 0.6020137584204E+00
 0.5329999124271E+00
 0.4612628115824E+00
 0.3904795835856E+00
 0.3224646444627E+00
 0.2588786174812E+00
 0.2014215445460E+00
 0.1517108923661E+00
 0.1111044558313E+00
 0.8051454483498E-01
 0.6023436748803E-01
 0.4979607865182E-01
 0.4786901178580E-01
 0.5222778202084E-01
 0.5993021730336E-01
 0.6779226693209E-01
 0.7309064251061E-01
 0.7432553200218E-01
 0.7167415767882E-01
 0.7082337437147E+00
 0.6503280781152E+00
 0.5849632196930E+00
 0.5151957672823E+00
 0.4441580168822E+00
 0.3742390495711E+00
 0.3073842162075E+00
 0.2454897225049E+00
 0.1904367694626E+00
 0.1439716070355E+00
 0.1075186562333E+00
 0.8196401435669E-01
 0.6743527792887E-01
 0.6309400084338E-01
 0.6697012744520E-01
 0.7597715833937E-01
 0.8628343828880E-01
 0.9410353535693E-01
 0.9675523267631E-01
 0.9340309183035E-01
 0.7559257198176E+00
 0.7009499649896E+00
 0.6393482442793E+00
 0.5726086588422E+00
 0.5030285862442E+00
 0.4327834317825E+00
 0.3638987482186E+00
 0.2983706148117E+00
 0.2382457255937E+00
 0.1855689056091E+00
 0.1422346145861E+00
 0.1097688901405E+00
 0.8906155522983E-01
 0.8006362801268E-01
 0.8146738868722E-01
 0.9047429998030E-01
 0.1028896089247E+00
 0.1137960680032E+00
 0.1189059294879E+00
 0.1159968858502E+00
 0.8055919962896E+00
 0.7537861136035E+00
 0.6961852764311E+00
 0.6332713639817E+00
 0.5665085236767E+00
 0.4976092639049E+00
 0.4283616205597E+00
 0.3606517997534E+00
 0.2965045252294E+00
 0.2380742119303E+00
 0.1875557606121E+00
 0.1470119832737E+00
 0.1181173267429E+00
 0.1018165296319E+00
 0.9789250495863E-01
 0.1044792376053E+00
 0.1177131060257E+00
 0.1319198401663E+00
 0.1408981618640E+00
 0.1403411820607E+00
 0.8567691889820E+00
 0.8085270750483E+00
 0.7552482479869E+00
 0.6968106767985E+00
 0.6340034981175E+00
 0.5680108755910E+00
 0.5002292910296E+00
 0.4322417207739E+00
 0.3658441811009E+00
 0.3030620888016E+00
 0.2461231116355E+00
 0.1973628998399E+00
 0.1590442398992E+00
 0.1330668040493E+00
 0.1205335877855E+00
 0.1211331210629E+00
 0.1323721019328E+00
 0.1489257887651E+00
 0.1629614552564E+00
 0.1668630574192E+00
 0.9089769080593E+00
 0.8647227847747E+00
 0.8161082543908E+00
 0.7626931854986E+00
 0.7047791407318E+00
 0.6430800105560E+00
 0.5785679229906E+00
 0.5124341536637E+00
 0.4461054062525E+00
 0.3812756620965E+00
 0.3199256396482E+00
 0.2643076209313E+00
 0.2168718849112E+00
 0.1801037008804E+00
 0.1562228504232E+00
 0.1466626225123E+00
 0.1512104821487E+00
 0.1667230014574E+00
 0.1856603440725E+00
 0.1966896626134E+00
 0.9617356347885E+00
 0.9218611967345E+00
 0.8782250261031E+00
 0.8302601990611E+00
 0.7779588890950E+00
 0.7216771076154E+00
 0.6620201813120E+00
 0.5998025208310E+00
 0.5360545369857E+00
 0.4720538514406E+00
 0.4093640175920E+00
 0.3498664994938E+00
 0.2957705334672E+00
 0.2495792515616E+00
 0.2139758470008E+00
 0.1915611019437E+00
 0.1842991797308E+00
 0.1924059085831E+00
 0.2120712990777E+00
 0.2316793910297E+00
 0.1014584445969E+01
 0.9794255356390E+00
 0.9410280596127E+00
 0.8988184619462E+00
 0.8526239514426E+00
 0.8025647304715E+00
 0.7489773057543E+00
 0.6923805970734E+00
 0.6334758428353E+00
 0.5731693905156E+00
 0.5126095388398E+00
 0.4532304239902E+00
 0.3967961276904E+00
 0.3454359418952E+00
 0.3016551652648E+00
 0.2682891477111E+00
 0.2483279680267E+00
 0.2444183469512E+00
 0.2575843713460E+00
 0.2825555982506E+00
 0.1067094385595E+01
 0.1036924900920E+01
 0.1003961968244E+01
 0.9676973424240E+00
 0.9278953094377E+00
 0.8845421275938E+00
 0.8378017416307E+00
 0.7879929819007E+00
 0.7355886909327E+00
 0.6812330750374E+00
 0.6257737156849E+00
 0.5703058498344E+00
 0.5162277412114E+00
 0.4653069063070E+00
 0.4197574733152E+00
 0.3823290142713E+00
 0.3564044768679E+00
 0.3461038060400E+00
 0.3563496656477E+00
 0.3931351685185E+00
 0.1118852066387E+01
 0.1093865308188E+01
 0.1066461700151E+01
 0.1036233094545E+01
 0.1002942180290E+01
 0.9665111373579E+00
 0.9270020591354E+00
 0.8846059198371E+00
 0.8396448491690E+00
 0.7925882610509E+00
 0.7440826817744E+00
 0.6949959745822E+00
 0.6464783542085E+00
 0.6000452101582E+00
 0.5576911091772E+00
 0.5220523124675E+00
 0.4966527486246E+00
 0.4863103488869E+00
 0.4979220787522E+00
 0.5425698179551E+00
 0.1169453574000E+01
 0.1149728775855E+01
 0.1127912596664E+01
 0.1103702075525E+01
 0.1076889223907E+01
 0.1047373312989E+01
 0.1015157951613E+01
 0.9803489803862E+00
 0.9431594612589E+00
 0.9039242109801E+00
 0.8631253014289E+00
 0.8214303598486E+00
 0.7797468696339E+00
 0.7392980689781E+00
 0.7017300434052E+00
 0.6692666050929E+00
 0.6449413105127E+00
 0.6329603506358E+00
 0.6393065349266E+00
 0.6725014669517E+00
 0.1218520073209E+01
 0.1204010439237E+01
 0.1187696350268E+01
 0.1169366834646E+01
 0.1148853875637E+01
 0.1126054925726E+01
 0.1100939433009E+01
 0.1073552096989E+01
 0.1044018834275E+01
 0.1012558311020E+01
 0.9795007412600E+00
 0.9453155611879E+00
 0.9106501690556E+00
 0.8763830532202E+00
 0.8436963476811E+00
 0.8141751256291E+00
 0.7899425343171E+00
 0.7738374856282E+00
 0.7695952715994E+00
 0.7819126277345E+00
 0.1265703437693E+01
 0.1256243757252E+01
 0.1245232814781E+01
 0.1232530661564E+01
 0.1218006809790E+01
 0.1201564028945E+01
 0.1183148566428E+01
 0.1162755493147E+01
 0.1140433863262E+01
 0.1116294118356E+01
 0.1090519039507E+01
 0.1063379063645E+01
 0.1035252607720E+01
 0.1006651945569E+01
 0.9782548799127E+00
 0.9509413481482E+00
 0.9258310408827E+00
 0.9043080216931E+00
 0.8880054270826E+00
 0.8787306107233E+00
 0.1310687290019E+01
 0.1306008633408E+01
 0.1299996782128E+01
 0.1292561134089E+01
 0.1283599284560E+01
 0.1273017656604E+01
 0.1260741636635E+01
 0.1246720574905E+01
 0.1230930865599E+01
 0.1213378814476E+01
 0.1194104030199E+01
 0.1173183408185E+01
 0.1150735186573E+01
 0.1126921819307E+01
 0.1101949259314E+01
 0.1076058389918E+01
 0.1049501363074E+01
 0.1022494022112E+01
 0.9951402998196E+00
 0.9673253272010E+00
 0.1353187384157E+01
 0.1352933235939E+01
 0.1351524036806E+01
 0.1348899652864E+01
 0.1344973931510E+01
 0.1339650881527E+01
 0.1332832843095E+01
 0.1324423792149E+01
 0.1314329812117E+01
 0.1302457797792E+01
 0.1288712700819E+01
 0.1272992995819E+01
 0.1255183417046E+01
 0.1235143255067E+01
 0.1212687496301E+01
 0.1187556754083E+01
 0.1159370729031E+01
 0.1127559361621E+01
 0.1091269265802E+01
 0.1049260529600E+01
 0.1392952139928E+01
 0.1396693904856E+01
 0.1399413025931E+01
 0.1401064845460E+01
 0.1401568134777E+01
 0.1400817260127E+01
 0.1398687939948E+01
 0.1395038504940E+01
 0.1389707949814E+01
 0.1382511447457E+01
 0.1373233462613E+01
 0.1361618142888E+01
 0.1347356237249E+01
 0.1330067358296E+01
 0.1309275945878E+01
 0.1284378855547E+01
 0.1254601953111E+01
 0.1218942098836E+01
 0.1176084825707E+01
 0.1124289532570E+01
 0.1429763105813E+01
 0.1437014262561E+01
 0.1443324179003E+01
 0.1448652389141E+01
 0.1452913135108E+01
 0.1455984711541E+01
 0.1457713269354E+01
 0.1457912408449E+01
 0.1456359517788E+01
 0.1452789397270E+01
 0.1446885343360E+01
 0.1438267622467E+01
 0.1426479092049E+01
 0.1410967675292E+01
 0.1391065493474E+01
 0.1365964734590E+01
 0.1334690760395E+01
 0.1296072785632E+01
 0.1248711487237E+01
 0.1190902637088E+01
 0.1463435057213E+01
 0.1473663721177E+01
 0.1482977699303E+01
 0.1491332363288E+01
 0.1498630064205E+01
 0.1504728220403E+01
 0.1509442047531E+01
 0.1512543258999E+01
 0.1513755674226E+01
 0.1512748305194E+01
 0.1509126261708E+01
 0.1502419705806E+01
 0.1492071108652E+01
 0.1477421250089E+01
 0.1457694804041E+01
 0.1431987062957E+01
 0.1399254528561E+01
 0.1358314472778E+01
 0.1307863282906E+01
 0.1246554635708E+01
 0.1493814545380E+01
 0.1506454128736E+01
 0.1518149049065E+01
 0.1528843636430E+01
 0.1538422687186E+01
 0.1546719624911E+01
 0.1553519069384E+01
 0.1558555561949E+01
 0.1561509467688E+01
 0.1562000747041E+01
 0.1559581107895E+01
 0.1553724996834E+01
 0.1543819959727E+01
 0.1529157112280E+01
 0.1508922843244E+01
 0.1482193495975E+01
 0.1447935830871E+01
 0.1405018161899E+01
 0.1352242397032E+01
 0.1288433529677E+01
 0.1520776857208E+01
 0.1535235464968E+01
 0.1548663168940E+01
 0.1560986759419E+01
 0.1572069151284E+01
 0.1581718059723E+01
 0.1589689298762E+01
 0.1595686394564E+01
 0.1599357676971E+01
 0.1600291678286E+01
 0.1598011483388E+01
 0.1591968589790E+01
 0.1581536830269E+01
 0.1566006965043E+01
 0.1544582646139E+01
 0.1516378558250E+01
 0.1480421573111E+01
 0.1435655176581E+01
 0.1380945402872E+01
 0.1315049500337E+01
 0.1544228639395E+01
 0.1559899943708E+01
 0.1574398335400E+01
 0.1587627617823E+01
 0.1599425291925E+01
 0.1609572599648E+01
 0.1617799330685E+01
 0.1623785027087E+01
 0.1627157897340E+01
 0.1627492426335E+01
 0.1624306422150E+01
 0.1617058063530E+01
 0.1605143365055E+01
 0.1587894310059E+01
 0.1564577643902E+01
 0.1534393867822E+01
 0.1496475048828E+01
 0.1449878205306E+01
 0.1393564094910E+01
 0.1326350650620E+01
 0.1564105630249E+01
 0.1580378822429E+01
 0.1595282475383E+01
 0.1608692529945E+01
 0.1620417775204E+01
 0.1630212614368E+01
 0.1637784107717E+01
 0.1642795204988E+01
 0.1644865776270E+01
 0.1643572640602E+01
 0.1638449434458E+01
 0.1628986870768E+01
 0.1614633668268E+01
 0.1594798112056E+01
 0.1568849756510E+01
 0.1536120095640E+01
 0.1495900083157E+01
 0.1447431115400E+01
 0.1389887994789E+01
 0.1322365695746E+01
 0.1580371124700E+01
 0.1596639563227E+01
 0.1611289474314E+01
 0.1624163331332E+01
 0.1635037488731E+01
 0.1643639195674E+01
 0.1649656389178E+01
 0.1652743013392E+01
 0.1652522060091E+01
 0.1648587850827E+01
 0.1640508540146E+01
 0.1627829418780E+01
 0.1610077276775E+01
 0.1586765779689E+01
 0.1557401449107E+01
 0.1521489386774E+01
 0.1478537365534E+01
 0.1428057170690E+01
 0.1369564635936E+01
 0.1302580632962E+01
 0.1593014608803E+01
 0.1608683875152E+01
 0.1622436420487E+01
 0.1634073491331E+01
 0.1643334300551E+01
 0.1649918683948E+01
 0.1653499609424E+01
 0.1653730090008E+01
 0.1650247667253E+01
 0.1642678416193E+01
 0.1630641603942E+01
 0.1613755637815E+01
 0.1591645662275E+01
 0.1563953037668E+01
 0.1530346932712E+01
 0.1490538377881E+01
 0.1444297342327E+01
 0.1391473171094E+01
 0.1332016204250E+01
 0.1265992723393E+01
 0.1602050229613E+01
 0.1616546245507E+01
 0.1628781653359E+01
 0.1638505047391E+01
 0.1645412669411E+01
 0.1649177265601E+01
 0.1649462263147E+01
 0.1645929030068E+01
 0.1638241742965E+01
 0.1626072252718E+01
 0.1609106142588E+01
 0.1587050591678E+01
 0.1559644472006E+01
 0.1526671237070E+01
 0.1487975620718E+01
 0.1443486040417E+01
 0.1393245855296E+01
 0.1337457471401E+01
 0.1276539959586E+01
 0.1211189344058E+01
 0.1607515159585E+01
 0.1620292940902E+01
 0.1630423408217E+01
 0.1637586018213E+01
 0.1641427670822E+01
 0.1641596144736E+01
 0.1637753259728E+01
 0.1629580322336E+01
 0.1616781874155E+01
 0.1599090334509E+01
 0.1576272518172E+01
 0.1548138351678E+01
 0.1514551995334E+01
 0.1475445857422E+01
 0.1430838708479E+01
 0.1380860461672E+01
 0.1325788642812E+01
 0.1266106403409E+01
 0.1202601778938E+01
 0.1136529024938E+01
 0.1609468172539E+01
 0.1620021770683E+01
 0.1627498892905E+01
 0.1631487584685E+01
 0.1631580267488E+01
 0.1627405741949E+01
 0.1618636373885E+01
 0.1604988625592E+01
 0.1586223912011E+01
 0.1562151959211E+01
 0.1532636910470E+01
 0.1497605750797E+01
 0.1457058486561E+01
 0.1411079662616E+01
 0.1359851171317E+01
 0.1303667097086E+01
 0.1242953169011E+01
 0.1178298664306E+01
 0.1110528452115E+01
 0.1040919027424E+01
 0.1607989177720E+01
 0.1615862872983E+01
 0.1620181938476E+01
 0.1620416974917E+01
 0.1616105797367E+01
 0.1606871223448E+01
 0.1592414698107E+01
 0.1572508070035E+01
 0.1546989931019E+01
 0.1515767098273E+01
 0.1478819985878E+01
 0.1436210098409E+01
 0.1388087696354E+01
 0.1334697365152E+01
 0.1276378483521E+01
 0.1213556031971E+01
 0.1146714530300E+01
 0.1076342763867E+01
 0.1002824642894E+01
 0.9262723310553E+00
 0.1603181120056E+01
 0.1607977574811E+01
 0.1608670359726E+01
 0.1604592102217E+01
 0.1595237715341E+01
 0.1580248490671E+01
 0.1559382139069E+01
 0.1532492085242E+01
 0.1499518639271E+01
 0.1460489212667E+01
 0.1415523855377E+01
 0.1364842528520E+01
 0.1308770466711E+01
 0.1247737227353E+01
 0.1182262842282E+01
 0.1112919851466E+01
 0.1040249924076E+01
 0.9645934248801E+00
 0.8857328160530E+00
 0.8019754017217E+00
 0.1595165216585E+01
 0.1596537829661E+01
 0.1593150552094E+01
 0.1584195807575E+01
 0.1569158553164E+01
 0.1547738773268E+01
 0.1519787062903E+01
 0.1485269430702E+01
 0.1444254784520E+01
 0.1396916227528E+01
 0.1343539030135E+01
 0.1284529625303E+01
 0.1220420778189E+01
 0.1151867445018E+01
 0.1079625275769E+01
 0.1004497595499E+01
 0.9272250277180E+00
 0.8482640396928E+00
 0.7673682829413E+00
 0.6828015566770E+00
 0.1584081790488E+01
 0.1581717485059E+01
 0.1573789823692E+01
 0.1559378338090E+01
 0.1538020257895E+01
 0.1509530960853E+01
 0.1473896184211E+01
 0.1431224522792E+01
 0.1381735800348E+01
 0.1325767606202E+01
 0.1263788163887E+01
 0.1196408537520E+01
 0.1124389500907E+01
 0.1048639224859E+01
 0.9701969405688E+00
 0.8901956395567E+00
 0.8097922182863E+00
 0.7300572623341E+00
 0.6518061599956E+00
 0.5759048841289E+00
 0.1570119400595E+01
 0.1563728122730E+01
 0.1550771762562E+01
 0.1530296508195E+01
 0.1501989902564E+01
 0.1465850621781E+01
 0.1422037439783E+01
 0.1370819110043E+01
 0.1312573717557E+01
 0.1247805416925E+01
 0.1177163696949E+01
 0.1101458292243E+01
 0.1021668828211E+01
 0.9389508961390E+00
 0.8546434492065E+00
 0.7702889403840E+00
 0.6876962641397E+00
 0.6091090503083E+00
 0.5376792036370E+00
 0.4780982600824E+00
 0.1553520168411E+01
 0.1542813361863E+01
 0.1524287830436E+01
 0.1497118563557E+01
 0.1461278426411E+01
 0.1417015221218E+01
 0.1364675948998E+01
 0.1304682259034E+01
 0.1237554656908E+01
 0.1163945175206E+01
 0.1084659978239E+01
 0.1000673933143E+01
 0.9131435329653E+00
 0.8234281668957E+00
 0.7331374997938E+00
 0.6442411776826E+00
 0.5593134740660E+00
 0.4820754318498E+00
 0.4184988932541E+00
 0.3788144149272E+00
 0.1534587453579E+01
 0.1519235233867E+01
 0.1494517168616E+01
 0.1460021845886E+01
 0.1416172389018E+01
 0.1363493350289E+01
 0.1302492169685E+01
 0.1233700107392E+01
 0.1157748055340E+01
 0.1075405043816E+01
 0.9875946166971E+00
 0.8954040898998E+00
 0.8000998367783E+00
 0.7031648913563E+00
 0.6063863639968E+00
 0.5120433864024E+00
 0.4232968202419E+00
 0.3449638293534E+00
 0.2850705956607E+00
 0.2583933028246E+00
 0.1513685580407E+01
 0.1493226534182E+01
 0.1461576085731E+01
 0.1419204749409E+01
 0.1367112427192E+01
 0.1306046950904E+01
 0.1236560908280E+01
 0.1159252805611E+01
 0.1074850002859E+01
 0.9842300761520E+00
 0.8884262048895E+00
 0.7886375176556E+00
 0.6862601712477E+00
 0.5829594024924E+00
 0.4808154544933E+00
 0.3825997812237E+00
 0.2922726420437E+00
 0.2158723848076E+00
 0.1630798174377E+00
 0.1505501365066E+00
 0.1491279282572E+01
 0.1464991133521E+01
 0.1425582113900E+01
 0.1375076145367E+01
 0.1315057390231E+01
 0.1246089710781E+01
 0.1168709057250E+01
 0.1083606752770E+01
 0.9916463196501E+00
 0.8938610169572E+00
 0.7914611351303E+00
 0.6858650381263E+00
 0.5787670070527E+00
 0.4722620612636E+00
 0.3690572859165E+00
 0.2728081476760E+00
 0.1886266151591E+00
 0.1237825419164E+00
 0.8869852962251E-01
 0.9716412100209E-01
 0.1468040475245E+01
 0.1434302904514E+01
 0.1386204201282E+01
 0.1328413579237E+01
 0.1261316585953E+01
 0.1185258480599E+01
 0.1100904554274E+01
 0.1009137874354E+01
 0.9110340644552E+00
 0.8078596541481E+00
 0.7010992838860E+00
 0.5925120578768E+00
 0.4842263205413E+00
 0.3788842185211E+00
 0.2798456914122E+00
 0.1914490347765E+00
 0.1192806246162E+00
 0.7031465198616E-01
 0.5246538127760E-01
 0.7188578291317E-01
 0.1443128228622E+01
 0.1398020415752E+01
 0.1344170940588E+01
 0.1280668700803E+01
 0.1207445487729E+01
 0.1125315822976E+01
 0.1035248449143E+01
 0.9383905663309E+00
 0.8360699110555E+00
 0.7298240670770E+00
 0.6214409716189E+00
 0.5130188349124E+00
 0.4070485042642E+00
 0.3065171538013E+00
 0.2150200731968E+00
 0.1368375019998E+00
 0.7686833457972E-01
 0.4015841686680E-01
 0.3047320979345E-01
 0.4565267334660E-01
</DataArray>
<DataArray type="Float64" Name="CK" NumberOfComponents="1" ComponentName0="CK" format="ascii">
 0.0000000000000E+00
 0.0000000000000E+00
 0.0000000000000E+00
 0.0000000000000E+00
 0.0000000000000E+00
 0.0000000000000E+00
 0.0000000000000E+00
 0.0000000000000E+00
 0.0000000000000E+00
 0.0000000000000E+00
 0.0000000000000E+00
 0.0000000000000E+00
 0.0000000000000E+00
 0.0000000000000E+00
 0.0000000000000E+00
 0.0000000000000E+00
 0.0000000000000E+00
 0.0000000000000E+00
 0.0000000000000E+00
 0.0000000000000E+00
 0.0000000000000E+00
 0.0000000000000E+00
 0.0000000000000E+00
 0.0000000000000E+00
 0.0000000000000E+00
 0.0000000000000E+00
 0.0000000000000E+00
 0.0000000000000E+00
 0.0000000000000E+00
 0.0000000000000E+00
 0.0000000000000E+00
 0.0000000000000E+00
 0.0000000000000E+00
 0.0000000000000E+00
 0.0000000000000E+00
 0.0000000000000E+00
 0.0000000000000E+00
 0.0000000000000E+00
 0.0000000000000E+00
 0.0000000000000E+00
 0.0000000000000E+00
 0.0000000000000E+00
 0.0000000000000E+00
 0.0000000000000E+00
 0.0000000000000E+00
 0.0000000000000E+00
 0.0000000000000E+00
 0.0000000000000E+00
 0.0000000000000E+00
 0.0000000000000E+00
 0.0000000000000E+00
 0.0000000000000E+00
 0.0000000000000E+00
 0.0000000000000E+00
 0.0000000000000E+00
 0.0000000000000E+00
 0.0000000000000E+00
 0.0000000000000E+00
 0.0000000000000E+00
 0.0000000000000E+00
 0.0000000000000E+00
 0.0000000000000E+00
 0.0000000000000E+00
 0.0000000000000E+00
 0.0000000000000E+00
 0.0000000000000E+00
 0.0000000000000E+00
 0.0000000000000E+00
 0.0000000000000E+00
 0.0000000000000E+00
 0.0000000000000E+00
 0.0000000000000E+00
 0.0000000000000E+00
 0.0000000000000E+00
 0.0000000000000E+00
 0.0000000000000E+00
 0.0000000000000E+00
 0.0000000000000E+00
 0.0000000000000E+00
 0.0000000000000E+00
 0.0000000000000E+00
 0.0000000000000E+00
 0.0000000000000E+00
 0.0000000000000E+00
 0.0000000000000E+00
 0.0000000000000E+00
 0.0000000000000E+00
 0.0000000000000E+00
 0.0000000000000E+00
 0.0000000000000E+00
 0.0000000000000E+00
 0.0000000000000E+00
 0.0000000000000E+00
 0.0000000000000E+00
 0.0000000000000E+00
 0.0000000000000E+00
 0.0000000000000E+00
 0.0000000000000E+00
 0.0000000000000E+00
 0.0000000000000E+00
 0.0000000000000E+00
 0.0000000000000E+00
 0.0000000000000E+00
 0.0000000000000E+00
 0.0000000000000E+00
 0.0000000000000E+00
 0.0000000000000E+00
 0.0000000000000E+00
 0.0000000000000E+00
 0.0000000000000E+00
 0.0000000000000E+00
 0.0000000000000E+00
 0.0000000000000E+00
 0.0000000000000E+00
 0.0000000000000E+00
 0.0000000000000E+00
 0.0000000000000E+00
 0.0000000000000E+00
 0.0000000000000E+00
 0.0000000000000E+00
 0.0000000000000E+00
 0.0000000000000E+00
 0.0000000000000E+00
 0.0000000000000E+00
 0.0000000000000E+00
 0.0000000000000E+00
 0.0000000000000E+00
 0.0000000000000E+00
 0.0000000000000E+00
 0.0000000000000E+00
 0.0000000000000E+00
 0.0000000000000E+00
 0.0000000000000E+00
 0.0000000000000E+00
 0.0000000000000E+00
 0.0000000000000E+00
 0.0000000000000E+00
 0.0000000000000E+00
 0.0000000000000E+00
 0.0000000000000E+00
 0.0000000000000E+00
 0.0000000000000E+00
 0.0000000000000E+00
 0.0000000000000E+00
 0.0000000000000E+00
 0.0000000000000E+00
 0.0000000000000E+00
 0.0000000000000E+00
 0.0000000000000E+00
 0.0000000000000E+00
 0.0000000000000E+00
 0.0000000000000E+00
 0.0000000000000E+00
 0.0000000000000E+00
 0.0000000000000E+00
 0.0000000000000E+00
 0.0000000000000E+00
 0.0000000000000E+00
 0.0000000000000E+00
 0.0000000000000E+00
 0.0000000000000E+00
 0.0000000000000E+00
 0.0000000000000E+00
 0.0000000000000E+00
 0.0000000000000E+00
 0.0000000000000E+00
 0.0000000000000E+00
 0.0000000000000E+00
 0.0000000000000E+00
 0.0000000000000E+00
 0.0000000000000E+00
 0.0000000000000E+00
 0.0000000000000E+00
 0.0000000000000E+00
 0.0000000000000E+00
 0.0000000000000E+00
 0.0000000000000E+00
 0.0000000000000E+00
 0.0000000000000E+00
 0.0000000000000E+00
 0.0000000000000E+00
 0.0000000000000E+00
 0.0000000000000E+00
 0.0000000000000E+00
 0.0000000000000E+00
 0.0000000000000E+00
 0.0000000000000E+00
 0.0000000000000E+00
 0.0000000000000E+00
 0.0000000000000E+00
 0.0000000000000E+00
 0.0000000000000E+00
 0.0000000000000E+00
 0.0000000000000E+00
 0.0000000000000E+00
 0.0000000000000E+00
 0.0000000000000E+00
 0.0000000000000E+00
 0.0000000000000E+00
 0.0000000000000E+00
 0.0000000000000E+00
 0.0000000000000E+00
 0.0000000000000E+00
 0.0000000000000E+00
 0.0000000000000E+00
 0.0000000000000E+00
 0.0000000000000E+00
 0.0000000000000E+00
 0.0000000000000E+00
 0.0000000000000E+00
 0.0000000000000E+00
 0.0000000000000E+00
 0.0000000000000E+00
 0.0000000000000E+00
 0.0000000000000E+00
 0.0000000000000E+00
 0.0000000000000E+00
 0.0000000000000E+00
 0.0000000000000E+00
 0.0000000000000E+00
 0.0000000000000E+00
 0.0000000000000E+00
 0.0000000000000E+00
 0.0000000000000E+00
 0.0000000000000E+00
 0.0000000000000E+00
 0.0000000000000E+00
 0.0000000000000E+00
 0.0000000000000E+00
 0.0000000000000E+00
 0.0000000000000E+00
 0.0000000000000E+00
 0.0000000000000E+00
 0.0000000000000E+00
 0.0000000000000E+00
 0.0000000000000E+00
 0.0000000000000E+00
 0.0000000000000E+00
 0.0000000000000E+00
 0.0000000000000E+00
 0.0000000000000E+00
 0.0000000000000E+00
 0.0000000000000E+00
 0.0000000000000E+00
 0.0000000000000E+00
 0.0000000000000E+00
 0.0000000000000E+00
 0.0000000000000E+00
 0.0000000000000E+00
 0.0000000000000E+00
 0.0000000000000E+00
 0.0000000000000E+00
 0.0000000000000E+00
 0.0000000000000E+00
 0.0000000000000E+00
 0.0000000000000E+00
 0.0000000000000E+00
 0.0000000000000E+00
 0.0000000000000E+00
 0.0000000000000E+00
 0.0000000000000E+00
 0.0000000000000E+00
 0.0000000000000E+00
 0.0000000000000E+00
 0.0000000000000E+00
 0.0000000000000E+00
 0.0000000000000E+00
 0.0000000000000E+00
 0.0000000000000E+00
 0.0000000000000E+00
 0.0000000000000E+00
 0.0000000000000E+00
 0.0000000000000E+00
 0.0000000000000E+00
 0.0000000000000E+00
 0.0000000000000E+00
 0.0000000000000E+00
 0.0000000000000E+00
 0.0000000000000E+00
 0.0000000000000E+00
 0.0000000000000E+00
 0.0000000000000E+00
 0.0000000000000E+00
 0.0000000000000E+00
 0.0000000000000E+00
 0.0000000000000E+00
 0.0000000000000E+00
 0.0000000000000E+00
 0.0000000000000E+00
 0.0000000000000E+00
 0.0000000000000E+00
 0.0000000000000E+00
 0.0000000000000E+00
 0.0000000000000E+00
 0.0000000000000E+00
 0.0000000000000E+00
 0.0000000000000E+00
 0.0000000000000E+00
 0.0000000000000E+00
 0.0000000000000E+00
 0.0000000000000E+00
 0.0000000000000E+00
 0.0000000000000E+00
 0.0000000000000E+00
 0.0000000000000E+00
 0.0000000000000E+00
 0.0000000000000E+00
 0.0000000000000E+00
 0.0000000000000E+00
 0.0000000000000E+00
 0.0000000000000E+00
 0.0000000000000E+00
 0.0000000000000E+00
 0.0000000000000E+00
 0.0000000000000E+00
 0.0000000000000E+00
 0.0000000000000E+00
 0.0000000000000E+00
 0.0000000000000E+00
 0.0000000000000E+00
 0.0000000000000E+00
 0.0000000000000E+00
 0.0000000000000E+00
 0.0000000000000E+00
 0.0000000000000E+00
 0.0000000000000E+00
 0.0000000000000E+00
 0.0000000000000E+00
 0.0000000000000E+00
 0.0000000000000E+00
 0.0000000000000E+00
 0.0000000000000E+00
 0.0000000000000E+00
 0.0000000000000E+00
 0.0000000000000E+00
 0.0000000000000E+00
 0.0000000000000E+00
 0.0000000000000E+00
 0.0000000000000E+00
 0.0000000000000E+00
 0.0000000000000E+00
 0.0000000000000E+00
 0.0000000000000E+00
 0.0000000000000E+00
 0.0000000000000E+00
 0.0000000000000E+00
 0.0000000000000E+00
 0.0000000000000E+00
 0.0000000000000E+00
 0.0000000000000E+00
 0.0000000000000E+00
 0.0000000000000E+00
 0.0000000000000E+00
 0.0000000000000E+00
 0.0000000000000E+00
 0.0000000000000E+00
 0.0000000000000E+00
 0.0000000000000E+00
 0.0000000000000E+00
 0.0000000000000E+00
 0.0000000000000E+00
 0.0000000000000E+00
 0.0000000000000E+00
 0.0000000000000E+00
 0.0000000000000E+00
 0.0000000000000E+00
 0.0000000000000E+00
 0.0000000000000E+00
 0.0000000000000E+00
 0.0000000000000E+00
 0.0000000000000E+00
 0.0000000000000E+00
 0.0000000000000E+00
 0.0000000000000E+00
 0.0000000000000E+00
 0.0000000000000E+00
 0.0000000000000E+00
 0.0000000000000E+00
 0.0000000000000E+00
 0.0000000000000E+00
 0.0000000000000E+00
 0.0000000000000E+00
 0.0000000000000E+00
 0.0000000000000E+00
 0.0000000000000E+00
 0.0000000000000E+00
 0.0000000000000E+00
 0.0000000000000E+00
 0.0000000000000E+00
 0.0000000000000E+00
 0.0000000000000E+00
 0.0000000000000E+00
 0.0000000000000E+00
 0.0000000000000E+00
 0.0000000000000E+00
 0.0000000000000E+00
 0.0000000000000E+00
 0.0000000000000E+00
 0.0000000000000E+00
 0.0000000000000E+00
 0.0000000000000E+00
 0.0000000000000E+00
 0.0000000000000E+00
 0.0000000000000E+00
 0.0000000000000E+00
 0.0000000000000E+00
 0.0000000000000E+00
 0.0000000000000E+00
 0.0000000000000E+00
 0.0000000000000E+00
 0.0000000000000E+00
 0.0000000000000E+00
 0.0000000000000E+00
 0.0000000000000E+00
 0.0000000000000E+00
 0.0000000000000E+00
 0.0000000000000E+00
 0.0000000000000E+00
 0.0000000000000E+00
 0.0000000000000E+00
 0.0000000000000E+00
 0.0000000000000E+00
 0.0000000000000E+00
 0.0000000000000E+00
 0.0000000000000E+00
 0.0000000000000E+00
 0.0000000000000E+00
 0.0000000000000E+00
 0.0000000000000E+00
 0.0000000000000E+00
 0.0000000000000E+00
 0.0000000000000E+00
 0.0000000000000E+00
 0.0000000000000E+00
 0.0000000000000E+00
 0.0000000000000E+00
 0.0000000000000E+00
 0.0000000000000E+00
 0.0000000000000E+00
 0.0000000000000E+00
 0.0000000000000E+00
 0.0000000000000E+00
 0.0000000000000E+00
 0.0000000000000E+00
 0.0000000000000E+00
 0.0000000000000E+00
 0.0000000000000E+00
 0.0000000000000E+00
 0.0000000000000E+00
 0.0000000000000E+00
 0.0000000000000E+00
 0.0000000000000E+00
 0.0000000000000E+00
 0.0000000000000E+00
 0.0000000000000E+00
 0.0000000000000E+00
 0.0000000000000E+00
 0.0000000000000E+00
 0.0000000000000E+00
 0.0000000000000E+00
 0.0000000000000E+00
 0.0000000000000E+00
 0.0000000000000E+00
 0.0000000000000E+00
 0.0000000000000E+00
 0.0000000000000E+00
 0.0000000000000E+00
 0.0000000000000E+00
 0.0000000000000E+00
 0.0000000000000E+00
 0.0000000000000E+00
 0.0000000000000E+00
 0.0000000000000E+00
 0.0000000000000E+00
 0.0000000000000E+00
 0.0000000000000E+00
 0.0000000000000E+00
 0.0000000000000E+00
 0.0000000000000E+00
 0.0000000000000E+00
 0.0000000000000E+00
 0.0000000000000E+00
 0.0000000000000E+00
 0.0000000000000E+00
 0.0000000000000E+00
 0.0000000000000E+00
 0.0000000000000E+00
 0.0000000000000E+00
 0.0000000000000E+00
 0.0000000000000E+00
 0.0000000000000E+00
 0.0000000000000E+00
 0.0000000000000E+00
 0.0000000000000E+00
 0.0000000000000E+00
 0.0000000000000E+00
 0.0000000000000E+00
 0.0000000000000E+00
 0.0000000000000E+00
 0.0000000000000E+00
 0.0000000000000E+00
 0.0000000000000E+00
 0.0000000000000E+00
 0.0000000000000E+00
 0.0000000000000E+00
 0.0000000000000E+00
 0.0000000000000E+00
 0.0000000000000E+00
 0.0000000000000E+00
 0.0000000000000E+00
 0.0000000000000E+00
 0.0000000000000E+00
 0.0000000000000E+00
 0.0000000000000E+00
 0.0000000000000E+00
 0.0000000000000E+00
 0.0000000000000E+00
 0.0000000000000E+00
 0.0000000000000E+00
 0.0000000000000E+00
 0.0000000000000E+00
 0.0000000000000E+00
 0.0000000000000E+00
 0.0000000000000E+00
 0.0000000000000E+00
 0.0000000000000E+00
 0.0000000000000E+00
 0.0000000000000E+00
 0.0000000000000E+00
 0.0000000000000E+00
 0.0000000000000E+00
 0.0000000000000E+00
 0.0000000000000E+00
 0.0000000000000E+00
 0.0000000000000E+00
 0.0000000000000E+00
 0.0000000000000E+00
 0.0000000000000E+00
 0.0000000000000E+00
 0.0000000000000E+00
 0.0000000000000E+00
 0.0000000000000E+00
 0.0000000000000E+00
 0.0000000000000E+00
 0.0000000000000E+00
 0.0000000000000E+00
 0.0000000000000E+00
 0.0000000000000E+00
 0.0000000000000E+00
 0.0000000000000E+00
 0.0000000000000E+00
 0.0000000000000E+00
 0.0000000000000E+00
 0.0000000000000E+00
 0.0000000000000E+00
 0.0000000000000E+00
 0.0000000000000E+00
 0.0000000000000E+00
 0.0000000000000E+00
 0.0000000000000E+00
 0.0000000000000E+00
 0.0000000000000E+00
 0.0000000000000E+00
 0.0000000000000E+00
 0.0000000000000E+00
 0.0000000000000E+00
 0.0000000000000E+00
 0.0000000000000E+00
 0.0000000000000E+00
 0.0000000000000E+00
 0.0000000000000E+00
 0.0000000000000E+00
 0.0000000000000E+00
 0.0000000000000E+00
 0.0000000000000E+00
 0.0000000000000E+00
 0.0000000000000E+00
 0.0000000000000E+00
 0.0000000000000E+00
 0.0000000000000E+00
 0.0000000000000E+00
 0.0000000000000E+00
 0.0000000000000E+00
 0.0000000000000E+00
 0.0000000000000E+00
 0.0000000000000E+00
 0.0000000000000E+00
 0.0000000000000E+00
 0.0000000000000E+00
 0.0000000000000E+00
 0.0000000000000E+00
 0.0000000000000E+00
 0.0000000000000E+00
 0.0000000000000E+00
 0.0000000000000E+00
 0.0000000000000E+00
 0.0000000000000E+00
 0.0000000000000E+00
 0.0000000000000E+00
 0.0000000000000E+00
 0.0000000000000E+00
 0.0000000000000E+00
 0.0000000000000E+00
 0.0000000000000E+00
 0.0000000000000E+00
 0.0000000000000E+00
 0.0000000000000E+00
 0.0000000000000E+00
 0.0000000000000E+00
 0.0000000000000E+00
 0.0000000000000E+00
 0.0000000000000E+00
 0.0000000000000E+00
 0.0000000000000E+00
 0.0000000000000E+00
 0.0000000000000E+00
 0.0000000000000E+00
 0.0000000000000E+00
 0.0000000000000E+00
 0.0000000000000E+00
 0.0000000000000E+00
 0.0000000000000E+00
 0.0000000000000E+00
 0.0000000000000E+00
 0.0000000000000E+00
 0.0000000000000E+00
 0.0000000000000E+00
 0.0000000000000E+00
 0.0000000000000E+00
 0.0000000000000E+00
 0.0000000000000E+00
 0.0000000000000E+00
 0.0000000000000E+00
 0.0000000000000E+00
 0.0000000000000E+00
 0.0000000000000E+00
 0.0000000000000E+00
 0.0000000000000E+00
 0.0000000000000E+00
 0.0000000000000E+00
 0.0000000000000E+00
 0.0000000000000E+00
 0.0000000000000E+00
 0.0000000000000E+00
 0.0000000000000E+00
 0.0000000000000E+00
 0.0000000000000E+00
 0.0000000000000E+00
 0.0000000000000E+00
 0.0000000000000E+00
 0.0000000000000E+00
 0.0000000000000E+00
 0.0000000000000E+00
 0.0000000000000E+00
 0.0000000000000E+00
 0.0000000000000E+00
 0.0000000000000E+00
 0.0000000000000E+00
 0.0000000000000E+00
 0.0000000000000E+00
 0.0000000000000E+00
 0.0000000000000E+00
 0.0000000000000E+00
 0.0000000000000E+00
 0.0000000000000E+00
 0.0000000000000E+00
 0.0000000000000E+00
 0.0000000000000E+00
 0.0000000000000E+00
 0.0000000000000E+00
 0.0000000000000E+00
 0.0000000000000E+00
 0.0000000000000E+00
 0.0000000000000E+00
 0.0000000000000E+00
 0.0000000000000E+00
 0.0000000000000E+00
 0.0000000000000E+00
 0.0000000000000E+00
 0.0000000000000E+00
 0.0000000000000E+00
 0.0000000000000E+00
 0.0000000000000E+00
 0.0000000000000E+00
 0.0000000000000E+00
 0.0000000000000E+00
 0.0000000000000E+00
 0.0000000000000E+00
 0.0000000000000E+00
 0.0000000000000E+00
 0.0000000000000E+00
 0.0000000000000E+00
 0.0000000000000E+00
 0.0000000000000E+00
 0.0000000000000E+00
 0.0000000000000E+00
 0.0000000000000E+00
 0.0000000000000E+00
 0.0000000000000E+00
 0.0000000000000E+00
 0.0000000000000E+00
 0.0000000000000E+00
 0.0000000000000E+00
 0.0000000000000E+00
 0.0000000000000E+00
 0.0000000000000E+00
 0.0000000000000E+00
 0.0000000000000E+00
 0.0000000000000E+00
 0.0000000000000E+00
 0.0000000000000E+00
 0.0000000000000E+00
 0.0000000000000E+00
 0.0000000000000E+00
 0.0000000000000E+00
 0.0000000000000E+00
 0.0000000000000E+00
 0.0000000000000E+00
 0.0000000000000E+00
 0.0000000000000E+00
 0.0000000000000E+00
 0.0000000000000E+00
 0.0000000000000E+00
 0.0000000000000E+00
 0.0000000000000E+00
 0.0000000000000E+00
 0.0000000000000E+00
 0.0000000000000E+00
 0.0000000000000E+00
 0.0000000000000E+00
 0.0000000000000E+00
 0.0000000000000E+00
 0.0000000000000E+00
 0.0000000000000E+00
 0.0000000000000E+00
 0.0000000000000E+00
 0.0000000000000E+00
 0.0000000000000E+00
 0.0000000000000E+00
 0.0000000000000E+00
 0.0000000000000E+00
 0.0000000000000E+00
 0.0000000000000E+00
 0.0000000000000E+00
 0.0000000000000E+00
 0.0000000000000E+00
 0.0000000000000E+00
 0.0000000000000E+00
 0.0000000000000E+00
 0.0000000000000E+00
 0.0000000000000E+00
 0.0000000000000E+00
 0.0000000000000E+00
 0.0000000000000E+00
 0.0000000000000E+00
 0.0000000000000E+00
 0.0000000000000E+00
 0.0000000000000E+00
 0.0000000000000E+00
 0.0000000000000E+00
 0.0000000000000E+00
 0.0000000000000E+00
 0.0000000000000E+00
 0.0000000000000E+00
 0.0000000000000E+00
 0.0000000000000E+00
 0.0000000000000E+00
 0.0000000000000E+00
 0.0000000000000E+00
 0.0000000000000E+00
 0.0000000000000E+00
 0.0000000000000E+00
 0.0000000000000E+00
 0.0000000000000E+00
 0.0000000000000E+00
 0.0000000000000E+00
 0.0000000000000E+00
 0.0000000000000E+00
 0.0000000000000E+00
 0.0000000000000E+00
 0.0000000000000E+00
 0.0000000000000E+00
 0.0000000000000E+00
 0.0000000000000E+00
 0.0000000000000E+00
 0.0000000000000E+00
 0.0000000000000E+00
 0.0000000000000E+00
 0.0000000000000E+00
 0.0000000000000E+00
 0.0000000000000E+00
 0.0000000000000E+00
 0.0000000000000E+00
 0.0000000000000E+00
 0.0000000000000E+00
 0.0000000000000E+00
 0.0000000000000E+00
 0.0000000000000E+00
 0.0000000000000E+00
 0.0000000000000E+00
 0.0000000000000E+00
 0.0000000000000E+00
 0.0000000000000E+00
 0.0000000000000E+00
 0.0000000000000E+00
 0.0000000000000E+00
 0.0000000000000E+00
 0.0000000000000E+00
 0.0000000000000E+00
 0.0000000000000E+00
 0.0000000000000E+00
 0.0000000000000E+00
 0.0000000000000E+00
 0.0000000000000E+00
 0.0000000000000E+00
 0.0000000000000E+00
 0.0000000000000E+00
 0.0000000000000E+00
 0.0000000000000E+00
 0.0000000000000E+00
 0.0000000000000E+00
 0.0000000000000E+00
 0.0000000000000E+00
 0.0000000000000E+00
 0.0000000000000E+00
 0.0000000000000E+00
 0.0000000000000E+00
 0.0000000000000E+00
 0.0000000000000E+00
 0.0000000000000E+00
 0.0000000000000E+00
 0.0000000000000E+00
 0.0000000000000E+00
 0.0000000000000E+00
 0.0000000000000E+00
 0.0000000000000E+00
 0.0000000000000E+00
 0.0000000000000E+00
 0.0000000000000E+00
 0.0000000000000E+00
 0.0000000000000E+00
 0.0000000000000E+00
 0.0000000000000E+00
 0.0000000000000E+00
 0.0000000000000E+00
 0.0000000000000E+00
 0.0000000000000E+00
 0.0000000000000E+00
 0.0000000000000E+00
 0.0000000000000E+00
 0.0000000000000E+00
 0.0000000000000E+00
 0.0000000000000E+00
 0.0000000000000E+00
 0.0000000000000E+00
 0.0000000000000E+00
 0.0000000000000E+00
 0.0000000000000E+00
 0.0000000000000E+00
 0.0000000000000E+00
 0.0000000000000E+00
 0.0000000000000E+00
 0.0000000000000E+00
 0.0000000000000E+00
 0.0000000000000E+00
 0.0000000000000E+00
 0.0000000000000E+00
 0.0000000000000E+00
 0.0000000000000E+00
 0.0000000000000E+00
 0.0000000000000E+00
 0.0000000000000E+00
 0.0000000000000E+00
 0.0000000000000E+00
 0.0000000000000E+00
 0.0000000000000E+00
 0.0000000000000E+00
 0.0000000000000E+00
 0.0000000000000E+00
 0.0000000000000E+00
 0.0000000000000E+00
 0.0000000000000E+00
 0.0000000000000E+00
 0.0000000000000E+00
 0.0000000000000E+00
 0.0000000000000E+00
 0.0000000000000E+00
 0.0000000000000E+00
 0.0000000000000E+00
 0.0000000000000E+00
 0.0000000000000E+00
 0.0000000000000E+00
 0.0000000000000E+00
 0.0000000000000E+00
 0.0000000000000E+00
 0.0000000000000E+00
 0.0000000000000E+00
 0.0000000000000E+00
 0.0000000000000E+00
 0.0000000000000E+00
 0.0000000000000E+00
 0.0000000000000E+00
 0.0000000000000E+00
 0.0000000000000E+00
 0.0000000000000E+00
 0.0000000000000E+00
 0.0000000000000E+00
 0.0000000000000E+00
 0.0000000000000E+00
 0.0000000000000E+00
 0.0000000000000E+00
 0.0000000000000E+00
 0.0000000000000E+00
 0.0000000000000E+00
 0.0000000000000E+00
 0.0000000000000E+00
 0.0000000000000E+00
 0.0000000000000E+00
 0.0000000000000E+00
 0.0000000000000E+00
 0.0000000000000E+00
 0.0000000000000E+00
 0.0000000000000E+00
 0.0000000000000E+00
 0.0000000000000E+00
 0.0000000000000E+00
 0.0000000000000E+00
 0.0000000000000E+00
 0.0000000000000E+00
 0.0000000000000E+00
 0.0000000000000E+00
 0.0000000000000E+00
 0.0000000000000E+00
 0.0000000000000E+00
 0.0000000000000E+00
 0.0000000000000E+00
 0.0000000000000E+00
 0.0000000000000E+00
 0.0000000000000E+00
 0.0000000000000E+00
 0.0000000000000E+00
 0.0000000000000E+00
 0.0000000000000E+00
 0.0000000000000E+00
 0.0000000000000E+00
 0.0000000000000E+00
 0.0000000000000E+00
 0.0000000000000E+00
 0.0000000000000E+00
 0.0000000000000E+00
 0.0000000000000E+00
 0.0000000000000E+00
 0.0000000000000E+00
 0.0000000000000E+00
 0.0000000000000E+00
 0.0000000000000E+00
 0.0000000000000E+00
 0.0000000000000E+00
 0.0000000000000E+00
 0.0000000000000E+00
 0.0000000000000E+00
 0.0000000000000E+00
 0.0000000000000E+00
 0.0000000000000E+00
 0.0000000000000E+00
 0.0000000000000E+00
 0.0000000000000E+00
 0.0000000000000E+00
 0.0000000000000E+00
 0.0000000000000E+00
 0.0000000000000E+00
 0.0000000000000E+00
 0.0000000000000E+00
 0.0000000000000E+00
 0.0000000000000E+00
 0.0000000000000E+00
 0.0000000000000E+00
 0.0000000000000E+00
 0.0000000000000E+00
 0.0000000000000E+00
 0.0000000000000E+00
 0.0000000000000E+00
 0.0000000000000E+00
 0.0000000000000E+00
 0.0000000000000E+00
 0.0000000000000E+00
 0.0000000000000E+00
 0.0000000000000E+00
 0.0000000000000E+00
 0.0000000000000E+00
 0.0000000000000E+00
 0.0000000000000E+00
 0.0000000000000E+00
 0.0000000000000E+00
 0.0000000000000E+00
 0.0000000000000E+00
 0.0000000000000E+00
 0.0000000000000E+00
 0.0000000000000E+00
 0.0000000000000E+00
 0.0000000000000E+00
 0.0000000000000E+00
 0.0000000000000E+00
 0.0000000000000E+00
 0.0000000000000E+00
 0.0000000000000E+00
 0.0000000000000E+00
 0.0000000000000E+00
 0.0000000000000E+00
 0.0000000000000E+00
 0.0000000000000E+00
 0.0000000000000E+00
 0.0000000000000E+00
 0.0000000000000E+00
 0.0000000000000E+00
 0.0000000000000E+00
 0.0000000000000E+00
 0.0000000000000E+00
 0.0000000000000E+00
 0.0000000000000E+00
 0.0000000000000E+00
 0.0000000000000E+00
 0.0000000000000E+00
 0.0000000000000E+00
 0.0000000000000E+00
 0.0000000000000E+00
 0.0000000000000E+00
 0.0000000000000E+00
 0.0000000000000E+00
 0.0000000000000E+00
 0.0000000000000E+00
 0.0000000000000E+00
 0.0000000000000E+00
 0.0000000000000E+00
 0.0000000000000E+00
 0.0000000000000E+00
 0.0000000000000E+00
 0.0000000000000E+00
 0.0000000000000E+00
 0.0000000000000E+00
 0.0000000000000E+00
 0.0000000000000E+00
 0.0000000000000E+00
 0.0000000000000E+00
 0.0000000000000E+00
 0.0000000000000E+00
 0.0000000000000E+00
 0.0000000000000E+00
 0.0000000000000E+00
 0.0000000000000E+00
 0.0000000000000E+00
 0.0000000000000E+00
 0.0000000000000E+00
 0.0000000000000E+00
 0.0000000000000E+00
 0.0000000000000E+00
 0.0000000000000E+00
 0.0000000000000E+00
 0.0000000000000E+00
 0.0000000000000E+00
 0.0000000000000E+00
 0.0000000000000E+00
 0.0000000000000E+00
 0.0000000000000E+00
 0.0000000000000E+00
 0.0000000000000E+00
 0.0000000000000E+00
 0.0000000000000E+00
 0.0000000000000E+00
 0.0000000000000E+00
 0.0000000000000E+00
 0.0000000000000E+00
 0.0000000000000E+00
 0.0000000000000E+00
 0.0000000000000E+00
 0.0000000000000E+00
 0.0000000000000E+00
 0.0000000000000E+00
 0.0000000000000E+00
 0.0000000000000E+00
 0.0000000000000E+00
 0.0000000000000E+00
 0.0000000000000E+00
 0.0000000000000E+00
 0.0000000000000E+00
 0.0000000000000E+00
 0.0000000000000E+00
 0.0000000000000E+00
 0.0000000000000E+00
 0.0000000000000E+00
 0.0000000000000E+00
 0.0000000000000E+00
 0.0000000000000E+00
 0.0000000000000E+00
 0.0000000000000E+00
 0.0000000000000E+00
 0.0000000000000E+00
 0.0000000000000E+00
 0.0000000000000E+00
 0.0000000000000E+00
 0.0000000000000E+00
 0.0000000000000E+00
 0.0000000000000E+00
 0.0000000000000E+00
 0.0000000000000E+00
 0.0000000000000E+00
 0.0000000000000E+00
 0.0000000000000E+00
 0.0000000000000E+00
 0.0000000000000E+00
 0.0000000000000E+00
 0.0000000000000E+00
 0.0000000000000E+00
 0.0000000000000E+00
 0.0000000000000E+00
 0.0000000000000E+00
 0.0000000000000E+00
 0.0000000000000E+00
 0.0000000000000E+00
 0.0000000000000E+00
 0.0000000000000E+00
 0.0000000000000E+00
 0.0000000000000E+00
 0.0000000000000E+00
 0.0000000000000E+00
 0.0000000000000E+00
 0.0000000000000E+00
 0.0000000000000E+00
 0.0000000000000E+00
 0.0000000000000E+00
 0.0000000000000E+00
 0.0000000000000E+00
 0.0000000000000E+00
 0.0000000000000E+00
 0.0000000000000E+00
 0.0000000000000E+00
 0.0000000000000E+00
 0.0000000000000E+00
 0.0000000000000E+00
 0.0000000000000E+00
 0.0000000000000E+00
 0.0000000000000E+00
 0.0000000000000E+00
 0.0000000000000E+00
 0.0000000000000E+00
 0.0000000000000E+00
 0.0000000000000E+00
 0.0000000000000E+00
 0.0000000000000E+00
 0.0000000000000E+00
 0.0000000000000E+00
 0.0000000000000E+00
 0.0000000000000E+00
 0.0000000000000E+00
 0.0000000000000E+00
 0.0000000000000E+00
 0.0000000000000E+00
 0.0000000000000E+00
 0.0000000000000E+00
 0.0000000000000E+00
 0.0000000000000E+00
 0.0000000000000E+00
 0.0000000000000E+00
 0.0000000000000E+00
 0.0000000000000E+00
 0.0000000000000E+00
 0.0000000000000E+00
 0.0000000000000E+00
 0.0000000000000E+00
 0.0000000000000E+00
 0.0000000000000E+00
 0.0000000000000E+00
 0.0000000000000E+00
 0.0000000000000E+00
 0.0000000000000E+00
 0.0000000000000E+00
 0.0000000000000E+00
 0.0000000000000E+00
 0.0000000000000E+00
 0.0000000000000E+00
 0.0000000000000E+00
 0.0000000000000E+00
 0.0000000000000E+00
 0.0000000000000E+00
 0.0000000000000E+00
 0.0000000000000E+00
 0.0000000000000E+00
 0.0000000000000E+00
 0.0000000000000E+00
 0.0000000000000E+00
 0.0000000000000E+00
 0.0000000000000E+00
 0.0000000000000E+00
 0.0000000000000E+00
 0.0000000000000E+00
 0.0000000000000E+00
 0.0000000000000E+00
 0.0000000000000E+00
 0.0000000000000E+00
 0.0000000000000E+00
 0.0000000000000E+00
 0.0000000000000E+00
 0.0000000000000E+00
 0.0000000000000E+00
 0.0000000000000E+00
 0.0000000000000E+00
 0.0000000000000E+00
 0.0000000000000E+00
 0.0000000000000E+00
 0.0000000000000E+00
 0.0000000000000E+00
 0.0000000000000E+00
 0.0000000000000E+00
 0.0000000000000E+00
 0.0000000000000E+00
 0.0000000000000E+00
 0.0000000000000E+00
 0.0000000000000E+00
 0.0000000000000E+00
 0.0000000000000E+00
 0.0000000000000E+00
 0.0000000000000E+00
 0.0000000000000E+00
 0.0000000000000E+00
 0.0000000000000E+00
 0.0000000000000E+00
 0.0000000000000E+00
 0.0000000000000E+00
 0.0000000000000E+00
 0.0000000000000E+00
 0.0000000000000E+00
 0.0000000000000E+00
 0.0000000000000E+00
 0.0000000000000E+00
 0.0000000000000E+00
 0.0000000000000E+00
 0.0000000000000E+00
 0.0000000000000E+00
 0.0000000000000E+00
 0.0000000000000E+00
 0.0000000000000E+00
 0.0000000000000E+00
 0.0000000000000E+00
 0.0000000000000E+00
 0.0000000000000E+00
 0.0000000000000E+00
 0.0000000000000E+00
 0.0000000000000E+00
 0.0000000000000E+00
 0.0000000000000E+00
 0.0000000000000E+00
 0.0000000000000E+00
 0.0000000000000E+00
 0.0000000000000E+00
 0.0000000000000E+00
 0.0000000000000E+00
 0.0000000000000E+00
 0.0000000000000E+00
 0.0000000000000E+00
 0.0000000000000E+00
 0.0000000000000E+00
 0.0000000000000E+00
 0.0000000000000E+00
 0.0000000000000E+00
 0.0000000000000E+00
 0.0000000000000E+00
 0.0000000000000E+00
 0.0000000000000E+00
 0.0000000000000E+00
 0.0000000000000E+00
 0.0000000000000E+00
 0.0000000000000E+00
 0.0000000000000E+00
 0.0000000000000E+00
 0.0000000000000E+00
 0.0000000000000E+00
 0.0000000000000E+00
 0.0000000000000E+00
 0.0000000000000E+00
 0.0000000000000E+00
 0.0000000000000E+00
 0.0000000000000E+00
 0.0000000000000E+00
 0.0000000000000E+00
 0.0000000000000E+00
 0.0000000000000E+00
 0.0000000000000E+00
 0.0000000000000E+00
 0.0000000000000E+00
 0.0000000000000E+00
 0.0000000000000E+00
 0.0000000000000E+00
 0.0000000000000E+00
 0.0000000000000E+00
 0.0000000000000E+00
 0.0000000000000E+00
 0.0000000000000E+00
 0.0000000000000E+00
 0.0000000000000E+00
 0.0000000000000E+00
 0.0000000000000E+00
 0.0000000000000E+00
 0.0000000000000E+00
 0.0000000000000E+00
 0.0000000000000E+00
 0.0000000000000E+00
 0.0000000000000E+00
 0.0000000000000E+00
 0.0000000000000E+00
 0.0000000000000E+00
 0.0000000000000E+00
 0.0000000000000E+00
 0.0000000000000E+00
 0.0000000000000E+00
 0.0000000000000E+00
 0.0000000000000E+00
 0.0000000000000E+00
 0.0000000000000E+00
 0.0000000000000E+00
 0.0000000000000E+00
 0.0000000000000E+00
 0.0000000000000E+00
 0.0000000000000E+00
 0.0000000000000E+00
 0.0000000000000E+00
 0.0000000000000E+00
 0.0000000000000E+00
 0.0000000000000E+00
 0.0000000000000E+00
 0.0000000000000E+00
 0.0000000000000E+00
 0.0000000000000E+00
 0.0000000000000E+00
 0.0000000000000E+00
 0.0000000000000E+00
 0.0000000000000E+00
 0.0000000000000E+00
 0.0000000000000E+00
 0.0000000000000E+00
 0.0000000000000E+00
 0.0000000000000E+00
 0.0000000000000E+00
 0.0000000000000E+00
 0.0000000000000E+00
 0.0000000000000E+00
 0.0000000000000E+00
 0.0000000000000E+00
 0.0000000000000E+00
 0.0000000000000E+00
 0.0000000000000E+00
 0.0000000000000E+00
 0.0000000000000E+00
 0.0000000000000E+00
 0.0000000000000E+00
 0.0000000000000E+00
 0.0000000000000E+00
 0.0000000000000E+00
 0.0000000000000E+00
 0.0000000000000E+00
 0.0000000000000E+00
 0.0000000000000E+00
 0.0000000000000E+00
 0.0000000000000E+00
 0.0000000000000E+00
 0.0000000000000E+00
 0.0000000000000E+00
 0.0000000000000E+00
 0.0000000000000E+00
 0.0000000000000E+00
 0.0000000000000E+00
 0.0000000000000E+00
 0.0000000000000E+00
 0.0000000000000E+00
 0.0000000000000E+00
 0.0000000000000E+00
 0.0000000000000E+00
 0.0000000000000E+00
 0.0000000000000E+00
 0.0000000000000E+00
 0.0000000000000E+00
 0.0000000000000E+00
 0.0000000000000E+00
 0.0000000000000E+00
 0.0000000000000E+00
 0.0000000000000E+00
 0.0000000000000E+00
 0.0000000000000E+00
 0.0000000000000E+00
 0.0000000000000E+00
 0.0000000000000E+00
 0.0000000000000E+00
 0.0000000000000E+00
 0.0000000000000E+00
 0.0000000000000E+00
 0.0000000000000E+00
 0.0000000000000E+00
 0.0000000000000E+00
 0.0000000000000E+00
 0.0000000000000E+00
 0.0000000000000E+00
 0.0000000000000E+00
 0.0000000000000E+00
 0.0000000000000E+00
 0.0000000000000E+00
 0.0000000000000E+00
 0.0000000000000E+00
 0.0000000000000E+00
 0.0000000000000E+00
 0.0000000000000E+00
 0.0000000000000E+00
 0.0000000000000E+00
 0.0000000000000E+00
 0.0000000000000E+00
 0.0000000000000E+00
 0.0000000000000E+00
 0.0000000000000E+00
 0.0000000000000E+00
 0.0000000000000E+00
 0.0000000000000E+00
 0.0000000000000E+00
 0.0000000000000E+00
 0.0000000000000E+00
 0.0000000000000E+00
 0.0000000000000E+00
 0.0000000000000E+00
 0.0000000000000E+00
 0.0000000000000E+00
 0.0000000000000E+00
 0.0000000000000E+00
 0.0000000000000E+00
 0.0000000000000E+00
 0.0000000000000E+00
 0.0000000000000E+00
 0.0000000000000E+00
 0.0000000000000E+00
 0.0000000000000E+00
 0.0000000000000E+00
 0.0000000000000E+00
 0.0000000000000E+00
 0.0000000000000E+00
 0.0000000000000E+00
 0.0000000000000E+00
 0.0000000000000E+00
 0.0000000000000E+00
 0.0000000000000E+00
 0.0000000000000E+00
 0.0000000000000E+00
 0.0000000000000E+00
 0.0000000000000E+00
 0.0000000000000E+00
 0.0000000000000E+00
 0.0000000000000E+00
 0.0000000000000E+00
 0.0000000000000E+00
 0.0000000000000E+00
 0.0000000000000E+00
 0.0000000000000E+00
 0.0000000000000E+00
 0.0000000000000E+00
 0.0000000000000E+00
 0.0000000000000E+00
 0.0000000000000E+00
 0.0000000000000E+00
 0.0000000000000E+00
 0.0000000000000E+00
 0.0000000000000E+00
 0.0000000000000E+00
 0.0000000000000E+00
 0.0000000000000E+00
 0.0000000000000E+00
 0.0000000000000E+00
 0.0000000000000E+00
 0.0000000000000E+00
 0.0000000000000E+00
 0.0000000000000E+00
 0.0000000000000E+00
 0.0000000000000E+00
 0.0000000000000E+00
 0.0000000000000E+00
 0.0000000000000E+00
 0.0000000000000E+00
 0.0000000000000E+00
 0.0000000000000E+00
 0.0000000000000E+00
 0.0000000000000E+00
 0.0000000000000E+00
 0.0000000000000E+00
 0.0000000000000E+00
 0.0000000000000E+00
 0.0000000000000E+00
 0.0000000000000E+00
 0.0000000000000E+00
 0.0000000000000E+00
 0.0000000000000E+00
 0.0000000000000E+00
 0.0000000000000E+00
 0.0000000000000E+00
 0.0000000000000E+00
 0.0000000000000E+00
 0.0000000000000E+00
 0.0000000000000E+00
 0.0000000000000E+00
 0.0000000000000E+00
 0.0000000000000E+00
 0.0000000000000E+00
 0.0000000000000E+00
 0.0000000000000E+00
 0.0000000000000E+00
 0.0000000000000E+00
 0.0000000000000E+00
 0.0000000000000E+00
 0.0000000000000E+00
 0.0000000000000E+00
 0.0000000000000E+00
 0.0000000000000E+00
 0.0000000000000E+00
 0.0000000000000E+00
 0.0000000000000E+00
 0.0000000000000E+00
 0.0000000000000E+00
 0.0000000000000E+00
 0.0000000000000E+00
 0.0000000000000E+00
 0.0000000000000E+00
 0.0000000000000E+00
 0.0000000000000E+00
 0.0000000000000E+00
 0.0000000000000E+00
 0.0000000000000E+00
 0.0000000000000E+00
 0.0000000000000E+00
 0.0000000000000E+00
 0.0000000000000E+00
 0.0000000000000E+00
 0.0000000000000E+00
 0.0000000000000E+00
 0.0000000000000E+00
 0.0000000000000E+00
 0.0000000000000E+00
 0.0000000000000E+00
 0.0000000000000E+00
 0.0000000000000E+00
 0.0000000000000E+00
 0.0000000000000E+00
 0.0000000000000E+00
 0.0000000000000E+00
 0.0000000000000E+00
 0.0000000000000E+00
 0.0000000000000E+00
 0.0000000000000E+00
 0.0000000000000E+00
 0.0000000000000E+00
 0.0000000000000E+00
 0.0000000000000E+00
 0.0000000000000E+00
 0.0000000000000E+00
 0.0000000000000E+00
 0.0000000000000E+00
 0.0000000000000E+00
 0.0000000000000E+00
 0.0000000000000E+00
 0.0000000000000E+00
 0.0000000000000E+00
 0.0000000000000E+00
 0.0000000000000E+00
 0.0000000000000E+00
 0.0000000000000E+00
 0.0000000000000E+00
 0.0000000000000E+00
 0.0000000000000E+00
 0.0000000000000E+00
 0.0000000000000E+00
 0.0000000000000E+00
 0.0000000000000E+00
 0.0000000000000E+00
 0.0000000000000E+00
 0.0000000000000E+00
 0.0000000000000E+00
 0.0000000000000E+00
 0.0000000000000E+00
 0.0000000000000E+00
 0.0000000000000E+00
 0.0000000000000E+00
 0.0000000000000E+00
 0.0000000000000E+00
 0.0000000000000E+00
 0.0000000000000E+00
 0.0000000000000E+00
 0.0000000000000E+00
 0.0000000000000E+00
 0.0000000000000E+00
 0.0000000000000E+00
 0.0000000000000E+00
 0.0000000000000E+00
 0.0000000000000E+00
 0.0000000000000E+00
 0.0000000000000E+00
 0.0000000000000E+00
 0.0000000000000E+00
 0.0000000000000E+00
 0.0000000000000E+00
 0.0000000000000E+00
 0.0000000000000E+00
 0.0000000000000E+00
 0.0000000000000E+00
 0.0000000000000E+00
 0.0000000000000E+00
 0.0000000000000E+00
 0.0000000000000E+00
 0.0000000000000E+00
 0.0000000000000E+00
 0.0000000000000E+00
 0.0000000000000E+00
 0.0000000000000E+00
 0.0000000000000E+00
 0.0000000000000E+00
 0.0000000000000E+00
 0.0000000000000E+00
 0.0000000000000E+00
 0.0000000000000E+00
 0.0000000000000E+00
 0.0000000000000E+00
 0.0000000000000E+00
 0.0000000000000E+00
 0.0000000000000E+00
 0.0000000000000E+00
 0.0000000000000E+00
 0.0000000000000E+00
 0.0000000000000E+00
 0.0000000000000E+00
 0.0000000000000E+00
 0.0000000000000E+00
 0.0000000000000E+00
 0.0000000000000E+00
 0.0000000000000E+00
 0.0000000000000E+00
 0.0000000000000E+00
 0.0000000000000E+00
 0.0000000000000E+00
 0.0000000000000E+00
 0.0000000000000E+00
 0.0000000000000E+00
 0.0000000000000E+00
 0.0000000000000E+00
 0.0000000000000E+00
 0.0000000000000E+00
 0.0000000000000E+00
 0.0000000000000E+00
 0.0000000000000E+00
 0.0000000000000E+00
 0.0000000000000E+00
 0.0000000000000E+00
 0.0000000000000E+00
 0.0000000000000E+00
 0.0000000000000E+00
 0.0000000000000E+00
 0.0000000000000E+00
 0.0000000000000E+00
 0.0000000000000E+00
 0.0000000000000E+00
 0.0000000000000E+00
 0.0000000000000E+00
 0.0000000000000E+00
 0.0000000000000E+00
 0.0000000000000E+00
 0.0000000000000E+00
 0.0000000000000E+00
 0.0000000000000E+00
 0.0000000000000E+00
 0.0000000000000E+00
 0.0000000000000E+00
 0.0000000000000E+00
 0.0000000000000E+00
 0.0000000000000E+00
 0.0000000000000E+00
 0.0000000000000E+00
 0.0000000000000E+00
 0.0000000000000E+00
 0.0000000000000E+00
 0.0000000000000E+00
 0.0000000000000E+00
 0.0000000000000E+00
 0.0000000000000E+00
 0.0000000000000E+00
 0.0000000000000E+00
 0.0000000000000E+00
 0.0000000000000E+00
 0.0000000000000E+00
 0.0000000000000E+00
 0.0000000000000E+00
 0.0000000000000E+00
 0.0000000000000E+00
 0.0000000000000E+00
 0.0000000000000E+00
 0.0000000000000E+00
 0.0000000000000E+00
 0.0000000000000E+00
 0.0000000000000E+00
 0.0000000000000E+00
 0.0000000000000E+00
 0.0000000000000E+00
 0.0000000000000E+00
 0.0000000000000E+00
 0.0000000000000E+00
 0.0000000000000E+00
 0.0000000000000E+00
 0.0000000000000E+00
 0.0000000000000E+00
 0.0000000000000E+00
 0.0000000000000E+00
 0.0000000000000E+00
 0.0000000000000E+00
 0.0000000000000E+00
 0.0000000000000E+00
 0.0000000000000E+00
 0.0000000000000E+00
 0.0000000000000E+00
 0.0000000000000E+00
 0.0000000000000E+00
 0.0000000000000E+00
 0.0000000000000E+00
 0.0000000000000E+00
 0.0000000000000E+00
 0.0000000000000E+00
 0.0000000000000E+00
 0.0000000000000E+00
 0.0000000000000E+00
 0.0000000000000E+00
 0.0000000000000E+00
 0.0000000000000E+00
 0.0000000000000E+00
 0.0000000000000E+00
 0.0000000000000E+00
 0.0000000000000E+00
 0.0000000000000E+00
 0.0000000000000E+00
 0.0000000000000E+00
 0.0000000000000E+00
 0.0000000000000E+00
 0.0000000000000E+00
 0.0000000000000E+00
 0.0000000000000E+00
 0.0000000000000E+00
 0.0000000000000E+00
 0.0000000000000E+00
 0.0000000000000E+00
 0.0000000000000E+00
 0.0000000000000E+00
 0.0000000000000E+00
 0.0000000000000E+00
 0.0000000000000E+00
 0.0000000000000E+00
 0.0000000000000E+00
 0.0000000000000E+00
 0.0000000000000E+00
 0.0000000000000E+00
 0.0000000000000E+00
 0.0000000000000E+00
 0.0000000000000E+00
 0.0000000000000E+00
 0.0000000000000E+00
 0.0000000000000E+00
 0.0000000000000E+00
 0.0000000000000E+00
 0.0000000000000E+00
 0.0000000000000E+00
 0.0000000000000E+00
 0.0000000000000E+00
 0.0000000000000E+00
 0.0000000000000E+00
 0.0000000000000E+00
 0.0000000000000E+00
 0.0000000000000E+00
 0.0000000000000E+00
 0.0000000000000E+00
 0.0000000000000E+00
 0.0000000000000E+00
 0.0000000000000E+00
 0.0000000000000E+00
 0.0000000000000E+00
 0.0000000000000E+00
 0.0000000000000E+00
 0.0000000000000E+00
 0.0000000000000E+00
 0.0000000000000E+00
 0.0000000000000E+00
 0.0000000000000E+00
 0.0000000000000E+00
 0.0000000000000E+00
 0.0000000000000E+00
 0.0000000000000E+00
 0.0000000000000E+00
 0.0000000000000E+00
 0.0000000000000E+00
 0.0000000000000E+00
 0.0000000000000E+00
 0.0000000000000E+00
 0.0000000000000E+00
 0.0000000000000E+00
 0.0000000000000E+00
 0.0000000000000E+00
 0.0000000000000E+00
 0.0000000000000E+00
 0.0000000000000E+00
 0.0000000000000E+00
 0.0000000000000E+00
 0.0000000000000E+00
 0.0000000000000E+00
 0.0000000000000E+00
 0.0000000000000E+00
 0.0000000000000E+00
 0.0000000000000E+00
 0.0000000000000E+00
 0.0000000000000E+00
 0.0000000000000E+00
 0.0000000000000E+00
 0.0000000000000E+00
 0.0000000000000E+00
 0.0000000000000E+00
 0.0000000000000E+00
 0.0000000000000E+00
 0.0000000000000E+00
 0.0000000000000E+00
 0.0000000000000E+00
 0.0000000000000E+00
 0.0000000000000E+00
 0.0000000000000E+00
 0.0000000000000E+00
 0.0000000000000E+00
 0.0000000000000E+00
 0.0000000000000E+00
 0.0000000000000E+00
 0.0000000000000E+00
 0.0000000000000E+00
 0.0000000000000E+00
 0.0000000000000E+00
 0.0000000000000E+00
 0.0000000000000E+00
 0.0000000000000E+00
 0.0000000000000E+00
 0.0000000000000E+00
 0.0000000000000E+00
 0.0000000000000E+00
 0.0000000000000E+00
 0.0000000000000E+00
 0.0000000000000E+00
 0.0000000000000E+00
 0.0000000000000E+00
 0.0000000000000E+00
 0.0000000000000E+00
 0.0000000000000E+00
 0.0000000000000E+00
 0.0000000000000E+00
 0.0000000000000E+00
 0.0000000000000E+00
 0.0000000000000E+00
 0.0000000000000E+00
 0.0000000000000E+00
 0.0000000000000E+00
 0.0000000000000E+00
 0.0000000000000E+00
 0.0000000000000E+00
 0.0000000000000E+00
 0.0000000000000E+00
 0.0000000000000E+00
 0.0000000000000E+00
 0.0000000000000E+00
 0.0000000000000E+00
 0.0000000000000E+00
 0.0000000000000E+00
 0.0000000000000E+00
 0.0000000000000E+00
 0.0000000000000E+00
 0.0000000000000E+00
 0.0000000000000E+00
 0.0000000000000E+00
 0.0000000000000E+00
 0.0000000000000E+00
 0.0000000000000E+00
 0.0000000000000E+00
 0.0000000000000E+00
 0.0000000000000E+00
 0.0000000000000E+00
 0.0000000000000E+00
 0.0000000000000E+00
 0.0000000000000E+00
 0.0000000000000E+00
 0.0000000000000E+00
 0.0000000000000E+00
 0.0000000000000E+00
 0.0000000000000E+00
 0.0000000000000E+00
 0.0000000000000E+00
 0.0000000000000E+00
 0.0000000000000E+00
 0.0000000000000E+00
 0.0000000000000E+00
 0.0000000000000E+00
 0.0000000000000E+00
 0.0000000000000E+00
 0.0000000000000E+00
 0.0000000000000E+00
 0.0000000000000E+00
 0.0000000000000E+00
 0.0000000000000E+00
 0.0000000000000E+00
 0.0000000000000E+00
 0.0000000000000E+00
 0.0000000000000E+00
 0.0000000000000E+00
 0.0000000000000E+00
 0.0000000000000E+00
 0.0000000000000E+00
 0.0000000000000E+00
 0.0000000000000E+00
 0.0000000000000E+00
 0.0000000000000E+00
 0.0000000000000E+00
 0.0000000000000E+00
 0.0000000000000E+00
 0.0000000000000E+00
 0.0000000000000E+00
 0.0000000000000E+00
 0.0000000000000E+00
 0.0000000000000E+00
 0.0000000000000E+00
 0.0000000000000E+00
 0.0000000000000E+00
 0.0000000000000E+00
 0.0000000000000E+00
 0.0000000000000E+00
 0.0000000000000E+00
 0.0000000000000E+00
 0.0000000000000E+00
 0.0000000000000E+00
 0.0000000000000E+00
 0.0000000000000E+00
 0.0000000000000E+00
 0.0000000000000E+00
 0.0000000000000E+00
 0.0000000000000E+00
 0.0000000000000E+00
 0.0000000000000E+00
 0.0000000000000E+00
 0.0000000000000E+00
 0.0000000000000E+00
 0.0000000000000E+00
 0.0000000000000E+00
 0.0000000000000E+00
 0.0000000000000E+00
 0.0000000000000E+00
 0.0000000000000E+00
 0.0000000000000E+00
 0.0000000000000E+00
 0.0000000000000E+00
 0.0000000000000E+00
 0.0000000000000E+00
 0.0000000000000E+00
 0.0000000000000E+00
 0.0000000000000E+00
 0.0000000000000E+00
 0.0000000000000E+00
 0.0000000000000E+00
 0.0000000000000E+00
 0.0000000000000E+00
 0.0000000000000E+00
 0.0000000000000E+00
 0.0000000000000E+00
 0.0000000000000E+00
 0.0000000000000E+00
 0.0000000000000E+00
 0.0000000000000E+00
 0.0000000000000E+00
 0.0000000000000E+00
 0.0000000000000E+00
 0.0000000000000E+00
 0.0000000000000E+00
 0.0000000000000E+00
 0.0000000000000E+00
 0.0000000000000E+00
 0.0000000000000E+00
 0.0000000000000E+00
 0.0000000000000E+00
 0.0000000000000E+00
 0.0000000000000E+00
 0.0000000000000E+00
 0.0000000000000E+00
 0.0000000000000E+00
 0.0000000000000E+00
 0.0000000000000E+00
 0.0000000000000E+00
 0.0000000000000E+00
 0.0000000000000E+00
 0.0000000000000E+00
 0.0000000000000E+00
 0.0000000000000E+00
 0.0000000000000E+00
 0.0000000000000E+00
 0.0000000000000E+00
 0.0000000000000E+00
 0.0000000000000E+00
 0.0000000000000E+00
 0.0000000000000E+00
 0.0000000000000E+00
 0.0000000000000E+00
 0.0000000000000E+00
 0.0000000000000E+00
 0.0000000000000E+00
 0.0000000000000E+00
 0.0000000000000E+00
 0.0000000000000E+00
 0.0000000000000E+00
 0.0000000000000E+00
 0.0000000000000E+00
 0.0000000000000E+00
 0.0000000000000E+00
 0.0000000000000E+00
 0.0000000000000E+00
 0.0000000000000E+00
 0.0000000000000E+00
 0.0000000000000E+00
 0.0000000000000E+00
 0.0000000000000E+00
 0.0000000000000E+00
 0.0000000000000E+00
 0.0000000000000E+00
 0.0000000000000E+00
 0.0000000000000E+00
 0.0000000000000E+00
 0.0000000000000E+00
 0.0000000000000E+00
 0.0000000000000E+00
 0.0000000000000E+00
 0.0000000000000E+00
 0.0000000000000E+00
 0.0000000000000E+00
 0.0000000000000E+00
 0.0000000000000E+00
 0.0000000000000E+00
 0.0000000000000E+00
 0.0000000000000E+00
 0.0000000000000E+00
 0.0000000000000E+00
 0.0000000000000E+00
 0.0000000000000E+00
 0.0000000000000E+00
 0.0000000000000E+00
 0.0000000000000E+00
 0.0000000000000E+00
 0.0000000000000E+00
 0.0000000000000E+00
 0.0000000000000E+00
 0.0000000000000E+00
 0.0000000000000E+00
 0.0000000000000E+00
 0.0000000000000E+00
 0.0000000000000E+00
 0.0000000000000E+00
 0.0000000000000E+00
 0.0000000000000E+00
 0.0000000000000E+00
 0.0000000000000E+00
 0.0000000000000E+00
 0.0000000000000E+00
 0.0000000000000E+00
 0.0000000000000E+00
 0.0000000000000E+00
 0.0000000000000E+00
 0.0000000000000E+00
 0.0000000000000E+00
 0.0000000000000E+00
 0.0000000000000E+00
 0.0000000000000E+00
 0.0000000000000E+00
 0.0000000000000E+00
 0.0000000000000E+00
 0.0000000000000E+00
 0.0000000000000E+00
 0.0000000000000E+00
 0.0000000000000E+00
 0.0000000000000E+00
 0.0000000000000E+00
 0.0000000000000E+00
 0.0000000000000E+00
 0.0000000000000E+00
 0.0000000000000E+00
 0.0000000000000E+00
 0.0000000000000E+00
 0.0000000000000E+00
 0.0000000000000E+00
 0.0000000000000E+00
 0.0000000000000E+00
 0.0000000000000E+00
 0.0000000000000E+00
 0.0000000000000E+00
 0.0000000000000E+00
 0.0000000000000E+00
 0.0000000000000E+00
 0.0000000000000E+00
 0.0000000000000E+00
 0.0000000000000E+00
 0.0000000000000E+00
 0.0000000000000E+00
 0.0000000000000E+00
 0.0000000000000E+00
 0.0000000000000E+00
 0.0000000000000E+00
 0.0000000000000E+00
 0.0000000000000E+00
 0.0000000000000E+00
 0.0000000000000E+00
 0.0000000000000E+00
 0.0000000000000E+00
 0.0000000000000E+00
 0.0000000000000E+00
 0.0000000000000E+00
 0.0000000000000E+00
 0.0000000000000E+00
 0.0000000000000E+00
 0.0000000000000E+00
 0.0000000000000E+00
 0.0000000000000E+00
 0.0000000000000E+00
 0.0000000000000E+00
 0.0000000000000E+00
 0.0000000000000E+00
 0.0000000000000E+00
 0.0000000000000E+00
 0.0000000000000E+00
 0.0000000000000E+00
 0.0000000000000E+00
 0.0000000000000E+00
 0.0000000000000E+00
 0.0000000000000E+00
 0.0000000000000E+00
 0.0000000000000E+00
 0.0000000000000E+00
 0.0000000000000E+00
 0.0000000000000E+00
 0.0000000000000E+00
 0.0000000000000E+00
 0.0000000000000E+00
 0.0000000000000E+00
 0.0000000000000E+00
 0.0000000000000E+00
 0.0000000000000E+00
 0.0000000000000E+00
 0.0000000000000E+00
 0.0000000000000E+00
 0.0000000000000E+00
 0.0000000000000E+00
 0.0000000000000E+00
 0.0000000000000E+00
 0.0000000000000E+00
 0.0000000000000E+00
 0.0000000000000E+00
 0.0000000000000E+00
 0.0000000000000E+00
 0.0000000000000E+00
 0.0000000000000E+00
 0.0000000000000E+00
 0.0000000000000E+00
 0.0000000000000E+00
 0.0000000000000E+00
 0.0000000000000E+00
 0.0000000000000E+00
 0.0000000000000E+00
 0.0000000000000E+00
 0.0000000000000E+00
 0.0000000000000E+00
 0.0000000000000E+00
 0.0000000000000E+00
 0.0000000000000E+00
 0.0000000000000E+00
 0.0000000000000E+00
 0.0000000000000E+00
 0.0000000000000E+00
 0.0000000000000E+00
 0.0000000000000E+00
 0.0000000000000E+00
 0.0000000000000E+00
 0.0000000000000E+00
 0.0000000000000E+00
 0.0000000000000E+00
 0.0000000000000E+00
 0.0000000000000E+00
 0.0000000000000E+00
 0.0000000000000E+00
 0.0000000000000E+00
 0.0000000000000E+00
 0.0000000000000E+00
 0.0000000000000E+00
 0.0000000000000E+00
 0.0000000000000E+00
 0.0000000000000E+00
 0.0000000000000E+00
 0.0000000000000E+00
 0.0000000000000E+00
 0.0000000000000E+00
 0.0000000000000E+00
 0.0000000000000E+00
 0.0000000000000E+00
 0.0000000000000E+00
 0.0000000000000E+00
 0.0000000000000E+00
 0.0000000000000E+00
 0.0000000000000E+00
 0.0000000000000E+00
 0.0000000000000E+00
 0.0000000000000E+00
 0.0000000000000E+00
 0.0000000000000E+00
 0.0000000000000E+00
 0.0000000000000E+00
 0.0000000000000E+00
 0.0000000000000E+00
 0.0000000000000E+00
 0.0000000000000E+00
 0.0000000000000E+00
 0.0000000000000E+00
 0.0000000000000E+00
 0.0000000000000E+00
 0.0000000000000E+00
 0.0000000000000E+00
 0.0000000000000E+00
 0.0000000000000E+00
 0.0000000000000E+00
 0.0000000000000E+00
 0.0000000000000E+00
 0.0000000000000E+00
 0.0000000000000E+00
 0.0000000000000E+00
 0.0000000000000E+00
 0.0000000000000E+00
 0.0000000000000E+00
 0.0000000000000E+00
 0.0000000000000E+00
 0.0000000000000E+00
 0.0000000000000E+00
 0.0000000000000E+00
 0.0000000000000E+00
 0.0000000000000E+00
 0.0000000000000E+00
 0.0000000000000E+00
 0.0000000000000E+00
 0.0000000000000E+00
 0.0000000000000E+00
 0.0000000000000E+00
 0.0000000000000E+00
 0.0000000000000E+00
 0.0000000000000E+00
 0.0000000000000E+00
 0.0000000000000E+00
 0.0000000000000E+00
 0.0000000000000E+00
 0.0000000000000E+00
 0.0000000000000E+00
 0.0000000000000E+00
 0.0000000000000E+00
 0.0000000000000E+00
 0.0000000000000E+00
 0.0000000000000E+00
 0.0000000000000E+00
 0.0000000000000E+00
 0.0000000000000E+00
 0.0000000000000E+00
 0.0000000000000E+00
 0.0000000000000E+00
 0.0000000000000E+00
 0.0000000000000E+00
 0.0000000000000E+00
 0.0000000000000E+00
 0.0000000000000E+00
 0.0000000000000E+00
 0.0000000000000E+00
 0.0000000000000E+00
 0.0000000000000E+00
 0.0000000000000E+00
 0.0000000000000E+00
 0.0000000000000E+00
 0.0000000000000E+00
 0.0000000000000E+00
 0.0000000000000E+00
 0.0000000000000E+00
 0.0000000000000E+00
 0.0000000000000E+00
 0.0000000000000E+00
 0.0000000000000E+00
 0.0000000000000E+00
 0.0000000000000E+00
 0.0000000000000E+00
 0.0000000000000E+00
 0.0000000000000E+00
 0.0000000000000E+00
 0.0000000000000E+00
 0.0000000000000E+00
 0.0000000000000E+00
 0.0000000000000E+00
 0.0000000000000E+00
 0.0000000000000E+00
 0.0000000000000E+00
 0.0000000000000E+00
 0.0000000000000E+00
 0.0000000000000E+00
 0.0000000000000E+00
 0.0000000000000E+00
 0.0000000000000E+00
 0.0000000000000E+00
 0.0000000000000E+00
 0.0000000000000E+00
 0.0000000000000E+00
 0.0000000000000E+00
 0.0000000000000E+00
 0.0000000000000E+00
 0.0000000000000E+00
 0.0000000000000E+00
 0.0000000000000E+00
 0.0000000000000E+00
 0.0000000000000E+00
 0.0000000000000E+00
 0.0000000000000E+00
 0.0000000000000E+00
 0.0000000000000E+00
 0.0000000000000E+00
 0.0000000000000E+00
 0.0000000000000E+00
 0.0000000000000E+00
 0.0000000000000E+00
 0.0000000000000E+00
 0.0000000000000E+00
 0.0000000000000E+00
 0.0000000000000E+00
 0.0000000000000E+00
 0.0000000000000E+00
 0.0000000000000E+00
 0.0000000000000E+00
 0.0000000000000E+00
 0.0000000000000E+00
 0.0000000000000E+00
 0.0000000000000E+00
 0.0000000000000E+00
 0.0000000000000E+00
 0.0000000000000E+00
 0.0000000000000E+00
 0.0000000000000E+00
 0.0000000000000E+00
 0.0000000000000E+00
 0.0000000000000E+00
 0.0000000000000E+00
 0.0000000000000E+00
 0.0000000000000E+00
 0.0000000000000E+00
 0.0000000000000E+00
 0.0000000000000E+00
 0.0000000000000E+00
 0.0000000000000E+00
 0.0000000000000E+00
 0.0000000000000E+00
 0.0000000000000E+00
 0.0000000000000E+00
 0.0000000000000E+00
 0.0000000000000E+00
 0.0000000000000E+00
 0.0000000000000E+00
 0.0000000000000E+00
 0.0000000000000E+00
 0.0000000000000E+00
 0.0000000000000E+00
 0.0000000000000E+00
 0.0000000000000E+00
 0.0000000000000E+00
 0.0000000000000E+00
 0.0000000000000E+00
 0.0000000000000E+00
 0.0000000000000E+00
 0.0000000000000E+00
 0.0000000000000E+00
 0.0000000000000E+00
 0.0000000000000E+00
 0.0000000000000E+00
 0.0000000000000E+00
 0.0000000000000E+00
 0.0000000000000E+00
 0.0000000000000E+00
 0.0000000000000E+00
 0.0000000000000E+00
 0.0000000000000E+00
 0.0000000000000E+00
 0.0000000000000E+00
 0.0000000000000E+00
 0.0000000000000E+00
 0.0000000000000E+00
 0.0000000000000E+00
 0.0000000000000E+00
 0.0000000000000E+00
 0.0000000000000E+00
 0.0000000000000E+00
 0.0000000000000E+00
 0.0000000000000E+00
 0.0000000000000E+00
 0.0000000000000E+00
 0.0000000000000E+00
 0.0000000000000E+00
 0.0000000000000E+00
 0.0000000000000E+00
 0.0000000000000E+00
 0.0000000000000E+00
 0.0000000000000E+00
 0.0000000000000E+00
 0.0000000000000E+00
 0.0000000000000E+00
 0.0000000000000E+00
 0.0000000000000E+00
 0.0000000000000E+00
 0.0000000000000E+00
 0.0000000000000E+00
 0.0000000000000E+00
 0.0000000000000E+00
 0.0000000000000E+00
 0.0000000000000E+00
 0.0000000000000E+00
 0.0000000000000E+00
 0.0000000000000E+00
 0.0000000000000E+00
 0.0000000000000E+00
 0.0000000000000E+00
 0.0000000000000E+00
 0.0000000000000E+00
 0.0000000000000E+00
 0.0000000000000E+00
 0.0000000000000E+00
 0.0000000000000E+00
 0.0000000000000E+00
 0.0000000000000E+00
 0.0000000000000E+00
 0.0000000000000E+00
 0.0000000000000E+00
 0.0000000000000E+00
 0.0000000000000E+00
 0.0000000000000E+00
 0.0000000000000E+00
 0.0000000000000E+00
 0.0000000000000E+00
 0.0000000000000E+00
 0.0000000000000E+00
 0.0000000000000E+00
 0.0000000000000E+00
 0.0000000000000E+00
 0.0000000000000E+00
 0.0000000000000E+00
 0.0000000000000E+00
 0.0000000000000E+00
 0.0000000000000E+00
 0.0000000000000E+00
 0.0000000000000E+00
 0.0000000000000E+00
 0.0000000000000E+00
 0.0000000000000E+00
 0.0000000000000E+00
 0.0000000000000E+00
 0.0000000000000E+00
 0.0000000000000E+00
 0.0000000000000E+00
 0.0000000000000E+00
 0.0000000000000E+00
 0.0000000000000E+00
 0.0000000000000E+00
 0.0000000000000E+00
 0.0000000000000E+00
 0.0000000000000E+00
 0.0000000000000E+00
 0.0000000000000E+00
 0.0000000000000E+00
 0.0000000000000E+00
 0.0000000000000E+00
 0.0000000000000E+00
 0.0000000000000E+00
 0.0000000000000E+00
 0.0000000000000E+00
 0.0000000000000E+00
 0.0000000000000E+00
 0.0000000000000E+00
 0.0000000000000E+00
 0.0000000000000E+00
 0.0000000000000E+00
 0.0000000000000E+00
 0.0000000000000E+00
 0.0000000000000E+00
 0.0000000000000E+00
 0.0000000000000E+00
 0.0000000000000E+00
 0.0000000000000E+00
 0.0000000000000E+00
 0.0000000000000E+00
 0.0000000000000E+00
 0.0000000000000E+00
 0.0000000000000E+00
 0.0000000000000E+00
 0.0000000000000E+00
 0.0000000000000E+00
 0.0000000000000E+00
 0.0000000000000E+00
 0.0000000000000E+00
 0.0000000000000E+00
 0.0000000000000E+00
 0.0000000000000E+00
 0.0000000000000E+00
 0.0000000000000E+00
 0.0000000000000E+00
 0.0000000000000E+00
 0.0000000000000E+00
 0.0000000000000E+00
 0.0000000000000E+00
 0.0000000000000E+00
 0.0000000000000E+00
 0.0000000000000E+00
 0.0000000000000E+00
 0.0000000000000E+00
 0.0000000000000E+00
 0.0000000000000E+00
 0.0000000000000E+00
 0.0000000000000E+00
 0.0000000000000E+00
 0.0000000000000E+00
 0.0000000000000E+00
 0.0000000000000E+00
 0.0000000000000E+00
 0.0000000000000E+00
 0.0000000000000E+00
 0.0000000000000E+00
 0.0000000000000E+00
 0.0000000000000E+00
 0.0000000000000E+00
 0.0000000000000E+00
 0.0000000000000E+00
 0.0000000000000E+00
 0.0000000000000E+00
 0.0000000000000E+00
 0.0000000000000E+00
 0.0000000000000E+00
 0.0000000000000E+00
 0.0000000000000E+00
 0.0000000000000E+00
 0.0000000000000E+00
 0.0000000000000E+00
 0.0000000000000E+00
 0.0000000000000E+00
 0.0000000000000E+00
 0.0000000000000E+00
 0.0000000000000E+00
 0.0000000000000E+00
 0.0000000000000E+00
 0.0000000000000E+00
 0.0000000000000E+00
 0.0000000000000E+00
 0.0000000000000E+00
 0.0000000000000E+00
 0.0000000000000E+00
 0.0000000000000E+00
 0.0000000000000E+00
 0.0000000000000E+00
 0.0000000000000E+00
 0.0000000000000E+00
 0.0000000000000E+00
 0.0000000000000E+00
 0.0000000000000E+00
 0.0000000000000E+00
 0.0000000000000E+00
 0.0000000000000E+00
 0.0000000000000E+00
 0.0000000000000E+00
 0.0000000000000E+00
 0.0000000000000E+00
 0.0000000000000E+00
 0.0000000000000E+00
 0.0000000000000E+00
 0.0000000000000E+00
 0.0000000000000E+00
 0.0000000000000E+00
 0.0000000000000E+00
 0.0000000000000E+00
 0.0000000000000E+00
 0.0000000000000E+00
 0.0000000000000E+00
 0.0000000000000E+00
 0.0000000000000E+00
 0.0000000000000E+00
 0.0000000000000E+00
 0.0000000000000E+00
 0.0000000000000E+00
 0.0000000000000E+00
 0.0000000000000E+00
 0.0000000000000E+00
 0.0000000000000E+00
 0.0000000000000E+00
 0.0000000000000E+00
 0.0000000000000E+00
 0.0000000000000E+00
 0.0000000000000E+00
 0.0000000000000E+00
 0.0000000000000E+00
 0.0000000000000E+00
 0.0000000000000E+00
 0.0000000000000E+00
 0.0000000000000E+00
 0.0000000000000E+00
 0.0000000000000E+00
 0.0000000000000E+00
 0.0000000000000E+00
 0.0000000000000E+00
 0.0000000000000E+00
 0.0000000000000E+00
 0.0000000000000E+00
 0.0000000000000E+00
 0.0000000000000E+00
 0.0000000000000E+00
 0.0000000000000E+00
 0.0000000000000E+00
 0.0000000000000E+00
 0.0000000000000E+00
 0.0000000000000E+00
 0.0000000000000E+00
 0.0000000000000E+00
 0.0000000000000E+00
 0.0000000000000E+00
 0.0000000000000E+00
 0.0000000000000E+00
 0.0000000000000E+00
 0.0000000000000E+00
 0.0000000000000E+00
 0.0000000000000E+00
 0.0000000000000E+00
 0.0000000000000E+00
 0.0000000000000E+00
 0.0000000000000E+00
 0.0000000000000E+00
 0.0000000000000E+00
 0.0000000000000E+00
 0.0000000000000E+00
 0.0000000000000E+00
 0.0000000000000E+00
 0.0000000000000E+00
 0.0000000000000E+00
 0.0000000000000E+00
 0.0000000000000E+00
 0.0000000000000E+00
 0.0000000000000E+00
 0.0000000000000E+00
 0.0000000000000E+00
 0.0000000000000E+00
 0.0000000000000E+00
 0.0000000000000E+00
 0.0000000000000E+00
 0.0000000000000E+00
 0.0000000000000E+00
 0.0000000000000E+00
 0.0000000000000E+00
 0.0000000000000E+00
 0.0000000000000E+00
 0.0000000000000E+00
 0.0000000000000E+00
 0.0000000000000E+00
 0.0000000000000E+00
 0.0000000000000E+00
 0.0000000000000E+00
 0.0000000000000E+00
 0.0000000000000E+00
 0.0000000000000E+00
 0.0000000000000E+00
 0.0000000000000E+00
 0.0000000000000E+00
 0.0000000000000E+00
 0.0000000000000E+00
 0.0000000000000E+00
 0.0000000000000E+00
 0.0000000000000E+00
 0.0000000000000E+00
 0.0000000000000E+00
 0.0000000000000E+00
 0.0000000000000E+00
 0.0000000000000E+00
 0.0000000000000E+00
 0.0000000000000E+00
 0.0000000000000E+00
 0.0000000000000E+00
 0.0000000000000E+00
 0.0000000000000E+00
 0.0000000000000E+00
 0.0000000000000E+00
 0.0000000000000E+00
 0.0000000000000E+00
 0.0000000000000E+00
 0.0000000000000E+00
 0.0000000000000E+00
 0.0000000000000E+00
 0.0000000000000E+00
 0.0000000000000E+00
 0.0000000000000E+00
 0.0000000000000E+00
 0.0000000000000E+00
 0.0000000000000E+00
 0.0000000000000E+00
 0.0000000000000E+00
 0.0000000000000E+00
 0.0000000000000E+00
 0.0000000000000E+00
 0.0000000000000E+00
 0.0000000000000E+00
 0.0000000000000E+00
 0.0000000000000E+00
 0.0000000000000E+00
 0.0000000000000E+00
 0.0000000000000E+00
 0.0000000000000E+00
 0.0000000000000E+00
 0.0000000000000E+00
 0.0000000000000E+00
 0.0000000000000E+00
 0.0000000000000E+00
 0.0000000000000E+00
 0.0000000000000E+00
 0.0000000000000E+00
 0.0000000000000E+00
 0.0000000000000E+00
 0.0000000000000E+00
 0.0000000000000E+00
 0.0000000000000E+00
 0.0000000000000E+00
 0.0000000000000E+00
 0.0000000000000E+00
 0.0000000000000E+00
 0.0000000000000E+00
 0.0000000000000E+00
 0.0000000000000E+00
 0.0000000000000E+00
 0.0000000000000E+00
 0.0000000000000E+00
 0.0000000000000E+00
 0.0000000000000E+00
 0.0000000000000E+00
 0.0000000000000E+00
 0.0000000000000E+00
 0.0000000000000E+00
 0.0000000000000E+00
 0.0000000000000E+00
 0.0000000000000E+00
 0.0000000000000E+00
 0.0000000000000E+00
 0.0000000000000E+00
 0.0000000000000E+00
 0.0000000000000E+00
 0.0000000000000E+00
 0.0000000000000E+00
 0.0000000000000E+00
 0.0000000000000E+00
 0.0000000000000E+00
 0.0000000000000E+00
 0.0000000000000E+00
 0.0000000000000E+00
 0.0000000000000E+00
 0.0000000000000E+00
 0.0000000000000E+00
 0.0000000000000E+00
 0.0000000000000E+00
 0.0000000000000E+00
 0.0000000000000E+00
 0.0000000000000E+00
 0.0000000000000E+00
 0.0000000000000E+00
 0.0000000000000E+00
 0.0000000000000E+00
 0.0000000000000E+00
 0.0000000000000E+00
 0.0000000000000E+00
 0.0000000000000E+00
 0.0000000000000E+00
 0.0000000000000E+00
 0.0000000000000E+00
 0.0000000000000E+00
 0.0000000000000E+00
 0.0000000000000E+00
 0.0000000000000E+00
 0.0000000000000E+00
 0.0000000000000E+00
 0.0000000000000E+00
 0.0000000000000E+00
 0.0000000000000E+00
 0.0000000000000E+00
 0.0000000000000E+00
 0.0000000000000E+00
 0.0000000000000E+00
 0.0000000000000E+00
 0.0000000000000E+00
 0.0000000000000E+00
 0.0000000000000E+00
 0.0000000000000E+00
 0.0000000000000E+00
 0.0000000000000E+00
 0.0000000000000E+00
 0.0000000000000E+00
 0.0000000000000E+00
 0.0000000000000E+00
 0.0000000000000E+00
 0.0000000000000E+00
 0.0000000000000E+00
 0.0000000000000E+00
 0.0000000000000E+00
 0.0000000000000E+00
 0.0000000000000E+00
 0.0000000000000E+00
 0.0000000000000E+00
 0.0000000000000E+00
 0.0000000000000E+00
 0.0000000000000E+00
 0.0000000000000E+00
 0.0000000000000E+00
 0.0000000000000E+00
 0.0000000000000E+00
 0.0000000000000E+00
 0.0000000000000E+00
 0.0000000000000E+00
 0.0000000000000E+00
 0.0000000000000E+00
 0.0000000000000E+00
 0.0000000000000E+00
 0.0000000000000E+00
 0.0000000000000E+00
 0.0000000000000E+00
 0.0000000000000E+00
 0.0000000000000E+00
 0.0000000000000E+00
 0.0000000000000E+00
 0.0000000000000E+00
 0.0000000000000E+00
 0.0000000000000E+00
 0.0000000000000E+00
 0.0000000000000E+00
 0.0000000000000E+00
 0.0000000000000E+00
 0.0000000000000E+00
 0.0000000000000E+00
 0.0000000000000E+00
 0.0000000000000E+00
 0.0000000000000E+00
 0.0000000000000E+00
 0.0000000000000E+00
 0.0000000000000E+00
 0.0000000000000E+00
 0.0000000000000E+00
 0.0000000000000E+00
 0.0000000000000E+00
 0.0000000000000E+00
 0.0000000000000E+00
 0.0000000000000E+00
 0.0000000000000E+00
 0.0000000000000E+00
 0.0000000000000E+00
 0.0000000000000E+00
 0.0000000000000E+00
 0.0000000000000E+00
 0.0000000000000E+00
 0.0000000000000E+00
 0.0000000000000E+00
 0.0000000000000E+00
 0.0000000000000E+00
 0.0000000000000E+00
 0.0000000000000E+00
 0.0000000000000E+00
 0.0000000000000E+00
 0.0000000000000E+00
 0.0000000000000E+00
 0.0000000000000E+00
 0.0000000000000E+00
 0.0000000000000E+00
 0.0000000000000E+00
 0.0000000000000E+00
 0.0000000000000E+00
 0.0000000000000E+00
 0.0000000000000E+00
 0.0000000000000E+00
 0.0000000000000E+00
 0.0000000000000E+00
 0.0000000000000E+00
 0.0000000000000E+00
 0.0000000000000E+00
 0.0000000000000E+00
 0.0000000000000E+00
 0.0000000000000E+00
 0.0000000000000E+00
 0.0000000000000E+00
 0.0000000000000E+00
 0.0000000000000E+00
 0.0000000000000E+00
 0.0000000000000E+00
 0.0000000000000E+00
 0.0000000000000E+00
 0.0000000000000E+00
 0.0000000000000E+00
 0.0000000000000E+00
 0.0000000000000E+00
 0.0000000000000E+00
 0.0000000000000E+00
 0.0000000000000E+00
 0.0000000000000E+00
 0.0000000000000E+00
 0.0000000000000E+00
 0.0000000000000E+00
 0.0000000000000E+00
 0.0000000000000E+00
 0.0000000000000E+00
 0.0000000000000E+00
 0.0000000000000E+00
 0.0000000000000E+00
 0.0000000000000E+00
 0.0000000000000E+00
 0.0000000000000E+00
 0.0000000000000E+00
 0.0000000000000E+00
 0.0000000000000E+00
 0.0000000000000E+00
 0.0000000000000E+00
 0.0000000000000E+00
 0.0000000000000E+00
 0.0000000000000E+00
 0.0000000000000E+00
 0.0000000000000E+00
 0.0000000000000E+00
 0.0000000000000E+00
 0.0000000000000E+00
 0.0000000000000E+00
 0.0000000000000E+00
 0.0000000000000E+00
 0.0000000000000E+00
 0.0000000000000E+00
 0.0000000000000E+00
 0.0000000000000E+00
 0.0000000000000E+00
 0.0000000000000E+00
 0.0000000000000E+00
 0.0000000000000E+00
 0.0000000000000E+00
 0.0000000000000E+00
 0.0000000000000E+00
 0.0000000000000E+00
 0.0000000000000E+00
 0.0000000000000E+00
 0.0000000000000E+00
 0.0000000000000E+00
 0.0000000000000E+00
 0.0000000000000E+00
 0.0000000000000E+00
 0.0000000000000E+00
 0.0000000000000E+00
 0.0000000000000E+00
 0.0000000000000E+00
 0.0000000000000E+00
 0.0000000000000E+00
 0.0000000000000E+00
 0.0000000000000E+00
 0.0000000000000E+00
 0.0000000000000E+00
 0.0000000000000E+00
 0.0000000000000E+00
 0.0000000000000E+00
 0.0000000000000E+00
 0.0000000000000E+00
 0.0000000000000E+00
 0.0000000000000E+00
 0.0000000000000E+00
 0.0000000000000E+00
 0.0000000000000E+00
 0.0000000000000E+00
 0.0000000000000E+00
 0.0000000000000E+00
 0.0000000000000E+00
 0.0000000000000E+00
 0.0000000000000E+00
 0.0000000000000E+00
 0.0000000000000E+00
 0.0000000000000E+00
 0.0000000000000E+00
 0.0000000000000E+00
 0.0000000000000E+00
 0.0000000000000E+00
 0.0000000000000E+00
 0.0000000000000E+00
 0.0000000000000E+00
 0.0000000000000E+00
 0.0000000000000E+00
 0.0000000000000E+00
 0.0000000000000E+00
 0.0000000000000E+00
 0.0000000000000E+00
 0.0000000000000E+00
 0.0000000000000E+00
 0.0000000000000E+00
 0.0000000000000E+00
 0.0000000000000E+00
 0.0000000000000E+00
 0.0000000000000E+00
 0.0000000000000E+00
 0.0000000000000E+00
 0.0000000000000E+00
 0.0000000000000E+00
 0.0000000000000E+00
 0.0000000000000E+00
 0.0000000000000E+00
 0.0000000000000E+00
 0.0000000000000E+00
 0.0000000000000E+00
 0.0000000000000E+00
 0.0000000000000E+00
 0.0000000000000E+00
 0.0000000000000E+00
 0.0000000000000E+00
 0.0000000000000E+00
 0.0000000000000E+00
 0.0000000000000E+00
 0.0000000000000E+00
 0.0000000000000E+00
 0.0000000000000E+00
 0.0000000000000E+00
 0.0000000000000E+00
 0.0000000000000E+00
 0.0000000000000E+00
 0.0000000000000E+00
 0.0000000000000E+00
 0.0000000000000E+00
 0.0000000000000E+00
 0.0000000000000E+00
 0.0000000000000E+00
 0.0000000000000E+00
 0.0000000000000E+00
 0.0000000000000E+00
 0.0000000000000E+00
 0.0000000000000E+00
 0.0000000000000E+00
 0.0000000000000E+00
 0.0000000000000E+00
 0.0000000000000E+00
 0.0000000000000E+00
 0.0000000000000E+00
 0.0000000000000E+00
 0.0000000000000E+00
 0.0000000000000E+00
 0.0000000000000E+00
 0.0000000000000E+00
 0.0000000000000E+00
 0.0000000000000E+00
 0.0000000000000E+00
 0.0000000000000E+00
 0.0000000000000E+00
 0.0000000000000E+00
 0.0000000000000E+00
 0.0000000000000E+00
 0.0000000000000E+00
 0.0000000000000E+00
 0.0000000000000E+00
 0.0000000000000E+00
 0.0000000000000E+00
 0.0000000000000E+00
 0.0000000000000E+00
 0.0000000000000E+00
 0.0000000000000E+00
 0.0000000000000E+00
 0.0000000000000E+00
 0.0000000000000E+00
 0.0000000000000E+00
 0.0000000000000E+00
 0.0000000000000E+00
 0.0000000000000E+00
 0.0000000000000E+00
 0.0000000000000E+00
 0.0000000000000E+00
 0.0000000000000E+00
 0.0000000000000E+00
 0.0000000000000E+00
 0.0000000000000E+00
 0.0000000000000E+00
 0.0000000000000E+00
 0.0000000000000E+00
 0.0000000000000E+00
 0.0000000000000E+00
 0.0000000000000E+00
 0.0000000000000E+00
 0.0000000000000E+00
 0.0000000000000E+00
 0.0000000000000E+00
 0.0000000000000E+00
 0.0000000000000E+00
 0.0000000000000E+00
 0.0000000000000E+00
 0.0000000000000E+00
 0.0000000000000E+00
 0.0000000000000E+00
 0.0000000000000E+00
 0.0000000000000E+00
 0.0000000000000E+00
 0.0000000000000E+00
 0.0000000000000E+00
 0.0000000000000E+00
 0.0000000000000E+00
 0.0000000000000E+00
 0.0000000000000E+00
 0.0000000000000E+00
 0.0000000000000E+00
 0.0000000000000E+00
 0.0000000000000E+00
 0.0000000000000E+00
 0.0000000000000E+00
 0.0000000000000E+00
 0.0000000000000E+00
 0.0000000000000E+00
 0.0000000000000E+00
 0.0000000000000E+00
 0.0000000000000E+00
 0.0000000000000E+00
 0.0000000000000E+00
 0.0000000000000E+00
 0.0000000000000E+00
 0.0000000000000E+00
 0.0000000000000E+00
 0.0000000000000E+00
 0.0000000000000E+00
 0.0000000000000E+00
 0.0000000000000E+00
 0.0000000000000E+00
 0.0000000000000E+00
 0.0000000000000E+00
 0.0000000000000E+00
 0.0000000000000E+00
 0.0000000000000E+00
 0.0000000000000E+00
 0.0000000000000E+00
 0.0000000000000E+00
 0.0000000000000E+00
 0.0000000000000E+00
 0.0000000000000E+00
 0.0000000000000E+00
 0.0000000000000E+00
 0.0000000000000E+00
 0.0000000000000E+00
 0.0000000000000E+00
 0.0000000000000E+00
 0.0000000000000E+00
 0.0000000000000E+00
 0.0000000000000E+00
 0.0000000000000E+00
 0.0000000000000E+00
 0.0000000000000E+00
 0.0000000000000E+00
 0.0000000000000E+00
 0.0000000000000E+00
 0.0000000000000E+00
 0.0000000000000E+00
 0.0000000000000E+00
 0.0000000000000E+00
 0.0000000000000E+00
 0.0000000000000E+00
 0.0000000000000E+00
 0.0000000000000E+00
 0.0000000000000E+00
 0.0000000000000E+00
 0.0000000000000E+00
 0.0000000000000E+00
 0.0000000000000E+00
 0.0000000000000E+00
 0.0000000000000E+00
 0.0000000000000E+00
 0.0000000000000E+00
 0.0000000000000E+00
 0.0000000000000E+00
 0.0000000000000E+00
 0.0000000000000E+00
 0.0000000000000E+00
 0.0000000000000E+00
 0.0000000000000E+00
 0.0000000000000E+00
 0.0000000000000E+00
 0.0000000000000E+00
 0.0000000000000E+00
 0.0000000000000E+00
 0.0000000000000E+00
 0.0000000000000E+00
 0.0000000000000E+00
 0.0000000000000E+00
 0.0000000000000E+00
 0.0000000000000E+00
 0.0000000000000E+00
 0.0000000000000E+00
 0.0000000000000E+00
 0.0000000000000E+00
 0.0000000000000E+00
 0.0000000000000E+00
 0.0000000000000E+00
 0.0000000000000E+00
 0.0000000000000E+00
 0.0000000000000E+00
 0.0000000000000E+00
 0.0000000000000E+00
 0.0000000000000E+00
 0.0000000000000E+00
 0.0000000000000E+00
 0.0000000000000E+00
 0.0000000000000E+00
 0.0000000000000E+00
 0.0000000000000E+00
 0.0000000000000E+00
 0.0000000000000E+00
 0.0000000000000E+00
 0.0000000000000E+00
 0.0000000000000E+00
 0.0000000000000E+00
 0.0000000000000E+00
 0.0000000000000E+00
 0.0000000000000E+00
 0.0000000000000E+00
 0.0000000000000E+00
 0.0000000000000E+00
 0.0000000000000E+00
 0.0000000000000E+00
 0.0000000000000E+00
 0.0000000000000E+00
 0.0000000000000E+00
 0.0000000000000E+00
 0.0000000000000E+00
 0.0000000000000E+00
 0.0000000000000E+00
 0.0000000000000E+00
 0.0000000000000E+00
 0.0000000000000E+00
 0.0000000000000E+00
 0.0000000000000E+00
 0.0000000000000E+00
 0.0000000000000E+00
 0.0000000000000E+00
 0.0000000000000E+00
 0.0000000000000E+00
 0.0000000000000E+00
 0.0000000000000E+00
 0.0000000000000E+00
 0.0000000000000E+00
 0.0000000000000E+00
 0.0000000000000E+00
 0.0000000000000E+00
 0.0000000000000E+00
 0.0000000000000E+00
 0.0000000000000E+00
 0.0000000000000E+00
 0.0000000000000E+00
 0.0000000000000E+00
 0.0000000000000E+00
 0.0000000000000E+00
 0.0000000000000E+00
 0.0000000000000E+00
 0.0000000000000E+00
 0.0000000000000E+00
 0.0000000000000E+00
 0.0000000000000E+00
 0.0000000000000E+00
 0.0000000000000E+00
 0.0000000000000E+00
 0.0000000000000E+00
 0.0000000000000E+00
 0.0000000000000E+00
 0.0000000000000E+00
 0.0000000000000E+00
 0.0000000000000E+00
 0.0000000000000E+00
 0.0000000000000E+00
 0.0000000000000E+00
 0.0000000000000E+00
 0.0000000000000E+00
 0.0000000000000E+00
 0.0000000000000E+00
 0.0000000000000E+00
 0.0000000000000E+00
 0.0000000000000E+00
 0.0000000000000E+00
 0.0000000000000E+00
 0.0000000000000E+00
 0.0000000000000E+00
 0.0000000000000E+00
 0.0000000000000E+00
 0.0000000000000E+00
 0.0000000000000E+00
 0.0000000000000E+00
 0.0000000000000E+00
 0.0000000000000E+00
 0.0000000000000E+00
 0.0000000000000E+00
 0.0000000000000E+00
 0.0000000000000E+00
 0.0000000000000E+00
 0.0000000000000E+00
 0.0000000000000E+00
 0.0000000000000E+00
 0.0000000000000E+00
 0.0000000000000E+00
 0.0000000000000E+00
 0.0000000000000E+00
 0.0000000000000E+00
 0.0000000000000E+00
 0.0000000000000E+00
 0.0000000000000E+00
 0.0000000000000E+00
 0.0000000000000E+00
 0.0000000000000E+00
 0.0000000000000E+00
 0.0000000000000E+00
 0.0000000000000E+00
 0.0000000000000E+00
 0.0000000000000E+00
 0.0000000000000E+00
 0.0000000000000E+00
 0.0000000000000E+00
 0.0000000000000E+00
 0.0000000000000E+00
 0.0000000000000E+00
 0.0000000000000E+00
 0.0000000000000E+00
 0.0000000000000E+00
 0.0000000000000E+00
 0.0000000000000E+00
 0.0000000000000E+00
 0.0000000000000E+00
 0.0000000000000E+00
 0.0000000000000E+00
 0.0000000000000E+00
 0.0000000000000E+00
 0.0000000000000E+00
 0.0000000000000E+00
 0.0000000000000E+00
 0.0000000000000E+00
 0.0000000000000E+00
 0.0000000000000E+00
 0.0000000000000E+00
 0.0000000000000E+00
 0.0000000000000E+00
 0.0000000000000E+00
 0.0000000000000E+00
 0.0000000000000E+00
 0.0000000000000E+00
 0.0000000000000E+00
 0.0000000000000E+00
 0.0000000000000E+00
 0.0000000000000E+00
 0.0000000000000E+00
 0.0000000000000E+00
 0.0000000000000E+00
 0.0000000000000E+00
 0.0000000000000E+00
 0.0000000000000E+00
 0.0000000000000E+00
 0.0000000000000E+00
 0.0000000000000E+00
 0.0000000000000E+00
 0.0000000000000E+00
 0.0000000000000E+00
 0.0000000000000E+00
 0.0000000000000E+00
 0.0000000000000E+00
 0.0000000000000E+00
 0.0000000000000E+00
 0.0000000000000E+00
 0.0000000000000E+00
 0.0000000000000E+00
 0.0000000000000E+00
 0.0000000000000E+00
 0.0000000000000E+00
 0.0000000000000E+00
 0.0000000000000E+00
 0.0000000000000E+00
 0.0000000000000E+00
 0.0000000000000E+00
 0.0000000000000E+00
 0.0000000000000E+00
 0.0000000000000E+00
 0.0000000000000E+00
 0.0000000000000E+00
 0.0000000000000E+00
 0.0000000000000E+00
 0.0000000000000E+00
 0.0000000000000E+00
 0.0000000000000E+00
 0.0000000000000E+00
 0.0000000000000E+00
 0.0000000000000E+00
 0.0000000000000E+00
 0.0000000000000E+00
 0.0000000000000E+00
 0.0000000000000E+00
 0.0000000000000E+00
 0.0000000000000E+00
 0.0000000000000E+00
 0.0000000000000E+00
 0.0000000000000E+00
 0.0000000000000E+00
 0.0000000000000E+00
 0.0000000000000E+00
 0.0000000000000E+00
 0.0000000000000E+00
 0.0000000000000E+00
 0.0000000000000E+00
 0.0000000000000E+00
 0.0000000000000E+00
 0.0000000000000E+00
 0.0000000000000E+00
 0.0000000000000E+00
 0.0000000000000E+00
 0.0000000000000E+00
 0.0000000000000E+00
 0.0000000000000E+00
 0.0000000000000E+00
 0.0000000000000E+00
 0.0000000000000E+00
 0.0000000000000E+00
 0.0000000000000E+00
 0.0000000000000E+00
 0.0000000000000E+00
 0.0000000000000E+00
 0.0000000000000E+00
 0.0000000000000E+00
 0.0000000000000E+00
 0.0000000000000E+00
 0.0000000000000E+00
 0.0000000000000E+00
 0.0000000000000E+00
 0.0000000000000E+00
 0.0000000000000E+00
 0.0000000000000E+00
 0.0000000000000E+00
 0.0000000000000E+00
 0.0000000000000E+00
 0.0000000000000E+00
 0.0000000000000E+00
 0.0000000000000E+00
 0.0000000000000E+00
 0.0000000000000E+00
 0.0000000000000E+00
 0.0000000000000E+00
 0.0000000000000E+00
 0.0000000000000E+00
 0.0000000000000E+00
 0.0000000000000E+00
 0.0000000000000E+00
 0.0000000000000E+00
 0.0000000000000E+00
 0.0000000000000E+00
 0.0000000000000E+00
 0.0000000000000E+00
 0.0000000000000E+00
 0.0000000000000E+00
 0.0000000000000E+00
 0.0000000000000E+00
 0.0000000000000E+00
 0.0000000000000E+00
 0.0000000000000E+00
 0.0000000000000E+00
 0.0000000000000E+00
 0.0000000000000E+00
 0.0000000000000E+00
 0.0000000000000E+00
 0.0000000000000E+00
 0.0000000000000E+00
 0.0000000000000E+00
 0.0000000000000E+00
 0.0000000000000E+00
 0.0000000000000E+00
 0.0000000000000E+00
 0.0000000000000E+00
 0.0000000000000E+00
 0.0000000000000E+00
 0.0000000000000E+00
 0.0000000000000E+00
 0.0000000000000E+00
 0.0000000000000E+00
 0.0000000000000E+00
 0.0000000000000E+00
 0.0000000000000E+00
 0.0000000000000E+00
 0.0000000000000E+00
 0.0000000000000E+00
 0.0000000000000E+00
 0.0000000000000E+00
 0.0000000000000E+00
 0.0000000000000E+00
 0.0000000000000E+00
 0.0000000000000E+00
 0.0000000000000E+00
 0.0000000000000E+00
 0.0000000000000E+00
 0.0000000000000E+00
 0.0000000000000E+00
 0.0000000000000E+00
 0.0000000000000E+00
 0.0000000000000E+00
 0.0000000000000E+00
 0.0000000000000E+00
 0.0000000000000E+00
 0.0000000000000E+00
 0.0000000000000E+00
 0.0000000000000E+00
 0.0000000000000E+00
 0.0000000000000E+00
 0.0000000000000E+00
 0.0000000000000E+00
 0.0000000000000E+00
 0.0000000000000E+00
 0.0000000000000E+00
 0.0000000000000E+00
 0.0000000000000E+00
 0.0000000000000E+00
 0.0000000000000E+00
 0.0000000000000E+00
 0.0000000000000E+00
 0.0000000000000E+00
 0.0000000000000E+00
 0.0000000000000E+00
 0.0000000000000E+00
 0.0000000000000E+00
 0.0000000000000E+00
 0.0000000000000E+00
 0.0000000000000E+00
 0.0000000000000E+00
 0.0000000000000E+00
 0.0000000000000E+00
 0.0000000000000E+00
 0.0000000000000E+00
 0.0000000000000E+00
 0.0000000000000E+00
 0.0000000000000E+00
 0.0000000000000E+00
 0.0000000000000E+00
 0.0000000000000E+00
 0.0000000000000E+00
 0.0000000000000E+00
 0.0000000000000E+00
 0.0000000000000E+00
 0.0000000000000E+00
 0.0000000000000E+00
 0.0000000000000E+00
 0.0000000000000E+00
 0.0000000000000E+00
 0.0000000000000E+00
 0.0000000000000E+00
 0.0000000000000E+00
 0.0000000000000E+00
 0.0000000000000E+00
 0.0000000000000E+00
 0.0000000000000E+00
 0.0000000000000E+00
 0.0000000000000E+00
 0.0000000000000E+00
 0.0000000000000E+00
 0.0000000000000E+00
 0.0000000000000E+00
 0.0000000000000E+00
 0.0000000000000E+00
 0.0000000000000E+00
 0.0000000000000E+00
 0.0000000000000E+00
 0.0000000000000E+00
 0.0000000000000E+00
 0.0000000000000E+00
 0.0000000000000E+00
 0.0000000000000E+00
 0.0000000000000E+00
 0.0000000000000E+00
 0.0000000000000E+00
 0.0000000000000E+00
 0.0000000000000E+00
 0.0000000000000E+00
 0.0000000000000E+00
 0.0000000000000E+00
 0.0000000000000E+00
 0.0000000000000E+00
 0.0000000000000E+00
 0.0000000000000E+00
 0.0000000000000E+00
 0.0000000000000E+00
 0.0000000000000E+00
 0.0000000000000E+00
 0.0000000000000E+00
 0.0000000000000E+00
 0.0000000000000E+00
 0.0000000000000E+00
 0.0000000000000E+00
 0.0000000000000E+00
 0.0000000000000E+00
 0.0000000000000E+00
 0.0000000000000E+00
 0.0000000000000E+00
 0.0000000000000E+00
 0.0000000000000E+00
 0.0000000000000E+00
 0.0000000000000E+00
 0.0000000000000E+00
 0.0000000000000E+00
 0.0000000000000E+00
 0.0000000000000E+00
 0.0000000000000E+00
 0.0000000000000E+00
 0.0000000000000E+00
 0.0000000000000E+00
 0.0000000000000E+00
 0.0000000000000E+00
 0.0000000000000E+00
 0.0000000000000E+00
 0.0000000000000E+00
 0.0000000000000E+00
 0.0000000000000E+00
 0.0000000000000E+00
 0.0000000000000E+00
 0.0000000000000E+00
 0.0000000000000E+00
 0.0000000000000E+00
 0.0000000000000E+00
 0.0000000000000E+00
 0.0000000000000E+00
 0.0000000000000E+00
 0.0000000000000E+00
 0.0000000000000E+00
 0.0000000000000E+00
 0.0000000000000E+00
 0.0000000000000E+00
 0.0000000000000E+00
 0.0000000000000E+00
 0.0000000000000E+00
 0.0000000000000E+00
 0.0000000000000E+00
 0.0000000000000E+00
 0.0000000000000E+00
 0.0000000000000E+00
 0.0000000000000E+00
 0.0000000000000E+00
 0.0000000000000E+00
 0.0000000000000E+00
 0.0000000000000E+00
 0.0000000000000E+00
 0.0000000000000E+00
 0.0000000000000E+00
 0.0000000000000E+00
 0.0000000000000E+00
 0.0000000000000E+00
 0.0000000000000E+00
 0.0000000000000E+00
 0.0000000000000E+00
 0.0000000000000E+00
 0.0000000000000E+00
 0.0000000000000E+00
 0.0000000000000E+00
 0.0000000000000E+00
 0.0000000000000E+00
 0.0000000000000E+00
 0.0000000000000E+00
 0.0000000000000E+00
 0.0000000000000E+00
 0.0000000000000E+00
 0.0000000000000E+00
 0.0000000000000E+00
 0.0000000000000E+00
 0.0000000000000E+00
 0.0000000000000E+00
 0.0000000000000E+00
 0.0000000000000E+00
 0.0000000000000E+00
 0.0000000000000E+00
 0.0000000000000E+00
 0.0000000000000E+00
 0.0000000000000E+00
 0.0000000000000E+00
 0.0000000000000E+00
 0.0000000000000E+00
 0.0000000000000E+00
 0.0000000000000E+00
 0.0000000000000E+00
 0.0000000000000E+00
 0.0000000000000E+00
 0.0000000000000E+00
 0.0000000000000E+00
 0.0000000000000E+00
 0.0000000000000E+00
 0.0000000000000E+00
 0.0000000000000E+00
 0.0000000000000E+00
 0.0000000000000E+00
 0.0000000000000E+00
 0.0000000000000E+00
 0.0000000000000E+00
 0.0000000000000E+00
 0.0000000000000E+00
 0.0000000000000E+00
 0.0000000000000E+00
 0.0000000000000E+00
 0.0000000000000E+00
 0.0000000000000E+00
 0.0000000000000E+00
 0.0000000000000E+00
 0.0000000000000E+00
 0.0000000000000E+00
 0.0000000000000E+00
 0.0000000000000E+00
 0.0000000000000E+00
 0.0000000000000E+00
 0.0000000000000E+00
 0.0000000000000E+00
 0.0000000000000E+00
 0.0000000000000E+00
 0.0000000000000E+00
 0.0000000000000E+00
 0.0000000000000E+00
 0.0000000000000E+00
 0.0000000000000E+00
 0.0000000000000E+00
 0.0000000000000E+00
 0.0000000000000E+00
 0.0000000000000E+00
 0.0000000000000E+00
 0.0000000000000E+00
 0.0000000000000E+00
 0.0000000000000E+00
 0.0000000000000E+00
 0.0000000000000E+00
 0.0000000000000E+00
 0.0000000000000E+00
 0.0000000000000E+00
 0.0000000000000E+00
 0.0000000000000E+00
 0.0000000000000E+00
 0.0000000000000E+00
 0.0000000000000E+00
 0.0000000000000E+00
 0.0000000000000E+00
 0.0000000000000E+00
 0.0000000000000E+00
 0.0000000000000E+00
 0.0000000000000E+00
 0.0000000000000E+00
 0.0000000000000E+00
 0.0000000000000E+00
 0.0000000000000E+00
 0.0000000000000E+00
 0.0000000000000E+00
 0.0000000000000E+00
 0.0000000000000E+00
 0.0000000000000E+00
 0.0000000000000E+00
 0.0000000000000E+00
 0.0000000000000E+00
 0.0000000000000E+00
 0.0000000000000E+00
 0.0000000000000E+00
 0.0000000000000E+00
 0.0000000000000E+00
 0.0000000000000E+00
 0.0000000000000E+00
 0.0000000000000E+00
 0.0000000000000E+00
 0.0000000000000E+00
 0.0000000000000E+00
 0.0000000000000E+00
 0.0000000000000E+00
 0.0000000000000E+00
 0.0000000000000E+00
 0.0000000000000E+00
 0.0000000000000E+00
 0.0000000000000E+00
 0.0000000000000E+00
 0.0000000000000E+00
 0.0000000000000E+00
 0.0000000000000E+00
 0.0000000000000E+00
 0.0000000000000E+00
 0.0000000000000E+00
 0.0000000000000E+00
 0.0000000000000E+00
 0.0000000000000E+00
 0.0000000000000E+00
 0.0000000000000E+00
 0.0000000000000E+00
 0.0000000000000E+00
 0.0000000000000E+00
 0.0000000000000E+00
 0.0000000000000E+00
 0.0000000000000E+00
 0.0000000000000E+00
 0.0000000000000E+00
 0.0000000000000E+00
 0.0000000000000E+00
 0.0000000000000E+00
 0.0000000000000E+00
 0.0000000000000E+00
 0.0000000000000E+00
 0.0000000000000E+00
 0.0000000000000E+00
 0.0000000000000E+00
 0.0000000000000E+00
 0.0000000000000E+00
 0.0000000000000E+00
 0.0000000000000E+00
 0.0000000000000E+00
 0.0000000000000E+00
 0.0000000000000E+00
 0.0000000000000E+00
 0.0000000000000E+00
 0.0000000000000E+00
 0.0000000000000E+00
 0.0000000000000E+00
 0.0000000000000E+00
 0.0000000000000E+00
 0.0000000000000E+00
 0.0000000000000E+00
 0.0000000000000E+00
 0.0000000000000E+00
 0.0000000000000E+00
 0.0000000000000E+00
 0.0000000000000E+00
 0.0000000000000E+00
 0.0000000000000E+00
 0.0000000000000E+00
 0.0000000000000E+00
 0.0000000000000E+00
 0.0000000000000E+00
 0.0000000000000E+00
 0.0000000000000E+00
 0.0000000000000E+00
 0.0000000000000E+00
 0.0000000000000E+00
 0.0000000000000E+00
 0.0000000000000E+00
 0.0000000000000E+00
 0.0000000000000E+00
 0.0000000000000E+00
 0.0000000000000E+00
 0.0000000000000E+00
 0.0000000000000E+00
 0.0000000000000E+00
 0.0000000000000E+00
 0.0000000000000E+00
 0.0000000000000E+00
 0.0000000000000E+00
 0.0000000000000E+00
 0.0000000000000E+00
 0.0000000000000E+00
 0.0000000000000E+00
 0.0000000000000E+00
 0.0000000000000E+00
 0.0000000000000E+00
 0.0000000000000E+00
 0.0000000000000E+00
 0.0000000000000E+00
 0.0000000000000E+00
 0.0000000000000E+00
 0.0000000000000E+00
 0.0000000000000E+00
 0.0000000000000E+00
 0.0000000000000E+00
 0.0000000000000E+00
 0.0000000000000E+00
 0.0000000000000E+00
 0.0000000000000E+00
 0.0000000000000E+00
 0.0000000000000E+00
 0.0000000000000E+00
 0.0000000000000E+00
 0.0000000000000E+00
 0.0000000000000E+00
 0.0000000000000E+00
 0.0000000000000E+00
 0.0000000000000E+00
 0.0000000000000E+00
 0.0000000000000E+00
 0.0000000000000E+00
 0.0000000000000E+00
 0.0000000000000E+00
 0.0000000000000E+00
 0.0000000000000E+00
 0.0000000000000E+00
 0.0000000000000E+00
 0.0000000000000E+00
 0.0000000000000E+00
 0.0000000000000E+00
 0.0000000000000E+00
 0.0000000000000E+00
 0.0000000000000E+00
 0.0000000000000E+00
 0.0000000000000E+00
 0.0000000000000E+00
 0.0000000000000E+00
 0.0000000000000E+00
 0.0000000000000E+00
 0.0000000000000E+00
 0.0000000000000E+00
 0.0000000000000E+00
 0.0000000000000E+00
 0.0000000000000E+00
 0.0000000000000E+00
 0.0000000000000E+00
 0.0000000000000E+00
 0.0000000000000E+00
 0.0000000000000E+00
 0.0000000000000E+00
 0.0000000000000E+00
 0.0000000000000E+00
 0.0000000000000E+00
 0.0000000000000E+00
 0.0000000000000E+00
 0.0000000000000E+00
 0.0000000000000E+00
 0.0000000000000E+00
 0.0000000000000E+00
 0.0000000000000E+00
 0.0000000000000E+00
 0.0000000000000E+00
 0.0000000000000E+00
 0.0000000000000E+00
 0.0000000000000E+00
 0.0000000000000E+00
 0.0000000000000E+00
 0.0000000000000E+00
 0.0000000000000E+00
 0.0000000000000E+00
 0.0000000000000E+00
 0.0000000000000E+00
 0.0000000000000E+00
 0.0000000000000E+00
 0.0000000000000E+00
 0.0000000000000E+00
 0.0000000000000E+00
 0.0000000000000E+00
 0.0000000000000E+00
 0.0000000000000E+00
 0.0000000000000E+00
 0.0000000000000E+00
 0.0000000000000E+00
 0.0000000000000E+00
 0.0000000000000E+00
 0.0000000000000E+00
 0.0000000000000E+00
 0.0000000000000E+00
 0.0000000000000E+00
 0.0000000000000E+00
 0.0000000000000E+00
 0.0000000000000E+00
 0.0000000000000E+00
 0.0000000000000E+00
 0.0000000000000E+00
 0.0000000000000E+00
 0.0000000000000E+00
 0.0000000000000E+00
 0.0000000000000E+00
 0.0000000000000E+00
 0.0000000000000E+00
 0.0000000000000E+00
 0.0000000000000E+00
 0.0000000000000E+00
 0.0000000000000E+00
 0.0000000000000E+00
 0.0000000000000E+00
 0.0000000000000E+00
 0.0000000000000E+00
 0.0000000000000E+00
 0.0000000000000E+00
 0.0000000000000E+00
 0.0000000000000E+00
 0.0000000000000E+00
 0.0000000000000E+00
 0.0000000000000E+00
 0.0000000000000E+00
 0.0000000000000E+00
 0.0000000000000E+00
 0.0000000000000E+00
 0.0000000000000E+00
 0.0000000000000E+00
 0.0000000000000E+00
 0.0000000000000E+00
 0.0000000000000E+00
 0.0000000000000E+00
 0.0000000000000E+00
 0.0000000000000E+00
 0.0000000000000E+00
 0.0000000000000E+00
 0.0000000000000E+00
 0.0000000000000E+00
 0.0000000000000E+00
 0.0000000000000E+00
 0.0000000000000E+00
 0.0000000000000E+00
 0.0000000000000E+00
 0.0000000000000E+00
 0.0000000000000E+00
 0.0000000000000E+00
 0.0000000000000E+00
 0.0000000000000E+00
 0.0000000000000E+00
 0.0000000000000E+00
 0.0000000000000E+00
 0.0000000000000E+00
 0.0000000000000E+00
 0.0000000000000E+00
 0.0000000000000E+00
 0.0000000000000E+00
 0.0000000000000E+00
 0.0000000000000E+00
 0.0000000000000E+00
 0.0000000000000E+00
 0.0000000000000E+00
 0.0000000000000E+00
 0.0000000000000E+00
 0.0000000000000E+00
 0.0000000000000E+00
 0.0000000000000E+00
 0.0000000000000E+00
 0.0000000000000E+00
 0.0000000000000E+00
 0.0000000000000E+00
 0.0000000000000E+00
 0.0000000000000E+00
 0.0000000000000E+00
 0.0000000000000E+00
 0.0000000000000E+00
 0.0000000000000E+00
 0.0000000000000E+00
 0.0000000000000E+00
 0.0000000000000E+00
 0.0000000000000E+00
 0.0000000000000E+00
 0.0000000000000E+00
 0.0000000000000E+00
 0.0000000000000E+00
 0.0000000000000E+00
 0.0000000000000E+00
 0.0000000000000E+00
 0.0000000000000E+00
 0.0000000000000E+00
 0.0000000000000E+00
 0.0000000000000E+00
 0.0000000000000E+00
 0.0000000000000E+00
 0.0000000000000E+00
 0.0000000000000E+00
 0.0000000000000E+00
 0.0000000000000E+00
 0.0000000000000E+00
 0.0000000000000E+00
 0.0000000000000E+00
 0.0000000000000E+00
 0.0000000000000E+00
 0.0000000000000E+00
 0.0000000000000E+00
 0.0000000000000E+00
 0.0000000000000E+00
 0.0000000000000E+00
 0.0000000000000E+00
 0.0000000000000E+00
 0.0000000000000E+00
 0.0000000000000E+00
 0.0000000000000E+00
 0.0000000000000E+00
 0.0000000000000E+00
 0.0000000000000E+00
 0.0000000000000E+00
 0.0000000000000E+00
 0.0000000000000E+00
 0.0000000000000E+00
 0.0000000000000E+00
 0.0000000000000E+00
 0.0000000000000E+00
 0.0000000000000E+00
 0.0000000000000E+00
 0.0000000000000E+00
 0.0000000000000E+00
 0.0000000000000E+00
 0.0000000000000E+00
 0.0000000000000E+00
 0.0000000000000E+00
 0.0000000000000E+00
 0.0000000000000E+00
 0.0000000000000E+00
 0.0000000000000E+00
 0.0000000000000E+00
 0.0000000000000E+00
 0.0000000000000E+00
 0.0000000000000E+00
 0.0000000000000E+00
 0.0000000000000E+00
 0.0000000000000E+00
 0.0000000000000E+00
 0.0000000000000E+00
 0.0000000000000E+00
 0.0000000000000E+00
 0.0000000000000E+00
 0.0000000000000E+00
 0.0000000000000E+00
 0.0000000000000E+00
 0.0000000000000E+00
 0.0000000000000E+00
 0.0000000000000E+00
 0.0000000000000E+00
 0.0000000000000E+00
 0.0000000000000E+00
 0.0000000000000E+00
 0.0000000000000E+00
 0.0000000000000E+00
 0.0000000000000E+00
 0.0000000000000E+00
 0.0000000000000E+00
 0.0000000000000E+00
 0.0000000000000E+00
 0.0000000000000E+00
 0.0000000000000E+00
 0.0000000000000E+00
 0.0000000000000E+00
 0.0000000000000E+00
 0.0000000000000E+00
 0.0000000000000E+00
 0.0000000000000E+00
 0.0000000000000E+00
 0.0000000000000E+00
 0.0000000000000E+00
 0.0000000000000E+00
 0.0000000000000E+00
 0.0000000000000E+00
 0.0000000000000E+00
 0.0000000000000E+00
 0.0000000000000E+00
 0.0000000000000E+00
 0.0000000000000E+00
 0.0000000000000E+00
 0.0000000000000E+00
 0.0000000000000E+00
 0.0000000000000E+00
 0.0000000000000E+00
 0.0000000000000E+00
 0.0000000000000E+00
 0.0000000000000E+00
 0.0000000000000E+00
 0.0000000000000E+00
 0.0000000000000E+00
 0.0000000000000E+00
 0.0000000000000E+00
 0.0000000000000E+00
 0.0000000000000E+00
 0.0000000000000E+00
 0.0000000000000E+00
 0.0000000000000E+00
 0.0000000000000E+00
 0.0000000000000E+00
 0.0000000000000E+00
 0.0000000000000E+00
 0.0000000000000E+00
 0.0000000000000E+00
 0.0000000000000E+00
 0.0000000000000E+00
 0.0000000000000E+00
 0.0000000000000E+00
 0.0000000000000E+00
 0.0000000000000E+00
 0.0000000000000E+00
 0.0000000000000E+00
 0.0000000000000E+00
 0.0000000000000E+00
 0.0000000000000E+00
 0.0000000000000E+00
 0.0000000000000E+00
 0.0000000000000E+00
 0.0000000000000E+00
 0.0000000000000E+00
 0.0000000000000E+00
 0.0000000000000E+00
 0.0000000000000E+00
 0.0000000000000E+00
 0.0000000000000E+00
 0.0000000000000E+00
 0.0000000000000E+00
 0.0000000000000E+00
 0.0000000000000E+00
 0.0000000000000E+00
 0.0000000000000E+00
 0.0000000000000E+00
 0.0000000000000E+00
 0.0000000000000E+00
 0.0000000000000E+00
 0.0000000000000E+00
 0.0000000000000E+00
 0.0000000000000E+00
 0.0000000000000E+00
 0.0000000000000E+00
 0.0000000000000E+00
 0.0000000000000E+00
 0.0000000000000E+00
 0.0000000000000E+00
 0.0000000000000E+00
 0.0000000000000E+00
 0.0000000000000E+00
 0.0000000000000E+00
 0.0000000000000E+00
 0.0000000000000E+00
 0.0000000000000E+00
 0.0000000000000E+00
 0.0000000000000E+00
 0.0000000000000E+00
 0.0000000000000E+00
 0.0000000000000E+00
 0.0000000000000E+00
 0.0000000000000E+00
 0.0000000000000E+00
 0.0000000000000E+00
 0.0000000000000E+00
 0.0000000000000E+00
 0.0000000000000E+00
 0.0000000000000E+00
 0.0000000000000E+00
 0.0000000000000E+00
 0.0000000000000E+00
 0.0000000000000E+00
 0.0000000000000E+00
 0.0000000000000E+00
 0.0000000000000E+00
 0.0000000000000E+00
 0.0000000000000E+00
 0.0000000000000E+00
 0.0000000000000E+00
 0.0000000000000E+00
 0.0000000000000E+00
 0.0000000000000E+00
 0.0000000000000E+00
 0.0000000000000E+00
 0.0000000000000E+00
 0.0000000000000E+00
 0.0000000000000E+00
 0.0000000000000E+00
 0.0000000000000E+00
 0.0000000000000E+00
 0.0000000000000E+00
 0.0000000000000E+00
 0.0000000000000E+00
 0.0000000000000E+00
 0.0000000000000E+00
 0.0000000000000E+00
 0.0000000000000E+00
 0.0000000000000E+00
 0.0000000000000E+00
 0.0000000000000E+00
 0.0000000000000E+00
 0.0000000000000E+00
 0.0000000000000E+00
 0.0000000000000E+00
 0.0000000000000E+00
 0.0000000000000E+00
 0.0000000000000E+00
 0.0000000000000E+00
 0.0000000000000E+00
 0.0000000000000E+00
 0.0000000000000E+00
 0.0000000000000E+00
 0.0000000000000E+00
 0.0000000000000E+00
 0.0000000000000E+00
 0.0000000000000E+00
 0.0000000000000E+00
 0.0000000000000E+00
 0.0000000000000E+00
 0.0000000000000E+00
 0.0000000000000E+00
 0.0000000000000E+00
 0.0000000000000E+00
 0.0000000000000E+00
 0.0000000000000E+00
 0.0000000000000E+00
 0.0000000000000E+00
 0.0000000000000E+00
 0.0000000000000E+00
 0.0000000000000E+00
 0.0000000000000E+00
 0.0000000000000E+00
 0.0000000000000E+00
 0.0000000000000E+00
 0.0000000000000E+00
 0.0000000000000E+00
 0.0000000000000E+00
 0.0000000000000E+00
 0.0000000000000E+00
 0.0000000000000E+00
 0.0000000000000E+00
 0.0000000000000E+00
 0.0000000000000E+00
 0.0000000000000E+00
 0.0000000000000E+00
 0.0000000000000E+00
 0.0000000000000E+00
 0.0000000000000E+00
 0.0000000000000E+00
 0.0000000000000E+00
 0.0000000000000E+00
 0.0000000000000E+00
 0.0000000000000E+00
 0.0000000000000E+00
 0.0000000000000E+00
 0.0000000000000E+00
 0.0000000000000E+00
 0.0000000000000E+00
 0.0000000000000E+00
 0.0000000000000E+00
 0.0000000000000E+00
 0.0000000000000E+00
 0.0000000000000E+00
 0.0000000000000E+00
 0.0000000000000E+00
 0.0000000000000E+00
 0.0000000000000E+00
 0.0000000000000E+00
 0.0000000000000E+00
 0.0000000000000E+00
 0.0000000000000E+00
 0.0000000000000E+00
 0.0000000000000E+00
 0.0000000000000E+00
 0.0000000000000E+00
 0.0000000000000E+00
 0.0000000000000E+00
 0.0000000000000E+00
 0.0000000000000E+00
 0.0000000000000E+00
 0.0000000000000E+00
 0.0000000000000E+00
 0.0000000000000E+00
 0.0000000000000E+00
 0.0000000000000E+00
 0.0000000000000E+00
 0.0000000000000E+00
 0.0000000000000E+00
 0.0000000000000E+00
 0.0000000000000E+00
 0.0000000000000E+00
 0.0000000000000E+00
 0.0000000000000E+00
 0.0000000000000E+00
 0.0000000000000E+00
 0.0000000000000E+00
 0.0000000000000E+00
 0.0000000000000E+00
 0.0000000000000E+00
 0.0000000000000E+00
 0.0000000000000E+00
 0.0000000000000E+00
 0.0000000000000E+00
 0.0000000000000E+00
 0.0000000000000E+00
 0.0000000000000E+00
 0.0000000000000E+00
 0.0000000000000E+00
 0.0000000000000E+00
 0.0000000000000E+00
 0.0000000000000E+00
 0.0000000000000E+00
 0.0000000000000E+00
 0.0000000000000E+00
 0.0000000000000E+00
 0.0000000000000E+00
 0.0000000000000E+00
 0.0000000000000E+00
 0.0000000000000E+00
 0.0000000000000E+00
 0.0000000000000E+00
 0.0000000000000E+00
 0.0000000000000E+00
 0.0000000000000E+00
 0.0000000000000E+00
 0.0000000000000E+00
 0.0000000000000E+00
 0.0000000000000E+00
 0.0000000000000E+00
 0.0000000000000E+00
 0.0000000000000E+00
 0.0000000000000E+00
 0.0000000000000E+00
 0.0000000000000E+00
 0.0000000000000E+00
 0.0000000000000E+00
 0.0000000000000E+00
 0.0000000000000E+00
 0.0000000000000E+00
 0.0000000000000E+00
 0.0000000000000E+00
 0.0000000000000E+00
 0.0000000000000E+00
 0.0000000000000E+00
 0.0000000000000E+00
 0.0000000000000E+00
 0.0000000000000E+00
 0.0000000000000E+00
 0.0000000000000E+00
 0.0000000000000E+00
 0.0000000000000E+00
 0.0000000000000E+00
 0.0000000000000E+00
 0.0000000000000E+00
 0.0000000000000E+00
 0.0000000000000E+00
 0.0000000000000E+00
 0.0000000000000E+00
 0.0000000000000E+00
 0.0000000000000E+00
 0.0000000000000E+00
 0.0000000000000E+00
 0.0000000000000E+00
 0.0000000000000E+00
 0.0000000000000E+00
 0.0000000000000E+00
 0.0000000000000E+00
 0.0000000000000E+00
 0.0000000000000E+00
 0.0000000000000E+00
 0.0000000000000E+00
 0.0000000000000E+00
 0.0000000000000E+00
 0.0000000000000E+00
 0.0000000000000E+00
 0.0000000000000E+00
 0.0000000000000E+00
 0.0000000000000E+00
 0.0000000000000E+00
 0.0000000000000E+00
 0.0000000000000E+00
 0.0000000000000E+00
 0.0000000000000E+00
 0.0000000000000E+00
 0.0000000000000E+00
 0.0000000000000E+00
 0.0000000000000E+00
 0.0000000000000E+00
 0.0000000000000E+00
 0.0000000000000E+00
 0.0000000000000E+00
 0.0000000000000E+00
 0.0000000000000E+00
 0.0000000000000E+00
 0.0000000000000E+00
 0.0000000000000E+00
 0.0000000000000E+00
 0.0000000000000E+00
 0.0000000000000E+00
 0.0000000000000E+00
 0.0000000000000E+00
 0.0000000000000E+00
 0.0000000000000E+00
 0.0000000000000E+00
 0.0000000000000E+00
 0.0000000000000E+00
 0.0000000000000E+00
 0.0000000000000E+00
 0.0000000000000E+00
 0.0000000000000E+00
 0.0000000000000E+00
 0.0000000000000E+00
 0.0000000000000E+00
 0.0000000000000E+00
 0.0000000000000E+00
 0.0000000000000E+00
 0.0000000000000E+00
 0.0000000000000E+00
 0.0000000000000E+00
 0.0000000000000E+00
 0.0000000000000E+00
 0.0000000000000E+00
 0.0000000000000E+00
 0.0000000000000E+00
 0.0000000000000E+00
 0.0000000000000E+00
 0.0000000000000E+00
 0.0000000000000E+00
 0.0000000000000E+00
 0.0000000000000E+00
 0.0000000000000E+00
 0.0000000000000E+00
 0.0000000000000E+00
 0.0000000000000E+00
 0.0000000000000E+00
 0.0000000000000E+00
 0.0000000000000E+00
 0.0000000000000E+00
 0.0000000000000E+00
 0.0000000000000E+00
 0.0000000000000E+00
 0.0000000000000E+00
 0.0000000000000E+00
 0.0000000000000E+00
 0.0000000000000E+00
 0.0000000000000E+00
 0.0000000000000E+00
 0.0000000000000E+00
 0.0000000000000E+00
 0.0000000000000E+00
 0.0000000000000E+00
 0.0000000000000E+00
 0.0000000000000E+00
 0.0000000000000E+00
 0.0000000000000E+00
 0.0000000000000E+00
 0.0000000000000E+00
 0.0000000000000E+00
 0.0000000000000E+00
 0.0000000000000E+00
 0.0000000000000E+00
 0.0000000000000E+00
 0.0000000000000E+00
 0.0000000000000E+00
 0.0000000000000E+00
 0.0000000000000E+00
 0.0000000000000E+00
 0.0000000000000E+00
 0.0000000000000E+00
 0.0000000000000E+00
 0.0000000000000E+00
 0.0000000000000E+00
 0.0000000000000E+00
 0.0000000000000E+00
 0.0000000000000E+00
 0.0000000000000E+00
 0.0000000000000E+00
 0.0000000000000E+00
 0.0000000000000E+00
 0.0000000000000E+00
 0.0000000000000E+00
 0.0000000000000E+00
 0.0000000000000E+00
 0.0000000000000E+00
 0.0000000000000E+00
 0.0000000000000E+00
 0.0000000000000E+00
 0.0000000000000E+00
 0.0000000000000E+00
 0.0000000000000E+00
 0.0000000000000E+00
 0.0000000000000E+00
 0.0000000000000E+00
 0.0000000000000E+00
 0.0000000000000E+00
 0.0000000000000E+00
 0.0000000000000E+00
 0.0000000000000E+00
 0.0000000000000E+00
 0.0000000000000E+00
 0.0000000000000E+00
 0.0000000000000E+00
 0.0000000000000E+00
 0.0000000000000E+00
 0.0000000000000E+00
 0.0000000000000E+00
 0.0000000000000E+00
 0.0000000000000E+00
 0.0000000000000E+00
 0.0000000000000E+00
 0.0000000000000E+00
 0.0000000000000E+00
 0.0000000000000E+00
 0.0000000000000E+00
 0.0000000000000E+00
 0.0000000000000E+00
 0.0000000000000E+00
 0.0000000000000E+00
 0.0000000000000E+00
 0.0000000000000E+00
 0.0000000000000E+00
 0.0000000000000E+00
 0.0000000000000E+00
 0.0000000000000E+00
 0.0000000000000E+00
 0.0000000000000E+00
 0.0000000000000E+00
 0.0000000000000E+00
 0.0000000000000E+00
 0.0000000000000E+00
 0.0000000000000E+00
 0.0000000000000E+00
 0.0000000000000E+00
 0.0000000000000E+00
 0.0000000000000E+00
 0.0000000000000E+00
 0.0000000000000E+00
 0.0000000000000E+00
 0.0000000000000E+00
 0.0000000000000E+00
 0.0000000000000E+00
 0.0000000000000E+00
 0.0000000000000E+00
 0.0000000000000E+00
 0.0000000000000E+00
 0.0000000000000E+00
 0.0000000000000E+00
 0.0000000000000E+00
 0.0000000000000E+00
 0.0000000000000E+00
 0.0000000000000E+00
 0.0000000000000E+00
 0.0000000000000E+00
 0.0000000000000E+00
 0.0000000000000E+00
 0.0000000000000E+00
 0.0000000000000E+00
 0.0000000000000E+00
 0.0000000000000E+00
 0.0000000000000E+00
 0.0000000000000E+00
 0.0000000000000E+00
 0.0000000000000E+00
 0.0000000000000E+00
 0.0000000000000E+00
 0.0000000000000E+00
 0.0000000000000E+00
 0.0000000000000E+00
 0.0000000000000E+00
 0.0000000000000E+00
 0.0000000000000E+00
 0.0000000000000E+00
 0.0000000000000E+00
 0.0000000000000E+00
 0.0000000000000E+00
 0.0000000000000E+00
 0.0000000000000E+00
 0.0000000000000E+00
 0.0000000000000E+00
 0.0000000000000E+00
 0.0000000000000E+00
 0.0000000000000E+00
 0.0000000000000E+00
 0.0000000000000E+00
 0.0000000000000E+00
 0.0000000000000E+00
 0.0000000000000E+00
 0.0000000000000E+00
 0.0000000000000E+00
 0.0000000000000E+00
 0.0000000000000E+00
 0.0000000000000E+00
 0.0000000000000E+00
 0.0000000000000E+00
 0.0000000000000E+00
 0.0000000000000E+00
 0.0000000000000E+00
 0.0000000000000E+00
 0.0000000000000E+00
 0.0000000000000E+00
 0.0000000000000E+00
 0.0000000000000E+00
 0.0000000000000E+00
 0.0000000000000E+00
 0.0000000000000E+00
 0.0000000000000E+00
 0.0000000000000E+00
 0.0000000000000E+00
 0.0000000000000E+00
 0.0000000000000E+00
 0.0000000000000E+00
 0.0000000000000E+00
 0.0000000000000E+00
 0.0000000000000E+00
 0.0000000000000E+00
 0.0000000000000E+00
 0.0000000000000E+00
 0.0000000000000E+00
 0.0000000000000E+00
 0.0000000000000E+00
 0.0000000000000E+00
 0.0000000000000E+00
 0.0000000000000E+00
 0.0000000000000E+00
 0.0000000000000E+00
 0.0000000000000E+00
 0.0000000000000E+00
 0.0000000000000E+00
 0.0000000000000E+00
 0.0000000000000E+00
 0.0000000000000E+00
 0.0000000000000E+00
 0.0000000000000E+00
 0.0000000000000E+00
 0.0000000000000E+00
 0.0000000000000E+00
 0.0000000000000E+00
 0.0000000000000E+00
 0.0000000000000E+00
 0.0000000000000E+00
 0.0000000000000E+00
 0.0000000000000E+00
 0.0000000000000E+00
 0.0000000000000E+00
 0.0000000000000E+00
 0.0000000000000E+00
 0.0000000000000E+00
 0.0000000000000E+00
 0.0000000000000E+00
 0.0000000000000E+00
 0.0000000000000E+00
 0.0000000000000E+00
 0.0000000000000E+00
 0.0000000000000E+00
 0.0000000000000E+00
 0.0000000000000E+00
 0.0000000000000E+00
 0.0000000000000E+00
 0.0000000000000E+00
 0.0000000000000E+00
 0.0000000000000E+00
 0.0000000000000E+00
 0.0000000000000E+00
 0.0000000000000E+00
 0.0000000000000E+00
 0.0000000000000E+00
 0.0000000000000E+00
 0.0000000000000E+00
 0.0000000000000E+00
 0.0000000000000E+00
 0.0000000000000E+00
 0.0000000000000E+00
 0.0000000000000E+00
 0.0000000000000E+00
 0.0000000000000E+00
 0.0000000000000E+00
 0.0000000000000E+00
 0.0000000000000E+00
 0.0000000000000E+00
 0.0000000000000E+00
 0.0000000000000E+00
 0.0000000000000E+00
 0.0000000000000E+00
 0.0000000000000E+00
 0.0000000000000E+00
 0.0000000000000E+00
 0.0000000000000E+00
 0.0000000000000E+00
 0.0000000000000E+00
 0.0000000000000E+00
 0.0000000000000E+00
 0.0000000000000E+00
 0.0000000000000E+00
 0.0000000000000E+00
 0.0000000000000E+00
 0.0000000000000E+00
 0.0000000000000E+00
 0.0000000000000E+00
 0.0000000000000E+00
 0.0000000000000E+00
 0.0000000000000E+00
 0.0000000000000E+00
 0.0000000000000E+00
 0.0000000000000E+00
 0.0000000000000E+00
 0.0000000000000E+00
 0.0000000000000E+00
 0.0000000000000E+00
 0.0000000000000E+00
 0.0000000000000E+00
 0.0000000000000E+00
 0.0000000000000E+00
 0.0000000000000E+00
 0.0000000000000E+00
 0.0000000000000E+00
 0.0000000000000E+00
 0.0000000000000E+00
 0.0000000000000E+00
 0.0000000000000E+00
 0.0000000000000E+00
 0.0000000000000E+00
 0.0000000000000E+00
 0.0000000000000E+00
 0.0000000000000E+00
 0.0000000000000E+00
 0.0000000000000E+00
 0.0000000000000E+00
 0.0000000000000E+00
 0.0000000000000E+00
 0.0000000000000E+00
 0.0000000000000E+00
 0.0000000000000E+00
 0.0000000000000E+00
 0.0000000000000E+00
 0.0000000000000E+00
 0.0000000000000E+00
 0.0000000000000E+00
 0.0000000000000E+00
 0.0000000000000E+00
 0.0000000000000E+00
 0.0000000000000E+00
 0.0000000000000E+00
 0.0000000000000E+00
 0.0000000000000E+00
 0.0000000000000E+00
 0.0000000000000E+00
 0.0000000000000E+00
 0.0000000000000E+00
 0.0000000000000E+00
 0.0000000000000E+00
 0.0000000000000E+00
 0.0000000000000E+00
 0.0000000000000E+00
 0.0000000000000E+00
 0.0000000000000E+00
 0.0000000000000E+00
 0.0000000000000E+00
 0.0000000000000E+00
 0.0000000000000E+00
 0.0000000000000E+00
 0.0000000000000E+00
 0.0000000000000E+00
 0.0000000000000E+00
 0.0000000000000E+00
 0.0000000000000E+00
 0.0000000000000E+00
 0.0000000000000E+00
 0.0000000000000E+00
 0.0000000000000E+00
 0.0000000000000E+00
 0.0000000000000E+00
 0.0000000000000E+00
 0.0000000000000E+00
 0.0000000000000E+00
 0.0000000000000E+00
 0.0000000000000E+00
 0.0000000000000E+00
 0.0000000000000E+00
 0.0000000000000E+00
 0.0000000000000E+00
 0.0000000000000E+00
 0.0000000000000E+00
 0.0000000000000E+00
 0.0000000000000E+00
 0.0000000000000E+00
 0.0000000000000E+00
 0.0000000000000E+00
 0.0000000000000E+00
 0.0000000000000E+00
 0.0000000000000E+00
 0.0000000000000E+00
 0.0000000000000E+00
 0.0000000000000E+00
 0.0000000000000E+00
 0.0000000000000E+00
 0.0000000000000E+00
 0.0000000000000E+00
 0.0000000000000E+00
 0.0000000000000E+00
 0.0000000000000E+00
 0.0000000000000E+00
 0.0000000000000E+00
 0.0000000000000E+00
 0.0000000000000E+00
 0.0000000000000E+00
 0.0000000000000E+00
 0.0000000000000E+00
 0.0000000000000E+00
 0.0000000000000E+00
 0.0000000000000E+00
 0.0000000000000E+00
 0.0000000000000E+00
 0.0000000000000E+00
 0.0000000000000E+00
 0.0000000000000E+00
 0.0000000000000E+00
 0.0000000000000E+00
 0.0000000000000E+00
 0.0000000000000E+00
 0.0000000000000E+00
 0.0000000000000E+00
 0.0000000000000E+00
 0.0000000000000E+00
 0.0000000000000E+00
 0.0000000000000E+00
 0.0000000000000E+00
 0.0000000000000E+00
 0.0000000000000E+00
 0.0000000000000E+00
 0.0000000000000E+00
 0.0000000000000E+00
 0.0000000000000E+00
 0.0000000000000E+00
 0.0000000000000E+00
 0.0000000000000E+00
 0.0000000000000E+00
 0.0000000000000E+00
 0.0000000000000E+00
 0.0000000000000E+00
 0.0000000000000E+00
 0.0000000000000E+00
 0.0000000000000E+00
 0.0000000000000E+00
 0.0000000000000E+00
 0.0000000000000E+00
 0.0000000000000E+00
 0.0000000000000E+00
 0.0000000000000E+00
 0.0000000000000E+00
 0.0000000000000E+00
 0.0000000000000E+00
 0.0000000000000E+00
 0.0000000000000E+00
 0.0000000000000E+00
 0.0000000000000E+00
 0.0000000000000E+00
 0.0000000000000E+00
 0.0000000000000E+00
 0.0000000000000E+00
 0.0000000000000E+00
 0.0000000000000E+00
 0.0000000000000E+00
 0.0000000000000E+00
 0.0000000000000E+00
 0.0000000000000E+00
 0.0000000000000E+00
 0.0000000000000E+00
 0.0000000000000E+00
 0.0000000000000E+00
 0.0000000000000E+00
 0.0000000000000E+00
 0.0000000000000E+00
 0.0000000000000E+00
 0.0000000000000E+00
 0.0000000000000E+00
 0.0000000000000E+00
 0.0000000000000E+00
 0.0000000000000E+00
 0.0000000000000E+00
 0.0000000000000E+00
 0.0000000000000E+00
 0.0000000000000E+00
 0.0000000000000E+00
 0.0000000000000E+00
 0.0000000000000E+00
 0.0000000000000E+00
 0.0000000000000E+00
 0.0000000000000E+00
 0.0000000000000E+00
 0.0000000000000E+00
 0.0000000000000E+00
 0.0000000000000E+00
 0.0000000000000E+00
 0.0000000000000E+00
 0.0000000000000E+00
 0.0000000000000E+00
 0.0000000000000E+00
 0.0000000000000E+00
 0.0000000000000E+00
 0.0000000000000E+00
 0.0000000000000E+00
 0.0000000000000E+00
 0.0000000000000E+00
 0.0000000000000E+00
 0.0000000000000E+00
 0.0000000000000E+00
 0.0000000000000E+00
 0.0000000000000E+00
 0.0000000000000E+00
 0.0000000000000E+00
 0.0000000000000E+00
 0.0000000000000E+00
 0.0000000000000E+00
 0.0000000000000E+00
 0.0000000000000E+00
 0.0000000000000E+00
 0.0000000000000E+00
 0.0000000000000E+00
 0.0000000000000E+00
 0.0000000000000E+00
 0.0000000000000E+00
 0.0000000000000E+00
 0.0000000000000E+00
 0.0000000000000E+00
 0.0000000000000E+00
 0.0000000000000E+00
 0.0000000000000E+00
 0.0000000000000E+00
 0.0000000000000E+00
 0.0000000000000E+00
 0.0000000000000E+00
 0.0000000000000E+00
 0.0000000000000E+00
 0.0000000000000E+00
 0.0000000000000E+00
 0.0000000000000E+00
 0.0000000000000E+00
 0.0000000000000E+00
 0.0000000000000E+00
 0.0000000000000E+00
 0.0000000000000E+00
 0.0000000000000E+00
 0.0000000000000E+00
 0.0000000000000E+00
 0.0000000000000E+00
 0.0000000000000E+00
 0.0000000000000E+00
 0.0000000000000E+00
 0.0000000000000E+00
 0.0000000000000E+00
 0.0000000000000E+00
 0.0000000000000E+00
 0.0000000000000E+00
 0.0000000000000E+00
 0.0000000000000E+00
 0.0000000000000E+00
 0.0000000000000E+00
 0.0000000000000E+00
 0.0000000000000E+00
 0.0000000000000E+00
 0.0000000000000E+00
 0.0000000000000E+00
 0.0000000000000E+00
 0.0000000000000E+00
 0.0000000000000E+00
 0.0000000000000E+00
 0.0000000000000E+00
 0.0000000000000E+00
 0.0000000000000E+00
 0.0000000000000E+00
 0.0000000000000E+00
 0.0000000000000E+00
 0.0000000000000E+00
 0.0000000000000E+00
 0.0000000000000E+00
 0.0000000000000E+00
 0.0000000000000E+00
 0.0000000000000E+00
 0.0000000000000E+00
 0.0000000000000E+00
 0.0000000000000E+00
 0.0000000000000E+00
 0.0000000000000E+00
 0.0000000000000E+00
 0.0000000000000E+00
 0.0000000000000E+00
 0.0000000000000E+00
 0.0000000000000E+00
 0.0000000000000E+00
 0.0000000000000E+00
 0.0000000000000E+00
 0.0000000000000E+00
 0.0000000000000E+00
 0.0000000000000E+00
 0.0000000000000E+00
 0.0000000000000E+00
 0.0000000000000E+00
 0.0000000000000E+00
 0.0000000000000E+00
 0.0000000000000E+00
 0.0000000000000E+00
 0.0000000000000E+00
 0.0000000000000E+00
 0.0000000000000E+00
 0.0000000000000E+00
 0.0000000000000E+00
 0.0000000000000E+00
 0.0000000000000E+00
 0.0000000000000E+00
 0.0000000000000E+00
 0.0000000000000E+00
 0.0000000000000E+00
 0.0000000000000E+00
 0.0000000000000E+00
 0.0000000000000E+00
 0.0000000000000E+00
 0.0000000000000E+00
 0.0000000000000E+00
 0.0000000000000E+00
 0.0000000000000E+00
 0.0000000000000E+00
 0.0000000000000E+00
 0.0000000000000E+00
 0.0000000000000E+00
 0.0000000000000E+00
 0.0000000000000E+00
 0.0000000000000E+00
 0.0000000000000E+00
 0.0000000000000E+00
 0.0000000000000E+00
 0.0000000000000E+00
 0.0000000000000E+00
 0.0000000000000E+00
 0.0000000000000E+00
 0.0000000000000E+00
 0.0000000000000E+00
 0.0000000000000E+00
 0.0000000000000E+00
 0.0000000000000E+00
 0.0000000000000E+00
 0.0000000000000E+00
 0.0000000000000E+00
 0.0000000000000E+00
 0.0000000000000E+00
 0.0000000000000E+00
 0.0000000000000E+00
 0.0000000000000E+00
 0.0000000000000E+00
 0.0000000000000E+00
 0.0000000000000E+00
 0.0000000000000E+00
 0.0000000000000E+00
 0.0000000000000E+00
 0.0000000000000E+00
 0.0000000000000E+00
 0.0000000000000E+00
 0.0000000000000E+00
 0.0000000000000E+00
 0.0000000000000E+00
 0.0000000000000E+00
 0.0000000000000E+00
 0.0000000000000E+00
 0.0000000000000E+00
 0.0000000000000E+00
 0.0000000000000E+00
 0.0000000000000E+00
 0.0000000000000E+00
 0.0000000000000E+00
 0.0000000000000E+00
 0.0000000000000E+00
 0.0000000000000E+00
 0.0000000000000E+00
 0.0000000000000E+00
 0.0000000000000E+00
 0.0000000000000E+00
 0.0000000000000E+00
 0.0000000000000E+00
 0.0000000000000E+00
 0.0000000000000E+00
 0.0000000000000E+00
 0.0000000000000E+00
 0.0000000000000E+00
 0.0000000000000E+00
 0.0000000000000E+00
 0.0000000000000E+00
 0.0000000000000E+00
 0.0000000000000E+00
 0.0000000000000E+00
 0.0000000000000E+00
 0.0000000000000E+00
 0.0000000000000E+00
 0.0000000000000E+00
 0.0000000000000E+00
 0.0000000000000E+00
 0.0000000000000E+00
 0.0000000000000E+00
 0.0000000000000E+00
 0.0000000000000E+00
 0.0000000000000E+00
 0.0000000000000E+00
 0.0000000000000E+00
 0.0000000000000E+00
 0.0000000000000E+00
 0.0000000000000E+00
 0.0000000000000E+00
 0.0000000000000E+00
 0.0000000000000E+00
 0.0000000000000E+00
 0.0000000000000E+00
 0.0000000000000E+00
 0.0000000000000E+00
 0.0000000000000E+00
 0.0000000000000E+00
 0.0000000000000E+00
 0.0000000000000E+00
 0.0000000000000E+00
 0.0000000000000E+00
 0.0000000000000E+00
 0.0000000000000E+00
 0.0000000000000E+00
 0.0000000000000E+00
 0.0000000000000E+00
 0.0000000000000E+00
 0.0000000000000E+00
 0.0000000000000E+00
 0.0000000000000E+00
 0.0000000000000E+00
 0.0000000000000E+00
 0.0000000000000E+00
 0.0000000000000E+00
 0.0000000000000E+00
 0.0000000000000E+00
 0.0000000000000E+00
 0.0000000000000E+00
 0.0000000000000E+00
 0.0000000000000E+00
 0.0000000000000E+00
 0.0000000000000E+00
 0.0000000000000E+00
 0.0000000000000E+00
 0.0000000000000E+00
 0.0000000000000E+00
 0.0000000000000E+00
 0.0000000000000E+00
 0.0000000000000E+00
 0.0000000000000E+00
 0.0000000000000E+00
 0.0000000000000E+00
 0.0000000000000E+00
 0.0000000000000E+00
 0.0000000000000E+00
 0.0000000000000E+00
 0.0000000000000E+00
 0.0000000000000E+00
 0.0000000000000E+00
 0.0000000000000E+00
 0.0000000000000E+00
 0.0000000000000E+00
 0.0000000000000E+00
 0.0000000000000E+00
 0.0000000000000E+00
 0.0000000000000E+00
 0.0000000000000E+00
 0.0000000000000E+00
 0.0000000000000E+00
 0.0000000000000E+00
 0.0000000000000E+00
 0.0000000000000E+00
 0.0000000000000E+00
 0.0000000000000E+00
 0.0000000000000E+00
 0.0000000000000E+00
 0.0000000000000E+00
 0.0000000000000E+00
 0.0000000000000E+00
 0.0000000000000E+00
 0.0000000000000E+00
 0.0000000000000E+00
 0.0000000000000E+00
 0.0000000000000E+00
 0.0000000000000E+00
 0.0000000000000E+00
 0.0000000000000E+00
 0.0000000000000E+00
 0.0000000000000E+00
 0.0000000000000E+00
 0.0000000000000E+00
 0.0000000000000E+00
 0.0000000000000E+00
 0.0000000000000E+00
 0.0000000000000E+00
 0.0000000000000E+00
 0.0000000000000E+00
 0.0000000000000E+00
 0.0000000000000E+00
 0.0000000000000E+00
 0.0000000000000E+00
 0.0000000000000E+00
 0.0000000000000E+00
 0.0000000000000E+00
 0.0000000000000E+00
 0.0000000000000E+00
 0.0000000000000E+00
 0.0000000000000E+00
 0.0000000000000E+00
 0.0000000000000E+00
 0.0000000000000E+00
 0.0000000000000E+00
 0.0000000000000E+00
 0.0000000000000E+00
 0.0000000000000E+00
 0.0000000000000E+00
 0.0000000000000E+00
 0.0000000000000E+00
 0.0000000000000E+00
 0.0000000000000E+00
 0.0000000000000E+00
 0.0000000000000E+00
 0.0000000000000E+00
 0.0000000000000E+00
 0.0000000000000E+00
 0.0000000000000E+00
 0.0000000000000E+00
 0.0000000000000E+00
 0.0000000000000E+00
 0.0000000000000E+00
 0.0000000000000E+00
 0.0000000000000E+00
 0.0000000000000E+00
 0.0000000000000E+00
 0.0000000000000E+00
 0.0000000000000E+00
 0.0000000000000E+00
 0.0000000000000E+00
 0.0000000000000E+00
 0.0000000000000E+00
 0.0000000000000E+00
 0.0000000000000E+00
 0.0000000000000E+00
 0.0000000000000E+00
 0.0000000000000E+00
 0.0000000000000E+00
 0.0000000000000E+00
 0.0000000000000E+00
 0.0000000000000E+00
 0.0000000000000E+00
 0.0000000000000E+00
 0.0000000000000E+00
 0.0000000000000E+00
 0.0000000000000E+00
 0.0000000000000E+00
 0.0000000000000E+00
 0.0000000000000E+00
 0.0000000000000E+00
 0.0000000000000E+00
 0.0000000000000E+00
 0.0000000000000E+00
 0.0000000000000E+00
 0.0000000000000E+00
 0.0000000000000E+00
 0.0000000000000E+00
 0.0000000000000E+00
 0.0000000000000E+00
 0.0000000000000E+00
 0.0000000000000E+00
 0.0000000000000E+00
 0.0000000000000E+00
 0.0000000000000E+00
 0.0000000000000E+00
 0.0000000000000E+00
 0.0000000000000E+00
 0.0000000000000E+00
 0.0000000000000E+00
 0.0000000000000E+00
 0.0000000000000E+00
 0.0000000000000E+00
 0.0000000000000E+00
 0.0000000000000E+00
 0.0000000000000E+00
 0.0000000000000E+00
 0.0000000000000E+00
 0.0000000000000E+00
 0.0000000000000E+00
 0.0000000000000E+00
 0.0000000000000E+00
 0.0000000000000E+00
 0.0000000000000E+00
 0.0000000000000E+00
 0.0000000000000E+00
 0.0000000000000E+00
 0.0000000000000E+00
 0.0000000000000E+00
 0.0000000000000E+00
 0.0000000000000E+00
 0.0000000000000E+00
 0.0000000000000E+00
 0.0000000000000E+00
 0.0000000000000E+00
 0.0000000000000E+00
 0.0000000000000E+00
 0.0000000000000E+00
 0.0000000000000E+00
 0.0000000000000E+00
 0.0000000000000E+00
 0.0000000000000E+00
 0.0000000000000E+00
 0.0000000000000E+00
 0.0000000000000E+00
 0.0000000000000E+00
 0.0000000000000E+00
 0.0000000000000E+00
 0.0000000000000E+00
 0.0000000000000E+00
 0.0000000000000E+00
 0.0000000000000E+00
 0.0000000000000E+00
 0.0000000000000E+00
 0.0000000000000E+00
 0.0000000000000E+00
 0.0000000000000E+00
 0.0000000000000E+00
 0.0000000000000E+00
 0.0000000000000E+00
 0.0000000000000E+00
 0.0000000000000E+00
 0.0000000000000E+00
 0.0000000000000E+00
 0.0000000000000E+00
 0.0000000000000E+00
 0.0000000000000E+00
 0.0000000000000E+00
 0.0000000000000E+00
 0.0000000000000E+00
 0.0000000000000E+00
 0.0000000000000E+00
 0.0000000000000E+00
 0.0000000000000E+00
 0.0000000000000E+00
 0.0000000000000E+00
 0.0000000000000E+00
 0.0000000000000E+00
 0.0000000000000E+00
 0.0000000000000E+00
 0.0000000000000E+00
 0.0000000000000E+00
 0.0000000000000E+00
 0.0000000000000E+00
 0.0000000000000E+00
 0.0000000000000E+00
 0.0000000000000E+00
 0.0000000000000E+00
 0.0000000000000E+00
 0.0000000000000E+00
 0.0000000000000E+00
 0.0000000000000E+00
 0.0000000000000E+00
 0.0000000000000E+00
 0.0000000000000E+00
 0.0000000000000E+00
 0.0000000000000E+00
 0.0000000000000E+00
 0.0000000000000E+00
 0.0000000000000E+00
 0.0000000000000E+00
 0.0000000000000E+00
 0.0000000000000E+00
 0.0000000000000E+00
 0.0000000000000E+00
 0.0000000000000E+00
 0.0000000000000E+00
 0.0000000000000E+00
 0.0000000000000E+00
 0.0000000000000E+00
 0.0000000000000E+00
 0.0000000000000E+00
 0.0000000000000E+00
 0.0000000000000E+00
 0.0000000000000E+00
 0.0000000000000E+00
 0.0000000000000E+00
 0.0000000000000E+00
 0.0000000000000E+00
 0.0000000000000E+00
 0.0000000000000E+00
 0.0000000000000E+00
 0.0000000000000E+00
 0.0000000000000E+00
 0.0000000000000E+00
 0.0000000000000E+00
 0.0000000000000E+00
 0.0000000000000E+00
 0.0000000000000E+00
 0.0000000000000E+00
 0.0000000000000E+00
 0.0000000000000E+00
 0.0000000000000E+00
 0.0000000000000E+00
 0.0000000000000E+00
 0.0000000000000E+00
 0.0000000000000E+00
 0.0000000000000E+00
 0.0000000000000E+00
 0.0000000000000E+00
 0.0000000000000E+00
 0.0000000000000E+00
 0.0000000000000E+00
 0.0000000000000E+00
 0.0000000000000E+00
 0.0000000000000E+00
 0.0000000000000E+00
 0.0000000000000E+00
 0.0000000000000E+00
 0.0000000000000E+00
 0.0000000000000E+00
 0.0000000000000E+00
 0.0000000000000E+00
 0.0000000000000E+00
 0.0000000000000E+00
 0.0000000000000E+00
 0.0000000000000E+00
 0.0000000000000E+00
 0.0000000000000E+00
 0.0000000000000E+00
 0.0000000000000E+00
 0.0000000000000E+00
 0.0000000000000E+00
 0.0000000000000E+00
 0.0000000000000E+00
 0.0000000000000E+00
 0.0000000000000E+00
 0.0000000000000E+00
 0.0000000000000E+00
 0.0000000000000E+00
 0.0000000000000E+00
 0.0000000000000E+00
 0.0000000000000E+00
 0.0000000000000E+00
 0.0000000000000E+00
 0.0000000000000E+00
 0.0000000000000E+00
 0.0000000000000E+00
 0.0000000000000E+00
 0.0000000000000E+00
 0.0000000000000E+00
 0.0000000000000E+00
 0.0000000000000E+00
 0.0000000000000E+00
 0.0000000000000E+00
 0.0000000000000E+00
 0.0000000000000E+00
 0.0000000000000E+00
 0.0000000000000E+00
 0.0000000000000E+00
 0.0000000000000E+00
 0.0000000000000E+00
 0.0000000000000E+00
 0.0000000000000E+00
 0.0000000000000E+00
 0.0000000000000E+00
 0.0000000000000E+00
 0.0000000000000E+00
 0.0000000000000E+00
 0.0000000000000E+00
 0.0000000000000E+00
 0.0000000000000E+00
 0.0000000000000E+00
 0.0000000000000E+00
 0.0000000000000E+00
 0.0000000000000E+00
 0.0000000000000E+00
 0.0000000000000E+00
 0.0000000000000E+00
 0.0000000000000E+00
 0.0000000000000E+00
 0.0000000000000E+00
 0.0000000000000E+00
 0.0000000000000E+00
 0.0000000000000E+00
 0.0000000000000E+00
 0.0000000000000E+00
 0.0000000000000E+00
 0.0000000000000E+00
 0.0000000000000E+00
 0.0000000000000E+00
 0.0000000000000E+00
 0.0000000000000E+00
 0.0000000000000E+00
 0.0000000000000E+00
 0.0000000000000E+00
 0.0000000000000E+00
 0.0000000000000E+00
 0.0000000000000E+00
 0.0000000000000E+00
 0.0000000000000E+00
 0.0000000000000E+00
 0.0000000000000E+00
 0.0000000000000E+00
 0.0000000000000E+00
 0.0000000000000E+00
 0.0000000000000E+00
 0.0000000000000E+00
 0.0000000000000E+00
 0.0000000000000E+00
 0.0000000000000E+00
 0.0000000000000E+00
 0.0000000000000E+00
 0.0000000000000E+00
 0.0000000000000E+00
 0.0000000000000E+00
 0.0000000000000E+00
 0.0000000000000E+00
 0.0000000000000E+00
 0.0000000000000E+00
 0.0000000000000E+00
 0.0000000000000E+00
 0.0000000000000E+00
 0.0000000000000E+00
 0.0000000000000E+00
 0.0000000000000E+00
 0.0000000000000E+00
 0.0000000000000E+00
 0.0000000000000E+00
 0.0000000000000E+00
 0.0000000000000E+00
 0.0000000000000E+00
 0.0000000000000E+00
 0.0000000000000E+00
 0.0000000000000E+00
 0.0000000000000E+00
 0.0000000000000E+00
 0.0000000000000E+00
 0.0000000000000E+00
 0.0000000000000E+00
 0.0000000000000E+00
 0.0000000000000E+00
 0.0000000000000E+00
 0.0000000000000E+00
 0.0000000000000E+00
 0.0000000000000E+00
 0.0000000000000E+00
 0.0000000000000E+00
 0.0000000000000E+00
 0.0000000000000E+00
 0.0000000000000E+00
 0.0000000000000E+00
 0.0000000000000E+00
 0.0000000000000E+00
 0.0000000000000E+00
 0.0000000000000E+00
 0.0000000000000E+00
 0.0000000000000E+00
 0.0000000000000E+00
 0.0000000000000E+00
 0.0000000000000E+00
 0.0000000000000E+00
 0.0000000000000E+00
 0.0000000000000E+00
 0.0000000000000E+00
 0.0000000000000E+00
 0.0000000000000E+00
 0.0000000000000E+00
 0.0000000000000E+00
 0.0000000000000E+00
 0.0000000000000E+00
 0.0000000000000E+00
 0.0000000000000E+00
 0.0000000000000E+00
 0.0000000000000E+00
 0.0000000000000E+00
 0.0000000000000E+00
 0.0000000000000E+00
 0.0000000000000E+00
 0.0000000000000E+00
 0.0000000000000E+00
 0.0000000000000E+00
 0.0000000000000E+00
 0.0000000000000E+00
 0.0000000000000E+00
 0.0000000000000E+00
 0.0000000000000E+00
 0.0000000000000E+00
 0.0000000000000E+00
 0.0000000000000E+00
 0.0000000000000E+00
 0.0000000000000E+00
 0.0000000000000E+00
 0.0000000000000E+00
 0.0000000000000E+00
 0.0000000000000E+00
 0.0000000000000E+00
 0.0000000000000E+00
 0.0000000000000E+00
 0.0000000000000E+00
 0.0000000000000E+00
 0.0000000000000E+00
 0.0000000000000E+00
 0.0000000000000E+00
 0.0000000000000E+00
 0.0000000000000E+00
 0.0000000000000E+00
 0.0000000000000E+00
 0.0000000000000E+00
 0.0000000000000E+00
 0.0000000000000E+00
 0.0000000000000E+00
 0.0000000000000E+00
 0.0000000000000E+00
 0.0000000000000E+00
 0.0000000000000E+00
 0.0000000000000E+00
 0.0000000000000E+00
 0.0000000000000E+00
 0.0000000000000E+00
 0.0000000000000E+00
 0.0000000000000E+00
 0.0000000000000E+00
 0.0000000000000E+00
 0.0000000000000E+00
 0.0000000000000E+00
 0.0000000000000E+00
 0.0000000000000E+00
 0.0000000000000E+00
 0.0000000000000E+00
 0.0000000000000E+00
 0.0000000000000E+00
 0.0000000000000E+00
 0.0000000000000E+00
 0.0000000000000E+00
 0.0000000000000E+00
 0.0000000000000E+00
 0.0000000000000E+00
 0.0000000000000E+00
 0.0000000000000E+00
 0.0000000000000E+00
 0.0000000000000E+00
</DataArray>
<DataArray type="Int32" Name="Region" format="ascii">
           1
           1
           1
           1
           1
           1
           1
           1
           1
           1
           1
           1
           1
           1
           1
           1
           1
           1
           1
           1
           1
           1
           1
           1
           1
           1
           1
           1
           1
           1
           1
           1
           1
           1
           1
           1
           1
           1
           1
           1
           1
           1
           1
           1
           1
           1
           1
           1
           1
           1
           1
           1
           1
           1
           1
           1
           1
           1
           1
           1
           1
           1
           1
           1
           1
           1
           1
           1
           1
           1
           1
           1
           1
           1
           1
           1
           1
           1
           1
           1
           1
           1
           1
           1
           1
           1
           1
           1
           1
           1
           1
           1
           1
           1
           1
           1
           1
           1
           1
           1
           1
           1
           1
           1
           1
           1
           1
           1
           1
           1
           1
           1
           1
           1
           1
           1
           1
           1
           1
           1
           1
           1
           1
           1
           1
           1
           1
           1
           1
           1
           1
           1
           1
           1
           1
           1
           1
           1
           1
           1
           1
           1
           1
           1
           1
           1
           1
           1
           1
           1
           1
           1
           1
           1
           1
           1
           1
           1
           1
           1
           1
           1
           1
           1
           1
           1
           1
           1
           1
           1
           1
           1
           1
           1
           1
           1
           1
           1
           1
           1
           1
           1
           1
           1
           1
           1
           1
           1
           1
           1
           1
           1
           1
           1
           1
           1
           1
           1
           1
           1
           1
           1
           1
           1
           1
           1
           1
           1
           1
           1
           1
           1
           1
           1
           1
           1
           1
           1
           1
           1
           1
           1
           1
           1
           1
           1
           1
           1
           1
           1
           1
           1
           1
           1
           1
           1
           1
           1
           1
           1
           1
           1
           1
           1
           1
           1
           1
           1
           1
           1
           1
           1
           1
           1
           1
           1
           1
           1
           1
           1
           1
           1
           1
           1
           1
           1
           1
           1
           1
           1
           1
           1
           1
           1
           1
           1
           1
           1
           1
           1
           1
           1
           1
           1
           1
           1
           1
           1
           1
           1
           1
           1
           1
           1
           1
           1
           1
           1
           1
           1
           1
           1
           1
           1
           1
           1
           1
           1
           1
           1
           1
           1
           1
           1
           1
           1
           1
           1
           1
           1
           1
           1
           1
           1
           1
           1
           1
           1
           1
           1
           1
           1
           1
           1
           1
           1
           1
           1
           1
           1
           1
           1
           1
           1
           1
           1
           1
           1
           1
           1
           1
           1
           1
           1
           1
           1
           1
           1
           1
           1
           1
           1
           1
           1
           1
           1
           1
           1
           1
           1
           1
           1
           1
           1
           1
           1
           1
           1
           1
           1
           1
           1
           1
           1
           1
           1
           1
           1
           1
           1
           1
           1
           1
           1
           1
           1
           1
           1
           1
           1
           1
           1
           1
           1
           1
           1
           1
           1
           1
           1
           1
           1
           1
           1
           1
           1
           1
           1
           1
           1
           1
           1
           1
           1
           1
           1
           1
           1
           1
           1
           1
           1
           1
           1
           1
           1
           1
           1
           1
           1
           1
           1
           1
           1
           1
           1
           1
           1
           1
           1
           1
           1
           1
           1
           1
           1
           1
           1
           1
           1
           1
           1
           1
           1
           1
           1
           1
           1
           1
           1
           1
           1
           1
           1
           1
           1
           1
           1
           1
           1
           1
           1
           1
           1
           1
           1
           1
           1
           1
           1
           1
           1
           1
           1
           1
           1
           1
           1
           1
           1
           1
           1
           1
           1
           1
           1
           1
           1
           1
           1
           1
           1
           1
           1
           1
           1
           1
           1
           1
           1
           1
           1
           1
           1
           1
           1
           1
           1
           1
           1
           1
           1
           1
           1
           1
           1
           1
           1
           1
           1
           1
           1
           1
           1
           1
           1
           1
           1
           1
           1
           1
           1
           1
           1
           1
           1
           1
           1
           1
           1
           1
           1
           1
           1
           1
           1
           1
           1
           1
           1
           1
           1
           1
           1
           1
           1
           1
           1
           1
           1
           1
           1
           1
           1
           1
           1
           1
           1
           1
           1
           1
           1
           1
           1
           1
           1
           1
           1
           1
           1
           1
           1
           1
           1
           1
           1
           1
           1
           1
           1
           1
           1
           1
           1
           1
           1
           1
           1
           1
           1
           1
           1
           1
           1
           1
           1
           1
           1
           1
           1
           1
           1
           1
           1
           1
           1
           1
           1
           1
           1
           1
           1
           1
           1
           1
           1
           1
           1
           1
           1
           1
           1
           1
           1
           1
           1
           1
           1
           1
           1
           1
           1
           1
           1
           1
           1
           1
           1
           1
           1
           1
           1
           1
           1
           1
           1
           1
           1
           1
           1
           1
           1
           1
           1
           1
           1
           1
           1
           1
           1
           1
           1
           1
           1
           1
           1
           1
           1
           1
           1
           1
           1
           1
           1
           1
           1
           1
           1
           1
           1
           1
           1
           1
           1
           1
           1
           1
           1
           1
           1
           1
           1
           1
           1
           1
           1
           1
           1
           1
           1
           1
           1
           1
           1
           1
           1
           1
           1
           1
           1
           1
           1
           1
           1
           1
           1
           1
           1
           1
           1
           1
           1
           1
           1
           1
           1
           1
           1
           1
           1
           1
           1
           1
           1
           1
           1
           1
           1
           1
           1
           1
           1
           1
           1
           1
           1
           1
           1
           1
           1
           1
           1
           1
           1
           1
           1
           1
           1
           1
           1
           1
           1
           1
           1
           1
           1
           1
           1
           1
           1
           1
           1
           1
           1
           1
           1
           1
           1
           1
           1
           1
           1
           1
           1
           1
           1
           1
           1
           1
           1
           1
           1
           1
           1
           1
           1
           1
           1
           1
           1
           1
           1
           1
           1
           1
           1
           1
           1
           1
           1
           1
           1
           1
           1
           1
           1
           1
           1
           1
           1
           1
           1
           1
           1
           1
           1
           1
           1
           1
           1
           1
           1
           1
           1
           1
           1
           1
           1
           1
           1
           1
           1
           1
           1
           1
           1
           1
           1
           1
           1
           1
           1
           1
           1
           1
           1
           1
           1
           1
           1
           1
           1
           1
           1
           1
           1
           1
           1
           1
           1
           1
           1
           1
           1
           1
           1
           1
           1
           1
           1
           1
           1
           1
           1
           1
           1
           1
           1
           1
           1
           1
           1
           1
           1
           1
           1
           1
           1
           1
           1
           1
           1
           1
           1
           1
           1
           1
           1
           1
           1
           1
           1
           1
           1
           1
           1
           1
           1
           1
           1
           1
           1
           1
           1
           1
           1
           1
           1
           1
           1
           1
           1
           1
           1
           1
           1
           1
           1
           1
           1
           1
           1
           1
           1
           1
           1
           1
           1
           1
           1
           1
           1
           1
           1
           1
           1
           1
           1
           1
           1
           1
           1
           1
           1
           1
           1
           1
           1
           1
           1
           1
           1
           1
           1
           1
           1
           1
           1
           1
           1
           1
           1
           1
           1
           1
           1
           1
           1
           1
           1
           1
           1
           1
           1
           1
           1
           1
           1
           1
           1
           1
           1
           1
           1
           1
           1
           1
           1
           1
           1
           1
           1
           1
           1
           1
           1
           1
           1
           1
           1
           1
           1
           1
           1
           1
           1
           1
           1
           1
           1
           1
           1
           1
           1
           1
           1
           1
           1
           1
           1
           1
           1
           1
           1
           1
           1
           1
           1
           1
           1
           1
           1
           1
           1
           1
           1
           1
           1
           1
           1
           1
           1
           1
           1
           1
           1
           1
           1
           1
           1
           1
           1
           1
           1
           1
           1
           1
           1
           1
           1
           1
           1
           1
           1
           1
           1
           1
           1
           1
           1
           1
           1
           1
           1
           1
           1
           1
           1
           1
           1
           1
           1
           1
           1
           1
           1
           1
           1
           1
           1
           1
           1
           1
           1
           1
           1
           1
           1
           1
           1
           1
           1
           1
           1
           1
           1
           1
           1
           1
           1
           1
           1
           1
           1
           1
           1
           1
           1
           1
           1
           1
           1
           1
           1
           1
           1
           1
           1
           1
           1
           1
           1
           1
           1
           1
           1
           1
           1
           1
           1
           1
           1
           1
           1
           1
           1
           1
           1
           1
           1
           1
           1
           1
           1
           1
           1
           1
           1
           1
           1
           1
           1
           1
           1
           1
           1
           1
           1
           1
           1
           1
           1
           1
           1
           1
           1
           1
           1
           1
           1
           1
           1
           1
           1
           1
           1
           1
           1
           1
           1
           1
           1
           1
           1
           1
           1
           1
           1
           1
           1
           1
           1
           1
           1
           1
           1
           1
           1
           1
           1
           1
           1
           1
           1
           1
           1
           1
           1
           1
           1
           1
           1
           1
           1
           1
           1
           1
           1
           1
           1
           1
           1
           1
           1
           1
           1
           1
           1
           1
           1
           1
           1
           1
           1
           1
           1
           1
           1
           1
           1
           1
           1
           1
           1
           1
           1
           1
           1
           1
           1
           1
           1
           1
           1
           1
           1
           1
           1
           1
           1
           1
           1
           1
           1
           1
           1
           1
           1
           1
           1
           1
           1
           1
           1
           1
           1
           1
           1
           1
           1
           1
           1
           1
           1
           1
           1
           1
           1
           1
           1
           1
           1
           1
           1
           1
           1
           1
           1
           1
           1
           1
           1
           1
           1
           1
           1
           1
           1
           1
           1
           1
           1
           1
           1
           1
           1
           1
           1
           1
           1
           1
           1
           1
           1
           1
           1
           1
           1
           1
           1
           1
           1
           1
           1
           1
           1
           1
           1
           1
           1
           1
           1
           1
           1
           1
           1
           1
           1
           1
           1
           1
           1
           1
           1
           1
           1
           1
           1
           1
           1
           1
           1
           1
           1
           1
           1
           1
           1
           1
           1
           1
           1
           1
           1
           1
           1
           1
           1
           1
           1
           1
           1
           1
           1
           1
           1
           1
           1
           1
           1
           1
           1
           1
           1
           1
           1
           1
           1
           1
           1
           1
           1
           1
           1
           1
           1
           1
           1
           1
           1
           1
           1
           1
           1
           1
           1
           1
           1
           1
           1
           1
           1
           1
           1
           1
           1
           1
           1
           1
           1
           1
           1
           1
           1
           1
           1
           1
           1
           1
           1
           1
           1
           1
           1
           1
           1
           1
           1
           1
           1
           1
           1
           1
           1
           1
           1
           1
           1
           1
           1
           1
           1
           1
           1
           1
           1
           1
           1
           1
           1
           1
           1
           1
           1
           1
           1
           1
           1
           1
           1
           1
           1
           1
           1
           1
           1
           1
           1
           1
           1
           1
           1
           1
           1
           1
           1
           1
           1
           1
           1
           1
           1
           1
           1
           1
           1
           1
           1
           1
           1
           1
           1
           1
           1
           1
           1
           1
           1
           1
           1
           1
           1
           1
           1
           1
           1
           1
           1
           1
           1
           1
           1
           1
           1
           1
           1
           1
           1
           1
           1
           1
           1
           1
           1
           1
           1
           1
           1
           1
           1
           1
           1
           1
           1
           1
           1
           1
           1
           1
           1
           1
           1
           1
           1
           1
           1
           1
           1
           1
           1
           1
           1
           1
           1
           1
           1
           1
           1
           1
           1
           1
           1
           1
           1
           1
           1
           1
           1
           1
           1
           1
           1
           1
           1
           1
           1
           1
           1
           1
           1
           1
           1
           1
           1
           1
           1
           1
           1
           1
           1
           1
           1
           1
           1
           1
           1
           1
           1
           1
           1
           1
           1
           1
           1
           1
           1
           1
           1
           1
           1
           1
           1
           1
           1
           1
           1
           1
           1
           1
           1
           1
           1
           1
           1
           1
           1
           1
           1
           1
           1
           1
           1
           1
           1
           1
           1
           1
           1
           1
           1
           1
           1
           1
           1
           1
           1
           1
           1
           1
           1
           1
           1
           1
           1
           1
           1
           1
           1
           1
           1
           1
           1
           1
           1
           1
           1
           1
           1
           1
           1
           1
           1
           1
           1
           1
           1
           1
           1
           1
           1
           1
           1
           1
           1
           1
           1
           1
           1
           1
           1
           1
           1
           1
           1
           1
           1
           1
           1
           1
           1
           1
           1
           1
           1
           1
           1
           1
           1
           1
           1
           1
           1
           1
           1
           1
           1
           1
           1
           1
           1
           1
           1
           1
           1
           1
           1
           1
           1
           1
           1
           1
           1
           1
           1
           1
           1
           1
           1
           1
           1
           1
           1
           1
           1
           1
           1
           1
           1
           1
           1
           1
           1
           1
           1
           1
           1
           1
           1
           1
           1
           1
           1
           1
           1
           1
           1
           1
           1
           1
           1
           1
           1
           1
           1
           1
           1
           1
           1
           1
           1
           1
           1
           1
           1
           1
           1
           1
           1
           1
           1
           1
           1
           1
           1
           1
           1
           1
           1
           1
           1
           1
           1
           1
           1
           1
           1
           1
           1
           1
           1
           1
           1
           1
           1
           1
           1
           1
           1
           1
           1
           1
           1
           1
           1
           1
           1
           1
           1
           1
           1
           1
           1
           1
           1
           1
           1
           1
           1
           1
           1
           1
           1
           1
           1
           1
           1
           1
           1
           1
           1
           1
           1
           1
           1
           1
           1
           1
           1
           1
           1
           1
           1
           1
           1
           1
           1
           1
           1
           1
           1
           1
           1
           1
           1
           1
           1
           1
           1
           1
           1
           1
           1
           1
           1
           1
           1
           1
           1
           1
           1
           1
           1
           1
           1
           1
           1
           1
           1
           1
           1
           1
           1
           1
           1
           1
           1
           1
           1
           1
           1
           1
           1
           1
           1
           1
           1
           1
           1
           1
           1
           1
           1
           1
           1
           1
           1
           1
           1
           1
           1
           1
           1
           1
           1
           1
           1
           1
           1
           1
           1
           1
           1
           1
           1
           1
           1
           1
           1
           1
           1
           1
           1
           1
           1
           1
           1
           1
           1
           1
           1
           1
           1
           1
           1
           1
           1
           1
           1
           1
           1
           1
           1
           1
           1
           1
           1
           1
           1
           1
           1
           1
           1
           1
           1
           1
           1
           1
           1
           1
           1
           1
           1
           1
           1
           1
           1
           1
           1
           1
           1
           1
           1
           1
           1
           1
           1
           1
           1
           1
           1
           1
           1
           1
           1
           1
           1
           1
           1
           1
           1
           1
           1
           1
           1
           1
           1
           1
           1
           1
           1
           1
           1
           1
           1
           1
           1
           1
           1
           1
           1
           1
           1
           1
           1
           1
           1
           1
           1
           1
           1
           1
           1
           1
           1
           1
           1
           1
           1
           1
           1
           1
           1
           1
           1
           1
           1
           1
           1
           1
           1
           1
           1
           1
           1
           1
           1
           1
           1
           1
           1
           1
           1
           1
           1
           1
           1
           1
           1
           1
           1
           1
           1
           1
           1
           1
           1
           1
           1
           1
           1
           1
           1
           1
           1
           1
           1
           1
           1
           1
           1
           1
           1
           1
           1
           1
           1
           1
           1
           1
           1
           1
           1
           1
           1
           1
           1
           1
           1
           1
           1
           1
           1
           1
           1
           1
           1
           1
           1
           1
           1
           1
           1
           1
           1
           1
           1
           1
           1
           1
           1
           1
           1
           1
           1
           1
           1
           1
           1
           1
           1
           1
           1
           1
           1
           1
           1
           1
           1
           1
           1
           1
           1
           1
           1
           1
           1
           1
           1
           1
           1
           1
           1
           1
           1
           1
           1
           1
           1
           1
           1
           1
           1
           1
           1
           1
           1
           1
           1
           1
           1
           1
           1
           1
           1
           1
           1
           1
           1
           1
           1
           1
           1
           1
           1
           1
           1
           1
           1
           1
           1
           1
           1
           1
           1
           1
           1
           1
           1
           1
           1
           1
           1
           1
           1
           1
           1
           1
           1
           1
           1
           1
           1
           1
           1
           1
           1
           1
           1
           1
           1
           1
           1
           1
           1
           1
           1
           1
           1
           1
           1
           1
           1
           1
           1
           1
           1
           1
           1
           1
           1
           1
           1
           1
           1
           1
           1
           1
           1
           1
           1
           1
           1
           1
           1
           1
           1
           1
           1
           1
           1
           1
           1
           1
           1
           1
           1
           1
           1
           1
           1
           1
           1
           1
           1
           1
           1
           1
           1
           1
           1
           1
           1
           1
           1
           1
           1
           1
           1
           1
           1
           1
           1
           1
           1
           1
           1
           1
           1
           1
           1
           1
           1
           1
           1
           1
           1
           1
           1
           1
           1
           1
           1
           1
           1
           1
           1
           1
           1
           1
           1
           1
           1
           1
           1
           1
           1
           1
           1
           1
           1
           1
           1
           1
           1
           1
           1
           1
           1
           1
           1
           1
           1
           1
           1
           1
           1
           1
           1
           1
           1
           1
           1
           1
           1
           1
           1
           1
           1
           1
           1
           1
           1
           1
           1
           1
           1
           1
           1
           1
           1
           1
           1
           1
           1
           1
           1
           1
           1
           1
           1
           1
           1
           1
           1
           1
           1
           1
           1
           1
           1
           1
           1
           1
           1
           1
           1
           1
           1
           1
           1
           1
           1
           1
           1
           1
           1
           1
           1
           1
           1
           1
           1
           1
           1
           1
           1
           1
           1
           1
           1
           1
           1
           1
           1
           1
           1
           1
           1
           1
           1
           1
           1
           1
           1
           1
           1
           1
           1
           1
           1
           1
           1
           1
           1
           1
           1
           1
           1
           1
           1
           1
           1
           1
           1
           1
           1
           1
           1
           1
           1
           1
           1
           1
           1
           1
           1
           1
           1
           1
           1
           1
           1
           1
           1
           1
           1
           1
           1
           1
           1
           1
           1
           1
           1
           1
           1
           1
           1
           1
           1
           1
           1
           1
           1
           1
           1
           1
           1
           1
           1
           1
           1
           1
           1
           1
           1
           1
           1
           1
           1
           1
           1
           1
           1
           1
           1
           1
           1
           1
           1
           1
           1
           1
           1
           1
           1
           1
           1
           1
           1
           1
           1
           1
           1
           1
           1
           1
           1
           1
           1
           1
           1
           1
           1
           1
           1
           1
           1
           1
           1
           1
           1
           1
           1
           1
           1
           1
           1
           1
           1
           1
           1
           1
           1
           1
           1
           1
           1
           1
           1
           1
           1
           1
           1
           1
           1
           1
           1
           1
           1
           1
           1
           1
           1
           1
           1
           1
           1
           1
           1
           1
           1
           1
           1
           1
           1
           1
           1
           1
           1
           1
           1
           1
           1
           1
           1
           1
           1
           1
           1
           1
           1
           1
           1
           1
           1
           1
           1
           1
           1
           1
           1
           1
           1
           1
           1
           1
           1
           1
           1
           1
           1
           1
           1
           1
           1
           1
           1
           1
           1
           1
           1
           1
           1
           1
           1
           1
           1
           1
           1
           1
           1
           1
           1
           1
           1
           1
           1
           1
           1
           1
           1
           1
           1
           1
           1
           1
           1
           1
           1
           1
           1
           1
           1
           1
           1
           1
           1
           1
           1
           1
           1
           1
           1
           1
           1
           1
           1
           1
           1
           1
           1
           1
           1
           1
           1
           1
           1
           1
           1
           1
           1
           1
           1
           1
           1
           1
           1
           1
           1
           1
           1
           1
           1
           1
           1
           1
           1
           1
           1
           1
           1
           1
           1
           1
           1
           1
           1
           1
           1
           1
           1
           1
           1
           1
           1
           1
           1
           1
           1
           1
           1
           1
           1
           1
           1
           1
           1
           1
           1
           1
           1
           1
           1
           1
           1
           1
           1
           1
           1
           1
           1
           1
           1
           1
           1
           1
           1
           1
           1
           1
           1
           1
           1
           1
           1
           1
           1
           1
           1
           1
           1
           1
           1
           1
           1
           1
           1
           1
           1
           1
           1
           1
           1
           1
           1
           1
           1
           1
           1
           1
           1
           1
           1
           1
           1
           1
           1
           1
           1
           1
           1
           1
           1
           1
           1
           1
           1
           1
           1
           1
           1
           1
           1
           1
           1
           1
           1
           1
           1
           1
           1
           1
           1
           1
           1
           1
           1
           1
           1
           1
           1
           1
           1
           1
           1
           1
           1
           1
           1
           1
           1
           1
           1
           1
           1
           1
           1
           1
           1
           1
           1
           1
           1
           1
           1
           1
           1
           1
           1
           1
           1
           1
           1
           1
           1
           1
           1
           1
           1
           1
           1
           1
           1
           1
           1
           1
           1
           1
           1
           1
           1
           1
           1
           1
           1
           1
           1
           1
           1
           1
           1
           1
           1
           1
           1
           1
           1
           1
           1
           1
           1
           1
           1
           1
           1
           1
           1
           1
           1
           1
           1
           1
           1
           1
           1
           1
           1
           1
           1
           1
           1
           1
           1
           1
           1
           1
           1
           1
           1
           1
           1
           1
           1
           1
           1
           1
           1
           1
           1
           1
           1
           1
           1
           1
           1
           1
           1
           1
           1
           1
           1
           1
           1
           1
           1
           1
           1
           1
           1
           1
           1
           1
           1
           1
           1
           1
           1
           1
           1
           1
           1
           1
           1
           1
           1
           1
           1
           1
           1
           1
           1
           1
           1
           1
           1
           1
           1
           1
           1
           1
           1
           1
           1
           1
           1
           1
           1
           1
           1
           1
           1
           1
           1
           1
           1
           1
           1
           1
           1
           1
           1
           1
           1
           1
           1
           1
           1
           1
           1
           1
           1
           1
           1
           1
           1
           1
           1
           1
           1
           1
           1
           1
           1
           1
           1
           1
           1
           1
           1
           1
           1
           1
           1
           1
           1
           1
           1
           1
           1
           1
           1
           1
           1
           1
           1
           1
           1
           1
           1
           1
           1
           1
           1
           1
           1
           1
           1
           1
           1
           1
           1
           1
           1
           1
           1
           1
           1
           1
           1
           1
           1
           1
           1
           1
           1
           1
           1
           1
           1
           1
           1
           1
           1
           1
           1
           1
           1
           1
           1
           1
           1
           1
           1
           1
           1
           1
           1
           1
           1
           1
           1
           1
           1
           1
           1
           1
           1
           1
           1
           1
           1
           1
           1
           1
           1
           1
           1
           1
           1
           1
           1
           1
           1
           1
           1
           1
           1
           1
           1
           1
           1
           1
           1
           1
           1
           1
           1
           1
           1
           1
           1
           1
           1
           1
           1
           1
           1
           1
           1
           2
           2
           2
           2
           2
           2
           2
           2
           2
           2
           2
           2
           2
           2
           2
           2
           2
           2
           2
           2
           2
           2
           2
           2
           2
           2
           2
           2
           2
           2
           2
           2
           2
           2
           2
           2
           2
           2
           2
           2
           2
           2
           2
           2
           2
           2
           2
           2
           2
           2
           2
           2
           2
           2
           2
           2
           2
           2
           2
           2
           2
           2
           2
           2
           2
           2
           2
           2
           2
           2
           2
           2
           2
           2
           2
           2
           2
           2
           2
           2
           2
           2
           2
           2
           2
           2
           2
           2
           2
           2
           2
           2
           2
           2
           2
           2
           2
           2
           2
           2
           2
           2
           2
           2
           2
           2
           2
           2
           2
           2
           2
           2
           2
           2
           2
           2
           2
           2
           2
           2
           2
           2
           2
           2
           2
           2
           2
           2
           2
           2
           2
           2
           2
           2
           2
           2
           2
           2
           2
           2
           2
           2
           2
           2
           2
           2
           2
           2
           2
           2
           2
           2
           2
           2
           2
           2
           2
           2
           2
           2
           2
           2
           2
           2
           2
           2
           2
           2
           2
           2
           2
           2
           2
           2
           2
           2
           2
           2
           2
           2
           2
           2
           2
           2
           2
           2
           2
           2
           2
           2
           2
           2
           2
           2
           2
           2
           2
           2
           2
           2
           2
           2
           2
           2
           2
           2
           2
           2
           2
           2
           2
           2
           2
           2
           2
           2
           2
           2
           2
           2
           2
           2
           2
           2
           2
           2
           2
           2
           2
           2
           2
           2
           2
           2
           2
           2
           2
           2
           2
           2
           2
           2
           2
           2
           2
           2
           2
           2
           2
           2
           2
           2
           2
           2
           2
           2
           2
           2
           2
           2
           2
           2
           2
           2
           2
           2
           2
           2
           2
           2
           2
           2
           2
           2
           2
           2
           2
           2
           2
           2
           2
           2
           2
           2
           2
           2
           2
           2
           2
           2
           2
           2
           2
           2
           2
           2
           2
           2
           2
           2
           2
           2
           2
           2
           2
           2
           2
           2
           2
           2
           2
           2
           2
           2
           2
           2
           2
           2
           2
           2
           2
           2
           2
           2
           2
           2
           2
           2
           2
           2
           2
           2
           2
           2
           2
           2
           2
           2
           2
           2
           2
           2
           2
           2
           2
           2
           2
           2
           2
           2
           2
           2
           2
           2
           2
           2
           2
           2
           2
           2
           2
           2
           2
           2
           2
           2
           2
           2
           2
           2
           2
           2
           2
           2
           2
           2
           2
           2
           2
           2
           2
           2
           2
           2
           2
           2
           2
           2
           2
           2
           2
           2
           2
           2
           2
           2
           2
           2
           2
           2
           2
           2
           2
           2
           2
           2
           2
           2
           2
           2
           2
           2
           2
           2
           2
           2
           2
           2
           2
           2
           2
           2
           2
           2
           2
           2
           2
           2
           2
           2
           2
           2
           2
           2
           2
           2
           2
           2
           2
           2
           2
           2
           2
           2
           2
           2
           2
           2
           2
           2
           2
           2
           2
           2
           2
           2
           2
           2
           2
           2
           2
           2
           2
           2
           2
           2
           2
           2
           2
           2
           2
           2
           2
           2
           2
           2
           2
           2
           2
           2
           2
           2
           2
           2
           2
           2
           2
           2
           2
           2
           2
           2
           2
           2
           2
           2
           2
           2
           2
           2
           2
           2
           2
           2
           2
           2
           2
           2
           2
           2
           2
           2
           2
           2
           2
           2
           2
           2
           2
           2
           2
           2
           2
           2
           2
           2
           2
           2
           2
           2
           2
           2
           2
           2
           2
           2
           2
           2
           2
           2
           2
           2
           2
           2
           2
           2
           2
           2
           2
           2
           2
           2
           2
           2
           2
           2
           2
           2
           2
           2
           2
           2
           2
           2
           2
           2
           2
           2
           2
           2
           2
           2
           2
           2
           2
           2
           2
           2
           2
           2
           2
           2
           2
           2
           2
           2
           2
           2
           2
           2
           2
           2
           2
           2
           2
           2
           2
           2
           2
           2
           2
           2
           2
           2
           2
           2
           2
           2
           2
           2
           2
           2
           2
           2
           2
           2
           2
           2
           2
           2
           2
           2
           2
           2
           2
           2
           2
           2
           2
           2
           2
           2
           2
           2
           2
           2
           2
           2
           2
           2
           2
           2
           2
           2
           2
           2
           2
           2
           2
           2
           2
           2
           2
           2
           2
           2
           2
           2
           2
           2
           2
           2
           2
           2
           2
           2
           2
           2
           2
           2
           2
           2
           2
           2
           2
           2
           2
           2
           2
           2
           2
           2
           2
           2
           2
           2
           2
           2
           2
           2
           2
           2
           2
           2
           2
           2
           2
           2
           2
           2
           2
           2
           2
           2
           2
           2
           2
           2
           2
           2
           2
           2
           2
           2
           2
           2
           2
           2
           2
           2
           2
           2
           2
           2
           2
           2
           2
           2
           2
           2
           2
           2
           2
           2
           2
           2
           2
           2
           2
           2
           2
           2
           2
           2
           2
           2
           2
           2
           2
           2
           2
           2
           2
           2
           2
           2
           2
           2
           2
           2
           2
           2
           2
           2
           2
           2
           2
           2
           2
           2
           2
           2
           2
           2
           2
           2
           2
           2
           2
           2
           2
           2
           2
           2
           2
           2
           2
           2
           2
           2
           2
           2
           2
           2
           2
           2
           2
           2
           2
           2
           2
           2
           2
           2
           2
           2
           2
           2
           2
           2
           2
           2
           2
           2
           2
           2
           2
           2
           2
           2
           2
           2
           2
           2
           2
           2
           2
           2
           2
           2
           2
           2
           2
           2
           2
           2
           2
           2
           2
           2
           2
           2
           2
           2
           2
           2
           2
           2
           2
           2
           2
           2
           2
           2
           2
           2
           2
           2
           2
           2
           2
           2
           2
           2
           2
           2
           2
           2
           2
           2
           2
           2
           2
           2
           2
           2
           2
           2
           2
           2
           2
           2
           2
           2
           2
           2
           2
           2
           2
           2
           2
           2
           2
           2
           2
           2
           2
           2
           2
           2
           2
           2
           2
           2
           2
           2
           2
           2
           2
           2
           2
           2
           2
           2
           2
           2
           2
           2
           2
           2
           2
           2
           2
           2
           2
           2
           2
           2
           2
           2
           2
           2
           2
           2
           2
           2
           2
           2
           2
           2
           2
           2
           2
           2
           2
           2
           2
           2
           2
           2
           2
           2
           2
           2
           2
           2
           2
           2
           2
           2
           2
           2
           2
           2
           2
           2
           2
           2
           2
           2
           2
           2
           2
           2
           2
           2
           2
           2
           2
           2
           2
           2
           2
           2
           2
           2
           2
           2
           2
           2
           2
           2
           2
           2
           2
           2
           2
           2
           2
           2
           2
           2
           2
           2
           2
           2
           2
           2
           2
           2
           2
           2
           2
           2
           2
           2
           2
           2
           2
           2
           2
           2
           2
           2
           2
           2
           2
           2
           2
           2
           2
           2
           2
           2
           2
           2
           2
           2
           2
           2
           2
           2
           2
           2
           2
           2
           2
           2
           2
           2
           2
           2
           2
           2
           2
           2
           2
           2
           2
           2
           2
           2
           2
           2
           2
           2
           2
           2
           2
           2
           2
           2
           2
           2
           2
           2
           2
           2
           2
           2
           2
           2
           2
           2
           2
           2
           2
           2
           2
           2
           2
           2
           2
           2
           2
           2
           2
           2
           2
           2
           2
           2
           2
           2
           2
           2
           2
           2
           2
           2
           2
           2
           2
           2
           2
           2
           2
           2
           2
           2
           2
           2
           2
           2
           2
           2
           2
           2
           2
           2
           2
           2
           2
           2
           2
           2
           2
           2
           2
           2
           2
           2
           2
           2
           2
           2
           2
           2
           2
           2
           2
           2
           2
           2
           2
           2
           2
           2
           2
           2
           2
           2
           2
           2
           2
           2
           2
           2
           2
           2
           2
           2
           2
           2
           2
           2
           2
           2
           2
           2
           2
           2
           2
           2
           2
           2
           2
           2
           2
           2
           2
           2
           2
           2
           2
           2
           2
           2
           2
           2
           2
           2
           2
           2
           2
           2
           2
           2
           2
           2
           2
           2
           2
           2
           2
           2
           2
           2
           2
           2
           2
           2
           2
           2
           2
           2
           2
           2
           2
           2
           2
           2
           2
           2
           2
           2
           2
           2
           2
           2
           2
           2
           2
           2
           2
           2
           2
           2
           2
           2
           2
           2
           2
           2
           2
           2
           2
           2
           2
           2
           2
           2
           2
           2
           2
           2
           2
           2
           2
           2
           2
           2
           2
           2
           2
           2
           2
           2
           2
           2
           2
           2
           2
           2
           2
           2
           2
           2
           2
           2
           2
           2
           2
           2
           2
           2
           2
           2
           2
           2
           2
           2
           2
           2
           2
           2
           2
           2
           2
           2
           2
           2
           2
           2
           2
           2
           2
           2
           2
           2
           2
           2
           2
           2
           2
           2
           2
           2
           2
           2
           2
           2
           2
           2
           2
           2
           2
           2
           2
           2
           2
           2
           2
           2
           2
           2
           2
           2
           2
           2
           2
           2
           2
           2
           2
           2
           2
           2
           2
           2
           2
           2
           2
           2
           2
           2
           2
           2
           2
           2
           2
           2
           2
           2
           2
           2
           2
           2
           2
           2
           2
           2
           2
           2
           2
           2
           2
           2
           2
           2
           2
           2
           2
           2
           2
           2
           2
           2
           2
           2
           2
           2
           2
           2
           2
           2
           2
           2
           2
           2
           2
           2
           2
           2
           2
           2
           2
           2
           2
           2
           2
           2
           2
           2
           2
           2
           2
           2
           2
           2
           2
           2
           2
           2
           2
           2
           2
           2
           2
           2
           2
           2
           2
           2
           2
           2
           2
           2
           2
           2
           2
           2
           2
           2
           2
           2
           2
           2
           2
           2
           2
           2
           2
           2
           2
           2
           2
           2
           2
           2
           2
           2
           2
           2
           2
           2
           2
           2
           2
           2
           2
           2
           2
           2
           2
           2
           2
           2
           2
           2
           2
           2
           2
           2
           2
           2
           2
           2
           2
           2
           2
           2
           2
           2
           2
           2
           2
           2
           2
           2
           2
           2
           2
           2
           2
           2
           2
           2
           2
           2
           2
           2
           2
           2
           2
           2
           2
           2
           2
           2
           2
           2
           2
           2
           2
           2
           2
           2
           2
           2
           2
           2
           2
           2
           2
           2
           2
           2
           2
           2
           2
           2
           2
           2
           2
           2
           2
           2
           2
           2
           2
           2
           2
           2
           2
           2
           2
           2
           2
           2
           2
           2
           2
           2
           2
           2
           2
           2
           2
           2
           2
           2
           2
           2
           2
           2
           2
           2
           2
           2
           2
           2
           2
           2
           2
           2
           2
           2
           2
           2
           2
           2
           2
           2
           2
           2
           2
           2
           2
           2
           2
           2
           2
           2
           2
           2
           2
           2
           2
           2
           2
           2
           2
           2
           2
           2
           2
           2
           2
           2
           2
           2
           2
           2
           2
           2
           2
           2
           2
           2
           2
           2
           2
           2
           2
           2
           2
           2
           2
           2
           2
           2
           2
           2
           2
           2
           2
           2
           2
           2
           2
           2
           2
           2
           2
           2
           2
           2
           2
           2
           2
           2
           2
           2
           2
           2
           2
           2
           2
           2
           2
           2
           2
           2
           2
           2
           2
           2
           2
           2
           2
           2
           2
           2
           2
           2
           2
           2
           2
           2
           2
           2
           2
           2
           2
           2
           2
           2
           2
           2
           2
           2
           2
           2
           2
           2
           2
           2
           2
           2
           2
           2
           2
           2
           2
           2
           2
           2
           2
           2
           2
           2
           2
           2
           2
           2
           2
           2
           2
           2
           2
           2
           2
           2
           2
           2
           2
           2
           2
           2
           2
           2
           2
           2
           2
           2
           2
           2
           2
           2
           2
           2
           2
           2
           2
           2
           2
           2
           2
           2
           2
           2
           2
           2
           2
           2
           2
           2
           2
           2
           2
           2
           2
           2
           2
           2
           2
           2
           2
           2
           2
           2
           2
           2
           2
           2
           2
           2
           2
           2
           2
           2
           2
           2
           2
           2
           2
           2
           2
           2
           2
           2
           2
           2
           2
           2
           2
           2
           2
           2
           2
           2
           2
           2
           2
           2
           2
           2
           2
           2
           2
           2
           2
           2
           2
           2
           2
           2
           2
           2
           2
           2
           2
           2
           2
           2
           2
           2
           2
           2
           2
           2
           2
           2
           2
           2
           2
           2
           2
           2
           2
           2
           2
           2
           2
           2
           2
           2
           2
           2
           2
           2
           2
           2
           2
           2
           2
           2
           2
           2
           2
           2
           2
           2
           2
           2
           2
           2
           2
           2
           2
           2
           2
           2
           2
           2
           2
           2
           2
           2
           2
           2
           2
           2
           2
           2
           2
           2
           2
           2
           2
           2
           2
           2
           2
           2
           2
           2
           2
           2
           2
           2
           2
           2
           2
           2
           2
           2
           2
           2
           2
           2
           2
           2
           2
           2
           2
           2
           2
           2
           2
           2
           2
           2
           2
           2
           2
           2
           2
           2
           2
           2
           2
           2
           2
           2
           2
           2
           2
           2
           2
           2
           2
           2
           2
           2
           2
           2
           2
           2
           2
           2
           2
           2
           2
           2
           2
           2
           2
           2
           2
           2
           2
           2
           2
           2
           2
           2
           2
           2
           2
           2
           2
           2
           2
           2
           2
           2
           2
           2
           2
           2
           2
           2
           2
           2
           2
           2
           2
           2
           2
           2
           2
           2
           2
           2
           2
           2
           2
           2
           2
           2
           2
           2
           2
           2
           2
           2
           2
           2
           2
           2
           2
           2
           2
           2
           2
           2
           2
           2
           2
           2
           2
           2
           2
           2
           2
           2
           2
           2
           2
           2
           2
           2
           2
           2
           2
           2
           2
           2
           2
           2
           2
           2
           2
           2
           2
           2
           2
           2
           2
           2
           2
           2
           2
           2
           2
           2
           2
           2
           2
           2
           2
           2
           2
           2
           2
           2
           2
           2
           2
           2
           2
           2
           2
           2
           2
           2
           2
           2
           2
           2
           2
           2
           2
           2
           2
           2
           2
           2
           2
           2
           2
           2
           2
           2
           2
           2
           2
           2
           2
           2
           2
           2
           2
           2
           2
           2
           2
           2
           2
           2
           2
           2
           2
           2
           2
           2
           2
           2
           2
           2
           2
           2
           2
           2
           2
           2
           2
           2
           2
           2
           2
           2
           2
           2
           2
           2
           2
           2
           2
           2
           2
           2
           2
           2
           2
           2
           2
           2
           2
           2
           2
           2
           2
           2
           2
           2
           2
           2
           2
           2
           2
           2
           2
           2
           2
           2
           2
           2
           2
           2
           2
           2
           2
           2
           2
           2
           2
           2
           2
           2
           2
           2
           2
           2
           2
           2
           2
           2
           2
           2
           2
           2
           2
           2
           2
           2
           2
           2
           2
           2
           2
           2
           2
           2
           2
           2
           2
           2
           2
           2
           2
           2
           2
           2
           2
           2
           2
           2
           2
           2
           2
           2
           2
           2
           2
           2
           2
           2
           2
           2
           2
           2
           2
           2
           2
           2
           2
           2
           2
           2
           2
           2
           2
           2
           2
           2
           2
           2
           2
           2
           2
           2
           2
           2
           2
           2
           2
           2
           2
           2
           2
           2
           2
           2
           2
           2
           2
           2
           2
           2
           2
           2
           2
           2
           2
           2
           2
           2
           2
           2
           2
           2
           2
           2
           2
           2
           2
           2
           2
           2
           2
           2
           2
           2
           2
           2
           2
           2
           2
           2
           2
           2
           2
           2
           2
           2
           2
           2
           2
           2
           2
           2
           2
           2
           2
           2
           2
           2
           2
           2
           2
           2
           2
           2
           2
           2
           2
           2
           2
           2
           2
           2
           2
           2
           2
           2
           2
           2
           2
           2
           2
           2
           2
           2
           2
           2
           2
           2
           2
           2
           2
           2
           2
           2
           2
           2
           2
           2
           2
           2
           2
           2
           2
           2
           2
           2
           2
           2
           2
           2
           2
           2
           2
           2
           2
           2
           2
           2
</DataArray>
</CellData>
</Piece>
</UnstructuredGrid>
</VTKFile>
