<VTKFile type="UnstructuredGrid" version="1,0" byte_order="LittleEndian">
<UnstructuredGrid>
<Piece NumberOfPoints="1502" NumberOfCells="1440">
<Points>
<DataArray type="Float64" NumberOfComponents="3" format="ascii">
-0.1100000000000E+01 -0.4304044648606E+01  0.0000000000000E+00
 0.0000000000000E+00 -0.4304044648606E+01  0.0000000000000E+00
 0.1100000000000E+01 -0.4304044648606E+01  0.0000000000000E+00
-0.1426338184892E+01 -0.1495137730994E+01  0.0000000000000E+00
-0.7131690856113E+00 -0.1351817918288E+01  0.0000000000000E+00
 0.7131690992823E+00 -0.1351817920119E+01  0.0000000000000E+00
 0.1426338184892E+01 -0.1495137730994E+01  0.0000000000000E+00
-0.1297471036855E+01  0.8924645033579E+00  0.0000000000000E+00
 0.1297471037589E+01  0.8924645030013E+00  0.0000000000000E+00
-0.7500000000000E+00  0.3449934570704E+00  0.0000000000000E+00
 0.7500000000000E+00  0.3449934570704E+00  0.0000000000000E+00
-0.1045000000000E+01 -0.4304044648606E+01  0.0000000000000E+00
-0.9900000000000E+00 -0.4304044648606E+01  0.0000000000000E+00
-0.9350000000000E+00 -0.4304044648606E+01  0.0000000000000E+00
-0.8800000000000E+00 -0.4304044648606E+01  0.0000000000000E+00
-0.8250000000000E+00 -0.4304044648606E+01  0.0000000000000E+00
-0.7700000000000E+00 -0.4304044648606E+01  0.0000000000000E+00
-0.7150000000000E+00 -0.4304044648606E+01  0.0000000000000E+00
-0.6600000000000E+00 -0.4304044648606E+01  0.0000000000000E+00
-0.6050000000000E+00 -0.4304044648606E+01  0.0000000000000E+00
-0.5500000000000E+00 -0.4304044648606E+01  0.0000000000000E+00
-0.4950000000000E+00 -0.4304044648606E+01  0.0000000000000E+00
-0.4400000000000E+00 -0.4304044648606E+01  0.0000000000000E+00
-0.3850000000000E+00 -0.4304044648606E+01  0.0000000000000E+00
-0.3300000000000E+00 -0.4304044648606E+01  0.0000000000000E+00
-0.2750000000000E+00 -0.4304044648606E+01  0.0000000000000E+00
-0.2200000000000E+00 -0.4304044648606E+01  0.0000000000000E+00
-0.1650000000000E+00 -0.4304044648606E+01  0.0000000000000E+00
-0.1100000000000E+00 -0.4304044648606E+01  0.0000000000000E+00
-0.5500000000000E-01 -0.4304044648606E+01  0.0000000000000E+00
 0.5500000000000E-01 -0.4304044648606E+01  0.0000000000000E+00
 0.1100000000000E+00 -0.4304044648606E+01  0.0000000000000E+00
 0.1650000000000E+00 -0.4304044648606E+01  0.0000000000000E+00
 0.2200000000000E+00 -0.4304044648606E+01  0.0000000000000E+00
 0.2750000000000E+00 -0.4304044648606E+01  0.0000000000000E+00
 0.3300000000000E+00 -0.4304044648606E+01  0.0000000000000E+00
 0.3850000000000E+00 -0.4304044648606E+01  0.0000000000000E+00
 0.4400000000000E+00 -0.4304044648606E+01  0.0000000000000E+00
 0.4950000000000E+00 -0.4304044648606E+01  0.0000000000000E+00
 0.5500000000000E+00 -0.4304044648606E+01  0.0000000000000E+00
 0.6050000000000E+00 -0.4304044648606E+01  0.0000000000000E+00
 0.6600000000000E+00 -0.4304044648606E+01  0.0000000000000E+00
 0.7150000000000E+00 -0.4304044648606E+01  0.0000000000000E+00
 0.7700000000000E+00 -0.4304044648606E+01  0.0000000000000E+00
 0.8250000000000E+00 -0.4304044648606E+01  0.0000000000000E+00
 0.8800000000000E+00 -0.4304044648606E+01  0.0000000000000E+00
 0.9350000000000E+00 -0.4304044648606E+01  0.0000000000000E+00
 0.9900000000000E+00 -0.4304044648606E+01  0.0000000000000E+00
 0.1045000000000E+01 -0.4304044648606E+01  0.0000000000000E+00
-0.1355910848380E+01 -0.1476732672072E+01  0.0000000000000E+00
-0.1285259981017E+01 -0.1459205415754E+01  0.0000000000000E+00
-0.1214394584761E+01 -0.1442566916018E+01  0.0000000000000E+00
-0.1143323993112E+01 -0.1426827745365E+01  0.0000000000000E+00
-0.1072058114862E+01 -0.1411998118171E+01  0.0000000000000E+00
-0.1000607103274E+01 -0.1398087786375E+01  0.0000000000000E+00
-0.9289815514207E+00 -0.1385106053576E+01  0.0000000000000E+00
-0.8571924453329E+00 -0.1373061734396E+01  0.0000000000000E+00
-0.7852510794390E+00 -0.1361963112090E+01  0.0000000000000E+00
-0.6422126030433E+00 -0.1342784468384E+01  0.0000000000000E+00
-0.5711435255488E+00 -0.1334684768748E+01  0.0000000000000E+00
-0.4999736369017E+00 -0.1327524435880E+01  0.0000000000000E+00
-0.4287150862649E+00 -0.1321308491716E+01  0.0000000000000E+00
-0.3573801183139E+00 -0.1316041318931E+01  0.0000000000000E+00
-0.2859812157621E+00 -0.1311726660302E+01  0.0000000000000E+00
-0.2145309892672E+00 -0.1308367596678E+01  0.0000000000000E+00
-0.1430421463503E+00 -0.1305966536203E+01  0.0000000000000E+00
-0.7152752388590E-01 -0.1304525207180E+01  0.0000000000000E+00
 0.6896563986558E-08 -0.1304044648606E+01  0.0000000000000E+00
 0.7152753767778E-01 -0.1304525207365E+01  0.0000000000000E+00
 0.1430421601384E+00 -0.1305966536574E+01  0.0000000000000E+00
 0.2145310030492E+00 -0.1308367597233E+01  0.0000000000000E+00
 0.2859812295354E+00 -0.1311726661042E+01  0.0000000000000E+00
 0.3573801320760E+00 -0.1316041319855E+01  0.0000000000000E+00
 0.4287151000135E+00 -0.1321308492824E+01  0.0000000000000E+00
 0.4999736506343E+00 -0.1327524437170E+01  0.0000000000000E+00
 0.5711435392633E+00 -0.1334684770220E+01  0.0000000000000E+00
 0.6422126167371E+00 -0.1342784470036E+01  0.0000000000000E+00
 0.7852510917199E+00 -0.1361963113902E+01  0.0000000000000E+00
 0.8571924562271E+00 -0.1373061736151E+01  0.0000000000000E+00
 0.9289815609321E+00 -0.1385106055236E+01  0.0000000000000E+00
 0.1000607111408E+01 -0.1398087787904E+01  0.0000000000000E+00
 0.1072058121623E+01 -0.1411998119533E+01  0.0000000000000E+00
 0.1143323998507E+01 -0.1426827746523E+01  0.0000000000000E+00
 0.1214394588795E+01 -0.1442566916938E+01  0.0000000000000E+00
 0.1285259983698E+01 -0.1459205416402E+01  0.0000000000000E+00
 0.1355910849717E+01 -0.1476732672412E+01  0.0000000000000E+00
-0.1579712636672E+01 -0.1257117726587E+01  0.0000000000000E+00
-0.1733164540211E+01 -0.1019175933670E+01  0.0000000000000E+00
-0.1854662117542E+01 -0.7635066404071E+00  0.0000000000000E+00
-0.1941975481337E+01 -0.4942606593644E+00  0.0000000000000E+00
-0.1991516502432E+01 -0.2156092846034E+00  0.0000000000000E+00
-0.1998781287050E+01  0.6736447573279E-01  0.0000000000000E+00
-0.1925316867218E+01  0.3385059547416E+00  0.0000000000000E+00
-0.1756248887890E+01  0.5644442091257E+00  0.0000000000000E+00
-0.1540277150090E+01  0.7471961778048E+00  0.0000000000000E+00
-0.1173981215584E+01  0.9468055532948E+00  0.0000000000000E+00
-0.1048246390832E+01  0.9957805369659E+00  0.0000000000000E+00
-0.9216449825030E+00  0.1042480347406E+01  0.0000000000000E+00
-0.7946812217419E+00  0.1088183183765E+01  0.0000000000000E+00
-0.6661180574429E+00  0.1129122063103E+01  0.0000000000000E+00
-0.5354041844713E+00  0.1162549250252E+01  0.0000000000000E+00
-0.4029695874389E+00  0.1188340213072E+01  0.0000000000000E+00
-0.2693161135181E+00  0.1206817739605E+01  0.0000000000000E+00
-0.1348660417516E+00  0.1218121850014E+01  0.0000000000000E+00
 0.4058846663134E-09  0.1222022719718E+01  0.0000000000000E+00
 0.1348660425620E+00  0.1218121849962E+01  0.0000000000000E+00
 0.2693161143243E+00  0.1206817739504E+01  0.0000000000000E+00
 0.4029695882387E+00  0.1188340212925E+01  0.0000000000000E+00
 0.5354041852619E+00  0.1162549250060E+01  0.0000000000000E+00
 0.6661180582227E+00  0.1129122062868E+01  0.0000000000000E+00
 0.7946812225112E+00  0.1088183183495E+01  0.0000000000000E+00
 0.9216449832687E+00  0.1042480347127E+01  0.0000000000000E+00
 0.1048246391595E+01  0.9957805366789E+00  0.0000000000000E+00
 0.1173981216337E+01  0.9468055529829E+00  0.0000000000000E+00
 0.1540277150686E+01  0.7471961773831E+00  0.0000000000000E+00
 0.1756248888337E+01  0.5644442086587E+00  0.0000000000000E+00
 0.1925316867476E+01  0.3385059542402E+00  0.0000000000000E+00
 0.1998781287072E+01  0.6736447525390E-01  0.0000000000000E+00
 0.1991516502379E+01 -0.2156092849952E+00  0.0000000000000E+00
 0.1941975481197E+01 -0.4942606596555E+00  0.0000000000000E+00
 0.1854662117367E+01 -0.7635066405985E+00  0.0000000000000E+00
 0.1733164540072E+01 -0.1019175933786E+01  0.0000000000000E+00
 0.1579712636620E+01 -0.1257117726658E+01  0.0000000000000E+00
-0.1100000000000E+01 -0.4167858878309E+01  0.0000000000000E+00
-0.1100000000000E+01 -0.4031673085110E+01  0.0000000000000E+00
-0.1100000000000E+01 -0.3895487265942E+01  0.0000000000000E+00
-0.1100000000000E+01 -0.3759301447614E+01  0.0000000000000E+00
-0.1100000000000E+01 -0.3623115632099E+01  0.0000000000000E+00
-0.1100000000000E+01 -0.3486929673705E+01  0.0000000000000E+00
-0.1100000000000E+01 -0.3350743588902E+01  0.0000000000000E+00
-0.1100000000000E+01 -0.3214558196319E+01  0.0000000000000E+00
-0.1100000000000E+01 -0.3078372499853E+01  0.0000000000000E+00
-0.1100009219814E+01 -0.2942186831538E+01  0.0000000000000E+00
-0.1101425067002E+01 -0.2806011978909E+01  0.0000000000000E+00
-0.1107601577287E+01 -0.2669976600093E+01  0.0000000000000E+00
-0.1119747344921E+01 -0.2534345262128E+01  0.0000000000000E+00
-0.1137772499496E+01 -0.2399367495624E+01  0.0000000000000E+00
-0.1161564969771E+01 -0.2265287019052E+01  0.0000000000000E+00
-0.1191325563594E+01 -0.2132404467843E+01  0.0000000000000E+00
-0.1226713953463E+01 -0.2000906688008E+01  0.0000000000000E+00
-0.1267386994665E+01 -0.1870945985496E+01  0.0000000000000E+00
-0.1313508982080E+01 -0.1742820021577E+01  0.0000000000000E+00
-0.1365854654983E+01 -0.1617114507943E+01  0.0000000000000E+00
 0.1365854655064E+01 -0.1617114507984E+01  0.0000000000000E+00
 0.1313508982144E+01 -0.1742820021612E+01  0.0000000000000E+00
 0.1267386994709E+01 -0.1870945985522E+01  0.0000000000000E+00
 0.1226713953493E+01 -0.2000906688028E+01  0.0000000000000E+00
 0.1191325563615E+01 -0.2132404467860E+01  0.0000000000000E+00
 0.1161564969779E+01 -0.2265287019065E+01  0.0000000000000E+00
 0.1137772499496E+01 -0.2399367495636E+01  0.0000000000000E+00
 0.1119747344920E+01 -0.2534345262137E+01  0.0000000000000E+00
 0.1107601577287E+01 -0.2669976600103E+01  0.0000000000000E+00
 0.1101425067003E+01 -0.2806011978917E+01  0.0000000000000E+00
 0.1100009219814E+01 -0.2942186831546E+01  0.0000000000000E+00
 0.1100000000000E+01 -0.3078372499860E+01  0.0000000000000E+00
 0.1100000000000E+01 -0.3214558196326E+01  0.0000000000000E+00
 0.1100000000000E+01 -0.3350743588907E+01  0.0000000000000E+00
 0.1100000000000E+01 -0.3486929673709E+01  0.0000000000000E+00
 0.1100000000000E+01 -0.3623115632103E+01  0.0000000000000E+00
 0.1100000000000E+01 -0.3759301447617E+01  0.0000000000000E+00
 0.1100000000000E+01 -0.3895487265945E+01  0.0000000000000E+00
 0.1100000000000E+01 -0.4031673085112E+01  0.0000000000000E+00
 0.1100000000000E+01 -0.4167858878310E+01  0.0000000000000E+00
-0.6764636662017E+00  0.3637314849837E+00  0.0000000000000E+00
-0.6024837198702E+00  0.3806330875003E+00  0.0000000000000E+00
-0.5280996171512E+00  0.3956556459469E+00  0.0000000000000E+00
-0.4533537451325E+00  0.4087600740826E+00  0.0000000000000E+00
-0.3782916751723E+00  0.4199112310808E+00  0.0000000000000E+00
-0.3029616164712E+00  0.4290784607705E+00  0.0000000000000E+00
-0.2274141490083E+00  0.4362360171118E+00  0.0000000000000E+00
-0.1517018295911E+00  0.4413634482121E+00  0.0000000000000E+00
-0.7587874076696E-01  0.4444459110349E+00  0.0000000000000E+00
-0.3330669073875E-15  0.4454744042321E+00  0.0000000000000E+00
 0.7587874076696E-01  0.4444459110349E+00  0.0000000000000E+00
 0.1517018295911E+00  0.4413634482121E+00  0.0000000000000E+00
 0.2274141490083E+00  0.4362360171118E+00  0.0000000000000E+00
 0.3029616164712E+00  0.4290784607705E+00  0.0000000000000E+00
 0.3782916751723E+00  0.4199112310808E+00  0.0000000000000E+00
 0.4533537451325E+00  0.4087600740826E+00  0.0000000000000E+00
 0.5280996171512E+00  0.3956556459469E+00  0.0000000000000E+00
 0.6024837198702E+00  0.3806330875003E+00  0.0000000000000E+00
 0.6764636662017E+00  0.3637314849837E+00  0.0000000000000E+00
-0.7494610908407E+00  0.1752564208624E+00  0.0000000000000E+00
-0.7476230150202E+00  0.5528898378488E-02  0.0000000000000E+00
-0.7441028539882E+00 -0.1641717347835E+00  0.0000000000000E+00
-0.7386208425271E+00 -0.3338203224162E+00  0.0000000000000E+00
-0.7315845453817E+00 -0.5034122306519E+00  0.0000000000000E+00
-0.7245482478836E+00 -0.6730041388732E+00  0.0000000000000E+00
-0.7190662355151E+00 -0.8426527264768E+00  0.0000000000000E+00
-0.7155460732803E+00 -0.1012353359614E+01  0.0000000000000E+00
-0.7137079961342E+00 -0.1182080882084E+01  0.0000000000000E+00
 0.7494610908447E+00  0.1752564207090E+00  0.0000000000000E+00
 0.7476230150664E+00  0.5528898070996E-02  0.0000000000000E+00
 0.7441028541992E+00 -0.1641717352482E+00  0.0000000000000E+00
 0.7386208431973E+00 -0.3338203230495E+00  0.0000000000000E+00
 0.7315845470645E+00 -0.5034122314810E+00  0.0000000000000E+00
 0.7245482512846E+00 -0.6730041399270E+00  0.0000000000000E+00
 0.7190662411903E+00 -0.8426527277573E+00  0.0000000000000E+00
 0.7155460815261E+00 -0.1012353361101E+01  0.0000000000000E+00
 0.7137080070737E+00 -0.1182080883753E+01  0.0000000000000E+00
-0.8047471036855E+00  0.3997405616991E+00  0.0000000000000E+00
-0.8594942073710E+00  0.4544876663279E+00  0.0000000000000E+00
-0.9142413110566E+00  0.5092347709566E+00  0.0000000000000E+00
-0.9689884147421E+00  0.5639818755854E+00  0.0000000000000E+00
-0.1023735518428E+01  0.6187289802141E+00  0.0000000000000E+00
-0.1078482622113E+01  0.6734760848429E+00  0.0000000000000E+00
-0.1133229725799E+01  0.7282231894716E+00  0.0000000000000E+00
-0.1187976829484E+01  0.7829702941004E+00  0.0000000000000E+00
-0.1242723933170E+01  0.8377173987291E+00  0.0000000000000E+00
 0.8047471037588E+00  0.3997405616635E+00  0.0000000000000E+00
 0.8594942075177E+00  0.4544876662566E+00  0.0000000000000E+00
 0.9142413112766E+00  0.5092347708497E+00  0.0000000000000E+00
 0.9689884150354E+00  0.5639818754428E+00  0.0000000000000E+00
 0.1023735518794E+01  0.6187289800359E+00  0.0000000000000E+00
 0.1078482622553E+01  0.6734760846289E+00  0.0000000000000E+00
 0.1133229726312E+01  0.7282231892220E+00  0.0000000000000E+00
 0.1187976830071E+01  0.7829702938151E+00  0.0000000000000E+00
 0.1242723933830E+01  0.8377173984082E+00  0.0000000000000E+00
-0.1045046222997E+01 -0.4166982403859E+01  0.0000000000000E+00
-0.1045092446001E+01 -0.4029920136063E+01  0.0000000000000E+00
-0.1045138669014E+01 -0.3892857842130E+01  0.0000000000000E+00
-0.1045184892027E+01 -0.3755795549043E+01  0.0000000000000E+00
-0.1045231115039E+01 -0.3618733258786E+01  0.0000000000000E+00
-0.1045277338100E+01 -0.3481670824732E+01  0.0000000000000E+00
-0.1045323561203E+01 -0.3344608263454E+01  0.0000000000000E+00
-0.1045369784072E+01 -0.3207546398853E+01  0.0000000000000E+00
-0.1045416007044E+01 -0.3070484228411E+01  0.0000000000000E+00
-0.1045470986539E+01 -0.2933422086301E+01  0.0000000000000E+00
-0.1046861911460E+01 -0.2796370782116E+01  0.0000000000000E+00
-0.1052774281503E+01 -0.2659458994789E+01  0.0000000000000E+00
-0.1064355962771E+01 -0.2522951257624E+01  0.0000000000000E+00
-0.1081521601846E+01 -0.2387097079535E+01  0.0000000000000E+00
-0.1104164757923E+01 -0.2252140197233E+01  0.0000000000000E+00
-0.1132476148650E+01 -0.2118381244796E+01  0.0000000000000E+00
-0.1166132548346E+01 -0.1986007050998E+01  0.0000000000000E+00
-0.1204808054195E+01 -0.1855169932722E+01  0.0000000000000E+00
-0.1248658704703E+01 -0.1726167566747E+01  0.0000000000000E+00
-0.1298420308522E+01 -0.1599585687799E+01  0.0000000000000E+00
-0.9900818008859E+00 -0.4166147731587E+01  0.0000000000000E+00
-0.9901636017856E+00 -0.4028250791379E+01  0.0000000000000E+00
-0.9902454027008E+00 -0.3890353824875E+01  0.0000000000000E+00
-0.9903272036156E+00 -0.3752456859222E+01  0.0000000000000E+00
-0.9904090045286E+00 -0.3614559896416E+01  0.0000000000000E+00
-0.9904908055275E+00 -0.3476662788937E+01  0.0000000000000E+00
-0.9905726066023E+00 -0.3338765553460E+01  0.0000000000000E+00
-0.9906544072614E+00 -0.3200869018902E+01  0.0000000000000E+00
-0.9907362081029E+00 -0.3062972176641E+01  0.0000000000000E+00
-0.9908263021799E+00 -0.2925075362882E+01  0.0000000000000E+00
-0.9921816600285E+00 -0.2787189408229E+01  0.0000000000000E+00
-0.9978192456255E+00 -0.2649443011423E+01  0.0000000000000E+00
-0.1008826196536E+01 -0.2512100673648E+01  0.0000000000000E+00
-0.1025121676066E+01 -0.2375411883154E+01  0.0000000000000E+00
-0.1046604874068E+01 -0.2239620394023E+01  0.0000000000000E+00
-0.1073456417974E+01 -0.2105026839044E+01  0.0000000000000E+00
-0.1105370183713E+01 -0.1971818030576E+01  0.0000000000000E+00
-0.1142037510489E+01 -0.1840146295916E+01  0.0000000000000E+00
-0.1183606180628E+01 -0.1710309326612E+01  0.0000000000000E+00
-0.1230773072450E+01 -0.1582892879321E+01  0.0000000000000E+00
-0.9351071623717E+00 -0.4165355383137E+01  0.0000000000000E+00
-0.9352143247615E+00 -0.4026666094346E+01  0.0000000000000E+00
-0.9353214871716E+00 -0.3887976779108E+01  0.0000000000000E+00
-0.9354286495812E+00 -0.3749287464725E+01  0.0000000000000E+00
-0.9355358119885E+00 -0.3610598153207E+01  0.0000000000000E+00
-0.9356429745082E+00 -0.3471908696183E+01  0.0000000000000E+00
-0.9357501371274E+00 -0.3333219110427E+01  0.0000000000000E+00
-0.9358572992019E+00 -0.3194530229616E+01  0.0000000000000E+00
-0.9359644615155E+00 -0.3055841039335E+01  0.0000000000000E+00
-0.9360794537788E+00 -0.2917151877718E+01  0.0000000000000E+00
-0.9373890284398E+00 -0.2778473595312E+01  0.0000000000000E+00
-0.9427416140514E+00 -0.2639934909666E+01  0.0000000000000E+00
-0.9531636192662E+00 -0.2501800291468E+01  0.0000000000000E+00
-0.9685787238578E+00 -0.2364319209355E+01  0.0000000000000E+00
-0.9888917485491E+00 -0.2227735433899E+01  0.0000000000000E+00
-0.1014273230545E+01 -0.2092349596663E+01  0.0000000000000E+00
-0.1044434147173E+01 -0.1958348494428E+01  0.0000000000000E+00
-0.1079083079785E+01 -0.1825884464371E+01  0.0000000000000E+00
-0.1118359554707E+01 -0.1695255212063E+01  0.0000000000000E+00
-0.1162921520209E+01 -0.1567046514983E+01  0.0000000000000E+00
-0.8801227524380E+00 -0.4164605861986E+01  0.0000000000000E+00
-0.8802455048967E+00 -0.4025167051918E+01  0.0000000000000E+00
-0.8803682573788E+00 -0.3885728215260E+01  0.0000000000000E+00
-0.8804910098601E+00 -0.3746289379463E+01  0.0000000000000E+00
-0.8806137623389E+00 -0.3606850546545E+01  0.0000000000000E+00
-0.8807365149465E+00 -0.3467411567335E+01  0.0000000000000E+00
-0.8808592676680E+00 -0.3327972458697E+01  0.0000000000000E+00
-0.8809820197656E+00 -0.3188534058815E+01  0.0000000000000E+00
-0.8811047721371E+00 -0.3049095347789E+01  0.0000000000000E+00
-0.8812348911742E+00 -0.2909656665581E+01  0.0000000000000E+00
-0.8824889114589E+00 -0.2770228881603E+01  0.0000000000000E+00
-0.8875467262934E+00 -0.2630940731194E+01  0.0000000000000E+00
-0.8973740150205E+00 -0.2492056656196E+01  0.0000000000000E+00
-0.9118989736425E+00 -0.2353826106691E+01  0.0000000000000E+00
-0.9310320539568E+00 -0.2216492868851E+01  0.0000000000000E+00
-0.9549337029221E+00 -0.2080357573080E+01  0.0000000000000E+00
-0.9833319990803E+00 -0.1945607001420E+01  0.0000000000000E+00
-0.1015952766056E+01 -0.1812393500398E+01  0.0000000000000E+00
-0.1052927274348E+01 -0.1681014788849E+01  0.0000000000000E+00
-0.1094874542418E+01 -0.1552056663945E+01  0.0000000000000E+00
-0.8251290423813E+00 -0.4163899654558E+01  0.0000000000000E+00
-0.8252580847842E+00 -0.4023754636942E+01  0.0000000000000E+00
-0.8253871272118E+00 -0.3883609592602E+01  0.0000000000000E+00
-0.8255161696385E+00 -0.3743464549126E+01  0.0000000000000E+00
-0.8256452120626E+00 -0.3603319508545E+01  0.0000000000000E+00
-0.8257742546221E+00 -0.3463174320931E+01  0.0000000000000E+00
-0.8259032973014E+00 -0.3323029003233E+01  0.0000000000000E+00
-0.8260323393247E+00 -0.3182884397881E+01  0.0000000000000E+00
-0.8261613816360E+00 -0.3042739479809E+01  0.0000000000000E+00
-0.8262973273311E+00 -0.2902594590699E+01  0.0000000000000E+00
-0.8274864933868E+00 -0.2762460617739E+01  0.0000000000000E+00
-0.8322402381418E+00 -0.2622466313031E+01  0.0000000000000E+00
-0.8414635112943E+00 -0.2482876091236E+01  0.0000000000000E+00
-0.8550890248433E+00 -0.2343939384954E+01  0.0000000000000E+00
-0.8730328618520E+00 -0.2205899995056E+01  0.0000000000000E+00
-0.8954453790228E+00 -0.2069058550854E+01  0.0000000000000E+00
-0.9220717559223E+00 -0.1933601820502E+01  0.0000000000000E+00
-0.9526550585576E+00 -0.1799682159337E+01  0.0000000000000E+00
-0.9873183017666E+00 -0.1667597298689E+01  0.0000000000000E+00
-0.1026641574463E+01 -0.1537933054292E+01  0.0000000000000E+00
-0.7701265160660E+00 -0.4163237225252E+01  0.0000000000000E+00
-0.7702530321532E+00 -0.4022429778218E+01  0.0000000000000E+00
-0.7703795482645E+00 -0.3881622304334E+01  0.0000000000000E+00
-0.7705060643751E+00 -0.3740814831319E+01  0.0000000000000E+00
-0.7706325804831E+00 -0.3600007361211E+01  0.0000000000000E+00
-0.7707590967238E+00 -0.3459199743377E+01  0.0000000000000E+00
-0.7708856130819E+00 -0.3318391994843E+01  0.0000000000000E+00
-0.7710121287970E+00 -0.3177584962021E+01  0.0000000000000E+00
-0.7711386447943E+00 -0.3036777615003E+01  0.0000000000000E+00
-0.7712716008954E+00 -0.2895970297081E+01  0.0000000000000E+00
-0.7723870966897E+00 -0.2755173912119E+01  0.0000000000000E+00
-0.7768279557508E+00 -0.2614517227940E+01  0.0000000000000E+00
-0.7854383977895E+00 -0.2474264633712E+01  0.0000000000000E+00
-0.7981556505838E+00 -0.2334665545637E+01  0.0000000000000E+00
-0.8149014286464E+00 -0.2195963778370E+01  0.0000000000000E+00
-0.8358159984089E+00 -0.2058459960202E+01  0.0000000000000E+00
-0.8606616402904E+00 -0.1922340846260E+01  0.0000000000000E+00
-0.8891986627916E+00 -0.1787758800143E+01  0.0000000000000E+00
-0.9215418252451E+00 -0.1655011564905E+01  0.0000000000000E+00
-0.9582322872467E+00 -0.1524684973684E+01  0.0000000000000E+00
-0.7151156779294E+00 -0.4162619017118E+01  0.0000000000000E+00
-0.7152313558782E+00 -0.4021193361848E+01  0.0000000000000E+00
-0.7153470338491E+00 -0.3879767679609E+01  0.0000000000000E+00
-0.7154627118192E+00 -0.3738341998242E+01  0.0000000000000E+00
-0.7155783897870E+00 -0.3596916319797E+01  0.0000000000000E+00
-0.7156940678761E+00 -0.3455490492975E+01  0.0000000000000E+00
-0.7158097460726E+00 -0.3314064534880E+01  0.0000000000000E+00
-0.7159254236812E+00 -0.3172639295640E+01  0.0000000000000E+00
-0.7160411015478E+00 -0.3031213740824E+01  0.0000000000000E+00
-0.7161627562398E+00 -0.2889788215231E+01  0.0000000000000E+00
-0.7171962701658E+00 -0.2748373638284E+01  0.0000000000000E+00
-0.7213159323257E+00 -0.2607098792480E+01  0.0000000000000E+00
-0.7293052321208E+00 -0.2466228043196E+01  0.0000000000000E+00
-0.7411059129022E+00 -0.2326010791328E+01  0.0000000000000E+00
-0.7566453208056E+00 -0.2186690864400E+01  0.0000000000000E+00
-0.7760536319784E+00 -0.2048568889744E+01  0.0000000000000E+00
-0.7991102275296E+00 -0.1911831610333E+01  0.0000000000000E+00
-0.8255926585574E+00 -0.1776631397476E+01  0.0000000000000E+00
-0.8556074290363E+00 -0.1643266005168E+01  0.0000000000000E+00
-0.8896567694607E+00 -0.1512321282791E+01  0.0000000000000E+00
-0.6600970509584E+00 -0.4162045449923E+01  0.0000000000000E+00
-0.6601941019331E+00 -0.4020046227361E+01  0.0000000000000E+00
-0.6602911529263E+00 -0.3878046977720E+01  0.0000000000000E+00
-0.6603882039189E+00 -0.3736047728956E+01  0.0000000000000E+00
-0.6604852549095E+00 -0.3594048483124E+01  0.0000000000000E+00
-0.6605823060019E+00 -0.3452049088315E+01  0.0000000000000E+00
-0.6606793571844E+00 -0.3310049561700E+01  0.0000000000000E+00
-0.6607764078736E+00 -0.3168050756855E+01  0.0000000000000E+00
-0.6608734587794E+00 -0.3026051635154E+01  0.0000000000000E+00
-0.6609760232337E+00 -0.2884052542794E+01  0.0000000000000E+00
-0.6619197666746E+00 -0.2742064413634E+01  0.0000000000000E+00
-0.6657104437464E+00 -0.2600216043785E+01  0.0000000000000E+00
-0.6730708132532E+00 -0.2458771776549E+01  0.0000000000000E+00
-0.6839471339256E+00 -0.2317980998624E+01  0.0000000000000E+00
-0.6982723836829E+00 -0.2178087549471E+01  0.0000000000000E+00
-0.7161666483788E+00 -0.2039392055537E+01  0.0000000000000E+00
-0.7374264096551E+00 -0.1902081248514E+01  0.0000000000000E+00
-0.7618464613018E+00 -0.1766307506865E+01  0.0000000000000E+00
-0.7895250520744E+00 -0.1632368594737E+01  0.0000000000000E+00
-0.8209254835783E+00 -0.1500850376583E+01  0.0000000000000E+00
-0.6050711730871E+00 -0.4161516918125E+01  0.0000000000000E+00
-0.6051423461862E+00 -0.4018989163676E+01  0.0000000000000E+00
-0.6052135192989E+00 -0.3876461382048E+01  0.0000000000000E+00
-0.6052846924112E+00 -0.3733933601299E+01  0.0000000000000E+00
-0.6053558655219E+00 -0.3591405823494E+01  0.0000000000000E+00
-0.6054270387074E+00 -0.3448877896157E+01  0.0000000000000E+00
-0.6054982119589E+00 -0.3306349836524E+01  0.0000000000000E+00
-0.6055693848486E+00 -0.3163822501347E+01  0.0000000000000E+00
-0.6056405578972E+00 -0.3021294848134E+01  0.0000000000000E+00
-0.6057167812191E+00 -0.2878767224371E+01  0.0000000000000E+00
-0.6065635034711E+00 -0.2736250577219E+01  0.0000000000000E+00
-0.6100179451307E+00 -0.2593873715334E+01  0.0000000000000E+00
-0.6167421341316E+00 -0.2451900961678E+01  0.0000000000000E+00
-0.6266868444039E+00 -0.2310581689864E+01  0.0000000000000E+00
-0.6397906858014E+00 -0.2170159750353E+01  0.0000000000000E+00
-0.6561636538731E+00 -0.2030935768775E+01  0.0000000000000E+00
-0.6756193306500E+00 -0.1893096466429E+01  0.0000000000000E+00
-0.6979697527023E+00 -0.1756794228372E+01  0.0000000000000E+00
-0.7233049136956E+00 -0.1622326828101E+01  0.0000000000000E+00
-0.7520491865408E+00 -0.1490280143960E+01  0.0000000000000E+00
-0.5500385982869E+00 -0.4161033789916E+01  0.0000000000000E+00
-0.5500771965804E+00 -0.4018022907176E+01  0.0000000000000E+00
-0.5501157948812E+00 -0.3875011997166E+01  0.0000000000000E+00
-0.5501543931817E+00 -0.3732001088037E+01  0.0000000000000E+00
-0.5501929914815E+00 -0.3588990181862E+01  0.0000000000000E+00
-0.5502315898217E+00 -0.3445979125648E+01  0.0000000000000E+00
-0.5502701881978E+00 -0.3302967936690E+01  0.0000000000000E+00
-0.5503087863777E+00 -0.3159957474644E+01  0.0000000000000E+00
-0.5503473846437E+00 -0.3016946693484E+01  0.0000000000000E+00
-0.5503905699093E+00 -0.2873935941872E+01  0.0000000000000E+00
-0.5511335742212E+00 -0.2730936179131E+01  0.0000000000000E+00
-0.5542450840560E+00 -0.2588076225384E+01  0.0000000000000E+00
-0.5603263962216E+00 -0.2445620384998E+01  0.0000000000000E+00
-0.5693327996820E+00 -0.2303818019626E+01  0.0000000000000E+00
-0.5812085363640E+00 -0.2162912989786E+01  0.0000000000000E+00
-0.5960535115026E+00 -0.2023205920360E+01  0.0000000000000E+00
-0.6136984073852E+00 -0.1884883523146E+01  0.0000000000000E+00
-0.6339725034451E+00 -0.1748098189228E+01  0.0000000000000E+00
-0.6569575383771E+00 -0.1613147700654E+01  0.0000000000000E+00
-0.6830389565749E+00 -0.1480617948461E+01  0.0000000000000E+00
-0.4950519026787E+00 -0.4160603604494E+01  0.0000000000000E+00
-0.4951038053660E+00 -0.4017162536260E+01  0.0000000000000E+00
-0.4951557080633E+00 -0.3873721440673E+01  0.0000000000000E+00
-0.4952076107603E+00 -0.3730280345971E+01  0.0000000000000E+00
-0.4952595134562E+00 -0.3586839254232E+01  0.0000000000000E+00
-0.4953114162065E+00 -0.3443398012002E+01  0.0000000000000E+00
-0.4953633190051E+00 -0.3299956636628E+01  0.0000000000000E+00
-0.4954152215398E+00 -0.3156515990354E+01  0.0000000000000E+00
-0.4954671241903E+00 -0.3013075024005E+01  0.0000000000000E+00
-0.4955231551368E+00 -0.2869634087292E+01  0.0000000000000E+00
-0.4962090227682E+00 -0.2726204150367E+01  0.0000000000000E+00
-0.4990265444554E+00 -0.2582914043561E+01  0.0000000000000E+00
-0.5045168879682E+00 -0.2440028054687E+01  0.0000000000000E+00
-0.5126398137999E+00 -0.2297795534748E+01  0.0000000000000E+00
-0.5233451393291E+00 -0.2156460353215E+01  0.0000000000000E+00
-0.5367227792908E+00 -0.2016323134305E+01  0.0000000000000E+00
-0.5526203480869E+00 -0.1877570581358E+01  0.0000000000000E+00
-0.5708841969978E+00 -0.1740355090822E+01  0.0000000000000E+00
-0.5915878905426E+00 -0.1604974452359E+01  0.0000000000000E+00
-0.6150783282135E+00 -0.1472014568309E+01  0.0000000000000E+00
-0.4400598448564E+00 -0.4160217885556E+01  0.0000000000000E+00
-0.4401196897229E+00 -0.4016391098319E+01  0.0000000000000E+00
-0.4401795346009E+00 -0.3872564283656E+01  0.0000000000000E+00
-0.4402393794784E+00 -0.3728737469879E+01  0.0000000000000E+00
-0.4402992243547E+00 -0.3584910659074E+01  0.0000000000000E+00
-0.4403590692938E+00 -0.3441083697373E+01  0.0000000000000E+00
-0.4404189142884E+00 -0.3297256602171E+01  0.0000000000000E+00
-0.4404787589789E+00 -0.3153430238028E+01  0.0000000000000E+00
-0.4405386038029E+00 -0.3009603552950E+01  0.0000000000000E+00
-0.4406021182205E+00 -0.2865776897587E+01  0.0000000000000E+00
-0.4412254871236E+00 -0.2721961251799E+01  0.0000000000000E+00
-0.4437436589671E+00 -0.2578285455073E+01  0.0000000000000E+00
-0.4486376722979E+00 -0.2435013780377E+01  0.0000000000000E+00
-0.4558717590049E+00 -0.2292395569166E+01  0.0000000000000E+00
-0.4654013120275E+00 -0.2150674698937E+01  0.0000000000000E+00
-0.4773062555965E+00 -0.2010151793313E+01  0.0000000000000E+00
-0.4914511361163E+00 -0.1871013548046E+01  0.0000000000000E+00
-0.5076993767752E+00 -0.1733412364399E+01  0.0000000000000E+00
-0.5261163680144E+00 -0.1597646038857E+01  0.0000000000000E+00
-0.5470104645797E+00 -0.1464300483898E+01  0.0000000000000E+00
-0.3850629864597E+00 -0.4159876900567E+01  0.0000000000000E+00
-0.3851259729300E+00 -0.4015709128284E+01  0.0000000000000E+00
-0.3851889594123E+00 -0.3871541328509E+01  0.0000000000000E+00
-0.3852519458942E+00 -0.3727373529624E+01  0.0000000000000E+00
-0.3853149323749E+00 -0.3583205733716E+01  0.0000000000000E+00
-0.3853779189216E+00 -0.3439037786555E+01  0.0000000000000E+00
-0.3854409055267E+00 -0.3294869705576E+01  0.0000000000000E+00
-0.3855038918118E+00 -0.3150702357390E+01  0.0000000000000E+00
-0.3855668782373E+00 -0.3006534687509E+01  0.0000000000000E+00
-0.3856330755550E+00 -0.2862367047411E+01  0.0000000000000E+00
-0.3861891452633E+00 -0.2718210425541E+01  0.0000000000000E+00
-0.3884031669730E+00 -0.2574193669479E+01  0.0000000000000E+00
-0.3926960498090E+00 -0.2430581039070E+01  0.0000000000000E+00
-0.3990364969378E+00 -0.2287621867327E+01  0.0000000000000E+00
-0.4073854769611E+00 -0.2145560038844E+01  0.0000000000000E+00
-0.4178129235952E+00 -0.2004696176717E+01  0.0000000000000E+00
-0.4302003151572E+00 -0.1865216969994E+01  0.0000000000000E+00
-0.4444281468073E+00 -0.1727274824189E+01  0.0000000000000E+00
-0.4605536349915E+00 -0.1591167541823E+01  0.0000000000000E+00
-0.4788465898261E+00 -0.1457481044333E+01  0.0000000000000E+00
-0.3300619056673E+00 -0.4159580888679E+01  0.0000000000000E+00
-0.3301238113451E+00 -0.4015117104458E+01  0.0000000000000E+00
-0.3301857170347E+00 -0.3870653292689E+01  0.0000000000000E+00
-0.3302476227239E+00 -0.3726189481811E+01  0.0000000000000E+00
-0.3303095284118E+00 -0.3581725673917E+01  0.0000000000000E+00
-0.3303714341646E+00 -0.3437261714459E+01  0.0000000000000E+00
-0.3304333399749E+00 -0.3292797620909E+01  0.0000000000000E+00
-0.3304952454706E+00 -0.3148334261655E+01  0.0000000000000E+00
-0.3305571511044E+00 -0.3003870580046E+01  0.0000000000000E+00
-0.3306218089298E+00 -0.2859406928281E+01  0.0000000000000E+00
-0.3311063571750E+00 -0.2714954302256E+01  0.0000000000000E+00
-0.3330120067481E+00 -0.2570641556575E+01  0.0000000000000E+00
-0.3366995372036E+00 -0.2426732939691E+01  0.0000000000000E+00
-0.3421421228802E+00 -0.2283477777292E+01  0.0000000000000E+00
-0.3493063081284E+00 -0.2141119960130E+01  0.0000000000000E+00
-0.3582520361460E+00 -0.1999960110844E+01  0.0000000000000E+00
-0.3688777170754E+00 -0.1860184912661E+01  0.0000000000000E+00
-0.3810809180974E+00 -0.1721946774789E+01  0.0000000000000E+00
-0.3949106817397E+00 -0.1585543504984E+01  0.0000000000000E+00
-0.4105982736091E+00 -0.1451561032464E+01  0.0000000000000E+00
-0.2750571858516E+00 -0.4159330058600E+01  0.0000000000000E+00
-0.2751143717129E+00 -0.4014615444259E+01  0.0000000000000E+00
-0.2751715575851E+00 -0.3869900802322E+01  0.0000000000000E+00
-0.2752287434569E+00 -0.3725186161277E+01  0.0000000000000E+00
-0.2752859293275E+00 -0.3580471523221E+01  0.0000000000000E+00
-0.2753431152582E+00 -0.3435756733339E+01  0.0000000000000E+00
-0.2754003012419E+00 -0.3291041809131E+01  0.0000000000000E+00
-0.2754574869349E+00 -0.3146327620495E+01  0.0000000000000E+00
-0.2755146727556E+00 -0.3001613108943E+01  0.0000000000000E+00
-0.2755741520680E+00 -0.2856898627288E+01  0.0000000000000E+00
-0.2759835399151E+00 -0.2712195177736E+01  0.0000000000000E+00
-0.2775771785720E+00 -0.2567631620847E+01  0.0000000000000E+00
-0.2806557178774E+00 -0.2423472195421E+01  0.0000000000000E+00
-0.2851968032522E+00 -0.2279966220933E+01  0.0000000000000E+00
-0.2911725548721E+00 -0.2137357593360E+01  0.0000000000000E+00
-0.2986329254098E+00 -0.1995946934950E+01  0.0000000000000E+00
-0.3074932567632E+00 -0.1855920924000E+01  0.0000000000000E+00
-0.3176681881805E+00 -0.1717431972844E+01  0.0000000000000E+00
-0.3291985883348E+00 -0.1580777893680E+01  0.0000000000000E+00
-0.3422771784154E+00 -0.1446544622314E+01  0.0000000000000E+00
-0.2200494213304E+00 -0.4159124588568E+01  0.0000000000000E+00
-0.2200988426691E+00 -0.4014204504160E+01  0.0000000000000E+00
-0.2201482640172E+00 -0.3869284392117E+01  0.0000000000000E+00
-0.2201976853651E+00 -0.3724364280968E+01  0.0000000000000E+00
-0.2202471067119E+00 -0.3579444172811E+01  0.0000000000000E+00
-0.2202965281105E+00 -0.3434523912613E+01  0.0000000000000E+00
-0.2203459495550E+00 -0.3289603517898E+01  0.0000000000000E+00
-0.2203953707484E+00 -0.3144683859800E+01  0.0000000000000E+00
-0.2204447920520E+00 -0.2999763878328E+01  0.0000000000000E+00
-0.2204960481482E+00 -0.2854843926793E+01  0.0000000000000E+00
-0.2208272309758E+00 -0.2709935012576E+01  0.0000000000000E+00
-0.2221058142604E+00 -0.2565166001113E+01  0.0000000000000E+00
-0.2245723180114E+00 -0.2420801123295E+01  0.0000000000000E+00
-0.2282088586565E+00 -0.2277089693513E+01  0.0000000000000E+00
-0.2329931322596E+00 -0.2134275612017E+01  0.0000000000000E+00
-0.2389651009641E+00 -0.1992659500741E+01  0.0000000000000E+00
-0.2460570383625E+00 -0.1852428033938E+01  0.0000000000000E+00
-0.2542006558072E+00 -0.1713733626508E+01  0.0000000000000E+00
-0.2634286481713E+00 -0.1576874094283E+01  0.0000000000000E+00
-0.2738951923088E+00 -0.1442435378469E+01  0.0000000000000E+00
-0.1650392126324E+00 -0.4158964625296E+01  0.0000000000000E+00
-0.1650784252713E+00 -0.4013884577590E+01  0.0000000000000E+00
-0.1651176379177E+00 -0.3868804502217E+01  0.0000000000000E+00
-0.1651568505639E+00 -0.3723724427740E+01  0.0000000000000E+00
-0.1651960632093E+00 -0.3578644356259E+01  0.0000000000000E+00
-0.1652352758958E+00 -0.3433564132568E+01  0.0000000000000E+00
-0.1652744886187E+00 -0.3288483774212E+01  0.0000000000000E+00
-0.1653137011423E+00 -0.3143404153285E+01  0.0000000000000E+00
-0.1653529137534E+00 -0.2998324208628E+01  0.0000000000000E+00
-0.1653935024586E+00 -0.2853244293941E+01  0.0000000000000E+00
-0.1656440361591E+00 -0.2708175420631E+01  0.0000000000000E+00
-0.1666051201020E+00 -0.2563246457930E+01  0.0000000000000E+00
-0.1684571443782E+00 -0.2418721630574E+01  0.0000000000000E+00
-0.1711866963610E+00 -0.2274850248994E+01  0.0000000000000E+00
-0.1747770480530E+00 -0.2131876216768E+01  0.0000000000000E+00
-0.1792581710655E+00 -0.1990100155583E+01  0.0000000000000E+00
-0.1845792706359E+00 -0.1849708736549E+01  0.0000000000000E+00
-0.1906891302505E+00 -0.1710854376557E+01  0.0000000000000E+00
-0.1976122710256E+00 -0.1573834894273E+01  0.0000000000000E+00
-0.2054643255476E+00 -0.1439236235106E+01  0.0000000000000E+00
-0.1100271650341E+00 -0.4158850283464E+01  0.0000000000000E+00
-0.1100543300728E+00 -0.4013655893906E+01  0.0000000000000E+00
-0.1100814951167E+00 -0.3868461476660E+01  0.0000000000000E+00
-0.1101086601604E+00 -0.3723267060310E+01  0.0000000000000E+00
-0.1101358252036E+00 -0.3578072646959E+01  0.0000000000000E+00
-0.1101629902752E+00 -0.3432878081278E+01  0.0000000000000E+00
-0.1101901553721E+00 -0.3287683380826E+01  0.0000000000000E+00
-0.1102173203309E+00 -0.3142489418384E+01  0.0000000000000E+00
-0.1102444853503E+00 -0.2997295131957E+01  0.0000000000000E+00
-0.1102725677655E+00 -0.2852100875523E+01  0.0000000000000E+00
-0.1104406134806E+00 -0.2706917663368E+01  0.0000000000000E+00
-0.1110823592933E+00 -0.2561874367437E+01  0.0000000000000E+00
-0.1123180652995E+00 -0.2417235208066E+01  0.0000000000000E+00
-0.1141387897736E+00 -0.2273249492854E+01  0.0000000000000E+00
-0.1165333806953E+00 -0.2130161127761E+01  0.0000000000000E+00
-0.1195218191400E+00 -0.1988270734297E+01  0.0000000000000E+00
-0.1230702419557E+00 -0.1847764981321E+01  0.0000000000000E+00
-0.1271445047865E+00 -0.1708796287153E+01  0.0000000000000E+00
-0.1317609550242E+00 -0.1571662472481E+01  0.0000000000000E+00
-0.1369966810324E+00 -0.1436949485720E+01  0.0000000000000E+00
-0.5501388973120E-01 -0.4158781645376E+01  0.0000000000000E+00
-0.5502777946474E-01 -0.4013518617717E+01  0.0000000000000E+00
-0.5504166920092E-01 -0.3868255562359E+01  0.0000000000000E+00
-0.5505555893702E-01 -0.3722992507896E+01  0.0000000000000E+00
-0.5506944867283E-01 -0.3577729456434E+01  0.0000000000000E+00
-0.5508333842322E-01 -0.3432466252569E+01  0.0000000000000E+00
-0.5509722818649E-01 -0.3287202913870E+01  0.0000000000000E+00
-0.5511111787917E-01 -0.3141940313530E+01  0.0000000000000E+00
-0.5512500760284E-01 -0.2996677389052E+01  0.0000000000000E+00
-0.5513935602430E-01 -0.2851414494581E+01  0.0000000000000E+00
-0.5522368608569E-01 -0.2706162646130E+01  0.0000000000000E+00
-0.5554486617438E-01 -0.2561050717274E+01  0.0000000000000E+00
-0.5616302634812E-01 -0.2416342925707E+01  0.0000000000000E+00
-0.5707369575115E-01 -0.2272288577330E+01  0.0000000000000E+00
-0.5827129836579E-01 -0.2129131579530E+01  0.0000000000000E+00
-0.5976582473046E-01 -0.1987172553712E+01  0.0000000000000E+00
-0.6154034327819E-01 -0.1846598167384E+01  0.0000000000000E+00
-0.6357778182533E-01 -0.1707560839724E+01  0.0000000000000E+00
-0.6588631406154E-01 -0.1570358392634E+01  0.0000000000000E+00
-0.6850448416199E-01 -0.1435576776330E+01  0.0000000000000E+00
 0.2862823369523E-09 -0.4158758760510E+01  0.0000000000000E+00
 0.5725642989217E-09 -0.4013472847981E+01  0.0000000000000E+00
 0.8588466427077E-09 -0.3868186907748E+01  0.0000000000000E+00
 0.1145129137124E-08 -0.3722900968411E+01  0.0000000000000E+00
 0.1431411291690E-08 -0.3577615032075E+01  0.0000000000000E+00
 0.1717693957354E-08 -0.3432328943313E+01  0.0000000000000E+00
 0.2003976567042E-08 -0.3287042719694E+01  0.0000000000000E+00
 0.2290258229023E-08 -0.3141757234552E+01  0.0000000000000E+00
 0.2576540540582E-08 -0.2996471425219E+01  0.0000000000000E+00
 0.2862908882798E-08 -0.2851185645899E+01  0.0000000000000E+00
 0.3153507500703E-08 -0.2705910913180E+01  0.0000000000000E+00
 0.3456098328546E-08 -0.2560776101180E+01  0.0000000000000E+00
 0.3774700689739E-08 -0.2416045426712E+01  0.0000000000000E+00
 0.4110245087960E-08 -0.2271968195110E+01  0.0000000000000E+00
 0.4465088130623E-08 -0.2128788314238E+01  0.0000000000000E+00
 0.4838883325138E-08 -0.1986806405465E+01  0.0000000000000E+00
 0.5225485939100E-08 -0.1846209135851E+01  0.0000000000000E+00
 0.5628719591881E-08 -0.1707148924857E+01  0.0000000000000E+00
 0.6050320966622E-08 -0.1569923594790E+01  0.0000000000000E+00
 0.6487104863030E-08 -0.1435119096470E+01  0.0000000000000E+00
 0.5501389030371E-01 -0.4158781645385E+01  0.0000000000000E+00
 0.5502778060975E-01 -0.4013518617735E+01  0.0000000000000E+00
 0.5504167091844E-01 -0.3868255562385E+01  0.0000000000000E+00
 0.5505556122704E-01 -0.3722992507932E+01  0.0000000000000E+00
 0.5506945153536E-01 -0.3577729456478E+01  0.0000000000000E+00
 0.5508334185825E-01 -0.3432466252622E+01  0.0000000000000E+00
 0.5509723219403E-01 -0.3287202913932E+01  0.0000000000000E+00
 0.5511112245921E-01 -0.3141940313601E+01  0.0000000000000E+00
 0.5512501275539E-01 -0.2996677389131E+01  0.0000000000000E+00
 0.5513936174952E-01 -0.2851414494669E+01  0.0000000000000E+00
 0.5522369239205E-01 -0.2706162646227E+01  0.0000000000000E+00
 0.5554487308587E-01 -0.2561050717381E+01  0.0000000000000E+00
 0.5616303389675E-01 -0.2416342925823E+01  0.0000000000000E+00
 0.5707370397081E-01 -0.2272288577454E+01  0.0000000000000E+00
 0.5827130729508E-01 -0.2129131579663E+01  0.0000000000000E+00
 0.5976583440727E-01 -0.1987172553854E+01  0.0000000000000E+00
 0.6154035372815E-01 -0.1846598167536E+01  0.0000000000000E+00
 0.6357779308170E-01 -0.1707560839884E+01  0.0000000000000E+00
 0.6588632616105E-01 -0.1570358392803E+01  0.0000000000000E+00
 0.6850449713501E-01 -0.1435576776509E+01  0.0000000000000E+00
 0.1100271656065E+00 -0.4158850283482E+01  0.0000000000000E+00
 0.1100543312175E+00 -0.4013655893941E+01  0.0000000000000E+00
 0.1100814968337E+00 -0.3868461476714E+01  0.0000000000000E+00
 0.1101086624497E+00 -0.3723267060381E+01  0.0000000000000E+00
 0.1101358280652E+00 -0.3578072647048E+01  0.0000000000000E+00
 0.1101629937092E+00 -0.3432878081384E+01  0.0000000000000E+00
 0.1101901593784E+00 -0.3287683380950E+01  0.0000000000000E+00
 0.1102173249095E+00 -0.3142489418526E+01  0.0000000000000E+00
 0.1102444905012E+00 -0.2997295132116E+01  0.0000000000000E+00
 0.1102725734889E+00 -0.2852100875700E+01  0.0000000000000E+00
 0.1104406197850E+00 -0.2706917663563E+01  0.0000000000000E+00
 0.1110823662026E+00 -0.2561874367650E+01  0.0000000000000E+00
 0.1123180728459E+00 -0.2417235208296E+01  0.0000000000000E+00
 0.1141387979908E+00 -0.2273249493102E+01  0.0000000000000E+00
 0.1165333896219E+00 -0.2130161128027E+01  0.0000000000000E+00
 0.1195218288140E+00 -0.1988270734580E+01  0.0000000000000E+00
 0.1230702524027E+00 -0.1847764981623E+01  0.0000000000000E+00
 0.1271445160396E+00 -0.1708796287473E+01  0.0000000000000E+00
 0.1317609671203E+00 -0.1571662472820E+01  0.0000000000000E+00
 0.1369966940019E+00 -0.1436949486077E+01  0.0000000000000E+00
 0.1650392132044E+00 -0.4158964625323E+01  0.0000000000000E+00
 0.1650784264154E+00 -0.4013884577643E+01  0.0000000000000E+00
 0.1651176396338E+00 -0.3868804502297E+01  0.0000000000000E+00
 0.1651568528521E+00 -0.3723724427846E+01  0.0000000000000E+00
 0.1651960660695E+00 -0.3578644356392E+01  0.0000000000000E+00
 0.1652352793280E+00 -0.3433564132727E+01  0.0000000000000E+00
 0.1652744926230E+00 -0.3288483774398E+01  0.0000000000000E+00
 0.1653137057186E+00 -0.3143404153498E+01  0.0000000000000E+00
 0.1653529189017E+00 -0.2998324208867E+01  0.0000000000000E+00
 0.1653935081791E+00 -0.2853244294207E+01  0.0000000000000E+00
 0.1656440424602E+00 -0.2708175420923E+01  0.0000000000000E+00
 0.1666051270078E+00 -0.2563246458249E+01  0.0000000000000E+00
 0.1684571519207E+00 -0.2418721630920E+01  0.0000000000000E+00
 0.1711867045741E+00 -0.2274850249366E+01  0.0000000000000E+00
 0.1747770569752E+00 -0.2131876217167E+01  0.0000000000000E+00
 0.1792581807348E+00 -0.1990100156009E+01  0.0000000000000E+00
 0.1845792810779E+00 -0.1849708737001E+01  0.0000000000000E+00
 0.1906891414983E+00 -0.1710854377037E+01  0.0000000000000E+00
 0.1976122831161E+00 -0.1573834894781E+01  0.0000000000000E+00
 0.2054643385111E+00 -0.1439236235641E+01  0.0000000000000E+00
 0.2200494219020E+00 -0.4159124588604E+01  0.0000000000000E+00
 0.2200988438123E+00 -0.4014204504231E+01  0.0000000000000E+00
 0.2201482657321E+00 -0.3869284392223E+01  0.0000000000000E+00
 0.2201976876515E+00 -0.3724364281109E+01  0.0000000000000E+00
 0.2202471095699E+00 -0.3579444172988E+01  0.0000000000000E+00
 0.2202965315402E+00 -0.3434523912825E+01  0.0000000000000E+00
 0.2203459535564E+00 -0.3289603518146E+01  0.0000000000000E+00
 0.2203953753213E+00 -0.3144683860083E+01  0.0000000000000E+00
 0.2204447971965E+00 -0.2999763878646E+01  0.0000000000000E+00
 0.2204960538646E+00 -0.2854843927147E+01  0.0000000000000E+00
 0.2208272372724E+00 -0.2709935012966E+01  0.0000000000000E+00
 0.2221058211612E+00 -0.2565166001538E+01  0.0000000000000E+00
 0.2245723255485E+00 -0.2420801123755E+01  0.0000000000000E+00
 0.2282088668637E+00 -0.2277089694009E+01  0.0000000000000E+00
 0.2329931411755E+00 -0.2134275612548E+01  0.0000000000000E+00
 0.2389651106267E+00 -0.1992659501308E+01  0.0000000000000E+00
 0.2460570487974E+00 -0.1852428034541E+01  0.0000000000000E+00
 0.2542006670476E+00 -0.1713733627147E+01  0.0000000000000E+00
 0.2634286602540E+00 -0.1576874094959E+01  0.0000000000000E+00
 0.2738952052641E+00 -0.1442435379182E+01  0.0000000000000E+00
 0.2750571864227E+00 -0.4159330058645E+01  0.0000000000000E+00
 0.2751143728551E+00 -0.4014615444347E+01  0.0000000000000E+00
 0.2751715592983E+00 -0.3869900802454E+01  0.0000000000000E+00
 0.2752287457413E+00 -0.3725186161454E+01  0.0000000000000E+00
 0.2752859321830E+00 -0.3580471523442E+01  0.0000000000000E+00
 0.2753431186847E+00 -0.3435756733604E+01  0.0000000000000E+00
 0.2754003052395E+00 -0.3291041809440E+01  0.0000000000000E+00
 0.2754574915036E+00 -0.3146327620849E+01  0.0000000000000E+00
 0.2755146778954E+00 -0.3001613109341E+01  0.0000000000000E+00
 0.2755741577791E+00 -0.2856898627730E+01  0.0000000000000E+00
 0.2759835462059E+00 -0.2712195178222E+01  0.0000000000000E+00
 0.2775771854665E+00 -0.2567631621378E+01  0.0000000000000E+00
 0.2806557254076E+00 -0.2423472195995E+01  0.0000000000000E+00
 0.2851968114520E+00 -0.2279966221552E+01  0.0000000000000E+00
 0.2911725637801E+00 -0.2137357594023E+01  0.0000000000000E+00
 0.2986329350640E+00 -0.1995946935658E+01  0.0000000000000E+00
 0.3074932671891E+00 -0.1855920924753E+01  0.0000000000000E+00
 0.3176681994114E+00 -0.1717431973642E+01  0.0000000000000E+00
 0.3291986004074E+00 -0.1580777894524E+01  0.0000000000000E+00
 0.3422771913601E+00 -0.1446544623204E+01  0.0000000000000E+00
 0.3300619062378E+00 -0.4159580888732E+01  0.0000000000000E+00
 0.3301238124860E+00 -0.4015117104564E+01  0.0000000000000E+00
 0.3301857187460E+00 -0.3870653292848E+01  0.0000000000000E+00
 0.3302476250056E+00 -0.3726189482023E+01  0.0000000000000E+00
 0.3303095312640E+00 -0.3581725674181E+01  0.0000000000000E+00
 0.3303714375873E+00 -0.3437261714777E+01  0.0000000000000E+00
 0.3304333439680E+00 -0.3292797621279E+01  0.0000000000000E+00
 0.3304952500341E+00 -0.3148334262079E+01  0.0000000000000E+00
 0.3305571562384E+00 -0.3003870580523E+01  0.0000000000000E+00
 0.3306218146344E+00 -0.2859406928811E+01  0.0000000000000E+00
 0.3311063634587E+00 -0.2714954302838E+01  0.0000000000000E+00
 0.3330120136349E+00 -0.2570641557211E+01  0.0000000000000E+00
 0.3366995447255E+00 -0.2426732940380E+01  0.0000000000000E+00
 0.3421421310710E+00 -0.2283477778033E+01  0.0000000000000E+00
 0.3493063170268E+00 -0.2141119960924E+01  0.0000000000000E+00
 0.3582520457899E+00 -0.1999960111693E+01  0.0000000000000E+00
 0.3688777274904E+00 -0.1860184913564E+01  0.0000000000000E+00
 0.3810809293167E+00 -0.1721946775745E+01  0.0000000000000E+00
 0.3949106938001E+00 -0.1585543505997E+01  0.0000000000000E+00
 0.4105982865409E+00 -0.1451561033531E+01  0.0000000000000E+00
 0.3850629870294E+00 -0.4159876900628E+01  0.0000000000000E+00
 0.3851259740694E+00 -0.4015709128407E+01  0.0000000000000E+00
 0.3851889611214E+00 -0.3871541328694E+01  0.0000000000000E+00
 0.3852519481730E+00 -0.3727373529871E+01  0.0000000000000E+00
 0.3853149352233E+00 -0.3583205734024E+01  0.0000000000000E+00
 0.3853779223397E+00 -0.3439037786925E+01  0.0000000000000E+00
 0.3854409095145E+00 -0.3294869706008E+01  0.0000000000000E+00
 0.3855038963692E+00 -0.3150702357884E+01  0.0000000000000E+00
 0.3855668833645E+00 -0.3006534688064E+01  0.0000000000000E+00
 0.3856330812520E+00 -0.2862367048028E+01  0.0000000000000E+00
 0.3861891515386E+00 -0.2718210426220E+01  0.0000000000000E+00
 0.3884031738507E+00 -0.2574193670220E+01  0.0000000000000E+00
 0.3926960573210E+00 -0.2430581039871E+01  0.0000000000000E+00
 0.3990365051180E+00 -0.2287621868191E+01  0.0000000000000E+00
 0.4073854858481E+00 -0.2145560039770E+01  0.0000000000000E+00
 0.4178129332270E+00 -0.2004696177705E+01  0.0000000000000E+00
 0.4302003255592E+00 -0.1865216971045E+01  0.0000000000000E+00
 0.4444281580129E+00 -0.1727274825304E+01  0.0000000000000E+00
 0.4605536470375E+00 -0.1591167543002E+01  0.0000000000000E+00
 0.4788466027428E+00 -0.1457481045576E+01  0.0000000000000E+00
 0.4400598454253E+00 -0.4160217885626E+01  0.0000000000000E+00
 0.4401196908606E+00 -0.4016391098460E+01  0.0000000000000E+00
 0.4401795363073E+00 -0.3872564283867E+01  0.0000000000000E+00
 0.4402393817537E+00 -0.3728737470161E+01  0.0000000000000E+00
 0.4402992271988E+00 -0.3584910659426E+01  0.0000000000000E+00
 0.4403590727067E+00 -0.3441083697795E+01  0.0000000000000E+00
 0.4404189182702E+00 -0.3297256602663E+01  0.0000000000000E+00
 0.4404787635294E+00 -0.3153430238591E+01  0.0000000000000E+00
 0.4405386089222E+00 -0.3009603553584E+01  0.0000000000000E+00
 0.4406021239088E+00 -0.2865776898291E+01  0.0000000000000E+00
 0.4412254933894E+00 -0.2721961252573E+01  0.0000000000000E+00
 0.4437436658343E+00 -0.2578285455918E+01  0.0000000000000E+00
 0.4486376797985E+00 -0.2435013781291E+01  0.0000000000000E+00
 0.4558717671729E+00 -0.2292395570152E+01  0.0000000000000E+00
 0.4654013209015E+00 -0.2150674699993E+01  0.0000000000000E+00
 0.4773062652143E+00 -0.2010151794440E+01  0.0000000000000E+00
 0.4914511465035E+00 -0.1871013549246E+01  0.0000000000000E+00
 0.5076993879652E+00 -0.1733412365671E+01  0.0000000000000E+00
 0.5261163800438E+00 -0.1597646040203E+01  0.0000000000000E+00
 0.5470104774790E+00 -0.1464300485316E+01  0.0000000000000E+00
 0.4950519032465E+00 -0.4160603604573E+01  0.0000000000000E+00
 0.4951038065017E+00 -0.4017162536418E+01  0.0000000000000E+00
 0.4951557097668E+00 -0.3873721440910E+01  0.0000000000000E+00
 0.4952076130316E+00 -0.3730280346287E+01  0.0000000000000E+00
 0.4952595162954E+00 -0.3586839254627E+01  0.0000000000000E+00
 0.4953114196136E+00 -0.3443398012476E+01  0.0000000000000E+00
 0.4953633229799E+00 -0.3299956637182E+01  0.0000000000000E+00
 0.4954152260825E+00 -0.3156515990986E+01  0.0000000000000E+00
 0.4954671293008E+00 -0.3013075024716E+01  0.0000000000000E+00
 0.4955231608153E+00 -0.2869634088082E+01  0.0000000000000E+00
 0.4962090290232E+00 -0.2726204151236E+01  0.0000000000000E+00
 0.4990265513109E+00 -0.2582914044509E+01  0.0000000000000E+00
 0.5045168954561E+00 -0.2440028055714E+01  0.0000000000000E+00
 0.5126398219542E+00 -0.2297795535855E+01  0.0000000000000E+00
 0.5233451481883E+00 -0.2156460354401E+01  0.0000000000000E+00
 0.5367227888929E+00 -0.2016323135572E+01  0.0000000000000E+00
 0.5526203584575E+00 -0.1877570582705E+01  0.0000000000000E+00
 0.5708842081701E+00 -0.1740355092250E+01  0.0000000000000E+00
 0.5915879025534E+00 -0.1604974453869E+01  0.0000000000000E+00
 0.6150783410931E+00 -0.1472014569901E+01  0.0000000000000E+00
 0.5500385988537E+00 -0.4161033790003E+01  0.0000000000000E+00
 0.5500771977139E+00 -0.4018022907351E+01  0.0000000000000E+00
 0.5501157965814E+00 -0.3875011997428E+01  0.0000000000000E+00
 0.5501543954487E+00 -0.3732001088388E+01  0.0000000000000E+00
 0.5501929943152E+00 -0.3588990182300E+01  0.0000000000000E+00
 0.5502315932222E+00 -0.3445979126174E+01  0.0000000000000E+00
 0.5502701921651E+00 -0.3302967937304E+01  0.0000000000000E+00
 0.5503087909117E+00 -0.3159957475345E+01  0.0000000000000E+00
 0.5503473897445E+00 -0.3016946694273E+01  0.0000000000000E+00
 0.5503905755770E+00 -0.2873935942748E+01  0.0000000000000E+00
 0.5511335804643E+00 -0.2730936180095E+01  0.0000000000000E+00
 0.5542450908984E+00 -0.2588076226435E+01  0.0000000000000E+00
 0.5603264036954E+00 -0.2445620386136E+01  0.0000000000000E+00
 0.5693328078211E+00 -0.2303818020853E+01  0.0000000000000E+00
 0.5812085452069E+00 -0.2162912991101E+01  0.0000000000000E+00
 0.5960535210873E+00 -0.2023205921764E+01  0.0000000000000E+00
 0.6136984177373E+00 -0.1884883524639E+01  0.0000000000000E+00
 0.6339725145979E+00 -0.1748098190811E+01  0.0000000000000E+00
 0.6569575503672E+00 -0.1613147702329E+01  0.0000000000000E+00
 0.6830389694328E+00 -0.1480617950226E+01  0.0000000000000E+00
 0.6050711735961E+00 -0.4161516918212E+01  0.0000000000000E+00
 0.6051423472042E+00 -0.4018989163849E+01  0.0000000000000E+00
 0.6052135208259E+00 -0.3876461382308E+01  0.0000000000000E+00
 0.6052846944471E+00 -0.3733933601646E+01  0.0000000000000E+00
 0.6053558680668E+00 -0.3591405823928E+01  0.0000000000000E+00
 0.6054270417613E+00 -0.3448877896677E+01  0.0000000000000E+00
 0.6054982155217E+00 -0.3306349837131E+01  0.0000000000000E+00
 0.6055693889205E+00 -0.3163822502041E+01  0.0000000000000E+00
 0.6056405624780E+00 -0.3021294848915E+01  0.0000000000000E+00
 0.6057167863091E+00 -0.2878767225238E+01  0.0000000000000E+00
 0.6065635090779E+00 -0.2736250578173E+01  0.0000000000000E+00
 0.6100179512757E+00 -0.2593873716375E+01  0.0000000000000E+00
 0.6167421408437E+00 -0.2451900962805E+01  0.0000000000000E+00
 0.6266868517137E+00 -0.2310581691079E+01  0.0000000000000E+00
 0.6397906937444E+00 -0.2170159751654E+01  0.0000000000000E+00
 0.6561636624840E+00 -0.2030935770165E+01  0.0000000000000E+00
 0.6756193399513E+00 -0.1893096467907E+01  0.0000000000000E+00
 0.6979697627244E+00 -0.1756794229939E+01  0.0000000000000E+00
 0.7233049244723E+00 -0.1622326829760E+01  0.0000000000000E+00
 0.7520491980992E+00 -0.1490280145708E+01  0.0000000000000E+00
 0.6600970514097E+00 -0.4162045450007E+01  0.0000000000000E+00
 0.6601941028358E+00 -0.4020046227529E+01  0.0000000000000E+00
 0.6602911542804E+00 -0.3878046977972E+01  0.0000000000000E+00
 0.6603882057244E+00 -0.3736047729292E+01  0.0000000000000E+00
 0.6604852571663E+00 -0.3594048483544E+01  0.0000000000000E+00
 0.6605823087101E+00 -0.3452049088819E+01  0.0000000000000E+00
 0.6606793603440E+00 -0.3310049562288E+01  0.0000000000000E+00
 0.6607764114846E+00 -0.3168050757527E+01  0.0000000000000E+00
 0.6608734628417E+00 -0.3026051635910E+01  0.0000000000000E+00
 0.6609760277476E+00 -0.2884052543634E+01  0.0000000000000E+00
 0.6619197716469E+00 -0.2742064414558E+01  0.0000000000000E+00
 0.6657104491960E+00 -0.2600216044793E+01  0.0000000000000E+00
 0.6730708192057E+00 -0.2458771777641E+01  0.0000000000000E+00
 0.6839471404084E+00 -0.2317980999801E+01  0.0000000000000E+00
 0.6982723907284E+00 -0.2178087550732E+01  0.0000000000000E+00
 0.7161666560184E+00 -0.2039392056884E+01  0.0000000000000E+00
 0.7374264179084E+00 -0.1902081249946E+01  0.0000000000000E+00
 0.7618464701962E+00 -0.1766307508384E+01  0.0000000000000E+00
 0.7895250616408E+00 -0.1632368596345E+01  0.0000000000000E+00
 0.8209254938403E+00 -0.1500850378279E+01  0.0000000000000E+00
 0.7151156783233E+00 -0.4162619017198E+01  0.0000000000000E+00
 0.7152313566661E+00 -0.4021193362007E+01  0.0000000000000E+00
 0.7153470350309E+00 -0.3879767679848E+01  0.0000000000000E+00
 0.7154627133950E+00 -0.3738341998561E+01  0.0000000000000E+00
 0.7155783917567E+00 -0.3596916320194E+01  0.0000000000000E+00
 0.7156940702398E+00 -0.3455490493452E+01  0.0000000000000E+00
 0.7158097488303E+00 -0.3314064535437E+01  0.0000000000000E+00
 0.7159254268328E+00 -0.3172639296277E+01  0.0000000000000E+00
 0.7160411050934E+00 -0.3031213741540E+01  0.0000000000000E+00
 0.7161627601794E+00 -0.2889788216026E+01  0.0000000000000E+00
 0.7171962745057E+00 -0.2748373639159E+01  0.0000000000000E+00
 0.7213159370821E+00 -0.2607098793435E+01  0.0000000000000E+00
 0.7293052373161E+00 -0.2466228044230E+01  0.0000000000000E+00
 0.7411059185607E+00 -0.2326010792442E+01  0.0000000000000E+00
 0.7566453269564E+00 -0.2186690865594E+01  0.0000000000000E+00
 0.7760536386498E+00 -0.2048568891020E+01  0.0000000000000E+00
 0.7991102347380E+00 -0.1911831611690E+01  0.0000000000000E+00
 0.8255926663275E+00 -0.1776631398915E+01  0.0000000000000E+00
 0.8556074373960E+00 -0.1643266006692E+01  0.0000000000000E+00
 0.8896567784302E+00 -0.1512321284399E+01  0.0000000000000E+00
 0.7701265164027E+00 -0.4163237225325E+01  0.0000000000000E+00
 0.7702530328267E+00 -0.4022429778365E+01  0.0000000000000E+00
 0.7703795492748E+00 -0.3881622304554E+01  0.0000000000000E+00
 0.7705060657221E+00 -0.3740814831612E+01  0.0000000000000E+00
 0.7706325821669E+00 -0.3600007361578E+01  0.0000000000000E+00
 0.7707590987443E+00 -0.3459199743817E+01  0.0000000000000E+00
 0.7708856154392E+00 -0.3318391995356E+01  0.0000000000000E+00
 0.7710121314910E+00 -0.3177584962608E+01  0.0000000000000E+00
 0.7711386478251E+00 -0.3036777615663E+01  0.0000000000000E+00
 0.7712716042631E+00 -0.2895970297815E+01  0.0000000000000E+00
 0.7723871003997E+00 -0.2755173912926E+01  0.0000000000000E+00
 0.7768279598168E+00 -0.2614517228821E+01  0.0000000000000E+00
 0.7854384022306E+00 -0.2474264634665E+01  0.0000000000000E+00
 0.7981556554211E+00 -0.2334665546664E+01  0.0000000000000E+00
 0.8149014339060E+00 -0.2195963779472E+01  0.0000000000000E+00
 0.8358160041157E+00 -0.2058459961379E+01  0.0000000000000E+00
 0.8606616464579E+00 -0.1922340847513E+01  0.0000000000000E+00
 0.8891986694414E+00 -0.1787758801471E+01  0.0000000000000E+00
 0.9215418324023E+00 -0.1655011566313E+01  0.0000000000000E+00
 0.9582322949282E+00 -0.1524684975170E+01  0.0000000000000E+00
 0.8251290426611E+00 -0.4163899654623E+01  0.0000000000000E+00
 0.8252580853438E+00 -0.4023754637073E+01  0.0000000000000E+00
 0.8253871280512E+00 -0.3883609592798E+01  0.0000000000000E+00
 0.8255161707578E+00 -0.3743464549388E+01  0.0000000000000E+00
 0.8256452134617E+00 -0.3603319508872E+01  0.0000000000000E+00
 0.8257742563010E+00 -0.3463174321324E+01  0.0000000000000E+00
 0.8259032992601E+00 -0.3323029003691E+01  0.0000000000000E+00
 0.8260323415633E+00 -0.3182884398404E+01  0.0000000000000E+00
 0.8261613841544E+00 -0.3042739480398E+01  0.0000000000000E+00
 0.8262973301294E+00 -0.2902594591353E+01  0.0000000000000E+00
 0.8274864964698E+00 -0.2762460618459E+01  0.0000000000000E+00
 0.8322402415205E+00 -0.2622466313816E+01  0.0000000000000E+00
 0.8414635149845E+00 -0.2482876092086E+01  0.0000000000000E+00
 0.8550890288630E+00 -0.2343939385871E+01  0.0000000000000E+00
 0.8730328662242E+00 -0.2205899996038E+01  0.0000000000000E+00
 0.8954453837691E+00 -0.2069058551904E+01  0.0000000000000E+00
 0.9220717610531E+00 -0.1933601821620E+01  0.0000000000000E+00
 0.9526550640919E+00 -0.1799682160523E+01  0.0000000000000E+00
 0.9873183077263E+00 -0.1667597299948E+01  0.0000000000000E+00
 0.1026641580862E+01 -0.1537933055620E+01  0.0000000000000E+00
 0.8801227526612E+00 -0.4164605862042E+01  0.0000000000000E+00
 0.8802455053430E+00 -0.4025167052030E+01  0.0000000000000E+00
 0.8803682580483E+00 -0.3885728215428E+01  0.0000000000000E+00
 0.8804910107528E+00 -0.3746289379686E+01  0.0000000000000E+00
 0.8806137634548E+00 -0.3606850546824E+01  0.0000000000000E+00
 0.8807365162855E+00 -0.3467411567670E+01  0.0000000000000E+00
 0.8808592692302E+00 -0.3327972459088E+01  0.0000000000000E+00
 0.8809820215509E+00 -0.3188534059261E+01  0.0000000000000E+00
 0.8811047741456E+00 -0.3049095348291E+01  0.0000000000000E+00
 0.8812348934061E+00 -0.2909656666139E+01  0.0000000000000E+00
 0.8824889139179E+00 -0.2770228882217E+01  0.0000000000000E+00
 0.8875467289882E+00 -0.2630940731864E+01  0.0000000000000E+00
 0.8973740179636E+00 -0.2492056656920E+01  0.0000000000000E+00
 0.9118989768486E+00 -0.2353826107473E+01  0.0000000000000E+00
 0.9310320574458E+00 -0.2216492869689E+01  0.0000000000000E+00
 0.9549337067125E+00 -0.2080357573977E+01  0.0000000000000E+00
 0.9833320031794E+00 -0.1945607002375E+01  0.0000000000000E+00
 0.1015952770480E+01 -0.1812393501412E+01  0.0000000000000E+00
 0.1052927279116E+01 -0.1681014789925E+01  0.0000000000000E+00
 0.1094874547539E+01 -0.1552056665082E+01  0.0000000000000E+00
 0.9351071625386E+00 -0.4165355383182E+01  0.0000000000000E+00
 0.9352143250951E+00 -0.4026666094435E+01  0.0000000000000E+00
 0.9353214876721E+00 -0.3887976779241E+01  0.0000000000000E+00
 0.9354286502485E+00 -0.3749287464903E+01  0.0000000000000E+00
 0.9355358128226E+00 -0.3610598153429E+01  0.0000000000000E+00
 0.9356429755092E+00 -0.3471908696450E+01  0.0000000000000E+00
 0.9357501382952E+00 -0.3333219110738E+01  0.0000000000000E+00
 0.9358573005366E+00 -0.3194530229972E+01  0.0000000000000E+00
 0.9359644630170E+00 -0.3055841039736E+01  0.0000000000000E+00
 0.9360794554472E+00 -0.2917151878163E+01  0.0000000000000E+00
 0.9373890302784E+00 -0.2778473595801E+01  0.0000000000000E+00
 0.9427416160660E+00 -0.2639934910201E+01  0.0000000000000E+00
 0.9531636214662E+00 -0.2501800292046E+01  0.0000000000000E+00
 0.9685787262547E+00 -0.2364319209979E+01  0.0000000000000E+00
 0.9888917511598E+00 -0.2227735434568E+01  0.0000000000000E+00
 0.1014273233385E+01 -0.2092349597379E+01  0.0000000000000E+00
 0.1044434150246E+01 -0.1958348495191E+01  0.0000000000000E+00
 0.1079083083104E+01 -0.1825884465182E+01  0.0000000000000E+00
 0.1118359558289E+01 -0.1695255212926E+01  0.0000000000000E+00
 0.1162921524060E+01 -0.1567046515895E+01  0.0000000000000E+00
 0.9900818009967E+00 -0.4166147731619E+01  0.0000000000000E+00
 0.9901636020073E+00 -0.4028250791442E+01  0.0000000000000E+00
 0.9902454030334E+00 -0.3890353824970E+01  0.0000000000000E+00
 0.9903272040590E+00 -0.3752456859348E+01  0.0000000000000E+00
 0.9904090050829E+00 -0.3614559896574E+01  0.0000000000000E+00
 0.9904908061926E+00 -0.3476662789126E+01  0.0000000000000E+00
 0.9905726073782E+00 -0.3338765553681E+01  0.0000000000000E+00
 0.9906544081481E+00 -0.3200869019154E+01  0.0000000000000E+00
 0.9907362091005E+00 -0.3062972176925E+01  0.0000000000000E+00
 0.9908263032885E+00 -0.2925075363198E+01  0.0000000000000E+00
 0.9921816612505E+00 -0.2787189408576E+01  0.0000000000000E+00
 0.9978192469641E+00 -0.2649443011802E+01  0.0000000000000E+00
 0.1008826197998E+01 -0.2512100674057E+01  0.0000000000000E+00
 0.1025121677659E+01 -0.2375411883596E+01  0.0000000000000E+00
 0.1046604875805E+01 -0.2239620394497E+01  0.0000000000000E+00
 0.1073456419869E+01 -0.2105026839552E+01  0.0000000000000E+00
 0.1105370185765E+01 -0.1971818031119E+01  0.0000000000000E+00
 0.1142037512709E+01 -0.1840146296494E+01  0.0000000000000E+00
 0.1183606183030E+01 -0.1710309327229E+01  0.0000000000000E+00
 0.1230773075037E+01 -0.1582892879975E+01  0.0000000000000E+00
 0.1045046223052E+01 -0.4166982403876E+01  0.0000000000000E+00
 0.1045092446112E+01 -0.4029920136097E+01  0.0000000000000E+00
 0.1045138669180E+01 -0.3892857842181E+01  0.0000000000000E+00
 0.1045184892248E+01 -0.3755795549111E+01  0.0000000000000E+00
 0.1045231115316E+01 -0.3618733258871E+01  0.0000000000000E+00
 0.1045277338431E+01 -0.3481670824833E+01  0.0000000000000E+00
 0.1045323561590E+01 -0.3344608263573E+01  0.0000000000000E+00
 0.1045369784514E+01 -0.3207546398988E+01  0.0000000000000E+00
 0.1045416007541E+01 -0.3070484228564E+01  0.0000000000000E+00
 0.1045470987091E+01 -0.2933422086471E+01  0.0000000000000E+00
 0.1046861912070E+01 -0.2796370782303E+01  0.0000000000000E+00
 0.1052774282170E+01 -0.2659458994993E+01  0.0000000000000E+00
 0.1064355963499E+01 -0.2522951257843E+01  0.0000000000000E+00
 0.1081521602640E+01 -0.2387097079773E+01  0.0000000000000E+00
 0.1104164758793E+01 -0.2252140197489E+01  0.0000000000000E+00
 0.1132476149605E+01 -0.2118381245072E+01  0.0000000000000E+00
 0.1166132549384E+01 -0.1986007051293E+01  0.0000000000000E+00
 0.1204808055323E+01 -0.1855169933038E+01  0.0000000000000E+00
 0.1248658705933E+01 -0.1726167567089E+01  0.0000000000000E+00
 0.1298420309852E+01 -0.1599585688162E+01  0.0000000000000E+00
-0.6428079475289E+00 -0.1172076972089E+01  0.0000000000000E+00
-0.6445725414276E+00 -0.1001378991910E+01  0.0000000000000E+00
-0.6478510113258E+00 -0.8307079029823E+00  0.0000000000000E+00
-0.6528951459130E+00 -0.6600888595986E+00  0.0000000000000E+00
-0.6593381371986E+00 -0.4895264917391E+00  0.0000000000000E+00
-0.6657811281315E+00 -0.3189641238667E+00  0.0000000000000E+00
-0.6708252618112E+00 -0.1483450804569E+00  0.0000000000000E+00
-0.6741037305066E+00  0.2232600849347E-01  0.0000000000000E+00
-0.6758683230797E+00  0.1930239886852E+00  0.0000000000000E+00
-0.5717622019252E+00 -0.1163097080089E+01  0.0000000000000E+00
-0.5734202106823E+00 -0.9915189097050E+00  0.0000000000000E+00
-0.5764238865398E+00 -0.8199676323119E+00  0.0000000000000E+00
-0.5809970417873E+00 -0.6484684004727E+00  0.0000000000000E+00
-0.5868136252857E+00 -0.4770258406587E+00  0.0000000000000E+00
-0.5926302084314E+00 -0.3055832808331E+00  0.0000000000000E+00
-0.5972033627714E+00 -0.1340840489707E+00  0.0000000000000E+00
-0.6002070374260E+00  0.3746722844213E-01  0.0000000000000E+00
-0.6018650448575E+00  0.2090453988374E+00  0.0000000000000E+00
-0.5005853102949E+00 -0.1155150522808E+01  0.0000000000000E+00
-0.5021063992260E+00 -0.9827861299403E+00  0.0000000000000E+00
-0.5048049465676E+00 -0.8104486316177E+00  0.0000000000000E+00
-0.5088767881748E+00 -0.6381631788575E+00  0.0000000000000E+00
-0.5140366296026E+00 -0.4659343949968E+00  0.0000000000000E+00
-0.5191964706777E+00 -0.2937056111261E+00  0.0000000000000E+00
-0.5232683113774E+00 -0.1214201583456E+00  0.0000000000000E+00
-0.5259668575162E+00  0.5091733999426E-01  0.0000000000000E+00
-0.5274879451216E+00  0.2232817328716E+00  0.0000000000000E+00
-0.4292924458054E+00 -0.1148245728622E+01  0.0000000000000E+00
-0.4306493041388E+00 -0.9751924874222E+00  0.0000000000000E+00
-0.4330154122864E+00 -0.8021661421289E+00  0.0000000000000E+00
-0.4365586296214E+00 -0.6291918424054E+00  0.0000000000000E+00
-0.4410344182749E+00 -0.4562742088428E+00  0.0000000000000E+00
-0.4455102065756E+00 -0.2833565752716E+00  0.0000000000000E+00
-0.4490534230032E+00 -0.1103822755307E+00  0.0000000000000E+00
-0.4514195299479E+00  0.6264406977736E-01  0.0000000000000E+00
-0.4527763869556E+00  0.2356973109854E+00  0.0000000000000E+00
-0.3578991857854E+00 -0.1142390156027E+01  0.0000000000000E+00
-0.3590678354036E+00 -0.9687485164622E+00  0.0000000000000E+00
-0.3610775263391E+00 -0.7951337739660E+00  0.0000000000000E+00
-0.3640681414448E+00 -0.6215710770455E+00  0.0000000000000E+00
-0.3678358993193E+00 -0.4480650439469E+00  0.0000000000000E+00
-0.3716036568411E+00 -0.2745590108411E+00  0.0000000000000E+00
-0.3745942710393E+00 -0.1009963139061E+00  0.0000000000000E+00
-0.3766039607719E+00  0.7261842860244E-01  0.0000000000000E+00
-0.3777726090644E+00  0.2462600681747E+00  0.0000000000000E+00
-0.2864215855890E+00 -0.1137590239147E+01  0.0000000000000E+00
-0.2873816210134E+00 -0.9634633425220E+00  0.0000000000000E+00
-0.2890144893591E+00 -0.7893633439243E+00  0.0000000000000E+00
-0.2914320969289E+00 -0.6153153909072E+00  0.0000000000000E+00
-0.2944714186929E+00 -0.4413240997829E+00  0.0000000000000E+00
-0.2975107401042E+00 -0.2673328086529E+00  0.0000000000000E+00
-0.2999283467665E+00 -0.9328485562423E-01  0.0000000000000E+00
-0.3015612139093E+00  0.8081514298333E-01  0.0000000000000E+00
-0.3025212480080E+00  0.2549420396143E+00  0.0000000000000E+00
-0.2148760528319E+00 -0.1133851325356E+01  0.0000000000000E+00
-0.2156108655255E+00 -0.9593445794947E+00  0.0000000000000E+00
-0.2168503028290E+00 -0.7848647324114E+00  0.0000000000000E+00
-0.2186782944709E+00 -0.6104369309123E+00  0.0000000000000E+00
-0.2209725717140E+00 -0.4360657897959E+00  0.0000000000000E+00
-0.2232668486044E+00 -0.2616946486752E+00  0.0000000000000E+00
-0.2250948393388E+00 -0.8726684716740E-01  0.0000000000000E+00
-0.2263342754395E+00  0.8721299992331E-01  0.0000000000000E+00
-0.2270690868073E+00  0.2617197457887E+00  0.0000000000000E+00
-0.1432792800287E+00 -0.1131177627176E+01  0.0000000000000E+00
-0.1437762464154E+00 -0.9563982442783E+00  0.0000000000000E+00
-0.1446096291476E+00 -0.7816457606963E+00  0.0000000000000E+00
-0.1458353813581E+00 -0.6069453227008E+00  0.0000000000000E+00
-0.1473719905470E+00 -0.4323015440042E+00  0.0000000000000E+00
-0.1489085993831E+00 -0.2576577653047E+00  0.0000000000000E+00
-0.1501343506860E+00 -0.8295732730341E-01  0.0000000000000E+00
-0.1509677322153E+00  0.9179515628351E-01  0.0000000000000E+00
-0.1514646972764E+00  0.2665745391843E+00  0.0000000000000E+00
-0.7164822860673E-01 -0.1129572184387E+01  0.0000000000000E+00
-0.7189884966313E-01 -0.9546286881243E+00  0.0000000000000E+00
-0.7231767885223E-01 -0.7797120915013E+00  0.0000000000000E+00
-0.7293269270050E-01 -0.6048475404658E+00  0.0000000000000E+00
-0.7370313490275E-01 -0.4300396480768E+00  0.0000000000000E+00
-0.7447357675223E-01 -0.2552317556864E+00  0.0000000000000E+00
-0.7508858969298E-01 -0.8036720464800E-01  0.0000000000000E+00
-0.7550741767918E-01  0.9454939197745E-01  0.0000000000000E+00
-0.7575803740985E-01  0.2694928882412E+00  0.0000000000000E+00
 0.5524736011661E-08 -0.1129036832222E+01  0.0000000000000E+00
 0.4171790811275E-08 -0.9540385425029E+00  0.0000000000000E+00
 0.2880364772908E-08 -0.7790671525299E+00  0.0000000000000E+00
 0.1737109607311E-08 -0.6041478081441E+00  0.0000000000000E+00
 0.8719450676882E-09 -0.4292851221871E+00  0.0000000000000E+00
 0.3595448458221E-09 -0.2544224362301E+00  0.0000000000000E+00
 0.1238229648589E-09 -0.7950309184428E-01  0.0000000000000E+00
 0.3529816344305E-10  0.9546829812865E-01  0.0000000000000E+00
 0.8104325914218E-11  0.2704665878481E+00  0.0000000000000E+00
 0.7164823965508E-01 -0.1129572184556E+01  0.0000000000000E+00
 0.7189885800572E-01 -0.9546286882748E+00  0.0000000000000E+00
 0.7231768461208E-01 -0.7797120916309E+00  0.0000000000000E+00
 0.7293269617397E-01 -0.6048475405725E+00  0.0000000000000E+00
 0.7370313664601E-01 -0.4300396481608E+00  0.0000000000000E+00
 0.7447357747082E-01 -0.2552317557506E+00  0.0000000000000E+00
 0.7508858994025E-01 -0.8036720469512E-01  0.0000000000000E+00
 0.7550741774953E-01  0.9454939194626E-01  0.0000000000000E+00
 0.7575803742593E-01  0.2694928882256E+00  0.0000000000000E+00
 0.1432792910737E+00 -0.1131177627514E+01  0.0000000000000E+00
 0.1437762547550E+00 -0.9563982445790E+00  0.0000000000000E+00
 0.1446096349048E+00 -0.7816457609553E+00  0.0000000000000E+00
 0.1458353848293E+00 -0.6069453229140E+00  0.0000000000000E+00
 0.1473719922884E+00 -0.4323015441721E+00  0.0000000000000E+00
 0.1489086001002E+00 -0.2576577654331E+00  0.0000000000000E+00
 0.1501343509322E+00 -0.8295732739760E-01  0.0000000000000E+00
 0.1509677322849E+00  0.9179515622118E-01  0.0000000000000E+00
 0.1514646972921E+00  0.2665745391532E+00  0.0000000000000E+00
 0.2148760638713E+00 -0.1133851325862E+01  0.0000000000000E+00
 0.2156108738601E+00 -0.9593445799456E+00  0.0000000000000E+00
 0.2168503085819E+00 -0.7848647327997E+00  0.0000000000000E+00
 0.2186782979384E+00 -0.6104369312320E+00  0.0000000000000E+00
 0.2209725734523E+00 -0.4360657900476E+00  0.0000000000000E+00
 0.2232668493190E+00 -0.2616946488676E+00  0.0000000000000E+00
 0.2250948395831E+00 -0.8726684730858E-01  0.0000000000000E+00
 0.2263342755078E+00  0.8721299982987E-01  0.0000000000000E+00
 0.2270690868224E+00  0.2617197457421E+00  0.0000000000000E+00
 0.2864215966206E+00 -0.1137590239822E+01  0.0000000000000E+00
 0.2873816293411E+00 -0.9634633431226E+00  0.0000000000000E+00
 0.2890144951059E+00 -0.7893633444416E+00  0.0000000000000E+00
 0.2914321003912E+00 -0.6153153913331E+00  0.0000000000000E+00
 0.2944714204269E+00 -0.4413241001183E+00  0.0000000000000E+00
 0.2975107408153E+00 -0.2673328089091E+00  0.0000000000000E+00
 0.2999283470082E+00 -0.9328485581228E-01  0.0000000000000E+00
 0.3015612139760E+00  0.8081514285887E-01  0.0000000000000E+00
 0.3025212480222E+00  0.2549420395522E+00  0.0000000000000E+00
 0.3578991968070E+00 -0.1142390156869E+01  0.0000000000000E+00
 0.3590678437224E+00 -0.9687485172122E+00  0.0000000000000E+00
 0.3610775320781E+00 -0.7951337746119E+00  0.0000000000000E+00
 0.3640681449004E+00 -0.6215710775773E+00  0.0000000000000E+00
 0.3678359010477E+00 -0.4480650443656E+00  0.0000000000000E+00
 0.3716036575478E+00 -0.2745590111610E+00  0.0000000000000E+00
 0.3745942712777E+00 -0.1009963141409E+00  0.0000000000000E+00
 0.3766039608363E+00  0.7261842844706E-01  0.0000000000000E+00
 0.3777726090775E+00  0.2462600680972E+00  0.0000000000000E+00
 0.4292924568149E+00 -0.1148245729631E+01  0.0000000000000E+00
 0.4306493124468E+00 -0.9751924883211E+00  0.0000000000000E+00
 0.4330154180159E+00 -0.8021661429030E+00  0.0000000000000E+00
 0.4365586330689E+00 -0.6291918430427E+00  0.0000000000000E+00
 0.4410344199965E+00 -0.4562742093445E+00  0.0000000000000E+00
 0.4455102072769E+00 -0.2833565756550E+00  0.0000000000000E+00
 0.4490534232375E+00 -0.1103822758120E+00  0.0000000000000E+00
 0.4514195300096E+00  0.6264406959120E-01  0.0000000000000E+00
 0.4527763869673E+00  0.2356973108925E+00  0.0000000000000E+00
 0.5005853212899E+00 -0.1155150523983E+01  0.0000000000000E+00
 0.5021064075213E+00 -0.9827861309873E+00  0.0000000000000E+00
 0.5048049522860E+00 -0.8104486325194E+00  0.0000000000000E+00
 0.5088767916127E+00 -0.6381631795998E+00  0.0000000000000E+00
 0.5140366313163E+00 -0.4659343955811E+00  0.0000000000000E+00
 0.5191964713726E+00 -0.2937056115725E+00  0.0000000000000E+00
 0.5232683116069E+00 -0.1214201586732E+00  0.0000000000000E+00
 0.5259668575747E+00  0.5091733977747E-01  0.0000000000000E+00
 0.5274879451318E+00  0.2232817327634E+00  0.0000000000000E+00
 0.5717622129039E+00 -0.1163097081430E+01  0.0000000000000E+00
 0.5734202189629E+00 -0.9915189108996E+00  0.0000000000000E+00
 0.5764238922454E+00 -0.8199676333406E+00  0.0000000000000E+00
 0.5809970452143E+00 -0.6484684013195E+00  0.0000000000000E+00
 0.5868136269902E+00 -0.4770258413251E+00  0.0000000000000E+00
 0.5926302091190E+00 -0.3055832813422E+00  0.0000000000000E+00
 0.5972033629954E+00 -0.1340840493443E+00  0.0000000000000E+00
 0.6002070374809E+00  0.3746722819490E-01  0.0000000000000E+00
 0.6018650448658E+00  0.2090453987140E+00  0.0000000000000E+00
 0.6428079584890E+00 -0.1172076973595E+01  0.0000000000000E+00
 0.6445725496918E+00 -0.1001378993252E+01  0.0000000000000E+00
 0.6478510170170E+00 -0.8307079041373E+00  0.0000000000000E+00
 0.6528951493277E+00 -0.6600888605492E+00  0.0000000000000E+00
 0.6593381388929E+00 -0.4895264924872E+00  0.0000000000000E+00
 0.6657811288108E+00 -0.3189641244382E+00  0.0000000000000E+00
 0.6708252620291E+00 -0.1483450808761E+00  0.0000000000000E+00
 0.6741037305573E+00  0.2232600821599E-01  0.0000000000000E+00
 0.6758683230860E+00  0.1930239885468E+00  0.0000000000000E+00
-0.1493912699900E+01 -0.1245948640961E+01  0.0000000000000E+00
-0.1632114179481E+01 -0.1015235929788E+01  0.0000000000000E+00
-0.1741724987958E+01 -0.7685711016251E+00  0.0000000000000E+00
-0.1820766194995E+01 -0.5096924415063E+00  0.0000000000000E+00
-0.1865967729498E+01 -0.2423545704136E+00  0.0000000000000E+00
-0.1873120644158E+01  0.2887340610501E-01  0.0000000000000E+00
-0.1807462272798E+01  0.2894599333017E+00  0.0000000000000E+00
-0.1655564266959E+01  0.5093676183748E+00  0.0000000000000E+00
-0.1461284529476E+01  0.6904096839716E+00  0.0000000000000E+00
-0.1407911610363E+01 -0.1235569498233E+01  0.0000000000000E+00
-0.1530885042842E+01 -0.1011998013791E+01  0.0000000000000E+00
-0.1628631455275E+01 -0.7742498073865E+00  0.0000000000000E+00
-0.1699422876353E+01 -0.5256506283837E+00  0.0000000000000E+00
-0.1740307292582E+01 -0.2695384262787E+00  0.0000000000000E+00
-0.1747370706685E+01 -0.9968389857222E-02  0.0000000000000E+00
-0.1689540644756E+01  0.2401506118249E+00  0.0000000000000E+00
-0.1554834933667E+01  0.4541153997418E+00  0.0000000000000E+00
-0.1382269552347E+01  0.6335353740062E+00  0.0000000000000E+00
-0.1321717468671E+01 -0.1225990155986E+01  0.0000000000000E+00
-0.1429484329607E+01 -0.1009470946930E+01  0.0000000000000E+00
-0.1515387817702E+01 -0.7805504227981E+00  0.0000000000000E+00
-0.1577950922623E+01 -0.5421417890339E+00  0.0000000000000E+00
-0.1614539688037E+01 -0.2971663252531E+00  0.0000000000000E+00
-0.1621535070117E+01 -0.4916528912248E-01  0.0000000000000E+00
-0.1571554682145E+01  0.1905747042462E+00  0.0000000000000E+00
-0.1454062688287E+01  0.3986853612403E+00  0.0000000000000E+00
-0.1303233118844E+01  0.5765721518443E+00  0.0000000000000E+00
-0.1235338664721E+01 -0.1217220128470E+01  0.0000000000000E+00
-0.1327919486188E+01 -0.1007663185251E+01  0.0000000000000E+00
-0.1402000580163E+01 -0.7874803468363E+00  0.0000000000000E+00
-0.1456355899294E+01 -0.5591722661683E+00  0.0000000000000E+00
-0.1488669544153E+01 -0.3252435543734E+00  0.0000000000000E+00
-0.1495617427797E+01 -0.8872152318509E-01  0.0000000000000E+00
-0.1453507152202E+01  0.1407290302321E+00  0.0000000000000E+00
-0.1353249374514E+01  0.3430753791977E+00  0.0000000000000E+00
-0.1224176150134E+01  0.5195189545757E+00  0.0000000000000E+00
-0.1148784126122E+01 -0.1209268607751E+01  0.0000000000000E+00
-0.1226198458988E+01 -0.1006582898571E+01  0.0000000000000E+00
-0.1288476705889E+01 -0.7950467260992E+00  0.0000000000000E+00
-0.1334643784206E+01 -0.5767481823590E+00  0.0000000000000E+00
-0.1362701850985E+01 -0.3537752116567E+00  0.0000000000000E+00
-0.1369621779253E+01 -0.1286411651334E+00  0.0000000000000E+00
-0.1335401063674E+01  0.9061053604662E-01  0.0000000000000E+00
-0.1252397001676E+01  0.2872834192639E+00  0.0000000000000E+00
-0.1145099651710E+01  0.4623747661662E+00  0.0000000000000E+00
-0.1062062983396E+01 -0.1202144369658E+01  0.0000000000000E+00
-0.1124329355888E+01 -0.1006237886659E+01  0.0000000000000E+00
-0.1174823281550E+01 -0.8032563851118E+00  0.0000000000000E+00
-0.1212820644252E+01 -0.5948753874537E+00  0.0000000000000E+00
-0.1236641657216E+01 -0.3827661726965E+00  0.0000000000000E+00
-0.1243552156475E+01 -0.1689281163730E+00  0.0000000000000E+00
-0.1217239439725E+01  0.4021629028167E-01  0.0000000000000E+00
-0.1151507584842E+01  0.2313075245172E+00  0.0000000000000E+00
-0.1066004630648E+01  0.4051386074055E+00  0.0000000000000E+00
-0.9751847697070E+00 -0.1195855786589E+01  0.0000000000000E+00
-0.1022320650200E+01 -0.1006635590763E+01  0.0000000000000E+00
-0.1061047720681E+01 -0.8121158340625E+00  0.0000000000000E+00
-0.1090892833159E+01 -0.6135594605944E+00  0.0000000000000E+00
-0.1110494256751E+01 -0.4122210856250E+00  0.0000000000000E+00
-0.1117412793346E+01 -0.2095860939228E+00  0.0000000000000E+00
-0.1099025459080E+01 -0.1045649741365E-01  0.0000000000000E+00
-0.1050583244399E+01  0.1751458337972E+00  0.0000000000000E+00
-0.9868921472004E+00  0.3478095477247E+00  0.0000000000000E+00
-0.8881593748716E+00 -0.1190410790924E+01  0.0000000000000E+00
-0.9201811355569E+00 -0.1007783061068E+01  0.0000000000000E+00
-0.9471577202152E+00 -0.8216312407101E+00  0.0000000000000E+00
-0.9688669504882E+00 -0.6328056868796E+00  0.0000000000000E+00
-0.9842651510562E+00 -0.4421443527462E+00  0.0000000000000E+00
-0.9912080922863E+00 -0.2506186171164E+00  0.0000000000000E+00
-0.9807624287546E+00 -0.6141046782172E-01  0.0000000000000E+00
-0.9496261869906E+00  0.1187965864475E+00  0.0000000000000E+00
-0.9077633049796E+00  0.2903867071423E+00  0.0000000000000E+00
-0.8009969614158E+00 -0.1185816836835E+01  0.0000000000000E+00
-0.8179198426556E+00 -0.1009686922706E+01  0.0000000000000E+00
-0.8331611794591E+00 -0.8318084014129E+00  0.0000000000000E+00
-0.8467497645126E+00 -0.6526190340470E+00  0.0000000000000E+00
-0.8579599777782E+00 -0.4725401133079E+00  0.0000000000000E+00
-0.8649425605567E+00 -0.2920289966644E+00  0.0000000000000E+00
-0.8624537316589E+00 -0.1126481069538E+00  0.0000000000000E+00
-0.8486386687954E+00  0.6225812387342E-01  0.0000000000000E+00
-0.8286192320009E+00  0.2328692561765E+00  0.0000000000000E+00
 0.8009969712356E+00 -0.1185816838491E+01  0.0000000000000E+00
 0.8179198500446E+00 -0.1009686924186E+01  0.0000000000000E+00
 0.8331611845332E+00 -0.8318084026986E+00  0.0000000000000E+00
 0.8467497675458E+00 -0.6526190351224E+00  0.0000000000000E+00
 0.8579599792759E+00 -0.4725401141749E+00  0.0000000000000E+00
 0.8649425611529E+00 -0.2920289973475E+00  0.0000000000000E+00
 0.8624537318677E+00 -0.1126481074711E+00  0.0000000000000E+00
 0.8486386688771E+00  0.6225812351732E-01  0.0000000000000E+00
 0.8286192320618E+00  0.2328692559799E+00  0.0000000000000E+00
 0.8881593835745E+00 -0.1190410792534E+01  0.0000000000000E+00
 0.9201811420918E+00 -0.1007783062512E+01  0.0000000000000E+00
 0.9471577246905E+00 -0.8216312419750E+00  0.0000000000000E+00
 0.9688669531555E+00 -0.6328056879542E+00  0.0000000000000E+00
 0.9842651523705E+00 -0.4421443536322E+00  0.0000000000000E+00
 0.9912080928098E+00 -0.2506186178343E+00  0.0000000000000E+00
 0.9807624289621E+00 -0.6141046838041E-01  0.0000000000000E+00
 0.9496261871083E+00  0.1187965860503E+00  0.0000000000000E+00
 0.9077633050977E+00  0.2903867069063E+00  0.0000000000000E+00
 0.9751847772968E+00 -0.1195855788119E+01  0.0000000000000E+00
 0.1022320655883E+01 -0.1006635592141E+01  0.0000000000000E+00
 0.1061047724560E+01 -0.8121158352806E+00  0.0000000000000E+00
 0.1090892835463E+01 -0.6135594616459E+00  0.0000000000000E+00
 0.1110494257883E+01 -0.4122210865117E+00  0.0000000000000E+00
 0.1117412793798E+01 -0.2095860946607E+00  0.0000000000000E+00
 0.1099025459288E+01 -0.1045649800265E-01  0.0000000000000E+00
 0.1050583244554E+01  0.1751458333663E+00  0.0000000000000E+00
 0.9868921473761E+00  0.3478095474530E+00  0.0000000000000E+00
 0.1062062989877E+01 -0.1202144371075E+01  0.0000000000000E+00
 0.1124329360724E+01 -0.1006237887942E+01  0.0000000000000E+00
 0.1174823284836E+01 -0.8032563862574E+00  0.0000000000000E+00
 0.1212820646195E+01 -0.5948753884603E+00  0.0000000000000E+00
 0.1236641658170E+01 -0.3827661735655E+00  0.0000000000000E+00
 0.1243552156858E+01 -0.1689281171164E+00  0.0000000000000E+00
 0.1217239439933E+01  0.4021628967337E-01  0.0000000000000E+00
 0.1151507585035E+01  0.2313075240599E+00  0.0000000000000E+00
 0.1066004630881E+01  0.4051386071018E+00  0.0000000000000E+00
 0.1148784131499E+01 -0.1209268609022E+01  0.0000000000000E+00
 0.1226198462982E+01 -0.1006582899729E+01  0.0000000000000E+00
 0.1288476708587E+01 -0.7950467271470E+00  0.0000000000000E+00
 0.1334643785792E+01 -0.5767481832988E+00  0.0000000000000E+00
 0.1362701851763E+01 -0.3537752124899E+00  0.0000000000000E+00
 0.1369621779569E+01 -0.1286411658677E+00  0.0000000000000E+00
 0.1335401063885E+01  0.9061053542988E-01  0.0000000000000E+00
 0.1252397001908E+01  0.2872834187875E+00  0.0000000000000E+00
 0.1145099652002E+01  0.4623747658340E+00  0.0000000000000E+00
 0.1235338668999E+01 -0.1217220129564E+01  0.0000000000000E+00
 0.1327919489344E+01 -0.1007663186256E+01  0.0000000000000E+00
 0.1402000582276E+01 -0.7874803477613E+00  0.0000000000000E+00
 0.1456355900526E+01 -0.5591722670199E+00  0.0000000000000E+00
 0.1488669544757E+01 -0.3252435551529E+00  0.0000000000000E+00
 0.1495617428049E+01 -0.8872152389594E-01  0.0000000000000E+00
 0.1453507152418E+01  0.1407290296177E+00  0.0000000000000E+00
 0.1353249374785E+01  0.3430753787092E+00  0.0000000000000E+00
 0.1224176150486E+01  0.5195189542187E+00  0.0000000000000E+00
 0.1321717471856E+01 -0.1225990156871E+01  0.0000000000000E+00
 0.1429484331930E+01 -0.1009470947754E+01  0.0000000000000E+00
 0.1515387819235E+01 -0.7805504235757E+00  0.0000000000000E+00
 0.1577950923506E+01 -0.5421417897762E+00  0.0000000000000E+00
 0.1614539688471E+01 -0.2971663259614E+00  0.0000000000000E+00
 0.1621535070306E+01 -0.4916528979589E-01  0.0000000000000E+00
 0.1571554682369E+01  0.1905747036446E+00  0.0000000000000E+00
 0.1454062688600E+01  0.3986853607469E+00  0.0000000000000E+00
 0.1303233119256E+01  0.5765721514660E+00  0.0000000000000E+00
 0.1407911612462E+01 -0.1235569498876E+01  0.0000000000000E+00
 0.1530885044338E+01 -0.1011998014406E+01  0.0000000000000E+00
 0.1628631456233E+01 -0.7742498079925E+00  0.0000000000000E+00
 0.1699422876890E+01 -0.5256506289959E+00  0.0000000000000E+00
 0.1740307292850E+01 -0.2695384268984E+00  0.0000000000000E+00
 0.1747370706816E+01 -0.9968390479329E-02  0.0000000000000E+00
 0.1689540644988E+01  0.2401506112465E+00  0.0000000000000E+00
 0.1554834934023E+01  0.4541153992504E+00  0.0000000000000E+00
 0.1382269552819E+01  0.6335353736101E+00  0.0000000000000E+00
 0.1493912700920E+01 -0.1245948641334E+01  0.0000000000000E+00
 0.1632114180156E+01 -0.1015235930167E+01  0.0000000000000E+00
 0.1741724988346E+01 -0.7685711020355E+00  0.0000000000000E+00
 0.1820766195191E+01 -0.5096924419680E+00  0.0000000000000E+00
 0.1865967729603E+01 -0.2423545709277E+00  0.0000000000000E+00
 0.1873120644233E+01  0.2887340554782E-01  0.0000000000000E+00
 0.1807462273042E+01  0.2894599327568E+00  0.0000000000000E+00
 0.1655564267360E+01  0.5093676178923E+00  0.0000000000000E+00
 0.1461284530009E+01  0.6904096835610E+00  0.0000000000000E+00
-0.7262154211400E+00  0.4220388918148E+00  0.0000000000000E+00
-0.7759671760782E+00  0.4803462986459E+00  0.0000000000000E+00
-0.8257189310165E+00  0.5386537054770E+00  0.0000000000000E+00
-0.8754706859548E+00  0.5969611123081E+00  0.0000000000000E+00
-0.9252224408930E+00  0.6552685191392E+00  0.0000000000000E+00
-0.9749741958313E+00  0.7135759259704E+00  0.0000000000000E+00
-0.1024725950770E+01  0.7718833328015E+00  0.0000000000000E+00
-0.1074477705708E+01  0.8301907396326E+00  0.0000000000000E+00
-0.1124229460646E+01  0.8884981464637E+00  0.0000000000000E+00
-0.6470599869664E+00  0.4421478324469E+00  0.0000000000000E+00
-0.6916362540626E+00  0.5036625773935E+00  0.0000000000000E+00
-0.7362125211588E+00  0.5651773223400E+00  0.0000000000000E+00
-0.7807887882550E+00  0.6266920672866E+00  0.0000000000000E+00
-0.8253650553512E+00  0.6882068122331E+00  0.0000000000000E+00
-0.8699413224474E+00  0.7497215571797E+00  0.0000000000000E+00
-0.9145175895436E+00  0.8112363021263E+00  0.0000000000000E+00
-0.9590938566398E+00  0.8727510470728E+00  0.0000000000000E+00
-0.1003670123736E+01  0.9342657920194E+00  0.0000000000000E+00
-0.5674541536864E+00  0.4603381160929E+00  0.0000000000000E+00
-0.6068086902216E+00  0.5250205862388E+00  0.0000000000000E+00
-0.6461632267567E+00  0.5897030563848E+00  0.0000000000000E+00
-0.6855177632919E+00  0.6543855265307E+00  0.0000000000000E+00
-0.7248722998271E+00  0.7190679966767E+00  0.0000000000000E+00
-0.7642268363623E+00  0.7837504668226E+00  0.0000000000000E+00
-0.8035813728974E+00  0.8484329369686E+00  0.0000000000000E+00
-0.8429359094326E+00  0.9131154071145E+00  0.0000000000000E+00
-0.8822904459678E+00  0.9777978772605E+00  0.0000000000000E+00
-0.4874864927934E+00  0.4767023850508E+00  0.0000000000000E+00
-0.5216192404544E+00  0.5446446960190E+00  0.0000000000000E+00
-0.5557519881153E+00  0.6125870069873E+00  0.0000000000000E+00
-0.5898847357762E+00  0.6805293179555E+00  0.0000000000000E+00
-0.6240174834372E+00  0.7484716289237E+00  0.0000000000000E+00
-0.6581502310981E+00  0.8164139398920E+00  0.0000000000000E+00
-0.6922829787591E+00  0.8843562508602E+00  0.0000000000000E+00
-0.7264157264200E+00  0.9522985618284E+00  0.0000000000000E+00
-0.7605484740810E+00  0.1020240872797E+01  0.0000000000000E+00
-0.4070743133994E+00  0.4908323142830E+00  0.0000000000000E+00
-0.4358569516264E+00  0.5617533974853E+00  0.0000000000000E+00
-0.4646395898535E+00  0.6326744806875E+00  0.0000000000000E+00
-0.4934222280806E+00  0.7035955638897E+00  0.0000000000000E+00
-0.5222048663076E+00  0.7745166470919E+00  0.0000000000000E+00
-0.5509875045347E+00  0.8454377302941E+00  0.0000000000000E+00
-0.5797701427618E+00  0.9163588134963E+00  0.0000000000000E+00
-0.6085527809888E+00  0.9872798966986E+00  0.0000000000000E+00
-0.6373354192159E+00  0.1058200979901E+01  0.0000000000000E+00
-0.3262058732712E+00  0.5024255397187E+00  0.0000000000000E+00
-0.3494501300712E+00  0.5757726186668E+00  0.0000000000000E+00
-0.3726943868712E+00  0.6491196976150E+00  0.0000000000000E+00
-0.3959386436712E+00  0.7224667765632E+00  0.0000000000000E+00
-0.4191829004712E+00  0.7958138555114E+00  0.0000000000000E+00
-0.4424271572712E+00  0.8691609344596E+00  0.0000000000000E+00
-0.4656714140712E+00  0.9425080134077E+00  0.0000000000000E+00
-0.4889156708712E+00  0.1015855092356E+01  0.0000000000000E+00
-0.5121599276713E+00  0.1089202171304E+01  0.0000000000000E+00
-0.2449696928514E+00  0.5114464367078E+00  0.0000000000000E+00
-0.2625252366944E+00  0.5866568563038E+00  0.0000000000000E+00
-0.2800807805375E+00  0.6618672758998E+00  0.0000000000000E+00
-0.2976363243805E+00  0.7370776954957E+00  0.0000000000000E+00
-0.3151918682236E+00  0.8122881150917E+00  0.0000000000000E+00
-0.3327474120667E+00  0.8874985346877E+00  0.0000000000000E+00
-0.3503029559097E+00  0.9627089542837E+00  0.0000000000000E+00
-0.3678584997528E+00  0.1037919373880E+01  0.0000000000000E+00
-0.3854140435958E+00  0.1113129793476E+01  0.0000000000000E+00
-0.1634632579838E+00  0.5179088773513E+00  0.0000000000000E+00
-0.1752246863765E+00  0.5944543064906E+00  0.0000000000000E+00
-0.1869861147692E+00  0.6709997356298E+00  0.0000000000000E+00
-0.1987475431619E+00  0.7475451647691E+00  0.0000000000000E+00
-0.2105089715546E+00  0.8240905939083E+00  0.0000000000000E+00
-0.2222703999473E+00  0.9006360230476E+00  0.0000000000000E+00
-0.2340318283400E+00  0.9771814521868E+00  0.0000000000000E+00
-0.2457932567327E+00  0.1053726881326E+01  0.0000000000000E+00
-0.2575546851254E+00  0.1130272310465E+01  0.0000000000000E+00
-0.8177747086543E-01  0.5218135049328E+00  0.0000000000000E+00
-0.8767620096390E-01  0.5991810988308E+00  0.0000000000000E+00
-0.9357493106237E-01  0.6765486927287E+00  0.0000000000000E+00
-0.9947366116083E-01  0.7539162866266E+00  0.0000000000000E+00
-0.1053723912593E+00  0.8312838805245E+00  0.0000000000000E+00
-0.1112711213578E+00  0.9086514744224E+00  0.0000000000000E+00
-0.1171698514562E+00  0.9860190683204E+00  0.0000000000000E+00
-0.1230685815547E+00  0.1063386662218E+01  0.0000000000000E+00
-0.1289673116532E+00  0.1140754256116E+01  0.0000000000000E+00
 0.4058808316585E-10  0.5231292357807E+00  0.0000000000000E+00
 0.8117646714002E-10  0.6007840673293E+00  0.0000000000000E+00
 0.1217649898921E-09  0.6784388988780E+00  0.0000000000000E+00
 0.1623534571330E-09  0.7560937304266E+00  0.0000000000000E+00
 0.2029419521295E-09  0.8337485619753E+00  0.0000000000000E+00
 0.2435305581482E-09  0.9114033935239E+00  0.0000000000000E+00
 0.2841190531447E-09  0.9890582250725E+00  0.0000000000000E+00
 0.3247077701858E-09  0.1066713056621E+01  0.0000000000000E+00
 0.3652960431377E-09  0.1144367888170E+01  0.0000000000000E+00
 0.8177747094646E-01  0.5218135049277E+00  0.0000000000000E+00
 0.8767620112596E-01  0.5991810988204E+00  0.0000000000000E+00
 0.9357493130547E-01  0.6765486927132E+00  0.0000000000000E+00
 0.9947366148497E-01  0.7539162866059E+00  0.0000000000000E+00
 0.1053723916645E+00  0.8312838804987E+00  0.0000000000000E+00
 0.1112711218440E+00  0.9086514743914E+00  0.0000000000000E+00
 0.1171698520235E+00  0.9860190682842E+00  0.0000000000000E+00
 0.1230685822030E+00  0.1063386662177E+01  0.0000000000000E+00
 0.1289673123825E+00  0.1140754256070E+01  0.0000000000000E+00
 0.1634632580644E+00  0.5179088773413E+00  0.0000000000000E+00
 0.1752246865377E+00  0.5944543064706E+00  0.0000000000000E+00
 0.1869861150110E+00  0.6709997355998E+00  0.0000000000000E+00
 0.1987475434844E+00  0.7475451647290E+00  0.0000000000000E+00
 0.2105089719577E+00  0.8240905938582E+00  0.0000000000000E+00
 0.2222704004310E+00  0.9006360229875E+00  0.0000000000000E+00
 0.2340318289043E+00  0.9771814521167E+00  0.0000000000000E+00
 0.2457932573776E+00  0.1053726881246E+01  0.0000000000000E+00
 0.2575546858510E+00  0.1130272310375E+01  0.0000000000000E+00
 0.2449696929314E+00  0.5114464366931E+00  0.0000000000000E+00
 0.2625252368544E+00  0.5866568562744E+00  0.0000000000000E+00
 0.2800807807774E+00  0.6618672758557E+00  0.0000000000000E+00
 0.2976363247005E+00  0.7370776954370E+00  0.0000000000000E+00
 0.3151918686235E+00  0.8122881150183E+00  0.0000000000000E+00
 0.3327474125465E+00  0.8874985345996E+00  0.0000000000000E+00
 0.3503029564696E+00  0.9627089541809E+00  0.0000000000000E+00
 0.3678585003926E+00  0.1037919373762E+01  0.0000000000000E+00
 0.3854140443156E+00  0.1113129793344E+01  0.0000000000000E+00
 0.3262058733503E+00  0.5024255396995E+00  0.0000000000000E+00
 0.3494501302294E+00  0.5757726186284E+00  0.0000000000000E+00
 0.3726943871084E+00  0.6491196975574E+00  0.0000000000000E+00
 0.3959386439875E+00  0.7224667764863E+00  0.0000000000000E+00
 0.4191829008666E+00  0.7958138554153E+00  0.0000000000000E+00
 0.4424271577456E+00  0.8691609343443E+00  0.0000000000000E+00
 0.4656714146247E+00  0.9425080132732E+00  0.0000000000000E+00
 0.4889156715038E+00  0.1015855092202E+01  0.0000000000000E+00
 0.5121599283828E+00  0.1089202171131E+01  0.0000000000000E+00
 0.4070743134774E+00  0.4908323142595E+00  0.0000000000000E+00
 0.4358569517824E+00  0.5617533974382E+00  0.0000000000000E+00
 0.4646395900874E+00  0.6326744806169E+00  0.0000000000000E+00
 0.4934222283925E+00  0.7035955637956E+00  0.0000000000000E+00
 0.5222048666975E+00  0.7745166469743E+00  0.0000000000000E+00
 0.5509875050026E+00  0.8454377301529E+00  0.0000000000000E+00
 0.5797701433076E+00  0.9163588133316E+00  0.0000000000000E+00
 0.6085527816127E+00  0.9872798965103E+00  0.0000000000000E+00
 0.6373354199177E+00  0.1058200979689E+01  0.0000000000000E+00
 0.4874864928703E+00  0.4767023850238E+00  0.0000000000000E+00
 0.5216192406082E+00  0.5446446959651E+00  0.0000000000000E+00
 0.5557519883461E+00  0.6125870069063E+00  0.0000000000000E+00
 0.5898847360840E+00  0.6805293178476E+00  0.0000000000000E+00
 0.6240174838218E+00  0.7484716287888E+00  0.0000000000000E+00
 0.6581502315597E+00  0.8164139397300E+00  0.0000000000000E+00
 0.6922829792976E+00  0.8843562506713E+00  0.0000000000000E+00
 0.7264157270354E+00  0.9522985616125E+00  0.0000000000000E+00
 0.7605484747733E+00  0.1020240872554E+01  0.0000000000000E+00
 0.5674541537630E+00  0.4603381160649E+00  0.0000000000000E+00
 0.6068086903747E+00  0.5250205861830E+00  0.0000000000000E+00
 0.6461632269865E+00  0.5897030563010E+00  0.0000000000000E+00
 0.6855177635982E+00  0.6543855264191E+00  0.0000000000000E+00
 0.7248723002099E+00  0.7190679965371E+00  0.0000000000000E+00
 0.7642268368217E+00  0.7837504666552E+00  0.0000000000000E+00
 0.8035813734334E+00  0.8484329367732E+00  0.0000000000000E+00
 0.8429359100452E+00  0.9131154068912E+00  0.0000000000000E+00
 0.8822904466569E+00  0.9777978770093E+00  0.0000000000000E+00
 0.6470599870427E+00  0.4421478324182E+00  0.0000000000000E+00
 0.6916362542152E+00  0.5036625773361E+00  0.0000000000000E+00
 0.7362125213877E+00  0.5651773222539E+00  0.0000000000000E+00
 0.7807887885601E+00  0.6266920671718E+00  0.0000000000000E+00
 0.8253650557326E+00  0.6882068120896E+00  0.0000000000000E+00
 0.8699413229051E+00  0.7497215570075E+00  0.0000000000000E+00
 0.9145175900776E+00  0.8112363019254E+00  0.0000000000000E+00
 0.9590938572500E+00  0.8727510468432E+00  0.0000000000000E+00
 0.1003670124423E+01  0.9342657917611E+00  0.0000000000000E+00
 0.7262154212153E+00  0.4220388917836E+00  0.0000000000000E+00
 0.7759671762288E+00  0.4803462985835E+00  0.0000000000000E+00
 0.8257189312424E+00  0.5386537053834E+00  0.0000000000000E+00
 0.8754706862560E+00  0.5969611121833E+00  0.0000000000000E+00
 0.9252224412695E+00  0.6552685189833E+00  0.0000000000000E+00
 0.9749741962831E+00  0.7135759257832E+00  0.0000000000000E+00
 0.1024725951297E+01  0.7718833325831E+00  0.0000000000000E+00
 0.1074477706310E+01  0.8301907393830E+00  0.0000000000000E+00
 0.1124229461324E+01  0.8884981461829E+00  0.0000000000000E+00
</DataArray>
</Points>
<Cells>
<DataArray type="Int64" Name="connectivity" format="ascii">
0 11 218 123
123 218 219 124
124 219 220 125
125 220 221 126
126 221 222 127
127 222 223 128
128 223 224 129
129 224 225 130
130 225 226 131
131 226 227 132
132 227 228 133
133 228 229 134
134 229 230 135
135 230 231 136
136 231 232 137
137 232 233 138
138 233 234 139
139 234 235 140
140 235 236 141
141 236 237 142
142 237 49 3
11 12 238 218
218 238 239 219
219 239 240 220
220 240 241 221
221 241 242 222
222 242 243 223
223 243 244 224
224 244 245 225
225 245 246 226
226 246 247 227
227 247 248 228
228 248 249 229
229 249 250 230
230 250 251 231
231 251 252 232
232 252 253 233
233 253 254 234
234 254 255 235
235 255 256 236
236 256 257 237
237 257 50 49
12 13 258 238
238 258 259 239
239 259 260 240
240 260 261 241
241 261 262 242
242 262 263 243
243 263 264 244
244 264 265 245
245 265 266 246
246 266 267 247
247 267 268 248
248 268 269 249
249 269 270 250
250 270 271 251
251 271 272 252
252 272 273 253
253 273 274 254
254 274 275 255
255 275 276 256
256 276 277 257
257 277 51 50
13 14 278 258
258 278 279 259
259 279 280 260
260 280 281 261
261 281 282 262
262 282 283 263
263 283 284 264
264 284 285 265
265 285 286 266
266 286 287 267
267 287 288 268
268 288 289 269
269 289 290 270
270 290 291 271
271 291 292 272
272 292 293 273
273 293 294 274
274 294 295 275
275 295 296 276
276 296 297 277
277 297 52 51
14 15 298 278
278 298 299 279
279 299 300 280
280 300 301 281
281 301 302 282
282 302 303 283
283 303 304 284
284 304 305 285
285 305 306 286
286 306 307 287
287 307 308 288
288 308 309 289
289 309 310 290
290 310 311 291
291 311 312 292
292 312 313 293
293 313 314 294
294 314 315 295
295 315 316 296
296 316 317 297
297 317 53 52
15 16 318 298
298 318 319 299
299 319 320 300
300 320 321 301
301 321 322 302
302 322 323 303
303 323 324 304
304 324 325 305
305 325 326 306
306 326 327 307
307 327 328 308
308 328 329 309
309 329 330 310
310 330 331 311
311 331 332 312
312 332 333 313
313 333 334 314
314 334 335 315
315 335 336 316
316 336 337 317
317 337 54 53
16 17 338 318
318 338 339 319
319 339 340 320
320 340 341 321
321 341 342 322
322 342 343 323
323 343 344 324
324 344 345 325
325 345 346 326
326 346 347 327
327 347 348 328
328 348 349 329
329 349 350 330
330 350 351 331
331 351 352 332
332 352 353 333
333 353 354 334
334 354 355 335
335 355 356 336
336 356 357 337
337 357 55 54
17 18 358 338
338 358 359 339
339 359 360 340
340 360 361 341
341 361 362 342
342 362 363 343
343 363 364 344
344 364 365 345
345 365 366 346
346 366 367 347
347 367 368 348
348 368 369 349
349 369 370 350
350 370 371 351
351 371 372 352
352 372 373 353
353 373 374 354
354 374 375 355
355 375 376 356
356 376 377 357
357 377 56 55
18 19 378 358
358 378 379 359
359 379 380 360
360 380 381 361
361 381 382 362
362 382 383 363
363 383 384 364
364 384 385 365
365 385 386 366
366 386 387 367
367 387 388 368
368 388 389 369
369 389 390 370
370 390 391 371
371 391 392 372
372 392 393 373
373 393 394 374
374 394 395 375
375 395 396 376
376 396 397 377
377 397 57 56
19 20 398 378
378 398 399 379
379 399 400 380
380 400 401 381
381 401 402 382
382 402 403 383
383 403 404 384
384 404 405 385
385 405 406 386
386 406 407 387
387 407 408 388
388 408 409 389
389 409 410 390
390 410 411 391
391 411 412 392
392 412 413 393
393 413 414 394
394 414 415 395
395 415 416 396
396 416 417 397
397 417 4 57
20 21 418 398
398 418 419 399
399 419 420 400
400 420 421 401
401 421 422 402
402 422 423 403
403 423 424 404
404 424 425 405
405 425 426 406
406 426 427 407
407 427 428 408
408 428 429 409
409 429 430 410
410 430 431 411
411 431 432 412
412 432 433 413
413 433 434 414
414 434 435 415
415 435 436 416
416 436 437 417
417 437 58 4
21 22 438 418
418 438 439 419
419 439 440 420
420 440 441 421
421 441 442 422
422 442 443 423
423 443 444 424
424 444 445 425
425 445 446 426
426 446 447 427
427 447 448 428
428 448 449 429
429 449 450 430
430 450 451 431
431 451 452 432
432 452 453 433
433 453 454 434
434 454 455 435
435 455 456 436
436 456 457 437
437 457 59 58
22 23 458 438
438 458 459 439
439 459 460 440
440 460 461 441
441 461 462 442
442 462 463 443
443 463 464 444
444 464 465 445
445 465 466 446
446 466 467 447
447 467 468 448
448 468 469 449
449 469 470 450
450 470 471 451
451 471 472 452
452 472 473 453
453 473 474 454
454 474 475 455
455 475 476 456
456 476 477 457
457 477 60 59
23 24 478 458
458 478 479 459
459 479 480 460
460 480 481 461
461 481 482 462
462 482 483 463
463 483 484 464
464 484 485 465
465 485 486 466
466 486 487 467
467 487 488 468
468 488 489 469
469 489 490 470
470 490 491 471
471 491 492 472
472 492 493 473
473 493 494 474
474 494 495 475
475 495 496 476
476 496 497 477
477 497 61 60
24 25 498 478
478 498 499 479
479 499 500 480
480 500 501 481
481 501 502 482
482 502 503 483
483 503 504 484
484 504 505 485
485 505 506 486
486 506 507 487
487 507 508 488
488 508 509 489
489 509 510 490
490 510 511 491
491 511 512 492
492 512 513 493
493 513 514 494
494 514 515 495
495 515 516 496
496 516 517 497
497 517 62 61
25 26 518 498
498 518 519 499
499 519 520 500
500 520 521 501
501 521 522 502
502 522 523 503
503 523 524 504
504 524 525 505
505 525 526 506
506 526 527 507
507 527 528 508
508 528 529 509
509 529 530 510
510 530 531 511
511 531 532 512
512 532 533 513
513 533 534 514
514 534 535 515
515 535 536 516
516 536 537 517
517 537 63 62
26 27 538 518
518 538 539 519
519 539 540 520
520 540 541 521
521 541 542 522
522 542 543 523
523 543 544 524
524 544 545 525
525 545 546 526
526 546 547 527
527 547 548 528
528 548 549 529
529 549 550 530
530 550 551 531
531 551 552 532
532 552 553 533
533 553 554 534
534 554 555 535
535 555 556 536
536 556 557 537
537 557 64 63
27 28 558 538
538 558 559 539
539 559 560 540
540 560 561 541
541 561 562 542
542 562 563 543
543 563 564 544
544 564 565 545
545 565 566 546
546 566 567 547
547 567 568 548
548 568 569 549
549 569 570 550
550 570 571 551
551 571 572 552
552 572 573 553
553 573 574 554
554 574 575 555
555 575 576 556
556 576 577 557
557 577 65 64
28 29 578 558
558 578 579 559
559 579 580 560
560 580 581 561
561 581 582 562
562 582 583 563
563 583 584 564
564 584 585 565
565 585 586 566
566 586 587 567
567 587 588 568
568 588 589 569
569 589 590 570
570 590 591 571
571 591 592 572
572 592 593 573
573 593 594 574
574 594 595 575
575 595 596 576
576 596 597 577
577 597 66 65
29 1 598 578
578 598 599 579
579 599 600 580
580 600 601 581
581 601 602 582
582 602 603 583
583 603 604 584
584 604 605 585
585 605 606 586
586 606 607 587
587 607 608 588
588 608 609 589
589 609 610 590
590 610 611 591
591 611 612 592
592 612 613 593
593 613 614 594
594 614 615 595
595 615 616 596
596 616 617 597
597 617 67 66
1 30 618 598
598 618 619 599
599 619 620 600
600 620 621 601
601 621 622 602
602 622 623 603
603 623 624 604
604 624 625 605
605 625 626 606
606 626 627 607
607 627 628 608
608 628 629 609
609 629 630 610
610 630 631 611
611 631 632 612
612 632 633 613
613 633 634 614
614 634 635 615
615 635 636 616
616 636 637 617
617 637 68 67
30 31 638 618
618 638 639 619
619 639 640 620
620 640 641 621
621 641 642 622
622 642 643 623
623 643 644 624
624 644 645 625
625 645 646 626
626 646 647 627
627 647 648 628
628 648 649 629
629 649 650 630
630 650 651 631
631 651 652 632
632 652 653 633
633 653 654 634
634 654 655 635
635 655 656 636
636 656 657 637
637 657 69 68
31 32 658 638
638 658 659 639
639 659 660 640
640 660 661 641
641 661 662 642
642 662 663 643
643 663 664 644
644 664 665 645
645 665 666 646
646 666 667 647
647 667 668 648
648 668 669 649
649 669 670 650
650 670 671 651
651 671 672 652
652 672 673 653
653 673 674 654
654 674 675 655
655 675 676 656
656 676 677 657
657 677 70 69
32 33 678 658
658 678 679 659
659 679 680 660
660 680 681 661
661 681 682 662
662 682 683 663
663 683 684 664
664 684 685 665
665 685 686 666
666 686 687 667
667 687 688 668
668 688 689 669
669 689 690 670
670 690 691 671
671 691 692 672
672 692 693 673
673 693 694 674
674 694 695 675
675 695 696 676
676 696 697 677
677 697 71 70
33 34 698 678
678 698 699 679
679 699 700 680
680 700 701 681
681 701 702 682
682 702 703 683
683 703 704 684
684 704 705 685
685 705 706 686
686 706 707 687
687 707 708 688
688 708 709 689
689 709 710 690
690 710 711 691
691 711 712 692
692 712 713 693
693 713 714 694
694 714 715 695
695 715 716 696
696 716 717 697
697 717 72 71
34 35 718 698
698 718 719 699
699 719 720 700
700 720 721 701
701 721 722 702
702 722 723 703
703 723 724 704
704 724 725 705
705 725 726 706
706 726 727 707
707 727 728 708
708 728 729 709
709 729 730 710
710 730 731 711
711 731 732 712
712 732 733 713
713 733 734 714
714 734 735 715
715 735 736 716
716 736 737 717
717 737 73 72
35 36 738 718
718 738 739 719
719 739 740 720
720 740 741 721
721 741 742 722
722 742 743 723
723 743 744 724
724 744 745 725
725 745 746 726
726 746 747 727
727 747 748 728
728 748 749 729
729 749 750 730
730 750 751 731
731 751 752 732
732 752 753 733
733 753 754 734
734 754 755 735
735 755 756 736
736 756 757 737
737 757 74 73
36 37 758 738
738 758 759 739
739 759 760 740
740 760 761 741
741 761 762 742
742 762 763 743
743 763 764 744
744 764 765 745
745 765 766 746
746 766 767 747
747 767 768 748
748 768 769 749
749 769 770 750
750 770 771 751
751 771 772 752
752 772 773 753
753 773 774 754
754 774 775 755
755 775 776 756
756 776 777 757
757 777 75 74
37 38 778 758
758 778 779 759
759 779 780 760
760 780 781 761
761 781 782 762
762 782 783 763
763 783 784 764
764 784 785 765
765 785 786 766
766 786 787 767
767 787 788 768
768 788 789 769
769 789 790 770
770 790 791 771
771 791 792 772
772 792 793 773
773 793 794 774
774 794 795 775
775 795 796 776
776 796 797 777
777 797 76 75
38 39 798 778
778 798 799 779
779 799 800 780
780 800 801 781
781 801 802 782
782 802 803 783
783 803 804 784
784 804 805 785
785 805 806 786
786 806 807 787
787 807 808 788
788 808 809 789
789 809 810 790
790 810 811 791
791 811 812 792
792 812 813 793
793 813 814 794
794 814 815 795
795 815 816 796
796 816 817 797
797 817 5 76
39 40 818 798
798 818 819 799
799 819 820 800
800 820 821 801
801 821 822 802
802 822 823 803
803 823 824 804
804 824 825 805
805 825 826 806
806 826 827 807
807 827 828 808
808 828 829 809
809 829 830 810
810 830 831 811
811 831 832 812
812 832 833 813
813 833 834 814
814 834 835 815
815 835 836 816
816 836 837 817
817 837 77 5
40 41 838 818
818 838 839 819
819 839 840 820
820 840 841 821
821 841 842 822
822 842 843 823
823 843 844 824
824 844 845 825
825 845 846 826
826 846 847 827
827 847 848 828
828 848 849 829
829 849 850 830
830 850 851 831
831 851 852 832
832 852 853 833
833 853 854 834
834 854 855 835
835 855 856 836
836 856 857 837
837 857 78 77
41 42 858 838
838 858 859 839
839 859 860 840
840 860 861 841
841 861 862 842
842 862 863 843
843 863 864 844
844 864 865 845
845 865 866 846
846 866 867 847
847 867 868 848
848 868 869 849
849 869 870 850
850 870 871 851
851 871 872 852
852 872 873 853
853 873 874 854
854 874 875 855
855 875 876 856
856 876 877 857
857 877 79 78
42 43 878 858
858 878 879 859
859 879 880 860
860 880 881 861
861 881 882 862
862 882 883 863
863 883 884 864
864 884 885 865
865 885 886 866
866 886 887 867
867 887 888 868
868 888 889 869
869 889 890 870
870 890 891 871
871 891 892 872
872 892 893 873
873 893 894 874
874 894 895 875
875 895 896 876
876 896 897 877
877 897 80 79
43 44 898 878
878 898 899 879
879 899 900 880
880 900 901 881
881 901 902 882
882 902 903 883
883 903 904 884
884 904 905 885
885 905 906 886
886 906 907 887
887 907 908 888
888 908 909 889
889 909 910 890
890 910 911 891
891 911 912 892
892 912 913 893
893 913 914 894
894 914 915 895
895 915 916 896
896 916 917 897
897 917 81 80
44 45 918 898
898 918 919 899
899 919 920 900
900 920 921 901
901 921 922 902
902 922 923 903
903 923 924 904
904 924 925 905
905 925 926 906
906 926 927 907
907 927 928 908
908 928 929 909
909 929 930 910
910 930 931 911
911 931 932 912
912 932 933 913
913 933 934 914
914 934 935 915
915 935 936 916
916 936 937 917
917 937 82 81
45 46 938 918
918 938 939 919
919 939 940 920
920 940 941 921
921 941 942 922
922 942 943 923
923 943 944 924
924 944 945 925
925 945 946 926
926 946 947 927
927 947 948 928
928 948 949 929
929 949 950 930
930 950 951 931
931 951 952 932
932 952 953 933
933 953 954 934
934 954 955 935
935 955 956 936
936 956 957 937
937 957 83 82
46 47 958 938
938 958 959 939
939 959 960 940
940 960 961 941
941 961 962 942
942 962 963 943
943 963 964 944
944 964 965 945
945 965 966 946
946 966 967 947
947 967 968 948
948 968 969 949
949 969 970 950
950 970 971 951
951 971 972 952
952 972 973 953
953 973 974 954
954 974 975 955
955 975 976 956
956 976 977 957
957 977 84 83
47 48 978 958
958 978 979 959
959 979 980 960
960 980 981 961
961 981 982 962
962 982 983 963
963 983 984 964
964 984 985 965
965 985 986 966
966 986 987 967
967 987 988 968
968 988 989 969
969 989 990 970
970 990 991 971
971 991 992 972
972 992 993 973
973 993 994 974
974 994 995 975
975 995 996 976
976 996 997 977
977 997 85 84
48 2 162 978
978 162 161 979
979 161 160 980
980 160 159 981
981 159 158 982
982 158 157 983
983 157 156 984
984 156 155 985
985 155 154 986
986 154 153 987
987 153 152 988
988 152 151 989
989 151 150 990
990 150 149 991
991 149 148 992
992 148 147 993
993 147 146 994
994 146 145 995
995 145 144 996
996 144 143 997
997 143 6 85
4 58 998 190
190 998 999 189
189 999 1000 188
188 1000 1001 187
187 1001 1002 186
186 1002 1003 185
185 1003 1004 184
184 1004 1005 183
183 1005 1006 182
182 1006 163 9
58 59 1007 998
998 1007 1008 999
999 1008 1009 1000
1000 1009 1010 1001
1001 1010 1011 1002
1002 1011 1012 1003
1003 1012 1013 1004
1004 1013 1014 1005
1005 1014 1015 1006
1006 1015 164 163
59 60 1016 1007
1007 1016 1017 1008
1008 1017 1018 1009
1009 1018 1019 1010
1010 1019 1020 1011
1011 1020 1021 1012
1012 1021 1022 1013
1013 1022 1023 1014
1014 1023 1024 1015
1015 1024 165 164
60 61 1025 1016
1016 1025 1026 1017
1017 1026 1027 1018
1018 1027 1028 1019
1019 1028 1029 1020
1020 1029 1030 1021
1021 1030 1031 1022
1022 1031 1032 1023
1023 1032 1033 1024
1024 1033 166 165
61 62 1034 1025
1025 1034 1035 1026
1026 1035 1036 1027
1027 1036 1037 1028
1028 1037 1038 1029
1029 1038 1039 1030
1030 1039 1040 1031
1031 1040 1041 1032
1032 1041 1042 1033
1033 1042 167 166
62 63 1043 1034
1034 1043 1044 1035
1035 1044 1045 1036
1036 1045 1046 1037
1037 1046 1047 1038
1038 1047 1048 1039
1039 1048 1049 1040
1040 1049 1050 1041
1041 1050 1051 1042
1042 1051 168 167
63 64 1052 1043
1043 1052 1053 1044
1044 1053 1054 1045
1045 1054 1055 1046
1046 1055 1056 1047
1047 1056 1057 1048
1048 1057 1058 1049
1049 1058 1059 1050
1050 1059 1060 1051
1051 1060 169 168
64 65 1061 1052
1052 1061 1062 1053
1053 1062 1063 1054
1054 1063 1064 1055
1055 1064 1065 1056
1056 1065 1066 1057
1057 1066 1067 1058
1058 1067 1068 1059
1059 1068 1069 1060
1060 1069 170 169
65 66 1070 1061
1061 1070 1071 1062
1062 1071 1072 1063
1063 1072 1073 1064
1064 1073 1074 1065
1065 1074 1075 1066
1066 1075 1076 1067
1067 1076 1077 1068
1068 1077 1078 1069
1069 1078 171 170
66 67 1079 1070
1070 1079 1080 1071
1071 1080 1081 1072
1072 1081 1082 1073
1073 1082 1083 1074
1074 1083 1084 1075
1075 1084 1085 1076
1076 1085 1086 1077
1077 1086 1087 1078
1078 1087 172 171
67 68 1088 1079
1079 1088 1089 1080
1080 1089 1090 1081
1081 1090 1091 1082
1082 1091 1092 1083
1083 1092 1093 1084
1084 1093 1094 1085
1085 1094 1095 1086
1086 1095 1096 1087
1087 1096 173 172
68 69 1097 1088
1088 1097 1098 1089
1089 1098 1099 1090
1090 1099 1100 1091
1091 1100 1101 1092
1092 1101 1102 1093
1093 1102 1103 1094
1094 1103 1104 1095
1095 1104 1105 1096
1096 1105 174 173
69 70 1106 1097
1097 1106 1107 1098
1098 1107 1108 1099
1099 1108 1109 1100
1100 1109 1110 1101
1101 1110 1111 1102
1102 1111 1112 1103
1103 1112 1113 1104
1104 1113 1114 1105
1105 1114 175 174
70 71 1115 1106
1106 1115 1116 1107
1107 1116 1117 1108
1108 1117 1118 1109
1109 1118 1119 1110
1110 1119 1120 1111
1111 1120 1121 1112
1112 1121 1122 1113
1113 1122 1123 1114
1114 1123 176 175
71 72 1124 1115
1115 1124 1125 1116
1116 1125 1126 1117
1117 1126 1127 1118
1118 1127 1128 1119
1119 1128 1129 1120
1120 1129 1130 1121
1121 1130 1131 1122
1122 1131 1132 1123
1123 1132 177 176
72 73 1133 1124
1124 1133 1134 1125
1125 1134 1135 1126
1126 1135 1136 1127
1127 1136 1137 1128
1128 1137 1138 1129
1129 1138 1139 1130
1130 1139 1140 1131
1131 1140 1141 1132
1132 1141 178 177
73 74 1142 1133
1133 1142 1143 1134
1134 1143 1144 1135
1135 1144 1145 1136
1136 1145 1146 1137
1137 1146 1147 1138
1138 1147 1148 1139
1139 1148 1149 1140
1140 1149 1150 1141
1141 1150 179 178
74 75 1151 1142
1142 1151 1152 1143
1143 1152 1153 1144
1144 1153 1154 1145
1145 1154 1155 1146
1146 1155 1156 1147
1147 1156 1157 1148
1148 1157 1158 1149
1149 1158 1159 1150
1150 1159 180 179
75 76 1160 1151
1151 1160 1161 1152
1152 1161 1162 1153
1153 1162 1163 1154
1154 1163 1164 1155
1155 1164 1165 1156
1156 1165 1166 1157
1157 1166 1167 1158
1158 1167 1168 1159
1159 1168 181 180
76 5 199 1160
1160 199 198 1161
1161 198 197 1162
1162 197 196 1163
1163 196 195 1164
1164 195 194 1165
1165 194 193 1166
1166 193 192 1167
1167 192 191 1168
1168 191 10 181
3 49 1169 86
86 1169 1170 87
87 1170 1171 88
88 1171 1172 89
89 1172 1173 90
90 1173 1174 91
91 1174 1175 92
92 1175 1176 93
93 1176 1177 94
94 1177 208 7
49 50 1178 1169
1169 1178 1179 1170
1170 1179 1180 1171
1171 1180 1181 1172
1172 1181 1182 1173
1173 1182 1183 1174
1174 1183 1184 1175
1175 1184 1185 1176
1176 1185 1186 1177
1177 1186 207 208
50 51 1187 1178
1178 1187 1188 1179
1179 1188 1189 1180
1180 1189 1190 1181
1181 1190 1191 1182
1182 1191 1192 1183
1183 1192 1193 1184
1184 1193 1194 1185
1185 1194 1195 1186
1186 1195 206 207
51 52 1196 1187
1187 1196 1197 1188
1188 1197 1198 1189
1189 1198 1199 1190
1190 1199 1200 1191
1191 1200 1201 1192
1192 1201 1202 1193
1193 1202 1203 1194
1194 1203 1204 1195
1195 1204 205 206
52 53 1205 1196
1196 1205 1206 1197
1197 1206 1207 1198
1198 1207 1208 1199
1199 1208 1209 1200
1200 1209 1210 1201
1201 1210 1211 1202
1202 1211 1212 1203
1203 1212 1213 1204
1204 1213 204 205
53 54 1214 1205
1205 1214 1215 1206
1206 1215 1216 1207
1207 1216 1217 1208
1208 1217 1218 1209
1209 1218 1219 1210
1210 1219 1220 1211
1211 1220 1221 1212
1212 1221 1222 1213
1213 1222 203 204
54 55 1223 1214
1214 1223 1224 1215
1215 1224 1225 1216
1216 1225 1226 1217
1217 1226 1227 1218
1218 1227 1228 1219
1219 1228 1229 1220
1220 1229 1230 1221
1221 1230 1231 1222
1222 1231 202 203
55 56 1232 1223
1223 1232 1233 1224
1224 1233 1234 1225
1225 1234 1235 1226
1226 1235 1236 1227
1227 1236 1237 1228
1228 1237 1238 1229
1229 1238 1239 1230
1230 1239 1240 1231
1231 1240 201 202
56 57 1241 1232
1232 1241 1242 1233
1233 1242 1243 1234
1234 1243 1244 1235
1235 1244 1245 1236
1236 1245 1246 1237
1237 1246 1247 1238
1238 1247 1248 1239
1239 1248 1249 1240
1240 1249 200 201
57 4 190 1241
1241 190 189 1242
1242 189 188 1243
1243 188 187 1244
1244 187 186 1245
1245 186 185 1246
1246 185 184 1247
1247 184 183 1248
1248 183 182 1249
1249 182 9 200
5 77 1250 199
199 1250 1251 198
198 1251 1252 197
197 1252 1253 196
196 1253 1254 195
195 1254 1255 194
194 1255 1256 193
193 1256 1257 192
192 1257 1258 191
191 1258 209 10
77 78 1259 1250
1250 1259 1260 1251
1251 1260 1261 1252
1252 1261 1262 1253
1253 1262 1263 1254
1254 1263 1264 1255
1255 1264 1265 1256
1256 1265 1266 1257
1257 1266 1267 1258
1258 1267 210 209
78 79 1268 1259
1259 1268 1269 1260
1260 1269 1270 1261
1261 1270 1271 1262
1262 1271 1272 1263
1263 1272 1273 1264
1264 1273 1274 1265
1265 1274 1275 1266
1266 1275 1276 1267
1267 1276 211 210
79 80 1277 1268
1268 1277 1278 1269
1269 1278 1279 1270
1270 1279 1280 1271
1271 1280 1281 1272
1272 1281 1282 1273
1273 1282 1283 1274
1274 1283 1284 1275
1275 1284 1285 1276
1276 1285 212 211
80 81 1286 1277
1277 1286 1287 1278
1278 1287 1288 1279
1279 1288 1289 1280
1280 1289 1290 1281
1281 1290 1291 1282
1282 1291 1292 1283
1283 1292 1293 1284
1284 1293 1294 1285
1285 1294 213 212
81 82 1295 1286
1286 1295 1296 1287
1287 1296 1297 1288
1288 1297 1298 1289
1289 1298 1299 1290
1290 1299 1300 1291
1291 1300 1301 1292
1292 1301 1302 1293
1293 1302 1303 1294
1294 1303 214 213
82 83 1304 1295
1295 1304 1305 1296
1296 1305 1306 1297
1297 1306 1307 1298
1298 1307 1308 1299
1299 1308 1309 1300
1300 1309 1310 1301
1301 1310 1311 1302
1302 1311 1312 1303
1303 1312 215 214
83 84 1313 1304
1304 1313 1314 1305
1305 1314 1315 1306
1306 1315 1316 1307
1307 1316 1317 1308
1308 1317 1318 1309
1309 1318 1319 1310
1310 1319 1320 1311
1311 1320 1321 1312
1312 1321 216 215
84 85 1322 1313
1313 1322 1323 1314
1314 1323 1324 1315
1315 1324 1325 1316
1316 1325 1326 1317
1317 1326 1327 1318
1318 1327 1328 1319
1319 1328 1329 1320
1320 1329 1330 1321
1321 1330 217 216
85 6 122 1322
1322 122 121 1323
1323 121 120 1324
1324 120 119 1325
1325 119 118 1326
1326 118 117 1327
1327 117 116 1328
1328 116 115 1329
1329 115 114 1330
1330 114 8 217
9 163 1331 200
200 1331 1332 201
201 1332 1333 202
202 1333 1334 203
203 1334 1335 204
204 1335 1336 205
205 1336 1337 206
206 1337 1338 207
207 1338 1339 208
208 1339 95 7
163 164 1340 1331
1331 1340 1341 1332
1332 1341 1342 1333
1333 1342 1343 1334
1334 1343 1344 1335
1335 1344 1345 1336
1336 1345 1346 1337
1337 1346 1347 1338
1338 1347 1348 1339
1339 1348 96 95
164 165 1349 1340
1340 1349 1350 1341
1341 1350 1351 1342
1342 1351 1352 1343
1343 1352 1353 1344
1344 1353 1354 1345
1345 1354 1355 1346
1346 1355 1356 1347
1347 1356 1357 1348
1348 1357 97 96
165 166 1358 1349
1349 1358 1359 1350
1350 1359 1360 1351
1351 1360 1361 1352
1352 1361 1362 1353
1353 1362 1363 1354
1354 1363 1364 1355
1355 1364 1365 1356
1356 1365 1366 1357
1357 1366 98 97
166 167 1367 1358
1358 1367 1368 1359
1359 1368 1369 1360
1360 1369 1370 1361
1361 1370 1371 1362
1362 1371 1372 1363
1363 1372 1373 1364
1364 1373 1374 1365
1365 1374 1375 1366
1366 1375 99 98
167 168 1376 1367
1367 1376 1377 1368
1368 1377 1378 1369
1369 1378 1379 1370
1370 1379 1380 1371
1371 1380 1381 1372
1372 1381 1382 1373
1373 1382 1383 1374
1374 1383 1384 1375
1375 1384 100 99
168 169 1385 1376
1376 1385 1386 1377
1377 1386 1387 1378
1378 1387 1388 1379
1379 1388 1389 1380
1380 1389 1390 1381
1381 1390 1391 1382
1382 1391 1392 1383
1383 1392 1393 1384
1384 1393 101 100
169 170 1394 1385
1385 1394 1395 1386
1386 1395 1396 1387
1387 1396 1397 1388
1388 1397 1398 1389
1389 1398 1399 1390
1390 1399 1400 1391
1391 1400 1401 1392
1392 1401 1402 1393
1393 1402 102 101
170 171 1403 1394
1394 1403 1404 1395
1395 1404 1405 1396
1396 1405 1406 1397
1397 1406 1407 1398
1398 1407 1408 1399
1399 1408 1409 1400
1400 1409 1410 1401
1401 1410 1411 1402
1402 1411 103 102
171 172 1412 1403
1403 1412 1413 1404
1404 1413 1414 1405
1405 1414 1415 1406
1406 1415 1416 1407
1407 1416 1417 1408
1408 1417 1418 1409
1409 1418 1419 1410
1410 1419 1420 1411
1411 1420 104 103
172 173 1421 1412
1412 1421 1422 1413
1413 1422 1423 1414
1414 1423 1424 1415
1415 1424 1425 1416
1416 1425 1426 1417
1417 1426 1427 1418
1418 1427 1428 1419
1419 1428 1429 1420
1420 1429 105 104
173 174 1430 1421
1421 1430 1431 1422
1422 1431 1432 1423
1423 1432 1433 1424
1424 1433 1434 1425
1425 1434 1435 1426
1426 1435 1436 1427
1427 1436 1437 1428
1428 1437 1438 1429
1429 1438 106 105
174 175 1439 1430
1430 1439 1440 1431
1431 1440 1441 1432
1432 1441 1442 1433
1433 1442 1443 1434
1434 1443 1444 1435
1435 1444 1445 1436
1436 1445 1446 1437
1437 1446 1447 1438
1438 1447 107 106
175 176 1448 1439
1439 1448 1449 1440
1440 1449 1450 1441
1441 1450 1451 1442
1442 1451 1452 1443
1443 1452 1453 1444
1444 1453 1454 1445
1445 1454 1455 1446
1446 1455 1456 1447
1447 1456 108 107
176 177 1457 1448
1448 1457 1458 1449
1449 1458 1459 1450
1450 1459 1460 1451
1451 1460 1461 1452
1452 1461 1462 1453
1453 1462 1463 1454
1454 1463 1464 1455
1455 1464 1465 1456
1456 1465 109 108
177 178 1466 1457
1457 1466 1467 1458
1458 1467 1468 1459
1459 1468 1469 1460
1460 1469 1470 1461
1461 1470 1471 1462
1462 1471 1472 1463
1463 1472 1473 1464
1464 1473 1474 1465
1465 1474 110 109
178 179 1475 1466
1466 1475 1476 1467
1467 1476 1477 1468
1468 1477 1478 1469
1469 1478 1479 1470
1470 1479 1480 1471
1471 1480 1481 1472
1472 1481 1482 1473
1473 1482 1483 1474
1474 1483 111 110
179 180 1484 1475
1475 1484 1485 1476
1476 1485 1486 1477
1477 1486 1487 1478
1478 1487 1488 1479
1479 1488 1489 1480
1480 1489 1490 1481
1481 1490 1491 1482
1482 1491 1492 1483
1483 1492 112 111
180 181 1493 1484
1484 1493 1494 1485
1485 1494 1495 1486
1486 1495 1496 1487
1487 1496 1497 1488
1488 1497 1498 1489
1489 1498 1499 1490
1490 1499 1500 1491
1491 1500 1501 1492
1492 1501 113 112
181 10 209 1493
1493 209 210 1494
1494 210 211 1495
1495 211 212 1496
1496 212 213 1497
1497 213 214 1498
1498 214 215 1499
1499 215 216 1500
1500 216 217 1501
1501 217 8 113
</DataArray>
<DataArray type="Int64" Name="offsets" format="ascii">
4
8
12
16
20
24
28
32
36
40
44
48
52
56
60
64
68
72
76
80
84
88
92
96
100
104
108
112
116
120
124
128
132
136
140
144
148
152
156
160
164
168
172
176
180
184
188
192
196
200
204
208
212
216
220
224
228
232
236
240
244
248
252
256
260
264
268
272
276
280
284
288
292
296
300
304
308
312
316
320
324
328
332
336
340
344
348
352
356
360
364
368
372
376
380
384
388
392
396
400
404
408
412
416
420
424
428
432
436
440
444
448
452
456
460
464
468
472
476
480
484
488
492
496
500
504
508
512
516
520
524
528
532
536
540
544
548
552
556
560
564
568
572
576
580
584
588
592
596
600
604
608
612
616
620
624
628
632
636
640
644
648
652
656
660
664
668
672
676
680
684
688
692
696
700
704
708
712
716
720
724
728
732
736
740
744
748
752
756
760
764
768
772
776
780
784
788
792
796
800
804
808
812
816
820
824
828
832
836
840
844
848
852
856
860
864
868
872
876
880
884
888
892
896
900
904
908
912
916
920
924
928
932
936
940
944
948
952
956
960
964
968
972
976
980
984
988
992
996
1000
1004
1008
1012
1016
1020
1024
1028
1032
1036
1040
1044
1048
1052
1056
1060
1064
1068
1072
1076
1080
1084
1088
1092
1096
1100
1104
1108
1112
1116
1120
1124
1128
1132
1136
1140
1144
1148
1152
1156
1160
1164
1168
1172
1176
1180
1184
1188
1192
1196
1200
1204
1208
1212
1216
1220
1224
1228
1232
1236
1240
1244
1248
1252
1256
1260
1264
1268
1272
1276
1280
1284
1288
1292
1296
1300
1304
1308
1312
1316
1320
1324
1328
1332
1336
1340
1344
1348
1352
1356
1360
1364
1368
1372
1376
1380
1384
1388
1392
1396
1400
1404
1408
1412
1416
1420
1424
1428
1432
1436
1440
1444
1448
1452
1456
1460
1464
1468
1472
1476
1480
1484
1488
1492
1496
1500
1504
1508
1512
1516
1520
1524
1528
1532
1536
1540
1544
1548
1552
1556
1560
1564
1568
1572
1576
1580
1584
1588
1592
1596
1600
1604
1608
1612
1616
1620
1624
1628
1632
1636
1640
1644
1648
1652
1656
1660
1664
1668
1672
1676
1680
1684
1688
1692
1696
1700
1704
1708
1712
1716
1720
1724
1728
1732
1736
1740
1744
1748
1752
1756
1760
1764
1768
1772
1776
1780
1784
1788
1792
1796
1800
1804
1808
1812
1816
1820
1824
1828
1832
1836
1840
1844
1848
1852
1856
1860
1864
1868
1872
1876
1880
1884
1888
1892
1896
1900
1904
1908
1912
1916
1920
1924
1928
1932
1936
1940
1944
1948
1952
1956
1960
1964
1968
1972
1976
1980
1984
1988
1992
1996
2000
2004
2008
2012
2016
2020
2024
2028
2032
2036
2040
2044
2048
2052
2056
2060
2064
2068
2072
2076
2080
2084
2088
2092
2096
2100
2104
2108
2112
2116
2120
2124
2128
2132
2136
2140
2144
2148
2152
2156
2160
2164
2168
2172
2176
2180
2184
2188
2192
2196
2200
2204
2208
2212
2216
2220
2224
2228
2232
2236
2240
2244
2248
2252
2256
2260
2264
2268
2272
2276
2280
2284
2288
2292
2296
2300
2304
2308
2312
2316
2320
2324
2328
2332
2336
2340
2344
2348
2352
2356
2360
2364
2368
2372
2376
2380
2384
2388
2392
2396
2400
2404
2408
2412
2416
2420
2424
2428
2432
2436
2440
2444
2448
2452
2456
2460
2464
2468
2472
2476
2480
2484
2488
2492
2496
2500
2504
2508
2512
2516
2520
2524
2528
2532
2536
2540
2544
2548
2552
2556
2560
2564
2568
2572
2576
2580
2584
2588
2592
2596
2600
2604
2608
2612
2616
2620
2624
2628
2632
2636
2640
2644
2648
2652
2656
2660
2664
2668
2672
2676
2680
2684
2688
2692
2696
2700
2704
2708
2712
2716
2720
2724
2728
2732
2736
2740
2744
2748
2752
2756
2760
2764
2768
2772
2776
2780
2784
2788
2792
2796
2800
2804
2808
2812
2816
2820
2824
2828
2832
2836
2840
2844
2848
2852
2856
2860
2864
2868
2872
2876
2880
2884
2888
2892
2896
2900
2904
2908
2912
2916
2920
2924
2928
2932
2936
2940
2944
2948
2952
2956
2960
2964
2968
2972
2976
2980
2984
2988
2992
2996
3000
3004
3008
3012
3016
3020
3024
3028
3032
3036
3040
3044
3048
3052
3056
3060
3064
3068
3072
3076
3080
3084
3088
3092
3096
3100
3104
3108
3112
3116
3120
3124
3128
3132
3136
3140
3144
3148
3152
3156
3160
3164
3168
3172
3176
3180
3184
3188
3192
3196
3200
3204
3208
3212
3216
3220
3224
3228
3232
3236
3240
3244
3248
3252
3256
3260
3264
3268
3272
3276
3280
3284
3288
3292
3296
3300
3304
3308
3312
3316
3320
3324
3328
3332
3336
3340
3344
3348
3352
3356
3360
3364
3368
3372
3376
3380
3384
3388
3392
3396
3400
3404
3408
3412
3416
3420
3424
3428
3432
3436
3440
3444
3448
3452
3456
3460
3464
3468
3472
3476
3480
3484
3488
3492
3496
3500
3504
3508
3512
3516
3520
3524
3528
3532
3536
3540
3544
3548
3552
3556
3560
3564
3568
3572
3576
3580
3584
3588
3592
3596
3600
3604
3608
3612
3616
3620
3624
3628
3632
3636
3640
3644
3648
3652
3656
3660
3664
3668
3672
3676
3680
3684
3688
3692
3696
3700
3704
3708
3712
3716
3720
3724
3728
3732
3736
3740
3744
3748
3752
3756
3760
3764
3768
3772
3776
3780
3784
3788
3792
3796
3800
3804
3808
3812
3816
3820
3824
3828
3832
3836
3840
3844
3848
3852
3856
3860
3864
3868
3872
3876
3880
3884
3888
3892
3896
3900
3904
3908
3912
3916
3920
3924
3928
3932
3936
3940
3944
3948
3952
3956
3960
3964
3968
3972
3976
3980
3984
3988
3992
3996
4000
4004
4008
4012
4016
4020
4024
4028
4032
4036
4040
4044
4048
4052
4056
4060
4064
4068
4072
4076
4080
4084
4088
4092
4096
4100
4104
4108
4112
4116
4120
4124
4128
4132
4136
4140
4144
4148
4152
4156
4160
4164
4168
4172
4176
4180
4184
4188
4192
4196
4200
4204
4208
4212
4216
4220
4224
4228
4232
4236
4240
4244
4248
4252
4256
4260
4264
4268
4272
4276
4280
4284
4288
4292
4296
4300
4304
4308
4312
4316
4320
4324
4328
4332
4336
4340
4344
4348
4352
4356
4360
4364
4368
4372
4376
4380
4384
4388
4392
4396
4400
4404
4408
4412
4416
4420
4424
4428
4432
4436
4440
4444
4448
4452
4456
4460
4464
4468
4472
4476
4480
4484
4488
4492
4496
4500
4504
4508
4512
4516
4520
4524
4528
4532
4536
4540
4544
4548
4552
4556
4560
4564
4568
4572
4576
4580
4584
4588
4592
4596
4600
4604
4608
4612
4616
4620
4624
4628
4632
4636
4640
4644
4648
4652
4656
4660
4664
4668
4672
4676
4680
4684
4688
4692
4696
4700
4704
4708
4712
4716
4720
4724
4728
4732
4736
4740
4744
4748
4752
4756
4760
4764
4768
4772
4776
4780
4784
4788
4792
4796
4800
4804
4808
4812
4816
4820
4824
4828
4832
4836
4840
4844
4848
4852
4856
4860
4864
4868
4872
4876
4880
4884
4888
4892
4896
4900
4904
4908
4912
4916
4920
4924
4928
4932
4936
4940
4944
4948
4952
4956
4960
4964
4968
4972
4976
4980
4984
4988
4992
4996
5000
5004
5008
5012
5016
5020
5024
5028
5032
5036
5040
5044
5048
5052
5056
5060
5064
5068
5072
5076
5080
5084
5088
5092
5096
5100
5104
5108
5112
5116
5120
5124
5128
5132
5136
5140
5144
5148
5152
5156
5160
5164
5168
5172
5176
5180
5184
5188
5192
5196
5200
5204
5208
5212
5216
5220
5224
5228
5232
5236
5240
5244
5248
5252
5256
5260
5264
5268
5272
5276
5280
5284
5288
5292
5296
5300
5304
5308
5312
5316
5320
5324
5328
5332
5336
5340
5344
5348
5352
5356
5360
5364
5368
5372
5376
5380
5384
5388
5392
5396
5400
5404
5408
5412
5416
5420
5424
5428
5432
5436
5440
5444
5448
5452
5456
5460
5464
5468
5472
5476
5480
5484
5488
5492
5496
5500
5504
5508
5512
5516
5520
5524
5528
5532
5536
5540
5544
5548
5552
5556
5560
5564
5568
5572
5576
5580
5584
5588
5592
5596
5600
5604
5608
5612
5616
5620
5624
5628
5632
5636
5640
5644
5648
5652
5656
5660
5664
5668
5672
5676
5680
5684
5688
5692
5696
5700
5704
5708
5712
5716
5720
5724
5728
5732
5736
5740
5744
5748
5752
5756
5760
</DataArray>
<DataArray type="Int64" Name="types" format="ascii">
9
9
9
9
9
9
9
9
9
9
9
9
9
9
9
9
9
9
9
9
9
9
9
9
9
9
9
9
9
9
9
9
9
9
9
9
9
9
9
9
9
9
9
9
9
9
9
9
9
9
9
9
9
9
9
9
9
9
9
9
9
9
9
9
9
9
9
9
9
9
9
9
9
9
9
9
9
9
9
9
9
9
9
9
9
9
9
9
9
9
9
9
9
9
9
9
9
9
9
9
9
9
9
9
9
9
9
9
9
9
9
9
9
9
9
9
9
9
9
9
9
9
9
9
9
9
9
9
9
9
9
9
9
9
9
9
9
9
9
9
9
9
9
9
9
9
9
9
9
9
9
9
9
9
9
9
9
9
9
9
9
9
9
9
9
9
9
9
9
9
9
9
9
9
9
9
9
9
9
9
9
9
9
9
9
9
9
9
9
9
9
9
9
9
9
9
9
9
9
9
9
9
9
9
9
9
9
9
9
9
9
9
9
9
9
9
9
9
9
9
9
9
9
9
9
9
9
9
9
9
9
9
9
9
9
9
9
9
9
9
9
9
9
9
9
9
9
9
9
9
9
9
9
9
9
9
9
9
9
9
9
9
9
9
9
9
9
9
9
9
9
9
9
9
9
9
9
9
9
9
9
9
9
9
9
9
9
9
9
9
9
9
9
9
9
9
9
9
9
9
9
9
9
9
9
9
9
9
9
9
9
9
9
9
9
9
9
9
9
9
9
9
9
9
9
9
9
9
9
9
9
9
9
9
9
9
9
9
9
9
9
9
9
9
9
9
9
9
9
9
9
9
9
9
9
9
9
9
9
9
9
9
9
9
9
9
9
9
9
9
9
9
9
9
9
9
9
9
9
9
9
9
9
9
9
9
9
9
9
9
9
9
9
9
9
9
9
9
9
9
9
9
9
9
9
9
9
9
9
9
9
9
9
9
9
9
9
9
9
9
9
9
9
9
9
9
9
9
9
9
9
9
9
9
9
9
9
9
9
9
9
9
9
9
9
9
9
9
9
9
9
9
9
9
9
9
9
9
9
9
9
9
9
9
9
9
9
9
9
9
9
9
9
9
9
9
9
9
9
9
9
9
9
9
9
9
9
9
9
9
9
9
9
9
9
9
9
9
9
9
9
9
9
9
9
9
9
9
9
9
9
9
9
9
9
9
9
9
9
9
9
9
9
9
9
9
9
9
9
9
9
9
9
9
9
9
9
9
9
9
9
9
9
9
9
9
9
9
9
9
9
9
9
9
9
9
9
9
9
9
9
9
9
9
9
9
9
9
9
9
9
9
9
9
9
9
9
9
9
9
9
9
9
9
9
9
9
9
9
9
9
9
9
9
9
9
9
9
9
9
9
9
9
9
9
9
9
9
9
9
9
9
9
9
9
9
9
9
9
9
9
9
9
9
9
9
9
9
9
9
9
9
9
9
9
9
9
9
9
9
9
9
9
9
9
9
9
9
9
9
9
9
9
9
9
9
9
9
9
9
9
9
9
9
9
9
9
9
9
9
9
9
9
9
9
9
9
9
9
9
9
9
9
9
9
9
9
9
9
9
9
9
9
9
9
9
9
9
9
9
9
9
9
9
9
9
9
9
9
9
9
9
9
9
9
9
9
9
9
9
9
9
9
9
9
9
9
9
9
9
9
9
9
9
9
9
9
9
9
9
9
9
9
9
9
9
9
9
9
9
9
9
9
9
9
9
9
9
9
9
9
9
9
9
9
9
9
9
9
9
9
9
9
9
9
9
9
9
9
9
9
9
9
9
9
9
9
9
9
9
9
9
9
9
9
9
9
9
9
9
9
9
9
9
9
9
9
9
9
9
9
9
9
9
9
9
9
9
9
9
9
9
9
9
9
9
9
9
9
9
9
9
9
9
9
9
9
9
9
9
9
9
9
9
9
9
9
9
9
9
9
9
9
9
9
9
9
9
9
9
9
9
9
9
9
9
9
9
9
9
9
9
9
9
9
9
9
9
9
9
9
9
9
9
9
9
9
9
9
9
9
9
9
9
9
9
9
9
9
9
9
9
9
9
9
9
9
9
9
9
9
9
9
9
9
9
9
9
9
9
9
9
9
9
9
9
9
9
9
9
9
9
9
9
9
9
9
9
9
9
9
9
9
9
9
9
9
9
9
9
9
9
9
9
9
9
9
9
9
9
9
9
9
9
9
9
9
9
9
9
9
9
9
9
9
9
9
9
9
9
9
9
9
9
9
9
9
9
9
9
9
9
9
9
9
9
9
9
9
9
9
9
9
9
9
9
9
9
9
9
9
9
9
9
9
9
9
9
9
9
9
9
9
9
9
9
9
9
9
9
9
9
9
9
9
9
9
9
9
9
9
9
9
9
9
9
9
9
9
9
9
9
9
9
9
9
9
9
9
9
9
9
9
9
9
9
9
9
9
9
9
9
9
9
9
9
9
9
9
9
9
9
9
9
9
9
9
9
9
9
9
9
9
9
9
9
9
9
9
9
9
9
9
9
9
9
9
9
9
9
9
9
9
9
9
9
9
9
9
9
9
9
9
9
9
9
9
9
9
9
9
9
9
9
9
9
9
9
9
9
9
9
9
9
9
9
9
9
9
9
9
9
9
9
9
9
9
9
9
9
9
9
9
9
9
9
9
9
9
9
9
9
9
9
9
9
9
9
9
9
9
9
9
9
9
9
9
9
9
9
9
9
9
9
9
9
9
9
9
9
9
9
9
9
9
9
9
9
9
9
9
9
9
9
9
9
9
9
9
9
9
9
9
9
9
9
9
9
9
9
9
9
9
9
9
9
9
9
9
9
9
9
9
9
9
9
9
9
9
9
9
9
9
9
9
9
9
9
9
9
9
9
9
9
9
9
9
9
9
9
9
9
9
9
9
9
9
9
9
9
9
9
9
9
9
9
9
9
9
9
9
9
9
9
9
9
9
9
9
9
9
9
9
9
9
9
9
9
9
9
9
9
9
9
9
9
9
9
9
9
9
9
9
9
9
9
9
9
9
9
9
9
9
9
9
9
9
9
9
9
9
9
9
9
9
9
9
9
9
9
9
9
9
9
9
9
9
9
9
9
9
9
9
9
9
9
9
9
9
9
9
9
9
9
9
9
9
9
9
9
9
9
9
9
9
9
9
9
9
9
9
9
9
9
9
9
9
9
9
9
9
9
9
9
9
9
9
9
9
9
9
9
9
9
9
9
9
9
9
9
9
9
9
9
9
9
9
9
9
9
9
9
9
9
9
9
9
9
9
9
</DataArray>
</Cells>
<PointData Vectors="'U'">
<DataArray type="Float64" Name="U" NumberOfComponents="2" ComponentName0="U1" ComponentName1="U2" format="ascii">
-0.6475953274406E-37 -0.1692467794257E-36
-0.9114395561535E-37 -0.1183817566590E-36
-0.6967945534675E-37  0.1817563917181E-36
-0.7016422442322E-01 -0.7075126109635E-01
-0.6541644952755E-01 -0.3033962246941E-01
-0.5318430549018E-01 -0.2939896461001E-02
-0.4299464039971E-01 -0.4685799154300E-02
-0.9545874524270E+00 -0.2645890666244E+00
-0.7644587842604E+00 -0.8025317210827E+00
-0.8903449855593E+00 -0.2262030486022E+00
-0.6070428635992E+00 -0.6968453111569E+00
-0.1739271613000E-36 -0.5550833449495E-36
-0.1719906134005E-36 -0.4897816411026E-36
-0.1659970465934E-36 -0.4445733523334E-36
-0.1597199286727E-36 -0.4089781180705E-36
-0.1537883428848E-36 -0.3790951548905E-36
-0.1482817299575E-36 -0.3530058876095E-36
-0.1431611977171E-36 -0.3296162310270E-36
-0.1383653016571E-36 -0.3082420016351E-36
-0.1338344091039E-36 -0.2884261963155E-36
-0.1295209478104E-36 -0.2698496619338E-36
-0.1253913228200E-36 -0.2523937702348E-36
-0.1213901340279E-36 -0.2357470545958E-36
-0.1174883627818E-36 -0.2197649990102E-36
-0.1136595466740E-36 -0.2043300165856E-36
-0.1098810259570E-36 -0.1893427839001E-36
-0.1061332785779E-36 -0.1747170101110E-36
-0.1023994004979E-36 -0.1603757923317E-36
-0.9866472313217E-37 -0.1462490319198E-36
-0.9491654467045E-37 -0.1322715635217E-36
-0.8733774778382E-37 -0.1045204489174E-36
-0.8349039695623E-37 -0.9063008616131E-37
-0.7959611691035E-37 -0.7665398218667E-37
-0.7565098685590E-37 -0.6253561992313E-37
-0.7165316012932E-37 -0.4821790805567E-37
-0.6760317227585E-37 -0.3364231203546E-37
-0.6350437354857E-37 -0.1874772814941E-37
-0.5936352848029E-37 -0.3468922506094E-38
-0.5519162507229E-37  0.1226576420143E-37
-0.5099896027798E-37  0.2854072204500E-37
-0.4680765004214E-37  0.4547028573066E-37
-0.4266199348288E-37  0.6314139771989E-37
-0.3860740742870E-37  0.8171038721471E-37
-0.3470866020072E-37  0.1014001746992E-36
-0.3105253916421E-37  0.1225551043788E-36
-0.2774054361804E-37  0.1457667711304E-36
-0.2481248574795E-37  0.1722100924092E-36
-0.2175653141306E-37  0.2047808989618E-36
-0.1398572749291E-37  0.2535675017979E-36
-0.7006024715931E-01 -0.6070472817746E-01
-0.6946247326874E-01 -0.5444746128922E-01
-0.6884764082187E-01 -0.4975212146722E-01
-0.6829344206891E-01 -0.4591733365443E-01
-0.6778653134799E-01 -0.4262449545249E-01
-0.6730623370070E-01 -0.3970772629784E-01
-0.6683705255699E-01 -0.3707174528128E-01
-0.6636924445948E-01 -0.3465687229842E-01
-0.6589706874725E-01 -0.3242288447639E-01
-0.6493891035888E-01 -0.2842347391165E-01
-0.6444674872404E-01 -0.2662089138747E-01
-0.6394365762408E-01 -0.2491523896732E-01
-0.6342960681466E-01 -0.2329443422150E-01
-0.6290417130172E-01 -0.2174762156614E-01
-0.6236670815021E-01 -0.2026520672661E-01
-0.6181649355647E-01 -0.1883861295926E-01
-0.6125277244385E-01 -0.1746013692161E-01
-0.6067479029049E-01 -0.1612285829785E-01
-0.6008181344631E-01 -0.1482059295696E-01
-0.5947314306597E-01 -0.1354788470222E-01
-0.5884812133683E-01 -0.1230002701102E-01
-0.5820612994781E-01 -0.1107311146576E-01
-0.5754658183290E-01 -0.9864100541486E-02
-0.5686890755741E-01 -0.8670918862654E-02
-0.5617254249328E-01 -0.7492558548894E-02
-0.5545691302658E-01 -0.6329170798915E-02
-0.5472138771279E-01 -0.5182054341185E-02
-0.5396505118509E-01 -0.4053421514049E-02
-0.5236619862071E-01 -0.1856446779073E-02
-0.5149764945579E-01 -0.8419633594590E-03
-0.5058466013483E-01  0.8538606762714E-04
-0.4962415761640E-01  0.8950911660975E-03
-0.4860824414740E-01  0.1540373464510E-02
-0.4752459936823E-01  0.1945625214402E-02
-0.4635898514484E-01  0.1980702861889E-02
-0.4510849186909E-01  0.1402429966972E-02
-0.4384980644172E-01 -0.3033080460452E-03
-0.2943733418369E+00 -0.2417970263921E+00
-0.4369140998841E+00 -0.3553026938143E+00
-0.5639497435203E+00 -0.4076979056016E+00
-0.6700122687221E+00 -0.4290646012140E+00
-0.7584315301967E+00 -0.4311671790681E+00
-0.8317450951031E+00 -0.4208331147617E+00
-0.8898309372066E+00 -0.3936476330141E+00
-0.9287202737680E+00 -0.3502798883056E+00
-0.9498289883811E+00 -0.3046147344310E+00
-0.9510816922184E+00 -0.2500622264380E+00
-0.9447888380360E+00 -0.2399994951420E+00
-0.9361503318427E+00 -0.2347954545901E+00
-0.9253205127819E+00 -0.2351163226120E+00
-0.9126162055156E+00 -0.2418145176730E+00
-0.8985493465694E+00 -0.2560052625430E+00
-0.8835860338782E+00 -0.2791155593823E+00
-0.8683184058742E+00 -0.3132210342130E+00
-0.8537420224321E+00 -0.3616527858000E+00
-0.8421104797631E+00 -0.4305470892978E+00
-0.8370852219156E+00 -0.5352382758523E+00
-0.8418387752453E+00 -0.6741634542602E+00
-0.8555299446206E+00 -0.8169615958883E+00
-0.8741132054446E+00 -0.9375344555682E+00
-0.8917897713624E+00 -0.1022479966128E+01
-0.9010990238019E+00 -0.1064646520316E+01
-0.8952350843719E+00 -0.1062234754663E+01
-0.8721100250831E+00 -0.1016557555087E+01
-0.8303994375559E+00 -0.9290256012190E+00
-0.5733364539494E+00 -0.5222074532243E+00
-0.3730140904937E+00 -0.3026295518636E+00
-0.2130646763985E+00 -0.1905421319201E+00
-0.8263245691619E-01 -0.1650212582393E+00
 0.1078264258451E-01 -0.1723620395952E+00
 0.7265092061584E-01 -0.1821420620048E+00
 0.1040895134006E+00 -0.1848197440954E+00
 0.1045883039593E+00 -0.1689350292850E+00
 0.7539329295779E-01 -0.1102942439951E+00
-0.2252542090792E-02 -0.3977951413662E-02
-0.3979562605431E-02 -0.6926917669043E-02
-0.5729049039406E-02 -0.9675663039556E-02
-0.7562551292607E-02 -0.1227473496244E-01
-0.9520645426266E-02 -0.1476034799658E-01
-0.1161339614403E-01 -0.1714996751805E-01
-0.1384334454538E-01 -0.1945568520619E-01
-0.1620666403221E-01 -0.2168940099712E-01
-0.1869577579452E-01 -0.2386722354966E-01
-0.2130422373504E-01 -0.2602330080704E-01
-0.2404385863923E-01 -0.2823295689536E-01
-0.2693820663967E-01 -0.3057195854236E-01
-0.2999146963807E-01 -0.3304172888749E-01
-0.3319841444399E-01 -0.3564373314082E-01
-0.3656245494170E-01 -0.3841312359354E-01
-0.4010295190913E-01 -0.4141385246314E-01
-0.4386604727471E-01 -0.4472777431563E-01
-0.4792667222685E-01 -0.4850847642416E-01
-0.5251561557381E-01 -0.5309527836736E-01
-0.5779123581431E-01 -0.5952565278842E-01
-0.4716630041602E-01  0.1124720406245E-02
-0.4588658336070E-01  0.3942384576041E-02
-0.4387573976023E-01  0.5592247587911E-02
-0.4133556234288E-01  0.6742765968483E-02
-0.3847849182937E-01  0.7589006801516E-02
-0.3540485861570E-01  0.8216427941027E-02
-0.3220260276409E-01  0.8667641301212E-02
-0.2894980797402E-01  0.8959975324730E-02
-0.2571388443985E-01  0.9114440548984E-02
-0.2255445837742E-01  0.9150205952405E-02
-0.1952173333536E-01  0.9066012779620E-02
-0.1664799220149E-01  0.8822698769747E-02
-0.1395083364403E-01  0.8417772051172E-02
-0.1144487947835E-01  0.7866432498103E-02
-0.9144373096818E-02  0.7178990903925E-02
-0.7062687489648E-02  0.6362489340298E-02
-0.5211539046948E-02  0.5421059336529E-02
-0.3601465290440E-02  0.4355096796922E-02
-0.2232892518000E-02  0.3156734019459E-02
-0.1105523592936E-02  0.1815479815149E-02
-0.8937764629878E+00 -0.2308852237086E+00
-0.8968928463419E+00 -0.2387470171248E+00
-0.8994751199634E+00 -0.2496810472045E+00
-0.9014507325886E+00 -0.2637623678912E+00
-0.9027197228549E+00 -0.2811090378792E+00
-0.9031248665930E+00 -0.3018488600926E+00
-0.9024300894532E+00 -0.3260777023706E+00
-0.9003060388638E+00 -0.3538121560548E+00
-0.8963232608411E+00 -0.3849444428712E+00
-0.8899554628034E+00 -0.4191902863406E+00
-0.8805997943427E+00 -0.4560266611585E+00
-0.8676351030517E+00 -0.4945853349275E+00
-0.8505167965539E+00 -0.5336300200928E+00
-0.8288615448342E+00 -0.5716825436546E+00
-0.8024875253679E+00 -0.6071681738790E+00
-0.7714199974599E+00 -0.6385329880641E+00
-0.7358802271573E+00 -0.6643306840926E+00
-0.6962677758741E+00 -0.6832813339459E+00
-0.6531371253210E+00 -0.6943392258595E+00
-0.8505356820189E+00 -0.2189798367144E+00
-0.8006869559452E+00 -0.2084878558847E+00
-0.7419046751191E+00 -0.1942592810175E+00
-0.6749177857740E+00 -0.1763140326491E+00
-0.5993820923233E+00 -0.1550212365554E+00
-0.5148116125754E+00 -0.1312085723833E+00
-0.4205671778189E+00 -0.1060271100900E+00
-0.3153830869112E+00 -0.8055226812047E-01
-0.1974667258012E+00 -0.5545417956187E-01
-0.5178203232682E+00 -0.6002591067119E+00
-0.4364787367576E+00 -0.5063186042980E+00
-0.3630109744108E+00 -0.4172284724686E+00
-0.2962651153839E+00 -0.3336809809567E+00
-0.2358822730634E+00 -0.2560300176757E+00
-0.1818889802474E+00 -0.1849728391720E+00
-0.1345417717304E+00 -0.1216654619620E+00
-0.9525156062027E-01 -0.6792597713871E-01
-0.6654312517030E-01 -0.2665870785238E-01
-0.9023361663929E+00 -0.2257316619548E+00
-0.9123890006103E+00 -0.2255768509933E+00
-0.9205586451459E+00 -0.2261600235371E+00
-0.9271680439900E+00 -0.2277522411596E+00
-0.9325956013069E+00 -0.2305399244113E+00
-0.9372229723957E+00 -0.2346355904726E+00
-0.9414104325304E+00 -0.2400926902695E+00
-0.9454905210581E+00 -0.2469209882762E+00
-0.9497656358805E+00 -0.2550952577539E+00
-0.6090005411823E+00 -0.7357337361617E+00
-0.6109828546539E+00 -0.7724107454856E+00
-0.6135579799438E+00 -0.8055342044083E+00
-0.6174810022773E+00 -0.8337562567755E+00
-0.6237871851683E+00 -0.8555351278913E+00
-0.6339106543101E+00 -0.8691486798663E+00
-0.6498202727727E+00 -0.8727230331179E+00
-0.6741938634280E+00 -0.8642620792862E+00
-0.7105779713529E+00 -0.8416983632610E+00
-0.1885921680994E-02 -0.3270705532697E-02
-0.3730629549044E-02 -0.6319228475999E-02
-0.5495715208218E-02 -0.9033911963170E-02
-0.7359642439683E-02 -0.1159757002038E-01
-0.9344119257741E-02 -0.1404020636245E-01
-0.1146458325011E-01 -0.1638496594414E-01
-0.1372257845197E-01 -0.1864591971912E-01
-0.1611408873098E-01 -0.2083636120848E-01
-0.1863068806286E-01 -0.2297320097122E-01
-0.2126603547001E-01 -0.2507943864050E-01
-0.2403437445495E-01 -0.2719998551051E-01
-0.2696322064726E-01 -0.2940592641316E-01
-0.3005775558581E-01 -0.3172240771312E-01
-0.3331167904047E-01 -0.3415643020442E-01
-0.3672959628065E-01 -0.3673045180804E-01
-0.4033475516903E-01 -0.3949255253132E-01
-0.4417413257952E-01 -0.4249834630368E-01
-0.4836066093193E-01 -0.4583265599045E-01
-0.5305909314827E-01 -0.4968847948257E-01
-0.5932886470668E-01 -0.5415270388562E-01
-0.1642810398462E-02 -0.2888946939464E-02
-0.3470507392787E-02 -0.5770131565731E-02
-0.5274273648315E-02 -0.8446320200410E-02
-0.7161006617802E-02 -0.1095523669876E-01
-0.9172061640810E-02 -0.1334688058232E-01
-0.1131893029168E-01 -0.1564019216277E-01
-0.1360408640831E-01 -0.1785039920737E-01
-0.1602294205338E-01 -0.1999052248121E-01
-0.1856746074885E-01 -0.2207461394514E-01
-0.2123388727553E-01 -0.2411545539241E-01
-0.2403769398631E-01 -0.2614416074204E-01
-0.2700464301250E-01 -0.2822795145838E-01
-0.3014057293042E-01 -0.3039870798538E-01
-0.3344205873427E-01 -0.3266542408577E-01
-0.3691675537414E-01 -0.3504252398136E-01
-0.4059109539562E-01 -0.3756239024104E-01
-0.4452585858390E-01 -0.4025133105556E-01
-0.4883950343066E-01 -0.4314656006573E-01
-0.5383409747974E-01 -0.4625745294312E-01
-0.6045453935795E-01 -0.4969250164101E-01
-0.1474466042088E-02 -0.2631203722693E-02
-0.3240013612874E-02 -0.5320660029008E-02
-0.5061581331254E-02 -0.7905419315974E-02
-0.6970784159049E-02 -0.1034951362789E-01
-0.9005432662644E-02 -0.1267992366299E-01
-0.1117763184865E-01 -0.1491526377326E-01
-0.1348900470154E-01 -0.1706850904299E-01
-0.1593501748389E-01 -0.1915112929398E-01
-0.1850882263743E-01 -0.2117303120955E-01
-0.2120927097008E-01 -0.2314001710175E-01
-0.2405173029129E-01 -0.2507589160866E-01
-0.2705896661489E-01 -0.2704332920133E-01
-0.3023732802603E-01 -0.2907452821448E-01
-0.3358719484392E-01 -0.3117787514480E-01
-0.3711992695954E-01 -0.3336174111055E-01
-0.4086747941282E-01 -0.3564468365247E-01
-0.4489892742281E-01 -0.3803342780180E-01
-0.4935619157332E-01 -0.4052231358475E-01
-0.5456713120566E-01 -0.4310310606378E-01
-0.6110206514382E-01 -0.4597554816261E-01
-0.1351969442385E-02 -0.2434617995663E-02
-0.3045217917676E-02 -0.4946022878974E-02
-0.4864120850991E-02 -0.7414214268370E-02
-0.6790193097349E-02 -0.9778017669077E-02
-0.8845863095162E-02 -0.1203902257786E-01
-0.1104170083203E-01 -0.1420959085239E-01
-0.1337849937790E-01 -0.1629988546604E-01
-0.1585179273225E-01 -0.1831847139528E-01
-0.1845618385609E-01 -0.2027127779281E-01
-0.2119240812485E-01 -0.2215952911356E-01
-0.2407495699629E-01 -0.2400243131430E-01
-0.2712362673222E-01 -0.2585756583982E-01
-0.3034521465613E-01 -0.2775488504884E-01
-0.3374365765033E-01 -0.2970104608091E-01
-0.3733434119069E-01 -0.3169962808405E-01
-0.4115372451443E-01 -0.3375992264278E-01
-0.4527759078777E-01 -0.3587578447034E-01
-0.4985513572188E-01 -0.3803151582918E-01
-0.5515248278245E-01 -0.4025415688431E-01
-0.6142980105404E-01 -0.4276063941348E-01
-0.1259086071673E-02 -0.2272885427042E-02
-0.2882594751546E-02 -0.4624080955983E-02
-0.4685459161311E-02 -0.6967635979785E-02
-0.6620992628880E-02 -0.9239162487179E-02
-0.8694494736562E-02 -0.1142294886225E-01
-0.1091215058972E-01 -0.1352262139231E-01
-0.1327355726902E-01 -0.1554439124884E-01
-0.1577428012157E-01 -0.1749346534835E-01
-0.1841013469042E-01 -0.1937226081055E-01
-0.2118297059746E-01 -0.2117895687468E-01
-0.2410601492725E-01 -0.2292938299803E-01
-0.2719641909209E-01 -0.2467579883965E-01
-0.3046129740887E-01 -0.2644502841887E-01
-0.3390754938688E-01 -0.2824180231978E-01
-0.3755389297386E-01 -0.3006659221416E-01
-0.4143965191488E-01 -0.3192341266737E-01
-0.4564209064682E-01 -0.3380259034977E-01
-0.5029568013341E-01 -0.3569829981415E-01
-0.5557936035815E-01 -0.3766780937043E-01
-0.6155526319845E-01 -0.3990305182988E-01
-0.1186322588278E-02 -0.2132944574502E-02
-0.2746773719320E-02 -0.4339524660144E-02
-0.4526267799167E-02 -0.6558336404126E-02
-0.6464506958600E-02 -0.8730343809398E-02
-0.8552248158600E-02 -0.1083029616008E-01
-0.1078979677003E-01 -0.1285368011079E-01
-0.1317493424297E-01 -0.1480207854653E-01
-0.1570305884220E-01 -0.1667724835655E-01
-0.1837076223834E-01 -0.1847862649395E-01
-0.2118034130074E-01 -0.2020227854803E-01
-0.2414357089343E-01 -0.2186128799077E-01
-0.2727525670565E-01 -0.2350262755583E-01
-0.3058261116777E-01 -0.2514989092875E-01
-0.3407466514763E-01 -0.2680629872371E-01
-0.3777225178299E-01 -0.2847090099307E-01
-0.4171516124822E-01 -0.3014616226462E-01
-0.4597536993560E-01 -0.3182600916847E-01
-0.5065954151026E-01 -0.3351931160756E-01
-0.5586688633057E-01 -0.3529748302375E-01
-0.6154861373252E-01 -0.3731522259048E-01
-0.1127834290847E-02 -0.2007550356962E-02
-0.2632734665104E-02 -0.4082057746187E-02
-0.4385595402471E-02 -0.6179342270106E-02
-0.6321302587980E-02 -0.8248277165879E-02
-0.8419770426313E-02 -0.1025945259337E-01
-0.1067522490458E-01 -0.1220204064636E-01
-0.1308312033852E-01 -0.1407306054759E-01
-0.1563836148111E-01 -0.1587095506997E-01
-0.1833782984999E-01 -0.1759266632154E-01
-0.2118372858904E-01 -0.1923273580180E-01
-0.2418626918269E-01 -0.2080189442296E-01
-0.2735810022470E-01 -0.2234203941473E-01
-0.3070621277813E-01 -0.2387381644893E-01
-0.3424081249910E-01 -0.2539961500326E-01
-0.3798336196889E-01 -0.2691860762058E-01
-0.4197137153301E-01 -0.2843460371787E-01
-0.4626618860965E-01 -0.2994840338976E-01
-0.5094289242896E-01 -0.3148103164057E-01
-0.5603908640150E-01 -0.3310552664027E-01
-0.6145067785450E-01 -0.3494086275828E-01
-0.1079841108782E-02 -0.1892353590338E-02
-0.2536300876768E-02 -0.3844672714470E-02
-0.4261768078785E-02 -0.5824793771891E-02
-0.6191283702302E-02 -0.7789551398060E-02
-0.8297377726203E-02 -0.9708652817544E-02
-0.1056877823529E-01 -0.1156693240426E-01
-0.1299834953884E-01 -0.1335742910853E-01
-0.1558015005519E-01 -0.1507559491279E-01
-0.1831088433128E-01 -0.1671630252286E-01
-0.2119222717052E-01 -0.1827297384500E-01
-0.2423273041336E-01 -0.1975428684894E-01
-0.2744295462408E-01 -0.2119738030809E-01
-0.3082926724831E-01 -0.2262039642008E-01
-0.3440205193845E-01 -0.2402561610726E-01
-0.3818185432903E-01 -0.2541357353764E-01
-0.4220147729479E-01 -0.2679112094386E-01
-0.4650874427716E-01 -0.2816630054425E-01
-0.5114920690535E-01 -0.2956783060586E-01
-0.5611725313844E-01 -0.3106319474221E-01
-0.6128569304521E-01 -0.3274156118335E-01
-0.1039786346720E-02 -0.1784580913451E-02
-0.2454126447305E-02 -0.3622497007843E-02
-0.4152888447543E-02 -0.5489984515792E-02
-0.6073890099852E-02 -0.7350964326784E-02
-0.8185062661124E-02 -0.9176084501816E-02
-0.1047055937175E-01 -0.1094753717577E-01
-0.1292062768727E-01 -0.1265520177393E-01
-0.1552817715352E-01 -0.1429199215530E-01
-0.1828932344851E-01 -0.1585109692101E-01
-0.2120485941942E-01 -0.1732512373688E-01
-0.2428157081861E-01 -0.1872095804157E-01
-0.2752789906438E-01 -0.2007134640965E-01
-0.3094913558450E-01 -0.2139240559968E-01
-0.3455487407927E-01 -0.2268694148122E-01
-0.3836334032635E-01 -0.2395767165143E-01
-0.4240091875978E-01 -0.2521510204019E-01
-0.4670120721863E-01 -0.2647340101670E-01
-0.5128493245954E-01 -0.2776491511081E-01
-0.5611841290486E-01 -0.2914863687351E-01
-0.6106873164063E-01 -0.3068956641264E-01
-0.1005869863976E-02 -0.1682376479075E-02
-0.2383556752139E-02 -0.3412061303187E-02
-0.4057082694729E-02 -0.5171194269589E-02
-0.5968276752727E-02 -0.6929664781928E-02
-0.8082543508415E-02 -0.8659978691619E-02
-0.1038044924095E-01 -0.1034299425151E-01
-0.1284976540133E-01 -0.1196629096400E-01
-0.1548203434748E-01 -0.1352076015590E-01
-0.1827244211321E-01 -0.1499826701511E-01
-0.2122060800726E-01 -0.1639085589520E-01
-0.2433142991441E-01 -0.1770385709421E-01
-0.2761112743343E-01 -0.1896599821598E-01
-0.3106344856598E-01 -0.2019180807251E-01
-0.3469631963586E-01 -0.2138508889241E-01
-0.3852452602899E-01 -0.2255114134829E-01
-0.4256712688085E-01 -0.2370399592410E-01
-0.4684427089270E-01 -0.2486233251320E-01
-0.5135731815565E-01 -0.2605927107793E-01
-0.5605549865596E-01 -0.2734449204299E-01
-0.6081001615661E-01 -0.2876506417030E-01
-0.9767468241277E-03 -0.1584442247048E-02
-0.2322449422040E-02 -0.3211048167062E-02
-0.3972608670103E-02 -0.4866113700537E-02
-0.5873469741640E-02 -0.6524415271449E-02
-0.7989342624222E-02 -0.8160683010003E-02
-0.1029809737791E-01 -0.9755376226017E-02
-0.1278525719896E-01 -0.1129455575759E-01
-0.1544086055217E-01 -0.1276760939902E-01
-0.1825889513097E-01 -0.1416541669220E-01
-0.2123756959087E-01 -0.1547967100339E-01
-0.2437977743334E-01 -0.1671436839795E-01
-0.2768939873206E-01 -0.1789459509925E-01
-0.3116822241880E-01 -0.1903364920374E-01
-0.3482181397867E-01 -0.2013658339502E-01
-0.3866081954485E-01 -0.2121128331393E-01
-0.4269688291640E-01 -0.2227470693558E-01
-0.4693853715542E-01 -0.2334844660909E-01
-0.5137304075422E-01 -0.2446461850588E-01
-0.5594079248499E-01 -0.2566435719879E-01
-0.6052002352412E-01 -0.2698111457925E-01
-0.9514703178719E-03 -0.1489863832548E-02
-0.2269147354622E-02 -0.3017384640961E-02
-0.3897901696575E-02 -0.4571804510682E-02
-0.5788392804497E-02 -0.6131862115815E-02
-0.7904817036106E-02 -0.7674607778335E-02
-0.1022311046930E-01 -0.9180765444273E-02
-0.1272682228466E-01 -0.1063554758598E-01
-0.1540443141011E-01 -0.1202732297930E-01
-0.1824853445504E-01 -0.1334629436846E-01
-0.2125573700751E-01 -0.1458398732665E-01
-0.2442679954090E-01 -0.1574324417211E-01
-0.2776310662057E-01 -0.1684580791738E-01
-0.3126409400026E-01 -0.1790399535373E-01
-0.3493239995557E-01 -0.1892421554517E-01
-0.3877408920093E-01 -0.1991676207682E-01
-0.4279365688433E-01 -0.2090086238755E-01
-0.4698989721012E-01 -0.2189981186762E-01
-0.5134020866085E-01 -0.2294382502846E-01
-0.5578104589323E-01 -0.2406663881680E-01
-0.6020051479983E-01 -0.2529123888655E-01
-0.9292728798541E-03 -0.1397935939293E-02
-0.2222278809489E-02 -0.2829624131750E-02
-0.3831576005196E-02 -0.4286395223267E-02
-0.5711995737034E-02 -0.5750189378126E-02
-0.7828242016987E-02 -0.7200318275764E-02
-0.1015492496649E-01 -0.8618219050729E-02
-0.1267389750131E-01 -0.9988802326218E-02
-0.1537208123229E-01 -0.1129985017045E-01
-0.1824055064089E-01 -0.1254116861356E-01
-0.2127415564307E-01 -0.1370427400494E-01
-0.2447140294067E-01 -0.1479100596636E-01
-0.2783102829388E-01 -0.1582001337758E-01
-0.3134977769284E-01 -0.1680278942474E-01
-0.3502694668631E-01 -0.1774707252114E-01
-0.3886383578040E-01 -0.1866525813341E-01
-0.4285834649786E-01 -0.1957819671188E-01
-0.4700144928766E-01 -0.2051000255365E-01
-0.5126402386452E-01 -0.2148868187565E-01
-0.5558215587031E-01 -0.2254170010667E-01
-0.5985356422670E-01 -0.2368472747164E-01
-0.9095451346132E-03 -0.1308113755028E-02
-0.2180717285908E-02 -0.2646627950926E-02
-0.3772409918039E-02 -0.4008352227505E-02
-0.5643260813138E-02 -0.5377820351385E-02
-0.7758841709155E-02 -0.6736477517207E-02
-0.1009289979399E-01 -0.8066768919886E-02
-0.1262585113432E-01 -0.9353734896927E-02
-0.1534310371281E-01 -0.1058494130771E-01
-0.1823413169639E-01 -0.1175004317102E-01
-0.2129191456910E-01 -0.1284067938860E-01
-0.2451260068319E-01 -0.1385780471000E-01
-0.2789214047247E-01 -0.1481716993266E-01
-0.3142431795175E-01 -0.1572951958603E-01
-0.3510480628608E-01 -0.1660379734612E-01
-0.3893014973880E-01 -0.1745413910035E-01
-0.4289236116508E-01 -0.1830245463385E-01
-0.4697633756295E-01 -0.1917310171966E-01
-0.5114909541462E-01 -0.2009187819424E-01
-0.5534853379967E-01 -0.2108123352043E-01
-0.5948189333967E-01 -0.2215115668808E-01
-0.8917933017666E-03 -0.1219961857903E-02
-0.2143528448910E-02 -0.2467473948746E-02
-0.3719331371082E-02 -0.3736390350191E-02
-0.5581224917523E-02 -0.5013363806016E-02
-0.7695822628567E-02 -0.6281824698683E-02
-0.1003634668842E-01 -0.7525415772420E-02
-0.1258200706488E-01 -0.8729640170748E-02
-0.1531677020315E-01 -0.9882154913385E-02
-0.1822847641725E-01 -0.1097267178742E-01
-0.2130815644565E-01 -0.1199305500721E-01
-0.2454951823759E-01 -0.1294345711124E-01
-0.2794561618561E-01 -0.1383687412051E-01
-0.3148706432520E-01 -0.1468330730748E-01
-0.3516574491865E-01 -0.1549271773453E-01
-0.3897357991625E-01 -0.1628061250918E-01
-0.4289743399211E-01 -0.1706951065519E-01
-0.4691765795854E-01 -0.1788367069839E-01
-0.5099941394124E-01 -0.1874690900797E-01
-0.5508386723798E-01 -0.1967768034774E-01
-0.5908756410011E-01 -0.2068157678292E-01
-0.8756109575952E-03 -0.1133119981595E-02
-0.2109931513652E-02 -0.2291391637720E-02
-0.3671403362596E-02 -0.3469403979315E-02
-0.5524992999643E-02 -0.4655566179780E-02
-0.7638399564596E-02 -0.5835151985211E-02
-0.9984555984172E-02 -0.6993121789694E-02
-0.1254166568022E-01 -0.8115694521914E-02
-0.1529234485801E-01 -0.9190866294732E-02
-0.1822280426927E-01 -0.1020857442924E-01
-0.2132208282527E-01 -0.1116098109095E-01
-0.2458139284078E-01 -0.1204748399554E-01
-0.2799081259508E-01 -0.1287841784591E-01
-0.3153763693413E-01 -0.1366299056261E-01
-0.3520987247298E-01 -0.1441195491617E-01
-0.3899502001563E-01 -0.1514184066850E-01
-0.4287550026836E-01 -0.1587543593370E-01
-0.4682838739212E-01 -0.1663673932548E-01
-0.5081849614291E-01 -0.1744790785313E-01
-0.5479122579595E-01 -0.1832427096794E-01
-0.5867215379685E-01 -0.1926803620739E-01
-0.8606601704407E-03 -0.1047279177691E-02
-0.2079271577398E-02 -0.2117715215967E-02
-0.3627811323525E-02 -0.3206413492109E-02
-0.5473746398590E-02 -0.4303270019668E-02
-0.7585815502563E-02 -0.5395280977568E-02
-0.9936818073119E-02 -0.6468801224200E-02
-0.1250412164968E-01 -0.7510955645786E-02
-0.1526909703426E-01 -0.8510274324161E-02
-0.1821636230708E-01 -0.9457051000415E-02
-0.2133295552952E-01 -0.1034378873919E-01
-0.2460756744561E-01 -0.1116914399873E-01
-0.2802725239936E-01 -0.1194083804180E-01
-0.3157588743084E-01 -0.1266719246790E-01
-0.3523757566449E-01 -0.1335950676741E-01
-0.3899561864234E-01 -0.1403501698639E-01
-0.4282861269292E-01 -0.1471653654246E-01
-0.4671137016432E-01 -0.1542776968245E-01
-0.5060947248372E-01 -0.1618957986850E-01
-0.5447319703846E-01 -0.1701491875568E-01
-0.5823686540723E-01 -0.1790341603174E-01
-0.8466589646257E-03 -0.9621646884876E-03
-0.2051000199805E-02 -0.1945848859844E-02
-0.3587853176530E-02 -0.2946523387213E-02
-0.5426748330202E-02 -0.3955378730286E-02
-0.7537357060657E-02 -0.4961040659508E-02
-0.9892441041049E-02 -0.5951310582900E-02
-0.1246867875387E-01 -0.6914361730670E-02
-0.1524631111974E-01 -0.7839407479237E-02
-0.1820842928688E-01 -0.8717193891922E-02
-0.2134009435490E-01 -0.9540580154624E-02
-0.2462747991578E-01 -0.1030746389898E-01
-0.2805460032284E-01 -0.1102295997698E-01
-0.3160185762893E-01 -0.1169437819817E-01
-0.3524945703970E-01 -0.1233331172896E-01
-0.3897670788750E-01 -0.1295742007170E-01
-0.4275888826683E-01 -0.1358937366071E-01
-0.4656932362550E-01 -0.1425263251517E-01
-0.5037516635776E-01 -0.1496714861548E-01
-0.5413199944898E-01 -0.1574414459126E-01
-0.5778263254514E-01 -0.1658131362049E-01
-0.8333731960338E-03 -0.8775232660322E-03
-0.2024662252003E-02 -0.1775240484043E-02
-0.3550932245966E-02 -0.2688889184834E-02
-0.5383347990798E-02 -0.3610826861113E-02
-0.7492366666669E-02 -0.4531247351467E-02
-0.9850765104111E-02 -0.5439438903526E-02
-0.1243466211334E-01 -0.6324730050980E-02
-0.1522329411786E-01 -0.7177128891464E-02
-0.1819831737929E-01 -0.7987898881931E-02
-0.2134287173602E-01 -0.8750246135028E-02
-0.2464064853606E-01 -0.9461264379950E-02
-0.2807263628210E-01 -0.1012343298238E-01
-0.3161573772879E-01 -0.1074289995299E-01
-0.3524628023767E-01 -0.1133129671223E-01
-0.3893974767298E-01 -0.1190645138309E-01
-0.4266847620200E-01 -0.1249077629160E-01
-0.4640485615083E-01 -0.1310759084690E-01
-0.5011816620896E-01 -0.1377631952887E-01
-0.5376957952601E-01 -0.1450702535803E-01
-0.5731020232536E-01 -0.1529597476389E-01
-0.8206116102016E-03 -0.7931134667440E-03
-0.1999887609240E-02 -0.1605361321695E-02
-0.3516552903133E-02 -0.2432690713031E-02
-0.5342984168181E-02 -0.3268554827944E-02
-0.7450252405424E-02 -0.4104686502552E-02
-0.9811174437596E-02 -0.4931898057830E-02
-0.1240142820059E-01 -0.5740754567235E-02
-0.1519938135340E-01 -0.6522139579348E-02
-0.1818537195528E-01 -0.7267873151943E-02
-0.2134070507469E-01 -0.7971479129223E-02
-0.2464665486810E-01 -0.8629179127844E-02
-0.2808122650368E-01 -0.9240756455155E-02
-0.3161782506803E-01 -0.9811028763889E-02
-0.3522892088825E-01 -0.1035140963778E-01
-0.3888628185731E-01 -0.1087965941692E-01
-0.4255953973348E-01 -0.1141784838771E-01
-0.4622049209591E-01 -0.1198928840342E-01
-0.4984089178457E-01 -0.1261325553307E-01
-0.5338769373958E-01 -0.1329916251975E-01
-0.5682019994103E-01 -0.1404225658627E-01
-0.8082232946236E-03 -0.7086979381797E-03
-0.1976386697576E-02 -0.1435689525199E-02
-0.3484318758740E-02 -0.2177110114089E-02
-0.5305188924338E-02 -0.2927487372895E-02
-0.7410496263533E-02 -0.3680096588562E-02
-0.9773106966673E-02 -0.4427313841095E-02
-0.1236837306884E-01 -0.5161003433462E-02
-0.1517394071463E-01 -0.5872980798626E-02
-0.1816896994508E-01 -0.6555641365766E-02
-0.2133304739797E-01 -0.7202782824120E-02
-0.2464512477580E-01 -0.7809668359574E-02
-0.2808029336112E-01 -0.8373297732608E-02
-0.3160848352489E-01 -0.8896975864054E-02
-0.3519832166238E-01 -0.9391641097903E-02
-0.3881790226161E-01 -0.9874756421432E-02
-0.4243424677503E-01 -0.1036797598789E-01
-0.4601870104983E-01 -0.1089474652372E-01
-0.4954565626610E-01 -0.1147456757124E-01
-0.5298797939791E-01 -0.1211667140790E-01
-0.5631317996483E-01 -0.1281561870735E-01
-0.7960970367234E-03 -0.6240369751107E-03
-0.1953949234203E-02 -0.1265696370520E-02
-0.3453933198355E-02 -0.1921313049800E-02
-0.5269591654656E-02 -0.2586514757763E-02
-0.7372661260094E-02 -0.3256154707061E-02
-0.9736062576184E-02 -0.3924217713554E-02
-0.1233493921915E-01 -0.4583916224163E-02
-0.1514637590342E-01 -0.5228035090103E-02
-0.1814851737985E-01 -0.5849549083808E-02
-0.2131937713956E-01 -0.6442477211270E-02
-0.2463570852364E-01 -0.7001025486956E-02
-0.2806978463843E-01 -0.7519300529259E-02
-0.3158810346320E-01 -0.7998902680429E-02
-0.3515544974327E-01 -0.8450034869685E-02
-0.3873621698681E-01 -0.8889627775897E-02
-0.4229476520508E-01 -0.9338834011057E-02
-0.4580192921510E-01 -0.9821368023080E-02
-0.4923472541545E-01 -0.1035731711988E-01
-0.5257201697395E-01 -0.1095618640319E-01
-0.5578966668374E-01 -0.1161213562716E-01
-0.7841623156355E-03 -0.5388827793424E-03
-0.1932445769620E-02 -0.1094833952860E-02
-0.3425202097539E-02 -0.1664431899964E-02
-0.5235923672377E-02 -0.2244475930334E-02
-0.7336397783428E-02 -0.2831463715956E-02
-0.9699610111477E-02 -0.3421039456208E-02
-0.1230062151611E-01 -0.4007801298612E-02
-0.1511612918820E-01 -0.4585526428541E-02
-0.1812344674896E-01 -0.5147763823681E-02
-0.2129918782202E-01 -0.5688699335190E-02
-0.2461806075031E-01 -0.6201377057256E-02
-0.2804964270782E-01 -0.6676884134689E-02
-0.3155706179571E-01 -0.7114919872919E-02
-0.3510125474171E-01 -0.7524688044143E-02
-0.3864281947919E-01 -0.7922335085312E-02
-0.4214325909914E-01 -0.8328393926895E-02
-0.4557263159582E-01 -0.8766949208598E-02
-0.4891037589095E-01 -0.9259031171122E-02
-0.5214138737815E-01 -0.9814881005438E-02
-0.5525018587973E-01 -0.1042852831786E-01
-0.7723918352221E-03 -0.4529739209384E-03
-0.1911831871228E-02 -0.9225233797713E-03
-0.3398038603114E-02 -0.1405549863015E-02
-0.5204023337666E-02 -0.1900142966384E-02
-0.7301449293558E-02 -0.2404540789309E-02
-0.9663393448906E-02 -0.2916101041964E-02
-0.1226497254720E-01 -0.3430833799048E-02
-0.1508268419476E-01 -0.3943519997946E-02
-0.1809321487436E-01 -0.4448274234645E-02
-0.2127197849086E-01 -0.4939400095336E-02
-0.2459182117965E-01 -0.5408676232403E-02
-0.2801977414970E-01 -0.5844033508728E-02
-0.3151568176994E-01 -0.6243075401594E-02
-0.3503662512049E-01 -0.6613740576837E-02
-0.3853925483490E-01 -0.6971112754511E-02
-0.4198188219187E-01 -0.7334932618492E-02
-0.4533330383920E-01 -0.7729701490059E-02
-0.4857495572106E-01 -0.8177731176603E-02
-0.5169772829144E-01 -0.8690502537699E-02
-0.5469528959059E-01 -0.9262213812895E-02
-0.7608056723520E-03 -0.3660294742781E-03
-0.1892154991232E-02 -0.7481424069346E-03
-0.3372469884293E-02 -0.1143684775405E-02
-0.5173841584159E-02 -0.1552205949251E-02
-0.7267657337675E-02 -0.1973807040035E-02
-0.9627136749045E-02 -0.2407611694012E-02
-0.1222760771689E-01 -0.2851054341777E-02
-0.1504556920818E-01 -0.3299921572840E-02
-0.1805730196665E-01 -0.3748887191937E-02
-0.2123724573014E-01 -0.4192336670656E-02
-0.2455659693089E-01 -0.4620689060455E-02
-0.2798002037714E-01 -0.5018579059459E-02
-0.3146419213400E-01 -0.5381329698901E-02
-0.3496234116784E-01 -0.5715351473145E-02
-0.3842697947792E-01 -0.6034354602953E-02
-0.4181276381707E-01 -0.6357039514003E-02
-0.4508651135331E-01 -0.6708282163647E-02
-0.4823095014875E-01 -0.7111977121504E-02
-0.5124279433456E-01 -0.7581419763867E-02
-0.5412557253160E-01 -0.8111368715854E-02
-0.7494773142409E-03 -0.2777422284399E-03
-0.1873564307408E-02 -0.5710114060330E-03
-0.3348645814893E-02 -0.8777715956775E-03
-0.5145447600323E-02 -0.1199257863229E-02
-0.7234965732049E-02 -0.1537578550720E-02
-0.9590648995856E-02 -0.1893665055258E-02
-0.1218821043916E-01 -0.2266369700569E-02
-0.1500436158778E-01 -0.2652478059471E-02
-0.1801521268940E-01 -0.3047224550838E-02
-0.2119447828376E-01 -0.3445062424347E-02
-0.2451194754711E-01 -0.3834975389328E-02
-0.2793013021403E-01 -0.4198167696296E-02
-0.3140268588526E-01 -0.4527518817982E-02
-0.3487902313057E-01 -0.4827661409120E-02
-0.3830731068824E-01 -0.5110589522193E-02
-0.4163798210426E-01 -0.5393621417549E-02
-0.4483491232059E-01 -0.5701838376945E-02
-0.4788105851626E-01 -0.6060937130587E-02
-0.5077853256451E-01 -0.6486690115899E-02
-0.5354167901345E-01 -0.6975006416431E-02
-0.7385421054682E-03 -0.1877701423524E-03
-0.1856324055381E-02 -0.3903761254919E-03
-0.3326849468969E-02 -0.6066420641949E-03
-0.5119034133806E-02 -0.8397786803522E-03
-0.7203423463197E-02 -0.1094058633728E-02
-0.9553827686199E-02 -0.1372238591885E-02
-0.1214653760177E-01 -0.1674555655321E-02
-0.1495869373740E-01 -0.1998779307867E-02
-0.1796647993196E-01 -0.2340719537679E-02
-0.2114315522745E-01 -0.2694914034112E-02
-0.2445737388228E-01 -0.3048863777398E-02
-0.2786973554870E-01 -0.3380223731979E-02
-0.3133107919457E-01 -0.3679302746617E-02
-0.3478707331680E-01 -0.3948736573981E-02
-0.3818136194223E-01 -0.4198439263912E-02
-0.4145951724718E-01 -0.4443896946533E-02
-0.4458126561996E-01 -0.4710059670053E-02
-0.4752828466167E-01 -0.5024494217532E-02
-0.5030719388395E-01 -0.5406157607045E-02
-0.5294429363113E-01 -0.5853055087232E-02
-0.7282089980203E-03 -0.9572484839780E-04
-0.1840831183641E-02 -0.2053851925949E-03
-0.3307509203586E-02 -0.3289998459873E-03
-0.5094921592995E-02 -0.4721180719614E-03
-0.7173185650419E-02 -0.6413316410941E-03
-0.9516661439299E-02 -0.8411959284445E-03
-0.1210242543340E-01 -0.1073262852064E-02
-0.1490826105348E-01 -0.1336262161616E-02
-0.1791067199131E-01 -0.1626613826596E-02
-0.2108274868201E-01 -0.1938996882802E-02
-0.2439231211953E-01 -0.2259421233466E-02
-0.2779833161442E-01 -0.2561899934641E-02
-0.3124907174656E-01 -0.2834097555988E-02
-0.3468661234546E-01 -0.3076490144880E-02
-0.3804995942221E-01 -0.3296549715860E-02
-0.4127917837322E-01 -0.3507375892520E-02
-0.4432840885811E-01 -0.3733223631291E-02
-0.4717603207398E-01 -0.4003410979724E-02
-0.4983152567357E-01 -0.4340631091229E-02
-0.5233412269647E-01 -0.4746422721725E-02
-0.7187770942022E-03 -0.1155342154006E-05
-0.1827638572653E-02 -0.1505950927585E-04
-0.3291211890438E-02 -0.4338926487478E-04
-0.5073559769032E-02 -0.9447675657442E-04
-0.7144511802983E-02 -0.1773595935197E-03
-0.9479231388842E-02 -0.2982938678298E-03
-0.1205579607938E-01 -0.4600277814825E-03
-0.1485283251014E-01 -0.6622193139301E-03
-0.1784740418917E-01 -0.9019583276943E-03
-0.2101273247749E-01 -0.1174172055792E-02
-0.2431613480264E-01 -0.1463421306136E-02
-0.2771526424587E-01 -0.1740021985460E-02
-0.3115611156344E-01 -0.1988993725248E-02
-0.3457741064647E-01 -0.2208579425910E-02
-0.3791354033681E-01 -0.2403492506063E-02
-0.4109848537947E-01 -0.2583803705390E-02
-0.4407921938178E-01 -0.2772263870870E-02
-0.4682812059088E-01 -0.2999442025745E-02
-0.4935515479832E-01 -0.3292450599395E-02
-0.5171194308921E-01 -0.3656925089967E-02
-0.7106593837218E-03  0.9647644664395E-04
-0.1817485382585E-02  0.1817508505316E-03
-0.3278716125828E-02  0.2518455204497E-03
-0.5055525055462E-02  0.2951141264019E-03
-0.7117759996367E-02  0.3000183235488E-03
-0.9441710672222E-02  0.2588063652735E-03
-0.1200666450462E-01  0.1677121085700E-03
-0.1479226372429E-01  0.2618827437148E-04
-0.1777635507144E-01 -0.1636161624089E-03
-0.2093259728806E-01 -0.3970429451730E-03
-0.2422815982583E-01 -0.6573078679600E-03
-0.2761972593462E-01 -0.9110229406479E-03
-0.3105136655104E-01 -0.1140655121877E-02
-0.3445881958376E-01 -0.1342270114422E-02
-0.3777202497151E-01 -0.1517613689419E-02
-0.4091851506293E-01 -0.1673063496263E-02
-0.4383645383882E-01 -0.1828762042685E-02
-0.4648897305719E-01 -0.2015648469325E-02
-0.4888229710433E-01 -0.2265403486889E-02
-0.5108059112960E-01 -0.2590533068144E-02
-0.7043629255847E-03  0.1978988133507E-03
-0.1811190362317E-02  0.3867877902389E-03
-0.3270700257516E-02  0.5594588371668E-03
-0.5041098501960E-02  0.7003283259115E-03
-0.7092777768047E-02  0.7954179671392E-03
-0.9403544130572E-02  0.8358064556224E-03
-0.1195408262869E-01  0.8169233595935E-03
-0.1472518931094E-01  0.7373389614006E-03
-0.1769570342535E-01  0.5982741173243E-03
-0.2084004396243E-01  0.4036965656144E-03
-0.2412562566337E-01  0.1715312031406E-03
-0.2750854236355E-01 -0.6118177593860E-04
-0.3093133700847E-01 -0.2745670539613E-03
-0.3432718193799E-01 -0.4627428531553E-03
-0.3762193531320E-01 -0.6244495313236E-03
-0.4073652179126E-01 -0.7617409249100E-03
-0.4359868712859E-01 -0.8907418921157E-03
-0.4615798150711E-01 -0.1041152189683E-02
-0.4841123770923E-01 -0.1249545725871E-02
-0.5043036130638E-01 -0.1536414899380E-02
-0.7006984291192E-03  0.3038751565184E-03
-0.1810139545386E-02  0.6014095831077E-03
-0.3268546721268E-02  0.8808739863698E-03
-0.5031456440503E-02  0.1122100022701E-02
-0.7070625410112E-02  0.1309009743911E-02
-0.9365801979692E-02  0.1432062802194E-02
-0.1189918849709E-01  0.1486192014288E-02
-0.1465279872321E-01  0.1469123170334E-02
-0.1760661960589E-01  0.1380979640710E-02
-0.2073613282971E-01  0.1224720270957E-02
-0.2400940574098E-01  0.1019133345175E-02
-0.2738235383677E-01  0.8047769705172E-03
-0.3079644608602E-01  0.6035209317174E-03
-0.3418287540834E-01  0.4227383683162E-03
-0.3746411903075E-01  0.2664022000006E-03
-0.4055498573803E-01  0.1370796560560E-03
-0.4337190144825E-01  0.2412307586011E-04
-0.4584649218912E-01 -0.9847631691573E-04
-0.4795709268027E-01 -0.2714992762480E-03
-0.4977886906901E-01 -0.5284246922621E-03
-0.7007164472377E-03  0.4155168947501E-03
-0.1815928969627E-02  0.8278002175421E-03
-0.3273571148901E-02  0.1218739436956E-02
-0.5027457839965E-02  0.1563031155607E-02
-0.7051876906648E-02  0.1843273641207E-02
-0.9328922543117E-02  0.2050086188746E-02
-0.1184233450855E-01  0.2178248496249E-02
-0.1457532866470E-01  0.2224670529596E-02
-0.1750913725238E-01  0.2188177726578E-02
-0.2062058304905E-01  0.2070323699816E-02
-0.2387880473084E-01  0.1890378960166E-02
-0.2723996570107E-01  0.1692198277883E-02
-0.3064493299573E-01  0.1499153034418E-02
-0.3402358373491E-01  0.1319411549502E-02
-0.3729596167362E-01  0.1158982226588E-02
-0.4037187634827E-01  0.1024792389362E-02
-0.4315666711304E-01  0.9128272990303E-03
-0.4555992728602E-01  0.8040545166385E-03
-0.4752990883577E-01  0.6560016711335E-03
-0.4912915099748E-01  0.4141908454595E-03
-0.7058896358405E-03  0.5343791846113E-03
-0.1830579864740E-02  0.1068836225105E-02
-0.3287222386739E-02  0.1576214935661E-02
-0.5029960809936E-02  0.2025929511103E-02
-0.7037124307105E-02  0.2400725076795E-02
-0.9293416869273E-02  0.2692360710607E-02
-0.1178399927315E-01  0.2895780607766E-02
-0.1449318896723E-01  0.3007096324264E-02
-0.1740348742512E-01  0.3023622492174E-02
-0.2049329367727E-01  0.2945038765609E-02
-0.2373323789439E-01  0.2790597279475E-02
-0.2708016415403E-01  0.2607123545323E-02
-0.3047480598193E-01  0.2418842489301E-02
-0.3384642906467E-01  0.2233779034416E-02
-0.3711376060939E-01  0.2058882894983E-02
-0.4018334745160E-01  0.1904369520561E-02
-0.4295130536818E-01  0.1772939708782E-02
-0.4530304819727E-01  0.1656361449484E-02
-0.4714180525964E-01  0.1515459287484E-02
-0.4849128792957E-01  0.1270472465432E-02
-0.7183452873125E-03  0.6627656505825E-03
-0.1856615183053E-02  0.1328435476535E-02
-0.3310975081001E-02  0.1957062674190E-02
-0.5039737021735E-02  0.2513746424189E-02
-0.7026948418519E-02  0.2983854494128E-02
-0.9259859730465E-02  0.3361296544905E-02
-0.1172479057005E-01  0.3641376523110E-02
-0.1440698562648E-01  0.3819429619549E-02
-0.1729014746308E-01  0.3891070400176E-02
-0.2035441527142E-01  0.3853583477012E-02
-0.2357231631979E-01  0.3725565055214E-02
-0.2690180546610E-01  0.3556350168317E-02
-0.3028392607921E-01  0.3370202512774E-02
-0.3364803914372E-01  0.3173837356640E-02
-0.3691273700610E-01  0.2973689902771E-02
-0.3998340784624E-01  0.2781280979227E-02
-0.4275073474316E-01  0.2604052401908E-02
-0.4507801270803E-01  0.2447066955758E-02
-0.4680831292779E-01  0.2284230070631E-02
-0.4788335783013E-01  0.2010280941815E-02
-0.7412781837230E-03  0.8043331888869E-03
-0.1897081911615E-02  0.1612104454092E-02
-0.3346107156963E-02  0.2365655212265E-02
-0.5057371995982E-02  0.3029431911561E-02
-0.7021900663987E-02  0.3595059999013E-02
-0.9228878949587E-02  0.4059182855102E-02
-0.1166544208040E-01  0.4417461992227E-02
-0.1431753898212E-01  0.4664524876824E-02
-0.1716989350896E-01  0.4794175279591E-02
-0.2020443706574E-01  0.4800779920155E-02
-0.2339595586123E-01  0.4701486222829E-02
-0.2670393187549E-01  0.4547483350750E-02
-0.3007012255950E-01  0.4362067575136E-02
-0.3342466063890E-01  0.4149291060231E-02
-0.3668716118618E-01  0.3913358602709E-02
-0.3976389539872E-01  0.3664492503613E-02
-0.4254515604762E-01  0.3410083389809E-02
-0.4488113382359E-01  0.3165879710132E-02
-0.4654729521139E-01  0.2932072432284E-02
-0.4733663652068E-01  0.2588338916963E-02
-0.7797166921495E-03  0.9654133817063E-03
-0.1955349851125E-02  0.1927755708510E-02
-0.3393294320142E-02  0.2806685444608E-02
-0.5083202832276E-02  0.3575696139782E-02
-0.7022505590601E-02  0.4236604552615E-02
-0.9201139112381E-02  0.4788137047818E-02
-0.1160680254650E-01  0.5226237696556E-02
-0.1422589010585E-01  0.5544958365543E-02
-0.1704385207960E-01  0.5736340421756E-02
-0.2004429242581E-01  0.5791424204022E-02
-0.2320451722694E-01  0.5724944910412E-02
-0.2648591758437E-01  0.5588983402814E-02
-0.2983133790606E-01  0.5404601149674E-02
-0.3317231961298E-01  0.5171733685638E-02
-0.3643055316708E-01  0.4890515948704E-02
-0.3951491381260E-01  0.4567120211041E-02
-0.4231948526869E-01  0.4202429436542E-02
-0.4469736797471E-01  0.3809417697069E-02
-0.4637313297062E-01  0.3420529822595E-02
-0.4690515333139E-01  0.2933534238736E-02
-0.8419983017963E-03  0.1158332684741E-02
-0.2034153994086E-02  0.2286594008091E-02
-0.3452031248343E-02  0.3284045416198E-02
-0.5117429932084E-02  0.4154865426343E-02
-0.7029254095667E-02  0.4910607857342E-02
-0.9177322251490E-02  0.5550032405812E-02
-0.1154981886377E-01  0.6069636206264E-02
-0.1413328295507E-01  0.6462913930543E-02
-0.1691354013679E-01  0.6720512669780E-02
-0.1987548737358E-01  0.6830075855500E-02
-0.2299898891918E-01  0.6802826500097E-02
-0.2624765622491E-01  0.6690208417133E-02
-0.2956578526534E-01  0.6509413821409E-02
-0.3288703932775E-01  0.6254735218463E-02
-0.3613592573791E-01  0.5920746674810E-02
-0.3922546753491E-01  0.5506542719934E-02
-0.4205525928734E-01  0.5001937048019E-02
-0.4449395928020E-01  0.4393904703701E-02
-0.4627809928300E-01  0.3711579737817E-02
-0.4667891379297E-01  0.2928994969201E-02
-0.9425801579504E-03  0.1411732462517E-02
-0.2132170782926E-02  0.2701413744103E-02
-0.3520588673050E-02  0.3798337328529E-02
-0.5160502687876E-02  0.4769677117727E-02
-0.7042450462849E-02  0.5618702447662E-02
-0.9158173166816E-02  0.6346539959142E-02
-0.1149549106686E-01  0.6949270861782E-02
-0.1404111438260E-01  0.7420104295860E-02
-0.1678086159049E-01  0.7748906960128E-02
-0.1970025475403E-01  0.7920706720070E-02
-0.2278124480615E-01  0.7942206732559E-02
-0.2598977449831E-01  0.7861504828695E-02
-0.2927216334604E-01  0.7689643581820E-02
-0.3256493177838E-01  0.7414042154269E-02
-0.3579644046162E-01  0.7022294714631E-02
-0.3888327366245E-01  0.6505410583060E-02
-0.4173522649622E-01  0.5835594853298E-02
-0.4422477515943E-01  0.4970440709103E-02
-0.4618425284744E-01  0.3816118441376E-02
-0.4677919293107E-01  0.2381044363504E-02
-0.1971076734768E+00 -0.5270244515768E-01
-0.3143877920132E+00 -0.7750655448139E-01
-0.4190505296150E+00 -0.1033401890678E+00
-0.5131246527491E+00 -0.1294384055133E+00
-0.5979569043969E+00 -0.1545802268987E+00
-0.6741883740111E+00 -0.1774549451644E+00
-0.7421797072308E+00 -0.1970357931402E+00
-0.8020149928595E+00 -0.2127842054435E+00
-0.8527220810668E+00 -0.2243357419259E+00
-0.1962762237172E+00 -0.5004072138505E-01
-0.3126461760277E+00 -0.7489138836200E-01
-0.4165412827888E+00 -0.1014333634438E+00
-0.5102722079419E+00 -0.1287818834350E+00
-0.5952769127283E+00 -0.1555487248740E+00
-0.6722056759136E+00 -0.1802642719776E+00
-0.7412950327667E+00 -0.2017254220654E+00
-0.8023780245412E+00 -0.2190995474501E+00
-0.8545113644029E+00 -0.2315615128158E+00
-0.1949005808221E+00 -0.4754323312829E-01
-0.3100177799024E+00 -0.7267278389552E-01
-0.4129020669205E+00 -0.1002495138712E+00
-0.5061239578613E+00 -0.1291721266032E+00
-0.5912210266542E+00 -0.1578768333619E+00
-0.6688537856063E+00 -0.1847327608475E+00
-0.7391481437526E+00 -0.2083406088694E+00
-0.8017649930738E+00 -0.2275681865000E+00
-0.8556256890647E+00 -0.2414717044134E+00
-0.1929114521359E+00 -0.4520444200461E-01
-0.3063909481636E+00 -0.7083668682751E-01
-0.4080056864532E+00 -0.9973658289214E-01
-0.5005524623920E+00 -0.1305452807455E+00
-0.5856592676684E+00 -0.1615072364135E+00
-0.6639998582635E+00 -0.1908276511952E+00
-0.7356160248248E+00 -0.2169104433386E+00
-0.7999955272828E+00 -0.2384016908717E+00
-0.8558508217277E+00 -0.2541906434988E+00
-0.1902455860758E+00 -0.4301974643381E-01
-0.3016689115061E+00 -0.6936007932033E-01
-0.4017394249870E+00 -0.9984550354705E-01
-0.4934349616060E+00 -0.1328309837020E+00
-0.5784570299423E+00 -0.1663661280883E+00
-0.6574956446497E+00 -0.1984955961266E+00
-0.7305230799439E+00 -0.2274460549430E+00
-0.7968622796675E+00 -0.2516512672982E+00
-0.8549923718550E+00 -0.2697927424478E+00
-0.1868493518351E+00 -0.4098466023027E-01
-0.2957700697620E+00 -0.6821812876189E-01
-0.3940050784085E+00 -0.1005208240646E+00
-0.4846572867467E+00 -0.1359465955241E+00
-0.5694790850101E+00 -0.1723566452420E+00
-0.6491765630500E+00 -0.2076490528544E+00
-0.7236693041002E+00 -0.2398857020301E+00
-0.7921364213020E+00 -0.2672911077485E+00
-0.8528305535863E+00 -0.2883024154180E+00
-0.1826806868715E+00 -0.3909593856168E-01
-0.2886298517184E+00 -0.6738316610331E-01
-0.3847213189670E+00 -0.1016984625177E+00
-0.4741177061276E+00 -0.1397918228384E+00
-0.5585942284224E+00 -0.1793518441901E+00
-0.6388721122918E+00 -0.2181493905469E+00
-0.7148392638713E+00 -0.2540974492523E+00
-0.7855637161390E+00 -0.2852176770378E+00
-0.8491002280290E+00 -0.3096841158142E+00
-0.1777108698475E+00 -0.3735108462544E-01
-0.2802030562518E+00 -0.6682408360667E-01
-0.3738269331907E+00 -0.1033039294608E+00
-0.4617315677543E+00 -0.1442457535473E+00
-0.5456825418940E+00 -0.1871887272713E+00
-0.6264147751250E+00 -0.2298023162095E+00
-0.7038090380246E+00 -0.2698738902879E+00
-0.7768640902552E+00 -0.3052404545301E+00
-0.8434822249157E+00 -0.3338140599210E+00
-0.1719260927957E+00 -0.3574784683788E-01
-0.2704663035761E+00 -0.6650586504631E-01
-0.3612844261648E+00 -0.1052518231447E+00
-0.4474367878001E+00 -0.1491657390412E+00
-0.5306431252885E+00 -0.1956668821781E+00
-0.6116493663694E+00 -0.2423556192517E+00
-0.6903549883809E+00 -0.2869269689572E+00
-0.7657371472257E+00 -0.3270669306886E+00
-0.8356040913356E+00 -0.3604499692225E+00
-0.1653287587644E+00 -0.3428377410341E-01
-0.2594202794289E+00 -0.6638965912360E-01
-0.3470836343350E+00 -0.1074465655673E+00
-0.4311994570525E+00 -0.1543888045932E+00
-0.5134021464416E+00 -0.2045502638121E+00
-0.5944434777783E+00 -0.2555002281396E+00
-0.6742659262904E+00 -0.3048846431320E+00
-0.7518745130239E+00 -0.3502886312206E+00
-0.8250502004281E+00 -0.3892001357279E+00
-0.1579383754752E+00 -0.3295593092712E-01
-0.2470915392559E+00 -0.6643346397836E-01
-0.3312449544416E+00 -0.1097845120160E+00
-0.4130191777999E+00 -0.1597352887175E+00
-0.4939209591772E+00 -0.2135721029127E+00
-0.5746990353520E+00 -0.2688751237055E+00
-0.6553587458664E+00 -0.3232926173326E+00
-0.7349796630139E+00 -0.3743727647644E+00
-0.8113836023849E+00 -0.4194939023435E+00
-0.1497918890432E+00 -0.3176079453157E-01
-0.2335336002799E+00 -0.6659343277842E-01
-0.3138218254494E+00 -0.1121573095752E+00
-0.3929337130596E+00 -0.1650145425287E+00
-0.4722038418417E+00 -0.2224428594100E+00
-0.5523643349841E+00 -0.2820767534922E+00
-0.6334964588891E+00 -0.3416230649421E+00
-0.7147947858350E+00 -0.3986644854892E+00
-0.7941852836333E+00 -0.4505575924378E+00
-0.1409433264444E+00 -0.3069434194013E-01
-0.2188271049858E+00 -0.6682571183679E-01
-0.2949021538947E+00 -0.1144563036325E+00
-0.3710225345239E+00 -0.1700324289470E+00
-0.4483047758290E+00 -0.2308610804737E+00
-0.5274455887489E+00 -0.2946730629173E+00
-0.6086068479837E+00 -0.3592910859659E+00
-0.6911311787415E+00 -0.4224039467617E+00
-0.7731084353766E+00 -0.4814244082592E+00
-0.1314626563193E+00 -0.2975231812901E-01
-0.2030788978445E+00 -0.6708866808463E-01
-0.2746084165793E+00 -0.1165776940523E+00
-0.3474088386850E+00 -0.1746002550280E+00
-0.4223325947374E+00 -0.2385268634656E+00
-0.5000169041149E+00 -0.3062219290764E+00
-0.5806995546954E+00 -0.3756787019798E+00
-0.6638976096844E+00 -0.4447587753226E+00
-0.7479273911918E+00 -0.5109901872942E+00
-0.1214338028495E+00 -0.2893068178883E-01
-0.1864199032120E+00 -0.6734533764799E-01
-0.2530961994373E+00 -0.1184280326138E+00
-0.3222595576310E+00 -0.1785445961872E+00
-0.3944537270534E+00 -0.2451574224062E+00
-0.4702275435100E+00 -0.3162936360175E+00
-0.5498796306758E+00 -0.3901655958552E+00
-0.6331216399870E+00 -0.4648684111628E+00
-0.7185673116202E+00 -0.5380885930778E+00
-0.1109518287659E+00 -0.2822627790831E-01
-0.1690018631511E+00 -0.6756596086652E-01
-0.2305511400027E+00 -0.1199295351331E+00
-0.2957829974169E+00 -0.1817171039311E+00
-0.3648917504284E+00 -0.2505039346819E+00
-0.4383053417305E+00 -0.3244966933499E+00
-0.5163561992585E+00 -0.4021655814311E+00
-0.5989622784447E+00 -0.4818949140890E+00
-0.6851161615035E+00 -0.5615669431743E+00
-0.1001192439634E+00 -0.2763790925437E-01
-0.1509930724898E+00 -0.6773069313386E-01
-0.2071844234166E+00 -0.1210246287628E+00
-0.2682238698040E+00 -0.1840029586259E+00
-0.3339227250141E+00 -0.2543679579388E+00
-0.4045550334853E+00 -0.3305063728231E+00
-0.4804454120721E+00 -0.4111672246893E+00
-0.5617154170425E+00 -0.4950765301807E+00
-0.6478250533196E+00 -0.5803537084744E+00
-0.8904128899988E-01 -0.2716833533152E-01
-0.1325734157467E+00 -0.6783304005576E-01
-0.1832275186384E+00 -0.1216794795540E+00
-0.2398559714096E+00 -0.1853258738519E+00
-0.3018654717621E+00 -0.2566145021394E+00
-0.3693491237584E+00 -0.3340932749221E+00
-0.4425676387420E+00 -0.4167811846279E+00
-0.5218144992661E+00 -0.5037799973211E+00
-0.6071040200918E+00 -0.5935190918255E+00
-0.7781969687082E-01 -0.2682737185562E-01
-0.1139289861965E+00 -0.6788609813687E-01
-0.1589277046809E+00 -0.1218870544905E+00
-0.2109740424821E+00 -0.1856472289880E+00
-0.2690660019557E+00 -0.2571759001902E+00
-0.3331088525545E+00 -0.3351478693750E+00
-0.4032328866326E+00 -0.4187917347599E+00
-0.4798340411198E+00 -0.5075745346844E+00
-0.5635178951906E+00 -0.6003053234375E+00
-0.2880753530521E+00 -0.1807308929054E+00
-0.4375535594881E+00 -0.2951001965817E+00
-0.5628706154728E+00 -0.3585087560412E+00
-0.6676411304008E+00 -0.3878475274172E+00
-0.7546692931418E+00 -0.3958501669391E+00
-0.8264555422927E+00 -0.3896676063404E+00
-0.8829295690642E+00 -0.3663574024310E+00
-0.9208669391038E+00 -0.3283059476379E+00
-0.9426014073610E+00 -0.2889787008782E+00
-0.2741425535400E+00 -0.1468702523301E+00
-0.4298758635146E+00 -0.2416903335904E+00
-0.5569190291051E+00 -0.3082690815125E+00
-0.6617917130045E+00 -0.3444607054512E+00
-0.7484683312653E+00 -0.3586028889105E+00
-0.8195764705658E+00 -0.3574623465359E+00
-0.8752390807596E+00 -0.3392015172328E+00
-0.9129714069173E+00 -0.3073400494377E+00
-0.9357048999812E+00 -0.2745745992082E+00
-0.2608735364415E+00 -0.1236313761522E+00
-0.4168773523818E+00 -0.2012293171154E+00
-0.5458096576710E+00 -0.2624607891807E+00
-0.6519706262129E+00 -0.3016253729129E+00
-0.7392568755496E+00 -0.3209328737974E+00
-0.8105500729278E+00 -0.3250378683623E+00
-0.8662467551795E+00 -0.3126158418142E+00
-0.9045901843629E+00 -0.2875899207646E+00
-0.9288853512458E+00 -0.2616330529042E+00
-0.2489910766751E+00 -0.1065360865122E+00
-0.4020670143098E+00 -0.1700466560812E+00
-0.5311348686897E+00 -0.2238734499143E+00
-0.6384244991732E+00 -0.2622612650398E+00
-0.7268478319452E+00 -0.2847558731561E+00
-0.7990132134929E+00 -0.2935290997526E+00
-0.8555279751815E+00 -0.2871968749356E+00
-0.8953041350887E+00 -0.2693810749653E+00
-0.9217566511442E+00 -0.2503066095273E+00
-0.2384766456396E+00 -0.9334702082363E-01
-0.3868831835132E+00 -0.1457121705901E+00
-0.5144389451371E+00 -0.1921457735417E+00
-0.6219868302825E+00 -0.2279933422486E+00
-0.7114401127474E+00 -0.2518071742625E+00
-0.7848389812180E+00 -0.2642061435507E+00
-0.8427768394014E+00 -0.2636764755533E+00
-0.8847040075316E+00 -0.2530584819276E+00
-0.9138990440360E+00 -0.2407186505691E+00
-0.2290830038462E+00 -0.8282532369282E-01
-0.3719365504565E+00 -0.1264867945692E+00
-0.4966606807409E+00 -0.1664097102934E+00
-0.6034317968621E+00 -0.1991734553217E+00
-0.6934188950420E+00 -0.2231678507936E+00
-0.7680591024512E+00 -0.2381715459244E+00
-0.8277894333420E+00 -0.2427861624434E+00
-0.8724176757038E+00 -0.2389471303712E+00
-0.9048769426797E+00 -0.2329387714351E+00
-0.2205314529056E+00 -0.7420267064671E-01
-0.3574050708095E+00 -0.1111468805775E+00
-0.4782940090235E+00 -0.1457323540015E+00
-0.5832784917059E+00 -0.1755977242213E+00
-0.6731126211225E+00 -0.1992811450988E+00
-0.7487406966197E+00 -0.2161643407134E+00
-0.8104107455784E+00 -0.2251186353236E+00
-0.8581223032678E+00 -0.2272957107562E+00
-0.8942720794313E+00 -0.2269536181932E+00
-0.2125596780890E+00 -0.6697478917981E-01
-0.3432458563696E+00 -0.9879990157682E-01
-0.4595233266785E+00 -0.1292661020208E+00
-0.5617889968883E+00 -0.1568069311918E+00
-0.6506982583057E+00 -0.1801680480161E+00
-0.7268808263836E+00 -0.1985415597700E+00
-0.7904819439848E+00 -0.2110663168755E+00
-0.8415591441820E+00 -0.2182468319328E+00
-0.8817434144848E+00 -0.2226546089302E+00
-0.2049374841629E+00 -0.6079326075239E-01
-0.3293024308134E+00 -0.8877896817880E-01
-0.4403301881850E+00 -0.1162582318783E+00
-0.5390080206020E+00 -0.1422271901135E+00
-0.6261776809884E+00 -0.1655699403316E+00
-0.7023591152211E+00 -0.1853376500493E+00
-0.7677588444341E+00 -0.2008117557098E+00
-0.8225438983473E+00 -0.2119573108078E+00
-0.8671295559283E+00 -0.2198651920746E+00
-0.5361842921491E-01 -0.2877022475838E-01
-0.7188674982631E-01 -0.7371173627201E-01
-0.1031210228807E+00 -0.1315153904590E+00
-0.1451420154600E+00 -0.1992806183634E+00
-0.1967529291733E+00 -0.2752796511644E+00
-0.2578740627403E+00 -0.3584923971055E+00
-0.3296157933575E+00 -0.4476744695383E+00
-0.4125596336049E+00 -0.5410236295790E+00
-0.5064393538656E+00 -0.6380147868391E+00
-0.3984170614529E-01 -0.3096983670592E-01
-0.4759321571693E-01 -0.7929102127067E-01
-0.7086139735013E-01 -0.1402182771705E+00
-0.1076249769461E+00 -0.2108013895196E+00
-0.1568145310294E+00 -0.2896198027407E+00
-0.2185617586674E+00 -0.3761946251037E+00
-0.2951198596384E+00 -0.4699117464794E+00
-0.3874631776284E+00 -0.5686368823200E+00
-0.4941716458052E+00 -0.6712609316242E+00
-0.2544200506976E-01 -0.3353691182332E-01
-0.2283322383713E-01 -0.8486033826328E-01
-0.3857906302782E-01 -0.1476965881828E+00
-0.7050816900185E-01 -0.2190186784230E+00
-0.1175351152176E+00 -0.2979428729511E+00
-0.1799632795833E+00 -0.3850216961368E+00
-0.2610466262386E+00 -0.4815970833196E+00
-0.3622702137326E+00 -0.5865366115917E+00
-0.4819784492069E+00 -0.6974681758277E+00
-0.1057800110301E-01 -0.3663989659797E-01
 0.1869725066901E-02 -0.9068345303956E-01
-0.7181775207133E-02 -0.1540593854857E+00
-0.3507815519935E-01 -0.2236782762002E+00
-0.8053035888962E-01 -0.2994517554102E+00
-0.1439472981803E+00 -0.3834586886351E+00
-0.2293820367244E+00 -0.4804873585517E+00
-0.3387651563704E+00 -0.5921677667188E+00
-0.4712147510314E+00 -0.7144514338071E+00
 0.4634793117373E-02 -0.4053146278535E-01
 0.2596719680017E-01 -0.9716660887490E-01
 0.2235173678867E-01 -0.1596298342496E+00
-0.2699254657943E-02 -0.2248113731060E+00
-0.4751666908705E-01 -0.2937334508552E+00
-0.1125594029151E+00 -0.3705005711682E+00
-0.2024607307497E+00 -0.4648893897597E+00
-0.3191744191569E+00 -0.5833879834237E+00
-0.4636703524859E+00 -0.7200911569243E+00
 0.2011179310799E-01 -0.4562060725984E-01
 0.4884413726750E-01 -0.1049484747776E+00
 0.4896759916746E-01 -0.1649417888711E+00
 0.2523546491441E-01 -0.2226859830266E+00
-0.2020506957352E-01 -0.2808027844196E+00
-0.8785781024428E-01 -0.3458662997930E+00
-0.1827381507552E+00 -0.4339630717984E+00
-0.3060587279063E+00 -0.5586253211093E+00
-0.4616229578262E+00 -0.7124272018640E+00
 0.3576896245289E-01 -0.5259965371403E-01
 0.6971315363333E-01 -0.1149963273086E+00
 0.7150852168913E-01 -0.1706271414876E+00
 0.4739286127099E-01 -0.2176314887976E+00
-0.1173769982842E-03 -0.2610650402047E+00
-0.7167309134440E-01 -0.3102276187625E+00
-0.1725366805881E+00 -0.3880367827021E+00
-0.3021796323311E+00 -0.5171153794082E+00
-0.4678835962664E+00 -0.6897726513080E+00
 0.5139957949626E-01 -0.6275493528705E-01
 0.8739742204314E-01 -0.1286773136467E+00
 0.8867257782969E-01 -0.1770930505653E+00
 0.6272044776042E-01 -0.2095594725370E+00
 0.1171596524205E-01 -0.2353495257217E+00
-0.6531628883426E-01 -0.2655176882609E+00
-0.1737323368205E+00 -0.3290167609907E+00
-0.3103405451693E+00 -0.4591700982720E+00
-0.4858337448090E+00 -0.6508500071799E+00
 0.6635667351482E-01 -0.7869763441954E-01
 0.9960716929141E-01 -0.1480323444437E+00
 0.9940247939537E-01 -0.1828536362544E+00
 0.7093966564283E-01 -0.1978436240823E+00
 0.1507711425927E-01 -0.2051201540085E+00
-0.6925804630892E-01 -0.2153276611373E+00
-0.1873873778309E+00 -0.2608032548483E+00
-0.3331132322619E+00 -0.3866125876524E+00
-0.5195627656012E+00 -0.5948711332095E+00
-0.9064172048119E+00 -0.2289264067831E+00
-0.9164664631114E+00 -0.2274902492627E+00
-0.9242749372749E+00 -0.2265732587390E+00
-0.9302669301048E+00 -0.2263797658218E+00
-0.9348795540965E+00 -0.2271332010553E+00
-0.9385384589195E+00 -0.2290229438331E+00
-0.9416403319945E+00 -0.2321872144580E+00
-0.9445461823523E+00 -0.2367152251900E+00
-0.9475931815518E+00 -0.2426610096606E+00
-0.9097393554863E+00 -0.2353609551285E+00
-0.9199480764163E+00 -0.2324486857479E+00
-0.9276153205960E+00 -0.2299701120982E+00
-0.9331085464071E+00 -0.2280678505311E+00
-0.9368702665377E+00 -0.2269635706148E+00
-0.9393580276459E+00 -0.2268831259973E+00
-0.9410119440292E+00 -0.2280191275182E+00
-0.9422362278414E+00 -0.2305177319867E+00
-0.9433874028354E+00 -0.2344844489076E+00
-0.9127055288603E+00 -0.2453511675166E+00
-0.9231271002040E+00 -0.2411529645364E+00
-0.9307216518214E+00 -0.2371981768247E+00
-0.9357395283019E+00 -0.2336659202097E+00
-0.9385774749577E+00 -0.2308062667633E+00
-0.9396985002848E+00 -0.2288891819515E+00
-0.9395837802768E+00 -0.2281609005309E+00
-0.9386940353959E+00 -0.2288174739041E+00
-0.9374375088864E+00 -0.2309964399396E+00
-0.9153969103073E+00 -0.2590232429357E+00
-0.9262101744612E+00 -0.2539638772516E+00
-0.9338113421729E+00 -0.2488139547775E+00
-0.9383500596198E+00 -0.2438425029760E+00
-0.9401524660915E+00 -0.2393702482785E+00
-0.9396676237876E+00 -0.2357417958825E+00
-0.9374187964926E+00 -0.2332820735469E+00
-0.9339527122676E+00 -0.2322558808367E+00
-0.9297831568224E+00 -0.2328408955330E+00
-0.9176847835296E+00 -0.2765674395082E+00
-0.9291494792766E+00 -0.2711997391117E+00
-0.9369481691599E+00 -0.2653040656091E+00
-0.9411130716890E+00 -0.2592284070514E+00
-0.9418685747605E+00 -0.2533804013925E+00
-0.9396141623014E+00 -0.2482057970940E+00
-0.9348991291377E+00 -0.2441449316282E+00
-0.9283782093333E+00 -0.2415770754336E+00
-0.9207391720572E+00 -0.2407653007824E+00
-0.9193827081170E+00 -0.2982197110156E+00
-0.9318257723252E+00 -0.2932416223486E+00
-0.9401559441123E+00 -0.2872256346093E+00
-0.9442442153736E+00 -0.2805614950477E+00
-0.9441546569267E+00 -0.2737264467488E+00
-0.9401662961982E+00 -0.2672723199140E+00
-0.9327922448743E+00 -0.2617868734630E+00
-0.9227760657348E+00 -0.2578257629498E+00
-0.9110356320456E+00 -0.2558227282701E+00
-0.9202549488067E+00 -0.3242079773697E+00
-0.9340633413197E+00 -0.3204878147782E+00
-0.9433891211417E+00 -0.3151882087551E+00
-0.9478949549303E+00 -0.3086854817686E+00
-0.9474113771311E+00 -0.3014793271022E+00
-0.9419907155851E+00 -0.2941976131649E+00
-0.9319798362807E+00 -0.2875787954523E+00
-0.9181029179822E+00 -0.2824154433383E+00
-0.9014938029168E+00 -0.2794311470882E+00
-0.9199499996027E+00 -0.3546864319820E+00
-0.9355308780951E+00 -0.3532902822032E+00
-0.9464058556382E+00 -0.3498067452066E+00
-0.9520009214029E+00 -0.3445349417528E+00
-0.9518482937195E+00 -0.3379235571889E+00
-0.9456523097217E+00 -0.3306021502095E+00
-0.9333987695410E+00 -0.3234037983545E+00
-0.9155274108780E+00 -0.3173629374809E+00
-0.8931815159649E+00 -0.3136366499115E+00
-0.9179604934680E+00 -0.3896664780958E+00
-0.9356707447440E+00 -0.3918665185380E+00
-0.9486606853116E+00 -0.3916086613545E+00
-0.9561287282899E+00 -0.3890590501205E+00
-0.9572831309539E+00 -0.3845330749524E+00
-0.9513899457398E+00 -0.3785515899164E+00
-0.9378704528164E+00 -0.3719095357483E+00
-0.9164914915883E+00 -0.3657583748145E+00
-0.8877566806426E+00 -0.3616899176861E+00
-0.9136003231456E+00 -0.4289239893634E+00
-0.9336407428248E+00 -0.4361601310300E+00
-0.9491925147633E+00 -0.4408497540357E+00
-0.9592812668568E+00 -0.4430104976384E+00
-0.9628299815035E+00 -0.4427774211395E+00
-0.9586619860508E+00 -0.4404690707555E+00
-0.9455305010972E+00 -0.4366820756521E+00
-0.9222042989295E+00 -0.4324380103167E+00
-0.8876941638481E+00 -0.4294351187481E+00
-0.9060152502251E+00 -0.4718751648072E+00
-0.9282979328000E+00 -0.4856272832526E+00
-0.9465452060895E+00 -0.4971899099171E+00
-0.9596928993522E+00 -0.5065072044517E+00
-0.9664700664836E+00 -0.5136083601110E+00
-0.9653460981843E+00 -0.5186717141748E+00
-0.9544637652948E+00 -0.5221208484220E+00
-0.9315432277779E+00 -0.5247824828093E+00
-0.8937167381698E+00 -0.5281770790509E+00
-0.8942988373950E+00 -0.5173434571168E+00
-0.9183687303311E+00 -0.5387524455073E+00
-0.9389822585658E+00 -0.5587583379973E+00
-0.9550666487915E+00 -0.5773319125044E+00
-0.9652663328242E+00 -0.5945082899049E+00
-0.9678437438922E+00 -0.6104403352143E+00
-0.9605353615634E+00 -0.6254735142563E+00
-0.9403165338195E+00 -0.6402539702013E+00
-0.9029559094166E+00 -0.6558921613390E+00
-0.8776288230244E+00 -0.5634965379120E+00
-0.9026690796748E+00 -0.5929054518851E+00
-0.9248556799402E+00 -0.6218587244215E+00
-0.9431813451769E+00 -0.6503583152231E+00
-0.9563228636212E+00 -0.6784260358019E+00
-0.9625214335596E+00 -0.7061303242569E+00
-0.9594165801479E+00 -0.7336136631303E+00
-0.9438009960558E+00 -0.7611074478864E+00
-0.9112261494929E+00 -0.7888891393392E+00
-0.8554132821250E+00 -0.6081257688240E+00
-0.8803415355781E+00 -0.6449094298446E+00
-0.9029894950213E+00 -0.6820492025577E+00
-0.9225015650800E+00 -0.7195050790309E+00
-0.9377290690648E+00 -0.7571766547793E+00
-0.9471222726093E+00 -0.7948959418620E+00
-0.9486016284931E+00 -0.8324027219588E+00
-0.9394083861571E+00 -0.8692783044486E+00
-0.9159861849854E+00 -0.9047823136687E+00
-0.8273554533804E+00 -0.6489362641895E+00
-0.8509435758541E+00 -0.6915729826599E+00
-0.8727823907800E+00 -0.7350466772661E+00
-0.8922690958780E+00 -0.7791899500545E+00
-0.9085843829663E+00 -0.8236787926254E+00
-0.9206229393620E+00 -0.8680019450557E+00
-0.9269320974646E+00 -0.9114024679657E+00
-0.9256807512772E+00 -0.9527807079340E+00
-0.9147208338725E+00 -0.9905484064935E+00
-0.7934663568973E+00 -0.6837811724777E+00
-0.8144528158107E+00 -0.7300639227714E+00
-0.8341742094812E+00 -0.7772442662740E+00
-0.8523701156234E+00 -0.8249554314074E+00
-0.8686685014191E+00 -0.8725931355495E+00
-0.8825719878647E+00 -0.9192737187264E+00
-0.8934623260979E+00 -0.9637630735024E+00
-0.9006316883428E+00 -0.1004385310894E+01
-0.9033709200262E+00 -0.1038939722027E+01
-0.7541070168580E+00 -0.7109449475840E+00
-0.7713600869166E+00 -0.7583916642530E+00
-0.7877819572604E+00 -0.8063518081362E+00
-0.8034987307825E+00 -0.8542016309881E+00
-0.8186177141899E+00 -0.9010358150643E+00
-0.8332923241028E+00 -0.9456416183411E+00
-0.8477867218957E+00 -0.9864097058146E+00
-0.8625135635716E+00 -0.1021250469415E+01
-0.8780539101981E+00 -0.1047557657744E+01
-0.7098798670268E+00 -0.7291759401496E+00
-0.7224990641189E+00 -0.7753759212112E+00
-0.7347405886499E+00 -0.8212731606384E+00
-0.7470633539040E+00 -0.8658877905003E+00
-0.7599856698558E+00 -0.9080559972805E+00
-0.7742691145900E+00 -0.9463217048186E+00
-0.7910002967328E+00 -0.9788499428351E+00
-0.8116553882485E+00 -0.1003345802703E+01
-0.8380474643808E+00 -0.1016993497531E+01
-0.6612721863658E+00 -0.7374133757446E+00
-0.6686271278781E+00 -0.7801054602149E+00
-0.6761757872178E+00 -0.8210661804880E+00
-0.6844800655736E+00 -0.8590954928712E+00
-0.6943992077220E+00 -0.8928381082065E+00
-0.7071659861231E+00 -0.9206924753552E+00
-0.7245102448328E+00 -0.9407509790293E+00
-0.7487528858895E+00 -0.9507465951918E+00
-0.7829287712080E+00 -0.9479610484511E+00
</DataArray>
</PointData>
   <DataArray type="Float64" Name="Load" NumberOfComponents="1"    ComponentName0="Load" format="ascii">
 0.1183839446853E+02
 0.1059424479814E+02
 0.9518554769308E+01
 0.9021133315128E+01
 0.8606298920283E+01
 0.8268986628888E+01
 0.7975705697155E+01
 0.7726785789674E+01
 0.7534967198475E+01
 0.7437481452898E+01
 0.7442368914906E+01
 0.7422035277636E+01
 0.7265208962079E+01
 0.7019917746904E+01
 0.6762848784695E+01
 0.6526229446826E+01
 0.6357410465913E+01
 0.6262532831303E+01
 0.6482589846708E+01
 0.5568118394802E+01
 0.1058512997192E+02
 0.9849645405941E+01
 0.1015547115030E+02
 0.9350491760538E+01
 0.8788142525920E+01
 0.8384551528323E+01
 0.8044220872895E+01
 0.7754592587394E+01
 0.7509140335988E+01
 0.7313747487691E+01
 0.7167926648882E+01
 0.7046676280799E+01
 0.6903795698194E+01
 0.6702637780339E+01
 0.6438778542166E+01
 0.6129894363899E+01
 0.5793474498574E+01
 0.5415364485321E+01
 0.4979513284590E+01
 0.4152879180014E+01
 0.2912253858967E+01
 0.8705110828276E+01
 0.8670546368036E+01
 0.9311880074846E+01
 0.9009376765646E+01
 0.8513738890209E+01
 0.8127775002530E+01
 0.7799227374593E+01
 0.7514036437584E+01
 0.7267481578277E+01
 0.7054515881199E+01
 0.6858143432781E+01
 0.6655168280296E+01
 0.6433902777118E+01
 0.6183407751263E+01
 0.5884843660242E+01
 0.5528180937894E+01
 0.5106347790709E+01
 0.4594269465137E+01
 0.3913129279730E+01
 0.2917267311752E+01
 0.2719258561672E+01
 0.8005704400745E+01
 0.7846585511753E+01
 0.8519384813178E+01
 0.8527286825066E+01
 0.8187663043491E+01
 0.7841379981919E+01
 0.7532530580272E+01
 0.7254476632751E+01
 0.7003504617493E+01
 0.6768882906775E+01
 0.6530177498822E+01
 0.6271776309335E+01
 0.5996286084607E+01
 0.5702120520877E+01
 0.5368093746726E+01
 0.4972220387971E+01
 0.4497408707283E+01
 0.3917557989749E+01
 0.3190644296891E+01
 0.2492300384046E+01
 0.3275293364621E+01
 0.7430665733060E+01
 0.7210854760952E+01
 0.7830924203823E+01
 0.8002759613691E+01
 0.7813132900137E+01
 0.7528994145888E+01
 0.7245942935225E+01
 0.6977346260701E+01
 0.6721407784533E+01
 0.6466684529738E+01
 0.6195309674070E+01
 0.5898536793155E+01
 0.5584733547890E+01
 0.5256132710092E+01
 0.4893564752027E+01
 0.4473438825759E+01
 0.3979506310081E+01
 0.3401980776064E+01
 0.2786488826958E+01
 0.2511174077124E+01
 0.3787666634594E+01
 0.6977459853545E+01
 0.6687239910215E+01
 0.7235321504319E+01
 0.7484463660034E+01
 0.7410720996993E+01
 0.7194578090018E+01
 0.6942579637507E+01
 0.6685363981862E+01
 0.6425921342084E+01
 0.6155161758106E+01
 0.5860000025345E+01
 0.5537005919680E+01
 0.5196931675284E+01
 0.4844184544013E+01
 0.4463829908185E+01
 0.4036860237443E+01
 0.3555592033264E+01
 0.3039266460776E+01
 0.2610025106655E+01
 0.2713605953416E+01
 0.4136179456318E+01
 0.6622297180942E+01
 0.6236110482803E+01
 0.6713516057837E+01
 0.6991606365713E+01
 0.6998710095097E+01
 0.6844880874790E+01
 0.6626008143192E+01
 0.6381966492515E+01
 0.6121481451236E+01
 0.5839563107754E+01
 0.5528334629920E+01
 0.5188498970278E+01
 0.4832072123738E+01
 0.4465465256489E+01
 0.4079282725793E+01
 0.3662443632570E+01
 0.3220492953416E+01
 0.2802155543115E+01
 0.2575790079411E+01
 0.2951869363717E+01
 0.4351306762709E+01
 0.6339444316840E+01
 0.5834829503575E+01
 0.6248974118977E+01
 0.6529750737929E+01
 0.6589312433101E+01
 0.6487118549260E+01
 0.6300285984347E+01
 0.6070722112759E+01
 0.5811986730944E+01
 0.5523757434374E+01
 0.5203095086635E+01
 0.4854075904474E+01
 0.4489803220176E+01
 0.4118997276873E+01
 0.3738455943990E+01
 0.3346490361863E+01
 0.2962857471649E+01
 0.2658964681218E+01
 0.2618858000271E+01
 0.3165615108749E+01
 0.4475264025029E+01
 0.6108083962495E+01
 0.5469518324461E+01
 0.5828952056275E+01
 0.6098632280000E+01
 0.6189662823364E+01
 0.6127485146215E+01
 0.5969539706219E+01
 0.5755058861059E+01
 0.5500749994418E+01
 0.5210660268478E+01
 0.4886251870855E+01
 0.4534498487876E+01
 0.4169743451201E+01
 0.3803349490254E+01
 0.3438446748466E+01
 0.3082780484970E+01
 0.2768622241473E+01
 0.2581144523970E+01
 0.2695956418525E+01
 0.3338586733537E+01
 0.4539282578572E+01
 0.5913502927844E+01
 0.5131167581511E+01
 0.5443910593721E+01
 0.5695740719186E+01
 0.5803453939910E+01
 0.5770702035845E+01
 0.5637539515419E+01
 0.5438097570121E+01
 0.5190535239348E+01
 0.4902497963024E+01
 0.4579209183740E+01
 0.4230208374003E+01
 0.3871272030098E+01
 0.3516590037646E+01
 0.3175338400087E+01
 0.2863766582480E+01
 0.2623717906642E+01
 0.2545697629149E+01
 0.2781548697355E+01
 0.3471652245132E+01
 0.4565859571500E+01
 0.5743902059439E+01
 0.4813675733575E+01
 0.5086941688287E+01
 0.5318303614892E+01
 0.5432804531251E+01
 0.5420807005980E+01
 0.5308306901943E+01
 0.5123516608702E+01
 0.4884702278150E+01
 0.4602175313570E+01
 0.4284242409840E+01
 0.3942711341263E+01
 0.3594886787371E+01
 0.3257749218882E+01
 0.2945878492760E+01
 0.2682544595909E+01
 0.2515973628353E+01
 0.2535088798967E+01
 0.2861565852059E+01
 0.3569380746865E+01
 0.4572642577094E+01
 0.5591110702586E+01
 0.4512677347507E+01
 0.4752668560542E+01
 0.4963145807149E+01
 0.5077961781970E+01
 0.5079929337301E+01
 0.4984309340655E+01
 0.4813526077713E+01
 0.4585029623948E+01
 0.4310900425697E+01
 0.4001868870151E+01
 0.3671709610390E+01
 0.3339230644191E+01
 0.3023990543348E+01
 0.2745166028710E+01
 0.2531486713250E+01
 0.2434708951893E+01
 0.2537365599411E+01
 0.2930198638675E+01
 0.3640706128568E+01
 0.4563659566017E+01
 0.5484074866037E+01
 0.4224895736346E+01
 0.4436706667721E+01
 0.4626903354894E+01
 0.4737824088453E+01
 0.4748537491667E+01
 0.4666468006081E+01
 0.4508856644565E+01
 0.4291778422734E+01
 0.4028312383190E+01
 0.3731003225395E+01
 0.3415273787638E+01
 0.3101305123114E+01
 0.2810914795896E+01
 0.2567065746696E+01
 0.2402574518385E+01
 0.2370491195527E+01
 0.2543986576718E+01
 0.2985821261576E+01
 0.3690615885150E+01
 0.4550503045183E+01
 0.5385008920663E+01
 0.3947855962954E+01
 0.4135831070077E+01
 0.4307003840809E+01
 0.4411529155649E+01
 0.4427213826820E+01
 0.4356017527842E+01
 0.4210802956859E+01
 0.4005992497077E+01
 0.3755042423970E+01
 0.3471755901163E+01
 0.3172856836016E+01
 0.2879674704103E+01
 0.2615891873350E+01
 0.2407487862385E+01
 0.2290227164803E+01
 0.2316769476452E+01
 0.2549648346340E+01
 0.3027787665474E+01
 0.3724195608649E+01
 0.4532850771329E+01
 0.5297306911935E+01
 0.3679596112655E+01
 0.3847449347918E+01
 0.4001174013863E+01
 0.4097992511901E+01
 0.4116050885858E+01
 0.4053702508257E+01
 0.3920260581068E+01
 0.3728404657848E+01
 0.3491485050504E+01
 0.3224064483741E+01
 0.2943801058247E+01
 0.2672883112082E+01
 0.2436434914359E+01
 0.2262779295450E+01
 0.2189748704408E+01
 0.2268501732196E+01
 0.2550866576028E+01
 0.3056527598891E+01
 0.3744427418329E+01
 0.4511984902524E+01
 0.5221747102033E+01
 0.3418505137224E+01
 0.3569421583881E+01
 0.3707393639438E+01
 0.3796011575468E+01
 0.3814780756398E+01
 0.3759861342947E+01
 0.3637774501490E+01
 0.3459475408297E+01
 0.3237837287209E+01
 0.2987737782836E+01
 0.2727394285800E+01
 0.2479527583446E+01
 0.2270286882504E+01
 0.2129781386876E+01
 0.2097285686688E+01
 0.2221863835742E+01
 0.2545437619867E+01
 0.3072704061485E+01
 0.3753509013101E+01
 0.4489319896158E+01
 0.5157886821952E+01
 0.3163213116966E+01
 0.3299928217692E+01
 0.3423842556438E+01
 0.3504320250451E+01
 0.3522868189447E+01
 0.3474500862734E+01
 0.3363588802451E+01
 0.3199430776422E+01
 0.2994134488296E+01
 0.2762496225047E+01
 0.2522920708623E+01
 0.2298320892521E+01
 0.2115479901296E+01
 0.2005850090084E+01
 0.2009749055211E+01
 0.2174007826878E+01
 0.2531976344327E+01
 0.3077007455858E+01
 0.3753152331857E+01
 0.4465882743291E+01
 0.5104951747362E+01
 0.2912514284097E+01
 0.3037372263799E+01
 0.3148849243641E+01
 0.3221614346230E+01
 0.3239575895720E+01
 0.3197358950202E+01
 0.3097693293388E+01
 0.2948297824604E+01
 0.2760282468086E+01
 0.2548007257441E+01
 0.2329703823591E+01
 0.2128139349723E+01
 0.1970373157297E+01
 0.1888853072103E+01
 0.1924732415289E+01
 0.2122851373593E+01
 0.2509615860824E+01
 0.3070069106057E+01
 0.3744637654364E+01
 0.4442313048399E+01
 0.5062036437001E+01
 0.2665311208736E+01
 0.2780305701999E+01
 0.2880844304657E+01
 0.2946560034629E+01
 0.2964009575040E+01
 0.2927955419210E+01
 0.2839865218682E+01
 0.2705936966320E+01
 0.2536085689125E+01
 0.2343915044109E+01
 0.2147140515034E+01
 0.1968057710466E+01
 0.1833675399884E+01
 0.1777157570600E+01
 0.1840437848068E+01
 0.2066911745266E+01
 0.2477816949387E+01
 0.3052402264185E+01
 0.3728865163067E+01
 0.4418928579604E+01
 0.5028182003620E+01
 0.2420572899288E+01
 0.2527372677820E+01
 0.2618319432862E+01
 0.2677792493031E+01
 0.2695148364736E+01
 0.2665632384604E+01
 0.2589705078032E+01
 0.2472070050096E+01
 0.2321270620701E+01
 0.2149863391843E+01
 0.1974725485436E+01
 0.1817372017882E+01
 0.1704457020791E+01
 0.1669617419405E+01
 0.1755617205891E+01
 0.2005186083137E+01
 0.2436244755687E+01
 0.3024369973303E+01
 0.3706406057028E+01
 0.4395800633262E+01
 0.5002422155633E+01
 0.2177302080584E+01
 0.2277264246500E+01
 0.2359791277623E+01
 0.2413909073580E+01
 0.2431865173253E+01
 0.2409585994650E+01
 0.2346666553672E+01
 0.2246303660446E+01
 0.2115503613180E+01
 0.1965511216066E+01
 0.1812065746389E+01
 0.1675611454052E+01
 0.1582155158009E+01
 0.1565564459200E+01
 0.1669534488867E+01
 0.1937074096133E+01
 0.2384693557721E+01
 0.2986170921071E+01
 0.3677549416825E+01
 0.4372822844823E+01
 0.4983825430723E+01
 0.1934508389639E+01
 0.2028680784469E+01
 0.2103769183687E+01
 0.2153459673966E+01
 0.2172940420892E+01
 0.2158891600974E+01
 0.2110081094430E+01
 0.2028147430325E+01
 0.1918402813459E+01
 0.1790540044275E+01
 0.1658884938857E+01
 0.1542539623413E+01
 0.1466573188949E+01
 0.1464806986128E+01
 0.1581952667714E+01
 0.1862341195117E+01
 0.2323048875672E+01
 0.2937835562773E+01
 0.3642340032957E+01
 0.4349771049825E+01
 0.4971543202162E+01
 0.1691185083389E+01
 0.1780299063827E+01
 0.1848725603483E+01
 0.1894936013057E+01
 0.1917072041413E+01
 0.1912524436142E+01
 0.1879177967340E+01
 0.1817027326093E+01
 0.1729543688135E+01
 0.1624653021032E+01
 0.1515016964166E+01
 0.1418144568504E+01
 0.1357873509093E+01
 0.1367634889175E+01
 0.1493146991951E+01
 0.1781122627326E+01
 0.2251282299595E+01
 0.2879226491930E+01
 0.3600602500460E+01
 0.4326354692361E+01
 0.4964864806613E+01
 0.1446287348350E+01
 0.1530741607587E+01
 0.1593068062445E+01
 0.1636761228881E+01
 0.1662884529818E+01
 0.1669378202692E+01
 0.1653101095840E+01
 0.1612294316479E+01
 0.1548458058857E+01
 0.1467565113937E+01
 0.1380388389994E+01
 0.1302616007150E+01
 0.1256560108248E+01
 0.1274827696151E+01
 0.1403945318010E+01
 0.1693972396164E+01
 0.2169480891704E+01
 0.2810039337217E+01
 0.3551944636541E+01
 0.4302260143549E+01
 0.4963277797943E+01
 0.1198710614499E+01
 0.1278546445883E+01
 0.1335111639431E+01
 0.1377281286262E+01
 0.1408940178459E+01
 0.1428284538466E+01
 0.1430924544454E+01
 0.1413229197753E+01
 0.1374626712519E+01
 0.1318984254567E+01
 0.1254989038724E+01
 0.1196307720711E+01
 0.1163445089352E+01
 0.1187656929063E+01
 0.1315792459505E+01
 0.1601963617835E+01
 0.2077921452145E+01
 0.2729804455111E+01
 0.3495726736959E+01
 0.4277183507292E+01
 0.4966529585151E+01
 0.9472678381914E+00
 0.1022136577531E+01
 0.1073051219906E+01
 0.1114760545005E+01
 0.1153757407813E+01
 0.1188038279516E+01
 0.1211670091572E+01
 0.1219045364607E+01
 0.1207466177656E+01
 0.1178583484598E+01
 0.1138830714321E+01
 0.1099683806319E+01
 0.1079592415123E+01
 0.1107868439587E+01
 0.1230828525629E+01
 0.1506847655490E+01
 0.1977211737509E+01
 0.2637900719491E+01
 0.3430970116261E+01
 0.4250839315974E+01
 0.4974687510109E+01
 0.6906676389270E+00
 0.7597936481739E+00
 0.8049334062916E+00
 0.8473863434244E+00
 0.8958469168697E+00
 0.9474394710072E+00
 0.9943345503540E+00
 0.1028893508377E+01
 0.1046311035811E+01
 0.1045964495625E+01
 0.1031895033823E+01
 0.1013250130273E+01
 0.1006234966403E+01
 0.1037625370329E+01
 0.1151959047975E+01
 0.1411273651510E+01
 0.1868532552624E+01
 0.2533624065591E+01
 0.3356161150292E+01
 0.4222888050989E+01
 0.4988198892166E+01
 0.4275177585549E+00
 0.4896750383645E+00
 0.5286304423210E+00
 0.5732982098010E+00
 0.6338029591889E+00
 0.7053878238734E+00
 0.7779493137470E+00
 0.8418786093834E+00
 0.8903948786534E+00
 0.9206133040422E+00
 0.9340728262972E+00
 0.9374774009948E+00
 0.9446704250203E+00
 0.9793955453534E+00
 0.1082874403046E+01
 0.1319061042393E+01
 0.1754000860389E+01
 0.2416432546078E+01
 0.3268922524982E+01
 0.4192575581287E+01
 0.5007932017234E+01
 0.1567804852830E+00
 0.2103909112534E+00
 0.2418429360156E+00
 0.2907548057904E+00
 0.3666893692991E+00
 0.4612112464550E+00
 0.5617624873428E+00
 0.6571228148528E+00
 0.7388383628224E+00
 0.8018496749734E+00
 0.8450994784794E+00
 0.8727292685932E+00
 0.8961591649963E+00
 0.9357903338059E+00
 0.1027959161470E+01
 0.1235488261127E+01
 0.1637176054240E+01
 0.2286417105719E+01
 0.3166073975139E+01
 0.4157051450284E+01
 0.5035381190468E+01
 0.1287242002144E+00
 0.9187553239251E-01
 0.5890196165605E-01
 0.2262010509522E-01
 0.1002908138989E+00
 0.2170691130037E+00
 0.3460863695898E+00
 0.4740103745220E+00
 0.5906686922892E+00
 0.6887724114915E+00
 0.7644910112235E+00
 0.8192124318557E+00
 0.8618666747302E+00
 0.9094083841820E+00
 0.9920651962244E+00
 0.1167445493367E+01
 0.1523893327717E+01
 0.2144602648087E+01
 0.3045127899150E+01
 0.4109842996718E+01
 0.5062849983116E+01
 0.4222185788191E+00
 0.3970804010222E+00
 0.3747185026244E+00
 0.3113122462627E+00
 0.2032503165272E+00
 0.8591351091300E-01
 0.1405225401805E+00
 0.2927570197369E+00
 0.4443364567353E+00
 0.5796901456236E+00
 0.6911147500563E+00
 0.7767551079456E+00
 0.8428435071951E+00
 0.9028708384700E+00
 0.9802916061468E+00
 0.1123287387572E+01
 0.1422393878422E+01
 0.1993760847497E+01
 0.2900532053641E+01
 0.4051622008954E+01
 0.5084000646846E+01
 0.7325795223486E+00
 0.7264859545893E+00
 0.7104405577811E+00
 0.6324088022216E+00
 0.4947517560362E+00
 0.3216198928465E+00
 0.1444966992462E+00
 0.1284319911182E+00
 0.2996997783732E+00
 0.4731338133905E+00
 0.6239290789616E+00
 0.7453555713981E+00
 0.8404564366694E+00
 0.9191787149262E+00
 0.9981357575964E+00
 0.1113059580867E+01
 0.1346067048617E+01
 0.1840911946323E+01
 0.2731869981914E+01
 0.3969246353087E+01
 0.5203903333009E+01
 0.1062712184943E+01
 0.1080955714931E+01
 0.1068448365255E+01
 0.9691467272587E+00
 0.7987613138444E+00
 0.5886205447250E+00
 0.3613711172824E+00
 0.1452618379037E+00
 0.1628406852974E+00
 0.3677386582012E+00
 0.5617339720022E+00
 0.7249400135488E+00
 0.8562299670257E+00
 0.9617456404776E+00
 0.1051457095766E+01
 0.1147686132874E+01
 0.1313532359907E+01
 0.1702776519497E+01
 0.2537844872446E+01
 0.3876745917037E+01
 0.5353687045092E+01
 0.1417848654524E+01
 0.1466287498269E+01
 0.1451711783412E+01
 0.1321484196998E+01
 0.1112925894805E+01
 0.8653433473184E+00
 0.5986951318864E+00
 0.3256589258993E+00
 0.1000515140476E+00
 0.2615734587657E+00
 0.5023472006157E+00
 0.7147873296010E+00
 0.8915584721169E+00
 0.1034503543932E+01
 0.1146925380420E+01
 0.1238132182041E+01
 0.1345862733092E+01
 0.1605180650249E+01
 0.2324697417344E+01
 0.3758930474916E+01
 0.5540007474842E+01
 0.1805668993392E+01
 0.1890161310675E+01
 0.1862314583105E+01
 0.1687963645578E+01
 0.1435924704942E+01
 0.1150515943439E+01
 0.8465742301008E+00
 0.5306242471967E+00
 0.2153496411155E+00
 0.1546338210555E+00
 0.4427655720476E+00
 0.7134687122028E+00
 0.9475081904773E+00
 0.1141831973344E+01
 0.1292692796531E+01
 0.1397167468603E+01
 0.1466203368413E+01
 0.1588389221609E+01
 0.2110476891982E+01
 0.3588142296409E+01
 0.5775048181183E+01
 0.2238060576810E+01
 0.2362333752242E+01
 0.2299828549171E+01
 0.2064776502874E+01
 0.1766001536139E+01
 0.1443883516478E+01
 0.1104686653671E+01
 0.7497390918459E+00
 0.3826838970390E+00
 0.7445655353653E-01
 0.3787993583014E+00
 0.7182887815595E+00
 0.1024121542470E+01
 0.1287745683746E+01
 0.1497778975536E+01
 0.1639995740646E+01
 0.1700786869782E+01
 0.1705991615981E+01
 0.1945044233955E+01
 0.3330613638002E+01
 0.6072931912981E+01
 0.2734894549401E+01
 0.2894183984911E+01
 0.2757798829648E+01
 0.2445194176857E+01
 0.2101340997510E+01
 0.1745326533662E+01
 0.1373645767640E+01
 0.9833069047325E+00
 0.5720520921413E+00
 0.1494809264831E+00
 0.3045557201473E+00
 0.7245713288275E+00
 0.1119643772303E+01
 0.1474822516139E+01
 0.1770565286286E+01
 0.1982487760980E+01
 0.2079490194031E+01
 0.2022885059914E+01
 0.1942859507899E+01
 0.2962054325196E+01
 0.6445355859008E+01
 0.3332855810058E+01
 0.3494312143237E+01
 0.3216645585864E+01
 0.2821068299328E+01
 0.2440927588522E+01
 0.2054559162474E+01
 0.1654183722740E+01
 0.1232799923921E+01
 0.7832038163140E+00
 0.3024695823622E+00
 0.2117516413710E+00
 0.7248592029641E+00
 0.1229891548600E+01
 0.1703428475637E+01
 0.2117005233770E+01
 0.2438357344728E+01
 0.2627964942013E+01
 0.2615986598034E+01
 0.2299168013602E+01
 0.2562335558101E+01
 0.6888056354623E+01
 0.4109721842495E+01
 0.4144103775953E+01
 0.3634425360615E+01
 0.3191232685054E+01
 0.2783332070016E+01
 0.2371374382340E+01
 0.1946972816401E+01
 0.1499513957463E+01
 0.1018750393532E+01
 0.4926875227644E+00
 0.8896020825313E-01
 0.7080161522925E+00
 0.1347864075828E+01
 0.1971558707311E+01
 0.2539478428549E+01
 0.3016499536872E+01
 0.3359356927197E+01
 0.3534264832133E+01
 0.3297814489301E+01
 0.2669155983031E+01
 0.7346403769437E+01
 0.5271419390206E+01
 0.4649389679258E+01
 0.3997436117967E+01
 0.3559401492796E+01
 0.3125753616330E+01
 0.2696429351162E+01
 0.2252335223063E+01
 0.1784286966735E+01
 0.1280463871173E+01
 0.7237700155523E+00
 0.8403557694610E-01
 0.6578712132628E+00
 0.1464221481614E+01
 0.2274079480914E+01
 0.3039133818763E+01
 0.3714548641829E+01
 0.4283602573981E+01
 0.4722893277268E+01
 0.5191479706931E+01
 0.4642921484759E+01
 0.8350241168687E+01
 0.9038779822302E+00
 0.9127638565463E+00
 0.9430678460222E+00
 0.9459865446808E+00
 0.9061112396412E+00
 0.8199545501669E+00
 0.6954990705755E+00
 0.5493558734919E+00
 0.3933448470848E+00
 0.2207486284374E+00
 0.8557604298590E+00
 0.8969985508743E+00
 0.9556276436321E+00
 0.9833460095905E+00
 0.9616213836876E+00
 0.8857976363677E+00
 0.7627790973318E+00
 0.6081694063550E+00
 0.4251158641839E+00
 0.2210292752908E+00
 0.8098175080537E+00
 0.8928185635161E+00
 0.9820174600879E+00
 0.1033499510021E+01
 0.1028415485999E+01
 0.9616575611959E+00
 0.8390909302091E+00
 0.6722596754409E+00
 0.4677295459522E+00
 0.2498918055712E+00
 0.7673085507821E+00
 0.8982448098514E+00
 0.1020794623486E+01
 0.1096052886081E+01
 0.1106971445099E+01
 0.1048782676560E+01
 0.9260461059410E+00
 0.7488797318271E+00
 0.5285440798574E+00
 0.2918688445263E+00
 0.7285090834951E+00
 0.9126581054782E+00
 0.1070739367459E+01
 0.1170358099447E+01
 0.1197403600026E+01
 0.1148081835432E+01
 0.1026339261267E+01
 0.8415878691774E+00
 0.6063961376208E+00
 0.3469454006765E+00
 0.6936708890734E+00
 0.9353114333313E+00
 0.1130769403335E+01
 0.1255543766083E+01
 0.1299456547954E+01
 0.1260256305415E+01
 0.1141638089962E+01
 0.9517983710438E+00
 0.7026502399304E+00
 0.4181120067103E+00
 0.6630560673930E+00
 0.9653781390343E+00
 0.1199655482215E+01
 0.1350491485878E+01
 0.1412493481378E+01
 0.1385388873189E+01
 0.1272667936886E+01
 0.1080818884924E+01
 0.8197057527416E+00
 0.5100316706622E+00
 0.6369394943018E+00
 0.1001910852523E+01
 0.1275962768473E+01
 0.1453763443857E+01
 0.1535395190913E+01
 0.1522882305303E+01
 0.1419529319339E+01
 0.1229745544529E+01
 0.9603886133174E+00
 0.6281817964089E+00
 0.6155899114229E+00
 0.1043832305796E+01
 0.1358023082521E+01
 0.1563561478211E+01
 0.1666515249934E+01
 0.1671472722509E+01
 0.1581641213033E+01
 0.1399184181433E+01
 0.1127321331797E+01
 0.7782384860400E+00
 0.5992513691232E+00
 0.1089938755254E+01
 0.1443937475872E+01
 0.1677722813689E+01
 0.1803677002699E+01
 0.1829195237087E+01
 0.1757591956273E+01
 0.1588861114426E+01
 0.1322321301715E+01
 0.9654126692176E+00
 0.5881299599221E+00
 0.1138919763180E+01
 0.1531605134227E+01
 0.1793748931069E+01
 0.1944189383620E+01
 0.1993350863594E+01
 0.1944975017493E+01
 0.1797211209919E+01
 0.1545673944499E+01
 0.1193412890032E+01
 0.5823881431801E+00
 0.1189394227086E+01
 0.1618776184408E+01
 0.1908860655481E+01
 0.2084888435609E+01
 0.2160502701868E+01
 0.2140279747369E+01
 0.2021018855794E+01
 0.1795169369421E+01
 0.1462162616680E+01
 0.5821469344048E+00
 0.1239960958454E+01
 0.1703124770135E+01
 0.2020078671458E+01
 0.2222210655572E+01
 0.2326520791933E+01
 0.2338873875665E+01
 0.2255246168896E+01
 0.2065352669294E+01
 0.1765504351816E+01
 0.5874947336060E+00
 0.1289260283692E+01
 0.1782338679108E+01
 0.2124329251288E+01
 0.2352303991807E+01
 0.2486683945250E+01
 0.2535093825776E+01
 0.2493139217988E+01
 0.2347774632865E+01
 0.2091825639646E+01
 0.5985010269091E+00
 0.1336041896848E+01
 0.1854219882883E+01
 0.2218574211649E+01
 0.2471182028939E+01
 0.2635845845287E+01
 0.2722437042795E+01
 0.2726581093944E+01
 0.2631988650953E+01
 0.2426716825437E+01
 0.6152344932257E+00
 0.1379233187474E+01
 0.1916785788761E+01
 0.2299959423880E+01
 0.2574928282762E+01
 0.2768675489796E+01
 0.2893843442656E+01
 0.2946548271116E+01
 0.2906546438938E+01
 0.2755061336132E+01
 0.6377894372929E+00
 0.1418003058699E+01
 0.1968352616355E+01
 0.2365964040887E+01
 0.2659955070089E+01
 0.2879998035196E+01
 0.3042050044677E+01
 0.3143536647212E+01
 0.3159663533455E+01
 0.3062101269325E+01
 0.6663354261897E+00
 0.1451820198044E+01
 0.2007570961514E+01
 0.2414506706112E+01
 0.2723302780029E+01
 0.2965287196785E+01
 0.3160077904799E+01
 0.3307834389402E+01
 0.3379523758828E+01
 0.3333729299996E+01
 0.7012158050498E+00
 0.1480535628232E+01
 0.2033367290425E+01
 0.2443912945986E+01
 0.2762923702070E+01
 0.3021353425742E+01
 0.3242072334367E+01
 0.3429812499395E+01
 0.3553721313775E+01
 0.3556913860868E+01
 0.7434934322382E+00
 0.1504096118162E+01
 0.2044778068827E+01
 0.2452917172105E+01
 0.2777386192391E+01
 0.3047322340637E+01
 0.3285038946226E+01
 0.3500769573956E+01
 0.3668497395437E+01
 0.3722951695644E+01
 0.1776458645531E+01
 0.5485962737335E+00
 0.2036370006454E-01
 0.1669441369495E+00
 0.2384275894286E+00
 0.2444927872448E+00
 0.1925861693409E+00
 0.9231939079382E-01
 0.2879954954624E-01
 0.1527730724451E+00
 0.1860738425204E+01
 0.1211827321547E+01
 0.4227111524717E+00
 0.8515530831612E-01
 0.7495511411197E-01
 0.1420180559551E+00
 0.1370633754084E+00
 0.7509164973608E-01
 0.1367048673197E-01
 0.1038768868152E+00
 0.1704849455758E+01
 0.1366990552086E+01
 0.7777757903129E+00
 0.3574911649898E+00
 0.1143214235556E+00
 0.1390410561178E-01
 0.5969157772646E-01
 0.4211232052801E-01
 0.6202102508191E-02
 0.6170198088887E-01
 0.1545498153372E+01
 0.1355319425968E+01
 0.9420105674282E+00
 0.5681490741005E+00
 0.2956003441379E+00
 0.1227831810414E+00
 0.3132967961394E-01
 0.4071573403212E-02
 0.9979829550395E-02
 0.3008190086437E-01
 0.1403823231822E+01
 0.1285319601155E+01
 0.1000677419191E+01
 0.6978497089192E+00
 0.4410938476986E+00
 0.2505012981752E+00
 0.1259814700016E+00
 0.5814386649433E-01
 0.2725712232772E-01
 0.1288104315672E-01
 0.1283113393939E+01
 0.1199374223083E+01
 0.1004990960739E+01
 0.7715074695360E+00
 0.5482697710343E+00
 0.3605948937972E+00
 0.2181785548541E+00
 0.1203257688697E+00
 0.5843575199033E-01
 0.1442497109088E-01
 0.1180989724637E+01
 0.1116083516257E+01
 0.9860776301107E+00
 0.8129919779751E+00
 0.6285042364860E+00
 0.4550967707673E+00
 0.3067036688323E+00
 0.1894244289017E+00
 0.1051337898441E+00
 0.3448905797364E-01
 0.1094211504319E+01
 0.1043875569472E+01
 0.9624911486082E+00
 0.8411577297240E+00
 0.6954253520496E+00
 0.5418829016068E+00
 0.3948760919916E+00
 0.2657551456456E+00
 0.1673104716192E+00
 0.7817470812824E-01
 0.1019637643049E+01
 0.9863093388773E+00
 0.9452566745518E+00
 0.8697903759584E+00
 0.7617780784309E+00
 0.6307560541180E+00
 0.4895587375980E+00
 0.3509177735763E+00
 0.2393345480611E+00
 0.1460369728971E+00
 0.9551473129358E+00
 0.9435381604340E+00
 0.9403372916856E+00
 0.9086438224628E+00
 0.8385938267002E+00
 0.7319201032371E+00
 0.5988002366141E+00
 0.4541775442665E+00
 0.3188382370035E+00
 0.2203970620017E+00
 0.8151689557999E+00
 0.1550540885335E+01
 0.2069591364268E+01
 0.2467598099830E+01
 0.2792423848354E+01
 0.3073440157483E+01
 0.3326822727411E+01
 0.3567037180200E+01
 0.3780205667820E+01
 0.3895164823645E+01
 0.8917929500501E+00
 0.1606604590952E+01
 0.2095710542597E+01
 0.2472375730125E+01
 0.2787910560070E+01
 0.3071437919427E+01
 0.3336812711683E+01
 0.3608843562256E+01
 0.3880798040145E+01
 0.4028926498029E+01
 0.9638078390760E+00
 0.1640996865193E+01
 0.2083466351097E+01
 0.2420603252970E+01
 0.2710191663292E+01
 0.2983074853968E+01
 0.3255214968340E+01
 0.3565033670436E+01
 0.3906448827940E+01
 0.4096260872451E+01
 0.1035200264006E+01
 0.1652811504430E+01
 0.2027356790045E+01
 0.2305867994697E+01
 0.2552009054995E+01
 0.2798919397912E+01
 0.3065677621150E+01
 0.3406559452458E+01
 0.3828265537213E+01
 0.4083288975242E+01
 0.1107442562687E+01
 0.1641973658640E+01
 0.1923566229343E+01
 0.2123308540668E+01
 0.2308504993241E+01
 0.2512643178428E+01
 0.2758513165984E+01
 0.3119479172640E+01
 0.3628924111197E+01
 0.3970100848295E+01
 0.1181796689640E+01
 0.1606002705299E+01
 0.1766576963808E+01
 0.1869029886108E+01
 0.1979091627549E+01
 0.2125590248606E+01
 0.2335388772531E+01
 0.2701409521253E+01
 0.3296455320784E+01
 0.3735067124669E+01
 0.1258788458442E+01
 0.1536993171620E+01
 0.1545691792789E+01
 0.1540390554601E+01
 0.1570739776106E+01
 0.1651033657316E+01
 0.1811174350484E+01
 0.2162009316722E+01
 0.2826397483558E+01
 0.3356943249263E+01
 0.1335141608666E+01
 0.1413311127214E+01
 0.1240554417331E+01
 0.1138848404526E+01
 0.1106258358665E+01
 0.1118864587115E+01
 0.1216407369535E+01
 0.1524798226751E+01
 0.2223371028088E+01
 0.2816450145000E+01
 0.1395814782504E+01
 0.1174175548434E+01
 0.8128403656892E+00
 0.6970780698494E+00
 0.6321910352786E+00
 0.5774579678216E+00
 0.5987332098701E+00
 0.8312950428961E+00
 0.1502563854066E+01
 0.2096173771369E+01
 0.1292203214019E+01
 0.6197530688565E+00
 0.3438345276079E+00
 0.2874913053944E+00
 0.2036670718319E+00
 0.9514354387628E-01
 0.3826633492502E-01
 0.1370370222957E+00
 0.6952986699491E+00
 0.1184859491017E+01
 0.1049491255807E+00
 0.5268109313619E-01
 0.3021697998549E-01
 0.2452958164137E-01
 0.3356016409808E-01
 0.5675374809677E-01
 0.9194433765018E-01
 0.1374390899937E+00
 0.1921083394029E+00
 0.2572146321048E+00
 0.1184268349415E+00
 0.6891636322122E-01
 0.2866603124708E-01
 0.1403655008836E-01
 0.9365666555756E-02
 0.2772447992998E-01
 0.7160812225140E-01
 0.1320716963611E+00
 0.2063413335756E+00
 0.2928656856402E+00
 0.1224490718475E+00
 0.7147265429514E-01
 0.2900817476164E-01
 0.2245481836531E-01
 0.2115200315889E-01
 0.9090097977376E-02
 0.5470528886407E-01
 0.1245851113883E+00
 0.2115500092454E+00
 0.3124001290296E+00
 0.1339112928394E+00
 0.6923333026578E-01
 0.2868306014236E-01
 0.4016566130824E-01
 0.4517755731733E-01
 0.2207241107098E-01
 0.3316758792471E-01
 0.1121653412825E+00
 0.2114980058905E+00
 0.3240791062374E+00
 0.1575257639756E+00
 0.7192877203063E-01
 0.3594492393932E-01
 0.6818643787420E-01
 0.8246325361020E-01
 0.6186430746273E-01
 0.6966195220007E-02
 0.8757189607285E-01
 0.2043328123609E+00
 0.3353009710806E+00
 0.1972871468196E+00
 0.8552120642197E-01
 0.4632760802486E-01
 0.1005441908688E+00
 0.1311176905071E+00
 0.1196264576494E+00
 0.6126793442173E-01
 0.4298586085547E-01
 0.1834929018526E+00
 0.3459716398397E+00
 0.2588385369461E+00
 0.1173172460680E+00
 0.5069966118753E-01
 0.1275498071809E+00
 0.1838166119850E+00
 0.1918374446600E+00
 0.1414535174810E+00
 0.2892020191707E-01
 0.1406205474054E+00
 0.3491624502781E+00
 0.3494417263378E+00
 0.1775492055247E+00
 0.5392951187028E-01
 0.1366470038380E+00
 0.2280771041048E+00
 0.2691936056404E+00
 0.2419456042356E+00
 0.1321823650907E+00
 0.6534683389816E-01
 0.3357632143257E+00
 0.4776738041982E+00
 0.2790109317916E+00
 0.1003327236233E+00
 0.1117962773617E+00
 0.2423998058120E+00
 0.3304279169487E+00
 0.3468817429012E+00
 0.2641343125568E+00
 0.5433053784811E-01
 0.2925749405776E+00
 0.6526092529601E+00
 0.4361640199271E+00
 0.2246902912352E+00
 0.7052676926829E-01
 0.1936430704134E+00
 0.3338471383492E+00
 0.4120791524604E+00
 0.3883808815998E+00
 0.2089305907764E+00
 0.1990297421162E+00
 0.8823221827729E+00
 0.6636694921492E+00
 0.4414116084647E+00
 0.2247863552233E+00
 0.8315072901213E-01
 0.2102228250281E+00
 0.3391028918966E+00
 0.3810197419032E+00
 0.2665197210150E+00
 0.1366006608655E+00
 0.1169238468683E+01
 0.9685358016143E+00
 0.7608376116277E+00
 0.5498616067618E+00
 0.3450123829280E+00
 0.1693203251081E+00
 0.1055105424602E+00
 0.1489096721326E+00
 0.1148547931246E+00
 0.2186649407145E+00
 0.1505490173578E+01
 0.1341943094797E+01
 0.1172085051490E+01
 0.9973164369792E+00
 0.8223352447265E+00
 0.6562919603980E+00
 0.5139490029132E+00
 0.4161102273621E+00
 0.3880211227479E+00
 0.4515022536545E+00
 0.1873818054676E+01
 0.1759995630914E+01
 0.1641780470291E+01
 0.1517456208913E+01
 0.1387000096237E+01
 0.1252499294641E+01
 0.1117702111310E+01
 0.9860920821966E+00
 0.8546065718154E+00
 0.6961488257029E+00
 0.2253689167546E+01
 0.2194657845356E+01
 0.2131947531014E+01
 0.2058730486212E+01
 0.1968584821559E+01
 0.1854923362436E+01
 0.1709180529733E+01
 0.1517544594645E+01
 0.1255150550715E+01
 0.8834342543007E+00
 0.2625889833654E+01
 0.2621556898488E+01
 0.2611730098980E+01
 0.2582979441561E+01
 0.2522402375942E+01
 0.2415223647333E+01
 0.2242277584346E+01
 0.1977649677213E+01
 0.1587386625043E+01
 0.1036913016057E+01
 0.2974492123863E+01
 0.3022123177190E+01
 0.3058178065708E+01
 0.3063294492118E+01
 0.3020278859337E+01
 0.2908873113774E+01
 0.2702068292084E+01
 0.2366101491619E+01
 0.1863868159896E+01
 0.1165294232432E+01
 0.3287852159349E+01
 0.3382690225104E+01
 0.3451859752929E+01
 0.3474190773361E+01
 0.3435091794118E+01
 0.3311306108885E+01
 0.3070604456662E+01
 0.2673133129003E+01
 0.2076892426215E+01
 0.1255742970143E+01
 0.3562513108641E+01
 0.3693020426580E+01
 0.3764223999176E+01
 0.3779901385667E+01
 0.3727667932499E+01
 0.3583043175014E+01
 0.3312989561559E+01
 0.2876322655565E+01
 0.2223818728910E+01
 0.1316321095375E+01
 0.3802041677668E+01
 0.3911306458847E+01
 0.3956468404145E+01
 0.3946181877896E+01
 0.3864617626297E+01
 0.3692422129995E+01
 0.3404262792632E+01
 0.2966722056281E+01
 0.2335878233861E+01
 0.1433127704754E+01
</DataArray>
<CellData Tensors="'E_Centroid','S_Centroid'">
<DataArray type="Float64" Name="E_Centroid" NumberOfComponents="4" ComponentName0="E11" ComponentName1="E22" ComponentName2="E33" ComponentName3="E12" format="ascii">
 0.3455038168191E-02 -0.2652663315844E-01  0.0000000000000E+00 -0.8501201548355E-02
 0.5915830569205E-02 -0.2194676753397E-01  0.0000000000000E+00 -0.5760579996361E-03
 0.4906947989898E-02 -0.1999232774309E-01  0.0000000000000E+00 -0.6807413468489E-03
 0.4734446855034E-02 -0.1889171437961E-01  0.0000000000000E+00 -0.4482744673915E-03
 0.4501070280491E-02 -0.1803342778698E-01  0.0000000000000E+00 -0.3786531178811E-03
 0.4329009340831E-02 -0.1732373091404E-01  0.0000000000000E+00 -0.3288283883034E-03
 0.4174745087439E-02 -0.1670978325413E-01  0.0000000000000E+00 -0.2886266962462E-03
 0.4044658545376E-02 -0.1618813733337E-01  0.0000000000000E+00 -0.2411500317677E-03
 0.3942820357698E-02 -0.1578721690979E-01  0.0000000000000E+00 -0.1681338457481E-03
 0.3874944570213E-02 -0.1559419950917E-01  0.0000000000000E+00  0.3254330856062E-04
 0.3831243188024E-02 -0.1563519002506E-01  0.0000000000000E+00  0.6372959428583E-03
 0.3758940801814E-02 -0.1563342869514E-01  0.0000000000000E+00  0.1815284147780E-02
 0.3600291260615E-02 -0.1535532036488E-01  0.0000000000000E+00  0.3325207192973E-02
 0.3355900129885E-02 -0.1491728733459E-01  0.0000000000000E+00  0.4881818299897E-02
 0.3052555336826E-02 -0.1448782558993E-01  0.0000000000000E+00  0.6450884872667E-02
 0.2694494499976E-02 -0.1414090304391E-01  0.0000000000000E+00  0.8095137846051E-02
 0.2310370536835E-02 -0.1397084027884E-01  0.0000000000000E+00  0.9930912648086E-02
 0.1720663174587E-02 -0.1409569590631E-01  0.0000000000000E+00  0.1223971161752E-01
 0.1396771059245E-02 -0.1481273460444E-01  0.0000000000000E+00  0.1587203610926E-01
-0.3537355337007E-02 -0.1477629264447E-01  0.0000000000000E+00  0.2299368857206E-01
 0.1261397503053E-01 -0.1662867888930E-01  0.0000000000000E+00  0.2789084707738E-01
 0.2308221875732E-02 -0.2240036742257E-01  0.0000000000000E+00 -0.9190901187358E-02
 0.4883573542552E-02 -0.2156159920073E-01  0.0000000000000E+00 -0.4392064622385E-02
 0.4878094785174E-02 -0.1960090986362E-01  0.0000000000000E+00 -0.1882166961935E-02
 0.4553619672431E-02 -0.1844278378144E-01  0.0000000000000E+00 -0.1450334911945E-02
 0.4374902897533E-02 -0.1757557532945E-01  0.0000000000000E+00 -0.1147754328408E-02
 0.4198451843866E-02 -0.1686142840961E-01  0.0000000000000E+00 -0.9851878263510E-03
 0.4048030163597E-02 -0.1625384688994E-01  0.0000000000000E+00 -0.8491800046100E-03
 0.3915847348831E-02 -0.1574207102958E-01  0.0000000000000E+00 -0.6983887044694E-03
 0.3798440404768E-02 -0.1534277755675E-01  0.0000000000000E+00 -0.4688651100654E-03
 0.3669210985505E-02 -0.1507239609842E-01  0.0000000000000E+00 -0.5661245337221E-04
 0.3507489032763E-02 -0.1488325239974E-01  0.0000000000000E+00  0.6295724103462E-03
 0.3326138992804E-02 -0.1465373154909E-01  0.0000000000000E+00  0.1614656327310E-02
 0.3123748769423E-02 -0.1429535365236E-01  0.0000000000000E+00  0.2848869253837E-02
 0.2867137037373E-02 -0.1381870905535E-01  0.0000000000000E+00  0.4228583501821E-02
 0.2533090394813E-02 -0.1328072517061E-01  0.0000000000000E+00  0.5671242040062E-02
 0.2119640970167E-02 -0.1272281278830E-01  0.0000000000000E+00  0.7168204721806E-02
 0.1565656244176E-02 -0.1214312619022E-01  0.0000000000000E+00  0.8779968639391E-02
 0.8744309870681E-03 -0.1148959930515E-01  0.0000000000000E+00  0.1052105278536E-01
-0.7055860342793E-03 -0.1030095402012E-01  0.0000000000000E+00  0.1266397466745E-01
-0.1714004807583E-02 -0.7686971855213E-02  0.0000000000000E+00  0.9949103669548E-02
 0.1437809553567E-01 -0.9587112604875E-02  0.0000000000000E+00  0.6332867026852E-02
 0.1611950567708E-02 -0.1995645833461E-01  0.0000000000000E+00 -0.8781998265451E-02
 0.3909185308212E-02 -0.2013600946067E-01  0.0000000000000E+00 -0.6119631893702E-02
 0.4506123249833E-02 -0.1901437432228E-01  0.0000000000000E+00 -0.3404960749212E-02
 0.4361756870909E-02 -0.1789990116080E-01  0.0000000000000E+00 -0.2376541919723E-02
 0.4200899572840E-02 -0.1706394737516E-01  0.0000000000000E+00 -0.1921998549356E-02
 0.4046684972031E-02 -0.1636380617013E-01  0.0000000000000E+00 -0.1627288638711E-02
 0.3898364530545E-02 -0.1576566885341E-01  0.0000000000000E+00 -0.1395806448935E-02
 0.3758684726661E-02 -0.1525617747299E-01  0.0000000000000E+00 -0.1142256580604E-02
 0.3612297198098E-02 -0.1483316516115E-01  0.0000000000000E+00 -0.7900331187586E-03
 0.3427144831293E-02 -0.1447616527894E-01  0.0000000000000E+00 -0.2727072411624E-03
 0.3193111460670E-02 -0.1413464626252E-01  0.0000000000000E+00  0.4193724730893E-03
 0.2944980179440E-02 -0.1375679500436E-01  0.0000000000000E+00  0.1280703521154E-02
 0.2698207015062E-02 -0.1330595231774E-01  0.0000000000000E+00  0.2323509168215E-02
 0.2416323804540E-02 -0.1275957995174E-01  0.0000000000000E+00  0.3510975358849E-02
 0.2061778696881E-02 -0.1211604645216E-01  0.0000000000000E+00  0.4755979796046E-02
 0.1608519736882E-02 -0.1137154714521E-01  0.0000000000000E+00  0.5993597690659E-02
 0.1030558039253E-02 -0.1047478830724E-01  0.0000000000000E+00  0.7136139970111E-02
 0.2366652113339E-03 -0.9270940944416E-02  0.0000000000000E+00  0.8017141308253E-02
-0.7361273615060E-03 -0.7340421343490E-02  0.0000000000000E+00  0.7342728662236E-02
 0.1454287123404E-02 -0.5676397769068E-02  0.0000000000000E+00  0.2001967518469E-02
 0.1415800139841E-01 -0.7713874414836E-02  0.0000000000000E+00  0.9860781631862E-03
 0.1183010986913E-02 -0.1821241041968E-01  0.0000000000000E+00 -0.8249865075458E-02
 0.3139967378314E-02 -0.1869490666513E-01  0.0000000000000E+00 -0.6855928013779E-02
 0.4014634452622E-02 -0.1816068340284E-01  0.0000000000000E+00 -0.4589833304240E-02
 0.4098456446646E-02 -0.1727795137949E-01  0.0000000000000E+00 -0.3290775018386E-02
 0.3999142023471E-02 -0.1649831134237E-01  0.0000000000000E+00 -0.2654380443143E-02
 0.3869292876852E-02 -0.1583015495895E-01  0.0000000000000E+00 -0.2252855655378E-02
 0.3727297817561E-02 -0.1524525063325E-01  0.0000000000000E+00 -0.1928873913049E-02
 0.3576252151884E-02 -0.1473248226376E-01  0.0000000000000E+00 -0.1587196201997E-02
 0.3399611138446E-02 -0.1427650104500E-01  0.0000000000000E+00 -0.1152058284171E-02
 0.3170654583283E-02 -0.1384468080920E-01  0.0000000000000E+00 -0.5899749116231E-03
 0.2890656126998E-02 -0.1339730334741E-01  0.0000000000000E+00  0.7812694498111E-04
 0.2599547768376E-02 -0.1291413262301E-01  0.0000000000000E+00  0.8427888692034E-03
 0.2317244112589E-02 -0.1237852880737E-01  0.0000000000000E+00  0.1730717514599E-02
 0.2014220018034E-02 -0.1175767861602E-01  0.0000000000000E+00  0.2722633867867E-02
 0.1651873207822E-02 -0.1102133423223E-01  0.0000000000000E+00  0.3728511053414E-02
 0.1209539318680E-02 -0.1013806365496E-01  0.0000000000000E+00  0.4624348439205E-02
 0.6805496967272E-03 -0.9043373727502E-02  0.0000000000000E+00  0.5223408263497E-02
 0.1105722287807E-03 -0.7601661459975E-02  0.0000000000000E+00  0.5043743674679E-02
 0.2043425253636E-03 -0.5876731296637E-02  0.0000000000000E+00  0.2754573328423E-02
 0.3790241865651E-02 -0.5247442949489E-02  0.0000000000000E+00 -0.1967430686770E-02
 0.1336908625346E-01 -0.6879669352523E-02  0.0000000000000E+00 -0.9613537869538E-03
 0.9043982940502E-03 -0.1683611960441E-01  0.0000000000000E+00 -0.7759790916748E-02
 0.2551667691375E-02 -0.1738801836474E-01  0.0000000000000E+00 -0.7128146356134E-02
 0.3519326219967E-02 -0.1720359422923E-01  0.0000000000000E+00 -0.5410020846838E-02
 0.3784461725279E-02 -0.1657064681538E-01  0.0000000000000E+00 -0.4101502888844E-02
 0.3769367308501E-02 -0.1588759365062E-01  0.0000000000000E+00 -0.3342370293374E-02
 0.3670694706812E-02 -0.1526189659225E-01  0.0000000000000E+00 -0.2850827297306E-02
 0.3536609638953E-02 -0.1469484961816E-01  0.0000000000000E+00 -0.2450640599633E-02
 0.3374557633284E-02 -0.1417716728424E-01  0.0000000000000E+00 -0.2040832841032E-02
 0.3171697055480E-02 -0.1368919599811E-01  0.0000000000000E+00 -0.1556482871224E-02
 0.2910819757069E-02 -0.1319808363770E-01  0.0000000000000E+00 -0.9843996375421E-03
 0.2601606420009E-02 -0.1267524398193E-01  0.0000000000000E+00 -0.3547333391475E-03
 0.2283467156917E-02 -0.1211494048758E-01  0.0000000000000E+00  0.3234355498050E-03
 0.1977857189720E-02 -0.1150895860394E-01  0.0000000000000E+00  0.1072671102462E-02
 0.1664926988437E-02 -0.1082324737794E-01  0.0000000000000E+00  0.1870817837060E-02
 0.1316511059297E-02 -0.1001728810662E-01  0.0000000000000E+00  0.2617374959340E-02
 0.9277880813575E-03 -0.9053063315993E-02  0.0000000000000E+00  0.3149121509189E-02
 0.5393100735348E-03 -0.7881729167810E-02  0.0000000000000E+00  0.3195358815617E-02
 0.3762662598428E-03 -0.6491496582805E-02  0.0000000000000E+00  0.2197241424057E-02
 0.1337716891875E-02 -0.5245566118894E-02  0.0000000000000E+00 -0.5705047960050E-03
 0.5281003869406E-02 -0.5215617958060E-02  0.0000000000000E+00 -0.3971696189879E-02
 0.1257975672909E-01 -0.6427730721905E-02  0.0000000000000E+00 -0.2012033448586E-02
 0.7138821058701E-03 -0.1568052269936E-01  0.0000000000000E+00 -0.7336758821240E-02
 0.2100783680519E-02 -0.1621880980671E-01  0.0000000000000E+00 -0.7179031950683E-02
 0.3065425757753E-02 -0.1623274309216E-01  0.0000000000000E+00 -0.5952197816196E-02
 0.3450331741904E-02 -0.1580776358562E-01  0.0000000000000E+00 -0.4773408334007E-02
 0.3517595993226E-02 -0.1523734111579E-01  0.0000000000000E+00 -0.3971017096643E-02
 0.3454823730118E-02 -0.1466395047544E-01  0.0000000000000E+00 -0.3417063342884E-02
 0.3330266278675E-02 -0.1411840143333E-01  0.0000000000000E+00 -0.2960696927240E-02
 0.3159561458302E-02 -0.1359775130573E-01  0.0000000000000E+00 -0.2505008726999E-02
 0.2936527199373E-02 -0.1308357686108E-01  0.0000000000000E+00 -0.1997456666849E-02
 0.2653849202756E-02 -0.1254801366876E-01  0.0000000000000E+00 -0.1436623693557E-02
 0.2327188782227E-02 -0.1197150089558E-01  0.0000000000000E+00 -0.8537280715051E-03
 0.1994283131841E-02 -0.1135533900155E-01  0.0000000000000E+00 -0.2585457557092E-03
 0.1678155320892E-02 -0.1069577042499E-01  0.0000000000000E+00  0.3607179705625E-03
 0.1370186562970E-02 -0.9962179621212E-02  0.0000000000000E+00  0.9708698289333E-03
 0.1058169814060E-02 -0.9115942499421E-02  0.0000000000000E+00  0.1460736547239E-02
 0.7612114978878E-03 -0.8127313507002E-02  0.0000000000000E+00  0.1643920039243E-02
 0.5782204661751E-03 -0.6987920483664E-02  0.0000000000000E+00  0.1223610611686E-02
 0.8397815350586E-03 -0.5801807257559E-02  0.0000000000000E+00 -0.2350454358415E-03
 0.2359176232560E-02 -0.5004292681087E-02  0.0000000000000E+00 -0.2865443358213E-02
 0.6190795808815E-02 -0.5259092120727E-02  0.0000000000000E+00 -0.5066179298721E-02
 0.1189727877247E-01 -0.6152799889320E-02  0.0000000000000E+00 -0.2786084507395E-02
 0.5777336216160E-03 -0.1466943305859E-01  0.0000000000000E+00 -0.6976687671822E-02
 0.1751007504401E-02 -0.1516541755850E-01  0.0000000000000E+00 -0.7124416396841E-02
 0.2665877807099E-02 -0.1528733083487E-01  0.0000000000000E+00 -0.6300916608964E-02
 0.3118431839960E-02 -0.1501915945876E-01  0.0000000000000E+00 -0.5310489298872E-02
 0.3253410098257E-02 -0.1455758622126E-01  0.0000000000000E+00 -0.4530547279259E-02
 0.3226391561963E-02 -0.1404182726964E-01  0.0000000000000E+00 -0.3948100119133E-02
 0.3112810226527E-02 -0.1352121768644E-01  0.0000000000000E+00 -0.3457839898947E-02
 0.2936649056512E-02 -0.1300143265078E-01  0.0000000000000E+00 -0.2977568443415E-02
 0.2699690998611E-02 -0.1246871508951E-01  0.0000000000000E+00 -0.2466819227549E-02
 0.2403572983589E-02 -0.1190191661587E-01  0.0000000000000E+00 -0.1931030052321E-02
 0.2068448020099E-02 -0.1128865499907E-01  0.0000000000000E+00 -0.1400201814530E-02
 0.1730916799312E-02 -0.1063422555058E-01  0.0000000000000E+00 -0.8863856634964E-03
 0.1416566422228E-02 -0.9938387338915E-02  0.0000000000000E+00 -0.3900724689482E-03
 0.1128684108447E-02 -0.9177018658821E-02  0.0000000000000E+00  0.4344720000979E-04
 0.8732145143212E-03 -0.8320666545595E-02  0.0000000000000E+00  0.2960885909498E-03
 0.6961340010009E-03 -0.7357568573359E-02  0.0000000000000E+00  0.1777780535344E-03
 0.7413714565158E-03 -0.6323769623676E-02  0.0000000000000E+00 -0.5742224156511E-03
 0.1362785644757E-02 -0.5386799014226E-02  0.0000000000000E+00 -0.2201034817217E-02
 0.3187991587447E-02 -0.4930380119962E-02  0.0000000000000E+00 -0.4445387257420E-02
 0.6731473313686E-02 -0.5298820177806E-02  0.0000000000000E+00 -0.5738886263001E-02
 0.1132346664925E-01 -0.5970996401927E-02  0.0000000000000E+00 -0.3445258702571E-02
 0.4768342761125E-03 -0.1375908365005E-01  0.0000000000000E+00 -0.6670125096358E-02
 0.1475648427767E-02 -0.1420516712098E-01  0.0000000000000E+00 -0.7021619332832E-02
 0.2320322641875E-02 -0.1438187560532E-01  0.0000000000000E+00 -0.6519444714203E-02
 0.2802061766429E-02 -0.1422602896435E-01  0.0000000000000E+00 -0.5732170366682E-02
 0.2986167221938E-02 -0.1385971736903E-01  0.0000000000000E+00 -0.5019631419367E-02
 0.2990757555260E-02 -0.1340182512582E-01  0.0000000000000E+00 -0.4441517166837E-02
 0.2888783638569E-02 -0.1290894645516E-01  0.0000000000000E+00 -0.3940099085515E-02
 0.2710413583483E-02 -0.1239464330354E-01  0.0000000000000E+00 -0.3454437929535E-02
 0.2465211388784E-02 -0.1185137583096E-01  0.0000000000000E+00 -0.2956010448753E-02
 0.2162513108555E-02 -0.1126493787211E-01  0.0000000000000E+00 -0.2454681143176E-02
 0.1826146970603E-02 -0.1062886377545E-01  0.0000000000000E+00 -0.1979172409420E-02
 0.1492601683080E-02 -0.9951414034287E-02  0.0000000000000E+00 -0.1544794753208E-02
 0.1191074111137E-02 -0.9236093810011E-02  0.0000000000000E+00 -0.1163302238648E-02
 0.9367054291370E-03 -0.8467194386322E-02  0.0000000000000E+00 -0.8896392749133E-03
 0.7534224356424E-03 -0.7628318031948E-02  0.0000000000000E+00 -0.8425453381684E-03
 0.7105897307017E-03 -0.6728884512363E-02  0.0000000000000E+00 -0.1196350628422E-02
 0.9744207839473E-03 -0.5838263107907E-02  0.0000000000000E+00 -0.2144733155232E-02
 0.1868119193842E-02 -0.5139413991051E-02  0.0000000000000E+00 -0.3749455333514E-02
 0.3828016305091E-02 -0.4922026092474E-02  0.0000000000000E+00 -0.5552767318787E-02
 0.7041003409443E-02 -0.5321410714771E-02  0.0000000000000E+00 -0.6208909247061E-02
 0.1083644336719E-01 -0.5843513309769E-02  0.0000000000000E+00 -0.4031413004508E-02
 0.3998333620271E-03 -0.1292235955671E-01  0.0000000000000E+00 -0.6407822216156E-02
 0.1255715963977E-02 -0.1331929487383E-01  0.0000000000000E+00 -0.6899714853171E-02
 0.2023572523142E-02 -0.1351964054731E-01  0.0000000000000E+00 -0.6651647876700E-02
 0.2508017791086E-02 -0.1344153733995E-01  0.0000000000000E+00 -0.6060898956654E-02
 0.2723381356200E-02 -0.1315391416828E-01  0.0000000000000E+00 -0.5442762795964E-02
 0.2753213698556E-02 -0.1275048735154E-01  0.0000000000000E+00 -0.4896517457806E-02
 0.2662456752950E-02 -0.1228709532153E-01  0.0000000000000E+00 -0.4405130703180E-02
 0.2484669720107E-02 -0.1178292275884E-01  0.0000000000000E+00 -0.3930813634042E-02
 0.2236052358443E-02 -0.1123671786756E-01  0.0000000000000E+00 -0.3456840632293E-02
 0.1932371598734E-02 -0.1064079873565E-01  0.0000000000000E+00 -0.2996542658128E-02
 0.1600693199470E-02 -0.9993799656440E-02  0.0000000000000E+00 -0.2577922029278E-02
 0.1278378981618E-02 -0.9306767027657E-02  0.0000000000000E+00 -0.2219778231603E-02
 0.9989630687388E-03 -0.8587467728812E-02  0.0000000000000E+00 -0.1942890453442E-02
 0.7887551604953E-03 -0.7829574979987E-02  0.0000000000000E+00 -0.1807906336064E-02
 0.6875011115050E-03 -0.7030927167700E-02  0.0000000000000E+00 -0.1927244998507E-02
 0.7805977575966E-03 -0.6219916751798E-02  0.0000000000000E+00 -0.2445662997950E-02
 0.1235674911273E-02 -0.5483778679021E-02  0.0000000000000E+00 -0.3478903873491E-02
 0.2319901577437E-02 -0.4990517919613E-02  0.0000000000000E+00 -0.4955320227778E-02
 0.4308893131106E-02 -0.4936178924555E-02  0.0000000000000E+00 -0.6349808545141E-02
 0.7204115389752E-02 -0.5328834697706E-02  0.0000000000000E+00 -0.6574016315423E-02
 0.1041459334511E-01 -0.5750650320730E-02  0.0000000000000E+00 -0.4556070055704E-02
 0.3396962030248E-03 -0.1214143975711E-01  0.0000000000000E+00 -0.6181905207707E-02
 0.1077749926107E-02 -0.1249312942892E-01  0.0000000000000E+00 -0.6773564934301E-02
 0.1769227376570E-02 -0.1269902352253E-01  0.0000000000000E+00 -0.6727091160319E-02
 0.2239035139727E-02 -0.1267313588623E-01  0.0000000000000E+00 -0.6317078029159E-02
 0.2470442503529E-02 -0.1244821610047E-01  0.0000000000000E+00 -0.5807214645578E-02
 0.2518430729531E-02 -0.1209393397174E-01  0.0000000000000E+00 -0.5313756696529E-02
 0.2437637826240E-02 -0.1166075313204E-01  0.0000000000000E+00 -0.4850646481016E-02
 0.2262540316173E-02 -0.1117095009793E-01  0.0000000000000E+00 -0.4401806866598E-02
 0.2014420500723E-02 -0.1062873509931E-01  0.0000000000000E+00 -0.3961764640282E-02
 0.1714269313872E-02 -0.1003223189997E-01  0.0000000000000E+00 -0.3547010728061E-02
 0.1392108176241E-02 -0.9384609821718E-02  0.0000000000000E+00 -0.3185352733984E-02
 0.1086906304248E-02 -0.8699795190196E-02  0.0000000000000E+00 -0.2898688048852E-02
 0.8368456312927E-03 -0.7990219347912E-02  0.0000000000000E+00 -0.2714116179213E-02
 0.6781535829500E-03 -0.7259071605214E-02  0.0000000000000E+00 -0.2693720274909E-02
 0.6629487930560E-03 -0.6517543815757E-02  0.0000000000000E+00 -0.2937723005393E-02
 0.8844026934240E-03 -0.5807967696503E-02  0.0000000000000E+00 -0.3555027017991E-02
 0.1497127733596E-02 -0.5221953428307E-02  0.0000000000000E+00 -0.4591023221274E-02
 0.2705428279036E-02 -0.4898340920931E-02  0.0000000000000E+00 -0.5890555003436E-02
 0.4664369875721E-02 -0.4955090809892E-02  0.0000000000000E+00 -0.6935643422453E-02
 0.7272208924109E-02 -0.5331357704528E-02  0.0000000000000E+00 -0.6884954670990E-02
 0.1004415306917E-01 -0.5672432775728E-02  0.0000000000000E+00 -0.5018808696315E-02
 0.2918574656591E-03 -0.1140412779125E-01  0.0000000000000E+00 -0.5986174497298E-02
 0.9321538475467E-03 -0.1171586454326E-01  0.0000000000000E+00 -0.6650828336166E-02
 0.1551277949430E-02 -0.1191739173475E-01  0.0000000000000E+00 -0.6765640828440E-02
 0.1995807847348E-02 -0.1192575913881E-01  0.0000000000000E+00 -0.6517433792281E-02
 0.2231333482892E-02 -0.1174995877464E-01  0.0000000000000E+00 -0.6120541528592E-02
 0.2290765272905E-02 -0.1143914279465E-01  0.0000000000000E+00 -0.5694099703798E-02
 0.2218228093648E-02 -0.1103633909815E-01  0.0000000000000E+00 -0.5273586973347E-02
 0.2047313232229E-02 -0.1056477745555E-01  0.0000000000000E+00 -0.4861374095240E-02
 0.1802806276354E-02 -0.1003291527800E-01  0.0000000000000E+00 -0.4462149694410E-02
 0.1509788315432E-02 -0.9443814936497E-02  0.0000000000000E+00 -0.4095366033898E-02
 0.1200952584672E-02 -0.8804699303154E-02  0.0000000000000E+00 -0.3788892053680E-02
 0.9172795786551E-03 -0.8132439563198E-02  0.0000000000000E+00 -0.3566906501870E-02
 0.7014735570716E-03 -0.7444224933071E-02  0.0000000000000E+00 -0.3460084831287E-02
 0.5979648953017E-03 -0.6752135284902E-02  0.0000000000000E+00 -0.3528154067741E-02
 0.6672674388191E-03 -0.6078486675731E-02  0.0000000000000E+00 -0.3855556786830E-02
 0.1003240220028E-02 -0.5473883398188E-02  0.0000000000000E+00 -0.4515661843588E-02
 0.1739430359654E-02 -0.5025065219917E-02  0.0000000000000E+00 -0.5499266244054E-02
 0.3022308026362E-02 -0.4838282295931E-02  0.0000000000000E+00 -0.6608166781000E-02
 0.4918986829447E-02 -0.4972722630980E-02  0.0000000000000E+00 -0.7372059974756E-02
 0.7287776435203E-02 -0.5333996999146E-02  0.0000000000000E+00 -0.7143577575554E-02
 0.9692759968267E-02 -0.5622545120226E-02  0.0000000000000E+00 -0.5477541346819E-02
 0.2533411579368E-03 -0.1070153258175E-01  0.0000000000000E+00 -0.5814770821187E-02
 0.8120548978761E-03 -0.1097867678215E-01  0.0000000000000E+00 -0.6534634177765E-02
 0.1364322105064E-02 -0.1117064416418E-01  0.0000000000000E+00 -0.6779960655693E-02
 0.1777416416090E-02 -0.1120079972443E-01  0.0000000000000E+00 -0.6674843153581E-02
 0.2008075303865E-02 -0.1106312666506E-01  0.0000000000000E+00 -0.6390055187093E-02
 0.2073009213525E-02 -0.1079035513818E-01  0.0000000000000E+00 -0.6039460591703E-02
 0.2006746547970E-02 -0.1041762137161E-01  0.0000000000000E+00 -0.5672176784601E-02
 0.1840857945350E-02 -0.9967546635238E-02  0.0000000000000E+00 -0.5305139596026E-02
 0.1602245811644E-02 -0.9451567213722E-02  0.0000000000000E+00 -0.4951721734086E-02
 0.1319064374934E-02 -0.8876776846621E-02  0.0000000000000E+00 -0.4634023875551E-02
 0.1026359438539E-02 -0.8253980627156E-02  0.0000000000000E+00 -0.4379928926370E-02
 0.7672403116677E-03 -0.7602941313719E-02  0.0000000000000E+00 -0.4214872339586E-02
 0.5884952227494E-03 -0.6945412851333E-02  0.0000000000000E+00 -0.4170669096857E-02
 0.5408903827155E-03 -0.6301280061274E-02  0.0000000000000E+00 -0.4301862955458E-02
 0.6896709297574E-03 -0.5701303267483E-02  0.0000000000000E+00 -0.4675862607675E-02
 0.1124233288383E-02 -0.5199501795435E-02  0.0000000000000E+00 -0.5334910585620E-02
 0.1954310322735E-02 -0.4872603368868E-02  0.0000000000000E+00 -0.6232051388848E-02
 0.3276546517669E-02 -0.4796313863233E-02  0.0000000000000E+00 -0.7155107041895E-02
 0.5100572313576E-02 -0.4988641535847E-02  0.0000000000000E+00 -0.7695658925987E-02
 0.7258951410167E-02 -0.5339591885765E-02  0.0000000000000E+00 -0.7360678743345E-02
 0.9426172350213E-02 -0.5611297645905E-02  0.0000000000000E+00 -0.5870404706923E-02
 0.2220445445685E-03 -0.1002690394652E-01  0.0000000000000E+00 -0.5663573174085E-02
 0.7122319635124E-03 -0.1027410006802E-01  0.0000000000000E+00 -0.6426346055522E-02
 0.1203468159942E-02 -0.1045381568109E-01  0.0000000000000E+00 -0.6778723342510E-02
 0.1581901761286E-02 -0.1049699750743E-01  0.0000000000000E+00 -0.6799595564648E-02
 0.1801126542479E-02 -0.1038867682244E-01  0.0000000000000E+00 -0.6622898158165E-02
 0.1866527796940E-02 -0.1014899112227E-01  0.0000000000000E+00 -0.6352962000228E-02
 0.1804449794118E-02 -0.9805601752480E-02  0.0000000000000E+00 -0.6046459674724E-02
 0.1643846246810E-02 -0.9379491139162E-02  0.0000000000000E+00 -0.5731093786018E-02
 0.1412622880946E-02 -0.8883924463467E-02  0.0000000000000E+00 -0.5427235477513E-02
 0.1141121465233E-02 -0.8329147113184E-02  0.0000000000000E+00 -0.5159127289619E-02
 0.8663759529304E-03 -0.7729056342430E-02  0.0000000000000E+00 -0.4954364158304E-02
 0.6335291858297E-03 -0.7106118891360E-02  0.0000000000000E+00 -0.4838555612033E-02
 0.4928527401890E-03 -0.6486253350463E-02  0.0000000000000E+00 -0.4842641082881E-02
 0.4996973391594E-03 -0.5895891971802E-02  0.0000000000000E+00 -0.5014159608109E-02
 0.7210753081486E-03 -0.5371726857230E-02  0.0000000000000E+00 -0.5403982451948E-02
 0.1238821691757E-02 -0.4967694574576E-02  0.0000000000000E+00 -0.6029356166227E-02
 0.2138883345689E-02 -0.4748362180574E-02  0.0000000000000E+00 -0.6820325717259E-02
 0.3477911287093E-02 -0.4763293262442E-02  0.0000000000000E+00 -0.7569670326031E-02
 0.5224952644283E-02 -0.5001971885835E-02  0.0000000000000E+00 -0.7932215937171E-02
 0.7212939624737E-02 -0.5351928266740E-02  0.0000000000000E+00 -0.7538684558639E-02
 0.9162718271854E-02 -0.5619806269466E-02  0.0000000000000E+00 -0.6182685733341E-02
 0.1964849524306E-03 -0.9375083756418E-02  0.0000000000000E+00 -0.5528944684672E-02
 0.6288747410359E-03 -0.9596604758192E-02  0.0000000000000E+00 -0.6326076964179E-02
 0.1064867003325E-02 -0.9763156284153E-02  0.0000000000000E+00 -0.6767348295646E-02
 0.1407449434862E-02 -0.9813550147857E-02  0.0000000000000E+00 -0.6898856932606E-02
 0.1610709345536E-02 -0.9727996758748E-02  0.0000000000000E+00 -0.6824175252952E-02
 0.1672566141429E-02 -0.9517327475771E-02  0.0000000000000E+00 -0.6636361291772E-02
 0.1612731044652E-02 -0.9202584818219E-02  0.0000000000000E+00 -0.6395243744535E-02
 0.1457330783500E-02 -0.8802519309364E-02  0.0000000000000E+00 -0.6135911581484E-02
 0.1234420436915E-02 -0.8331260835952E-02  0.0000000000000E+00 -0.5883973036633E-02
 0.9757538857392E-03 -0.7801376429135E-02  0.0000000000000E+00 -0.5665107190131E-02
 0.7199350472983E-03 -0.7229321542163E-02  0.0000000000000E+00 -0.5506110652192E-02
 0.5138761989920E-03 -0.6639938059221E-02  0.0000000000000E+00 -0.5431694196218E-02
 0.4106355578344E-03 -0.6062742695645E-02  0.0000000000000E+00 -0.5470338480154E-02
 0.4685909867065E-03 -0.5529406823959E-02  0.0000000000000E+00 -0.5661658255263E-02
 0.7543454592409E-03 -0.5080412032217E-02  0.0000000000000E+00 -0.6041721971965E-02
 0.1340635765153E-02 -0.4767362303946E-02  0.0000000000000E+00 -0.6609420769012E-02
 0.2291708691667E-02 -0.4642506749913E-02  0.0000000000000E+00 -0.7283973111063E-02
 0.3632520918707E-02 -0.4734188641394E-02  0.0000000000000E+00 -0.7874240133609E-02
 0.5306448605905E-02 -0.5012953915483E-02  0.0000000000000E+00 -0.8095927050680E-02
 0.7149803809489E-02 -0.5369897127397E-02  0.0000000000000E+00 -0.7667494603141E-02
 0.8919089486997E-02 -0.5638543958618E-02  0.0000000000000E+00 -0.6443241538743E-02
 0.1755767900560E-03 -0.8741933156727E-02  0.0000000000000E+00 -0.5407808832642E-02
 0.5590691343150E-03 -0.8941641748976E-02  0.0000000000000E+00 -0.6233266099841E-02
 0.9452894224529E-03 -0.9095214395531E-02  0.0000000000000E+00 -0.6749189873414E-02
 0.1252148644181E-02 -0.9149144286466E-02  0.0000000000000E+00 -0.6977705702411E-02
 0.1436504592058E-02 -0.9081622233652E-02  0.0000000000000E+00 -0.6997792620995E-02
 0.1491768003442E-02 -0.8896843559746E-02  0.0000000000000E+00 -0.6891029646183E-02
 0.1432490578082E-02 -0.8610233698910E-02  0.0000000000000E+00 -0.6717412389050E-02
 0.1282002959168E-02 -0.8238025446434E-02  0.0000000000000E+00 -0.6516605422944E-02
 0.1067874130684E-02 -0.7794437856634E-02  0.0000000000000E+00 -0.6317752398652E-02
 0.8225948654712E-03 -0.7293594020355E-02  0.0000000000000E+00 -0.6147129339818E-02
 0.5858850498227E-03 -0.6753936981757E-02  0.0000000000000E+00 -0.6030089020646E-02
 0.4060555363179E-03 -0.6202245932019E-02  0.0000000000000E+00 -0.5989437355393E-02
 0.3382454241865E-03 -0.5670979309617E-02  0.0000000000000E+00 -0.6050019470215E-02
 0.4425966274793E-03 -0.5195828352807E-02  0.0000000000000E+00 -0.6243313786234E-02
 0.7838896316243E-03 -0.4819421070283E-02  0.0000000000000E+00 -0.6592973819891E-02
 0.1425491595385E-02 -0.4589849515789E-02  0.0000000000000E+00 -0.7085845735058E-02
 0.2412795447244E-02 -0.4548050525026E-02  0.0000000000000E+00 -0.7639538205697E-02
 0.3746595069439E-02 -0.4705780550557E-02  0.0000000000000E+00 -0.8085624331073E-02
 0.5353569585003E-02 -0.5021521077361E-02  0.0000000000000E+00 -0.8193657293663E-02
 0.7075390536101E-02 -0.5390701108387E-02  0.0000000000000E+00 -0.7749484615432E-02
 0.8696915520021E-02 -0.5667959195291E-02  0.0000000000000E+00 -0.6652157586454E-02
 0.1584992517462E-03 -0.8124014388805E-02  0.0000000000000E+00 -0.5297537074480E-02
 0.5005310233178E-03 -0.8305372374550E-02  0.0000000000000E+00 -0.6146988786302E-02
 0.8420001981775E-03 -0.8446814654613E-02  0.0000000000000E+00 -0.6726183670462E-02
 0.1114085601297E-02 -0.8502151684627E-02  0.0000000000000E+00 -0.7039594352169E-02
 0.1277812300034E-02 -0.8449443424818E-02  0.0000000000000E+00 -0.7146561866392E-02
 0.1324292138742E-02 -0.8288343208073E-02  0.0000000000000E+00 -0.7117882141122E-02
 0.1264205987777E-02 -0.8029637070235E-02  0.0000000000000E+00 -0.7011837778947E-02
 0.1118244681285E-02 -0.7686946707488E-02  0.0000000000000E+00 -0.6870453363457E-02
 0.9130209742208E-03 -0.7273966532093E-02  0.0000000000000E+00 -0.6724857163714E-02
 0.6811730401379E-03 -0.6805677299731E-02  0.0000000000000E+00 -0.6601022278014E-02
 0.4630665515646E-03 -0.6301916936706E-02  0.0000000000000E+00 -0.6522142844568E-02
 0.3079861317120E-03 -0.5790892729214E-02  0.0000000000000E+00 -0.6508205950121E-02
 0.2725020036935E-03 -0.5307324450670E-02  0.0000000000000E+00 -0.6579581326287E-02
 0.4175833079919E-03 -0.4889874671556E-02  0.0000000000000E+00 -0.6759867999807E-02
 0.8054639873470E-03 -0.4582185128888E-02  0.0000000000000E+00 -0.7062897023669E-02
 0.1490715605345E-02 -0.4428479831967E-02  0.0000000000000E+00 -0.7468933484721E-02
 0.2503081625527E-02 -0.4459976707542E-02  0.0000000000000E+00 -0.7900784426423E-02
 0.3825238244979E-02 -0.4675913611276E-02  0.0000000000000E+00 -0.8215859072847E-02
 0.5373083145424E-02 -0.5027027239920E-02  0.0000000000000E+00 -0.8231031793070E-02
 0.6994280668327E-02 -0.5413360743505E-02  0.0000000000000E+00 -0.7784870747315E-02
 0.8496534314340E-02 -0.5706357240624E-02  0.0000000000000E+00 -0.6808938130449E-02
 0.1446093302771E-03 -0.7518373802491E-02  0.0000000000000E+00 -0.5195865083059E-02
 0.4514174886874E-03 -0.7684464335508E-02  0.0000000000000E+00 -0.6066138246732E-02
 0.7526431125843E-03 -0.7815008385636E-02  0.0000000000000E+00 -0.6699285959786E-02
 0.9913817211573E-03 -0.7870740401892E-02  0.0000000000000E+00 -0.7086719009636E-02
 0.1133662300794E-02 -0.7830856942759E-02  0.0000000000000E+00 -0.7272336643920E-02
 0.1169911657191E-02 -0.7692066604210E-02  0.0000000000000E+00 -0.7317357252173E-02
 0.1108000838732E-02 -0.7461380645179E-02  0.0000000000000E+00 -0.7277312314890E-02
 0.9661786110498E-03 -0.7149819214159E-02  0.0000000000000E+00 -0.7194924874351E-02
 0.7697448514005E-03 -0.6770063352358E-02  0.0000000000000E+00 -0.7101960171165E-02
 0.5509651921551E-03 -0.6337316213964E-02  0.0000000000000E+00 -0.7023194011821E-02
 0.3503810428375E-03 -0.5872211193471E-02  0.0000000000000E+00 -0.6978930583505E-02
 0.2178125337963E-03 -0.5403837608360E-02  0.0000000000000E+00 -0.6985519392293E-02
 0.2107045228110E-03 -0.4968519323167E-02  0.0000000000000E+00 -0.7058259614809E-02
 0.3902367270307E-03 -0.4607044669012E-02  0.0000000000000E+00 -0.7213375412254E-02
 0.8159306119939E-03 -0.4363392857966E-02  0.0000000000000E+00 -0.7457333114557E-02
 0.1534705476180E-02 -0.4278145774615E-02  0.0000000000000E+00 -0.7768288821754E-02
 0.2563839832081E-02 -0.4374656116279E-02  0.0000000000000E+00 -0.8079026277176E-02
 0.3872681364700E-02 -0.4642967023245E-02  0.0000000000000E+00 -0.8274069571591E-02
 0.5370238650486E-02 -0.5028935445441E-02  0.0000000000000E+00 -0.8211968484495E-02
 0.6909953647844E-02 -0.5437012379151E-02  0.0000000000000E+00 -0.7773211780745E-02
 0.8317553755250E-02 -0.5751944170163E-02  0.0000000000000E+00 -0.6912443403906E-02
 0.1333829506252E-03 -0.6922388309985E-02  0.0000000000000E+00 -0.5100833568106E-02
 0.4101908861838E-03 -0.7075937326403E-02  0.0000000000000E+00 -0.5989535542018E-02
 0.6751417540834E-03 -0.7197015174856E-02  0.0000000000000E+00 -0.6668774562963E-02
 0.8822007305995E-03 -0.7252934591480E-02  0.0000000000000E+00 -0.7120307293211E-02
 0.1002888241214E-02 -0.7224875126653E-02  0.0000000000000E+00 -0.7376150367020E-02
 0.1028094575424E-02 -0.7107786282206E-02  0.0000000000000E+00 -0.7489424961856E-02
 0.9637071403779E-03 -0.6905615903661E-02  0.0000000000000E+00 -0.7512496920345E-02
 0.8257150913794E-03 -0.6626831094441E-02  0.0000000000000E+00 -0.7487609604787E-02
 0.6378182411231E-03 -0.6282700435093E-02  0.0000000000000E+00 -0.7446042965619E-02
 0.4314433789384E-03 -0.5888070304980E-02  0.0000000000000E+00 -0.7410537538400E-02
 0.2468489356651E-03 -0.5463776442648E-02  0.0000000000000E+00 -0.7397798711500E-02
 0.1339651190170E-03 -0.5039234062291E-02  0.0000000000000E+00 -0.7419804018141E-02
 0.1506628565109E-03 -0.4651763770896E-02  0.0000000000000E+00 -0.7486338635820E-02
 0.3579988755263E-03 -0.4343633584178E-02  0.0000000000000E+00 -0.7606815254852E-02
 0.8130474985060E-03 -0.4158854864153E-02  0.0000000000000E+00 -0.7782448261987E-02
 0.1556569780385E-02 -0.4134987566650E-02  0.0000000000000E+00 -0.7992737339568E-02
 0.2596396919926E-02 -0.4289422844733E-02  0.0000000000000E+00 -0.8183696994257E-02
 0.3892341741894E-02 -0.4605708642051E-02  0.0000000000000E+00 -0.8267295990252E-02
 0.5349050870783E-02 -0.5026724708799E-02  0.0000000000000E+00 -0.8139172208121E-02
 0.6824911135966E-02 -0.5460769213418E-02  0.0000000000000E+00 -0.7713727779458E-02
 0.8159359437201E-02 -0.5802835505659E-02  0.0000000000000E+00 -0.6961656711585E-02
 0.1243738664330E-03 -0.6333653079969E-02  0.0000000000000E+00 -0.5010748251130E-02
 0.3755189703456E-03 -0.6477044651228E-02  0.0000000000000E+00 -0.5915998603046E-02
 0.6076159571782E-03 -0.6590164931287E-02  0.0000000000000E+00 -0.6634456201681E-02
 0.7847388554480E-03 -0.6646643523107E-02  0.0000000000000E+00 -0.7140837584479E-02
 0.8841753769793E-03 -0.6630203848301E-02  0.0000000000000E+00 -0.7458340031475E-02
 0.8980670154044E-03 -0.6534886816055E-02  0.0000000000000E+00 -0.7633608741124E-02
 0.8309196313460E-03 -0.6362122802536E-02  0.0000000000000E+00 -0.7715882554803E-02
 0.6965943853742E-03 -0.6117871211600E-02  0.0000000000000E+00 -0.7746150712374E-02
 0.5169392453375E-03 -0.5811649728100E-02  0.0000000000000E+00 -0.7754312189578E-02
 0.3221152158166E-03 -0.5457417527379E-02  0.0000000000000E+00 -0.7760326216712E-02
 0.1516560479257E-03 -0.5075635247588E-02  0.0000000000000E+00 -0.7776640251204E-02
 0.5520276885290E-04 -0.4695495188318E-02  0.0000000000000E+00 -0.7810193718395E-02
 0.9070746569029E-04 -0.4354766076032E-02  0.0000000000000E+00 -0.7864883782967E-02
 0.3190011294392E-03 -0.4096721189018E-02  0.0000000000000E+00 -0.7943791656515E-02
 0.7952902895431E-03 -0.3965378255992E-02  0.0000000000000E+00 -0.8044519620980E-02
 0.1555876891212E-02 -0.3996144777801E-02  0.0000000000000E+00 -0.8150402480258E-02
 0.2601964048926E-02 -0.4202316991530E-02  0.0000000000000E+00 -0.8222821189034E-02
 0.3886880804230E-02 -0.4563168366781E-02  0.0000000000000E+00 -0.8201116580362E-02
 0.5312502420152E-02 -0.5019850460283E-02  0.0000000000000E+00 -0.8014539553486E-02
 0.6740892027438E-02 -0.5483671512287E-02  0.0000000000000E+00 -0.7605615121192E-02
 0.8021256682046E-02 -0.5857119112186E-02  0.0000000000000E+00 -0.6955917447326E-02
 0.1171839353993E-03 -0.5749896520505E-02  0.0000000000000E+00 -0.4924154685139E-02
 0.3461995326933E-03 -0.5885180391780E-02  0.0000000000000E+00 -0.5844387529699E-02
 0.5483115877823E-03 -0.5991843944107E-02  0.0000000000000E+00 -0.6595809732344E-02
 0.6972061345428E-03 -0.6049672191846E-02  0.0000000000000E+00 -0.7148202573353E-02
 0.7760899178058E-03 -0.6045297395983E-02  0.0000000000000E+00 -0.7518650150204E-02
 0.7788614814030E-03 -0.5972429389371E-02  0.0000000000000E+00 -0.7749012382276E-02
 0.7090411248707E-03 -0.5830364454891E-02  0.0000000000000E+00 -0.7885761754075E-02
 0.5784229322028E-03 -0.5622571773678E-02  0.0000000000000E+00 -0.7968183750867E-02
 0.4067626326265E-03 -0.5356519824100E-02  0.0000000000000E+00 -0.8024114895769E-02
 0.2225560410714E-03 -0.5044792996753E-02  0.0000000000000E+00 -0.8070101846260E-02
 0.6418847507378E-04 -0.4706920920703E-02  0.0000000000000E+00 -0.8113743967814E-02
-0.1935887243137E-04 -0.4371340069047E-02  0.0000000000000E+00 -0.8156329850025E-02
 0.2968820887062E-04 -0.4075771956574E-02  0.0000000000000E+00 -0.8195500757995E-02
 0.2720031408491E-03 -0.3864150352046E-02  0.0000000000000E+00 -0.8228304341225E-02
 0.7617164161405E-03 -0.3780663842848E-02  0.0000000000000E+00 -0.8249829049195E-02
 0.1532484611671E-02 -0.3859583088037E-02  0.0000000000000E+00 -0.8248852992490E-02
 0.2581535542422E-02 -0.4111918381768E-02  0.0000000000000E+00 -0.8203430165472E-02
 0.3858254373893E-02 -0.4514555942092E-02  0.0000000000000E+00 -0.8080132406225E-02
 0.5262708987709E-02 -0.5007729818234E-02  0.0000000000000E+00 -0.7839494628844E-02
 0.6659051495683E-02 -0.5504704241850E-02  0.0000000000000E+00 -0.7448239002351E-02
 0.7902557879993E-02 -0.5912885235868E-02  0.0000000000000E+00 -0.6895080751862E-02
 0.1114406684539E-03 -0.5168913368278E-02  0.0000000000000E+00 -0.4839824882865E-02
 0.3211014799088E-03 -0.5297804454678E-02  0.0000000000000E+00 -0.5773635852172E-02
 0.4955407912974E-03 -0.5399445850111E-02  0.0000000000000E+00 -0.6552084290643E-02
 0.6178034102177E-03 -0.5459721335601E-02  0.0000000000000E+00 -0.7141827872406E-02
 0.6770957368108E-03 -0.5468397382229E-02  0.0000000000000E+00 -0.7556315377648E-02
 0.6693530547349E-03 -0.5419203720442E-02  0.0000000000000E+00 -0.7834346563196E-02
 0.5973191496787E-03 -0.5309533403115E-02  0.0000000000000E+00 -0.8020207798743E-02
 0.4707028251370E-03 -0.5140343785208E-02  0.0000000000000E+00 -0.8151281673577E-02
 0.3069238234977E-03 -0.4916784270467E-02  0.0000000000000E+00 -0.8252854696214E-02
 0.1324321075218E-03 -0.4649616451149E-02  0.0000000000000E+00 -0.8337558335276E-02
-0.1594377923048E-04 -0.4356907772297E-02  0.0000000000000E+00 -0.8407637954456E-02
-0.9023024013316E-04 -0.4065823357314E-02  0.0000000000000E+00 -0.8458163440085E-02
-0.3303087524487E-04 -0.3813580076275E-02  0.0000000000000E+00 -0.8480117604834E-02
 0.2163464225928E-03 -0.3644507176964E-02  0.0000000000000E+00 -0.8464571318100E-02
 0.7118726826543E-03 -0.3603234986278E-02  0.0000000000000E+00 -0.8404624685126E-02
 0.1486432721599E-02 -0.3723984474287E-02  0.0000000000000E+00 -0.8295285896444E-02
 0.2535831004040E-02 -0.4017245609990E-02  0.0000000000000E+00 -0.8131936405956E-02
 0.3807754740808E-02 -0.4459213209246E-02  0.0000000000000E+00 -0.7908365164713E-02
 0.5201045636404E-02 -0.4989748135521E-02  0.0000000000000E+00 -0.7615248108630E-02
 0.6580104395929E-02 -0.5522834323067E-02  0.0000000000000E+00 -0.7241257863555E-02
 0.7802650384185E-02 -0.5968266373371E-02  0.0000000000000E+00 -0.6779635907301E-02
 0.1067792886834E-03 -0.4588509487684E-02  0.0000000000000E+00 -0.4756753549961E-02
 0.2991165011252E-03 -0.4712379684499E-02  0.0000000000000E+00 -0.5702773097554E-02
 0.4476298317752E-03 -0.4810327185754E-02  0.0000000000000E+00 -0.6502364245120E-02
 0.5446975457561E-03 -0.4874381909663E-02  0.0000000000000E+00 -0.7120753856670E-02
 0.5855628358391E-03 -0.4897561237250E-02  0.0000000000000E+00 -0.7570122525997E-02
 0.5682863299031E-03 -0.4873770238798E-02  0.0000000000000E+00 -0.7887952730972E-02
 0.4948746452149E-03 -0.4798589991818E-02  0.0000000000000E+00 -0.8117060271477E-02
 0.3728540688146E-03 -0.4670404784301E-02  0.0000000000000E+00 -0.8292906738640E-02
 0.2170549311334E-03 -0.4491800452739E-02  0.0000000000000E+00 -0.8437910851350E-02
 0.5151411141877E-04 -0.4271307481721E-02  0.0000000000000E+00 -0.8560423782667E-02
-0.8889401529363E-04 -0.4025026499854E-02  0.0000000000000E+00 -0.8656930224343E-02
-0.1575393069404E-03 -0.3778349926204E-02  0.0000000000000E+00 -0.8715759406399E-02
-0.9757596062321E-04 -0.3567549113335E-02  0.0000000000000E+00 -0.8720781554295E-02
 0.1519276587462E-03 -0.3437109940039E-02  0.0000000000000E+00 -0.8656882807432E-02
 0.6457455791068E-03 -0.3432401793739E-02  0.0000000000000E+00 -0.8515119988144E-02
 0.1417887514270E-02 -0.3588693870048E-02  0.0000000000000E+00 -0.8296727016444E-02
 0.2465267028459E-02 -0.3917706962559E-02  0.0000000000000E+00 -0.8014485401360E-02
 0.3736039151880E-02 -0.4396592537469E-02  0.0000000000000E+00 -0.7689601259234E-02
 0.5128234875872E-02 -0.4965275455738E-02  0.0000000000000E+00 -0.7342997457097E-02
 0.6504436753683E-02 -0.5537056597813E-02  0.0000000000000E+00 -0.6984700183048E-02
 0.7721068844611E-02 -0.6021488420256E-02  0.0000000000000E+00 -0.6610807114245E-02
 0.1028272763295E-03 -0.4006453564715E-02  0.0000000000000E+00 -0.4674162604807E-02
 0.2791168159214E-03 -0.4126316348917E-02  0.0000000000000E+00 -0.5630941454599E-02
 0.4028718325095E-03 -0.4221766569375E-02  0.0000000000000E+00 -0.6445607943369E-02
 0.4759963292765E-03 -0.4291127345507E-02  0.0000000000000E+00 -0.7083686398482E-02
 0.4997710088717E-03 -0.4330684703530E-02  0.0000000000000E+00 -0.7558453661517E-02
 0.4742957477383E-03 -0.4334495281816E-02  0.0000000000000E+00 -0.7907823970635E-02
 0.4007237040733E-03 -0.4296293585451E-02  0.0000000000000E+00 -0.8173917190994E-02
 0.2842293784969E-03 -0.4211798374820E-02  0.0000000000000E+00 -0.8390370870521E-02
 0.1367920608059E-03 -0.4080818006141E-02  0.0000000000000E+00 -0.8576562944618E-02
-0.2031967082383E-04 -0.3909287386025E-02  0.0000000000000E+00 -0.8736344049255E-02
-0.1545769135245E-03 -0.3710864054281E-02  0.0000000000000E+00 -0.8860148364712E-02
-0.2210304331035E-03 -0.3508675182947E-02  0.0000000000000E+00 -0.8929100863085E-02
-0.1635645580628E-03 -0.3337598753810E-02  0.0000000000000E+00 -0.8919460576822E-02
 0.7919401597362E-04 -0.3242010125614E-02  0.0000000000000E+00 -0.8809465676809E-02
 0.5637537360424E-03 -0.3268262127784E-02  0.0000000000000E+00 -0.8587505231091E-02
 0.1327133608223E-02 -0.3453719776441E-02  0.0000000000000E+00 -0.8260238887409E-02
 0.2369951817418E-02 -0.3813098031219E-02  0.0000000000000E+00 -0.7857304000749E-02
 0.3643139103773E-02 -0.4326254261874E-02  0.0000000000000E+00 -0.7427715071338E-02
 0.5044394200838E-02 -0.4933683445890E-02  0.0000000000000E+00 -0.7024086064790E-02
 0.6432191866630E-02 -0.5546442976246E-02  0.0000000000000E+00 -0.6679004249762E-02
 0.7657575840190E-02 -0.6070932953254E-02  0.0000000000000E+00 -0.6390640608265E-02
 0.9918974367400E-04 -0.3420431693960E-02  0.0000000000000E+00 -0.4591513303314E-02
 0.2599152200097E-03 -0.3536920022590E-02  0.0000000000000E+00 -0.5557407549760E-02
 0.3594819701837E-03 -0.3630926530261E-02  0.0000000000000E+00 -0.6380663396114E-02
 0.4097241108259E-03 -0.3707306353120E-02  0.0000000000000E+00 -0.7029019731986E-02
 0.4179117305845E-03 -0.3765522438204E-02  0.0000000000000E+00 -0.7519312181973E-02
 0.3859219535059E-03 -0.3799582336192E-02  0.0000000000000E+00 -0.7891623928967E-02
 0.3137935878669E-03 -0.3801227924769E-02  0.0000000000000E+00 -0.8188135059753E-02
 0.2041215513457E-03 -0.3763405604361E-02  0.0000000000000E+00 -0.8440806624903E-02
 0.6577326462140E-04 -0.3682976157227E-02  0.0000000000000E+00 -0.8665924017161E-02
-0.8309136356385E-04 -0.3562966807576E-02  0.0000000000000E+00 -0.8862770772523E-02
-0.2126779611974E-03 -0.3414147236193E-02  0.0000000000000E+00 -0.9015579665186E-02
-0.2800706917818E-03 -0.3256890667502E-02  0.0000000000000E+00 -0.9097890358772E-02
-0.2301031165236E-03 -0.3124204745205E-02  0.0000000000000E+00 -0.9077838175684E-02
-0.8392630979071E-06 -0.3060006023578E-02  0.0000000000000E+00 -0.8926337330117E-02
 0.4667828704648E-03 -0.3111740119224E-02  0.0000000000000E+00 -0.8627947512913E-02
 0.1214614189441E-02 -0.3319790948243E-02  0.0000000000000E+00 -0.8193126627506E-02
 0.2249703008212E-02 -0.3703648893651E-02  0.0000000000000E+00 -0.7667066684582E-02
 0.3528444716588E-02 -0.4247879440516E-02  0.0000000000000E+00 -0.7127011043244E-02
 0.4949035702333E-02 -0.4894351411602E-02  0.0000000000000E+00 -0.6660139906278E-02
 0.6363336115145E-02 -0.5550190481031E-02  0.0000000000000E+00 -0.6325016599783E-02
 0.7612248668221E-02 -0.6115207330645E-02  0.0000000000000E+00 -0.6122082134566E-02
 0.9543406630871E-04 -0.2828001034784E-02  0.0000000000000E+00 -0.4508525858552E-02
 0.2402238507850E-03 -0.2941339048437E-02  0.0000000000000E+00 -0.5481568818528E-02
 0.3155528554546E-03 -0.3034817007787E-02  0.0000000000000E+00 -0.6306260642396E-02
 0.3437992330803E-03 -0.3120138835656E-02  0.0000000000000E+00 -0.6954832358652E-02
 0.3380912241517E-03 -0.3199710594064E-02  0.0000000000000E+00 -0.7450333772940E-02
 0.3016267907114E-03 -0.3267102218166E-02  0.0000000000000E+00 -0.7836706087767E-02
 0.2329343103497E-03 -0.3311821887912E-02  0.0000000000000E+00 -0.8156839363090E-02
 0.1317635360917E-03 -0.3323948228230E-02  0.0000000000000E+00 -0.8441151722349E-02
 0.3626588826688E-05 -0.3297289328857E-02  0.0000000000000E+00 -0.8702885599703E-02
-0.1367434838684E-03 -0.3231718083382E-02  0.0000000000000E+00 -0.8936857195138E-02
-0.2626753734462E-03 -0.3134708594244E-02  0.0000000000000E+00 -0.9121113460660E-02
-0.3336652422140E-03 -0.3023392987581E-02  0.0000000000000E+00 -0.9221345206475E-02
-0.2957831252747E-03 -0.2928385417554E-02  0.0000000000000E+00 -0.9197090159846E-02
-0.8655069166896E-04 -0.2892666281652E-02  0.0000000000000E+00 -0.9011127898292E-02
 0.3562640838506E-03 -0.2964661524987E-02  0.0000000000000E+00 -0.8642553568279E-02
 0.1081026482039E-02 -0.3188474824876E-02  0.0000000000000E+00 -0.8103127094350E-02
 0.2104098086483E-02 -0.3590133860131E-02  0.0000000000000E+00 -0.7451300981716E-02
 0.3390659451125E-02 -0.4161301216350E-02  0.0000000000000E+00 -0.6792640742002E-02
 0.4840998844304E-02 -0.4846642740209E-02  0.0000000000000E+00 -0.6253208591492E-02
 0.6297707830606E-02 -0.5547657937890E-02  0.0000000000000E+00 -0.5923921539372E-02
 0.7585567386823E-02 -0.6153217167384E-02  0.0000000000000E+00 -0.5809049506316E-02
 0.9107196528677E-04 -0.2226538326531E-02  0.0000000000000E+00 -0.4425207149835E-02
 0.2186078027564E-03 -0.2336507607331E-02  0.0000000000000E+00 -0.5402952324306E-02
 0.2690079889422E-03 -0.2430259979402E-02  0.0000000000000E+00 -0.6220977091106E-02
 0.2760147993228E-03 -0.2526718193570E-02  0.0000000000000E+00 -0.6858854733559E-02
 0.2583380260048E-03 -0.2630795768541E-02  0.0000000000000E+00 -0.7348784300169E-02
 0.2198096980858E-03 -0.2735025404155E-02  0.0000000000000E+00 -0.7740136938694E-02
 0.1569271903796E-03 -0.2826367250310E-02  0.0000000000000E+00 -0.8076949203400E-02
 0.6632147207619E-04 -0.2891984313504E-02  0.0000000000000E+00 -0.8388150864585E-02
-0.5005222973134E-04 -0.2922620746054E-02  0.0000000000000E+00 -0.8684078579052E-02
-0.1811719148960E-03 -0.2914831450750E-02  0.0000000000000E+00 -0.8955365623662E-02
-0.3038761890508E-03 -0.2872432969300E-02  0.0000000000000E+00 -0.9174088021916E-02
-0.3804846831963E-03 -0.2808833061535E-02  0.0000000000000E+00 -0.9297985094476E-02
-0.3586800507304E-03 -0.2751674655254E-02  0.0000000000000E+00 -0.9277633128433E-02
-0.1756576822534E-03 -0.2742357763676E-02  0.0000000000000E+00 -0.9066848821579E-02
 0.2342959783125E-03 -0.2829863534401E-02  0.0000000000000E+00 -0.8637265819808E-02
 0.9274838719795E-03 -0.3062364683338E-02  0.0000000000000E+00 -0.7998554866183E-02
 0.1932580653116E-02 -0.3474069878956E-02  0.0000000000000E+00 -0.7218843060971E-02
 0.3227727735429E-02 -0.4066576857659E-02  0.0000000000000E+00 -0.6431181702414E-02
 0.4718274418726E-02 -0.4789819177815E-02  0.0000000000000E+00 -0.5805976053402E-02
 0.6235045342024E-02 -0.5538357103563E-02  0.0000000000000E+00 -0.5477030894368E-02
 0.7578507079476E-02 -0.6184229537131E-02  0.0000000000000E+00 -0.5456489814832E-02
 0.8553669885125E-04 -0.1613177940248E-02  0.0000000000000E+00 -0.4341887642676E-02
 0.1934288871395E-03 -0.1719079751677E-02  0.0000000000000E+00 -0.5321201414718E-02
 0.2175513791297E-03 -0.1813855327751E-02  0.0000000000000E+00 -0.6123167786470E-02
 0.2040253176461E-03 -0.1924024531209E-02  0.0000000000000E+00 -0.6738405215326E-02
 0.1766190777198E-03 -0.2056275381855E-02  0.0000000000000E+00 -0.7211547172040E-02
 0.1388284473586E-03 -0.2201259763791E-02  0.0000000000000E+00 -0.7598727985374E-02
 0.8449176679250E-04 -0.2343034977411E-02  0.0000000000000E+00 -0.7945220801837E-02
 0.6881017720783E-05 -0.2465896726936E-02  0.0000000000000E+00 -0.8278379250779E-02
-0.9573280831926E-04 -0.2557643909690E-02  0.0000000000000E+00 -0.8605854498867E-02
-0.2162729150003E-03 -0.2611454234643E-02  0.0000000000000E+00 -0.8914591121145E-02
-0.3354687290258E-03 -0.2627182672106E-02  0.0000000000000E+00 -0.9171145705340E-02
-0.4189084946317E-03 -0.2614041435347E-02  0.0000000000000E+00 -0.9325412206857E-02
-0.4163620364280E-03 -0.2596073970543E-02  0.0000000000000E+00 -0.9318837580794E-02
-0.2651519208716E-03 -0.2612267350842E-02  0.0000000000000E+00 -0.9095584932976E-02
 0.1038099020323E-03 -0.2711334676640E-02  0.0000000000000E+00 -0.8617656895837E-02
 0.7557565643472E-03 -0.2945339674653E-02  0.0000000000000E+00 -0.7888365673154E-02
 0.1734664030630E-02 -0.3358037754393E-02  0.0000000000000E+00 -0.6980316715884E-02
 0.3036767949504E-02 -0.3964171607856E-02  0.0000000000000E+00 -0.6051496371663E-02
 0.4577635754472E-02 -0.4722852983347E-02  0.0000000000000E+00 -0.5322235393800E-02
 0.6174953143437E-02 -0.5521779997620E-02  0.0000000000000E+00 -0.4985293331500E-02
 0.7592671647027E-02 -0.6207891383972E-02  0.0000000000000E+00 -0.5070309847529E-02
 0.7815191692181E-04 -0.9847319692228E-03  0.0000000000000E+00 -0.4259269499976E-02
 0.1627732670080E-03 -0.1085348520392E-02  0.0000000000000E+00 -0.5236041736343E-02
 0.1586118038807E-03 -0.1181949251606E-02  0.0000000000000E+00 -0.6010846842333E-02
 0.1253434814357E-03 -0.1308955319145E-02  0.0000000000000E+00 -0.6590288797268E-02
 0.9086944855416E-04 -0.1473655374955E-02  0.0000000000000E+00 -0.7035104168628E-02
 0.5702726756972E-04 -0.1663696621774E-02  0.0000000000000E+00 -0.7409083296075E-02
 0.1429233927799E-04 -0.1859891160011E-02  0.0000000000000E+00 -0.7758315504148E-02
-0.4757268676045E-04 -0.2043874931834E-02  0.0000000000000E+00 -0.8108292760898E-02
-0.1339941976595E-03 -0.2200791770052E-02  0.0000000000000E+00 -0.8464292568587E-02
-0.2420052833768E-03 -0.2320511976631E-02  0.0000000000000E+00 -0.8810307062871E-02
-0.3565937994595E-03 -0.2398698856540E-02  0.0000000000000E+00 -0.9108101522692E-02
-0.4470899927773E-03 -0.2439924671128E-02  0.0000000000000E+00 -0.9300087765727E-02
-0.4659169032363E-03 -0.2463973432648E-02  0.0000000000000E+00 -0.9318701211283E-02
-0.3512389838879E-03 -0.2506403794045E-02  0.0000000000000E+00 -0.9098094705138E-02
-0.3122112600246E-04 -0.2614368483179E-02  0.0000000000000E+00 -0.8588564443090E-02
 0.5685962231332E-03 -0.2842917057615E-02  0.0000000000000E+00 -0.7782112927468E-02
 0.1510278303425E-02 -0.3246116178527E-02  0.0000000000000E+00 -0.6748525984206E-02
 0.2814134289962E-02 -0.3855438789849E-02  0.0000000000000E+00 -0.5665930354075E-02
 0.4413954873857E-02 -0.4644173842715E-02  0.0000000000000E+00 -0.4808182788512E-02
 0.6116590136462E-02 -0.5496702813562E-02  0.0000000000000E+00 -0.4448419652801E-02
 0.7630621784913E-02 -0.6223984685083E-02  0.0000000000000E+00 -0.4656556897122E-02
 0.6808676051150E-04 -0.3375809461052E-03  0.0000000000000E+00 -0.4178488624906E-02
 0.1243541899341E-03 -0.4311428828870E-03  0.0000000000000E+00 -0.5147211327360E-02
 0.8928124523738E-04 -0.5306093742919E-03  0.0000000000000E+00 -0.5881498292571E-02
 0.3735428862775E-04 -0.6783841385724E-03  0.0000000000000E+00 -0.6410651889457E-02
-0.9576622423402E-06 -0.8805329288318E-03  0.0000000000000E+00 -0.6815517052590E-02
-0.2722459701922E-04 -0.1120268166378E-02  0.0000000000000E+00 -0.7167671825083E-02
-0.5505474714843E-04 -0.1374914025998E-02  0.0000000000000E+00 -0.7512898642759E-02
-0.9818085572558E-04 -0.1623891453491E-02  0.0000000000000E+00 -0.7874310239664E-02
-0.1655800141726E-03 -0.1850194462138E-02  0.0000000000000E+00 -0.8255238590378E-02
-0.2584685593001E-03 -0.2040611226386E-02  0.0000000000000E+00 -0.8637739294005E-02
-0.3664372456470E-03 -0.2186477280485E-02  0.0000000000000E+00 -0.8979832321886E-02
-0.4630476218007E-03 -0.2287328014613E-02  0.0000000000000E+00 -0.9217111134588E-02
-0.5040109595415E-03 -0.2358030867024E-02  0.0000000000000E+00 -0.9273488662667E-02
-0.4292923588548E-03 -0.2429557807319E-02  0.0000000000000E+00 -0.9073294685301E-02
-0.1655650296652E-03 -0.2545714388192E-02  0.0000000000000E+00 -0.8553548085577E-02
 0.3702267033429E-03 -0.2762672791633E-02  0.0000000000000E+00 -0.7689595656393E-02
 0.1260139944351E-02 -0.3144559182963E-02  0.0000000000000E+00 -0.6539048370315E-02
 0.2556015318920E-02 -0.3743113703451E-02  0.0000000000000E+00 -0.5290827194345E-02
 0.4219190460967E-02 -0.4552777080776E-02  0.0000000000000E+00 -0.4276478891686E-02
 0.6057222277174E-02 -0.5457939771381E-02  0.0000000000000E+00 -0.3863917018258E-02
 0.7696823740759E-02 -0.6231982271574E-02  0.0000000000000E+00 -0.4217850232377E-02
 0.5428852527939E-04  0.3324839179144E-03  0.0000000000000E+00 -0.4101192464644E-02
 0.7537734198576E-04  0.2483056360354E-03  0.0000000000000E+00 -0.5054327043634E-02
 0.6249341703304E-05  0.1443857414132E-03  0.0000000000000E+00 -0.5731783171180E-02
-0.6264166603327E-04 -0.2926399026611E-04  0.0000000000000E+00 -0.6194786108746E-02
-0.1008123660882E-03 -0.2747121240510E-03  0.0000000000000E+00 -0.6548423563759E-02
-0.1154817109126E-03 -0.5690171224059E-03  0.0000000000000E+00 -0.6870936017233E-02
-0.1249725107138E-03 -0.8860121337266E-03  0.0000000000000E+00 -0.7205775055768E-02
-0.1462419793546E-03 -0.1203674119576E-02  0.0000000000000E+00 -0.7572932951825E-02
-0.1914643379265E-03 -0.1503606314187E-02  0.0000000000000E+00 -0.7974382785310E-02
-0.2659982092862E-03 -0.1769923217941E-02  0.0000000000000E+00 -0.8391577030891E-02
-0.3643458760255E-03 -0.1989616147256E-02  0.0000000000000E+00 -0.8780194872404E-02
-0.4647891164595E-03 -0.2156859734874E-02  0.0000000000000E+00 -0.9070012965694E-02
-0.5269875469086E-03 -0.2280997851707E-02  0.0000000000000E+00 -0.9177345523064E-02
-0.4938627511091E-03 -0.2387195541510E-02  0.0000000000000E+00 -0.9017643562838E-02
-0.2924736697344E-03 -0.2513682316615E-02  0.0000000000000E+00 -0.8514051922158E-02
 0.1668120300915E-03 -0.2714736453388E-02  0.0000000000000E+00 -0.7620299324670E-02
 0.9868534775325E-03 -0.3062660333086E-02  0.0000000000000E+00 -0.6370073722619E-02
 0.2257697499922E-02 -0.3632368301954E-02  0.0000000000000E+00 -0.4949267291288E-02
 0.3986165616441E-02 -0.4448517428973E-02  0.0000000000000E+00 -0.3742936942266E-02
 0.5982350358420E-02 -0.5402255353132E-02  0.0000000000000E+00 -0.3252904134677E-02
 0.7801520911292E-02 -0.6198502688624E-02  0.0000000000000E+00 -0.3711065479244E-02
 0.3546448945813E-04  0.1030591282601E-02  0.0000000000000E+00 -0.4029365473293E-02
 0.1230760861658E-04  0.9590871614084E-03  0.0000000000000E+00 -0.4956411056807E-02
-0.9439047874493E-04  0.8484063572782E-03  0.0000000000000E+00 -0.5556672154556E-02
-0.1775428241535E-03  0.6423859748678E-03  0.0000000000000E+00 -0.5936237997125E-02
-0.2106852563394E-03  0.3470492090498E-03  0.0000000000000E+00 -0.6228156309467E-02
-0.2094224995773E-03 -0.6619561390165E-05  0.0000000000000E+00 -0.6514272657842E-02
-0.1971552064797E-03 -0.3894172404016E-03  0.0000000000000E+00 -0.6832646190228E-02
-0.1934310004022E-03 -0.7790708128651E-03  0.0000000000000E+00 -0.7199280733017E-02
-0.2130237274009E-03 -0.1156840679928E-02  0.0000000000000E+00 -0.7615611845284E-02
-0.2652702257469E-03 -0.1504793274358E-02  0.0000000000000E+00 -0.8064201005847E-02
-0.3498710315459E-03 -0.1805701223237E-02  0.0000000000000E+00 -0.8500217250686E-02
-0.4503361950457E-03 -0.2048128697125E-02  0.0000000000000E+00 -0.8849005409517E-02
-0.5309549607138E-03 -0.2235346452063E-02  0.0000000000000E+00 -0.9020675250707E-02
-0.5388973882420E-03 -0.2385483796041E-02  0.0000000000000E+00 -0.8923628553784E-02
-0.4041400086942E-03 -0.2528590963650E-02  0.0000000000000E+00 -0.8467989053159E-02
-0.3399766660572E-04 -0.2712727787102E-02  0.0000000000000E+00 -0.7582103135155E-02
 0.6931872733422E-03 -0.3013953289097E-02  0.0000000000000E+00 -0.6262340017416E-02
 0.1913964028575E-02 -0.3531785136358E-02  0.0000000000000E+00 -0.4669210517038E-02
 0.3697196560802E-02 -0.4332617612317E-02  0.0000000000000E+00 -0.3234062827312E-02
 0.5895033187519E-02 -0.5328383953131E-02  0.0000000000000E+00 -0.2610881004866E-02
 0.7927212616516E-02 -0.6123442630017E-02  0.0000000000000E+00 -0.3373041888939E-02
 0.9583911750865E-05  0.1762963223028E-02  0.0000000000000E+00 -0.3966579016782E-02
-0.6936299867159E-04  0.1707849707579E-02  0.0000000000000E+00 -0.4852194578526E-02
-0.2169869228497E-03  0.1586177022502E-02  0.0000000000000E+00 -0.5349796683373E-02
-0.3099219538479E-03  0.1338900075098E-02  0.0000000000000E+00 -0.5627902416038E-02
-0.3319913992906E-03  0.9860742021757E-03  0.0000000000000E+00 -0.5849628219874E-02
-0.3102821129592E-03  0.5684641178222E-03  0.0000000000000E+00 -0.6094414135408E-02
-0.2730904735340E-03  0.1170902123368E-03  0.0000000000000E+00 -0.6390803118847E-02
-0.2414550361924E-03 -0.3471883564950E-03  0.0000000000000E+00 -0.6749991488394E-02
-0.2318757655176E-03 -0.8066173871730E-03  0.0000000000000E+00 -0.7173955174416E-02
-0.2573327630277E-03 -0.1242103932596E-02  0.0000000000000E+00 -0.7648447781658E-02
-0.3229355564319E-03 -0.1632549168023E-02  0.0000000000000E+00 -0.8130442726109E-02
-0.4178963206883E-03 -0.1960809570094E-02  0.0000000000000E+00 -0.8542689792428E-02
-0.5117427223473E-03 -0.2223678162202E-02  0.0000000000000E+00 -0.8791018112225E-02
-0.5571593381121E-03 -0.2431192896179E-02  0.0000000000000E+00 -0.8779659755993E-02
-0.4899286146504E-03 -0.2602615986163E-02  0.0000000000000E+00 -0.8408638640447E-02
-0.2197047962808E-03 -0.2774410669099E-02  0.0000000000000E+00 -0.7580126841061E-02
 0.3886068615117E-03 -0.3018679983241E-02  0.0000000000000E+00 -0.6240209051022E-02
 0.1521207015526E-02 -0.3456603879004E-02  0.0000000000000E+00 -0.4492523284873E-02
 0.3342066590967E-02 -0.4212033737506E-02  0.0000000000000E+00 -0.2787828182021E-02
 0.5760092208124E-02 -0.5235637690198E-02  0.0000000000000E+00 -0.1985249310766E-02
 0.8254029080612E-02 -0.6114448575238E-02  0.0000000000000E+00 -0.3087397756190E-02
-0.2594153470854E-04  0.2537439535504E-02  0.0000000000000E+00 -0.3916572276516E-02
-0.1754864648414E-03  0.2502095236083E-02  0.0000000000000E+00 -0.4738469952674E-02
-0.3662273881719E-03  0.2361472707445E-02  0.0000000000000E+00 -0.5101562067933E-02
-0.4616622787037E-03  0.2060501303786E-02  0.0000000000000E+00 -0.5261159405300E-02
-0.4653134030418E-03  0.1641537979449E-02  0.0000000000000E+00 -0.5408255312158E-02
-0.4187736144528E-03  0.1155956586892E-02  0.0000000000000E+00 -0.5609667211406E-02
-0.3540943841307E-03  0.6342209542707E-03  0.0000000000000E+00 -0.5879619676948E-02
-0.2921971789298E-03  0.9370836624632E-04  0.0000000000000E+00 -0.6224065711922E-02
-0.2501668176225E-03 -0.4503538419876E-03  0.0000000000000E+00 -0.6646792683325E-02
-0.2440580216709E-03 -0.9789195971122E-03  0.0000000000000E+00 -0.7139079693610E-02
-0.2844414715673E-03 -0.1467686433002E-02  0.0000000000000E+00 -0.7662476314186E-02
-0.3665871359926E-03 -0.1893939478965E-02  0.0000000000000E+00 -0.8139459744828E-02
-0.4656785408669E-03 -0.2247829354890E-02  0.0000000000000E+00 -0.8474046836571E-02
-0.5409121428158E-03 -0.2530610824112E-02  0.0000000000000E+00 -0.8570173989410E-02
-0.5366838992193E-03 -0.2748667550308E-02  0.0000000000000E+00 -0.8322936972571E-02
-0.3715463393146E-03 -0.2921361178339E-02  0.0000000000000E+00 -0.7612514623157E-02
 0.9195541180990E-04 -0.3105493953757E-02  0.0000000000000E+00 -0.6326756295231E-02
 0.1086981143465E-02 -0.3433276185355E-02  0.0000000000000E+00 -0.4474089655238E-02
 0.2900040823801E-02 -0.4098898815833E-02  0.0000000000000E+00 -0.2465843348780E-02
 0.5593972700944E-02 -0.5146473713640E-02  0.0000000000000E+00 -0.1411290029122E-02
 0.8610619829633E-02 -0.6158238178371E-02  0.0000000000000E+00 -0.2723598629007E-02
-0.7503081558477E-04  0.3364700918244E-02  0.0000000000000E+00 -0.3884413801034E-02
-0.3139303592743E-03  0.3351607216297E-02  0.0000000000000E+00 -0.4608759900045E-02
-0.5471683582796E-03  0.3178149538739E-02  0.0000000000000E+00 -0.4797738284494E-02
-0.6337930543800E-03  0.2806808933432E-02  0.0000000000000E+00 -0.4825443574399E-02
-0.6105956071357E-03  0.2312857864350E-02  0.0000000000000E+00 -0.4899486750405E-02
-0.5354869838504E-03  0.1756642428646E-02  0.0000000000000E+00 -0.5058639863542E-02
-0.4416765876938E-03  0.1164182252285E-02  0.0000000000000E+00 -0.5298575855722E-02
-0.3479645681743E-03  0.5471695840852E-03  0.0000000000000E+00 -0.5620426602857E-02
-0.2706897821365E-03 -0.8333872662855E-04  0.0000000000000E+00 -0.6031079069441E-02
-0.2281343210518E-03 -0.7099439387030E-03  0.0000000000000E+00 -0.6529782079296E-02
-0.2361844888404E-03 -0.1306248076813E-02  0.0000000000000E+00 -0.7085944599551E-02
-0.2964146587497E-03 -0.1844381941303E-02  0.0000000000000E+00 -0.7624674046986E-02
-0.3899018253448E-03 -0.2307880428936E-02  0.0000000000000E+00 -0.8051190642186E-02
-0.4830492572576E-03 -0.2688836555332E-02  0.0000000000000E+00 -0.8273783829187E-02
-0.5310969136388E-03 -0.2979470706923E-02  0.0000000000000E+00 -0.8189472695868E-02
-0.4681311538342E-03 -0.3177796993019E-02  0.0000000000000E+00 -0.7666109051281E-02
-0.1702598497936E-03 -0.3311833282554E-02  0.0000000000000E+00 -0.6537064078076E-02
 0.6242788566286E-03 -0.3502169335329E-02  0.0000000000000E+00 -0.4675966077272E-02
 0.2354431320254E-02 -0.4016124900320E-02  0.0000000000000E+00 -0.2359208675277E-02
 0.5345158905354E-02 -0.5070689463451E-02  0.0000000000000E+00 -0.8866514714517E-03
 0.9031393350310E-02 -0.6236491220469E-02  0.0000000000000E+00 -0.2349699803028E-02
-0.1437569200658E-03  0.4259938469748E-02  0.0000000000000E+00 -0.3876403317586E-02
-0.4953921149483E-03  0.4268358462402E-02  0.0000000000000E+00 -0.4450142993525E-02
-0.7644894245886E-03  0.4038002897527E-02  0.0000000000000E+00 -0.4417345701640E-02
-0.8255137744680E-03  0.3574774911496E-02  0.0000000000000E+00 -0.4309079841401E-02
-0.7667283500088E-03  0.2998280867657E-02  0.0000000000000E+00 -0.4320229220115E-02
-0.6606832043717E-03  0.2370965501318E-02  0.0000000000000E+00 -0.4441340460074E-02
-0.5373216981206E-03  0.1709112273666E-02  0.0000000000000E+00 -0.4648432705776E-02
-0.4113298601998E-03  0.1016997519599E-02  0.0000000000000E+00 -0.4939400548314E-02
-0.2968902253732E-03  0.2999016751393E-03  0.0000000000000E+00 -0.5325060237972E-02
-0.2132752711490E-03 -0.4285322890548E-03  0.0000000000000E+00 -0.5814874271390E-02
-0.1812155394260E-03 -0.1141592492783E-02  0.0000000000000E+00 -0.6389909171784E-02
-0.2086683721041E-03 -0.1807096571821E-02  0.0000000000000E+00 -0.6981601648878E-02
-0.2826560629633E-03 -0.2402134212764E-02  0.0000000000000E+00 -0.7500085512745E-02
-0.3771845215753E-03 -0.2909451166654E-02  0.0000000000000E+00 -0.7863287857434E-02
-0.4597567546830E-03 -0.3306685605627E-02  0.0000000000000E+00 -0.7977630331404E-02
-0.4845838692601E-03 -0.3569129330499E-02  0.0000000000000E+00 -0.7712446515176E-02
-0.3597426526499E-03 -0.3684940844675E-02  0.0000000000000E+00 -0.6868112256504E-02
 0.1660859742371E-03 -0.3726376692879E-02  0.0000000000000E+00 -0.5166450752987E-02
 0.1685149835304E-02 -0.4007774747127E-02  0.0000000000000E+00 -0.2595944202208E-02
 0.4942265704411E-02 -0.5001427274743E-02  0.0000000000000E+00 -0.4908286961895E-03
 0.9538081162317E-02 -0.6360719621609E-02  0.0000000000000E+00 -0.2004125331953E-02
-0.2420105717165E-03  0.5246249556573E-02  0.0000000000000E+00 -0.3899749155065E-02
-0.7345095413150E-03  0.5266549230207E-02  0.0000000000000E+00 -0.4236752394764E-02
-0.1020875541636E-02  0.4937884668782E-02  0.0000000000000E+00 -0.3930106865164E-02
-0.1033024114481E-02  0.4357527906223E-02  0.0000000000000E+00 -0.3701365287798E-02
-0.9315524916966E-03  0.3695139923382E-02  0.0000000000000E+00 -0.3670168560343E-02
-0.7943982799120E-03  0.2999143648698E-02  0.0000000000000E+00 -0.3759357152522E-02
-0.6424372351098E-03  0.2270995036109E-02  0.0000000000000E+00 -0.3931384830077E-02
-0.4850628312547E-03  0.1507120463757E-02  0.0000000000000E+00 -0.4183099730733E-02
-0.3328975714887E-03  0.7055712415873E-03  0.0000000000000E+00 -0.4528918531114E-02
-0.2044307713666E-03 -0.1264683922432E-03  0.0000000000000E+00 -0.4990015592718E-02
-0.1242086743608E-03 -0.9648365965957E-03  0.0000000000000E+00 -0.5563303164380E-02
-0.1063474560915E-03 -0.1774604823179E-02  0.0000000000000E+00 -0.6191471482108E-02
-0.1437304012982E-03 -0.2526603033336E-02  0.0000000000000E+00 -0.6794412387896E-02
-0.2181902046640E-03 -0.3193902900621E-02  0.0000000000000E+00 -0.7305449983240E-02
-0.3102631367204E-03 -0.3739744764331E-02  0.0000000000000E+00 -0.7647545093743E-02
-0.3953302711560E-03 -0.4118736556562E-02  0.0000000000000E+00 -0.7704749774340E-02
-0.4259189899842E-03 -0.4278148108998E-02  0.0000000000000E+00 -0.7283745258298E-02
-0.2224639050107E-03 -0.4201076574221E-02  0.0000000000000E+00 -0.5995629039627E-02
 0.8900340848684E-03 -0.4159013228865E-02  0.0000000000000E+00 -0.3374705369203E-02
 0.4275174151783E-02 -0.4946745715617E-02  0.0000000000000E+00 -0.4109555292210E-03
 0.1014597295223E-01 -0.6555690031905E-02  0.0000000000000E+00 -0.1738043126053E-02
-0.3867563076669E-03  0.6361817380535E-02  0.0000000000000E+00 -0.3960438459584E-02
-0.1050931436542E-02  0.6360690755572E-02  0.0000000000000E+00 -0.3915889240319E-02
-0.1313214054921E-02  0.5863670505632E-02  0.0000000000000E+00 -0.3295199947750E-02
-0.1248263892213E-02  0.5143906853416E-02  0.0000000000000E+00 -0.2997858392219E-02
-0.1102431186194E-02  0.4400807832327E-02  0.0000000000000E+00 -0.2952902887384E-02
-0.9365887262261E-03  0.3641208037425E-02  0.0000000000000E+00 -0.3015646662576E-02
-0.7582511349550E-03  0.2851563366664E-02  0.0000000000000E+00 -0.3151170725292E-02
-0.5719882049350E-03  0.2021368627698E-02  0.0000000000000E+00 -0.3355742519858E-02
-0.3834660353081E-03  0.1140422556165E-02  0.0000000000000E+00 -0.3645609011092E-02
-0.2080041614496E-03  0.2062482942562E-03  0.0000000000000E+00 -0.4053275888044E-02
-0.7193905626063E-04 -0.7642433070326E-03  0.0000000000000E+00 -0.4595606239111E-02
 0.5312986178063E-05 -0.1736308613224E-02  0.0000000000000E+00 -0.5233486791349E-02
 0.2509081110161E-04 -0.2674511797592E-02  0.0000000000000E+00 -0.5903685363036E-02
-0.2733351066875E-05 -0.3540939931520E-02  0.0000000000000E+00 -0.6560985233168E-02
-0.7206278309335E-04 -0.4284929785278E-02  0.0000000000000E+00 -0.7150523794711E-02
-0.1781240438867E-03 -0.4844531342886E-02  0.0000000000000E+00 -0.7579895202836E-02
-0.3132615169780E-03 -0.5140028221117E-02  0.0000000000000E+00 -0.7698660164279E-02
-0.4278932191683E-03 -0.5054707820779E-02  0.0000000000000E+00 -0.7143737222324E-02
 0.3083208484855E-04 -0.4647370336269E-02  0.0000000000000E+00 -0.4961469301413E-02
 0.3178069491208E-02 -0.4965490190437E-02  0.0000000000000E+00 -0.1049051265913E-02
 0.1083901181856E-01 -0.6875709187089E-02  0.0000000000000E+00 -0.1688086525447E-02
-0.6085682885771E-03  0.7677188039217E-02  0.0000000000000E+00 -0.4053381246740E-02
-0.1468585677314E-02  0.7555055410259E-02  0.0000000000000E+00 -0.3376934511618E-02
-0.1624078127038E-02  0.6778705090140E-02  0.0000000000000E+00 -0.2469139138647E-02
-0.1459110769067E-02  0.5922044635263E-02  0.0000000000000E+00 -0.2210721282867E-02
-0.1277758514392E-02  0.5113886548129E-02  0.0000000000000E+00 -0.2174526671698E-02
-0.1087018851863E-02  0.4296736594744E-02  0.0000000000000E+00 -0.2214335830178E-02
-0.8857415918826E-03  0.3452359810172E-02  0.0000000000000E+00 -0.2313130327070E-02
-0.6747338957771E-03  0.2563076747278E-02  0.0000000000000E+00 -0.2463692579100E-02
-0.4537218272961E-03  0.1611299506491E-02  0.0000000000000E+00 -0.2681915663073E-02
-0.2320537150182E-03  0.5815283830076E-03  0.0000000000000E+00 -0.3006834484272E-02
-0.3393560848630E-04 -0.5243212570259E-03  0.0000000000000E+00 -0.3477889970674E-02
 0.1181141059775E-03 -0.1677595182161E-02  0.0000000000000E+00 -0.4084757109337E-02
 0.2196622040812E-03 -0.2835772195273E-02  0.0000000000000E+00 -0.4792629311309E-02
 0.2702206314428E-03 -0.3946414725640E-02  0.0000000000000E+00 -0.5585064749194E-02
 0.2629071258777E-03 -0.4944254889198E-02  0.0000000000000E+00 -0.6429361026415E-02
 0.1840059374385E-03 -0.5757884637477E-02  0.0000000000000E+00 -0.7263919052744E-02
 0.1857261111415E-04 -0.6297809061815E-02  0.0000000000000E+00 -0.7984386105361E-02
-0.2896518014331E-03 -0.6418180605047E-02  0.0000000000000E+00 -0.8422564672655E-02
-0.6626073340910E-03 -0.5819388348181E-02  0.0000000000000E+00 -0.7579167319653E-02
 0.1446114716402E-02 -0.5297674340604E-02  0.0000000000000E+00 -0.3245453225682E-02
 0.1149372157876E-01 -0.7451844440446E-02  0.0000000000000E+00 -0.2325114791254E-02
-0.9639371201692E-03  0.9345973537380E-02  0.0000000000000E+00 -0.4114572035184E-02
-0.2004550072175E-02  0.8790898520898E-02  0.0000000000000E+00 -0.2380315803125E-02
-0.1904577941658E-02  0.7612963640091E-02  0.0000000000000E+00 -0.1455882647470E-02
-0.1657037404134E-02  0.6694799383807E-02  0.0000000000000E+00 -0.1376053157869E-02
-0.1457990945684E-02  0.5830581991932E-02  0.0000000000000E+00 -0.1336027973313E-02
-0.1244588677716E-02  0.4966008466555E-02  0.0000000000000E+00 -0.1363377587494E-02
-0.1025963540724E-02  0.4074501128749E-02  0.0000000000000E+00 -0.1423009751897E-02
-0.7952158415574E-03  0.3134718003313E-02  0.0000000000000E+00 -0.1515331461452E-02
-0.5485847889850E-03  0.2124107216740E-02  0.0000000000000E+00 -0.1649397371237E-02
-0.2863384910167E-03  0.1012986384185E-02  0.0000000000000E+00 -0.1859891641462E-02
-0.2354990806155E-04 -0.2243031240158E-03  0.0000000000000E+00 -0.2204653734275E-02
 0.2199981333577E-03 -0.1578524848614E-02  0.0000000000000E+00 -0.2719562054511E-02
 0.4328082336624E-03 -0.2996681037973E-02  0.0000000000000E+00 -0.3420626826453E-02
 0.6001518911607E-03 -0.4403033165780E-02  0.0000000000000E+00 -0.4326157578704E-02
 0.6975398135923E-03 -0.5715967087491E-02  0.0000000000000E+00 -0.5423818236495E-02
 0.7068258143752E-03 -0.6860260933353E-02  0.0000000000000E+00 -0.6666786804998E-02
 0.5765176206351E-03 -0.7758723713096E-02  0.0000000000000E+00 -0.8021077114308E-02
 0.3091998492188E-03 -0.8323407958870E-02  0.0000000000000E+00 -0.9415151594395E-02
-0.6058567320367E-03 -0.8200272645204E-02  0.0000000000000E+00 -0.1091606915462E-01
-0.9236614138755E-03 -0.6817666205902E-02  0.0000000000000E+00 -0.8581670792803E-02
 0.1158980937018E-01 -0.8700695167121E-02  0.0000000000000E+00 -0.5460978754165E-02
-0.1541672686862E-02  0.1180992365514E-01  0.0000000000000E+00 -0.3729027417792E-02
-0.2602915423388E-02  0.9627015767093E-02  0.0000000000000E+00 -0.4289098030216E-03
-0.2057173500791E-02  0.8398391690607E-02  0.0000000000000E+00 -0.5339578635305E-03
-0.1868076645396E-02  0.7453935816646E-02  0.0000000000000E+00 -0.4611088379459E-03
-0.1633817221719E-02  0.6550256020344E-02  0.0000000000000E+00 -0.4586356498845E-03
-0.1411386319110E-02  0.5649257955721E-02  0.0000000000000E+00 -0.4674867077802E-03
-0.1178970814215E-02  0.4718817655281E-02  0.0000000000000E+00 -0.4882991716129E-03
-0.9346102447955E-03  0.3737795892046E-02  0.0000000000000E+00 -0.5195141491428E-03
-0.6713404438972E-03  0.2681945037057E-02  0.0000000000000E+00 -0.5643873441542E-03
-0.3818539578966E-03  0.1514352049567E-02  0.0000000000000E+00 -0.6339413446228E-03
-0.5987666933260E-04  0.1649669832294E-03  0.0000000000000E+00 -0.7776851559433E-03
 0.2934658429395E-03 -0.1411568998286E-02  0.0000000000000E+00 -0.1106687488343E-02
 0.6547412640069E-03 -0.3140713285843E-02  0.0000000000000E+00 -0.1740316626885E-02
 0.9828891037966E-03 -0.4899559697938E-02  0.0000000000000E+00 -0.2727308655649E-02
 0.1237588171551E-02 -0.6595952470006E-02  0.0000000000000E+00 -0.4065511772645E-02
 0.1380314610826E-02 -0.8144252101229E-02  0.0000000000000E+00 -0.5714601152745E-02
 0.1406967296587E-02 -0.9504700255946E-02  0.0000000000000E+00 -0.7636714007989E-02
 0.1185647775288E-02 -0.1069551667178E-01  0.0000000000000E+00 -0.9896070647680E-02
 0.1051878995067E-02 -0.1190026596590E-01  0.0000000000000E+00 -0.1296698832927E-01
-0.2350327869605E-02 -0.1213069571096E-01  0.0000000000000E+00 -0.1815650028547E-01
 0.9732671949129E-02 -0.1331555400905E-01  0.0000000000000E+00 -0.2005848452738E-01
 0.1100020664470E+00 -0.1449109680278E+00  0.0000000000000E+00 -0.7233806870397E+00
 0.1115307206398E+00 -0.1459269141963E+00  0.0000000000000E+00 -0.6272682991092E+00
 0.1166669696847E+00 -0.1494559896456E+00  0.0000000000000E+00 -0.5497845279146E+00
 0.1180907486937E+00 -0.1489371634879E+00  0.0000000000000E+00 -0.4926760465195E+00
 0.1135440356592E+00 -0.1422596242539E+00  0.0000000000000E+00 -0.4516562345545E+00
 0.1024341022715E+00 -0.1290238347653E+00  0.0000000000000E+00 -0.4213764971482E+00
 0.8585050359213E-01 -0.1103963012611E+00  0.0000000000000E+00 -0.3976550039987E+00
 0.6623412712871E-01 -0.8864022621551E-01  0.0000000000000E+00 -0.3756533208482E+00
 0.4539917826816E-01 -0.6528486444880E-01  0.0000000000000E+00 -0.3451748714754E+00
 0.2073383339784E-01 -0.4064873556656E-01  0.0000000000000E+00 -0.2955953387549E+00
 0.1019613802621E+00 -0.1391791651922E+00  0.0000000000000E+00 -0.7227572063697E+00
 0.1083945218662E+00 -0.1445097339613E+00  0.0000000000000E+00 -0.6252965663657E+00
 0.1175535242443E+00 -0.1520600439997E+00  0.0000000000000E+00 -0.5535783651311E+00
 0.1225154315313E+00 -0.1550402578550E+00  0.0000000000000E+00 -0.5034304212078E+00
 0.1205252911448E+00 -0.1509512260883E+00  0.0000000000000E+00 -0.4692204167962E+00
 0.1108653395455E+00 -0.1391939480913E+00  0.0000000000000E+00 -0.4450595905058E+00
 0.9449672562610E-01 -0.1207612781489E+00  0.0000000000000E+00 -0.4263749342084E+00
 0.7368996705506E-01 -0.9779821121621E-01  0.0000000000000E+00 -0.4070879552225E+00
 0.4865221091915E-01 -0.7092435243020E-01  0.0000000000000E+00 -0.3765859717244E+00
 0.2106315776594E-01 -0.4045582460639E-01  0.0000000000000E+00 -0.3366334491384E+00
 0.9424374547007E-01 -0.1337185158869E+00  0.0000000000000E+00 -0.7199434505261E+00
 0.1067679627951E+00 -0.1448529447264E+00  0.0000000000000E+00 -0.6219998761651E+00
 0.1203777766016E+00 -0.1566463015411E+00  0.0000000000000E+00 -0.5554937390252E+00
 0.1287321792503E+00 -0.1629772557334E+00  0.0000000000000E+00 -0.5125720450400E+00
 0.1291004074452E+00 -0.1612474029212E+00  0.0000000000000E+00 -0.4857809628108E+00
 0.1207111790550E+00 -0.1507885410570E+00  0.0000000000000E+00 -0.4686777366751E+00
 0.1043942847230E+00 -0.1324332779614E+00  0.0000000000000E+00 -0.4559699768495E+00
 0.8178118739855E-01 -0.1078076261858E+00  0.0000000000000E+00 -0.4411502932405E+00
 0.5394483690762E-01 -0.7766596298226E-01  0.0000000000000E+00 -0.4168718671816E+00
 0.2444203025672E-01 -0.4522684278626E-01  0.0000000000000E+00 -0.3818351027008E+00
 0.8692661683219E-01 -0.1287960489314E+00  0.0000000000000E+00 -0.7140102053287E+00
 0.1064668300519E+00 -0.1465900217738E+00  0.0000000000000E+00 -0.6167763144538E+00
 0.1249230341940E+00 -0.1630224665608E+00  0.0000000000000E+00 -0.5558279816297E+00
 0.1366988710329E+00 -0.1726796351789E+00  0.0000000000000E+00 -0.5203343656709E+00
 0.1393379296307E+00 -0.1732147262091E+00  0.0000000000000E+00 -0.5014686674583E+00
 0.1321449018778E+00 -0.1639873203390E+00  0.0000000000000E+00 -0.4921457887211E+00
 0.1157665394105E+00 -0.1456448699602E+00  0.0000000000000E+00 -0.4865635885083E+00
 0.9170284838878E-01 -0.1195457109962E+00  0.0000000000000E+00 -0.4785109712184E+00
 0.6164004606260E-01 -0.8715833577276E-01  0.0000000000000E+00 -0.4608175328750E+00
 0.2947301843880E-01 -0.5206080292453E-01  0.0000000000000E+00 -0.4292718276795E+00
 0.8006472300179E-01 -0.1244335233127E+00  0.0000000000000E+00 -0.7046409570437E+00
 0.1074110007765E+00 -0.1496283882609E+00  0.0000000000000E+00 -0.6094429297255E+00
 0.1310409173976E+00 -0.1709934690424E+00  0.0000000000000E+00 -0.5545873572592E+00
 0.1463280578042E+00 -0.1840510616342E+00  0.0000000000000E+00 -0.5268150275156E+00
 0.1512595163833E+00 -0.1868636439234E+00  0.0000000000000E+00 -0.5162374690937E+00
 0.1452958479088E+00 -0.1789177804958E+00  0.0000000000000E+00 -0.5153105735291E+00
 0.1290236068537E+00 -0.1607510488445E+00  0.0000000000000E+00 -0.5179569648034E+00
 0.1038461792014E+00 -0.1336190713125E+00  0.0000000000000E+00 -0.5177986147546E+00
 0.7164038849172E-01 -0.9917206652100E-01  0.0000000000000E+00 -0.5072373811043E+00
 0.3619644922419E-01 -0.6091214639553E-01  0.0000000000000E+00 -0.4798104313209E+00
 0.7371032928745E-01 -0.1206500038233E+00  0.0000000000000E+00 -0.6915551334333E+00
 0.1095120885621E+00 -0.1538479959125E+00  0.0000000000000E+00 -0.5998942863383E+00
 0.1385904217166E+00 -0.1803943037976E+00  0.0000000000000E+00 -0.5517390350105E+00
 0.1575071987040E+00 -0.1969571735251E+00  0.0000000000000E+00 -0.5319535195804E+00
 0.1648345296853E+00 -0.2021519483331E+00  0.0000000000000E+00 -0.5299095912861E+00
 0.1602723313655E+00 -0.1956700129347E+00  0.0000000000000E+00 -0.5378253086947E+00
 0.1443853428377E+00 -0.1780022318039E+00  0.0000000000000E+00 -0.5494179278458E+00
 0.1184124891946E+00 -0.1502256490213E+00  0.0000000000000E+00 -0.5580495703821E+00
 0.8414187784765E-01 -0.1138953803909E+00  0.0000000000000E+00 -0.5555881109940E+00
 0.4505958843021E-01 -0.7218374521527E-01  0.0000000000000E+00 -0.5338158380608E+00
 0.6792256603362E-01 -0.1174635687047E+00  0.0000000000000E+00 -0.6745314760875E+00
 0.1126698338750E+00 -0.1591174612427E+00  0.0000000000000E+00 -0.5880435311200E+00
 0.1474105484736E+00 -0.1910379473975E+00  0.0000000000000E+00 -0.5472092008813E+00
 0.1700879512702E+00 -0.2112292046125E+00  0.0000000000000E+00 -0.5355946787733E+00
 0.1799817313149E+00 -0.2189801372576E+00  0.0000000000000E+00 -0.5421713990782E+00
 0.1770892576336E+00 -0.2142517851180E+00  0.0000000000000E+00 -0.5591269432398E+00
 0.1619576515206E+00 -0.1974970294306E+00  0.0000000000000E+00 -0.5801173309603E+00
 0.1355897491881E+00 -0.1695465182974E+00  0.0000000000000E+00 -0.5983341861230E+00
 0.9949344481290E-01 -0.1316579080932E+00  0.0000000000000E+00 -0.6052138533481E+00
 0.5672242867886E-01 -0.8653598384482E-01  0.0000000000000E+00 -0.5911565886148E+00
 0.6276564872160E-01 -0.1148943523552E+00  0.0000000000000E+00 -0.6534045331865E+00
 0.1167675432415E+00 -0.1652870189497E+00  0.0000000000000E+00 -0.5738127262648E+00
 0.1573110620255E+00 -0.2027080831617E+00  0.0000000000000E+00 -0.5408900677240E+00
 0.1838776371911E+00 -0.2266522758272E+00  0.0000000000000E+00 -0.5375123912163E+00
 0.1965515687747E+00 -0.2371803973656E+00  0.0000000000000E+00 -0.5525993453019E+00
 0.1956702610101E+00 -0.2345698509599E+00  0.0000000000000E+00 -0.5785364308704E+00
 0.1817629522097E+00 -0.2192408507307E+00  0.0000000000000E+00 -0.6091216809746E+00
 0.1555432832585E+00 -0.1917259803225E+00  0.0000000000000E+00 -0.6375802600036E+00
 0.1181034852919E+00 -0.1528503832382E+00  0.0000000000000E+00 -0.6551179457789E+00
 0.7196005798570E-01 -0.1047428190888E+00  0.0000000000000E+00 -0.6510750332521E+00
 0.5830609047090E-01 -0.1129625061297E+00  0.0000000000000E+00 -0.6280722278084E+00
 0.1216702871457E+00 -0.1721877059887E+00  0.0000000000000E+00 -0.5571347037821E+00
 0.1680689639868E+00 -0.2151549639362E+00  0.0000000000000E+00 -0.5326512723480E+00
 0.1986328772055E+00 -0.2429602370748E+00  0.0000000000000E+00 -0.5374337861589E+00
 0.2143215723303E+00 -0.2565087258614E+00  0.0000000000000E+00 -0.5607073335451E+00
 0.2158476356558E+00 -0.2564337779710E+00  0.0000000000000E+00 -0.5952979437309E+00
 0.2037322363573E+00 -0.2431378774319E+00  0.0000000000000E+00 -0.6353843306374E+00
 0.1783735300963E+00 -0.2168346197500E+00  0.0000000000000E+00 -0.6744947534404E+00
 0.1403560122815E+00 -0.1778302934799E+00  0.0000000000000E+00 -0.7038816514696E+00
 0.9158024567038E-01 -0.1276003144473E+00  0.0000000000000E+00 -0.7121714005171E+00
 0.5460959356364E-01 -0.1116860444344E+00  0.0000000000000E+00 -0.5985030576243E+00
 0.1272251936630E+00 -0.1796321380179E+00  0.0000000000000E+00 -0.5379596067523E+00
 0.1794286626898E+00 -0.2280960932648E+00  0.0000000000000E+00 -0.5223547211821E+00
 0.2140591842153E+00 -0.2598349580825E+00  0.0000000000000E+00 -0.5350683745780E+00
 0.2329955021331E+00 -0.2766449669695E+00  0.0000000000000E+00 -0.5659860074591E+00
 0.2373570081695E+00 -0.2795515795127E+00  0.0000000000000E+00 -0.6086161754140E+00
 0.2276826400040E+00 -0.2689712432745E+00  0.0000000000000E+00 -0.6577629199939E+00
 0.2040618315740E+00 -0.2448133819494E+00  0.0000000000000E+00 -0.7075562286764E+00
 0.1665279307059E+00 -0.2068344091506E+00  0.0000000000000E+00 -0.7496346246674E+00
 0.1163327933362E+00 -0.1558303525103E+00  0.0000000000000E+00 -0.7723096013752E+00
 0.5173832161257E-01 -0.1110790700351E+00  0.0000000000000E+00 -0.5647425859406E+00
 0.1332639814123E+00 -0.1874177197655E+00  0.0000000000000E+00 -0.5162631800047E+00
 0.1911059221249E+00 -0.2412205492630E+00  0.0000000000000E+00 -0.5098719175115E+00
 0.2298147988068E+00 -0.2769106966785E+00  0.0000000000000E+00 -0.5301367167777E+00
 0.2522051867922E+00 -0.2971954645020E+00  0.0000000000000E+00 -0.5679413641758E+00
 0.2598318071658E+00 -0.3035258684200E+00  0.0000000000000E+00 -0.6177014317136E+00
 0.2532933383218E+00 -0.2963806414454E+00  0.0000000000000E+00 -0.6750713409101E+00
 0.2324118545452E+00 -0.2754155535893E+00  0.0000000000000E+00 -0.7350696159113E+00
 0.1966886837830E+00 -0.2398735986171E+00  0.0000000000000E+00 -0.7900701485709E+00
 0.1467640697482E+00 -0.1899331681780E+00  0.0000000000000E+00 -0.8285090685601E+00
 0.4974875533876E-01 -0.1111507388768E+00  0.0000000000000E+00 -0.5269180792441E+00
 0.1396077872117E+00 -0.1953321720017E+00  0.0000000000000E+00 -0.4920557141630E+00
 0.2027950739489E+00 -0.2541967673279E+00  0.0000000000000E+00 -0.4951015871553E+00
 0.2455181526846E+00 -0.2937822313568E+00  0.0000000000000E+00 -0.5223986386923E+00
 0.2715158640069E+00 -0.3176994613667E+00  0.0000000000000E+00 -0.5661343566718E+00
 0.2828019731880E+00 -0.3278540531246E+00  0.0000000000000E+00 -0.6218236809598E+00
 0.2800890730105E+00 -0.3248478668462E+00  0.0000000000000E+00 -0.6861575040306E+00
 0.2629969147882E+00 -0.3081577862442E+00  0.0000000000000E+00 -0.7552810075099E+00
 0.2305621250898E+00 -0.2765982291546E+00  0.0000000000000E+00 -0.8225391707003E+00
 0.1828950980675E+00 -0.2298632913747E+00  0.0000000000000E+00 -0.8766713534655E+00
 0.4869027924259E-01 -0.1119050642979E+00  0.0000000000000E+00 -0.4852405042528E+00
 0.1460740162205E+00 -0.2031611353992E+00  0.0000000000000E+00 -0.4653906227850E+00
 0.2141790558042E+00 -0.2666832019312E+00  0.0000000000000E+00 -0.4779865480914E+00
 0.2607588642869E+00 -0.3100166383468E+00  0.0000000000000E+00 -0.5116804495292E+00
 0.2904360106188E+00 -0.3376400066262E+00  0.0000000000000E+00 -0.5602213794746E+00
 0.3056996119121E+00 -0.3519353633222E+00  0.0000000000000E+00 -0.6203720356572E+00
 0.3074367041653E+00 -0.3536953083737E+00  0.0000000000000E+00 -0.6899953727585E+00
 0.2951339693813E+00 -0.3422975117917E+00  0.0000000000000E+00 -0.7665412028010E+00
 0.2674140653024E+00 -0.3161983227275E+00  0.0000000000000E+00 -0.8444017214035E+00
 0.2239032242300E+00 -0.2746990977620E+00  0.0000000000000E+00 -0.9123965992575E+00
 0.4860456044399E-01 -0.1133415716817E+00  0.0000000000000E+00 -0.4400032315748E+00
 0.1524847418908E+00 -0.2106973126194E+00  0.0000000000000E+00 -0.4363720185603E+00
 0.2249417890459E+00 -0.2783413131269E+00  0.0000000000000E+00 -0.4585287454059E+00
 0.2751122913163E+00 -0.3251686379634E+00  0.0000000000000E+00 -0.4978999061495E+00
 0.3084324705637E+00 -0.3564602134915E+00  0.0000000000000E+00 -0.5499941145425E+00
 0.3278727295355E+00 -0.3750859138609E+00  0.0000000000000E+00 -0.6129164340695E+00
 0.3345574118372E+00 -0.3820993177225E+00  0.0000000000000E+00 -0.6857814738032E+00
 0.3278981696756E+00 -0.3768485439779E+00  0.0000000000000E+00 -0.7674825112985E+00
 0.3060893620163E+00 -0.3574379544021E+00  0.0000000000000E+00 -0.8534849094329E+00
 0.2682066261294E+00 -0.3227362294585E+00  0.0000000000000E+00 -0.9323483409001E+00
 0.4952577289212E-01 -0.1154568060702E+00  0.0000000000000E+00 -0.3915770553249E+00
 0.1586760052303E+00 -0.2177504455885E+00  0.0000000000000E+00 -0.4051609816195E+00
 0.2347821685877E+00 -0.2888500206909E+00  0.0000000000000E+00 -0.4368011385709E+00
 0.2881575344268E+00 -0.3387993434726E+00  0.0000000000000E+00 -0.4810864953270E+00
 0.3249516500269E+00 -0.3735856677173E+00  0.0000000000000E+00 -0.5354159262614E+00
 0.3486079713113E+00 -0.3965629448696E+00  0.0000000000000E+00 -0.5992691605198E+00
 0.3605535185724E+00 -0.4091178183674E+00  0.0000000000000E+00 -0.6730293530931E+00
 0.3601737345431E+00 -0.4106302255976E+00  0.0000000000000E+00 -0.7571677687295E+00
 0.3451567467992E+00 -0.3987929192473E+00  0.0000000000000E+00 -0.8483258512476E+00
 0.3138366454764E+00 -0.3718674716143E+00  0.0000000000000E+00 -0.9345698674223E+00
 0.5148183370588E-01 -0.1182468857492E+00  0.0000000000000E+00 -0.3404016117927E+00
 0.1645072214355E+00 -0.2241572876147E+00  0.0000000000000E+00 -0.3719810738264E+00
 0.2434282976368E+00 -0.2979201144017E+00  0.0000000000000E+00 -0.4129553413528E+00
 0.2994982394960E+00 -0.3504974687587E+00  0.0000000000000E+00 -0.4613927255580E+00
 0.3394476541151E+00 -0.3884540684336E+00  0.0000000000000E+00 -0.5166497675953E+00
 0.3671636812092E+00 -0.4155997677760E+00  0.0000000000000E+00 -0.5795425867296E+00
 0.3844474930166E+00 -0.4337309191846E+00  0.0000000000000E+00 -0.6516593084358E+00
 0.3907191294704E+00 -0.4423314082784E+00  0.0000000000000E+00 -0.7351941622003E+00
 0.3830492436649E+00 -0.4385919461775E+00  0.0000000000000E+00 -0.8282285537820E+00
 0.3587311581954E+00 -0.4198801996869E+00  0.0000000000000E+00 -0.9183140186352E+00
 0.5449722860045E-01 -0.1217118850949E+00  0.0000000000000E+00 -0.2869738184008E+00
 0.1698699189392E+00 -0.2297909316953E+00  0.0000000000000E+00 -0.3371260250907E+00
 0.2506495125788E+00 -0.3053058251202E+00  0.0000000000000E+00 -0.3872254169807E+00
 0.3087838051488E+00 -0.3599003450102E+00  0.0000000000000E+00 -0.4390906210949E+00
 0.3514183653938E+00 -0.4005523821999E+00  0.0000000000000E+00 -0.4940659167147E+00
 0.3828160066853E+00 -0.4314560337013E+00  0.0000000000000E+00 -0.5541984769716E+00
 0.4052310651176E+00 -0.4548921078286E+00  0.0000000000000E+00 -0.6220828776328E+00
 0.4182255473619E+00 -0.4705724088827E+00  0.0000000000000E+00 -0.7017649898179E+00
 0.4181581999439E+00 -0.4751107818684E+00  0.0000000000000E+00 -0.7932237645533E+00
 0.4008797167603E+00 -0.4646119074438E+00  0.0000000000000E+00 -0.8837711434018E+00
 0.5859909048356E-01 -0.1258645098318E+00  0.0000000000000E+00 -0.2318350143220E+00
 0.1746956464424E+00 -0.2345693725363E+00  0.0000000000000E+00 -0.3009769366694E+00
 0.2562619050591E+00 -0.3108093681055E+00  0.0000000000000E+00 -0.3599332779303E+00
 0.3157255282826E+00 -0.3667078665871E+00  0.0000000000000E+00 -0.4145465050916E+00
 0.3604472950019E+00 -0.4094596584150E+00  0.0000000000000E+00 -0.4682109203651E+00
 0.3949267290043E+00 -0.4434891851858E+00  0.0000000000000E+00 -0.5240651801429E+00
 0.4219275050463E+00 -0.4716035178355E+00  0.0000000000000E+00 -0.5853087324119E+00
 0.4413581946398E+00 -0.4939409779819E+00  0.0000000000000E+00 -0.6577639229183E+00
 0.4488705017410E+00 -0.5066207203781E+00  0.0000000000000E+00 -0.7440144869906E+00
 0.4383708889802E+00 -0.5039854400208E+00  0.0000000000000E+00 -0.8318123959079E+00
 0.6383086101298E-01 -0.1307459501102E+00  0.0000000000000E+00 -0.1755530671103E+00
 0.1789657672208E+00 -0.2384689190075E+00  0.0000000000000E+00 -0.2640416509320E+00
 0.2601214669705E+00 -0.3142712744132E+00  0.0000000000000E+00 -0.3315148440361E+00
 0.3200943166097E+00 -0.3706756203562E+00  0.0000000000000E+00 -0.3881718330193E+00
 0.3662455693505E+00 -0.4148854286022E+00  0.0000000000000E+00 -0.4397027413405E+00
 0.4030360514172E+00 -0.4512562544698E+00  0.0000000000000E+00 -0.4902879382783E+00
 0.4337075123495E+00 -0.4830377363989E+00  0.0000000000000E+00 -0.5430319005953E+00
 0.4587748012956E+00 -0.5110551544041E+00  0.0000000000000E+00 -0.6050326163142E+00
 0.4735281304426E+00 -0.5312724996428E+00  0.0000000000000E+00 -0.6818901618836E+00
 0.4694184792935E+00 -0.5361014900173E+00  0.0000000000000E+00 -0.7638242048770E+00
 0.7029577216984E-01 -0.1365339325402E+00  0.0000000000000E+00 -0.1188270828729E+00
 0.1826917320478E+00 -0.2414643856951E+00  0.0000000000000E+00 -0.2271321051356E+00
 0.2621002718240E+00 -0.3155471706230E+00  0.0000000000000E+00 -0.3024576962825E+00
 0.3217077748332E+00 -0.3716277173190E+00  0.0000000000000E+00 -0.3604505005647E+00
 0.3686322765838E+00 -0.4166064634606E+00  0.0000000000000E+00 -0.4090633490533E+00
 0.4070019825698E+00 -0.4546514226248E+00  0.0000000000000E+00 -0.4539794128459E+00
 0.4400983957657E+00 -0.4888186954499E+00  0.0000000000000E+00 -0.4977644545329E+00
 0.4692722445321E+00 -0.5206567417787E+00  0.0000000000000E+00 -0.5467751507944E+00
 0.4902243084296E+00 -0.5470803283969E+00  0.0000000000000E+00 -0.6096379724925E+00
 0.4931369436090E+00 -0.5593971811273E+00  0.0000000000000E+00 -0.6824778070478E+00
 0.1964356750222E+00 -0.3023904289621E+00  0.0000000000000E+00 -0.3087816454337E+00
 0.7680399385822E-01 -0.7839207871823E-01  0.0000000000000E+00  0.8004984046090E-01
-0.5865655158011E-03  0.4669895604550E-02  0.0000000000000E+00  0.8600221965718E-02
-0.2078285696623E-01  0.2633692690965E-01  0.0000000000000E+00 -0.1734195776886E-01
-0.3098799942035E-01  0.3639137424373E-01  0.0000000000000E+00 -0.1033719545827E-01
-0.3217573755931E-01  0.3693702374758E-01  0.0000000000000E+00  0.1158719735465E-01
-0.2503124812768E-01  0.2939345195039E-01  0.0000000000000E+00  0.4171675441535E-01
-0.1085993632748E-01  0.1514019477030E-01  0.0000000000000E+00  0.6813976671947E-01
 0.6235773254330E-02 -0.1423250615313E-02  0.0000000000000E+00  0.8363376121095E-01
 0.2423731838938E-01 -0.1887125022510E-01  0.0000000000000E+00  0.9319236810722E-01
 0.2345011387461E+00 -0.2908968543809E+00  0.0000000000000E+00 -0.4877603829674E+00
 0.1576915473863E+00 -0.1847794761229E+00  0.0000000000000E+00 -0.1016400756519E+00
 0.5794190729146E-01 -0.6162486160295E-01  0.0000000000000E+00 -0.1324567071918E-01
 0.1255271405544E-01 -0.1153063329642E-01  0.0000000000000E+00 -0.1109844061276E-01
-0.9445812939990E-02  0.1171847630338E-01  0.0000000000000E+00 -0.4903736534853E-02
-0.1880498817237E-01  0.2134537143576E-01  0.0000000000000E+00  0.1214705562053E-01
-0.1806113888328E-01  0.2068471680590E-01  0.0000000000000E+00  0.3588940988189E-01
-0.9210562904024E-02  0.1197303173709E-01  0.0000000000000E+00  0.5748943513393E-01
 0.3265835776594E-02 -0.1610559121181E-03  0.0000000000000E+00  0.6999160402177E-01
 0.1659120697047E-01 -0.1271018391854E-01  0.0000000000000E+00  0.7798586523080E-01
 0.2196731823461E+00 -0.2620116738964E+00  0.0000000000000E+00 -0.5648130091387E+00
 0.1796569318293E+00 -0.2067504387653E+00  0.0000000000000E+00 -0.2612494382066E+00
 0.1033875877539E+00 -0.1165158644196E+00  0.0000000000000E+00 -0.1079608939268E+00
 0.4838245893846E-01 -0.5272134569848E-01  0.0000000000000E+00 -0.4753420960431E-01
 0.1545516841157E-01 -0.1687614180227E-01  0.0000000000000E+00 -0.2217571505431E-01
-0.2042595480160E-02  0.1889910777896E-02  0.0000000000000E+00 -0.1517723769841E-02
-0.8209075537335E-02  0.8675620797235E-02  0.0000000000000E+00  0.1965795795269E-01
-0.5516644474384E-02  0.6386411971003E-02  0.0000000000000E+00  0.3793262389912E-01
 0.1447736302347E-02 -0.1346019290389E-03  0.0000000000000E+00  0.4879935520884E-01
 0.9748469204178E-02 -0.7665651994628E-02  0.0000000000000E+00  0.5547814339044E-01
 0.2005257701904E+00 -0.2362124453866E+00  0.0000000000000E+00 -0.6110663519294E+00
 0.1781384792972E+00 -0.2049705170501E+00  0.0000000000000E+00 -0.3732354504547E+00
 0.1245384438271E+00 -0.1417720755411E+00  0.0000000000000E+00 -0.2089082462049E+00
 0.7538978649905E-01 -0.8523987439426E-01  0.0000000000000E+00 -0.1154173149829E+00
 0.3902967457965E-01 -0.4453570263375E-01  0.0000000000000E+00 -0.6414221022043E-01
 0.1569334772559E-01 -0.1899002846707E-01  0.0000000000000E+00 -0.3191069588824E-01
 0.3343284438218E-02 -0.5437106262985E-02  0.0000000000000E+00 -0.8464597749153E-02
-0.2396380349454E-03 -0.1095527605605E-02  0.0000000000000E+00  0.8616242981317E-02
 0.1037584504306E-02 -0.1755163240785E-02  0.0000000000000E+00  0.1906289749537E-01
 0.4316554621381E-02 -0.4193367016427E-02  0.0000000000000E+00  0.2587843863730E-01
 0.1820900727784E+00 -0.2146097555226E+00  0.0000000000000E+00 -0.6422557103019E+00
 0.1682470414745E+00 -0.1950427189914E+00  0.0000000000000E+00 -0.4532857151883E+00
 0.1314482425902E+00 -0.1514103330452E+00  0.0000000000000E+00 -0.2970095548222E+00
 0.9164263882329E-01 -0.1056152938774E+00  0.0000000000000E+00 -0.1911548942373E+00
 0.5751633361019E-01 -0.6714592356807E-01  0.0000000000000E+00 -0.1228252889521E+00
 0.3200649405310E-01 -0.3875358856017E-01  0.0000000000000E+00 -0.7772996203301E-01
 0.1526071169065E-01 -0.2026246828152E-01  0.0000000000000E+00 -0.4866388142586E-01
 0.6221943706636E-02 -0.1007586372006E-01  0.0000000000000E+00 -0.3052571497831E-01
 0.2267114991984E-02 -0.5249291316313E-02  0.0000000000000E+00 -0.1911360011175E-01
 0.7240284032717E-03 -0.2730923162332E-02  0.0000000000000E+00 -0.1074751645185E-01
 0.1656890582637E+00 -0.1968594397717E+00  0.0000000000000E+00 -0.6653649186870E+00
 0.1558421285291E+00 -0.1830977035943E+00  0.0000000000000E+00 -0.5111238412174E+00
 0.1309307777568E+00 -0.1530946910069E+00  0.0000000000000E+00 -0.3699607759156E+00
 0.1003312143995E+00 -0.1176990484973E+00  0.0000000000000E+00 -0.2639851256542E+00
 0.7076287834550E-01 -0.8415081906861E-01  0.0000000000000E+00 -0.1881871036375E+00
 0.4576085455677E-01 -0.5607797628267E-01  0.0000000000000E+00 -0.1343588174025E+00
 0.2668697857063E-01 -0.3485564796197E-01  0.0000000000000E+00 -0.9925092596414E-01
 0.1358524718322E-01 -0.2023773321940E-01  0.0000000000000E+00 -0.7846722926497E-01
 0.5376239261531E-02 -0.1085040441316E-01  0.0000000000000E+00 -0.6486641142978E-01
-0.5317355814012E-03 -0.3769855859527E-02  0.0000000000000E+00 -0.5386836128649E-01
 0.1513395845410E+00 -0.1822862498716E+00  0.0000000000000E+00 -0.6835027968051E+00
 0.1435856223129E+00 -0.1717376030704E+00  0.0000000000000E+00 -0.5533189540848E+00
 0.1271755001902E+00 -0.1514356167804E+00  0.0000000000000E+00 -0.4289306913266E+00
 0.1046565013648E+00 -0.1250390060230E+00  0.0000000000000E+00 -0.3297788979639E+00
 0.8033282628137E-01 -0.9720500922953E-01  0.0000000000000E+00 -0.2540340133141E+00
 0.5731803714087E-01 -0.7118057285559E-01  0.0000000000000E+00 -0.1967783610166E+00
 0.3750644634446E-01 -0.4900613012917E-01  0.0000000000000E+00 -0.1574072154897E+00
 0.2180932537245E-01 -0.3148706867553E-01  0.0000000000000E+00 -0.1333013448885E+00
 0.1060734117636E-01 -0.1876033547197E-01  0.0000000000000E+00 -0.1164413193383E+00
 0.1111502569898E-02 -0.7839060564317E-02  0.0000000000000E+00 -0.1022233055428E+00
 0.1387694236056E+00 -0.1702507334657E+00  0.0000000000000E+00 -0.6980954576279E+00
 0.1326981671128E+00 -0.1621267606922E+00  0.0000000000000E+00 -0.5841289463683E+00
 0.1227265939585E+00 -0.1491364646846E+00  0.0000000000000E+00 -0.4758233094075E+00
 0.1071689374840E+00 -0.1304171135736E+00  0.0000000000000E+00 -0.3871918967272E+00
 0.8809644999181E-01 -0.1082946028758E+00  0.0000000000000E+00 -0.3168802946808E+00
 0.6779938005602E-01 -0.8517171161667E-01  0.0000000000000E+00 -0.2611786407225E+00
 0.4821134851116E-01 -0.6316559965895E-01  0.0000000000000E+00 -0.2203624598264E+00
 0.3097818843711E-01 -0.4383693181684E-01  0.0000000000000E+00 -0.1928724627675E+00
 0.1797580799865E-01 -0.2893201421030E-01  0.0000000000000E+00 -0.1714080534155E+00
 0.6155801369557E-02 -0.1531800818404E-01  0.0000000000000E+00 -0.1535457964929E+00
 0.1276438431510E+00 -0.1602002509621E+00  0.0000000000000E+00 -0.7096516529515E+00
 0.1237051248286E+00 -0.1547472260063E+00  0.0000000000000E+00 -0.6063187020872E+00
 0.1191166573962E+00 -0.1477852628660E+00  0.0000000000000E+00 -0.5123666237257E+00
 0.1097539177090E+00 -0.1358495190033E+00  0.0000000000000E+00 -0.4359079148371E+00
 0.9580678297665E-01 -0.1192751157665E+00  0.0000000000000E+00 -0.3747169504104E+00
 0.7857596878832E-01 -0.9945819078335E-01  0.0000000000000E+00 -0.3247988438796E+00
 0.5979749913381E-01 -0.7828743923335E-01  0.0000000000000E+00 -0.2858247752398E+00
 0.4125281978441E-01 -0.5757416071752E-01  0.0000000000000E+00 -0.2561841971856E+00
 0.2677480087943E-01 -0.4047006053095E-01  0.0000000000000E+00 -0.2277845409698E+00
 0.1471240158179E-01 -0.2607731450154E-01  0.0000000000000E+00 -0.2043607204833E+00
 0.1176751890989E+00 -0.1518175818368E+00  0.0000000000000E+00 -0.7184270807736E+00
 0.1166942716597E+00 -0.1495589664204E+00  0.0000000000000E+00 -0.6218243945697E+00
 0.1171690085679E+00 -0.1482481011509E+00  0.0000000000000E+00 -0.5397111354478E+00
 0.1137657397184E+00 -0.1427459704301E+00  0.0000000000000E+00 -0.4757605002758E+00
 0.1049893328439E+00 -0.1317467167802E+00  0.0000000000000E+00 -0.4260728448848E+00
 0.9107026694577E-01 -0.1155097973196E+00  0.0000000000000E+00 -0.3854646451731E+00
 0.7340400349889E-01 -0.9551583597708E-01  0.0000000000000E+00 -0.3514372974313E+00
 0.5406865690532E-01 -0.7390737090523E-01  0.0000000000000E+00 -0.3219574712509E+00
 0.3609642130809E-01 -0.5353947679797E-01  0.0000000000000E+00 -0.2892073527012E+00
 0.2501678874679E-01 -0.3695195817116E-01  0.0000000000000E+00 -0.2525071805916E+00
 0.8221506702267E-01 -0.1454860089863E+00  0.0000000000000E+00 -0.6523610003367E-01
 0.1905128338451E+00 -0.2469268256871E+00  0.0000000000000E+00 -0.1891922149079E+00
 0.2666499980852E+00 -0.3180871392384E+00  0.0000000000000E+00 -0.2696725603136E+00
 0.3246881542855E+00 -0.3728454689097E+00  0.0000000000000E+00 -0.3268973573342E+00
 0.3715155967657E+00 -0.4180094729775E+00  0.0000000000000E+00 -0.3702001837971E+00
 0.4113031022176E+00 -0.4577642556201E+00  0.0000000000000E+00 -0.4062537895712E+00
 0.4461828196192E+00 -0.4945661191301E+00  0.0000000000000E+00 -0.4378265708809E+00
 0.4782043824880E+00 -0.5304650727038E+00  0.0000000000000E+00 -0.4748207594934E+00
 0.5055149737819E+00 -0.5633892520009E+00  0.0000000000000E+00 -0.5324712269829E+00
 0.5183056858524E+00 -0.5830094089348E+00  0.0000000000000E+00 -0.6169973853719E+00
 0.9370519279703E-01 -0.1560071208125E+00  0.0000000000000E+00 -0.6039586451391E-02
 0.1995627262528E+00 -0.2538657302090E+00  0.0000000000000E+00 -0.1444249539534E+00
 0.2716317924061E+00 -0.3205743834438E+00  0.0000000000000E+00 -0.2293554338336E+00
 0.3266932649026E+00 -0.3722511210017E+00  0.0000000000000E+00 -0.2837842037986E+00
 0.3721396301286E+00 -0.4161553086216E+00  0.0000000000000E+00 -0.3185892718946E+00
 0.4120540811175E+00 -0.4564820322872E+00  0.0000000000000E+00 -0.3427685879872E+00
 0.4482375990219E+00 -0.4953600343551E+00  0.0000000000000E+00 -0.3622682610258E+00
 0.4842114700387E+00 -0.5362933548768E+00  0.0000000000000E+00 -0.3960680564378E+00
 0.5191367665087E+00 -0.5782173186510E+00  0.0000000000000E+00 -0.4640361040555E+00
 0.5348259909177E+00 -0.6042587304840E+00  0.0000000000000E+00 -0.5618194705148E+00
 0.1049177305825E+00 -0.1654928689190E+00  0.0000000000000E+00  0.4862707916063E-01
 0.2057044874217E+00 -0.2575694705227E+00  0.0000000000000E+00 -0.1064835494666E+00
 0.2714196656751E+00 -0.3173982849017E+00  0.0000000000000E+00 -0.1940653482957E+00
 0.3209957361442E+00 -0.3633599293908E+00  0.0000000000000E+00 -0.2422764239787E+00
 0.3627619141635E+00 -0.4035932338764E+00  0.0000000000000E+00 -0.2645302052820E+00
 0.4010251585282E+00 -0.4425509628968E+00  0.0000000000000E+00 -0.2726842959635E+00
 0.4377784588909E+00 -0.4827608932548E+00  0.0000000000000E+00 -0.2756919315734E+00
 0.4784134634785E+00 -0.5297055247255E+00  0.0000000000000E+00 -0.3007497373874E+00
 0.5219993952827E+00 -0.5825875991381E+00  0.0000000000000E+00 -0.3745120584603E+00
 0.5423678433628E+00 -0.6156974188426E+00  0.0000000000000E+00 -0.4888814082965E+00
 0.1161495807367E+00 -0.1747494400122E+00  0.0000000000000E+00  0.9846360692169E-01
 0.2088433448236E+00 -0.2578817770937E+00  0.0000000000000E+00 -0.7552976767494E-01
 0.2652129825478E+00 -0.3078022309981E+00  0.0000000000000E+00 -0.1651792603720E+00
 0.3066770683348E+00 -0.3452759857966E+00  0.0000000000000E+00 -0.2045576099141E+00
 0.3423693903711E+00 -0.3792834978381E+00  0.0000000000000E+00 -0.2109008907083E+00
 0.3768889511158E+00 -0.4146300427546E+00  0.0000000000000E+00 -0.1992391326094E+00
 0.4125397568427E+00 -0.4544085054722E+00  0.0000000000000E+00 -0.1819115176628E+00
 0.4568238802225E+00 -0.5064709825944E+00  0.0000000000000E+00 -0.1943493847770E+00
 0.5105220184033E+00 -0.5719202659415E+00  0.0000000000000E+00 -0.2730036832227E+00
 0.5385773433745E+00 -0.6157325680697E+00  0.0000000000000E+00 -0.4043953243493E+00
 0.1275091270840E+00 -0.1840810054712E+00  0.0000000000000E+00  0.1422919376408E+00
 0.2088998919268E+00 -0.2548586648151E+00  0.0000000000000E+00 -0.5356309313167E-01
 0.2524631280474E+00 -0.2912558026932E+00  0.0000000000000E+00 -0.1445416298193E+00
 0.2830474778439E+00 -0.3173140908580E+00  0.0000000000000E+00 -0.1729020487814E+00
 0.3102740438405E+00 -0.3425400429342E+00  0.0000000000000E+00 -0.1608660066480E+00
 0.3387712421023E+00 -0.3718037288518E+00  0.0000000000000E+00 -0.1270754643260E+00
 0.3712336353653E+00 -0.4088519521663E+00  0.0000000000000E+00 -0.8810274821165E-01
 0.4176771728598E+00 -0.4644159202586E+00  0.0000000000000E+00 -0.8606229352001E-01
 0.4823659452580E+00 -0.5436526530940E+00  0.0000000000000E+00 -0.1677714912513E+00
 0.5206963310601E+00 -0.6014827829962E+00  0.0000000000000E+00 -0.3128859083828E+00
 0.1390370718459E+00 -0.1937969409817E+00  0.0000000000000E+00  0.1786057351169E+00
 0.2054729735705E+00 -0.2481977023171E+00  0.0000000000000E+00 -0.4355432735189E-01
 0.2323927611338E+00 -0.2669757388824E+00  0.0000000000000E+00 -0.1342775941958E+00
 0.2495759733468E+00 -0.2789044327919E+00  0.0000000000000E+00 -0.1491419109494E+00
 0.2663820520897E+00 -0.2932906167816E+00  0.0000000000000E+00 -0.1173545153172E+00
 0.2868601664993E+00 -0.3142645975833E+00  0.0000000000000E+00 -0.6158499631123E-01
 0.3141760254397E+00 -0.3462497092899E+00  0.0000000000000E+00 -0.3039138656688E-02
 0.3607976024796E+00 -0.4030461929535E+00  0.0000000000000E+00  0.1343645915695E-01
 0.4360167810399E+00 -0.4959143996249E+00  0.0000000000000E+00 -0.6890539274680E-01
 0.4857561670240E+00 -0.5697860919000E+00  0.0000000000000E+00 -0.2212037329721E+00
 0.1505834313632E+00 -0.2041827718675E+00  0.0000000000000E+00  0.2050888284253E+00
 0.1974014754140E+00 -0.2368203975064E+00  0.0000000000000E+00 -0.4964396870323E-01
 0.2035780140304E+00 -0.2333624663451E+00  0.0000000000000E+00 -0.1358813804750E+00
 0.2059339871018E+00 -0.2296302075874E+00  0.0000000000000E+00 -0.1333790914247E+00
 0.2116402414113E+00 -0.2325604241872E+00  0.0000000000000E+00 -0.8196467157178E-01
 0.2229581767191E+00 -0.2439644576067E+00  0.0000000000000E+00 -0.8261462749266E-02
 0.2435225585426E+00 -0.2686561035071E+00  0.0000000000000E+00  0.6338295756237E-01
 0.2877400543085E+00 -0.3235464462904E+00  0.0000000000000E+00  0.9175376441029E-01
 0.3710705952731E+00 -0.4278496030474E+00  0.0000000000000E+00  0.1114907497549E-01
 0.4308758747767E+00 -0.5174913154936E+00  0.0000000000000E+00 -0.1389911213659E+00
 0.1611664931938E+00 -0.2152541630043E+00  0.0000000000000E+00  0.2173258146100E+00
 0.1816979593914E+00 -0.2175926277721E+00  0.0000000000000E+00 -0.7744293130051E-01
 0.1633683863564E+00 -0.1873140739684E+00  0.0000000000000E+00 -0.1482799957184E+00
 0.1524667865706E+00 -0.1695640331049E+00  0.0000000000000E+00 -0.1212479587609E+00
 0.1490519341427E+00 -0.1637945925391E+00  0.0000000000000E+00 -0.5375902203867E-01
 0.1511603544842E+00 -0.1652635160724E+00  0.0000000000000E+00  0.2687002235316E-01
 0.1636056474247E+00 -0.1803816503622E+00  0.0000000000000E+00  0.9989167159117E-01
 0.2020690329783E+00 -0.2290181798883E+00  0.0000000000000E+00  0.1345350470460E+00
 0.2884717265743E+00 -0.3398244169723E+00  0.0000000000000E+00  0.5732147625627E-01
 0.3534738510195E+00 -0.4416755352748E+00  0.0000000000000E+00 -0.7920464166352E-01
 0.1674418437182E+00 -0.2259871074776E+00  0.0000000000000E+00  0.2059355120686E+00
 0.1499164947253E+00 -0.1817508168338E+00  0.0000000000000E+00 -0.1354996780047E+00
 0.1075322793235E+00 -0.1222642325910E+00  0.0000000000000E+00 -0.1596139172080E+00
 0.9326593275880E-01 -0.1038439998528E+00  0.0000000000000E+00 -0.9977647799618E-01
 0.8498318391743E-01 -0.9379236066360E-01  0.0000000000000E+00 -0.3193717421269E-01
 0.7807896146975E-01 -0.8523262199959E-01  0.0000000000000E+00  0.3615664986871E-01
 0.8116043229025E-01 -0.8817376464941E-01  0.0000000000000E+00  0.9384396528446E-01
 0.1098759670402E+00 -0.1251337161436E+00  0.0000000000000E+00  0.1255069817848E+00
 0.1908599358751E+00 -0.2335042109259E+00  0.0000000000000E+00  0.5090132217655E-01
 0.2511286329213E+00 -0.3396746804711E+00  0.0000000000000E+00 -0.5844248905770E-01
 0.1392399917074E+00 -0.2231055784942E+00  0.0000000000000E+00  0.1285357918783E+00
 0.8168513844556E-01 -0.9351102361542E-01  0.0000000000000E+00 -0.2061214346113E+00
 0.4529786907450E-01 -0.5189879365450E-01  0.0000000000000E+00 -0.1288376195284E+00
 0.3831095260267E-01 -0.4297619434151E-01  0.0000000000000E+00 -0.6306668636739E-01
 0.2719420021442E-01 -0.3039392372497E-01  0.0000000000000E+00 -0.1876687869366E-01
 0.1304347813710E-01 -0.1386856994119E-01  0.0000000000000E+00  0.1318859107585E-01
 0.7012930515763E-02 -0.3635625134195E-02  0.0000000000000E+00  0.3079469458645E-01
 0.1979259240830E-01 -0.1897251343372E-01  0.0000000000000E+00  0.4347703858317E-01
 0.8257650810454E-01 -0.1133220322060E+00  0.0000000000000E+00 -0.2766539783293E-01
 0.1227996906323E+00 -0.2087090122880E+00  0.0000000000000E+00 -0.1022354504300E+00
 0.7517638504535E-02 -0.2111583306686E-01  0.0000000000000E+00 -0.2570282317516E+00
 0.1956869821920E-02 -0.1181669041026E-01  0.0000000000000E+00 -0.2040089746985E+00
 0.8373442407095E-04 -0.7360937711396E-02  0.0000000000000E+00 -0.1524117707773E+00
 0.5836372336647E-03 -0.5696636164283E-02  0.0000000000000E+00 -0.1037014675262E+00
 0.3086391036314E-02 -0.6232463723433E-02  0.0000000000000E+00 -0.5881156306129E-01
 0.7394999266731E-02 -0.8644513539136E-02  0.0000000000000E+00 -0.1853415377387E-01
 0.1331962574408E-01 -0.1268902932308E-01  0.0000000000000E+00  0.1660949635015E-01
 0.2068650496764E-01 -0.1816804049657E-01  0.0000000000000E+00  0.4634683067085E-01
 0.2933848793878E-01 -0.2495018718437E-01  0.0000000000000E+00  0.7048067765143E-01
 0.3952646171126E-01 -0.3314669367939E-01  0.0000000000000E+00  0.8884408363373E-01
 0.7867073349378E-02 -0.2426978588238E-01  0.0000000000000E+00 -0.2940076726365E+00
 0.2721730446869E-02 -0.1535830882539E-01  0.0000000000000E+00 -0.2325326331701E+00
-0.1806367859715E-02 -0.7749920427470E-02  0.0000000000000E+00 -0.1764196765793E+00
-0.3457176836671E-02 -0.3420438335515E-02  0.0000000000000E+00 -0.1251364338318E+00
-0.1855004954506E-02 -0.2565901986010E-02  0.0000000000000E+00 -0.7832890657156E-01
 0.2829434204949E-02 -0.4920403251397E-02  0.0000000000000E+00 -0.3614014447122E-01
 0.1021343821854E-01 -0.1004438127121E-01  0.0000000000000E+00  0.1179363123470E-02
 0.1986299747844E-01 -0.1747485178007E-01  0.0000000000000E+00  0.3346143216669E-01
 0.3146038951006E-01 -0.2685327727246E-01  0.0000000000000E+00  0.6070446054724E-01
 0.4476794750437E-01 -0.3799181606551E-01  0.0000000000000E+00  0.8310212269881E-01
 0.7465567672874E-02 -0.2556227255863E-01  0.0000000000000E+00 -0.3320383311095E+00
 0.1677834085381E-02 -0.1661149215929E-01  0.0000000000000E+00 -0.2720557991533E+00
-0.3585102998994E-02 -0.8185498106362E-02  0.0000000000000E+00 -0.2122788234587E+00
-0.6307292160041E-02 -0.2498446341267E-02  0.0000000000000E+00 -0.1559925253268E+00
-0.5436521193062E-02 -0.5528974899266E-03  0.0000000000000E+00 -0.1039720733724E+00
-0.7701900769135E-03 -0.2509939514495E-02  0.0000000000000E+00 -0.5668226703302E-01
 0.7410056464678E-02 -0.8061586896880E-02  0.0000000000000E+00 -0.1453197941439E-01
 0.1857326861665E-01 -0.1665465138046E-01  0.0000000000000E+00  0.2225262418614E-01
 0.3212041683346E-01 -0.2767230045641E-01  0.0000000000000E+00  0.5381286773319E-01
 0.4763138644950E-01 -0.4065529670289E-01  0.0000000000000E+00  0.8061746449305E-01
 0.8018697768287E-02 -0.2805554983211E-01  0.0000000000000E+00 -0.3745120737024E+00
-0.6634270623795E-04 -0.1699523994894E-01  0.0000000000000E+00 -0.3167958312254E+00
-0.6539290384117E-02 -0.7430402956017E-02  0.0000000000000E+00 -0.2555051086955E+00
-0.1016559300154E-01 -0.6859007837250E-03  0.0000000000000E+00 -0.1946447234874E+00
-0.9865050828678E-02  0.2104683216486E-02  0.0000000000000E+00 -0.1364275254762E+00
-0.5164814160632E-02  0.4568659544109E-03  0.0000000000000E+00 -0.8229670424014E-01
 0.3812194245580E-02 -0.5519077401433E-02  0.0000000000000E+00 -0.3340851265696E-01
 0.1647731757299E-01 -0.1524648240256E-01  0.0000000000000E+00  0.9427815994810E-02
 0.3194492041388E-01 -0.2784128438720E-01  0.0000000000000E+00  0.4597934445979E-01
 0.4927853202980E-01 -0.4231580405581E-01  0.0000000000000E+00  0.7695036463205E-01
 0.1022376209342E-01 -0.3245257492168E-01  0.0000000000000E+00 -0.4227057479188E+00
-0.1195271454777E-02 -0.1818975704815E-01  0.0000000000000E+00 -0.3668513185820E+00
-0.1007137759765E-01 -0.6252269744571E-02  0.0000000000000E+00 -0.3048247929808E+00
-0.1542567095859E-01  0.2317925185355E-02  0.0000000000000E+00 -0.2401373265050E+00
-0.1620884825397E-01  0.6426103203831E-02  0.0000000000000E+00 -0.1756147611282E+00
-0.1175138045023E-01  0.5356229684094E-02  0.0000000000000E+00 -0.1136949933843E+00
-0.1970208258403E-02 -0.1025045419342E-02  0.0000000000000E+00 -0.5664666478760E-01
 0.1256772519779E-01 -0.1220562499812E-01  0.0000000000000E+00 -0.6450966475680E-02
 0.3070046973148E-01 -0.2706755096201E-01  0.0000000000000E+00  0.3560083895996E-01
 0.5076958244414E-01 -0.4400722743912E-01  0.0000000000000E+00  0.6934816472477E-01
 0.1460097825519E-01 -0.3935157111817E-01  0.0000000000000E+00 -0.4773257916552E+00
-0.7352872987294E-03 -0.2131066075579E-01  0.0000000000000E+00 -0.4239307733653E+00
-0.1308879988926E-01 -0.5960465029382E-02  0.0000000000000E+00 -0.3619980397391E+00
-0.2136160730727E-01  0.5584560970596E-02  0.0000000000000E+00 -0.2942944713679E+00
-0.2433496925512E-01  0.1207705442548E-01  0.0000000000000E+00 -0.2236815372881E+00
-0.2100950201247E-01  0.1247214482232E-01  0.0000000000000E+00 -0.1532337331796E+00
-0.1090552803650E-01  0.6214348932752E-02  0.0000000000000E+00 -0.8639281107886E-01
 0.5665767401549E-02 -0.6485783491949E-02  0.0000000000000E+00 -0.2680619615154E-01
 0.2742353687732E-01 -0.2445867377151E-01  0.0000000000000E+00  0.2229342330141E-01
 0.5218671689056E-01 -0.4561567074406E-01  0.0000000000000E+00  0.5885882331449E-01
 0.2192107504660E-01 -0.4954663620252E-01  0.0000000000000E+00 -0.5385867793436E+00
 0.2347596493301E-02 -0.2749693332047E-01  0.0000000000000E+00 -0.4893777864463E+00
-0.1431027154178E-01 -0.7994001739359E-02  0.0000000000000E+00 -0.4292310118111E+00
-0.2671585328957E-01  0.7647818003267E-02  0.0000000000000E+00 -0.3600597703747E+00
-0.3333191383012E-01  0.1790129870635E-01  0.0000000000000E+00 -0.2842640648590E+00
-0.3263867304434E-01  0.2123135073382E-01  0.0000000000000E+00 -0.2049862206996E+00
-0.2343472429963E-01  0.1637456471018E-01  0.0000000000000E+00 -0.1264638031811E+00
-0.5290130072432E-02  0.2759977698910E-02  0.0000000000000E+00 -0.5420931228695E-01
 0.2088144002973E-01 -0.1888361713711E-01  0.0000000000000E+00  0.5570176145004E-02
 0.5253351183025E-01 -0.4617691496568E-01  0.0000000000000E+00  0.4762492630366E-01
 0.3317845812577E-01 -0.6405825304144E-01  0.0000000000000E+00 -0.6060370927889E+00
 0.9320285531981E-02 -0.3808398573243E-01  0.0000000000000E+00 -0.5635153364531E+00
-0.1214527065865E-01 -0.1406923116932E-01  0.0000000000000E+00 -0.5078799677568E+00
-0.2971921079431E-01  0.6550378490525E-02  0.0000000000000E+00 -0.4400227081790E+00
-0.4154559691986E-01  0.2198141690544E-01  0.0000000000000E+00 -0.3613648399336E+00
-0.4549375151798E-01  0.3014416688107E-01  0.0000000000000E+00 -0.2743142324377E+00
-0.3934491843074E-01  0.2883225195767E-01  0.0000000000000E+00 -0.1829447476327E+00
-0.2120593787489E-01  0.1607096235009E-01  0.0000000000000E+00 -0.9387591833350E-01
 0.9480189625638E-02 -0.9004496135226E-02  0.0000000000000E+00 -0.1698157514155E-01
 0.5045103313355E-01 -0.4447422891271E-01  0.0000000000000E+00  0.3642955943559E-01
 0.4956269994169E-01 -0.8409332182323E-01  0.0000000000000E+00 -0.6785311090300E+00
 0.2183350742625E-01 -0.5477377557822E-01  0.0000000000000E+00 -0.6456412744948E+00
-0.4399912196359E-02 -0.2648434554252E-01  0.0000000000000E+00 -0.5982326805858E+00
-0.2767772595188E-01 -0.5846360467938E-03  0.0000000000000E+00 -0.5360290903260E+00
-0.4599942643103E-01  0.2104535987331E-01  0.0000000000000E+00 -0.4590196854549E+00
-0.5676059277300E-01  0.3594203553301E-01  0.0000000000000E+00 -0.3679942091245E+00
-0.5670879802137E-01  0.4100487539149E-01  0.0000000000000E+00 -0.2653943188736E+00
-0.4200463300328E-01  0.3251841196379E-01  0.0000000000000E+00 -0.1567654971737E+00
-0.8768476030260E-02  0.6548172814516E-02  0.0000000000000E+00 -0.5343124524474E-01
 0.4393809111045E-01 -0.3877820835374E-01  0.0000000000000E+00  0.2398156702375E-01
 0.7234896249002E-01 -0.1109268388455E+00  0.0000000000000E+00 -0.7539234966575E+00
 0.4187737937338E-01 -0.7957903470627E-01  0.0000000000000E+00 -0.7336150804412E+00
 0.1180540888130E-01 -0.4818869966056E-01  0.0000000000000E+00 -0.6987858398057E+00
-0.1668549260975E-01 -0.1781700687909E-01  0.0000000000000E+00 -0.6480545317139E+00
-0.4174442807918E-01  0.9849892068579E-02  0.0000000000000E+00 -0.5798577886982E+00
-0.6067761444545E-01  0.3234046664742E-01  0.0000000000000E+00 -0.4928384315791E+00
-0.6965617062695E-01  0.4612753405852E-01  0.0000000000000E+00 -0.3864882728069E+00
-0.6324228176030E-01  0.4618929465323E-01  0.0000000000000E+00 -0.2624253979305E+00
-0.3361725821084E-01  0.2529387395631E-01  0.0000000000000E+00 -0.1273586906511E+00
 0.2966704134245E-01 -0.2661114853241E-01  0.0000000000000E+00 -0.2550599471854E-02
 0.1026898917507E+00 -0.1456832193372E+00  0.0000000000000E+00 -0.8286316861443E+00
 0.7154224040504E-01 -0.1145609254629E+00  0.0000000000000E+00 -0.8230981692322E+00
 0.3985197675829E-01 -0.8256493089091E-01  0.0000000000000E+00 -0.8048952625605E+00
 0.8415860481898E-02 -0.5038032414270E-01  0.0000000000000E+00 -0.7720327339235E+00
-0.2127044866429E-01 -0.1933530966219E-01  0.0000000000000E+00 -0.7219870163535E+00
-0.4679037656849E-01  0.8396611001146E-02  0.0000000000000E+00 -0.6518014580271E+00
-0.6437602384340E-01  0.2940838976892E-01  0.0000000000000E+00 -0.5582395200077E+00
-0.6808532606710E-01  0.3832779565584E-01  0.0000000000000E+00 -0.4380991558419E+00
-0.4805052251871E-01  0.2629473454532E-01  0.0000000000000E+00 -0.2889987037667E+00
 0.1498348264204E-01 -0.2335744603565E-01  0.0000000000000E+00 -0.1129447166675E+00
 0.1409690891153E+00 -0.1886622875014E+00  0.0000000000000E+00 -0.8963861593204E+00
 0.1118884334517E+00 -0.1606611415504E+00  0.0000000000000E+00 -0.9047788420252E+00
 0.8179300121328E-01 -0.1315254608161E+00  0.0000000000000E+00 -0.9031466028271E+00
 0.5114724346856E-01 -0.1016521440321E+00  0.0000000000000E+00 -0.8891791842551E+00
 0.2104128999069E-01 -0.7201986976006E-01  0.0000000000000E+00 -0.8597497916992E+00
-0.6597788711050E-02 -0.4438698228009E-01  0.0000000000000E+00 -0.8106985518731E+00
-0.2862293369853E-01 -0.2164444270239E-01  0.0000000000000E+00 -0.7364445694460E+00
-0.3996696178947E-01 -0.8451731184907E-02  0.0000000000000E+00 -0.6291229511576E+00
-0.3222562901766E-01 -0.1251297766020E-01  0.0000000000000E+00 -0.4764691195883E+00
 0.1007144263849E-01 -0.4782240260223E-01  0.0000000000000E+00 -0.2537797576586E+00
 0.1861393915655E+00 -0.2386844258814E+00  0.0000000000000E+00 -0.9498176897283E+00
 0.1617783391085E+00 -0.2165406928223E+00  0.0000000000000E+00 -0.9673640223495E+00
 0.1363968473650E+00 -0.1935424243861E+00  0.0000000000000E+00 -0.9765270255930E+00
 0.1101685084289E+00 -0.1698611730476E+00  0.0000000000000E+00 -0.9744253243711E+00
 0.8372135970255E-01 -0.1461129128310E+00  0.0000000000000E+00 -0.9569182701037E+00
 0.5829453207495E-01 -0.1235132292490E+00  0.0000000000000E+00 -0.9181720584147E+00
 0.3591680611090E-01 -0.1040567824689E+00  0.0000000000000E+00 -0.8499182158186E+00
 0.1959324873748E-01 -0.9072834968263E-01  0.0000000000000E+00 -0.7399800975203E+00
 0.1338348198767E-01 -0.8766423022401E-01  0.0000000000000E+00 -0.5690092697228E+00
 0.2033185130537E-01 -0.9904174489961E-01  0.0000000000000E+00 -0.3022869306653E+00
 0.2358577522377E+00 -0.2932131506365E+00  0.0000000000000E+00 -0.9836268770282E+00
 0.2179825426486E+00 -0.2786880096406E+00  0.0000000000000E+00 -0.1003859592005E+01
 0.1992254662113E+00 -0.2637409276475E+00  0.0000000000000E+00 -0.1016134322948E+01
 0.1792964334238E+00 -0.2481498873216E+00  0.0000000000000E+00 -0.1016959615866E+01
 0.1581243490327E+00 -0.2319390597967E+00  0.0000000000000E+00 -0.1001134666327E+01
 0.1359095615401E+00 -0.2154370522199E+00  0.0000000000000E+00 -0.9613725343036E+00
 0.1130396082628E+00 -0.1992207814804E+00  0.0000000000000E+00 -0.8876168007951E+00
 0.8976928311134E-01 -0.1838577285394E+00  0.0000000000000E+00 -0.7658939155619E+00
 0.6515538961049E-01 -0.1690543554686E+00  0.0000000000000E+00 -0.5765340209314E+00
 0.3412587354095E-01 -0.1509134763073E+00  0.0000000000000E+00 -0.2939053100912E+00
 0.2873347414487E+00 -0.3492351845331E+00  0.0000000000000E+00 -0.9949110465182E+00
 0.2767095792642E+00 -0.3429825688351E+00  0.0000000000000E+00 -0.1011532501833E+01
 0.2651919746785E+00 -0.3365314564208E+00  0.0000000000000E+00 -0.1020268391903E+01
 0.2517390789044E+00 -0.3289697825876E+00  0.0000000000000E+00 -0.1017290451133E+01
 0.2353338126204E+00 -0.3194600228948E+00  0.0000000000000E+00 -0.9968510338557E+00
 0.2148910156071E+00 -0.3071589393158E+00  0.0000000000000E+00 -0.9512365268948E+00
 0.1889777558836E+00 -0.2909543383647E+00  0.0000000000000E+00 -0.8704392110608E+00
 0.1552803539350E+00 -0.2689865356229E+00  0.0000000000000E+00 -0.7418172325925E+00
 0.1096191053928E+00 -0.2376819822521E+00  0.0000000000000E+00 -0.5504724293695E+00
 0.4488855371925E-01 -0.1904773977889E+00  0.0000000000000E+00 -0.2820857512622E+00
 0.3379623929818E+00 -0.4039291739607E+00  0.0000000000000E+00 -0.9825047708700E+00
 0.3346813846412E+00 -0.4058230938234E+00  0.0000000000000E+00 -0.9902391562055E+00
 0.3301886437963E+00 -0.4073304931779E+00  0.0000000000000E+00 -0.9907389695740E+00
 0.3224922657320E+00 -0.4066207666440E+00  0.0000000000000E+00 -0.9799741746703E+00
 0.3096254618838E+00 -0.4019717354441E+00  0.0000000000000E+00 -0.9522275873169E+00
 0.2893186867065E+00 -0.3914051781401E+00  0.0000000000000E+00 -0.9004581200234E+00
 0.2586153834129E+00 -0.3723224342248E+00  0.0000000000000E+00 -0.8162149599454E+00
 0.2134979958465E+00 -0.3411099376239E+00  0.0000000000000E+00 -0.6898141210211E+00
 0.1485353911577E+00 -0.2927523320549E+00  0.0000000000000E+00 -0.5114646816693E+00
 0.5690113872854E-01 -0.2207679915236E+00  0.0000000000000E+00 -0.2731437840517E+00
 0.3855809290853E+00 -0.4549540091992E+00  0.0000000000000E+00 -0.9462882796134E+00
 0.3893909852452E+00 -0.4644729495582E+00  0.0000000000000E+00 -0.9412926805502E+00
 0.3911567161190E+00 -0.4727242028271E+00  0.0000000000000E+00 -0.9307746740939E+00
 0.3880064565497E+00 -0.4770774109916E+00  0.0000000000000E+00 -0.9100760746476E+00
 0.3773699306091E+00 -0.4752028762133E+00  0.0000000000000E+00 -0.8739303543524E+00
 0.3561876311399E+00 -0.4643638747378E+00  0.0000000000000E+00 -0.8169987689363E+00
 0.3204163692750E+00 -0.4408350123509E+00  0.0000000000000E+00 -0.7335224069809E+00
 0.2649757143895E+00 -0.3998532360603E+00  0.0000000000000E+00 -0.6171793325747E+00
 0.1840786316052E+00 -0.3358782158118E+00  0.0000000000000E+00 -0.4618495220586E+00
 0.7149069406817E-01 -0.2429577154152E+00  0.0000000000000E+00 -0.2630924187437E+00
 0.4285586112892E+00 -0.5006484494920E+00  0.0000000000000E+00 -0.8867547312770E+00
 0.4389661145599E+00 -0.5169429172464E+00  0.0000000000000E+00 -0.8671494628360E+00
 0.4453935165723E+00 -0.5299229923277E+00  0.0000000000000E+00 -0.8448385110987E+00
 0.4447817281711E+00 -0.5366405920212E+00  0.0000000000000E+00 -0.8127914537056E+00
 0.4348247277138E+00 -0.5352375716439E+00  0.0000000000000E+00 -0.7670437983851E+00
 0.4121087685637E+00 -0.5224947071286E+00  0.0000000000000E+00 -0.7053135699780E+00
 0.3718867285881E+00 -0.4939298694464E+00  0.0000000000000E+00 -0.6253963660233E+00
 0.3082366127072E+00 -0.4439282861331E+00  0.0000000000000E+00 -0.5248573090819E+00
 0.2147296757228E+00 -0.3662754691344E+00  0.0000000000000E+00 -0.4004072972681E+00
 0.8601475770099E-01 -0.2554954563517E+00  0.0000000000000E+00 -0.2487849721606E+00
 0.4664534811572E+00 -0.5404806509121E+00  0.0000000000000E+00 -0.8053309959823E+00
 0.4818114827272E+00 -0.5619256371160E+00  0.0000000000000E+00 -0.7745703230245E+00
 0.4890579555903E+00 -0.5746986518612E+00  0.0000000000000E+00 -0.7409503946595E+00
 0.4878634957620E+00 -0.5801485675134E+00  0.0000000000000E+00 -0.6953973097573E+00
 0.4765696260867E+00 -0.5764169255520E+00  0.0000000000000E+00 -0.6383475862095E+00
 0.4516188575121E+00 -0.5600933406789E+00  0.0000000000000E+00 -0.5707712937243E+00
 0.4081991717654E+00 -0.5265566011539E+00  0.0000000000000E+00 -0.4943500102891E+00
 0.3402522892019E+00 -0.4700082443360E+00  0.0000000000000E+00 -0.4111778999055E+00
 0.2401908154216E+00 -0.3834689846418E+00  0.0000000000000E+00 -0.3226118447851E+00
 0.1008526323806E+00 -0.2600200573368E+00  0.0000000000000E+00 -0.2241886921726E+00
 0.4984369985493E+00 -0.5762286889797E+00  0.0000000000000E+00 -0.7109229396735E+00
 0.5128428024180E+00 -0.5927109467633E+00  0.0000000000000E+00 -0.6749060954400E+00
 0.5167615408350E+00 -0.6014610789635E+00  0.0000000000000E+00 -0.6254449268170E+00
 0.5125572573361E+00 -0.6026126249489E+00  0.0000000000000E+00 -0.5639632151202E+00
 0.4980085472731E+00 -0.5938955776284E+00  0.0000000000000E+00 -0.4926305551556E+00
 0.4703863793533E+00 -0.5725395693199E+00  0.0000000000000E+00 -0.4146710582441E+00
 0.4260327193242E+00 -0.5349823871467E+00  0.0000000000000E+00 -0.3353030677164E+00
 0.3600195238529E+00 -0.4765691575678E+00  0.0000000000000E+00 -0.2618974768356E+00
 0.2658112856478E+00 -0.3910450279164E+00  0.0000000000000E+00 -0.2041786141206E+00
 0.1298877184521E+00 -0.2676663220823E+00  0.0000000000000E+00 -0.1709535163515E+00
</DataArray>
<DataArray type="Float64" Name="S_Centroid" NumberOfComponents="4" ComponentName0="S11" ComponentName1="S22" ComponentName2="S33" ComponentName3="S12" format="ascii">
-0.1764789031542E+01 -0.1425715205328E+02 -0.3204388264713E+01 -0.1771083651509E+01
 0.2384103250625E+00 -0.1137100552243E+02 -0.2226519072651E+01 -0.1200120829595E+00
-0.5063002183895E-01 -0.1042532821815E+02 -0.2095191679219E+01 -0.1418211135746E+00
 0.6398984556469E-02 -0.9837834838765E+01 -0.1966287200142E+01 -0.9339051380796E-01
-0.4048194586237E-02 -0.9393422366047E+01 -0.1879494140133E+01 -0.7888606602932E-01
-0.1068593531321E-02 -0.9023043677323E+01 -0.1804822481065E+01 -0.6850591405973E-01
-0.1500446619389E-02 -0.8703387233995E+01 -0.1740977562066E+01 -0.6013056156862E-01
-0.1319924086828E-02 -0.8431651519292E+01 -0.1686594313808E+01 -0.5023958982684E-01
-0.2213301822246E-02 -0.8223062142860E+01 -0.1645055113450E+01 -0.3502788444386E-01
-0.1311409987962E-01 -0.8125257446142E+01 -0.1627674333459E+01  0.6779855933291E-02
-0.4308577296429E-01 -0.8154099591604E+01 -0.1639437097343E+01  0.1327699877657E+00
-0.8300913629201E-01 -0.8163163073288E+01 -0.1649234466491E+01  0.3781841965149E+00
-0.1325216127770E+00 -0.8030693103786E+01 -0.1632642967641E+01  0.6927514968157E+00
-0.2074565414535E+00 -0.7821284632741E+01 -0.1605748258766E+01  0.1017045476619E+01
-0.3163339612455E+00 -0.7624825995909E+01 -0.1588232015097E+01  0.1343934345135E+01
-0.4670729611005E+00 -0.7481821920297E+01 -0.1589778999969E+01  0.1686487047072E+01
-0.6568553346306E+00 -0.7440693157645E+01 -0.1619509722588E+01  0.2068940129880E+01
-0.1001811596860E+01 -0.7591961197535E+01 -0.1718754584490E+01  0.2549939913985E+01
-0.1281340371907E+01 -0.8035301048334E+01 -0.1863328311814E+01  0.3306674181217E+01
-0.4017460329928E+01 -0.8700350863075E+01 -0.2543562276503E+01  0.4790351773949E+01
 0.4698225145710E+01 -0.7486213957292E+01 -0.5575977706253E+00  0.5810593126690E+01
-0.1828816720269E+01 -0.1212406223566E+02 -0.2790575832768E+01 -0.1914771075944E+01
-0.2815701999574E+00 -0.1130039214896E+02 -0.2316392504301E+01 -0.9150134607245E+00
-0.1229598449342E-01 -0.1021188122949E+02 -0.2044835473268E+01 -0.3921181160960E+00
-0.3170908834554E-01 -0.9613543836994E+01 -0.1929050613813E+01 -0.3021531059049E+00
-0.1055056485643E-01 -0.9156583136717E+01 -0.1833426767635E+01 -0.2391154844912E+00
-0.9391853954369E-02 -0.8784341937778E+01 -0.1758746784554E+01 -0.2052474633134E+00
-0.8573130352317E-02 -0.8467688548319E+01 -0.1695252360995E+01 -0.1769125005210E+00
-0.1092804552368E-01 -0.8201727349521E+01 -0.1642531103485E+01 -0.1454976464031E+00
-0.2069669777979E-01 -0.7996204161938E+01 -0.1603380195836E+01 -0.9768023102103E-01
-0.5493783869655E-01 -0.7863940770937E+01 -0.1583775745527E+01 -0.1179426108992E-01
-0.1185134095962E+00 -0.7781322320776E+01 -0.1579967169618E+01  0.1311609184964E+00
-0.1873855355350E+00 -0.7678998242720E+01 -0.1573276779095E+01  0.3363867340209E+00
-0.2500498399505E+00 -0.7508009164333E+01 -0.1551611823978E+01  0.5935144264088E+00
-0.3264112738900E+00 -0.7278847128593E+01 -0.1521051703162E+01  0.8809548940249E+00
-0.4372727570082E+00 -0.7026362559570E+01 -0.1492727085559E+01  0.1181508755412E+01
-0.5894790500585E+00 -0.6773834767393E+01 -0.1472662785435E+01  0.1493375980001E+01
-0.8167363141125E+00 -0.6528728980926E+01 -0.1469093080899E+01  0.1829160128664E+01
-0.1109982722314E+01 -0.6261661997945E+01 -0.1474328966021E+01  0.2191885991506E+01
-0.1822680333055E+01 -0.5820750317227E+01 -0.1528686152836E+01  0.2638328049167E+01
-0.2019859900403E+01 -0.4508596164068E+01 -0.1305691232351E+01  0.2072729926008E+01
 0.6656287435803E+01 -0.3329215931293E+01  0.6654143108174E+00  0.1319347293984E+01
-0.1876202289697E+01 -0.1086303931001E+02 -0.2547848357907E+01 -0.1829582967425E+01
-0.6248984193958E+00 -0.1064372954822E+02 -0.2253725627105E+01 -0.1274923308022E+01
-0.1374835667788E+00 -0.9937690864154E+01 -0.2015034916213E+01 -0.7093668209907E+00
-0.6289916836948E-01 -0.9338589991877E+01 -0.1880297860068E+01 -0.4951128987127E+00
-0.3615963925101E-01 -0.8896512512245E+01 -0.1786534456921E+01 -0.4004163634547E+00
-0.2459258159179E-01 -0.8528963869703E+01 -0.1710711315751E+01 -0.3390184655561E+00
-0.2391819799055E-01 -0.8217265420958E+01 -0.1648236748350E+01 -0.2907930094726E+00
-0.3075539602011E-01 -0.7953614626200E+01 -0.1596874028239E+01 -0.2379701203681E+00
-0.5333008978886E-01 -0.7738939387056E+01 -0.1558453918592E+01 -0.1645902326659E+00
-0.1066091980927E+00 -0.7566321725497E+01 -0.1534586207585E+01 -0.5681400843441E-01
-0.1891945400269E+00 -0.7409093573425E+01 -0.1519657645335E+01  0.8736926500996E-01
-0.2745659097509E+00 -0.7233638885719E+01 -0.1501640981470E+01  0.2668132329112E+00
-0.3490450714848E+00 -0.7017444776923E+01 -0.1473297991635E+01  0.4840644088427E+00
-0.4297618031623E+00 -0.6753055019240E+01 -0.1436563385887E+01  0.7314531979436E+00
-0.5373516534343E+00 -0.6444778784195E+01 -0.1396426108334E+01  0.9908291217154E+00
-0.6857595038736E+00 -0.6094120691315E+01 -0.1355976059243E+01  0.1248666182453E+01
-0.8822994956944E+00 -0.5676193794827E+01 -0.1311698677650E+01  0.1486695823414E+01
-0.1156150042052E+01 -0.5117652597110E+01 -0.1254760546530E+01  0.1670237768405E+01
-0.1428462633966E+01 -0.4180251786292E+01 -0.1121742900767E+01  0.1529735134167E+01
 0.1954869713096E-01 -0.2951570000687E+01 -0.5864042694493E+00  0.4170765653120E+00
 0.6794184891302E+01 -0.2319096674919E+01  0.8950176566133E+00  0.2054329501536E+00
-0.1872273175205E+01 -0.9953698741215E+01 -0.2365194418528E+01 -0.1718721886452E+01
-0.8520885448532E+00 -0.9949952707025E+01 -0.2160408282568E+01 -0.1428318332657E+01
-0.2919647136742E+00 -0.9531680463838E+01 -0.1964729064779E+01 -0.9562152693418E+00
-0.1227952663927E+00 -0.9029631838495E+01 -0.1830485448254E+01 -0.6855781271277E+00
-0.6968660523045E-01 -0.8610292153120E+01 -0.1735995777538E+01 -0.5529959242814E+00
-0.4902552051668E-01 -0.8257128765051E+01 -0.1661230881868E+01 -0.4693449270380E+00
-0.4667495114203E-01 -0.7951903452680E+01 -0.1599715704602E+01 -0.4018487308872E+00
-0.5937137947644E-01 -0.7688010700383E+01 -0.1549476439061E+01 -0.3306658745949E+00
-0.9417454995346E-01 -0.7459221274766E+01 -0.1510679187455E+01 -0.2400121419394E+00
-0.1613976025379E+00 -0.7251120665132E+01 -0.1482503675625E+01 -0.1229114396162E+00
-0.2548165410833E+00 -0.7041466305232E+01 -0.1459256591008E+01  0.1627644683064E-01
-0.3494363610310E+00 -0.6813469841387E+01 -0.1432581261831E+01  0.1755810139813E+00
-0.4318823054396E+00 -0.6555121006882E+01 -0.1397400683287E+01  0.3605661479792E+00
-0.5139998300934E+00 -0.6252290913364E+01 -0.1353258168857E+01  0.5672153877303E+00
-0.6130335587045E+00 -0.5893536645611E+01 -0.1301314060254E+01  0.7767731341987E+00
-0.7360981373364E+00 -0.5464266031278E+01 -0.1240072852201E+01  0.9634059224417E+00
-0.8779409906371E+00 -0.4929575740670E+01 -0.1161503363569E+01  0.1088210052193E+01
-0.9943573212660E+00 -0.4207788016934E+01 -0.1040429083144E+01  0.1050779929615E+01
-0.7026890727073E+00 -0.3236469825581E+01 -0.7878317913974E+00  0.5738694419962E+00
 0.1376878396153E+01 -0.2388823600803E+01 -0.2023890439457E+00 -0.4098813920591E+00
 0.6471760514830E+01 -0.1965220966711E+01  0.9013079230543E+00 -0.2002820384513E+00
-0.1835906498757E+01 -0.9227788938090E+01 -0.2212739120342E+01 -0.1616623103641E+01
-0.9974094374813E+00 -0.9305611940227E+01 -0.2060604306247E+01 -0.1485030487173E+01
-0.4342069002016E+00 -0.9068757065923E+01 -0.1900592821546E+01 -0.1127087673625E+01
-0.1990000317021E+00 -0.8680295235913E+01 -0.1775859079985E+01 -0.8544797663870E+00
-0.1125173216058E+00 -0.8302917700898E+01 -0.1683087029581E+01 -0.6963271427235E+00
-0.8043306269987E-01 -0.7969012751053E+01 -0.1609889186740E+01 -0.5939223521305E+00
-0.7616824140271E-01 -0.7672609579666E+01 -0.1549755587307E+01 -0.5105501236555E+00
-0.9429680801424E-01 -0.7407515505485E+01 -0.1500362485057E+01 -0.4251735074925E+00
-0.1392233381820E+00 -0.7164595426398E+01 -0.1460763774683E+01 -0.3242672640331E+00
-0.2159451195910E+00 -0.6927988184077E+01 -0.1428786682024E+01 -0.2050832573119E+00
-0.3151136870054E+00 -0.6680468005337E+01 -0.1399116359317E+01 -0.7390277880553E-01
-0.4140377912049E+00 -0.6413374294845E+01 -0.1365482437557E+01  0.6738240604203E-01
-0.4996569545603E+00 -0.6119163521296E+01 -0.1323764114897E+01  0.2234731457912E+00
-0.5782693946254E+00 -0.5781675367694E+01 -0.1271988971418E+01  0.3897537150862E+00
-0.6598950102380E+00 -0.5382311317640E+01 -0.1208441283583E+01  0.5452864485084E+00
-0.7419321082069E+00 -0.4900620180108E+01 -0.1128510474479E+01  0.6560669794518E+00
-0.7950679224729E+00 -0.4303834264319E+01 -0.1019780452554E+01  0.6656997516003E+00
-0.6925599559615E+00 -0.3554127799958E+01 -0.8493375638400E+00  0.4577586288750E+00
 0.1462518767957E-01 -0.2728409393329E+01 -0.5427568492175E+00 -0.1188551655392E+00
 0.2209499650233E+01 -0.2164092767016E+01  0.9081376778835E-02 -0.8274367041699E+00
 0.6096013366421E+01 -0.1823773051824E+01  0.8544480756517E+00 -0.4191736340810E+00
-0.1781249252185E+01 -0.8612251237399E+01 -0.2078700128892E+01 -0.1528491417296E+01
-0.1085510474423E+01 -0.8718674408477E+01 -0.1960837005799E+01 -0.1495631652678E+01
-0.5515333858752E+00 -0.8592437053369E+01 -0.1828794115100E+01 -0.1240041208628E+01
-0.2786717944335E+00 -0.8302878160973E+01 -0.1716310016656E+01 -0.9944600671151E+00
-0.1620774209784E+00 -0.7976634530326E+01 -0.1627742414516E+01 -0.8272952264127E+00
-0.1173133098963E+00 -0.7666802543463E+01 -0.1556823193870E+01 -0.7118881946661E+00
-0.1107411923026E+00 -0.7381019387583E+01 -0.1498352138304E+01 -0.6168118583098E+00
-0.1332646846361E+00 -0.7115478318977E+01 -0.1449748622326E+01 -0.5218768168287E+00
-0.1857594878160E+00 -0.6860802829762E+01 -0.1409312484516E+01 -0.4161368045600E+00
-0.2684190414807E+00 -0.6602528555549E+01 -0.1374189539883E+01 -0.2992966020811E+00
-0.3698258332743E+00 -0.6327613184229E+01 -0.1339487823461E+01 -0.1778600144552E+00
-0.4691953747609E+00 -0.6031537916524E+01 -0.1300146677631E+01 -0.5386369897231E-01
-0.5532151882621E+00 -0.5709017569577E+01 -0.1252446570231E+01  0.7514957701389E-01
-0.6224213293867E+00 -0.5344240561069E+01 -0.1193332395873E+01  0.2022645471921E+00
-0.6782310321067E+00 -0.4917444485529E+01 -0.1119135120204E+01  0.3043201132523E+00
-0.7058982896898E+00 -0.4409450365863E+01 -0.1023069746355E+01  0.3424833406584E+00
-0.6493109397971E+00 -0.3801869661067E+01 -0.8902361334384E+00  0.2549188768015E+00
-0.3392612825683E+00 -0.3106589939286E+01 -0.6891702546404E+00 -0.4896779901203E-01
 0.6156128017297E+00 -0.2452499238004E+01 -0.3673772927292E+00 -0.5969673648119E+00
 0.2708901540171E+01 -0.2061885085290E+01  0.1294032929046E+00 -0.1055454017946E+01
 0.5755043783376E+01 -0.1765822307024E+01  0.7978443071593E+00 -0.5804342709324E+00
-0.1716458179362E+01 -0.8069444280338E+01 -0.1957180521104E+01 -0.1453476594687E+01
-0.1133526090802E+01 -0.8182036516172E+01 -0.1863112549157E+01 -0.1484253412322E+01
-0.6421972095061E+00 -0.8122700791747E+01 -0.1752979626372E+01 -0.1312690956941E+01
-0.3535322761332E+00 -0.7910861965165E+01 -0.1652878872889E+01 -0.1106351934517E+01
-0.2144369590469E+00 -0.7635685407080E+01 -0.1570024496621E+01 -0.9438640141682E+00
-0.1578140677173E+00 -0.7352905229681E+01 -0.1502143881863E+01 -0.8225208561099E+00
-0.1486079216908E+00 -0.7079452868216E+01 -0.1445612179523E+01 -0.7203833104916E+00
-0.1742828710529E+00 -0.6815150232600E+01 -0.1397886641561E+01 -0.6203267575041E+00
-0.2319376852137E+00 -0.6552106872902E+01 -0.1356808931841E+01 -0.5139206711297E+00
-0.3177256821841E+00 -0.6278346333821E+01 -0.1319214422859E+01 -0.4022979265678E+00
-0.4187309916898E+00 -0.5984190569186E+01 -0.1280584331257E+01 -0.2917087106358E+00
-0.5153553562820E+00 -0.5667497989274E+01 -0.1236570687538E+01 -0.1846636794365E+00
-0.5933502570881E+00 -0.5324580979148E+01 -0.1183586264884E+01 -0.8126509749572E-01
-0.6475392240745E+00 -0.4941582033105E+01 -0.1117824268093E+01  0.9051499979560E-02
-0.6705289807333E+00 -0.4501312746184E+01 -0.1034368360797E+01  0.6168512296135E-01
-0.6351434338106E+00 -0.3990852831460E+01 -0.9251992668406E+00  0.3703709439435E-01
-0.4664283233212E+00 -0.3410237099423E+01 -0.7753330961023E+00 -0.1196296696302E+00
 0.8936592320295E-02 -0.2803390341938E+01 -0.5588907582517E+00 -0.4585489191146E+00
 0.1086331412101E+01 -0.2296323457585E+01 -0.2419984127029E+00 -0.9261223429958E+00
 0.3003760147057E+01 -0.2008862128616E+01  0.1989796066531E+00 -0.1195601301822E+01
 0.5461509754215E+01 -0.1744516499213E+01  0.7433986620779E+00 -0.7177622279198E+00
-0.1646075950838E+01 -0.7577708405341E+01 -0.1844756898725E+01 -0.1389609391624E+01
-0.1153135236866E+01 -0.7686808365951E+01 -0.1767988746908E+01 -0.1462837357374E+01
-0.7084146284306E+00 -0.7667663880811E+01 -0.1675215726811E+01 -0.1358217645419E+01
-0.4191364131747E+00 -0.7514174200045E+01 -0.1586662146287E+01 -0.1194202156760E+01
-0.2659789925793E+00 -0.7285097554718E+01 -0.1510215331963E+01 -0.1045756543104E+01
-0.1998326610791E+00 -0.7030075427899E+01 -0.1445981639343E+01 -0.9253160741263E+00
-0.1880294647751E+00 -0.6770416987483E+01 -0.1391689311189E+01 -0.8208539741104E+00
-0.2156929453139E+00 -0.6509466632610E+01 -0.1345031935627E+01 -0.7196745668658E+00
-0.2764625699981E+00 -0.6241707230076E+01 -0.1303633979440E+01 -0.6158355086274E+00
-0.3631785635351E+00 -0.5957949791583E+01 -0.1264225689862E+01 -0.5113919035582E+00
-0.4617050143605E+00 -0.5651292812327E+01 -0.1222599583556E+01 -0.4123275842718E+00
-0.5529177086329E+00 -0.5321257579027E+01 -0.1174835075038E+01 -0.3218322394524E+00
-0.6210829936331E+00 -0.4965736283321E+01 -0.1117363872041E+01 -0.2423546324498E+00
-0.6556073395933E+00 -0.4573898919637E+01 -0.1045901267431E+01 -0.1853415151466E+00
-0.6409206178691E+00 -0.4133312470692E+01 -0.9548466319405E+00 -0.1755302783491E+00
-0.5397952401902E+00 -0.3639576167102E+01 -0.8358742939139E+00 -0.2492397136355E+00
-0.2695250122351E+00 -0.3108143293458E+01 -0.6755336712048E+00 -0.4468194062303E+00
 0.3240364857334E+00 -0.2595769000720E+01 -0.4543465097677E+00 -0.7811365258754E+00
 0.1443060982628E+01 -0.2202790007303E+01 -0.1519458071993E+00 -0.1156826521874E+01
 0.3172583737358E+01 -0.1978422134938E+01  0.2388323240428E+00 -0.1293522756592E+01
 0.5208647248589E+01 -0.1741334682882E+01  0.6934625234749E+00 -0.8398777071867E+00
-0.1572642554373E+01 -0.7123556256728E+01 -0.1739239788137E+01 -0.1334962958384E+01
-0.1152282124573E+01 -0.7225203291912E+01 -0.1675497108264E+01 -0.1437440590841E+01
-0.7535209342749E+00 -0.7229859697547E+01 -0.1596676150157E+01 -0.1385759970871E+01
-0.4735370053707E+00 -0.7119184960129E+01 -0.1518544415728E+01 -0.1262687279500E+01
-0.3139429162370E+00 -0.6929482701672E+01 -0.1448685145169E+01 -0.1133908913010E+01
-0.2413378890678E+00 -0.6701213310566E+01 -0.1388510260617E+01 -0.1020107801176E+01
-0.2273984089845E+00 -0.6456378424546E+01 -0.1336755386625E+01 -0.9177355608833E+00
-0.2561450145490E+00 -0.6200975199345E+01 -0.1291424062023E+01 -0.8189195050583E+00
-0.3184039793927E+00 -0.5932058226285E+01 -0.1250092459763E+01 -0.7201751299392E+00
-0.4043489652445E+00 -0.5643169924893E+01 -0.1209503796051E+01 -0.6242797188928E+00
-0.4987537580677E+00 -0.5329792436032E+01 -0.1165709256190E+01 -0.5370670880991E+00
-0.5823960125220E+00 -0.4992873505433E+01 -0.1115053920207E+01 -0.4624537971022E+00
-0.6377243931828E+00 -0.4632070548909E+01 -0.1053959004124E+01 -0.4047688434618E+00
-0.6492436807302E+00 -0.4240214563680E+01 -0.9778916634537E+00 -0.3766471524113E+00
-0.5945726206373E+00 -0.3810584395652E+01 -0.8810314163863E+00 -0.4015093736918E+00
-0.4302119234452E+00 -0.3347092961782E+01 -0.7554609883027E+00 -0.5095131233074E+00
-0.7514988029028E-01 -0.2874922202626E+01 -0.5900144253752E+00 -0.7247716385107E+00
 0.5957067101610E+00 -0.2450301406045E+01 -0.3709189447040E+00 -0.1032358378223E+01
 0.1708249104687E+01 -0.2143864242272E+01 -0.8712302881527E-01 -0.1322876776952E+01
 0.3262170395770E+01 -0.1959892127702E+01  0.2604556574948E+00 -0.1369586728978E+01
 0.4987183761993E+01 -0.1748334415378E+01  0.6477698789755E+00 -0.9491812592477E+00
-0.1497591001574E+01 -0.6698064305383E+01 -0.1639131085816E+01 -0.1287896915074E+01
-0.1136406942733E+01 -0.6790939993285E+01 -0.1585469410829E+01 -0.1411159357808E+01
-0.7808492046856E+00 -0.6809287064340E+01 -0.1518027276426E+01 -0.1401477321586E+01
-0.5162493857261E+00 -0.6729653964445E+01 -0.1449180691629E+01 -0.1316057919473E+01
-0.3564508788589E+00 -0.6572558615088E+01 -0.1385801919439E+01 -0.1209836381491E+01
-0.2805849008904E+00 -0.6369070177967E+01 -0.1329931035589E+01 -0.1107032642361E+01
-0.2653058404709E+00 -0.6139635391830E+01 -0.1280988265548E+01 -0.1010551347702E+01
-0.2945540346126E+00 -0.5891841693254E+01 -0.1237279164010E+01 -0.9170430949303E+00
-0.3570907366620E+00 -0.5625072223591E+01 -0.1196432609879E+01 -0.8253676313422E+00
-0.4409937282185E+00 -0.5335369221830E+01 -0.1155272607225E+01 -0.7389605665108E+00
-0.5300246258015E+00 -0.5020323780466E+01 -0.1110069697795E+01 -0.6636151512652E+00
-0.6044680765922E+00 -0.4682260355816E+01 -0.1057345702237E+01 -0.6038933420111E+00
-0.6448384706759E+00 -0.4322782202877E+01 -0.9935241495153E+00 -0.5654408692651E+00
-0.6314524202169E+00 -0.3938629573739E+01 -0.9140164124110E+00 -0.5611917225457E+00
-0.5369095526851E+00 -0.3528781465593E+01 -0.8131382157724E+00 -0.6120256246035E+00
-0.3153273665898E+00 -0.3103815022134E+01 -0.6838284879346E+00 -0.7406306269086E+00
 0.1064663071758E+00 -0.2693150836664E+01 -0.5173369136066E+00 -0.9564631687233E+00
 0.8226905730613E+00 -0.2345546585723E+01 -0.3045712070709E+00 -0.1227198956001E+01
 0.1903109534964E+01 -0.2104999074087E+01 -0.4037790842630E-01 -0.1444925709422E+01
 0.3299649719598E+01 -0.1951836362625E+01  0.2695626754113E+00 -0.1434365552894E+01
 0.4792247156087E+01 -0.1756330263023E+01  0.6071833876606E+00 -0.1045585142469E+01
-0.1421763635995E+01 -0.6295090814272E+01 -0.1543370913051E+01 -0.1247119683840E+01
-0.1109340194591E+01 -0.6379347844340E+01 -0.1497737630104E+01 -0.1385589233260E+01
-0.7933722472619E+00 -0.6405317935065E+01 -0.1439738057919E+01 -0.1409508502424E+01
-0.5475733314215E+00 -0.6348226227913E+01 -0.1379159932418E+01 -0.1357798703353E+01
-0.3923090378411E+00 -0.6217847464013E+01 -0.1322031320071E+01 -0.1275112815290E+01
-0.3161224895254E+00 -0.6036917503467E+01 -0.1270608017532E+01 -0.1186270768679E+01
-0.3004759634985E+00 -0.5823212279699E+01 -0.1224737666890E+01 -0.1098663950052E+01
-0.3299339905929E+00 -0.5584971764118E+01 -0.1182981168570E+01 -0.1012786267326E+01
-0.3919014402744E+00 -0.5323452075675E+01 -0.1143070720223E+01 -0.9296145173601E+00
-0.4728697032442E+00 -0.5036871046880E+01 -0.1101948166445E+01 -0.8532012549432E+00
-0.5556790476906E+00 -0.4724700657264E+01 -0.1056075956728E+01 -0.7893525092230E+00
-0.6199057523172E+00 -0.4390622052058E+01 -0.1002105575808E+01 -0.7431055193774E+00
-0.6442126195449E+00 -0.4038253648675E+01 -0.9364932675988E+00 -0.7208510047280E+00
-0.6055938674592E+00 -0.3668135601605E+01 -0.8547459065495E+00 -0.7350320956206E+00
-0.4735301453300E+00 -0.3284261019412E+01 -0.7515582441475E+00 -0.8032409952615E+00
-0.2029059202054E+00 -0.2901707421093E+01 -0.6209226775121E+00 -0.9407628817444E+00
 0.2684244628193E+00 -0.2550115355002E+01 -0.4563381852365E+00 -0.1145680464666E+01
 0.1007076353668E+01 -0.2268169605820E+01 -0.2522186541888E+00 -0.1376701409289E+01
 0.2042114534577E+01 -0.2079431063698E+01 -0.7463305935316E-02 -0.1535845824260E+01
 0.3307931768200E+01 -0.1951140483052E+01  0.2713582610732E+00 -0.1488245324544E+01
 0.4603957607167E+01 -0.1777419497190E+01  0.5653076304190E+00 -0.1141154444420E+01
-0.1345578914643E+01 -0.5910109628178E+01 -0.1451137730188E+01 -0.1211410584739E+01
-0.1073674642214E+01 -0.5986479496691E+01 -0.1412030848822E+01 -0.1361382116987E+01
-0.7935216629558E+00 -0.6016424262170E+01 -0.1361989205320E+01 -0.1412491799761E+01
-0.5682130949914E+00 -0.5975803140110E+01 -0.1308803266523E+01 -0.1390592320209E+01
-0.4209480093002E+00 -0.5867282149494E+01 -0.1257646050499E+01 -0.1331261494005E+01
-0.3469886797738E+00 -0.5706723813006E+01 -0.1210742516597E+01 -0.1258220953480E+01
-0.3320326920394E+00 -0.5508852645676E+01 -0.1168177084950E+01 -0.1181703493857E+01
-0.3616826457222E+00 -0.5281851208748E+01 -0.1128706787713E+01 -0.1105237413094E+01
-0.4225811325737E+00 -0.5028336548371E+01 -0.1090183552434E+01 -0.1031608692039E+01
-0.5000721563389E+00 -0.4748339321436E+01 -0.1049682311197E+01 -0.9654216383422E+00
-0.5761865336383E+00 -0.4442994884741E+01 -0.1003836298634E+01 -0.9124851907276E+00
-0.6297194757714E+00 -0.4117295144355E+01 -0.9494029381724E+00 -0.8780984018997E+00
-0.6376989037233E+00 -0.3776827260128E+01 -0.8829052459266E+00 -0.8688893930207E+00
-0.5746831476661E+00 -0.3425587492248E+01 -0.8000541399046E+00 -0.8962214468279E+00
-0.4086971757793E+00 -0.3071603084683E+01 -0.6960600624645E+00 -0.9741380408464E+00
-0.9757899185702E-01 -0.2732468603571E+01 -0.5660095275197E+00 -0.1111439702577E+01
 0.4089774780947E+00 -0.2435569886342E+01 -0.4053184876892E+00 -0.1298344036119E+01
 0.1154148909592E+01 -0.2209542907430E+01 -0.2110788027129E+00 -0.1490647296693E+01
 0.2140784400410E+01 -0.2063054693075E+01  0.1554594169863E-01 -0.1603262272266E+01
 0.3291140797739E+01 -0.1958252229195E+01  0.2665777176810E+00 -0.1533474734388E+01
 0.4457415523609E+01 -0.1808196959212E+01  0.5298437207746E+00 -0.1223000977572E+01
-0.1269267498480E+01 -0.5539662692494E+01 -0.1361786058487E+01 -0.1179911075004E+01
-0.1031273949028E+01 -0.5608912284130E+01 -0.1328037266421E+01 -0.1338822091575E+01
-0.7833254523684E+00 -0.5640527040736E+01 -0.1284770517765E+01 -0.1412234026182E+01
-0.5790820379642E+00 -0.5611956720764E+01 -0.1238207770196E+01 -0.1416582405784E+01
-0.4422459524852E+00 -0.5521330675256E+01 -0.1192715343321E+01 -0.1379770446191E+01
-0.3726222407695E+00 -0.5379088444673E+01 -0.1150342154230E+01 -0.1323533746760E+01
-0.3594170511515E+00 -0.5196938516887E+01 -0.1111271130167E+01 -0.1259679095772E+01
-0.3894592134825E+00 -0.4982516446231E+01 -0.1074395147952E+01 -0.1193977869122E+01
-0.4490879329452E+00 -0.4739315982462E+01 -0.1037680798544E+01 -0.1130674055007E+01
-0.5228696418639E+00 -0.4468814873071E+01 -0.9983369178633E+00 -0.1074818182668E+01
-0.5921600959106E+00 -0.4173590210083E+01 -0.9531500754018E+00 -0.1032159197083E+01
-0.6350003190882E+00 -0.3859853676575E+01 -0.8989708125284E+00 -0.1008032416670E+01
-0.6270614621309E+00 -0.3535022326014E+01 -0.8324167700330E+00 -0.1008883556428E+01
-0.5412642693752E+00 -0.3206093142324E+01 -0.7494714935079E+00 -0.1044616582428E+01
-0.3454757963830E+00 -0.2884143358986E+01 -0.6459238406988E+00 -0.1125829674693E+01
-0.1723319461555E-02 -0.2587771757345E+01 -0.5178990230785E+00 -0.1256115864844E+01
 0.5287737677665E+00 -0.2340911861049E+01 -0.3624276240571E+00 -0.1420901187567E+01
 0.1270604421012E+01 -0.2163230799433E+01 -0.1785252783445E+00 -0.1577014647340E+01
 0.2208033146855E+01 -0.2053185396778E+01  0.3096955047673E-01 -0.1652544982807E+01
 0.3263865308342E+01 -0.1971496300104E+01  0.2584738054992E+00 -0.1570559279149E+01
 0.4309870392899E+01 -0.1849514817354E+01  0.4920711224415E+00 -0.1288059524580E+01
-0.1192936687961E+01 -0.5181090306743E+01 -0.1274805417937E+01 -0.1151863473113E+01
-0.9834869443303E+00 -0.5244103391761E+01 -0.1245518085778E+01 -0.1317932697597E+01
-0.7644011768346E+00 -0.5276077535412E+01 -0.1208095760451E+01 -0.1409864224758E+01
-0.5810767509424E+00 -0.5256493232131E+01 -0.1167514014012E+01 -0.1437261857390E+01
-0.4562721625056E+00 -0.5180733027557E+01 -0.1127401054812E+01 -0.1421703174167E+01
-0.3926476524804E+00 -0.5055103314734E+01 -0.1089550209679E+01 -0.1382575265686E+01
-0.3821751140659E+00 -0.4888556712403E+01 -0.1054146381002E+01 -0.1332342443469E+01
-0.4129439375554E+00 -0.4687881465632E+01 -0.1020165095839E+01 -0.1278314909634E+01
-0.4713304522382E+00 -0.4457030972701E+01 -0.9856722996755E+00 -0.1225827712921E+01
-0.5414390341685E+00 -0.4198576656284E+01 -0.9480031522168E+00 -0.1180230661679E+01
-0.6041085421985E+00 -0.3916298779581E+01 -0.9040814778278E+00 -0.1147106383024E+01
-0.6367268616681E+00 -0.3617482795188E+01 -0.8508419440497E+00 -0.1131602954735E+01
-0.6139167491251E+00 -0.3311157681376E+01 -0.7850148977979E+00 -0.1139653847202E+01
-0.5076448602420E+00 -0.3006810608479E+01 -0.7028911042182E+00 -0.1179512133584E+01
-0.2865319857734E+00 -0.2717680934510E+01 -0.6008425930098E+00 -0.1258692074367E+01
 0.8266398195606E-01 -0.2462335207181E+01 -0.4759342521370E+00 -0.1376962656791E+01
 0.6283788815465E+00 -0.2260877545270E+01 -0.3264997376098E+00 -0.1517494394369E+01
 0.1360540969687E+01 -0.2125588005031E+01 -0.1530094093487E+00 -0.1640466690428E+01
 0.2251783399328E+01 -0.2047967640572E+01  0.4076315235860E-01 -0.1686651464703E+01
 0.3226294180149E+01 -0.1990247863931E+01  0.2472092669273E+00 -0.1597394705021E+01
 0.4171918610589E+01 -0.1893761976686E+01  0.4556313335701E+00 -0.1342341983904E+01
-0.1116614748512E+01 -0.4832243883777E+01 -0.1189771744187E+01 -0.1126626837336E+01
-0.9313007504509E+00 -0.4889930275324E+01 -0.1164246222504E+01 -0.1298597100909E+01
-0.7380634576288E+00 -0.4921606704732E+01 -0.1131934049339E+01 -0.1406081220136E+01
-0.5750763743863E+00 -0.4908948418059E+01 -0.1096804974833E+01 -0.1453688684392E+01
-0.4632783398618E+00 -0.4845831173023E+01 -0.1061821918399E+01 -0.1457873459087E+01
-0.4069127392514E+00 -0.4735500879829E+01 -0.1028482739142E+01 -0.1435631172723E+01
-0.4000377163457E+00 -0.4584506154700E+01 -0.9969087890643E+00 -0.1399460910910E+01
-0.4319463576099E+00 -0.4398624850093E+01 -0.9661142559367E+00 -0.1357626126408E+01
-0.4892974294732E+00 -0.4181927415018E+01 -0.9342449828196E+00 -0.1316198413117E+01
-0.5560020429496E+00 -0.3937747403645E+01 -0.8987499027113E+00 -0.1280651942615E+01
-0.6125551284303E+00 -0.3670814300660E+01 -0.8566738985835E+00 -0.1256268542848E+01
-0.6358366554622E+00 -0.3389295593764E+01 -0.8050264618411E+00 -0.1247799445941E+01
-0.5997219075815E+00 -0.3103565540448E+01 -0.7406575006425E+00 -0.1260420719831E+01
-0.4757558267265E+00 -0.2825099562678E+01 -0.6601710877182E+00 -0.1300690368902E+01
-0.2338698110871E+00 -0.2568582597750E+01 -0.5604904901194E+00 -0.1373536209066E+01
 0.1544606645003E+00 -0.2351931458931E+01 -0.4394941654351E+00 -0.1476217857804E+01
 0.7087682219790E+00 -0.2191584259264E+01 -0.2965632118761E+00 -0.1591570455567E+01
 0.1427861066368E+01 -0.2093962099884E+01 -0.1332202086885E+00 -0.1684505064790E+01
 0.2276771837526E+01 -0.2046182594390E+01  0.4611784931438E-01 -0.1707011931940E+01
 0.3182064030688E+01 -0.2012140808282E+01  0.2339846479680E+00 -0.1614475957539E+01
 0.4044403178847E+01 -0.1940961271001E+01  0.4206883878379E+00 -0.1385866160403E+01
-0.1040280216812E+01 -0.4491327558471E+01 -0.1106321571542E+01 -0.1103653554442E+01
-0.8754511749250E+00 -0.4544577581591E+01 -0.1084005767456E+01 -0.1280622660632E+01
-0.7053908386330E+00 -0.4575730351017E+01 -0.1056224253669E+01 -0.1401288261199E+01
-0.5619179795658E+00 -0.4568683505417E+01 -0.1026120312287E+01 -0.1466582153060E+01
-0.4636381103475E+00 -0.4516661318970E+01 -0.9960599007060E+00 -0.1488867051801E+01
-0.4154409470322E+00 -0.4420705664925E+01 -0.9672293368042E+00 -0.1482892109051E+01
-0.4128907333007E+00 -0.4285325331188E+01 -0.9396432268996E+00 -0.1460799533653E+01
-0.4463844635416E+00 -0.4115214199752E+01 -0.9123197462534E+00 -0.1431344447165E+01
-0.5030392755819E+00 -0.3914284061407E+01 -0.8834646805625E+00 -0.1401011905628E+01
-0.5668035112705E+00 -0.3686324478468E+01 -0.8506256106231E+00 -0.1375212971171E+01
-0.6180070645009E+00 -0.3436750177613E+01 -0.8109514605069E+00 -0.1358779755910E+01
-0.6331872676685E+00 -0.3174386786743E+01 -0.7615148222298E+00 -0.1355876236241E+01
-0.5857384097865E+00 -0.2910666093331E+01 -0.6992809110435E+00 -0.1370746106239E+01
-0.4471585475922E+00 -0.2658599366912E+01 -0.6211515921567E+00 -0.1408305829796E+01
-0.1889346208218E+00 -0.2433788413678E+01 -0.5245446147163E+00 -0.1471436876277E+01
 0.2131086823112E+00 -0.2253222743777E+01 -0.4080228183731E+00 -0.1556027805452E+01
 0.7711596850247E+00 -0.2130114613215E+01 -0.2717909896881E+00 -0.1645996751417E+01
 0.1475699905712E+01 -0.2066446692264E+01 -0.1181493590710E+00 -0.1711637302592E+01
 0.2286847959650E+01 -0.2046531356815E+01  0.4806332128310E-01 -0.1714798285964E+01
 0.3133855821254E+01 -0.2035994754170E+01  0.2195722166887E+00 -0.1621848068329E+01
 0.3927747224416E+01 -0.1990124242121E+01  0.3875246022335E+00 -0.1418528773654E+01
-0.9638800898995E+00 -0.4156789720623E+01 -0.1024133977365E+01 -0.1082471889616E+01
-0.8164992424712E+00 -0.4206449994133E+01 -0.1004589862290E+01 -0.1263778798264E+01
-0.6672827914948E+00 -0.4237137573554E+01 -0.9808840876261E+00 -0.1395684571489E+01
-0.5423907886687E+00 -0.4234941664102E+01 -0.9554665047917E+00 -0.1476399790007E+01
-0.4578066524618E+00 -0.4193022994666E+01 -0.9301659432860E+00 -0.1515070130387E+01
-0.4183916847143E+00 -0.4110882617795E+01 -0.9058548740001E+00 -0.1524449423750E+01
-0.4207468667383E+00 -0.3991322476167E+01 -0.8824138817301E+00 -0.1516106728503E+01
-0.4562645715797E+00 -0.3837930323685E+01 -0.8588389918506E+00 -0.1498942678434E+01
-0.5126505675846E+00 -0.3654237311349E+01 -0.8333775882049E+00 -0.1479575031985E+01
-0.5740910526088E+00 -0.3444208298030E+01 -0.8036598821033E+00 -0.1463165415495E+01
-0.6209287705769E+00 -0.3213675529266E+01 -0.7669208713966E+00 -0.1453943867953E+01
-0.6295260542659E+00 -0.2971880274347E+01 -0.7202812764556E+00 -0.1455316536447E+01
-0.5730140749776E+00 -0.2731024005442E+01 -0.6608076259308E+00 -0.1470470749433E+01
-0.4230691469514E+00 -0.2505269723465E+01 -0.5856677828103E+00 -0.1502786540487E+01
-0.1527320132447E+00 -0.2310783453702E+01 -0.4927031007312E+00 -0.1553611061674E+01
 0.2584272301874E+00 -0.2163594118295E+01 -0.3810333832994E+00 -0.1618393500513E+01
 0.8167643267316E+00 -0.2074275644572E+01 -0.2515022673158E+00 -0.1683130470232E+01
 0.1506633109651E+01 -0.2041553709848E+01 -0.1069841216336E+00 -0.1723764489800E+01
 0.2285002656128E+01 -0.2047986539747E+01  0.4740322398249E-01 -0.1710826763354E+01
 0.3083722526898E+01 -0.2060846638240E+01  0.2045751807800E+00 -0.1619419116967E+01
 0.3821982061974E+01 -0.2040308725722E+01  0.3563346725601E+00 -0.1440092372237E+01
-0.8873412028089E+00 -0.3827245887428E+01 -0.9429174320980E+00 -0.1062673657383E+01
-0.7548852685715E+00 -0.3874105349403E+01 -0.9257981373903E+00 -0.1247819901488E+01
-0.6245067096289E+00 -0.3904572088541E+01 -0.9058157731317E+00 -0.1389328030500E+01
-0.5172405302850E+00 -0.3906880239400E+01 -0.8848241671219E+00 -0.1483397349068E+01
-0.4462947650474E+00 -0.3874529493145E+01 -0.8641648645155E+00 -0.1536697989313E+01
-0.4160289061196E+00 -0.3805979255047E+01 -0.8444016448158E+00 -0.1560296863178E+01
-0.4237204836307E+00 -0.3702605077170E+01 -0.8252651244576E+00 -0.1565103521185E+01
-0.4616626201028E+00 -0.3566890189816E+01 -0.8057105739898E+00 -0.1559918663790E+01
-0.5182538335452E+00 -0.3401803274807E+01 -0.7840114333532E+00 -0.1551258947318E+01
-0.5780967936675E+00 -0.3211227488761E+01 -0.7578648677787E+00 -0.1543861983333E+01
-0.6217195581159E+00 -0.3001146793171E+01 -0.7245732810543E+00 -0.1541208061068E+01
-0.6254685690086E+00 -0.2780968222534E+01 -0.6812873684604E+00 -0.1545792499940E+01
-0.5623767286920E+00 -0.2563387818475E+01 -0.6251529187489E+00 -0.1559653878589E+01
-0.4043941908092E+00 -0.2363407710821E+01 -0.5535603885747E+00 -0.1584753174158E+01
-0.1259256876349E+00 -0.2197551666931E+01 -0.4646954778378E+00 -0.1621343383887E+01
 0.2904571507860E+00 -0.2081025071256E+01 -0.3581135894302E+00 -0.1665153608274E+01
 0.8466895524699E+00 -0.2022402009013E+01 -0.2351424948124E+00 -0.1704936869569E+01
 0.1522730316747E+01 -0.2018124001103E+01 -0.9907873834750E-01 -0.1722353327025E+01
 0.2273538714123E+01 -0.2049701099966E+01  0.4476752349840E-01 -0.1695660872481E+01
 0.3033177126401E+01 -0.2085856339796E+01  0.1894641601443E+00 -0.1607026616729E+01
 0.3727028088198E+01 -0.2090553123545E+01  0.3272949978076E+00 -0.1450345144645E+01
-0.8105774658266E+00 -0.3501422020145E+01 -0.8623999100450E+00 -0.1043905883059E+01
-0.6909679040310E+00 -0.3546202739262E+01 -0.8474341412864E+00 -0.1232499705907E+01
-0.5777362834474E+00 -0.3576811646193E+01 -0.8309095983096E+00 -0.1382178371917E+01
-0.4871789219703E+00 -0.3583588238678E+01 -0.8141534442616E+00 -0.1487674493072E+01
-0.4296531215841E+00 -0.3560644457675E+01 -0.7980595277439E+00 -0.1553820836032E+01
-0.4086970676557E+00 -0.3505761156406E+01 -0.7828916564783E+00 -0.1590335150451E+01
-0.4220061676353E+00 -0.3419107174309E+01 -0.7682226798363E+00 -0.1607475528258E+01
-0.4627074717317E+00 -0.3302068130086E+01 -0.7529551315834E+00 -0.1613781394403E+01
-0.5199851206872E+00 -0.3156897186404E+01 -0.7353764723762E+00 -0.1615481702150E+01
-0.5790217751799E+00 -0.2987160412197E+01 -0.7132364481035E+00 -0.1616734624466E+01
-0.6206959954270E+00 -0.2798734029815E+01 -0.6838860152391E+00 -0.1620133381644E+01
-0.6214839190329E+00 -0.2600941396271E+01 -0.6444850726644E+00 -0.1627123687291E+01
-0.5544355985077E+00 -0.2406716236292E+01 -0.5922303757848E+00 -0.1638517450715E+01
-0.3917662163995E+00 -0.2231650511187E+01 -0.5246833533357E+00 -0.1654956590997E+01
-0.1089190520281E+00 -0.2092530941075E+01 -0.4402900051814E+00 -0.1675941583542E+01
 0.3093559334599E+00 -0.2003986422884E+01 -0.3389261029352E+00 -0.1698000512503E+01
 0.8618804373638E+00 -0.1973236655785E+01 -0.2222712469964E+00 -0.1713087743461E+01
 0.1525604834175E+01 -0.1995248978335E+01 -0.9392883023161E-01 -0.1708565949999E+01
 0.2254188776012E+01 -0.2050958246811E+01  0.4064610644585E-01 -0.1669695736163E+01
 0.2983318968798E+01 -0.2110249160104E+01  0.1746139643407E+00 -0.1584503146313E+01
 0.3642764945084E+01 -0.2139891621484E+01  0.3005746691989E+00 -0.1449149464594E+01
-0.7334945702337E+00 -0.3178111420789E+01 -0.7823212098621E+00 -0.1025865556856E+01
-0.6250531093601E+00 -0.3221461404776E+01 -0.7693029142907E+00 -0.1217580732330E+01
-0.5275830164910E+00 -0.3252647814677E+01 -0.7560461774995E+00 -0.1374127024159E+01
-0.4528955247925E+00 -0.3264094820473E+01 -0.7433980801305E+00 -0.1489208865750E+01
-0.4084635900442E+00 -0.3250708297064E+01 -0.7318343883268E+00 -0.1566385444069E+01
-0.3968032757844E+00 -0.3209841131621E+01 -0.7213288922296E+00 -0.1614377575631E+01
-0.4158611215502E+00 -0.3140613439684E+01 -0.7112949228459E+00 -0.1642867028019E+01
-0.4595666891558E+00 -0.3043314476856E+01 -0.7005762436417E+00 -0.1660038277308E+01
-0.5179818621195E+00 -0.2919349546458E+01 -0.6874662919597E+00 -0.1671690599133E+01
-0.5770234641543E+00 -0.2771752224464E+01 -0.6697551477037E+00 -0.1681271213795E+01
-0.6180787673138E+00 -0.2606041010617E+01 -0.6448239651947E+00 -0.1690363322430E+01
-0.6178855078844E+00 -0.2431211001971E+01 -0.6098193110580E+00 -0.1699235381202E+01
-0.5495860016319E+00 -0.2260194399652E+01 -0.5619560886306E+00 -0.1707395987008E+01
-0.3855747043010E+00 -0.2108971988727E+01 -0.4989093460399E+00 -0.1714230066831E+01
-0.1019164238111E+00 -0.1994574860356E+01 -0.4192982630814E+00 -0.1718714380980E+01
 0.3153271243351E+00 -0.1931367744964E+01 -0.3232081289419E+00 -0.1718511035834E+01
 0.8630866297890E+00 -0.1925852498364E+01 -0.2125531768823E+00 -0.1709047946896E+01
 0.1516452987509E+01 -0.1972217968821E+01 -0.9115299762060E-01 -0.1683360913783E+01
 0.2228209180429E+01 -0.2051140311419E+01  0.3541377432977E-01 -0.1633228043620E+01
 0.2934930794038E+01 -0.2133300750681E+01  0.1603260110605E+00 -0.1551716454969E+01
 0.3569075870791E+01 -0.2187358746521E+01  0.2763434289719E+00 -0.1436475153070E+01
-0.6559931678245E+00 -0.2856140677665E+01 -0.7024267795650E+00 -0.1008296848093E+01
-0.5574164789824E+00 -0.2898627279246E+01 -0.6912087619454E+00 -0.1202840799549E+01
-0.4746226108645E+00 -0.2930867038684E+01 -0.6810979400589E+00 -0.1365017557160E+01
-0.4150705288276E+00 -0.2947372499963E+01 -0.6724886157790E+00 -0.1487880803056E+01
-0.3833353537672E+00 -0.2943957480341E+01 -0.6654585767377E+00 -0.1574232366434E+01
-0.3808043906468E+00 -0.2917703040670E+01 -0.6597014960936E+00 -0.1632155529946E+01
-0.4055912380801E+00 -0.2866779795632E+01 -0.6544742164948E+00 -0.1670876620589E+01
-0.4524350822974E+00 -0.2790371164135E+01 -0.6485612589507E+00 -0.1698183677778E+01
-0.5123734835835E+00 -0.2688918517330E+01 -0.6402584097232E+00 -0.1719344724108E+01
-0.5722066837521E+00 -0.2564726911583E+01 -0.6273867284158E+00 -0.1736991315535E+01
-0.6139837481723E+00 -0.2422718740791E+01 -0.6073405068428E+00 -0.1751591236162E+01
-0.6148256125097E+00 -0.2271322740555E+01 -0.5772296792142E+00 -0.1762117378975E+01
-0.5480143976371E+00 -0.2123243227488E+01 -0.5342515329859E+00 -0.1766691163286E+01
-0.3859891062264E+00 -0.1994678102046E+01 -0.4761334487495E+00 -0.1763452353558E+01
-0.1049644896655E+00 -0.1902926013922E+01 -0.4015781067015E+00 -0.1750963471719E+01
 0.3085758820860E+00 -0.1862431277475E+01 -0.3107710837086E+00 -0.1728184557467E+01
 0.8508442158560E+00 -0.1879604366542E+01 -0.2057520332031E+00 -0.1694153413700E+01
 0.1496084126535E+01 -0.1948485844099E+01 -0.9048034486101E-01 -0.1647576071890E+01
 0.2196449218898E+01 -0.2049714842192E+01  0.2934687577861E-01 -0.1586510018691E+01
 0.2888553227119E+01 -0.2154337893272E+01  0.1468430689575E+00 -0.1508595384494E+01
 0.3505879881422E+01 -0.2232002086643E+01  0.2547755627522E+00 -0.1412424143847E+01
-0.5779711713778E+00 -0.2534341490006E+01 -0.6224625415521E+00 -0.9909903204475E+00
-0.4883213584543E+00 -0.2576444763945E+01 -0.6129532336136E+00 -0.1188077725706E+01
-0.4194177721531E+00 -0.2610233190683E+01 -0.6059302015962E+00 -0.1354659214369E+01
-0.3743877538157E+00 -0.2632337521299E+01 -0.6013450639838E+00 -0.1483490383122E+01
-0.3549041659218E+00 -0.2639539190702E+01 -0.5988886802488E+00 -0.1577108855666E+01
-0.3611979193965E+00 -0.2628721484057E+01 -0.5979838896014E+00 -0.1643323481538E+01
-0.3915404876168E+00 -0.2597150747570E+01 -0.5977382559443E+00 -0.1691054219025E+01
-0.4415261955386E+00 -0.2542884045785E+01 -0.5968820571589E+00 -0.1727688899592E+01
-0.5032751146347E+00 -0.2465298186375E+01 -0.5937146690490E+00 -0.1757898089665E+01
-0.5646182126041E+00 -0.2365793871939E+01 -0.5860824256419E+00 -0.1783421616960E+01
-0.6084170350444E+00 -0.2248472232871E+01 -0.5713778620974E+00 -0.1803527125592E+01
-0.6122926723285E+00 -0.2120963759941E+01 -0.5466512945997E+00 -0.1815783205157E+01
-0.5497018106975E+00 -0.1995523954070E+01 -0.5090451605388E+00 -0.1816829485966E+01
-0.3929721360578E+00 -0.1888404465171E+01 -0.4562753270448E+00 -0.1803517247069E+01
-0.1179749367236E+00 -0.1817203004523E+01 -0.3870355940165E+00 -0.1773983326458E+01
 0.2892855733261E+00 -0.1796789998293E+01 -0.3015008894860E+00 -0.1728484790800E+01
 0.8254668195064E+00 -0.1834105670146E+01 -0.2017277731339E+00 -0.1669684454470E+01
 0.1464939448257E+01 -0.1923657080556E+01 -0.9174352782695E-01 -0.1602000258362E+01
 0.2159397779609E+01 -0.2046231514784E+01  0.2263325330226E-01 -0.1529791133096E+01
 0.2844540331955E+01 -0.2172748552041E+01  0.1343583579851E+00 -0.1455145867854E+01
 0.3453164852590E+01 -0.2272900660217E+01  0.2360528419922E+00 -0.1377251478714E+01
-0.4993256315856E+00 -0.2211525977769E+01 -0.5421703299498E+00 -0.9737838735831E+00
-0.4180346074031E+00 -0.2253631754860E+01 -0.5343332804149E+00 -0.1173112800128E+01
-0.3625387955136E+00 -0.2289471458180E+01 -0.5304020586423E+00 -0.1342834984867E+01
-0.3315475162809E+00 -0.2317849042508E+01 -0.5298793196535E+00 -0.1475767996019E+01
-0.3238334385270E+00 -0.2336523313696E+01 -0.5320713583731E+00 -0.1574677842239E+01
-0.3385156084277E+00 -0.2342178532433E+01 -0.5361388361612E+00 -0.1647463323124E+01
-0.3740831748911E+00 -0.2331173707332E+01 -0.5410513845070E+00 -0.1702899410561E+01
-0.4270667987137E+00 -0.2300411691277E+01 -0.5454957061266E+00 -0.1747993927017E+01
-0.4907847016795E+00 -0.2248122225210E+01 -0.5477813935404E+00 -0.1786783942358E+01
-0.5542452995836E+00 -0.2174648510226E+01 -0.5457787700947E+00 -0.1820071672408E+01
-0.6012738602259E+00 -0.2083060165194E+01 -0.5368668130840E+00 -0.1845864238064E+01
-0.6101106940388E+00 -0.1979962669738E+01 -0.5180146804744E+00 -0.1860229341856E+01
-0.5544245920971E+00 -0.1876938837041E+01 -0.4862726930736E+00 -0.1858220948890E+01
-0.4062825184728E+00 -0.1790117574031E+01 -0.4392800250465E+00 -0.1835305344777E+01
-0.1407287844813E+00 -0.1737402057110E+01 -0.3756261739156E+00 -0.1789063585368E+01
 0.2576131387541E+00 -0.1734409099908E+01 -0.2953591966321E+00 -0.1720883097270E+01
 0.7870429428524E+00 -0.1789227821014E+01 -0.2004369786191E+00 -0.1636938329424E+01
 0.1423097515390E+01 -0.1897483045383E+01 -0.9487710741239E-01 -0.1547440636019E+01
 0.2117207405883E+01 -0.2040324936595E+01  0.1537649408656E-01 -0.1463351259864E+01
 0.2803100619743E+01 -0.2187997219060E+01  0.1230206819697E+00 -0.1391459215245E+01
 0.3411023664711E+01 -0.2309188318351E+01  0.2203670725556E+00 -0.1331383456749E+01
-0.4199545547554E+00 -0.1886463483461E+01 -0.4612836145169E+00 -0.9565652691482E+00
-0.3468415580187E+00 -0.1928856238506E+01 -0.4551395660871E+00 -0.1157793236658E+01
-0.3045831562954E+00 -0.1967253360685E+01 -0.4543673101666E+00 -0.1329304870889E+01
-0.2872791648021E+00 -0.2002708520519E+01 -0.4579975438890E+00 -0.1464379107194E+01
-0.2908160546951E+00 -0.2033913620695E+01 -0.4649459420062E+00 -0.1566523367354E+01
-0.3133186946313E+00 -0.2057278811008E+01 -0.4741195081928E+00 -0.1644088314452E+01
-0.3536185629986E+00 -0.2068210855672E+01 -0.4843658909517E+00 -0.1705861466545E+01
-0.4092943722299E+00 -0.2062430683002E+01 -0.4943450184127E+00 -0.1758501375821E+01
-0.4749837750114E+00 -0.2036962696902E+01 -0.5023893018689E+00 -0.1805400832425E+01
-0.5410183809316E+00 -0.1990966479002E+01 -0.5063969795327E+00 -0.1846410573023E+01
-0.5923415500644E+00 -0.1926287078000E+01 -0.5037257331189E+00 -0.1878245758916E+01
-0.6079407655000E+00 -0.1848282418970E+01 -0.4912446442141E+00 -0.1895393820037E+01
-0.5617524006332E+00 -0.1767628076256E+01 -0.4658761023199E+00 -0.1891216281904E+01
-0.4254671033860E+00 -0.1700119917087E+01 -0.4251174104294E+00 -0.1859653605823E+01
-0.1728623194392E+00 -0.1663913561440E+01 -0.3673551816499E+00 -0.1797489060726E+01
 0.2137035768636E+00 -0.1675631892479E+01 -0.2923856674800E+00 -0.1706901376491E+01
 0.7354393180467E+00 -0.1745123968235E+01 -0.2019369330468E+00 -0.1597305555321E+01
 0.1370263803259E+01 -0.1869871254154E+01 -0.9992149166785E-01 -0.1484793963655E+01
 0.2069693244733E+01 -0.2031718042554E+01  0.7595040549149E-02 -0.1387529143695E+01
 0.2764326937543E+01 -0.2199642465202E+01  0.1129368961512E+00 -0.1317711788349E+01
 0.3379692683192E+01 -0.2340080635463E+01  0.2079224126440E+00 -0.1275433774867E+01
-0.3397590043524E+00 -0.1557856960116E+01 -0.3795231985490E+00 -0.9392762181989E+00
-0.2750616260363E+00 -0.1600712830753E+01 -0.3751548969481E+00 -0.1141993501024E+01
-0.2461952290416E+00 -0.1642182668592E+01 -0.3776755851545E+00 -0.1313804297236E+01
-0.2423530511046E+00 -0.1685660576160E+01 -0.3856027311989E+00 -0.1448923404454E+01
-0.2565758005470E+00 -0.1730659887809E+01 -0.3974471435937E+00 -0.1552152865508E+01
-0.2861937672015E+00 -0.1773164183874E+01 -0.4118715963525E+00 -0.1632647097563E+01
-0.3305673218148E+00 -0.1807549067422E+01 -0.4276232842195E+00 -0.1699341529757E+01
-0.3884575216938E+00 -0.1828337419918E+01 -0.4433589949290E+00 -0.1758573271122E+01
-0.4559420898883E+00 -0.1831323718841E+01 -0.4574531685624E+00 -0.1813101162102E+01
-0.5248183462677E+00 -0.1814391092862E+01 -0.4678418947974E+00 -0.1861845244363E+01
-0.5813069669457E+00 -0.1777987472639E+01 -0.4718588949482E+00 -0.1900231966252E+01
-0.6052852818037E+00 -0.1726005172923E+01 -0.4662580978932E+00 -0.1921113579911E+01
-0.5710441650715E+00 -0.1667961784130E+01 -0.4478011965131E+00 -0.1916060445209E+01
-0.4498429325380E+00 -0.1619057758794E+01 -0.4137801444322E+00 -0.1877318307482E+01
-0.2138340625752E+00 -0.1597553062821E+01 -0.3622774304776E+00 -0.1800531988920E+01
 0.1577265344611E+00 -0.1621232339002E+01 -0.2927011652697E+00 -0.1688151473797E+01
 0.6703136717929E+00 -0.1702282966737E+01 -0.2063938620643E+00 -0.1552354367335E+01
 0.1305741186898E+01 -0.1840909083402E+01 -0.1070335808958E+00 -0.1415133484403E+01
 0.2016298972335E+01 -0.2020218344520E+01 -0.7838744487887E-03 -0.1302751786659E+01
 0.2728218521441E+01 -0.2207350536508E+01  0.1041735985391E+00 -0.1234150317638E+01
 0.3359590604918E+01 -0.2364902945118E+01  0.1989375349243E+00 -0.1210218644144E+01
-0.2586459046937E+00 -0.1224316857220E+01 -0.2965925568022E+00 -0.9219181539261E+00
-0.2030661729546E+00 -0.1267697591181E+01 -0.2941527572102E+00 -0.1125615064768E+01
-0.1880872324924E+00 -0.1312782216509E+01 -0.3001738942733E+00 -0.1296036890762E+01
-0.1975915345336E+00 -0.1365396945339E+01 -0.3125977006325E+00 -0.1428928065943E+01
-0.2218671832604E+00 -0.1425672927998E+01 -0.3295080271618E+00 -0.1530996725400E+01
-0.2577481485652E+00 -0.1488929438108E+01 -0.3493355225401E+00 -0.1612528524890E+01
-0.3053692430038E+00 -0.1548408590204E+01 -0.3707555721662E+00 -0.1682697746529E+01
-0.3648192345627E+00 -0.1597446642160E+01 -0.3924531811925E+00 -0.1747531425782E+01
-0.4337263515349E+00 -0.1630629897030E+01 -0.4128712558653E+00 -0.1809183032809E+01
-0.5054887747480E+00 -0.1644513578525E+01 -0.4300004770621E+00 -0.1865701166963E+01
-0.5677691380882E+00 -0.1638001127201E+01 -0.4411540596314E+00 -0.1911268333153E+01
-0.6014960920516E+00 -0.1613307913846E+01 -0.4429608077802E+00 -0.1937080223205E+01
-0.5814437395869E+00 -0.1578524822329E+01 -0.4319937188204E+00 -0.1932840230290E+01
-0.4784706328617E+00 -0.1547928997465E+01 -0.4052799321045E+00 -0.1888926833138E+01
-0.2628721779045E+00 -0.1539605305031E+01 -0.3604955019589E+00 -0.1799430374658E+01
 0.8994038193771E-01 -0.1572496511982E+01 -0.2965112304273E+00 -0.1666365592983E+01
 0.5911462062018E+00 -0.1661624843233E+01 -0.2140957305966E+00 -0.1503925633967E+01
 0.1228379727953E+01 -0.1810913844953E+01 -0.1165068251361E+00 -0.1339829518009E+01
 0.1956010897269E+01 -0.2005694758118E+01 -0.9936772317834E-02 -0.1209578341455E+01
 0.2694697810229E+01 -0.2210886529916E+01  0.9676225750464E-01 -0.1141048100160E+01
 0.3351360938260E+01 -0.2383112637751E+01  0.1936496629875E+00 -0.1136768708600E+01
-0.1765321082814E+00 -0.8843298728151E+00 -0.2121723993809E+00 -0.9045599233110E+00
-0.1313005887029E+00 -0.9281791862305E+00 -0.2118959581442E+00 -0.1108583625313E+01
-0.1310624789630E+00 -0.9774819380612E+00 -0.2217088867086E+00 -0.1275659952346E+01
-0.1538782361929E+00 -0.1040565671014E+01 -0.2388887850010E+00 -0.1403834416373E+01
-0.1874720992090E+00 -0.1117844788388E+01 -0.2610633814095E+00 -0.1502405657110E+01
-0.2286036140958E+00 -0.1203640366320E+01 -0.2864488003516E+00 -0.1583068326355E+01
-0.2784816612990E+00 -0.1289951135539E+01 -0.3136865640418E+00 -0.1655254329605E+01
-0.3386628765371E+00 -0.1368986934252E+01 -0.3415299672470E+00 -0.1724662339629E+01
-0.4084132224391E+00 -0.1434209512129E+01 -0.3685245524051E+00 -0.1792886349478E+01
-0.4828536050330E+00 -0.1480845819072E+01 -0.3927398906733E+00 -0.1857206478960E+01
-0.5512580072126E+00 -0.1506138814458E+01 -0.4114793704656E+00 -0.1910655350534E+01
-0.5957882609089E+00 -0.1510426983935E+01 -0.4212430552458E+00 -0.1942794204937E+01
-0.5918780806231E+00 -0.1500091384249E+01 -0.4183938992089E+00 -0.1941424491177E+01
-0.5101215412039E+00 -0.1488086301263E+01 -0.3996415744485E+00 -0.1894913522997E+01
-0.3189021010510E+00 -0.1491879005918E+01 -0.3621562267903E+00 -0.1795345182174E+01
 0.1078979557842E-01 -0.1531333633508E+01 -0.3041087721175E+00 -0.1643409511159E+01
 0.4973080998498E+00 -0.1624650971973E+01 -0.2254685777845E+00 -0.1454232645531E+01
 0.1136513909278E+01 -0.1780544232377E+01 -0.1288060665391E+00 -0.1260728407632E+01
 0.1887179166276E+01 -0.1988024464857E+01 -0.2016906001675E-01 -0.1108799037621E+01
 0.2663615631211E+01 -0.2210023165459E+01  0.9071849450225E-01 -0.1038602774816E+01
 0.3355943774794E+01 -0.2394290807174E+01  0.1923305963899E+00 -0.1056314548945E+01
-0.9335060033076E-01 -0.5362188851245E+00 -0.1259138989673E+00 -0.8873478102912E+00
-0.6031326030472E-01 -0.5803640037633E+00 -0.1281354547230E+00 -0.1090842025696E+01
-0.7604195279699E-01 -0.6346090578625E+00 -0.1421302042498E+00 -0.1252259755709E+01
-0.1121640862211E+00 -0.7097885849791E+00 -0.1643905366897E+00 -0.1372976829354E+01
-0.1541913350448E+00 -0.8060766765545E+00 -0.1920536051817E+00 -0.1465646698157E+01
-0.1993871649766E+00 -0.9163554504224E+00 -0.2231485264050E+00 -0.1543559016182E+01
-0.2503780339248E+00 -0.1031287823356E+01 -0.2563331752758E+00 -0.1616315726017E+01
-0.3103007951763E+00 -0.1142093395225E+01 -0.2904788424086E+00 -0.1689227654325E+01
-0.3801067516498E+00 -0.1241272404675E+01 -0.3242758360970E+00 -0.1763394280743E+01
-0.4567407174461E+00 -0.1322785170818E+01 -0.3559051829562E+00 -0.1835480633540E+01
-0.5312602935148E+00 -0.1382137398518E+01 -0.3826795441090E+00 -0.1897521145848E+01
-0.5872617643661E+00 -0.1417609544950E+01 -0.4009742678382E+00 -0.1937518279715E+01
-0.6010612649459E+00 -0.1433584816800E+01 -0.4069292224129E+00 -0.1941396080862E+01
-0.5432444153962E+00 -0.1441229750731E+01 -0.3968948391397E+00 -0.1895436392196E+01
-0.3804518119569E+00 -0.1456763208107E+01 -0.3674430094882E+00 -0.1789284254533E+01
-0.7896280835469E-01 -0.1500426671803E+01 -0.3158779007385E+00 -0.1621273522529E+01
 0.3881940257115E+00 -0.1593637003513E+01 -0.2410885991528E+00 -0.1405942909884E+01
 0.1027930323022E+01 -0.1751058453331E+01 -0.1446256282169E+00 -0.1180402154167E+01
 0.1807173002039E+01 -0.1967047287159E+01 -0.3197485750052E-01 -0.1001704745119E+01
 0.2634674680635E+01 -0.2204197369858E+01  0.8609546343830E-01 -0.9267540920320E+00
 0.3374792004050E+01 -0.2397960677446E+01  0.1953662682320E+00 -0.9701160178245E+00
-0.9060265359745E-02 -0.1780884760303E+00 -0.3742974883575E-01 -0.8705184613602E+00
 0.9204704036878E-02 -0.2222524090638E+00 -0.4260954164031E-01 -0.1072335690537E+01
-0.2409505609334E-01 -0.2823828135891E+00 -0.6129557484986E-01 -0.1225312141243E+01
-0.7346763870387E-01 -0.3716919826299E+00 -0.8903192559344E-01 -0.1335552473653E+01
-0.1228282774301E+00 -0.4893179709322E+00 -0.1224292514968E+00 -0.1419899382430E+01
-0.1707175805417E+00 -0.6261523999768E+00 -0.1593739984786E+00 -0.1493264959850E+01
-0.2215462564089E+00 -0.7714876212304E+00 -0.1986067784873E+00 -0.1565187213354E+01
-0.2800854047435E+00 -0.9157981522336E+00 -0.2391767149594E+00 -0.1640481295856E+01
-0.3489603559236E+00 -0.1050883040833E+01 -0.2799686835231E+00 -0.1719841368724E+01
-0.4270118768124E+00 -0.1169571319587E+01 -0.3193166440381E+00 -0.1799529015115E+01
-0.5072536551951E+00 -0.1265603667828E+01 -0.3545714698881E+00 -0.1870798395747E+01
-0.5749331333114E+00 -0.1335049961762E+01 -0.3819966247069E+00 -0.1920231481604E+01
-0.6075103840842E+00 -0.1380018676950E+01 -0.3975058181301E+00 -0.1931976799924E+01
-0.5759343477000E+00 -0.1409378282490E+01 -0.3970625319548E+00 -0.1890269721410E+01
-0.4455520230863E+00 -0.1437280920009E+01 -0.3765665942304E+00 -0.1781989180070E+01
-0.1780230603466E+00 -0.1483397846678E+01 -0.3322841863563E+00 -0.1601999091103E+01
 0.2633334087405E+00 -0.1571957889749E+01 -0.2617249001017E+00 -0.1362301740432E+01
 0.9001316009235E+00 -0.1724505485213E+01 -0.1648747793147E+00 -0.1102255662751E+01
 0.1711664545028E+01 -0.1943321921621E+01 -0.4633147600903E-01 -0.8909331002220E+00
 0.2607076292442E+01 -0.2190907882540E+01  0.8323368322052E-01 -0.8049827101379E+00
 0.3410460092619E+01 -0.2393209064773E+01  0.2034502086009E+00 -0.8787187962296E+00
 0.7633861489896E-01  0.1922533615424E+00  0.5371839608873E-01 -0.8544150946789E+00
 0.7636319592385E-01  0.1484166515989E+00  0.4495597017445E-01 -0.1052984798142E+01
 0.2352543215928E-01  0.8108226522878E-01  0.2092153978937E-01 -0.1194121491030E+01
-0.3886536888705E-01 -0.2495800401860E-01 -0.1276467477134E-01 -0.1290580436117E+01
-0.9416133278419E-01 -0.1666195650887E+00 -0.5215618035177E-01 -0.1364254905728E+01
-0.1431866639577E+00 -0.3321597516106E+00 -0.9506928453031E-01 -0.1431445000035E+01
-0.1924864164233E+00 -0.5095862585578E+00 -0.1404145370886E+00 -0.1501203132890E+01
-0.2484225091775E+00 -0.6890192331755E+00 -0.1874883512644E+00 -0.1577694361045E+01
-0.3152032919937E+00 -0.8619291140778E+00 -0.2354264847224E+00 -0.1661329742814E+01
-0.3935994581403E+00 -0.1020234876857E+01 -0.2827668712130E+00 -0.1748245210427E+01
-0.4787499585081E+00 -0.1155945903172E+01 -0.3269391772079E+00 -0.1829207260541E+01
-0.5577800355344E+00 -0.1262809458123E+01 -0.3641179041572E+00 -0.1889586029827E+01
-0.6095761247469E+00 -0.1340413749931E+01 -0.3899979807470E+00 -0.1911946979223E+01
-0.6059231398143E+00 -0.1394811800522E+01 -0.4001469940299E+00 -0.1878675737592E+01
-0.5116079244577E+00 -0.1437111525026E+01 -0.3897438957044E+00 -0.1773760812711E+01
-0.2843733876688E+00 -0.1485018586137E+01 -0.3538784000343E+00 -0.1587562355364E+01
 0.1228824337908E+00 -0.1564414983110E+01 -0.2883065141599E+00 -0.1327098688916E+01
 0.7497807847480E+00 -0.1704413293272E+01 -0.1909265045498E+00 -0.1031097349791E+01
 0.1596686805105E+01 -0.1917764455089E+01 -0.6421553095371E-01 -0.7797785277021E+00
 0.2573214729020E+01 -0.2170370972346E+01  0.8056875253532E-01 -0.6776883597080E+00
 0.3473275129757E+01 -0.2360068022388E+01  0.2226414247914E+00 -0.7731386395892E+00
 0.1628401755552E+00  0.5774763383350E+00  0.1480633049844E+00 -0.8394511381847E+00
 0.1400441135410E+00  0.5345355928912E+00  0.1349159432969E+00 -0.1032585634270E+01
 0.6539506386880E-01  0.4582270779028E+00  0.1047244299148E+00 -0.1157640029324E+01
-0.9414626393538E-02  0.3322223723502E+00  0.6456155015338E-01 -0.1236716246330E+01
-0.6884608495694E-01  0.1635432750447E+00  0.1893943829978E-01 -0.1297532561250E+01
-0.1172652170789E+00 -0.3276399304411E-01 -0.3000584247173E-01 -0.1357140133680E+01
-0.1636163997170E+00 -0.2437255803188E+00 -0.8146839722113E-01 -0.1423467952762E+01
-0.2156659492736E+00 -0.4596825371938E+00 -0.1350696993062E+00 -0.1499850148987E+01
-0.2790188359116E+00 -0.6722758984879E+00 -0.1902589497150E+00 -0.1586585797160E+01
-0.3563714187407E+00 -0.8728393543792E+00 -0.2458421582873E+00 -0.1680041872046E+01
-0.4451646381938E+00 -0.1051760549892E+01 -0.2993850420784E+00 -0.1770878589495E+01
-0.5346491013607E+00 -0.1200395975574E+01 -0.3470090205577E+00 -0.1843542789071E+01
-0.6054397712214E+00 -0.1315602890853E+01 -0.3842085381401E+00 -0.1879307339230E+01
-0.6307046403277E+00 -0.1400115641666E+01 -0.4061640624511E+00 -0.1859089277421E+01
-0.5757154251343E+00 -0.1460903320834E+01 -0.4073237552633E+00 -0.1764164381693E+01
-0.3956553492591E+00 -0.1511792896694E+01 -0.3814896548752E+00 -0.1579604815901E+01
-0.3350059066190E-01 -0.1578142487842E+01 -0.3223286205038E+00 -0.1304654167055E+01
 0.5727876288225E+00 -0.1696274517598E+01 -0.2246973811033E+00 -0.9727521886338E+00
 0.1452245637381E+01 -0.1893510259776E+01 -0.8825292579413E-01 -0.6737630873501E+00
 0.2534965106346E+01 -0.2141458690644E+01  0.7870128431298E-01 -0.5439335413295E+00
 0.3553528863514E+01 -0.2300910808001E+01  0.2505236148357E+00 -0.7027170584504E+00
 0.2501804041083E+00  0.9807551153262E+00  0.2461871075554E+00 -0.8263706264439E+00
 0.1986663541712E+00  0.9391716466033E+00  0.2275676035459E+00 -0.1010873868016E+01
 0.9975407823938E-01  0.8510723869367E+00  0.1901652958689E+00 -0.1114540972935E+01
 0.1377948402986E-01  0.7007886610511E+00  0.1429136311458E+00 -0.1172479667096E+01
-0.4748491359628E-01  0.5017090856508E+00  0.9084483576459E-01 -0.1218672542780E+01
-0.9342560082390E-01  0.2727186610923E+00  0.3585861258802E-01 -0.1269669608390E+01
-0.1354544004516E+00  0.2712088492417E-01 -0.2166670342834E-01 -0.1331417313120E+01
-0.1823622934199E+00 -0.2264178434365E+00 -0.8175602858953E-01 -0.1406248223256E+01
-0.2408500653789E+00 -0.4803257404739E+00 -0.1442351633198E+00 -0.1494573990958E+01
-0.3154770855979E+00 -0.7257984052323E+00 -0.2082551012693E+00 -0.1593426617221E+01
-0.4061515882018E+00 -0.9518239250096E+00 -0.2715951066894E+00 -0.1693842230399E+01
-0.5044992920697E+00 -0.1147379811059E+01 -0.3303758255487E+00 -0.1779727035669E+01
-0.5931457095721E+00 -0.1306452141073E+01 -0.3799195757903E+00 -0.1831462102165E+01
-0.6471986543432E+00 -0.1428045968265E+01 -0.4150489307064E+00 -0.1829095777956E+01
-0.6336570153109E+00 -0.1513943417922E+01 -0.4295200930468E+00 -0.1751799712409E+01
-0.5073930443762E+00 -0.1571853822074E+01 -0.4158493794866E+00 -0.1579193087966E+01
-0.2033684165106E+00 -0.1623071264965E+01 -0.3652879417383E+00 -0.1300043549068E+01
 0.3650311289592E+00 -0.1709056738611E+01 -0.2688051259358E+00 -0.9359423486907E+00
 0.1271698969724E+01 -0.1875842825989E+01 -0.1208287730535E+00 -0.5807975364787E+00
 0.2472879320987E+01 -0.2108674791935E+01  0.7284090689568E-01 -0.4135936053824E+00
 0.3736342740769E+01 -0.2250522934300E+01  0.2971639657218E+00 -0.6432078642756E+00
 0.3380102018055E+00  0.1406085645075E+01  0.3488191745739E+00 -0.8159525555810E+00
 0.2500207541706E+00  0.1365679793452E+01  0.3231401143396E+00 -0.9871812376887E+00
 0.1245226669560E+00  0.1261064370641E+01  0.2771174116487E+00 -0.1062825428180E+01
 0.2970169835386E-01  0.1080603188448E+01  0.2220609806693E+00 -0.1096074873382E+01
-0.3051605596680E-01  0.8473386845574E+00  0.1633645281524E+00 -0.1126719853901E+01
-0.7210247935020E-01  0.5840351029142E+00  0.1023865262385E+00 -0.1168680666141E+01
-0.1086328574101E+00  0.3031651992345E+00  0.3890646894463E-01 -0.1224920762989E+01
-0.1493167155184E+00  0.1147726123899E-01 -0.2756789126667E-01 -0.1296680353430E+01
-0.2015307119822E+00 -0.2849419719271E+00 -0.9729453823166E-01 -0.1384748472254E+01
-0.2715488485157E+00 -0.5777411708558E+00 -0.1698580064054E+00 -0.1487308265808E+01
-0.3618683828216E+00 -0.8548871155284E+00 -0.2433511032962E+00 -0.1596349228157E+01
-0.4667066764904E+00 -0.1103103484482E+01 -0.3139620368729E+00 -0.1695720775961E+01
-0.5709088299361E+00 -0.1313471667268E+01 -0.3768761050568E+00 -0.1765426419901E+01
-0.6519804805554E+00 -0.1481021595703E+01 -0.4266004216086E+00 -0.1785452910026E+01
-0.6799171134194E+00 -0.1601576965751E+01 -0.4562988226334E+00 -0.1733945198313E+01
-0.6121592508932E+00 -0.1674582097848E+01 -0.4573482765633E+00 -0.1585940542552E+01
-0.3802322742445E+00 -0.1712502839922E+01 -0.4185470290702E+00 -0.1318074224900E+01
 0.1270344899949E+00 -0.1756406059003E+01 -0.3258743186575E+00 -0.9321020091930E+00
 0.1041842282079E+01 -0.1874382560526E+01 -0.1665080581706E+00 -0.5137173630533E+00
 0.2392974591452E+01 -0.2082211403510E+01  0.6215263851465E-01 -0.2940187553370E+00
 0.3928366823725E+01 -0.2225323997660E+01  0.3406085702884E+00 -0.5674163796339E+00
 0.4256357958324E+00  0.1858857348035E+01  0.4568986355818E+00 -0.8092528732055E+00
 0.2910952568662E+00  0.1818402576228E+01  0.4218995729056E+00 -0.9601583101249E+00
 0.1374272456256E+00  0.1689643032195E+01  0.3654140610093E+00 -0.9995288067873E+00
 0.3772732905624E-01  0.1471311487084E+01  0.3018077677254E+00 -0.1005300742170E+01
-0.1798951688825E-01  0.1200116093205E+01  0.2364253187865E+00 -0.1020726403799E+01
-0.5351464937093E-01  0.9015392701308E+00  0.1696049266793E+00 -0.1053883302287E+01
-0.8368389986809E-01  0.5854239484613E+00  0.1003480112139E+00 -0.1103869967201E+01
-0.1173178724398E+00  0.2556546900754E+00  0.2766736393938E-01 -0.1170922206020E+01
-0.1619580362598E+00 -0.8389509665873E-01 -0.4917062731641E-01 -0.1256474803013E+01
-0.2253446169692E+00 -0.4260986238253E+00 -0.1302886501003E+00 -0.1360371263142E+01
-0.3126369534571E+00 -0.7584967806719E+00 -0.2142267500180E+00 -0.1476238454574E+01
-0.4208389752700E+00 -0.1065825341399E+01 -0.2973328677644E+00 -0.1588473755844E+01
-0.5371510816265E+00 -0.1336308831138E+01 -0.3746919881363E+00 -0.1677331379623E+01
-0.6418102293972E+00 -0.1560888267979E+01 -0.4405397060398E+00 -0.1723704960133E+01
-0.7088692272207E+00 -0.1729024971889E+01 -0.4875788470874E+00 -0.1706140140735E+01
-0.7014335675501E+00 -0.1830460997740E+01 -0.5063789206037E+00 -0.1597106048384E+01
-0.5545656608737E+00 -0.1863554587940E+01 -0.4836240569692E+00 -0.1361888346217E+01
-0.1395908302488E+00 -0.1858944239294E+01 -0.3997070198647E+00 -0.9741595970122E+00
 0.7502222675015E+00 -0.1904176151145E+01 -0.2307907801678E+00 -0.4915018061286E+00
 0.2265270295038E+01 -0.2074666514519E+01  0.3812075667193E-01 -0.1847190560937E+00
 0.4151261413327E+01 -0.2210357142032E+01  0.3881808600433E+00 -0.4895207910817E+00
 0.5117931781333E+00  0.2346666252665E+01  0.5716918946786E+00 -0.8075840224914E+00
 0.3176097348100E+00  0.2302505803777E+01  0.5240231155259E+00 -0.9271131213484E+00
 0.1361173997273E+00  0.2137155862306E+01  0.4546546591815E+00 -0.9202803522227E+00
 0.3787776128121E-01  0.1871331375879E+01  0.3818418331220E+00 -0.8977249647289E+00
-0.9532288442629E-02  0.1559221548355E+01  0.3099378566010E+00 -0.9000477519554E+00
-0.3774545458596E-01  0.1225441502981E+01  0.2375392132186E+00 -0.9252792602175E+00
-0.6113534564189E-01  0.8748788069446E+00  0.1627486946857E+00 -0.9684234779650E+00
-0.8726693119413E-01  0.5078694755773E+00  0.8412051013013E-01 -0.1029041778343E+01
-0.1232860033437E+00  0.1253772879190E+00  0.4182569213006E-03 -0.1109387546822E+01
-0.1780046370010E+00 -0.2676950609057E+00 -0.8913994090963E-01 -0.1211432136864E+01
-0.2592298164866E+00 -0.6593868793913E+00 -0.1837233419133E+00 -0.1331231074149E+01
-0.3669125144082E+00 -0.1032924262636E+01 -0.2799673595807E+00 -0.1454500339904E+01
-0.4906609059056E+00 -0.1373776799462E+01 -0.3728875466301E+00 -0.1562517811275E+01
-0.6136374060565E+00 -0.1668748505552E+01 -0.4564771891238E+00 -0.1638184966230E+01
-0.7146823201555E+00 -0.1900902671769E+01 -0.5231170061800E+00 -0.1662006314915E+01
-0.7649256797967E+00 -0.2050152952121E+01 -0.5630157347731E+00 -0.1606759686671E+01
-0.7116543809722E+00 -0.2097153624208E+01 -0.5617616094070E+00 -0.1430856716551E+01
-0.4252823439927E+00 -0.2047141784597E+01 -0.4944848330862E+00 -0.1076343904199E+01
 0.3795589624471E+00 -0.1992492941008E+01 -0.3225868005191E+00 -0.5408217074501E+00
 0.2051060486772E+01 -0.2092144910919E+01 -0.8216884952030E-02 -0.1022559781189E+00
 0.4415500698280E+01 -0.2208999611904E+01  0.4413002238511E+00 -0.4175261097867E+00
 0.5941954699117E+00  0.2880970517686E+01  0.6950332078764E+00 -0.8124477386209E+00
 0.3234043294054E+00  0.2823845477996E+01  0.6294499708599E+00 -0.8826567467171E+00
 0.1186642496383E+00  0.2601480997813E+01  0.5440290575969E+00 -0.8187722615424E+00
 0.3130993476441E-01  0.2277373271146E+01  0.4617366480625E+00 -0.7711177663762E+00
-0.4315274262873E-02  0.1923473227232E+01  0.3838315963134E+00 -0.7646184481726E+00
-0.2478464107656E-01  0.1555857825252E+01  0.3062146413981E+00 -0.7831994048303E+00
-0.4149359210308E-01  0.1172436517890E+01  0.2261885885279E+00 -0.8190385042320E+00
-0.6015706038930E-01  0.7699193104707E+00  0.1419524521315E+00 -0.8714791084051E+00
-0.8694708799409E-01  0.3457482497130E+00  0.5176023311507E-01 -0.9435246916389E+00
-0.1311377060531E+00 -0.9865338149906E-01 -0.4595821819527E-01 -0.1039586579234E+01
-0.2030099052021E+00 -0.5532715385968E+00 -0.1512562910137E+00 -0.1159021489701E+01
-0.3055548178883E+00 -0.1000662052448E+01 -0.2612433779602E+00 -0.1289889888902E+01
-0.4307673190479E+00 -0.1423630913265E+01 -0.3708796519890E+00 -0.1415502577296E+01
-0.5648144158218E+00 -0.1804694702725E+01 -0.4739018307710E+00 -0.1521968742729E+01
-0.6917774165869E+00 -0.2120728091209E+01 -0.5625011099411E+00 -0.1593238557240E+01
-0.7916746859913E+00 -0.2343093967724E+01 -0.6269537400854E+00 -0.1605156199001E+01
-0.8308089126258E+00 -0.2435904374895E+01 -0.6533426672398E+00 -0.1517446925043E+01
-0.7070739293722E+00 -0.2364829204093E+01 -0.6143806358480E+00 -0.1249089380153E+01
-0.8317735681800E-01 -0.2186947065649E+01 -0.4540248912588E+00 -0.7030636168380E+00
 0.1688048728424E+01 -0.2154417873450E+01 -0.9327383039513E-01 -0.8561573504174E-01
 0.4726139136342E+01 -0.2232887089764E+01  0.4986504167462E+00 -0.3620923170284E+00
 0.6687211508753E+00  0.3480626847309E+01  0.8298696120029E+00 -0.8250913436975E+00
 0.2995784910996E+00  0.3387754396811E+01  0.7374665885712E+00 -0.8158102563738E+00
 0.8483533297795E-01  0.3075203892449E+01  0.6320078545030E+00 -0.6864999874097E+00
 0.2095158068566E-01  0.2684356051417E+01  0.5410615344829E+00 -0.6245538301612E+00
-0.1238448681844E-02  0.2291777803340E+01  0.4581078777580E+00 -0.6151881000105E+00
-0.1460372222896E-01  0.1892811591222E+01  0.3756415793961E+00 -0.6282597198098E+00
-0.2520015565529E-01  0.1478889216284E+01  0.2907378164580E+00 -0.6564938994721E+00
-0.3702557713663E-01  0.1043539767110E+01  0.2013028409944E+00 -0.6991130232342E+00
-0.5464466184605E-01  0.5803089163574E+00  0.1051328524689E+00 -0.7595018754245E+00
-0.8691227083772E-01  0.8569291861099E-01 -0.2438704489796E-03 -0.8444324745787E+00
-0.1461110486430E+00 -0.4345711524149E+00 -0.1161364419421E+00 -0.9574179641037E+00
-0.2382023204502E+00 -0.9638779850654E+00 -0.2404160646856E+00 -0.1090309745490E+01
-0.3575206406377E+00 -0.1482355058133E+01 -0.3679751452374E+00 -0.1229934447578E+01
-0.4933157520797E+00 -0.1967568490274E+01 -0.4921768558047E+00 -0.1366871920182E+01
-0.6351640297918E+00 -0.2390525276343E+01 -0.6051378702442E+00 -0.1489692453532E+01
-0.7718093929681E+00 -0.2716145762722E+01 -0.6975910415330E+00 -0.1579144830002E+01
-0.8879270011924E+00 -0.2899079789589E+01 -0.7574013694424E+00 -0.1603887530241E+01
-0.9397612245569E+00 -0.2867600637107E+01 -0.7614723836796E+00 -0.1488278584288E+01
-0.6283391805962E+00 -0.2577590184554E+01 -0.6411858825845E+00 -0.1033639435227E+01
 0.1075942737606E+01 -0.2317207121319E+01 -0.2482528804418E+00 -0.2185523465225E+00
 0.5066713624304E+01 -0.2314420109719E+01  0.5504587111195E+00 -0.3516846919280E+00
 0.7281826454776E+00  0.4180581106818E+01  0.9817527650883E+00 -0.8444544243070E+00
 0.2334323399981E+00  0.3993282783816E+01  0.8453430373594E+00 -0.7035280215065E+00
 0.3922120962540E-01  0.3540380874754E+01  0.7159204275440E+00 -0.5144039859406E+00
 0.1188912078058E-01  0.3087370531613E+01  0.6198519397153E+00 -0.4605669327868E+00
 0.3961924759073E-03  0.2663581628579E+01  0.5327955721502E+00 -0.4530263888120E+00
-0.7130379564541E-02  0.2236101050950E+01  0.4457941409200E+00 -0.4613199634746E+00
-0.1258423519317E-01  0.1794958011174E+01  0.3564747605080E+00 -0.4819021502761E+00
-0.1886927619376E-01  0.1330218488396E+01  0.2622698463485E+00 -0.5132692860378E+00
-0.2827607964435E-01  0.8321494739634E+00  0.1607746812595E+00 -0.5587324284193E+00
-0.4815089826732E-01  0.2908416417349E+00  0.4853814941678E-01 -0.6264238493342E+00
-0.9167551433282E-01 -0.2960028673835E+00 -0.7753567749864E-01 -0.7245604087576E+00
-0.1673803880539E+00 -0.9155925895867E+00 -0.2165945987556E+00 -0.8509910623318E+00
-0.2718226998694E+00 -0.1544920363105E+01 -0.3633486180092E+00 -0.9984644373764E+00
-0.3979905950072E+00 -0.2154921989428E+01 -0.5105825244954E+00 -0.1163555153192E+01
-0.5406425683726E+00 -0.2710293402599E+01 -0.6501872038829E+00 -0.1339450210510E+01
-0.6974806963445E+00 -0.3173268429744E+01 -0.7741498367534E+00 -0.1513316465563E+01
-0.8643776052568E+00 -0.3496203295774E+01 -0.8721161932018E+00 -0.1663413767819E+01
-0.1052331660910E+01 -0.3605885322741E+01 -0.9316434106127E+00 -0.1754700969112E+01
-0.1176363586735E+01 -0.3325022337270E+01 -0.9002771982162E+00 -0.1578993187673E+01
 0.6760894835265E-01 -0.2742303151755E+01 -0.5349388486516E+00 -0.6761360870045E+00
 0.5350422483239E+01 -0.2543563338494E+01  0.5613718373141E+00 -0.4843989136415E+00
 0.7625312848942E+00  0.5058327381538E+01  0.1164171750634E+01 -0.8572025052012E+00
 0.1073192220582E+00  0.4605422791334E+01  0.9425484167235E+00 -0.4958991244194E+00
-0.7427756608998E-03  0.3964899540219E+01  0.7928313647258E+00 -0.3033088841363E+00
 0.9256929474711E-02  0.3489188915808E+01  0.6996891794827E+00 -0.2866777405107E+00
-0.1919003066173E-03  0.3036713482825E+01  0.6073043255532E+00 -0.2783391604156E+00
-0.1714743313492E-02  0.2586034060373E+01  0.5168638711137E+00 -0.2840369966892E+00
-0.4076799772863E-02  0.2121116807230E+01  0.4234080078006E+00 -0.2964603642424E+00
-0.6409070097141E-02  0.1631063361199E+01  0.3249308630622E+00 -0.3156940536851E+00
-0.9754430541179E-02  0.1103867235745E+01  0.2188225643015E+00 -0.3436244514877E+00
-0.1838438354257E-01  0.5230009797803E+00  0.1009233207514E+00 -0.3874774243422E+00
-0.4423649467035E-01 -0.1278836677769E+00 -0.3442403300241E-01 -0.4593028601666E+00
-0.9701838155388E-01 -0.8464029555144E+00 -0.1886842702253E+00 -0.5665754266160E+00
-0.1757566894243E+00 -0.1604710549057E+01 -0.3560934530024E+00 -0.7126305870744E+00
-0.2781146792514E+00 -0.2362775114466E+01 -0.5281779666140E+00 -0.9012828266584E+00
-0.4063622153458E+00 -0.3078656750827E+01 -0.6970038036208E+00 -0.1129962129797E+01
-0.5601330303692E+00 -0.3713085834092E+01 -0.8546437856274E+00 -0.1388913914259E+01
-0.7573129715813E+00 -0.4230330185344E+01 -0.9975286462493E+00 -0.1671057727997E+01
-0.9842512143653E+00 -0.4581171125469E+01 -0.1113084484553E+01 -0.1961489910628E+01
-0.1475513856343E+01 -0.4639853812304E+01 -0.1223073551955E+01 -0.2274181068231E+01
-0.1460043337160E+01 -0.3915878661072E+01 -0.1075184415668E+01 -0.1787848077394E+01
 0.5230353096086E+01 -0.3224023773459E+01  0.4012658705047E+00 -0.1137703904292E+01
 0.7837823817623E+00  0.6346947510446E+01  0.1426145999693E+01 -0.7768807101105E+00
-0.1089785763978E+00  0.4986826073647E+01  0.9755695139869E+00 -0.8935620874091E-01
 0.2356914507042E-01  0.4380054630667E+01  0.8807247682713E+00 -0.1112412212926E+00
-0.2551475856324E-02  0.3881620373682E+01  0.7758137911256E+00 -0.9606434100015E-01
 0.2081563268125E-02  0.3412112072325E+01  0.6828387372938E+00 -0.9554909348864E-01
 0.5156645169792E-03  0.2942450771723E+01  0.5885932960188E+00 -0.9739306387900E-01
 0.4075675451700E-03  0.2457819423732E+01  0.4916454055816E+00 -0.1017289938334E+00
-0.8958576618123E-04  0.1946746299750E+01  0.3893313485982E+00 -0.1082321141359E+00
-0.4745400818649E-03  0.1396727740179E+01  0.2792506441806E+00 -0.1175806964068E+00
-0.1814410258522E-02  0.7882714242222E+00  0.1572914051366E+00 -0.1320711131351E+00
-0.1035273490361E-01  0.8333212009789E-01  0.1459587725635E-01 -0.1620177404191E+00
-0.3301467412587E-01 -0.7434458562055E+00 -0.1552921083803E+00 -0.2305598928321E+00
-0.7246504031376E-01 -0.1653904432157E+01 -0.3452738996391E+00 -0.3625659630339E+00
-0.1344449135583E+00 -0.2585465241527E+01 -0.5439820391231E+00 -0.5681893018491E+00
-0.2285555434431E+00 -0.3492530802653E+01 -0.7442172803089E+00 -0.8469816171976E+00
-0.3643046971382E+00 -0.4332874150639E+01 -0.9394357835540E+00 -0.1190541903865E+01
-0.5384487862613E+00 -0.5084976921858E+01 -0.1124685158383E+01 -0.1590982081047E+01
-0.8267952488926E+00 -0.5777280422878E+01 -0.1320815154036E+01 -0.2061681379813E+01
-0.1068437532770E+01 -0.6465164586435E+01 -0.1506720446293E+01 -0.2701455895222E+01
-0.2990556596603E+01 -0.7065709853711E+01 -0.2011253320033E+01 -0.3782604216745E+01
 0.3557657449287E+01 -0.6045770009436E+01 -0.4976225194449E+00 -0.4178850932826E+01
-0.6671468755467E+00 -0.1707608241594E+01 -0.1116134902225E+01 -0.1476287117605E+01
-0.6445147658139E+00 -0.1695362255793E+01 -0.1099742197366E+01 -0.1280139386975E+01
-0.5721646636649E+00 -0.1658380825078E+01 -0.1048356377050E+01 -0.1122009241552E+01
-0.5042428180132E+00 -0.1594152664536E+01 -0.9862458742968E+00 -0.1005461320243E+01
-0.4546723765220E+00 -0.1498768948443E+01 -0.9181174204047E+00 -0.9217474182057E+00
-0.4320494974610E+00 -0.1376775771847E+01 -0.8501478744183E+00 -0.8599520356937E+00
-0.4343873609780E+00 -0.1235394728375E+01 -0.7847975800056E+00 -0.8115408251453E+00
-0.4460420750492E+00 -0.1078182293293E+01 -0.7163854513040E+00 -0.7666394309242E+00
-0.4504980557204E+00 -0.9022696590131E+00 -0.6358008243121E+00 -0.7044385137863E+00
-0.5521070494107E+00 -0.8026481474278E+00 -0.6367349408991E+00 -0.6032557938665E+00
-0.7737874402182E+00 -0.1758034565320E+01 -0.1189956339585E+01 -0.1475014708073E+01
-0.7122773920857E+00 -0.1744539661607E+01 -0.1154704012307E+01 -0.1276115442597E+01
-0.6234593300859E+00 -0.1723922874831E+01 -0.1103269633513E+01 -0.1129751766490E+01
-0.5398463837079E+00 -0.1672726749469E+01 -0.1039909369955E+01 -0.1027409023706E+01
-0.4808619970060E+00 -0.1588929415182E+01 -0.9728019612611E+00 -0.9575926881157E+00
-0.4532329990724E+00 -0.1473883153520E+01 -0.9057445894210E+00 -0.9082848793198E+00
-0.4540500429762E+00 -0.1332654140730E+01 -0.8397509642119E+00 -0.8701529276615E+00
-0.4700323985750E+00 -0.1169984147189E+01 -0.7708077745539E+00 -0.8307917460258E+00
-0.5135220012693E+00 -0.1001589607173E+01 -0.7121024541616E+00 -0.7685428000608E+00
-0.5340655489880E+00 -0.7851634364256E+00 -0.6200376215717E+00 -0.6870070396151E+00
-0.8774501084252E+00 -0.1807908318800E+01 -0.1262118457595E+01 -0.1469272349204E+01
-0.7818954416772E+00 -0.1808919554843E+01 -0.1217683045276E+01 -0.1269387503407E+01
-0.6682679872683E+00 -0.1798978511217E+01 -0.1159605851347E+01 -0.1133660692807E+01
-0.5694730964916E+00 -0.1760123852493E+01 -0.1094910563246E+01 -0.1046065398889E+01
-0.5008886254587E+00 -0.1685981729956E+01 -0.1027829064438E+01 -0.9913897208260E+00
-0.4689584221508E+00 -0.1577120545955E+01 -0.9616571125708E+00 -0.9564851776635E+00
-0.4703856589934E+00 -0.1437028772775E+01 -0.8964847806573E+00 -0.9305509739169E+00
-0.4983370391097E+00 -0.1272168931918E+01 -0.8321378042724E+00 -0.9003067216292E+00
-0.5382475221593E+00 -0.1075434460921E+01 -0.7584305301240E+00 -0.8507589133054E+00
-0.5647850113780E+00 -0.8491477587228E+00 -0.6645484002619E+00 -0.7792553122663E+00
-0.9838799494249E+00 -0.1864380626725E+01 -0.1338682467395E+01 -0.1457163685526E+01
-0.8482918040213E+00 -0.1881176914351E+01 -0.1282850294381E+01 -0.1258727173376E+01
-0.7082551300848E+00 -0.1883542889221E+01 -0.1218145065984E+01 -0.1134342820572E+01
-0.5924507604632E+00 -0.1855220174597E+01 -0.1150405336560E+01 -0.1061906869577E+01
-0.5144093841534E+00 -0.1790134511065E+01 -0.1083135628005E+01 -0.1023405444622E+01
-0.4787239413028E+00 -0.1687426890107E+01 -0.1018090888180E+01 -0.1004379161470E+01
-0.4827770344091E+00 -0.1549762379645E+01 -0.9552935221823E+00 -0.9929869161284E+00
-0.5159165969464E+00 -0.1378155615543E+01 -0.8902139376123E+00 -0.9765530032784E+00
-0.5642988367173E+00 -0.1171639171232E+01 -0.8158908616666E+00 -0.9404439454055E+00
-0.6018964054666E+00 -0.9346875133419E+00 -0.7221944400083E+00 -0.8760649551583E+00
-0.1091799448811E+01 -0.1926486169139E+01 -0.1418594236838E+01 -0.1438042770643E+01
-0.9113953226654E+00 -0.1960535686934E+01 -0.1349807571088E+01 -0.1243761082081E+01
-0.7425335676352E+00 -0.1975326982676E+01 -0.1277394455406E+01 -0.1131810934100E+01
-0.6088522169784E+00 -0.1957338419861E+01 -0.1206109596256E+01 -0.1075132710087E+01
-0.5209774326284E+00 -0.1901071965612E+01 -0.1138363214286E+01 -0.1053545856148E+01
-0.4819426380332E+00 -0.1805263571370E+01 -0.1074986915693E+01 -0.1051654232545E+01
-0.4877878027134E+00 -0.1670541500400E+01 -0.1014414769890E+01 -0.1057055031068E+01
-0.5280604050951E+00 -0.1497306326346E+01 -0.9519223613629E+00 -0.1056731867703E+01
-0.5878547499497E+00 -0.1285048444445E+01 -0.8802644991327E+00 -0.1035178329624E+01
-0.6424891315429E+00 -0.1038850746639E+01 -0.7902297407410E+00 -0.9792049626735E+00
-0.1199933765736E+01 -0.1993241248464E+01 -0.1500792252867E+01 -0.1411337008151E+01
-0.9705544402473E+00 -0.2045493561423E+01 -0.1417542557190E+01 -0.1224274054744E+01
-0.7709114594331E+00 -0.2072889931975E+01 -0.1336586650572E+01 -0.1125998031547E+01
-0.6184391474310E+00 -0.2065232504642E+01 -0.1261325673275E+01 -0.1085619428595E+01
-0.5203479080357E+00 -0.2018251901162E+01 -0.1193141907297E+01 -0.1081448146359E+01
-0.4775897794555E+00 -0.1930415675736E+01 -0.1131762561070E+01 -0.1097602671696E+01
-0.4854977266501E+00 -0.1801365379316E+01 -0.1074825657078E+01 -0.1121261078146E+01
-0.5338391252492E+00 -0.1630321322938E+01 -0.1017155408068E+01 -0.1138876675173E+01
-0.6078661864331E+00 -0.1416181526838E+01 -0.9513024228244E+00 -0.1133853288662E+01
-0.6833182212519E+00 -0.1161862440601E+01 -0.8672349088713E+00 -0.1089420078559E+01
-0.1306729001677E+01 -0.2063407103263E+01 -0.1583963965305E+01 -0.1376594850275E+01
-0.1025183259845E+01 -0.2134519159184E+01 -0.1485060133177E+01 -0.1200088839994E+01
-0.7932138590817E+00 -0.2174636292329E+01 -0.1394889567625E+01 -0.1116753472092E+01
-0.6211640261675E+00 -0.2177560582053E+01 -0.1315400562527E+01 -0.1093050365730E+01
-0.5122684452673E+00 -0.2140684236680E+01 -0.1246887757353E+01 -0.1106472243914E+01
-0.4653763079500E+00 -0.2062686687823E+01 -0.1188189605000E+01 -0.1141075395292E+01
-0.4752413487091E+00 -0.1942403312965E+01 -0.1136292988105E+01 -0.1183912921287E+01
-0.5322650246105E+00 -0.1777719178622E+01 -0.1085692572766E+01 -0.1221090176751E+01
-0.6222918653974E+00 -0.1565766775983E+01 -0.1028387558841E+01 -0.1235130313957E+01
-0.7217023553422E+00 -0.1306430570199E+01 -0.9532224725865E+00 -0.1206442018560E+01
-0.1410513657523E+01 -0.2135656519649E+01 -0.1666699979044E+01 -0.1333478640237E+01
-0.1074700682802E+01 -0.2225943794720E+01 -0.1551302900501E+01 -0.1171046381082E+01
-0.8093833551154E+00 -0.2278849255030E+01 -0.1451469323087E+01 -0.1103857281965E+01
-0.6171034751703E+00 -0.2292735774563E+01 -0.1367624443906E+01 -0.1096964064596E+01
-0.4967656129222E+00 -0.2267100170032E+01 -0.1299016914694E+01 -0.1127753766837E+01
-0.4450742073636E+00 -0.2201156298461E+01 -0.1243728334583E+01 -0.1180686594571E+01
-0.4563832947699E+00 -0.2093133512180E+01 -0.1198272896227E+01 -0.1243105472385E+01
-0.5219911504694E+00 -0.1939416717256E+01 -0.1156861694896E+01 -0.1301184205144E+01
-0.6289001520010E+00 -0.1734834310164E+01 -0.1110955194400E+01 -0.1336975400633E+01
-0.7544417412904E+00 -0.1475677974832E+01 -0.1048156263919E+01 -0.1328724558735E+01
-0.1509533936289E+01 -0.2208589433185E+01 -0.1747517979221E+01 -0.1281780057791E+01
-0.1118569295042E+01 -0.2317989676155E+01 -0.1615182712366E+01 -0.1137009600477E+01
-0.8194749123341E+00 -0.2383654211247E+01 -0.1505470684265E+01 -0.1087043413837E+01
-0.6065228321602E+00 -0.2408943708235E+01 -0.1417269270391E+01 -0.1096803646112E+01
-0.4740589787247E+00 -0.2395815299433E+01 -0.1348840907313E+01 -0.1144300681632E+01
-0.4166413569668E+00 -0.2344320597823E+01 -0.1297652115460E+01 -0.1214893763701E+01
-0.4283480507371E+00 -0.2252307700335E+01 -0.1259908199808E+01 -0.1296702716638E+01
-0.5016530321973E+00 -0.2114747522674E+01 -0.1229708257670E+01 -0.1376519906097E+01
-0.6252755570923E+00 -0.1923995173498E+01 -0.1198157240339E+01 -0.1436493167429E+01
-0.7778650937786E+00 -0.1672479625597E+01 -0.1151662015185E+01 -0.1453411022642E+01
-0.1601996951057E+01 -0.2280754657722E+01 -0.1824893251498E+01 -0.1221434812469E+01
-0.1156309605414E+01 -0.2408788511250E+01 -0.1675596110582E+01 -0.1097876749364E+01
-0.8236715409357E+00 -0.2487037893119E+01 -0.1556033430059E+01 -0.1066030044093E+01
-0.5898681470864E+00 -0.2524129953952E+01 -0.1463579103776E+01 -0.1091976275534E+01
-0.4445930260678E+00 -0.2524758207765E+01 -0.1395595076362E+01 -0.1155073485547E+01
-0.3802739596822E+00 -0.2490104931525E+01 -0.1349078075446E+01 -0.1242073828383E+01
-0.3907948517842E+00 -0.2417953560687E+01 -0.1320111750513E+01 -0.1342373307199E+01
-0.4700352365966E+00 -0.2302178966749E+01 -0.1302940672268E+01 -0.1443992304592E+01
-0.6090046417089E+00 -0.2132932560726E+01 -0.1288710481876E+01 -0.1529866582194E+01
-0.7880193494087E+00 -0.1898889333356E+01 -0.1262847077696E+01 -0.1576142044901E+01
-0.1686112333533E+01 -0.2350673116308E+01 -0.1897289156613E+01 -0.1152535890609E+01
-0.1187511365953E+01 -0.2496416269781E+01 -0.1731445984403E+01 -0.1053598327395E+01
-0.8222801660887E+00 -0.2586878009919E+01 -0.1602304338660E+01 -0.1040554934541E+01
-0.5677675607071E+00 -0.2636034890896E+01 -0.1505787148434E+01 -0.1081911667771E+01
-0.4090556753090E+00 -0.2651507315063E+01 -0.1438464601826E+01 -0.1159064009462E+01
-0.3364829588695E+00 -0.2635902044758E+01 -0.1397020948162E+01 -0.1260615167785E+01
-0.3437708378785E+00 -0.2587338104054E+01 -0.1377621199214E+01 -0.1377696615219E+01
-0.4263283284832E+00 -0.2499093261325E+01 -0.1374948143723E+01 -0.1500142074505E+01
-0.5779311628509E+00 -0.2359818031235E+01 -0.1380742117718E+01 -0.1612388059615E+01
-0.7811994033163E+00 -0.2155473844946E+01 -0.1380236423183E+01 -0.1690834835167E+01
-0.1760136445143E+01 -0.2416869075127E+01 -0.1963192589547E+01 -0.1075343019738E+01
-0.1211836226254E+01 -0.2578938101703E+01 -0.1781663929621E+01 -0.1004195335841E+01
-0.8157204380725E+00 -0.2680993261123E+01 -0.1643455434453E+01 -0.1010411403177E+01
-0.5410222355380E+00 -0.2742248294635E+01 -0.1543137145267E+01 -0.1066119671665E+01
-0.3683903405089E+00 -0.2773350854188E+01 -0.1476618357762E+01 -0.1155376239043E+01
-0.2861468222592E+00 -0.2778620401066E+01 -0.1440440591310E+01 -0.1269027921355E+01
-0.2878427099520E+00 -0.2756973078717E+01 -0.1431063417045E+01 -0.1400321437933E+01
-0.3704621635520E+00 -0.2701705843126E+01 -0.1443918959476E+01 -0.1541389812495E+01
-0.5308326868532E+00 -0.2600874950754E+01 -0.1471902585942E+01 -0.1678651370137E+01
-0.7551934725301E+00 -0.2439921594068E+01 -0.1501704077492E+01 -0.1789125212605E+01
-0.1822417073958E+01 -0.2477908272614E+01 -0.2021152907763E+01 -0.9902867441761E+00
-0.1229013872191E+01 -0.2654463471794E+01 -0.1825234347044E+01 -0.9497767819642E+00
-0.8045036937308E+00 -0.2767206788120E+01 -0.1678703922212E+01 -0.9754827519980E+00
-0.5105864611117E+00 -0.2840282392118E+01 -0.1574908357024E+01 -0.1044245816212E+01
-0.3237902416568E+00 -0.2887365824328E+01 -0.1509243347185E+01 -0.1143308938630E+01
-0.2305323491246E+00 -0.2914756740013E+01 -0.1478285868145E+01 -0.1266065379919E+01
-0.2241728443272E+00 -0.2922670856879E+01 -0.1479016535816E+01 -0.1408153823098E+01
-0.3033214854833E+00 -0.2905082635238E+01 -0.1507949932914E+01 -0.1564369802903E+01
-0.4682827284362E+00 -0.2850374110082E+01 -0.1559768710147E+01 -0.1723268820588E+01
-0.7101949731600E+00 -0.2745306493145E+01 -0.1624085685044E+01 -0.1862033877546E+01
-0.1871436761304E+01 -0.2532441382761E+01 -0.2069822722460E+01 -0.8979657794522E+00
-0.1238831468514E+01 -0.2721207202412E+01 -0.1861218170614E+01 -0.8905551406412E+00
-0.7892018995758E+00 -0.2843418644804E+01 -0.1707331651528E+01 -0.9357729505668E+00
-0.4775336364873E+00 -0.2927659880432E+01 -0.1600440948893E+01 -0.1016122258272E+01
-0.2766727885266E+00 -0.2990520480749E+01 -0.1535580832665E+01 -0.1122436969364E+01
-0.1712810833207E+00 -0.3040500038286E+01 -0.1509537123326E+01 -0.1250849866462E+01
-0.1545068104195E+00 -0.3079636321199E+01 -0.1520047268005E+01 -0.1399554029305E+01
-0.2267200524969E+00 -0.3103237253415E+01 -0.1565079929809E+01 -0.1566290840655E+01
-0.3924133118919E+00 -0.3100688074980E+01 -0.1641757647666E+01 -0.1741805939031E+01
-0.6487425116515E+00 -0.3060754169068E+01 -0.1743463435516E+01 -0.1902751717666E+01
-0.1905852920610E+01 -0.2579251202635E+01 -0.2107998932579E+01 -0.7991368482498E+00
-0.1241117380653E+01 -0.2777551875037E+01 -0.1888774545384E+01 -0.8268591468327E+00
-0.7704053951162E+00 -0.2907679638803E+01 -0.1728699961557E+01 -0.8914308957657E+00
-0.4430066112248E+00 -0.3002014278195E+01 -0.1619159813921E+01 -0.9818091749329E+00
-0.2286318604994E+00 -0.3079804588298E+01 -0.1554965126991E+01 -0.1092685564685E+01
-0.1103645130797E+00 -0.3151878459142E+01 -0.1533254193055E+01 -0.1222998287767E+01
-0.8108903573964E-01 -0.3222604699266E+01 -0.1552736051514E+01 -0.1373529293141E+01
-0.1431378042376E+00 -0.3289276419608E+01 -0.1613234681116E+01 -0.1545240345599E+01
-0.3060949102473E+00 -0.3342624161879E+01 -0.1714897959550E+01 -0.1731277248848E+01
-0.5744413884428E+00 -0.3373233705368E+01 -0.1855407289385E+01 -0.1907285445266E+01
-0.1924534907104E+01 -0.2617305191156E+01 -0.2134664840768E+01 -0.6946971674873E+00
-0.1235720860386E+01 -0.2822106612898E+01 -0.1907178907606E+01 -0.7591450492409E+00
-0.7486704045976E+00 -0.2958255761649E+01 -0.1742255293717E+01 -0.8427660034442E+00
-0.4081457398164E+00 -0.3061189449130E+01 -0.1630587534669E+01 -0.9416178080249E+00
-0.1813710551907E+00 -0.3152398496574E+01 -0.1566871685355E+01 -0.1054387281662E+01
-0.5000944572335E-01 -0.3244962301315E+01 -0.1548636717180E+01 -0.1182739973877E+01
-0.6555084278560E-02 -0.3346058810257E+01 -0.1575728526435E+01 -0.1329916957070E+01
-0.5541647937291E-01 -0.3455622758656E+01 -0.1650188437688E+01 -0.1500396250605E+01
-0.2123887387789E+00 -0.3566026251059E+01 -0.1775855040720E+01 -0.1690262356028E+01
-0.4908965170189E+00 -0.3668902061973E+01 -0.1955105327167E+01 -0.1874110243632E+01
-0.1926602280538E+01 -0.2645823153347E+01 -0.2149039948475E+01 -0.5856608543542E+00
-0.1222495216534E+01 -0.2853763995957E+01 -0.1915841825011E+01 -0.6880122966613E+00
-0.7244554464271E+00 -0.2993660908263E+01 -0.1747514682272E+01 -0.7902559536626E+00
-0.3739962186946E+00 -0.3103319282781E+01 -0.1634338281548E+01 -0.8961033090835E+00
-0.1365908163718E+00 -0.3205859176386E+01 -0.1570951492612E+01 -0.1008297790031E+01
 0.7357052385395E-02 -0.3316202298827E+01 -0.1555157261883E+01 -0.1131017300859E+01
 0.6620236873277E-01 -0.3444504462466E+01 -0.1587801980027E+01 -0.1269556894158E+01
 0.3336795696240E-01 -0.3594378806162E+01 -0.1673675094879E+01 -0.1432173449769E+01
-0.1141646515439E+00 -0.3760160498633E+01 -0.1820932815964E+01 -0.1618824010605E+01
-0.4014520649088E+00 -0.3934070942076E+01 -0.2037695808115E+01 -0.1803614579834E+01
-0.1911483017075E+01 -0.2664395672034E+01 -0.2150662978427E+01 -0.4731326826734E+00
-0.1201286483151E+01 -0.2871755949725E+01 -0.1914329938596E+01 -0.6142386467622E+00
-0.6980675001913E+00 -0.3012644127230E+01 -0.1744034460465E+01 -0.7345577106576E+00
-0.3413718569578E+00 -0.3126814287256E+01 -0.1630047483646E+01 -0.8460132763832E+00
-0.9584844431460E-01 -0.3238325807748E+01 -0.1567061894495E+01 -0.9555324913159E+00
 0.5926872792348E-01 -0.3362837047056E+01 -0.1552677106054E+01 -0.1069520776669E+01
 0.1338724680590E+00 -0.3513192934416E+01 -0.1588280615159E+01 -0.1194507618136E+01
 0.1202438471971E+00 -0.3697303799253E+01 -0.1681218173202E+01 -0.1342375353983E+01
-0.1431098692156E-01 -0.3914275161999E+01 -0.1846435485309E+01 -0.1518396913457E+01
-0.3086111802950E+00 -0.4154963546684E+01 -0.2097880116359E+01 -0.1697576319556E+01
-0.1878927816859E+01 -0.2673118883312E+01 -0.2139461943654E+01 -0.3582715658218E+00
-0.1172009125050E+01 -0.2875824172262E+01 -0.1902481644911E+01 -0.5388605125431E+00
-0.6696000280257E+00 -0.3014060198840E+01 -0.1731320302235E+01 -0.6765609067447E+00
-0.3107178750354E+00 -0.3130187007795E+01 -0.1617225290828E+01 -0.7921874149675E+00
-0.6027202187508E-01 -0.3248561812023E+01 -0.1555151897988E+01 -0.8973525340758E+00
 0.1033107897684E+00 -0.3383596584026E+01 -0.1541734319391E+01 -0.1000587629951E+01
 0.1930099605562E+00 -0.3548807384308E+01 -0.1577224785163E+01 -0.1108228369461E+01
 0.2010015753632E+00 -0.3757488042948E+01 -0.1671548635525E+01 -0.1234760442459E+01
 0.8651941841988E-01 -0.4014707646479E+01 -0.1846248462505E+01 -0.1391612576401E+01
-0.2160479564801E+00 -0.4320211099852E+01 -0.2132041751069E+01 -0.1558824909176E+01
-0.1830897125829E+01 -0.2675100002881E+01 -0.2117818645122E+01 -0.2425042509578E+00
-0.1133445043345E+01 -0.2864694504924E+01 -0.1879125582920E+01 -0.4635349088160E+00
-0.6390493246126E+00 -0.2996793989573E+01 -0.1708846353333E+01 -0.6172606051587E+00
-0.2829867680183E+00 -0.3112927554608E+01 -0.1596079727586E+01 -0.7356132670551E+00
-0.2924695811234E-01 -0.3234303042525E+01 -0.1533868496409E+01 -0.8348231620102E+00
 0.1377471480727E+00 -0.3379205529043E+01 -0.1523485435192E+01 -0.9264885983960E+00
 0.2385961813054E+00 -0.3552902153262E+01 -0.1557723802868E+01 -0.1015845826401E+01
 0.2724912918488E+00 -0.3768035186166E+01 -0.1642905626162E+01 -0.1115867655587E+01
 0.1830700852371E+00 -0.4050826395039E+01 -0.1817845460996E+01 -0.1244159128545E+01
-0.1057206599898E+00 -0.4401778315459E+01 -0.2118524513087E+01 -0.1392811852247E+01
-0.2585890597014E+01 -0.4621915512887E+01 -0.3387668863061E+01 -0.6301666238451E+00
 0.2627101892498E+00 -0.3707431687188E+00 -0.5077550022168E-01  0.1633670214813E+00
 0.1281613014397E+00  0.1496162448054E+00  0.1305554464041E+00  0.1755147341366E-01
 0.9275111198580E-01  0.2850767606148E+00  0.1775790996719E+00 -0.3539175057739E-01
 0.4627932618808E-01  0.3212971781012E+00  0.1727609565778E+00 -0.2109631727888E-01
 0.2090205173987E-01  0.3029949552621E+00  0.1522315929048E+00  0.2364734155928E-01
 0.3730345733247E-01  0.2594450904844E+00  0.1394718171202E+00  0.8513623356976E-01
 0.9252552411804E-01  0.1986485082767E+00  0.1368517948784E+00  0.1390607485198E+00
 0.1793219008244E+00  0.1480605788822E+00  0.1538697650718E+00  0.1706811454669E+00
 0.2704959889242E+00  0.9454264749786E-01  0.1715681586832E+00  0.1901885064955E+00
-0.8459807423931E+00 -0.2990462348732E+01 -0.1803128248256E+01 -0.9954293538019E+00
-0.2224376277185E+00 -0.1620278541135E+01 -0.8660765971643E+00 -0.2074287259883E+00
 0.1187432643318E+00 -0.3692843642045E+00 -0.1177543166415E+00 -0.2703198108148E-01
 0.8391433882698E-01 -0.1438503819910E-01  0.3267877121222E-01 -0.2264987881993E-01
 0.3410904487398E-01  0.1204938989986E+00  0.7266338343582E-01 -0.1000762558945E-01
 0.4468081158411E-02  0.1683471001000E+00  0.8122313498544E-01  0.2478990944976E-01
 0.1016416589303E-01  0.1683105157730E+00  0.8388310017029E-01  0.7324369369590E-01
 0.5072969544351E-01  0.1371933471100E+00  0.8832382977613E-01  0.1173253779195E+00
 0.1125984096976E+00  0.9861109667112E-01  0.9926846774152E-01  0.1428400083235E+00
 0.1918063386265E+00  0.7220882469682E-01  0.1240871264472E+00  0.1591548271307E+00
-0.4570543708953E+00 -0.2423115010214E+01 -0.1353679605688E+01 -0.1152679611422E+01
-0.1329613478535E+00 -0.1710134290335E+01 -0.8662549477513E+00 -0.5331621192213E+00
 0.2242550561264E-02 -0.8953225610788E+00 -0.4197476038786E+00 -0.2203283551313E+00
 0.5875311877576E-01 -0.3539154719138E+00 -0.1387263056230E+00 -0.9700859110787E-01
 0.1764983942247E-01 -0.1143146921696E+00 -0.4543248067592E-01 -0.4525656137202E-01
-0.1321887999983E-01  0.2832165964440E-02 -0.4881755584249E-02 -0.3097395451166E-02
-0.1858967820259E-01  0.5032744974950E-01  0.1491675258921E-01  0.4011828156863E-01
 0.5291975355796E-02  0.5387587925392E-01  0.2780889159603E-01  0.7741351822424E-01
 0.4789369442700E-01  0.4143517102835E-01  0.4198456665752E-01  0.9959052091513E-01
 0.1063831428997E+00  0.3530509713262E-01  0.6659347264628E-01  0.1132207008886E+00
-0.3225299609266E+00 -0.2105134923911E+01 -0.1141002492980E+01 -0.1247074188622E+01
-0.1307992145899E+00 -0.1694509405031E+01 -0.8578950490457E+00 -0.7617050015456E+00
-0.4268707034510E-01 -0.1129668782933E+01 -0.5510072496434E+00 -0.4263433599476E+00
-0.7221355455061E-02 -0.6628526249390E+00 -0.3149347699864E+00 -0.2355455409725E+00
-0.1673827220785E-01 -0.3578214447841E+00 -0.1760430665397E+00 -0.1309024699438E+00
-0.4134959319390E-01 -0.1829143940951E+00 -0.1054040737585E+00 -0.6512386921249E-01
-0.5329926193076E-01 -0.8913759135249E-01 -0.6694532087333E-01 -0.1727468929799E-01
-0.4366708211896E-01 -0.4716050894082E-01 -0.4268896768982E-01  0.1758416936389E-01
-0.1870795386752E-01 -0.3010692426489E-01 -0.2294299266404E-01  0.3890387247107E-01
 0.2155724145716E-01 -0.1317713260287E-01  0.3938651151527E-02  0.5281314011895E-01
-0.2965201279247E+00 -0.1915703101895E+01 -0.1039744915378E+01 -0.1310725940454E+01
-0.1700098921166E+00 -0.1652825242160E+01 -0.8567325109368E+00 -0.9250728888895E+00
-0.1017202423849E+00 -0.1256245041833E+01 -0.6382436819635E+00 -0.6061419491084E+00
-0.7269314756951E-01 -0.8778275674087E+00 -0.4467447349067E+00 -0.3901120293722E+00
-0.7312429068975E-01 -0.5819498306055E+00 -0.3078848362279E+00 -0.2506638552075E+00
-0.8508466953059E-01 -0.3739013334924E+00 -0.2157234208737E+00 -0.1586325757062E+00
-0.9763148286087E-01 -0.2426240542934E+00 -0.1599201020569E+00 -0.9931404380677E-01
-0.9782487812976E-01 -0.1643465411498E+00 -0.1232205667489E+00 -0.6229737755728E-01
-0.8609496018310E-01 -0.1167741696296E+00 -0.9534849077013E-01 -0.3900734719847E-01
-0.6121080227336E-01 -0.7531264540971E-01 -0.6416602024830E-01 -0.2193370706239E-01
-0.3203221222779E+00 -0.1800111911377E+01 -0.9966039932903E+00 -0.1357887590258E+01
-0.2353463966101E+00 -0.1618774283950E+01 -0.8714367176529E+00 -0.1043109880881E+01
-0.1742307567256E+00 -0.1333518385272E+01 -0.7086420949417E+00 -0.7550219922767E+00
-0.1457829128332E+00 -0.1035702353950E+01 -0.5552980739796E+00 -0.5387451548332E+00
-0.1392217125710E+00 -0.7715225188556E+00 -0.4280497876848E+00 -0.3840553138574E+00
-0.1430881452034E+00 -0.5587568428443E+00 -0.3298671435458E+00 -0.2742016683908E+00
-0.1522486897424E+00 -0.4034430839567E+00 -0.2611751329761E+00 -0.2025529102952E+00
-0.1572485357626E+00 -0.2953015171098E+00 -0.2126985243106E+00 -0.1601372027114E+00
-0.1530804869821E+00 -0.2193116857080E+00 -0.1750243207204E+00 -0.1323804315967E+00
-0.1397042196137E+00 -0.1529210370861E+00 -0.1375338703001E+00 -0.1099354312861E+00
-0.3717385729612E+00 -0.1733476673709E+01 -0.9894511634252E+00 -0.1394903668080E+01
-0.3140335416102E+00 -0.1601067115647E+01 -0.9000973066280E+00 -0.1129222356191E+01
-0.2565798848329E+00 -0.1393768118288E+01 -0.7756635594995E+00 -0.8753687585192E+00
-0.2245161023927E+00 -0.1162048786369E+01 -0.6516854960650E+00 -0.6730181596558E+00
-0.2115616378269E+00 -0.9362058649896E+00 -0.5394507249555E+00 -0.5184367622860E+00
-0.2092727404446E+00 -0.7337568633045E+00 -0.4432239126379E+00 -0.4015884921964E+00
-0.2145894130768E+00 -0.5677019703983E+00 -0.3676769493007E+00 -0.3212392155456E+00
-0.2204067782620E+00 -0.4379430806751E+00 -0.3094244329156E+00 -0.2720435612176E+00
-0.2173786863239E+00 -0.3372467543734E+00 -0.2606739564666E+00 -0.2376353457812E+00
-0.2105620389135E+00 -0.2470949496950E+00 -0.2150987841004E+00 -0.2086189910728E+00
-0.4401394284125E+00 -0.1701446192991E+01 -0.1006545239507E+01 -0.1424684608559E+01
-0.3992890051427E+00 -0.1602656058384E+01 -0.9409141774711E+00 -0.1192099891514E+01
-0.3434723185797E+00 -0.1453117456798E+01 -0.8443971922861E+00 -0.9710679791702E+00
-0.3058847656331E+00 -0.1275623750328E+01 -0.7433090006165E+00 -0.7901875449819E+00
-0.2862139087136E+00 -0.1087810043517E+01 -0.6457912559105E+00 -0.6466944794648E+00
-0.2787097066879E+00 -0.9030815099399E+00 -0.5554418704063E+00 -0.5330176345599E+00
-0.2813480840156E+00 -0.7359478728337E+00 -0.4781290985064E+00 -0.4497193061330E+00
-0.2846882877660E+00 -0.5900561257849E+00 -0.4111298733261E+00 -0.3936172712732E+00
-0.2769298112363E+00 -0.4683903102036E+00 -0.3503004561883E+00 -0.3498123541928E+00
-0.2678155742714E+00 -0.3554637766021E+00 -0.2929412941675E+00 -0.3133587686071E+00
-0.5199238395579E+00 -0.1694797694034E+01 -0.1040919118148E+01 -0.1448268680667E+01
-0.4875836362516E+00 -0.1624123844663E+01 -0.9925025135123E+00 -0.1237385107304E+01
-0.4304248001731E+00 -0.1519820393963E+01 -0.9166152389193E+00 -0.1045646171717E+01
-0.3863739477502E+00 -0.1388836955552E+01 -0.8343491224359E+00 -0.8896079901849E+00
-0.3592999299746E+00 -0.1237185231679E+01 -0.7503480240739E+00 -0.7647284708454E+00
-0.3469446122180E+00 -0.1073614651875E+01 -0.6676628524305E+00 -0.6628547839652E+00
-0.3471035058183E+00 -0.9107154996107E+00 -0.5911749310522E+00 -0.5833158683094E+00
-0.3534599137033E+00 -0.7568353446505E+00 -0.5218387701027E+00 -0.5228248926395E+00
-0.3285907289297E+00 -0.6030595512354E+00 -0.4378756305670E+00 -0.4648664105194E+00
-0.3033173302848E+00 -0.4698059674947E+00 -0.3633679490347E+00 -0.4170626952020E+00
-0.6113205829836E+00 -0.1711291077491E+01 -0.1091627477654E+01 -0.1466177717054E+01
-0.5744727613495E+00 -0.1661220672762E+01 -0.1050775911367E+01 -0.1269029377702E+01
-0.5154443801768E+00 -0.1598779522765E+01 -0.9936852318621E+00 -0.1101451297725E+01
-0.4622288082408E+00 -0.1509215381125E+01 -0.9265787666516E+00 -0.9709397972687E+00
-0.4269802689050E+00 -0.1393249859991E+01 -0.8555081584111E+00 -0.8695364188373E+00
-0.4096845427396E+00 -0.1252868479200E+01 -0.7813999183299E+00 -0.7866625418075E+00
-0.4073687496836E+00 -0.1096837482798E+01 -0.7069769274731E+00 -0.7172189749313E+00
-0.4136105970344E+00 -0.9359617313786E+00 -0.6342989927453E+00 -0.6570560643102E+00
-0.4103707795979E+00 -0.7762315884908E+00 -0.5577031115871E+00 -0.5902190876240E+00
-0.2794912973367E+00 -0.5324249584314E+00 -0.3816006392431E+00 -0.5153207771355E+00
-0.1687376698270E+01 -0.2616768845999E+01 -0.2022948400676E+01 -0.1331348981359E+00
-0.1026109185468E+01 -0.2811577185007E+01 -0.1803712589548E+01 -0.3861065613497E+00
-0.5562214586102E+00 -0.2942903653703E+01 -0.1644588798616E+01 -0.5503521643517E+00
-0.2144658273483E+00 -0.3061541842699E+01 -0.1539723601017E+01 -0.6671374644883E+00
 0.2985135445455E-01 -0.3192699953233E+01 -0.1486538837656E+01 -0.7555105797905E+00
 0.1932955754596E+00 -0.3353918132877E+01 -0.1485492598218E+01 -0.8290893671441E+00
 0.2742053994261E+00 -0.3565586190419E+01 -0.1546948967843E+01 -0.8935236147672E+00
 0.2809346659520E+00 -0.3836083521843E+01 -0.1670919958031E+01 -0.9690219589357E+00
 0.2129244092767E+00 -0.4149949985212E+01 -0.1850402015996E+01 -0.1086675974316E+01
 0.4677500602013E-01 -0.4448388649818E+01 -0.2068758407338E+01 -0.1259178338515E+01
-0.1609496148353E+01 -0.2628730082279E+01 -0.1991966323345E+01 -0.1232568664549E-01
-0.9216766813831E+00 -0.2772405076605E+01 -0.1736218421851E+01 -0.2947448042255E+00
-0.4561298827495E+00 -0.2873297949403E+01 -0.1564831077143E+01 -0.4680723143257E+00
-0.1231697665809E+00 -0.2976003997075E+01 -0.1456611665224E+01 -0.5791514367934E+00
 0.1116333191707E+00 -0.3105897045684E+01 -0.1407303947892E+01 -0.6501821880672E+00
 0.2613679389864E+00 -0.3283677424724E+01 -0.1420485454694E+01 -0.6995277311534E+00
 0.3229055969279E+00 -0.3528513317938E+01 -0.1506635625053E+01 -0.7393229822848E+00
 0.3111702970698E+00 -0.3854155522290E+01 -0.1665203051630E+01 -0.8083021566510E+00
 0.2299556231461E+00 -0.4249040646444E+01 -0.1888969956159E+01 -0.9470124580242E+00
-0.3699501782383E-01 -0.4686320415070E+01 -0.2219958247830E+01 -0.1146570348919E+01
-0.1508520408006E+01 -0.2612237141561E+01 -0.1936756043384E+01  0.9923893714299E-01
-0.8186579449962E+00 -0.2709572060588E+01 -0.1658268098419E+01 -0.2173133664346E+00
-0.3622292644087E+00 -0.2765567840141E+01 -0.1470064635410E+01 -0.3960517315370E+00
-0.4431468136872E-01 -0.2837603114389E+01 -0.1354501360571E+01 -0.4944416819902E+00
 0.1751697549700E+00 -0.2952810443648E+01 -0.1305491120367E+01 -0.5398575622378E+00
 0.3091416521893E+00 -0.3134026193154E+01 -0.1327695730886E+01 -0.5564985636421E+00
 0.3486370258688E+00 -0.3408666455324E+01 -0.1438213828196E+01 -0.5626365955040E+00
 0.3127578262197E+00 -0.3802013557542E+01 -0.1639950189562E+01 -0.6137749747578E+00
 0.1934359939465E+00 -0.4315082354285E+01 -0.1937173784446E+01 -0.7643103240081E+00
-0.1308046543108E+00 -0.4857601646737E+01 -0.2344550955546E+01 -0.9977171605979E+00
-0.1399520943380E+01 -0.2586863886175E+01 -0.1873600865138E+01  0.2009461367378E+00
-0.7154735722293E+00 -0.2620474071396E+01 -0.1567895388527E+01 -0.1541423831351E+00
-0.2791950323732E+00 -0.2618032640580E+01 -0.1361697002834E+01 -0.3371005316448E+00
 0.1762814014529E-01 -0.2643404736018E+01 -0.1234114996930E+01 -0.4174645103674E+00
 0.2171791597808E+00 -0.2728342835299E+01 -0.1180246924500E+01 -0.4304099813864E+00
 0.3316343367688E+00 -0.2899055436751E+01 -0.1206687913931E+01 -0.4066104750427E+00
 0.3451751286196E+00 -0.3193389210229E+01 -0.1338660614961E+01 -0.3712479955312E+00
 0.2772309992025E+00 -0.3654584770586E+01 -0.1587356268524E+01 -0.3966313978256E+00
 0.1206902028940E+00 -0.4297441573525E+01 -0.1963073139217E+01 -0.5571503743756E+00
-0.2685927533686E+00 -0.4980061783492E+01 -0.2466867626068E+01 -0.8252965809739E+00
-0.1288315245464E+01 -0.2560111705905E+01 -0.1808760662555E+01  0.2903917097065E+00
-0.6167774718458E+00 -0.2509669541715E+01 -0.1469430092647E+01 -0.1093124350512E+00
-0.2098482062886E+00 -0.2429109149887E+01 -0.1240309954257E+01 -0.2949829182377E+00
 0.5969668268929E-01 -0.2390758701754E+01 -0.1095599146182E+01 -0.3528613243298E+00
 0.2347907279081E+00 -0.2429756567210E+01 -0.1031633941855E+01 -0.3282979730172E+00
 0.3265990757871E+00 -0.2573706930459E+01 -0.1056140689017E+01 -0.2593376825083E+00
 0.3124768691543E+00 -0.2871545939679E+01 -0.1202762460096E+01 -0.1798015271084E+00
 0.2104367364133E+00 -0.3389943238418E+01 -0.1494368052152E+01 -0.1756373338567E+00
 0.9333690497471E-02 -0.4178497326580E+01 -0.1959506903989E+01 -0.3423907987497E+00
-0.4576769351517E+00 -0.5037999853381E+01 -0.2582968084059E+01 -0.6385426706869E+00
-0.1183327422393E+01 -0.2541833598301E+01 -0.1750825675286E+01  0.3645015005343E+00
-0.5273634866747E+00 -0.2379080532616E+01 -0.1366028685602E+01 -0.8888638242288E-01
-0.1571723257544E+00 -0.2195411102984E+01 -0.1105714208702E+01 -0.2740359067444E+00
 0.8096483301146E-01 -0.2076098050937E+01 -0.9377126100465E+00 -0.3043712470822E+00
 0.2269318542520E+00 -0.2057446387892E+01 -0.8603418286284E+00 -0.2394990110457E+00
 0.2946617638409E+00 -0.2158908703792E+01 -0.8761960595547E+00 -0.1256836660432E+00
 0.2568660379002E+00 -0.2438749208080E+01 -0.1025485087384E+01 -0.6202323794189E-02
 0.1218380589747E+00 -0.2995891720831E+01 -0.1350805217647E+01  0.2742134524050E-01
-0.1354335159266E+00 -0.3939234256419E+01 -0.1915093848145E+01 -0.1406232506177E+00
-0.7039927217120E+00 -0.5012328475916E+01 -0.2686670956071E+01 -0.4514361901051E+00
-0.1099094088665E+01 -0.2547119409148E+01 -0.1713720339626E+01  0.4185486297789E+00
-0.4546125225042E+00 -0.2226946699127E+01 -0.1260332830970E+01 -0.1013142219255E+00
-0.1213613031140E+00 -0.1904791836705E+01 -0.9522919732996E+00 -0.2773089399697E+00
 0.8291265780055E-01 -0.1694900383189E+01 -0.7576342290107E+00 -0.2722022276182E+00
 0.1949611563225E+00 -0.1618102786366E+01 -0.6688765644240E+00 -0.1672748400780E+00
 0.2384040140235E+00 -0.1667402658240E+01 -0.6716293610781E+00 -0.1686012807340E-01
 0.1903801279496E+00 -0.1900145024969E+01 -0.8035894995611E+00  0.1293529747220E+00
 0.2961902984998E-01 -0.2465427913393E+01 -0.1144830172362E+01  0.1872525805810E+00
-0.3008093070091E+00 -0.3561708078309E+01 -0.1815383166495E+01  0.2275321425414E-01
-0.1010660064047E+01 -0.4881546558085E+01 -0.2769337105378E+01 -0.2836553499564E+00
-0.1071511167173E+01 -0.2607922010043E+01 -0.1729333588905E+01  0.4435220709923E+00
-0.4060282902832E+00 -0.2035785790231E+01 -0.1147652614931E+01 -0.1580467987006E+00
-0.9880064773228E-01 -0.1530157629810E+01 -0.7656103885032E+00 -0.3026122364054E+00
 0.7566677984247E-01 -0.1238744730103E+01 -0.5466466352360E+00 -0.2474448139985E+00
 0.1370113535237E+00 -0.1139913246213E+01 -0.4713638883683E+00 -0.1097122899638E+00
 0.1660636465864E+00 -0.1125462356733E+01 -0.4509173926252E+00  0.5483678035703E-01
 0.1314025714082E+00 -0.1272627216616E+01 -0.5363755818870E+00  0.2038605544330E+00
-0.3686779143132E-01 -0.1796407437212E+01 -0.8616393552768E+00  0.2745613207248E+00
-0.4644530529123E+00 -0.3028927110284E+01 -0.1641888672538E+01  0.1169826046995E+00
-0.1377303319920E+01 -0.4622811021712E+01 -0.2820053733414E+01 -0.1616421259750E+00
-0.1188419196924E+01 -0.2794251652086E+01 -0.1871855294287E+01  0.4202765555828E+00
-0.4059279646164E+00 -0.1759672094527E+01 -0.1017832025216E+01 -0.2765299553360E+00
-0.3211435265323E-01 -0.9700593000035E+00 -0.4710216155540E+00 -0.3257426884437E+00
 0.4246698245005E-01 -0.7620633553926E+00 -0.3382102944252E+00 -0.2036254654635E+00
 0.6521620001007E-01 -0.6644799009124E+00 -0.2816539387097E+00 -0.6517790660937E-01
 0.8996716886836E-01 -0.5766107233838E+00 -0.2287224700421E+00  0.7378908142456E-01
 0.1070312836208E+00 -0.5841287044485E+00 -0.2242357872202E+00  0.1915182966542E+00
-0.3935943901658E-01 -0.9985826364631E+00 -0.4878327742381E+00  0.2561366977277E+00
-0.5844362095948E+00 -0.2316534769371E+01 -0.1363456356656E+01  0.1038802494241E+00
-0.1806049158870E+01 -0.4217491256304E+01 -0.2831063987951E+01 -0.1192703859288E+00
-0.2113090111991E+01 -0.3592051624217E+01 -0.2681416609217E+01  0.2623179428215E+00
-0.4469778834494E-01 -0.7597841646840E+00 -0.3781065169646E+00 -0.4206559893437E+00
-0.2616069913544E-01 -0.4228817718204E+00 -0.2110499608140E+00 -0.2629339176181E+00
 0.7210451134841E-02 -0.3245738223757E+00 -0.1491607841049E+00 -0.1287075233031E+00
 0.8692654869607E-02 -0.2263609124206E+00 -0.1023040807895E+00 -0.3829975246709E-01
 0.2685820115772E-01 -0.8298689312847E-01 -0.2638048515934E-01  0.2691549201336E-01
 0.1366060744769E+00  0.9314258199282E-01  0.1079818682669E+00  0.6284631553352E-01
 0.1070063025533E+00 -0.5121861937915E-01  0.2622021102536E-01  0.8872865024169E-01
-0.6459731454600E+00 -0.1445559024927E+01 -0.9830201175886E+00 -0.5645999562319E-01
-0.2245537283005E+01 -0.3598634030716E+01 -0.2746760510482E+01 -0.2086437765570E+00
-0.4040879502493E+00 -0.5209592628803E+00 -0.4347721890682E+00 -0.5245474121634E+00
-0.3072587275489E+00 -0.3634773407871E+00 -0.3152459513183E+00 -0.4163448466611E+00
-0.2323307032505E+00 -0.2627171201546E+00 -0.2326724764103E+00 -0.3110444304099E+00
-0.1610946369867E+00 -0.1867284059787E+00 -0.1634768297791E+00 -0.2116356481844E+00
-0.8799119995299E-01 -0.1260273418603E+00 -0.1005887143971E+00 -0.1200235981816E+00
-0.9766784171224E-02 -0.7523418343193E-01 -0.3995045467216E-01 -0.3782480365082E-01
 0.7452774495757E-01 -0.3163003091285E-01  0.2016192554988E-01  0.3389693135433E-01
 0.1649570443120E+00  0.6367062696860E-02  0.8052233008995E-01  0.9458536879272E-01
 0.2600551392387E+00  0.3846870998495E-01  0.1403062087793E+00  0.1438381177726E+00
 0.3653114663440E+00  0.6868634205993E-01  0.2039789694325E+00  0.1813144565424E+00
-0.4923299435051E+00 -0.6235007976187E+00 -0.5244404469980E+00 -0.6000156589285E+00
-0.3929175350144E+00 -0.4667136137365E+00 -0.4040266388882E+00 -0.4745563946095E+00
-0.3129141075118E+00 -0.3371735057672E+00 -0.3055411774662E+00 -0.3600401565763E+00
-0.2340074562769E+00 -0.2338575032109E+00 -0.2198965304015E+00 -0.2553804774149E+00
-0.1489201682485E+00 -0.1518217887876E+00 -0.1413487194484E+00 -0.1598549115002E+00
-0.5530539854756E-01 -0.8693738819094E-01 -0.6685410959753E-01 -0.7375539693986E-01
 0.4709272486811E-01 -0.3559225270814E-01  0.5405221901479E-02  0.2406863519238E-02
 0.1574291347869E+00  0.5029749934649E-02  0.7635567562545E-01  0.6828863713027E-01
 0.2757119751041E+00  0.3769700845179E-01  0.1473022218976E+00  0.1238866542785E+00
 0.3993781290244E+00  0.6158317540407E-01  0.2166518125319E+00  0.1695961689106E+00
-0.5481304001985E+00 -0.6829379114569E+00 -0.5786021050105E+00 -0.6776292477117E+00
-0.4706223781305E+00 -0.5452726893938E+00 -0.4774706805254E+00 -0.5552159170897E+00
-0.3909720047794E+00 -0.4097491276818E+00 -0.3763389313022E+00 -0.4332220890426E+00
-0.3072880580902E+00 -0.2917417486132E+00 -0.2815440084365E+00 -0.3183520927619E+00
-0.2136882949753E+00 -0.1937551369871E+00 -0.1914984125366E+00 -0.2121879050136E+00
-0.1080185203193E+00 -0.1151195384377E+00 -0.1048748873498E+00 -0.1156780960796E+00
 0.9413884204292E-02 -0.5373568058797E-01 -0.2083124424749E-01 -0.2965710086974E-01
 0.1371528014641E+00 -0.6634627212137E-02  0.6134354174282E-01  0.4541351878405E-01
 0.2733224232722E+00  0.2927051576872E-01  0.1422186809885E+00  0.1098221791364E+00
 0.4174588594730E+00  0.5710505039553E-01  0.2230450370725E+00  0.1645254378743E+00
-0.6079046403434E+00 -0.7551464674032E+00 -0.6406340190160E+00 -0.7643103551146E+00
-0.5457771481517E+00 -0.6148746879738E+00 -0.5455063615954E+00 -0.6465221050659E+00
-0.4733410218367E+00 -0.4769782160107E+00 -0.4466500406554E+00 -0.5214389977607E+00
-0.3884447243673E+00 -0.3497521030387E+00 -0.3469525080008E+00 -0.3972341298883E+00
-0.2883861004561E+00 -0.2395300430892E+00 -0.2481205868370E+00 -0.2784235216058E+00
-0.1716071030659E+00 -0.1486614699247E+00 -0.1505262289238E+00 -0.1679524577691E+00
-0.3901383639921E-01 -0.7710065947913E-01 -0.5457381292440E-01 -0.6818063813072E-01
 0.1066075892041E+00 -0.2287730876028E-01  0.3935323170879E-01  0.1924044082134E-01
 0.2615921142150E+00  0.1756678829843E-01  0.1312046838485E+00  0.9383539693282E-01
 0.4237546895427E+00  0.4990025623708E-01  0.2226178239519E+00  0.1570415606009E+00
-0.6689874741500E+00 -0.8431766049652E+00 -0.7107171153815E+00 -0.8626647923705E+00
-0.6246720616303E+00 -0.6940373090064E+00 -0.6197934026272E+00 -0.7486761609785E+00
-0.5630201761287E+00 -0.5474319807974E+00 -0.5219125124315E+00 -0.6220914147510E+00
-0.4820530963438E+00 -0.4096302548812E+00 -0.4190911740128E+00 -0.4900761769383E+00
-0.3789401958472E+00 -0.2865526388017E+00 -0.3127816314917E+00 -0.3583974719809E+00
-0.2524356165338E+00 -0.1826086363371E+00 -0.2044707983307E+00 -0.2320305989316E+00
-0.1038082765831E+00 -0.9995046907358E-01 -0.9576661021573E-01 -0.1156054384358E+00
 0.6287419042609E-01 -0.3824152474126E-01  0.1157735284250E-01 -0.1316523771614E-01
 0.2414625806964E+00  0.5674740939927E-02  0.1161545408745E+00  0.7265477344659E-01
 0.4234341271906E+00  0.3659000490439E-01  0.2162113415362E+00  0.1415268669000E+00
-0.7317496236233E+00 -0.9519641110401E+00 -0.7913454532847E+00 -0.9741342694740E+00
-0.7078715914267E+00 -0.7918527076461E+00 -0.7048704187764E+00 -0.8651648443044E+00
-0.6624817778597E+00 -0.6333865335101E+00 -0.6090581047990E+00 -0.7387715102708E+00
-0.5916263884533E+00 -0.4816420280463E+00 -0.5044361544754E+00 -0.6006009624623E+00
-0.4912461147993E+00 -0.3426256098599E+00 -0.3919197095958E+00 -0.4564929336112E+00
-0.3587161792362E+00 -0.2220563961262E+00 -0.2729631097280E+00 -0.3127219047018E+00
-0.1945024333378E+00 -0.1246253844270E+00 -0.1499900739690E+00 -0.1763118594876E+00
-0.3092619193187E-02 -0.5269078614565E-01 -0.2621820044275E-01 -0.5470652280261E-01
 0.2067277425803E+00 -0.5036382688743E-02  0.9479493890857E-01  0.4549678228468E-01
 0.4231016718898E+00  0.2390825264926E-01  0.2100946640005E+00  0.1201200476780E+00
-0.7937924286447E+00 -0.1085497372755E+01 -0.8832662044177E+00 -0.1099156693429E+01
-0.7945123829230E+00 -0.9163267904249E+00 -0.8040944094340E+00 -0.9987301772310E+00
-0.7715390680744E+00 -0.7457583749824E+00 -0.7131297964279E+00 -0.8759816574678E+00
-0.7187025450106E+00 -0.5784426620689E+00 -0.6096582457810E+00 -0.7348158585034E+00
-0.6294084108099E+00 -0.4202932574302E+00 -0.4933597828215E+00 -0.5801307450807E+00
-0.4979429692447E+00 -0.2780653209923E+00 -0.3647238954863E+00 -0.4183392262568E+00
-0.3213849203112E+00 -0.1588980262618E+00 -0.2257329843167E+00 -0.2580893944565E+00
-0.1024883925751E+00 -0.6963080980826E-01 -0.8089602491499E-01 -0.1106312496549E+00
 0.1491063349250E+00 -0.1320002098967E-01  0.6387596738759E-01  0.1136770642760E-01
 0.4176606200575E+00  0.1476091852286E-01  0.2032381226173E+00  0.9719372722916E-01
-0.8518908516633E+00 -0.1248775387362E+01 -0.9873131298375E+00 -0.1236810394450E+01
-0.8816137007698E+00 -0.1075100522414E+01 -0.9196556825639E+00 -0.1150031299816E+01
-0.8877232373070E+00 -0.8955761373568E+00 -0.8381507039661E+00 -0.1036489730956E+01
-0.8620750598907E+00 -0.7140359198325E+00 -0.7407721585910E+00 -0.8980055276241E+00
-0.7950952410029E+00 -0.5358013068118E+00 -0.6255213758864E+00 -0.7374792657686E+00
-0.6764577941171E+00 -0.3677315963196E+00 -0.4907690122605E+00 -0.5598249646126E+00
-0.4967107581796E+00 -0.2184365931033E+00 -0.3361192542504E+00 -0.3733566281245E+00
-0.2507343313006E+00 -0.9858371801397E-01 -0.1641794827614E+00 -0.1915835069584E+00
 0.5390389858663E-01 -0.2154379845767E-01  0.1520924702203E-01 -0.3465627582720E-01
 0.3970176774011E+00  0.9567627918442E-02  0.1910950930155E+00  0.7434603972476E-01
-0.9017435110550E+00 -0.1447278294211E+01 -0.1104040245675E+01 -0.1384757366490E+01
-0.9640758464541E+00 -0.1276758634481E+01 -0.1053192203368E+01 -0.1317635255140E+01
-0.1005414644043E+01 -0.1095555188386E+01 -0.9874558187367E+00 -0.1220883022594E+01
-0.1016596812727E+01 -0.9060127722083E+00 -0.9036265026276E+00 -0.1093936919920E+01
-0.9856038356427E+00 -0.7119516464235E+00 -0.7978510745475E+00 -0.9367748690350E+00
-0.8973032017853E+00 -0.5189251267601E+00 -0.6656273127281E+00 -0.7510085906590E+00
-0.7335626676233E+00 -0.3347313472474E+00 -0.5020981857157E+00 -0.5416210593648E+00
-0.4747484140096E+00 -0.1705727200198E+00 -0.3033009322245E+00 -0.3199295863283E+00
-0.1067789816581E+00 -0.4426204754712E-01 -0.7098928354641E-01 -0.1090433577307E+00
 0.3443149839365E+00  0.6697434829288E-02  0.1649758364015E+00  0.4894197355754E-01
-0.9381403661488E+00 -0.1686204862002E+01 -0.1233442254103E+01 -0.1538619382181E+01
-0.1034498946076E+01 -0.1530239412110E+01 -0.1205427025290E+01 -0.1497173634768E+01
-0.1115089892775E+01 -0.1359963805390E+01 -0.1163275235187E+01 -0.1426093551780E+01
-0.1171245145905E+01 -0.1175863571498E+01 -0.1103141094381E+01 -0.1322560269876E+01
-0.1190142652397E+01 -0.9795535903985E+00 -0.1019757231527E+01 -0.1183383243201E+01
-0.1153681345751E+01 -0.7740157083297E+00 -0.9060176131201E+00 -0.1005792718324E+01
-0.1036587004739E+01 -0.5640004546192E+00 -0.7522761039904E+00 -0.7887515777966E+00
-0.8033633004562E+00 -0.3567038045285E+00 -0.5452315379599E+00 -0.5355620370272E+00
-0.4033350973957E+00 -0.1628814965184E+00 -0.2661217984646E+00 -0.2599156954172E+00
 0.2187953770856E+00 -0.1091152054910E-01  0.9770541232432E-01 -0.5205305048820E-02
-0.9554741236593E+00 -0.1969241924840E+01 -0.1374616539308E+01 -0.1691085075135E+01
-0.1083418143612E+01 -0.1843022902872E+01 -0.1375427288359E+01 -0.1679792183469E+01
-0.1202991088608E+01 -0.1702651936561E+01 -0.1365652218366E+01 -0.1642643394313E+01
-0.1307370440373E+01 -0.1547354867607E+01 -0.1341720891348E+01 -0.1575577009285E+01
-0.1385097451908E+01 -0.1377198925363E+01 -0.1298279294024E+01 -0.1473442891712E+01
-0.1418536847949E+01 -0.1193283837278E+01 -0.1227555718943E+01 -0.1330207058277E+01
-0.1380772024988E+01 -0.9979784997293E+00 -0.1118012743781E+01 -0.1139264327470E+01
-0.1229330495289E+01 -0.7949912225978E+00 -0.9514312049934E+00 -0.8940799106064E+00
-0.8917177739455E+00 -0.5882677448667E+00 -0.6955931920775E+00 -0.5897932734715E+00
-0.2065818824869E+00 -0.3630754690534E+00 -0.2677389545448E+00 -0.2304994219573E+00
-0.9495004733539E+00 -0.2294934664717E+01 -0.1524884511026E+01 -0.1829359510301E+01
-0.1102711962138E+01 -0.2215159207946E+01 -0.1559399445984E+01 -0.1846487434202E+01
-0.1256236392340E+01 -0.2126923993166E+01 -0.1590085377155E+01 -0.1843156333795E+01
-0.1406018208849E+01 -0.2029689178745E+01 -0.1614782468073E+01 -0.1814651397911E+01
-0.1544044496443E+01 -0.1923885965122E+01 -0.1629927312802E+01 -0.1754591413054E+01
-0.1657055013284E+01 -0.1811296619813E+01 -0.1630125263421E+01 -0.1654486841899E+01
-0.1724016459331E+01 -0.1695532822589E+01 -0.1607188158426E+01 -0.1502948102129E+01
-0.1711211051954E+01 -0.1582577457546E+01 -0.1548080595539E+01 -0.1283924391159E+01
-0.1561951157102E+01 -0.1481491355577E+01 -0.1430417977331E+01 -0.9723859591320E+00
-0.1165895502619E+01 -0.1402196911957E+01 -0.1207003431789E+01 -0.5179178731927E+00
-0.9202586123509E+00 -0.2654233378846E+01 -0.1680011231601E+01 -0.1938403449997E+01
-0.1090585362174E+01 -0.2634744677430E+01 -0.1750905114173E+01 -0.1974212292110E+01
-0.1270381580801E+01 -0.2617072486999E+01 -0.1827103407232E+01 -0.1992912298745E+01
-0.1458873516766E+01 -0.2601851809434E+01 -0.1908540898473E+01 -0.1988623112574E+01
-0.1653112052266E+01 -0.2591211124592E+01 -0.1994831888063E+01 -0.1952894430367E+01
-0.1847286698881E+01 -0.2589359194682E+01 -0.2085223564686E+01 -0.1873820528896E+01
-0.2032025795376E+01 -0.2603346565553E+01 -0.2178625004111E+01 -0.1734526972465E+01
-0.2194415043048E+01 -0.2644707281862E+01 -0.2274387486939E+01 -0.1510163465552E+01
-0.2320336143106E+01 -0.2732775785120E+01 -0.2374962600242E+01 -0.1161243408539E+01
-0.2433587576609E+01 -0.2920826745188E+01 -0.2516574724862E+01 -0.6169121038988E+00
-0.8711272778215E+00 -0.3030600352528E+01 -0.1833811981613E+01 -0.2007401791481E+01
-0.1051198349234E+01 -0.3078425094916E+01 -0.1940923013828E+01 -0.2048693046571E+01
-0.1249573988803E+01 -0.3139232740780E+01 -0.2062739157672E+01 -0.2073743517903E+01
-0.1469614692250E+01 -0.3214293553850E+01 -0.2201436870084E+01 -0.2075427789164E+01
-0.1714656576257E+01 -0.3306752123791E+01 -0.2360062083036E+01 -0.2043131973753E+01
-0.1987982678282E+01 -0.3422050490711E+01 -0.2542715582977E+01 -0.1961984765476E+01
-0.2294066206228E+01 -0.3568598410295E+01 -0.2755452362777E+01 -0.1811462860235E+01
-0.2641864661675E+01 -0.3758709608094E+01 -0.3008269899161E+01 -0.1563048808537E+01
-0.3055999221009E+01 -0.4011957364965E+01 -0.3321939586982E+01 -0.1176600043671E+01
-0.3594735959877E+01 -0.4349998612932E+01 -0.3734025239749E+01 -0.5998067557746E+00
-0.8063348668358E+00 -0.3404579464787E+01 -0.1979129730843E+01 -0.2030430708827E+01
-0.9895053767024E+00 -0.3518861085281E+01 -0.2118932231758E+01 -0.2064352046232E+01
-0.1198505886739E+01 -0.3654519893218E+01 -0.2280922110794E+01 -0.2082180393328E+01
-0.1441774454395E+01 -0.3812014707305E+01 -0.2469280899736E+01 -0.2076102963179E+01
-0.1729203293941E+01 -0.3993667930533E+01 -0.2689749468681E+01 -0.2034389866661E+01
-0.2072956557699E+01 -0.4203772701969E+01 -0.2950062744562E+01 -0.1941299036053E+01
-0.2489137851473E+01 -0.4448044360197E+01 -0.3260475631215E+01 -0.1776406554626E+01
-0.3001706254003E+01 -0.4733407845439E+01 -0.3635503617517E+01 -0.1513912720804E+01
-0.3647102265265E+01 -0.5064657726190E+01 -0.4094527185599E+01 -0.1123413122073E+01
-0.4471662629271E+01 -0.5432339983144E+01 -0.4654881216028E+01 -0.5756852071244E+00
-0.7297035496090E+00 -0.3757832396728E+01 -0.2109141889429E+01 -0.2005111778912E+01
-0.9085523016673E+00 -0.3931019563158E+01 -0.2274598770699E+01 -0.2020896238793E+01
-0.1118731228725E+01 -0.4129013422898E+01 -0.2466439980007E+01 -0.2021916266076E+01
-0.1373527743511E+01 -0.4349499306643E+01 -0.2689822706750E+01 -0.1999947296867E+01
-0.1688790411272E+01 -0.4593268770068E+01 -0.2952567807741E+01 -0.1943321608345E+01
-0.2083097127073E+01 -0.4861561883802E+01 -0.3263989726832E+01 -0.1837669634191E+01
-0.2579958411458E+01 -0.5155214812067E+01 -0.3635531405836E+01 -0.1665744817566E+01
-0.3208689142001E+01 -0.5472394994736E+01 -0.4080109533918E+01 -0.1407783921593E+01
-0.4004750743851E+01 -0.5805925125772E+01 -0.4611017647028E+01 -0.1043805473641E+01
-0.5007030564210E+01 -0.6140373953914E+01 -0.5239280110230E+01 -0.5574362944351E+00
-0.6442510569936E+00 -0.4075005909916E+01 -0.2218050768822E+01 -0.1931200572206E+01
-0.8112287503614E+00 -0.4296387670753E+01 -0.2400579711835E+01 -0.1921005472068E+01
-0.1011381916811E+01 -0.4537426486797E+01 -0.2607939943081E+01 -0.1899540152752E+01
-0.1264146900687E+01 -0.4795101464943E+01 -0.2847846724623E+01 -0.1857298113032E+01
-0.1587706576366E+01 -0.5067595586627E+01 -0.3127992008673E+01 -0.1783531336860E+01
-0.2004869013422E+01 -0.5354058836047E+01 -0.3458696080478E+01 -0.1667344427753E+01
-0.2542297804559E+01 -0.5649446303511E+01 -0.3850119721028E+01 -0.1496984505257E+01
-0.3230876849024E+01 -0.5944464404081E+01 -0.4312410378021E+01 -0.1259549659337E+01
-0.4102114538348E+01 -0.6224387386669E+01 -0.4853455892448E+01 -0.9425500457819E+00
-0.5190479934976E+01 -0.6473942831867E+01 -0.5482278686511E+01 -0.5369233039940E+00
-0.5556942756679E+00 -0.4348376159483E+01 -0.2304913098675E+01 -0.1809703534686E+01
-0.7014373366099E+00 -0.4603106857350E+01 -0.2493135764838E+01 -0.1769692782733E+01
-0.8847102681512E+00 -0.4865593981175E+01 -0.2702642990329E+01 -0.1724160228130E+01
-0.1121548333848E+01 -0.5127353725636E+01 -0.2936983960508E+01 -0.1658758070132E+01
-0.1435683741932E+01 -0.5395121701705E+01 -0.3210478550366E+01 -0.1565395508178E+01
-0.1847269580989E+01 -0.5661977648133E+01 -0.3529346188736E+01 -0.1439415450102E+01
-0.2384154428011E+01 -0.5918099728976E+01 -0.3902059443887E+01 -0.1276319115368E+01
-0.3080332455000E+01 -0.6150393269083E+01 -0.4338441079315E+01 -0.1071137366342E+01
-0.3968893836492E+01 -0.6340343409261E+01 -0.4845341493214E+01 -0.8171577501893E+00
-0.5067689768495E+01 -0.6461609010657E+01 -0.5418770412458E+01 -0.5077244333925E+00
-0.4629632278972E+00 -0.4572898464166E+01 -0.2366854989266E+01 -0.1643532646195E+01
-0.5948953751344E+00 -0.4855046888153E+01 -0.2561472857248E+01 -0.1580755762556E+01
-0.7420168856606E+00 -0.5083880593065E+01 -0.2738171808056E+01 -0.1512143663797E+01
-0.9593314391391E+00 -0.5318564354002E+01 -0.2950611015293E+01 -0.1419178184329E+01
-0.1247214368335E+01 -0.5545118664223E+01 -0.3192396517205E+01 -0.1302750176994E+01
-0.1624889353868E+01 -0.5754326900853E+01 -0.3468231630922E+01 -0.1164839375892E+01
-0.2118097903424E+01 -0.5933427591903E+01 -0.3784216973206E+01 -0.1008877572837E+01
-0.2759874762980E+01 -0.6067060616837E+01 -0.4148659617991E+01 -0.8391385719162E+00
-0.3600631823431E+01 -0.6146182029836E+01 -0.4581002499416E+01 -0.6583915205035E+00
-0.4677382903399E+01 -0.6150332658542E+01 -0.5089026301205E+01 -0.4575279435804E+00
-0.4527804795350E+00 -0.4839171044435E+01 -0.2487217209957E+01 -0.1450863143367E+01
-0.4603713003995E+00 -0.4972835586432E+01 -0.2553607230334E+01 -0.1377359379566E+01
-0.5988495778642E+00 -0.5163023539927E+01 -0.2708080358493E+01 -0.1276418219029E+01
-0.7872507182309E+00 -0.5338964527167E+01 -0.2879321158034E+01 -0.1150945337913E+01
-0.1033087723663E+01 -0.5489839257487E+01 -0.3065775673364E+01 -0.1005368480725E+01
-0.1346177857792E+01 -0.5603018468073E+01 -0.3266122264872E+01 -0.8462674664905E+00
-0.1744515549203E+01 -0.5667026191041E+01 -0.3483424609080E+01 -0.6842919754863E+00
-0.2256949260280E+01 -0.5671596942318E+01 -0.3726416705769E+01 -0.5344846470367E+00
-0.2919127841769E+01 -0.5600174021756E+01 -0.4004071865701E+01 -0.4166910495636E+00
-0.3875012102575E+01 -0.5497681657092E+01 -0.4405166055871E+01 -0.3488847275309E+00
</DataArray>
<DataArray type="Float64" Name="S_Mises" NumberOfComponents="1" ComponentName0="S_Mises" format="ascii">
 0.1183839446853E+02
 0.1059424479814E+02
 0.9518554769308E+01
 0.9021133315128E+01
 0.8606298920283E+01
 0.8268986628888E+01
 0.7975705697155E+01
 0.7726785789674E+01
 0.7534967198475E+01
 0.7437481452898E+01
 0.7442368914906E+01
 0.7422035277636E+01
 0.7265208962079E+01
 0.7019917746904E+01
 0.6762848784695E+01
 0.6526229446826E+01
 0.6357410465913E+01
 0.6262532831303E+01
 0.6482589846708E+01
 0.5568118394802E+01
 0.1058512997192E+02
 0.9849645405941E+01
 0.1015547115030E+02
 0.9350491760538E+01
 0.8788142525920E+01
 0.8384551528323E+01
 0.8044220872895E+01
 0.7754592587394E+01
 0.7509140335988E+01
 0.7313747487691E+01
 0.7167926648882E+01
 0.7046676280799E+01
 0.6903795698194E+01
 0.6702637780339E+01
 0.6438778542166E+01
 0.6129894363899E+01
 0.5793474498574E+01
 0.5415364485321E+01
 0.4979513284590E+01
 0.4152879180014E+01
 0.2912253858967E+01
 0.8705110828276E+01
 0.8670546368036E+01
 0.9311880074846E+01
 0.9009376765646E+01
 0.8513738890209E+01
 0.8127775002530E+01
 0.7799227374593E+01
 0.7514036437584E+01
 0.7267481578277E+01
 0.7054515881199E+01
 0.6858143432781E+01
 0.6655168280296E+01
 0.6433902777118E+01
 0.6183407751263E+01
 0.5884843660242E+01
 0.5528180937894E+01
 0.5106347790709E+01
 0.4594269465137E+01
 0.3913129279730E+01
 0.2917267311752E+01
 0.2719258561672E+01
 0.8005704400745E+01
 0.7846585511753E+01
 0.8519384813178E+01
 0.8527286825066E+01
 0.8187663043491E+01
 0.7841379981919E+01
 0.7532530580272E+01
 0.7254476632751E+01
 0.7003504617493E+01
 0.6768882906775E+01
 0.6530177498822E+01
 0.6271776309335E+01
 0.5996286084607E+01
 0.5702120520877E+01
 0.5368093746726E+01
 0.4972220387971E+01
 0.4497408707283E+01
 0.3917557989749E+01
 0.3190644296891E+01
 0.2492300384046E+01
 0.3275293364621E+01
 0.7430665733060E+01
 0.7210854760952E+01
 0.7830924203823E+01
 0.8002759613691E+01
 0.7813132900137E+01
 0.7528994145888E+01
 0.7245942935225E+01
 0.6977346260701E+01
 0.6721407784533E+01
 0.6466684529738E+01
 0.6195309674070E+01
 0.5898536793155E+01
 0.5584733547890E+01
 0.5256132710092E+01
 0.4893564752027E+01
 0.4473438825759E+01
 0.3979506310081E+01
 0.3401980776064E+01
 0.2786488826958E+01
 0.2511174077124E+01
 0.3787666634594E+01
 0.6977459853545E+01
 0.6687239910215E+01
 0.7235321504319E+01
 0.7484463660034E+01
 0.7410720996993E+01
 0.7194578090018E+01
 0.6942579637507E+01
 0.6685363981862E+01
 0.6425921342084E+01
 0.6155161758106E+01
 0.5860000025345E+01
 0.5537005919680E+01
 0.5196931675284E+01
 0.4844184544013E+01
 0.4463829908185E+01
 0.4036860237443E+01
 0.3555592033264E+01
 0.3039266460776E+01
 0.2610025106655E+01
 0.2713605953416E+01
 0.4136179456318E+01
 0.6622297180942E+01
 0.6236110482803E+01
 0.6713516057837E+01
 0.6991606365713E+01
 0.6998710095097E+01
 0.6844880874790E+01
 0.6626008143192E+01
 0.6381966492515E+01
 0.6121481451236E+01
 0.5839563107754E+01
 0.5528334629920E+01
 0.5188498970278E+01
 0.4832072123738E+01
 0.4465465256489E+01
 0.4079282725793E+01
 0.3662443632570E+01
 0.3220492953416E+01
 0.2802155543115E+01
 0.2575790079411E+01
 0.2951869363717E+01
 0.4351306762709E+01
 0.6339444316840E+01
 0.5834829503575E+01
 0.6248974118977E+01
 0.6529750737929E+01
 0.6589312433101E+01
 0.6487118549260E+01
 0.6300285984347E+01
 0.6070722112759E+01
 0.5811986730944E+01
 0.5523757434374E+01
 0.5203095086635E+01
 0.4854075904474E+01
 0.4489803220176E+01
 0.4118997276873E+01
 0.3738455943990E+01
 0.3346490361863E+01
 0.2962857471649E+01
 0.2658964681218E+01
 0.2618858000271E+01
 0.3165615108749E+01
 0.4475264025029E+01
 0.6108083962495E+01
 0.5469518324461E+01
 0.5828952056275E+01
 0.6098632280000E+01
 0.6189662823364E+01
 0.6127485146215E+01
 0.5969539706219E+01
 0.5755058861059E+01
 0.5500749994418E+01
 0.5210660268478E+01
 0.4886251870855E+01
 0.4534498487876E+01
 0.4169743451201E+01
 0.3803349490254E+01
 0.3438446748466E+01
 0.3082780484970E+01
 0.2768622241473E+01
 0.2581144523970E+01
 0.2695956418525E+01
 0.3338586733537E+01
 0.4539282578572E+01
 0.5913502927844E+01
 0.5131167581511E+01
 0.5443910593721E+01
 0.5695740719186E+01
 0.5803453939910E+01
 0.5770702035845E+01
 0.5637539515419E+01
 0.5438097570121E+01
 0.5190535239348E+01
 0.4902497963024E+01
 0.4579209183740E+01
 0.4230208374003E+01
 0.3871272030098E+01
 0.3516590037646E+01
 0.3175338400087E+01
 0.2863766582480E+01
 0.2623717906642E+01
 0.2545697629149E+01
 0.2781548697355E+01
 0.3471652245132E+01
 0.4565859571500E+01
 0.5743902059439E+01
 0.4813675733575E+01
 0.5086941688287E+01
 0.5318303614892E+01
 0.5432804531251E+01
 0.5420807005980E+01
 0.5308306901943E+01
 0.5123516608702E+01
 0.4884702278150E+01
 0.4602175313570E+01
 0.4284242409840E+01
 0.3942711341263E+01
 0.3594886787371E+01
 0.3257749218882E+01
 0.2945878492760E+01
 0.2682544595909E+01
 0.2515973628353E+01
 0.2535088798967E+01
 0.2861565852059E+01
 0.3569380746865E+01
 0.4572642577094E+01
 0.5591110702586E+01
 0.4512677347507E+01
 0.4752668560542E+01
 0.4963145807149E+01
 0.5077961781970E+01
 0.5079929337301E+01
 0.4984309340655E+01
 0.4813526077713E+01
 0.4585029623948E+01
 0.4310900425697E+01
 0.4001868870151E+01
 0.3671709610390E+01
 0.3339230644191E+01
 0.3023990543348E+01
 0.2745166028710E+01
 0.2531486713250E+01
 0.2434708951893E+01
 0.2537365599411E+01
 0.2930198638675E+01
 0.3640706128568E+01
 0.4563659566017E+01
 0.5484074866037E+01
 0.4224895736346E+01
 0.4436706667721E+01
 0.4626903354894E+01
 0.4737824088453E+01
 0.4748537491667E+01
 0.4666468006081E+01
 0.4508856644565E+01
 0.4291778422734E+01
 0.4028312383190E+01
 0.3731003225395E+01
 0.3415273787638E+01
 0.3101305123114E+01
 0.2810914795896E+01
 0.2567065746696E+01
 0.2402574518385E+01
 0.2370491195527E+01
 0.2543986576718E+01
 0.2985821261576E+01
 0.3690615885150E+01
 0.4550503045183E+01
 0.5385008920663E+01
 0.3947855962954E+01
 0.4135831070077E+01
 0.4307003840809E+01
 0.4411529155649E+01
 0.4427213826820E+01
 0.4356017527842E+01
 0.4210802956859E+01
 0.4005992497077E+01
 0.3755042423970E+01
 0.3471755901163E+01
 0.3172856836016E+01
 0.2879674704103E+01
 0.2615891873350E+01
 0.2407487862385E+01
 0.2290227164803E+01
 0.2316769476452E+01
 0.2549648346340E+01
 0.3027787665474E+01
 0.3724195608649E+01
 0.4532850771329E+01
 0.5297306911935E+01
 0.3679596112655E+01
 0.3847449347918E+01
 0.4001174013863E+01
 0.4097992511901E+01
 0.4116050885858E+01
 0.4053702508257E+01
 0.3920260581068E+01
 0.3728404657848E+01
 0.3491485050504E+01
 0.3224064483741E+01
 0.2943801058247E+01
 0.2672883112082E+01
 0.2436434914359E+01
 0.2262779295450E+01
 0.2189748704408E+01
 0.2268501732196E+01
 0.2550866576028E+01
 0.3056527598891E+01
 0.3744427418329E+01
 0.4511984902524E+01
 0.5221747102033E+01
 0.3418505137224E+01
 0.3569421583881E+01
 0.3707393639438E+01
 0.3796011575468E+01
 0.3814780756398E+01
 0.3759861342947E+01
 0.3637774501490E+01
 0.3459475408297E+01
 0.3237837287209E+01
 0.2987737782836E+01
 0.2727394285800E+01
 0.2479527583446E+01
 0.2270286882504E+01
 0.2129781386876E+01
 0.2097285686688E+01
 0.2221863835742E+01
 0.2545437619867E+01
 0.3072704061485E+01
 0.3753509013101E+01
 0.4489319896158E+01
 0.5157886821952E+01
 0.3163213116966E+01
 0.3299928217692E+01
 0.3423842556438E+01
 0.3504320250451E+01
 0.3522868189447E+01
 0.3474500862734E+01
 0.3363588802451E+01
 0.3199430776422E+01
 0.2994134488296E+01
 0.2762496225047E+01
 0.2522920708623E+01
 0.2298320892521E+01
 0.2115479901296E+01
 0.2005850090084E+01
 0.2009749055211E+01
 0.2174007826878E+01
 0.2531976344327E+01
 0.3077007455858E+01
 0.3753152331857E+01
 0.4465882743291E+01
 0.5104951747362E+01
 0.2912514284097E+01
 0.3037372263799E+01
 0.3148849243641E+01
 0.3221614346230E+01
 0.3239575895720E+01
 0.3197358950202E+01
 0.3097693293388E+01
 0.2948297824604E+01
 0.2760282468086E+01
 0.2548007257441E+01
 0.2329703823591E+01
 0.2128139349723E+01
 0.1970373157297E+01
 0.1888853072103E+01
 0.1924732415289E+01
 0.2122851373593E+01
 0.2509615860824E+01
 0.3070069106057E+01
 0.3744637654364E+01
 0.4442313048399E+01
 0.5062036437001E+01
 0.2665311208736E+01
 0.2780305701999E+01
 0.2880844304657E+01
 0.2946560034629E+01
 0.2964009575040E+01
 0.2927955419210E+01
 0.2839865218682E+01
 0.2705936966320E+01
 0.2536085689125E+01
 0.2343915044109E+01
 0.2147140515034E+01
 0.1968057710466E+01
 0.1833675399884E+01
 0.1777157570600E+01
 0.1840437848068E+01
 0.2066911745266E+01
 0.2477816949387E+01
 0.3052402264185E+01
 0.3728865163067E+01
 0.4418928579604E+01
 0.5028182003620E+01
 0.2420572899288E+01
 0.2527372677820E+01
 0.2618319432862E+01
 0.2677792493031E+01
 0.2695148364736E+01
 0.2665632384604E+01
 0.2589705078032E+01
 0.2472070050096E+01
 0.2321270620701E+01
 0.2149863391843E+01
 0.1974725485436E+01
 0.1817372017882E+01
 0.1704457020791E+01
 0.1669617419405E+01
 0.1755617205891E+01
 0.2005186083137E+01
 0.2436244755687E+01
 0.3024369973303E+01
 0.3706406057028E+01
 0.4395800633262E+01
 0.5002422155633E+01
 0.2177302080584E+01
 0.2277264246500E+01
 0.2359791277623E+01
 0.2413909073580E+01
 0.2431865173253E+01
 0.2409585994650E+01
 0.2346666553672E+01
 0.2246303660446E+01
 0.2115503613180E+01
 0.1965511216066E+01
 0.1812065746389E+01
 0.1675611454052E+01
 0.1582155158009E+01
 0.1565564459200E+01
 0.1669534488867E+01
 0.1937074096133E+01
 0.2384693557721E+01
 0.2986170921071E+01
 0.3677549416825E+01
 0.4372822844823E+01
 0.4983825430723E+01
 0.1934508389639E+01
 0.2028680784469E+01
 0.2103769183687E+01
 0.2153459673966E+01
 0.2172940420892E+01
 0.2158891600974E+01
 0.2110081094430E+01
 0.2028147430325E+01
 0.1918402813459E+01
 0.1790540044275E+01
 0.1658884938857E+01
 0.1542539623413E+01
 0.1466573188949E+01
 0.1464806986128E+01
 0.1581952667714E+01
 0.1862341195117E+01
 0.2323048875672E+01
 0.2937835562773E+01
 0.3642340032957E+01
 0.4349771049825E+01
 0.4971543202162E+01
 0.1691185083389E+01
 0.1780299063827E+01
 0.1848725603483E+01
 0.1894936013057E+01
 0.1917072041413E+01
 0.1912524436142E+01
 0.1879177967340E+01
 0.1817027326093E+01
 0.1729543688135E+01
 0.1624653021032E+01
 0.1515016964166E+01
 0.1418144568504E+01
 0.1357873509093E+01
 0.1367634889175E+01
 0.1493146991951E+01
 0.1781122627326E+01
 0.2251282299595E+01
 0.2879226491930E+01
 0.3600602500460E+01
 0.4326354692361E+01
 0.4964864806613E+01
 0.1446287348350E+01
 0.1530741607587E+01
 0.1593068062445E+01
 0.1636761228881E+01
 0.1662884529818E+01
 0.1669378202692E+01
 0.1653101095840E+01
 0.1612294316479E+01
 0.1548458058857E+01
 0.1467565113937E+01
 0.1380388389994E+01
 0.1302616007150E+01
 0.1256560108248E+01
 0.1274827696151E+01
 0.1403945318010E+01
 0.1693972396164E+01
 0.2169480891704E+01
 0.2810039337217E+01
 0.3551944636541E+01
 0.4302260143549E+01
 0.4963277797943E+01
 0.1198710614499E+01
 0.1278546445883E+01
 0.1335111639431E+01
 0.1377281286262E+01
 0.1408940178459E+01
 0.1428284538466E+01
 0.1430924544454E+01
 0.1413229197753E+01
 0.1374626712519E+01
 0.1318984254567E+01
 0.1254989038724E+01
 0.1196307720711E+01
 0.1163445089352E+01
 0.1187656929063E+01
 0.1315792459505E+01
 0.1601963617835E+01
 0.2077921452145E+01
 0.2729804455111E+01
 0.3495726736959E+01
 0.4277183507292E+01
 0.4966529585151E+01
 0.9472678381914E+00
 0.1022136577531E+01
 0.1073051219906E+01
 0.1114760545005E+01
 0.1153757407813E+01
 0.1188038279516E+01
 0.1211670091572E+01
 0.1219045364607E+01
 0.1207466177656E+01
 0.1178583484598E+01
 0.1138830714321E+01
 0.1099683806319E+01
 0.1079592415123E+01
 0.1107868439587E+01
 0.1230828525629E+01
 0.1506847655490E+01
 0.1977211737509E+01
 0.2637900719491E+01
 0.3430970116261E+01
 0.4250839315974E+01
 0.4974687510109E+01
 0.6906676389270E+00
 0.7597936481739E+00
 0.8049334062916E+00
 0.8473863434244E+00
 0.8958469168697E+00
 0.9474394710072E+00
 0.9943345503540E+00
 0.1028893508377E+01
 0.1046311035811E+01
 0.1045964495625E+01
 0.1031895033823E+01
 0.1013250130273E+01
 0.1006234966403E+01
 0.1037625370329E+01
 0.1151959047975E+01
 0.1411273651510E+01
 0.1868532552624E+01
 0.2533624065591E+01
 0.3356161150292E+01
 0.4222888050989E+01
 0.4988198892166E+01
 0.4275177585549E+00
 0.4896750383645E+00
 0.5286304423210E+00
 0.5732982098010E+00
 0.6338029591889E+00
 0.7053878238734E+00
 0.7779493137470E+00
 0.8418786093834E+00
 0.8903948786534E+00
 0.9206133040422E+00
 0.9340728262972E+00
 0.9374774009948E+00
 0.9446704250203E+00
 0.9793955453534E+00
 0.1082874403046E+01
 0.1319061042393E+01
 0.1754000860389E+01
 0.2416432546078E+01
 0.3268922524982E+01
 0.4192575581287E+01
 0.5007932017234E+01
 0.1567804852830E+00
 0.2103909112534E+00
 0.2418429360156E+00
 0.2907548057904E+00
 0.3666893692991E+00
 0.4612112464550E+00
 0.5617624873428E+00
 0.6571228148528E+00
 0.7388383628224E+00
 0.8018496749734E+00
 0.8450994784794E+00
 0.8727292685932E+00
 0.8961591649963E+00
 0.9357903338059E+00
 0.1027959161470E+01
 0.1235488261127E+01
 0.1637176054240E+01
 0.2286417105719E+01
 0.3166073975139E+01
 0.4157051450284E+01
 0.5035381190468E+01
 0.1287242002144E+00
 0.9187553239251E-01
 0.5890196165605E-01
 0.2262010509522E-01
 0.1002908138989E+00
 0.2170691130037E+00
 0.3460863695898E+00
 0.4740103745220E+00
 0.5906686922892E+00
 0.6887724114915E+00
 0.7644910112235E+00
 0.8192124318557E+00
 0.8618666747302E+00
 0.9094083841820E+00
 0.9920651962244E+00
 0.1167445493367E+01
 0.1523893327717E+01
 0.2144602648087E+01
 0.3045127899150E+01
 0.4109842996718E+01
 0.5062849983116E+01
 0.4222185788191E+00
 0.3970804010222E+00
 0.3747185026244E+00
 0.3113122462627E+00
 0.2032503165272E+00
 0.8591351091300E-01
 0.1405225401805E+00
 0.2927570197369E+00
 0.4443364567353E+00
 0.5796901456236E+00
 0.6911147500563E+00
 0.7767551079456E+00
 0.8428435071951E+00
 0.9028708384700E+00
 0.9802916061468E+00
 0.1123287387572E+01
 0.1422393878422E+01
 0.1993760847497E+01
 0.2900532053641E+01
 0.4051622008954E+01
 0.5084000646846E+01
 0.7325795223486E+00
 0.7264859545893E+00
 0.7104405577811E+00
 0.6324088022216E+00
 0.4947517560362E+00
 0.3216198928465E+00
 0.1444966992462E+00
 0.1284319911182E+00
 0.2996997783732E+00
 0.4731338133905E+00
 0.6239290789616E+00
 0.7453555713981E+00
 0.8404564366694E+00
 0.9191787149262E+00
 0.9981357575964E+00
 0.1113059580867E+01
 0.1346067048617E+01
 0.1840911946323E+01
 0.2731869981914E+01
 0.3969246353087E+01
 0.5203903333009E+01
 0.1062712184943E+01
 0.1080955714931E+01
 0.1068448365255E+01
 0.9691467272587E+00
 0.7987613138444E+00
 0.5886205447250E+00
 0.3613711172824E+00
 0.1452618379037E+00
 0.1628406852974E+00
 0.3677386582012E+00
 0.5617339720022E+00
 0.7249400135488E+00
 0.8562299670257E+00
 0.9617456404776E+00
 0.1051457095766E+01
 0.1147686132874E+01
 0.1313532359907E+01
 0.1702776519497E+01
 0.2537844872446E+01
 0.3876745917037E+01
 0.5353687045092E+01
 0.1417848654524E+01
 0.1466287498269E+01
 0.1451711783412E+01
 0.1321484196998E+01
 0.1112925894805E+01
 0.8653433473184E+00
 0.5986951318864E+00
 0.3256589258993E+00
 0.1000515140476E+00
 0.2615734587657E+00
 0.5023472006157E+00
 0.7147873296010E+00
 0.8915584721169E+00
 0.1034503543932E+01
 0.1146925380420E+01
 0.1238132182041E+01
 0.1345862733092E+01
 0.1605180650249E+01
 0.2324697417344E+01
 0.3758930474916E+01
 0.5540007474842E+01
 0.1805668993392E+01
 0.1890161310675E+01
 0.1862314583105E+01
 0.1687963645578E+01
 0.1435924704942E+01
 0.1150515943439E+01
 0.8465742301008E+00
 0.5306242471967E+00
 0.2153496411155E+00
 0.1546338210555E+00
 0.4427655720476E+00
 0.7134687122028E+00
 0.9475081904773E+00
 0.1141831973344E+01
 0.1292692796531E+01
 0.1397167468603E+01
 0.1466203368413E+01
 0.1588389221609E+01
 0.2110476891982E+01
 0.3588142296409E+01
 0.5775048181183E+01
 0.2238060576810E+01
 0.2362333752242E+01
 0.2299828549171E+01
 0.2064776502874E+01
 0.1766001536139E+01
 0.1443883516478E+01
 0.1104686653671E+01
 0.7497390918459E+00
 0.3826838970390E+00
 0.7445655353653E-01
 0.3787993583014E+00
 0.7182887815595E+00
 0.1024121542470E+01
 0.1287745683746E+01
 0.1497778975536E+01
 0.1639995740646E+01
 0.1700786869782E+01
 0.1705991615981E+01
 0.1945044233955E+01
 0.3330613638002E+01
 0.6072931912981E+01
 0.2734894549401E+01
 0.2894183984911E+01
 0.2757798829648E+01
 0.2445194176857E+01
 0.2101340997510E+01
 0.1745326533662E+01
 0.1373645767640E+01
 0.9833069047325E+00
 0.5720520921413E+00
 0.1494809264831E+00
 0.3045557201473E+00
 0.7245713288275E+00
 0.1119643772303E+01
 0.1474822516139E+01
 0.1770565286286E+01
 0.1982487760980E+01
 0.2079490194031E+01
 0.2022885059914E+01
 0.1942859507899E+01
 0.2962054325196E+01
 0.6445355859008E+01
 0.3332855810058E+01
 0.3494312143237E+01
 0.3216645585864E+01
 0.2821068299328E+01
 0.2440927588522E+01
 0.2054559162474E+01
 0.1654183722740E+01
 0.1232799923921E+01
 0.7832038163140E+00
 0.3024695823622E+00
 0.2117516413710E+00
 0.7248592029641E+00
 0.1229891548600E+01
 0.1703428475637E+01
 0.2117005233770E+01
 0.2438357344728E+01
 0.2627964942013E+01
 0.2615986598034E+01
 0.2299168013602E+01
 0.2562335558101E+01
 0.6888056354623E+01
 0.4109721842495E+01
 0.4144103775953E+01
 0.3634425360615E+01
 0.3191232685054E+01
 0.2783332070016E+01
 0.2371374382340E+01
 0.1946972816401E+01
 0.1499513957463E+01
 0.1018750393532E+01
 0.4926875227644E+00
 0.8896020825313E-01
 0.7080161522925E+00
 0.1347864075828E+01
 0.1971558707311E+01
 0.2539478428549E+01
 0.3016499536872E+01
 0.3359356927197E+01
 0.3534264832133E+01
 0.3297814489301E+01
 0.2669155983031E+01
 0.7346403769437E+01
 0.5271419390206E+01
 0.4649389679258E+01
 0.3997436117967E+01
 0.3559401492796E+01
 0.3125753616330E+01
 0.2696429351162E+01
 0.2252335223063E+01
 0.1784286966735E+01
 0.1280463871173E+01
 0.7237700155523E+00
 0.8403557694610E-01
 0.6578712132628E+00
 0.1464221481614E+01
 0.2274079480914E+01
 0.3039133818763E+01
 0.3714548641829E+01
 0.4283602573981E+01
 0.4722893277268E+01
 0.5191479706931E+01
 0.4642921484759E+01
 0.8350241168687E+01
 0.9038779822302E+00
 0.9127638565463E+00
 0.9430678460222E+00
 0.9459865446808E+00
 0.9061112396412E+00
 0.8199545501669E+00
 0.6954990705755E+00
 0.5493558734919E+00
 0.3933448470848E+00
 0.2207486284374E+00
 0.8557604298590E+00
 0.8969985508743E+00
 0.9556276436321E+00
 0.9833460095905E+00
 0.9616213836876E+00
 0.8857976363677E+00
 0.7627790973318E+00
 0.6081694063550E+00
 0.4251158641839E+00
 0.2210292752908E+00
 0.8098175080537E+00
 0.8928185635161E+00
 0.9820174600879E+00
 0.1033499510021E+01
 0.1028415485999E+01
 0.9616575611959E+00
 0.8390909302091E+00
 0.6722596754409E+00
 0.4677295459522E+00
 0.2498918055712E+00
 0.7673085507821E+00
 0.8982448098514E+00
 0.1020794623486E+01
 0.1096052886081E+01
 0.1106971445099E+01
 0.1048782676560E+01
 0.9260461059410E+00
 0.7488797318271E+00
 0.5285440798574E+00
 0.2918688445263E+00
 0.7285090834951E+00
 0.9126581054782E+00
 0.1070739367459E+01
 0.1170358099447E+01
 0.1197403600026E+01
 0.1148081835432E+01
 0.1026339261267E+01
 0.8415878691774E+00
 0.6063961376208E+00
 0.3469454006765E+00
 0.6936708890734E+00
 0.9353114333313E+00
 0.1130769403335E+01
 0.1255543766083E+01
 0.1299456547954E+01
 0.1260256305415E+01
 0.1141638089962E+01
 0.9517983710438E+00
 0.7026502399304E+00
 0.4181120067103E+00
 0.6630560673930E+00
 0.9653781390343E+00
 0.1199655482215E+01
 0.1350491485878E+01
 0.1412493481378E+01
 0.1385388873189E+01
 0.1272667936886E+01
 0.1080818884924E+01
 0.8197057527416E+00
 0.5100316706622E+00
 0.6369394943018E+00
 0.1001910852523E+01
 0.1275962768473E+01
 0.1453763443857E+01
 0.1535395190913E+01
 0.1522882305303E+01
 0.1419529319339E+01
 0.1229745544529E+01
 0.9603886133174E+00
 0.6281817964089E+00
 0.6155899114229E+00
 0.1043832305796E+01
 0.1358023082521E+01
 0.1563561478211E+01
 0.1666515249934E+01
 0.1671472722509E+01
 0.1581641213033E+01
 0.1399184181433E+01
 0.1127321331797E+01
 0.7782384860400E+00
 0.5992513691232E+00
 0.1089938755254E+01
 0.1443937475872E+01
 0.1677722813689E+01
 0.1803677002699E+01
 0.1829195237087E+01
 0.1757591956273E+01
 0.1588861114426E+01
 0.1322321301715E+01
 0.9654126692176E+00
 0.5881299599221E+00
 0.1138919763180E+01
 0.1531605134227E+01
 0.1793748931069E+01
 0.1944189383620E+01
 0.1993350863594E+01
 0.1944975017493E+01
 0.1797211209919E+01
 0.1545673944499E+01
 0.1193412890032E+01
 0.5823881431801E+00
 0.1189394227086E+01
 0.1618776184408E+01
 0.1908860655481E+01
 0.2084888435609E+01
 0.2160502701868E+01
 0.2140279747369E+01
 0.2021018855794E+01
 0.1795169369421E+01
 0.1462162616680E+01
 0.5821469344048E+00
 0.1239960958454E+01
 0.1703124770135E+01
 0.2020078671458E+01
 0.2222210655572E+01
 0.2326520791933E+01
 0.2338873875665E+01
 0.2255246168896E+01
 0.2065352669294E+01
 0.1765504351816E+01
 0.5874947336060E+00
 0.1289260283692E+01
 0.1782338679108E+01
 0.2124329251288E+01
 0.2352303991807E+01
 0.2486683945250E+01
 0.2535093825776E+01
 0.2493139217988E+01
 0.2347774632865E+01
 0.2091825639646E+01
 0.5985010269091E+00
 0.1336041896848E+01
 0.1854219882883E+01
 0.2218574211649E+01
 0.2471182028939E+01
 0.2635845845287E+01
 0.2722437042795E+01
 0.2726581093944E+01
 0.2631988650953E+01
 0.2426716825437E+01
 0.6152344932257E+00
 0.1379233187474E+01
 0.1916785788761E+01
 0.2299959423880E+01
 0.2574928282762E+01
 0.2768675489796E+01
 0.2893843442656E+01
 0.2946548271116E+01
 0.2906546438938E+01
 0.2755061336132E+01
 0.6377894372929E+00
 0.1418003058699E+01
 0.1968352616355E+01
 0.2365964040887E+01
 0.2659955070089E+01
 0.2879998035196E+01
 0.3042050044677E+01
 0.3143536647212E+01
 0.3159663533455E+01
 0.3062101269325E+01
 0.6663354261897E+00
 0.1451820198044E+01
 0.2007570961514E+01
 0.2414506706112E+01
 0.2723302780029E+01
 0.2965287196785E+01
 0.3160077904799E+01
 0.3307834389402E+01
 0.3379523758828E+01
 0.3333729299996E+01
 0.7012158050498E+00
 0.1480535628232E+01
 0.2033367290425E+01
 0.2443912945986E+01
 0.2762923702070E+01
 0.3021353425742E+01
 0.3242072334367E+01
 0.3429812499395E+01
 0.3553721313775E+01
 0.3556913860868E+01
 0.7434934322382E+00
 0.1504096118162E+01
 0.2044778068827E+01
 0.2452917172105E+01
 0.2777386192391E+01
 0.3047322340637E+01
 0.3285038946226E+01
 0.3500769573956E+01
 0.3668497395437E+01
 0.3722951695644E+01
 0.1776458645531E+01
 0.5485962737335E+00
 0.2036370006454E-01
 0.1669441369495E+00
 0.2384275894286E+00
 0.2444927872448E+00
 0.1925861693409E+00
 0.9231939079382E-01
 0.2879954954624E-01
 0.1527730724451E+00
 0.1860738425204E+01
 0.1211827321547E+01
 0.4227111524717E+00
 0.8515530831612E-01
 0.7495511411197E-01
 0.1420180559551E+00
 0.1370633754084E+00
 0.7509164973608E-01
 0.1367048673197E-01
 0.1038768868152E+00
 0.1704849455758E+01
 0.1366990552086E+01
 0.7777757903129E+00
 0.3574911649898E+00
 0.1143214235556E+00
 0.1390410561178E-01
 0.5969157772646E-01
 0.4211232052801E-01
 0.6202102508191E-02
 0.6170198088887E-01
 0.1545498153372E+01
 0.1355319425968E+01
 0.9420105674282E+00
 0.5681490741005E+00
 0.2956003441379E+00
 0.1227831810414E+00
 0.3132967961394E-01
 0.4071573403212E-02
 0.9979829550395E-02
 0.3008190086437E-01
 0.1403823231822E+01
 0.1285319601155E+01
 0.1000677419191E+01
 0.6978497089192E+00
 0.4410938476986E+00
 0.2505012981752E+00
 0.1259814700016E+00
 0.5814386649433E-01
 0.2725712232772E-01
 0.1288104315672E-01
 0.1283113393939E+01
 0.1199374223083E+01
 0.1004990960739E+01
 0.7715074695360E+00
 0.5482697710343E+00
 0.3605948937972E+00
 0.2181785548541E+00
 0.1203257688697E+00
 0.5843575199033E-01
 0.1442497109088E-01
 0.1180989724637E+01
 0.1116083516257E+01
 0.9860776301107E+00
 0.8129919779751E+00
 0.6285042364860E+00
 0.4550967707673E+00
 0.3067036688323E+00
 0.1894244289017E+00
 0.1051337898441E+00
 0.3448905797364E-01
 0.1094211504319E+01
 0.1043875569472E+01
 0.9624911486082E+00
 0.8411577297240E+00
 0.6954253520496E+00
 0.5418829016068E+00
 0.3948760919916E+00
 0.2657551456456E+00
 0.1673104716192E+00
 0.7817470812824E-01
 0.1019637643049E+01
 0.9863093388773E+00
 0.9452566745518E+00
 0.8697903759584E+00
 0.7617780784309E+00
 0.6307560541180E+00
 0.4895587375980E+00
 0.3509177735763E+00
 0.2393345480611E+00
 0.1460369728971E+00
 0.9551473129358E+00
 0.9435381604340E+00
 0.9403372916856E+00
 0.9086438224628E+00
 0.8385938267002E+00
 0.7319201032371E+00
 0.5988002366141E+00
 0.4541775442665E+00
 0.3188382370035E+00
 0.2203970620017E+00
 0.8151689557999E+00
 0.1550540885335E+01
 0.2069591364268E+01
 0.2467598099830E+01
 0.2792423848354E+01
 0.3073440157483E+01
 0.3326822727411E+01
 0.3567037180200E+01
 0.3780205667820E+01
 0.3895164823645E+01
 0.8917929500501E+00
 0.1606604590952E+01
 0.2095710542597E+01
 0.2472375730125E+01
 0.2787910560070E+01
 0.3071437919427E+01
 0.3336812711683E+01
 0.3608843562256E+01
 0.3880798040145E+01
 0.4028926498029E+01
 0.9638078390760E+00
 0.1640996865193E+01
 0.2083466351097E+01
 0.2420603252970E+01
 0.2710191663292E+01
 0.2983074853968E+01
 0.3255214968340E+01
 0.3565033670436E+01
 0.3906448827940E+01
 0.4096260872451E+01
 0.1035200264006E+01
 0.1652811504430E+01
 0.2027356790045E+01
 0.2305867994697E+01
 0.2552009054995E+01
 0.2798919397912E+01
 0.3065677621150E+01
 0.3406559452458E+01
 0.3828265537213E+01
 0.4083288975242E+01
 0.1107442562687E+01
 0.1641973658640E+01
 0.1923566229343E+01
 0.2123308540668E+01
 0.2308504993241E+01
 0.2512643178428E+01
 0.2758513165984E+01
 0.3119479172640E+01
 0.3628924111197E+01
 0.3970100848295E+01
 0.1181796689640E+01
 0.1606002705299E+01
 0.1766576963808E+01
 0.1869029886108E+01
 0.1979091627549E+01
 0.2125590248606E+01
 0.2335388772531E+01
 0.2701409521253E+01
 0.3296455320784E+01
 0.3735067124669E+01
 0.1258788458442E+01
 0.1536993171620E+01
 0.1545691792789E+01
 0.1540390554601E+01
 0.1570739776106E+01
 0.1651033657316E+01
 0.1811174350484E+01
 0.2162009316722E+01
 0.2826397483558E+01
 0.3356943249263E+01
 0.1335141608666E+01
 0.1413311127214E+01
 0.1240554417331E+01
 0.1138848404526E+01
 0.1106258358665E+01
 0.1118864587115E+01
 0.1216407369535E+01
 0.1524798226751E+01
 0.2223371028088E+01
 0.2816450145000E+01
 0.1395814782504E+01
 0.1174175548434E+01
 0.8128403656892E+00
 0.6970780698494E+00
 0.6321910352786E+00
 0.5774579678216E+00
 0.5987332098701E+00
 0.8312950428961E+00
 0.1502563854066E+01
 0.2096173771369E+01
 0.1292203214019E+01
 0.6197530688565E+00
 0.3438345276079E+00
 0.2874913053944E+00
 0.2036670718319E+00
 0.9514354387628E-01
 0.3826633492502E-01
 0.1370370222957E+00
 0.6952986699491E+00
 0.1184859491017E+01
 0.1049491255807E+00
 0.5268109313619E-01
 0.3021697998549E-01
 0.2452958164137E-01
 0.3356016409808E-01
 0.5675374809677E-01
 0.9194433765018E-01
 0.1374390899937E+00
 0.1921083394029E+00
 0.2572146321048E+00
 0.1184268349415E+00
 0.6891636322122E-01
 0.2866603124708E-01
 0.1403655008836E-01
 0.9365666555756E-02
 0.2772447992998E-01
 0.7160812225140E-01
 0.1320716963611E+00
 0.2063413335756E+00
 0.2928656856402E+00
 0.1224490718475E+00
 0.7147265429514E-01
 0.2900817476164E-01
 0.2245481836531E-01
 0.2115200315889E-01
 0.9090097977376E-02
 0.5470528886407E-01
 0.1245851113883E+00
 0.2115500092454E+00
 0.3124001290296E+00
 0.1339112928394E+00
 0.6923333026578E-01
 0.2868306014236E-01
 0.4016566130824E-01
 0.4517755731733E-01
 0.2207241107098E-01
 0.3316758792471E-01
 0.1121653412825E+00
 0.2114980058905E+00
 0.3240791062374E+00
 0.1575257639756E+00
 0.7192877203063E-01
 0.3594492393932E-01
 0.6818643787420E-01
 0.8246325361020E-01
 0.6186430746273E-01
 0.6966195220007E-02
 0.8757189607285E-01
 0.2043328123609E+00
 0.3353009710806E+00
 0.1972871468196E+00
 0.8552120642197E-01
 0.4632760802486E-01
 0.1005441908688E+00
 0.1311176905071E+00
 0.1196264576494E+00
 0.6126793442173E-01
 0.4298586085547E-01
 0.1834929018526E+00
 0.3459716398397E+00
 0.2588385369461E+00
 0.1173172460680E+00
 0.5069966118753E-01
 0.1275498071809E+00
 0.1838166119850E+00
 0.1918374446600E+00
 0.1414535174810E+00
 0.2892020191707E-01
 0.1406205474054E+00
 0.3491624502781E+00
 0.3494417263378E+00
 0.1775492055247E+00
 0.5392951187028E-01
 0.1366470038380E+00
 0.2280771041048E+00
 0.2691936056404E+00
 0.2419456042356E+00
 0.1321823650907E+00
 0.6534683389816E-01
 0.3357632143257E+00
 0.4776738041982E+00
 0.2790109317916E+00
 0.1003327236233E+00
 0.1117962773617E+00
 0.2423998058120E+00
 0.3304279169487E+00
 0.3468817429012E+00
 0.2641343125568E+00
 0.5433053784811E-01
 0.2925749405776E+00
 0.6526092529601E+00
 0.4361640199271E+00
 0.2246902912352E+00
 0.7052676926829E-01
 0.1936430704134E+00
 0.3338471383492E+00
 0.4120791524604E+00
 0.3883808815998E+00
 0.2089305907764E+00
 0.1990297421162E+00
 0.8823221827729E+00
 0.6636694921492E+00
 0.4414116084647E+00
 0.2247863552233E+00
 0.8315072901213E-01
 0.2102228250281E+00
 0.3391028918966E+00
 0.3810197419032E+00
 0.2665197210150E+00
 0.1366006608655E+00
 0.1169238468683E+01
 0.9685358016143E+00
 0.7608376116277E+00
 0.5498616067618E+00
 0.3450123829280E+00
 0.1693203251081E+00
 0.1055105424602E+00
 0.1489096721326E+00
 0.1148547931246E+00
 0.2186649407145E+00
 0.1505490173578E+01
 0.1341943094797E+01
 0.1172085051490E+01
 0.9973164369792E+00
 0.8223352447265E+00
 0.6562919603980E+00
 0.5139490029132E+00
 0.4161102273621E+00
 0.3880211227479E+00
 0.4515022536545E+00
 0.1873818054676E+01
 0.1759995630914E+01
 0.1641780470291E+01
 0.1517456208913E+01
 0.1387000096237E+01
 0.1252499294641E+01
 0.1117702111310E+01
 0.9860920821966E+00
 0.8546065718154E+00
 0.6961488257029E+00
 0.2253689167546E+01
 0.2194657845356E+01
 0.2131947531014E+01
 0.2058730486212E+01
 0.1968584821559E+01
 0.1854923362436E+01
 0.1709180529733E+01
 0.1517544594645E+01
 0.1255150550715E+01
 0.8834342543007E+00
 0.2625889833654E+01
 0.2621556898488E+01
 0.2611730098980E+01
 0.2582979441561E+01
 0.2522402375942E+01
 0.2415223647333E+01
 0.2242277584346E+01
 0.1977649677213E+01
 0.1587386625043E+01
 0.1036913016057E+01
 0.2974492123863E+01
 0.3022123177190E+01
 0.3058178065708E+01
 0.3063294492118E+01
 0.3020278859337E+01
 0.2908873113774E+01
 0.2702068292084E+01
 0.2366101491619E+01
 0.1863868159896E+01
 0.1165294232432E+01
 0.3287852159349E+01
 0.3382690225104E+01
 0.3451859752929E+01
 0.3474190773361E+01
 0.3435091794118E+01
 0.3311306108885E+01
 0.3070604456662E+01
 0.2673133129003E+01
 0.2076892426215E+01
 0.1255742970143E+01
 0.3562513108641E+01
 0.3693020426580E+01
 0.3764223999176E+01
 0.3779901385667E+01
 0.3727667932499E+01
 0.3583043175014E+01
 0.3312989561559E+01
 0.2876322655565E+01
 0.2223818728910E+01
 0.1316321095375E+01
 0.3802041677668E+01
 0.3911306458847E+01
 0.3956468404145E+01
 0.3946181877896E+01
 0.3864617626297E+01
 0.3692422129995E+01
 0.3404262792632E+01
 0.2966722056281E+01
 0.2335878233861E+01
 0.1433127704754E+01
</DataArray>
<DataArray type="Float64" Name="S_Hyd" NumberOfComponents="1" ComponentName0="S_Hyd" format="ascii">
 0.6408776449845E+01
 0.4453038090006E+01
 0.4190383306403E+01
 0.3932574351450E+01
 0.3758988233589E+01
 0.3609644917306E+01
 0.3481955080893E+01
 0.3373188585729E+01
 0.3290110186044E+01
 0.3255348626493E+01
 0.3278874153970E+01
 0.3298468892024E+01
 0.3265285894735E+01
 0.3211496477654E+01
 0.3176463990750E+01
 0.3179557960456E+01
 0.3239019404955E+01
 0.3437509126295E+01
 0.3726656577352E+01
 0.5087124489835E+01
 0.1115195527403E+01
 0.5581151596232E+01
 0.4632784951073E+01
 0.4089670895752E+01
 0.3858101179717E+01
 0.3666853489736E+01
 0.3517493525429E+01
 0.3390504679889E+01
 0.3285062166176E+01
 0.3206760351851E+01
 0.3167551451720E+01
 0.3159934299997E+01
 0.3146553519116E+01
 0.3103223609421E+01
 0.3042103368548E+01
 0.2985454134046E+01
 0.2945325534295E+01
 0.2938186125312E+01
 0.2948657895427E+01
 0.3057372267706E+01
 0.2611382432274E+01
-0.1330828605109E+01
 0.5095696652538E+01
 0.4507451198239E+01
 0.4030069782382E+01
 0.3760595673438E+01
 0.3573068869472E+01
 0.3421422589015E+01
 0.3296473455766E+01
 0.3193748016820E+01
 0.3116907798479E+01
 0.3069172377058E+01
 0.3039315252929E+01
 0.3003281925647E+01
 0.2946595946681E+01
 0.2873126736097E+01
 0.2792852181988E+01
 0.2711952084811E+01
 0.2623397322724E+01
 0.2509521061897E+01
 0.2243485773675E+01
 0.1172808524335E+01
-0.1790035290999E+01
 0.4730388778316E+01
 0.4320816511482E+01
 0.3929458080764E+01
 0.3660970851047E+01
 0.3471991511963E+01
 0.3322461722478E+01
 0.3199431369474E+01
 0.3098952839640E+01
 0.3021358337392E+01
 0.2965007314432E+01
 0.2918513145775E+01
 0.2865162488083E+01
 0.2794801331870E+01
 0.2706516304105E+01
 0.2602628088190E+01
 0.2480145673605E+01
 0.2323006698292E+01
 0.2080858140448E+01
 0.1575663563229E+01
 0.4047780828651E+00
-0.1802615823724E+01
 0.4425478185729E+01
 0.4121208561319E+01
 0.3801185595890E+01
 0.3551718115867E+01
 0.3366174017362E+01
 0.3219778333498E+01
 0.3099511136125E+01
 0.3000724932852E+01
 0.2921527513088E+01
 0.2857573328564E+01
 0.2798232683887E+01
 0.2730964841202E+01
 0.2647528196918E+01
 0.2543977911246E+01
 0.2416882537154E+01
 0.2257020920931E+01
 0.2039560879782E+01
 0.1698675106586E+01
 0.1085513684956E+01
-0.1816275333213E-01
-0.1708896130083E+01
 0.4157400206159E+01
 0.3921673962900E+01
 0.3657588184782E+01
 0.3432619990688E+01
 0.3255484788607E+01
 0.3113646349077E+01
 0.2996704239397E+01
 0.2899497208646E+01
 0.2818624934031E+01
 0.2748379045638E+01
 0.2678975613655E+01
 0.2600293322972E+01
 0.2504893109357E+01
 0.2386664762110E+01
 0.2238270212613E+01
 0.2046139467303E+01
 0.1780472244768E+01
 0.1378340492165E+01
 0.7347545763344E+00
-0.2588065825955E+00
-0.1595688594504E+01
 0.3914360993602E+01
 0.3726225052044E+01
 0.3505959209208E+01
 0.3305757704729E+01
 0.3140048954249E+01
 0.3004287726421E+01
 0.2891224323143E+01
 0.2795773248405E+01
 0.2713617829986E+01
 0.2638428812955E+01
 0.2561168630711E+01
 0.2473141344364E+01
 0.2367172500373E+01
 0.2235648508424E+01
 0.2068736695905E+01
 0.1850398510704E+01
 0.1550666172949E+01
 0.1117781502623E+01
 0.4839968193957E+00
-0.3979592083645E+00
-0.1486797305693E+01
 0.3689513751634E+01
 0.3535977449908E+01
 0.3350431412017E+01
 0.3173324253169E+01
 0.3020430626420E+01
 0.2891963242774E+01
 0.2783378587816E+01
 0.2690063837850E+01
 0.2607267926505E+01
 0.2528451348327E+01
 0.2445199136748E+01
 0.2349670120899E+01
 0.2234727716332E+01
 0.2091802508887E+01
 0.1909693240167E+01
 0.1671748567069E+01
 0.1351067325633E+01
 0.9086930082516E+00
 0.3038916106251E+00
-0.4776646421541E+00
-0.1386925029727E+01
 0.3478479533079E+01
 0.3350994174916E+01
 0.3193352260659E+01
 0.3037088793743E+01
 0.2897370254359E+01
 0.2777020486750E+01
 0.2673510740052E+01
 0.2582848091972E+01
 0.2500184888481E+01
 0.2419007562063E+01
 0.2331418483430E+01
 0.2230107812721E+01
 0.2107917982072E+01
 0.1955783302621E+01
 0.1762062810892E+01
 0.1510921957843E+01
 0.1180028836097E+01
 0.7418378801961E+00
 0.1742460554668E+00
-0.5209113085210E+00
-0.1295539741863E+01
 0.3278262130924E+01
 0.3170938782282E+01
 0.3036054515151E+01
 0.2898361347267E+01
 0.2771603804462E+01
 0.2659862038149E+01
 0.2561976499283E+01
 0.2474558297292E+01
 0.2392865190044E+01
 0.2310545185758E+01
 0.2220139368021E+01
 0.2114691378215E+01
 0.1987048274356E+01
 0.1828032802122E+01
 0.1626276411350E+01
 0.1367656958886E+01
 0.1034673814365E+01
 0.6091424065777E+00
 0.8075581584981E-01
-0.5391253441280E+00
-0.1214366760242E+01
 0.3086741787773E+01
 0.2995475223012E+01
 0.2879476080082E+01
 0.2758319830584E+01
 0.2644062607308E+01
 0.2541216003508E+01
 0.2449475303362E+01
 0.2365962307760E+01
 0.2286141412057E+01
 0.2203896305523E+01
 0.2112151887227E+01
 0.2004211126728E+01
 0.1872986511940E+01
 0.1709491791871E+01
 0.1503116469630E+01
 0.1241845339603E+01
 0.9126763591397E+00
 0.5044373021137E+00
 0.1492661168528E-01
-0.5427165154071E+00
-0.1130615246798E+01
 0.2902275424336E+01
 0.2824061662576E+01
 0.2723978376816E+01
 0.2617606500541E+01
 0.2515292069764E+01
 0.2421485003126E+01
 0.2336354140889E+01
 0.2257413547394E+01
 0.2180367077793E+01
 0.2099364596324E+01
 0.2007672572338E+01
 0.1898805852766E+01
 0.1765810469926E+01
 0.1600108259940E+01
 0.1392120107642E+01
 0.1132019040982E+01
 0.8106369653122E+00
 0.4221576001836E+00
-0.3109188301117E-01
-0.5331554287415E+00
-0.1059687428390E+01
 0.2723572083154E+01
 0.2656074499860E+01
 0.2569541003623E+01
 0.2476415509641E+01
 0.2385430657021E+01
 0.2300684279891E+01
 0.2222542232735E+01
 0.2148790269222E+01
 0.2075361571317E+01
 0.1996673810933E+01
 0.1906300127132E+01
 0.1797941602731E+01
 0.1664833519393E+01
 0.1498942968402E+01
 0.1291847665356E+01
 0.1035798033295E+01
 0.7248552391133E+00
 0.3570505522553E+00
-0.6193910018432E-01
-0.5169476045791E+00
-0.9841422326624E+00
 0.2549610804214E+01
 0.2491036140623E+01
 0.2416191490899E+01
 0.2335027999028E+01
 0.2254802081625E+01
 0.2179100392298E+01
 0.2108292735824E+01
 0.2040330166342E+01
 0.1971344574872E+01
 0.1896006280890E+01
 0.1808162933203E+01
 0.1701683866968E+01
 0.1570029776100E+01
 0.1405782190980E+01
 0.1201685171098E+01
 0.9518684924540E+00
 0.6529994671110E+00
 0.3060188148974E+00
-0.8152630370484E-01
-0.4944185277152E+00
-0.9112626558246E+00
 0.2379543458825E+01
 0.2328492416093E+01
 0.2263868070567E+01
 0.2193609922426E+01
 0.2123643810428E+01
 0.2056965452741E+01
 0.1993817553370E+01
 0.1932228487880E+01
 0.1868489942437E+01
 0.1797499783102E+01
 0.1713347775891E+01
 0.1610052903689E+01
 0.1481314982891E+01
 0.1320342159041E+01
 0.1120980966319E+01
 0.8789883199552E+00
 0.5931264163871E+00
 0.2664404140685E+00
-0.9223569748341E-01
-0.4679692901248E+00
-0.8413767652278E+00
 0.2212643115608E+01
 0.2168011507991E+01
 0.2112448481106E+01
 0.2052240599090E+01
 0.1992119776675E+01
 0.1934458649587E+01
 0.1879286430463E+01
 0.1824639469849E+01
 0.1766929339184E+01
 0.1701251200121E+01
 0.1621902900874E+01
 0.1523029625547E+01
 0.1398561804720E+01
 0.1242303168887E+01
 0.1049089216405E+01
 0.8160456266128E+00
 0.5435819726262E+00
 0.2362987152076E+00
-0.9612664137254E-01
-0.4391444279242E+00
-0.7750491948428E+00
 0.2048267929296E+01
 0.2009179699632E+01
 0.1961768150892E+01
 0.1910932985854E+01
 0.1860331863471E+01
 0.1811709725503E+01
 0.1764827741545E+01
 0.1717677962372E+01
 0.1666755155713E+01
 0.1607319744247E+01
 0.1533841723747E+01
 0.1440562535023E+01
 0.1321615235450E+01
 0.1171335551075E+01
 0.9854061892259E+00
 0.7620667571357E+00
 0.5030045283854E+00
 0.2139682406103E+00
-0.9480644678770E-01
-0.4091503564793E+00
-0.7126693362706E+00
 0.1885834840778E+01
 0.1851596251788E+01
 0.1811631523767E+01
 0.1769648312269E+01
 0.1728329707569E+01
 0.1688803268661E+01
 0.1650530228420E+01
 0.1611421127970E+01
 0.1568022847235E+01
 0.1515729716736E+01
 0.1449146544114E+01
 0.1362574720001E+01
 0.1250305821972E+01
 0.1107120763402E+01
 0.9293909441347E+00
 0.7162271699667E+00
 0.4702849837851E+00
 0.1981574742343E+00
-0.8953504588498E-01
-0.3789283155831E+00
-0.6545899874867E+00
 0.1724799798672E+01
 0.1694868261527E+01
 0.1661819175983E+01
 0.1628306868303E+01
 0.1596119035668E+01
 0.1565783293513E+01
 0.1536445340594E+01
 0.1505910244467E+01
 0.1470752926489E+01
 0.1426472878494E+01
 0.1367772013494E+01
 0.1288970129323E+01
 0.1184460736861E+01
 0.1049366693641E+01
 0.8805799994282E+00
 0.6778521974531E+00
 0.4445424884726E+00
 0.1878576581305E+00
-0.8129221188224E-01
-0.3492279243448E+00
-0.6011493309330E+00
 0.1564642400295E+01
 0.1538605809475E+01
 0.1512092336222E+01
 0.1486796141799E+01
 0.1463668758478E+01
 0.1442657766545E+01
 0.1422589828027E+01
 0.1401152469884E+01
 0.1374932566846E+01
 0.1339510278774E+01
 0.1289647914375E+01
 0.1219638606971E+01
 0.1123912163305E+01
 0.9978186796893E+00
 0.8385965157494E+00
 0.6464162498568E+00
 0.4251063484858E+00
 0.1823059929774E+00
-0.7082754778002E-01
-0.3206520181392E+00
-0.5526868510807E+00
 0.1404853541685E+01
 0.1382417506725E+01
 0.1362195863203E+01
 0.1344977214857E+01
 0.1330917136949E+01
 0.1319402975803E+01
 0.1308948416736E+01
 0.1297122501794E+01
 0.1280516803545E+01
 0.1254773441250E+01
 0.1214680998602E+01
 0.1154459344093E+01
 0.1068503052704E+01
 0.9522668856741E+00
 0.8031562034297E+00
 0.6215421596991E+00
 0.4115040612963E+00
 0.1809606874749E+00
-0.5869375082838E-01
-0.2936861342681E+00
-0.5095511191770E+00
 0.1244925067645E+01
 0.1225906452004E+01
 0.1211860388144E+01
 0.1202690113033E+01
 0.1197777345624E+01
 0.1195967764352E+01
 0.1195476497044E+01
 0.1193764099494E+01
 0.1187429323353E+01
 0.1172164836728E+01
 0.1142755710004E+01
 0.1093302575623E+01
 0.1018090308435E+01
 0.9125506427579E+00
 0.7740711784210E+00
 0.6030017714842E+00
 0.4034555412578E+00
 0.1834870533754E+00
-0.4526650604243E-01
-0.2687167126333E+00
-0.4721056781219E+00
 0.1084340646435E+01
 0.1068666547559E+01
 0.1060804104112E+01
 0.1059758626147E+01
 0.1064142703532E+01
 0.1072277659007E+01
 0.1082102755577E+01
 0.1090991398706E+01
 0.1095562773477E+01
 0.1091557526635E+01
 0.1073733612835E+01
 0.1036029348084E+01
 0.9725453740704E+00
 0.8785600391834E+00
 0.7512523385024E+00
 0.5907183859288E+00
 0.4008739522604E+00
 0.1897542124685E+00
-0.3075298779123E-01
-0.2460413608841E+00
-0.4407341396383E+00
 0.9225672175777E+00
 0.9102791208708E+00
 0.9087346090488E+00
 0.9159950764034E+00
 0.9298918724653E+00
 0.9482390046106E+00
 0.9687317698741E+00
 0.9886900245482E+00
 0.1004778591261E+01
 0.1012793946489E+01
 0.1007451453728E+01
 0.9824892762280E+00
 0.9317521930696E+00
 0.8502348103008E+00
 0.7347103541764E+00
 0.5847713276986E+00
 0.4038738610785E+00
 0.1998429808541E+00
-0.1519008090967E-01
-0.2258737894976E+00
-0.4158448201242E+00
 0.7590463876724E+00
 0.7503097845792E+00
 0.7553511609293E+00
 0.7712054528213E+00
 0.7948942773167E+00
 0.8237431824761E+00
 0.8552465578189E+00
 0.8867179788471E+00
 0.9149063257637E+00
 0.9356837779757E+00
 0.9437177781777E+00
 0.9325161842067E+00
 0.8956023819050E+00
 0.8275602785880E+00
 0.7245548519580E+00
 0.5854023232702E+00
 0.4127877190028E+00
 0.2140671591333E+00
 0.1567748878110E-02
-0.2083471944910E+00
-0.3978750649079E+00
 0.5931851062385E+00
 0.5883055071151E+00
 0.6003477810917E+00
 0.6251953935016E+00
 0.6590160461401E+00
 0.6986710364044E+00
 0.7415111351247E+00
 0.7849063526383E+00
 0.8257425014768E+00
 0.8600009434451E+00
 0.8823081083067E+00
 0.8859216045594E+00
 0.8639874269121E+00
 0.8105598541438E+00
 0.7209909949649E+00
 0.5930224534907E+00
 0.4281914558761E+00
 0.2330136473788E+00
 0.1987354438889E-01
-0.1935245126062E+00
-0.3872993211656E+00
 0.4243447934925E+00
 0.4237919110258E+00
 0.4434177679109E+00
 0.4777775640692E+00
 0.5221267563355E+00
 0.5728975935892E+00
 0.6273731202932E+00
 0.6830599260121E+00
 0.7370490956578E+00
 0.7854797715928E+00
 0.8229587307120E+00
 0.8424861000300E+00
 0.8367877880269E+00
 0.7992831389717E+00
 0.7243124445864E+00
 0.6082175366825E+00
 0.4509371499693E+00
 0.2576121298793E+00
 0.4033811953259E-01
-0.1814369867515E+00
-0.3846611880032E+00
 0.2518277948075E+00
 0.2562709062636E+00
 0.2842604049698E+00
 0.3287810692966E+00
 0.3841072055937E+00
 0.4462970472680E+00
 0.5126663441855E+00
 0.5809576776032E+00
 0.6485516641404E+00
 0.7118103570734E+00
 0.7653590787140E+00
 0.8019485257182E+00
 0.8138584347196E+00
 0.7937896684224E+00
 0.7348860098508E+00
 0.6317557936320E+00
 0.4821771923181E+00
 0.2892512528420E+00
 0.6394971420694E-01
-0.1721909247384E+00
-0.3907325316121E+00
 0.7485949674192E-01
 0.8521908222240E-01
 0.1225911481774E+00
 0.1780638489758E+00
 0.2448584999530E+00
 0.3187479929991E+00
 0.3972135520422E+00
 0.4783534239788E+00
 0.5599373600931E+00
 0.6386332801460E+00
 0.7091429309703E+00
 0.7639932399268E+00
 0.7950116263880E+00
 0.7941250540484E+00
 0.7531331791087E+00
 0.6645683644603E+00
 0.5234497937033E+00
 0.3297495545346E+00
 0.9266295086740E-01
-0.1664673643739E+00
-0.4069004121491E+00
-0.1074367908433E+00
-0.8991193923242E-01
-0.4184307905914E-01
 0.2552934922566E-01
 0.1043123594082E+00
 0.1901385666995E+00
 0.2808290706899E+00
 0.3749766978725E+00
 0.4708529635980E+00
 0.5655337354035E+00
 0.6538783462961E+00
 0.7282357992715E+00
 0.7799959518084E+00
 0.8002939781221E+00
 0.7794877817293E+00
 0.7077567912799E+00
 0.5766130211596E+00
 0.3818530043579E+00
 0.1284310603126E+00
-0.1611375030697E+00
-0.4452828440535E+00
-0.2961266062915E+00
-0.2698318832430E+00
-0.2094488572288E+00
-0.1291230987033E+00
-0.3787887612919E-01
 0.6001168419825E-01
 0.1629367924190E+00
 0.2701393952578E+00
 0.3805178947048E+00
 0.4916843104691E+00
 0.5987700767214E+00
 0.6940180324973E+00
 0.7684170667382E+00
 0.8123281148151E+00
 0.8146475004106E+00
 0.7629793002760E+00
 0.6446572330025E+00
 0.4493947566262E+00
 0.1765058493965E+00
-0.1574025666714E+00
-0.5010472234495E+00
-0.4923742089967E+00
-0.4551352014401E+00
-0.3803305870150E+00
-0.2858272587423E+00
-0.1816896692730E+00
-0.7171722428549E-01
 0.4333340631859E-01
 0.1635120551486E+00
 0.2884703230575E+00
 0.4165101973665E+00
 0.5431902066336E+00
 0.6607516428924E+00
 0.7598391421452E+00
 0.8300978511050E+00
 0.8590401754264E+00
 0.8316987486455E+00
 0.7305758744045E+00
 0.5376102451957E+00
 0.2416575431061E+00
-0.1456818119823E+00
-0.5943279240634E+00
-0.6976383404848E+00
-0.6462802206539E+00
-0.5542348164151E+00
-0.4441219558237E+00
-0.3267290522477E+00
-0.2047730499341E+00
-0.7781293692301E-01
 0.5513578184869E-01
 0.1945890740470E+00
 0.3397160085923E+00
 0.4867022005487E+00
 0.6279240659484E+00
 0.7537522007538E+00
 0.8532008326224E+00
 0.9125976339345E+00
 0.9146965417683E+00
 0.8370940477456E+00
 0.6517486292218E+00
 0.3330161122060E+00
-0.1243052754857E+00
-0.6812171321176E+00
-0.9137972598163E+00
-0.8437991353332E+00
-0.7308281129434E+00
-0.6036155279553E+00
-0.4728506317012E+00
-0.3392098491464E+00
-0.2006960199357E+00
-0.5533472719163E-01
 0.9834125341166E-01
 0.2605772969649E+00
 0.4284534947157E+00
 0.5946657281444E+00
 0.7493839669669E+00
 0.8810794011386E+00
 0.9751576820657E+00
 0.1012757828631E+01
 0.9672481019275E+00
 0.7994140298027E+00
 0.4615815546038E+00
-0.7624151239712E-01
-0.7763617104459E+00
-0.1143383775159E+01
-0.1048046218037E+01
-0.9093093070715E+00
-0.7636836567608E+00
-0.6198757055045E+00
-0.4750784205378E+00
-0.3254973853295E+00
-0.1682410181711E+00
-0.8365138322137E-03
 0.1782798796055E+00
 0.3674466792637E+00
 0.5599347122084E+00
 0.7457750839994E+00
 0.9129543669108E+00
 0.1046233999368E+01
 0.1126031455564E+01
 0.1123523204863E+01
 0.9889696538918E+00
 0.6451735930268E+00
 0.1643376969999E-01
-0.8826004367424E+00
-0.1390066398492E+01
-0.1258899926087E+01
-0.1088058101683E+01
-0.9234732846577E+00
-0.7676631830943E+00
-0.6124292751912E+00
-0.4523771714383E+00
-0.2839049007376E+00
-0.1035204649447E+00
 0.9191643524916E-01
 0.3025125782709E+00
 0.5224867494323E+00
 0.7417592947672E+00
 0.9478036497725E+00
 0.1125002205912E+01
 0.1253907464600E+01
 0.1306685318254E+01
 0.1228761256438E+01
 0.9080497712418E+00
 0.1865476584738E+00
-0.9973008211082E+00
-0.1659739203396E+01
-0.1474933158827E+01
-0.1264015693310E+01
-0.1082123055528E+01
-0.9162157441388E+00
-0.7512831494629E+00
-0.5814756256955E+00
-0.4026056769893E+00
-0.2102657023267E+00
 0.4877408919026E-03
 0.2322728810000E+00
 0.4808321234004E+00
 0.7359502813361E+00
 0.9843536993860E+00
 0.1210275725460E+01
 0.1395182065741E+01
 0.1514802720075E+01
 0.1522944748448E+01
 0.1282371749245E+01
 0.4965057547181E+00
-0.1100917408568E+01
-0.1963505505795E+01
-0.1690686053724E+01
-0.1431840837308E+01
-0.1239703864036E+01
-0.1065591131068E+01
-0.8915882707686E+00
-0.7129495121628E+00
-0.5245396861834E+00
-0.3215493585262E+00
-0.9707629762811E-01
 0.1550713530717E+00
 0.4331891921321E+00
 0.7266972269946E+00
 0.1021165036310E+01
 0.1300374391618E+01
 0.1548299654281E+01
 0.1744232364744E+01
 0.1863286798088E+01
 0.1800554374074E+01
 0.1069877684018E+01
-0.1122743660686E+01
-0.2328343472355E+01
-0.1885096810039E+01
-0.1585662709761E+01
-0.1399378341588E+01
-0.1214608636024E+01
-0.1033727729391E+01
-0.8468160050858E+00
-0.6498617180547E+00
-0.4376451231686E+00
-0.2018466389964E+00
 0.6884806514989E-01
 0.3773685357645E+00
 0.7121868971612E+00
 0.1056355920111E+01
 0.1394007589931E+01
 0.1709287550030E+01
 0.1995057267725E+01
 0.2226168941463E+01
 0.2446147073534E+01
 0.2150368804634E+01
-0.8025317310439E+00
-0.2852291963967E+01
-0.1951139003745E+01
-0.1761449514670E+01
-0.1551627562984E+01
-0.1365677457629E+01
-0.1177186577420E+01
-0.9832907989530E+00
-0.7786626875272E+00
-0.5585012814259E+00
-0.3145828063668E+00
-0.2919175415021E-01
 0.3105842129039E+00
 0.6905477907032E+00
 0.1087964064736E+01
 0.1488434542135E+01
 0.1878871543777E+01
 0.2249370288834E+01
 0.2641630275269E+01
 0.3013440855166E+01
 0.4022506590116E+01
 0.9952450265312E+00
 0.1163630006455E+01
 0.1146539739658E+01
 0.1092967288597E+01
 0.1028213785615E+01
 0.9571862484564E+00
 0.8863243812420E+00
 0.8181932231197E+00
 0.7468699398822E+00
 0.6628561796819E+00
 0.6638300459125E+00
 0.1240592781708E+01
 0.1203840355333E+01
 0.1150217279477E+01
 0.1084160834377E+01
 0.1014197791150E+01
 0.9442869140043E+00
 0.8754850493059E+00
 0.8036081067725E+00
 0.7424046875345E+00
 0.6464222023284E+00
 0.1315825628273E+01
 0.1269499347265E+01
 0.1208950783277E+01
 0.1141502504077E+01
 0.1071566473284E+01
 0.1002578693559E+01
 0.9346330708086E+00
 0.8675479251001E+00
 0.7907041710681E+00
 0.6928270567876E+00
 0.1395647681182E+01
 0.1337439670918E+01
 0.1269981028430E+01
 0.1199358757207E+01
 0.1129226507741E+01
 0.1061413906530E+01
 0.9959443120787E+00
 0.9280953833674E+00
 0.8506096232052E+00
 0.7529261196056E+00
 0.1478959951596E+01
 0.1407246193563E+01
 0.1331751668572E+01
 0.1257433411032E+01
 0.1186804204175E+01
 0.1120731041699E+01
 0.1057581357668E+01
 0.9924296976013E+00
 0.9177225645090E+00
 0.8238565396408E+00
 0.1564655755689E+01
 0.1477863519620E+01
 0.1393462680660E+01
 0.1314999108449E+01
 0.1243913905498E+01
 0.1179922672087E+01
 0.1120562921014E+01
 0.1060438618752E+01
 0.9917833786984E+00
 0.9041385235748E+00
 0.1651366690082E+01
 0.1548254184068E+01
 0.1454246573012E+01
 0.1371375056916E+01
 0.1299946813100E+01
 0.1238750866924E+01
 0.1184645883260E+01
 0.1131892258666E+01
 0.1072148733407E+01
 0.9937851327092E+00
 0.1737623385406E+01
 0.1617315792674E+01
 0.1513233977744E+01
 0.1425821231213E+01
 0.1354294232549E+01
 0.1296652946803E+01
 0.1249263234393E+01
 0.1206089854207E+01
 0.1158229885521E+01
 0.1092758660014E+01
 0.1821880449565E+01
 0.1683913894521E+01
 0.1569533269282E+01
 0.1477578603595E+01
 0.1406238395157E+01
 0.1352871356750E+01
 0.1313521316960E+01
 0.1282036270847E+01
 0.1249142656977E+01
 0.1200668911520E+01
 0.1902548286759E+01
 0.1746898075749E+01
 0.1622247621371E+01
 0.1525859068272E+01
 0.1454982103398E+01
 0.1406485655551E+01
 0.1376286720995E+01
 0.1358384958538E+01
 0.1343549228104E+01
 0.1316585253487E+01
 0.1978024868818E+01
 0.1805124540046E+01
 0.1670487504889E+01
 0.1569863200012E+01
 0.1499675864066E+01
 0.1456468650596E+01
 0.1436243380382E+01
 0.1433456577844E+01
 0.1439497103935E+01
 0.1438969890482E+01
 0.2046732703272E+01
 0.1857479419193E+01
 0.1713389711216E+01
 0.1608802558480E+01
 0.1539453184153E+01
 0.1501735938212E+01
 0.1491959735238E+01
 0.1505362322051E+01
 0.1534536741183E+01
 0.1565606381364E+01
 0.2107159418112E+01
 0.1902903897010E+01
 0.1750138134688E+01
 0.1641925736751E+01
 0.1573466471056E+01
 0.1541191652428E+01
 0.1541953412341E+01
 0.1572118017879E+01
 0.1626141849555E+01
 0.1693195717116E+01
 0.2157900288841E+01
 0.1940418947180E+01
 0.1779984065303E+01
 0.1668544821937E+01
 0.1600924700647E+01
 0.1573772748311E+01
 0.1584730133208E+01
 0.1631679078574E+01
 0.1711619678179E+01
 0.1817653372079E+01
 0.2197701018608E+01
 0.1969147933692E+01
 0.1802261665159E+01
 0.1688060234447E+01
 0.1621133858596E+01
 0.1598499055092E+01
 0.1618809928840E+01
 0.1681882968320E+01
 0.1787872343892E+01
 0.1934360794399E+01
 0.2225501646343E+01
 0.1988335460297E+01
 0.1816393819988E+01
 0.1699974241205E+01
 0.1633547079040E+01
 0.1614536154739E+01
 0.1642780806990E+01
 0.1720409225239E+01
 0.1851423343519E+01
 0.2038301302053E+01
 0.2240488460787E+01
 0.1997367012501E+01
 0.1821877012321E+01
 0.1703884594342E+01
 0.1637800495123E+01
 0.1621334169441E+01
 0.1655368024587E+01
 0.1744895314693E+01
 0.1898419322047E+01
 0.2124406271700E+01
 0.2242180555845E+01
 0.1995790790490E+01
 0.1818248695962E+01
 0.1699411209287E+01
 0.1633745382186E+01
 0.1618748475062E+01
 0.1655867027172E+01
 0.1752759375086E+01
 0.1925007211410E+01
 0.2187151614446E+01
 0.2230502881275E+01
 0.1983438314074E+01
 0.1804993509700E+01
 0.1686043391220E+01
 0.1621328577295E+01
 0.1607340037883E+01
 0.1644340736305E+01
 0.1742678367703E+01
 0.1924812230188E+01
 0.2222766935800E+01
 0.2207938591277E+01
 0.1959088377063E+01
 0.1781563222506E+01
 0.1663998016737E+01
 0.1599139499016E+01
 0.1588314605387E+01
 0.1624009924942E+01
 0.1712816506826E+01
 0.1895200590266E+01
 0.2208674496179E+01
 0.3531824990987E+01
 0.5293615989692E-01
-0.1361109975497E+00
-0.1851356574241E+00
-0.1801124869557E+00
-0.1587095333022E+00
-0.1454067883123E+00
-0.1426752757577E+00
-0.1604174149261E+00
-0.1788689317017E+00
 0.1879857113127E+01
 0.9029309220058E+00
 0.1227651388381E+00
-0.3406935728003E-01
-0.7575544243614E-01
-0.8467943874795E-01
-0.8745259394545E-01
-0.9208229077655E-01
-0.1034926580368E+00
-0.1293674299235E+00
 0.1411282995599E+01
 0.9031168619798E+00
 0.4376092047987E+00
 0.1446295529203E+00
 0.4736577780768E-01
 0.5089489873211E-02
-0.1555150804537E-01
-0.2899224873525E-01
-0.4377114403762E-01
-0.6942723755953E-01
 0.1189555792606E+01
 0.8944012228888E+00
 0.5744543676406E+00
 0.3283362501268E+00
 0.1835342611772E+00
 0.1098893536825E+00
 0.6979405805219E-01
 0.4450551958320E-01
 0.2391929026549E-01
-0.4106253335273E-02
 0.1083989381733E+01
 0.8931892150710E+00
 0.6654029887271E+00
 0.4657551499616E+00
 0.3209863191744E+00
 0.2249031412989E+00
 0.1667252130704E+00
 0.1284639953428E+00
 0.9940587352761E-01
 0.6689648931046E-01
 0.1039012675649E+01
 0.9085191327376E+00
 0.7387970789799E+00
 0.5789277802542E+00
 0.4462646730372E+00
 0.3439040438645E+00
 0.2722889688917E+00
 0.2217495257277E+00
 0.1824721644701E+00
 0.1433863756666E+00
 0.1031555470032E+01
 0.9383993212952E+00
 0.8086705208735E+00
 0.6794167949422E+00
 0.5624060759240E+00
 0.4620845054623E+00
 0.3833227775920E+00
 0.3225914306175E+00
 0.2717664657213E+00
 0.2242519242363E+00
 0.1049376953637E+01
 0.9809530803326E+00
 0.8803289892214E+00
 0.7749391721926E+00
 0.6732717360471E+00
 0.5790776956780E+00
 0.4984750184519E+00
 0.4286247622923E+00
 0.3652068592094E+00
 0.3054068816803E+00
 0.1085213550580E+01
 0.1034736664809E+01
 0.9556201443519E+00
 0.8698533419128E+00
 0.7822777285758E+00
 0.6960740388413E+00
 0.6163313121604E+00
 0.5440446761522E+00
 0.4565086369107E+00
 0.3788304156047E+00
 0.1138079712710E+01
 0.1095489781826E+01
 0.1035969711601E+01
 0.9660076520057E+00
 0.8919127624356E+00
 0.8146509800900E+00
 0.7370610533181E+00
 0.6612904403861E+00
 0.5814351598919E+00
 0.3978389650037E+00
 0.2109031314982E+01
 0.1880466320008E+01
 0.1714571303643E+01
 0.1605243757021E+01
 0.1549795812145E+01
 0.1548705051879E+01
 0.1612776586279E+01
 0.1742022937974E+01
 0.1929142530644E+01
 0.2156790683712E+01
 0.2076730851325E+01
 0.1810100059947E+01
 0.1631419636432E+01
 0.1518595142960E+01
 0.1467189224802E+01
 0.1480931646811E+01
 0.1570747782021E+01
 0.1736062758950E+01
 0.1969351659819E+01
 0.2314424560241E+01
 0.2019171197650E+01
 0.1728832701334E+01
 0.1532620579986E+01
 0.1412139718776E+01
 0.1361043936348E+01
 0.1384193423950E+01
 0.1499414419217E+01
 0.1709735306961E+01
 0.2019606714928E+01
 0.2444319085531E+01
 0.1953328564897E+01
 0.1634614344051E+01
 0.1419641558596E+01
 0.1286630530934E+01
 0.1230470200006E+01
 0.1258036337971E+01
 0.1395624898857E+01
 0.1654903346636E+01
 0.2046608169949E+01
 0.2571840720976E+01
 0.1885729204641E+01
 0.1531959035403E+01
 0.1293089103477E+01
 0.1142220388416E+01
 0.1075533260386E+01
 0.1101082847896E+01
 0.1253943843540E+01
 0.1557958184719E+01
 0.2042890180024E+01
 0.2692881624197E+01
 0.1825328898660E+01
 0.1424157568297E+01
 0.1152765879147E+01
 0.9776152759906E+00
 0.8969521207560E+00
 0.9134809998353E+00
 0.1069122752521E+01
 0.1408286293168E+01
 0.1996587206830E+01
 0.2800997384566E+01
 0.1786644612480E+01
 0.1313964017534E+01
 0.9928150377062E+00
 0.7898739847996E+00
 0.6973393981558E+00
 0.7002093350980E+00
 0.8377847988603E+00
 0.1193546351968E+01
 0.1892633517271E+01
 0.2887181242504E+01
 0.1802922255374E+01
 0.1196488898482E+01
 0.7981895553486E+00
 0.5699081951655E+00
 0.4914219270191E+00
 0.4701053675905E+00
 0.5592000756981E+00
 0.8983048613066E+00
 0.1711756278578E+01
 0.2940056025016E+01
 0.1951508714432E+01
 0.1061144028120E+01
 0.4910650894036E+00
 0.3526022224559E+00
 0.2936392132040E+00
 0.2384553415192E+00
 0.2337777360160E+00
 0.5085916165726E+00
 0.1421475778541E+01
 0.2951534801042E+01
 0.2795519448475E+01
 0.3941961566645E+00
 0.2200308105899E+00
 0.1555080517819E+00
 0.1066574461135E+00
 0.2750305904336E-01
-0.1125768415789E+00
-0.2733596473318E-01
 0.1024850762659E+01
 0.2863643941401E+01
 0.4532731340659E+00
 0.3286606732181E+00
 0.2425734332718E+00
 0.1704332909149E+00
 0.1048690854035E+00
 0.4165047409177E-01
-0.2101987986487E-01
-0.8394881236628E-01
-0.1462766860010E+00
-0.2126589259454E+00
 0.5467570627073E+00
 0.4212192625463E+00
 0.3185429302484E+00
 0.2292538299631E+00
 0.1473635588282E+00
 0.6969896544534E-01
-0.5635231353818E-02
-0.7960485344899E-01
-0.1535704018178E+00
-0.2258710389868E+00
 0.6032234722220E+00
 0.4977885826832E+00
 0.3923533545878E+00
 0.2935246050466E+00
 0.1996472814997E+00
 0.1093376487023E+00
 0.2171768021039E-01
-0.6395390533159E-01
-0.1482705400098E+00
-0.2325363156470E+00
 0.6678950422542E+00
 0.5687193992403E+00
 0.4656564261676E+00
 0.3617164451356E+00
 0.2586789101274E+00
 0.1569316006381E+00
 0.5689610293424E-01
-0.4102783738421E-01
-0.1367878621206E+00
-0.2320909232439E+00
 0.7409603981656E+00
 0.6461675910880E+00
 0.5441215564525E+00
 0.4369248417459E+00
 0.3260914887135E+00
 0.2131716837339E+00
 0.9984178529080E-01
-0.1207000617578E-01
-0.1210972875036E+00
-0.2254118245437E+00
 0.8250197293160E+00
 0.7348649059497E+00
 0.6349754720562E+00
 0.5259015236583E+00
 0.4085971447517E+00
 0.2845785616968E+00
 0.1563726305779E+00
 0.2733386859386E-01
-0.9882876626669E-01
-0.2190348628465E+00
 0.9208520019392E+00
 0.8383111942606E+00
 0.7434757464949E+00
 0.6356011509535E+00
 0.5143538170206E+00
 0.3802440619078E+00
 0.2353386436299E+00
 0.8433840909945E-01
-0.6659409377430E-01
-0.2118865537325E+00
 0.1029326456287E+01
 0.9587899685826E+00
 0.8738166928766E+00
 0.7722943794381E+00
 0.6521393079003E+00
 0.5116528008990E+00
 0.3504222018444E+00
 0.1711658440253E+00
-0.1585644905033E-01
-0.1992267994450E+00
 0.1151020683647E+01
 0.1098008894768E+01
 0.1029475217055E+01
 0.9420786958543E+00
 0.8318021855379E+00
 0.6939518804245E+00
 0.5234640668621E+00
 0.3162073554180E+00
 0.7401010425055E-01
-0.1719960850558E+00
 0.1285929160751E+01
 0.1256721794492E+01
 0.1212776311117E+01
 0.1150083270595E+01
 0.1063151158108E+01
 0.9445715557337E+00
 0.7842878544496E+00
 0.5684328809815E+00
 0.2774461307929E+00
-0.1018630896203E+00
 0.1433110862603E+01
 0.1433956111614E+01
 0.1423765081179E+01
 0.1398815399776E+01
 0.1353525223765E+01
 0.1279792134724E+01
 0.1165587756166E+01
 0.9919176409599E+00
 0.7251929036299E+00
 0.2791321020284E+00
 0.1589773216366E+01
 0.1625756872023E+01
 0.1657748587554E+01
 0.1683496618556E+01
 0.1699285924789E+01
 0.1699492298840E+01
 0.1675579146782E+01
 0.1613956368346E+01
 0.1491286830003E+01
 0.1258365282122E+01
 0.1751501074266E+01
 0.1825411717926E+01
 0.1904852491677E+01
 0.1989755408224E+01
 0.2079718354973E+01
 0.2173956486083E+01
 0.2271332455013E+01
 0.2371169937283E+01
 0.2476024842823E+01
 0.2623663015553E+01
 0.1911846537321E+01
 0.2023515485993E+01
 0.2150515295752E+01
 0.2295115038728E+01
 0.2460490261028E+01
 0.2650916250657E+01
 0.2872705659767E+01
 0.3136281389643E+01
 0.3463298724319E+01
 0.3892919937519E+01
 0.2063348020822E+01
 0.2209099564581E+01
 0.2377982630250E+01
 0.2574356687145E+01
 0.2804206897719E+01
 0.3075597334743E+01
 0.3399219280962E+01
 0.3790205905653E+01
 0.4268762392351E+01
 0.4852961276148E+01
 0.2198892611922E+01
 0.2371390211841E+01
 0.2571394877210E+01
 0.2804283252301E+01
 0.3078208996360E+01
 0.3402882912569E+01
 0.3790234876454E+01
 0.4253731223552E+01
 0.4807231172217E+01
 0.5462228209451E+01
 0.2312435911911E+01
 0.2502732044316E+01
 0.2718916115563E+01
 0.2969031696751E+01
 0.3261098057222E+01
 0.3605874643315E+01
 0.4013954609699E+01
 0.4495917210375E+01
 0.5059985939155E+01
 0.5715567151118E+01
 0.2402994511275E+01
 0.2599226652933E+01
 0.2817649079885E+01
 0.3061962006664E+01
 0.3347094664667E+01
 0.3679531139286E+01
 0.4068104533625E+01
 0.4523055601132E+01
 0.5051526246323E+01
 0.5649356397203E+01
 0.2467572227110E+01
 0.2670471706845E+01
 0.2854689762261E+01
 0.3076168936145E+01
 0.3328243183255E+01
 0.3615815961881E+01
 0.3945247489511E+01
 0.4325198332602E+01
 0.4775938784228E+01
 0.5305580621049E+01
 0.2593056244642E+01
 0.2662271372388E+01
 0.2823317825428E+01
 0.3001845467811E+01
 0.3196234218171E+01
 0.3405106196912E+01
 0.3631655449775E+01
 0.3884987636122E+01
 0.4174457909742E+01
 0.4592619938513E+01
</DataArray>
<DataArray type="Float64" Name="S_Oct" NumberOfComponents="1" ComponentName0="S_Oct" format="ascii">
 0.5580672671371E+01
 0.4994174892211E+01
 0.4487089749649E+01
 0.4252603027410E+01
 0.4057048218300E+01
 0.3898037679218E+01
 0.3759783722137E+01
 0.3642441752436E+01
 0.3552017601373E+01
 0.3506062380195E+01
 0.3508366351882E+01
 0.3498780983348E+01
 0.3424852349215E+01
 0.3309220961472E+01
 0.3188037490531E+01
 0.3076494064954E+01
 0.2996912034156E+01
 0.2952186288279E+01
 0.3055922160172E+01
 0.2624836183609E+01
 0.4989878121923E+01
 0.4643167372549E+01
 0.4787335011017E+01
 0.4407864087537E+01
 0.4142770116075E+01
 0.3952515495257E+01
 0.3792082085724E+01
 0.3655550002590E+01
 0.3539842701639E+01
 0.3447733629622E+01
 0.3378993026981E+01
 0.3321835055319E+01
 0.3254480502746E+01
 0.3159653750877E+01
 0.3035269313149E+01
 0.2889659915113E+01
 0.2731070069715E+01
 0.2552827300111E+01
 0.2347365073695E+01
 0.1957686019758E+01
 0.1372849634808E+01
 0.4103628598436E+01
 0.4087334755620E+01
 0.4389662364346E+01
 0.4247060936835E+01
 0.4013415001679E+01
 0.3831469880165E+01
 0.3676591043061E+01
 0.3542150746066E+01
 0.3425923670765E+01
 0.3325530678389E+01
 0.3232959818446E+01
 0.3137276413957E+01
 0.3032970855463E+01
 0.2914886367840E+01
 0.2774141905587E+01
 0.2606009485874E+01
 0.2407155433271E+01
 0.2165759395598E+01
 0.1844666832904E+01
 0.1375212999116E+01
 0.1281870779172E+01
 0.3773925246628E+01
 0.3698915883014E+01
 0.4016076515291E+01
 0.4019801559418E+01
 0.3859701373415E+01
 0.3696461972717E+01
 0.3550868968537E+01
 0.3419793080652E+01
 0.3301483738067E+01
 0.3190882002959E+01
 0.3078355194513E+01
 0.2956543705611E+01
 0.2826676368240E+01
 0.2688005391637E+01
 0.2530543660237E+01
 0.2343927169259E+01
 0.2120098796458E+01
 0.1846754546829E+01
 0.1504084145790E+01
 0.1174881668209E+01
 0.1543988098999E+01
 0.3502849419051E+01
 0.3399229533081E+01
 0.3691533071654E+01
 0.3772537060698E+01
 0.3683146170666E+01
 0.3549201877381E+01
 0.3415770257059E+01
 0.3289152570419E+01
 0.3168502015709E+01
 0.3048424321848E+01
 0.2920496988057E+01
 0.2780596910346E+01
 0.2632668641889E+01
 0.2477764721415E+01
 0.2306848546889E+01
 0.2108799285945E+01
 0.1875957265089E+01
 0.1603709117481E+01
 0.1313563430162E+01
 0.1183778812450E+01
 0.1785523174797E+01
 0.3289206118599E+01
 0.3152395125289E+01
 0.3410763266513E+01
 0.3528210005036E+01
 0.3493447380304E+01
 0.3391556636818E+01
 0.3272763427073E+01
 0.3151510804184E+01
 0.3029208370906E+01
 0.2901571078971E+01
 0.2762430503783E+01
 0.2610169622184E+01
 0.2449857085971E+01
 0.2283570493594E+01
 0.2104269598761E+01
 0.1902994165732E+01
 0.1676122158569E+01
 0.1432723949498E+01
 0.1230377634655E+01
 0.1279206114086E+01
 0.1949813694511E+01
 0.3121780829118E+01
 0.2939730673746E+01
 0.3164781820068E+01
 0.3295874848388E+01
 0.3299223578534E+01
 0.3226707788652E+01
 0.3123530193499E+01
 0.3008487856109E+01
 0.2885694030051E+01
 0.2752796448440E+01
 0.2606081936990E+01
 0.2445881870709E+01
 0.2277860643918E+01
 0.2105040509344E+01
 0.1922992318524E+01
 0.1726492485536E+01
 0.1518154937416E+01
 0.1320948790984E+01
 0.1214239088043E+01
 0.1391524562841E+01
 0.2051225679290E+01
 0.2988442710261E+01
 0.2750565006030E+01
 0.2945794649992E+01
 0.3078154017498E+01
 0.3106231669868E+01
 0.3058057011028E+01
 0.2969983295298E+01
 0.2861765848421E+01
 0.2739796819745E+01
 0.2603924226317E+01
 0.2452762545945E+01
 0.2288233325632E+01
 0.2116513535453E+01
 0.1941713937444E+01
 0.1762325032775E+01
 0.1577550685366E+01
 0.1396704406595E+01
 0.1253447971350E+01
 0.1234541500638E+01
 0.1492285273348E+01
 0.2109659693132E+01
 0.2879378393291E+01
 0.2578355664700E+01
 0.2747794350802E+01
 0.2874922827434E+01
 0.2917835037106E+01
 0.2888524199006E+01
 0.2814068004553E+01
 0.2712960764522E+01
 0.2593078415110E+01
 0.2456328806867E+01
 0.2303401221645E+01
 0.2137583086705E+01
 0.1965635913435E+01
 0.1792916143854E+01
 0.1620899341726E+01
 0.1453236657221E+01
 0.1305141040993E+01
 0.1216763197415E+01
 0.1270886043548E+01
 0.1573824879242E+01
 0.2139838328687E+01
 0.2787652013896E+01
 0.2418855594861E+01
 0.2566284064662E+01
 0.2684997924278E+01
 0.2735774423476E+01
 0.2720335027835E+01
 0.2657561613707E+01
 0.2563543779058E+01
 0.2446841777154E+01
 0.2311059702938E+01
 0.2158659910863E+01
 0.1994139351393E+01
 0.1824935136200E+01
 0.1657736441515E+01
 0.1496868876842E+01
 0.1349992513471E+01
 0.1236832482471E+01
 0.1200053370948E+01
 0.1311234630734E+01
 0.1636552562969E+01
 0.2152366843302E+01
 0.2707701397800E+01
 0.2269188502429E+01
 0.2398007308859E+01
 0.2507072366999E+01
 0.2561048616606E+01
 0.2555392928955E+01
 0.2502359871322E+01
 0.2415248891690E+01
 0.2302670736638E+01
 0.2169486248290E+01
 0.2019611240163E+01
 0.1858611950446E+01
 0.1694645883299E+01
 0.1535717709385E+01
 0.1388700439188E+01
 0.1264563649735E+01
 0.1186041342597E+01
 0.1195052320440E+01
 0.1348955079202E+01
 0.1682622220497E+01
 0.2155564382804E+01
 0.2635674861442E+01
 0.2127296502486E+01
 0.2240429445261E+01
 0.2339649370835E+01
 0.2393774140425E+01
 0.2394701654903E+01
 0.2349625956206E+01
 0.2269117953980E+01
 0.2161403692690E+01
 0.2032177949354E+01
 0.1886499077002E+01
 0.1730860509370E+01
 0.1574128421636E+01
 0.1425522812964E+01
 0.1294083676256E+01
 0.1193354280949E+01
 0.1147732806733E+01
 0.1196125614462E+01
 0.1381308885087E+01
 0.1716245327879E+01
 0.2151329750772E+01
 0.2585217684206E+01
 0.1991634949984E+01
 0.2091483580587E+01
 0.2181143158760E+01
 0.2233431694009E+01
 0.2238482040717E+01
 0.2199794114193E+01
 0.2125495405847E+01
 0.2023163750710E+01
 0.1898964668594E+01
 0.1758811787537E+01
 0.1609975503232E+01
 0.1461969255388E+01
 0.1325077942344E+01
 0.1210126398160E+01
 0.1132584489504E+01
 0.1117460266067E+01
 0.1199246773097E+01
 0.1407529640981E+01
 0.1739773012763E+01
 0.2145127707373E+01
 0.2538517549701E+01
 0.1861037148369E+01
 0.1949649463662E+01
 0.2030341081622E+01
 0.2079614787575E+01
 0.2087008612471E+01
 0.2053446355270E+01
 0.1984991550023E+01
 0.1888442973377E+01
 0.1770143974422E+01
 0.1636601426891E+01
 0.1495699056321E+01
 0.1357491673922E+01
 0.1233143254998E+01
 0.1134900662078E+01
 0.1079623439127E+01
 0.1092135604830E+01
 0.1201915756892E+01
 0.1427312793500E+01
 0.1755602646227E+01
 0.2136806345676E+01
 0.2497174426304E+01
 0.1734578242191E+01
 0.1813705016123E+01
 0.1886171518607E+01
 0.1931812196278E+01
 0.1940324995399E+01
 0.1910933688334E+01
 0.1848028560594E+01
 0.1757586811048E+01
 0.1645901837082E+01
 0.1519838572957E+01
 0.1387721127167E+01
 0.1260009182582E+01
 0.1148546433242E+01
 0.1066684389427E+01
 0.1032257438654E+01
 0.1069381971980E+01
 0.1202490035874E+01
 0.1440860928040E+01
 0.1765140012774E+01
 0.2126970080791E+01
 0.2461555190326E+01
 0.1611498776035E+01
 0.1682641471250E+01
 0.1747682121983E+01
 0.1789457017651E+01
 0.1798304894393E+01
 0.1772415634613E+01
 0.1714863345621E+01
 0.1630812347037E+01
 0.1526331134776E+01
 0.1408433097767E+01
 0.1285705996306E+01
 0.1168860512263E+01
 0.1070223499905E+01
 0.1003988574070E+01
 0.9886699540952E+00
 0.1047396656751E+01
 0.1199930801397E+01
 0.1448486585637E+01
 0.1769421117606E+01
 0.2116285694326E+01
 0.2431451165597E+01
 0.1491152963563E+01
 0.1555601080106E+01
 0.1614014859581E+01
 0.1651952408362E+01
 0.1660695990656E+01
 0.1637895414185E+01
 0.1585610967557E+01
 0.1508226131963E+01
 0.1411448533639E+01
 0.1302253209155E+01
 0.1189316227642E+01
 0.1083438858963E+01
 0.9972467891133E+00
 0.9455668004947E+00
 0.9474047902820E+00
 0.1024837117825E+01
 0.1193585095252E+01
 0.1450515225199E+01
 0.1769252976455E+01
 0.2105237314510E+01
 0.2406497332127E+01
 0.1372972400392E+01
 0.1431831016480E+01
 0.1484381768742E+01
 0.1518683567058E+01
 0.1527150722688E+01
 0.1507249463717E+01
 0.1460266622527E+01
 0.1389840923157E+01
 0.1301209634116E+01
 0.1201142140166E+01
 0.1098232914545E+01
 0.1003214510333E+01
 0.9288428139949E+00
 0.8904138772993E+00
 0.9073275618804E+00
 0.1000721734479E+01
 0.1183044262241E+01
 0.1447244455736E+01
 0.1765239118991E+01
 0.2094126453784E+01
 0.2386266860811E+01
 0.1256439753113E+01
 0.1310648677104E+01
 0.1358043028911E+01
 0.1389021721106E+01
 0.1397247513342E+01
 0.1380251421290E+01
 0.1338725302524E+01
 0.1275590918899E+01
 0.1195522258967E+01
 0.1104932148143E+01
 0.1012171745561E+01
 0.9277513018911E+00
 0.8644028731686E+00
 0.8377601129388E+00
 0.8675907218143E+00
 0.9743515407943E+00
 0.1168054111634E+01
 0.1438916226609E+01
 0.1757803895290E+01
 0.2083102909478E+01
 0.2370307727867E+01
 0.1141069007629E+01
 0.1191414906048E+01
 0.1234287617526E+01
 0.1262323486955E+01
 0.1270505123339E+01
 0.1256591156869E+01
 0.1220798681300E+01
 0.1165344997327E+01
 0.1094257464578E+01
 0.1013455321998E+01
 0.9308945211559E+00
 0.8567173851886E+00
 0.8034887450951E+00
 0.7870651994990E+00
 0.8276058876357E+00
 0.9452537846181E+00
 0.1148456791585E+01
 0.1425701677960E+01
 0.1747216571170E+01
 0.2072200291016E+01
 0.2358164419071E+01
 0.1026390043915E+01
 0.1073512660836E+01
 0.1112416276395E+01
 0.1137927650064E+01
 0.1146392236626E+01
 0.1135889731113E+01
 0.1106229222190E+01
 0.1058917700604E+01
 0.9972579670030E+00
 0.9265508729188E+00
 0.8542159848184E+00
 0.7898908145295E+00
 0.7458350940785E+00
 0.7380141636565E+00
 0.7870261056685E+00
 0.9131454860244E+00
 0.1124155323811E+01
 0.1407694472047E+01
 0.1733613420524E+01
 0.2061368457668E+01
 0.2349397838876E+01
 0.9119360003840E+00
 0.9563292930406E+00
 0.9917263038910E+00
 0.1015150625649E+01
 0.1024333937818E+01
 0.1017711260597E+01
 0.9947017671499E+00
 0.9560778674857E+00
 0.9043437589626E+00
 0.8440686715285E+00
 0.7820058596494E+00
 0.7271601519763E+00
 0.6913492313413E+00
 0.6905166353469E+00
 0.7457396392377E+00
 0.8779160586337E+00
 0.1095095742010E+01
 0.1384908965632E+01
 0.1717015557794E+01
 0.2050501737294E+01
 0.2343607940807E+01
 0.7972322938037E+00
 0.8392410270482E+00
 0.8714976071841E+00
 0.8932814031650E+00
 0.9037164270043E+00
 0.9015726653206E+00
 0.8858529891749E+00
 0.8565548959212E+00
 0.8153147134922E+00
 0.7658687788314E+00
 0.7141858459831E+00
 0.6685197607279E+00
 0.6401077108490E+00
 0.6447092695486E+00
 0.7038762422110E+00
 0.8396292586049E+00
 0.1061264653606E+01
 0.1357280384677E+01
 0.1697340296288E+01
 0.2039463160525E+01
 0.2340459714954E+01
 0.6817863943752E+00
 0.7215985139795E+00
 0.7509794865645E+00
 0.7715766427500E+00
 0.7838912849098E+00
 0.7869524316588E+00
 0.7792793299034E+00
 0.7600428296338E+00
 0.7299501292004E+00
 0.6918168292650E+00
 0.6507213274907E+00
 0.6140590746255E+00
 0.5923481156739E+00
 0.6009595391950E+00
 0.6618261698535E+00
 0.7985462456470E+00
 0.1022703100119E+01
 0.1324665247165E+01
 0.1674402759265E+01
 0.2028104881288E+01
 0.2339711591892E+01
 0.5650776027948E+00
 0.6027125746307E+00
 0.6293776625885E+00
 0.6492566247448E+00
 0.6641807696496E+00
 0.6732997884087E+00
 0.6745442991666E+00
 0.6662026327345E+00
 0.6480052466814E+00
 0.6217751404550E+00
 0.5916075063975E+00
 0.5639448678002E+00
 0.5484532748127E+00
 0.5598668455092E+00
 0.6202705138332E+00
 0.7551728915902E+00
 0.9795415663896E+00
 0.1286842161015E+01
 0.1647901387252E+01
 0.2016283641590E+01
 0.2341244499083E+01
 0.4465463413234E+00
 0.4818398035142E+00
 0.5058411961041E+00
 0.5255031605149E+00
 0.5438864579390E+00
 0.5600466158367E+00
 0.5711867588746E+00
 0.5746634959251E+00
 0.5692050148493E+00
 0.5555895827690E+00
 0.5368499471465E+00
 0.5183959177394E+00
 0.5089247451006E+00
 0.5222541908632E+00
 0.5802181313000E+00
 0.7103347969414E+00
 0.9320665516226E+00
 0.1243518324566E+01
 0.1617374823505E+01
 0.2003864870707E+01
 0.2345090181788E+01
 0.3255838473543E+00
 0.3581701606175E+00
 0.3794492466616E+00
 0.3994617531468E+00
 0.4223062865491E+00
 0.4466272498086E+00
 0.4687338022156E+00
 0.4850250512616E+00
 0.4932357524350E+00
 0.4930723918244E+00
 0.4864399839261E+00
 0.4776506921026E+00
 0.4743437121405E+00
 0.4891412904606E+00
 0.5430387029817E+00
 0.6652807793949E+00
 0.8808346925522E+00
 0.1194361838505E+01
 0.1582109538751E+01
 0.1990688518031E+01
 0.2351459508372E+01
 0.2015338041012E+00
 0.2308350268035E+00
 0.2491987803379E+00
 0.2702553678616E+00
 0.2987775802524E+00
 0.3325230090849E+00
 0.3667288234466E+00
 0.3968653824206E+00
 0.4197361710864E+00
 0.4339812734259E+00
 0.4403261530646E+00
 0.4419310849684E+00
 0.4453219090122E+00
 0.4616914877222E+00
 0.5104718890448E+00
 0.6218113385835E+00
 0.8268439350588E+00
 0.1139117226408E+01
 0.1540984856392E+01
 0.1976399082777E+01
 0.2360761792738E+01
 0.7390702953422E-01
 0.9917922669821E-01
 0.1140058533591E+00
 0.1370631298913E+00
 0.1728590264136E+00
 0.2174170666186E+00
 0.2648173761442E+00
 0.3097706656365E+00
 0.3482917443683E+00
 0.3779955617773E+00
 0.3983837146733E+00
 0.4114085226415E+00
 0.4224534817276E+00
 0.4411357938686E+00
 0.4845845959054E+00
 0.5824147516797E+00
 0.7717721932996E+00
 0.1077827360050E+01
 0.1492501585040E+01
 0.1959652846825E+01
 0.2373701457093E+01
 0.6068116991627E-01
 0.4331054131991E-01
 0.2776665100812E-01
 0.1066321980266E-01
 0.4727754306576E-01
 0.1023273611940E+00
 0.1631466792088E+00
 0.2234506334515E+00
 0.2784438918349E+00
 0.3246904285732E+00
 0.3603845187949E+00
 0.3861804438650E+00
 0.4062878467870E+00
 0.4286992235486E+00
 0.4676640184196E+00
 0.5503390833501E+00
 0.7183702038891E+00
 0.1010975383609E+01
 0.1435487058046E+01
 0.1937398568394E+01
 0.2386650370128E+01
 0.1990357468173E+00
 0.1871854961594E+00
 0.1766439961612E+00
 0.1467540002658E+00
 0.9581311806313E-01
 0.4050001744142E-01
 0.6624296071412E-01
 0.1380069825973E+00
 0.2094622144573E+00
 0.2732685553050E+00
 0.3257946175619E+00
 0.3661658694331E+00
 0.3973202396111E+00
 0.4256173949451E+00
 0.4621138948311E+00
 0.5295227526489E+00
 0.6705229046336E+00
 0.9398678768864E+00
 0.1367323922786E+01
 0.1909952931557E+01
 0.2396620888628E+01
 0.3453412986741E+00
 0.3424687632846E+00
 0.3349048906913E+00
 0.2981203683553E+00
 0.2332282144647E+00
 0.1516130714642E+00
 0.6811639726406E-01
 0.6054342122733E-01
 0.1412798304052E+00
 0.2230374185714E+00
 0.2941229884755E+00
 0.3513639859539E+00
 0.3961949637739E+00
 0.4333050016311E+00
 0.4705257084941E+00
 0.5247013183304E+00
 0.6345420920059E+00
 0.8678142138750E+00
 0.1287815859688E+01
 0.1871120674979E+01
 0.2453143556940E+01
 0.5009673282819E+00
 0.5095674107933E+00
 0.5036713896129E+00
 0.4568601485396E+00
 0.3765396943793E+00
 0.2774783858139E+00
 0.1703519783702E+00
 0.6847708708621E-01
 0.7676383521790E-01
 0.1733536659457E+00
 0.2648039338837E+00
 0.3417399996892E+00
 0.4036306772927E+00
 0.4533712427722E+00
 0.4956616283621E+00
 0.5410244314862E+00
 0.6192050926655E+00
 0.8026965491876E+00
 0.1196351545937E+01
 0.1827515551250E+01
 0.2523752275957E+01
 0.6683802655400E+00
 0.6912145554633E+00
 0.6843434975859E+00
 0.6229536246187E+00
 0.5246382981163E+00
 0.4079267659623E+00
 0.2822275917468E+00
 0.1535170899049E+00
 0.4716473603403E-01
 0.1233069109811E+00
 0.2368087413770E+00
 0.3369539785780E+00
 0.4202846943055E+00
 0.4876696473838E+00
 0.5406658093400E+00
 0.5836611079509E+00
 0.6344457767436E+00
 0.7566894152135E+00
 0.1095872872007E+01
 0.1771976819214E+01
 0.2611584568857E+01
 0.8512005265373E+00
 0.8910305868764E+00
 0.8779035136109E+00
 0.7957136934562E+00
 0.6769013974252E+00
 0.5423584169791E+00
 0.3990789192547E+00
 0.2501386689698E+00
 0.1015167943726E+00
 0.7289508231274E-01
 0.2087216923138E+00
 0.3363323763754E+00
 0.4466596444775E+00
 0.5382647542180E+00
 0.6093812282786E+00
 0.6586310610017E+00
 0.6911748962689E+00
 0.7487738598421E+00
 0.9948883479053E+00
 0.1691466499769E+01
 0.2722383820396E+01
 0.1055031873712E+01
 0.1113614810424E+01
 0.1084149575124E+01
 0.9733449778779E+00
 0.8325011078600E+00
 0.6806532171633E+00
 0.5207542825980E+00
 0.3534303973099E+00
 0.1803989190981E+00
 0.3509915593964E-01
 0.1785677299760E+00
 0.3386045788606E+00
 0.4827755249600E+00
 0.6070491369470E+00
 0.7060597802134E+00
 0.7731014062184E+00
 0.8017586193175E+00
 0.8042121602052E+00
 0.9169026450251E+00
 0.1570066325963E+01
 0.2862807558236E+01
 0.1289241654475E+01
 0.1364331414488E+01
 0.1300038835728E+01
 0.1152675589182E+01
 0.9905816459499E+00
 0.8227548182248E+00
 0.6475428248310E+00
 0.4635353202159E+00
 0.2696679423634E+00
 0.7046598451618E-01
 0.1435689433102E+00
 0.3415662000449E+00
 0.5278051359392E+00
 0.6952380014721E+00
 0.8346524803111E+00
 0.9345536929390E+00
 0.9802810784067E+00
 0.9535971622841E+00
 0.9158727552856E+00
 0.1396325799726E+01
 0.3038369890043E+01
 0.1571123296006E+01
 0.1647234541377E+01
 0.1516341270959E+01
 0.1329864349763E+01
 0.1150664300153E+01
 0.9685284774227E+00
 0.7797896851185E+00
 0.5811474573671E+00
 0.3692058197112E+00
 0.1425855285273E+00
 0.9982068102721E-01
 0.3417019052143E+00
 0.5797764360929E+00
 0.8030038842597E+00
 0.9979658377374E+00
 0.1149452675609E+01
 0.1238834554145E+01
 0.1233187908642E+01
 0.1083838195670E+01
 0.1207896565872E+01
 0.3247060905032E+01
 0.1937341455746E+01
 0.1953549254611E+01
 0.1713284545472E+01
 0.1504361514630E+01
 0.1312075320668E+01
 0.1117876604323E+01
 0.9178117875086E+00
 0.7068776585371E+00
 0.4802435410688E+00
 0.2322551255685E+00
 0.4193624434104E-01
 0.3337620149838E+00
 0.6353892187572E+00
 0.9294016876311E+00
 0.1197121611670E+01
 0.1421991518645E+01
 0.1583616042431E+01
 0.1666068419540E+01
 0.1554604658987E+01
 0.1258252197097E+01
 0.3463127948469E+01
 0.2484970931528E+01
 0.2191743313722E+01
 0.1884409457583E+01
 0.1677917955014E+01
 0.1473494385617E+01
 0.1271108986131E+01
 0.1061761006489E+01
 0.8411209425075E+00
 0.6036164575805E+00
 0.3411884573443E+00
 0.3961475087968E-01
 0.3101234640304E+00
 0.6902406258720E+00
 0.1072011347941E+01
 0.1432661421454E+01
 0.1751055022456E+01
 0.2019309618647E+01
 0.2226393242118E+01
 0.2447287003442E+01
 0.2188694177593E+01
 0.3936341436614E+01
 0.4260921670668E+00
 0.4302810083906E+00
 0.4445664460275E+00
 0.4459423337700E+00
 0.4271449347064E+00
 0.3865302817918E+00
 0.3278614060752E+00
 0.2589688422872E+00
 0.1854245391456E+00
 0.1040619014038E+00
 0.4034093353496E+00
 0.4228491720252E+00
 0.4504871914010E+00
 0.4635537544228E+00
 0.4533126675597E+00
 0.4175690102897E+00
 0.3595775148471E+00
 0.2866938075625E+00
 0.2004015402363E+00
 0.1041941995992E+00
 0.3817516343123E+00
 0.4208787070877E+00
 0.4629274701812E+00
 0.4871963412591E+00
 0.4847997093517E+00
 0.4533297218006E+00
 0.3955512578553E+00
 0.3169062501483E+00
 0.2204898224694E+00
 0.1178001268549E+00
 0.3617127196803E+00
 0.4234366641411E+00
 0.4812072003103E+00
 0.5166842855248E+00
 0.5218313436060E+00
 0.4944008950579E+00
 0.4365423208015E+00
 0.3530252911121E+00
 0.2491580686821E+00
 0.1375882927877E+00
 0.3434224753969E+00
 0.4302311568590E+00
 0.5047513784093E+00
 0.5517120990238E+00
 0.5644614702639E+00
 0.5412109674608E+00
 0.4838209676268E+00
 0.3967283261731E+00
 0.2858578806647E+00
 0.1635516303466E+00
 0.3269995930503E+00
 0.4409100380199E+00
 0.5330498087045E+00
 0.5918690073824E+00
 0.6125696912771E+00
 0.5940905197280E+00
 0.5381733567152E+00
 0.4486820549916E+00
 0.3312324996381E+00
 0.1970998901602E+00
 0.3125676277070E+00
 0.4550836190136E+00
 0.5655230177078E+00
 0.6366277917326E+00
 0.6658558127093E+00
 0.6530785778747E+00
 0.5999414189137E+00
 0.5095029085093E+00
 0.3864129975608E+00
 0.2404312352968E+00
 0.3002561570842E+00
 0.4723053053091E+00
 0.6014946174194E+00
 0.6853106595949E+00
 0.7237922341973E+00
 0.7178936033527E+00
 0.6691725385320E+00
 0.5797076091138E+00
 0.4527315340341E+00
 0.2961277387058E+00
 0.2901918671981E+00
 0.4920672678998E+00
 0.6401782204390E+00
 0.7370699493631E+00
 0.7856028227859E+00
 0.7879397977696E+00
 0.7455928180934E+00
 0.6595817485467E+00
 0.5314243721935E+00
 0.3668651405728E+00
 0.2824898044949E+00
 0.5138020566121E+00
 0.6806786538657E+00
 0.7908861190075E+00
 0.8502614931192E+00
 0.8622909041721E+00
 0.8285367938930E+00
 0.7489963122493E+00
 0.6233482395665E+00
 0.4550998966981E+00
 0.2772471219199E+00
 0.5368919251814E+00
 0.7220055843415E+00
 0.8455813552702E+00
 0.9164996647126E+00
 0.9396746086211E+00
 0.9168700160717E+00
 0.8472134891719E+00
 0.7286376851056E+00
 0.5625802315314E+00
 0.2745404035502E+00
 0.5606858156510E+00
 0.7630984114788E+00
 0.8998455425538E+00
 0.9828258338908E+00
 0.1018470740842E+01
 0.1008937548667E+01
 0.9527174252252E+00
 0.8462509563308E+00
 0.6892700676346E+00
 0.2744266966431E+00
 0.5845232014194E+00
 0.8028607161126E+00
 0.9522742180788E+00
 0.1047560149187E+01
 0.1096732419032E+01
 0.1102555718549E+01
 0.1063133239514E+01
 0.9736165853332E+00
 0.8322667329223E+00
 0.2769476733628E+00
 0.6077631262085E+00
 0.8402025109121E+00
 0.1001418412706E+01
 0.1108886736012E+01
 0.1172234053569E+01
 0.1195054690100E+01
 0.1175277098321E+01
 0.1106751575731E+01
 0.9860960632359E+00
 0.2821360897830E+00
 0.6298161901402E+00
 0.8740876353315E+00
 0.1045845913082E+01
 0.1164926380139E+01
 0.1242549647577E+01
 0.1283369129542E+01
 0.1285322653988E+01
 0.1240731348730E+01
 0.1143965282191E+01
 0.2900243214532E+00
 0.6501767598003E+00
 0.9035814862099E+00
 0.1084211270053E+01
 0.1213832833207E+01
 0.1305166142493E+01
 0.1364170881330E+01
 0.1389016175733E+01
 0.1370159131205E+01
 0.1298748368909E+01
 0.3006568240526E+00
 0.6684530523660E+00
 0.9278903218608E+00
 0.1115326144903E+01
 0.1253914845141E+01
 0.1357644093661E+01
 0.1434036143533E+01
 0.1481877386768E+01
 0.1489479673849E+01
 0.1443488381480E+01
 0.3141135322691E+00
 0.6843946047335E+00
 0.9463780270665E+00
 0.1138209376741E+01
 0.1283777241989E+01
 0.1397849790008E+01
 0.1489675010374E+01
 0.1559328085192E+01
 0.1593122778032E+01
 0.1571535063112E+01
 0.3305563005506E+00
 0.6979311883406E+00
 0.9585385331350E+00
 0.1152071611157E+01
 0.1302454723756E+01
 0.1424279663802E+01
 0.1528327555152E+01
 0.1616829117680E+01
 0.1675240292945E+01
 0.1676745274078E+01
 0.3504861651355E+00
 0.7090377098056E+00
 0.9639176256592E+00
 0.1156316244056E+01
 0.1309272407076E+01
 0.1436521527684E+01
 0.1548582210226E+01
 0.1650278603410E+01
 0.1729346256719E+01
 0.1755016260013E+01
 0.8374306365018E+00
 0.2586107635271E+00
 0.9599540270455E-02
 0.7869822087754E-01
 0.1123958435379E+00
 0.1152550052080E+00
 0.9078599086913E-01
 0.4351977817688E-01
 0.1357623785284E-01
 0.7201791700575E-01
 0.8771605056508E+00
 0.5712608777955E+00
 0.1992679482640E+00
 0.4014259730957E-01
 0.3533417964879E-01
 0.6694795361119E-01
 0.6461229480241E-01
 0.3539854315924E-01
 0.6444329246865E-02
 0.4896803405039E-01
 0.8036737407126E+00
 0.6444055261320E+00
 0.3666470237153E+00
 0.1685229513190E+00
 0.5389163588739E-01
 0.6554458242949E-02
 0.2813887959340E-01
 0.1985193827791E-01
 0.2923699160770E-02
 0.2908659273278E-01
 0.7285548163739E+00
 0.6389037045171E+00
 0.4440680401186E+00
 0.2678280420142E+00
 0.1393473385740E+00
 0.5788054662000E-01
 0.1476895260495E-01
 0.1919358109007E-02
 0.4704536766780E-02
 0.1418074406145E-01
 0.6617686178724E+00
 0.6059054706460E+00
 0.4717238592602E+00
 0.3289695076172E+00
 0.2079336338982E+00
 0.1180874444238E+00
 0.5938823449464E-01
 0.2740928152170E-01
 0.1284913068904E-01
 0.6072181976583E-02
 0.6048654545904E+00
 0.5653904308816E+00
 0.4737572822464E+00
 0.3636921089633E+00
 0.2584568486787E+00
 0.1699860631102E+00
 0.1028503570979E+00
 0.5672211141285E-01
 0.2754687766406E-01
 0.6799996584519E-02
 0.5567238952018E+00
 0.5261268151439E+00
 0.4648414526851E+00
 0.3832480937843E+00
 0.2962797384158E+00
 0.2145346751371E+00
 0.1445814960307E+00
 0.8929553213253E-01
 0.4956054382039E-01
 0.1625829784660E-01
 0.5158162498375E+00
 0.4920876625924E+00
 0.4537226786753E+00
 0.3965255564902E+00
 0.3278266548289E+00
 0.2554460495568E+00
 0.1861463749171E+00
 0.1252781770808E+00
 0.7887091269695E-01
 0.3685191082317E-01
 0.4806617945021E+00
 0.4649506812452E+00
 0.4455982696916E+00
 0.4100231153673E+00
 0.3591056300118E+00
 0.2973412554276E+00
 0.2307802020964E+00
 0.1654242248898E+00
 0.1128233879375E+00
 0.6884248922634E-01
 0.4502607613393E+00
 0.4447881543674E+00
 0.4432792503690E+00
 0.4283388056978E+00
 0.3953169210139E+00
 0.3450304455238E+00
 0.2822771385906E+00
 0.2141013476090E+00
 0.1503017863245E+00
 0.1038961713966E+00
 0.3842743309726E+00
 0.7309319830183E+00
 0.9756147253061E+00
 0.1163236899755E+01
 0.1316361226079E+01
 0.1448833584618E+01
 0.1568279273572E+01
 0.1681517452576E+01
 0.1782006041330E+01
 0.1836198307093E+01
 0.4203952282632E+00
 0.7573606672985E+00
 0.9879274240495E+00
 0.1165489096275E+01
 0.1314233641578E+01
 0.1447889720547E+01
 0.1572988597321E+01
 0.1701225170075E+01
 0.1829425740401E+01
 0.1899254165106E+01
 0.4543433725143E+00
 0.7735733408561E+00
 0.9821554568233E+00
 0.1141083316492E+01
 0.1277596602286E+01
 0.1406234972019E+01
 0.1534523052222E+01
 0.1680572989016E+01
 0.1841517637730E+01
 0.1930995893613E+01
 0.4879980843767E+00
 0.7791428152039E+00
 0.9557051560835E+00
 0.1086996597048E+01
 0.1203028605625E+01
 0.1319423257505E+01
 0.1445174289898E+01
 0.1605867526232E+01
 0.1804661681030E+01
 0.1924880882625E+01
 0.5220534305672E+00
 0.7740338057025E+00
 0.9067778165532E+00
 0.1000937245105E+01
 0.1088239690083E+01
 0.1184471353446E+01
 0.1300375577106E+01
 0.1470536584496E+01
 0.1710691231626E+01
 0.1871523487883E+01
 0.5571043021524E+00
 0.7570769356807E+00
 0.8327723670643E+00
 0.8810691378051E+00
 0.9329527402864E+00
 0.1002012852542E+01
 0.1100912825176E+01
 0.1273456660826E+01
 0.1553963940803E+01
 0.1760727528027E+01
 0.5933985700290E+00
 0.7245455295264E+00
 0.7286460988701E+00
 0.7261470712226E+00
 0.7404538314428E+00
 0.7783047300369E+00
 0.8537957767590E+00
 0.1019180965895E+01
 0.1332376551302E+01
 0.1582478223741E+01
 0.6293917902213E+00
 0.6662412546531E+00
 0.5848029606173E+00
 0.5368582863892E+00
 0.5214951914377E+00
 0.5274378245189E+00
 0.5734199331222E+00
 0.7187967773846E+00
 0.1048107154036E+01
 0.1327687330936E+01
 0.6579933986594E+00
 0.5535116617341E+00
 0.3831766230673E+00
 0.3286057534713E+00
 0.2980177120339E+00
 0.2722162965979E+00
 0.2822455418805E+00
 0.3918762413324E+00
 0.7083153935838E+00
 0.9881457921869E+00
 0.6091504368691E+00
 0.2921543984331E+00
 0.1620851507184E+00
 0.1355247010510E+00
 0.9600957839782E-01
 0.4485109670736E-01
 0.1803892327776E-01
 0.6459987182592E-01
 0.3277669363140E+00
 0.5585481205674E+00
 0.4947349225181E-01
 0.2483410546462E-01
 0.1424442096981E-01
 0.1156335567886E-01
 0.1582041307432E-01
 0.2675397342465E-01
 0.4334297642943E-01
 0.6478940835645E-01
 0.9056073967620E-01
 0.1212521403878E+00
 0.5582694537441E-01
 0.3248748517896E-01
 0.1351329672301E-01
 0.6616893167965E-02
 0.4415017554605E-02
 0.1306944517557E-01
 0.3375639255467E-01
 0.6225919473315E-01
 0.9727023747360E-01
 0.1380582081954E+00
 0.5772304603557E-01
 0.3369253234767E-01
 0.1367458472253E-01
 0.1058530289095E-01
 0.9971149912886E-02
 0.4285113280968E-02
 0.2578832048170E-01
 0.5872998473170E-01
 0.9972563073165E-01
 0.1472668331202E+00
 0.6312638882945E-01
 0.3263690487671E-01
 0.1352132422123E-01
 0.1893427432127E-01
 0.2129690475768E-01
 0.1040503436362E-01
 0.1563535089144E-01
 0.5287524895663E-01
 0.9970111611507E-01
 0.1527723557742E+00
 0.7425835727918E-01
 0.3390754831018E-01
 0.1694459964449E-01
 0.3214339507053E-01
 0.3887355055099E-01
 0.2916311421354E-01
 0.3283895919424E-02
 0.4128178770298E-01
 0.9632341149286E-01
 0.1580623935930E+00
 0.9300205290473E-01
 0.4031508333082E-01
 0.2183904386035E-01
 0.4739698611484E-01
 0.6180947206072E-01
 0.5639245294212E-01
 0.2888198126593E-01
 0.2026372913736E-01
 0.8649938346640E-01
 0.1630925950859E+00
 0.1220176564713E+00
 0.5530388016323E-01
 0.2390004948637E-01
 0.6012755573108E-01
 0.8665198188622E-01
 0.9043303866974E-01
 0.6668182762234E-01
 0.1363311392589E-01
 0.6628916176302E-01
 0.1645967575516E+00
 0.1647284095486E+00
 0.8369749814719E-01
 0.2542261569970E-01
 0.6441601536180E-01
 0.1075165779639E+00
 0.1268990826669E+00
 0.1140542516222E+00
 0.6231136447259E-01
 0.3080479291897E-01
 0.1582802971485E+00
 0.2251775907625E+00
 0.1315270145967E+00
 0.4729729949931E-01
 0.5270127055590E-01
 0.1142683642986E+00
 0.1557652138452E+00
 0.1635216217835E+00
 0.1245141090353E+00
 0.2561166115861E-01
 0.1379211496585E+00
 0.3076429521554E+00
 0.2056096908000E+00
 0.1059200190661E+00
 0.3324663786986E-01
 0.9128421881273E-01
 0.1573770502710E+00
 0.1942559753936E+00
 0.1830845033750E+00
 0.9849082502352E-01
 0.9382352020543E-01
 0.4159306657533E+00
 0.3128567989102E+00
 0.2080834277599E+00
 0.1059653040644E+00
 0.3919762956339E-01
 0.9909999009169E-01
 0.1598546362534E+00
 0.1796144288438E+00
 0.1256386013665E+00
 0.6439416907503E-01
 0.5511843000201E+00
 0.4565721554289E+00
 0.3586622897092E+00
 0.2592072472369E+00
 0.1626403970412E+00
 0.7981836671775E-01
 0.4973814670685E-01
 0.7019669263281E-01
 0.5414306871344E-01
 0.1030796415913E+00
 0.7096948738314E+00
 0.6325980415316E+00
 0.5525261920239E+00
 0.4701394770512E+00
 0.3876525519699E+00
 0.3093789970904E+00
 0.2422778834293E+00
 0.1961562423259E+00
 0.1829149114258E+00
 0.2128402035201E+00
 0.8833263021140E+00
 0.8296698969852E+00
 0.7739427358414E+00
 0.7153357169838E+00
 0.6538381157036E+00
 0.5904338297814E+00
 0.5268898281691E+00
 0.4648482654637E+00
 0.4028654014515E+00
 0.3281677035797E+00
 0.1062399262039E+01
 0.1034571629890E+01
 0.1005009704209E+01
 0.9704948582908E+00
 0.9279997844435E+00
 0.8744192587731E+00
 0.8057154285642E+00
 0.7153773824175E+00
 0.5916836438804E+00
 0.4164549012990E+00
 0.1237856338684E+01
 0.1235813773458E+01
 0.1231181375745E+01
 0.1217628185862E+01
 0.1189071883273E+01
 0.1138547346074E+01
 0.1057019790129E+01
 0.9322729983793E+00
 0.7483012312885E+00
 0.4888054834362E+00
 0.1402189034246E+01
 0.1424642528115E+01
 0.1441638965559E+01
 0.1444050872099E+01
 0.1423773108341E+01
 0.1371255936241E+01
 0.1273767208374E+01
 0.1115390939799E+01
 0.8786358767335E+00
 0.5493249692202E+00
 0.1549908371610E+01
 0.1594615464550E+01
 0.1627222292668E+01
 0.1637749236653E+01
 0.1619317801079E+01
 0.1560964669451E+01
 0.1447496822431E+01
 0.1260127041688E+01
 0.9790564789146E+00
 0.5919629130770E+00
 0.1679384784791E+01
 0.1740906524464E+01
 0.1774472210482E+01
 0.1781862601348E+01
 0.1757239515388E+01
 0.1689062750891E+01
 0.1561758256652E+01
 0.1355911503087E+01
 0.1048318202228E+01
 0.6205197151724E+00
 0.1792299635089E+01
 0.1843807546899E+01
 0.1865097092081E+01
 0.1860247977104E+01
 0.1821798220165E+01
 0.1740624484749E+01
 0.1604784870407E+01
 0.1398526189262E+01
 0.1101143559460E+01
 0.6755828788919E+00
</DataArray>
<DataArray type="Float64" Name="OI" NumberOfComponents="1" ComponentName0="OI" format="ascii">
 0.5580672671371E+01
 0.4994174892211E+01
 0.4487089749649E+01
 0.4252603027410E+01
 0.4057048218300E+01
 0.3898037679218E+01
 0.3759783722137E+01
 0.3642441752436E+01
 0.3552017601373E+01
 0.3506062380195E+01
 0.3508366351882E+01
 0.3498780983348E+01
 0.3424852349215E+01
 0.3309220961472E+01
 0.3188037490531E+01
 0.3076494064954E+01
 0.2996912034156E+01
 0.2952186288279E+01
 0.3055922160172E+01
 0.2624836183609E+01
 0.4989878121923E+01
 0.4643167372549E+01
 0.4787335011017E+01
 0.4407864087537E+01
 0.4142770116075E+01
 0.3952515495257E+01
 0.3792082085724E+01
 0.3655550002590E+01
 0.3539842701639E+01
 0.3447733629622E+01
 0.3378993026981E+01
 0.3321835055319E+01
 0.3254480502746E+01
 0.3159653750877E+01
 0.3035269313149E+01
 0.2889659915113E+01
 0.2731070069715E+01
 0.2552827300111E+01
 0.2347365073695E+01
 0.1957686019758E+01
 0.1372849634808E+01
 0.4103628598436E+01
 0.4087334755620E+01
 0.4389662364346E+01
 0.4247060936835E+01
 0.4013415001679E+01
 0.3831469880165E+01
 0.3676591043061E+01
 0.3542150746066E+01
 0.3425923670765E+01
 0.3325530678389E+01
 0.3232959818446E+01
 0.3137276413957E+01
 0.3032970855463E+01
 0.2914886367840E+01
 0.2774141905587E+01
 0.2606009485874E+01
 0.2407155433271E+01
 0.2165759395598E+01
 0.1844666832904E+01
 0.1375212999116E+01
 0.1281870779172E+01
 0.3773925246628E+01
 0.3698915883014E+01
 0.4016076515291E+01
 0.4019801559418E+01
 0.3859701373415E+01
 0.3696461972717E+01
 0.3550868968537E+01
 0.3419793080652E+01
 0.3301483738067E+01
 0.3190882002959E+01
 0.3078355194513E+01
 0.2956543705611E+01
 0.2826676368240E+01
 0.2688005391637E+01
 0.2530543660237E+01
 0.2343927169259E+01
 0.2120098796458E+01
 0.1846754546829E+01
 0.1504084145790E+01
 0.1174881668209E+01
 0.1543988098999E+01
 0.3502849419051E+01
 0.3399229533081E+01
 0.3691533071654E+01
 0.3772537060698E+01
 0.3683146170666E+01
 0.3549201877381E+01
 0.3415770257059E+01
 0.3289152570419E+01
 0.3168502015709E+01
 0.3048424321848E+01
 0.2920496988057E+01
 0.2780596910346E+01
 0.2632668641889E+01
 0.2477764721415E+01
 0.2306848546889E+01
 0.2108799285945E+01
 0.1875957265089E+01
 0.1603709117481E+01
 0.1313563430162E+01
 0.1183778812450E+01
 0.1785523174797E+01
 0.3289206118599E+01
 0.3152395125289E+01
 0.3410763266513E+01
 0.3528210005036E+01
 0.3493447380304E+01
 0.3391556636818E+01
 0.3272763427073E+01
 0.3151510804184E+01
 0.3029208370906E+01
 0.2901571078971E+01
 0.2762430503783E+01
 0.2610169622184E+01
 0.2449857085971E+01
 0.2283570493594E+01
 0.2104269598761E+01
 0.1902994165732E+01
 0.1676122158569E+01
 0.1432723949498E+01
 0.1230377634655E+01
 0.1279206114086E+01
 0.1949813694511E+01
 0.3121780829118E+01
 0.2939730673746E+01
 0.3164781820068E+01
 0.3295874848388E+01
 0.3299223578534E+01
 0.3226707788652E+01
 0.3123530193499E+01
 0.3008487856109E+01
 0.2885694030051E+01
 0.2752796448440E+01
 0.2606081936990E+01
 0.2445881870709E+01
 0.2277860643918E+01
 0.2105040509344E+01
 0.1922992318524E+01
 0.1726492485536E+01
 0.1518154937416E+01
 0.1320948790984E+01
 0.1214239088043E+01
 0.1391524562841E+01
 0.2051225679290E+01
 0.2988442710261E+01
 0.2750565006030E+01
 0.2945794649992E+01
 0.3078154017498E+01
 0.3106231669868E+01
 0.3058057011028E+01
 0.2969983295298E+01
 0.2861765848421E+01
 0.2739796819745E+01
 0.2603924226317E+01
 0.2452762545945E+01
 0.2288233325632E+01
 0.2116513535453E+01
 0.1941713937444E+01
 0.1762325032775E+01
 0.1577550685366E+01
 0.1396704406595E+01
 0.1253447971350E+01
 0.1234541500638E+01
 0.1492285273348E+01
 0.2109659693132E+01
 0.2879378393291E+01
 0.2578355664700E+01
 0.2747794350802E+01
 0.2874922827434E+01
 0.2917835037106E+01
 0.2888524199006E+01
 0.2814068004553E+01
 0.2712960764522E+01
 0.2593078415110E+01
 0.2456328806867E+01
 0.2303401221645E+01
 0.2137583086705E+01
 0.1965635913435E+01
 0.1792916143854E+01
 0.1620899341726E+01
 0.1453236657221E+01
 0.1305141040993E+01
 0.1216763197415E+01
 0.1270886043548E+01
 0.1573824879242E+01
 0.2139838328687E+01
 0.2787652013896E+01
 0.2418855594861E+01
 0.2566284064662E+01
 0.2684997924278E+01
 0.2735774423476E+01
 0.2720335027835E+01
 0.2657561613707E+01
 0.2563543779058E+01
 0.2446841777154E+01
 0.2311059702938E+01
 0.2158659910863E+01
 0.1994139351393E+01
 0.1824935136200E+01
 0.1657736441515E+01
 0.1496868876842E+01
 0.1349992513471E+01
 0.1236832482471E+01
 0.1200053370948E+01
 0.1311234630734E+01
 0.1636552562969E+01
 0.2152366843302E+01
 0.2707701397800E+01
 0.2269188502429E+01
 0.2398007308859E+01
 0.2507072366999E+01
 0.2561048616606E+01
 0.2555392928955E+01
 0.2502359871322E+01
 0.2415248891690E+01
 0.2302670736638E+01
 0.2169486248290E+01
 0.2019611240163E+01
 0.1858611950446E+01
 0.1694645883299E+01
 0.1535717709385E+01
 0.1388700439188E+01
 0.1264563649735E+01
 0.1186041342597E+01
 0.1195052320440E+01
 0.1348955079202E+01
 0.1682622220497E+01
 0.2155564382804E+01
 0.2635674861442E+01
 0.2127296502486E+01
 0.2240429445261E+01
 0.2339649370835E+01
 0.2393774140425E+01
 0.2394701654903E+01
 0.2349625956206E+01
 0.2269117953980E+01
 0.2161403692690E+01
 0.2032177949354E+01
 0.1886499077002E+01
 0.1730860509370E+01
 0.1574128421636E+01
 0.1425522812964E+01
 0.1294083676256E+01
 0.1193354280949E+01
 0.1147732806733E+01
 0.1196125614462E+01
 0.1381308885087E+01
 0.1716245327879E+01
 0.2151329750772E+01
 0.2585217684206E+01
 0.1991634949984E+01
 0.2091483580587E+01
 0.2181143158760E+01
 0.2233431694009E+01
 0.2238482040717E+01
 0.2199794114193E+01
 0.2125495405847E+01
 0.2023163750710E+01
 0.1898964668594E+01
 0.1758811787537E+01
 0.1609975503232E+01
 0.1461969255388E+01
 0.1325077942344E+01
 0.1210126398160E+01
 0.1132584489504E+01
 0.1117460266067E+01
 0.1199246773097E+01
 0.1407529640981E+01
 0.1739773012763E+01
 0.2145127707373E+01
 0.2538517549701E+01
 0.1861037148369E+01
 0.1949649463662E+01
 0.2030341081622E+01
 0.2079614787575E+01
 0.2087008612471E+01
 0.2053446355270E+01
 0.1984991550023E+01
 0.1888442973377E+01
 0.1770143974422E+01
 0.1636601426891E+01
 0.1495699056321E+01
 0.1357491673922E+01
 0.1233143254998E+01
 0.1134900662078E+01
 0.1079623439127E+01
 0.1092135604830E+01
 0.1201915756892E+01
 0.1427312793500E+01
 0.1755602646227E+01
 0.2136806345676E+01
 0.2497174426304E+01
 0.1734578242191E+01
 0.1813705016123E+01
 0.1886171518607E+01
 0.1931812196278E+01
 0.1940324995399E+01
 0.1910933688334E+01
 0.1848028560594E+01
 0.1757586811048E+01
 0.1645901837082E+01
 0.1519838572957E+01
 0.1387721127167E+01
 0.1260009182582E+01
 0.1148546433242E+01
 0.1066684389427E+01
 0.1032257438654E+01
 0.1069381971980E+01
 0.1202490035874E+01
 0.1440860928040E+01
 0.1765140012774E+01
 0.2126970080791E+01
 0.2461555190326E+01
 0.1611498776035E+01
 0.1682641471250E+01
 0.1747682121983E+01
 0.1789457017651E+01
 0.1798304894393E+01
 0.1772415634613E+01
 0.1714863345621E+01
 0.1630812347037E+01
 0.1526331134776E+01
 0.1408433097767E+01
 0.1285705996306E+01
 0.1168860512263E+01
 0.1070223499905E+01
 0.1003988574070E+01
 0.9886699540952E+00
 0.1047396656751E+01
 0.1199930801397E+01
 0.1448486585637E+01
 0.1769421117606E+01
 0.2116285694326E+01
 0.2431451165597E+01
 0.1491152963563E+01
 0.1555601080106E+01
 0.1614014859581E+01
 0.1651952408362E+01
 0.1660695990656E+01
 0.1637895414185E+01
 0.1585610967557E+01
 0.1508226131963E+01
 0.1411448533639E+01
 0.1302253209155E+01
 0.1189316227642E+01
 0.1083438858963E+01
 0.9972467891133E+00
 0.9455668004947E+00
 0.9474047902820E+00
 0.1024837117825E+01
 0.1193585095252E+01
 0.1450515225199E+01
 0.1769252976455E+01
 0.2105237314510E+01
 0.2406497332127E+01
 0.1372972400392E+01
 0.1431831016480E+01
 0.1484381768742E+01
 0.1518683567058E+01
 0.1527150722688E+01
 0.1507249463717E+01
 0.1460266622527E+01
 0.1389840923157E+01
 0.1301209634116E+01
 0.1201142140166E+01
 0.1098232914545E+01
 0.1003214510333E+01
 0.9288428139949E+00
 0.8904138772993E+00
 0.9073275618804E+00
 0.1000721734479E+01
 0.1183044262241E+01
 0.1447244455736E+01
 0.1765239118991E+01
 0.2094126453784E+01
 0.2386266860811E+01
 0.1256439753113E+01
 0.1310648677104E+01
 0.1358043028911E+01
 0.1389021721106E+01
 0.1397247513342E+01
 0.1380251421290E+01
 0.1338725302524E+01
 0.1275590918899E+01
 0.1195522258967E+01
 0.1104932148143E+01
 0.1012171745561E+01
 0.9277513018911E+00
 0.8644028731686E+00
 0.8377601129388E+00
 0.8675907218143E+00
 0.9743515407943E+00
 0.1168054111634E+01
 0.1438916226609E+01
 0.1757803895290E+01
 0.2083102909478E+01
 0.2370307727867E+01
 0.1141069007629E+01
 0.1191414906048E+01
 0.1234287617526E+01
 0.1262323486955E+01
 0.1270505123339E+01
 0.1256591156869E+01
 0.1220798681300E+01
 0.1165344997327E+01
 0.1094257464578E+01
 0.1013455321998E+01
 0.9308945211559E+00
 0.8567173851886E+00
 0.8034887450951E+00
 0.7870651994990E+00
 0.8276058876357E+00
 0.9452537846181E+00
 0.1148456791585E+01
 0.1425701677960E+01
 0.1747216571170E+01
 0.2072200291016E+01
 0.2358164419071E+01
 0.1026390043915E+01
 0.1073512660836E+01
 0.1112416276395E+01
 0.1137927650064E+01
 0.1146392236626E+01
 0.1135889731113E+01
 0.1106229222190E+01
 0.1058917700604E+01
 0.9972579670030E+00
 0.9265508729188E+00
 0.8542159848184E+00
 0.7898908145295E+00
 0.7458350940785E+00
 0.7380141636565E+00
 0.7870261056685E+00
 0.9131454860244E+00
 0.1124155323811E+01
 0.1407694472047E+01
 0.1733613420524E+01
 0.2061368457668E+01
 0.2349397838876E+01
 0.9119360003840E+00
 0.9563292930406E+00
 0.9917263038910E+00
 0.1015150625649E+01
 0.1024333937818E+01
 0.1017711260597E+01
 0.9947017671499E+00
 0.9560778674857E+00
 0.9043437589626E+00
 0.8440686715285E+00
 0.7820058596494E+00
 0.7271601519763E+00
 0.6913492313413E+00
 0.6905166353469E+00
 0.7457396392377E+00
 0.8779160586337E+00
 0.1095095742010E+01
 0.1384908965632E+01
 0.1717015557794E+01
 0.2050501737294E+01
 0.2343607940807E+01
 0.7972322938037E+00
 0.8392410270482E+00
 0.8714976071841E+00
 0.8932814031650E+00
 0.9037164270043E+00
 0.9015726653206E+00
 0.8858529891749E+00
 0.8565548959212E+00
 0.8153147134922E+00
 0.7658687788314E+00
 0.7141858459831E+00
 0.6685197607279E+00
 0.6401077108490E+00
 0.6447092695486E+00
 0.7038762422110E+00
 0.8396292586049E+00
 0.1061264653606E+01
 0.1357280384677E+01
 0.1697340296288E+01
 0.2039463160525E+01
 0.2340459714954E+01
 0.6817863943752E+00
 0.7215985139795E+00
 0.7509794865645E+00
 0.7715766427500E+00
 0.7838912849098E+00
 0.7869524316588E+00
 0.7792793299034E+00
 0.7600428296338E+00
 0.7299501292004E+00
 0.6918168292650E+00
 0.6507213274907E+00
 0.6140590746255E+00
 0.5923481156739E+00
 0.6009595391950E+00
 0.6618261698535E+00
 0.7985462456470E+00
 0.1022703100119E+01
 0.1324665247165E+01
 0.1674402759265E+01
 0.2028104881288E+01
 0.2339711591892E+01
 0.5650776027948E+00
 0.6027125746307E+00
 0.6293776625885E+00
 0.6492566247448E+00
 0.6641807696496E+00
 0.6732997884087E+00
 0.6745442991666E+00
 0.6662026327345E+00
 0.6480052466814E+00
 0.6217751404550E+00
 0.5916075063975E+00
 0.5639448678002E+00
 0.5484532748127E+00
 0.5598668455092E+00
 0.6202705138332E+00
 0.7551728915902E+00
 0.9795415663896E+00
 0.1286842161015E+01
 0.1647901387252E+01
 0.2016283641590E+01
 0.2341244499083E+01
 0.4465463413234E+00
 0.4818398035142E+00
 0.5058411961041E+00
 0.5255031605149E+00
 0.5438864579390E+00
 0.5600466158367E+00
 0.5711867588746E+00
 0.5746634959251E+00
 0.5692050148493E+00
 0.5555895827690E+00
 0.5368499471465E+00
 0.5183959177394E+00
 0.5089247451006E+00
 0.5222541908632E+00
 0.5802181313000E+00
 0.7103347969414E+00
 0.9320665516226E+00
 0.1243518324566E+01
 0.1617374823505E+01
 0.2003864870707E+01
 0.2345090181788E+01
 0.3255838473543E+00
 0.3581701606175E+00
 0.3794492466616E+00
 0.3994617531468E+00
 0.4223062865491E+00
 0.4466272498086E+00
 0.4687338022156E+00
 0.4850250512616E+00
 0.4932357524350E+00
 0.4930723918244E+00
 0.4864399839261E+00
 0.4776506921026E+00
 0.4743437121405E+00
 0.4891412904606E+00
 0.5430387029817E+00
 0.6652807793949E+00
 0.8808346925522E+00
 0.1194361838505E+01
 0.1582109538751E+01
 0.1990688518031E+01
 0.2351459508372E+01
 0.2015338041012E+00
 0.2308350268035E+00
 0.2491987803379E+00
 0.2702553678616E+00
 0.2987775802524E+00
 0.3325230090849E+00
 0.3667288234466E+00
 0.3968653824206E+00
 0.4197361710864E+00
 0.4339812734259E+00
 0.4403261530646E+00
 0.4419310849684E+00
 0.4453219090122E+00
 0.4616914877222E+00
 0.5104718890448E+00
 0.6218113385835E+00
 0.8268439350588E+00
 0.1139117226408E+01
 0.1540984856392E+01
 0.1976399082777E+01
 0.2360761792738E+01
 0.7390702953422E-01
 0.9917922669821E-01
 0.1140058533591E+00
 0.1370631298913E+00
 0.1728590264136E+00
 0.2174170666186E+00
 0.2648173761442E+00
 0.3097706656365E+00
 0.3482917443683E+00
 0.3779955617773E+00
 0.3983837146733E+00
 0.4114085226415E+00
 0.4224534817276E+00
 0.4411357938686E+00
 0.4845845959054E+00
 0.5824147516797E+00
 0.7717721932996E+00
 0.1077827360050E+01
 0.1492501585040E+01
 0.1959652846825E+01
 0.2373701457093E+01
 0.6068116991627E-01
 0.4331054131991E-01
 0.2776665100812E-01
 0.1066321980266E-01
 0.4727754306576E-01
 0.1023273611940E+00
 0.1631466792088E+00
 0.2234506334515E+00
 0.2784438918349E+00
 0.3246904285732E+00
 0.3603845187949E+00
 0.3861804438650E+00
 0.4062878467870E+00
 0.4286992235486E+00
 0.4676640184196E+00
 0.5503390833501E+00
 0.7183702038891E+00
 0.1010975383609E+01
 0.1435487058046E+01
 0.1937398568394E+01
 0.2386650370128E+01
 0.1990357468173E+00
 0.1871854961594E+00
 0.1766439961612E+00
 0.1467540002658E+00
 0.9581311806313E-01
 0.4050001744142E-01
 0.6624296071412E-01
 0.1380069825973E+00
 0.2094622144573E+00
 0.2732685553050E+00
 0.3257946175619E+00
 0.3661658694331E+00
 0.3973202396111E+00
 0.4256173949451E+00
 0.4621138948311E+00
 0.5295227526489E+00
 0.6705229046336E+00
 0.9398678768864E+00
 0.1367323922786E+01
 0.1909952931557E+01
 0.2396620888628E+01
 0.3453412986741E+00
 0.3424687632846E+00
 0.3349048906913E+00
 0.2981203683553E+00
 0.2332282144647E+00
 0.1516130714642E+00
 0.6811639726406E-01
 0.6054342122733E-01
 0.1412798304052E+00
 0.2230374185714E+00
 0.2941229884755E+00
 0.3513639859539E+00
 0.3961949637739E+00
 0.4333050016311E+00
 0.4705257084941E+00
 0.5247013183304E+00
 0.6345420920059E+00
 0.8678142138750E+00
 0.1287815859688E+01
 0.1871120674979E+01
 0.2453143556940E+01
 0.5009673282819E+00
 0.5095674107933E+00
 0.5036713896129E+00
 0.4568601485396E+00
 0.3765396943793E+00
 0.2774783858139E+00
 0.1703519783702E+00
 0.6847708708621E-01
 0.7676383521790E-01
 0.1733536659457E+00
 0.2648039338837E+00
 0.3417399996892E+00
 0.4036306772927E+00
 0.4533712427722E+00
 0.4956616283621E+00
 0.5410244314862E+00
 0.6192050926655E+00
 0.8026965491876E+00
 0.1196351545937E+01
 0.1827515551250E+01
 0.2523752275957E+01
 0.6683802655400E+00
 0.6912145554633E+00
 0.6843434975859E+00
 0.6229536246187E+00
 0.5246382981163E+00
 0.4079267659623E+00
 0.2822275917468E+00
 0.1535170899049E+00
 0.4716473603403E-01
 0.1233069109811E+00
 0.2368087413770E+00
 0.3369539785780E+00
 0.4202846943055E+00
 0.4876696473838E+00
 0.5406658093400E+00
 0.5836611079509E+00
 0.6344457767436E+00
 0.7566894152135E+00
 0.1095872872007E+01
 0.1771976819214E+01
 0.2611584568857E+01
 0.8512005265373E+00
 0.8910305868764E+00
 0.8779035136109E+00
 0.7957136934562E+00
 0.6769013974252E+00
 0.5423584169791E+00
 0.3990789192547E+00
 0.2501386689698E+00
 0.1015167943726E+00
 0.7289508231274E-01
 0.2087216923138E+00
 0.3363323763754E+00
 0.4466596444775E+00
 0.5382647542180E+00
 0.6093812282786E+00
 0.6586310610017E+00
 0.6911748962689E+00
 0.7487738598421E+00
 0.9948883479053E+00
 0.1691466499769E+01
 0.2722383820396E+01
 0.1055031873712E+01
 0.1113614810424E+01
 0.1084149575124E+01
 0.9733449778779E+00
 0.8325011078600E+00
 0.6806532171633E+00
 0.5207542825980E+00
 0.3534303973099E+00
 0.1803989190981E+00
 0.3509915593964E-01
 0.1785677299760E+00
 0.3386045788606E+00
 0.4827755249600E+00
 0.6070491369470E+00
 0.7060597802134E+00
 0.7731014062184E+00
 0.8017586193175E+00
 0.8042121602052E+00
 0.9169026450251E+00
 0.1570066325963E+01
 0.2862807558236E+01
 0.1289241654475E+01
 0.1364331414488E+01
 0.1300038835728E+01
 0.1152675589182E+01
 0.9905816459499E+00
 0.8227548182248E+00
 0.6475428248310E+00
 0.4635353202159E+00
 0.2696679423634E+00
 0.7046598451618E-01
 0.1435689433102E+00
 0.3415662000449E+00
 0.5278051359392E+00
 0.6952380014721E+00
 0.8346524803111E+00
 0.9345536929390E+00
 0.9802810784067E+00
 0.9535971622841E+00
 0.9158727552856E+00
 0.1396325799726E+01
 0.3038369890043E+01
 0.1571123296006E+01
 0.1647234541377E+01
 0.1516341270959E+01
 0.1329864349763E+01
 0.1150664300153E+01
 0.9685284774227E+00
 0.7797896851185E+00
 0.5811474573671E+00
 0.3692058197112E+00
 0.1425855285273E+00
 0.9982068102721E-01
 0.3417019052143E+00
 0.5797764360929E+00
 0.8030038842597E+00
 0.9979658377374E+00
 0.1149452675609E+01
 0.1238834554145E+01
 0.1233187908642E+01
 0.1083838195670E+01
 0.1207896565872E+01
 0.3247060905032E+01
 0.1937341455746E+01
 0.1953549254611E+01
 0.1713284545472E+01
 0.1504361514630E+01
 0.1312075320668E+01
 0.1117876604323E+01
 0.9178117875086E+00
 0.7068776585371E+00
 0.4802435410688E+00
 0.2322551255685E+00
 0.4193624434104E-01
 0.3337620149838E+00
 0.6353892187572E+00
 0.9294016876311E+00
 0.1197121611670E+01
 0.1421991518645E+01
 0.1583616042431E+01
 0.1666068419540E+01
 0.1554604658987E+01
 0.1258252197097E+01
 0.3463127948469E+01
 0.2484970931528E+01
 0.2191743313722E+01
 0.1884409457583E+01
 0.1677917955014E+01
 0.1473494385617E+01
 0.1271108986131E+01
 0.1061761006489E+01
 0.8411209425075E+00
 0.6036164575805E+00
 0.3411884573443E+00
 0.3961475087968E-01
 0.3101234640304E+00
 0.6902406258720E+00
 0.1072011347941E+01
 0.1432661421454E+01
 0.1751055022456E+01
 0.2019309618647E+01
 0.2226393242118E+01
 0.2447287003442E+01
 0.2188694177593E+01
 0.3936341436614E+01
 0.4260921670668E+00
 0.4302810083906E+00
 0.4445664460275E+00
 0.4459423337700E+00
 0.4271449347064E+00
 0.3865302817918E+00
 0.3278614060752E+00
 0.2589688422872E+00
 0.1854245391456E+00
 0.1040619014038E+00
 0.4034093353496E+00
 0.4228491720252E+00
 0.4504871914010E+00
 0.4635537544228E+00
 0.4533126675597E+00
 0.4175690102897E+00
 0.3595775148471E+00
 0.2866938075625E+00
 0.2004015402363E+00
 0.1041941995992E+00
 0.3817516343123E+00
 0.4208787070877E+00
 0.4629274701812E+00
 0.4871963412591E+00
 0.4847997093517E+00
 0.4533297218006E+00
 0.3955512578553E+00
 0.3169062501483E+00
 0.2204898224694E+00
 0.1178001268549E+00
 0.3617127196803E+00
 0.4234366641411E+00
 0.4812072003103E+00
 0.5166842855248E+00
 0.5218313436060E+00
 0.4944008950579E+00
 0.4365423208015E+00
 0.3530252911121E+00
 0.2491580686821E+00
 0.1375882927877E+00
 0.3434224753969E+00
 0.4302311568590E+00
 0.5047513784093E+00
 0.5517120990238E+00
 0.5644614702639E+00
 0.5412109674608E+00
 0.4838209676268E+00
 0.3967283261731E+00
 0.2858578806647E+00
 0.1635516303466E+00
 0.3269995930503E+00
 0.4409100380199E+00
 0.5330498087045E+00
 0.5918690073824E+00
 0.6125696912771E+00
 0.5940905197280E+00
 0.5381733567152E+00
 0.4486820549916E+00
 0.3312324996381E+00
 0.1970998901602E+00
 0.3125676277070E+00
 0.4550836190136E+00
 0.5655230177078E+00
 0.6366277917326E+00
 0.6658558127093E+00
 0.6530785778747E+00
 0.5999414189137E+00
 0.5095029085093E+00
 0.3864129975608E+00
 0.2404312352968E+00
 0.3002561570842E+00
 0.4723053053091E+00
 0.6014946174194E+00
 0.6853106595949E+00
 0.7237922341973E+00
 0.7178936033527E+00
 0.6691725385320E+00
 0.5797076091138E+00
 0.4527315340341E+00
 0.2961277387058E+00
 0.2901918671981E+00
 0.4920672678998E+00
 0.6401782204390E+00
 0.7370699493631E+00
 0.7856028227859E+00
 0.7879397977696E+00
 0.7455928180934E+00
 0.6595817485467E+00
 0.5314243721935E+00
 0.3668651405728E+00
 0.2824898044949E+00
 0.5138020566121E+00
 0.6806786538657E+00
 0.7908861190075E+00
 0.8502614931192E+00
 0.8622909041721E+00
 0.8285367938930E+00
 0.7489963122493E+00
 0.6233482395665E+00
 0.4550998966981E+00
 0.2772471219199E+00
 0.5368919251814E+00
 0.7220055843415E+00
 0.8455813552702E+00
 0.9164996647126E+00
 0.9396746086211E+00
 0.9168700160717E+00
 0.8472134891719E+00
 0.7286376851056E+00
 0.5625802315314E+00
 0.2745404035502E+00
 0.5606858156510E+00
 0.7630984114788E+00
 0.8998455425538E+00
 0.9828258338908E+00
 0.1018470740842E+01
 0.1008937548667E+01
 0.9527174252252E+00
 0.8462509563308E+00
 0.6892700676346E+00
 0.2744266966431E+00
 0.5845232014194E+00
 0.8028607161126E+00
 0.9522742180788E+00
 0.1047560149187E+01
 0.1096732419032E+01
 0.1102555718549E+01
 0.1063133239514E+01
 0.9736165853332E+00
 0.8322667329223E+00
 0.2769476733628E+00
 0.6077631262085E+00
 0.8402025109121E+00
 0.1001418412706E+01
 0.1108886736012E+01
 0.1172234053569E+01
 0.1195054690100E+01
 0.1175277098321E+01
 0.1106751575731E+01
 0.9860960632359E+00
 0.2821360897830E+00
 0.6298161901402E+00
 0.8740876353315E+00
 0.1045845913082E+01
 0.1164926380139E+01
 0.1242549647577E+01
 0.1283369129542E+01
 0.1285322653988E+01
 0.1240731348730E+01
 0.1143965282191E+01
 0.2900243214532E+00
 0.6501767598003E+00
 0.9035814862099E+00
 0.1084211270053E+01
 0.1213832833207E+01
 0.1305166142493E+01
 0.1364170881330E+01
 0.1389016175733E+01
 0.1370159131205E+01
 0.1298748368909E+01
 0.3006568240526E+00
 0.6684530523660E+00
 0.9278903218608E+00
 0.1115326144903E+01
 0.1253914845141E+01
 0.1357644093661E+01
 0.1434036143533E+01
 0.1481877386768E+01
 0.1489479673849E+01
 0.1443488381480E+01
 0.3141135322691E+00
 0.6843946047335E+00
 0.9463780270665E+00
 0.1138209376741E+01
 0.1283777241989E+01
 0.1397849790008E+01
 0.1489675010374E+01
 0.1559328085192E+01
 0.1593122778032E+01
 0.1571535063112E+01
 0.3305563005506E+00
 0.6979311883406E+00
 0.9585385331350E+00
 0.1152071611157E+01
 0.1302454723756E+01
 0.1424279663802E+01
 0.1528327555152E+01
 0.1616829117680E+01
 0.1675240292945E+01
 0.1676745274078E+01
 0.3504861651355E+00
 0.7090377098056E+00
 0.9639176256592E+00
 0.1156316244056E+01
 0.1309272407076E+01
 0.1436521527684E+01
 0.1548582210226E+01
 0.1650278603410E+01
 0.1729346256719E+01
 0.1755016260013E+01
 0.8374306365018E+00
 0.2586107635271E+00
 0.9599540270455E-02
 0.7869822087754E-01
 0.1123958435379E+00
 0.1152550052080E+00
 0.9078599086913E-01
 0.4351977817688E-01
 0.1357623785284E-01
 0.7201791700575E-01
 0.8771605056508E+00
 0.5712608777955E+00
 0.1992679482640E+00
 0.4014259730957E-01
 0.3533417964879E-01
 0.6694795361119E-01
 0.6461229480241E-01
 0.3539854315924E-01
 0.6444329246865E-02
 0.4896803405039E-01
 0.8036737407126E+00
 0.6444055261320E+00
 0.3666470237153E+00
 0.1685229513190E+00
 0.5389163588739E-01
 0.6554458242949E-02
 0.2813887959340E-01
 0.1985193827791E-01
 0.2923699160770E-02
 0.2908659273278E-01
 0.7285548163739E+00
 0.6389037045171E+00
 0.4440680401186E+00
 0.2678280420142E+00
 0.1393473385740E+00
 0.5788054662000E-01
 0.1476895260495E-01
 0.1919358109007E-02
 0.4704536766780E-02
 0.1418074406145E-01
 0.6617686178724E+00
 0.6059054706460E+00
 0.4717238592602E+00
 0.3289695076172E+00
 0.2079336338982E+00
 0.1180874444238E+00
 0.5938823449464E-01
 0.2740928152170E-01
 0.1284913068904E-01
 0.6072181976583E-02
 0.6048654545904E+00
 0.5653904308816E+00
 0.4737572822464E+00
 0.3636921089633E+00
 0.2584568486787E+00
 0.1699860631102E+00
 0.1028503570979E+00
 0.5672211141285E-01
 0.2754687766406E-01
 0.6799996584519E-02
 0.5567238952018E+00
 0.5261268151439E+00
 0.4648414526851E+00
 0.3832480937843E+00
 0.2962797384158E+00
 0.2145346751371E+00
 0.1445814960307E+00
 0.8929553213253E-01
 0.4956054382039E-01
 0.1625829784660E-01
 0.5158162498375E+00
 0.4920876625924E+00
 0.4537226786753E+00
 0.3965255564902E+00
 0.3278266548289E+00
 0.2554460495568E+00
 0.1861463749171E+00
 0.1252781770808E+00
 0.7887091269695E-01
 0.3685191082317E-01
 0.4806617945021E+00
 0.4649506812452E+00
 0.4455982696916E+00
 0.4100231153673E+00
 0.3591056300118E+00
 0.2973412554276E+00
 0.2307802020964E+00
 0.1654242248898E+00
 0.1128233879375E+00
 0.6884248922634E-01
 0.4502607613393E+00
 0.4447881543674E+00
 0.4432792503690E+00
 0.4283388056978E+00
 0.3953169210139E+00
 0.3450304455238E+00
 0.2822771385906E+00
 0.2141013476090E+00
 0.1503017863245E+00
 0.1038961713966E+00
 0.3842743309726E+00
 0.7309319830183E+00
 0.9756147253061E+00
 0.1163236899755E+01
 0.1316361226079E+01
 0.1448833584618E+01
 0.1568279273572E+01
 0.1681517452576E+01
 0.1782006041330E+01
 0.1836198307093E+01
 0.4203952282632E+00
 0.7573606672985E+00
 0.9879274240495E+00
 0.1165489096275E+01
 0.1314233641578E+01
 0.1447889720547E+01
 0.1572988597321E+01
 0.1701225170075E+01
 0.1829425740401E+01
 0.1899254165106E+01
 0.4543433725143E+00
 0.7735733408561E+00
 0.9821554568233E+00
 0.1141083316492E+01
 0.1277596602286E+01
 0.1406234972019E+01
 0.1534523052222E+01
 0.1680572989016E+01
 0.1841517637730E+01
 0.1930995893613E+01
 0.4879980843767E+00
 0.7791428152039E+00
 0.9557051560835E+00
 0.1086996597048E+01
 0.1203028605625E+01
 0.1319423257505E+01
 0.1445174289898E+01
 0.1605867526232E+01
 0.1804661681030E+01
 0.1924880882625E+01
 0.5220534305672E+00
 0.7740338057025E+00
 0.9067778165532E+00
 0.1000937245105E+01
 0.1088239690083E+01
 0.1184471353446E+01
 0.1300375577106E+01
 0.1470536584496E+01
 0.1710691231626E+01
 0.1871523487883E+01
 0.5571043021524E+00
 0.7570769356807E+00
 0.8327723670643E+00
 0.8810691378051E+00
 0.9329527402864E+00
 0.1002012852542E+01
 0.1100912825176E+01
 0.1273456660826E+01
 0.1553963940803E+01
 0.1760727528027E+01
 0.5933985700290E+00
 0.7245455295264E+00
 0.7286460988701E+00
 0.7261470712226E+00
 0.7404538314428E+00
 0.7783047300369E+00
 0.8537957767590E+00
 0.1019180965895E+01
 0.1332376551302E+01
 0.1582478223741E+01
 0.6293917902213E+00
 0.6662412546531E+00
 0.5848029606173E+00
 0.5368582863892E+00
 0.5214951914377E+00
 0.5274378245189E+00
 0.5734199331222E+00
 0.7187967773846E+00
 0.1048107154036E+01
 0.1327687330936E+01
 0.6579933986594E+00
 0.5535116617341E+00
 0.3831766230673E+00
 0.3286057534713E+00
 0.2980177120339E+00
 0.2722162965979E+00
 0.2822455418805E+00
 0.3918762413324E+00
 0.7083153935838E+00
 0.9881457921869E+00
 0.6091504368691E+00
 0.2921543984331E+00
 0.1620851507184E+00
 0.1355247010510E+00
 0.9600957839782E-01
 0.4485109670736E-01
 0.1803892327776E-01
 0.6459987182592E-01
 0.3277669363140E+00
 0.5585481205674E+00
 0.4947349225181E-01
 0.2483410546462E-01
 0.1424442096981E-01
 0.1156335567886E-01
 0.1582041307432E-01
 0.2675397342465E-01
 0.4334297642943E-01
 0.6478940835645E-01
 0.9056073967620E-01
 0.1212521403878E+00
 0.5582694537441E-01
 0.3248748517896E-01
 0.1351329672301E-01
 0.6616893167965E-02
 0.4415017554605E-02
 0.1306944517557E-01
 0.3375639255467E-01
 0.6225919473315E-01
 0.9727023747360E-01
 0.1380582081954E+00
 0.5772304603557E-01
 0.3369253234767E-01
 0.1367458472253E-01
 0.1058530289095E-01
 0.9971149912886E-02
 0.4285113280968E-02
 0.2578832048170E-01
 0.5872998473170E-01
 0.9972563073165E-01
 0.1472668331202E+00
 0.6312638882945E-01
 0.3263690487671E-01
 0.1352132422123E-01
 0.1893427432127E-01
 0.2129690475768E-01
 0.1040503436362E-01
 0.1563535089144E-01
 0.5287524895663E-01
 0.9970111611507E-01
 0.1527723557742E+00
 0.7425835727918E-01
 0.3390754831018E-01
 0.1694459964449E-01
 0.3214339507053E-01
 0.3887355055099E-01
 0.2916311421354E-01
 0.3283895919424E-02
 0.4128178770298E-01
 0.9632341149286E-01
 0.1580623935930E+00
 0.9300205290473E-01
 0.4031508333082E-01
 0.2183904386035E-01
 0.4739698611484E-01
 0.6180947206072E-01
 0.5639245294212E-01
 0.2888198126593E-01
 0.2026372913736E-01
 0.8649938346640E-01
 0.1630925950859E+00
 0.1220176564713E+00
 0.5530388016323E-01
 0.2390004948637E-01
 0.6012755573108E-01
 0.8665198188622E-01
 0.9043303866974E-01
 0.6668182762234E-01
 0.1363311392589E-01
 0.6628916176302E-01
 0.1645967575516E+00
 0.1647284095486E+00
 0.8369749814719E-01
 0.2542261569970E-01
 0.6441601536180E-01
 0.1075165779639E+00
 0.1268990826669E+00
 0.1140542516222E+00
 0.6231136447259E-01
 0.3080479291897E-01
 0.1582802971485E+00
 0.2251775907625E+00
 0.1315270145967E+00
 0.4729729949931E-01
 0.5270127055590E-01
 0.1142683642986E+00
 0.1557652138452E+00
 0.1635216217835E+00
 0.1245141090353E+00
 0.2561166115861E-01
 0.1379211496585E+00
 0.3076429521554E+00
 0.2056096908000E+00
 0.1059200190661E+00
 0.3324663786986E-01
 0.9128421881273E-01
 0.1573770502710E+00
 0.1942559753936E+00
 0.1830845033750E+00
 0.9849082502352E-01
 0.9382352020543E-01
 0.4159306657533E+00
 0.3128567989102E+00
 0.2080834277599E+00
 0.1059653040644E+00
 0.3919762956339E-01
 0.9909999009169E-01
 0.1598546362534E+00
 0.1796144288438E+00
 0.1256386013665E+00
 0.6439416907503E-01
 0.5511843000201E+00
 0.4565721554289E+00
 0.3586622897092E+00
 0.2592072472369E+00
 0.1626403970412E+00
 0.7981836671775E-01
 0.4973814670685E-01
 0.7019669263281E-01
 0.5414306871344E-01
 0.1030796415913E+00
 0.7096948738314E+00
 0.6325980415316E+00
 0.5525261920239E+00
 0.4701394770512E+00
 0.3876525519699E+00
 0.3093789970904E+00
 0.2422778834293E+00
 0.1961562423259E+00
 0.1829149114258E+00
 0.2128402035201E+00
 0.8833263021140E+00
 0.8296698969852E+00
 0.7739427358414E+00
 0.7153357169838E+00
 0.6538381157036E+00
 0.5904338297814E+00
 0.5268898281691E+00
 0.4648482654637E+00
 0.4028654014515E+00
 0.3281677035797E+00
 0.1062399262039E+01
 0.1034571629890E+01
 0.1005009704209E+01
 0.9704948582908E+00
 0.9279997844435E+00
 0.8744192587731E+00
 0.8057154285642E+00
 0.7153773824175E+00
 0.5916836438804E+00
 0.4164549012990E+00
 0.1237856338684E+01
 0.1235813773458E+01
 0.1231181375745E+01
 0.1217628185862E+01
 0.1189071883273E+01
 0.1138547346074E+01
 0.1057019790129E+01
 0.9322729983793E+00
 0.7483012312885E+00
 0.4888054834362E+00
 0.1402189034246E+01
 0.1424642528115E+01
 0.1441638965559E+01
 0.1444050872099E+01
 0.1423773108341E+01
 0.1371255936241E+01
 0.1273767208374E+01
 0.1115390939799E+01
 0.8786358767335E+00
 0.5493249692202E+00
 0.1549908371610E+01
 0.1594615464550E+01
 0.1627222292668E+01
 0.1637749236653E+01
 0.1619317801079E+01
 0.1560964669451E+01
 0.1447496822431E+01
 0.1260127041688E+01
 0.9790564789146E+00
 0.5919629130770E+00
 0.1679384784791E+01
 0.1740906524464E+01
 0.1774472210482E+01
 0.1781862601348E+01
 0.1757239515388E+01
 0.1689062750891E+01
 0.1561758256652E+01
 0.1355911503087E+01
 0.1048318202228E+01
 0.6205197151724E+00
 0.1792299635089E+01
 0.1843807546899E+01
 0.1865097092081E+01
 0.1860247977104E+01
 0.1821798220165E+01
 0.1740624484749E+01
 0.1604784870407E+01
 0.1398526189262E+01
 0.1101143559460E+01
 0.6755828788919E+00
</DataArray>
<DataArray type="Float64" Name="CK" NumberOfComponents="1" ComponentName0="CK" format="ascii">
 0.0000000000000E+00
 0.0000000000000E+00
 0.0000000000000E+00
 0.0000000000000E+00
 0.0000000000000E+00
 0.0000000000000E+00
 0.0000000000000E+00
 0.0000000000000E+00
 0.0000000000000E+00
 0.0000000000000E+00
 0.0000000000000E+00
 0.0000000000000E+00
 0.0000000000000E+00
 0.0000000000000E+00
 0.0000000000000E+00
 0.0000000000000E+00
 0.0000000000000E+00
 0.0000000000000E+00
 0.0000000000000E+00
 0.0000000000000E+00
 0.0000000000000E+00
 0.0000000000000E+00
 0.0000000000000E+00
 0.0000000000000E+00
 0.0000000000000E+00
 0.0000000000000E+00
 0.0000000000000E+00
 0.0000000000000E+00
 0.0000000000000E+00
 0.0000000000000E+00
 0.0000000000000E+00
 0.0000000000000E+00
 0.0000000000000E+00
 0.0000000000000E+00
 0.0000000000000E+00
 0.0000000000000E+00
 0.0000000000000E+00
 0.0000000000000E+00
 0.0000000000000E+00
 0.0000000000000E+00
 0.0000000000000E+00
 0.0000000000000E+00
 0.0000000000000E+00
 0.0000000000000E+00
 0.0000000000000E+00
 0.0000000000000E+00
 0.0000000000000E+00
 0.0000000000000E+00
 0.0000000000000E+00
 0.0000000000000E+00
 0.0000000000000E+00
 0.0000000000000E+00
 0.0000000000000E+00
 0.0000000000000E+00
 0.0000000000000E+00
 0.0000000000000E+00
 0.0000000000000E+00
 0.0000000000000E+00
 0.0000000000000E+00
 0.0000000000000E+00
 0.0000000000000E+00
 0.0000000000000E+00
 0.0000000000000E+00
 0.0000000000000E+00
 0.0000000000000E+00
 0.0000000000000E+00
 0.0000000000000E+00
 0.0000000000000E+00
 0.0000000000000E+00
 0.0000000000000E+00
 0.0000000000000E+00
 0.0000000000000E+00
 0.0000000000000E+00
 0.0000000000000E+00
 0.0000000000000E+00
 0.0000000000000E+00
 0.0000000000000E+00
 0.0000000000000E+00
 0.0000000000000E+00
 0.0000000000000E+00
 0.0000000000000E+00
 0.0000000000000E+00
 0.0000000000000E+00
 0.0000000000000E+00
 0.0000000000000E+00
 0.0000000000000E+00
 0.0000000000000E+00
 0.0000000000000E+00
 0.0000000000000E+00
 0.0000000000000E+00
 0.0000000000000E+00
 0.0000000000000E+00
 0.0000000000000E+00
 0.0000000000000E+00
 0.0000000000000E+00
 0.0000000000000E+00
 0.0000000000000E+00
 0.0000000000000E+00
 0.0000000000000E+00
 0.0000000000000E+00
 0.0000000000000E+00
 0.0000000000000E+00
 0.0000000000000E+00
 0.0000000000000E+00
 0.0000000000000E+00
 0.0000000000000E+00
 0.0000000000000E+00
 0.0000000000000E+00
 0.0000000000000E+00
 0.0000000000000E+00
 0.0000000000000E+00
 0.0000000000000E+00
 0.0000000000000E+00
 0.0000000000000E+00
 0.0000000000000E+00
 0.0000000000000E+00
 0.0000000000000E+00
 0.0000000000000E+00
 0.0000000000000E+00
 0.0000000000000E+00
 0.0000000000000E+00
 0.0000000000000E+00
 0.0000000000000E+00
 0.0000000000000E+00
 0.0000000000000E+00
 0.0000000000000E+00
 0.0000000000000E+00
 0.0000000000000E+00
 0.0000000000000E+00
 0.0000000000000E+00
 0.0000000000000E+00
 0.0000000000000E+00
 0.0000000000000E+00
 0.0000000000000E+00
 0.0000000000000E+00
 0.0000000000000E+00
 0.0000000000000E+00
 0.0000000000000E+00
 0.0000000000000E+00
 0.0000000000000E+00
 0.0000000000000E+00
 0.0000000000000E+00
 0.0000000000000E+00
 0.0000000000000E+00
 0.0000000000000E+00
 0.0000000000000E+00
 0.0000000000000E+00
 0.0000000000000E+00
 0.0000000000000E+00
 0.0000000000000E+00
 0.0000000000000E+00
 0.0000000000000E+00
 0.0000000000000E+00
 0.0000000000000E+00
 0.0000000000000E+00
 0.0000000000000E+00
 0.0000000000000E+00
 0.0000000000000E+00
 0.0000000000000E+00
 0.0000000000000E+00
 0.0000000000000E+00
 0.0000000000000E+00
 0.0000000000000E+00
 0.0000000000000E+00
 0.0000000000000E+00
 0.0000000000000E+00
 0.0000000000000E+00
 0.0000000000000E+00
 0.0000000000000E+00
 0.0000000000000E+00
 0.0000000000000E+00
 0.0000000000000E+00
 0.0000000000000E+00
 0.0000000000000E+00
 0.0000000000000E+00
 0.0000000000000E+00
 0.0000000000000E+00
 0.0000000000000E+00
 0.0000000000000E+00
 0.0000000000000E+00
 0.0000000000000E+00
 0.0000000000000E+00
 0.0000000000000E+00
 0.0000000000000E+00
 0.0000000000000E+00
 0.0000000000000E+00
 0.0000000000000E+00
 0.0000000000000E+00
 0.0000000000000E+00
 0.0000000000000E+00
 0.0000000000000E+00
 0.0000000000000E+00
 0.0000000000000E+00
 0.0000000000000E+00
 0.0000000000000E+00
 0.0000000000000E+00
 0.0000000000000E+00
 0.0000000000000E+00
 0.0000000000000E+00
 0.0000000000000E+00
 0.0000000000000E+00
 0.0000000000000E+00
 0.0000000000000E+00
 0.0000000000000E+00
 0.0000000000000E+00
 0.0000000000000E+00
 0.0000000000000E+00
 0.0000000000000E+00
 0.0000000000000E+00
 0.0000000000000E+00
 0.0000000000000E+00
 0.0000000000000E+00
 0.0000000000000E+00
 0.0000000000000E+00
 0.0000000000000E+00
 0.0000000000000E+00
 0.0000000000000E+00
 0.0000000000000E+00
 0.0000000000000E+00
 0.0000000000000E+00
 0.0000000000000E+00
 0.0000000000000E+00
 0.0000000000000E+00
 0.0000000000000E+00
 0.0000000000000E+00
 0.0000000000000E+00
 0.0000000000000E+00
 0.0000000000000E+00
 0.0000000000000E+00
 0.0000000000000E+00
 0.0000000000000E+00
 0.0000000000000E+00
 0.0000000000000E+00
 0.0000000000000E+00
 0.0000000000000E+00
 0.0000000000000E+00
 0.0000000000000E+00
 0.0000000000000E+00
 0.0000000000000E+00
 0.0000000000000E+00
 0.0000000000000E+00
 0.0000000000000E+00
 0.0000000000000E+00
 0.0000000000000E+00
 0.0000000000000E+00
 0.0000000000000E+00
 0.0000000000000E+00
 0.0000000000000E+00
 0.0000000000000E+00
 0.0000000000000E+00
 0.0000000000000E+00
 0.0000000000000E+00
 0.0000000000000E+00
 0.0000000000000E+00
 0.0000000000000E+00
 0.0000000000000E+00
 0.0000000000000E+00
 0.0000000000000E+00
 0.0000000000000E+00
 0.0000000000000E+00
 0.0000000000000E+00
 0.0000000000000E+00
 0.0000000000000E+00
 0.0000000000000E+00
 0.0000000000000E+00
 0.0000000000000E+00
 0.0000000000000E+00
 0.0000000000000E+00
 0.0000000000000E+00
 0.0000000000000E+00
 0.0000000000000E+00
 0.0000000000000E+00
 0.0000000000000E+00
 0.0000000000000E+00
 0.0000000000000E+00
 0.0000000000000E+00
 0.0000000000000E+00
 0.0000000000000E+00
 0.0000000000000E+00
 0.0000000000000E+00
 0.0000000000000E+00
 0.0000000000000E+00
 0.0000000000000E+00
 0.0000000000000E+00
 0.0000000000000E+00
 0.0000000000000E+00
 0.0000000000000E+00
 0.0000000000000E+00
 0.0000000000000E+00
 0.0000000000000E+00
 0.0000000000000E+00
 0.0000000000000E+00
 0.0000000000000E+00
 0.0000000000000E+00
 0.0000000000000E+00
 0.0000000000000E+00
 0.0000000000000E+00
 0.0000000000000E+00
 0.0000000000000E+00
 0.0000000000000E+00
 0.0000000000000E+00
 0.0000000000000E+00
 0.0000000000000E+00
 0.0000000000000E+00
 0.0000000000000E+00
 0.0000000000000E+00
 0.0000000000000E+00
 0.0000000000000E+00
 0.0000000000000E+00
 0.0000000000000E+00
 0.0000000000000E+00
 0.0000000000000E+00
 0.0000000000000E+00
 0.0000000000000E+00
 0.0000000000000E+00
 0.0000000000000E+00
 0.0000000000000E+00
 0.0000000000000E+00
 0.0000000000000E+00
 0.0000000000000E+00
 0.0000000000000E+00
 0.0000000000000E+00
 0.0000000000000E+00
 0.0000000000000E+00
 0.0000000000000E+00
 0.0000000000000E+00
 0.0000000000000E+00
 0.0000000000000E+00
 0.0000000000000E+00
 0.0000000000000E+00
 0.0000000000000E+00
 0.0000000000000E+00
 0.0000000000000E+00
 0.0000000000000E+00
 0.0000000000000E+00
 0.0000000000000E+00
 0.0000000000000E+00
 0.0000000000000E+00
 0.0000000000000E+00
 0.0000000000000E+00
 0.0000000000000E+00
 0.0000000000000E+00
 0.0000000000000E+00
 0.0000000000000E+00
 0.0000000000000E+00
 0.0000000000000E+00
 0.0000000000000E+00
 0.0000000000000E+00
 0.0000000000000E+00
 0.0000000000000E+00
 0.0000000000000E+00
 0.0000000000000E+00
 0.0000000000000E+00
 0.0000000000000E+00
 0.0000000000000E+00
 0.0000000000000E+00
 0.0000000000000E+00
 0.0000000000000E+00
 0.0000000000000E+00
 0.0000000000000E+00
 0.0000000000000E+00
 0.0000000000000E+00
 0.0000000000000E+00
 0.0000000000000E+00
 0.0000000000000E+00
 0.0000000000000E+00
 0.0000000000000E+00
 0.0000000000000E+00
 0.0000000000000E+00
 0.0000000000000E+00
 0.0000000000000E+00
 0.0000000000000E+00
 0.0000000000000E+00
 0.0000000000000E+00
 0.0000000000000E+00
 0.0000000000000E+00
 0.0000000000000E+00
 0.0000000000000E+00
 0.0000000000000E+00
 0.0000000000000E+00
 0.0000000000000E+00
 0.0000000000000E+00
 0.0000000000000E+00
 0.0000000000000E+00
 0.0000000000000E+00
 0.0000000000000E+00
 0.0000000000000E+00
 0.0000000000000E+00
 0.0000000000000E+00
 0.0000000000000E+00
 0.0000000000000E+00
 0.0000000000000E+00
 0.0000000000000E+00
 0.0000000000000E+00
 0.0000000000000E+00
 0.0000000000000E+00
 0.0000000000000E+00
 0.0000000000000E+00
 0.0000000000000E+00
 0.0000000000000E+00
 0.0000000000000E+00
 0.0000000000000E+00
 0.0000000000000E+00
 0.0000000000000E+00
 0.0000000000000E+00
 0.0000000000000E+00
 0.0000000000000E+00
 0.0000000000000E+00
 0.0000000000000E+00
 0.0000000000000E+00
 0.0000000000000E+00
 0.0000000000000E+00
 0.0000000000000E+00
 0.0000000000000E+00
 0.0000000000000E+00
 0.0000000000000E+00
 0.0000000000000E+00
 0.0000000000000E+00
 0.0000000000000E+00
 0.0000000000000E+00
 0.0000000000000E+00
 0.0000000000000E+00
 0.0000000000000E+00
 0.0000000000000E+00
 0.0000000000000E+00
 0.0000000000000E+00
 0.0000000000000E+00
 0.0000000000000E+00
 0.0000000000000E+00
 0.0000000000000E+00
 0.0000000000000E+00
 0.0000000000000E+00
 0.0000000000000E+00
 0.0000000000000E+00
 0.0000000000000E+00
 0.0000000000000E+00
 0.0000000000000E+00
 0.0000000000000E+00
 0.0000000000000E+00
 0.0000000000000E+00
 0.0000000000000E+00
 0.0000000000000E+00
 0.0000000000000E+00
 0.0000000000000E+00
 0.0000000000000E+00
 0.0000000000000E+00
 0.0000000000000E+00
 0.0000000000000E+00
 0.0000000000000E+00
 0.0000000000000E+00
 0.0000000000000E+00
 0.0000000000000E+00
 0.0000000000000E+00
 0.0000000000000E+00
 0.0000000000000E+00
 0.0000000000000E+00
 0.0000000000000E+00
 0.0000000000000E+00
 0.0000000000000E+00
 0.0000000000000E+00
 0.0000000000000E+00
 0.0000000000000E+00
 0.0000000000000E+00
 0.0000000000000E+00
 0.0000000000000E+00
 0.0000000000000E+00
 0.0000000000000E+00
 0.0000000000000E+00
 0.0000000000000E+00
 0.0000000000000E+00
 0.0000000000000E+00
 0.0000000000000E+00
 0.0000000000000E+00
 0.0000000000000E+00
 0.0000000000000E+00
 0.0000000000000E+00
 0.0000000000000E+00
 0.0000000000000E+00
 0.0000000000000E+00
 0.0000000000000E+00
 0.0000000000000E+00
 0.0000000000000E+00
 0.0000000000000E+00
 0.0000000000000E+00
 0.0000000000000E+00
 0.0000000000000E+00
 0.0000000000000E+00
 0.0000000000000E+00
 0.0000000000000E+00
 0.0000000000000E+00
 0.0000000000000E+00
 0.0000000000000E+00
 0.0000000000000E+00
 0.0000000000000E+00
 0.0000000000000E+00
 0.0000000000000E+00
 0.0000000000000E+00
 0.0000000000000E+00
 0.0000000000000E+00
 0.0000000000000E+00
 0.0000000000000E+00
 0.0000000000000E+00
 0.0000000000000E+00
 0.0000000000000E+00
 0.0000000000000E+00
 0.0000000000000E+00
 0.0000000000000E+00
 0.0000000000000E+00
 0.0000000000000E+00
 0.0000000000000E+00
 0.0000000000000E+00
 0.0000000000000E+00
 0.0000000000000E+00
 0.0000000000000E+00
 0.0000000000000E+00
 0.0000000000000E+00
 0.0000000000000E+00
 0.0000000000000E+00
 0.0000000000000E+00
 0.0000000000000E+00
 0.0000000000000E+00
 0.0000000000000E+00
 0.0000000000000E+00
 0.0000000000000E+00
 0.0000000000000E+00
 0.0000000000000E+00
 0.0000000000000E+00
 0.0000000000000E+00
 0.0000000000000E+00
 0.0000000000000E+00
 0.0000000000000E+00
 0.0000000000000E+00
 0.0000000000000E+00
 0.0000000000000E+00
 0.0000000000000E+00
 0.0000000000000E+00
 0.0000000000000E+00
 0.0000000000000E+00
 0.0000000000000E+00
 0.0000000000000E+00
 0.0000000000000E+00
 0.0000000000000E+00
 0.0000000000000E+00
 0.0000000000000E+00
 0.0000000000000E+00
 0.0000000000000E+00
 0.0000000000000E+00
 0.0000000000000E+00
 0.0000000000000E+00
 0.0000000000000E+00
 0.0000000000000E+00
 0.0000000000000E+00
 0.0000000000000E+00
 0.0000000000000E+00
 0.0000000000000E+00
 0.0000000000000E+00
 0.0000000000000E+00
 0.0000000000000E+00
 0.0000000000000E+00
 0.0000000000000E+00
 0.0000000000000E+00
 0.0000000000000E+00
 0.0000000000000E+00
 0.0000000000000E+00
 0.0000000000000E+00
 0.0000000000000E+00
 0.0000000000000E+00
 0.0000000000000E+00
 0.0000000000000E+00
 0.0000000000000E+00
 0.0000000000000E+00
 0.0000000000000E+00
 0.0000000000000E+00
 0.0000000000000E+00
 0.0000000000000E+00
 0.0000000000000E+00
 0.0000000000000E+00
 0.0000000000000E+00
 0.0000000000000E+00
 0.0000000000000E+00
 0.0000000000000E+00
 0.0000000000000E+00
 0.0000000000000E+00
 0.0000000000000E+00
 0.0000000000000E+00
 0.0000000000000E+00
 0.0000000000000E+00
 0.0000000000000E+00
 0.0000000000000E+00
 0.0000000000000E+00
 0.0000000000000E+00
 0.0000000000000E+00
 0.0000000000000E+00
 0.0000000000000E+00
 0.0000000000000E+00
 0.0000000000000E+00
 0.0000000000000E+00
 0.0000000000000E+00
 0.0000000000000E+00
 0.0000000000000E+00
 0.0000000000000E+00
 0.0000000000000E+00
 0.0000000000000E+00
 0.0000000000000E+00
 0.0000000000000E+00
 0.0000000000000E+00
 0.0000000000000E+00
 0.0000000000000E+00
 0.0000000000000E+00
 0.0000000000000E+00
 0.0000000000000E+00
 0.0000000000000E+00
 0.0000000000000E+00
 0.0000000000000E+00
 0.0000000000000E+00
 0.0000000000000E+00
 0.0000000000000E+00
 0.0000000000000E+00
 0.0000000000000E+00
 0.0000000000000E+00
 0.0000000000000E+00
 0.0000000000000E+00
 0.0000000000000E+00
 0.0000000000000E+00
 0.0000000000000E+00
 0.0000000000000E+00
 0.0000000000000E+00
 0.0000000000000E+00
 0.0000000000000E+00
 0.0000000000000E+00
 0.0000000000000E+00
 0.0000000000000E+00
 0.0000000000000E+00
 0.0000000000000E+00
 0.0000000000000E+00
 0.0000000000000E+00
 0.0000000000000E+00
 0.0000000000000E+00
 0.0000000000000E+00
 0.0000000000000E+00
 0.0000000000000E+00
 0.0000000000000E+00
 0.0000000000000E+00
 0.0000000000000E+00
 0.0000000000000E+00
 0.0000000000000E+00
 0.0000000000000E+00
 0.0000000000000E+00
 0.0000000000000E+00
 0.0000000000000E+00
 0.0000000000000E+00
 0.0000000000000E+00
 0.0000000000000E+00
 0.0000000000000E+00
 0.0000000000000E+00
 0.0000000000000E+00
 0.0000000000000E+00
 0.0000000000000E+00
 0.0000000000000E+00
 0.0000000000000E+00
 0.0000000000000E+00
 0.0000000000000E+00
 0.0000000000000E+00
 0.0000000000000E+00
 0.0000000000000E+00
 0.0000000000000E+00
 0.0000000000000E+00
 0.0000000000000E+00
 0.0000000000000E+00
 0.0000000000000E+00
 0.0000000000000E+00
 0.0000000000000E+00
 0.0000000000000E+00
 0.0000000000000E+00
 0.0000000000000E+00
 0.0000000000000E+00
 0.0000000000000E+00
 0.0000000000000E+00
 0.0000000000000E+00
 0.0000000000000E+00
 0.0000000000000E+00
 0.0000000000000E+00
 0.0000000000000E+00
 0.0000000000000E+00
 0.0000000000000E+00
 0.0000000000000E+00
 0.0000000000000E+00
 0.0000000000000E+00
 0.0000000000000E+00
 0.0000000000000E+00
 0.0000000000000E+00
 0.0000000000000E+00
 0.0000000000000E+00
 0.0000000000000E+00
 0.0000000000000E+00
 0.0000000000000E+00
 0.0000000000000E+00
 0.0000000000000E+00
 0.0000000000000E+00
 0.0000000000000E+00
 0.0000000000000E+00
 0.0000000000000E+00
 0.0000000000000E+00
 0.0000000000000E+00
 0.0000000000000E+00
 0.0000000000000E+00
 0.0000000000000E+00
 0.0000000000000E+00
 0.0000000000000E+00
 0.0000000000000E+00
 0.0000000000000E+00
 0.0000000000000E+00
 0.0000000000000E+00
 0.0000000000000E+00
 0.0000000000000E+00
 0.0000000000000E+00
 0.0000000000000E+00
 0.0000000000000E+00
 0.0000000000000E+00
 0.0000000000000E+00
 0.0000000000000E+00
 0.0000000000000E+00
 0.0000000000000E+00
 0.0000000000000E+00
 0.0000000000000E+00
 0.0000000000000E+00
 0.0000000000000E+00
 0.0000000000000E+00
 0.0000000000000E+00
 0.0000000000000E+00
 0.0000000000000E+00
 0.0000000000000E+00
 0.0000000000000E+00
 0.0000000000000E+00
 0.0000000000000E+00
 0.0000000000000E+00
 0.0000000000000E+00
 0.0000000000000E+00
 0.0000000000000E+00
 0.0000000000000E+00
 0.0000000000000E+00
 0.0000000000000E+00
 0.0000000000000E+00
 0.0000000000000E+00
 0.0000000000000E+00
 0.0000000000000E+00
 0.0000000000000E+00
 0.0000000000000E+00
 0.0000000000000E+00
 0.0000000000000E+00
 0.0000000000000E+00
 0.0000000000000E+00
 0.0000000000000E+00
 0.0000000000000E+00
 0.0000000000000E+00
 0.0000000000000E+00
 0.0000000000000E+00
 0.0000000000000E+00
 0.0000000000000E+00
 0.0000000000000E+00
 0.0000000000000E+00
 0.0000000000000E+00
 0.0000000000000E+00
 0.0000000000000E+00
 0.0000000000000E+00
 0.0000000000000E+00
 0.0000000000000E+00
 0.0000000000000E+00
 0.0000000000000E+00
 0.0000000000000E+00
 0.0000000000000E+00
 0.0000000000000E+00
 0.0000000000000E+00
 0.0000000000000E+00
 0.0000000000000E+00
 0.0000000000000E+00
 0.0000000000000E+00
 0.0000000000000E+00
 0.0000000000000E+00
 0.0000000000000E+00
 0.0000000000000E+00
 0.0000000000000E+00
 0.0000000000000E+00
 0.0000000000000E+00
 0.0000000000000E+00
 0.0000000000000E+00
 0.0000000000000E+00
 0.0000000000000E+00
 0.0000000000000E+00
 0.0000000000000E+00
 0.0000000000000E+00
 0.0000000000000E+00
 0.0000000000000E+00
 0.0000000000000E+00
 0.0000000000000E+00
 0.0000000000000E+00
 0.0000000000000E+00
 0.0000000000000E+00
 0.0000000000000E+00
 0.0000000000000E+00
 0.0000000000000E+00
 0.0000000000000E+00
 0.0000000000000E+00
 0.0000000000000E+00
 0.0000000000000E+00
 0.0000000000000E+00
 0.0000000000000E+00
 0.0000000000000E+00
 0.0000000000000E+00
 0.0000000000000E+00
 0.0000000000000E+00
 0.0000000000000E+00
 0.0000000000000E+00
 0.0000000000000E+00
 0.0000000000000E+00
 0.0000000000000E+00
 0.0000000000000E+00
 0.0000000000000E+00
 0.0000000000000E+00
 0.0000000000000E+00
 0.0000000000000E+00
 0.0000000000000E+00
 0.0000000000000E+00
 0.0000000000000E+00
 0.0000000000000E+00
 0.0000000000000E+00
 0.0000000000000E+00
 0.0000000000000E+00
 0.0000000000000E+00
 0.0000000000000E+00
 0.0000000000000E+00
 0.0000000000000E+00
 0.0000000000000E+00
 0.0000000000000E+00
 0.0000000000000E+00
 0.0000000000000E+00
 0.0000000000000E+00
 0.0000000000000E+00
 0.0000000000000E+00
 0.0000000000000E+00
 0.0000000000000E+00
 0.0000000000000E+00
 0.0000000000000E+00
 0.0000000000000E+00
 0.0000000000000E+00
 0.0000000000000E+00
 0.0000000000000E+00
 0.0000000000000E+00
 0.0000000000000E+00
 0.0000000000000E+00
 0.0000000000000E+00
 0.0000000000000E+00
 0.0000000000000E+00
 0.0000000000000E+00
 0.0000000000000E+00
 0.0000000000000E+00
 0.0000000000000E+00
 0.0000000000000E+00
 0.0000000000000E+00
 0.0000000000000E+00
 0.0000000000000E+00
 0.0000000000000E+00
 0.0000000000000E+00
 0.0000000000000E+00
 0.0000000000000E+00
 0.0000000000000E+00
 0.0000000000000E+00
 0.0000000000000E+00
 0.0000000000000E+00
 0.0000000000000E+00
 0.0000000000000E+00
 0.0000000000000E+00
 0.0000000000000E+00
 0.0000000000000E+00
 0.0000000000000E+00
 0.0000000000000E+00
 0.0000000000000E+00
 0.0000000000000E+00
 0.0000000000000E+00
 0.0000000000000E+00
 0.0000000000000E+00
 0.0000000000000E+00
 0.0000000000000E+00
 0.0000000000000E+00
 0.0000000000000E+00
 0.0000000000000E+00
 0.0000000000000E+00
 0.0000000000000E+00
 0.0000000000000E+00
 0.0000000000000E+00
 0.0000000000000E+00
 0.0000000000000E+00
 0.0000000000000E+00
 0.0000000000000E+00
 0.0000000000000E+00
 0.0000000000000E+00
 0.0000000000000E+00
 0.0000000000000E+00
 0.0000000000000E+00
 0.0000000000000E+00
 0.0000000000000E+00
 0.0000000000000E+00
 0.0000000000000E+00
 0.0000000000000E+00
 0.0000000000000E+00
 0.0000000000000E+00
 0.0000000000000E+00
 0.0000000000000E+00
 0.0000000000000E+00
 0.0000000000000E+00
 0.0000000000000E+00
 0.0000000000000E+00
 0.0000000000000E+00
 0.0000000000000E+00
 0.0000000000000E+00
 0.0000000000000E+00
 0.0000000000000E+00
 0.0000000000000E+00
 0.0000000000000E+00
 0.0000000000000E+00
 0.0000000000000E+00
 0.0000000000000E+00
 0.0000000000000E+00
 0.0000000000000E+00
 0.0000000000000E+00
 0.0000000000000E+00
 0.0000000000000E+00
 0.0000000000000E+00
 0.0000000000000E+00
 0.0000000000000E+00
 0.0000000000000E+00
 0.0000000000000E+00
 0.0000000000000E+00
 0.0000000000000E+00
 0.0000000000000E+00
 0.0000000000000E+00
 0.0000000000000E+00
 0.0000000000000E+00
 0.0000000000000E+00
 0.0000000000000E+00
 0.0000000000000E+00
 0.0000000000000E+00
 0.0000000000000E+00
 0.0000000000000E+00
 0.0000000000000E+00
 0.0000000000000E+00
 0.0000000000000E+00
 0.0000000000000E+00
 0.0000000000000E+00
 0.0000000000000E+00
 0.0000000000000E+00
 0.0000000000000E+00
 0.0000000000000E+00
 0.0000000000000E+00
 0.0000000000000E+00
 0.0000000000000E+00
 0.0000000000000E+00
 0.0000000000000E+00
 0.0000000000000E+00
 0.0000000000000E+00
 0.0000000000000E+00
 0.0000000000000E+00
 0.0000000000000E+00
 0.0000000000000E+00
 0.0000000000000E+00
 0.0000000000000E+00
 0.0000000000000E+00
 0.0000000000000E+00
 0.0000000000000E+00
 0.0000000000000E+00
 0.0000000000000E+00
 0.0000000000000E+00
 0.0000000000000E+00
 0.0000000000000E+00
 0.0000000000000E+00
 0.0000000000000E+00
 0.0000000000000E+00
 0.0000000000000E+00
 0.0000000000000E+00
 0.0000000000000E+00
 0.0000000000000E+00
 0.0000000000000E+00
 0.0000000000000E+00
 0.0000000000000E+00
 0.0000000000000E+00
 0.0000000000000E+00
 0.0000000000000E+00
 0.0000000000000E+00
 0.0000000000000E+00
 0.0000000000000E+00
 0.0000000000000E+00
 0.0000000000000E+00
 0.0000000000000E+00
 0.0000000000000E+00
 0.0000000000000E+00
 0.0000000000000E+00
 0.0000000000000E+00
 0.0000000000000E+00
 0.0000000000000E+00
 0.0000000000000E+00
 0.0000000000000E+00
 0.0000000000000E+00
 0.0000000000000E+00
 0.0000000000000E+00
 0.0000000000000E+00
 0.0000000000000E+00
 0.0000000000000E+00
 0.0000000000000E+00
 0.0000000000000E+00
 0.0000000000000E+00
 0.0000000000000E+00
 0.0000000000000E+00
 0.0000000000000E+00
 0.0000000000000E+00
 0.0000000000000E+00
 0.0000000000000E+00
 0.0000000000000E+00
 0.0000000000000E+00
 0.0000000000000E+00
 0.0000000000000E+00
 0.0000000000000E+00
 0.0000000000000E+00
 0.0000000000000E+00
 0.0000000000000E+00
 0.0000000000000E+00
 0.0000000000000E+00
 0.0000000000000E+00
 0.0000000000000E+00
 0.0000000000000E+00
 0.0000000000000E+00
 0.0000000000000E+00
 0.0000000000000E+00
 0.0000000000000E+00
 0.0000000000000E+00
 0.0000000000000E+00
 0.0000000000000E+00
 0.0000000000000E+00
 0.0000000000000E+00
 0.0000000000000E+00
 0.0000000000000E+00
 0.0000000000000E+00
 0.0000000000000E+00
 0.0000000000000E+00
 0.0000000000000E+00
 0.0000000000000E+00
 0.0000000000000E+00
 0.0000000000000E+00
 0.0000000000000E+00
 0.0000000000000E+00
 0.0000000000000E+00
 0.0000000000000E+00
 0.0000000000000E+00
 0.0000000000000E+00
 0.0000000000000E+00
 0.0000000000000E+00
 0.0000000000000E+00
 0.0000000000000E+00
 0.0000000000000E+00
 0.0000000000000E+00
 0.0000000000000E+00
 0.0000000000000E+00
 0.0000000000000E+00
 0.0000000000000E+00
 0.0000000000000E+00
 0.0000000000000E+00
 0.0000000000000E+00
 0.0000000000000E+00
 0.0000000000000E+00
 0.0000000000000E+00
 0.0000000000000E+00
 0.0000000000000E+00
 0.0000000000000E+00
 0.0000000000000E+00
 0.0000000000000E+00
 0.0000000000000E+00
 0.0000000000000E+00
 0.0000000000000E+00
 0.0000000000000E+00
 0.0000000000000E+00
 0.0000000000000E+00
 0.0000000000000E+00
 0.0000000000000E+00
 0.0000000000000E+00
 0.0000000000000E+00
 0.0000000000000E+00
 0.0000000000000E+00
 0.0000000000000E+00
 0.0000000000000E+00
 0.0000000000000E+00
 0.0000000000000E+00
 0.0000000000000E+00
 0.0000000000000E+00
 0.0000000000000E+00
 0.0000000000000E+00
 0.0000000000000E+00
 0.0000000000000E+00
 0.0000000000000E+00
 0.0000000000000E+00
 0.0000000000000E+00
 0.0000000000000E+00
 0.0000000000000E+00
 0.0000000000000E+00
 0.0000000000000E+00
 0.0000000000000E+00
 0.0000000000000E+00
 0.0000000000000E+00
 0.0000000000000E+00
 0.0000000000000E+00
 0.0000000000000E+00
 0.0000000000000E+00
 0.0000000000000E+00
 0.0000000000000E+00
 0.0000000000000E+00
 0.0000000000000E+00
 0.0000000000000E+00
 0.0000000000000E+00
 0.0000000000000E+00
 0.0000000000000E+00
 0.0000000000000E+00
 0.0000000000000E+00
 0.0000000000000E+00
 0.0000000000000E+00
 0.0000000000000E+00
 0.0000000000000E+00
 0.0000000000000E+00
 0.0000000000000E+00
 0.0000000000000E+00
 0.0000000000000E+00
 0.0000000000000E+00
 0.0000000000000E+00
 0.0000000000000E+00
 0.0000000000000E+00
 0.0000000000000E+00
 0.0000000000000E+00
 0.0000000000000E+00
 0.0000000000000E+00
 0.0000000000000E+00
 0.0000000000000E+00
 0.0000000000000E+00
 0.0000000000000E+00
 0.0000000000000E+00
 0.0000000000000E+00
 0.0000000000000E+00
 0.0000000000000E+00
 0.0000000000000E+00
 0.0000000000000E+00
 0.0000000000000E+00
 0.0000000000000E+00
 0.0000000000000E+00
 0.0000000000000E+00
 0.0000000000000E+00
 0.0000000000000E+00
 0.0000000000000E+00
 0.0000000000000E+00
 0.0000000000000E+00
 0.0000000000000E+00
 0.0000000000000E+00
 0.0000000000000E+00
 0.0000000000000E+00
 0.0000000000000E+00
 0.0000000000000E+00
 0.0000000000000E+00
 0.0000000000000E+00
 0.0000000000000E+00
 0.0000000000000E+00
 0.0000000000000E+00
 0.0000000000000E+00
 0.0000000000000E+00
 0.0000000000000E+00
 0.0000000000000E+00
 0.0000000000000E+00
 0.0000000000000E+00
 0.0000000000000E+00
 0.0000000000000E+00
 0.0000000000000E+00
 0.0000000000000E+00
 0.0000000000000E+00
 0.0000000000000E+00
 0.0000000000000E+00
 0.0000000000000E+00
 0.0000000000000E+00
 0.0000000000000E+00
 0.0000000000000E+00
 0.0000000000000E+00
 0.0000000000000E+00
 0.0000000000000E+00
 0.0000000000000E+00
 0.0000000000000E+00
 0.0000000000000E+00
 0.0000000000000E+00
 0.0000000000000E+00
 0.0000000000000E+00
 0.0000000000000E+00
 0.0000000000000E+00
 0.0000000000000E+00
 0.0000000000000E+00
 0.0000000000000E+00
 0.0000000000000E+00
 0.0000000000000E+00
 0.0000000000000E+00
 0.0000000000000E+00
 0.0000000000000E+00
 0.0000000000000E+00
 0.0000000000000E+00
 0.0000000000000E+00
 0.0000000000000E+00
 0.0000000000000E+00
 0.0000000000000E+00
 0.0000000000000E+00
 0.0000000000000E+00
 0.0000000000000E+00
 0.0000000000000E+00
 0.0000000000000E+00
 0.0000000000000E+00
 0.0000000000000E+00
 0.0000000000000E+00
 0.0000000000000E+00
 0.0000000000000E+00
 0.0000000000000E+00
 0.0000000000000E+00
 0.0000000000000E+00
 0.0000000000000E+00
 0.0000000000000E+00
 0.0000000000000E+00
 0.0000000000000E+00
 0.0000000000000E+00
 0.0000000000000E+00
 0.0000000000000E+00
 0.0000000000000E+00
 0.0000000000000E+00
 0.0000000000000E+00
 0.0000000000000E+00
 0.0000000000000E+00
 0.0000000000000E+00
 0.0000000000000E+00
 0.0000000000000E+00
 0.0000000000000E+00
 0.0000000000000E+00
 0.0000000000000E+00
 0.0000000000000E+00
 0.0000000000000E+00
 0.0000000000000E+00
 0.0000000000000E+00
 0.0000000000000E+00
 0.0000000000000E+00
 0.0000000000000E+00
 0.0000000000000E+00
 0.0000000000000E+00
 0.0000000000000E+00
 0.0000000000000E+00
 0.0000000000000E+00
 0.0000000000000E+00
 0.0000000000000E+00
 0.0000000000000E+00
 0.0000000000000E+00
 0.0000000000000E+00
 0.0000000000000E+00
 0.0000000000000E+00
 0.0000000000000E+00
 0.0000000000000E+00
 0.0000000000000E+00
 0.0000000000000E+00
 0.0000000000000E+00
 0.0000000000000E+00
 0.0000000000000E+00
 0.0000000000000E+00
 0.0000000000000E+00
 0.0000000000000E+00
 0.0000000000000E+00
 0.0000000000000E+00
 0.0000000000000E+00
 0.0000000000000E+00
 0.0000000000000E+00
 0.0000000000000E+00
 0.0000000000000E+00
 0.0000000000000E+00
 0.0000000000000E+00
 0.0000000000000E+00
 0.0000000000000E+00
 0.0000000000000E+00
 0.0000000000000E+00
 0.0000000000000E+00
 0.0000000000000E+00
 0.0000000000000E+00
 0.0000000000000E+00
 0.0000000000000E+00
 0.0000000000000E+00
 0.0000000000000E+00
 0.0000000000000E+00
 0.0000000000000E+00
 0.0000000000000E+00
 0.0000000000000E+00
 0.0000000000000E+00
 0.0000000000000E+00
 0.0000000000000E+00
 0.0000000000000E+00
 0.0000000000000E+00
 0.0000000000000E+00
 0.0000000000000E+00
 0.0000000000000E+00
 0.0000000000000E+00
 0.0000000000000E+00
 0.0000000000000E+00
 0.0000000000000E+00
 0.0000000000000E+00
 0.0000000000000E+00
 0.0000000000000E+00
 0.0000000000000E+00
 0.0000000000000E+00
 0.0000000000000E+00
 0.0000000000000E+00
 0.0000000000000E+00
 0.0000000000000E+00
 0.0000000000000E+00
 0.0000000000000E+00
 0.0000000000000E+00
 0.0000000000000E+00
 0.0000000000000E+00
 0.0000000000000E+00
 0.0000000000000E+00
 0.0000000000000E+00
 0.0000000000000E+00
 0.0000000000000E+00
 0.0000000000000E+00
 0.0000000000000E+00
 0.0000000000000E+00
 0.0000000000000E+00
 0.0000000000000E+00
 0.0000000000000E+00
 0.0000000000000E+00
 0.0000000000000E+00
 0.0000000000000E+00
 0.0000000000000E+00
 0.0000000000000E+00
 0.0000000000000E+00
 0.0000000000000E+00
 0.0000000000000E+00
 0.0000000000000E+00
 0.0000000000000E+00
 0.0000000000000E+00
 0.0000000000000E+00
 0.0000000000000E+00
 0.0000000000000E+00
 0.0000000000000E+00
 0.0000000000000E+00
 0.0000000000000E+00
 0.0000000000000E+00
 0.0000000000000E+00
 0.0000000000000E+00
 0.0000000000000E+00
 0.0000000000000E+00
 0.0000000000000E+00
 0.0000000000000E+00
 0.0000000000000E+00
 0.0000000000000E+00
 0.0000000000000E+00
 0.0000000000000E+00
 0.0000000000000E+00
 0.0000000000000E+00
 0.0000000000000E+00
 0.0000000000000E+00
 0.0000000000000E+00
 0.0000000000000E+00
 0.0000000000000E+00
 0.0000000000000E+00
 0.0000000000000E+00
 0.0000000000000E+00
 0.0000000000000E+00
 0.0000000000000E+00
 0.0000000000000E+00
 0.0000000000000E+00
 0.0000000000000E+00
 0.0000000000000E+00
 0.0000000000000E+00
 0.0000000000000E+00
 0.0000000000000E+00
 0.0000000000000E+00
 0.0000000000000E+00
 0.0000000000000E+00
 0.0000000000000E+00
 0.0000000000000E+00
 0.0000000000000E+00
 0.0000000000000E+00
 0.0000000000000E+00
 0.0000000000000E+00
 0.0000000000000E+00
 0.0000000000000E+00
 0.0000000000000E+00
 0.0000000000000E+00
 0.0000000000000E+00
 0.0000000000000E+00
 0.0000000000000E+00
 0.0000000000000E+00
 0.0000000000000E+00
 0.0000000000000E+00
 0.0000000000000E+00
 0.0000000000000E+00
 0.0000000000000E+00
 0.0000000000000E+00
 0.0000000000000E+00
 0.0000000000000E+00
 0.0000000000000E+00
 0.0000000000000E+00
 0.0000000000000E+00
 0.0000000000000E+00
 0.0000000000000E+00
 0.0000000000000E+00
 0.0000000000000E+00
 0.0000000000000E+00
 0.0000000000000E+00
 0.0000000000000E+00
 0.0000000000000E+00
 0.0000000000000E+00
 0.0000000000000E+00
 0.0000000000000E+00
 0.0000000000000E+00
 0.0000000000000E+00
 0.0000000000000E+00
 0.0000000000000E+00
 0.0000000000000E+00
 0.0000000000000E+00
 0.0000000000000E+00
 0.0000000000000E+00
 0.0000000000000E+00
 0.0000000000000E+00
 0.0000000000000E+00
 0.0000000000000E+00
 0.0000000000000E+00
 0.0000000000000E+00
 0.0000000000000E+00
 0.0000000000000E+00
 0.0000000000000E+00
 0.0000000000000E+00
 0.0000000000000E+00
 0.0000000000000E+00
 0.0000000000000E+00
 0.0000000000000E+00
 0.0000000000000E+00
 0.0000000000000E+00
 0.0000000000000E+00
</DataArray>
<DataArray type="Int32" Name="Region" format="ascii">
           1
           1
           1
           1
           1
           1
           1
           1
           1
           1
           1
           1
           1
           1
           1
           1
           1
           1
           1
           1
           1
           1
           1
           1
           1
           1
           1
           1
           1
           1
           1
           1
           1
           1
           1
           1
           1
           1
           1
           1
           1
           1
           1
           1
           1
           1
           1
           1
           1
           1
           1
           1
           1
           1
           1
           1
           1
           1
           1
           1
           1
           1
           1
           1
           1
           1
           1
           1
           1
           1
           1
           1
           1
           1
           1
           1
           1
           1
           1
           1
           1
           1
           1
           1
           1
           1
           1
           1
           1
           1
           1
           1
           1
           1
           1
           1
           1
           1
           1
           1
           1
           1
           1
           1
           1
           1
           1
           1
           1
           1
           1
           1
           1
           1
           1
           1
           1
           1
           1
           1
           1
           1
           1
           1
           1
           1
           1
           1
           1
           1
           1
           1
           1
           1
           1
           1
           1
           1
           1
           1
           1
           1
           1
           1
           1
           1
           1
           1
           1
           1
           1
           1
           1
           1
           1
           1
           1
           1
           1
           1
           1
           1
           1
           1
           1
           1
           1
           1
           1
           1
           1
           1
           1
           1
           1
           1
           1
           1
           1
           1
           1
           1
           1
           1
           1
           1
           1
           1
           1
           1
           1
           1
           1
           1
           1
           1
           1
           1
           1
           1
           1
           1
           1
           1
           1
           1
           1
           1
           1
           1
           1
           1
           1
           1
           1
           1
           1
           1
           1
           1
           1
           1
           1
           1
           1
           1
           1
           1
           1
           1
           1
           1
           1
           1
           1
           1
           1
           1
           1
           1
           1
           1
           1
           1
           1
           1
           1
           1
           1
           1
           1
           1
           1
           1
           1
           1
           1
           1
           1
           1
           1
           1
           1
           1
           1
           1
           1
           1
           1
           1
           1
           1
           1
           1
           1
           1
           1
           1
           1
           1
           1
           1
           1
           1
           1
           1
           1
           1
           1
           1
           1
           1
           1
           1
           1
           1
           1
           1
           1
           1
           1
           1
           1
           1
           1
           1
           1
           1
           1
           1
           1
           1
           1
           1
           1
           1
           1
           1
           1
           1
           1
           1
           1
           1
           1
           1
           1
           1
           1
           1
           1
           1
           1
           1
           1
           1
           1
           1
           1
           1
           1
           1
           1
           1
           1
           1
           1
           1
           1
           1
           1
           1
           1
           1
           1
           1
           1
           1
           1
           1
           1
           1
           1
           1
           1
           1
           1
           1
           1
           1
           1
           1
           1
           1
           1
           1
           1
           1
           1
           1
           1
           1
           1
           1
           1
           1
           1
           1
           1
           1
           1
           1
           1
           1
           1
           1
           1
           1
           1
           1
           1
           1
           1
           1
           1
           1
           1
           1
           1
           1
           1
           1
           1
           1
           1
           1
           1
           1
           1
           1
           1
           1
           1
           1
           1
           1
           1
           1
           1
           1
           1
           1
           1
           1
           1
           1
           1
           1
           1
           1
           1
           1
           1
           1
           1
           1
           1
           1
           1
           1
           1
           1
           1
           1
           1
           1
           1
           1
           1
           1
           1
           1
           1
           1
           1
           1
           1
           1
           1
           1
           1
           1
           1
           1
           1
           1
           1
           1
           1
           1
           1
           1
           1
           1
           1
           1
           1
           1
           1
           1
           1
           1
           1
           1
           1
           1
           1
           1
           1
           1
           1
           1
           1
           1
           1
           1
           1
           1
           1
           1
           1
           1
           1
           1
           1
           1
           1
           1
           1
           1
           1
           1
           1
           1
           1
           1
           1
           1
           1
           1
           1
           1
           1
           1
           1
           1
           1
           1
           1
           1
           1
           1
           1
           1
           1
           1
           1
           1
           1
           1
           1
           1
           1
           1
           1
           1
           1
           1
           1
           1
           1
           1
           1
           1
           1
           1
           1
           1
           1
           1
           1
           1
           1
           1
           1
           1
           1
           1
           1
           1
           1
           1
           1
           1
           1
           1
           1
           1
           1
           1
           1
           1
           1
           1
           1
           1
           1
           1
           1
           1
           1
           1
           1
           1
           1
           1
           1
           1
           1
           1
           1
           1
           1
           1
           1
           1
           1
           1
           1
           1
           1
           1
           1
           1
           1
           1
           1
           1
           1
           1
           1
           1
           1
           1
           1
           1
           1
           1
           1
           1
           1
           1
           1
           1
           1
           1
           1
           1
           1
           1
           1
           1
           1
           1
           1
           1
           1
           1
           1
           1
           1
           1
           1
           1
           1
           1
           1
           1
           1
           1
           1
           1
           1
           1
           1
           1
           1
           1
           1
           1
           1
           1
           1
           1
           1
           1
           1
           1
           1
           1
           1
           1
           1
           1
           1
           1
           1
           1
           1
           1
           1
           1
           1
           1
           1
           1
           1
           1
           1
           1
           1
           1
           1
           1
           1
           1
           1
           1
           1
           1
           1
           1
           1
           1
           1
           1
           1
           1
           1
           1
           1
           1
           1
           1
           1
           1
           1
           1
           1
           1
           1
           1
           1
           1
           1
           1
           1
           1
           1
           1
           1
           1
           1
           1
           1
           1
           1
           1
           1
           1
           1
           1
           1
           1
           1
           1
           1
           1
           1
           1
           1
           1
           1
           1
           1
           1
           1
           1
           1
           1
           1
           1
           1
           1
           1
           1
           1
           1
           1
           1
           1
           1
           1
           1
           1
           1
           1
           1
           1
           1
           1
           1
           1
           1
           1
           1
           1
           1
           1
           1
           1
           1
           1
           1
           1
           1
           1
           1
           1
           1
           1
           1
           1
           1
           1
           1
           1
           1
           1
           1
           1
           1
           1
           1
           1
           1
           1
           1
           1
           1
           2
           2
           2
           2
           2
           2
           2
           2
           2
           2
           2
           2
           2
           2
           2
           2
           2
           2
           2
           2
           2
           2
           2
           2
           2
           2
           2
           2
           2
           2
           2
           2
           2
           2
           2
           2
           2
           2
           2
           2
           2
           2
           2
           2
           2
           2
           2
           2
           2
           2
           2
           2
           2
           2
           2
           2
           2
           2
           2
           2
           2
           2
           2
           2
           2
           2
           2
           2
           2
           2
           2
           2
           2
           2
           2
           2
           2
           2
           2
           2
           2
           2
           2
           2
           2
           2
           2
           2
           2
           2
           2
           2
           2
           2
           2
           2
           2
           2
           2
           2
           2
           2
           2
           2
           2
           2
           2
           2
           2
           2
           2
           2
           2
           2
           2
           2
           2
           2
           2
           2
           2
           2
           2
           2
           2
           2
           2
           2
           2
           2
           2
           2
           2
           2
           2
           2
           2
           2
           2
           2
           2
           2
           2
           2
           2
           2
           2
           2
           2
           2
           2
           2
           2
           2
           2
           2
           2
           2
           2
           2
           2
           2
           2
           2
           2
           2
           2
           2
           2
           2
           2
           2
           2
           2
           2
           2
           2
           2
           2
           2
           2
           2
           2
           2
           2
           2
           2
           2
           2
           2
           2
           2
           2
           2
           2
           2
           2
           2
           2
           2
           2
           2
           2
           2
           2
           2
           2
           2
           2
           2
           2
           2
           2
           2
           2
           2
           2
           2
           2
           2
           2
           2
           2
           2
           2
           2
           2
           2
           2
           2
           2
           2
           2
           2
           2
           2
           2
           2
           2
           2
           2
           2
           2
           2
           2
           2
           2
           2
           2
           2
           2
           2
           2
           2
           2
           2
           2
           2
           2
           2
           2
           2
           2
           2
           2
           2
           2
           2
           2
           2
           2
           2
           2
           2
           2
           2
           2
           2
           2
           2
           2
           2
           2
           2
           2
           2
           2
           2
           2
           2
           2
           2
           2
           2
           2
           2
           2
           2
           2
           2
           2
           2
           2
           2
           2
           2
           2
           2
           2
           2
           2
           2
           2
           2
           2
           2
           2
           2
           2
           2
           2
           2
           2
           2
           2
           2
           2
           2
           2
           2
           2
           2
           2
           2
           2
           2
           2
           2
           2
           2
           2
           2
           2
           2
           2
           2
           2
           2
           2
           2
           2
           2
           2
           2
           2
           2
           2
           2
           2
           2
           2
           2
           2
           2
           2
           2
           2
           2
           2
           2
           2
           2
           2
           2
           2
           2
           2
           2
           2
           2
           2
           2
           2
           2
           2
           2
           2
           2
           2
           2
           2
           2
           2
           2
           2
           2
           2
           2
           2
           2
           2
           2
           2
           2
           2
           2
           2
           2
           2
           2
           2
           2
           2
           2
           2
           2
           2
           2
           2
           2
           2
           2
           2
           2
           2
           2
           2
           2
           2
           2
           2
           2
           2
           2
           2
           2
           2
           2
           2
           2
           2
           2
           2
           2
           2
           2
           2
           2
           2
           2
           2
           2
           2
           2
           2
           2
           2
           2
           2
           2
           2
           2
           2
           2
           2
           2
           2
           2
           2
           2
           2
           2
           2
           2
           2
           2
           2
           2
           2
           2
           2
           2
           2
           2
           2
           2
           2
           2
           2
           2
           2
           2
           2
           2
           2
           2
           2
           2
           2
           2
           2
           2
           2
           2
           2
           2
           2
           2
           2
           2
           2
           2
           2
           2
           2
           2
           2
           2
           2
           2
           2
           2
           2
           2
           2
           2
           2
           2
           2
           2
           2
           2
           2
           2
           2
           2
           2
           2
           2
           2
           2
           2
           2
           2
           2
           2
           2
           2
           2
           2
           2
           2
           2
           2
           2
           2
           2
           2
           2
           2
           2
           2
           2
           2
           2
           2
           2
           2
           2
           2
           2
           2
           2
           2
           2
           2
           2
           2
           2
           2
           2
           2
           2
           2
           2
           2
           2
           2
           2
           2
           2
           2
           2
           2
           2
           2
           2
           2
           2
           2
</DataArray>
</CellData>
</Piece>
</UnstructuredGrid>
</VTKFile>
